x	y	stress_xx
 1.0000000000e+00	 0.0000000000e+00	 1.7244208233e-01
 9.9979421360e-01	 2.0285918027e-02	 1.8272481640e-01
 9.9917015173e-01	 4.0730438957e-02	 2.1591053757e-01
 9.9811797387e-01	 6.1322427094e-02	 2.7127406152e-01
 9.9662815290e-01	 8.2050164801e-02	 3.4813723650e-01
 9.9469151154e-01	 1.0290135811e-01	 4.4587767516e-01
 9.9229925915e-01	 1.2386314479e-01	 5.6393728450e-01
 9.8944302882e-01	 1.4492210489e-01	 7.0183048629e-01
 9.8611491462e-01	 1.6606427394e-01	 8.5915201960e-01
 9.8230750859e-01	 1.8727515887e-01	 1.0355842176e+00
 9.7801393759e-01	 2.0853975653e-01	 1.2309036531e+00
 1.0214286435e+00	 0.0000000000e+00	 5.6164219620e-01
 1.0212184474e+00	 2.0720617734e-02	 5.6965747929e-01
 1.0205810127e+00	 4.1603237015e-02	 5.9647855460e-01
 1.0195062881e+00	 6.2636483525e-02	 6.4142744597e-01
 1.0179845423e+00	 8.3808388534e-02	 7.0388138163e-01
 1.0160064013e+00	 1.0510639464e-01	 7.8328141049e-01
 1.0135628862e+00	 1.2651736396e-01	 8.7914073329e-01
 1.0106454507e+00	 1.4802758901e-01	 9.9105263729e-01
 1.0072460196e+00	 1.6962280607e-01	 1.1186979230e+00
 1.0033570260e+00	 1.9128821148e-01	 1.2618517139e+00
 9.9897144959e-01	 2.1300848063e-01	 1.4203895437e+00
 1.0428574195e+00	 0.0000000000e+00	 9.4305332043e-01
 1.0426428136e+00	 2.1155320128e-02	 9.4899882845e-01
 1.0419920061e+00	 4.2476040469e-02	 9.6996482877e-01
 1.0408947346e+00	 6.3950548080e-02	 1.0053186217e+00
 1.0393410637e+00	 8.5566623137e-02	 1.0544908347e+00
 1.0373214229e+00	 1.0731144479e-01	 1.1169839297e+00
 1.0348266448e+00	 1.2917159955e-01	 1.1923803397e+00
 1.0318480038e+00	 1.5113309233e-01	 1.2803501179e+00
 1.0283772552e+00	 1.7318136019e-01	 1.3806579851e+00
 1.0244066736e+00	 1.9530128891e-01	 1.4931696655e+00
 1.0199290912e+00	 2.1747723235e-01	 1.6178574045e+00
 1.0642863105e+00	 0.0000000000e+00	 1.3093548782e+00
 1.0640672949e+00	 2.1590024854e-02	 1.3134354431e+00
 1.0634031144e+00	 4.3348848607e-02	 1.3290564883e+00
 1.0622832959e+00	 6.5264619687e-02	 1.3556288314e+00
 1.0606976998e+00	 8.7324867176e-02	 1.3926347085e+00
 1.0586365589e+00	 1.0951650678e-01	 1.4396361793e+00
 1.0560905174e+00	 1.3182584938e-01	 1.4962830715e+00
 1.0530506706e+00	 1.5423861232e-01	 1.5623203438e+00
 1.0495086042e+00	 1.7673993342e-01	 1.6375947494e+00
 1.0454564341e+00	 1.9931438788e-01	 1.7220606888e+00
 1.0408868453e+00	 2.2194600806e-01	 1.8157851443e+00
 1.0857152990e+00	 0.0000000000e+00	 1.6537890511e+00
 1.0854918736e+00	 2.2024731558e-02	 1.6562187615e+00
 1.0848143201e+00	 4.4221660715e-02	 1.6670079066e+00
 1.0836719545e+00	 6.6578697272e-02	 1.6856092158e+00
 1.0820544331e+00	 8.9083119214e-02	 1.7115549153e+00
 1.0799517919e+00	 1.1172157880e-01	 1.7444650379e+00
 1.0773544869e+00	 1.3448011128e-01	 1.7840551770e+00
 1.0742534339e+00	 1.5734414644e-01	 1.8301435615e+00
 1.0706400494e+00	 1.8029852284e-01	 1.8826573293e+00
 1.0665062904e+00	 2.0332750510e-01	 1.9416378851e+00
 1.0618446947e+00	 2.2641480411e-01	 2.0072452382e+00
 1.1071443676e+00	 0.0000000000e+00	 1.9701062968e+00
 1.1069165323e+00	 2.2459439885e-02	 1.9711104707e+00
 1.1062256057e+00	 4.5094476081e-02	 1.9775859260e+00
 1.1050606929e+00	 6.7892779762e-02	 1.9890258345e+00
 1.1034112460e+00	 9.0841377815e-02	 2.0050109513e+00
 1.1012671045e+00	 1.1392665905e-01	 2.0252178331e+00
 1.0986185357e+00	 1.3713438310e-01	 2.0494264053e+00
 1.0954562764e+00	 1.6044969215e-01	 2.0775267441e+00
 1.0917715735e+00	 1.8385712554e-01	 2.1095249527e+00
 1.0875562253e+00	 2.0734063731e-01	 2.1455480123e+00
 1.0828026224e+00	 2.3088361684e-01	 2.1858475033e+00
 1.1285734986e+00	 0.0000000000e+00	 2.2525170726e+00
 1.1283412535e+00	 2.2894149480e-02	 2.2523341150e+00
 1.1276369538e+00	 4.5967293992e-02	 2.2550213177e+00
 1.1264494938e+00	 6.9206866085e-02	 2.2601109473e+00
 1.1247681213e+00	 9.2599641545e-02	 2.2672309681e+00
 1.1225824792e+00	 1.1613174573e-01	 2.2761131757e+00
 1.1198826465e+00	 1.3978866265e-01	 2.2866005760e+00
 1.1166591807e+00	 1.6355524692e-01	 2.2986538720e+00
 1.1129031592e+00	 1.8741573862e-01	 2.3123569326e+00
 1.1086062216e+00	 2.1135378123e-01	 2.3279211217e+00
 1.1037606112e+00	 2.3535244260e-01	 2.3456883843e+00
 1.1500026746e+00	 0.0000000000e+00	 2.4956489533e+00
 1.1497660197e+00	 2.3328859987e-02	 2.4945321130e+00
 1.1490483469e+00	 4.6840113736e-02	 2.4939656678e+00
 1.1478383395e+00	 7.0520955167e-02	 2.4935197392e+00
 1.1461250414e+00	 9.4357908967e-02	 2.4928683116e+00
 1.1438978987e+00	 1.1833683704e-01	 2.4917972859e+00
 1.1411468020e+00	 1.4244294778e-01	 2.4902116703e+00
 1.1378621295e+00	 1.6666080821e-01	 2.4881417673e+00
 1.1340347893e+00	 1.9097435918e-01	 2.4857482231e+00
 1.1296562621e+00	 2.1536693357e-01	 2.4833258198e+00
 1.1247186440e+00	 2.3982127775e-01	 2.4813059025e+00
 1.1714318781e+00	 0.0000000000e+00	 2.6945084539e+00
 1.1711908134e+00	 2.3763571052e-02	 2.6927274899e+00
 1.1704597674e+00	 4.7712934601e-02	 2.6894529917e+00
 1.1692272127e+00	 7.1835045936e-02	 2.6842917926e+00
 1.1674819889e+00	 9.6116178645e-02	 2.6769628271e+00
 1.1652133455e+00	 1.2054193119e-01	 2.6673051096e+00
 1.1624109848e+00	 1.4509723632e-01	 2.6552847373e+00
 1.1590651055e+00	 1.6976637349e-01	 2.6410007700e+00
 1.1551664465e+00	 1.9453298430e-01	 2.6246898489e+00
 1.1507063297e+00	 2.1938009106e-01	 2.6067294321e+00
 1.1456767037e+00	 2.4429011864e-01	 2.5876395400e+00
 1.1928610917e+00	 0.0000000000e+00	 2.8444469671e+00
 1.1926156171e+00	 2.4198282320e-02	 2.8422897329e+00
 1.1918711979e+00	 4.8585755873e-02	 2.8368654853e+00
 1.1906160959e+00	 7.3149137318e-02	 2.8278167105e+00
 1.1888389464e+00	 9.7874449145e-02	 2.8149063328e+00
 1.1865288023e+00	 1.2274702636e-01	 2.7980256224e+00
 1.1836751775e+00	 1.4775152610e-01	 2.7772010094e+00
 1.1802680915e+00	 1.7287194022e-01	 2.7525996483e+00
 1.1762981135e+00	 1.9809161108e-01	 2.7245335932e+00
 1.1717564070e+00	 2.2339325043e-01	 2.6934624558e+00
 1.1666347732e+00	 2.4875896161e-01	 2.6599944420e+00
 1.2142902977e+00	 0.0000000000e+00	 2.9411303041e+00
 1.2140404132e+00	 2.4632993436e-02	 2.9389042617e+00
 1.2132826210e+00	 4.9458576840e-02	 2.9319029002e+00
 1.2120049716e+00	 7.4463228241e-02	 2.9198033767e+00
 1.2101958964e+00	 9.9632719030e-02	 2.9024117464e+00
 1.2078442516e+00	 1.2495212076e-01	 2.8796708043e+00
 1.2049393628e+00	 1.5040581494e-01	 2.8516667080e+00
 1.2014710700e+00	 1.7597750587e-01	 2.8186342193e+00
 1.1974297732e+00	 2.0165023662e-01	 2.7809604195e+00
 1.1928064770e+00	 2.2740640839e-01	 2.7391867685e+00
 1.1875928354e+00	 2.5322780301e-01	 2.6940094022e+00
 9.7801393759e-01	 2.0853975653e-01	 1.2309036531e+00
 9.7322825186e-01	 2.2984108677e-01	 1.4434194727e+00
 9.6794447360e-01	 2.5116470275e-01	 1.6695880398e+00
 9.6215754903e-01	 2.7249423836e-01	 1.9064697624e+00
 9.5586309813e-01	 2.9381292096e-01	 2.1511840581e+00
 9.4905744632e-01	 3.1510360378e-01	 2.4009304745e+00
 9.4173765446e-01	 3.3634880088e-01	 2.6530098834e+00
 9.3390154697e-01	 3.5753072471e-01	 2.9048455820e+00
 9.2554773768e-01	 3.7863132607e-01	 3.1540041353e+00
 9.1667565331e-01	 3.9963233635e-01	 3.3982157856e+00
 9.0728555439e-01	 4.2051531196e-01	 3.6353942555e+00
 9.9897144959e-01	 2.1300848063e-01	 1.4203895437e+00
 9.9408321312e-01	 2.3476626948e-01	 1.5926792358e+00
 9.8868621065e-01	 2.5654682162e-01	 1.7754971933e+00
 9.8277528014e-01	 2.7833342025e-01	 1.9664153952e+00
 9.7634594770e-01	 3.0010893330e-01	 2.1630732149e+00
 9.6939446000e-01	 3.2185584657e-01	 2.3631951195e+00
 9.6191781493e-01	 3.4355629942e-01	 2.5646082499e+00
 9.5391379029e-01	 3.6519212315e-01	 2.7652597457e+00
 9.4538097019e-01	 3.8674488177e-01	 2.9632336777e+00
 9.3631876910e-01	 4.0819591522e-01	 3.1567674507e+00
 9.2672745310e-01	 4.2952638467e-01	 3.3442675389e+00
 1.0199290912e+00	 2.1747723235e-01	 1.6178574045e+00
 1.0149383033e+00	 2.3969148264e-01	 1.7531398260e+00
 1.0094280760e+00	 2.6192897378e-01	 1.8960747161e+00
 1.0033931387e+00	 2.8417263824e-01	 2.0446957792e+00
 9.9682892392e-01	 3.0640498456e-01	 2.1971117202e+00
 9.8973159943e-01	 3.2860813111e-01	 2.3515207747e+00
 9.8209810019e-01	 3.5076384254e-01	 2.5062249410e+00
 9.7392615736e-01	 3.7285356896e-01	 2.6596438056e+00
 9.6521432535e-01	 3.9485848765e-01	 2.8103278547e+00
 9.5596200635e-01	 4.1675954704e-01	 2.9569711669e+00
 9.4616947202e-01	 4.3853751309e-01	 3.0984233876e+00
 1.0408868453e+00	 2.2194600806e-01	 1.8157851443e+00
 1.0357935055e+00	 2.4461672223e-01	 1.9172300830e+00
 1.0301700526e+00	 2.6731115482e-01	 2.0236983109e+00
 1.0240111080e+00	 2.9001188757e-01	 2.1336385501e+00
 1.0173120101e+00	 3.1270106962e-01	 2.2455813905e+00
 1.0100688480e+00	 3.3536045189e-01	 2.3581508878e+00
 1.0022784937e+00	 3.5797142433e-01	 2.4700756970e+00
 9.9393863182e-01	 3.8051505590e-01	 2.5801996602e+00
 9.8504778695e-01	 4.0297213706e-01	 2.6874917684e+00
 9.7560534902e-01	 4.2532322481e-01	 2.7910554263e+00
 9.6561159529e-01	 4.4754868988e-01	 2.8901369517e+00
 1.0618446947e+00	 2.2641480411e-01	 2.0072452382e+00
 1.0566488025e+00	 2.4954198424e-01	 2.0779776404e+00
 1.0509121236e+00	 2.7269336034e-01	 2.1513486802e+00
 1.0446291711e+00	 2.9585116347e-01	 2.2261782968e+00
 1.0377951894e+00	 3.1899718333e-01	 2.3013744623e+00
 1.0304061891e+00	 3.4211280339e-01	 2.3759420706e+00
 1.0224589791e+00	 3.6517903892e-01	 2.4489912086e+00
 1.0139511973e+00	 3.8817657769e-01	 2.5197447515e+00
 1.0048813388e+00	 4.1108582340e-01	 2.5875452322e+00
 9.9524878106e-01	 4.3388694156e-01	 2.6518609418e+00
 9.8505380701e-01	 4.5655990767e-01	 2.7122912270e+00
 1.0828026224e+00	 2.3088361684e-01	 2.1858475033e+00
 1.0775041774e+00	 2.5446726463e-01	 2.2289512856e+00
 1.0716542720e+00	 2.7807558597e-01	 2.2725514704e+00
 1.0652473111e+00	 3.0169046118e-01	 2.3157981107e+00
 1.0582784452e+00	 3.2529332054e-01	 2.3579347912e+00
 1.0507436062e+00	 3.4886518011e-01	 2.3983050178e+00
 1.0426395398e+00	 3.7238668042e-01	 2.4363578475e+00
 1.0339638376e+00	 3.9583812808e-01	 2.4716527242e+00
 1.0247149647e+00	 4.1919954003e-01	 2.5038634960e+00
 1.0148922864e+00	 4.4245069027e-01	 2.5327816021e+00
 1.0044960913e+00	 4.6557115910e-01	 2.5583184253e+00
 1.1037606112e+00	 2.3535244260e-01	 2.3456883843e+00
 1.0983596131e+00	 2.5939255940e-01	 2.3642098786e+00
 1.0923964810e+00	 2.8345782729e-01	 2.3813258205e+00
 1.0858655113e+00	 3.0752977591e-01	 2.3964777839e+00
 1.0787617608e+00	 3.3158947612e-01	 2.4092057401e+00
 1.0710810825e+00	 3.5561757651e-01	 2.4191521454e+00
 1.0628201594e+00	 3.7959434294e-01	 2.4260651380e+00
 1.0539765362e+00	 4.0349970082e-01	 2.4298008326e+00
 1.0445486484e+00	 4.2731328032e-01	 2.4303247136e+00
 1.0345358491e+00	 4.5101446397e-01	 2.4277121437e+00
 1.0239384323e+00	 4.7458243681e-01	 2.4221480141e+00
 1.1247186440e+00	 2.3982127775e-01	 2.4813059025e+00
 1.1192150926e+00	 2.6431786450e-01	 2.4782569722e+00
 1.1131387335e+00	 2.8884007991e-01	 2.4721386534e+00
 1.1064837548e+00	 3.1336910291e-01	 2.4626477888e+00
 1.0992451194e+00	 3.3788564492e-01	 2.4495838827e+00
 1.0914186016e+00	 3.6236998710e-01	 2.4328510728e+00
 1.0830008214e+00	 3.8680202059e-01	 2.4124590904e+00
 1.0739892768e+00	 4.1116128965e-01	 2.3885232180e+00
 1.0643823738e+00	 4.3542703765e-01	 2.3612632737e+00
 1.0541794530e+00	 4.5957825564e-01	 2.3310016631e+00
 1.0433808142e+00	 4.8359373345e-01	 2.2981605570e+00
 1.1456767037e+00	 2.4429011864e-01	 2.5876395400e+00
 1.1400705989e+00	 2.6924317593e-01	 2.5660004043e+00
 1.1338810126e+00	 2.9422233944e-01	 2.5398639749e+00
 1.1271020247e+00	 3.1920843740e-01	 2.5091482987e+00
 1.1197285043e+00	 3.4418182180e-01	 2.4738777778e+00
 1.1117561468e+00	 3.6912240636e-01	 2.4341832002e+00
 1.1031815092e+00	 3.9400970750e-01	 2.3903006461e+00
 1.0940020431e+00	 4.1882288832e-01	 2.3425693031e+00
 1.0842161246e+00	 4.4354080539e-01	 2.2914282417e+00
 1.0738230822e+00	 4.6814205831e-01	 2.2374122215e+00
 1.0628232210e+00	 4.9260504165e-01	 2.1811466113e+00
 1.1666347732e+00	 2.4875896161e-01	 2.6599944420e+00
 1.1609261149e+00	 2.7416848965e-01	 2.6227162384e+00
 1.1546233014e+00	 2.9960460149e-01	 2.5797465515e+00
 1.1477203042e+00	 3.2504777462e-01	 2.5311926169e+00
 1.1402118987e+00	 3.5047800161e-01	 2.4772711786e+00
 1.1320937014e+00	 3.7587482876e-01	 2.4183067405e+00
 1.1233622065e+00	 4.0121739777e-01	 2.3547285920e+00
 1.1140148188e+00	 4.2648449056e-01	 2.2870666613e+00
 1.1040498847e+00	 4.5165457692e-01	 2.2159462726e+00
 1.0934667205e+00	 4.7670586497e-01	 2.1420819025e+00
 1.0822656368e+00	 5.0161635406e-01	 2.0662700475e+00
 1.1875928354e+00	 2.5322780301e-01	 2.6940094022e+00
 1.1817816236e+00	 2.7909380165e-01	 2.6440165143e+00
 1.1753655829e+00	 3.0498686165e-01	 2.5873694253e+00
 1.1683385766e+00	 3.3088710979e-01	 2.5243344692e+00
 1.1606952859e+00	 3.5677417923e-01	 2.4552901276e+00
 1.1524312490e+00	 3.8262724881e-01	 2.3807236565e+00
 1.1435428967e+00	 4.0842508552e-01	 2.3012263912e+00
 1.1340275874e+00	 4.3414609011e-01	 2.2174878083e+00
 1.1238836379e+00	 4.5976834561e-01	 2.1302884412e+00
 1.1131103519e+00	 4.8526966864e-01	 2.0404917731e+00
 1.1017080459e+00	 5.1062766331e-01	 1.9490352446e+00
 9.0728555439e-01	 4.2051531196e-01	 3.6353942555e+00
 8.9737784263e-01	 4.4126312680e-01	 3.8622896247e+00
 8.8695514163e-01	 4.6185565311e-01	 4.0745695572e+00
 8.7602031568e-01	 4.8227419740e-01	 4.2688372092e+00
 8.6457711653e-01	 5.0250008602e-01	 4.4418715100e+00
 8.5263018827e-01	 5.2251471715e-01	 4.5906548161e+00
 8.4018506873e-01	 5.4229961341e-01	 4.7123998851e+00
 8.2724818708e-01	 5.6183647501e-01	 4.8045759137e+00
 8.1382685776e-01	 5.8110723302e-01	 4.8649333815e+00
 7.9992927055e-01	 6.0009410240e-01	 4.8915274428e+00
 7.8556447689e-01	 6.1877963469e-01	 4.8827396116e+00
 9.2672745310e-01	 4.2952638467e-01	 3.3442675389e+00
 9.1660743251e-01	 4.5071879703e-01	 3.5226286452e+00
 9.0596138716e-01	 4.7175259325e-01	 3.6877967240e+00
 8.9479224274e-01	 4.9260867925e-01	 3.8370338743e+00
 8.8310383135e-01	 5.1326798123e-01	 3.9677595665e+00
 8.7090089663e-01	 5.3371149875e-01	 4.0775732412e+00
 8.5818909505e-01	 5.5392035850e-01	 4.1642763021e+00
 8.4497499357e-01	 5.7387586855e-01	 4.2258932982e+00
 8.3126606337e-01	 5.9355957275e-01	 4.2606920842e+00
 8.1707066972e-01	 6.1295330499e-01	 4.2672027517e+00
 8.0239805802e-01	 6.3203924290e-01	 4.2442351224e+00
 9.4616947202e-01	 4.3853751309e-01	 3.0984233876e+00
 9.3583714130e-01	 4.6017452574e-01	 3.2317257390e+00
 9.2496775023e-01	 4.8164959459e-01	 3.3530924955e+00
 9.1356428586e-01	 5.0294322500e-01	 3.4603796246e+00
 9.0163066073e-01	 5.2403594302e-01	 3.5515833226e+00
 8.8917171795e-01	 5.4490834959e-01	 3.6248579739e+00
 8.7619323270e-01	 5.6554117545e-01	 3.6785335816e+00
 8.6270190968e-01	 5.8591533652e-01	 3.7111325089e+00
 8.4870537682e-01	 6.0601198949e-01	 3.7213853669e+00
 8.3421217489e-01	 6.2581258710e-01	 3.7082458851e+00
 8.1923174324e-01	 6.4529893309e-01	 3.6709045981e+00
 9.6561159529e-01	 4.4754868988e-01	 2.8901369517e+00
 9.5506695329e-01	 4.6963030519e-01	 2.9819242273e+00
 9.4397421529e-01	 4.9154664904e-01	 3.0628887890e+00
 9.3233642973e-01	 5.1327782621e-01	 3.1314193954e+00
 9.2015758953e-01	 5.3480396259e-01	 3.1860290746e+00
 9.0744263733e-01	 5.5610526051e-01	 3.2253688415e+00
 8.9419746697e-01	 5.7716205476e-01	 3.2482409642e+00
 8.8042892092e-01	 5.9795486911e-01	 3.2536116609e+00
 8.6614478386e-01	 6.1846447305e-01	 3.2406231079e+00
 8.5135377205e-01	 6.3867193821e-01	 3.2086046319e+00
 8.3606551880e-01	 6.5855869444e-01	 3.1570829608e+00
 9.8505380701e-01	 4.5655990767e-01	 2.7122912270e+00
 9.7429685277e-01	 4.7908612766e-01	 2.7661691710e+00
 9.6298076683e-01	 5.0144374853e-01	 2.8102115234e+00
 9.5110865902e-01	 5.2361247445e-01	 2.8432824494e+00
 9.3868460263e-01	 5.4557203116e-01	 2.8643555374e+00
 9.2571363985e-01	 5.6730222238e-01	 2.8725236521e+00
 9.1220178315e-01	 5.8878298694e-01	 2.8670084171e+00
 8.9815601282e-01	 6.0999445648e-01	 2.8471692478e+00
 8.8358427025e-01	 6.3091701327e-01	 2.8125118535e+00
 8.6849544720e-01	 6.5153134784e-01	 2.7626961201e+00
 8.5289937095e-01	 6.7181851612e-01	 2.6975432791e+00
 1.0044960913e+00	 4.6557115910e-01	 2.5583184253e+00
 9.9352682405e-01	 4.8854198544e-01	 2.5779493261e+00
 9.8198738933e-01	 5.1134088496e-01	 2.5886233216e+00
 9.6988095838e-01	 5.3394716127e-01	 2.5896260179e+00
 9.5721168490e-01	 5.5634013994e-01	 2.5803386436e+00
 9.4398471057e-01	 5.7849922606e-01	 2.5602444000e+00
 9.3020616656e-01	 6.0040396251e-01	 2.5289345229e+00
 9.1588317091e-01	 6.2203408880e-01	 2.4861140156e+00
 9.0102382174e-01	 6.4336959998e-01	 2.4316070055e+00
 8.8563718635e-01	 6.6439080547e-01	 2.3653616689e+00
 8.6973328595e-01	 6.8507838731e-01	 2.2874546622e+00
 1.0239384323e+00	 4.7458243681e-01	 2.4221480141e+00
 1.0127568514e+00	 4.9799787079e-01	 2.4112457037e+00
 1.0009940673e+00	 5.2123805026e-01	 2.3921727336e+00
 9.8865331250e-01	 5.4428187823e-01	 2.3645853561e+00
 9.7573882120e-01	 5.6710828011e-01	 2.3282226270e+00
 9.6225583458e-01	 5.8969626239e-01	 2.2829095975e+00
 9.4821060248e-01	 6.1202497198e-01	 2.2285603038e+00
 9.3361038069e-01	 6.3407375623e-01	 2.1651805489e+00
 9.1846342410e-01	 6.5582222301e-01	 2.0928704594e+00
 9.0277897549e-01	 6.7725030061e-01	 2.0118267933e+00
 8.8656725005e-01	 6.9833829717e-01	 1.9223449619e+00
 1.0433808142e+00	 4.8359373345e-01	 2.2981605570e+00
 1.0319869192e+00	 5.0745377601e-01	 2.2604858728e+00
 1.0200007851e+00	 5.3113523635e-01	 2.2153491293e+00
 1.0074257060e+00	 5.5461661689e-01	 2.1627293770e+00
 9.9426599641e-01	 5.7787644290e-01	 2.1026765710e+00
 9.8052699696e-01	 6.0089332223e-01	 2.0353119341e+00
 9.6621507620e-01	 6.2364600584e-01	 1.9608282094e+00
 9.5133762770e-01	 6.4611344894e-01	 1.8794898249e+00
 9.3590306309e-01	 6.6827487219e-01	 1.7916329847e+00
 9.1992080063e-01	 6.9010982276e-01	 1.6976656864e+00
 9.0340124950e-01	 7.1159823488e-01	 1.5980676535e+00
 1.0628232210e+00	 4.9260504165e-01	 2.1811466113e+00
 1.0512170116e+00	 5.1690969335e-01	 2.1205032705e+00
 1.0390075274e+00	 5.4103243513e-01	 2.0530425358e+00
 1.0261981237e+00	 5.6495136881e-01	 1.9790211499e+00
 1.0127931954e+00	 5.8864461951e-01	 1.8987557227e+00
 9.9879818279e-01	 6.1209039644e-01	 1.8126205813e+00
 9.8421957303e-01	 6.3526705463e-01	 1.7210456059e+00
 9.6906489746e-01	 6.5815315711e-01	 1.6245141005e+00
 9.5334272445e-01	 6.8072753735e-01	 1.5235607385e+00
 9.3706264777e-01	 7.0296936141e-01	 1.4187696080e+00
 9.2023527055e-01	 7.2485818960e-01	 1.3107723633e+00
 1.0822656368e+00	 5.0161635406e-01	 2.0662700475e+00
 1.0704471130e+00	 5.2636561511e-01	 1.9865008916e+00
 1.0580142785e+00	 5.5092963853e-01	 1.9005077973e+00
 1.0449705501e+00	 5.7528612556e-01	 1.8087826515e+00
 1.0313204030e+00	 5.9941280115e-01	 1.7118669740e+00
 1.0170693771e+00	 6.2328747588e-01	 1.6103475591e+00
 1.0022240783e+00	 6.4688810883e-01	 1.5048522017e+00
 9.8679217549e-01	 6.7019287089e-01	 1.3960455855e+00
 9.7078239395e-01	 6.9318020832e-01	 1.2846253938e+00
 9.5420450290e-01	 7.1582890606e-01	 1.1713186886e+00
 9.3706929946e-01	 7.3811815051e-01	 1.0568785816e+00
 1.1017080459e+00	 5.1062766331e-01	 1.9490352446e+00
 1.0896772076e+00	 5.3582153356e-01	 1.8540188144e+00
 1.0770210229e+00	 5.6082683847e-01	 1.7533325241e+00
 1.0637429699e+00	 5.8562087869e-01	 1.6476632446e+00
 1.0498476042e+00	 6.1018097901e-01	 1.5377379944e+00
 1.0353405651e+00	 6.3448455140e-01	 1.4243176625e+00
 1.0202285772e+00	 6.5850915897e-01	 1.3081909224e+00
 1.0045194473e+00	 6.8223258046e-01	 1.1901684372e+00
 9.8822205734e-01	 7.0563287493e-01	 1.0710774363e+00
 9.7134635204e-01	 7.2868844621e-01	 9.5175672569e-01
 9.5390332247e-01	 7.5137810678e-01	 8.3305217013e-01
 7.8556447689e-01	 6.1877963469e-01	 4.8827396116e+00
 7.7074237018e-01	 6.3714677154e-01	 4.8381379049e+00
 7.5547365803e-01	 6.5517890056e-01	 4.7578769404e+00
 7.3976984406e-01	 6.7285989945e-01	 4.6416141768e+00
 7.2364320173e-01	 6.9017418182e-01	 4.4892002316e+00
 7.0710674268e-01	 7.0710674268e-01	 4.3006873221e+00
 6.9017418182e-01	 7.2364320173e-01	 4.0763364337e+00
 6.7285989945e-01	 7.3976984406e-01	 3.8166231011e+00
 6.5517890056e-01	 7.5547365803e-01	 3.5222417063e+00
 6.3714677154e-01	 7.7074237018e-01	 3.1941082088e+00
 6.1877963469e-01	 7.8556447689e-01	 2.8333612470e+00
 8.0239805802e-01	 6.3203924290e-01	 4.2442351224e+00
 7.8725833367e-01	 6.5079996257e-01	 4.1908857636e+00
 7.7166243373e-01	 6.6921849565e-01	 4.1067318415e+00
 7.5562210833e-01	 6.8727837437e-01	 3.9916451506e+00
 7.3914989393e-01	 7.0496367832e-01	 3.8456655518e+00
 7.2225908099e-01	 7.2225908099e-01	 3.6690075823e+00
 7.0496367832e-01	 7.3914989393e-01	 3.4620659819e+00
 6.8727837437e-01	 7.5562210833e-01	 3.2254200335e+00
 6.6921849565e-01	 7.7166243373e-01	 2.9598366331e+00
 6.5079996257e-01	 7.8725833367e-01	 2.6662720127e+00
 6.3203924290e-01	 8.0239805802e-01	 2.3458720610e+00
 8.1923174324e-01	 6.4529893309e-01	 3.6709045981e+00
 8.0377439928e-01	 6.6445323802e-01	 3.6080960030e+00
 7.8785130954e-01	 6.8325817756e-01	 3.5189389963e+00
 7.7147447062e-01	 7.0169693844e-01	 3.4034909495e+00
 7.5465668201e-01	 7.1975326627e-01	 3.2619538963e+00
 7.3741151299e-01	 7.3741151299e-01	 3.0946795348e+00
 7.1975326627e-01	 7.5465668201e-01	 2.9021733222e+00
 7.0169693844e-01	 7.7147447062e-01	 2.6850975732e+00
 6.8325817756e-01	 7.8785130954e-01	 2.4442734822e+00
 6.6445323802e-01	 8.0377439928e-01	 2.1806820025e+00
 6.4529893309e-01	 8.1923174324e-01	 1.8954635284e+00
 8.3606551880e-01	 6.5855869444e-01	 3.1570829608e+00
 8.2029055353e-01	 6.7810658675e-01	 3.0845248996e+00
 8.0404027222e-01	 6.9729793481e-01	 2.9896946827e+00
 7.8732691799e-01	 7.1611557989e-01	 2.8728085138e+00
 7.7016355332e-01	 7.3454293359e-01	 2.7342054703e+00
 7.5256402632e-01	 7.5256402632e-01	 2.5743511113e+00
 7.3454293359e-01	 7.7016355332e-01	 2.3938403460e+00
 7.1611557989e-01	 7.8732691799e-01	 2.1933994803e+00
 6.9729793481e-01	 8.0404027222e-01	 1.9738873682e+00
 6.7810658675e-01	 8.2029055353e-01	 1.7362956039e+00
 6.5855869444e-01	 8.3606551880e-01	 1.4817477036e+00
 8.5289937095e-01	 6.7181851612e-01	 2.6975432791e+00
 8.3680678293e-01	 6.9175999760e-01	 2.6153330032e+00
 8.2022930856e-01	 7.1133775595e-01	 2.5145641232e+00
 8.0317943748e-01	 7.3053428695e-01	 2.3955867826e+00
 7.8567049518e-01	 7.4933266821e-01	 2.2588537553e+00
 7.6771660859e-01	 7.6771660859e-01	 2.1049228689e+00
 7.4933266821e-01	 7.8567049518e-01	 1.9344588453e+00
 7.3053428695e-01	 8.0317943748e-01	 1.7482344813e+00
 7.1133775595e-01	 8.2022930856e-01	 1.5471310995e+00
 6.9175999760e-01	 8.3680678293e-01	 1.3321382067e+00
 6.7181851612e-01	 8.5289937095e-01	 1.1043523092e+00
 8.6973328595e-01	 6.8507838731e-01	 2.2874546622e+00
 8.5332307399e-01	 7.0541345942e-01	 2.1960463330e+00
 8.3641840534e-01	 7.2537762950e-01	 2.0894461250e+00
 8.1903201615e-01	 7.4495304784e-01	 1.9681149317e+00
 8.0117749493e-01	 7.6412245804e-01	 1.8325975156e+00
 7.8286924742e-01	 7.8286924742e-01	 1.6835239501e+00
 7.6412245804e-01	 8.0117749493e-01	 1.5216106248e+00
 7.4495304784e-01	 8.1903201615e-01	 1.3476607425e+00
 7.2537762950e-01	 8.3641840534e-01	 1.1625642348e+00
 7.0541345942e-01	 8.5332307399e-01	 9.6729703707e-01
 6.8507838731e-01	 8.6973328595e-01	 7.6291966669e-01
 8.8656725005e-01	 6.9833829717e-01	 1.9223449619e+00
 8.6983941322e-01	 7.1906696106e-01	 1.8225220078e+00
 8.5260754934e-01	 7.3941754399e-01	 1.7105417629e+00
 8.3488464106e-01	 7.5937185078e-01	 1.5869542488e+00
 8.1668453991e-01	 7.7891229100e-01	 1.4523760170e+00
 7.9802193045e-01	 7.9802193045e-01	 1.3074908071e+00
 7.7891229100e-01	 8.1668453991e-01	 1.1530499070e+00
 7.5937185078e-01	 8.3488464106e-01	 9.8987214143e-01
 7.3941754399e-01	 8.5260754934e-01	 8.1884341767e-01
 7.1906696106e-01	 8.6983941322e-01	 6.4091576080e-01
 6.9833829717e-01	 8.8656725005e-01	 4.5710578349e-01
 9.0340124950e-01	 7.1159823488e-01	 1.5980676535e+00
 8.8635578714e-01	 7.3272049137e-01	 1.4909177311e+00
 8.6879672733e-01	 7.5345748798e-01	 1.3743265795e+00
 8.5073729926e-01	 7.7379068400e-01	 1.2489131712e+00
 8.3219161745e-01	 7.9370215503e-01	 1.1153470356e+00
 8.1317464531e-01	 8.1317464531e-01	 9.7434832787e-01
 7.9370215503e-01	 8.3219161745e-01	 8.2668772911e-01
 7.7379068400e-01	 8.5073729926e-01	 6.7318610153e-01
 7.5345748798e-01	 8.6879672733e-01	 5.1471382195e-01
 7.3272049137e-01	 8.8635578714e-01	 3.5218972280e-01
 7.1159823488e-01	 9.0340124950e-01	 1.8657957694e-01
 9.2023527055e-01	 7.2485818960e-01	 1.3107723633e+00
 9.0287218224e-01	 7.4637403921e-01	 1.1976646388e+00
 8.8498592610e-01	 7.6749744998e-01	 1.0775258524e+00
 8.6658997781e-01	 7.8820953572e-01	 9.5102508155e-01
 8.4769871489e-01	 8.0849203803e-01	 8.1886730173e-01
 8.2832737960e-01	 8.2832737960e-01	 6.8179305641e-01
 8.0849203803e-01	 8.4769871489e-01	 5.4057807990e-01
 7.8820953572e-01	 8.6658997781e-01	 3.9603278981e-01
 7.6749744998e-01	 8.8498592610e-01	 2.4900156662e-01
 7.4637403921e-01	 9.0287218224e-01	 1.0036174091e-01
 7.2485818960e-01	 9.2023527055e-01	-4.8977783404e-02
 9.3706929946e-01	 7.3811815051e-01	 1.0568785816e+00
 9.1938858506e-01	 7.6002759342e-01	 9.3944308569e-01
 9.0117513242e-01	 7.8153741853e-01	 8.1709254190e-01
 8.8244266375e-01	 8.0262839417e-01	 6.9052851471e-01
 8.6320581957e-01	 8.2328192794e-01	 5.6047507217e-01
 8.4348012097e-01	 8.4348012097e-01	 4.2767824563e-01
 8.2328192794e-01	 8.6320581957e-01	 2.9290555474e-01
 8.0262839417e-01	 8.8244266375e-01	 1.5694550674e-01
 7.8153741853e-01	 9.0117513242e-01	 2.0606977472e-02
 7.6002759342e-01	 9.1938858506e-01	-1.1528161535e-01
 7.3811815051e-01	 9.3706929946e-01	-2.4987342925e-01
 9.5390332247e-01	 7.5137810678e-01	 8.3305217013e-01
 9.3590498210e-01	 7.7368114285e-01	 7.1316100882e-01
 9.1736433308e-01	 7.9557738216e-01	 5.9018758965e-01
 8.9829534414e-01	 8.1704724758e-01	 4.6484947823e-01
 8.7871291882e-01	 8.3807181267e-01	 3.3787456788e-01
 8.5863285703e-01	 8.5863285703e-01	 2.1000051477e-01
 8.3807181267e-01	 8.7871291882e-01	 8.1974343478e-02
 8.1704724758e-01	 8.9829534414e-01	-4.5447879425e-02
 7.9557738216e-01	 9.1736433308e-01	-1.7150140840e-01
 7.7368114285e-01	 9.3590498210e-01	-2.9541332124e-01
 7.5137810678e-01	 9.5390332247e-01	-4.1640325603e-01
 6.1877963469e-01	 7.8556447689e-01	 2.8333612470e+00
 6.0009410240e-01	 7.9992927055e-01	 2.4431323179e+00
 5.8110723302e-01	 8.1382685776e-01	 2.0279693871e+00
 5.6183647501e-01	 8.2724818708e-01	 1.5912725240e+00
 5.4229961341e-01	 8.4018506873e-01	 1.1363898977e+00
 5.2251471715e-01	 8.5263018827e-01	 6.6660362130e-01
 5.0250008602e-01	 8.6457711653e-01	 1.8511632933e-01
 4.8227419740e-01	 8.7602031568e-01	-3.0496142280e-01
 4.6185565311e-01	 8.8695514163e-01	-8.0062285388e-01
 4.4126312680e-01	 8.9737784263e-01	-1.2989756713e+00
 4.2051531196e-01	 9.0728555439e-01	-1.7972517389e+00
 6.3203924290e-01	 8.0239805802e-01	 2.3458720610e+00
 6.1295330499e-01	 8.1707066972e-01	 2.0006975120e+00
 5.9355957275e-01	 8.3126606337e-01	 1.6339908764e+00
 5.7387586855e-01	 8.4497499357e-01	 1.2487881564e+00
 5.5392035850e-01	 8.5818909505e-01	 8.4808254509e-01
 5.3371149875e-01	 8.7090089663e-01	 4.3481179235e-01
 5.1326798123e-01	 8.8310383135e-01	 1.1846165084e-02
 4.9260867925e-01	 8.9479224274e-01	-4.1802291740e-01
 4.7175259325e-01	 9.0596138716e-01	-8.5209349462e-01
 4.5071879703e-01	 9.1660743251e-01	-1.2877628505e+00
 4.2952638467e-01	 9.2672745310e-01	-1.7225364074e+00
 6.4529893309e-01	 8.1923174324e-01	 1.8954635284e+00
 6.2581258710e-01	 8.3421217489e-01	 1.5897744226e+00
 6.0601198949e-01	 8.4870537682e-01	 1.2657438568e+00
 5.8591533652e-01	 8.6270190968e-01	 9.2607119942e-01
 5.6554117545e-01	 8.7619323270e-01	 5.7342122208e-01
 5.4490834959e-01	 8.8917171795e-01	 2.1041287789e-01
 5.2403594302e-01	 9.0163066073e-01	-1.6039145963e-01
 5.0294322500e-01	 9.1356428586e-01	-5.3649622125e-01
 4.8164959459e-01	 9.2496775023e-01	-9.1548225748e-01
 4.6017452574e-01	 9.3583714130e-01	-1.2950157745e+00
 4.3853751309e-01	 9.4616947202e-01	-1.6728565247e+00
 6.5855869444e-01	 8.3606551880e-01	 1.4817477036e+00
 6.3867193821e-01	 8.5135377205e-01	 1.2106437815e+00
 6.1846447305e-01	 8.6614478386e-01	 9.2417202474e-01
 5.9795486911e-01	 8.8042892092e-01	 6.2472168634e-01
 5.7716205476e-01	 8.9419746697e-01	 3.1465482967e-01
 5.5610526051e-01	 9.0744263733e-01	-3.7035894886e-03
 5.3480396259e-01	 9.2015758953e-01	-3.2807530574e-01
 5.1327782621e-01	 9.3233642973e-01	-6.5623792350e-01
 4.9154664904e-01	 9.4397421529e-01	-9.8603362388e-01
 4.6963030519e-01	 9.5506695329e-01	-1.3153773301e+00
 4.4754868988e-01	 9.6561159529e-01	-1.6422642649e+00
 6.7181851612e-01	 8.5289937095e-01	 1.1043523092e+00
 6.5153134784e-01	 8.6849544720e-01	 8.6354856946e-01
 6.3091701327e-01	 8.8358427025e-01	 6.1012834329e-01
 6.0999445648e-01	 8.9815601282e-01	 3.4619644948e-01
 5.8878298694e-01	 9.1220178315e-01	 7.3837185781e-02
 5.6730222238e-01	 9.2571363985e-01	-2.0489438855e-01
 5.4557203116e-01	 9.3868460263e-01	-4.8798095632e-01
 5.2361247445e-01	 9.5110865902e-01	-7.7345116950e-01
 5.0144374853e-01	 9.6298076683e-01	-1.0593875340e+00
 4.7908612766e-01	 9.7429685277e-01	-1.3439338841e+00
 4.5655990767e-01	 9.8505380701e-01	-1.6253023782e+00
 6.8507838731e-01	 8.6973328595e-01	 7.6291966669e-01
 6.6439080547e-01	 8.8563718635e-01	 5.4869810721e-01
 6.4336959998e-01	 9.0102382174e-01	 3.2438424675e-01
 6.2203408880e-01	 9.1588317091e-01	 9.1823380855e-02
 6.0040396251e-01	 9.3020616656e-01	-1.4715372050e-01
 5.7849922606e-01	 9.4398471057e-01	-3.9073843101e-01
 5.5634013994e-01	 9.5721168490e-01	-6.3715178909e-01
 5.3394716127e-01	 9.6988095838e-01	-8.8465186447e-01
 5.1134088496e-01	 9.8198738933e-01	-1.1315409070e+00
 4.8854198544e-01	 9.9352682405e-01	-1.3761722098e+00
 4.6557115910e-01	 1.0044960913e+00	-1.6169566154e+00
 6.9833829717e-01	 8.8656725005e-01	 4.5710578349e-01
 6.7725030061e-01	 9.0277897549e-01	 2.6627171779e-01
 6.5582222301e-01	 9.1846342410e-01	 6.7637833766e-02
 6.3407375623e-01	 9.3361038069e-01	-1.3718589317e-01
 6.1202497198e-01	 9.4821060248e-01	-3.4659862898e-01
 5.8969626239e-01	 9.6225583458e-01	-5.5901529796e-01
 5.6710828011e-01	 9.7573882120e-01	-7.7287321617e-01
 5.4428187823e-01	 9.8865331250e-01	-9.8663868830e-01
 5.2123805026e-01	 1.0009940673e+00	-1.1988135063e+00
 4.9799787079e-01	 1.0127568514e+00	-1.4079412811e+00
 4.7458243681e-01	 1.0239384323e+00	-1.6126135341e+00
 7.1159823488e-01	 9.0340124950e-01	 1.8657957694e-01
 6.9010982276e-01	 9.1992080063e-01	 1.6422014741e-02
 6.6827487219e-01	 9.3590306309e-01	-1.5947881842e-01
 6.4611344894e-01	 9.5133762770e-01	-3.3972471640e-01
 6.2364600584e-01	 9.6621507620e-01	-5.2292178172e-01
 6.0089332223e-01	 9.8052699696e-01	-7.0768613726e-01
 5.7787644290e-01	 9.9426599641e-01	-8.9264976526e-01
 5.5461661689e-01	 1.0074257060e+00	-1.0764664242e+00
 5.3113523635e-01	 1.0200007851e+00	-1.2578175830e+00
 5.0745377601e-01	 1.0319869192e+00	-1.4354183028e+00
 4.8359373345e-01	 1.0433808142e+00	-1.6080229880e+00
 7.2485818960e-01	 9.2023527055e-01	-4.8977783404e-02
 7.0296936141e-01	 9.3706264777e-01	-2.0072213541e-01
 6.8072753735e-01	 9.5334272445e-01	-3.5639310635e-01
 6.5815315711e-01	 9.6906489746e-01	-5.1478131001e-01
 6.3526705463e-01	 9.8421957303e-01	-6.7467733001e-01
 6.1209039644e-01	 9.9879818279e-01	-8.3487661973e-01
 5.8864461951e-01	 1.0127931954e+00	-9.9418463841e-01
 5.6495136881e-01	 1.0261981237e+00	-1.1514221772e+00
 5.4103243513e-01	 1.0390075274e+00	-1.3054308153e+00
 5.1690969335e-01	 1.0512170116e+00	-1.4550784325e+00
 4.9260504165e-01	 1.0628232210e+00	-1.5992646974e+00
 7.3811815051e-01	 9.3706929946e-01	-2.4987342925e-01
 7.1582890606e-01	 9.5420450290e-01	-3.8505293549e-01
 6.9318020832e-01	 9.7078239395e-01	-5.2258602282e-01
 6.7019287089e-01	 9.8679217549e-01	-6.6142973123e-01
 6.4688810883e-01	 1.0022240783e+00	-8.0053716963e-01
 6.2328747588e-01	 1.0170693771e+00	-9.3886169523e-01
 5.9941280115e-01	 1.0313204030e+00	-1.0753614370e+00
 5.7528612556e-01	 1.0449705501e+00	-1.2090041197e+00
 5.5092963853e-01	 1.0580142785e+00	-1.3387721274e+00
 5.2636561511e-01	 1.0704471130e+00	-1.4636677306e+00
 5.0161635406e-01	 1.0822656368e+00	-1.5827183898e+00
 7.5137810678e-01	 9.5390332247e-01	-4.1640325603e-01
 7.2868844621e-01	 9.7134635204e-01	-5.3648122983e-01
 7.0563287493e-01	 9.8822205734e-01	-6.5758686697e-01
 6.8223258046e-01	 1.0045194473e+00	-7.7882175378e-01
 6.5850915897e-01	 1.0202285772e+00	-8.9928002795e-01
 6.3448455140e-01	 1.0353405651e+00	-1.0180519265e+00
 6.1018097901e-01	 1.0498476042e+00	-1.1342277856e+00
 5.8562087869e-01	 1.0637429699e+00	-1.2469024507e+00
 5.6082683847e-01	 1.0770210229e+00	-1.3551800342e+00
 5.3582153356e-01	 1.0896772076e+00	-1.4581789410e+00
 5.1062766331e-01	 1.1017080459e+00	-1.5550370675e+00
 4.2051531196e-01	 9.0728555439e-01	-1.7972517389e+00
 3.9963233635e-01	 9.1667565331e-01	-2.2926813601e+00
 3.7863132607e-01	 9.2554773768e-01	-2.7816006941e+00
 3.5753072471e-01	 9.3390154697e-01	-3.2601364574e+00
 3.3634880088e-01	 9.4173765446e-01	-3.7247461199e+00
 3.1510360378e-01	 9.4905744632e-01	-4.1722254547e+00
 2.9381292096e-01	 9.5586309813e-01	-4.5997133271e+00
 2.7249423836e-01	 9.6215754903e-01	-5.0046937905e+00
 2.5116470275e-01	 9.6794447360e-01	-5.3849955757e+00
 2.2984108677e-01	 9.7322825186e-01	-5.7387890921e+00
 2.0853975653e-01	 9.7801393759e-01	-6.0645810762e+00
 4.2952638467e-01	 9.2672745310e-01	-1.7225364074e+00
 4.0819591522e-01	 9.3631876910e-01	-2.1546093711e+00
 3.8674488177e-01	 9.4538097019e-01	-2.5813791430e+00
 3.6519212315e-01	 9.5391379029e-01	-2.9993628504e+00
 3.4355629942e-01	 9.6191781493e-01	-3.4053696511e+00
 3.2185584657e-01	 9.6939446000e-01	-3.7965078939e+00
 3.0010893330e-01	 9.7634594770e-01	-4.1701898058e+00
 2.7833342025e-01	 9.8277528014e-01	-4.5241337548e+00
 2.5654682162e-01	 9.8868621065e-01	-4.8563641613e+00
 2.3476626948e-01	 9.9408321312e-01	-5.1652091547e+00
 2.1300848063e-01	 9.9897144959e-01	-5.4492960935e+00
 4.3853751309e-01	 9.4616947202e-01	-1.6728565247e+00
 4.1675954704e-01	 9.5596200635e-01	-2.0480619690e+00
 3.9485848765e-01	 9.6521432535e-01	-2.4189789578e+00
 3.7285356896e-01	 9.7392615736e-01	-2.7824841095e+00
 3.5076384254e-01	 9.8209810019e-01	-3.1357104857e+00
 3.2860813111e-01	 9.8973159943e-01	-3.4760544266e+00
 3.0640498456e-01	 9.9682892392e-01	-3.8011801735e+00
 2.8417263824e-01	 1.0033931387e+00	-4.1090223145e+00
 2.6192897378e-01	 1.0094280760e+00	-4.3977861095e+00
 2.3969148264e-01	 1.0149383033e+00	-4.6659457717e+00
 2.1747723235e-01	 1.0199290912e+00	-4.9122408077e+00
 4.4754868988e-01	 9.6561159529e-01	-1.6422642649e+00
 4.2532322481e-01	 9.7560534902e-01	-1.9665190434e+00
 4.0297213706e-01	 9.8504778695e-01	-2.2873342555e+00
 3.8051505590e-01	 9.9393863182e-01	-2.6019162160e+00
 3.5797142433e-01	 1.0022784937e+00	-2.9076950829e+00
 3.3536045189e-01	 1.0100688480e+00	-3.2023314297e+00
 3.1270106962e-01	 1.0173120101e+00	-3.4837208464e+00
 2.9001188757e-01	 1.0240111080e+00	-3.7499965856e+00
 2.6731115482e-01	 1.0301700526e+00	-3.9995302971e+00
 2.4461672223e-01	 1.0357935055e+00	-4.2309309091e+00
 2.2194600806e-01	 1.0408868453e+00	-4.4430417403e+00
 4.5655990767e-01	 9.8505380701e-01	-1.6253023782e+00
 4.3388694156e-01	 9.9524878106e-01	-1.9039966190e+00
 4.1108582340e-01	 1.0048813388e+00	-2.1799586538e+00
 3.8817657769e-01	 1.0139511973e+00	-2.4506957195e+00
 3.6517903892e-01	 1.0224589791e+00	-2.7139091435e+00
 3.4211280339e-01	 1.0304061891e+00	-2.9675007208e+00
 3.1899718333e-01	 1.0377951894e+00	-3.2095773352e+00
 2.9585116347e-01	 1.0446291711e+00	-3.4384538300e+00
 2.7269336034e-01	 1.0509121236e+00	-3.6526541502e+00
 2.4954198424e-01	 1.0566488025e+00	-3.8509108039e+00
 2.2641480411e-01	 1.0618446947e+00	-4.0321627039e+00
 4.6557115910e-01	 1.0044960913e+00	-1.6169566154e+00
 4.4245069027e-01	 1.0148922864e+00	-1.8549949276e+00
 4.1919954003e-01	 1.0247149647e+00	-2.0908892054e+00
 3.9583812808e-01	 1.0339638376e+00	-2.3224197556e+00
 3.7238668042e-01	 1.0426395398e+00	-2.5475339436e+00
 3.4886518011e-01	 1.0507436062e+00	-2.7643524426e+00
 3.2529332054e-01	 1.0582784452e+00	-2.9711739237e+00
 3.0169046118e-01	 1.0652473111e+00	-3.1664781739e+00
 2.7807558597e-01	 1.0716542720e+00	-3.3489276534e+00
 2.5446726463e-01	 1.0775041774e+00	-3.5173675171e+00
 2.3088361684e-01	 1.0828026224e+00	-3.6708241512e+00
 4.7458243681e-01	 1.0239384323e+00	-1.6126135341e+00
 4.5101446397e-01	 1.0345358491e+00	-1.8144523618e+00
 4.2731328032e-01	 1.0445486484e+00	-2.0146366863e+00
 4.0349970082e-01	 1.0539765362e+00	-2.2111928665e+00
 3.7959434294e-01	 1.0628201594e+00	-2.4022898899e+00
 3.5561757651e-01	 1.0710810825e+00	-2.5862455656e+00
 3.3158947612e-01	 1.0787617608e+00	-2.7615313318e+00
 3.0752977591e-01	 1.0858655113e+00	-2.9267756528e+00
 2.8345782729e-01	 1.0923964810e+00	-3.0807659962e+00
 2.5939255940e-01	 1.0983596131e+00	-3.2224494051e+00
 2.3535244260e-01	 1.1037606112e+00	-3.3509316959e+00
 4.8359373345e-01	 1.0433808142e+00	-1.6080229880e+00
 4.5957825564e-01	 1.0541794530e+00	-1.7777045409e+00
 4.3542703765e-01	 1.0643823738e+00	-1.9461414086e+00
 4.1116128965e-01	 1.0739892768e+00	-2.1115797356e+00
 3.8680202059e-01	 1.0830008214e+00	-2.2723863583e+00
 3.6236998710e-01	 1.0914186016e+00	-2.4270550151e+00
 3.3788564492e-01	 1.0992451194e+00	-2.5742113249e+00
 3.1336910291e-01	 1.1064837548e+00	-2.7126164941e+00
 2.8884007991e-01	 1.1131387335e+00	-2.8411697283e+00
 2.6431786450e-01	 1.1192150926e+00	-2.9589093457e+00
 2.3982127775e-01	 1.1247186440e+00	-3.0650126093e+00
 4.9260504165e-01	 1.0628232210e+00	-1.5992646974e+00
 4.6814205831e-01	 1.0738230822e+00	-1.7404478379e+00
 4.4354080539e-01	 1.0842161246e+00	-1.8807338520e+00
 4.1882288832e-01	 1.0940020431e+00	-2.0185630797e+00
 3.9400970750e-01	 1.1031815092e+00	-2.1524770087e+00
 3.6912240636e-01	 1.1117561468e+00	-2.2811245766e+00
 3.4418182180e-01	 1.1197285043e+00	-2.4032673772e+00
 3.1920843740e-01	 1.1271020247e+00	-2.5177837144e+00
 2.9422233944e-01	 1.1338810126e+00	-2.6236714644e+00
 2.6924317593e-01	 1.1400705989e+00	-2.7200497275e+00
 2.4429011864e-01	 1.1456767037e+00	-2.8061592715e+00
 5.0161635406e-01	 1.0822656368e+00	-1.5827183898e+00
 4.7670586497e-01	 1.0934667205e+00	-1.6987068037e+00
 4.5165457692e-01	 1.1040498847e+00	-1.8140995065e+00
 4.2648449056e-01	 1.1140148188e+00	-1.9275060507e+00
 4.0121739777e-01	 1.1233622065e+00	-2.0376198894e+00
 3.7587482876e-01	 1.1320937014e+00	-2.1432248505e+00
 3.5047800161e-01	 1.1402118987e+00	-2.2432006304e+00
 3.2504777462e-01	 1.1477203042e+00	-2.3365272352e+00
 2.9960460149e-01	 1.1546233014e+00	-2.4222883143e+00
 2.7416848965e-01	 1.1609261149e+00	-2.4996733515e+00
 2.4875896161e-01	 1.1666347732e+00	-2.5679787020e+00
 5.1062766331e-01	 1.1017080459e+00	-1.5550370675e+00
 4.8526966864e-01	 1.1131103519e+00	-1.6488050094e+00
 4.5976834561e-01	 1.1238836379e+00	-1.7422474089e+00
 4.3414609011e-01	 1.1340275874e+00	-1.8341185897e+00
 4.0842508552e-01	 1.1435428967e+00	-1.9232417389e+00
 3.8262724881e-01	 1.1524312490e+00	-2.0085156349e+00
 3.5677417923e-01	 1.1606952859e+00	-2.0889204928e+00
 3.3088710979e-01	 1.1683385766e+00	-2.1635228369e+00
 3.0498686165e-01	 1.1753655829e+00	-2.2314793311e+00
 2.7909380165e-01	 1.1817816236e+00	-2.2920395152e+00
 2.5322780301e-01	 1.1875928354e+00	-2.3445474217e+00
 2.0853975653e-01	 9.7801393759e-01	-6.0645810762e+00
 1.8727515887e-01	 9.8230750859e-01	-6.3624134380e+00
 1.6606427394e-01	 9.8611491462e-01	-6.6319071594e+00
 1.4492210489e-01	 9.8944302882e-01	-6.8715181865e+00
 1.2386314479e-01	 9.9229925915e-01	-7.0800508452e+00
 1.0290135811e-01	 9.9469151154e-01	-7.2566462225e+00
 8.2050164801e-02	 9.9662815290e-01	-7.4007687920e+00
 6.1322427094e-02	 9.9811797387e-01	-7.5121915108e+00
 4.0730438957e-02	 9.9917015173e-01	-7.5909796136e+00
 2.0285918027e-02	 9.9979421360e-01	-7.6374733328e+00
 0.0000000000e+00	 1.0000000000e+00	-7.6522697670e+00
 2.1300848063e-01	 9.9897144959e-01	-5.4492960935e+00
 1.9128821148e-01	 1.0033570260e+00	-5.7089256900e+00
 1.6962280607e-01	 1.0072460196e+00	-5.9440031864e+00
 1.4802758901e-01	 1.0106454507e+00	-6.1530847523e+00
 1.2651736396e-01	 1.0135628862e+00	-6.3350450348e+00
 1.0510639464e-01	 1.0160064013e+00	-6.4890665503e+00
 8.3808388534e-02	 1.0179845423e+00	-6.6146274329e+00
 6.2636483525e-02	 1.0195062881e+00	-6.7114877477e+00
 4.1603237015e-02	 1.0205810127e+00	-6.7796745857e+00
 2.0720617734e-02	 1.0212184474e+00	-6.8194661504e+00
 0.0000000000e+00	 1.0214286435e+00	-6.8313750488e+00
 2.1747723235e-01	 1.0199290912e+00	-4.9122408077e+00
 1.9530128891e-01	 1.0244066736e+00	-5.1372494220e+00
 1.7318136019e-01	 1.0283772552e+00	-5.3411761580e+00
 1.5113309233e-01	 1.0318480038e+00	-5.5226681065e+00
 1.2917159955e-01	 1.0348266448e+00	-5.6806629509e+00
 1.0731144479e-01	 1.0373214229e+00	-5.8143793301e+00
 8.5566623137e-02	 1.0393410637e+00	-5.9233056546e+00
 6.3950548080e-02	 1.0408947346e+00	-6.0071875742e+00
 4.2476040469e-02	 1.0419920061e+00	-6.0660142967e+00
 2.1155320128e-02	 1.0426428136e+00	-6.1000039589e+00
 0.0000000000e+00	 1.0428574195e+00	-6.1095882491e+00
 2.2194600806e-01	 1.0408868453e+00	-4.4430417403e+00
 1.9931438788e-01	 1.0454564341e+00	-4.6367307168e+00
 1.7673993342e-01	 1.0495086042e+00	-4.8125105899e+00
 1.5423861232e-01	 1.0530506706e+00	-4.9691104882e+00
 1.3182584938e-01	 1.0560905174e+00	-5.1055241910e+00
 1.0951650678e-01	 1.0586365589e+00	-5.2210014237e+00
 8.7324867176e-02	 1.0606976998e+00	-5.3150376923e+00
 6.5264619687e-02	 1.0622832959e+00	-5.3873628422e+00
 4.3348848607e-02	 1.0634031144e+00	-5.4379285297e+00
 2.1590024854e-02	 1.0640672949e+00	-5.4668947959e+00
 0.0000000000e+00	 1.0642863105e+00	-5.4746159320e+00
 2.2641480411e-01	 1.0618446947e+00	-4.0321627039e+00
 2.0332750510e-01	 1.0665062904e+00	-4.1975737673e+00
 1.8029852284e-01	 1.0706400494e+00	-4.3479682057e+00
 1.5734414644e-01	 1.0742534339e+00	-4.4821486839e+00
 1.3448011128e-01	 1.0773544869e+00	-4.5991584526e+00
 1.1172157880e-01	 1.0799517919e+00	-4.6982735403e+00
 8.9083119214e-02	 1.0820544331e+00	-4.7789935577e+00
 6.6578697272e-02	 1.0836719545e+00	-4.8410312883e+00
 4.4221660715e-02	 1.0848143201e+00	-4.8843012425e+00
 2.2024731558e-02	 1.0854918736e+00	-4.9089073562e+00
 0.0000000000e+00	 1.0857152990e+00	-4.9151300118e+00
 2.3088361684e-01	 1.0828026224e+00	-3.6708241512e+00
 2.0734063731e-01	 1.0875562253e+00	-3.8107582263e+00
 1.8385712554e-01	 1.0917715735e+00	-3.9383034433e+00
 1.6044969215e-01	 1.0954562764e+00	-4.0523278502e+00
 1.3713438310e-01	 1.0986185357e+00	-4.1519178347e+00
 1.1392665905e-01	 1.1012671045e+00	-4.2363711785e+00
 9.0841377815e-02	 1.1034112460e+00	-4.3051887861e+00
 6.7892779762e-02	 1.1050606929e+00	-4.3580652487e+00
 4.5094476081e-02	 1.1062256057e+00	-4.3948784142e+00
 2.2459439885e-02	 1.1069165323e+00	-4.4156781329e+00
 0.0000000000e+00	 1.1071443676e+00	-4.4206743497e+00
 2.3535244260e-01	 1.1037606112e+00	-3.3509316959e+00
 2.1135378123e-01	 1.1086062216e+00	-3.4679659577e+00
 1.8741573862e-01	 1.1129031592e+00	-3.5749885753e+00
 1.6355524692e-01	 1.1166591807e+00	-3.6709251441e+00
 1.3978866265e-01	 1.1198826465e+00	-3.7548991204e+00
 1.1613174573e-01	 1.1225824792e+00	-3.8262257063e+00
 9.2599641545e-02	 1.1247681213e+00	-3.8844044579e+00
 6.9206866085e-02	 1.1264494938e+00	-3.9291107683e+00
 4.5967293992e-02	 1.1276369538e+00	-3.9601863860e+00
 2.2894149480e-02	 1.1283412535e+00	-3.9776291333e+00
 0.0000000000e+00	 1.1285734986e+00	-3.9815819872e+00
 2.3982127775e-01	 1.1247186440e+00	-3.0650126093e+00
 2.1536693357e-01	 1.1296562621e+00	-3.1615159631e+00
 1.9097435918e-01	 1.1340347893e+00	-3.2501471881e+00
 1.6666080821e-01	 1.1378621295e+00	-3.3298818806e+00
 1.4244294778e-01	 1.1411468020e+00	-3.3998747402e+00
 1.1833683704e-01	 1.1438978987e+00	-3.4594542570e+00
 9.4357908967e-02	 1.1461250414e+00	-3.5081161567e+00
 7.0520955167e-02	 1.1478383395e+00	-3.5455157481e+00
 4.6840113736e-02	 1.1490483469e+00	-3.5714593265e+00
 2.3328859987e-02	 1.1497660197e+00	-3.5858947905e+00
 0.0000000000e+00	 1.1500026746e+00	-3.5889016295e+00
 2.4429011864e-01	 1.1456767037e+00	-2.8061592715e+00
 2.1938009106e-01	 1.1507063297e+00	-2.8843064367e+00
 1.9453298430e-01	 1.1551664465e+00	-2.9564949519e+00
 1.6976637349e-01	 1.1590651055e+00	-3.0217431275e+00
 1.4509723632e-01	 1.1624109848e+00	-3.0792313042e+00
 1.2054193119e-01	 1.1652133455e+00	-3.1282973133e+00
 9.6116178645e-02	 1.1674819889e+00	-3.1684307184e+00
 7.1835045936e-02	 1.1692272127e+00	-3.1992659749e+00
 4.7712934601e-02	 1.1704597674e+00	-3.2205746557e+00
 2.3763571052e-02	 1.1711908134e+00	-3.2322568932e+00
 0.0000000000e+00	 1.1714318781e+00	-3.2343321943e+00
 2.4875896161e-01	 1.1666347732e+00	-2.5679787020e+00
 2.2339325043e-01	 1.1717564070e+00	-2.6297630544e+00
 1.9809161108e-01	 1.1762981135e+00	-2.6872867627e+00
 1.7287194022e-01	 1.1802680915e+00	-2.7396038015e+00
 1.4775152610e-01	 1.1836751775e+00	-2.7859147525e+00
 1.2274702636e-01	 1.1865288023e+00	-2.8255630128e+00
 9.7874449145e-02	 1.1888389464e+00	-2.8580297937e+00
 7.3149137318e-02	 1.1906160959e+00	-2.8829280418e+00
 4.8585755873e-02	 1.1918711979e+00	-2.8999954246e+00
 2.4198282320e-02	 1.1926156171e+00	-2.9090865270e+00
 0.0000000000e+00	 1.1928610917e+00	-2.9101644130e+00
 2.5322780301e-01	 1.1875928354e+00	-2.3445474217e+00
 2.2740640839e-01	 1.1928064770e+00	-2.3917927247e+00
 2.0165023662e-01	 1.1974297732e+00	-2.4362694721e+00
 1.7597750587e-01	 1.2014710700e+00	-2.4770604637e+00
 1.5040581494e-01	 1.2049393628e+00	-2.5133813063e+00
 1.2495212076e-01	 1.2078442516e+00	-2.5445773447e+00
 9.9632719030e-02	 1.2101958964e+00	-2.5701193815e+00
 7.4463228241e-02	 1.2120049716e+00	-2.5895983090e+00
 4.9458576840e-02	 1.2132826210e+00	-2.6027187941e+00
 2.4632993436e-02	 1.2140404132e+00	-2.6092921594e+00
 0.0000000000e+00	 1.2142902977e+00	-2.6092286123e+00
 1.2142902977e+00	 0.0000000000e+00	 2.9411303041e+00
 1.2140404132e+00	 2.4632993436e-02	 2.9389042617e+00
 1.2132826210e+00	 4.9458576840e-02	 2.9319029002e+00
 1.2120049716e+00	 7.4463228241e-02	 2.9198033767e+00
 1.2101958964e+00	 9.9632719030e-02	 2.9024117464e+00
 1.2078442516e+00	 1.2495212076e-01	 2.8796708043e+00
 1.2049393628e+00	 1.5040581494e-01	 2.8516667080e+00
 1.2014710700e+00	 1.7597750587e-01	 2.8186342193e+00
 1.1974297732e+00	 2.0165023662e-01	 2.7809604195e+00
 1.1928064770e+00	 2.2740640839e-01	 2.7391867685e+00
 1.1875928354e+00	 2.5322780301e-01	 2.6940094022e+00
 1.2357179820e+00	 0.0000000000e+00	 3.0098575566e+00
 1.2354636881e+00	 2.5067673684e-02	 3.0076512976e+00
 1.2346925236e+00	 5.0331335829e-02	 2.9993541292e+00
 1.2333923285e+00	 7.5777225852e-02	 2.9846760681e+00
 1.2315513299e+00	 1.0139086406e-01	 2.9634644756e+00
 1.2291581874e+00	 1.2715705858e-01	 2.9357118322e+00
 1.2262020380e+00	 1.5305991531e-01	 2.9015621628e+00
 1.2226725429e+00	 1.7908285098e-01	 2.8613159437e+00
 1.2185599323e+00	 2.0520860946e-01	 2.8154333395e+00
 1.2138550522e+00	 2.3141928138e-01	 2.7645356398e+00
 1.2085494093e+00	 2.5769632709e-01	 2.7094047886e+00
 1.2571456438e+00	 0.0000000000e+00	 3.0772756872e+00
 1.2568869404e+00	 2.5502353476e-02	 3.0749728398e+00
 1.2561024037e+00	 5.1204093902e-02	 3.0653813129e+00
 1.2547796629e+00	 7.7091222084e-02	 3.0482413598e+00
 1.2529067409e+00	 1.0314900725e-01	 3.0234388877e+00
 1.2504721007e+00	 1.2936199409e-01	 2.9910131598e+00
 1.2474646910e+00	 1.5571401290e-01	 2.9511630123e+00
 1.2438739935e+00	 1.8218819284e-01	 2.9042514109e+00
 1.2396900692e+00	 2.0876697857e-01	 2.8508081902e+00
 1.2349036053e+00	 2.3543215016e-01	 2.7915308418e+00
 1.2295059612e+00	 2.6216484648e-01	 2.7272832466e+00
 1.2785732857e+00	 0.0000000000e+00	 3.1413734321e+00
 1.2783101727e+00	 2.5937032862e-02	 3.1388992249e+00
 1.2775122639e+00	 5.2076851161e-02	 3.1280480330e+00
 1.2761669773e+00	 7.8405217090e-02	 3.1085878046e+00
 1.2742621321e+00	 1.0490714879e-01	 3.0804403593e+00
 1.2717859941e+00	 1.3156692754e-01	 3.0436890120e+00
 1.2687273241e+00	 1.5836810800e-01	 2.9985845711e+00
 1.2650754243e+00	 1.8529353180e-01	 2.9455495293e+00
 1.2608201864e+00	 2.1232534436e-01	 2.8851802821e+00
 1.2559521388e+00	 2.3944501519e-01	 2.8182472426e+00
 1.2504624936e+00	 2.6663336169e-01	 2.7456927428e+00
 1.3000009100e+00	 0.0000000000e+00	 3.2002595742e+00
 1.2997333875e+00	 2.6371711894e-02	 3.1975809585e+00
 1.2989221065e+00	 5.2949607707e-02	 3.1855384211e+00
 1.2975542743e+00	 7.9719211023e-02	 3.1639251376e+00
 1.2956175057e+00	 1.0666528890e-01	 3.1326963256e+00
 1.2930998702e+00	 1.3377185919e-01	 3.0919767854e+00
 1.2899899399e+00	 1.6102220094e-01	 3.0420666691e+00
 1.2862768379e+00	 1.8839886823e-01	 2.9834452877e+00
 1.2819502864e+00	 2.1588370724e-01	 2.9167727875e+00
 1.2770006551e+00	 2.4345787695e-01	 2.8428895604e+00
 1.2714190089e+00	 2.7110187326e-01	 2.7628132822e+00
 1.3214285194e+00	 0.0000000000e+00	 3.2521532101e+00
 1.3211565874e+00	 2.6806390621e-02	 3.2492790341e+00
 1.3203319342e+00	 5.3822363643e-02	 3.2361474989e+00
 1.3189415564e+00	 8.1033204037e-02	 3.2125746075e+00
 1.3169728644e+00	 1.0842342778e-01	 3.1785465739e+00
 1.3144137313e+00	 1.3597678929e-01	 3.1342272763e+00
 1.3112525408e+00	 1.6367629202e-01	 3.0799637859e+00
 1.3074782366e+00	 1.9150420248e-01	 3.0162897724e+00
 1.3030803715e+00	 2.1944206763e-01	 2.9439266142e+00
 1.2980491566e+00	 2.4747073589e-01	 2.8637820730e+00
 1.2923755094e+00	 2.7557038169e-01	 2.7769464317e+00
 1.3428561162e+00	 0.0000000000e+00	 3.2953749493e+00
 1.3425797747e+00	 2.7241069095e-02	 3.2923561800e+00
 1.3417417494e+00	 5.4695119070e-02	 3.2782724440e+00
 1.3403288259e+00	 8.2347196284e-02	 3.2529602337e+00
 1.3383282107e+00	 1.1018156564e-01	 3.2164344657e+00
 1.3357275800e+00	 1.3818171811e-01	 3.1688958423e+00
 1.3325151292e+00	 1.6633038156e-01	 3.1107361282e+00
 1.3286796229e+00	 1.9460953492e-01	 3.0425411367e+00
 1.3242104444e+00	 2.2300042595e-01	 2.9650912463e+00
 1.3190976459e+00	 2.5148359250e-01	 2.8793593082e+00
 1.3133319978e+00	 2.8003888753e-01	 2.7865058427e+00
 1.3642837031e+00	 0.0000000000e+00	 3.3283389428e+00
 1.3640029520e+00	 2.7675747366e-02	 3.3252689299e+00
 1.3631515546e+00	 5.5567874089e-02	 3.3104046776e+00
 1.3617160855e+00	 8.3661187918e-02	 3.2836008866e+00
 1.3596835470e+00	 1.1193970267e-01	 3.2448989853e+00
 1.3570414187e+00	 1.4038664590e-01	 3.1945343956e+00
 1.3537777078e+00	 1.6898446985e-01	 3.1329415460e+00
 1.3498809993e+00	 1.9771486591e-01	 3.0607564183e+00
 1.3453405073e+00	 2.2655878260e-01	 2.9788164440e+00
 1.3401461253e+00	 2.5549644723e-01	 2.8881576079e+00
 1.3342884764e+00	 2.8450739127e-01	 2.7900086609e+00
 1.3857112824e+00	 0.0000000000e+00	 3.3495456510e+00
 1.3854261219e+00	 2.8110425485e-02	 3.3465604304e+00
 1.3845613523e+00	 5.6440628803e-02	 3.3311226871e+00
 1.3831033375e+00	 8.4975179092e-02	 3.3031031020e+00
 1.3810388758e+00	 1.1369783909e-01	 3.2625675243e+00
 1.3783552500e+00	 1.4259157292e-01	 3.2097841373e+00
 1.3750402789e+00	 1.7163855722e-01	 3.1452281962e+00
 1.3710823683e+00	 2.0082019582e-01	 3.0695841145e+00
 1.3664705629e+00	 2.3011713801e-01	 2.9837447105e+00
 1.3611945974e+00	 2.5950930056e-01	 2.8888074702e+00
 1.3552449476e+00	 2.8897589345e-01	 2.7860677292e+00
 1.4071388567e+00	 0.0000000000e+00	 3.3575752728e+00
 1.4068492867e+00	 2.8545103502e-02	 3.3548539044e+00
 1.4059711450e+00	 5.7313383313e-02	 3.3390855032e+00
 1.4044905846e+00	 8.6289169960e-02	 3.3101545518e+00
 1.4023941997e+00	 1.1545597510e-01	 3.2681493254e+00
 1.3996690763e+00	 1.4479649942e-01	 3.2133689548e+00
 1.3963028450e+00	 1.7429264396e-01	 3.1463278752e+00
 1.3922837324e+00	 2.0392552499e-01	 3.0677574317e+00
 1.3876006135e+00	 2.3367549259e-01	 2.9786044439e+00
 1.3822430646e+00	 2.6352215295e-01	 2.8800265876e+00
 1.3762014140e+00	 2.9344439459e-01	 2.7733844982e+00
 1.4285664286e+00	 0.0000000000e+00	 3.3510817659e+00
 1.4282724490e+00	 2.8979781469e-02	 3.3488467035e+00
 1.4273809352e+00	 5.8186137721e-02	 3.3330267647e+00
 1.4258778292e+00	 8.7603160673e-02	 3.3035181014e+00
 1.4237495210e+00	 1.1721411090e-01	 3.2604295148e+00
 1.4209829002e+00	 1.4700142567e-01	 3.2040894109e+00
 1.4175654087e+00	 1.7694673040e-01	 3.1350499489e+00
 1.4134850939e+00	 2.0703085381e-01	 3.0540881404e+00
 1.4087306617e+00	 2.3723384675e-01	 2.9622037015e+00
 1.4032915293e+00	 2.6753500487e-01	 2.8606135083e+00
 1.3971578779e+00	 2.9791289521e-01	 2.7507425699e+00
 1.1875928354e+00	 2.5322780301e-01	 2.6940094022e+00
 1.1817816236e+00	 2.7909380165e-01	 2.6440165143e+00
 1.1753655829e+00	 3.0498686165e-01	 2.5873694253e+00
 1.1683385766e+00	 3.3088710979e-01	 2.5243344692e+00
 1.1606952859e+00	 3.5677417923e-01	 2.4552901276e+00
 1.1524312490e+00	 3.8262724881e-01	 2.3807236565e+00
 1.1435428967e+00	 4.0842508552e-01	 2.3012263912e+00
 1.1340275874e+00	 4.3414609011e-01	 2.2174878083e+00
 1.1238836379e+00	 4.5976834561e-01	 2.1302884412e+00
 1.1131103519e+00	 4.8526966864e-01	 2.0404917731e+00
 1.1017080459e+00	 5.1062766331e-01	 1.9490352446e+00
 1.2085494093e+00	 2.5769632709e-01	 2.7094047886e+00
 1.2026356514e+00	 2.8401876391e-01	 2.6486253877e+00
 1.1961063916e+00	 3.1036873962e-01	 2.5803830013e+00
 1.1889553848e+00	 3.3672603031e-01	 2.5050803191e+00
 1.1811772187e+00	 3.6306990975e-01	 2.4232345966e+00
 1.1727673523e+00	 3.8937918936e-01	 2.3354727627e+00
 1.1637221539e+00	 4.1563226145e-01	 2.2425251174e+00
 1.1540389350e+00	 4.4180714562e-01	 2.1452177190e+00
 1.1437159826e+00	 4.6788153815e-01	 2.0444635810e+00
 1.1327525884e+00	 4.9383286419e-01	 1.9412528288e+00
 1.1211490744e+00	 5.1963833267e-01	 1.8366419795e+00
 1.2295059612e+00	 2.6216484648e-01	 2.7272832466e+00
 1.2234896573e+00	 2.8894372099e-01	 2.6566429661e+00
 1.2168471784e+00	 3.1575061194e-01	 2.5778086257e+00
 1.2095721714e+00	 3.4256494471e-01	 2.4913034203e+00
 1.2016591299e+00	 3.6936563367e-01	 2.3977675894e+00
 1.1931034344e+00	 3.9613112283e-01	 2.2979520687e+00
 1.1839013899e+00	 4.2283942982e-01	 2.1927106452e+00
 1.1740502615e+00	 4.4946819309e-01	 2.0829907349e+00
 1.1635483066e+00	 4.7599472216e-01	 1.9698229314e+00
 1.1523948043e+00	 5.0239605075e-01	 1.8543094969e+00
 1.1405900824e+00	 5.2864899257e-01	 1.7376119905e+00
 1.2504624936e+00	 2.6663336169e-01	 2.7456927428e+00
 1.2443436437e+00	 2.9386867348e-01	 2.6660867439e+00
 1.2375879459e+00	 3.2113247923e-01	 2.5776330721e+00
 1.2301889388e+00	 3.4840385365e-01	 2.4809606605e+00
 1.2221410220e+00	 3.7566135171e-01	 2.3768180394e+00
 1.2134394974e+00	 4.0288304999e-01	 2.2660655873e+00
 1.2040806071e+00	 4.3004659146e-01	 2.1496661993e+00
 1.1940615694e+00	 4.5712923340e-01	 2.0286745145e+00
 1.1833806120e+00	 4.8410789861e-01	 1.9042248758e+00
 1.1720370019e+00	 5.1095922932e-01	 1.7775182198e+00
 1.1600310723e+00	 5.3765964406e-01	 1.6498081199e+00
 1.2714190089e+00	 2.7110187326e-01	 2.7628132822e+00
 1.2651976131e+00	 2.9879362195e-01	 2.6751084712e+00
 1.2583286965e+00	 3.2651434213e-01	 2.5779794185e+00
 1.2508056893e+00	 3.5424275783e-01	 2.4721470623e+00
 1.2426228974e+00	 3.8195706461e-01	 2.3584545781e+00
 1.2337755438e+00	 4.0963497164e-01	 2.2378582761e+00
 1.2242598078e+00	 4.3725374721e-01	 2.1114168311e+00
 1.2140728609e+00	 4.6479026746e-01	 1.9802790102e+00
 1.2032129012e+00	 4.9222106843e-01	 1.8456700963e+00
 1.1916791835e+00	 5.1952240090e-01	 1.7088772322e+00
 1.1794720463e+00	 5.4667028820e-01	 1.5712339382e+00
 1.2923755094e+00	 2.7557038169e-01	 2.7769464317e+00
 1.2860515678e+00	 3.0371856697e-01	 2.6819834858e+00
 1.2790694325e+00	 3.3189620127e-01	 2.5770961978e+00
 1.2714224254e+00	 3.6008165792e-01	 2.4630847688e+00
 1.2631047584e+00	 3.8825277310e-01	 2.3408743772e+00
 1.2541115760e+00	 4.1638688857e-01	 2.2115047619e+00
 1.2444389943e+00	 4.4446089792e-01	 2.0761180558e+00
 1.2340841384e+00	 4.7245129616e-01	 1.9359450547e+00
 1.2230451766e+00	 5.0033423256e-01	 1.7922901491e+00
 1.2113213513e+00	 5.2808556648e-01	 1.6465151712e+00
 1.1989130067e+00	 5.5568092602e-01	 1.5000224368e+00
 1.3133319978e+00	 2.8003888753e-01	 2.7865058427e+00
 1.3069055104e+00	 3.0864350912e-01	 2.6851010609e+00
 1.2998101565e+00	 3.3727805726e-01	 2.5733475820e+00
 1.2920391494e+00	 3.6592055460e-01	 2.4521130785e+00
 1.2835866075e+00	 3.9454847792e-01	 2.3223930522e+00
 1.2744475964e+00	 4.2313880156e-01	 2.1852991380e+00
 1.2646181691e+00	 4.5166804442e-01	 2.0420455710e+00
 1.2540954042e+00	 4.8011232039e-01	 1.8939340327e+00
 1.2428774403e+00	 5.0844739197e-01	 1.7423371271e+00
 1.2309635076e+00	 5.3664872707e-01	 1.5886807696e+00
 1.2183539558e+00	 5.6469155859e-01	 1.4344257984e+00
 1.3342884764e+00	 2.8450739127e-01	 2.7900086609e+00
 1.3277594433e+00	 3.1356844897e-01	 2.6829556575e+00
 1.3205508707e+00	 3.4265991074e-01	 2.5652044853e+00
 1.3126558639e+00	 3.7175944856e-01	 2.4376794115e+00
 1.3040684471e+00	 4.0084417980e-01	 2.3014355115e+00
 1.2947836072e+00	 4.2989071139e-01	 2.1576457155e+00
 1.2847973345e+00	 4.5887518756e-01	 2.0075859366e+00
 1.2741066607e+00	 4.8777334104e-01	 1.8526185195e+00
 1.2627096949e+00	 5.1656054759e-01	 1.6941742894e+00
 1.2506056547e+00	 5.4521188366e-01	 1.5337335149e+00
 1.2377948958e+00	 5.7370218696e-01	 1.3728061254e+00
 1.3552449476e+00	 2.8897589345e-01	 2.7860677292e+00
 1.3486133689e+00	 3.1849338709e-01	 2.6741389825e+00
 1.3412915778e+00	 3.4804176234e-01	 2.5512364860e+00
 1.3332725711e+00	 3.7759834047e-01	 2.4183311091e+00
 1.3245502795e+00	 4.0713987948e-01	 2.2765276465e+00
 1.3151196109e+00	 4.3664261886e-01	 2.1270506258e+00
 1.3049764928e+00	 4.6608232818e-01	 1.9712281127e+00
 1.2941179102e+00	 4.9543435901e-01	 1.8104737808e+00
 1.2825419424e+00	 5.2467370037e-01	 1.6462675543e+00
 1.2702477950e+00	 5.5377503726e-01	 1.4801351687e+00
 1.2572358290e+00	 5.8271281217e-01	 1.3136270232e+00
 1.3762014140e+00	 2.9344439459e-01	 2.7733844982e+00
 1.3694672896e+00	 3.2341832407e-01	 2.6573327677e+00
 1.3620322799e+00	 3.5342361268e-01	 2.5301044818e+00
 1.3538892735e+00	 3.8343723103e-01	 2.3927079752e+00
 1.3450321070e+00	 4.1343557768e-01	 2.2462887760e+00
 1.3354556099e+00	 4.4339452476e-01	 2.0921141843e+00
 1.3251556464e+00	 4.7328946712e-01	 1.9315557638e+00
 1.3141291551e+00	 5.0309537520e-01	 1.7660700425e+00
 1.3023741854e+00	 5.3278685126e-01	 1.5971777623e+00
 1.2898899307e+00	 5.6233818885e-01	 1.4264420543e+00
 1.2766767577e+00	 5.9172343528e-01	 1.2554459465e+00
 1.3971578779e+00	 2.9791289521e-01	 2.7507425699e+00
 1.3903212079e+00	 3.2834326047e-01	 2.6313021935e+00
 1.3827729797e+00	 3.5880546240e-01	 2.5005540003e+00
 1.3745059735e+00	 3.8927612090e-01	 2.3595354837e+00
 1.3655139323e+00	 4.1973127516e-01	 2.2094247631e+00
 1.3557916065e+00	 4.5014642987e-01	 2.0515239342e+00
 1.3453347976e+00	 4.8049660521e-01	 1.8872402488e+00
 1.3341403975e+00	 5.1075639048e-01	 1.7180654495e+00
 1.3222064260e+00	 5.4090000120e-01	 1.5455536298e+00
 1.3095320642e+00	 5.7090133945e-01	 1.3712980328e+00
 1.2961176841e+00	 6.0073405733e-01	 1.1969072295e+00
 1.1017080459e+00	 5.1062766331e-01	 1.9490352446e+00
 1.0896772076e+00	 5.3582153356e-01	 1.8540188144e+00
 1.0770210229e+00	 5.6082683847e-01	 1.7533325241e+00
 1.0637429699e+00	 5.8562087869e-01	 1.6476632446e+00
 1.0498476042e+00	 6.1018097901e-01	 1.5377379944e+00
 1.0353405651e+00	 6.3448455140e-01	 1.4243176625e+00
 1.0202285772e+00	 6.5850915897e-01	 1.3081909224e+00
 1.0045194473e+00	 6.8223258046e-01	 1.1901684372e+00
 9.8822205734e-01	 7.0563287493e-01	 1.0710774363e+00
 9.7134635204e-01	 7.2868844621e-01	 9.5175672569e-01
 9.5390332247e-01	 7.5137810678e-01	 8.3305217013e-01
 1.1211490744e+00	 5.1963833267e-01	 1.8366419795e+00
 1.1089059368e+00	 5.4527678055e-01	 1.7288381342e+00
 1.0960264177e+00	 5.7072333561e-01	 1.6158797118e+00
 1.0825140567e+00	 5.9595489796e-01	 1.4986193980e+00
 1.0683734897e+00	 6.2094839223e-01	 1.3779410021e+00
 1.0536104556e+00	 6.4568083182e-01	 1.2547514678e+00
 1.0382317976e+00	 6.7012938390e-01	 1.1299731879e+00
 1.0222454603e+00	 6.9427143510e-01	 1.0045367441e+00
 1.0056604824e+00	 7.1808465729e-01	 8.7937417102e-01
 9.8848698394e-01	 7.4154707320e-01	 7.5541282060e-01
 9.7073615010e-01	 7.6463712147e-01	 6.3356987574e-01
 1.1405900824e+00	 5.2864899257e-01	 1.7376119905e+00
 1.1281346457e+00	 5.5473201761e-01	 1.6180474099e+00
 1.1150317926e+00	 5.8061982237e-01	 1.4938016367e+00
 1.1012851238e+00	 6.0628890637e-01	 1.3658743183e+00
 1.0868993558e+00	 6.3171579415e-01	 1.2352873868e+00
 1.0718803270e+00	 6.5687710048e-01	 1.1030754809e+00
 1.0562349992e+00	 6.8174959663e-01	 9.7027679403e-01
 1.0399714547e+00	 7.0631027709e-01	 8.3792448823e-01
 1.0230988891e+00	 7.3053642657e-01	 7.0703879121e-01
 1.0056275978e+00	 7.5440568670e-01	 5.7861986479e-01
 9.8756896007e-01	 7.7789612223e-01	 4.5364150333e-01
 1.1600310723e+00	 5.3765964406e-01	 1.6498081199e+00
 1.1473633367e+00	 5.6418724585e-01	 1.5195226355e+00
 1.1340371497e+00	 5.9051629988e-01	 1.3849927499e+00
 1.1200561733e+00	 6.1662290514e-01	 1.2473473898e+00
 1.1054252046e+00	 6.4248318601e-01	 1.1077290737e+00
 1.0901501813e+00	 6.6807335870e-01	 9.6728286322e-01
 1.0742381839e+00	 6.9336979851e-01	 8.2714587092e-01
 1.0576974326e+00	 7.1834910785e-01	 6.8843748313e-01
 1.0405372795e+00	 7.4298818422e-01	 5.5225043143e-01
 1.0227681957e+00	 7.6726428820e-01	 4.1964281212e-01
 1.0044017543e+00	 7.9115511062e-01	 2.9163111995e-01
 1.1794720463e+00	 5.4667028820e-01	 1.5712339382e+00
 1.1665920120e+00	 5.7364246636e-01	 1.4312790313e+00
 1.1530424912e+00	 6.0041276931e-01	 1.2874848998e+00
 1.1388272076e+00	 6.2695689547e-01	 1.1410931722e+00
 1.1239510382e+00	 6.5325056909e-01	 9.9335048331e-01
 1.1084200206e+00	 6.7926960777e-01	 8.4549606753e-01
 1.0922413539e+00	 7.0498999091e-01	 6.9875004678e-01
 1.0754233960e+00	 7.3038792878e-01	 5.5430259327e-01
 1.0579756557e+00	 7.5543993172e-01	 4.1330411298e-01
 1.0399087797e+00	 7.8012287919e-01	 2.7685656013e-01
 1.0212345348e+00	 8.0441408818e-01	 1.4600595470e-01
 1.1989130067e+00	 5.5568092602e-01	 1.5000224368e+00
 1.1858206739e+00	 5.8309768026e-01	 1.3514598606e+00
 1.1720478195e+00	 6.1030923182e-01	 1.1994363044e+00
 1.1575982287e+00	 6.3729087857e-01	 1.0452905653e+00
 1.1424768589e+00	 6.6401794463e-01	 8.9035793097e-01
 1.1266898472e+00	 6.9046584900e-01	 7.3595651910e-01
 1.1102445113e+00	 7.1661017517e-01	 5.8337446330e-01
 1.0931493470e+00	 7.4242674128e-01	 4.3385814121e-01
 1.0754140196e+00	 7.6789167049e-01	 2.8860160458e-01
 1.0570493516e+00	 7.9298146119e-01	 1.4873733048e-01
 1.0380673035e+00	 8.1767305646e-01	 1.5328369174e-02
 1.2183539558e+00	 5.6469155859e-01	 1.4344257984e+00
 1.2050493245e+00	 5.9255288864e-01	 1.2783263131e+00
 1.1910531367e+00	 6.2020568855e-01	 1.1191215753e+00
 1.1763692388e+00	 6.4762485564e-01	 9.5823300837e-01
 1.1610026688e+00	 6.7478531388e-01	 7.9707003908e-01
 1.1449596632e+00	 7.0166208370e-01	 6.3701528482e-01
 1.1282476583e+00	 7.2823035265e-01	 4.7941074904e-01
 1.1108752876e+00	 7.5446554675e-01	 3.2554523697e-01
 1.0928523734e+00	 7.8034340200e-01	 1.7664316390e-01
 1.0741899135e+00	 8.0584003568e-01	 3.3854882512e-02
 1.0549000624e+00	 8.3093201701e-01	-1.0175139326e-01
 1.2377948958e+00	 5.7370218696e-01	 1.3728061254e+00
 1.2242779661e+00	 6.0200809261e-01	 1.2102483357e+00
 1.2100584450e+00	 6.3010214067e-01	 1.0449226785e+00
 1.1951402402e+00	 6.5795882788e-01	 8.7831960015e-01
 1.1795284701e+00	 6.8555267811e-01	 7.1190905214e-01
 1.1632294706e+00	 7.1285831318e-01	 5.4712462195e-01
 1.1462507968e+00	 7.3985052472e-01	 3.8534884531e-01
 1.1286012200e+00	 7.6650434661e-01	 2.2789992834e-01
 1.1102907191e+00	 7.9279512770e-01	 7.6020063069e-02
 1.0913304674e+00	 8.1869860417e-01	-6.9134531555e-02
 1.0717328135e+00	 8.4419097137e-01	-2.0650176503e-01
 1.2572358290e+00	 5.8271281217e-01	 1.3136270232e+00
 1.2435066011e+00	 6.1146329327e-01	 1.1456963103e+00
 1.2290637467e+00	 6.3999858932e-01	 9.7532072960e-01
 1.2139112350e+00	 6.6829279651e-01	 8.0404704032e-01
 1.1980542648e+00	 6.9632003857e-01	 6.3339295617e-01
 1.1814992716e+00	 7.2405453874e-01	 4.6483031125e-01
 1.1642539290e+00	 7.5147069271e-01	 2.9976959238e-01
 1.1463271461e+00	 7.7854314226e-01	 1.3954608317e-01
 1.1277290587e+00	 8.0524684904e-01	-1.4592186668e-02
 1.1084710153e+00	 8.3155716817e-01	-1.6149455018e-01
 1.0885655586e+00	 8.5744992109e-01	-3.0011579369e-01
 1.2766767577e+00	 5.9172343528e-01	 1.2554459465e+00
 1.2627352315e+00	 6.2091849172e-01	 1.0832334862e+00
 1.2480690439e+00	 6.4989503566e-01	 9.0888853517e-01
 1.2326822254e+00	 6.7862676273e-01	 7.3400230460e-01
 1.2165800553e+00	 7.0708739652e-01	 5.6012831672e-01
 1.1997690683e+00	 7.3525076169e-01	 3.8876469071e-01
 1.1822570570e+00	 7.6309085799e-01	 2.2133799495e-01
 1.1640530682e+00	 7.9058193510e-01	 5.9188925588e-02
 1.1451673942e+00	 8.1769856748e-01	-9.6439985717e-02
 1.1256115592e+00	 8.4441572916e-01	-2.4441449527e-01
 1.1053982999e+00	 8.7070886771e-01	-3.8371652899e-01
 1.2961176841e+00	 6.0073405733e-01	 1.1969072295e+00
 1.2819638597e+00	 6.3037368907e-01	 1.0215090901e+00
 1.2670743389e+00	 6.5979148085e-01	 8.4428380127e-01
 1.2514532137e+00	 6.8896072774e-01	 6.6685597646e-01
 1.2351058436e+00	 7.1785475322e-01	 4.9080376036e-01
 1.2180388629e+00	 7.4644698333e-01	 3.1764031655e-01
 1.2002601829e+00	 7.7471102192e-01	 1.4879709550e-01
 1.1817789881e+00	 8.0262072653e-01	-1.4390842422e-02
 1.1626057276e+00	 8.3015028446e-01	-1.7069723789e-01
 1.1427521011e+00	 8.5727428865e-01	-3.1901463618e-01
 1.1222310391e+00	 8.8396781279e-01	-4.5836191574e-01
 9.5390332247e-01	 7.5137810678e-01	 8.3305217013e-01
 9.3590498210e-01	 7.7368114285e-01	 7.1316100882e-01
 9.1736433308e-01	 7.9557738216e-01	 5.9018758965e-01
 8.9829534414e-01	 8.1704724758e-01	 4.6484947823e-01
 8.7871291882e-01	 8.3807181267e-01	 3.3787456788e-01
 8.5863285703e-01	 8.5863285703e-01	 2.1000051477e-01
 8.3807181267e-01	 8.7871291882e-01	 8.1974343478e-02
 8.1704724758e-01	 8.9829534414e-01	-4.5447879425e-02
 7.9557738216e-01	 9.1736433308e-01	-1.7150140840e-01
 7.7368114285e-01	 9.3590498210e-01	-2.9541332124e-01
 7.5137810678e-01	 9.5390332247e-01	-4.1640325603e-01
 9.7073615010e-01	 7.6463712147e-01	 6.3356987574e-01
 9.5242020631e-01	 7.8733372274e-01	 5.1211660689e-01
 9.3355238415e-01	 8.0961634883e-01	 3.8920316644e-01
 9.1414689884e-01	 8.3146507710e-01	 2.6555421307e-01
 8.9421891692e-01	 8.5286064717e-01	 1.4189343674e-01
 8.7378451711e-01	 8.7378451711e-01	 1.8943091229e-02
 8.5286064717e-01	 8.9421891692e-01	-1.0257620319e-01
 8.3146507710e-01	 9.1414689884e-01	-2.2194550256e-01
 8.0961634883e-01	 9.3355238415e-01	-3.3844754700e-01
 7.8733372274e-01	 9.5242020631e-01	-4.5136685082e-01
 7.6463712147e-01	 9.7073615010e-01	-5.5998998538e-01
 9.8756896007e-01	 7.7789612223e-01	 4.5364150333e-01
 9.6893541318e-01	 8.0098628830e-01	 3.3046487621e-01
 9.4974041822e-01	 8.2365530075e-01	 2.0730948991e-01
 9.2999843690e-01	 8.4588289149e-01	 8.4905151071e-02
 9.0972489874e-01	 8.6764946615e-01	-3.6030049963e-02
 8.8893616127e-01	 8.8893616127e-01	-1.5479004832e-01
 8.6764946615e-01	 9.0972489874e-01	-2.7068074654e-01
 8.4588289149e-01	 9.2999843690e-01	-3.8301972033e-01
 8.2365530075e-01	 9.4974041822e-01	-4.9113582362e-01
 8.0098628830e-01	 9.6893541318e-01	-5.9436882711e-01
 7.7789612223e-01	 9.8756896007e-01	-6.9206921680e-01
 1.0044017543e+00	 7.9115511062e-01	 2.9163111995e-01
 9.8545060463e-01	 8.1463884112e-01	 1.6667882799e-01
 9.6592843718e-01	 8.3769423957e-01	 4.3094485573e-02
 9.4584996016e-01	 8.6030069243e-01	-7.8388772117e-02
 9.2523086608e-01	 8.8243827132e-01	-1.9705975324e-01
 9.0408779129e-01	 9.0408779129e-01	-3.1222929621e-01
 8.8243827132e-01	 9.2523086608e-01	-4.2322989486e-01
 8.6030069243e-01	 9.4584996016e-01	-5.2941500999e-01
 8.3769423957e-01	 9.6592843718e-01	-6.3015822115e-01
 8.1463884112e-01	 9.8545060463e-01	-7.2485237067e-01
 7.9115511062e-01	 1.0044017543e+00	-8.1290884479e-01
 1.0212345348e+00	 8.0441408818e-01	 1.4600595470e-01
 1.0019657826e+00	 8.2829138279e-01	 1.9327234519e-02
 9.8211644292e-01	 8.5173316693e-01	-1.0476593667e-01
 9.6170147047e-01	 8.7471848159e-01	-2.2553880886e-01
 9.4073682077e-01	 8.9722706442e-01	-3.4228830915e-01
 9.1923940894e-01	 9.1923940894e-01	-4.5434283899e-01
 8.9722706442e-01	 9.4073682077e-01	-5.6106151744e-01
 8.7471848159e-01	 9.6170147047e-01	-6.6183303798e-01
 8.5173316693e-01	 9.8211644292e-01	-7.5607431241e-01
 8.2829138279e-01	 1.0019657826e+00	-8.4322907430e-01
 8.0441408818e-01	 1.0212345348e+00	-9.2276660604e-01
 1.0380673035e+00	 8.1767305646e-01	 1.5328369174e-02
 1.0184809490e+00	 8.4194391491e-01	-1.1293275890e-01
 9.9830443734e-01	 8.6577208446e-01	-2.3751459800e-01
 9.7755296969e-01	 8.8913626065e-01	-3.5768241089e-01
 9.5624276459e-01	 9.1201584716e-01	-4.7274240401e-01
 9.3439101599e-01	 9.3439101599e-01	-5.8204116387e-01
 9.1201584716e-01	 9.5624276459e-01	-6.8496444963e-01
 8.8913626065e-01	 9.7755296969e-01	-7.8093553044e-01
 8.6577208446e-01	 9.9830443734e-01	-8.6941326322e-01
 8.4194391491e-01	 1.0184809490e+00	-9.4989010548e-01
 8.1767305646e-01	 1.0380673035e+00	-1.0218902484e+00
 1.0549000624e+00	 8.3093201701e-01	-1.0175139326e-01
 1.0349961058e+00	 8.5559643906e-01	-2.3136230223e-01
 1.0144924223e+00	 8.7981099380e-01	-3.5631910868e-01
 9.9340445967e-01	 9.0355403131e-01	-4.7588864852e-01
 9.7174869938e-01	 9.2680462128e-01	-5.8938752573e-01
 9.4954261420e-01	 9.4954261420e-01	-6.9618111294e-01
 9.2680462128e-01	 9.7174869938e-01	-7.9568182026e-01
 9.0355403131e-01	 9.9340445967e-01	-8.8734684424e-01
 8.7981099380e-01	 1.0144924223e+00	-9.7067561719e-01
 8.5559643906e-01	 1.0349961058e+00	-1.0452071754e+00
 8.3093201701e-01	 1.0549000624e+00	-1.1105176545e+00
 1.0717328135e+00	 8.4419097137e-01	-2.0650176503e-01
 1.0515112549e+00	 8.6924895684e-01	-3.3714686863e-01
 1.0306803997e+00	 8.9384989659e-01	-4.6227734092e-01
 1.0092559422e+00	 9.1797179524e-01	-5.8116310258e-01
 9.8725462693e-01	 9.4159338850e-01	-6.9313224875e-01
 9.6469420533e-01	 9.6469420533e-01	-7.9756953461e-01
 9.4159338850e-01	 9.8725462693e-01	-8.9391404288e-01
 9.1797179524e-01	 1.0092559422e+00	-9.8165627126e-01
 8.9384989659e-01	 1.0306803997e+00	-1.0603348863e+00
 8.6924895684e-01	 1.0515112549e+00	-1.1295333890e+00
 8.4419097137e-01	 1.0717328135e+00	-1.1888769251e+00
 1.0885655586e+00	 8.5744992109e-01	-3.0011579369e-01
 1.0680263981e+00	 8.8290146984e-01	-4.3140171108e-01
 1.0468683715e+00	 9.0788879447e-01	-5.5642237987e-01
 1.0251074193e+00	 9.3238955412e-01	-6.7445228640e-01
 1.0027605490e+00	 9.5638215054e-01	-7.8483210324e-01
 9.7984579116e-01	 9.7984579116e-01	-8.8696657597e-01
 9.5638215054e-01	 1.0027605490e+00	-9.8032150735e-01
 9.3238955412e-01	 1.0251074193e+00	-1.0644201050e+00
 9.0788879447e-01	 1.0468683715e+00	-1.1388389684e+00
 8.8290146984e-01	 1.0680263981e+00	-1.2032039894e+00
 8.5744992109e-01	 1.0885655586e+00	-1.2571864258e+00
 1.1053982999e+00	 8.7070886771e-01	-3.8371652899e-01
 1.0845415376e+00	 8.9655397965e-01	-5.1517680885e-01
 1.0630563394e+00	 9.2192768907e-01	-6.3972700850e-01
 1.0409588926e+00	 9.4680730964e-01	-7.5664764780e-01
 1.0182664676e+00	 9.7117090913e-01	-8.6529307263e-01
 9.9499737346e-01	 9.9499737346e-01	-9.6508865437e-01
 9.7117090913e-01	 1.0182664676e+00	-1.0555270035e+00
 9.4680730964e-01	 1.0409588926e+00	-1.1361634944e+00
 9.2192768907e-01	 1.0630563394e+00	-1.2066114097e+00
 8.9655397965e-01	 1.0845415376e+00	-1.2665370072e+00
 8.7070886771e-01	 1.1053982999e+00	-1.3156548023e+00
 1.1222310391e+00	 8.8396781279e-01	-4.5836191574e-01
 1.1010566751e+00	 9.1020648788e-01	-5.8946135720e-01
 1.0792443055e+00	 9.3596658203e-01	-7.1310777515e-01
 1.0568103641e+00	 9.6122506348e-01	-8.2858919519e-01
 1.0337723842e+00	 9.8595966600e-01	-9.3527475882e-01
 1.0101489540e+00	 1.0101489540e+00	-1.0326111419e+00
 9.8595966600e-01	 1.0337723842e+00	-1.1201179051e+00
 9.6122506348e-01	 1.0568103641e+00	-1.1973821082e+00
 9.3596658203e-01	 1.0792443055e+00	-1.2640525287e+00
 9.1020648788e-01	 1.1010566751e+00	-1.3198338251e+00
 8.8396781279e-01	 1.1222310391e+00	-1.3644809663e+00
 7.5137810678e-01	 9.5390332247e-01	-4.1640325603e-01
 7.2868844621e-01	 9.7134635204e-01	-5.3648122983e-01
 7.0563287493e-01	 9.8822205734e-01	-6.5758686697e-01
 6.8223258046e-01	 1.0045194473e+00	-7.7882175378e-01
 6.5850915897e-01	 1.0202285772e+00	-8.9928002795e-01
 6.3448455140e-01	 1.0353405651e+00	-1.0180519265e+00
 6.1018097901e-01	 1.0498476042e+00	-1.1342277856e+00
 5.8562087869e-01	 1.0637429699e+00	-1.2469024507e+00
 5.6082683847e-01	 1.0770210229e+00	-1.3551800342e+00
 5.3582153356e-01	 1.0896772076e+00	-1.4581789410e+00
 5.1062766331e-01	 1.1017080459e+00	-1.5550370675e+00
 7.6463712147e-01	 9.7073615010e-01	-5.5998998538e-01
 7.4154707320e-01	 9.8848698394e-01	-6.6640704561e-01
 7.1808465729e-01	 1.0056604824e+00	-7.7267820912e-01
 6.9427143510e-01	 1.0222454603e+00	-8.7803746035e-01
 6.7012938390e-01	 1.0382317976e+00	-9.8170800833e-01
 6.4568083182e-01	 1.0536104556e+00	-1.0829052382e+00
 6.2094839223e-01	 1.0683734897e+00	-1.1808402262e+00
 5.9595489796e-01	 1.0825140567e+00	-1.2747237777e+00
 5.7072333561e-01	 1.0960264177e+00	-1.3637709238e+00
 5.4527678055e-01	 1.1089059368e+00	-1.4472057920e+00
 5.1963833267e-01	 1.1211490744e+00	-1.5242667484e+00
 7.7789612223e-01	 9.8756896007e-01	-6.9206921680e-01
 7.5440568670e-01	 1.0056275978e+00	-7.8636626088e-01
 7.3053642657e-01	 1.0230988891e+00	-8.7940034249e-01
 7.0631027709e-01	 1.0399714547e+00	-9.7053504117e-01
 6.8174959663e-01	 1.0562349992e+00	-1.0591198449e+00
 6.5687710048e-01	 1.0718803270e+00	-1.1444924876e+00
 6.3171579415e-01	 1.0868993558e+00	-1.2259819695e+00
 6.0628890637e-01	 1.1012851238e+00	-1.3029122194e+00
 5.8061982237e-01	 1.1150317926e+00	-1.3746063348e+00
 5.5473201761e-01	 1.1281346457e+00	-1.4403913082e+00
 5.2864899257e-01	 1.1405900824e+00	-1.4996031290e+00
 7.9115511062e-01	 1.0044017543e+00	-8.1290884479e-01
 7.6726428820e-01	 1.0227681957e+00	-8.9645935365e-01
 7.4298818422e-01	 1.0405372795e+00	-9.7768824404e-01
 7.1834910785e-01	 1.0576974326e+00	-1.0560857695e+00
 6.9336979851e-01	 1.0742381839e+00	-1.1311247517e+00
 6.6807335870e-01	 1.0901501813e+00	-1.2022622872e+00
 6.4248318601e-01	 1.1054252046e+00	-1.2689422630e+00
 6.1662290514e-01	 1.1200561733e+00	-1.3305986434e+00
 5.9051629988e-01	 1.1340371497e+00	-1.3866594589e+00
 5.6418724585e-01	 1.1473633367e+00	-1.4365514022e+00
 5.3765964406e-01	 1.1600310723e+00	-1.4797049100e+00
 8.0441408818e-01	 1.0212345348e+00	-9.2276660604e-01
 7.8012287919e-01	 1.0399087797e+00	-9.9678823060e-01
 7.5543993172e-01	 1.0579756557e+00	-1.0674898531e+00
 7.3038792878e-01	 1.0754233960e+00	-1.1344853681e+00
 7.0498999091e-01	 1.0922413539e+00	-1.1973678384e+00
 6.7926960777e-01	 1.1084200206e+00	-1.2557105542e+00
 6.5325056909e-01	 1.1239510382e+00	-1.3090690360e+00
 6.2695689547e-01	 1.1388272076e+00	-1.3569839462e+00
 6.0041276931e-01	 1.1530424912e+00	-1.3989848361e+00
 5.7364246636e-01	 1.1665920120e+00	-1.4345946283e+00
 5.4667028820e-01	 1.1794720463e+00	-1.4633347027e+00
 8.1767305646e-01	 1.0380673035e+00	-1.0218902484e+00
 7.9298146119e-01	 1.0570493516e+00	-1.0874554523e+00
 7.6789167049e-01	 1.0754140196e+00	-1.1487643643e+00
 7.4242674128e-01	 1.0931493470e+00	-1.2055513813e+00
 7.1661017517e-01	 1.1102445113e+00	-1.2575265725e+00
 6.9046584900e-01	 1.1266898472e+00	-1.3043760744e+00
 6.6401794463e-01	 1.1424768589e+00	-1.3457635744e+00
 6.3729087857e-01	 1.1575982287e+00	-1.3813328486e+00
 6.1030923182e-01	 1.1720478195e+00	-1.4107112796e+00
 5.8309768026e-01	 1.1858206739e+00	-1.4335142448e+00
 5.5568092602e-01	 1.1989130067e+00	-1.4493502339e+00
 8.3093201701e-01	 1.0549000624e+00	-1.1105176545e+00
 8.0584003568e-01	 1.0741899135e+00	-1.1685635020e+00
 7.8034340200e-01	 1.0928523734e+00	-1.2214806532e+00
 7.5446554675e-01	 1.1108752876e+00	-1.2691207680e+00
 7.2823035265e-01	 1.1282476583e+00	-1.3113075498e+00
 7.0166208370e-01	 1.1449596632e+00	-1.3478364596e+00
 6.7478531388e-01	 1.1610026688e+00	-1.3784756740e+00
 6.4762485564e-01	 1.1763692388e+00	-1.4029682541e+00
 6.2020568855e-01	 1.1910531367e+00	-1.4210354471e+00
 5.9255288864e-01	 1.2050493245e+00	-1.4323810047e+00
 5.6469155859e-01	 1.2183539558e+00	-1.4366963637e+00
 8.4419097137e-01	 1.0717328135e+00	-1.1888769251e+00
 8.1869860417e-01	 1.0913304674e+00	-1.2402140942e+00
 7.9279512770e-01	 1.1102907191e+00	-1.2856158193e+00
 7.6650434661e-01	 1.1286012200e+00	-1.3250476893e+00
 7.3985052472e-01	 1.1462507968e+00	-1.3584435365e+00
 7.1285831318e-01	 1.1632294706e+00	-1.3857044533e+00
 6.8555267811e-01	 1.1795284701e+00	-1.4066992195e+00
 6.5795882788e-01	 1.1951402402e+00	-1.4212661081e+00
 6.3010214067e-01	 1.2100584450e+00	-1.4292159880e+00
 6.0200809261e-01	 1.2242779661e+00	-1.4303365982e+00
 5.7370218696e-01	 1.2377948958e+00	-1.4243978279e+00
 8.5744992109e-01	 1.0885655586e+00	-1.2571864258e+00
 8.3155716817e-01	 1.1084710153e+00	-1.3025075170e+00
 8.0524684904e-01	 1.1277290587e+00	-1.3411538340e+00
 7.7854314226e-01	 1.1463271461e+00	-1.3732014711e+00
 7.5147069271e-01	 1.1642539290e+00	-1.3986907553e+00
 7.2405453874e-01	 1.1814992716e+00	-1.4176245489e+00
 6.9632003857e-01	 1.1980542648e+00	-1.4299681421e+00
 6.6829279651e-01	 1.2139112350e+00	-1.4356507035e+00
 6.3999858932e-01	 1.2290637467e+00	-1.4345682032e+00
 6.1146329327e-01	 1.2435066011e+00	-1.4265876730e+00
 5.8271281217e-01	 1.2572358290e+00	-1.4115526256e+00
 8.7070886771e-01	 1.1053982999e+00	-1.3156548023e+00
 8.4441572916e-01	 1.1256115592e+00	-1.3555420064e+00
 8.1769856748e-01	 1.1451673942e+00	-1.3880842828e+00
 7.9058193510e-01	 1.1640530682e+00	-1.4134647228e+00
 7.6309085799e-01	 1.1822570570e+00	-1.4318263886e+00
 7.3525076169e-01	 1.1997690683e+00	-1.4432698856e+00
 7.0708739652e-01	 1.2165800553e+00	-1.4478527163e+00
 6.7862676273e-01	 1.2326822254e+00	-1.4455903852e+00
 6.4989503566e-01	 1.2480690439e+00	-1.4364591644e+00
 6.2091849172e-01	 1.2627352315e+00	-1.4204003741e+00
 5.9172343528e-01	 1.2766767577e+00	-1.3973259836e+00
 8.8396781279e-01	 1.1222310391e+00	-1.3644809663e+00
 8.5727428865e-01	 1.1427521011e+00	-1.3994131484e+00
 8.3015028446e-01	 1.1626057276e+00	-1.4264011909e+00
 8.0262072653e-01	 1.1817789881e+00	-1.4457315947e+00
 7.7471102192e-01	 1.2002601829e+00	-1.4576462766e+00
 7.4644698333e-01	 1.2180388629e+00	-1.4623393943e+00
 7.1785475322e-01	 1.2351058436e+00	-1.4599561601e+00
 6.8896072774e-01	 1.2514532137e+00	-1.4505936114e+00
 6.5979148085e-01	 1.2670743389e+00	-1.4343032430e+00
 6.3037368907e-01	 1.2819638597e+00	-1.4110953458e+00
 6.0073405733e-01	 1.2961176841e+00	-1.3809448373e+00
 5.1062766331e-01	 1.1017080459e+00	-1.5550370675e+00
 4.8526966864e-01	 1.1131103519e+00	-1.6488050094e+00
 4.5976834561e-01	 1.1238836379e+00	-1.7422474089e+00
 4.3414609011e-01	 1.1340275874e+00	-1.8341185897e+00
 4.0842508552e-01	 1.1435428967e+00	-1.9232417389e+00
 3.8262724881e-01	 1.1524312490e+00	-2.0085156349e+00
 3.5677417923e-01	 1.1606952859e+00	-2.0889204928e+00
 3.3088710979e-01	 1.1683385766e+00	-2.1635228369e+00
 3.0498686165e-01	 1.1753655829e+00	-2.2314793311e+00
 2.7909380165e-01	 1.1817816236e+00	-2.2920395152e+00
 2.5322780301e-01	 1.1875928354e+00	-2.3445474217e+00
 5.1963833267e-01	 1.1211490744e+00	-1.5242667484e+00
 4.9383286419e-01	 1.1327525884e+00	-1.5982268566e+00
 4.6788153815e-01	 1.1437159826e+00	-1.6720986394e+00
 4.4180714562e-01	 1.1540389350e+00	-1.7447650095e+00
 4.1563226145e-01	 1.1637221539e+00	-1.8151642654e+00
 3.8937918936e-01	 1.1727673523e+00	-1.8822971331e+00
 3.6306990975e-01	 1.1811772187e+00	-1.9452330112e+00
 3.3672603031e-01	 1.1889553848e+00	-2.0031153096e+00
 3.1036873962e-01	 1.1961063916e+00	-2.0551657968e+00
 2.8401876391e-01	 1.2026356514e+00	-2.1006878885e+00
 2.5769632709e-01	 1.2085494093e+00	-2.1390688350e+00
 5.2864899257e-01	 1.1405900824e+00	-1.4996031290e+00
 5.0239605075e-01	 1.1523948043e+00	-1.5557024521e+00
 4.7599472216e-01	 1.1635483066e+00	-1.6119109902e+00
 4.4946819309e-01	 1.1740502615e+00	-1.6672319608e+00
 4.2283942982e-01	 1.1839013899e+00	-1.7207114261e+00
 3.9613112283e-01	 1.1931034344e+00	-1.7714456898e+00
 3.6936563367e-01	 1.2016591299e+00	-1.8185879732e+00
 3.4256494471e-01	 1.2095721714e+00	-1.8613542465e+00
 3.1575061194e-01	 1.2168471784e+00	-1.8990281087e+00
 2.8894372099e-01	 1.2234896573e+00	-1.9309646349e+00
 2.6216484648e-01	 1.2295059612e+00	-1.9565931335e+00
 5.3765964406e-01	 1.1600310723e+00	-1.4797049100e+00
 5.1095922932e-01	 1.1720370019e+00	-1.5197362781e+00
 4.8410789861e-01	 1.1833806120e+00	-1.5600408118e+00
 4.5712923340e-01	 1.1940615694e+00	-1.5997336601e+00
 4.3004659146e-01	 1.2040806071e+00	-1.6379611765e+00
 4.0288304999e-01	 1.2134394974e+00	-1.6739087146e+00
 3.7566135171e-01	 1.2221410220e+00	-1.7068077742e+00
 3.4840385365e-01	 1.2301889388e+00	-1.7359423538e+00
 3.2113247923e-01	 1.2375879459e+00	-1.7606543855e+00
 2.9386867348e-01	 1.2443436437e+00	-1.7803481526e+00
 2.6663336169e-01	 1.2504624936e+00	-1.7944936179e+00
 5.4667028820e-01	 1.1794720463e+00	-1.4633347027e+00
 5.1952240090e-01	 1.1916791835e+00	-1.4889477549e+00
 4.9222106843e-01	 1.2032129012e+00	-1.5149699513e+00
 4.6479026746e-01	 1.2140728609e+00	-1.5406198915e+00
 4.3725374721e-01	 1.2242598078e+00	-1.5651366048e+00
 4.0963497164e-01	 1.2337755438e+00	-1.5877877948e+00
 3.8195706461e-01	 1.2426228974e+00	-1.6078774982e+00
 3.5424275783e-01	 1.2508056893e+00	-1.6247529940e+00
 3.2651434213e-01	 1.2583286965e+00	-1.6378108186e+00
 2.9879362195e-01	 1.2651976131e+00	-1.6465017715e+00
 2.7110187326e-01	 1.2714190089e+00	-1.6503348204e+00
 5.5568092602e-01	 1.1989130067e+00	-1.4493502339e+00
 5.2808556648e-01	 1.2113213513e+00	-1.4620616125e+00
 5.0033423256e-01	 1.2230451766e+00	-1.4752953315e+00
 4.7245129616e-01	 1.2340841384e+00	-1.4883648328e+00
 4.4446089792e-01	 1.2444389943e+00	-1.5005940468e+00
 4.1638688857e-01	 1.2541115760e+00	-1.5113261398e+00
 3.8825277310e-01	 1.2631047584e+00	-1.5199317339e+00
 3.6008165792e-01	 1.2714224254e+00	-1.5258164129e+00
 3.3189620127e-01	 1.2790694325e+00	-1.5284273497e+00
 3.0371856697e-01	 1.2860515678e+00	-1.5272589209e+00
 2.7557038169e-01	 1.2923755094e+00	-1.5218572008e+00
 5.6469155859e-01	 1.2183539558e+00	-1.4366963637e+00
 5.3664872707e-01	 1.2309635076e+00	-1.4378991560e+00
 5.0844739197e-01	 1.2428774403e+00	-1.4397194999e+00
 4.8011232039e-01	 1.2540954042e+00	-1.4415569271e+00
 4.5166804442e-01	 1.2646181691e+00	-1.4428123171e+00
 4.2313880156e-01	 1.2744475964e+00	-1.4428972088e+00
 3.9454847792e-01	 1.2835866075e+00	-1.4412426348e+00
 3.6592055460e-01	 1.2920391494e+00	-1.4373072695e+00
 3.3727805726e-01	 1.2998101565e+00	-1.4305847059e+00
 3.0864350912e-01	 1.3069055104e+00	-1.4206097052e+00
 2.8003888753e-01	 1.3133319978e+00	-1.4069632960e+00
 5.7370218696e-01	 1.2377948958e+00	-1.4243978279e+00
 5.4521188366e-01	 1.2506056547e+00	-1.4153703275e+00
 5.1656054759e-01	 1.2627096949e+00	-1.4070420453e+00
 4.8777334104e-01	 1.2741066607e+00	-1.3988896857e+00
 4.5887518756e-01	 1.2847973345e+00	-1.3903829324e+00
 4.2989071139e-01	 1.2947836072e+00	-1.3809943887e+00
 4.0084417980e-01	 1.3040684471e+00	-1.3702090857e+00
 3.7175944856e-01	 1.3126558639e+00	-1.3575333240e+00
 3.4265991074e-01	 1.3205508707e+00	-1.3425026420e+00
 3.1356844897e-01	 1.3277594433e+00	-1.3246887319e+00
 2.8450739127e-01	 1.3342884764e+00	-1.3037051658e+00
 5.8271281217e-01	 1.2572358290e+00	-1.4115526256e+00
 5.5377503726e-01	 1.2702477950e+00	-1.3934664782e+00
 5.2467370037e-01	 1.2825419424e+00	-1.3761517835e+00
 4.9543435901e-01	 1.2941179102e+00	-1.3591533203e+00
 4.6608232818e-01	 1.3049764928e+00	-1.3420012206e+00
 4.3664261886e-01	 1.3151196109e+00	-1.3242216107e+00
 4.0713987948e-01	 1.3245502795e+00	-1.3053468572e+00
 3.7759834047e-01	 1.3332725711e+00	-1.2849251602e+00
 3.4804176234e-01	 1.3412915778e+00	-1.2625292597e+00
 3.1849338709e-01	 1.3486133689e+00	-1.2377640569e+00
 2.8897589345e-01	 1.3552449476e+00	-1.2102729915e+00
 5.9172343528e-01	 1.2766767577e+00	-1.3973259836e+00
 5.6233818885e-01	 1.2898899307e+00	-1.3712537751e+00
 5.3278685126e-01	 1.3023741854e+00	-1.3460196345e+00
 5.0309537520e-01	 1.3141291551e+00	-1.3212271172e+00
 4.7328946712e-01	 1.3251556464e+00	-1.2964582212e+00
 4.4339452476e-01	 1.3354556099e+00	-1.2712848046e+00
 4.1343557768e-01	 1.3450321070e+00	-1.2452796418e+00
 3.8343723103e-01	 1.3538892735e+00	-1.2180268302e+00
 3.5342361268e-01	 1.3620322799e+00	-1.1891312890e+00
 3.2341832407e-01	 1.3694672896e+00	-1.1582271283e+00
 2.9344439459e-01	 1.3762014140e+00	-1.1249847079e+00
 6.0073405733e-01	 1.2961176841e+00	-1.3809448373e+00
 5.7090133945e-01	 1.3095320642e+00	-1.3478671742e+00
 5.4090000120e-01	 1.3222064260e+00	-1.3156921144e+00
 5.1075639048e-01	 1.3341403975e+00	-1.2840724751e+00
 4.8049660521e-01	 1.3453347976e+00	-1.2526332931e+00
 4.5014642987e-01	 1.3557916065e+00	-1.2209841028e+00
 4.1973127516e-01	 1.3655139323e+00	-1.1887308790e+00
 3.8927612090e-01	 1.3745059735e+00	-1.1554873265e+00
 3.5880546240e-01	 1.3827729797e+00	-1.1208852307e+00
 3.2834326047e-01	 1.3903212079e+00	-1.0845836226e+00
 2.9791289521e-01	 1.3971578779e+00	-1.0462765569e+00
 2.5322780301e-01	 1.1875928354e+00	-2.3445474217e+00
 2.2740640839e-01	 1.1928064770e+00	-2.3917927247e+00
 2.0165023662e-01	 1.1974297732e+00	-2.4362694721e+00
 1.7597750587e-01	 1.2014710700e+00	-2.4770604637e+00
 1.5040581494e-01	 1.2049393628e+00	-2.5133813063e+00
 1.2495212076e-01	 1.2078442516e+00	-2.5445773447e+00
 9.9632719030e-02	 1.2101958964e+00	-2.5701193815e+00
 7.4463228241e-02	 1.2120049716e+00	-2.5895983090e+00
 4.9458576840e-02	 1.2132826210e+00	-2.6027187941e+00
 2.4632993436e-02	 1.2140404132e+00	-2.6092921594e+00
 0.0000000000e+00	 1.2142902977e+00	-2.6092286123e+00
 2.5769632709e-01	 1.2085494093e+00	-2.1390688350e+00
 2.3141928138e-01	 1.2138550522e+00	-2.1733076340e+00
 2.0520860946e-01	 1.2185599323e+00	-2.2061059015e+00
 1.7908285098e-01	 1.2226725429e+00	-2.2365671089e+00
 1.5305991531e-01	 1.2262020380e+00	-2.2639155700e+00
 1.2715705858e-01	 1.2291581874e+00	-2.2874940728e+00
 1.0139086406e-01	 1.2315513299e+00	-2.3067602795e+00
 7.5777225852e-02	 1.2333923285e+00	-2.3212820182e+00
 5.0331335829e-02	 1.2346925236e+00	-2.3307316000e+00
 2.5067673684e-02	 1.2354636881e+00	-2.3348793074e+00
 0.0000000000e+00	 1.2357179820e+00	-2.3335862031e+00
 2.6216484648e-01	 1.2295059612e+00	-1.9565931335e+00
 2.3543215016e-01	 1.2349036053e+00	-1.9791045860e+00
 2.0876697857e-01	 1.2396900692e+00	-2.0013836303e+00
 1.8218819284e-01	 1.2438739935e+00	-2.0225450376e+00
 1.5571401290e-01	 1.2474646910e+00	-2.0418144966e+00
 1.2936199409e-01	 1.2504721007e+00	-2.0585269219e+00
 1.0314900725e-01	 1.2529067409e+00	-2.0721234962e+00
 7.7091222084e-02	 1.2547796629e+00	-2.0821475638e+00
 5.1204093902e-02	 1.2561024037e+00	-2.0882395104e+00
 2.5502353476e-02	 1.2568869404e+00	-2.0901307738e+00
 0.0000000000e+00	 1.2571456438e+00	-2.0876371366e+00
 2.6663336169e-01	 1.2504624936e+00	-1.7944936179e+00
 2.3944501519e-01	 1.2559521388e+00	-1.8064594951e+00
 2.1232534436e-01	 1.2608201864e+00	-1.8192923896e+00
 1.8529353180e-01	 1.2650754243e+00	-1.8321093128e+00
 1.5836810800e-01	 1.2687273241e+00	-1.8441302736e+00
 1.3156692754e-01	 1.2717859941e+00	-1.8546772443e+00
 1.0490714879e-01	 1.2742621321e+00	-1.8631718050e+00
 7.8405217090e-02	 1.2761669773e+00	-1.8691315857e+00
 5.2076851161e-02	 1.2775122639e+00	-1.8721656376e+00
 2.5937032862e-02	 1.2783101727e+00	-1.8719688835e+00
 0.0000000000e+00	 1.2785732857e+00	-1.8683158002e+00
 2.7110187326e-01	 1.2714190089e+00	-1.6503348204e+00
 2.4345787695e-01	 1.2770006551e+00	-1.6528450283e+00
 2.1588370724e-01	 1.2819502864e+00	-1.6572231622e+00
 1.8839886823e-01	 1.2862768379e+00	-1.6625796946e+00
 1.6102220094e-01	 1.2899899399e+00	-1.6681221538e+00
 1.3377185919e-01	 1.2930998702e+00	-1.6731547268e+00
 1.0666528890e-01	 1.2956175057e+00	-1.6770764711e+00
 7.9719211023e-02	 1.2975542743e+00	-1.6793782501e+00
 5.2949607707e-02	 1.2989221065e+00	-1.6796385290e+00
 2.6371711894e-02	 1.2997333875e+00	-1.6775181810e+00
 0.0000000000e+00	 1.3000009100e+00	-1.6727544646e+00
 2.7557038169e-01	 1.2923755094e+00	-1.5218572008e+00
 2.4747073589e-01	 1.2980491566e+00	-1.5159148835e+00
 2.1944206763e-01	 1.3030803715e+00	-1.5127521160e+00
 1.9150420248e-01	 1.3074782366e+00	-1.5114643055e+00
 1.6367629202e-01	 1.3112525408e+00	-1.5112399266e+00
 1.3597678929e-01	 1.3144137313e+00	-1.5113607471e+00
 1.0842342778e-01	 1.3169728644e+00	-1.5112005697e+00
 8.1033204037e-02	 1.3189415564e+00	-1.5102226100e+00
 5.3822363643e-02	 1.3203319342e+00	-1.5079756476e+00
 2.6806390621e-02	 1.3211565874e+00	-1.5040891079e+00
 0.0000000000e+00	 1.3214285194e+00	-1.4982672389e+00
 2.8003888753e-01	 1.3133319978e+00	-1.4069632960e+00
 2.5148359250e-01	 1.3190976459e+00	-1.3934895635e+00
 2.2300042595e-01	 1.3242104444e+00	-1.3836260695e+00
 1.9460953492e-01	 1.3286796229e+00	-1.3764448527e+00
 1.6633038156e-01	 1.3325151292e+00	-1.3711089687e+00
 1.3818171811e-01	 1.3357275800e+00	-1.3668733210e+00
 1.1018156564e-01	 1.3383282107e+00	-1.3630839012e+00
 8.2347196284e-02	 1.3403288259e+00	-1.3591755573e+00
 5.4695119070e-02	 1.3417417494e+00	-1.3546684335e+00
 2.7241069095e-02	 1.3425797747e+00	-1.3491632451e+00
 0.0000000000e+00	 1.3428561162e+00	-1.3423355619e+00
 2.8450739127e-01	 1.3342884764e+00	-1.3037051658e+00
 2.5549644723e-01	 1.3401461253e+00	-1.2835434828e+00
 2.2655878260e-01	 1.3453405073e+00	-1.2677493186e+00
 1.9771486591e-01	 1.3498809993e+00	-1.2553632391e+00
 1.6898446985e-01	 1.3537777078e+00	-1.2455166986e+00
 1.4038664590e-01	 1.3570414187e+00	-1.2374334652e+00
 1.1193970267e-01	 1.3596835470e+00	-1.2304293252e+00
 8.3661187918e-02	 1.3617160855e+00	-1.2239101929e+00
 5.5567874089e-02	 1.3631515546e+00	-1.2173687725e+00
 2.7675747366e-02	 1.3640029520e+00	-1.2103799443e+00
 0.0000000000e+00	 1.3642837031e+00	-1.2025950607e+00
 2.8897589345e-01	 1.3552449476e+00	-1.2102729915e+00
 2.5950930056e-01	 1.3611945974e+00	-1.1841932616e+00
 2.3011713801e-01	 1.3664705629e+00	-1.1631716807e+00
 2.0082019582e-01	 1.3710823683e+00	-1.1462094100e+00
 1.7163855722e-01	 1.3750402789e+00	-1.1324002850e+00
 1.4259157292e-01	 1.3783552500e+00	-1.1209328227e+00
 1.1369783909e-01	 1.3810388758e+00	-1.1110903609e+00
 8.4975179092e-02	 1.3831033375e+00	-1.1022494599e+00
 5.6440628803e-02	 1.3845613523e+00	-1.0938767203e+00
 2.8110425485e-02	 1.3854261219e+00	-1.0855242000e+00
 0.0000000000e+00	 1.3857112824e+00	-1.0768236287e+00
 2.9344439459e-01	 1.3762014140e+00	-1.1249847079e+00
 2.6352215295e-01	 1.3822430646e+00	-1.0936870807e+00
 2.3367549259e-01	 1.3876006135e+00	-1.0680776222e+00
 2.0392552499e-01	 1.3922837324e+00	-1.0471103057e+00
 1.7429264396e-01	 1.3963028450e+00	-1.0298354734e+00
 1.4479649942e-01	 1.3996690763e+00	-1.0154024162e+00
 1.1545597510e-01	 1.4023941997e+00	-1.0030599190e+00
 8.6289169960e-02	 1.4044905846e+00	-9.9215490558e-01
 5.7313383313e-02	 1.4059711450e+00	-9.8212934742e-01
 2.8545103502e-02	 1.4068492867e+00	-9.7251563076e-01
 0.0000000000e+00	 1.4071388567e+00	-9.6293059341e-01
 2.9791289521e-01	 1.3971578779e+00	-1.0462765569e+00
 2.6753500487e-01	 1.4032915293e+00	-1.0103949871e+00
 2.3723384675e-01	 1.4087306617e+00	-9.8077636006e-01
 2.0703085381e-01	 1.4134850939e+00	-9.5631980320e-01
 1.7694673040e-01	 1.4175654087e+00	-9.3602641510e-01
 1.4700142567e-01	 1.4209829002e+00	-9.1900241094e-01
 1.1721411090e-01	 1.4237495210e+00	-9.0446004555e-01
 8.7603160673e-02	 1.4258778292e+00	-8.9171645431e-01
 5.8186137721e-02	 1.4273809352e+00	-8.8019058834e-01
 2.8979781469e-02	 1.4282724490e+00	-8.6939845017e-01
 0.0000000000e+00	 1.4285664286e+00	-8.5894685833e-01
 1.4285664286e+00	 0.0000000000e+00	 3.3510817659e+00
 1.4282724490e+00	 2.8979781469e-02	 3.3488467035e+00
 1.4273809352e+00	 5.8186137721e-02	 3.3330267647e+00
 1.4258778292e+00	 8.7603160673e-02	 3.3035181014e+00
 1.4237495210e+00	 1.1721411090e-01	 3.2604295148e+00
 1.4209829002e+00	 1.4700142567e-01	 3.2040894109e+00
 1.4175654087e+00	 1.7694673040e-01	 3.1350499489e+00
 1.4134850939e+00	 2.0703085381e-01	 3.0540881404e+00
 1.4087306617e+00	 2.3723384675e-01	 2.9622037015e+00
 1.4032915293e+00	 2.6753500487e-01	 2.8606135083e+00
 1.3971578779e+00	 2.9791289521e-01	 2.7507425699e+00
 1.4499954992e+00	 0.0000000000e+00	 3.3373996326e+00
 1.4496971098e+00	 2.9414489839e-02	 3.3357096713e+00
 1.4487922229e+00	 5.9058953173e-02	 3.3197880615e+00
 1.4472665698e+00	 8.8917243293e-02	 3.2896264270e+00
 1.4451063361e+00	 1.1897236968e-01	 3.2454336236e+00
 1.4422982148e+00	 1.4920650614e-01	 3.1876335317e+00
 1.4388294596e+00	 1.7960100247e-01	 3.1168609781e+00
 1.4346879385e+00	 2.1013639983e-01	 3.0339557471e+00
 1.4298621878e+00	 2.4079244980e-01	 2.9399546581e+00
 1.4243414662e+00	 2.7154813748e-01	 2.8360528672e+00
 1.4181158076e+00	 3.0238170837e-01	 2.7236328466e+00
 1.4714245648e+00	 0.0000000000e+00	 3.3242786799e+00
 1.4711217656e+00	 2.9849198107e-02	 3.3231918171e+00
 1.4702035057e+00	 5.9931768422e-02	 3.3072635818e+00
 1.4686553053e+00	 9.0231325606e-02	 3.2765552815e+00
 1.4664631461e+00	 1.2073062804e-01	 3.2313483349e+00
 1.4636135244e+00	 1.5141158609e-01	 3.1721411708e+00
 1.4600935055e+00	 1.8225527393e-01	 3.0996442056e+00
 1.4558907780e+00	 2.1324194512e-01	 3.0147728645e+00
 1.4509937090e+00	 2.4435105202e-01	 2.9186386344e+00
 1.4453913983e+00	 2.7556126914e-01	 2.8125381481e+00
 1.4390737324e+00	 3.0685052050e-01	 2.6979403252e+00
 1.4928536204e+00	 0.0000000000e+00	 3.3110309182e+00
 1.4925464114e+00	 3.0283906172e-02	 3.3105783785e+00
 1.4916147784e+00	 6.0804583262e-02	 3.2947223588e+00
 1.4900440308e+00	 9.1545407305e-02	 3.2635863415e+00
 1.4878199462e+00	 1.2248888558e-01	 3.2175164136e+00
 1.4849288241e+00	 1.5361666501e-01	 3.1570773087e+00
 1.4813575415e+00	 1.8490954414e-01	 3.0830464815e+00
 1.4770936077e+00	 2.1634748896e-01	 2.9964061904e+00
 1.4721252204e+00	 2.4790965258e-01	 2.8983335787e+00
 1.4664413205e+00	 2.7957439893e-01	 2.7901887676e+00
 1.4600316475e+00	 3.1131933053e-01	 2.6735009888e+00
 1.5142826610e+00	 0.0000000000e+00	 3.2970066093e+00
 1.5139710422e+00	 3.0718613932e-02	 3.2971927557e+00
 1.5130260361e+00	 6.1677397492e-02	 3.2814621092e+00
 1.5114327414e+00	 9.2859488084e-02	 3.2499933690e+00
 1.5091767314e+00	 1.2424714190e-01	 3.2031899456e+00
 1.5062441089e+00	 1.5582174239e-01	 3.1416751792e+00
 1.5026215626e+00	 1.8756381250e-01	 3.0662855525e+00
 1.4982964225e+00	 2.1945303063e-01	 2.9780618809e+00
 1.4932567169e+00	 2.5146825065e-01	 2.8782384785e+00
 1.4874912280e+00	 2.8358752591e-01	 2.7682303180e+00
 1.4809895478e+00	 3.1578813744e-01	 2.6496182245e+00
 1.5357116816e+00	 0.0000000000e+00	 3.2815916077e+00
 1.5353956530e+00	 3.1153321287e-02	 3.2823947323e+00
 1.5344372739e+00	 6.2550210906e-02	 3.2668177582e+00
 1.5328214320e+00	 9.4173567636e-02	 3.2350881651e+00
 1.5305334966e+00	 1.2600539657e-01	 3.1876598607e+00
 1.5275593738e+00	 1.5802681771e-01	 3.1252076079e+00
 1.5238855639e+00	 1.9021807838e-01	 3.0486194151e+00
 1.5194992176e+00	 2.2255856940e-01	 2.9589868799e+00
 1.5143881937e+00	 2.5502684539e-01	 2.8575934920e+00
 1.5085411158e+00	 2.8760064915e-01	 2.7459009208e+00
 1.5019474286e+00	 3.2025694018e-01	 2.6255333334e+00
 1.5571406772e+00	 0.0000000000e+00	 3.2642049107e+00
 1.5568202388e+00	 3.1588028134e-02	 3.2655779838e+00
 1.5558484867e+00	 6.3423023302e-02	 3.2501589078e+00
 1.5542100977e+00	 9.5487645654e-02	 3.2182179993e+00
 1.5518902369e+00	 1.2776364918e-01	 3.1702533272e+00
 1.5488746138e+00	 1.6023189046e-01	 3.1069843778e+00
 1.5451495403e+00	 1.9287234116e-01	 3.0293436609e+00
 1.5407019879e+00	 2.2566410454e-01	 2.9384662517e+00
 1.5355196459e+00	 2.5858543599e-01	 2.8356772818e+00
 1.5295909791e+00	 2.9161376770e-01	 2.7224774114e+00
 1.5229052850e+00	 3.2472573770e-01	 2.6005263375e+00
 1.5785696428e+00	 0.0000000000e+00	 3.2442964064e+00
 1.5782447946e+00	 3.2022734373e-02	 3.2461677889e+00
 1.5772596695e+00	 6.4295834476e-02	 3.2308875105e+00
 1.5755987334e+00	 9.6801721833e-02	 3.1987632487e+00
 1.5732469473e+00	 1.2952189934e-01	 3.1503313591e+00
 1.5701898240e+00	 1.6243696012e-01	 3.0863498093e+00
 1.5664134870e+00	 1.9552660023e-01	 3.0077890363e+00
 1.5619047285e+00	 2.2876963534e-01	 2.9158207300e+00
 1.5566510684e+00	 2.6214402160e-01	 2.8118045617e+00
 1.5506408129e+00	 2.9562688063e-01	 2.6972728988e+00
 1.5438631120e+00	 3.2919452897e-01	 2.5739135642e+00
 1.5999985734e+00	 0.0000000000e+00	 3.2213448047e+00
 1.5996693154e+00	 3.2457439902e-02	 3.2236189252e+00
 1.5986708173e+00	 6.5168644224e-02	 3.2084357309e+00
 1.5969873342e+00	 9.8115795865e-02	 3.1761352255e+00
 1.5946036228e+00	 1.3128014663e-01	 3.1272866141e+00
 1.5915049994e+00	 1.6464202618e-01	 3.0626805339e+00
 1.5876773990e+00	 1.9818085496e-01	 2.9833191981e+00
 1.5831074345e+00	 2.3187516107e-01	 2.8904044623e+00
 1.5777824565e+00	 2.6570260140e-01	 2.7853238408e+00
 1.5716906123e+00	 2.9963998701e-01	 2.6696345181e+00
 1.5648209048e+00	 3.3366331293e-01	 2.5450454222e+00
 1.6214274640e+00	 0.0000000000e+00	 3.1948557305e+00
 1.6210937962e+00	 3.2892144619e-02	 3.1974137311e+00
 1.6200819252e+00	 6.6041452342e-02	 3.1822639758e+00
 1.6183758951e+00	 9.9429867444e-02	 3.1497741776e+00
 1.6159602584e+00	 1.3303839063e-01	 3.1005413668e+00
 1.6128201350e+00	 1.6684708812e-01	 3.0353834439e+00
 1.6089412712e+00	 2.0083510474e-01	 2.9553286449e+00
 1.6043101009e+00	 2.3498068099e-01	 2.8616029315e+00
 1.5989138051e+00	 2.6926117455e-01	 2.7556153430e+00
 1.5927403724e+00	 3.0365308590e-01	 2.6389413593e+00
 1.5857786585e+00	 3.3813208856e-01	 2.5133043496e+00
 1.6428563095e+00	 0.0000000000e+00	 3.1643599675e+00
 1.6425182321e+00	 3.3326848423e-02	 3.1670603201e+00
 1.6414929881e+00	 6.6914258628e-02	 3.1518590787e+00
 1.6397644110e+00	 1.0074393626e-01	 3.1191474453e+00
 1.6373168493e+00	 1.3479663094e-01	 3.0695456396e+00
 1.6341352258e+00	 1.6905214544e-01	 3.0038938018e+00
 1.6302050988e+00	 2.0348934894e-01	 2.9232408105e+00
 1.6255127228e+00	 2.3808619440e-01	 2.8288310391e+00
 1.6200451094e+00	 2.7281974023e-01	 2.7220890883e+00
 1.6137900884e+00	 3.0766617636e-01	 2.6046025557e+00
 1.6067363681e+00	 3.4260085480e-01	 2.4781029200e+00
 1.3971578779e+00	 2.9791289521e-01	 2.7507425699e+00
 1.3903212079e+00	 3.2834326047e-01	 2.6313021935e+00
 1.3827729797e+00	 3.5880546240e-01	 2.5005540003e+00
 1.3745059735e+00	 3.8927612090e-01	 2.3595354837e+00
 1.3655139323e+00	 4.1973127516e-01	 2.2094247631e+00
 1.3557916065e+00	 4.5014642987e-01	 2.0515239342e+00
 1.3453347976e+00	 4.8049660521e-01	 1.8872402488e+00
 1.3341403975e+00	 5.1075639048e-01	 1.7180654495e+00
 1.3222064260e+00	 5.4090000120e-01	 1.5455536298e+00
 1.3095320642e+00	 5.7090133945e-01	 1.3712980328e+00
 1.2961176841e+00	 6.0073405733e-01	 1.1969072295e+00
 1.4181158076e+00	 3.0238170837e-01	 2.7236328466e+00
 1.4111765848e+00	 3.3326854135e-01	 2.6014730677e+00
 1.4035151301e+00	 3.6418768854e-01	 2.4678799657e+00
 1.3951241155e+00	 3.9511541917e-01	 2.3239186290e+00
 1.3859971901e+00	 4.2602741298e-01	 2.1707983374e+00
 1.3761290256e+00	 4.5689880724e-01	 2.0098546301e+00
 1.3655153603e+00	 4.8770424741e-01	 1.8425291169e+00
 1.3541530397e+00	 5.1841794162e-01	 1.6703473886e+00
 1.3420400538e+00	 5.4901371862e-01	 1.4948954342e+00
 1.3291755714e+00	 5.7946508900e-01	 1.3177950119e+00
 1.3155599703e+00	 6.0974530964e-01	 1.1406784521e+00
 1.4390737324e+00	 3.0685052050e-01	 2.6979403252e+00
 1.4320319569e+00	 3.3819382107e-01	 2.5735946841e+00
 1.4242572757e+00	 3.6956991343e-01	 2.4377181112e+00
 1.4157422528e+00	 4.0095471608e-01	 2.2913214889e+00
 1.4064804431e+00	 4.3232354934e-01	 2.1356468918e+00
 1.3964664398e+00	 4.6365118303e-01	 1.9720682157e+00
 1.3856959183e+00	 4.9491188793e-01	 1.8020662239e+00
 1.3741656772e+00	 5.2607949098e-01	 1.6272049197e+00
 1.3618736770e+00	 5.5712743414e-01	 1.4491064071e+00
 1.3488190742e+00	 5.8802883655e-01	 1.2694247262e+00
 1.3350022519e+00	 6.1875655984e-01	 1.0898191813e+00
 1.4600316475e+00	 3.1131933053e-01	 2.6735009888e+00
 1.4528873192e+00	 3.4311909850e-01	 2.5471151995e+00
 1.4449994117e+00	 3.7495213581e-01	 2.4093203376e+00
 1.4363603804e+00	 4.0679401026e-01	 2.2610431112e+00
 1.4269636866e+00	 4.3861968276e-01	 2.1033230009e+00
 1.4168038446e+00	 4.7040355568e-01	 1.9375171463e+00
 1.4058764668e+00	 5.0211952508e-01	 1.7652008690e+00
 1.3941783054e+00	 5.3374103675e-01	 1.5879814632e+00
 1.3817072910e+00	 5.6524114587e-01	 1.4075216773e+00
 1.3684625677e+00	 5.9659258010e-01	 1.2255118992e+00
 1.3544445245e+00	 6.2776780584e-01	 1.0436419044e+00
 1.4809895478e+00	 3.1578813744e-01	 2.6496182245e+00
 1.4737426669e+00	 3.4804437248e-01	 2.5213448760e+00
 1.4657415331e+00	 3.8033435442e-01	 2.3817859520e+00
 1.4569784936e+00	 4.1263330035e-01	 2.2318974637e+00
 1.4474469157e+00	 4.4491581177e-01	 2.0727400383e+00
 1.4371412352e+00	 4.7715592359e-01	 1.9054664770e+00
 1.4260570013e+00	 5.0932715719e-01	 1.7313220038e+00
 1.4141909196e+00	 5.4140257717e-01	 1.5520598334e+00
 1.4015408910e+00	 5.7335485193e-01	 1.3695156363e+00
 1.3881060475e+00	 6.0515631766e-01	 1.1854205212e+00
 1.3738867835e+00	 6.3677904553e-01	 1.0014985207e+00
 1.5019474286e+00	 3.2025694018e-01	 2.6255333334e+00
 1.4945979952e+00	 3.5296964186e-01	 2.4955307800e+00
 1.4864836352e+00	 3.8571656801e-01	 2.3543623070e+00
 1.4775965875e+00	 4.1847258500e-01	 2.2030150308e+00
 1.4679301257e+00	 4.5121193490e-01	 2.0425754963e+00
 1.4574786067e+00	 4.8390828521e-01	 1.8742167264e+00
 1.4462375169e+00	 5.1653478257e-01	 1.6991844351e+00
 1.4342035151e+00	 5.4906411043e-01	 1.5187825167e+00
 1.4213744725e+00	 5.8146855041e-01	 1.3344992349e+00
 1.4077495089e+00	 6.1372004722e-01	 1.1485511439e+00
 1.3933290243e+00	 6.4579027681e-01	 9.6277762960e-01
 1.5229052850e+00	 3.2472573770e-01	 2.6005263375e+00
 1.5154532991e+00	 3.5789490549e-01	 2.4689586421e+00
 1.5072257130e+00	 3.9109877532e-01	 2.3263405469e+00
 1.4982146574e+00	 4.2431186283e-01	 2.1736920121e+00
 1.4884133118e+00	 4.5750805069e-01	 2.0121267632e+00
 1.4778159546e+00	 4.9066063894e-01	 1.8428388160e+00
 1.4664180089e+00	 5.2374239954e-01	 1.6670882147e+00
 1.4542160872e+00	 5.5672563475e-01	 1.4861860977e+00
 1.4412080309e+00	 5.8958223943e-01	 1.3014792194e+00
 1.4273929475e+00	 6.2228376680e-01	 1.1143383925e+00
 1.4127712425e+00	 6.5480149758e-01	 9.2690203688e-01
 1.5438631120e+00	 3.2919452897e-01	 2.5739135642e+00
 1.5363085738e+00	 3.6282016223e-01	 2.4409504711e+00
 1.5279677618e+00	 3.9648097509e-01	 2.2970481548e+00
 1.5188326984e+00	 4.3015113249e-01	 2.1432610928e+00
 1.5088964693e+00	 4.6380415766e-01	 1.9807313868e+00
 1.4981532739e+00	 4.9741298323e-01	 1.8106747511e+00
 1.4865984727e+00	 5.3095000642e-01	 1.6343657629e+00
 1.4742286313e+00	 5.6438714835e-01	 1.4531224988e+00
 1.4610415616e+00	 5.9769591709e-01	 1.2682906866e+00
 1.4470363585e+00	 6.3084747438e-01	 1.0812275188e+00
 1.4322134334e+00	 6.6381270573e-01	 8.9328528078e-01
 1.5648209048e+00	 3.3366331293e-01	 2.5450454222e+00
 1.5571638145e+00	 3.6774541092e-01	 2.4108623557e+00
 1.5487097768e+00	 4.0186316607e-01	 2.2658467745e+00
 1.5394507057e+00	 4.3599039261e-01	 2.1110892782e+00
 1.5293795933e+00	 4.7010025435e-01	 1.9477614725e+00
 1.5184905601e+00	 5.0416531648e-01	 1.7771014057e+00
 1.5067789035e+00	 5.3815760153e-01	 1.6003983240e+00
 1.4942411427e+00	 5.7204864944e-01	 1.4189768698e+00
 1.4808750598e+00	 6.0580958150e-01	 1.2341808613e+00
 1.4666797375e+00	 6.3941116798e-01	 1.0473568001e+00
 1.4516555926e+00	 6.7282389916e-01	 8.5983726778e-01
 1.5857786585e+00	 3.3813208856e-01	 2.5133043496e+00
 1.5780190162e+00	 3.7267065043e-01	 2.3780824367e+00
 1.5694517530e+00	 4.0724534701e-01	 2.2321301993e+00
 1.5600686746e+00	 4.4182964183e-01	 2.0765758951e+00
 1.5498626790e+00	 4.7639633929e-01	 1.9126216890e+00
 1.5388278083e+00	 5.1091763713e-01	 1.7415285286e+00
 1.5269592967e+00	 5.4536518319e-01	 1.5646003944e+00
 1.5142536168e+00	 5.7971013622e-01	 1.3831680555e+00
 1.5007085210e+00	 6.1392323076e-01	 1.1985724716e+00
 1.4863230797e+00	 6.4797484560e-01	 1.0121479962e+00
 1.4710977155e+00	 6.8183507578e-01	 8.2520554277e-01
 1.6067363681e+00	 3.4260085480e-01	 2.4781029200e+00
 1.5988741741e+00	 3.7759587958e-01	 2.3420290335e+00
 1.5901936857e+00	 4.1262751664e-01	 2.1953225150e+00
 1.5806866001e+00	 4.4766887879e-01	 2.0391507428e+00
 1.5703457218e+00	 4.8269241101e-01	 1.8747474237e+00
 1.5591650137e+00	 5.1766994360e-01	 1.7033968963e+00
 1.5471396475e+00	 5.5257274971e-01	 1.5264178692e+00
 1.5342660489e+00	 5.8737160692e-01	 1.3451467285e+00
 1.5205419406e+00	 6.2203686299e-01	 1.1609205609e+00
 1.5059663808e+00	 6.5653850523e-01	 9.7506005156e-01
 1.4905397975e+00	 6.9084623347e-01	 7.8885242220e-01
 1.2961176841e+00	 6.0073405733e-01	 1.1969072295e+00
 1.2819638597e+00	 6.3037368907e-01	 1.0215090901e+00
 1.2670743389e+00	 6.5979148085e-01	 8.4428380127e-01
 1.2514532137e+00	 6.8896072774e-01	 6.6685597646e-01
 1.2351058436e+00	 7.1785475322e-01	 4.9080376036e-01
 1.2180388629e+00	 7.4644698333e-01	 3.1764031655e-01
 1.2002601829e+00	 7.7471102192e-01	 1.4879709550e-01
 1.1817789881e+00	 8.0262072653e-01	-1.4390842422e-02
 1.1626057276e+00	 8.3015028446e-01	-1.7069723789e-01
 1.1427521011e+00	 8.5727428865e-01	-3.1901463618e-01
 1.1222310391e+00	 8.8396781279e-01	-4.5836191574e-01
 1.3155599703e+00	 6.0974530964e-01	 1.1406784521e+00
 1.3011938328e+00	 6.3982954777e-01	 9.6275458264e-01
 1.2860809633e+00	 6.6968861824e-01	 7.8329470545e-01
 1.2702255149e+00	 6.9929541556e-01	 6.0395143663e-01
 1.2536329276e+00	 7.2862286303e-01	 4.2632205822e-01
 1.2363099354e+00	 7.5764398809e-01	 2.5192924546e-01
 1.2182645681e+00	 7.8633199862e-01	 8.2203802381e-02
 1.1995061479e+00	 8.1466036001e-01	-8.1530305103e-02
 1.1800452808e+00	 8.4260287238e-01	-2.3806839983e-01
 1.1598938419e+00	 8.7013374753e-01	-3.8633488601e-01
 1.1390649558e+00	 8.9722768527e-01	-5.2539032262e-01
 1.3350022519e+00	 6.1875655984e-01	 1.0898191813e+00
 1.3204238015e+00	 6.4928540426e-01	 9.0958340098e-01
 1.3050875832e+00	 6.7958575333e-01	 7.2808175143e-01
 1.2889978117e+00	 7.0963010097e-01	 5.4699477973e-01
 1.2721600074e+00	 7.3939097034e-01	 3.6793879470e-01
 1.2545810036e+00	 7.6884099023e-01	 1.9244582985e-01
 1.2362689490e+00	 7.9795297260e-01	 2.1945855844e-02
 1.2172333036e+00	 8.2669999069e-01	-1.4224845332e-01
 1.1974848299e+00	 8.5505545740e-01	-2.9895417412e-01
 1.1770355787e+00	 8.8299320342e-01	-4.4712766565e-01
 1.1558988685e+00	 9.1048755465e-01	-5.8587112677e-01
 1.3544445245e+00	 6.2776780584e-01	 1.0436419044e+00
 1.3396537612e+00	 6.5874125633e-01	 8.6129683029e-01
 1.3240941942e+00	 6.8948288380e-01	 6.7793896844e-01
 1.3077700997e+00	 7.1996478156e-01	 4.9527702551e-01
 1.2906870785e+00	 7.5015907262e-01	 3.1494647551e-01
 1.2728520634e+00	 7.8003798716e-01	 1.3848875187e-01
 1.2542733216e+00	 8.0957394117e-01	-3.2667055011e-02
 1.2349604510e+00	 8.3873961575e-01	-1.9721967560e-01
 1.2149243709e+00	 8.6750803660e-01	-3.5400808063e-01
 1.1941773076e+00	 8.9585265330e-01	-5.0202070111e-01
 1.1727327733e+00	 9.2374741784e-01	-6.4040140489e-01
 1.3738867835e+00	 6.3677904553e-01	 1.0014985207e+00
 1.3588837074e+00	 6.6819710179e-01	 8.1723571020e-01
 1.3431007920e+00	 6.9938000733e-01	 6.3219992934e-01
 1.3265423746e+00	 7.3029945491e-01	 4.4812856797e-01
 1.3092141366e+00	 7.6092716736e-01	 2.6667664594e-01
 1.2911231103e+00	 7.9123497624e-01	 8.9395225877e-02
 1.2722776815e+00	 8.2119490160e-01	-8.2287397326e-02
 1.2526875860e+00	 8.5077923238e-01	-2.4708139524e-01
 1.2323638997e+00	 8.7996060709e-01	-4.0384775210e-01
 1.2113190244e+00	 9.0871209418e-01	-5.5160711895e-01
 1.1895666664e+00	 9.3700727175e-01	-6.8954514168e-01
 1.3933290243e+00	 6.4579027681e-01	 9.6277762960e-01
 1.3781136356e+00	 6.7765293842e-01	 7.7677772161e-01
 1.3621073720e+00	 7.0927712164e-01	 5.9023505331e-01
 1.3453146320e+00	 7.4063411862e-01	 4.0491651095e-01
 1.3277411774e+00	 7.7169525205e-01	 2.2249727706e-01
 1.3093941401e+00	 8.0243195488e-01	 4.4538452984e-02
 1.2902820247e+00	 8.3281585118e-01	-1.2753225343e-01
 1.2704147044e+00	 8.6281883777e-01	-2.9243642449e-01
 1.2498034122e+00	 8.9241316595e-01	-4.4905716556e-01
 1.2284607252e+00	 9.2157152306e-01	-5.9644753681e-01
 1.2064005438e+00	 9.5026711329e-01	-7.3383516158e-01
 1.4127712425e+00	 6.5480149758e-01	 9.2690203688e-01
 1.3973435415e+00	 6.8710876402e-01	 7.3933489309e-01
 1.3811139298e+00	 7.1917422439e-01	 5.5144912764e-01
 1.3640868675e+00	 7.5096877027e-01	 3.6504222135e-01
 1.3462681966e+00	 7.8246332418e-01	 1.8181036639e-01
 1.3276651487e+00	 8.1362892045e-01	 3.3252859407e-03
 1.3082863468e+00	 8.4443678721e-01	-1.6898557513e-01
 1.2881418022e+00	 8.7485842912e-01	-3.3385512135e-01
 1.2672429043e+00	 9.0486571029e-01	-4.9018868459e-01
 1.2456024060e+00	 9.3443093694e-01	-6.3707197457e-01
 1.2232344015e+00	 9.6352693935e-01	-7.7377489229e-01
 1.4322134334e+00	 6.6381270573e-01	 8.9328528078e-01
 1.4165734204e+00	 6.9656457638e-01	 7.0435130612e-01
 1.4001204610e+00	 7.2907131329e-01	 5.1527902806e-01
 1.3828590767e+00	 7.6130340746e-01	 3.2793907912e-01
 1.3647951899e+00	 7.9323138124e-01	 1.4404973293e-01
 1.3459361317e+00	 8.2482587035e-01	-3.4805915699e-02
 1.3262906437e+00	 8.5605770697e-01	-2.0720025285e-01
 1.3058688751e+00	 8.8689800361e-01	-3.7187736730e-01
 1.2846823721e+00	 9.1731823719e-01	-5.2776493036e-01
 1.2627440628e+00	 9.4729033281e-01	-6.7398160318e-01
 1.2400682356e+00	 9.7678674685e-01	-8.0983997624e-01
 1.4516555926e+00	 6.7282389916e-01	 8.5983726778e-01
 1.4358032679e+00	 7.0602037330e-01	 6.7112984987e-01
 1.4191269612e+00	 7.3896838603e-01	 4.8119161876e-01
 1.4016312553e+00	 7.7163802776e-01	 2.9307040580e-01
 1.3833221530e+00	 8.0399942071e-01	 1.0867898804e-01
 1.3642070848e+00	 8.3602280195e-01	-7.0387257932e-02
 1.3442949113e+00	 8.6767860774e-01	-2.4270001686e-01
 1.3235959191e+00	 8.9893755844e-01	-4.0701438312e-01
 1.3021218113e+00	 9.2977074376e-01	-5.6228049750e-01
 1.2798856916e+00	 9.6014970768e-01	-7.0765034639e-01
 1.2569020423e+00	 9.9004653270e-01	-8.4247974414e-01
 1.4710977155e+00	 6.8183507578e-01	 8.2520554277e-01
 1.4550330795e+00	 7.1547615257e-01	 6.3736018469e-01
 1.4381334259e+00	 7.4886544029e-01	 4.4837402078e-01
 1.4204033988e+00	 7.8197262877e-01	 2.5992755489e-01
 1.4018490814e+00	 8.1476744007e-01	 7.5189666118e-02
 1.3824780038e+00	 8.4721971266e-01	-1.0392312814e-01
 1.3622991452e+00	 8.7929948683e-01	-2.7598118627e-01
 1.3413229300e+00	 9.1097709080e-01	-4.3975039756e-01
 1.3195612180e+00	 9.4222322708e-01	-5.9420352915e-01
 1.2970272885e+00	 9.7300905855e-01	-7.3852634901e-01
 1.2737358175e+00	 1.0033062938e+00	-8.7211856339e-01
 1.4905397975e+00	 6.9084623347e-01	 7.8885242220e-01
 1.4742628508e+00	 7.2493191198e-01	 6.0203619443e-01
 1.4571398506e+00	 7.5876247377e-01	 4.1449548005e-01
 1.4391755029e+00	 7.9230720809e-01	 2.2764548004e-01
 1.4203759709e+00	 8.2553543683e-01	 4.3099500355e-02
 1.4007488845e+00	 8.5841659986e-01	-1.3589186873e-01
 1.3803033413e+00	 8.9092034152e-01	-3.0751427954e-01
 1.3590499037e+00	 9.2301659787e-01	-4.7054418235e-01
 1.3370005881e+00	 9.5467568425e-01	-6.2397716409e-01
 1.3141688493e+00	 9.8586838241e-01	-7.6703332383e-01
 1.2905695574e+00	 1.0165660270e+00	-8.9915707286e-01
 1.1222310391e+00	 8.8396781279e-01	-4.5836191574e-01
 1.1010566751e+00	 9.1020648788e-01	-5.8946135720e-01
 1.0792443055e+00	 9.3596658203e-01	-7.1310777515e-01
 1.0568103641e+00	 9.6122506348e-01	-8.2858919519e-01
 1.0337723842e+00	 9.8595966600e-01	-9.3527475882e-01
 1.0101489540e+00	 1.0101489540e+00	-1.0326111419e+00
 9.8595966600e-01	 1.0337723842e+00	-1.1201179051e+00
 9.6122506348e-01	 1.0568103641e+00	-1.1973821082e+00
 9.3596658203e-01	 1.0792443055e+00	-1.2640525287e+00
 9.1020648788e-01	 1.1010566751e+00	-1.3198338251e+00
 8.8396781279e-01	 1.1222310391e+00	-1.3644809663e+00
 1.1390649558e+00	 8.9722768527e-01	-5.2539032262e-01
 1.1175729678e+00	 9.2385995102e-01	-6.5585376168e-01
 1.0954334039e+00	 9.5000645694e-01	-7.7838825716e-01
 1.0726629443e+00	 9.7564382576e-01	-8.9229343551e-01
 1.0492793855e+00	 1.0007494573e+00	-9.9695704916e-01
 1.0253015943e+00	 1.0253015943e+00	-1.0918504954e+00
 1.0007494573e+00	 1.0492793855e+00	-1.1765231864e+00
 9.7564382576e-01	 1.0726629443e+00	-1.2505961380e+00
 9.5000645694e-01	 1.0954334039e+00	-1.3137551580e+00
 9.2385995102e-01	 1.1175729678e+00	-1.3657440079e+00
 8.9722768527e-01	 1.1390649558e+00	-1.4063578969e+00
 1.1558988685e+00	 9.1048755465e-01	-5.8587112677e-01
 1.1340892566e+00	 9.3751341098e-01	-7.1570346258e-01
 1.1116224984e+00	 9.6404632858e-01	-8.3716362549e-01
 1.0885155208e+00	 9.9006258469e-01	-9.4956945015e-01
 1.0647863831e+00	 1.0155392451e+00	-1.0523336963e+00
 1.0404542311e+00	 1.0404542311e+00	-1.1449585248e+00
 1.0155392451e+00	 1.0647863831e+00	-1.2270287445e+00
 9.9006258469e-01	 1.0885155208e+00	-1.2982042374e+00
 9.6404632858e-01	 1.1116224984e+00	-1.3582119853e+00
 9.3751341098e-01	 1.1340892566e+00	-1.4068381101e+00
 9.1048755465e-01	 1.1558988685e+00	-1.4439203265e+00
 1.1727327733e+00	 9.2374741784e-01	-6.4040140489e-01
 1.1506055377e+00	 9.5116686457e-01	-7.6957307965e-01
 1.1278115855e+00	 9.7808619367e-01	-8.8995911766e-01
 1.1043680899e+00	 1.0044813369e+00	-1.0009020431e+00
 1.0802933735e+00	 1.0303290260e+00	-1.1018459138e+00
 1.0556068608e+00	 1.0556068608e+00	-1.1923296063e+00
 1.0303290260e+00	 1.0802933735e+00	-1.2719787908e+00
 1.0044813369e+00	 1.1043680899e+00	-1.3404970501e+00
 9.7808619367e-01	 1.1278115855e+00	-1.3976566072e+00
 9.5116686457e-01	 1.1506055377e+00	-1.4432891207e+00
 9.2374741784e-01	 1.1727327733e+00	-1.4772769843e+00
 1.1895666664e+00	 9.3700727175e-01	-6.8954514168e-01
 1.1671218072e+00	 9.6482030861e-01	-8.1799382516e-01
 1.1440006612e+00	 9.9212604892e-01	-9.3727039378e-01
 1.1202206479e+00	 1.0189000790e+00	-1.0467484438e+00
 1.0958003531e+00	 1.0451187966e+00	-1.1459095431e+00
 1.0707594799e+00	 1.0707594799e+00	-1.2343351712e+00
 1.0451187966e+00	 1.0958003531e+00	-1.3116972695e+00
 1.0189000790e+00	 1.1202206479e+00	-1.3777479034e+00
 9.9212604892e-01	 1.1440006612e+00	-1.4323085500e+00
 9.6482030861e-01	 1.1671218072e+00	-1.4752595183e+00
 9.3700727175e-01	 1.1895666664e+00	-1.5065299811e+00
 1.2064005438e+00	 9.5026711329e-01	-7.3383516158e-01
 1.1836380613e+00	 9.7847373990e-01	-8.6146726279e-01
 1.1601897217e+00	 1.0061658911e+00	-9.7956511214e-01
 1.1360731912e+00	 1.0333188076e+00	-1.0875396878e+00
 1.1113073182e+00	 1.0599085533e+00	-1.1849162266e+00
 1.0859120848e+00	 1.0859120848e+00	-1.2713246595e+00
 1.0599085533e+00	 1.1113073182e+00	-1.3464885774e+00
 1.0333188076e+00	 1.1360731912e+00	-1.4102132805e+00
 1.0061658911e+00	 1.1601897217e+00	-1.4623734796e+00
 9.7847373990e-01	 1.1836380613e+00	-1.5029012045e+00
 9.5026711329e-01	 1.2064005438e+00	-1.5317744497e+00
 1.2232344015e+00	 9.6352693935e-01	-7.7377489229e-01
 1.2001542962e+00	 9.9212715526e-01	-9.0046691089e-01
 1.1763787634e+00	 1.0202057168e+00	-1.0172843621e+00
 1.1519257159e+00	 1.0477375194e+00	-1.1236818688e+00
 1.1268142651e+00	 1.0746982928e+00	-1.2192344682e+00
 1.1010646721e+00	 1.1010646721e+00	-1.3036263768e+00
 1.0746982928e+00	 1.1268142651e+00	-1.3766382049e+00
 1.0477375194e+00	 1.1519257159e+00	-1.4381332330e+00
 1.0202057168e+00	 1.1763787634e+00	-1.4880433717e+00
 9.9212715526e-01	 1.2001542962e+00	-1.5263554180e+00
 9.6352693935e-01	 1.2232344015e+00	-1.5530981889e+00
 1.2400682356e+00	 9.7678674685e-01	-8.0983997624e-01
 1.2166705079e+00	 1.0057805515e+00	-9.3543970459e-01
 1.1925677824e+00	 1.0342455230e+00	-1.0508439681e+00
 1.1677782184e+00	 1.0621562111e+00	-1.1555572752e+00
 1.1423211904e+00	 1.0894880116e+00	-1.2492105918e+00
 1.1162172382e+00	 1.1162172382e+00	-1.3315482632e+00
 1.0894880116e+00	 1.1423211904e+00	-1.4024133054e+00
 1.0621562111e+00	 1.1677782184e+00	-1.4617317384e+00
 1.0342455230e+00	 1.1925677824e+00	-1.5094966459e+00
 1.0057805515e+00	 1.2166705079e+00	-1.5457526322e+00
 9.7678674685e-01	 1.2400682356e+00	-1.5705813126e+00
 1.2569020423e+00	 9.9004653270e-01	-8.4247974414e-01
 1.2331866927e+00	 1.0194339254e+00	-9.6680733040e-01
 1.2087567750e+00	 1.0482853062e+00	-1.0806356768e+00
 1.1836306951e+00	 1.0765748792e+00	-1.1835254204e+00
 1.1578280904e+00	 1.1042777062e+00	-1.2751696058e+00
 1.1313697795e+00	 1.1313697795e+00	-1.3553785836e+00
 1.1042777062e+00	 1.1578280904e+00	-1.4240631992e+00
 1.0765748792e+00	 1.1836306951e+00	-1.4812170079e+00
 1.0482853062e+00	 1.2087567750e+00	-1.5268982666e+00
 1.0194339254e+00	 1.2331866927e+00	-1.5612124380e+00
 9.9004653270e-01	 1.2569020423e+00	-1.5842959020e+00
 1.2737358175e+00	 1.0033062938e+00	-8.7211856339e-01
 1.2497028466e+00	 1.0330872739e+00	-9.9496744464e-01
 1.2249457374e+00	 1.0623250631e+00	-1.1070282380e+00
 1.1994831421e+00	 1.0909935203e+00	-1.2079239788e+00
 1.1733349614e+00	 1.1190673733e+00	-1.2974159847e+00
 1.1465222925e+00	 1.1465222925e+00	-1.3753865453e+00
 1.1190673733e+00	 1.1733349614e+00	-1.4418198195e+00
 1.0909935203e+00	 1.1994831421e+00	-1.4967817501e+00
 1.0623250631e+00	 1.2249457374e+00	-1.5403998137e+00
 1.0330872739e+00	 1.2497028466e+00	-1.5728434119e+00
 1.0033062938e+00	 1.2737358175e+00	-1.5943056612e+00
 1.2905695574e+00	 1.0165660270e+00	-8.9915707286e-01
 1.2662189659e+00	 1.0467405937e+00	-1.0202947867e+00
 1.2411346658e+00	 1.0763647906e+00	-1.1303683892e+00
 1.2153355559e+00	 1.1054121312e+00	-1.2290696335e+00
 1.1888417998e+00	 1.1338570093e+00	-1.3162343737e+00
 1.1616747737e+00	 1.1616747737e+00	-1.3918228505e+00
 1.1338570093e+00	 1.1888417998e+00	-1.4558981035e+00
 1.1054121312e+00	 1.2153355559e+00	-1.5086033928e+00
 1.0763647906e+00	 1.2411346658e+00	-1.5501395268e+00
 1.0467405937e+00	 1.2662189659e+00	-1.5807429726e+00
 1.0165660270e+00	 1.2905695574e+00	-1.6006655761e+00
 8.8396781279e-01	 1.1222310391e+00	-1.3644809663e+00
 8.5727428865e-01	 1.1427521011e+00	-1.3994131484e+00
 8.3015028446e-01	 1.1626057276e+00	-1.4264011909e+00
 8.0262072653e-01	 1.1817789881e+00	-1.4457315947e+00
 7.7471102192e-01	 1.2002601829e+00	-1.4576462766e+00
 7.4644698333e-01	 1.2180388629e+00	-1.4623393943e+00
 7.1785475322e-01	 1.2351058436e+00	-1.4599561601e+00
 6.8896072774e-01	 1.2514532137e+00	-1.4505936114e+00
 6.5979148085e-01	 1.2670743389e+00	-1.4343032430e+00
 6.3037368907e-01	 1.2819638597e+00	-1.4110953458e+00
 6.0073405733e-01	 1.2961176841e+00	-1.3809448373e+00
 8.9722768527e-01	 1.1390649558e+00	-1.4063578969e+00
 8.7013374753e-01	 1.1598938419e+00	-1.4368485846e+00
 8.4260287238e-01	 1.1800452808e+00	-1.4588601677e+00
 8.1466036001e-01	 1.1995061479e+00	-1.4727777837e+00
 7.8633199862e-01	 1.2182645681e+00	-1.4789372240e+00
 7.5764398809e-01	 1.2363099354e+00	-1.4776210062e+00
 7.2862286303e-01	 1.2536329276e+00	-1.4690566528e+00
 6.9929541556e-01	 1.2702255149e+00	-1.4534171480e+00
 6.6968861824e-01	 1.2860809633e+00	-1.4308234718e+00
 6.3982954777e-01	 1.3011938328e+00	-1.4013490394e+00
 6.0974530964e-01	 1.3155599703e+00	-1.3650258198e+00
 9.1048755465e-01	 1.1558988685e+00	-1.4439203265e+00
 8.8299320342e-01	 1.1770355787e+00	-1.4705387270e+00
 8.5505545740e-01	 1.1974848299e+00	-1.4882016239e+00
 8.2669999069e-01	 1.2172333036e+00	-1.4973869214e+00
 7.9795297260e-01	 1.2362689490e+00	-1.4985182907e+00
 7.6884099023e-01	 1.2545810036e+00	-1.4919604906e+00
 7.3939097034e-01	 1.2721600074e+00	-1.4780171285e+00
 7.0963010097e-01	 1.2889978117e+00	-1.4569308331e+00
 6.7958575333e-01	 1.3050875832e+00	-1.4288857299e+00
 6.4928540426e-01	 1.3204238015e+00	-1.3940120374e+00
 6.1875655984e-01	 1.3350022519e+00	-1.3523925343e+00
 9.2374741784e-01	 1.1727327733e+00	-1.4772769843e+00
 8.9585265330e-01	 1.1941773076e+00	-1.5005277179e+00
 8.6750803660e-01	 1.2149243709e+00	-1.5144082560e+00
 8.3873961575e-01	 1.2349604510e+00	-1.5194834752e+00
 8.0957394117e-01	 1.2542733216e+00	-1.5162589537e+00
 7.8003798716e-01	 1.2728520634e+00	-1.5051755424e+00
 7.5015907262e-01	 1.2906870785e+00	-1.4866066240e+00
 7.1996478156e-01	 1.3077700997e+00	-1.4608580318e+00
 6.8948288380e-01	 1.3240941942e+00	-1.4281705127e+00
 6.5874125633e-01	 1.3396537612e+00	-1.3887245353e+00
 6.2776780584e-01	 1.3544445245e+00	-1.3426471736e+00
 9.3700727175e-01	 1.1895666664e+00	-1.5065299811e+00
 9.0871209418e-01	 1.2113190244e+00	-1.5268571252e+00
 8.7996060709e-01	 1.2323638997e+00	-1.5374641907e+00
 8.5077923238e-01	 1.2526875860e+00	-1.5389973043e+00
 8.2119490160e-01	 1.2722776815e+00	-1.5320379965e+00
 7.9123497624e-01	 1.2911231103e+00	-1.5170970242e+00
 7.6092716736e-01	 1.3092141366e+00	-1.4946111442e+00
 7.3029945491e-01	 1.3265423746e+00	-1.4649428109e+00
 6.9938000733e-01	 1.3431007920e+00	-1.4283826729e+00
 6.6819710179e-01	 1.3588837074e+00	-1.3851546541e+00
 6.3677904553e-01	 1.3738867835e+00	-1.3354233261e+00
 9.5026711329e-01	 1.2064005438e+00	-1.5317744497e+00
 9.2157152306e-01	 1.2284607252e+00	-1.5495652873e+00
 8.9241316595e-01	 1.2498034122e+00	-1.5573540455e+00
 8.6281883777e-01	 1.2704147044e+00	-1.5558624479e+00
 8.3281585118e-01	 1.2902820247e+00	-1.5457420370e+00
 8.0243195488e-01	 1.3093941401e+00	-1.5275672468e+00
 7.7169525205e-01	 1.3277411774e+00	-1.5018317091e+00
 7.4063411862e-01	 1.3453146320e+00	-1.4689477632e+00
 7.0927712164e-01	 1.3621073720e+00	-1.4292490361e+00
 6.7765293842e-01	 1.3781136356e+00	-1.3829958603e+00
 6.4579027681e-01	 1.3933290243e+00	-1.3303832121e+00
 9.6352693935e-01	 1.2232344015e+00	-1.5530981889e+00
 9.3443093694e-01	 1.2456024060e+00	-1.5686866852e+00
 9.0486571029e-01	 1.2672429043e+00	-1.5740620397e+00
 8.7485842912e-01	 1.2881418022e+00	-1.5700159865e+00
 8.4443678721e-01	 1.3082863468e+00	-1.5572641495e+00
 8.1362892045e-01	 1.3276651487e+00	-1.5364383641e+00
 7.8246332418e-01	 1.3462681966e+00	-1.5080825333e+00
 7.5096877027e-01	 1.3640868675e+00	-1.4726519848e+00
 7.1917422439e-01	 1.3811139298e+00	-1.4305161873e+00
 6.8710876402e-01	 1.3973435415e+00	-1.3819645733e+00
 6.5480149758e-01	 1.4127712425e+00	-1.3272151249e+00
 9.7678674685e-01	 1.2400682356e+00	-1.5705813126e+00
 9.4729033281e-01	 1.2627440628e+00	-1.5842513407e+00
 9.1731823719e-01	 1.2846823721e+00	-1.5875711514e+00
 8.8689800361e-01	 1.3058688751e+00	-1.5813969681e+00
 8.5605770697e-01	 1.3262906437e+00	-1.5665025720e+00
 8.2482587035e-01	 1.3459361317e+00	-1.5435708720e+00
 7.9323138124e-01	 1.3647951899e+00	-1.5131893272e+00
 7.6130340746e-01	 1.3828590767e+00	-1.4758491894e+00
 7.2907131329e-01	 1.4001204610e+00	-1.4319484104e+00
 6.9656457638e-01	 1.4165734204e+00	-1.3817979417e+00
 6.6381270573e-01	 1.4322134334e+00	-1.3255721373e+00
 9.9004653270e-01	 1.2569020423e+00	-1.5842959020e+00
 9.6014970768e-01	 1.2798856916e+00	-1.5962842374e+00
 9.2977074376e-01	 1.3021218113e+00	-1.5978623168e+00
 8.9893755844e-01	 1.3235959191e+00	-1.5899453948e+00
 8.6767860774e-01	 1.3442949113e+00	-1.5733594900e+00
 8.3602280195e-01	 1.3642070848e+00	-1.5488321998e+00
 8.0399942071e-01	 1.3833221530e+00	-1.5169877075e+00
 7.7163802776e-01	 1.4016312553e+00	-1.4783459489e+00
 7.3896838603e-01	 1.4191269612e+00	-1.4333257685e+00
 7.0602037330e-01	 1.4358032679e+00	-1.3819960539e+00
 6.7282389916e-01	 1.4516555926e+00	-1.3228811877e+00
 1.0033062938e+00	 1.2737358175e+00	-1.5943056612e+00
 9.7300905855e-01	 1.2970272885e+00	-1.6048047620e+00
 9.4222322708e-01	 1.3195612180e+00	-1.6049136660e+00
 9.1097709080e-01	 1.3413229300e+00	-1.5956012631e+00
 8.7929948683e-01	 1.3622991452e+00	-1.5777398906e+00
 8.4721971266e-01	 1.3824780038e+00	-1.5520953878e+00
 8.1476744007e-01	 1.4018490814e+00	-1.5193217076e+00
 7.8197262877e-01	 1.4204033988e+00	-1.4799600460e+00
 7.4886544029e-01	 1.4381334259e+00	-1.4339608702e+00
 7.1547615257e-01	 1.4550330795e+00	-1.3795493106e+00
 6.8183507578e-01	 1.4710977155e+00	-1.3174529220e+00
 1.0165660270e+00	 1.2905695574e+00	-1.6006655761e+00
 9.8586838241e-01	 1.3141688493e+00	-1.6098261651e+00
 9.5467568425e-01	 1.3370005881e+00	-1.6086997939e+00
 9.2301659787e-01	 1.3590499037e+00	-1.5983036537e+00
 8.9092034152e-01	 1.3803033413e+00	-1.5795504795e+00
 8.5841659986e-01	 1.4007488845e+00	-1.5532378417e+00
 8.2553543683e-01	 1.4203759709e+00	-1.5200423781e+00
 7.9230720809e-01	 1.4391755029e+00	-1.4798904665e+00
 7.5876247377e-01	 1.4571398506e+00	-1.4306725220e+00
 7.2493191198e-01	 1.4742628508e+00	-1.3732257847e+00
 6.9084623347e-01	 1.4905397975e+00	-1.3087158388e+00
 6.0073405733e-01	 1.2961176841e+00	-1.3809448373e+00
 5.7090133945e-01	 1.3095320642e+00	-1.3478671742e+00
 5.4090000120e-01	 1.3222064260e+00	-1.3156921144e+00
 5.1075639048e-01	 1.3341403975e+00	-1.2840724751e+00
 4.8049660521e-01	 1.3453347976e+00	-1.2526332931e+00
 4.5014642987e-01	 1.3557916065e+00	-1.2209841028e+00
 4.1973127516e-01	 1.3655139323e+00	-1.1887308790e+00
 3.8927612090e-01	 1.3745059735e+00	-1.1554873265e+00
 3.5880546240e-01	 1.3827729797e+00	-1.1208852307e+00
 3.2834326047e-01	 1.3903212079e+00	-1.0845836226e+00
 2.9791289521e-01	 1.3971578779e+00	-1.0462765569e+00
 6.0974530964e-01	 1.3155599703e+00	-1.3650258198e+00
 5.7946508900e-01	 1.3291755714e+00	-1.3258507810e+00
 5.4901371862e-01	 1.3420400538e+00	-1.2876254800e+00
 5.1841794162e-01	 1.3541530397e+00	-1.2500374942e+00
 4.8770424741e-01	 1.3655153603e+00	-1.2127411110e+00
 4.5689880724e-01	 1.3761290256e+00	-1.1753705984e+00
 4.2602741298e-01	 1.3859971901e+00	-1.1375531571e+00
 3.9511541917e-01	 1.3951241155e+00	-1.0989212066e+00
 3.6418768854e-01	 1.4035151301e+00	-1.0591236872e+00
 3.3326854135e-01	 1.4111765848e+00	-1.0178361074e+00
 3.0238170837e-01	 1.4181158076e+00	-9.7476911029e-01
 6.1875655984e-01	 1.3350022519e+00	-1.3523925343e+00
 5.8802883655e-01	 1.3488190742e+00	-1.3079887188e+00
 5.5712743414e-01	 1.3618736770e+00	-1.2645481107e+00
 5.2607949098e-01	 1.3741656772e+00	-1.2217738834e+00
 4.9491188793e-01	 1.3856959183e+00	-1.1793311490e+00
 4.6365118303e-01	 1.3964664398e+00	-1.1368613993e+00
 4.3232354934e-01	 1.4064804431e+00	-1.0939966370e+00
 4.0095471608e-01	 1.4157422528e+00	-1.0503728126e+00
 3.6956991343e-01	 1.4242572757e+00	-1.0056422183e+00
 3.3819382107e-01	 1.4320319569e+00	-9.5948872673e-01
 3.0685052050e-01	 1.4390737324e+00	-9.1172559153e-01
 6.2776780584e-01	 1.3544445245e+00	-1.3426471736e+00
 5.9659258010e-01	 1.3684625677e+00	-1.2938470639e+00
 5.6524114587e-01	 1.3817072910e+00	-1.2459918058e+00
 5.3374103675e-01	 1.3941783054e+00	-1.1987812340e+00
 5.0211952508e-01	 1.4058764668e+00	-1.1518730598e+00
 4.7040355568e-01	 1.4168038446e+00	-1.1048986667e+00
 4.3861968276e-01	 1.4269636866e+00	-1.0574785935e+00
 4.0679401026e-01	 1.4363603804e+00	-1.0091791728e+00
 3.7495213581e-01	 1.4449994117e+00	-9.5971006464e-01
 3.4311909850e-01	 1.4528873192e+00	-9.0901351867e-01
 3.1131933053e-01	 1.4600316475e+00	-8.5701450563e-01
 6.3677904553e-01	 1.3738867835e+00	-1.3354233261e+00
 6.0515631766e-01	 1.3881060475e+00	-1.2830266536e+00
 5.7335485193e-01	 1.4015408910e+00	-1.2315263581e+00
 5.4140257717e-01	 1.4141909196e+00	-1.1806001844e+00
 5.0932715719e-01	 1.4260570013e+00	-1.1298803735e+00
 4.7715592359e-01	 1.4371412352e+00	-1.0788143853e+00
 4.4491581177e-01	 1.4474469157e+00	-1.0268773903e+00
 4.1263330035e-01	 1.4569784936e+00	-9.7405743360e-01
 3.8033435442e-01	 1.4657415331e+00	-9.2032007802e-01
 3.4804437248e-01	 1.4737426669e+00	-8.6559850550e-01
 3.1578813744e-01	 1.4809895478e+00	-8.0980039581e-01
 6.4579027681e-01	 1.3933290243e+00	-1.3303832121e+00
 6.1372004722e-01	 1.4077495089e+00	-1.2751601520e+00
 5.8146855041e-01	 1.4213744725e+00	-1.2207564619e+00
 5.4906411043e-01	 1.4342035151e+00	-1.1667093698e+00
 5.1653478257e-01	 1.4462375169e+00	-1.1120470460e+00
 4.8390828521e-01	 1.4574786067e+00	-1.0566836335e+00
 4.5121193490e-01	 1.4679301257e+00	-1.0006606918e+00
 4.1847258500e-01	 1.4775965875e+00	-9.4396863821e-01
 3.8571656801e-01	 1.4864836352e+00	-8.8655418738e-01
 3.5296964186e-01	 1.4945979952e+00	-8.2832781553e-01
 3.2025694018e-01	 1.5019474286e+00	-7.6917116049e-01
 6.5480149758e-01	 1.4127712425e+00	-1.3272151249e+00
 6.2228376680e-01	 1.4273929475e+00	-1.2699093347e+00
 5.8958223943e-01	 1.4412080309e+00	-1.2127275384e+00
 5.5672563475e-01	 1.4542160872e+00	-1.1548271558e+00
 5.2374239954e-01	 1.4664180089e+00	-1.0963565887e+00
 4.9066063894e-01	 1.4778159546e+00	-1.0373993813e+00
 4.5750805069e-01	 1.4884133118e+00	-9.7797591211e-01
 4.2431186283e-01	 1.4982146574e+00	-9.1805125553e-01
 3.9109877532e-01	 1.5072257130e+00	-8.5754317425e-01
 3.5789490549e-01	 1.5154532991e+00	-7.9633014301e-01
 3.2472573770e-01	 1.5229052850e+00	-7.3425930862e-01
 6.6381270573e-01	 1.4322134334e+00	-1.3255721373e+00
 6.3084747438e-01	 1.4470363585e+00	-1.2655289131e+00
 5.9769591709e-01	 1.4610415616e+00	-1.2047938655e+00
 5.6438714835e-01	 1.4742286313e+00	-1.1435810573e+00
 5.3095000642e-01	 1.4865984727e+00	-1.0820212219e+00
 4.9741298323e-01	 1.4981532739e+00	-1.0201696234e+00
 4.6380415766e-01	 1.5088964693e+00	-9.5801427704e-01
 4.3015113249e-01	 1.5188326984e+00	-8.9548441363e-01
 3.9648097509e-01	 1.5279677618e+00	-8.3245907965e-01
 3.6282016223e-01	 1.5363085738e+00	-7.6877576581e-01
 3.2919452897e-01	 1.5438631120e+00	-7.0423896523e-01
 6.7282389916e-01	 1.4516555926e+00	-1.3228811877e+00
 6.3941116798e-01	 1.4666797375e+00	-1.2596860500e+00
 6.0580958150e-01	 1.4808750598e+00	-1.1960841147e+00
 5.7204864944e-01	 1.4942411427e+00	-1.1322586976e+00
 5.3815760153e-01	 1.5067789035e+00	-1.0683049844e+00
 5.0416531648e-01	 1.5184905601e+00	-1.0042385458e+00
 4.7010025435e-01	 1.5293795933e+00	-9.4000421953e-01
 4.3599039261e-01	 1.5394507057e+00	-8.7548523924e-01
 4.0186316607e-01	 1.5487097768e+00	-8.1051249326e-01
 3.6774541092e-01	 1.5571638145e+00	-7.4487380336e-01
 3.3366331293e-01	 1.5648209048e+00	-6.7832311836e-01
 6.8183507578e-01	 1.4710977155e+00	-1.3174529220e+00
 6.4797484560e-01	 1.4863230797e+00	-1.2517476005e+00
 6.1392323076e-01	 1.5007085210e+00	-1.1859428171e+00
 5.7971013622e-01	 1.5142536168e+00	-1.1201791449e+00
 5.4536518319e-01	 1.5269592967e+00	-1.0545046662e+00
 5.1091763713e-01	 1.5388278083e+00	-9.8888421646e-01
 4.7639633929e-01	 1.5498626790e+00	-9.2320899350e-01
 4.4182964183e-01	 1.5600686746e+00	-8.5730640909e-01
 4.0724534701e-01	 1.5694517530e+00	-7.9095005849e-01
 3.7267065043e-01	 1.5780190162e+00	-7.2386969285e-01
 3.3813208856e-01	 1.5857786585e+00	-6.5576108480e-01
 6.9084623347e-01	 1.4905397975e+00	-1.3087158388e+00
 6.5653850523e-01	 1.5059663808e+00	-1.2411130101e+00
 6.2203686299e-01	 1.5205419406e+00	-1.1737426446e+00
 5.8737160692e-01	 1.5342660489e+00	-1.1066909645e+00
 5.5257274971e-01	 1.5471396475e+00	-1.0399477656e+00
 5.1766994360e-01	 1.5591650137e+00	-9.7341645921e-01
 4.8269241101e-01	 1.5703457218e+00	-9.0692447543e-01
 4.4766887879e-01	 1.5806866001e+00	-8.4023389371e-01
 4.1262751664e-01	 1.5901936857e+00	-7.7305217356e-01
 3.7759587958e-01	 1.5988741741e+00	-7.0504286362e-01
 3.4260085480e-01	 1.6067363681e+00	-6.3583617488e-01
 2.9791289521e-01	 1.3971578779e+00	-1.0462765569e+00
 2.6753500487e-01	 1.4032915293e+00	-1.0103949871e+00
 2.3723384675e-01	 1.4087306617e+00	-9.8077636006e-01
 2.0703085381e-01	 1.4134850939e+00	-9.5631980320e-01
 1.7694673040e-01	 1.4175654087e+00	-9.3602641510e-01
 1.4700142567e-01	 1.4209829002e+00	-9.1900241094e-01
 1.1721411090e-01	 1.4237495210e+00	-9.0446004555e-01
 8.7603160673e-02	 1.4258778292e+00	-8.9171645431e-01
 5.8186137721e-02	 1.4273809352e+00	-8.8019058834e-01
 2.8979781469e-02	 1.4282724490e+00	-8.6939845017e-01
 0.0000000000e+00	 1.4285664286e+00	-8.5894685833e-01
 3.0238170837e-01	 1.4181158076e+00	-9.7476911029e-01
 2.7154813748e-01	 1.4243414662e+00	-9.3450407980e-01
 2.4079244980e-01	 1.4298621878e+00	-9.0098685238e-01
 2.1013639983e-01	 1.4346879385e+00	-8.7317667373e-01
 1.7960100247e-01	 1.4388294596e+00	-8.5010510998e-01
 1.4920650614e-01	 1.4422982148e+00	-8.3084495871e-01
 1.1897236968e-01	 1.4451063361e+00	-8.1454982459e-01
 8.8917243293e-02	 1.4472665698e+00	-8.0045983250e-01
 5.9058953173e-02	 1.4487922229e+00	-7.8790620644e-01
 2.9414489839e-02	 1.4496971098e+00	-7.7631473478e-01
 0.0000000000e+00	 1.4499954992e+00	-7.6520815316e-01
 3.0685052050e-01	 1.4390737324e+00	-9.1172559153e-01
 2.7556126914e-01	 1.4453913983e+00	-8.6724104840e-01
 2.4435105202e-01	 1.4509937090e+00	-8.3020670744e-01
 2.1324194512e-01	 1.4558907780e+00	-7.9949742642e-01
 1.8225527393e-01	 1.4600935055e+00	-7.7405243024e-01
 1.5141158609e-01	 1.4636135244e+00	-7.5288409968e-01
 1.2073062804e-01	 1.4664631461e+00	-7.3508558027e-01
 9.0231325606e-02	 1.4686553053e+00	-7.1983720247e-01
 5.9931768422e-02	 1.4702035057e+00	-7.0641171811e-01
 2.9849198107e-02	 1.4711217656e+00	-6.9417837056e-01
 0.0000000000e+00	 1.4714245648e+00	-6.8260582726e-01
 3.1131933053e-01	 1.4600316475e+00	-8.5701450563e-01
 2.7957439893e-01	 1.4664413205e+00	-8.0873900540e-01
 2.4790965258e-01	 1.4721252204e+00	-7.6847474987e-01
 2.1634748896e-01	 1.4770936077e+00	-7.3505627626e-01
 1.8490954414e-01	 1.4813575415e+00	-7.0738013096e-01
 1.5361666501e-01	 1.4849288241e+00	-6.8441437747e-01
 1.2248888558e-01	 1.4878199462e+00	-6.6520689399e-01
 9.1545407305e-02	 1.4900440308e+00	-6.4889244726e-01
 6.0804583262e-02	 1.4916147784e+00	-6.3469854348e-01
 3.0283906172e-02	 1.4925464114e+00	-6.2195007046e-01
 0.0000000000e+00	 1.4928536204e+00	-6.1007275693e-01
 3.1578813744e-01	 1.4809895478e+00	-8.0980039581e-01
 2.8358752591e-01	 1.4874912280e+00	-7.5807770935e-01
 2.5146825065e-01	 1.4932567169e+00	-7.1484434098e-01
 2.1945303063e-01	 1.4982964225e+00	-6.7891144796e-01
 1.8756381250e-01	 1.5026215626e+00	-6.4914909213e-01
 1.5582174239e-01	 1.5062441089e+00	-6.2449639408e-01
 1.2424714190e-01	 1.5091767314e+00	-6.0397045701e-01
 9.2859488084e-02	 1.5114327414e+00	-5.8667404223e-01
 6.1677397492e-02	 1.5130260361e+00	-5.7180199318e-01
 3.0718613932e-02	 1.5139710422e+00	-5.5864641794e-01
 0.0000000000e+00	 1.5142826610e+00	-5.4660065330e-01
 3.2025694018e-01	 1.5019474286e+00	-7.6917116049e-01
 2.8760064915e-01	 1.5085411158e+00	-7.1435197229e-01
 2.5502684539e-01	 1.5143881937e+00	-6.6841658525e-01
 2.2255856940e-01	 1.5194992176e+00	-6.3016898953e-01
 1.9021807838e-01	 1.5238855639e+00	-5.9846824905e-01
 1.5802681771e-01	 1.5275593738e+00	-5.7223923055e-01
 1.2600539657e-01	 1.5305334966e+00	-5.5048209300e-01
 9.4173567636e-02	 1.5328214320e+00	-5.3228051463e-01
 6.2550210906e-02	 1.5344372739e+00	-5.1680864966e-01
 3.1153321287e-02	 1.5353956530e+00	-5.0333682095e-01
 0.0000000000e+00	 1.5357116816e+00	-4.9123596782e-01
 3.2472573770e-01	 1.5229052850e+00	-7.3425930862e-01
 2.9161376770e-01	 1.5295909791e+00	-6.7670111749e-01
 2.5858543599e-01	 1.5355196459e+00	-6.2833706269e-01
 2.2566410454e-01	 1.5407019879e+00	-5.8797949271e-01
 1.9287234116e-01	 1.5451495403e+00	-5.5449129138e-01
 1.6023189046e-01	 1.5488746138e+00	-5.2679711246e-01
 1.2776364918e-01	 1.5518902369e+00	-5.0389337566e-01
 9.5487645654e-02	 1.5542100977e+00	-4.8485699615e-01
 6.3423023302e-02	 1.5558484867e+00	-4.6885283529e-01
 3.1588028134e-02	 1.5568202388e+00	-4.5513987411e-01
 0.0000000000e+00	 1.5571406772e+00	-4.4307612501e-01
 3.2919452897e-01	 1.5438631120e+00	-7.0423896523e-01
 2.9562688063e-01	 1.5506408129e+00	-6.4430598347e-01
 2.6214402160e-01	 1.5566510684e+00	-5.9379282799e-01
 2.2876963534e-01	 1.5619047285e+00	-5.5153508092e-01
 1.9552660023e-01	 1.5664134870e+00	-5.1641363127e-01
 1.6243696012e-01	 1.5701898240e+00	-4.8736634738e-01
 1.2952189934e-01	 1.5732469473e+00	-4.6339852186e-01
 9.6801721833e-02	 1.5755987334e+00	-4.4359205628e-01
 6.4295834476e-02	 1.5772596695e+00	-4.2711336814e-01
 3.2022734373e-02	 1.5782447946e+00	-4.1322001718e-01
 0.0000000000e+00	 1.5785696428e+00	-4.0126606190e-01
 3.3366331293e-01	 1.5648209048e+00	-6.7832311836e-01
 2.9963998701e-01	 1.5716906123e+00	-6.1638616940e-01
 2.6570260140e-01	 1.5777824565e+00	-5.6400965108e-01
 2.3187516107e-01	 1.5831074345e+00	-5.2006663952e-01
 1.9818085496e-01	 1.5876773990e+00	-4.8346961548e-01
 1.6464202618e-01	 1.5915049994e+00	-4.5318250847e-01
 1.3128014663e-01	 1.5946036228e+00	-4.2823153459e-01
 9.8115795865e-02	 1.5969873342e+00	-4.0771479016e-01
 6.5168644224e-02	 1.5986708173e+00	-3.9081057852e-01
 3.2457439902e-02	 1.5996693154e+00	-3.7678446205e-01
 0.0000000000e+00	 1.5999985734e+00	-3.6499504551e-01
 3.3813208856e-01	 1.5857786585e+00	-6.5576108480e-01
 3.0365308590e-01	 1.5927403724e+00	-5.9219749937e-01
 2.6926117455e-01	 1.5989138051e+00	-5.3824947701e-01
 2.3498068099e-01	 1.6043101009e+00	-4.9284126611e-01
 2.0083510474e-01	 1.6089412712e+00	-4.5492995872e-01
 1.6684708812e-01	 1.6128201350e+00	-4.2351784167e-01
 1.3303839063e-01	 1.6159602584e+00	-3.9766357258e-01
 9.9429867444e-02	 1.6183758951e+00	-3.7649213747e-01
 6.6041452342e-02	 1.6200819252e+00	-3.5920356202e-01
 3.2892144619e-02	 1.6210937962e+00	-3.4508036333e-01
 0.0000000000e+00	 1.6214274640e+00	-3.3349374277e-01
 3.4260085480e-01	 1.6067363681e+00	-6.3583617488e-01
 3.0766617636e-01	 1.6137900884e+00	-5.7102968572e-01
 2.7281974023e-01	 1.6200451094e+00	-5.1580808511e-01
 2.3808619440e-01	 1.6255127228e+00	-4.6915992073e-01
 2.0348934894e-01	 1.6302050988e+00	-4.3009937821e-01
 1.6905214544e-01	 1.6341352258e+00	-3.9767887597e-01
 1.3479663094e-01	 1.6373168493e+00	-3.7100052589e-01
 1.0074393626e-01	 1.6397644110e+00	-3.4922641113e-01
 6.6914258628e-02	 1.6414929881e+00	-3.3158764764e-01
 3.3326848423e-02	 1.6425182321e+00	-3.1739221044e-01
 0.0000000000e+00	 1.6428563095e+00	-3.0603151962e-01
 1.6428563095e+00	 0.0000000000e+00	 3.1643599675e+00
 1.6425182321e+00	 3.3326848423e-02	 3.1670603201e+00
 1.6414929881e+00	 6.6914258628e-02	 3.1518590787e+00
 1.6397644110e+00	 1.0074393626e-01	 3.1191474453e+00
 1.6373168493e+00	 1.3479663094e-01	 3.0695456396e+00
 1.6341352258e+00	 1.6905214544e-01	 3.0038938018e+00
 1.6302050988e+00	 2.0348934894e-01	 2.9232408105e+00
 1.6255127228e+00	 2.3808619440e-01	 2.8288310391e+00
 1.6200451094e+00	 2.7281974023e-01	 2.7220890883e+00
 1.6137900884e+00	 3.0766617636e-01	 2.6046025557e+00
 1.6067363681e+00	 3.4260085480e-01	 2.4781029200e+00
 1.6642851076e+00	 0.0000000000e+00	 3.1325519633e+00
 1.6639426204e+00	 3.3761551264e-02	 3.1354182472e+00
 1.6629040035e+00	 6.7787062979e-02	 3.1201786911e+00
 1.6611528796e+00	 1.0205800217e-01	 3.0872531432e+00
 1.6586733927e+00	 1.3655486735e-01	 3.0372902250e+00
 1.6554502693e+00	 1.7125719786e-01	 2.9711575591e+00
 1.6514688793e+00	 2.0614358726e-01	 2.8899299192e+00
 1.6467152977e+00	 2.4119170092e-01	 2.7948753286e+00
 1.6411763668e+00	 2.7637829803e-01	 2.6874391561e+00
 1.6348397576e+00	 3.1167925793e-01	 2.5692262717e+00
 1.6276940313e+00	 3.4706961114e-01	 2.4419813468e+00
 1.6857138657e+00	 0.0000000000e+00	 3.1022481631e+00
 1.6853669687e+00	 3.4196253293e-02	 3.1054606865e+00
 1.6843149790e+00	 6.8659865701e-02	 3.0902876991e+00
 1.6825413082e+00	 1.0337206562e-01	 3.0571917068e+00
 1.6800298963e+00	 1.3831310048e-01	 3.0068642491e+00
 1.6767652731e+00	 1.7346224617e-01	 2.9402153821e+00
 1.6727326201e+00	 2.0879782062e-01	 2.8583610839e+00
 1.6679178330e+00	 2.4429720165e-01	 2.7626086156e+00
 1.6623075847e+00	 2.7993684918e-01	 2.6544398932e+00
 1.6558893876e+00	 3.1569233200e-01	 2.5354929397e+00
 1.6486516554e+00	 3.5153835913e-01	 2.4075415075e+00
 1.7071425938e+00	 0.0000000000e+00	 3.0731899065e+00
 1.7067912871e+00	 3.4630954714e-02	 3.0768950926e+00
 1.7057259245e+00	 6.9532667201e-02	 3.0618639990e+00
 1.7039297068e+00	 1.0468612724e-01	 3.0286154056e+00
 1.7013863700e+00	 1.4007133115e-01	 2.9778978594e+00
 1.6980802470e+00	 1.7566729139e-01	 2.9106783429e+00
 1.6939963311e+00	 2.1145205027e-01	 2.8281288603e+00
 1.6891203386e+00	 2.4740269803e-01	 2.7316109822e+00
 1.6834387731e+00	 2.8349539535e-01	 2.6226584100e+00
 1.6769389881e+00	 3.1970540046e-01	 2.5029576373e+00
 1.6696092502e+00	 3.5600710087e-01	 2.3743268013e+00
 1.7285713019e+00	 0.0000000000e+00	 3.0451307953e+00
 1.7282155855e+00	 3.5065655729e-02	 3.0494423435e+00
 1.7271368500e+00	 7.0405467887e-02	 3.0345999662e+00
 1.7253180855e+00	 1.0600018763e-01	 3.0011919568e+00
 1.7227428238e+00	 1.4182956018e-01	 2.9500375508e+00
 1.7193952011e+00	 1.7787233455e-01	 2.8821747110e+00
 1.7152600222e+00	 2.1410627744e-01	 2.7988458212e+00
 1.7103228245e+00	 2.5050819151e-01	 2.7014813379e+00
 1.7045699418e+00	 2.8705393820e-01	 2.5916814669e+00
 1.6979885690e+00	 3.2371846517e-01	 2.4711959473e+00
 1.6905668253e+00	 3.6047583844e-01	 2.3419020437e+00
 1.7500000000e+00	 0.0000000000e+00	 3.0178359436e+00
 1.7496398738e+00	 3.5500356541e-02	 3.0228359314e+00
 1.7485477655e+00	 7.1278268166e-02	 3.0082015952e+00
 1.7467064543e+00	 1.0731424740e-01	 2.9746036216e+00
 1.7440992676e+00	 1.4358778839e-01	 2.9229452240e+00
 1.7407101452e+00	 1.8007737669e-01	 2.8543489775e+00
 1.7365237035e+00	 2.1676050337e-01	 2.7701415491e+00
 1.7315253004e+00	 2.5361368354e-01	 2.6718363819e+00
 1.7257011006e+00	 2.9061247939e-01	 2.5611144039e+00
 1.7190381400e+00	 3.2773152801e-01	 2.4398028534e+00
 1.7115243907e+00	 3.6494457392e-01	 2.3098523245e+00
 1.7714286981e+00	 0.0000000000e+00	 2.9910812840e+00
 1.7710641622e+00	 3.5935057354e-02	 2.9968212131e+00
 1.7699586811e+00	 7.2151068444e-02	 2.9823877027e+00
 1.7680948230e+00	 1.0862830718e-01	 2.9485463672e+00
 1.7654557114e+00	 1.4534601660e-01	 2.8962973112e+00
 1.7620250893e+00	 1.8228241882e-01	 2.8268609487e+00
 1.7577873847e+00	 2.1941472931e-01	 2.7416617007e+00
 1.7527277764e+00	 2.5671917557e-01	 2.6423096380e+00
 1.7468322593e+00	 2.9417102058e-01	 2.5305801470e+00
 1.7400877110e+00	 3.3174459085e-01	 2.4083917149e+00
 1.7324819561e+00	 3.6941330940e-01	 2.2777819467e+00
 1.7928574062e+00	 0.0000000000e+00	 2.9646529214e+00
 1.7924884605e+00	 3.6369758369e-02	 2.9711547134e+00
 1.7913696066e+00	 7.3023869131e-02	 2.9568891876e+00
 1.7894832017e+00	 1.0994236757e-01	 2.9227290889e+00
 1.7868121651e+00	 1.4710424563e-01	 2.8697839651e+00
 1.7833400433e+00	 1.8448746199e-01	 2.7993849054e+00
 1.7790510759e+00	 2.2206895648e-01	 2.7130671376e+00
 1.7739302622e+00	 2.5982466905e-01	 2.6125505587e+00
 1.7679634280e+00	 2.9772956343e-01	 2.4997182831e+00
 1.7611372919e+00	 3.3575765556e-01	 2.3765933115e+00
 1.7534395313e+00	 3.7388204697e-01	 2.2453134372e+00
 1.8142861343e+00	 0.0000000000e+00	 2.9383465346e+00
 1.8139127789e+00	 3.6804459790e-02	 2.9456034788e+00
 1.8127805521e+00	 7.3896670632e-02	 2.9314483428e+00
 1.8108716003e+00	 1.1125642918e-01	 2.8968728865e+00
 1.8081686388e+00	 1.4886247630e-01	 2.8431083046e+00
 1.8046550173e+00	 1.8669250721e-01	 2.7716088204e+00
 1.8003147869e+00	 2.2472318613e-01	 2.6840331179e+00
 1.7951327678e+00	 2.6293016543e-01	 2.5822236904e+00
 1.7890946164e+00	 3.0128810960e-01	 2.4681842000e+00
 1.7821868924e+00	 3.3977072402e-01	 2.3440549546e+00
 1.7743971261e+00	 3.7835078871e-01	 2.2120866263e+00
 1.8357148924e+00	 0.0000000000e+00	 2.9119668183e+00
 1.8353371272e+00	 3.7239161821e-02	 2.9199444753e+00
 1.8341915275e+00	 7.4769473356e-02	 2.9058182157e+00
 1.8322600290e+00	 1.1257049264e-01	 2.8707103921e+00
 1.8295251424e+00	 1.5062070943e-01	 2.8159857128e+00
 1.8259700210e+00	 1.8889755552e-01	 2.7432336304e+00
 1.8215785277e+00	 2.2737741950e-01	 2.6542485435e+00
 1.8163353031e+00	 2.6603566616e-01	 2.5510078973e+00
 1.8102258343e+00	 3.0484666076e-01	 2.4356482842e+00
 1.8032365224e+00	 3.4378379810e-01	 2.3104396579e+00
 1.7953547501e+00	 3.8281953671e-01	 2.1777577880e+00
 1.8571436905e+00	 0.0000000000e+00	 2.8853269651e+00
 1.8567615155e+00	 3.7673864662e-02	 2.8939640291e+00
 1.8556025430e+00	 7.5642277709e-02	 2.8797620131e+00
 1.8536484975e+00	 1.1388455855e-01	 2.8439851434e+00
 1.8508816859e+00	 1.5237894585e-01	 2.7881431837e+00
 1.8472850646e+00	 1.9110260795e-01	 2.7139725581e+00
 1.8428423082e+00	 2.3003165782e-01	 2.6234152590e+00
 1.8375378780e+00	 2.6914117269e-01	 2.5185956366e+00
 1.8313570917e+00	 3.0840521856e-01	 2.4017951731e+00
 1.8242861917e+00	 3.4779687967e-01	 2.2754253638e+00
 1.8163124134e+00	 3.8728829305e-01	 2.1419988371e+00
 1.6067363681e+00	 3.4260085480e-01	 2.4781029200e+00
 1.5988741741e+00	 3.7759587958e-01	 2.3420290335e+00
 1.5901936857e+00	 4.1262751664e-01	 2.1953225150e+00
 1.5806866001e+00	 4.4766887879e-01	 2.0391507428e+00
 1.5703457218e+00	 4.8269241101e-01	 1.8747474237e+00
 1.5591650137e+00	 5.1766994360e-01	 1.7033968963e+00
 1.5471396475e+00	 5.5257274971e-01	 1.5264178692e+00
 1.5342660489e+00	 5.8737160692e-01	 1.3451467285e+00
 1.5205419406e+00	 6.2203686299e-01	 1.1609205609e+00
 1.5059663808e+00	 6.5653850523e-01	 9.7506005156e-01
 1.4905397975e+00	 6.9084623347e-01	 7.8885242220e-01
 1.6276940313e+00	 3.4706961114e-01	 2.4419813468e+00
 1.6197292859e+00	 3.8252109782e-01	 2.3051991201e+00
 1.6109355724e+00	 4.1800967434e-01	 2.1578966051e+00
 1.6013044800e+00	 4.5350810280e-01	 2.0012747406e+00
 1.5908287191e+00	 4.8898846877e-01	 1.8365927862e+00
 1.5795021741e+00	 5.2442223511e-01	 1.6651521023e+00
 1.5673199536e+00	 5.5978030025e-01	 1.4882794271e+00
 1.5542784366e+00	 5.9503306063e-01	 1.3073097926e+00
 1.5403753162e+00	 6.3015047723e-01	 1.1235692276e+00
 1.5256096383e+00	 6.6510214588e-01	 9.3835741124e-01
 1.5099818365e+00	 6.9985737119e-01	 7.5293044710e-01
 1.6486516554e+00	 3.5153835913e-01	 2.4075415075e+00
 1.6405843586e+00	 3.8744630687e-01	 2.2701399521e+00
 1.6316774203e+00	 4.2339182200e-01	 2.1223659382e+00
 1.6219223214e+00	 4.5934731592e-01	 1.9654417304e+00
 1.6113116782e+00	 4.9528451477e-01	 1.8006395294e+00
 1.5998392966e+00	 5.3117451401e-01	 1.6292648315e+00
 1.5875002220e+00	 5.6698783734e-01	 1.4526393555e+00
 1.5742907869e+00	 6.0269450004e-01	 1.2720836817e+00
 1.5602086547e+00	 6.3826407632e-01	 1.0888997541e+00
 1.5452528591e+00	 6.7366577054e-01	 9.0435340982e-01
 1.5294238392e+00	 7.0886849209e-01	 7.1965711283e-01
 1.6696092502e+00	 3.5600710087e-01	 2.3743268013e+00
 1.6614394022e+00	 3.9237150902e-01	 2.2363843607e+00
 1.6524192393e+00	 4.2877396212e-01	 2.0882553245e+00
 1.6425401339e+00	 4.6518652086e-01	 1.9311714761e+00
 1.6317946086e+00	 5.0158055197e-01	 1.7664057697e+00
 1.6201763905e+00	 5.3792678346e-01	 1.5952553735e+00
 1.6076804621e+00	 5.7419536434e-01	 1.4190243556e+00
 1.5943031092e+00	 6.1035592873e-01	 1.2390061595e+00
 1.5800419656e+00	 6.4637766406e-01	 1.0564660218e+00
 1.5648960524e+00	 6.8222938322e-01	 8.7262349858e-01
 1.5488658146e+00	 7.1787960037e-01	 6.8863527710e-01
 1.6905668253e+00	 3.6047583844e-01	 2.3419020437e+00
 1.6822944263e+00	 3.9729670658e-01	 2.2034875159e+00
 1.6731610389e+00	 4.3415609722e-01	 2.0551127704e+00
 1.6631579271e+00	 4.7102572035e-01	 1.8980077004e+00
 1.6522775199e+00	 5.0787658329e-01	 1.7334342239e+00
 1.6405134655e+00	 5.4467904660e-01	 1.5626691120e+00
 1.6278606834e+00	 5.8140288462e-01	 1.3869865421e+00
 1.6143154129e+00	 6.1801735027e-01	 1.2076405222e+00
 1.5998752579e+00	 6.5449124422e-01	 1.0258473400e+00
 1.5845392274e+00	 6.9079298791e-01	 8.4276820342e-01
 1.5683077719e+00	 7.2689070024e-01	 6.5949224845e-01
 1.7115243907e+00	 3.6494457392e-01	 2.3098523245e+00
 1.7031494407e+00	 4.0222190184e-01	 2.1710257459e+00
 1.6939028288e+00	 4.3953822981e-01	 2.0225082602e+00
 1.6837757108e+00	 4.7686491712e-01	 1.8655168350e+00
 1.6727604217e+00	 5.1417261167e-01	 1.7012909335e+00
 1.6608505310e+00	 5.5143130660e-01	 1.5310752302e+00
 1.6480408953e+00	 5.8861040153e-01	 1.3561021388e+00
 1.6343277072e+00	 6.2567876823e-01	 1.1775742959e+00
 1.6197085409e+00	 6.6260482060e-01	 9.9664715608e-01
 1.6041823933e+00	 6.9935658859e-01	 8.1441186203e-01
 1.5877497202e+00	 7.3590179591e-01	 6.3187856593e-01
 1.7324819561e+00	 3.6941330940e-01	 2.2777819467e+00
 1.7240044551e+00	 4.0714709710e-01	 2.1385954378e+00
 1.7146446187e+00	 4.4492036240e-01	 1.9900326228e+00
 1.7043934944e+00	 4.8270411389e-01	 1.8332868559e+00
 1.6932433234e+00	 5.2046864005e-01	 1.6695640744e+00
 1.6811875965e+00	 5.5818356660e-01	 1.5000655028e+00
 1.6682211072e+00	 5.9581791844e-01	 1.3259702606e+00
 1.6543400015e+00	 6.3334018619e-01	 1.1484180179e+00
 1.6395418240e+00	 6.7071839698e-01	 9.6849184761e-01
 1.6238255591e+00	 7.0792018928e-01	 7.8720144030e-01
 1.6071916684e+00	 7.4491289158e-01	 6.0546685338e-01
 1.7534395313e+00	 3.7388204697e-01	 2.2453134372e+00
 1.7448594792e+00	 4.1207229465e-01	 2.1058120135e+00
 1.7353864182e+00	 4.5030249750e-01	 1.9572964742e+00
 1.7250112877e+00	 4.8854331338e-01	 1.8009261973e+00
 1.7137262348e+00	 5.2676467137e-01	 1.6378628469e+00
 1.7015246715e+00	 5.6493582974e-01	 1.4692531666e+00
 1.6884013285e+00	 6.0302543871e-01	 1.2962117742e+00
 1.6743523051e+00	 6.4100160773e-01	 1.1198040961e+00
 1.6593751163e+00	 6.7883197715e-01	 9.4102959103e-01
 1.6434687341e+00	 7.1648379397e-01	 7.6080542117e-01
 1.6266336257e+00	 7.5392399145e-01	 5.7995074206e-01
 1.7743971261e+00	 3.7835078871e-01	 2.2120866263e+00
 1.7657145228e+00	 4.1699749681e-01	 2.0723089754e+00
 1.7561282372e+00	 4.5568463762e-01	 1.9239292318e+00
 1.7456291002e+00	 4.9438251832e-01	 1.7680627371e+00
 1.7342091652e+00	 5.3306070857e-01	 1.6058164369e+00
 1.7218617655e+00	 5.7168809919e-01	 1.4382718654e+00
 1.7085815686e+00	 6.1023296572e-01	 1.2664682307e+00
 1.6943646274e+00	 6.4866303642e-01	 1.0913857392e+00
 1.6792084271e+00	 6.8694556489e-01	 9.1392929899e-01
 1.6631119274e+00	 7.2504740664e-01	 7.3491276000e-01
 1.6460756012e+00	 7.6293509974e-01	 5.5504385604e-01
 1.7953547501e+00	 3.8281953671e-01	 2.1777577880e+00
 1.7865695956e+00	 4.2192270586e-01	 2.0377370144e+00
 1.7768700851e+00	 4.6106678528e-01	 1.8895781926e+00
 1.7662469415e+00	 5.0022173144e-01	 1.7343428481e+00
 1.7546921243e+00	 5.3935675458e-01	 1.5730730447e+00
 1.7421988879e+00	 5.7844037810e-01	 1.4067746596e+00
 1.7287618370e+00	 6.1744050281e-01	 1.2364008660e+00
 1.7143769778e+00	 6.5632447584e-01	 1.0628359532e+00
 1.6990417656e+00	 6.9505916398e-01	 8.8687962147e-01
 1.6827551483e+00	 7.3361103131e-01	 7.0923190107e-01
 1.6655176038e+00	 7.7194622064e-01	 5.3047885513e-01
 1.8163124134e+00	 3.8728829305e-01	 2.1419988371e+00
 1.8074247073e+00	 4.2684792410e-01	 2.0017631773e+00
 1.7976119718e+00	 4.6644894299e-01	 1.8539076714e+00
 1.7868648214e+00	 5.0606095546e-01	 1.6994305104e+00
 1.7751751216e+00	 5.4565281234e-01	 1.5392989746e+00
 1.7625360483e+00	 5.8519266960e-01	 1.3744330994e+00
 1.7489421430e+00	 6.2464805335e-01	 1.2056896604e+00
 1.7343893655e+00	 6.6398592955e-01	 1.0338465966e+00
 1.7188751412e+00	 7.0317277822e-01	 8.5958800556e-01
 1.7023984057e+00	 7.4217467196e-01	 6.8348985011e-01
 1.6849596428e+00	 7.8095735835e-01	 5.0600653081e-01
 1.4905397975e+00	 6.9084623347e-01	 7.8885242220e-01
 1.4742628508e+00	 7.2493191198e-01	 6.0203619443e-01
 1.4571398506e+00	 7.5876247377e-01	 4.1449548005e-01
 1.4391755029e+00	 7.9230720809e-01	 2.2764548004e-01
 1.4203759709e+00	 8.2553543683e-01	 4.3099500355e-02
 1.4007488845e+00	 8.5841659986e-01	-1.3589186873e-01
 1.3803033413e+00	 8.9092034152e-01	-3.0751427954e-01
 1.3590499037e+00	 9.2301659787e-01	-4.7054418235e-01
 1.3370005881e+00	 9.5467568425e-01	-6.2397716409e-01
 1.3141688493e+00	 9.8586838241e-01	-7.6703332383e-01
 1.2905695574e+00	 1.0165660270e+00	-8.9915707286e-01
 1.5099818365e+00	 6.9985737119e-01	 7.5293044710e-01
 1.4934925794e+00	 7.3438765044e-01	 5.6716405881e-01
 1.4761462333e+00	 7.6865948531e-01	 3.8108432519e-01
 1.4579475653e+00	 8.0264176449e-01	 1.9607236867e-01
 1.4389028194e+00	 8.3630340972e-01	 1.3473671046e-02
 1.4190197246e+00	 8.6961346224e-01	-1.6510710526e-01
 1.3983074975e+00	 9.0254117044e-01	-3.3635799848e-01
 1.3767768380e+00	 9.3505607826e-01	-4.9869883390e-01
 1.3544399195e+00	 9.6712811382e-01	-6.5114300838e-01
 1.3313103721e+00	 9.9872767777e-01	-7.9294064070e-01
 1.3074032600e+00	 1.0298257309e+00	-9.2357718075e-01
 1.5294238392e+00	 7.0886849209e-01	 7.1965711283e-01
 1.5127222721e+00	 7.4384337124e-01	 5.3483280628e-01
 1.4951525805e+00	 7.7855647838e-01	 3.5007076387e-01
 1.4767195928e+00	 8.1297630161e-01	 1.6672569199e-01
 1.4574296333e+00	 8.4707136251e-01	-1.3886637116e-02
 1.4372905307e+00	 8.8081030372e-01	-1.9050197865e-01
 1.4163116201e+00	 9.1416197767e-01	-3.6142850372e-01
 1.3945037393e+00	 9.4709553618e-01	-5.2336744180e-01
 1.3718792184e+00	 9.7958052015e-01	-6.7508778825e-01
 1.3484518629e+00	 1.0115869491e+00	-8.1586075303e-01
 1.3242369311e+00	 1.0430854100e+00	-9.4520491269e-01
 1.5488658146e+00	 7.1787960037e-01	 6.8863527710e-01
 1.5319519379e+00	 7.5329907881e-01	 5.0467645680e-01
 1.5141589010e+00	 7.8845345759e-01	 3.2112114499e-01
 1.4954915939e+00	 8.2331082425e-01	 1.3930490918e-01
 1.4759564212e+00	 8.5783930022e-01	-3.9478857513e-02
 1.4555613112e+00	 8.9200712952e-01	-2.1399139844e-01
 1.4343157175e+00	 9.2578276864e-01	-3.8306021940e-01
 1.4122306158e+00	 9.5913497724e-01	-5.4475674780e-01
 1.3893184928e+00	 9.9203290904e-01	-6.9599603980e-01
 1.3655933298e+00	 1.0244462025e+00	-8.3595644545e-01
 1.3410705787e+00	 1.0563450706e+00	-9.6418225748e-01
 1.5683077719e+00	 7.2689070024e-01	 6.5949224845e-01
 1.5511815857e+00	 7.6275477755e-01	 4.7635268730e-01
 1.5331652039e+00	 7.9835042757e-01	 2.9392463620e-01
 1.5142635776e+00	 8.3364533726e-01	 1.1353143281e-01
 1.4944831919e+00	 8.6860722789e-01	-6.3548951089e-02
 1.4738320746e+00	 9.0320394487e-01	-2.3609629919e-01
 1.4523197981e+00	 9.3740354876e-01	-4.0295966552e-01
 1.4299574757e+00	 9.7117440706e-01	-5.6306783658e-01
 1.4067577510e+00	 1.0044852863e+00	-7.1404150673e-01
 1.3827347806e+00	 1.0373054438e+00	-8.5338011478e-01
 1.3579042105e+00	 1.0696047187e+00	-9.8064109965e-01
 1.5877497202e+00	 7.3590179591e-01	 6.3187856593e-01
 1.5704112246e+00	 7.7221047188e-01	 4.4954166308e-01
 1.5521714978e+00	 8.0824739293e-01	 2.6819210910e-01
 1.5330355524e+00	 8.4397984544e-01	 8.9147568953e-02
 1.5130099539e+00	 8.7937515053e-01	-8.6322804788e-02
 1.4921028295e+00	 9.1440075500e-01	-2.5701074775e-01
 1.4703238703e+00	 9.4902432346e-01	-4.2178034885e-01
 1.4476843274e+00	 9.8321383127e-01	-5.7957841960e-01
 1.4241970011e+00	 1.0169376578e+00	-7.2938751938e-01
 1.3998762235e+00	 1.0501646792e+00	-8.6827406354e-01
 1.3747378346e+00	 1.0828643607e+00	-9.9470343209e-01
 1.6071916684e+00	 7.4491289158e-01	 6.0546685338e-01
 1.5896408635e+00	 7.8166616621e-01	 4.2394493870e-01
 1.5711777918e+00	 8.1814435829e-01	 2.4365508848e-01
 1.5518075273e+00	 8.5431435361e-01	 6.5915515918e-02
 1.5315367159e+00	 8.9014307317e-01	-1.0800718302e-01
 1.5103735844e+00	 9.2559756513e-01	-2.7691045022e-01
 1.4883279424e+00	 9.6064509815e-01	-4.3966724221e-01
 1.4654111790e+00	 9.9525325547e-01	-5.9523636991e-01
 1.4416362511e+00	 1.0293900292e+00	-7.4267151410e-01
 1.4170176663e+00	 1.0630239145e+00	-8.8077076616e-01
 1.3915714586e+00	 1.0961240027e+00	-1.0064815456e+00
 1.6266336257e+00	 7.5392399145e-01	 5.7995074206e-01
 1.6088705113e+00	 7.9112186495e-01	 3.9928442241e-01
 1.5901840946e+00	 8.2804132827e-01	 2.2006476015e-01
 1.5705795109e+00	 8.6464886662e-01	 4.3616416475e-02
 1.5500634866e+00	 9.0091100084e-01	-1.2879063059e-01
 1.5286443478e+00	 9.3679438048e-01	-2.9595361028e-01
 1.5063320230e+00	 9.7226587827e-01	-4.5674850935e-01
 1.4831380390e+00	 1.0072926853e+00	-6.1014044575e-01
 1.4590755093e+00	 1.0418424065e+00	-7.5519266826e-01
 1.4341591171e+00	 1.0758831559e+00	-8.9107399738e-01
 1.4084050904e+00	 1.1093836509e+00	-1.0160781971e+00
 1.6460756012e+00	 7.6293509974e-01	 5.5504385604e-01
 1.6281001771e+00	 8.0057757251e-01	 3.7530139893e-01
 1.6091904152e+00	 8.3793830748e-01	 1.9719103259e-01
 1.5893515121e+00	 8.7498338926e-01	 2.2049459313e-02
 1.5685902745e+00	 9.1167893855e-01	-1.4884433109e-01
 1.5469151283e+00	 9.4799120629e-01	-3.1428174768e-01
 1.5243361204e+00	 9.8388666924e-01	-4.7313628422e-01
 1.5008649154e+00	 1.0193321264e+00	-6.2437399092e-01
 1.4765147837e+00	 1.0542947954e+00	-7.6706252272e-01
 1.4513005840e+00	 1.0887424093e+00	-9.0037856757e-01
 1.4252387380e+00	 1.1226433114e+00	-1.0235867591e+00
 1.6655176038e+00	 7.7194622064e-01	 5.3047885513e-01
 1.6473298698e+00	 8.1003329332e-01	 3.5175560574e-01
 1.6281967623e+00	 8.4783530055e-01	 1.7482164798e-01
 1.6081235395e+00	 8.8531792638e-01	 1.0310256322e-03
 1.5871170884e+00	 9.2244689134e-01	-1.6832292441e-01
 1.5651859343e+00	 9.5918804776e-01	-3.3202047995e-01
 1.5423402430e+00	 9.9550747647e-01	-4.8892741767e-01
 1.5185918167e+00	 1.0313715843e+00	-6.3800564755e-01
 1.4939540826e+00	 1.0667472017e+00	-7.7832237529e-01
 1.4684420748e+00	 1.1016016806e+00	-9.0905758214e-01
 1.4420724092e+00	 1.1359029905e+00	-1.0295096323e+00
 1.6849596428e+00	 7.8095735835e-01	 5.0600653081e-01
 1.6665595984e+00	 8.1948903177e-01	 3.2842435864e-01
 1.6472031450e+00	 8.5773231209e-01	 1.5276133864e-01
 1.6268956020e+00	 8.9565248279e-01	-1.9606122770e-02
 1.6056439369e+00	 9.3321486423e-01	-1.8736528664e-01
 1.5834567745e+00	 9.7038491014e-01	-3.4928027052e-01
 1.5603443992e+00	 1.0071283054e+00	-5.0420419423e-01
 1.5363187511e+00	 1.0434110647e+00	-6.5109004272e-01
 1.5113934140e+00	 1.0791996313e+00	-7.8900000875e-01
 1.4855835976e+00	 1.1144609760e+00	-9.1711308957e-01
 1.4589061117e+00	 1.1491626944e+00	-1.0347307323e+00
 1.2905695574e+00	 1.0165660270e+00	-8.9915707286e-01
 1.2662189659e+00	 1.0467405937e+00	-1.0202947867e+00
 1.2411346658e+00	 1.0763647906e+00	-1.1303683892e+00
 1.2153355559e+00	 1.1054121312e+00	-1.2290696335e+00
 1.1888417998e+00	 1.1338570093e+00	-1.3162343737e+00
 1.1616747737e+00	 1.1616747737e+00	-1.3918228505e+00
 1.1338570093e+00	 1.1888417998e+00	-1.4558981035e+00
 1.1054121312e+00	 1.2153355559e+00	-1.5086033928e+00
 1.0763647906e+00	 1.2411346658e+00	-1.5501395268e+00
 1.0467405937e+00	 1.2662189659e+00	-1.5807429726e+00
 1.0165660270e+00	 1.2905695574e+00	-1.6006655761e+00
 1.3074032600e+00	 1.0298257309e+00	-9.2357718075e-01
 1.2827350485e+00	 1.0603938832e+00	-1.0429662096e+00
 1.2573235583e+00	 1.0904044870e+00	-1.1510131001e+00
 1.2311879345e+00	 1.1198307102e+00	-1.2474884128e+00
 1.2043486039e+00	 1.1486466125e+00	-1.3323128643e+00
 1.1768272213e+00	 1.1768272213e+00	-1.4055349748e+00
 1.1486466125e+00	 1.2043486039e+00	-1.4673067590e+00
 1.1198307102e+00	 1.2311879345e+00	-1.5178584210e+00
 1.0904044870e+00	 1.2573235583e+00	-1.5574730334e+00
 1.0603938832e+00	 1.2827350485e+00	-1.5864621549e+00
 1.0298257309e+00	 1.3074032600e+00	-1.6051432873e+00
 1.3242369311e+00	 1.0430854100e+00	-9.4520491269e-01
 1.2992511003e+00	 1.0740471473e+00	-1.0630064586e+00
 1.2735124205e+00	 1.1044441572e+00	-1.1691731666e+00
 1.2470402836e+00	 1.1342492622e+00	-1.2635681050e+00
 1.2198553790e+00	 1.1634361880e+00	-1.3462110721e+00
 1.1919796407e+00	 1.1919796407e+00	-1.4172533355e+00
 1.1634361880e+00	 1.2198553790e+00	-1.4769503219e+00
 1.1342492622e+00	 1.2470402836e+00	-1.5256333099e+00
 1.1044441572e+00	 1.2735124205e+00	-1.5636811903e+00
 1.0740471473e+00	 1.2992511003e+00	-1.5914933351e+00
 1.0430854100e+00	 1.3242369311e+00	-1.6094645514e+00
 1.3410705787e+00	 1.0563450706e+00	-9.6418225748e-01
 1.3157671290e+00	 1.0877003922e+00	-1.0805380010e+00
 1.2897012601e+00	 1.1184838077e+00	-1.1849526750e+00
 1.2628926104e+00	 1.1486677940e+00	-1.2773954097e+00
 1.2353621324e+00	 1.1782257429e+00	-1.3579991661e+00
 1.2071320388e+00	 1.2071320388e+00	-1.4270322843e+00
 1.1782257429e+00	 1.2353621324e+00	-1.4848678896e+00
 1.1486677940e+00	 1.2628926104e+00	-1.5319522972e+00
 1.1184838077e+00	 1.2897012601e+00	-1.5687735782e+00
 1.0877003922e+00	 1.3157671290e+00	-1.5958314155e+00
 1.0563450706e+00	 1.3410705787e+00	-1.6136093128e+00
 1.3579042105e+00	 1.0696047187e+00	-9.8064109965e-01
 1.3322831422e+00	 1.1013536244e+00	-1.0956733712e+00
 1.3058900846e+00	 1.1325234451e+00	-1.1984458698e+00
 1.2787449225e+00	 1.1630863124e+00	-1.2890472336e+00
 1.2508688713e+00	 1.1930152840e+00	-1.3677375623e+00
 1.2222844228e+00	 1.2222844228e+00	-1.4349164896e+00
 1.1930152840e+00	 1.2508688713e+00	-1.4910890100e+00
 1.1630863124e+00	 1.2787449225e+00	-1.5368303050e+00
 1.1325234451e+00	 1.3058900846e+00	-1.5727508294e+00
 1.1013536244e+00	 1.3322831422e+00	-1.5994628845e+00
 1.0696047187e+00	 1.3579042105e+00	-1.6175498329e+00
 1.3747378346e+00	 1.0828643607e+00	-9.9470343209e-01
 1.3487991478e+00	 1.1150068502e+00	-1.1085153069e+00
 1.3220789016e+00	 1.1465630760e+00	-1.2097372199e+00
 1.2945972271e+00	 1.1775048240e+00	-1.2985906871e+00
 1.2663756030e+00	 1.2078048182e+00	-1.3754768557e+00
 1.2374367997e+00	 1.2374367997e+00	-1.4409408032e+00
 1.2078048182e+00	 1.2663756030e+00	-1.4956334842e+00
 1.1775048240e+00	 1.2945972271e+00	-1.5402726771e+00
 1.1465630760e+00	 1.3220789016e+00	-1.5756042986e+00
 1.1150068502e+00	 1.3487991478e+00	-1.6023654173e+00
 1.0828643607e+00	 1.3747378346e+00	-1.6212502176e+00
 1.3915714586e+00	 1.0961240027e+00	-1.0064815456e+00
 1.3653151534e+00	 1.1286600760e+00	-1.1191568672e+00
 1.3382677185e+00	 1.1606027068e+00	-1.2189014677e+00
 1.3104495318e+00	 1.1919233357e+00	-1.3060830696e+00
 1.2818823347e+00	 1.2225943524e+00	-1.3812577419e+00
 1.2525891766e+00	 1.2525891766e+00	-1.4451301209e+00
 1.2225943524e+00	 1.2818823347e+00	-1.4985111657e+00
 1.1919233357e+00	 1.3104495318e+00	-1.5422749167e+00
 1.1606027068e+00	 1.3382677185e+00	-1.5773157378e+00
 1.1286600760e+00	 1.3653151534e+00	-1.6045074852e+00
 1.0961240027e+00	 1.3915714586e+00	-1.6246659572e+00
 1.4084050904e+00	 1.1093836509e+00	-1.0160781971e+00
 1.3818311666e+00	 1.1423133082e+00	-1.1276815324e+00
 1.3544565430e+00	 1.1746423442e+00	-1.2260036643e+00
 1.3263018438e+00	 1.2063418541e+00	-1.3115718422e+00
 1.2973890737e+00	 1.2373838934e+00	-1.3851109305e+00
 1.2677415606e+00	 1.2677415606e+00	-1.4474992369e+00
 1.2373838934e+00	 1.2973890737e+00	-1.4997217567e+00
 1.2063418541e+00	 1.3263018438e+00	-1.5428224243e+00
 1.1746423442e+00	 1.3544565430e+00	-1.5778569741e+00
 1.1423133082e+00	 1.3818311666e+00	-1.6058479712e+00
 1.1093836509e+00	 1.4084050904e+00	-1.6277434773e+00
 1.4252387380e+00	 1.1226433114e+00	-1.0235867591e+00
 1.3983471953e+00	 1.1559665531e+00	-1.1341632876e+00
 1.3706453826e+00	 1.1886819948e+00	-1.2310991914e+00
 1.3421541707e+00	 1.2207603859e+00	-1.3150945907e+00
 1.3128958271e+00	 1.2521734483e+00	-1.3870570508e+00
 1.2828939587e+00	 1.2828939587e+00	-1.4480526938e+00
 1.2521734483e+00	 1.3128958271e+00	-1.4992546025e+00
 1.2207603859e+00	 1.3421541707e+00	-1.5418902359e+00
 1.1886819948e+00	 1.3706453826e+00	-1.5771895905e+00
 1.1559665531e+00	 1.3983471953e+00	-1.6063357921e+00
 1.1226433114e+00	 1.4252387380e+00	-1.6304196994e+00
 1.4420724092e+00	 1.1359029905e+00	-1.0295096323e+00
 1.4148632471e+00	 1.1696198172e+00	-1.1386666917e+00
 1.3868342449e+00	 1.2027216649e+00	-1.2342337714e+00
 1.3580065197e+00	 1.2351789379e+00	-1.3166789787e+00
 1.3284026022e+00	 1.2669630239e+00	-1.3871065495e+00
 1.2980463780e+00	 1.2980463780e+00	-1.4467846268e+00
 1.2669630239e+00	 1.3284026022e+00	-1.4970884825e+00
 1.2351789379e+00	 1.3580065197e+00	-1.5394427607e+00
 1.2027216649e+00	 1.3868342449e+00	-1.5752646105e+00
 1.1696198172e+00	 1.4148632471e+00	-1.6059095275e+00
 1.1359029905e+00	 1.4420724092e+00	-1.6314009700e+00
 1.4589061117e+00	 1.1491626944e+00	-1.0347307323e+00
 1.4313793298e+00	 1.1832731067e+00	-1.1412625239e+00
 1.4030231373e+00	 1.2167613613e+00	-1.2354434652e+00
 1.3738588983e+00	 1.2495975169e+00	-1.3163426915e+00
 1.3439094063e+00	 1.2817526271e+00	-1.3852595830e+00
 1.3131988257e+00	 1.3131988257e+00	-1.4436786036e+00
 1.2817526271e+00	 1.3439094063e+00	-1.4931913995e+00
 1.2495975169e+00	 1.3738588983e+00	-1.5354335199e+00
 1.2167613613e+00	 1.4030231373e+00	-1.5720221839e+00
 1.1832731067e+00	 1.4313793298e+00	-1.6044454683e+00
 1.1491626944e+00	 1.4589061117e+00	-1.6280464037e+00
 1.0165660270e+00	 1.2905695574e+00	-1.6006655761e+00
 9.8586838241e-01	 1.3141688493e+00	-1.6098261651e+00
 9.5467568425e-01	 1.3370005881e+00	-1.6086997939e+00
 9.2301659787e-01	 1.3590499037e+00	-1.5983036537e+00
 8.9092034152e-01	 1.3803033413e+00	-1.5795504795e+00
 8.5841659986e-01	 1.4007488845e+00	-1.5532378417e+00
 8.2553543683e-01	 1.4203759709e+00	-1.5200423781e+00
 7.9230720809e-01	 1.4391755029e+00	-1.4798904665e+00
 7.5876247377e-01	 1.4571398506e+00	-1.4306725220e+00
 7.2493191198e-01	 1.4742628508e+00	-1.3732257847e+00
 6.9084623347e-01	 1.4905397975e+00	-1.3087158388e+00
 1.0298257309e+00	 1.3074032600e+00	-1.6051432873e+00
 9.9872767777e-01	 1.3313103721e+00	-1.6133577866e+00
 9.6712811382e-01	 1.3544399195e+00	-1.6114898375e+00
 9.3505607826e-01	 1.3767768380e+00	-1.6005878927e+00
 9.0254117044e-01	 1.3983074975e+00	-1.5815871373e+00
 8.6961346224e-01	 1.4190197246e+00	-1.5552981141e+00
 8.3630340972e-01	 1.4389028194e+00	-1.5217750081e+00
 8.0264176449e-01	 1.4579475653e+00	-1.4784868844e+00
 7.6865948531e-01	 1.4761462333e+00	-1.4262298510e+00
 7.3438765044e-01	 1.4934925794e+00	-1.3662900971e+00
 6.9985737119e-01	 1.5099818365e+00	-1.2998887431e+00
 1.0430854100e+00	 1.3242369311e+00	-1.6094645514e+00
 1.0115869491e+00	 1.3484518629e+00	-1.6173822879e+00
 9.7958052015e-01	 1.3718792184e+00	-1.6155382095e+00
 9.4709553618e-01	 1.3945037393e+00	-1.6049838997e+00
 9.1416197767e-01	 1.4163116201e+00	-1.5866476379e+00
 8.8081030372e-01	 1.4372905307e+00	-1.5608601057e+00
 8.4707136251e-01	 1.4574296333e+00	-1.5246562917e+00
 8.1297630161e-01	 1.4767195928e+00	-1.4785413006e+00
 7.7855647838e-01	 1.4951525805e+00	-1.4238980543e+00
 7.4384337124e-01	 1.5127222721e+00	-1.3620458378e+00
 7.0886849209e-01	 1.5294238392e+00	-1.2942366695e+00
 1.0563450706e+00	 1.3410705787e+00	-1.6136093128e+00
 1.0244462025e+00	 1.3655933298e+00	-1.6218633092e+00
 9.9203290904e-01	 1.3893184928e+00	-1.6207906845e+00
 9.5913497724e-01	 1.4122306158e+00	-1.6114189703e+00
 9.2578276864e-01	 1.4343157175e+00	-1.5944350903e+00
 8.9200712952e-01	 1.4555613112e+00	-1.5666673939e+00
 8.5783930022e-01	 1.4759564212e+00	-1.5279214951e+00
 8.2331082425e-01	 1.4954915939e+00	-1.4796507813e+00
 7.8845345759e-01	 1.5141589010e+00	-1.4232481198e+00
 7.5329907881e-01	 1.5319519379e+00	-1.3600413239e+00
 7.1787960037e-01	 1.5488658146e+00	-1.2912895629e+00
 1.0696047187e+00	 1.3579042105e+00	-1.6175498329e+00
 1.0373054438e+00	 1.3827347806e+00	-1.6267578020e+00
 1.0044852863e+00	 1.4067577510e+00	-1.6271876253e+00
 9.7117440706e-01	 1.4299574757e+00	-1.6198046565e+00
 9.3740354876e-01	 1.4523197981e+00	-1.6018666705e+00
 9.0320394487e-01	 1.4738320746e+00	-1.5718363354e+00
 8.6860722789e-01	 1.4944831919e+00	-1.5312098971e+00
 8.3364533726e-01	 1.5142635776e+00	-1.4814273657e+00
 7.9835042757e-01	 1.5331652039e+00	-1.4238672259e+00
 7.6275477755e-01	 1.5511815857e+00	-1.3598421202e+00
 7.2689070024e-01	 1.5683077719e+00	-1.2905954717e+00
 1.0828643607e+00	 1.3747378346e+00	-1.6212502176e+00
 1.0501646792e+00	 1.3998762235e+00	-1.6320154760e+00
 1.0169376578e+00	 1.4241970011e+00	-1.6346633418e+00
 9.8321383127e-01	 1.4476843274e+00	-1.6277134838e+00
 9.4902432346e-01	 1.4703238703e+00	-1.6077131530e+00
 9.1440075500e-01	 1.4921028295e+00	-1.5760465959e+00
 8.7937515053e-01	 1.5130099539e+00	-1.5341737406e+00
 8.4397984544e-01	 1.5330355524e+00	-1.4834973013e+00
 8.0824739293e-01	 1.5521714978e+00	-1.4253578950e+00
 7.7221047188e-01	 1.5704112246e+00	-1.3610301218e+00
 7.3590179591e-01	 1.5877497202e+00	-1.2917195700e+00
 1.0961240027e+00	 1.3915714586e+00	-1.6246659572e+00
 1.0630239145e+00	 1.4170176663e+00	-1.6375782636e+00
 1.0293900292e+00	 1.4416362511e+00	-1.6420198191e+00
 9.9525325547e-01	 1.4654111790e+00	-1.6331866660e+00
 9.6064509815e-01	 1.4883279424e+00	-1.6116920602e+00
 9.2559756513e-01	 1.5103735844e+00	-1.5789889503e+00
 8.9014307317e-01	 1.5315367159e+00	-1.5364776049e+00
 8.5431435361e-01	 1.5518075273e+00	-1.4855003364e+00
 8.1814435829e-01	 1.5711777918e+00	-1.4273372110e+00
 7.8166616621e-01	 1.5896408635e+00	-1.3632027033e+00
 7.4491289158e-01	 1.6071916684e+00	-1.2942432508e+00
 1.1093836509e+00	 1.4084050904e+00	-1.6277434773e+00
 1.0758831559e+00	 1.4341591171e+00	-1.6431738161e+00
 1.0418424065e+00	 1.4590755093e+00	-1.6463311487e+00
 1.0072926853e+00	 1.4831380390e+00	-1.6359764840e+00
 9.7226587827e-01	 1.5063320230e+00	-1.6135303496e+00
 9.3679438048e-01	 1.5286443478e+00	-1.5803647805e+00
 9.0091100084e-01	 1.5500634866e+00	-1.5377978250e+00
 8.6464886662e-01	 1.5705795109e+00	-1.4870890630e+00
 8.2804132827e-01	 1.5901840946e+00	-1.4294360922e+00
 7.9112186495e-01	 1.6088705113e+00	-1.3659719312e+00
 7.5392399145e-01	 1.6266336257e+00	-1.2977632859e+00
 1.1226433114e+00	 1.4252387380e+00	-1.6304196994e+00
 1.0887424093e+00	 1.4513005840e+00	-1.6458758857e+00
 1.0542947954e+00	 1.4765147837e+00	-1.6472538083e+00
 1.0193321264e+00	 1.5008649154e+00	-1.6358431771e+00
 9.8388666924e-01	 1.5243361204e+00	-1.6129640206e+00
 9.4799120629e-01	 1.5469151283e+00	-1.5798856080e+00
 9.1167893855e-01	 1.5685902745e+00	-1.5378219518e+00
 8.7498338926e-01	 1.5893515121e+00	-1.4879283077e+00
 8.3793830748e-01	 1.6091904152e+00	-1.4312986176e+00
 8.0057757251e-01	 1.6281001771e+00	-1.3689638311e+00
 7.6293509974e-01	 1.6460756012e+00	-1.3018910456e+00
 1.1359029905e+00	 1.4420724092e+00	-1.6314009700e+00
 1.1016016806e+00	 1.4684420748e+00	-1.6446092125e+00
 1.0667472017e+00	 1.4939540826e+00	-1.6445779803e+00
 1.0313715843e+00	 1.5185918167e+00	-1.6325546433e+00
 9.9550747647e-01	 1.5423402430e+00	-1.6097377483e+00
 9.5918804776e-01	 1.5651859343e+00	-1.5772726603e+00
 9.2244689134e-01	 1.5871170884e+00	-1.5362482509e+00
 8.8531792638e-01	 1.6081235395e+00	-1.4876945658e+00
 8.4783530055e-01	 1.6281967623e+00	-1.4325814003e+00
 8.1003329332e-01	 1.6473298698e+00	-1.3718177089e+00
 7.7194622064e-01	 1.6655176038e+00	-1.3062517748e+00
 1.1491626944e+00	 1.4589061117e+00	-1.6280464037e+00
 1.1144609760e+00	 1.4855835976e+00	-1.6391902459e+00
 1.0791996313e+00	 1.5113934140e+00	-1.6381003157e+00
 1.0434110647e+00	 1.5363187511e+00	-1.6258861604e+00
 1.0071283054e+00	 1.5603443992e+00	-1.6036045433e+00
 9.7038491014e-01	 1.5834567745e+00	-1.5722564672e+00
 9.3321486423e-01	 1.6056439369e+00	-1.5327852367e+00
 8.9565248279e-01	 1.6268956020e+00	-1.4860754747e+00
 8.5773231209e-01	 1.6472031450e+00	-1.4329530060e+00
 8.1948903177e-01	 1.6665595984e+00	-1.3741855184e+00
 7.8095735835e-01	 1.6849596428e+00	-1.3104839188e+00
 6.9084623347e-01	 1.4905397975e+00	-1.3087158388e+00
 6.5653850523e-01	 1.5059663808e+00	-1.2411130101e+00
 6.2203686299e-01	 1.5205419406e+00	-1.1737426446e+00
 5.8737160692e-01	 1.5342660489e+00	-1.1066909645e+00
 5.5257274971e-01	 1.5471396475e+00	-1.0399477656e+00
 5.1766994360e-01	 1.5591650137e+00	-9.7341645921e-01
 4.8269241101e-01	 1.5703457218e+00	-9.0692447543e-01
 4.4766887879e-01	 1.5806866001e+00	-8.4023389371e-01
 4.1262751664e-01	 1.5901936857e+00	-7.7305217356e-01
 3.7759587958e-01	 1.5988741741e+00	-7.0504286362e-01
 3.4260085480e-01	 1.6067363681e+00	-6.3583617488e-01
 6.9985737119e-01	 1.5099818365e+00	-1.2998887431e+00
 6.6510214588e-01	 1.5256096383e+00	-1.2308704214e+00
 6.3015047723e-01	 1.5403753162e+00	-1.1623684810e+00
 5.9503306063e-01	 1.5542784366e+00	-1.0944200479e+00
 5.5978030025e-01	 1.5673199536e+00	-1.0269623494e+00
 5.2442223511e-01	 1.5795021741e+00	-9.5984349889e-01
 4.8898846877e-01	 1.5908287191e+00	-8.9283363498e-01
 4.5350810280e-01	 1.6013044800e+00	-8.2563627326e-01
 4.1800967434e-01	 1.6109355724e+00	-7.5789973962e-01
 3.8252109782e-01	 1.6197292859e+00	-6.8922855811e-01
 3.4706961114e-01	 1.6276940313e+00	-6.1919467537e-01
 7.0886849209e-01	 1.5294238392e+00	-1.2942366695e+00
 6.7366577054e-01	 1.5452528591e+00	-1.2241644138e+00
 6.3826407632e-01	 1.5602086547e+00	-1.1547752237e+00
 6.0269450004e-01	 1.5742907869e+00	-1.0860784381e+00
 5.6698783734e-01	 1.5875002220e+00	-1.0179805319e+00
 5.3117451401e-01	 1.5998392966e+00	-9.5029646553e-01
 4.9528451477e-01	 1.6113116782e+00	-8.8276138124e-01
 4.5934731592e-01	 1.6219223214e+00	-8.1504250637e-01
 4.2339182200e-01	 1.6316774203e+00	-7.4675112472e-01
 3.8744630687e-01	 1.6405843586e+00	-6.7745448771e-01
 3.5153835913e-01	 1.6486516554e+00	-6.0668754352e-01
 7.1787960037e-01	 1.5488658146e+00	-1.2912895629e+00
 6.8222938322e-01	 1.5648960524e+00	-1.2205127641e+00
 6.4637766406e-01	 1.5800419656e+00	-1.1504754758e+00
 6.1035592873e-01	 1.5943031092e+00	-1.0811797539e+00
 5.7419536434e-01	 1.6076804621e+00	-1.0125223248e+00
 5.3792678346e-01	 1.6201763905e+00	-9.4430632047e-01
 5.0158055197e-01	 1.6317946086e+00	-8.7625336074e-01
 4.6518652086e-01	 1.6425401339e+00	-8.0801583910e-01
 4.2877396212e-01	 1.6524192393e+00	-7.3918927175e-01
 3.9237150902e-01	 1.6614394022e+00	-6.6932457898e-01
 3.5600710087e-01	 1.6696092502e+00	-5.9794017545e-01
 7.2689070024e-01	 1.5683077719e+00	-1.2905954717e+00
 6.9079298791e-01	 1.5845392274e+00	-1.2194519139e+00
 6.5449124422e-01	 1.5998752579e+00	-1.1490007334e+00
 6.1801735027e-01	 1.6143154129e+00	-1.0792564456e+00
 5.8140288462e-01	 1.6278606834e+00	-1.0101262606e+00
 5.4467904660e-01	 1.6405134655e+00	-9.4142203020e-01
 5.0787658329e-01	 1.6522775199e+00	-8.7287254657e-01
 4.7102572035e-01	 1.6631579271e+00	-8.0413604560e-01
 4.3415609722e-01	 1.6731610389e+00	-7.3481277560e-01
 3.9729670658e-01	 1.6822944263e+00	-6.6445749880e-01
 3.6047583844e-01	 1.6905668253e+00	-5.9259180178e-01
 7.3590179591e-01	 1.5877497202e+00	-1.2917195700e+00
 6.9935658859e-01	 1.6041823933e+00	-1.2205359477e+00
 6.6260482060e-01	 1.6197085409e+00	-1.1499003413e+00
 6.2567876823e-01	 1.6343277072e+00	-1.0798587445e+00
 5.8861040153e-01	 1.6480408953e+00	-1.0103483519e+00
 5.5143130660e-01	 1.6608505310e+00	-9.4120954731e-01
 5.1417261167e-01	 1.6727604217e+00	-8.7219825107e-01
 4.7686491712e-01	 1.6837757108e+00	-8.0299847981e-01
 4.3953822981e-01	 1.6939028288e+00	-7.3323497893e-01
 4.0222190184e-01	 1.7031494407e+00	-6.6248579682e-01
 3.6494457392e-01	 1.7115243907e+00	-5.9029467680e-01
 7.4491289158e-01	 1.6071916684e+00	-1.2942432508e+00
 7.0792018928e-01	 1.6238255591e+00	-1.2233356476e+00
 6.7071839698e-01	 1.6395418240e+00	-1.1527405257e+00
 6.3334018619e-01	 1.6543400015e+00	-1.0825536904e+00
 5.9581791844e-01	 1.6682211072e+00	-1.0127611276e+00
 5.5818356660e-01	 1.6811875965e+00	-9.4325086639e-01
 5.2046864005e-01	 1.6932433234e+00	-8.7382521101e-01
 4.8270411389e-01	 1.7043934944e+00	-8.0421319681e-01
 4.4492036240e-01	 1.7146446187e+00	-7.3408313433e-01
 4.0714709710e-01	 1.7240044551e+00	-6.6305511074e-01
 3.6941330940e-01	 1.7324819561e+00	-5.9071332699e-01
 7.5392399145e-01	 1.6266336257e+00	-1.2977632859e+00
 7.1648379397e-01	 1.6434687341e+00	-1.2274376154e+00
 6.7883197715e-01	 1.6593751163e+00	-1.1571034970e+00
 6.4100160773e-01	 1.6743523051e+00	-1.0869242292e+00
 6.0302543871e-01	 1.6884013285e+00	-1.0169527380e+00
 5.6493582974e-01	 1.7015246715e+00	-9.4714314855e-01
 5.2676467137e-01	 1.7137262348e+00	-8.7736273919e-01
 4.8854331338e-01	 1.7250112877e+00	-8.0740413804e-01
 4.5030249750e-01	 1.7353864182e+00	-7.3699762733e-01
 4.1207229465e-01	 1.7448594792e+00	-6.6582342929e-01
 3.7388204697e-01	 1.7534395313e+00	-5.9352385415e-01
 7.6293509974e-01	 1.6460756012e+00	-1.3018910456e+00
 7.2504740664e-01	 1.6631119274e+00	-1.2324434586e+00
 6.8694556489e-01	 1.6792084271e+00	-1.1625866169e+00
 6.4866303642e-01	 1.6943646274e+00	-1.0925683761e+00
 6.1023296572e-01	 1.7085815686e+00	-1.0225261260e+00
 5.7168809919e-01	 1.7218617655e+00	-9.5249790883e-01
 5.3306070857e-01	 1.7342091652e+00	-8.8243393711e-01
 4.9438251832e-01	 1.7456291002e+00	-8.1220837501e-01
 4.5568463762e-01	 1.7561282372e+00	-7.4163125518e-01
 4.1699749681e-01	 1.7657145228e+00	-6.7046040807e-01
 3.7835078871e-01	 1.7743971261e+00	-5.9841328836e-01
 7.7194622064e-01	 1.6655176038e+00	-1.3062517748e+00
 7.3361103131e-01	 1.6827551483e+00	-1.2379690338e+00
 6.9505916398e-01	 1.6990417656e+00	-1.1688016251e+00
 6.5632447584e-01	 1.7143769778e+00	-1.0990984376e+00
 6.1744050281e-01	 1.7287618370e+00	-1.0290982552e+00
 5.7844037810e-01	 1.7421988879e+00	-9.5894026148e-01
 5.3935675458e-01	 1.7546921243e+00	-8.8867496357e-01
 5.0022173144e-01	 1.7662469415e+00	-8.1827540675e-01
 4.6106678528e-01	 1.7768700851e+00	-7.4764855684e-01
 4.2192270586e-01	 1.7865695956e+00	-6.7664673396e-01
 3.8281953671e-01	 1.7953547501e+00	-6.0507898686e-01
 7.8095735835e-01	 1.6849596428e+00	-1.3104839188e+00
 7.4217467196e-01	 1.7023984057e+00	-1.2436437441e+00
 7.0317277822e-01	 1.7188751412e+00	-1.1753739205e+00
 6.6398592955e-01	 1.7343893655e+00	-1.1061402891e+00
 6.2464805335e-01	 1.7489421430e+00	-1.0362993944e+00
 5.8519266960e-01	 1.7625360483e+00	-9.6610821831e-01
 5.4565281234e-01	 1.7751751216e+00	-8.9573435474e-01
 5.0606095546e-01	 1.7868648214e+00	-8.2526650673e-01
 4.6644894299e-01	 1.7976119718e+00	-7.5472519009e-01
 4.2684792410e-01	 1.8074247073e+00	-6.8407353415e-01
 3.8728829305e-01	 1.8163124134e+00	-6.1322807509e-01
 3.4260085480e-01	 1.6067363681e+00	-6.3583617488e-01
 3.0766617636e-01	 1.6137900884e+00	-5.7102968572e-01
 2.7281974023e-01	 1.6200451094e+00	-5.1580808511e-01
 2.3808619440e-01	 1.6255127228e+00	-4.6915992073e-01
 2.0348934894e-01	 1.6302050988e+00	-4.3009937821e-01
 1.6905214544e-01	 1.6341352258e+00	-3.9767887597e-01
 1.3479663094e-01	 1.6373168493e+00	-3.7100052589e-01
 1.0074393626e-01	 1.6397644110e+00	-3.4922641113e-01
 6.6914258628e-02	 1.6414929881e+00	-3.3158764764e-01
 3.3326848423e-02	 1.6425182321e+00	-3.1739221044e-01
 0.0000000000e+00	 1.6428563095e+00	-3.0603151962e-01
 3.4706961114e-01	 1.6276940313e+00	-6.1919467537e-01
 3.1167925793e-01	 1.6348397576e+00	-5.5340367570e-01
 2.7637829803e-01	 1.6411763668e+00	-4.9713256127e-01
 2.4119170092e-01	 1.6467152977e+00	-4.4943284101e-01
 2.0614358726e-01	 1.6514688793e+00	-4.0937387305e-01
 1.7125719786e-01	 1.6554502693e+00	-3.7605574020e-01
 1.3655486735e-01	 1.6586733927e+00	-3.4862103532e-01
 1.0205800217e-01	 1.6611528796e+00	-3.2626550211e-01
 6.7787062979e-02	 1.6629040035e+00	-3.0824749152e-01
 3.3761551264e-02	 1.6639426204e+00	-2.9389620892e-01
 0.0000000000e+00	 1.6642851076e+00	-2.8261874080e-01
 3.5153835913e-01	 1.6486516554e+00	-6.0668754352e-01
 3.1569233200e-01	 1.6558893876e+00	-5.4005368028e-01
 2.7993684918e-01	 1.6623075847e+00	-4.8288839366e-01
 2.4429720165e-01	 1.6679178330e+00	-4.3429109446e-01
 2.0879782062e-01	 1.6727326201e+00	-3.9337072462e-01
 1.7346224617e-01	 1.6767652731e+00	-3.5925904793e-01
 1.3831310048e-01	 1.6800298963e+00	-3.3112289122e-01
 1.0337206562e-01	 1.6825413082e+00	-3.0817527468e-01
 6.8659865701e-02	 1.6843149790e+00	-2.8968538501e-01
 3.4196253293e-02	 1.6853669687e+00	-2.7498735943e-01
 0.0000000000e+00	 1.6857138657e+00	-2.6348786247e-01
 3.5600710087e-01	 1.6696092502e+00	-5.9794017545e-01
 3.1970540046e-01	 1.6769389881e+00	-5.3062373340e-01
 2.8349539535e-01	 1.6834387731e+00	-4.7273300461e-01
 2.4740269803e-01	 1.6891203386e+00	-4.2340080705e-01
 2.1145205027e-01	 1.6939963311e+00	-3.8176064377e-01
 1.7566729139e-01	 1.6980802470e+00	-3.4696054056e-01
 1.4007133115e-01	 1.7013863700e+00	-3.1817587144e-01
 1.0468612724e-01	 1.7039297068e+00	-2.9462110308e-01
 6.9532667201e-02	 1.7057259245e+00	-2.7556040424e-01
 3.4630954714e-02	 1.7067912871e+00	-2.6031708050e-01
 0.0000000000e+00	 1.7071425938e+00	-2.4828180915e-01
 3.6047583844e-01	 1.6905668253e+00	-5.9259180178e-01
 3.2371846517e-01	 1.6979885690e+00	-5.2477096942e-01
 2.8705393820e-01	 1.7045699418e+00	-4.6633647548e-01
 2.5050819151e-01	 1.7103228245e+00	-4.1644058820e-01
 2.1410627744e-01	 1.7152600222e+00	-3.7422688743e-01
 1.7787233455e-01	 1.7193952011e+00	-3.3884477856e-01
 1.4182956018e-01	 1.7227428238e+00	-3.0946302848e-01
 1.0600018763e-01	 1.7253180855e+00	-2.8528224632e-01
 7.0405467887e-02	 1.7271368500e+00	-2.6554624668e-01
 3.5065655729e-02	 1.7282155855e+00	-2.4955224740e-01
 0.0000000000e+00	 1.7285713019e+00	-2.3665986871e-01
 3.6494457392e-01	 1.7115243907e+00	-5.9029467680e-01
 3.2773152801e-01	 1.7190381400e+00	-5.2216484905e-01
 2.9061247939e-01	 1.7257011006e+00	-4.6338079240e-01
 2.5361368354e-01	 1.7315253004e+00	-4.1310078071e-01
 2.1676050337e-01	 1.7365237035e+00	-3.7046449913e-01
 1.8007737669e-01	 1.7407101452e+00	-3.3460836095e-01
 1.4358778839e-01	 1.7440992676e+00	-3.0467987784e-01
 1.0731424740e-01	 1.7467064543e+00	-2.7985099714e-01
 7.1278268166e-02	 1.7485477655e+00	-2.5933033443e-01
 3.5500356541e-02	 1.7496398738e+00	-2.4237424493e-01
 0.0000000000e+00	 1.7500000000e+00	-2.2829669161e-01
 3.6941330940e-01	 1.7324819561e+00	-5.9071332699e-01
 3.3174459085e-01	 1.7400877110e+00	-5.2248644208e-01
 2.9417102058e-01	 1.7468322593e+00	-4.6355914704e-01
 2.5671917557e-01	 1.7527277764e+00	-4.1308276551e-01
 2.1941472931e-01	 1.7577873847e+00	-3.7017960511e-01
 1.8228241882e-01	 1.7620250893e+00	-3.3395920168e-01
 1.4534601660e-01	 1.7654557114e+00	-3.0353364545e-01
 1.0862830718e-01	 1.7680948230e+00	-2.7803189287e-01
 7.2151068444e-02	 1.7699586811e+00	-2.5661298254e-01
 3.5935057354e-02	 1.7710641622e+00	-2.3847808891e-01
 0.0000000000e+00	 1.7714286981e+00	-2.2288136278e-01
 3.7388204697e-01	 1.7534395313e+00	-5.9352385415e-01
 3.3575765556e-01	 1.7611372919e+00	-5.2542776196e-01
 2.9772956343e-01	 1.7679634280e+00	-4.6657528807e-01
 2.5982466905e-01	 1.7739302622e+00	-4.1609831656e-01
 2.2206895648e-01	 1.7790510759e+00	-3.7308876099e-01
 1.8448746199e-01	 1.7833400433e+00	-3.3661585803e-01
 1.4710424563e-01	 1.7868121651e+00	-3.0574256911e-01
 1.0994236757e-01	 1.7894832017e+00	-2.7954098299e-01
 7.3023869131e-02	 1.7913696066e+00	-2.5710662704e-01
 3.6369758369e-02	 1.7924884605e+00	-2.3757161067e-01
 0.0000000000e+00	 1.7928574062e+00	-2.2011654017e-01
 3.7835078871e-01	 1.7743971261e+00	-5.9841328836e-01
 3.3977072402e-01	 1.7821868924e+00	-5.3069114807e-01
 3.0128810960e-01	 1.7890946164e+00	-4.7214291886e-01
 2.6293016543e-01	 1.7951327678e+00	-4.2186900180e-01
 2.2472318613e-01	 1.8003147869e+00	-3.7891834508e-01
 1.8669250721e-01	 1.8046550173e+00	-3.4230690680e-01
 1.4886247630e-01	 1.8081686388e+00	-3.1103524969e-01
 1.1125642918e-01	 1.8108716003e+00	-2.8410514863e-01
 7.3896670632e-02	 1.8127805521e+00	-2.6053510775e-01
 3.6804459790e-02	 1.8139127789e+00	-2.3937469948e-01
 0.0000000000e+00	 1.8142861343e+00	-2.1971765427e-01
 3.8281953671e-01	 1.7953547501e+00	-6.0507898686e-01
 3.4378379810e-01	 1.8032365224e+00	-5.3798869169e-01
 3.0484666076e-01	 1.8102258343e+00	-4.7998513784e-01
 2.6603566616e-01	 1.8163353031e+00	-4.3012562642e-01
 2.2737741950e-01	 1.8215785277e+00	-3.8740399440e-01
 1.8889755552e-01	 1.8259700210e+00	-3.5077036440e-01
 1.5062070943e-01	 1.8295251424e+00	-3.1915004778e-01
 1.1257049264e-01	 1.8322600290e+00	-2.9146146982e-01
 7.4769473356e-02	 1.8341915275e+00	-2.6663300136e-01
 3.7239161821e-02	 1.8353371272e+00	-2.4361859790e-01
 0.0000000000e+00	 1.8357148924e+00	-2.2141216379e-01
 3.8728829305e-01	 1.8163124134e+00	-6.1322807509e-01
 3.4779687967e-01	 1.8242861917e+00	-5.4704170224e-01
 3.0840521856e-01	 1.8313570917e+00	-4.8983391798e-01
 2.6914117269e-01	 1.8375378780e+00	-4.4060771488e-01
 2.3003165782e-01	 1.8428423082e+00	-3.9829008000e-01
 1.9110260795e-01	 1.8472850646e+00	-3.6175314719e-01
 1.5237894585e-01	 1.8508816859e+00	-3.2983452229e-01
 1.1388455855e-01	 1.8536484975e+00	-3.0135663663e-01
 7.5642277709e-02	 1.8556025430e+00	-2.7514500065e-01
 3.7673864662e-02	 1.8567615155e+00	-2.5004524606e-01
 0.0000000000e+00	 1.8571436905e+00	-2.2493886286e-01
 1.8571436905e+00	 0.0000000000e+00	 2.8853269651e+00
 1.8567615155e+00	 3.7673864662e-02	 2.8939640291e+00
 1.8556025430e+00	 7.5642277709e-02	 2.8797620131e+00
 1.8536484975e+00	 1.1388455855e-01	 2.8439851434e+00
 1.8508816859e+00	 1.5237894585e-01	 2.7881431837e+00
 1.8472850646e+00	 1.9110260795e-01	 2.7139725581e+00
 1.8428423082e+00	 2.3003165782e-01	 2.6234152590e+00
 1.8375378780e+00	 2.6914117269e-01	 2.5185956366e+00
 1.8313570917e+00	 3.0840521856e-01	 2.4017951731e+00
 1.8242861917e+00	 3.4779687967e-01	 2.2754253638e+00
 1.8163124134e+00	 3.8728829305e-01	 2.1419988371e+00
 1.8785725360e+00	 0.0000000000e+00	 2.8596991935e+00
 1.8781859514e+00	 3.8108568468e-02	 2.8688063119e+00
 1.8770136059e+00	 7.6515083997e-02	 2.8543530343e+00
 1.8750370134e+00	 1.1519862737e-01	 2.8177487458e+00
 1.8722382767e+00	 1.5413718616e-01	 2.7606507839e+00
 1.8686001554e+00	 1.9330766527e-01	 2.6849442477e+00
 1.8641061358e+00	 2.3268590203e-01	 2.5927195732e+00
 1.8587404999e+00	 2.7224668610e-01	 2.4862479749e+00
 1.8524883960e+00	 3.1196378424e-01	 2.3679548684e+00
 1.8453359076e+00	 3.5180997013e-01	 2.2403913978e+00
 1.8372701230e+00	 3.9175705929e-01	 2.1062042073e+00
 1.9000014266e+00	 0.0000000000e+00	 2.8363352652e+00
 1.8996104322e+00	 3.8543273187e-02	 2.8456261563e+00
 1.8984247137e+00	 7.7387892119e-02	 2.8306995768e+00
 1.8964255743e+00	 1.1651269895e-01	 2.7931057419e+00
 1.8935949123e+00	 1.5589543017e-01	 2.7346434709e+00
 1.8899152910e+00	 1.9551272721e-01	 2.6573386482e+00
 1.8853700080e+00	 2.3534015181e-01	 2.5634204461e+00
 1.8799431663e+00	 2.7535220603e-01	 2.4552954156e+00
 1.8736197446e+00	 3.1552235741e-01	 2.3355195675e+00
 1.8663856677e+00	 3.5582306903e-01	 2.2067685753e+00
 1.8582278767e+00	 3.9622583492e-01	 2.0718062424e+00
 1.9214303572e+00	 0.0000000000e+00	 2.8150304417e+00
 1.9210349530e+00	 3.8977978717e-02	 2.8242382965e+00
 1.9198358616e+00	 7.8260701870e-02	 2.8086296814e+00
 1.9178141751e+00	 1.1782677299e-01	 2.7698915844e+00
 1.9149515879e+00	 1.5765367746e-01	 2.7099585022e+00
 1.9112304664e+00	 1.9771779328e-01	 2.6309895211e+00
 1.9066339200e+00	 2.3799440654e-01	 2.5353431674e+00
 1.9011458723e+00	 2.7845773176e-01	 2.4255501457e+00
 1.8947511327e+00	 3.1908093721e-01	 2.3042840922e+00
 1.8874354671e+00	 3.5983617541e-01	 2.1743304812e+00
 1.8791856695e+00	 4.0069461890e-01	 2.0385538347e+00
 1.9428593228e+00	 0.0000000000e+00	 2.7955884907e+00
 1.9424595088e+00	 3.9412684958e-02	 2.8044647565e+00
 1.9412470444e+00	 7.9133513047e-02	 2.7879778479e+00
 1.9392028108e+00	 1.1914084917e-01	 2.7479477235e+00
 1.9363082983e+00	 1.5941192762e-01	 2.6864390228e+00
 1.9325456765e+00	 1.9992286294e-01	 2.6057367355e+00
 1.9278978667e+00	 2.4064866561e-01	 2.5083196635e+00
 1.9223486129e+00	 2.8156326257e-01	 2.3968318048e+00
 1.9158825552e+00	 3.2263952283e-01	 2.2740517938e+00
 1.9084853009e+00	 3.6384928835e-01	 2.1428605428e+00
 1.9001434965e+00	 4.0516341017e-01	 2.0062072410e+00
 1.9642883184e+00	 0.0000000000e+00	 2.7778212220e+00
 1.9638840946e+00	 3.9847391807e-02	 2.7861344622e+00
 1.9626582572e+00	 8.0006325446e-02	 2.7685847048e+00
 1.9605914765e+00	 1.2045492720e-01	 2.7271213147e+00
 1.9576650386e+00	 1.6117018024e-01	 2.6639337917e+00
 1.9538609166e+00	 2.0212793570e-01	 2.5814259969e+00
 1.9491618431e+00	 2.4330292840e-01	 2.4821882119e+00
 1.9435513833e+00	 2.8466879772e-01	 2.3689671680e+00
 1.9370140074e+00	 3.2619811343e-01	 2.2446341904e+00
 1.9295351642e+00	 3.6786240691e-01	 2.1121516076e+00
 1.9211013528e+00	 4.0963220770e-01	 1.9745375875e+00
 1.9857173390e+00	 0.0000000000e+00	 2.7615480526e+00
 1.9853087054e+00	 4.0282099163e-02	 2.7690828792e+00
 1.9840694949e+00	 8.0879138863e-02	 2.7502966998e+00
 1.9819801671e+00	 1.2176900675e-01	 2.7072649450e+00
 1.9790218038e+00	 1.6292843492e-01	 2.6422969268e+00
 1.9751761814e+00	 2.0433301102e-01	 2.5579085936e+00
 1.9704258444e+00	 2.4595719429e-01	 2.4567931729e+00
 1.9647541783e+00	 2.8777433649e-01	 2.3417898486e+00
 1.9581454842e+00	 3.2975670818e-01	 2.2158506262e+00
 1.9505850521e+00	 3.7187553015e-01	 2.0820055456e+00
 1.9420592337e+00	 4.1410101044e-01	 1.9433264038e+00
 2.0071463796e+00	 0.0000000000e+00	 2.7465956006e+00
 2.0067333362e+00	 4.0716806925e-02	 2.7531516730e+00
 2.0054807527e+00	 8.1751953095e-02	 2.7329658106e+00
 2.0033688777e+00	 1.2308308753e-01	 2.6882363766e+00
 2.0003785889e+00	 1.6468669123e-01	 2.6213876653e+00
 1.9964914662e+00	 2.0653808841e-01	 2.5350411582e+00
 1.9916898655e+00	 2.4861146265e-01	 2.4319847381e+00
 1.9859569931e+00	 2.9087987816e-01	 2.3151400184e+00
 1.9792769807e+00	 3.3331530625e-01	 2.1875279507e+00
 1.9716349595e+00	 3.7588865714e-01	 2.0522328753e+00
 1.9630171340e+00	 4.1856981735e-01	 1.9123651842e+00
 2.0285754352e+00	 0.0000000000e+00	 2.7327973043e+00
 2.0281579820e+00	 4.1151514991e-02	 2.7381883916e+00
 2.0268920254e+00	 8.2624767938e-02	 2.7164492735e+00
 2.0247576032e+00	 1.2439716924e-01	 2.6698983066e+00
 2.0217353890e+00	 1.6644494878e-01	 2.6010701394e+00
 2.0178067659e+00	 2.0874316733e-01	 2.5126854442e+00
 2.0129539015e+00	 2.5126573287e-01	 2.4076186932e+00
 2.0071598228e+00	 2.9398542201e-01	 2.2888641451e+00
 2.0004084921e+00	 3.3687390681e-01	 2.1595002170e+00
 1.9926848817e+00	 3.7990178693e-01	 2.0226524116e+00
 1.9839750491e+00	 4.2303862739e-01	 1.8814549740e+00
 2.0500045008e+00	 0.0000000000e+00	 2.7199930651e+00
 2.0495826378e+00	 4.1586223260e-02	 2.7240461669e+00
 2.0483033081e+00	 8.3497583187e-02	 2.7006093293e+00
 2.0461463388e+00	 1.2571125155e-01	 2.6521181418e+00
 2.0430921991e+00	 1.6820320715e-01	 2.5812131651e+00
 2.0391220756e+00	 2.1094824729e-01	 2.4907081162e+00
 2.0342179474e+00	 2.5392000433e-01	 2.3835561963e+00
 2.0283626624e+00	 2.9709096731e-01	 2.2628147445e+00
 2.0215400133e+00	 3.4043250903e-01	 2.1316083974e+00
 2.0137348138e+00	 3.8391491860e-01	 1.9930909335e+00
 2.0049329739e+00	 4.2750743951e-01	 1.8504059801e+00
 2.0714335714e+00	 0.0000000000e+00	 2.7080289128e+00
 2.0710072986e+00	 4.2020931630e-02	 2.7105834358e+00
 2.0697145959e+00	 8.4370398640e-02	 2.6853129849e+00
 2.0675350793e+00	 1.2702533417e-01	 2.6347677870e+00
 2.0644490141e+00	 1.6996146592e-01	 2.5616900448e+00
 2.0604373902e+00	 2.1315332776e-01	 2.4689805518e+00
 2.0554819983e+00	 2.5657427640e-01	 2.3596635676e+00
 2.0495655069e+00	 3.0019651332e-01	 2.2368501471e+00
 2.0426715394e+00	 3.4399111208e-01	 2.1037001153e+00
 2.0347847507e+00	 3.8792805120e-01	 1.9633828709e+00
 2.0258909036e+00	 4.3197625268e-01	 1.8190372020e+00
 1.8163124134e+00	 3.8728829305e-01	 2.1419988371e+00
 1.8074247073e+00	 4.2684792410e-01	 2.0017631773e+00
 1.7976119718e+00	 4.6644894299e-01	 1.8539076714e+00
 1.7868648214e+00	 5.0606095546e-01	 1.6994305104e+00
 1.7751751216e+00	 5.4565281234e-01	 1.5392989746e+00
 1.7625360483e+00	 5.8519266960e-01	 1.3744330994e+00
 1.7489421430e+00	 6.2464805335e-01	 1.2056896604e+00
 1.7343893655e+00	 6.6398592955e-01	 1.0338465966e+00
 1.7188751412e+00	 7.0317277822e-01	 8.5958800556e-01
 1.7023984057e+00	 7.4217467196e-01	 6.8348985011e-01
 1.6849596428e+00	 7.8095735835e-01	 5.0600653081e-01
 1.8372701230e+00	 3.9175705929e-01	 2.1062042073e+00
 1.8282798652e+00	 4.3177315327e-01	 1.9657527945e+00
 1.8183539045e+00	 4.7183111262e-01	 1.8182144623e+00
 1.8074827469e+00	 5.1190019242e-01	 1.6645220245e+00
 1.7956581644e+00	 5.5194888406e-01	 1.5055661727e+00
 1.7828732538e+00	 5.9194497608e-01	 1.3421795966e+00
 1.7691224938e+00	 6.3185561988e-01	 1.1751215291e+00
 1.7544017975e+00	 6.7164740025e-01	 1.0050628301e+00
 1.7387085608e+00	 7.1128641045e-01	 8.3257173139e-01
 1.7220417068e+00	 7.5073833159e-01	 6.5810037665e-01
 1.7044017249e+00	 7.8996851605e-01	 4.8197230032e-01
 1.8582278767e+00	 3.9622583492e-01	 2.0718062424e+00
 1.8491350670e+00	 4.3669839277e-01	 1.9310961801e+00
 1.8390958807e+00	 4.7721329356e-01	 1.7838109588e+00
 1.8281007158e+00	 5.1773944164e-01	 1.6308230854e+00
 1.8161412501e+00	 5.5824496900e-01	 1.4729525750e+00
 1.8032105020e+00	 5.9869729673e-01	 1.3109515501e+00
 1.7893028870e+00	 6.3906320154e-01	 1.1454893612e+00
 1.7744142716e+00	 6.7930888704e-01	 9.7713833642e-01
 1.7585420220e+00	 7.1940005971e-01	 8.0636027037e-01
 1.7416850491e+00	 7.5930200921e-01	 6.3349377840e-01
 1.7238438477e+00	 7.9897969266e-01	 4.5874265151e-01
 1.8791856695e+00	 4.0069461890e-01	 2.0385538347e+00
 1.8699903076e+00	 4.4162364147e-01	 1.8975196405e+00
 1.8598378957e+00	 4.8259548455e-01	 1.7504080750e+00
 1.8487187231e+00	 5.2357870177e-01	 1.5980361163e+00
 1.8366243741e+00	 5.6454106570e-01	 1.4411586990e+00
 1.8235477881e+00	 6.0544962999e-01	 1.2804538162e+00
 1.8094833178e+00	 6.4627079665e-01	 1.1165082353e+00
 1.7944267830e+00	 6.8697038812e-01	 9.4980391857e-01
 1.7783755203e+00	 7.2751372412e-01	 7.8070525211e-01
 1.7613284280e+00	 7.6786570281e-01	 6.0944719696e-01
 1.7432860069e+00	 8.0799088610e-01	 4.3612449001e-01
 1.9001434965e+00	 4.0516341017e-01	 2.0062072410e+00
 1.8908455824e+00	 4.4654889822e-01	 1.8647623238e+00
 1.8805799445e+00	 4.8797768433e-01	 1.7177307663e+00
 1.8693367642e+00	 5.2941797143e-01	 1.5658785100e+00
 1.8571075316e+00	 5.7083717267e-01	 1.4099006940e+00
 1.8438851075e+00	 6.1220197428e-01	 1.2504072899e+00
 1.8296637816e+00	 6.5347840353e-01	 1.0879094300e+00
 1.8144393272e+00	 6.9463190172e-01	 9.2280650807e-01
 1.7982090509e+00	 7.3562740179e-01	 7.5537414495e-01
 1.7809718391e+00	 7.7642941040e-01	 5.8575312065e-01
 1.7627281978e+00	 8.1700209425e-01	 4.1393939197e-01
 1.9211013528e+00	 4.0963220770e-01	 1.9745375875e+00
 1.9117008863e+00	 4.5147416186e-01	 1.8325756527e+00
 1.9013220224e+00	 4.9335989164e-01	 1.6855174041e+00
 1.8899548340e+00	 5.3525724927e-01	 1.5340819570e+00
 1.8775907177e+00	 5.7713328847e-01	 1.3789096369e+00
 1.8642224553e+00	 6.1895432802e-01	 1.2205481788e+00
 1.8498442737e+00	 6.6068602051e-01	 1.0594396873e+00
 1.8344518993e+00	 7.0229342605e-01	 8.9590842847e-01
 1.8180426093e+00	 7.4374109081e-01	 7.3014952950e-01
 1.8006152776e+00	 7.8499312998e-01	 5.6221867736e-01
 1.7821704160e+00	 8.2601331502e-01	 3.9202292472e-01
 1.9420592337e+00	 4.1410101044e-01	 1.9433264038e+00
 1.9325562145e+00	 4.5639943124e-01	 1.8007227908e+00
 1.9220641244e+00	 4.9874210523e-01	 1.6535191865e+00
 1.9105729280e+00	 5.4109653392e-01	 1.5023918127e+00
 1.8980739277e+00	 5.8342941160e-01	 1.3479308669e+00
 1.8845598269e+00	 6.2570668963e-01	 1.1906273166e+00
 1.8700247893e+00	 6.6789364589e-01	 1.0308605156e+00
 1.8544644948e+00	 7.0995495932e-01	 8.6888669753e-01
 1.8378761908e+00	 7.5185478929e-01	 7.0482840911e-01
 1.8202587391e+00	 7.9355685954e-01	 5.3866496187e-01
 1.8016126568e+00	 8.3502454630e-01	 3.7022399883e-01
 1.9630171340e+00	 4.1856981735e-01	 1.9123651842e+00
 1.9534115623e+00	 4.6132470522e-01	 1.7689781395e+00
 1.9428062458e+00	 5.0412432384e-01	 1.6214995825e+00
 1.9311910412e+00	 5.4693582402e-01	 1.4705665007e+00
 1.9185571568e+00	 5.8972554062e-01	 1.3167233573e+00
 1.9048972174e+00	 6.3245905755e-01	 1.1604095145e+00
 1.8902053237e+00	 6.7510127800e-01	 1.0019475300e+00
 1.8744771089e+00	 7.1761649973e-01	 8.4153236541e-01
 1.8577097909e+00	 7.5996849535e-01	 6.7922155456e-01
 1.8399022188e+00	 8.0212059710e-01	 5.1492639509e-01
 1.8210549158e+00	 8.4403578599e-01	 3.4840424924e-01
 1.9839750491e+00	 4.2303862739e-01	 1.8814549740e+00
 1.9742669246e+00	 4.6624998265e-01	 1.7371268641e+00
 1.9635483818e+00	 5.0950654623e-01	 1.5892338080e+00
 1.9518091688e+00	 5.5277511820e-01	 1.4383769485e+00
 1.9390404003e+00	 5.9602167404e-01	 1.2850591221e+00
 1.9252346222e+00	 6.3921143020e-01	 1.1296729471e+00
 1.9103858723e+00	 6.8230891515e-01	 9.7248982631e-01
 1.8944897371e+00	 7.2527804551e-01	 8.1364988601e-01
 1.8775434048e+00	 7.6808220709e-01	 6.5315288054e-01
 1.8595457124e+00	 8.1068434065e-01	 4.9085011291e-01
 1.8404971884e+00	 8.5304703199e-01	 3.2643744331e-01
 2.0049329739e+00	 4.2750743951e-01	 1.8504059801e+00
 1.9951222966e+00	 4.7117526238e-01	 1.7049644464e+00
 1.9842905274e+00	 5.1488877112e-01	 1.5565083306e+00
 1.9724273060e+00	 5.5861441511e-01	 1.4056060545e+00
 1.9595236533e+00	 6.0231781039e-01	 1.2527226539e+00
 1.9455720365e+00	 6.4596380599e-01	 1.0982085701e+00
 1.9305664302e+00	 6.8951655567e-01	 9.4228938760e-01
 1.9145023746e+00	 7.3293959486e-01	 7.8505651925e-01
 1.8973770280e+00	 7.7619592261e-01	 6.2645885138e-01
 1.8791892151e+00	 8.1924808820e-01	 4.6629538241e-01
 1.8599394700e+00	 8.6205828219e-01	 3.0420891381e-01
 2.0258909036e+00	 4.3197625268e-01	 1.8190372020e+00
 2.0159776735e+00	 4.7610054326e-01	 1.6722962613e+00
 2.0050326779e+00	 5.2027099727e-01	 1.5231204015e+00
 1.9930454480e+00	 5.6445371338e-01	 1.3720481832e+00
 1.9800069111e+00	 6.0861394822e-01	 1.2195103909e+00
 1.9659094555e+00	 6.5271618337e-01	 1.0658195679e+00
 1.9507469929e+00	 6.9672419787e-01	 9.1116051938e-01
 1.9345150168e+00	 7.4060114600e-01	 7.5558176192e-01
 1.9172106558e+00	 7.8430964002e-01	 5.9898791411e-01
 1.8988327224e+00	 8.2781183775e-01	 4.4113304349e-01
 1.8793817562e+00	 8.7106953450e-01	 2.8161501513e-01
 1.6849596428e+00	 7.8095735835e-01	 5.0600653081e-01
 1.6665595984e+00	 8.1948903177e-01	 3.2842435864e-01
 1.6472031450e+00	 8.5773231209e-01	 1.5276133864e-01
 1.6268956020e+00	 8.9565248279e-01	-1.9606122770e-02
 1.6056439369e+00	 9.3321486423e-01	-1.8736528664e-01
 1.5834567745e+00	 9.7038491014e-01	-3.4928027052e-01
 1.5603443992e+00	 1.0071283054e+00	-5.0420419423e-01
 1.5363187511e+00	 1.0434110647e+00	-6.5109004272e-01
 1.5113934140e+00	 1.0791996313e+00	-7.8900000875e-01
 1.4855835976e+00	 1.1144609760e+00	-9.1711308957e-01
 1.4589061117e+00	 1.1491626944e+00	-1.0347307323e+00
 1.7044017249e+00	 7.8996851605e-01	 4.8197230032e-01
 1.6857893696e+00	 8.2894479118e-01	 3.0562542777e-01
 1.6662095698e+00	 8.6762934557e-01	 1.3133230043e-01
 1.6456677061e+00	 9.0598706210e-01	-3.9513977256e-02
 1.6241708264e+00	 9.4398286099e-01	-2.0558732899e-01
 1.6017276551e+00	 9.8158179734e-01	-3.6564215733e-01
 1.5783485953e+00	 1.0187491601e+00	-5.1852573034e-01
 1.5540457248e+00	 1.0554505717e+00	-6.6318925013e-01
 1.5288327841e+00	 1.0916520885e+00	-7.9869735033e-01
 1.5027251585e+00	 1.1273202998e+00	-9.2423578024e-01
 1.4757398516e+00	 1.1624224276e+00	-1.0391170543e+00
 1.7238438477e+00	 7.9897969266e-01	 4.5874265151e-01
 1.7050191813e+00	 8.3840057045e-01	 2.8370078675e-01
 1.6852160345e+00	 8.7752639983e-01	 1.1088166945e-01
 1.6644398496e+00	 9.1632166311e-01	-5.8320761914e-02
 1.6426977549e+00	 9.5475088036e-01	-2.2258377805e-01
 1.6199985741e+00	 9.9277870805e-01	-3.8066947452e-01
 1.5963528292e+00	 1.0303700392e+00	-5.3143729665e-01
 1.5717727357e+00	 1.0674901041e+00	-6.7385520515e-01
 1.5462721908e+00	 1.1041045718e+00	-8.0700921343e-01
 1.5198667553e+00	 1.1401796507e+00	-9.3011103810e-01
 1.4925736268e+00	 1.1756821887e+00	-1.0425036244e+00
 1.7432860069e+00	 8.0799088610e-01	 4.3612449001e-01
 1.7242490288e+00	 8.4785636737e-01	 2.6248762583e-01
 1.7042225346e+00	 8.8742347257e-01	 9.1274287934e-02
 1.6832120281e+00	 9.2665628342e-01	-7.6136169435e-02
 1.6612247179e+00	 9.6551891982e-01	-2.3844058313e-01
 1.6382695273e+00	 1.0039756397e+00	-3.9442566878e-01
 1.6143570968e+00	 1.0419909399e+00	-5.4298058559e-01
 1.5894997796e+00	 1.0795296589e+00	-6.8310809488e-01
 1.5637116301e+00	 1.1165570784e+00	-8.1393402735e-01
 1.5370083841e+00	 1.1530390256e+00	-9.3471478332e-01
 1.5094074335e+00	 1.1889419746e+00	-1.0448426113e+00
 1.7627281978e+00	 8.1700209425e-01	 4.1393939197e-01
 1.7434789077e+00	 8.5731217974e-01	 2.4183710993e-01
 1.7232290659e+00	 8.9732056147e-01	 7.2388397106e-02
 1.7019842373e+00	 9.3699092060e-01	-9.3056967301e-02
 1.6797517112e+00	 9.7628697688e-01	-2.5323115869e-01
 1.6565405102e+00	 1.0151725896e+00	-4.0696197765e-01
 1.6323613937e+00	 1.0536118597e+00	-5.5318536055e-01
 1.6072268526e+00	 1.0915692334e+00	-6.9095643154e-01
 1.5811510978e+00	 1.1290096053e+00	-8.1945879442e-01
 1.5541500409e+00	 1.1658984214e+00	-9.3801177124e-01
 1.5262412676e+00	 1.2022017821e+00	-1.0460753158e+00
 1.7821704160e+00	 8.2601331502e-01	 3.9202292472e-01
 1.7627088135e+00	 8.6676800534e-01	 2.2161372692e-01
 1.7422356237e+00	 9.0721766423e-01	 5.4115005573e-02
 1.7207564728e+00	 9.4732557225e-01	-1.0916761536e-01
 1.6982787304e+00	 9.8705504901e-01	-2.6701699250e-01
 1.6748115188e+00	 1.0263695551e+00	-4.1831803146e-01
 1.6503657158e+00	 1.0652327957e+00	-5.6207005336e-01
 1.6249539503e+00	 1.1036088248e+00	-6.9739764545e-01
 1.5985905899e+00	 1.1414621496e+00	-8.2355967722e-01
 1.5712917217e+00	 1.1787578353e+00	-9.3995617076e-01
 1.5430751254e+00	 1.2154616081e+00	-1.0461327362e+00
 1.8016126568e+00	 8.3502454630e-01	 3.7022399883e-01
 1.7819387418e+00	 8.7622384197e-01	 2.0169466421e-01
 1.7612422037e+00	 9.1711477853e-01	 3.6357283371e-02
 1.7395287302e+00	 9.5766023596e-01	-1.2454085997e-01
 1.7168057712e+00	 9.9782313370e-01	-2.7984823238e-01
 1.6930825487e+00	 1.0375665338e+00	-4.2852243562e-01
 1.6683700590e+00	 1.0768537453e+00	-5.6964234359e-01
 1.6426810688e+00	 1.1156484302e+00	-7.0241866155e-01
 1.6160301024e+00	 1.1539147085e+00	-8.2620257076e-01
 1.5884334226e+00	 1.1916172642e+00	-9.4049212940e-01
 1.5599090027e+00	 1.2287214497e+00	-1.0449361216e+00
 1.8210549158e+00	 8.4403578599e-01	 3.4840424924e-01
 1.8011686880e+00	 8.8567968743e-01	 1.8196921146e-01
 1.7802488014e+00	 9.2701190207e-01	 1.9029979782e-02
 1.7583010051e+00	 9.6799490931e-01	-1.3923830652e-01
 1.7353328294e+00	 1.0085912284e+00	-2.9176425310e-01
 1.7113535956e+00	 1.0487635228e+00	-4.3759333458e-01
 1.6863744189e+00	 1.0884747057e+00	-5.7589972110e-01
 1.6604082038e+00	 1.1276880468e+00	-7.0599646041e-01
 1.6334696312e+00	 1.1663672789e+00	-8.2734366080e-01
 1.6055751394e+00	 1.2044767051e+00	-9.3955432604e-01
 1.5767428958e+00	 1.2419813036e+00	-1.0423975152e+00
 1.8404971884e+00	 8.5304703199e-01	 3.2643744331e-01
 1.8203986477e+00	 8.9513553950e-01	 1.6233818765e-01
 1.7992554125e+00	 9.3690903254e-01	 2.0588631475e-03
 1.7770732932e+00	 9.7832958990e-01	-1.5331097184e-01
 1.7538599005e+00	 1.0193593307e+00	-3.0279420479e-01
 1.7296246553e+00	 1.0599605198e+00	-4.4553895901e-01
 1.7043787915e+00	 1.1000956743e+00	-5.8083003303e-01
 1.6781353512e+00	 1.1397276718e+00	-7.0809862517e-01
 1.6509091722e+00	 1.1788198581e+00	-8.2692996923e-01
 1.6227168682e+00	 1.2173361550e+00	-9.3706851222e-01
 1.5935768006e+00	 1.2552411668e+00	-1.0384202871e+00
 1.8599394700e+00	 8.6205828219e-01	 3.0420891381e-01
 1.8396286163e+00	 9.0459139599e-01	 1.4271339058e-01
 1.8182620324e+00	 9.4680616762e-01	-1.4619818935e-02
 1.7958455900e+00	 9.8866427531e-01	-1.6679981806e-01
 1.7723869802e+00	 1.0301274380e+00	-3.1295754447e-01
 1.7478957235e+00	 1.0711575219e+00	-4.5235815712e-01
 1.7223831724e+00	 1.1117166483e+00	-5.8441201635e-01
 1.6958625068e+00	 1.1517673025e+00	-7.0868387522e-01
 1.6683487213e+00	 1.1912724432e+00	-8.2489988760e-01
 1.6398586050e+00	 1.2301956109e+00	-9.3295204287e-01
 1.6104107133e+00	 1.2685010362e+00	-1.0328996590e+00
 1.8793817562e+00	 8.7106953450e-01	 2.8161501513e-01
 1.8588585895e+00	 9.1404725469e-01	 1.2301706728e-01
 1.8372686567e+00	 9.5670330502e-01	-3.1059860493e-02
 1.8146178912e+00	 9.9899896314e-01	-1.7973626913e-01
 1.7909140643e+00	 1.0408955478e+00	-3.2226455162e-01
 1.7661667960e+00	 1.0823545267e+00	-4.5804091165e-01
 1.7403875576e+00	 1.1233376250e+00	-5.8661581716e-01
 1.7135896666e+00	 1.1638069360e+00	-7.0770258763e-01
 1.6857882745e+00	 1.2037250311e+00	-8.2118369950e-01
 1.6570003458e+00	 1.2430550697e+00	-9.2711439721e-01
 1.6272446300e+00	 1.2817609086e+00	-1.0257232194e+00
 1.4589061117e+00	 1.1491626944e+00	-1.0347307323e+00
 1.4313793298e+00	 1.1832731067e+00	-1.1412625239e+00
 1.4030231373e+00	 1.2167613613e+00	-1.2354434652e+00
 1.3738588983e+00	 1.2495975169e+00	-1.3163426915e+00
 1.3439094063e+00	 1.2817526271e+00	-1.3852595830e+00
 1.3131988257e+00	 1.3131988257e+00	-1.4436786036e+00
 1.2817526271e+00	 1.3439094063e+00	-1.4931913995e+00
 1.2495975169e+00	 1.3738588983e+00	-1.5354335199e+00
 1.2167613613e+00	 1.4030231373e+00	-1.5720221839e+00
 1.1832731067e+00	 1.4313793298e+00	-1.6044454683e+00
 1.1491626944e+00	 1.4589061117e+00	-1.6280464037e+00
 1.4757398516e+00	 1.1624224276e+00	-1.0391170543e+00
 1.4478954490e+00	 1.1969264265e+00	-1.1427930168e+00
 1.4192120657e+00	 1.2308010888e+00	-1.2351633431e+00
 1.3897113121e+00	 1.2640161277e+00	-1.3148340272e+00
 1.3594162447e+00	 1.2965422631e+00	-1.3825992714e+00
 1.3283513069e+00	 1.3283513069e+00	-1.4401570371e+00
 1.2965422631e+00	 1.3594162447e+00	-1.4893123076e+00
 1.2640161277e+00	 1.3897113121e+00	-1.5319080682e+00
 1.2308010888e+00	 1.4192120657e+00	-1.5697574988e+00
 1.1969264265e+00	 1.4478954490e+00	-1.6020781841e+00
 1.1624224276e+00	 1.4757398516e+00	-1.6228004440e+00
 1.4925736268e+00	 1.1756821887e+00	-1.0425036244e+00
 1.4644116029e+00	 1.2105797749e+00	-1.1437013024e+00
 1.4354010281e+00	 1.2448408458e+00	-1.2338933312e+00
 1.4055637591e+00	 1.2784347689e+00	-1.3128817583e+00
 1.3749231157e+00	 1.3113319301e+00	-1.3801802098e+00
 1.3435038199e+00	 1.3435038199e+00	-1.4376044142e+00
 1.3113319301e+00	 1.3749231157e+00	-1.4871532089e+00
 1.2784347689e+00	 1.4055637591e+00	-1.5308571307e+00
 1.2448408458e+00	 1.4354010281e+00	-1.5703981194e+00
 1.2105797749e+00	 1.4644116029e+00	-1.5999218885e+00
 1.1756821887e+00	 1.4925736268e+00	-1.6181350032e+00
 1.5094074335e+00	 1.1889419746e+00	-1.0448426113e+00
 1.4809277877e+00	 1.2242331489e+00	-1.1439133910e+00
 1.4515900207e+00	 1.2588806290e+00	-1.2322469675e+00
 1.4214162358e+00	 1.2928534370e+00	-1.3104595523e+00
 1.3904300156e+00	 1.3261216248e+00	-1.3779448513e+00
 1.3586563612e+00	 1.3586563612e+00	-1.4359323914e+00
 1.3261216248e+00	 1.3904300156e+00	-1.4865966359e+00
 1.2928534370e+00	 1.4214162358e+00	-1.5321370169e+00
 1.2588806290e+00	 1.4515900207e+00	-1.5711835042e+00
 1.2242331489e+00	 1.4809277877e+00	-1.5977621225e+00
 1.1889419746e+00	 1.5094074335e+00	-1.6138216525e+00
 1.5262412676e+00	 1.2022017821e+00	-1.0460753158e+00
 1.4974439994e+00	 1.2378865451e+00	-1.1433448089e+00
 1.4677790397e+00	 1.2729204351e+00	-1.2302634627e+00
 1.4372687383e+00	 1.3072721286e+00	-1.3076274811e+00
 1.4059369409e+00	 1.3409113436e+00	-1.3758259855e+00
 1.3738089273e+00	 1.3738089273e+00	-1.4350430737e+00
 1.3409113436e+00	 1.4059369409e+00	-1.4875157321e+00
 1.3072721286e+00	 1.4372687383e+00	-1.5351041333e+00
 1.2729204351e+00	 1.4677790397e+00	-1.5713399430e+00
 1.2378865451e+00	 1.4974439994e+00	-1.5953917626e+00
 1.2022017821e+00	 1.5262412676e+00	-1.6096398007e+00
 1.5430751254e+00	 1.2154616081e+00	-1.0461327362e+00
 1.5139602343e+00	 1.2515399605e+00	-1.1419011421e+00
 1.4839680814e+00	 1.2869602609e+00	-1.2278205215e+00
 1.4531212630e+00	 1.3216908405e+00	-1.3047785891e+00
 1.4214438879e+00	 1.3557010831e+00	-1.3737465425e+00
 1.3889615145e+00	 1.3889615145e+00	-1.4348287445e+00
 1.3557010831e+00	 1.4214438879e+00	-1.4897739093e+00
 1.3216908405e+00	 1.4531212630e+00	-1.5371425555e+00
 1.2869602609e+00	 1.4839680814e+00	-1.5706837223e+00
 1.2515399605e+00	 1.5139602343e+00	-1.5926107759e+00
 1.2154616081e+00	 1.5430751254e+00	-1.6053764223e+00
 1.5599090027e+00	 1.2287214497e+00	-1.0449361216e+00
 1.5304764884e+00	 1.2651933918e+00	-1.1394785714e+00
 1.5001571420e+00	 1.3010001030e+00	-1.2247868693e+00
 1.4689738063e+00	 1.3361095691e+00	-1.3018222619e+00
 1.4369508530e+00	 1.3704908398e+00	-1.3716825188e+00
 1.4041141195e+00	 1.4041141195e+00	-1.4351715970e+00
 1.3704908398e+00	 1.4369508530e+00	-1.4927797797e+00
 1.3361095691e+00	 1.4689738063e+00	-1.5377558190e+00
 1.3010001030e+00	 1.5001571420e+00	-1.5690373954e+00
 1.2651933918e+00	 1.5304764884e+00	-1.5892259905e+00
 1.2287214497e+00	 1.5599090027e+00	-1.6008258034e+00
 1.5767428958e+00	 1.2419813036e+00	-1.0423975152e+00
 1.5469927579e+00	 1.2788468358e+00	-1.1359643988e+00
 1.5163462176e+00	 1.3150399583e+00	-1.2210227539e+00
 1.4848263643e+00	 1.3505283112e+00	-1.2985901496e+00
 1.4524578325e+00	 1.3852806104e+00	-1.3698235464e+00
 1.4192667386e+00	 1.4192667386e+00	-1.4359434710e+00
 1.3852806104e+00	 1.4524578325e+00	-1.4940911986e+00
 1.3505283112e+00	 1.4848263643e+00	-1.5367901080e+00
 1.3150399583e+00	 1.5163462176e+00	-1.5662295965e+00
 1.2788468358e+00	 1.5469927579e+00	-1.5850508802e+00
 1.2419813036e+00	 1.5767428958e+00	-1.5957893032e+00
 1.5935768006e+00	 1.2552411668e+00	-1.0384202871e+00
 1.5635090390e+00	 1.2925002894e+00	-1.1312375654e+00
 1.5325353047e+00	 1.3290798234e+00	-1.2163804413e+00
 1.5006789334e+00	 1.3649470634e+00	-1.2949063354e+00
 1.4679648229e+00	 1.4000703913e+00	-1.3680147548e+00
 1.4344193683e+00	 1.4344193683e+00	-1.4368147844e+00
 1.4000703913e+00	 1.4679648229e+00	-1.4932504758e+00
 1.3649470634e+00	 1.5006789334e+00	-1.5340968763e+00
 1.3290798234e+00	 1.5325353047e+00	-1.5620948671e+00
 1.2925002894e+00	 1.5635090390e+00	-1.5799053617e+00
 1.2552411668e+00	 1.5935768006e+00	-1.5900751300e+00
 1.6104107133e+00	 1.2685010362e+00	-1.0328996590e+00
 1.5800253279e+00	 1.3061537494e+00	-1.1251691636e+00
 1.5487243992e+00	 1.3431196950e+00	-1.2107047075e+00
 1.5165315099e+00	 1.3793658223e+00	-1.2905878015e+00
 1.4834718206e+00	 1.4148601791e+00	-1.3660445939e+00
 1.4495720051e+00	 1.4495720051e+00	-1.4357173095e+00
 1.4148601791e+00	 1.4834718206e+00	-1.4901320888e+00
 1.3793658223e+00	 1.5165315099e+00	-1.5295327148e+00
 1.3431196950e+00	 1.5487243992e+00	-1.5564734911e+00
 1.3061537494e+00	 1.5800253279e+00	-1.5736156043e+00
 1.2685010362e+00	 1.6104107133e+00	-1.5834981312e+00
 1.6272446300e+00	 1.2817609086e+00	-1.0257232194e+00
 1.5965416205e+00	 1.3198072125e+00	-1.1176229409e+00
 1.5649134976e+00	 1.3571595699e+00	-1.2038333250e+00
 1.5323840901e+00	 1.3937845846e+00	-1.2854448918e+00
 1.4989788218e+00	 1.4296499704e+00	-1.3636886869e+00
 1.4647246454e+00	 1.4647246454e+00	-1.4319740345e+00
 1.4296499704e+00	 1.4989788218e+00	-1.4846151310e+00
 1.3937845846e+00	 1.5323840901e+00	-1.5229592250e+00
 1.3571595699e+00	 1.5649134976e+00	-1.5492113405e+00
 1.3198072125e+00	 1.5965416205e+00	-1.5660138510e+00
 1.2817609086e+00	 1.6272446300e+00	-1.5758795956e+00
 1.1491626944e+00	 1.4589061117e+00	-1.6280464037e+00
 1.1144609760e+00	 1.4855835976e+00	-1.6391902459e+00
 1.0791996313e+00	 1.5113934140e+00	-1.6381003157e+00
 1.0434110647e+00	 1.5363187511e+00	-1.6258861604e+00
 1.0071283054e+00	 1.5603443992e+00	-1.6036045433e+00
 9.7038491014e-01	 1.5834567745e+00	-1.5722564672e+00
 9.3321486423e-01	 1.6056439369e+00	-1.5327852367e+00
 8.9565248279e-01	 1.6268956020e+00	-1.4860754747e+00
 8.5773231209e-01	 1.6472031450e+00	-1.4329530060e+00
 8.1948903177e-01	 1.6665595984e+00	-1.3741855184e+00
 7.8095735835e-01	 1.6849596428e+00	-1.3104839188e+00
 1.1624224276e+00	 1.4757398516e+00	-1.6228004440e+00
 1.1273202998e+00	 1.5027251585e+00	-1.6321470274e+00
 1.0916520885e+00	 1.5288327841e+00	-1.6302728202e+00
 1.0554505717e+00	 1.5540457248e+00	-1.6181456789e+00
 1.0187491601e+00	 1.5783485953e+00	-1.5966766028e+00
 9.8158179734e-01	 1.6017276551e+00	-1.5667181995e+00
 9.4398286099e-01	 1.6241708264e+00	-1.5290641792e+00
 9.0598706210e-01	 1.6456677061e+00	-1.4844497754e+00
 8.6762934557e-01	 1.6662095698e+00	-1.4335529869e+00
 8.2894479118e-01	 1.6857893696e+00	-1.3769965394e+00
 7.8996851605e-01	 1.7044017249e+00	-1.3153504691e+00
 1.1756821887e+00	 1.4925736268e+00	-1.6181350032e+00
 1.1401796507e+00	 1.5198667553e+00	-1.6259635610e+00
 1.1041045718e+00	 1.5462721908e+00	-1.6235103774e+00
 1.0674901041e+00	 1.5717727357e+00	-1.6116131331e+00
 1.0303700392e+00	 1.5963528292e+00	-1.5910486987e+00
 9.9277870805e-01	 1.6199985741e+00	-1.5625329737e+00
 9.5475088036e-01	 1.6426977549e+00	-1.5267217444e+00
 9.1632166311e-01	 1.6644398496e+00	-1.4842124388e+00
 8.7752639983e-01	 1.6852160345e+00	-1.4355466594e+00
 8.3840057045e-01	 1.7050191813e+00	-1.3812133773e+00
 7.9897969266e-01	 1.7238438477e+00	-1.3216526766e+00
 1.1889419746e+00	 1.5094074335e+00	-1.6138216525e+00
 1.1530390256e+00	 1.5370083841e+00	-1.6204007021e+00
 1.1165570784e+00	 1.5637116301e+00	-1.6175652206e+00
 1.0795296589e+00	 1.5894997796e+00	-1.6060338408e+00
 1.0419909399e+00	 1.6143570968e+00	-1.5864605515e+00
 1.0039756397e+00	 1.6382695273e+00	-1.5594358442e+00
 9.6551891982e-01	 1.6612247179e+00	-1.5254888683e+00
 9.2665628342e-01	 1.6832120281e+00	-1.4850904533e+00
 8.8742347257e-01	 1.7042225346e+00	-1.4386568660e+00
 8.4785636737e-01	 1.7242490288e+00	-1.3865541701e+00
 8.0799088610e-01	 1.7432860069e+00	-1.3291030683e+00
 1.2022017821e+00	 1.5262412676e+00	-1.6096398007e+00
 1.1658984214e+00	 1.5541500409e+00	-1.6152275015e+00
 1.1290096053e+00	 1.5811510978e+00	-1.6121980433e+00
 1.0915692334e+00	 1.6072268526e+00	-1.6011617677e+00
 1.0536118597e+00	 1.6323613937e+00	-1.5826606568e+00
 1.0151725896e+00	 1.6565405102e+00	-1.5571707248e+00
 9.7628697688e-01	 1.6797517112e+00	-1.5251054049e+00
 9.3699092060e-01	 1.7019842373e+00	-1.4868197756e+00
 8.9732056147e-01	 1.7232290659e+00	-1.4426154760e+00
 8.5731217974e-01	 1.7434789077e+00	-1.3927461678e+00
 8.1700209425e-01	 1.7627281978e+00	-1.3374234103e+00
 1.2154616081e+00	 1.5430751254e+00	-1.6053764223e+00
 1.1787578353e+00	 1.5712917217e+00	-1.6102209143e+00
 1.1414621496e+00	 1.5985905899e+00	-1.6071776929e+00
 1.1036088248e+00	 1.6249539503e+00	-1.5967592097e+00
 1.0652327957e+00	 1.6503657158e+00	-1.5794059593e+00
 1.0263695551e+00	 1.6748115188e+00	-1.5554900553e+00
 9.8705504901e-01	 1.6982787304e+00	-1.5253197864e+00
 9.4732557225e-01	 1.7207564728e+00	-1.4891449834e+00
 9.0721766423e-01	 1.7422356237e+00	-1.4471630306e+00
 8.6676800534e-01	 1.7627088135e+00	-1.3995253662e+00
 8.2601331502e-01	 1.7821704160e+00	-1.3463443291e+00
 1.2287214497e+00	 1.5599090027e+00	-1.6008258034e+00
 1.1916172642e+00	 1.5884334226e+00	-1.6051655282e+00
 1.1539147085e+00	 1.6160301024e+00	-1.6022808852e+00
 1.1156484302e+00	 1.6426810688e+00	-1.5925964964e+00
 1.0768537453e+00	 1.6683700590e+00	-1.5764615480e+00
 1.0375665338e+00	 1.6930825487e+00	-1.5541544907e+00
 9.9782313370e-01	 1.7168057712e+00	-1.5258887057e+00
 9.5766023596e-01	 1.7395287302e+00	-1.4918189517e+00
 9.1711477853e-01	 1.7612422037e+00	-1.4520484105e+00
 8.7622384197e-01	 1.7819387418e+00	-1.4066361652e+00
 8.3502454630e-01	 1.8016126568e+00	-1.3556049569e+00
 1.2419813036e+00	 1.5767428958e+00	-1.5957893032e+00
 1.2044767051e+00	 1.6055751394e+00	-1.5998533078e+00
 1.1663672789e+00	 1.6334696312e+00	-1.5972919361e+00
 1.1276880468e+00	 1.6604082038e+00	-1.5884517141e+00
 1.0884747057e+00	 1.6863744189e+00	-1.5736003715e+00
 1.0487635228e+00	 1.7113535956e+00	-1.5529326096e+00
 1.0085912284e+00	 1.7353328294e+00	-1.5265768195e+00
 9.6799490931e-01	 1.7583010051e+00	-1.4946025498e+00
 9.2701190207e-01	 1.7802488014e+00	-1.4570285267e+00
 8.8567968743e-01	 1.8011686880e+00	-1.4138310502e+00
 8.4403578599e-01	 1.8210549158e+00	-1.3649526009e+00
 1.2552411668e+00	 1.5935768006e+00	-1.5900751300e+00
 1.2173361550e+00	 1.6227168682e+00	-1.5940833557e+00
 1.1788198581e+00	 1.6509091722e+00	-1.5920025112e+00
 1.1397276718e+00	 1.6781353512e+00	-1.5841104459e+00
 1.1000956743e+00	 1.7043787915e+00	-1.5706029715e+00
 1.0599605198e+00	 1.7296246553e+00	-1.5516006426e+00
 1.0193593307e+00	 1.7538599005e+00	-1.5271564717e+00
 9.7832958990e-01	 1.7770732932e+00	-1.4972643591e+00
 9.3690903254e-01	 1.7992554125e+00	-1.4618680311e+00
 8.9513553950e-01	 1.8203986477e+00	-1.4208702942e+00
 8.5304703199e-01	 1.8404971884e+00	-1.3741424347e+00
 1.2685010362e+00	 1.6104107133e+00	-1.5834981312e+00
 1.2301956109e+00	 1.6398586050e+00	-1.5876616882e+00
 1.1912724432e+00	 1.6683487213e+00	-1.5862113902e+00
 1.1517673025e+00	 1.6958625068e+00	-1.5793655281e+00
 1.1117166483e+00	 1.7223831724e+00	-1.5672572330e+00
 1.0711575219e+00	 1.7478957235e+00	-1.5499422176e+00
 1.0301274380e+00	 1.7723869802e+00	-1.5274074333e+00
 9.8866427531e-01	 1.7958455900e+00	-1.4995804083e+00
 9.4680616762e-01	 1.8182620324e+00	-1.4663390456e+00
 9.0459139599e-01	 1.8396286163e+00	-1.4275216795e+00
 8.6205828219e-01	 1.8599394700e+00	-1.3829372091e+00
 1.2817609086e+00	 1.6272446300e+00	-1.5758795956e+00
 1.2430550697e+00	 1.6570003458e+00	-1.5804010244e+00
 1.2037250311e+00	 1.6857882745e+00	-1.5797242467e+00
 1.1638069360e+00	 1.7135896666e+00	-1.5740168225e+00
 1.1233376250e+00	 1.7403875576e+00	-1.5633581506e+00
 1.0823545267e+00	 1.7661667960e+00	-1.5477481207e+00
 1.0408955478e+00	 1.7909140643e+00	-1.5271166600e+00
 9.9899896314e-01	 1.8146178912e+00	-1.5013339259e+00
 9.5670330502e-01	 1.8372686567e+00	-1.4702209094e+00
 9.1404725469e-01	 1.8588585895e+00	-1.4335602369e+00
 8.7106953450e-01	 1.8793817562e+00	-1.3911069823e+00
 7.8095735835e-01	 1.6849596428e+00	-1.3104839188e+00
 7.4217467196e-01	 1.7023984057e+00	-1.2436437441e+00
 7.0317277822e-01	 1.7188751412e+00	-1.1753739205e+00
 6.6398592955e-01	 1.7343893655e+00	-1.1061402891e+00
 6.2464805335e-01	 1.7489421430e+00	-1.0362993944e+00
 5.8519266960e-01	 1.7625360483e+00	-9.6610821831e-01
 5.4565281234e-01	 1.7751751216e+00	-8.9573435474e-01
 5.0606095546e-01	 1.7868648214e+00	-8.2526650673e-01
 4.6644894299e-01	 1.7976119718e+00	-7.5472519009e-01
 4.2684792410e-01	 1.8074247073e+00	-6.8407353415e-01
 3.8728829305e-01	 1.8163124134e+00	-6.1322807509e-01
 7.8996851605e-01	 1.7044017249e+00	-1.3153504691e+00
 7.5073833159e-01	 1.7220417068e+00	-1.2501197363e+00
 7.1128641045e-01	 1.7387085608e+00	-1.1828948394e+00
 6.7164740025e-01	 1.7544017975e+00	-1.1142638471e+00
 6.3185561988e-01	 1.7691224938e+00	-1.0447068639e+00
 5.9194497608e-01	 1.7828732538e+00	-9.7460491137e-01
 5.5194888406e-01	 1.7956581644e+00	-9.0424927220e-01
 5.1190019242e-01	 1.8074827469e+00	-8.3385118809e-01
 4.7183111262e-01	 1.8183539045e+00	-7.6355180309e-01
 4.3177315327e-01	 1.8282798652e+00	-6.9343225190e-01
 3.9175705929e-01	 1.8372701230e+00	-6.2352379522e-01
 7.9897969266e-01	 1.7238438477e+00	-1.3216526766e+00
 7.5930200921e-01	 1.7416850491e+00	-1.2580900336e+00
 7.1940005971e-01	 1.7585420220e+00	-1.1919979519e+00
 6.7930888704e-01	 1.7744142716e+00	-1.1240818399e+00
 6.3906320154e-01	 1.7893028870e+00	-1.0549410663e+00
 5.9869729673e-01	 1.8032105020e+00	-9.8507698394e-01
 5.5824496900e-01	 1.8161412501e+00	-9.1490143434e-01
 5.1773944164e-01	 1.8281007158e+00	-8.4474562954e-01
 4.7721329356e-01	 1.8390958807e+00	-7.7486931626e-01
 4.3669839277e-01	 1.8491350670e+00	-7.0547012828e-01
 3.9622583492e-01	 1.8582278767e+00	-6.3669303752e-01
 8.0799088610e-01	 1.7432860069e+00	-1.3291030683e+00
 7.6786570281e-01	 1.7613284280e+00	-1.2672623680e+00
 7.2751372412e-01	 1.7783755203e+00	-1.2023890856e+00
 6.8697038812e-01	 1.7944267830e+00	-1.1353012570e+00
 6.4627079665e-01	 1.8094833178e+00	-1.0667133831e+00
 6.0544962999e-01	 1.8235477881e+00	-9.9724359141e-01
 5.6454106570e-01	 1.8366243741e+00	-9.2742128827e-01
 5.2357870177e-01	 1.8487187231e+00	-8.5769520994e-01
 4.8259548455e-01	 1.8598378957e+00	-7.8844178656e-01
 4.4162364147e-01	 1.8699903076e+00	-7.1997373478e-01
 4.0069461890e-01	 1.8791856695e+00	-6.5254879782e-01
 8.1700209425e-01	 1.7627281978e+00	-1.3374234103e+00
 7.7642941040e-01	 1.7809718391e+00	-1.2773538084e+00
 7.3562740179e-01	 1.7982090509e+00	-1.2137833819e+00
 6.9463190172e-01	 1.8144393272e+00	-1.1476382536e+00
 6.5347840353e-01	 1.8296637816e+00	-1.0797440844e+00
 6.1220197428e-01	 1.8438851075e+00	-1.0108323668e+00
 5.7083717267e-01	 1.8571075316e+00	-9.4154721193e-01
 5.2941797143e-01	 1.8693367642e+00	-8.7245255385e-01
 4.8797768433e-01	 1.8805799445e+00	-8.0403969152e-01
 4.4654889822e-01	 1.8908455824e+00	-7.3673509738e-01
 4.0516341017e-01	 1.9001434965e+00	-6.7090841897e-01
 8.2601331502e-01	 1.7821704160e+00	-1.3463443291e+00
 7.8499312998e-01	 1.8006152776e+00	-1.2880903681e+00
 7.4374109081e-01	 1.8180426093e+00	-1.2259048970e+00
 7.0229342605e-01	 1.8344518993e+00	-1.1608177511e+00
 6.6068602051e-01	 1.8498442737e+00	-1.0937619354e+00
 6.1895432802e-01	 1.8642224553e+00	-1.0255790405e+00
 5.7713328847e-01	 1.8775907177e+00	-9.5702515452e-01
 5.3525724927e-01	 1.8899548340e+00	-8.8877719991e-01
 4.9335989164e-01	 1.9013220224e+00	-8.2143963339e-01
 4.5147416186e-01	 1.9117008863e+00	-7.5555144444e-01
 4.0963220770e-01	 1.9211013528e+00	-6.9159339056e-01
 8.3502454630e-01	 1.8016126568e+00	-1.3556049569e+00
 7.9355685954e-01	 1.8202587391e+00	-1.2992066386e+00
 7.5185478929e-01	 1.8378761908e+00	-1.2384862294e+00
 7.0995495932e-01	 1.8544644948e+00	-1.1745730649e+00
 6.6789364589e-01	 1.8700247893e+00	-1.1085038291e+00
 6.2570668963e-01	 1.8845598269e+00	-1.0412270862e+00
 5.8342941160e-01	 1.8980739277e+00	-9.7360830098e-01
 5.4109653392e-01	 1.9105729280e+00	-9.0643529150e-01
 4.9874210523e-01	 1.9220641244e+00	-8.4042406318e-01
 4.5639943124e-01	 1.9325562145e+00	-7.7622497146e-01
 4.1410101044e-01	 1.9420592337e+00	-7.1442916207e-01
 8.4403578599e-01	 1.8210549158e+00	-1.3649526009e+00
 8.0212059710e-01	 1.8399022188e+00	-1.3104454483e+00
 7.5996849535e-01	 1.8577097909e+00	-1.2512681726e+00
 7.1761649973e-01	 1.8744771089e+00	-1.1886455556e+00
 6.7510127800e-01	 1.8902053237e+00	-1.1237144444e+00
 6.3245905755e-01	 1.9048972174e+00	-1.0575273894e+00
 5.8972554062e-01	 1.9185571568e+00	-9.9105675882e-01
 5.4693582402e-01	 1.9311910412e+00	-9.2519928796e-01
 5.0412432384e-01	 1.9428062458e+00	-8.6078102302e-01
 4.6132470522e-01	 1.9534115623e+00	-7.9856262162e-01
 4.1856981735e-01	 1.9630171340e+00	-7.3924496854e-01
 8.5304703199e-01	 1.8404971884e+00	-1.3741424347e+00
 8.1068434065e-01	 1.8595457124e+00	-1.3215575427e+00
 7.6808220709e-01	 1.8775434048e+00	-1.2639993902e+00
 7.2527804551e-01	 1.8944897371e+00	-1.2027843047e+00
 6.8230891515e-01	 1.9103858723e+00	-1.1391459256e+00
 6.3921143020e-01	 1.9252346222e+00	-1.0742379380e+00
 5.9602167404e-01	 1.9390404003e+00	-1.0091372655e+00
 5.5277511820e-01	 1.9518091688e+00	-9.4484769471e-01
 5.0950654623e-01	 1.9635483818e+00	-8.8230390546e-01
 4.6624998265e-01	 1.9742669246e+00	-8.2237588067e-01
 4.2303862739e-01	 1.9839750491e+00	-7.6587366785e-01
 8.6205828219e-01	 1.8599394700e+00	-1.3829372091e+00
 8.1924808820e-01	 1.8791892151e+00	-1.3323012866e+00
 7.7619592261e-01	 1.8973770280e+00	-1.2764361123e+00
 7.3293959486e-01	 1.9145023746e+00	-1.2167458101e+00
 6.8951655567e-01	 1.9305664302e+00	-1.1545575834e+00
 6.4596380599e-01	 1.9455720365e+00	-1.0911235337e+00
 6.0231781039e-01	 1.9595236533e+00	-1.0276229148e+00
 5.5861441511e-01	 1.9724273060e+00	-9.6516481117e-01
 5.1488877112e-01	 1.9842905274e+00	-9.0479122858e-01
 4.7117526238e-01	 1.9951222966e+00	-8.4748058542e-01
 4.2750743951e-01	 2.0049329739e+00	-7.9415158865e-01
 8.7106953450e-01	 1.8793817562e+00	-1.3911069823e+00
 8.2781183775e-01	 1.8988327224e+00	-1.3424423847e+00
 7.8430964002e-01	 1.9172106558e+00	-1.2883418520e+00
 7.4060114600e-01	 1.9345150168e+00	-1.2302937024e+00
 6.9672419787e-01	 1.9507469929e+00	-1.1697156154e+00
 6.5271618337e-01	 1.9659094555e+00	-1.1079555216e+00
 6.0861394822e-01	 1.9800069111e+00	-1.0462929015e+00
 5.6445371338e-01	 1.9930454480e+00	-9.8594049490e-01
 5.2027099727e-01	 2.0050326779e+00	-9.2804642569e-01
 4.7610054326e-01	 2.0159776735e+00	-8.7369674454e-01
 4.3197625268e-01	 2.0258909036e+00	-8.2391838825e-01
 3.8728829305e-01	 1.8163124134e+00	-6.1322807509e-01
 3.4779687967e-01	 1.8242861917e+00	-5.4704170224e-01
 3.0840521856e-01	 1.8313570917e+00	-4.8983391798e-01
 2.6914117269e-01	 1.8375378780e+00	-4.4060771488e-01
 2.3003165782e-01	 1.8428423082e+00	-3.9829008000e-01
 1.9110260795e-01	 1.8472850646e+00	-3.6175314719e-01
 1.5237894585e-01	 1.8508816859e+00	-3.2983452229e-01
 1.1388455855e-01	 1.8536484975e+00	-3.0135663663e-01
 7.5642277709e-02	 1.8556025430e+00	-2.7514500065e-01
 3.7673864662e-02	 1.8567615155e+00	-2.5004524606e-01
 0.0000000000e+00	 1.8571436905e+00	-2.2493886286e-01
 3.9175705929e-01	 1.8372701230e+00	-6.2352379522e-01
 3.5180997013e-01	 1.8453359076e+00	-5.5844917095e-01
 3.1196378424e-01	 1.8524883960e+00	-5.0219453748e-01
 2.7224668610e-01	 1.8587404999e+00	-4.5370922841e-01
 2.3268590203e-01	 1.8641061358e+00	-4.1185302793e-01
 1.9330766527e-01	 1.8686001554e+00	-3.7541878394e-01
 1.5413718616e-01	 1.8722382767e+00	-3.4315421866e-01
 1.1519862737e-01	 1.8750370134e+00	-3.1378277810e-01
 7.6515083997e-02	 1.8770136059e+00	-2.8602337852e-01
 3.8108568468e-02	 1.8781859514e+00	-2.5860892561e-01
 0.0000000000e+00	 1.8785725360e+00	-2.3030349979e-01
 3.9622583492e-01	 1.8582278767e+00	-6.3669303752e-01
 3.5582306903e-01	 1.8663856677e+00	-5.7288271263e-01
 3.1552235741e-01	 1.8736197446e+00	-5.1765319758e-01
 2.7535220603e-01	 1.8799431663e+00	-4.6991217993e-01
 2.3534015181e-01	 1.8853700080e+00	-4.2846279503e-01
 1.9551272721e-01	 1.8899152910e+00	-3.9202770236e-01
 1.5589543017e-01	 1.8935949123e+00	-3.5927239558e-01
 1.1651269895e-01	 1.8964255743e+00	-3.2882757337e-01
 7.7387892119e-02	 1.8984247137e+00	-2.9931041445e-01
 3.8543273187e-02	 1.8996104322e+00	-2.6934461868e-01
 0.0000000000e+00	 1.9000014266e+00	-2.3757909419e-01
 4.0069461890e-01	 1.8791856695e+00	-6.5254879782e-01
 3.5983617541e-01	 1.8874354671e+00	-5.9018173481e-01
 3.1908093721e-01	 1.8947511327e+00	-5.3607150497e-01
 2.7845773176e-01	 1.9011458723e+00	-4.8909582896e-01
 2.3799440654e-01	 1.9066339200e+00	-4.4801143518e-01
 1.9771779328e-01	 1.9112304664e+00	-4.1147960131e-01
 1.5765367746e-01	 1.9149515879e+00	-3.7809097798e-01
 1.1782677299e-01	 1.9178141751e+00	-3.4638950601e-01
 7.8260701870e-02	 1.9198358616e+00	-3.1489525551e-01
 3.8977978717e-02	 1.9210349530e+00	-2.8212603364e-01
 0.0000000000e+00	 1.9214303572e+00	-2.4661762674e-01
 4.0516341017e-01	 1.9001434965e+00	-6.7090841897e-01
 3.6384928835e-01	 1.9084853009e+00	-6.1018891890e-01
 3.2263952283e-01	 1.9158825552e+00	-5.5731348884e-01
 2.8156326257e-01	 1.9223486129e+00	-5.1114124473e-01
 2.4064866561e-01	 1.9278978667e+00	-4.7039245298e-01
 1.9992286294e-01	 1.9325456765e+00	-4.3367553929e-01
 1.5941192762e-01	 1.9363082983e+00	-3.9951343978e-01
 1.1914084917e-01	 1.9392028108e+00	-3.6636908959e-01
 7.9133513047e-02	 1.9412470444e+00	-3.3266986125e-01
 3.9412684958e-02	 1.9424595088e+00	-2.9683078366e-01
 0.0000000000e+00	 1.9428593228e+00	-2.5727639212e-01
 4.0963220770e-01	 1.9211013528e+00	-6.9159339056e-01
 3.6786240691e-01	 1.9295351642e+00	-6.3275007027e-01
 3.2619811343e-01	 1.9370140074e+00	-5.8124549007e-01
 2.8466879772e-01	 1.9435513833e+00	-5.3593122217e-01
 2.4330292840e-01	 1.9491618431e+00	-4.9550073371e-01
 2.0212793570e-01	 1.9538609166e+00	-4.5851786471e-01
 1.6117018024e-01	 1.9576650386e+00	-4.2344472033e-01
 1.2045492720e-01	 1.9605914765e+00	-3.8866875555e-01
 8.0006325446e-02	 1.9626582572e+00	-3.5252884780e-01
 3.9847391807e-02	 1.9638840946e+00	-3.1334017152e-01
 0.0000000000e+00	 1.9642883184e+00	-2.6941770865e-01
 4.1410101044e-01	 1.9420592337e+00	-7.1442916207e-01
 3.7187553015e-01	 1.9505850521e+00	-6.5771397863e-01
 3.2975670818e-01	 1.9581454842e+00	-6.0773605800e-01
 2.8777433649e-01	 1.9647541783e+00	-5.6335020369e-01
 2.4595719429e-01	 1.9704258444e+00	-5.2323247801e-01
 2.0433301102e-01	 1.9751761814e+00	-4.8591015081e-01
 1.6292843492e-01	 1.9790218038e+00	-4.4979114629e-01
 1.2176900675e-01	 1.9819801671e+00	-4.1319274835e-01
 8.0879138863e-02	 1.9840694949e+00	-3.7436934217e-01
 4.0282099163e-02	 1.9853087054e+00	-3.3153898840e-01
 0.0000000000e+00	 1.9857173390e+00	-2.8290864669e-01
 4.1856981735e-01	 1.9630171340e+00	-7.3924496854e-01
 3.7588865714e-01	 1.9716349595e+00	-6.8493228768e-01
 3.3331530625e-01	 1.9792769807e+00	-6.3665585413e-01
 2.9087987816e-01	 1.9859569931e+00	-5.9328420628e-01
 2.4861146265e-01	 1.9916898655e+00	-5.5348514104e-01
 2.0653808841e-01	 1.9964914662e+00	-5.1575713497e-01
 1.6468669123e-01	 2.0003785889e+00	-4.7846035875e-01
 1.2308308753e-01	 2.0033688777e+00	-4.3984702748e-01
 8.1751953095e-02	 2.0054807527e+00	-3.9809084582e-01
 4.0716806925e-02	 2.0067333362e+00	-3.5131532557e-01
 0.0000000000e+00	 2.0071463796e+00	-2.9762077449e-01
 4.2303862739e-01	 1.9839750491e+00	-7.6587366785e-01
 3.7990178693e-01	 1.9926848817e+00	-7.1425937357e-01
 3.3687390681e-01	 2.0004084921e+00	-6.6787756240e-01
 2.9398542201e-01	 2.0071598228e+00	-6.2562075349e-01
 2.5126573287e-01	 2.0129539015e+00	-5.8615737567e-01
 2.0874316733e-01	 2.0178067659e+00	-5.4796466199e-01
 1.6644494878e-01	 2.0217353890e+00	-5.0936124493e-01
 1.2439716924e-01	 2.0247576032e+00	-4.6853917568e-01
 8.2624767938e-02	 2.0268920254e+00	-4.2359510700e-01
 4.1151514991e-02	 2.0281579820e+00	-3.7256039798e-01
 0.0000000000e+00	 2.0285754352e+00	-3.1342992012e-01
 4.2750743951e-01	 2.0049329739e+00	-7.9415158865e-01
 3.8391491860e-01	 2.0137348138e+00	-7.4555223136e-01
 3.4043250903e-01	 2.0215400133e+00	-7.0127580533e-01
 2.9709096731e-01	 2.0283626624e+00	-6.6024881205e-01
 2.5392000433e-01	 2.0342179474e+00	-6.2114897950e-01
 2.1094824729e-01	 2.0391220756e+00	-5.8243963112e-01
 1.6820320715e-01	 2.0430921991e+00	-5.4240387444e-01
 1.2571125155e-01	 2.0461463388e+00	-4.9917831301e-01
 8.3497583187e-02	 2.0483033081e+00	-4.5078600109e-01
 4.1586223260e-02	 2.0495826378e+00	-3.9516837902e-01
 0.0000000000e+00	 2.0500045008e+00	-3.3021594833e-01
 4.3197625268e-01	 2.0258909036e+00	-8.2391838825e-01
 3.8792805120e-01	 2.0347847507e+00	-7.7867036898e-01
 3.4399111208e-01	 2.0426715394e+00	-7.3672706588e-01
 3.0019651332e-01	 2.0495655069e+00	-6.9705873263e-01
 2.5657427640e-01	 2.0554819983e+00	-6.5836084536e-01
 2.1315332776e-01	 2.0604373902e+00	-6.1908994656e-01
 1.6996146592e-01	 2.0644490141e+00	-5.7749943950e-01
 1.2702533417e-01	 2.0675350793e+00	-5.3167501634e-01
 8.4370398640e-02	 2.0697145959e+00	-4.7956941841e-01
 4.2020931630e-02	 2.0710072986e+00	-4.1903624539e-01
 0.0000000000e+00	 2.0714335714e+00	-3.4786255126e-01
 2.0714335714e+00	 0.0000000000e+00	 2.7080289128e+00
 2.0710072986e+00	 4.2020931630e-02	 2.7105834358e+00
 2.0697145959e+00	 8.4370398640e-02	 2.6853129849e+00
 2.0675350793e+00	 1.2702533417e-01	 2.6347677870e+00
 2.0644490141e+00	 1.6996146592e-01	 2.5616900448e+00
 2.0604373902e+00	 2.1315332776e-01	 2.4689805518e+00
 2.0554819983e+00	 2.5657427640e-01	 2.3596635676e+00
 2.0495655069e+00	 3.0019651332e-01	 2.2368501471e+00
 2.0426715394e+00	 3.4399111208e-01	 2.1037001153e+00
 2.0347847507e+00	 3.8792805120e-01	 1.9633828709e+00
 2.0258909036e+00	 4.3197625268e-01	 1.8190372020e+00
 2.0928611433e+00	 0.0000000000e+00	 2.7007318893e+00
 2.0924304609e+00	 4.2455609596e-02	 2.7000685497e+00
 2.0911243861e+00	 8.5243153047e-02	 2.6716598748e+00
 2.0889223239e+00	 1.2833932488e-01	 2.6181273120e+00
 2.0858043355e+00	 1.7171960172e-01	 2.5422669284e+00
 2.0817512140e+00	 2.1535825400e-01	 2.4470146310e+00
 2.0767445619e+00	 2.5922836284e-01	 2.3354098104e+00
 2.0707668685e+00	 3.0330184214e-01	 2.2105576153e+00
 2.0638015876e+00	 3.4754946625e-01	 2.0755900566e+00
 2.0558332154e+00	 3.9194090312e-01	 1.9336261333e+00
 2.0468473675e+00	 4.3644475330e-01	 1.7877311618e+00
 2.1142887176e+00	 0.0000000000e+00	 2.7019622321e+00
 2.1138536257e+00	 4.2890287613e-02	 2.6948202622e+00
 2.1125341788e+00	 8.6115907556e-02	 2.6608066781e+00
 2.1103095710e+00	 1.2965331575e-01	 2.6025317422e+00
 2.1071596593e+00	 1.7347773773e-01	 2.5227560046e+00
 2.1030650403e+00	 2.1756318051e-01	 2.4243544952e+00
 2.0980071281e+00	 2.6188244958e-01	 2.3102795799e+00
 2.0919682325e+00	 3.0640717132e-01	 2.1835227017e+00
 2.0849316382e+00	 3.5110782082e-01	 2.0470752133e+00
 2.0768816826e+00	 3.9595375551e-01	 1.9038884974e+00
 2.0678038339e+00	 4.4091325443e-01	 1.7568335576e+00
 2.1357162969e+00	 0.0000000000e+00	 2.7116251811e+00
 2.1352767956e+00	 4.3324965731e-02	 2.6947804557e+00
 2.1339439765e+00	 8.6988662268e-02	 2.6527131781e+00
 2.1316968231e+00	 1.3096730692e-01	 2.5879428105e+00
 2.1285149881e+00	 1.7523587415e-01	 2.5031079014e+00
 2.1243788716e+00	 2.1976810752e-01	 2.4009296136e+00
 2.1192696992e+00	 2.6453653694e-01	 2.2841742317e+00
 2.1131696015e+00	 3.0951250122e-01	 2.1556148851e+00
 2.1060616938e+00	 3.5466617623e-01	 2.0179927008e+00
 2.0979301547e+00	 3.9996660884e-01	 1.8739775850e+00
 2.0887603051e+00	 4.4538175661e-01	 1.7261288130e+00
 2.1571438838e+00	 0.0000000000e+00	 2.7296292731e+00
 2.1566999729e+00	 4.3759644001e-02	 2.6998926287e+00
 2.1553537817e+00	 8.7861417286e-02	 2.6473399513e+00
 2.1530840826e+00	 1.3228129855e-01	 2.5743229585e+00
 2.1498703244e+00	 1.7699401118e-01	 2.4832744870e+00
 2.1456927104e+00	 2.2197303531e-01	 2.3766717140e+00
 2.1405322777e+00	 2.6719062523e-01	 2.2569987517e+00
 2.1343709780e+00	 3.1261783220e-01	 2.1267088624e+00
 2.1271917567e+00	 3.5822453288e-01	 1.9881865166e+00
 2.1189786341e+00	 4.0397946357e-01	 1.8437094954e+00
 2.1097167837e+00	 4.4985026035e-01	 1.6954112096e+00
 2.1785714806e+00	 0.0000000000e+00	 2.7558861805e+00
 2.1781231603e+00	 4.4194322473e-02	 2.7101018257e+00
 2.1767635969e+00	 8.8734172710e-02	 2.6446483475e+00
 2.1744713522e+00	 1.3359529080e-01	 2.5616353322e+00
 2.1712256707e+00	 1.7875214903e-01	 2.4632088496e+00
 2.1670065591e+00	 2.2417796412e-01	 2.3515147228e+00
 2.1617948662e+00	 2.6984471476e-01	 2.2286616393e+00
 2.1555723643e+00	 3.1572316464e-01	 2.0966843635e+00
 2.1483218296e+00	 3.6178289119e-01	 1.9575072808e+00
 2.1400271234e+00	 4.0799232017e-01	 1.8129084733e+00
 2.1306732721e+00	 4.5431876618e-01	 1.6644844907e+00
 2.1999990900e+00	 0.0000000000e+00	 2.7903105576e+00
 2.1995463601e+00	 4.4629001200e-02	 2.7253545713e+00
 2.1981734245e+00	 8.9606928644e-02	 2.6446004712e+00
 2.1958586342e+00	 1.3490928381e-01	 2.5498437769e+00
 2.1925810294e+00	 1.8051028790e-01	 2.4428652789e+00
 2.1883204202e+00	 2.2638289422e-01	 2.3253947094e+00
 2.1830574671e+00	 2.7249880584e-01	 2.1990747966e+00
 2.1767737630e+00	 3.1882849889e-01	 2.0654259748e+00
 2.1694519147e+00	 3.6534125157e-01	 1.9258119897e+00
 2.1610756249e+00	 4.1200517911e-01	 1.7814065936e+00
 2.1516297726e+00	 4.5878727461e-01	 1.6331614859e+00
 2.2214267143e+00	 0.0000000000e+00	 2.8328198976e+00
 2.2209695749e+00	 4.5063680230e-02	 2.7455988076e+00
 2.2195832672e+00	 9.0479685189e-02	 2.6471591648e+00
 2.2172459312e+00	 1.3622327774e-01	 2.5389128332e+00
 2.2139364031e+00	 1.8226842801e-01	 2.4221992472e+00
 2.2096342962e+00	 2.2858782587e-01	 2.2982498322e+00
 2.2043200828e+00	 2.7515289877e-01	 2.1681534235e+00
 2.1979751765e+00	 3.2193383531e-01	 2.0328229725e+00
 2.1905820147e+00	 3.6889961445e-01	 1.8929637821e+00
 2.1821241412e+00	 4.1601804086e-01	 1.7490434633e+00
 2.1725862879e+00	 4.6325578618e-01	 1.6012637553e+00
 2.2428543562e+00	 0.0000000000e+00	 2.8833343965e+00
 2.2423928072e+00	 4.5498359616e-02	 2.7707838353e+00
 2.2409931273e+00	 9.1352442446e-02	 2.6522879911e+00
 2.2386332456e+00	 1.3753727274e-01	 2.5288077322e+00
 2.2352917942e+00	 1.8402656956e-01	 2.4011673924e+00
 2.2309481897e+00	 2.3079275931e-01	 2.2700202874e+00
 2.2255827160e+00	 2.7780699388e-01	 2.1358159178e+00
 2.2191766073e+00	 3.2503917426e-01	 1.9987691643e+00
 2.2117121319e+00	 3.7245798023e-01	 1.8588317184e+00
 2.2031726747e+00	 4.2003090589e-01	 1.7156659382e+00
 2.1935428203e+00	 4.6772430139e-01	 1.5686212511e+00
 2.2642820180e+00	 0.0000000000e+00	 2.9417768251e+00
 2.2638160596e+00	 4.5933039408e-02	 2.8008602588e+00
 2.2624030075e+00	 9.2225200519e-02	 2.6599512186e+00
 2.2600205801e+00	 1.3885126897e-01	 2.5194943917e+00
 2.2566472052e+00	 1.8578471274e-01	 2.3797275011e+00
 2.2522621030e+00	 2.3299769482e-01	 2.2406482609e+00
 2.2468453689e+00	 2.8046109146e-01	 2.1019837809e+00
 2.2403780580e+00	 3.2814451612e-01	 1.9631627388e+00
 2.2328422688e+00	 3.7601634934e-01	 1.8232905704e+00
 2.2242212278e+00	 4.2404377466e-01	 1.6811278542e+00
 2.2144993722e+00	 4.7219282077e-01	 1.5350719972e+00
 2.2857097023e+00	 0.0000000000e+00	 3.0080724084e+00
 2.2852393344e+00	 4.6367719656e-02	 2.8357799332e+00
 2.2838129101e+00	 9.3097959508e-02	 2.6701138059e+00
 2.2814079369e+00	 1.4016526658e-01	 2.5109394117e+00
 2.2780026387e+00	 1.8754285777e-01	 2.3578384924e+00
 2.2735760387e+00	 2.3520263264e-01	 2.2100778820e+00
 2.2681080442e+00	 2.8311519182e-01	 2.0665815270e+00
 2.2615795308e+00	 3.3124986124e-01	 1.9259061232e+00
 2.2539724279e+00	 3.7957472218e-01	 1.7862206216e+00
 2.2452698030e+00	 4.2805664765e-01	 1.6452897715e+00
 2.2354559461e+00	 4.7666134484e-01	 1.5004617837e+00
 2.0258909036e+00	 4.3197625268e-01	 1.8190372020e+00
 2.0159776735e+00	 4.7610054326e-01	 1.6722962613e+00
 2.0050326779e+00	 5.2027099727e-01	 1.5231204015e+00
 1.9930454480e+00	 5.6445371338e-01	 1.3720481832e+00
 1.9800069111e+00	 6.0861394822e-01	 1.2195103909e+00
 1.9659094555e+00	 6.5271618337e-01	 1.0658195679e+00
 1.9507469929e+00	 6.9672419787e-01	 9.1116051938e-01
 1.9345150168e+00	 7.4060114600e-01	 7.5558176192e-01
 1.9172106558e+00	 7.8430964002e-01	 5.9898791411e-01
 1.8988327224e+00	 8.2781183775e-01	 4.4113304349e-01
 1.8793817562e+00	 8.7106953450e-01	 2.8161501513e-01
 2.0468473675e+00	 4.3644475330e-01	 1.7877311618e+00
 2.0368315918e+00	 4.8102547966e-01	 1.6397478335e+00
 2.0257733776e+00	 5.2565284698e-01	 1.4898905661e+00
 2.0136621480e+00	 5.7029260325e-01	 1.3386710400e+00
 2.0004887363e+00	 6.1490964569e-01	 1.1864897443e+00
 1.9862454521e+00	 6.5946808847e-01	 1.0336263032e+00
 1.9709261442e+00	 7.0393133597e-01	 8.8023077717e-01
 1.9545262593e+00	 7.4826216129e-01	 7.2631589729e-01
 1.9370428964e+00	 7.9242278996e-01	 5.7175020487e-01
 1.9184748558e+00	 8.3637498835e-01	 4.1625209351e-01
 1.8988226826e+00	 8.8008015656e-01	 2.5938478371e-01
 2.0678038339e+00	 4.4091325443e-01	 1.7568335576e+00
 2.0576855125e+00	 4.8595041663e-01	 1.6079056365e+00
 2.0465140798e+00	 5.3103469732e-01	 1.4575997673e+00
 2.0342788504e+00	 5.7613149380e-01	 1.3064038135e+00
 2.0209705639e+00	 6.2120534390e-01	 1.1546922900e+00
 2.0065814511e+00	 6.6621999437e-01	 1.0027175317e+00
 1.9911052978e+00	 7.1113847490e-01	 8.5060183178e-01
 1.9745375041e+00	 7.5592317747e-01	 6.9833048224e-01
 1.9568751394e+00	 8.0053594085e-01	 5.4574566520e-01
 1.9381169915e+00	 8.4493813994e-01	 3.9254117314e-01
 1.9182636113e+00	 8.8909077966e-01	 2.3825797191e-01
 2.0887603051e+00	 4.4538175661e-01	 1.7261288130e+00
 2.0785394381e+00	 4.9087535475e-01	 1.5765390588e+00
 2.0672547868e+00	 5.3641654892e-01	 1.4260098746e+00
 2.0548955577e+00	 5.8197038571e-01	 1.2750080632e+00
 2.0414523963e+00	 6.2750104357e-01	 1.1238861591e+00
 2.0269174548e+00	 6.7297190184e-01	 9.7287449538e-01
 2.0112844561e+00	 7.1834561552e-01	 8.2207421999e-01
 1.9945487536e+00	 7.6358419544e-01	 6.7145116441e-01
 1.9767073869e+00	 8.0864909363e-01	 5.2083049169e-01
 1.9577591318e+00	 8.5350129354e-01	 3.6989207881e-01
 1.9377045445e+00	 8.9810140487e-01	 2.1816663097e-01
 2.1097167837e+00	 4.4985026035e-01	 1.6954112096e+00
 2.0993933710e+00	 4.9580029460e-01	 1.5454284277e+00
 2.0879955010e+00	 5.4179840239e-01	 1.3948944956e+00
 2.0755122721e+00	 5.8780927967e-01	 1.2442576061e+00
 2.0619342358e+00	 6.3379674545e-01	 1.0938519865e+00
 2.0472534657e+00	 6.7972381167e-01	 9.4389092173e-01
 2.0314636214e+00	 7.2555275866e-01	 7.9446068953e-01
 2.0145600101e+00	 7.7124521609e-01	 6.4551528365e-01
 1.9965396415e+00	 8.1676224925e-01	 4.9687182372e-01
 1.9774012790e+00	 8.6206445013e-01	 3.4820658502e-01
 1.9571454845e+00	 9.0711203324e-01	 1.9905162755e-01
 2.1306732721e+00	 4.5431876618e-01	 1.6644844907e+00
 2.1202473136e+00	 5.0072523674e-01	 1.5143645624e+00
 2.1087362250e+00	 5.4718025838e-01	 1.3640384880e+00
 2.0961289962e+00	 5.9364817635e-01	 1.2139380005e+00
 2.0824160849e+00	 6.4009245027e-01	 1.0643823777e+00
 2.0675894860e+00	 6.8647572465e-01	 9.1557248234e-01
 2.0516427962e+00	 7.3275990516e-01	 7.6758566031e-01
 2.0345712759e+00	 7.7890624032e-01	 6.2037134526e-01
 2.0163719052e+00	 8.2487540865e-01	 4.7374723763e-01
 1.9970434353e+00	 8.7062761071e-01	 3.2739596794e-01
 1.9765864336e+00	 9.1612266581e-01	 1.8086220460e-01
 2.1516297726e+00	 4.5878727461e-01	 1.6331614859e+00
 2.1411012684e+00	 5.0565018176e-01	 1.4831483493e+00
 2.1294769610e+00	 5.5256211751e-01	 1.3332374976e+00
 2.1167457322e+00	 5.9948707643e-01	 1.1838460560e+00
 2.1028979460e+00	 6.4638815875e-01	 1.0352814007e+00
 2.0879255182e+00	 6.9322764158e-01	 8.8773627738e-01
 2.0718219828e+00	 7.3996705586e-01	 7.4128471020e-01
 2.0545825534e+00	 7.8656726901e-01	 5.9587851601e-01
 2.0362041806e+00	 8.3298857279e-01	 4.5134426142e-01
 2.0166856031e+00	 8.7919077630e-01	 3.0738054669e-01
 1.9960273940e+00	 9.2513330363e-01	 1.6355555662e-01
 2.1725862879e+00	 4.6325578618e-01	 1.6012637553e+00
 2.1619552378e+00	 5.1057513022e-01	 1.4515903398e+00
 2.1502177116e+00	 5.5794398041e-01	 1.3022975189e+00
 2.1373624828e+00	 6.0532598061e-01	 1.1537893677e+00
 2.1233798214e+00	 6.5268387165e-01	 1.0063641028e+00
 2.1082615646e+00	 6.9997956322e-01	 8.6021034392e-01
 2.0920011835e+00	 7.4717421161e-01	 7.1540408371e-01
 2.0745938450e+00	 7.9422830307e-01	 5.7190614147e-01
 2.0560364698e+00	 8.4110174261e-01	 4.2955990858e-01
 2.0363277846e+00	 8.8775394787e-01	 2.8808924108e-01
 2.0154683680e+00	 9.3414394776e-01	 1.4709641835e-01
 2.1935428203e+00	 4.6772430139e-01	 1.5686212511e+00
 2.1828092242e+00	 5.1550008271e-01	 1.4195103673e+00
 2.1709584791e+00	 5.6332584770e-01	 1.2710344776e+00
 2.1579792501e+00	 6.1116488955e-01	 1.1235858725e+00
 2.1438617135e+00	 6.5897958968e-01	 9.7745604961e-01
 2.1285976277e+00	 7.0673149039e-01	 8.3283318644e-01
 2.1121804006e+00	 7.5438137325e-01	 6.8980022201e-01
 2.0946051528e+00	 8.0188934338e-01	 5.4833328317e-01
 2.0758687752e+00	 8.4921491905e-01	 4.0830022980e-01
 2.0559699822e+00	 8.9631712644e-01	 2.6945914481e-01
 2.0349093579e+00	 9.4315459925e-01	 1.3145666588e-01
 2.2144993722e+00	 4.7219282077e-01	 1.5350719972e+00
 2.2036632300e+00	 5.2042503979e-01	 1.3867371840e+00
 2.1916992659e+00	 5.6870772002e-01	 1.2392738333e+00
 2.1785960367e+00	 6.1700380394e-01	 1.0930634267e+00
 2.1643436247e+00	 6.6527531360e-01	 9.4839288598e-01
 2.1489337097e+00	 7.1348342385e-01	 8.0545332832e-01
 2.1323596366e+00	 7.6158854161e-01	 6.6433931284e-01
 2.1146164793e+00	 8.0955039085e-01	 5.2504827440e-01
 2.0957010992e+00	 8.5732810306e-01	 3.8747988138e-01
 2.0756121981e+00	 9.0488031300e-01	 2.5143511309e-01
 2.0543503660e+00	 9.5216525916e-01	 1.1661492959e-01
 2.2354559461e+00	 4.7666134484e-01	 1.5004617837e+00
 2.2245172578e+00	 5.2535000204e-01	 1.3531081152e+00
 2.2124400746e+00	 5.7408959798e-01	 1.2068502011e+00
 2.1992128449e+00	 6.2284272446e-01	 1.0620594028e+00
 2.1848255574e+00	 6.7157104412e-01	 9.1901991592e-01
 2.1692698131e+00	 7.2023536440e-01	 7.7792888264e-01
 2.1525388938e+00	 7.6879571754e-01	 6.3889685912e-01
 2.1346278269e+00	 8.1721144636e-01	 5.0194829319e-01
 2.1155334439e+00	 8.6544129560e-01	 3.6702170926e-01
 2.0952544346e+00	 9.1344350855e-01	 2.3396936357e-01
 2.0737913944e+00	 9.6117592852e-01	 1.0255621780e-01
 1.8793817562e+00	 8.7106953450e-01	 2.8161501513e-01
 1.8588585895e+00	 9.1404725469e-01	 1.2301706728e-01
 1.8372686567e+00	 9.5670330502e-01	-3.1059860493e-02
 1.8146178912e+00	 9.9899896314e-01	-1.7973626913e-01
 1.7909140643e+00	 1.0408955478e+00	-3.2226455162e-01
 1.7661667960e+00	 1.0823545267e+00	-4.5804091165e-01
 1.7403875576e+00	 1.1233376250e+00	-5.8661581716e-01
 1.7135896666e+00	 1.1638069360e+00	-7.0770258763e-01
 1.6857882745e+00	 1.2037250311e+00	-8.2118369950e-01
 1.6570003458e+00	 1.2430550697e+00	-9.2711439721e-01
 1.6272446300e+00	 1.2817609086e+00	-1.0257232194e+00
 1.8988226826e+00	 8.8008015656e-01	 2.5938478371e-01
 1.8780872177e+00	 9.2350245204e-01	 1.0378052692e-01
 1.8562739517e+00	 9.6659975020e-01	-4.6959329309e-02
 1.8333888794e+00	 1.0093329281e+00	-1.9206938503e-01
 1.8094398526e+00	 1.0516629045e+00	-3.3092678584e-01
 1.7844365906e+00	 1.0935507483e+00	-4.6306268836e-01
 1.7583906835e+00	 1.1349577889e+00	-5.8817220209e-01
 1.7313155866e+00	 1.1758457274e+00	-7.0612238558e-01
 1.7032266080e+00	 1.2161767481e+00	-8.1695785833e-01
 1.6741408877e+00	 1.2559136292e+00	-9.2090359155e-01
 1.6440773692e+00	 1.2950198537e+00	-1.0183644627e+00
 1.9182636113e+00	 8.8909077966e-01	 2.3825797191e-01
 1.8973158481e+00	 9.3295765049e-01	 8.5557520169e-02
 1.8752792490e+00	 9.7649619655e-01	-6.1982264527e-02
 1.8521598699e+00	 1.0196668944e+00	-2.0370313798e-01
 1.8279656430e+00	 1.0624302625e+00	-3.3910058006e-01
 1.8027063874e+00	 1.1047469713e+00	-4.6783490066e-01
 1.7763938115e+00	 1.1465779542e+00	-5.8974076522e-01
 1.7490415086e+00	 1.1878845203e+00	-7.0483469477e-01
 1.7206649435e+00	 1.2286284665e+00	-8.1332007597e-01
 1.6912814316e+00	 1.2687721902e+00	-9.1558921694e-01
 1.6609101105e+00	 1.3082788003e+00	-1.0122220066e+00
 1.9377045445e+00	 8.9810140487e-01	 2.1816663097e-01
 1.9165444830e+00	 9.4241285115e-01	 6.8321575335e-02
 1.8942845506e+00	 9.8639264520e-01	-7.6115759684e-02
 1.8709308647e+00	 1.0300008630e+00	-2.1458755430e-01
 1.8464914378e+00	 1.0731976229e+00	-3.4670139933e-01
 1.8209761884e+00	 1.1159431968e+00	-4.7224113802e-01
 1.7943969437e+00	 1.1581981222e+00	-5.9117607320e-01
 1.7667674348e+00	 1.1999233159e+00	-7.0366806893e-01
 1.7381032830e+00	 1.2410801878e+00	-8.1007605326e-01
 1.7084219795e+00	 1.2816307542e+00	-9.1095742783e-01
 1.6777428556e+00	 1.3215377501e+00	-1.0070659114e+00
 1.9571454845e+00	 9.0711203324e-01	 1.9905162755e-01
 1.9357731247e+00	 9.5186805512e-01	 5.2053814863e-02
 1.9132898590e+00	 9.9628909731e-01	-8.9340457791e-02
 1.8897018661e+00	 1.0403348352e+00	-2.2466726197e-01
 1.8650172390e+00	 1.0839649872e+00	-3.5364025696e-01
 1.8392459958e+00	 1.1271394263e+00	-4.7616136523e-01
 1.8124000823e+00	 1.1698182943e+00	-5.9232976170e-01
 1.7844933671e+00	 1.2119621158e+00	-7.0244867757e-01
 1.7555416287e+00	 1.2535319135e+00	-8.0702949388e-01
 1.7255625334e+00	 1.2944893227e+00	-9.0679259672e-01
 1.6945756067e+00	 1.3347967044e+00	-1.0026644879e+00
 1.9765864336e+00	 9.1612266581e-01	 1.8086220460e-01
 1.9550017753e+00	 9.6132326350e-01	 3.6742554987e-02
 1.9322951761e+00	 1.0061855540e+00	-1.0163091779e-01
 1.9084728762e+00	 1.0506688123e+00	-2.3388182818e-01
 1.8835430489e+00	 1.0947323564e+00	-3.5982402857e-01
 1.8575158117e+00	 1.1383356610e+00	-4.7947221837e-01
 1.8304032292e+00	 1.1814384717e+00	-5.9305081870e-01
 1.8022193078e+00	 1.2240009213e+00	-7.0100058236e-01
 1.7729799825e+00	 1.2659836451e+00	-8.0398237942e-01
 1.7427030954e+00	 1.3073478972e+00	-9.0287759377e-01
 1.7114083656e+00	 1.3480556650e+00	-9.9878458729e-01
 1.9960273940e+00	 9.2513330363e-01	 1.6355555662e-01
 1.9742304371e+00	 9.7077847739e-01	 2.2382916292e-02
 1.9513005044e+00	 1.0160820165e+00	-1.1295597327e-01
 1.9272438973e+00	 1.0610027954e+00	-2.4216609216e-01
 1.9020688696e+00	 1.1054997320e+00	-3.6515576390e-01
 1.8757856383e+00	 1.1495319022e+00	-4.8204730065e-01
 1.8484063866e+00	 1.1930586560e+00	-5.9318586970e-01
 1.8199452588e+00	 1.2360397338e+00	-6.9914601684e-01
 1.7904183465e+00	 1.2784353838e+00	-8.0073524902e-01
 1.7598436673e+00	 1.3202064792e+00	-8.9899407169e-01
 1.7282411343e+00	 1.3613146332e+00	-9.9519189663e-01
 2.0154683680e+00	 9.3414394776e-01	 1.4709641835e-01
 1.9934591124e+00	 9.8023369791e-01	 8.9764444669e-03
 1.9703058460e+00	 1.0259784860e+00	-1.2327908399e-01
 1.9460149315e+00	 1.0713367857e+00	-2.4945049347e-01
 1.9205947032e+00	 1.1162671150e+00	-3.6953499652e-01
 1.8940554777e+00	 1.1607281513e+00	-4.8375747834e-01
 1.8664095566e+00	 1.2046788484e+00	-5.9257946467e-01
 1.8376712221e+00	 1.2480785547e+00	-6.9670566940e-01
 1.8078567227e+00	 1.2908871313e+00	-7.9708748335e-01
 1.7769842512e+00	 1.3330650702e+00	-8.9492275568e-01
 1.7450739148e+00	 1.3745736108e+00	-9.9165123992e-01
 2.0349093579e+00	 9.4315459925e-01	 1.3145666588e-01
 2.0126878034e+00	 9.8968892614e-01	-3.4692594455e-03
 1.9893112031e+00	 1.0358749635e+00	-1.3255868064e-01
 1.9647859811e+00	 1.0816707845e+00	-2.5566139607e-01
 1.9391205520e+00	 1.1270345069e+00	-3.7285805162e-01
 1.9123253320e+00	 1.1719244095e+00	-4.8447117675e-01
 1.8844127414e+00	 1.2162990503e+00	-5.9107436675e-01
 1.8553972000e+00	 1.2601173854e+00	-6.9349896933e-01
 1.8252951131e+00	 1.3033388890e+00	-7.9283759254e-01
 1.7941248491e+00	 1.3459236717e+00	-8.9044373807e-01
 1.7619067090e+00	 1.3878325992e+00	-9.8792688387e-01
 2.0543503660e+00	 9.5216525916e-01	 1.1661492959e-01
 2.0319165124e+00	 9.9914416320e-01	-1.4940899928e-02
 2.0083165779e+00	 1.0457714502e+00	-1.4074850338e-01
 1.9835570482e+00	 1.0920047929e+00	-2.6072140849e-01
 1.9576464181e+00	 1.1378019088e+00	-3.7501835194e-01
 1.9305952033e+00	 1.1831206782e+00	-4.8405467615e-01
 1.9024159429e+00	 1.2279192630e+00	-5.8851184246e-01
 1.8731231944e+00	 1.2721562274e+00	-6.8934437559e-01
 1.8427335198e+00	 1.3157906583e+00	-7.8778350796e-01
 1.8112654630e+00	 1.3587822852e+00	-8.8533677718e-01
 1.7787395190e+00	 1.4010916000e+00	-9.8378284840e-01
 2.0737913944e+00	 9.6117592852e-01	 1.0255621780e-01
 2.0511452415e+00	 1.0085994102e+00	-2.5419839583e-02
 2.0273219727e+00	 1.0556679474e+00	-1.4779793442e-01
 2.0023281350e+00	 1.1023388122e+00	-2.6454970030e-01
 1.9761723037e+00	 1.1485693220e+00	-3.7590672204e-01
 1.9488650938e+00	 1.1943169586e+00	-4.8237240774e-01
 1.9204191633e+00	 1.2395394879e+00	-5.8473195344e-01
 1.8908492074e+00	 1.2841950821e+00	-6.8405966826e-01
 1.8601719448e+00	 1.3282424406e+00	-7.8172287737e-01
 1.8284060949e+00	 1.3716409122e+00	-8.7938160043e-01
 1.7955723466e+00	 1.4143506146e+00	-9.7898322144e-01
 1.6272446300e+00	 1.2817609086e+00	-1.0257232194e+00
 1.5965416205e+00	 1.3198072125e+00	-1.1176229409e+00
 1.5649134976e+00	 1.3571595699e+00	-1.2038333250e+00
 1.5323840901e+00	 1.3937845846e+00	-1.2854448918e+00
 1.4989788218e+00	 1.4296499704e+00	-1.3636886869e+00
 1.4647246454e+00	 1.4647246454e+00	-1.4319740345e+00
 1.4296499704e+00	 1.4989788218e+00	-1.4846151310e+00
 1.3937845846e+00	 1.5323840901e+00	-1.5229592250e+00
 1.3571595699e+00	 1.5649134976e+00	-1.5492113405e+00
 1.3198072125e+00	 1.5965416205e+00	-1.5660138510e+00
 1.2817609086e+00	 1.6272446300e+00	-1.5758795956e+00
 1.6440773692e+00	 1.2950198537e+00	-1.0183644627e+00
 1.6130567580e+00	 1.3334597207e+00	-1.1101448761e+00
 1.5811014637e+00	 1.3711984629e+00	-1.1973340001e+00
 1.5482355616e+00	 1.4082023384e+00	-1.2810219155e+00
 1.5144847385e+00	 1.4444387272e+00	-1.3609657723e+00
 1.4798762259e+00	 1.4798762259e+00	-1.4270438856e+00
 1.4444387272e+00	 1.5144847385e+00	-1.4781700578e+00
 1.4082023384e+00	 1.5482355616e+00	-1.5156762273e+00
 1.3711984629e+00	 1.5811014637e+00	-1.5414670503e+00
 1.3334597207e+00	 1.6130567580e+00	-1.5581132871e+00
 1.2950198537e+00	 1.6440773692e+00	-1.5680905848e+00
 1.6609101105e+00	 1.3082788003e+00	-1.0122220066e+00
 1.6295718975e+00	 1.3471122305e+00	-1.1042127604e+00
 1.5972894316e+00	 1.3852373575e+00	-1.1927156109e+00
 1.5640870349e+00	 1.4226200940e+00	-1.2788161763e+00
 1.5299906570e+00	 1.4592274858e+00	-1.3582617178e+00
 1.4950278082e+00	 1.4950278082e+00	-1.4223813847e+00
 1.4592274858e+00	 1.5299906570e+00	-1.4722138150e+00
 1.4226200940e+00	 1.5640870349e+00	-1.5090106527e+00
 1.3852373575e+00	 1.5972894316e+00	-1.5344464964e+00
 1.3471122305e+00	 1.6295718975e+00	-1.5509954678e+00
 1.3082788003e+00	 1.6609101105e+00	-1.5610924011e+00
 1.6777428556e+00	 1.3215377501e+00	-1.0070659114e+00
 1.6460870408e+00	 1.3607647435e+00	-1.0995830222e+00
 1.6134774034e+00	 1.3992762554e+00	-1.1897225443e+00
 1.5799385120e+00	 1.4370378528e+00	-1.2781598642e+00
 1.5454965791e+00	 1.4740162479e+00	-1.3553873544e+00
 1.5101793940e+00	 1.5101793940e+00	-1.4178053280e+00
 1.4740162479e+00	 1.5454965791e+00	-1.4665754614e+00
 1.4370378528e+00	 1.5799385120e+00	-1.5028640442e+00
 1.3992762554e+00	 1.6134774034e+00	-1.5280741408e+00
 1.3607647435e+00	 1.6460870408e+00	-1.5446026866e+00
 1.3215377501e+00	 1.6777428556e+00	-1.5548486977e+00
 1.6945756067e+00	 1.3347967044e+00	-1.0026644879e+00
 1.6626021898e+00	 1.3744172613e+00	-1.0960102258e+00
 1.6296653808e+00	 1.4133151581e+00	-1.1880970932e+00
 1.5957899946e+00	 1.4514556168e+00	-1.2770766891e+00
 1.5610025067e+00	 1.4888050151e+00	-1.3521624629e+00
 1.5253309852e+00	 1.5253309852e+00	-1.4131431410e+00
 1.4888050151e+00	 1.5610025067e+00	-1.4610922515e+00
 1.4514556168e+00	 1.5957899946e+00	-1.4970871060e+00
 1.4133151581e+00	 1.6296653808e+00	-1.5222770094e+00
 1.3744172613e+00	 1.6626021898e+00	-1.5388790067e+00
 1.3347967044e+00	 1.6945756067e+00	-1.5493239597e+00
 1.7114083656e+00	 1.3480556650e+00	-9.9878458729e-01
 1.6791173466e+00	 1.3880697855e+00	-1.0932473744e+00
 1.6458533658e+00	 1.4273540675e+00	-1.1875797750e+00
 1.6116414845e+00	 1.4658733874e+00	-1.2751851747e+00
 1.5765084415e+00	 1.5035937892e+00	-1.3484155664e+00
 1.5404825834e+00	 1.5404825834e+00	-1.4082306866e+00
 1.5035937892e+00	 1.5765084415e+00	-1.4556094645e+00
 1.4658733874e+00	 1.6116414845e+00	-1.4915343977e+00
 1.4273540675e+00	 1.6458533658e+00	-1.5169846969e+00
 1.3880697855e+00	 1.6791173466e+00	-1.5337703080e+00
 1.3480556650e+00	 1.7114083656e+00	-1.5444835995e+00
 1.7282411343e+00	 1.3613146332e+00	-9.9519189663e-01
 1.6956325130e+00	 1.4017223176e+00	-1.0910462202e+00
 1.6620413602e+00	 1.4413929850e+00	-1.1870445313e+00
 1.6274929837e+00	 1.4802911665e+00	-1.2723171067e+00
 1.5920143853e+00	 1.5183825719e+00	-1.3439837270e+00
 1.5556341904e+00	 1.5556341904e+00	-1.4029120771e+00
 1.5183825719e+00	 1.5920143853e+00	-1.4499802374e+00
 1.4802911665e+00	 1.6274929837e+00	-1.4860702477e+00
 1.4413929850e+00	 1.6620413602e+00	-1.5120614815e+00
 1.4017223176e+00	 1.6956325130e+00	-1.5292243306e+00
 1.3613146332e+00	 1.7282411343e+00	-1.5402940460e+00
 1.7450739148e+00	 1.3745736108e+00	-9.9165123992e-01
 1.7121476910e+00	 1.4153748593e+00	-1.0891575792e+00
 1.6782293659e+00	 1.4554319124e+00	-1.1850801590e+00
 1.6433444941e+00	 1.4947089557e+00	-1.2683127985e+00
 1.6075203400e+00	 1.5331713650e+00	-1.3387123474e+00
 1.5707858081e+00	 1.5707858081e+00	-1.3970394892e+00
 1.5331713650e+00	 1.6075203400e+00	-1.4440653984e+00
 1.4947089557e+00	 1.6433444941e+00	-1.4805661987e+00
 1.4554319124e+00	 1.6782293659e+00	-1.5073172077e+00
 1.4153748593e+00	 1.7121476910e+00	-1.5251907152e+00
 1.3745736108e+00	 1.7450739148e+00	-1.5367228290e+00
 1.7619067090e+00	 1.3878325992e+00	-9.8792688387e-01
 1.7286628824e+00	 1.4290274121e+00	-1.0873307494e+00
 1.6944173849e+00	 1.4694708512e+00	-1.1815234293e+00
 1.6591960173e+00	 1.5091267566e+00	-1.2630208876e+00
 1.6230263073e+00	 1.5479601702e+00	-1.3324549764e+00
 1.5859374381e+00	 1.5859374381e+00	-1.3904729825e+00
 1.5479601702e+00	 1.6230263073e+00	-1.4377333040e+00
 1.5091267566e+00	 1.6591960173e+00	-1.4749008678e+00
 1.4694708512e+00	 1.6944173849e+00	-1.5026423072e+00
 1.4290274121e+00	 1.7286628824e+00	-1.5216209273e+00
 1.3878325992e+00	 1.7619067090e+00	-1.5337386572e+00
 1.7787395190e+00	 1.4010916000e+00	-9.8378284840e-01
 1.7451780893e+00	 1.4426799776e+00	-1.0843496515e+00
 1.7106054190e+00	 1.4835098031e+00	-1.1762276988e+00
 1.6750475554e+00	 1.5235445710e+00	-1.2562981370e+00
 1.6385322891e+00	 1.5627489892e+00	-1.3250731174e+00
 1.6010890823e+00	 1.6010890823e+00	-1.3830803207e+00
 1.5627489892e+00	 1.6385322891e+00	-1.4308596772e+00
 1.5235445710e+00	 1.6750475554e+00	-1.4689598069e+00
 1.4835098031e+00	 1.7106054190e+00	-1.4979341932e+00
 1.4426799776e+00	 1.7451780893e+00	-1.5183371005e+00
 1.4010916000e+00	 1.7787395190e+00	-1.5313114926e+00
 1.7955723466e+00	 1.4143506146e+00	-9.7898322144e-01
 1.7616933135e+00	 1.4563325575e+00	-1.0791853878e+00
 1.7267934700e+00	 1.4975487698e+00	-1.1690543480e+00
 1.6908991101e+00	 1.5379624005e+00	-1.2480092399e+00
 1.6540382872e+00	 1.5775378237e+00	-1.3164360408e+00
 1.6162407423e+00	 1.6162407423e+00	-1.3747367959e+00
 1.5775378237e+00	 1.6540382872e+00	-1.4233274475e+00
 1.5379624005e+00	 1.6908991101e+00	-1.4626353641e+00
 1.4975487698e+00	 1.7267934700e+00	-1.4930965687e+00
 1.4563325575e+00	 1.7616933135e+00	-1.5151526675e+00
 1.4143506146e+00	 1.7955723466e+00	-1.5294126192e+00
 1.2817609086e+00	 1.6272446300e+00	-1.5758795956e+00
 1.2430550697e+00	 1.6570003458e+00	-1.5804010244e+00
 1.2037250311e+00	 1.6857882745e+00	-1.5797242467e+00
 1.1638069360e+00	 1.7135896666e+00	-1.5740168225e+00
 1.1233376250e+00	 1.7403875576e+00	-1.5633581506e+00
 1.0823545267e+00	 1.7661667960e+00	-1.5477481207e+00
 1.0408955478e+00	 1.7909140643e+00	-1.5271166600e+00
 9.9899896314e-01	 1.8146178912e+00	-1.5013339259e+00
 9.5670330502e-01	 1.8372686567e+00	-1.4702209094e+00
 9.1404725469e-01	 1.8588585895e+00	-1.4335602369e+00
 8.7106953450e-01	 1.8793817562e+00	-1.3911069823e+00
 1.2950198537e+00	 1.6440773692e+00	-1.5680905848e+00
 1.2559136292e+00	 1.6741408877e+00	-1.5730395361e+00
 1.2161767481e+00	 1.7032266080e+00	-1.5731602924e+00
 1.1758457274e+00	 1.7313155866e+00	-1.5685835261e+00
 1.1349577889e+00	 1.7583906835e+00	-1.5593477452e+00
 1.0935507483e+00	 1.7844365906e+00	-1.5454087919e+00
 1.0516629045e+00	 1.8094398526e+00	-1.5266502233e+00
 1.0093329281e+00	 1.8333888794e+00	-1.5028943102e+00
 9.6659975020e-01	 1.8562739517e+00	-1.4739134045e+00
 9.2350245204e-01	 1.8780872177e+00	-1.4394414529e+00
 8.8008015656e-01	 1.8988226826e+00	-1.3991854624e+00
 1.3082788003e+00	 1.6609101105e+00	-1.5610924011e+00
 1.2687721902e+00	 1.6912814316e+00	-1.5664246718e+00
 1.2286284665e+00	 1.7206649435e+00	-1.5672606882e+00
 1.1878845203e+00	 1.7490415086e+00	-1.5637129280e+00
 1.1465779542e+00	 1.7763938115e+00	-1.5557956054e+00
 1.1047469713e+00	 1.8027063874e+00	-1.5434349408e+00
 1.0624302625e+00	 1.8279656430e+00	-1.5264803153e+00
 1.0196668944e+00	 1.8521598699e+00	-1.5047160316e+00
 9.7649619655e-01	 1.8752792490e+00	-1.4778734192e+00
 9.3295765049e-01	 1.8973158481e+00	-1.4456430490e+00
 8.8909077966e-01	 1.9182636113e+00	-1.4076868555e+00
 1.3215377501e+00	 1.6777428556e+00	-1.5548486977e+00
 1.2816307542e+00	 1.7084219795e+00	-1.5605394845e+00
 1.2410801878e+00	 1.7381032830e+00	-1.5620199746e+00
 1.1999233159e+00	 1.7667674348e+00	-1.5594026364e+00
 1.1581981222e+00	 1.7943969437e+00	-1.5526935258e+00
 1.1159431968e+00	 1.8209761884e+00	-1.5418032513e+00
 1.0731976229e+00	 1.8464914378e+00	-1.5265588460e+00
 1.0300008630e+00	 1.8709308647e+00	-1.5067162482e+00
 9.8639264520e-01	 1.8942845506e+00	-1.4819731176e+00
 9.4241285115e-01	 1.9165444830e+00	-1.4519817412e+00
 8.9810140487e-01	 1.9377045445e+00	-1.4163618163e+00
 1.3347967044e+00	 1.6945756067e+00	-1.5493239597e+00
 1.2944893227e+00	 1.7255625334e+00	-1.5553669940e+00
 1.2535319135e+00	 1.7555416287e+00	-1.5574321010e+00
 1.2119621158e+00	 1.7844933671e+00	-1.5556494375e+00
 1.1698182943e+00	 1.8124000823e+00	-1.5500325912e+00
 1.1271394263e+00	 1.8392459958e+00	-1.5404901703e+00
 1.0839649872e+00	 1.8650172390e+00	-1.5268383358e+00
 1.0403348352e+00	 1.8897018661e+00	-1.5088139625e+00
 9.9628909731e-01	 1.9132898590e+00	-1.4860881412e+00
 9.5186805512e-01	 1.9357731247e+00	-1.4582797649e+00
 9.0711203324e-01	 1.9571454845e+00	-1.4249689775e+00
 1.3480556650e+00	 1.7114083656e+00	-1.5444835995e+00
 1.3073478972e+00	 1.7427030954e+00	-1.5508903264e+00
 1.2659836451e+00	 1.7729799825e+00	-1.5534905941e+00
 1.2240009213e+00	 1.8022193078e+00	-1.5524494754e+00
 1.1814384717e+00	 1.8304032292e+00	-1.5478033516e+00
 1.1383356610e+00	 1.8575158117e+00	-1.5394720577e+00
 1.0947323564e+00	 1.8835430489e+00	-1.5272720212e+00
 1.0506688123e+00	 1.9084728762e+00	-1.5109300644e+00
 1.0061855540e+00	 1.9322951761e+00	-1.4900975679e+00
 9.6132326350e-01	 1.9550017753e+00	-1.4643647282e+00
 9.1612266581e-01	 1.9765864336e+00	-1.4332746765e+00
 1.3613146332e+00	 1.7282411343e+00	-1.5402940460e+00
 1.3202064792e+00	 1.7598436673e+00	-1.5470928456e+00
 1.2784353838e+00	 1.7904183465e+00	-1.5501887167e+00
 1.2360397338e+00	 1.8199452588e+00	-1.5497984221e+00
 1.1930586560e+00	 1.8484063866e+00	-1.5459959861e+00
 1.1495319022e+00	 1.8757856383e+00	-1.5387253281e+00
 1.1054997320e+00	 1.9020688696e+00	-1.5278139559e+00
 1.0610027954e+00	 1.9272438973e+00	-1.5129873713e+00
 1.0160820165e+00	 1.9513005044e+00	-1.4938838729e+00
 9.7077847739e-01	 1.9742304371e+00	-1.4700694749e+00
 9.2513330363e-01	 1.9960273940e+00	-1.4410527000e+00
 1.3745736108e+00	 1.7450739148e+00	-1.5367228290e+00
 1.3330650702e+00	 1.7769842512e+00	-1.5439582769e+00
 1.2908871313e+00	 1.8078567227e+00	-1.5475196164e+00
 1.2480785547e+00	 1.8376712221e+00	-1.5476916374e+00
 1.2046788484e+00	 1.8664095566e+00	-1.5446004584e+00
 1.1607281513e+00	 1.8940554777e+00	-1.5382265848e+00
 1.1162671150e+00	 1.9205947032e+00	-1.5284191058e+00
 1.0713367857e+00	 1.9460149315e+00	-1.5149106678e+00
 1.0259784860e+00	 1.9703058460e+00	-1.4973328940e+00
 9.8023369791e-01	 1.9934591124e+00	-1.4752319553e+00
 9.3414394776e-01	 2.0154683680e+00	-1.4480840424e+00
 1.3878325992e+00	 1.7619067090e+00	-1.5337386572e+00
 1.3459236717e+00	 1.7941248491e+00	-1.5414708231e+00
 1.3033388890e+00	 1.8252951131e+00	-1.5454764667e+00
 1.2601173854e+00	 1.8553972000e+00	-1.5461243198e+00
 1.2162990503e+00	 1.8844127414e+00	-1.5436066631e+00
 1.1719244095e+00	 1.9123253320e+00	-1.5379527457e+00
 1.1270345069e+00	 1.9391205520e+00	-1.5290434390e+00
 1.0816707845e+00	 1.9647859811e+00	-1.5166267426e+00
 1.0358749635e+00	 1.9893112031e+00	-1.5003337983e+00
 9.8968892614e-01	 2.0126878034e+00	-1.4796951062e+00
 9.4315459925e-01	 2.0349093579e+00	-1.4541566798e+00
 1.4010916000e+00	 1.7787395190e+00	-1.5313114926e+00
 1.3587822852e+00	 1.8112654630e+00	-1.5396152740e+00
 1.3157906583e+00	 1.8427335198e+00	-1.5440525993e+00
 1.2721562274e+00	 1.8731231944e+00	-1.5450916495e+00
 1.2279192630e+00	 1.9024159429e+00	-1.5430045639e+00
 1.1831206782e+00	 1.9305952033e+00	-1.5378811633e+00
 1.1378019088e+00	 1.9576464181e+00	-1.5296440120e+00
 1.0920047929e+00	 1.9835570482e+00	-1.5180644240e+00
 1.0457714502e+00	 2.0083165779e+00	-1.5027790516e+00
 9.9914416320e-01	 2.0319165124e+00	-1.4833067377e+00
 9.5216525916e-01	 2.0543503660e+00	-1.4590653578e+00
 1.4143506146e+00	 1.7955723466e+00	-1.5294126192e+00
 1.3716409122e+00	 1.8284060949e+00	-1.5383771094e+00
 1.3282424406e+00	 1.8601719448e+00	-1.5432416295e+00
 1.2841950821e+00	 1.8908492074e+00	-1.5445889221e+00
 1.2395394879e+00	 1.9204191633e+00	-1.5427843248e+00
 1.1943169586e+00	 1.9488650938e+00	-1.5379897376e+00
 1.1485693220e+00	 1.9761723037e+00	-1.5301790499e+00
 1.1023388122e+00	 2.0023281350e+00	-1.5191546145e+00
 1.0556679474e+00	 2.0273219727e+00	-1.5045643910e+00
 1.0085994102e+00	 2.0511452415e+00	-1.4859194268e+00
 9.6117592852e-01	 2.0737913944e+00	-1.4626113910e+00
 8.7106953450e-01	 1.8793817562e+00	-1.3911069823e+00
 8.2781183775e-01	 1.8988327224e+00	-1.3424423847e+00
 7.8430964002e-01	 1.9172106558e+00	-1.2883418520e+00
 7.4060114600e-01	 1.9345150168e+00	-1.2302937024e+00
 6.9672419787e-01	 1.9507469929e+00	-1.1697156154e+00
 6.5271618337e-01	 1.9659094555e+00	-1.1079555216e+00
 6.0861394822e-01	 1.9800069111e+00	-1.0462929015e+00
 5.6445371338e-01	 1.9930454480e+00	-9.8594049490e-01
 5.2027099727e-01	 2.0050326779e+00	-9.2804642569e-01
 4.7610054326e-01	 2.0159776735e+00	-8.7369674454e-01
 4.3197625268e-01	 2.0258909036e+00	-8.2391838825e-01
 8.8008015656e-01	 1.8988226826e+00	-1.3991854624e+00
 8.3637498835e-01	 1.9184748558e+00	-1.3526127381e+00
 7.9242278996e-01	 1.9370428964e+00	-1.3004564618e+00
 7.4826216129e-01	 1.9545262593e+00	-1.2442715213e+00
 7.0393133597e-01	 1.9709261442e+00	-1.1855504420e+00
 6.5946808847e-01	 1.9862454521e+00	-1.1257233774e+00
 6.1490964569e-01	 2.0004887363e+00	-1.0661584610e+00
 5.7029260325e-01	 2.0136621480e+00	-1.0081625391e+00
 5.2565284698e-01	 2.0257733776e+00	-9.5298230438e-01
 4.8102547966e-01	 2.0368315918e+00	-9.0180585105e-01
 4.3644475330e-01	 2.0468473675e+00	-8.5576466348e-01
 8.8909077966e-01	 1.9182636113e+00	-1.4076868555e+00
 8.4493813994e-01	 1.9381169915e+00	-1.3633831336e+00
 8.0053594085e-01	 1.9568751394e+00	-1.3134244618e+00
 7.5592317747e-01	 1.9745375041e+00	-1.2594011144e+00
 7.1113847490e-01	 1.9911052978e+00	-1.2028527170e+00
 6.6621999437e-01	 2.0065814511e+00	-1.1452674062e+00
 6.2120534390e-01	 2.0209705639e+00	-1.0880812709e+00
 5.7613149380e-01	 2.0342788504e+00	-1.0326781141e+00
 5.3103469732e-01	 2.0465140798e+00	-9.8038957248e-01
 4.8595041663e-01	 2.0576855125e+00	-9.3249563368e-01
 4.4091325443e-01	 2.0678038339e+00	-8.9022557940e-01
 8.9810140487e-01	 1.9377045445e+00	-1.4163618163e+00
 8.5350129354e-01	 1.9577591318e+00	-1.3744389544e+00
 8.0864909363e-01	 1.9767073869e+00	-1.3268787937e+00
 7.6358419544e-01	 1.9945487536e+00	-1.2752766133e+00
 7.1834561552e-01	 2.0112844561e+00	-1.2211921313e+00
 6.7297190184e-01	 2.0269174548e+00	-1.1661478987e+00
 6.2750104357e-01	 2.0414523963e+00	-1.1116278658e+00
 5.8197038571e-01	 2.0548955577e+00	-1.0590761766e+00
 5.3641654892e-01	 2.0672547868e+00	-1.0098962508e+00
 4.9087535475e-01	 2.0785394381e+00	-9.6545021153e-01
 4.4538175661e-01	 2.0887603051e+00	-9.2705870873e-01
 9.0711203324e-01	 1.9571454845e+00	-1.4249689775e+00
 8.6206445013e-01	 1.9774012790e+00	-1.3854759870e+00
 8.1676224925e-01	 1.9965396415e+00	-1.3404647182e+00
 7.7124521609e-01	 2.0145600101e+00	-1.2915058470e+00
 7.2555275866e-01	 2.0314636214e+00	-1.2401528875e+00
 6.7972381167e-01	 2.0472534657e+00	-1.1879398855e+00
 6.3379674545e-01	 2.0619342358e+00	-1.1363791423e+00
 5.8780927967e-01	 2.0755122721e+00	-1.0869590442e+00
 5.4179840239e-01	 2.0879955010e+00	-1.0411420820e+00
 4.9580029460e-01	 2.0993933710e+00	-1.0003631374e+00
 4.4985026035e-01	 2.1097167837e+00	-9.6602811172e-01
 9.1612266581e-01	 1.9765864336e+00	-1.4332746765e+00
 8.7062761071e-01	 1.9970434353e+00	-1.3962000221e+00
 8.2487540865e-01	 2.0163719052e+00	-1.3538393152e+00
 7.7890624032e-01	 2.0345712759e+00	-1.3077097661e+00
 7.3275990516e-01	 2.0516427962e+00	-1.2593330763e+00
 6.8647572465e-01	 2.0675894860e+00	-1.2102324941e+00
 6.4009245027e-01	 2.0824160849e+00	-1.1619297257e+00
 5.9364817635e-01	 2.0961289962e+00	-1.1159418024e+00
 5.4718025838e-01	 2.1087362250e+00	-1.0737780093e+00
 5.0072523674e-01	 2.1202473136e+00	-1.0369369805e+00
 4.5431876618e-01	 2.1306732721e+00	-1.0069040552e+00
 9.2513330363e-01	 1.9960273940e+00	-1.4410527000e+00
 8.7919077630e-01	 2.0166856031e+00	-1.4063264806e+00
 8.3298857279e-01	 2.0362041806e+00	-1.3666710140e+00
 7.8656726901e-01	 2.0545825534e+00	-1.3235219022e+00
 7.3996705586e-01	 2.0718219828e+00	-1.2783440906e+00
 6.9322764158e-01	 2.0879255182e+00	-1.2326283440e+00
 6.4638815875e-01	 2.1028979460e+00	-1.1878873746e+00
 5.9948707643e-01	 2.1167457322e+00	-1.1456517463e+00
 5.5256211751e-01	 2.1294769610e+00	-1.1074656861e+00
 5.0565018176e-01	 2.1411012684e+00	-1.0748829334e+00
 4.5878727461e-01	 2.1516297726e+00	-1.0494627485e+00
 9.3414394776e-01	 2.0154683680e+00	-1.4480840424e+00
 8.8775394787e-01	 2.0363277846e+00	-1.4155800615e+00
 8.4110174261e-01	 2.0560364698e+00	-1.3786391510e+00
 7.9422830307e-01	 2.0745938450e+00	-1.3385878591e+00
 7.4717421161e-01	 2.0920011835e+00	-1.2968100735e+00
 6.9997956322e-01	 2.1082615646e+00	-1.2547429771e+00
 6.5268387165e-01	 2.1233798214e+00	-1.2138724195e+00
 6.0532598061e-01	 2.1373624828e+00	-1.1757278564e+00
 5.5794398041e-01	 2.1502177116e+00	-1.1418770149e+00
 5.1057513022e-01	 2.1619552378e+00	-1.1139204431e+00
 4.6325578618e-01	 2.1725862879e+00	-1.0934860948e+00
 9.4315459925e-01	 2.0349093579e+00	-1.4541566798e+00
 8.9631712644e-01	 2.0559699822e+00	-1.4236944101e+00
 8.4921491905e-01	 2.0758687752e+00	-1.3894335545e+00
 8.0188934338e-01	 2.0946051528e+00	-1.3525648338e+00
 7.5438137325e-01	 2.1121804006e+00	-1.3143673995e+00
 7.0673149039e-01	 2.1285976277e+00	-1.2762043228e+00
 6.5897958968e-01	 2.1438617135e+00	-1.2395172362e+00
 6.1116488955e-01	 2.1579792501e+00	-1.2058203042e+00
 5.6332584770e-01	 2.1709584791e+00	-1.1766937126e+00
 5.1550008271e-01	 2.1828092242e+00	-1.1537768634e+00
 4.6772430139e-01	 2.1935428203e+00	-1.1387614580e+00
 9.5216525916e-01	 2.0543503660e+00	-1.4590653578e+00
 9.0488031300e-01	 2.0756121981e+00	-1.4304118074e+00
 8.5732810306e-01	 2.0957010992e+00	-1.3987541530e+00
 8.0955039085e-01	 2.1146164793e+00	-1.3651211661e+00
 7.6158854161e-01	 2.1323596366e+00	-1.3306641852e+00
 7.1348342385e-01	 2.1489337097e+00	-1.2966521924e+00
 6.6527531360e-01	 2.1643436247e+00	-1.2644657476e+00
 6.1700380394e-01	 2.1785960367e+00	-1.2355899866e+00
 5.6870772002e-01	 2.1916992659e+00	-1.2116069018e+00
 5.2042503979e-01	 2.2036632300e+00	-1.1941871271e+00
 4.7219282077e-01	 2.2144993722e+00	-1.1850814424e+00
 9.6117592852e-01	 2.0737913944e+00	-1.4626113910e+00
 9.1344350855e-01	 2.0952544346e+00	-1.4354828759e+00
 8.6544129560e-01	 2.1155334439e+00	-1.4063106065e+00
 8.1721144636e-01	 2.1346278269e+00	-1.3759359133e+00
 7.6879571754e-01	 2.1525388938e+00	-1.3453598289e+00
 7.2023536440e-01	 2.1692698131e+00	-1.3157378042e+00
 6.7157104412e-01	 2.1848255574e+00	-1.2883729564e+00
 6.2284272446e-01	 2.1992128449e+00	-1.2647080878e+00
 5.7408959798e-01	 2.2124400746e+00	-1.2463167252e+00
 5.2535000204e-01	 2.2245172578e+00	-1.2348934382e+00
 4.7666134484e-01	 2.2354559461e+00	-1.2322436854e+00
 4.3197625268e-01	 2.0258909036e+00	-8.2391838825e-01
 3.8792805120e-01	 2.0347847507e+00	-7.7867036898e-01
 3.4399111208e-01	 2.0426715394e+00	-7.3672706588e-01
 3.0019651332e-01	 2.0495655069e+00	-6.9705873263e-01
 2.5657427640e-01	 2.0554819983e+00	-6.5836084536e-01
 2.1315332776e-01	 2.0604373902e+00	-6.1908994656e-01
 1.6996146592e-01	 2.0644490141e+00	-5.7749943950e-01
 1.2702533417e-01	 2.0675350793e+00	-5.3167501634e-01
 8.4370398640e-02	 2.0697145959e+00	-4.7956941841e-01
 4.2020931630e-02	 2.0710072986e+00	-4.1903624539e-01
 0.0000000000e+00	 2.0714335714e+00	-3.4786255126e-01
 4.3644475330e-01	 2.0468473675e+00	-8.5576466348e-01
 3.9194090312e-01	 2.0558332154e+00	-8.1395609302e-01
 3.4754946625e-01	 2.0638015876e+00	-7.7430167530e-01
 3.0330184214e-01	 2.0707668685e+00	-7.3586937194e-01
 2.5922836284e-01	 2.0767445619e+00	-6.9742359700e-01
 2.1535825400e-01	 2.0817512140e+00	-6.5746229856e-01
 1.7171960172e-01	 2.0858043355e+00	-6.1425415844e-01
 1.2833932488e-01	 2.0889223239e+00	-5.6587557245e-01
 8.5243153047e-02	 2.0911243861e+00	-5.1024708803e-01
 4.2455609596e-02	 2.0924304609e+00	-4.4516899348e-01
 0.0000000000e+00	 2.0928611433e+00	-3.6835577418e-01
 4.4091325443e-01	 2.0678038339e+00	-8.9022557940e-01
 3.9595375551e-01	 2.0768816826e+00	-8.5174026381e-01
 3.5110782082e-01	 2.0849316382e+00	-8.1410256992e-01
 3.0640717132e-01	 2.0919682325e+00	-7.7657463458e-01
 2.6188244958e-01	 2.0980071281e+00	-7.3808210572e-01
 2.1756318051e-01	 2.1030650403e+00	-6.9725199162e-01
 1.7347773773e-01	 2.1071596593e+00	-6.5245085721e-01
 1.2965331575e-01	 2.1103095710e+00	-6.0182300928e-01
 8.6115907556e-02	 2.1125341788e+00	-5.4332832468e-01
 4.2890287613e-02	 2.1138536257e+00	-4.7477939229e-01
 0.0000000000e+00	 2.1142887176e+00	-3.9387765954e-01
 4.4538175661e-01	 2.0887603051e+00	-9.2705870873e-01
 3.9996660884e-01	 2.0979301547e+00	-8.9186241829e-01
 3.5466617623e-01	 2.1060616938e+00	-8.5604891937e-01
 3.0951250122e-01	 2.1131696015e+00	-8.1916833189e-01
 2.6453653694e-01	 2.1192696992e+00	-7.8039724926e-01
 2.1976810752e-01	 2.1243788716e+00	-7.3857689210e-01
 1.7523587415e-01	 2.1285149881e+00	-6.9225189876e-01
 1.3096730692e-01	 2.1316968231e+00	-6.3970937350e-01
 8.6988662268e-02	 2.1339439765e+00	-5.7901782345e-01
 4.3324965731e-02	 2.1352767956e+00	-5.0806563004e-01
 0.0000000000e+00	 2.1357162969e+00	-4.2459871918e-01
 4.4985026035e-01	 2.1097167837e+00	-9.6602811172e-01
 4.0397946357e-01	 2.1189786341e+00	-9.3416533178e-01
 3.5822453288e-01	 2.1271917567e+00	-9.0006001365e-01
 3.1261783220e-01	 2.1343709780e+00	-8.6364151731e-01
 2.6719062523e-01	 2.1405322777e+00	-8.2442461406e-01
 2.2197303531e-01	 2.1456927104e+00	-7.8154748808e-01
 1.7699401118e-01	 2.1498703244e+00	-7.3381072449e-01
 1.3228129855e-01	 2.1530840826e+00	-6.7971688401e-01
 8.7861417286e-02	 2.1553537817e+00	-6.1751027120e-01
 4.3759644001e-02	 2.1566999729e+00	-5.4521651599e-01
 0.0000000000e+00	 2.1571438838e+00	-4.6068160435e-01
 4.5431876618e-01	 2.1306732721e+00	-1.0069040552e+00
 4.0799232017e-01	 2.1400271234e+00	-9.7849488890e-01
 3.6178289119e-01	 2.1483218296e+00	-9.4605528008e-01
 3.1572316464e-01	 2.1555723643e+00	-9.0998263829e-01
 2.6984471476e-01	 2.1617948662e+00	-8.7021476609e-01
 2.2417796412e-01	 2.1670065591e+00	-8.2626725805e-01
 1.7875214903e-01	 2.1712256707e+00	-7.7727229534e-01
 1.3359529080e-01	 2.1744713522e+00	-7.2201841513e-01
 8.8734172710e-02	 2.1767635969e+00	-6.5899083729e-01
 4.4194322473e-02	 2.1781231603e+00	-5.8641194031e-01
 0.0000000000e+00	 2.1785714806e+00	-5.0228149235e-01
 4.5878727461e-01	 2.1516297726e+00	-1.0494627485e+00
 4.1200517911e-01	 2.1610756249e+00	-1.0246999624e+00
 3.6534125157e-01	 2.1694519147e+00	-9.9395429958e-01
 3.1882849889e-01	 2.1767737630e+00	-9.5817767964e-01
 2.7249880584e-01	 2.1830574671e+00	-9.1781350612e-01
 2.2638289422e-01	 2.1883204202e+00	-8.7283301837e-01
 1.8051028790e-01	 2.1925810294e+00	-8.2277350707e-01
 1.3490928381e-01	 2.1958586342e+00	-7.6677795149e-01
 8.9606928644e-02	 2.1981734245e+00	-7.0363563574e-01
 4.4629001200e-02	 2.1995463601e+00	-6.3182330712e-01
 0.0000000000e+00	 2.1999990900e+00	-5.4954645055e-01
 4.6325578618e-01	 2.1725862879e+00	-1.0934860948e+00
 4.1601804086e-01	 2.1821241412e+00	-1.0726322994e+00
 3.6889961445e-01	 2.1905820147e+00	-1.0436768223e+00
 3.2193383531e-01	 2.1979751765e+00	-1.0082102988e+00
 2.7515289877e-01	 2.2043200828e+00	-9.6726211030e-01
 2.2858782587e-01	 2.2096342962e+00	-9.2133525059e-01
 1.8226842801e-01	 2.2139364031e+00	-8.7044358175e-01
 1.3622327774e-01	 2.2172459312e+00	-8.1415101675e-01
 9.0479685189e-02	 2.2195832672e+00	-7.5161216061e-01
 4.5063680230e-02	 2.2209695749e+00	-6.8161394248e-01
 0.0000000000e+00	 2.2214267143e+00	-6.0261777937e-01
 4.6772430139e-01	 2.1935428203e+00	-1.1387614580e+00
 4.2003090589e-01	 2.2031726747e+00	-1.1221464144e+00
 3.7245798023e-01	 2.2117121319e+00	-1.0951427829e+00
 3.2503917426e-01	 2.2191766073e+00	-1.0600619538e+00
 2.7780699388e-01	 2.2255827160e+00	-1.0185975573e+00
 2.3079275931e-01	 2.2309481897e+00	-9.7185841031e-01
 1.8402656956e-01	 2.2352917942e+00	-9.2040443675e-01
 1.3753727274e-01	 2.2386332456e+00	-8.6428507773e-01
 9.1352442446e-02	 2.2409931273e+00	-8.0307969645e-01
 4.5498359616e-02	 2.2423928072e+00	-7.3593947892e-01
 0.0000000000e+00	 2.2428543562e+00	-6.6163033557e-01
 4.7219282077e-01	 2.2144993722e+00	-1.1850814424e+00
 4.2404377466e-01	 2.2242212278e+00	-1.1730994893e+00
 3.7601634934e-01	 2.2328422688e+00	-1.1482723147e+00
 3.2814451612e-01	 2.2403780580e+00	-1.1137120236e+00
 2.8046109146e-01	 2.2468453689e+00	-1.0718527425e+00
 2.3299769482e-01	 2.2522621030e+00	-1.0244812185e+00
 1.8578471274e-01	 2.2566472052e+00	-9.7277103296e-01
 1.3885126897e-01	 2.2600205801e+00	-9.1731992562e-01
 9.2225200519e-02	 2.2624030075e+00	-8.5818970547e-01
 4.5933039408e-02	 2.2638160596e+00	-7.9494821821e-01
 0.0000000000e+00	 2.2642820180e+00	-7.2671283718e-01
 4.7666134484e-01	 2.2354559461e+00	-1.2322436854e+00
 4.2805664765e-01	 2.2452698030e+00	-1.2253512786e+00
 3.7957472218e-01	 2.2539724279e+00	-1.2029857642e+00
 3.3124986124e-01	 2.2615795308e+00	-1.1691379229e+00
 2.8311519182e-01	 2.2681080442e+00	-1.1270566806e+00
 2.3520263264e-01	 2.2735760387e+00	-1.0792769365e+00
 1.8754285777e-01	 2.2780026387e+00	-1.0276517035e+00
 1.4016526658e-01	 2.2814079369e+00	-9.7338803588e-01
 9.3097959508e-02	 2.2838129101e+00	-9.1708619295e-01
 4.6367719656e-02	 2.2852393344e+00	-8.5878147373e-01
 0.0000000000e+00	 2.2857097023e+00	-7.9798815127e-01
 2.2857097023e+00	 0.0000000000e+00	 3.0080724084e+00
 2.2852393344e+00	 4.6367719656e-02	 2.8357799332e+00
 2.2838129101e+00	 9.3097959508e-02	 2.6701138059e+00
 2.2814079369e+00	 1.4016526658e-01	 2.5109394117e+00
 2.2780026387e+00	 1.8754285777e-01	 2.3578384924e+00
 2.2735760387e+00	 2.3520263264e-01	 2.2100778820e+00
 2.2681080442e+00	 2.8311519182e-01	 2.0665815270e+00
 2.2615795308e+00	 3.3124986124e-01	 1.9259061232e+00
 2.2539724279e+00	 3.7957472218e-01	 1.7862206216e+00
 2.2452698030e+00	 4.2805664765e-01	 1.6452897715e+00
 2.2354559461e+00	 4.7666134484e-01	 1.5004617837e+00
 2.3071389083e+00	 0.0000000000e+00	 3.0846449267e+00
 2.3066641305e+00	 4.6802430773e-02	 2.8756948759e+00
 2.3052243331e+00	 9.3970780476e-02	 2.6815350638e+00
 2.3027968126e+00	 1.4147935751e-01	 2.5012410948e+00
 2.2993595887e+00	 1.8930112766e-01	 2.3335233489e+00
 2.2948914881e+00	 2.3740772704e-01	 2.1766990092e+00
 2.2893722295e+00	 2.8576948067e-01	 2.0286683361e+00
 2.2827825093e+00	 3.3435542688e-01	 1.8868955249e+00
 2.2751040876e+00	 3.8313334772e-01	 1.7483943922e+00
 2.2663198730e+00	 4.3206980561e-01	 1.6097190405e+00
 2.2564140083e+00	 4.8113018625e-01	 1.4669595444e+00
 2.3285681219e+00	 0.0000000000e+00	 3.1753338507e+00
 2.3280889342e+00	 4.7237142042e-02	 2.9217282877e+00
 2.3266357636e+00	 9.4843601750e-02	 2.6935438884e+00
 2.3241856958e+00	 1.4279344889e-01	 2.4887141733e+00
 2.3207165462e+00	 1.9105939816e-01	 2.3047222778e+00
 2.3162069448e+00	 2.3961282222e-01	 2.1385789327e+00
 2.3106364222e+00	 2.8842377045e-01	 1.9868058272e+00
 2.3039854953e+00	 3.3746099361e-01	 1.8454246873e+00
 2.2962357546e+00	 3.8669197450e-01	 1.7099522881e+00
 2.2873699503e+00	 4.3608296498e-01	 1.5754015080e+00
 2.2773720777e+00	 4.8559902922e-01	 1.4362884097e+00
 2.3499973254e+00	 0.0000000000e+00	 3.2821476543e+00
 2.3495137279e+00	 4.7671853108e-02	 2.9752583412e+00
 2.3480471842e+00	 9.5716422617e-02	 2.7069395624e+00
 2.3455745690e+00	 1.4410753966e-01	 2.4736403329e+00
 2.3420734937e+00	 1.9281766784e-01	 2.2712705630e+00
 2.3375223917e+00	 2.4181791636e-01	 2.0951876128e+00
 2.3319006049e+00	 2.9107805899e-01	 1.9401895440e+00
 2.3251884713e+00	 3.4056655889e-01	 1.8005153778e+00
 2.3173674118e+00	 3.9025059963e-01	 1.6698525367e+00
 2.3084200178e+00	 4.4009612247e-01	 1.5413515150e+00
 2.2983301375e+00	 4.9006787010e-01	 1.4076476808e+00
 2.3714265014e+00	 0.0000000000e+00	 3.4070218149e+00
 2.3709384941e+00	 4.8106563617e-02	 3.0376128317e+00
 2.3694585772e+00	 9.6589242363e-02	 2.7224918765e+00
 2.3669634147e+00	 1.4542162875e-01	 2.4562905498e+00
 2.3634304138e+00	 1.9457593526e-01	 2.2330090850e+00
 2.3588378112e+00	 2.4402300768e-01	 2.0460140660e+00
 2.3531647604e+00	 2.9373234412e-01	 1.8880443287e+00
 2.3463914201e+00	 3.4367212018e-01	 1.7512253200e+00
 2.3384990419e+00	 3.9380922018e-01	 1.6270920331e+00
 2.3294700583e+00	 4.4410927481e-01	 1.5066204796e+00
 2.3192881703e+00	 4.9453670525e-01	 1.3802674968e+00
 2.3928556324e+00	 0.0000000000e+00	 3.5518220839e+00
 2.3923632153e+00	 4.8541273212e-02	 3.1100714414e+00
 2.3908699253e+00	 9.7462060275e-02	 2.7409424666e+00
 2.3883522156e+00	 1.4673571507e-01	 2.4369255941e+00
 2.3847872891e+00	 1.9633419900e-01	 2.1897841034e+00
 2.3801531859e+00	 2.4622809436e-01	 1.9905655529e+00
 2.3744288713e+00	 2.9638662368e-01	 1.8296230582e+00
 2.3675943244e+00	 3.4677767495e-01	 1.6966466377e+00
 2.3596306276e+00	 3.9736783326e-01	 1.5807046664e+00
 2.3505200546e+00	 4.4812241873e-01	 1.4702952964e+00
 2.3402461591e+00	 4.9900553101e-01	 1.3534075135e+00
 2.4142847010e+00	 0.0000000000e+00	 3.7183475830e+00
 2.4137878740e+00	 4.8975981538e-02	 3.1938678836e+00
 2.4122812110e+00	 9.8334875640e-02	 2.7630060791e+00
 2.4097409540e+00	 1.4804979756e-01	 2.4157965074e+00
 2.4061441021e+00	 1.9809245760e-01	 2.1414470506e+00
 2.4014684984e+00	 2.4843317461e-01	 1.9283668084e+00
 2.3956929201e+00	 2.9904089549e-01	 1.7642054472e+00
 2.3887971669e+00	 3.4988322067e-01	 1.6359043812e+00
 2.3807621517e+00	 4.0092643597e-01	 1.5297597348e+00
 2.3715699896e+00	 4.5213555094e-01	 1.4314968207e+00
 2.3612040868e+00	 5.0347434374e-01	 1.3263556507e+00
 2.4357136895e+00	 0.0000000000e+00	 3.9083337375e+00
 2.4352124527e+00	 4.9410688241e-02	 3.2901919326e+00
 2.4336924167e+00	 9.9207687746e-02	 2.7893717699e+00
 2.4311296126e+00	 1.4936387514e-01	 2.3931450545e+00
 2.4275008353e+00	 1.9985070963e-01	 2.0878543358e+00
 2.4227837314e+00	 2.5063824663e-01	 1.8589593126e+00
 2.4169568895e+00	 3.0169515739e-01	 1.6910969131e+00
 2.4099999302e+00	 3.5298875478e-01	 1.5681551292e+00
 2.4018935969e+00	 4.0448502538e-01	 1.4733604419e+00
 2.3926198459e+00	 4.5614866816e-01	 1.3893784298e+00
 2.3821619362e+00	 5.0794313978e-01	 1.2984269029e+00
 2.4571425805e+00	 0.0000000000e+00	 4.1234550560e+00
 2.4566369340e+00	 4.9845392964e-02	 3.4001913490e+00
 2.4551035250e+00	 1.0008049588e-01	 2.8207040402e+00
 2.4525181739e+00	 1.5067794674e-01	 2.3692041509e+00
 2.4488574714e+00	 2.0160895366e-01	 2.0288671593e+00
 2.4440988674e+00	 2.5284330861e-01	 1.7819005987e+00
 2.4382207622e+00	 3.0434940722e-01	 1.6096275003e+00
 2.4312025970e+00	 3.5609427477e-01	 1.4925856644e+00
 2.4230249459e+00	 4.0804359860e-01	 1.4106424712e+00
 2.4136696064e+00	 4.6016176712e-01	 1.3431246582e+00
 2.4031196903e+00	 5.1241191549e-01	 1.2689622103e+00
 2.4785713565e+00	 0.0000000000e+00	 4.3653277671e+00
 2.4780613002e+00	 5.0280095354e-02	 3.5249737045e+00
 2.4765145183e+00	 1.0095329932e-01	 2.8576439138e+00
 2.4739066204e+00	 1.5199201129e-01	 2.3441982692e+00
 2.4702139928e+00	 2.0336718826e-01	 1.9643513360e+00
 2.4654138890e+00	 2.5504835875e-01	 1.6967635968e+00
 2.4594845207e+00	 3.0700364279e-01	 1.5191508586e+00
 2.4524051501e+00	 3.5919977808e-01	 1.4084117151e+00
 2.4441561815e+00	 4.1160215272e-01	 1.3407726324e+00
 2.4347192540e+00	 4.6417484454e-01	 1.2919499019e+00
 2.4240773319e+00	 5.1688066722e-01	 1.2373273859e+00
 2.5000000000e+00	 0.0000000000e+00	 4.6355123192e+00
 2.4994855340e+00	 5.0714795054e-02	 3.6656081130e+00
 2.4979253793e+00	 1.0182609737e-01	 2.9008099592e+00
 2.4952949347e+00	 1.5330606771e-01	 2.3183438237e+00
 2.4915703822e+00	 2.0512541197e-01	 1.8941771277e+00
 2.4867287788e+00	 2.5725339526e-01	 1.6031360108e+00
 2.4807481478e+00	 3.0965786195e-01	 1.4190432746e+00
 2.4736075720e+00	 3.6230526219e-01	 1.3148767619e+00
 2.4652872865e+00	 4.1516068483e-01	 1.2629475768e+00
 2.4557687714e+00	 4.6818789715e-01	 1.2350971878e+00
 2.4450348439e+00	 5.2134939130e-01	 1.2029120961e+00
 2.2354559461e+00	 4.7666134484e-01	 1.5004617837e+00
 2.2245172578e+00	 5.2535000204e-01	 1.3531081152e+00
 2.2124400746e+00	 5.7408959798e-01	 1.2068502011e+00
 2.1992128449e+00	 6.2284272446e-01	 1.0620594028e+00
 2.1848255574e+00	 6.7157104412e-01	 9.1901991592e-01
 2.1692698131e+00	 7.2023536440e-01	 7.7792888264e-01
 2.1525388938e+00	 7.6879571754e-01	 6.3889685912e-01
 2.1346278269e+00	 8.1721144636e-01	 5.0194829319e-01
 2.1155334439e+00	 8.6544129560e-01	 3.6702170926e-01
 2.0952544346e+00	 9.1344350855e-01	 2.3396936357e-01
 2.0737913944e+00	 9.6117592852e-01	 1.0255621780e-01
 2.2564140083e+00	 4.8113018625e-01	 1.4669595444e+00
 2.2453727665e+00	 5.3027531404e-01	 1.3211094883e+00
 2.2331823561e+00	 5.7947185814e-01	 1.1762979563e+00
 2.2198311173e+00	 6.2868205963e-01	 1.0329402747e+00
 2.2053089447e+00	 6.7786722173e-01	 8.9137147572e-01
 2.1896073606e+00	 7.2698778444e-01	 7.5184737483e-01
 2.1727195840e+00	 7.7600340529e-01	 6.1454584900e-01
 2.1546405955e+00	 8.2487304591e-01	 4.7956792805e-01
 2.1353671971e+00	 8.7355506428e-01	 3.4693835964e-01
 2.1148980661e+00	 9.2200731222e-01	 2.1660538115e-01
 2.0932338035e+00	 9.7018723777e-01	 8.8439525192e-02
 2.2773720777e+00	 4.8559902922e-01	 1.4362884097e+00
 2.2662282825e+00	 5.3520062776e-01	 1.2929531070e+00
 2.2539246449e+00	 5.8485412018e-01	 1.1500299571e+00
 2.2404493968e+00	 6.3452139685e-01	 1.0080838869e+00
 2.2257923391e+00	 6.8416340155e-01	 8.6760423721e-01
 2.2099449152e+00	 7.3374020685e-01	 7.2900596084e-01
 2.1929002813e+00	 7.8321109556e-01	 5.9263084324e-01
 2.1746533712e+00	 8.3253464815e-01	 4.5874832005e-01
 2.1552009572e+00	 8.8166883581e-01	 3.2755552308e-01
 2.1345417043e+00	 9.3057111888e-01	 1.9917626514e-01
 2.1126762194e+00	 9.7919855017e-01	 7.3658777067e-02
 2.2983301375e+00	 4.9006787010e-01	 1.4076476808e+00
 2.2870837888e+00	 5.4012593919e-01	 1.2680810529e+00
 2.2746669240e+00	 5.9023637971e-01	 1.1277098820e+00
 2.2610676667e+00	 6.4036073134e-01	 9.8735134837e-01
 2.2462757240e+00	 6.9045957842e-01	 8.4774965557e-01
 2.2302824604e+00	 7.4049262610e-01	 7.0957652205e-01
 2.2130809691e+00	 7.9041878246e-01	 5.7343149143e-01
 2.1946661375e+00	 8.4019624681e-01	 4.3984160547e-01
 2.1750347080e+00	 8.8978260356e-01	 3.0926004720e-01
 2.1541853335e+00	 9.3913492154e-01	 1.8206344915e-01
 2.1321186261e+00	 9.8820985837e-01	 5.8547674922e-02
 2.3192881703e+00	 4.9453670525e-01	 1.3802674968e+00
 2.3079392683e+00	 5.4505124429e-01	 1.2459579125e+00
 2.2954091765e+00	 5.9561863234e-01	 1.1090163327e+00
 2.2816859102e+00	 6.4620005833e-01	 9.7061196105e-01
 2.2667590825e+00	 6.9675574722e-01	 8.3184159859e-01
 2.2506199795e+00	 7.4724503669e-01	 6.9372861883e-01
 2.2332616311e+00	 7.9762646012e-01	 5.5722153135e-01
 2.2146788781e+00	 8.4785783564e-01	 4.2319165465e-01
 2.1948684334e+00	 8.9789636089e-01	 2.9242948722e-01
 2.1738289374e+00	 9.4769871322e-01	 1.6563946362e-01
 2.1515610080e+00	 9.9722115501e-01	 4.3432906101e-02
 2.3402461591e+00	 4.9900553101e-01	 1.3534075135e+00
 2.3287947040e+00	 5.4997653905e-01	 1.2260698260e+00
 2.3161513854e+00	 6.0100087366e-01	 1.0936422169e+00
 2.3023041104e+00	 6.5203937307e-01	 9.5774289410e-01
 2.2872423981e+00	 7.0305190280e-01	 8.1991626650e-01
 2.2709574558e+00	 7.5399743310e-01	 6.8162960635e-01
 2.2534422507e+00	 8.0483412264e-01	 5.4426904667e-01
 2.2346915767e+00	 8.5551940838e-01	 4.0913441319e-01
 2.2147021171e+00	 9.0601010118e-01	 2.7743246859e-01
 2.1934725001e+00	 9.5626248691e-01	 1.5026825398e-01
 2.1710033490e+00	 1.0062324327e+00	 2.8634348442e-02
 2.3612040868e+00	 5.0347434374e-01	 1.3263556507e+00
 2.3496500789e+00	 5.5490181945e-01	 1.2079235840e+00
 2.3368935339e+00	 6.0638309928e-01	 1.0812941588e+00
 2.3229222504e+00	 6.5787867077e-01	 9.4862887067e-01
 2.3077256539e+00	 7.0934804001e-01	 8.1201211120e-01
 2.2912948729e+00	 7.6074980981e-01	 6.7344473876e-01
 2.2736228114e+00	 8.1204176414e-01	 5.3483670450e-01
 2.2547042170e+00	 8.6318095878e-01	 3.9799821769e-01
 2.2345357430e+00	 9.1412381781e-01	 2.6462902194e-01
 2.2131160055e+00	 9.6482623563e-01	 1.3630547266e-01
 2.1904456333e+00	 1.0152436842e+00	 1.4465253694e-02
 2.3821619362e+00	 5.0794313978e-01	 1.2984269029e+00
 2.3705053760e+00	 5.5982708145e-01	 1.1910457689e+00
 2.3576356049e+00	 6.1176530481e-01	 1.0716919387e+00
 2.3435403135e+00	 6.6371794667e-01	 9.4316186750e-01
 2.3282088333e+00	 7.1564415372e-01	 8.0816975524e-01
 2.3116322140e+00	 7.6750216131e-01	 6.6933726235e-01
 2.2938032968e+00	 8.1924937872e-01	 5.2918197409e-01
 2.2747167825e+00	 8.7084248057e-01	 3.9010408756e-01
 2.2543692948e+00	 9.2223750414e-01	 2.5437089231e-01
 2.2327594375e+00	 9.7338995237e-01	 1.2409874644e-01
 2.2098878450e+00	 1.0242549019e+00	 1.2324110069e-03
 2.4031196903e+00	 5.1241191549e-01	 1.2689622103e+00
 2.3913605781e+00	 5.6475232104e-01	 1.1749819388e+00
 2.3783775815e+00	 6.1714748584e-01	 1.0645679582e+00
 2.3641582828e+00	 6.6955719600e-01	 9.4124082625e-01
 2.3486919194e+00	 7.2194023877e-01	 8.0843191021e-01
 2.3319694626e+00	 7.7425448209e-01	 6.6946849847e-01
 2.3139836903e+00	 8.2645696052e-01	 5.2755732786e-01
 2.2947292570e+00	 8.7850396750e-01	 3.8576599446e-01
 2.2742027564e+00	 9.3035115356e-01	 2.4700182391e-01
 2.2524027802e+00	 9.8195363015e-01	 1.1398792072e-01
 2.2293299683e+00	 1.0332660787e+00	-1.0763708288e-02
 2.4240773319e+00	 5.1688066722e-01	 1.2373273859e+00
 2.4122156683e+00	 5.6967753420e-01	 1.1592958506e+00
 2.3991194469e+00	 6.2252963799e-01	 1.0596667294e+00
 2.3847761414e+00	 6.7539641399e-01	 9.4277137594e-01
 2.3691748957e+00	 7.2823629004e-01	 8.1284329493e-01
 2.3523066020e+00	 7.8100676663e-01	 6.7399791673e-01
 2.3341639756e+00	 8.3366450363e-01	 5.3021042574e-01
 2.3147416240e+00	 8.8616541331e-01	 3.8529111063e-01
 2.2940361116e+00	 9.3846475943e-01	 2.4285782222e-01
 2.2720460174e+00	 9.9051726197e-01	 1.0630528210e-01
 2.2487719872e+00	 1.0422772072e+00	-2.1228823471e-02
 2.4450348439e+00	 5.2134939130e-01	 1.2029120961e+00
 2.4330706296e+00	 5.7460271690e-01	 1.1435687209e+00
 2.4198611839e+00	 6.2791175686e-01	 1.0567443883e+00
 2.4053938725e+00	 6.8123559588e-01	 9.4766556574e-01
 2.3896577453e+00	 7.3453230238e-01	 8.2145055314e-01
 2.3726436157e+00	 7.8775900942e-01	 6.8308319913e-01
 2.3543441361e+00	 8.4087200217e-01	 5.3738428390e-01
 2.3347538674e+00	 8.9382681175e-01	 3.8898003740e-01
 2.3138693441e+00	 9.4657831514e-01	 2.4226739457e-01
 2.2916891332e+00	 9.9908084084e-01	 1.0137576054e-01
 2.2682138859e+00	 1.0512882799e+00	-2.9874733738e-02
 2.0737913944e+00	 9.6117592852e-01	 1.0255621780e-01
 2.0511452415e+00	 1.0085994102e+00	-2.5419839583e-02
 2.0273219727e+00	 1.0556679474e+00	-1.4779793442e-01
 2.0023281350e+00	 1.1023388122e+00	-2.6454970030e-01
 1.9761723037e+00	 1.1485693220e+00	-3.7590672204e-01
 1.9488650938e+00	 1.1943169586e+00	-4.8237240774e-01
 1.9204191633e+00	 1.2395394879e+00	-5.8473195344e-01
 1.8908492074e+00	 1.2841950821e+00	-6.8405966826e-01
 1.8601719448e+00	 1.3282424406e+00	-7.8172287737e-01
 1.8284060949e+00	 1.3716409122e+00	-8.7938160043e-01
 1.7955723466e+00	 1.4143506146e+00	-9.7898322144e-01
 2.0932338035e+00	 9.7018723777e-01	 8.8439525192e-02
 2.0703753362e+00	 1.0180553286e+00	-3.6023910017e-02
 2.0463287172e+00	 1.0655651473e+00	-1.5500018259e-01
 2.0211005548e+00	 1.1126735653e+00	-2.6852847960e-01
 1.9946995048e+00	 1.1593374999e+00	-3.7692230080e-01
 1.9671362818e+00	 1.2055140341e+00	-4.8078180191e-01
 1.9384236623e+00	 1.2511605381e+00	-5.8100421767e-01
 1.9085764793e+00	 1.2962347916e+00	-6.7879158403e-01
 1.8776116082e+00	 1.3406951072e+00	-7.7565492199e-01
 1.8455479440e+00	 1.3845004523e+00	-8.7341402299e-01
 1.8124063697e+00	 1.4276105709e+00	-9.7419199238e-01
 2.1126762194e+00	 9.7919855017e-01	 7.3658777067e-02
 2.0896054376e+00	 1.0275112504e+00	-4.7704165375e-02
 2.0653354683e+00	 1.0754623507e+00	-1.6354435024e-01
 2.0398729812e+00	 1.1230083221e+00	-2.7399256537e-01
 2.0132267124e+00	 1.1701056815e+00	-3.7946714924e-01
 1.9854074761e+00	 1.2167111136e+00	-4.8068668537e-01
 1.9564281675e+00	 1.2627815923e+00	-5.7868078016e-01
 1.9263037573e+00	 1.3082745054e+00	-6.7479809346e-01
 1.8950512777e+00	 1.3531477782e+00	-7.7071072859e-01
 1.8626897992e+00	 1.3973599970e+00	-8.6841406153e-01
 1.8292403986e+00	 1.4408705318e+00	-9.6954975003e-01
 2.1321186261e+00	 9.8820985837e-01	 5.8547674922e-02
 2.1088355300e+00	 1.0369671677e+00	-6.0193491868e-02
 2.0843422105e+00	 1.0853595495e+00	-1.7322352850e-01
 2.0586453988e+00	 1.1333430740e+00	-2.8078829365e-01
 2.0317539114e+00	 1.1808738582e+00	-3.8343332229e-01
 2.0036786620e+00	 1.2279081878e+00	-4.8201675862e-01
 1.9744326643e+00	 1.2744026411e+00	-5.7772039266e-01
 1.9440310270e+00	 1.3203142136e+00	-6.7205791889e-01
 1.9124909390e+00	 1.3656004434e+00	-7.6687946590e-01
 1.8798316463e+00	 1.4102195356e+00	-8.6437141457e-01
 1.8460744196e+00	 1.4541304865e+00	-9.6421560986e-01
 2.1515610080e+00	 9.9722115501e-01	 4.3432906101e-02
 2.1280655977e+00	 1.0464230730e+00	-7.3229242298e-02
 2.1033489284e+00	 1.0952567356e+00	-1.8383297315e-01
 2.0774177924e+00	 1.1436778126e+00	-2.8876212012e-01
 2.0502810866e+00	 1.1916420209e+00	-3.8871121628e-01
 2.0219498243e+00	 1.2391052476e+00	-4.8469856014e-01
 1.9924371380e+00	 1.2860236749e+00	-5.7807742314e-01
 1.9617582741e+00	 1.3323539063e+00	-6.7054446419e-01
 1.9299305780e+00	 1.3780530925e+00	-7.6414434081e-01
 1.8969734714e+00	 1.4230790578e+00	-8.6126946980e-01
 1.8629084191e+00	 1.4673904243e+00	-9.5827919801e-01
 2.1710033490e+00	 1.0062324327e+00	 2.8634348442e-02
 2.1472956251e+00	 1.0558789583e+00	-8.6553176025e-02
 2.1223556063e+00	 1.1051539009e+00	-1.9517017929e-01
 2.0961901465e+00	 1.1540125296e+00	-2.9776081864e-01
 2.0688082229e+00	 1.2024101611e+00	-3.9518987926e-01
 2.0402209484e+00	 1.2503022839e+00	-4.8865587573e-01
 2.0104415740e+00	 1.2976446844e+00	-5.7970235032e-01
 1.9794854838e+00	 1.3443935737e+00	-6.7022637982e-01
 1.9473701804e+00	 1.3905057156e+00	-7.6248321843e-01
 1.9141152606e+00	 1.4359385529e+00	-8.5886982526e-01
 1.8797423832e+00	 1.4806503341e+00	-9.5183436219e-01
 2.1904456333e+00	 1.0152436842e+00	 1.4465253694e-02
 2.1665255964e+00	 1.0653348161e+00	-9.9911413560e-02
 2.1413622288e+00	 1.1150510373e+00	-2.0703496463e-01
 2.1149624458e+00	 1.1643472164e+00	-3.0763168278e-01
 2.0873353052e+00	 1.2131782699e+00	-4.0275731963e-01
 2.0584920191e+00	 1.2614992876e+00	-4.9381014192e-01
 2.0284459574e+00	 1.3092656600e+00	-5.8254224884e-01
 1.9972126419e+00	 1.3564332061e+00	-6.7106811577e-01
 1.9648097319e+00	 1.4029583023e+00	-7.6186922817e-01
 1.9312569997e+00	 1.4487980105e+00	-8.5620425676e-01
 1.8965762982e+00	 1.4939102053e+00	-9.4497483509e-01
 2.2098878450e+00	 1.0242549019e+00	 1.2324110069e-03
 2.1857554959e+00	 1.0747906386e+00	-1.1305440487e-01
 2.1603687804e+00	 1.1249481368e+00	-2.1922956072e-01
 2.1337346751e+00	 1.1746818647e+00	-3.1822273030e-01
 2.1058623183e+00	 1.2239463385e+00	-4.1130081306e-01
 2.0767630216e+00	 1.2726962495e+00	-5.0008084384e-01
 2.0464502736e+00	 1.3208865922e+00	-5.8654126553e-01
 2.0149397338e+00	 1.3684727934e+00	-6.7303046316e-01
 1.9822492183e+00	 1.4154108425e+00	-7.6227135658e-01
 1.9483986749e+00	 1.4616574202e+00	-8.5323536385e-01
 1.9134101503e+00	 1.5071700270e+00	-9.3779437280e-01
 2.2293299683e+00	 1.0332660787e+00	-1.0763708288e-02
 2.2049853079e+00	 1.0842464180e+00	-1.2573691060e-01
 2.1793752454e+00	 1.1348451913e+00	-2.3155871183e-01
 2.1525068190e+00	 1.1850164659e+00	-3.2938291030e-01
 2.1243892471e+00	 1.2347143580e+00	-4.2070720787e-01
 2.0950339410e+00	 1.2838931604e+00	-5.0738590779e-01
 2.0644545078e+00	 1.3325074715e+00	-5.9164108745e-01
 2.0326667451e+00	 1.3805123260e+00	-6.7607108503e-01
 1.9996886253e+00	 1.4278633261e+00	-7.6365502771e-01
 1.9655402720e+00	 1.4745167713e+00	-8.5005204606e-01
 1.9302439259e+00	 1.5204297883e+00	-9.3038687935e-01
 2.2487719872e+00	 1.0422772072e+00	-2.1228823471e-02
 2.2242150166e+00	 1.0937021467e+00	-1.3771799532e-01
 2.1983816085e+00	 1.1447421926e+00	-2.4382978073e-01
 2.1712788621e+00	 1.1953510116e+00	-3.4096231291e-01
 2.1429160765e+00	 1.2454823198e+00	-4.3086322892e-01
 2.1133047623e+00	 1.2950900113e+00	-5.1564208887e-01
 2.0824586455e+00	 1.3441282884e+00	-5.9778140208e-01
 2.0503936612e+00	 1.3925517940e+00	-6.8014503716e-01
 2.0171279388e+00	 1.4403157428e+00	-7.6551097756e-01
 1.9826817772e+00	 1.4873760534e+00	-8.4674357239e-01
 1.9470776111e+00	 1.5336894785e+00	-9.2284651850e-01
 2.2682138859e+00	 1.0512882799e+00	-2.9874733738e-02
 2.2434446065e+00	 1.1031578170e+00	-1.4876103220e-01
 2.2173878540e+00	 1.1546391327e+00	-2.5585286129e-01
 2.1900507892e+00	 1.2056854935e+00	-3.5281238137e-01
 2.1614427913e+00	 1.2562502150e+00	-4.4165578008e-01
 2.1315754707e+00	 1.3062867929e+00	-5.2476535402e-01
 2.1004626718e+00	 1.3557490335e+00	-6.0490035013e-01
 2.0681204677e+00	 1.4045911875e+00	-6.8520527939e-01
 2.0345671444e+00	 1.4527680825e+00	-7.6728066274e-01
 1.9998231764e+00	 1.5002352560e+00	-8.4339967953e-01
 1.9639111922e+00	 1.5469490867e+00	-9.1526781317e-01
 1.7955723466e+00	 1.4143506146e+00	-9.7898322144e-01
 1.7616933135e+00	 1.4563325575e+00	-1.0791853878e+00
 1.7267934700e+00	 1.4975487698e+00	-1.1690543480e+00
 1.6908991101e+00	 1.5379624005e+00	-1.2480092399e+00
 1.6540382872e+00	 1.5775378237e+00	-1.3164360408e+00
 1.6162407423e+00	 1.6162407423e+00	-1.3747367959e+00
 1.5775378237e+00	 1.6540382872e+00	-1.4233274475e+00
 1.5379624005e+00	 1.6908991101e+00	-1.4626353641e+00
 1.4975487698e+00	 1.7267934700e+00	-1.4930965687e+00
 1.4563325575e+00	 1.7616933135e+00	-1.5151526675e+00
 1.4143506146e+00	 1.7955723466e+00	-1.5294126192e+00
 1.8124063697e+00	 1.4276105709e+00	-9.7419199238e-01
 1.7782097106e+00	 1.4699861070e+00	-1.0724444643e+00
 1.7429826707e+00	 1.5115887334e+00	-1.1604582757e+00
 1.7067517905e+00	 1.5523812539e+00	-1.2384737547e+00
 1.6695453865e+00	 1.5923277084e+00	-1.3067521725e+00
 1.6313934784e+00	 1.6313934784e+00	-1.3655704968e+00
 1.5923277084e+00	 1.6695453865e+00	-1.4152203294e+00
 1.5523812539e+00	 1.7067517905e+00	-1.4560065315e+00
 1.5115887334e+00	 1.7429826707e+00	-1.4882455250e+00
 1.4699861070e+00	 1.7782097106e+00	-1.5122632554e+00
 1.4276105709e+00	 1.8124063697e+00	-1.5283936310e+00
 1.8292403986e+00	 1.4408705318e+00	-9.6954975003e-01
 1.7947261134e+00	 1.4836396612e+00	-1.0648848653e+00
 1.7591718770e+00	 1.5256287020e+00	-1.1510358328e+00
 1.7226044764e+00	 1.5668001124e+00	-1.2281354770e+00
 1.6850524912e+00	 1.6071175983e+00	-1.2963294532e+00
 1.6465462198e+00	 1.6465462198e+00	-1.3557765111e+00
 1.6071175983e+00	 1.6850524912e+00	-1.4066484732e+00
 1.5668001124e+00	 1.7226044764e+00	-1.4491299087e+00
 1.5256287020e+00	 1.7591718770e+00	-1.4834174809e+00
 1.4836396612e+00	 1.7947261134e+00	-1.5097189403e+00
 1.4408705318e+00	 1.8292403986e+00	-1.5282517364e+00
 1.8460744196e+00	 1.4541304865e+00	-9.6421560986e-01
 1.8112425085e+00	 1.4972932090e+00	-1.0565972793e+00
 1.7753610758e+00	 1.5396686640e+00	-1.1408648848e+00
 1.7384571550e+00	 1.5812189641e+00	-1.2170501380e+00
 1.7005595886e+00	 1.6219074813e+00	-1.2851918532e+00
 1.6616989541e+00	 1.6616989541e+00	-1.3453371474e+00
 1.6219074813e+00	 1.7005595886e+00	-1.3975423919e+00
 1.5812189641e+00	 1.7384571550e+00	-1.4418738890e+00
 1.5396686640e+00	 1.7753610758e+00	-1.4784082401e+00
 1.4972932090e+00	 1.8112425085e+00	-1.5072323641e+00
 1.4541304865e+00	 1.8460744196e+00	-1.5284431260e+00
 1.8629084191e+00	 1.4673904243e+00	-9.5827919801e-01
 1.8277588824e+00	 1.5109467393e+00	-1.0476721603e+00
 1.7915502538e+00	 1.5537086080e+00	-1.1300235722e+00
 1.7543098132e+00	 1.5956377973e+00	-1.2052745720e+00
 1.7160666662e+00	 1.6366973454e+00	-1.2733656063e+00
 1.6768516689e+00	 1.6768516689e+00	-1.3342384800e+00
 1.6366973454e+00	 1.7160666662e+00	-1.3878382168e+00
 1.5956377973e+00	 1.7543098132e+00	-1.4341146939e+00
 1.5537086080e+00	 1.7915502538e+00	-1.4730240054e+00
 1.5109467393e+00	 1.8277588824e+00	-1.5045295033e+00
 1.4673904243e+00	 1.8629084191e+00	-1.5286024598e+00
 1.8797423832e+00	 1.4806503341e+00	-9.5183436219e-01
 1.8442752216e+00	 1.5246002410e+00	-1.0381998856e+00
 1.8077393978e+00	 1.5677485225e+00	-1.1185904426e+00
 1.7701624381e+00	 1.6100566002e+00	-1.1928668112e+00
 1.7315737111e+00	 1.6514871783e+00	-1.2608792517e+00
 1.6920043519e+00	 1.6920043519e+00	-1.3224703235e+00
 1.6514871783e+00	 1.7315737111e+00	-1.3774775899e+00
 1.6100566002e+00	 1.7701624381e+00	-1.4257361669e+00
 1.5677485225e+00	 1.8077393978e+00	-1.4670810592e+00
 1.5246002410e+00	 1.8442752216e+00	-1.5013492206e+00
 1.4806503341e+00	 1.8797423832e+00	-1.5283812681e+00
 1.8965762982e+00	 1.4939102053e+00	-9.4497483509e-01
 1.8607915127e+00	 1.5382537028e+00	-1.0282708977e+00
 1.8239284946e+00	 1.5817883960e+00	-1.1066445695e+00
 1.7860150167e+00	 1.6244753611e+00	-1.1798861673e+00
 1.7470807109e+00	 1.6662769682e+00	-1.2477636663e+00
 1.7071569908e+00	 1.7071569908e+00	-1.3100262014e+00
 1.6662769682e+00	 1.7470807109e+00	-1.3664075541e+00
 1.6244753611e+00	 1.7860150167e+00	-1.4166295718e+00
 1.5817883960e+00	 1.8239284946e+00	-1.4604054547e+00
 1.5382537028e+00	 1.8607915127e+00	-1.4974428336e+00
 1.4939102053e+00	 1.8965762982e+00	-1.5274465544e+00
 1.9134101503e+00	 1.5071700270e+00	-9.3779437280e-01
 1.8773077421e+00	 1.5519071136e+00	-1.0179758322e+00
 1.8401175309e+00	 1.5958282171e+00	-1.0942656585e+00
 1.8018675362e+00	 1.6388940682e+00	-1.1663933038e+00
 1.7625876527e+00	 1.6810667028e+00	-1.2340520893e+00
 1.7223095730e+00	 1.7223095730e+00	-1.2969033105e+00
 1.6810667028e+00	 1.7625876527e+00	-1.3545804439e+00
 1.6388940682e+00	 1.8018675362e+00	-1.4066933954e+00
 1.5958282171e+00	 1.8401175309e+00	-1.4528327168e+00
 1.5519071136e+00	 1.8773077421e+00	-1.4925736998e+00
 1.5071700270e+00	 1.9134101503e+00	-1.5254802508e+00
 1.9302439259e+00	 1.5204297883e+00	-9.3038687935e-01
 1.8938238963e+00	 1.5655604624e+00	-1.0074056328e+00
 1.8563064936e+00	 1.6098679744e+00	-1.0815341406e+00
 1.8177199836e+00	 1.6533127096e+00	-1.1524502959e+00
 1.7780945240e+00	 1.6958563701e+00	-1.2197801376e+00
 1.7374620864e+00	 1.7374620864e+00	-1.2831024789e+00
 1.6958563701e+00	 1.7780945240e+00	-1.3419537736e+00
 1.6533127096e+00	 1.8177199836e+00	-1.3958331531e+00
 1.6098679744e+00	 1.8563064936e+00	-1.4442075513e+00
 1.5655604624e+00	 1.8938238963e+00	-1.4865168165e+00
 1.5204297883e+00	 1.9302439259e+00	-1.5221786951e+00
 1.9470776111e+00	 1.5336894785e+00	-9.2284651850e-01
 1.9103399619e+00	 1.5792137378e+00	-9.9665165294e-01
 1.8724953694e+00	 1.6239076563e+00	-1.0685312540e+00
 1.8335723459e+00	 1.6677312737e+00	-1.1381206819e+00
 1.7936013121e+00	 1.7106459580e+00	-1.2049858143e+00
 1.7526145184e+00	 1.7526145184e+00	-1.2686281203e+00
 1.7106459580e+00	 1.7936013121e+00	-1.3284901253e+00
 1.6677312737e+00	 1.8335723459e+00	-1.3839611978e+00
 1.6239076563e+00	 1.8724953694e+00	-1.4343835637e+00
 1.5792137378e+00	 1.9103399619e+00	-1.4790584356e+00
 1.5336894785e+00	 1.9470776111e+00	-1.5172521283e+00
 1.9639111922e+00	 1.5469490867e+00	-9.1526781317e-01
 1.9268559254e+00	 1.5928669288e+00	-9.8580574631e-01
 1.8886841451e+00	 1.6379472514e+00	-1.0553391152e+00
 1.8494246102e+00	 1.6821497486e+00	-1.1234695040e+00
 1.8091080043e+00	 1.7254354545e+00	-1.1897095098e+00
 1.7677668567e+00	 1.7677668567e+00	-1.2534881835e+00
 1.7254354545e+00	 1.8091080043e+00	-1.3141570355e+00
 1.6821497486e+00	 1.8494246102e+00	-1.3709965328e+00
 1.6379472514e+00	 1.8886841451e+00	-1.4232229844e+00
 1.5928669288e+00	 1.9268559254e+00	-1.4699956909e+00
 1.5469490867e+00	 1.9639111922e+00	-1.5104242125e+00
 1.4143506146e+00	 1.7955723466e+00	-1.5294126192e+00
 1.3716409122e+00	 1.8284060949e+00	-1.5383771094e+00
 1.3282424406e+00	 1.8601719448e+00	-1.5432416295e+00
 1.2841950821e+00	 1.8908492074e+00	-1.5445889221e+00
 1.2395394879e+00	 1.9204191633e+00	-1.5427843248e+00
 1.1943169586e+00	 1.9488650938e+00	-1.5379897376e+00
 1.1485693220e+00	 1.9761723037e+00	-1.5301790499e+00
 1.1023388122e+00	 2.0023281350e+00	-1.5191546145e+00
 1.0556679474e+00	 2.0273219727e+00	-1.5045643910e+00
 1.0085994102e+00	 2.0511452415e+00	-1.4859194268e+00
 9.6117592852e-01	 2.0737913944e+00	-1.4626113910e+00
 1.4276105709e+00	 1.8124063697e+00	-1.5283936310e+00
 1.3845004523e+00	 1.8455479440e+00	-1.5382640578e+00
 1.3406951072e+00	 1.8776116082e+00	-1.5437162456e+00
 1.2962347916e+00	 1.9085764793e+00	-1.5454356387e+00
 1.2511605381e+00	 1.9384236623e+00	-1.5438730460e+00
 1.2055140341e+00	 1.9671362818e+00	-1.5392588788e+00
 1.1593374999e+00	 1.9946995048e+00	-1.5316189301e+00
 1.1126735653e+00	 2.0211005548e+00	-1.5207912668e+00
 1.0655651473e+00	 2.0463287172e+00	-1.5064438417e+00
 1.0180553286e+00	 2.0703753362e+00	-1.4880924820e+00
 9.7018723777e-01	 2.0932338035e+00	-1.4651189599e+00
 1.4408705318e+00	 1.8292403986e+00	-1.5282517364e+00
 1.3973599970e+00	 1.8626897992e+00	-1.5394965810e+00
 1.3531477782e+00	 1.8950512777e+00	-1.5458288580e+00
 1.3082745054e+00	 1.9263037573e+00	-1.5481295875e+00
 1.2627815923e+00	 1.9564281675e+00	-1.5469069487e+00
 1.2167111136e+00	 1.9854074761e+00	-1.5424417690e+00
 1.1701056815e+00	 2.0132267124e+00	-1.5348036759e+00
 1.1230083221e+00	 2.0398729812e+00	-1.5238683392e+00
 1.0754623507e+00	 2.0653354683e+00	-1.5093354002e+00
 1.0275112504e+00	 2.0896054376e+00	-1.4907467347e+00
 9.7919855017e-01	 2.1126762194e+00	-1.4675047505e+00
 1.4541304865e+00	 1.8460744196e+00	-1.5284431260e+00
 1.4102195356e+00	 1.8798316463e+00	-1.5416422127e+00
 1.3656004434e+00	 1.9124909390e+00	-1.5491064965e+00
 1.3203142136e+00	 1.9440310270e+00	-1.5521972098e+00
 1.2744026411e+00	 1.9744326643e+00	-1.5514524899e+00
 1.2279081878e+00	 2.0036786620e+00	-1.5471859991e+00
 1.1808738582e+00	 2.0317539114e+00	-1.5395034684e+00
 1.1333430740e+00	 2.0586453988e+00	-1.5283202256e+00
 1.0853595495e+00	 2.0843422105e+00	-1.5133792924e+00
 1.0369671677e+00	 2.1088355300e+00	-1.4942696914e+00
 9.8820985837e-01	 2.1321186261e+00	-1.4704446658e+00
 1.4673904243e+00	 1.8629084191e+00	-1.5286024598e+00
 1.4230790578e+00	 1.8969734714e+00	-1.5442847458e+00
 1.3780530925e+00	 1.9299305780e+00	-1.5530938407e+00
 1.3323539063e+00	 1.9617582741e+00	-1.5571825301e+00
 1.2860236749e+00	 1.9924371380e+00	-1.5570921594e+00
 1.2391052476e+00	 2.0219498243e+00	-1.5531521377e+00
 1.1916420209e+00	 2.0502810866e+00	-1.5454968953e+00
 1.1436778126e+00	 2.0774177924e+00	-1.5340836334e+00
 1.0952567356e+00	 2.1033489284e+00	-1.5187104426e+00
 1.0464230730e+00	 2.1280655977e+00	-1.4990344289e+00
 9.9722115501e-01	 2.1515610080e+00	-1.4745895517e+00
 1.4806503341e+00	 1.8797423832e+00	-1.5283812681e+00
 1.4359385529e+00	 1.9141152606e+00	-1.5469681551e+00
 1.3905057156e+00	 1.9473701804e+00	-1.5573525581e+00
 1.3443935737e+00	 1.9794854838e+00	-1.5626464988e+00
 1.2976446844e+00	 2.0104415740e+00	-1.5634238921e+00
 1.2503022839e+00	 2.0402209484e+00	-1.5600132809e+00
 1.2024101611e+00	 2.0688082229e+00	-1.5525707045e+00
 1.1540125296e+00	 2.0961901465e+00	-1.5410976076e+00
 1.1051539009e+00	 2.1223556063e+00	-1.5254588367e+00
 1.0558789583e+00	 2.1472956251e+00	-1.5054003620e+00
 1.0062324327e+00	 2.1710033490e+00	-1.4805664357e+00
 1.4939102053e+00	 1.8965762982e+00	-1.5274465544e+00
 1.4487980105e+00	 1.9312569997e+00	-1.5490454961e+00
 1.4029583023e+00	 1.9648097319e+00	-1.5614606756e+00
 1.3564332061e+00	 1.9972126419e+00	-1.5681663685e+00
 1.3092656600e+00	 2.0284459574e+00	-1.5700605120e+00
 1.2614992876e+00	 2.0584920191e+00	-1.5674546264e+00
 1.2131782699e+00	 2.0873353052e+00	-1.5605195712e+00
 1.1643472164e+00	 2.1149624458e+00	-1.5493035546e+00
 1.1150510373e+00	 2.1413622288e+00	-1.5337498654e+00
 1.0653348161e+00	 2.1665255964e+00	-1.5137139706e+00
 1.0152436842e+00	 2.1904456333e+00	-1.4889797003e+00
 1.5071700270e+00	 1.9134101503e+00	-1.5254802508e+00
 1.4616574202e+00	 1.9483986749e+00	-1.5500982038e+00
 1.4154108425e+00	 1.9822492183e+00	-1.5650119856e+00
 1.3684727934e+00	 2.0149397338e+00	-1.5733351052e+00
 1.3208865922e+00	 2.0464502736e+00	-1.5766292061e+00
 1.2726962495e+00	 2.0767630216e+00	-1.5751730693e+00
 1.2239463385e+00	 2.1058623183e+00	-1.5691458772e+00
 1.1746818647e+00	 2.1337346751e+00	-1.5586452652e+00
 1.1249481368e+00	 2.1603687804e+00	-1.5437046508e+00
 1.0747906386e+00	 2.1857554959e+00	-1.5243094896e+00
 1.0242549019e+00	 2.2098878450e+00	-1.5004121956e+00
 1.5204297883e+00	 1.9302439259e+00	-1.5221786951e+00
 1.4745167713e+00	 1.9655402720e+00	-1.5497552876e+00
 1.4278633261e+00	 1.9996886253e+00	-1.5676154820e+00
 1.3805123260e+00	 2.0326667451e+00	-1.5777608281e+00
 1.3325074715e+00	 2.0644545078e+00	-1.5827710251e+00
 1.2838931604e+00	 2.0950339410e+00	-1.5828768204e+00
 1.2347143580e+00	 2.1243892471e+00	-1.5782595021e+00
 1.1850164659e+00	 2.1525068190e+00	-1.5690689362e+00
 1.1348451913e+00	 2.1793752454e+00	-1.5554403560e+00
 1.0842464180e+00	 2.2049853079e+00	-1.5375095627e+00
 1.0332660787e+00	 2.2293299683e+00	-1.5154262938e+00
 1.5336894785e+00	 1.9470776111e+00	-1.5172521283e+00
 1.4873760534e+00	 1.9826817772e+00	-1.5476619004e+00
 1.4403157428e+00	 2.0171279388e+00	-1.5687354201e+00
 1.3925517940e+00	 2.0503936612e+00	-1.5810662801e+00
 1.3441282884e+00	 2.0824586455e+00	-1.5881404109e+00
 1.2950900113e+00	 2.1133047623e+00	-1.5902850443e+00
 1.2454823198e+00	 2.1429160765e+00	-1.5876776266e+00
 1.1953510116e+00	 2.1712788621e+00	-1.5805231923e+00
 1.1447421926e+00	 2.1983816085e+00	-1.5690704796e+00
 1.0937021467e+00	 2.2242150166e+00	-1.5536258640e+00
 1.0422772072e+00	 2.2487719872e+00	-1.5345648906e+00
 1.5469490867e+00	 1.9639111922e+00	-1.5104242125e+00
 1.5002352560e+00	 1.9998231764e+00	-1.5434787638e+00
 1.4527680825e+00	 2.0345671444e+00	-1.5678034834e+00
 1.4045911875e+00	 2.0681204677e+00	-1.5828883249e+00
 1.3557490335e+00	 2.1004626718e+00	-1.5924047480e+00
 1.3062867929e+00	 2.1315754707e+00	-1.5971275158e+00
 1.2562502150e+00	 2.1614427913e+00	-1.5972245451e+00
 1.2056854935e+00	 2.1900507892e+00	-1.5929591067e+00
 1.1546391327e+00	 2.2173878540e+00	-1.5847051351e+00
 1.1031578170e+00	 2.2434446065e+00	-1.5729596867e+00
 1.0512882799e+00	 2.2682138859e+00	-1.5583523545e+00
 9.6117592852e-01	 2.0737913944e+00	-1.4626113910e+00
 9.1344350855e-01	 2.0952544346e+00	-1.4354828759e+00
 8.6544129560e-01	 2.1155334439e+00	-1.4063106065e+00
 8.1721144636e-01	 2.1346278269e+00	-1.3759359133e+00
 7.6879571754e-01	 2.1525388938e+00	-1.3453598289e+00
 7.2023536440e-01	 2.1692698131e+00	-1.3157378042e+00
 6.7157104412e-01	 2.1848255574e+00	-1.2883729564e+00
 6.2284272446e-01	 2.1992128449e+00	-1.2647080878e+00
 5.7408959798e-01	 2.2124400746e+00	-1.2463167252e+00
 5.2535000204e-01	 2.2245172578e+00	-1.2348934382e+00
 4.7666134484e-01	 2.2354559461e+00	-1.2322436854e+00
 9.7018723777e-01	 2.0932338035e+00	-1.4651189599e+00
 9.2200731222e-01	 2.1148980661e+00	-1.4389757228e+00
 8.7355506428e-01	 2.1353671971e+00	-1.4119396305e+00
 8.2487304591e-01	 2.1546405955e+00	-1.3846842428e+00
 7.7600340529e-01	 2.1727195840e+00	-1.3580662946e+00
 7.2698778444e-01	 2.1896073606e+00	-1.3331204529e+00
 6.7786722173e-01	 2.2053089447e+00	-1.3110523662e+00
 6.2868205963e-01	 2.2198311173e+00	-1.2932302673e+00
 5.7947185814e-01	 2.2331823561e+00	-1.2811754066e+00
 5.3027531404e-01	 2.2453727665e+00	-1.2765515994e+00
 4.8113018625e-01	 2.2564140083e+00	-1.2811541628e+00
 9.7919855017e-01	 2.1126762194e+00	-1.4675047505e+00
 9.3057111888e-01	 2.1345417043e+00	-1.4417523640e+00
 8.8166883581e-01	 2.1552009572e+00	-1.4163800187e+00
 8.3253464815e-01	 2.1746533712e+00	-1.3919573591e+00
 7.8321109556e-01	 2.1929002813e+00	-1.3692307528e+00
 7.3374020685e-01	 2.2099449152e+00	-1.3491188322e+00
 6.8416340155e-01	 2.2257923391e+00	-1.3327062866e+00
 6.3452139685e-01	 2.2404493968e+00	-1.3212361726e+00
 5.8485412018e-01	 2.2539246449e+00	-1.3161010293e+00
 5.3520062776e-01	 2.2662282825e+00	-1.3188330865e+00
 4.8559902922e-01	 2.2773720777e+00	-1.3310938532e+00
 9.8820985837e-01	 2.1321186261e+00	-1.4704446658e+00
 9.3913492154e-01	 2.1541853335e+00	-1.4447346008e+00
 8.8978260356e-01	 2.1750347080e+00	-1.4206728486e+00
 8.4019624681e-01	 2.1946661375e+00	-1.3987881296e+00
 7.9041878246e-01	 2.2130809691e+00	-1.3797500562e+00
 7.4049262610e-01	 2.2302824604e+00	-1.3643661890e+00
 6.9045957842e-01	 2.2462757240e+00	-1.3535774960e+00
 6.4036073134e-01	 2.2610676667e+00	-1.3484524749e+00
 5.9023637971e-01	 2.2746669240e+00	-1.3501802146e+00
 5.4012593919e-01	 2.2870837888e+00	-1.3600626748e+00
 4.9006787010e-01	 2.2983301375e+00	-1.3795064608e+00
 9.9722115501e-01	 2.1515610080e+00	-1.4745895517e+00
 9.4769871322e-01	 2.1738289374e+00	-1.4488100761e+00
 8.9789636089e-01	 2.1948684334e+00	-1.4258205084e+00
 8.4785783564e-01	 2.2146788781e+00	-1.4061708075e+00
 7.9762646012e-01	 2.2332616311e+00	-1.3904871405e+00
 7.4724503669e-01	 2.2506199795e+00	-1.3794711692e+00
 6.9675574722e-01	 2.2667590825e+00	-1.3738980851e+00
 6.4620005833e-01	 2.2816859102e+00	-1.3746136281e+00
 5.9561863234e-01	 2.2954091765e+00	-1.3825303387e+00
 5.4505124429e-01	 2.3079392683e+00	-1.3986232955e+00
 4.9453670525e-01	 2.3192881703e+00	-1.4239255855e+00
 1.0062324327e+00	 2.1710033490e+00	-1.4805664357e+00
 9.5626248691e-01	 2.1934725001e+00	-1.4548339149e+00
 9.0601010118e-01	 2.2147021171e+00	-1.4327885344e+00
 8.5551940838e-01	 2.2346915767e+00	-1.4150628590e+00
 8.0483412264e-01	 2.2534422507e+00	-1.4022726333e+00
 7.5399743310e-01	 2.2709574558e+00	-1.3950190012e+00
 7.0305190280e-01	 2.2872423981e+00	-1.3938900087e+00
 6.5203937307e-01	 2.3023041104e+00	-1.3994615857e+00
 6.0100087366e-01	 2.3161513854e+00	-1.4122982124e+00
 5.4997653905e-01	 2.3287947040e+00	-1.4329534791e+00
 4.9900553101e-01	 2.3402461591e+00	-1.4619707375e+00
 1.0152436842e+00	 2.1904456333e+00	-1.4889797003e+00
 9.6482623563e-01	 2.2131160055e+00	-1.4636302784e+00
 9.1412381781e-01	 2.2345357430e+00	-1.4425073509e+00
 8.6318095878e-01	 2.2547042170e+00	-1.4263866931e+00
 8.1204176414e-01	 2.2736228114e+00	-1.4159063779e+00
 7.6074980981e-01	 2.2912948729e+00	-1.4115726171e+00
 7.0934804001e-01	 2.3077256539e+00	-1.4137656093e+00
 6.5787867077e-01	 2.3229222504e+00	-1.4227455328e+00
 6.0638309928e-01	 2.3368935339e+00	-1.4386588309e+00
 5.5490181945e-01	 2.3496500789e+00	-1.4615449356e+00
 5.0347434374e-01	 2.3612040868e+00	-1.4913435631e+00
 1.0242549019e+00	 2.2098878450e+00	-1.5004121956e+00
 9.7338995237e-01	 2.2327594375e+00	-1.4759938375e+00
 9.2223750414e-01	 2.2543692948e+00	-1.4558739198e+00
 8.7084248057e-01	 2.2747167825e+00	-1.4410313021e+00
 8.1924937872e-01	 2.2938032968e+00	-1.4321588780e+00
 7.6750216131e-01	 2.3116322140e+00	-1.4296737159e+00
 7.1564415372e-01	 2.3282088333e+00	-1.4337281137e+00
 6.6371794667e-01	 2.3435403135e+00	-1.4442216333e+00
 6.1176530481e-01	 2.3576356049e+00	-1.4608141901e+00
 5.5982708145e-01	 2.3705053760e+00	-1.4829402625e+00
 5.0794313978e-01	 2.3821619362e+00	-1.5098242708e+00
 1.0332660787e+00	 2.2293299683e+00	-1.5154262938e+00
 9.8195363015e-01	 2.2524027802e+00	-1.4926911687e+00
 9.3035115356e-01	 2.2742027564e+00	-1.4737533039e+00
 8.7850396750e-01	 2.2947292570e+00	-1.4598538159e+00
 8.2645696052e-01	 2.3139836903e+00	-1.4517726668e+00
 7.7425448209e-01	 2.3319694626e+00	-1.4498437716e+00
 7.2194023877e-01	 2.3486919194e+00	-1.4539721042e+00
 6.6955719600e-01	 2.3641582828e+00	-1.4636527901e+00
 6.1714748584e-01	 2.3783775815e+00	-1.4779921657e+00
 5.6475232104e-01	 2.3913605781e+00	-1.4957307734e+00
 5.1241191549e-01	 2.4031196903e+00	-1.5152682439e+00
 1.0422772072e+00	 2.2487719872e+00	-1.5345648906e+00
 9.9051726197e-01	 2.2720460174e+00	-1.5144620794e+00
 9.3846475943e-01	 2.2940361116e+00	-1.4969801509e+00
 8.8616541331e-01	 2.3147416240e+00	-1.4836809772e+00
 8.3366450363e-01	 2.3341639756e+00	-1.4754636070e+00
 7.8100676663e-01	 2.3523066020e+00	-1.4725849892e+00
 7.2823629004e-01	 2.3691748957e+00	-1.4746839659e+00
 6.7539641399e-01	 2.3847761414e+00	-1.4808084196e+00
 6.2252963799e-01	 2.3991194469e+00	-1.4894454504e+00
 5.6967753420e-01	 2.4122156683e+00	-1.4985544390e+00
 5.1688066722e-01	 2.4240773319e+00	-1.5056028291e+00
 1.0512882799e+00	 2.2682138859e+00	-1.5583523545e+00
 9.9908084084e-01	 2.2916891332e+00	-1.5420208657e+00
 9.4657831514e-01	 2.3138693441e+00	-1.5263601007e+00
 8.9382681175e-01	 2.3347538674e+00	-1.5133105418e+00
 8.4087200217e-01	 2.3543441361e+00	-1.5039221233e+00
 7.8775900942e-01	 2.3726436157e+00	-1.4983812134e+00
 7.3453230238e-01	 2.3896577453e+00	-1.4960423121e+00
 6.8123559588e-01	 2.4053938725e+00	-1.4954642367e+00
 6.2791175686e-01	 2.4198611839e+00	-1.4944505465e+00
 5.7460271690e-01	 2.4330706296e+00	-1.4900939351e+00
 5.2134939130e-01	 2.4450348439e+00	-1.4788242911e+00
 4.7666134484e-01	 2.2354559461e+00	-1.2322436854e+00
 4.2805664765e-01	 2.2452698030e+00	-1.2253512786e+00
 3.7957472218e-01	 2.2539724279e+00	-1.2029857642e+00
 3.3124986124e-01	 2.2615795308e+00	-1.1691379229e+00
 2.8311519182e-01	 2.2681080442e+00	-1.1270566806e+00
 2.3520263264e-01	 2.2735760387e+00	-1.0792769365e+00
 1.8754285777e-01	 2.2780026387e+00	-1.0276517035e+00
 1.4016526658e-01	 2.2814079369e+00	-9.7338803588e-01
 9.3097959508e-02	 2.2838129101e+00	-9.1708619295e-01
 4.6367719656e-02	 2.2852393344e+00	-8.5878147373e-01
 0.0000000000e+00	 2.2857097023e+00	-7.9798815127e-01
 4.8113018625e-01	 2.2564140083e+00	-1.2811541628e+00
 4.3206980561e-01	 2.2663198730e+00	-1.2799716051e+00
 3.8313334772e-01	 2.2751040876e+00	-1.2603936380e+00
 3.3435542688e-01	 2.2827825093e+00	-1.2273276051e+00
 2.8576948067e-01	 2.2893722295e+00	-1.1849169746e+00
 2.3740772704e-01	 2.2948914881e+00	-1.1365636429e+00
 1.8930112766e-01	 2.2993595887e+00	-1.0849551152e+00
 1.4147935751e-01	 2.3027968126e+00	-1.0320960498e+00
 9.3970780476e-02	 2.3052243331e+00	-9.7934361874e-01
 4.6802430773e-02	 2.3066641305e+00	-9.2744611542e-01
 0.0000000000e+00	 2.3071389083e+00	-8.7658422783e-01
 4.8559902922e-01	 2.2773720777e+00	-1.3310938532e+00
 4.3608296498e-01	 2.2873699503e+00	-1.3358693044e+00
 3.8669197450e-01	 2.2962357546e+00	-1.3192080475e+00
 3.3746099361e-01	 2.3039854953e+00	-1.2869307431e+00
 2.8842377045e-01	 2.3106364222e+00	-1.2441584561e+00
 2.3961282222e-01	 2.3162069448e+00	-1.1953244033e+00
 1.9105939816e-01	 2.3207165462e+00	-1.1441908218e+00
 1.4279344889e-01	 2.3241856958e+00	-1.0938705235e+00
 9.4843601750e-02	 2.3266357636e+00	-1.0468526537e+00
 4.7237142042e-02	 2.3280889342e+00	-1.0050321434e+00
 0.0000000000e+00	 2.3285681219e+00	-9.6974231947e-01
 4.9006787010e-01	 2.2983301375e+00	-1.3795064608e+00
 4.4009612247e-01	 2.3084200178e+00	-1.3897658154e+00
 3.9025059963e-01	 2.3173674118e+00	-1.3758618495e+00
 3.4056655889e-01	 2.3251884713e+00	-1.3445220527e+00
 2.9107805899e-01	 2.3319006049e+00	-1.3019233778e+00
 2.4181791636e-01	 2.3375223917e+00	-1.2536884787e+00
 1.9281766784e-01	 2.3420734937e+00	-1.2048869989e+00
 1.4410753966e-01	 2.3455745690e+00	-1.1600416147e+00
 9.5716422617e-02	 2.3480471842e+00	-1.1231384839e+00
 4.7671853108e-02	 2.3495137279e+00	-1.0976417045e+00
 0.0000000000e+00	 2.3499973254e+00	-1.0865113524e+00
 4.9453670525e-01	 2.3192881703e+00	-1.4239255855e+00
 4.4410927481e-01	 2.3294700583e+00	-1.4384985070e+00
 3.9380922018e-01	 2.3384990419e+00	-1.4269142282e+00
 3.4367212018e-01	 2.3463914201e+00	-1.3967974587e+00
 2.9373234412e-01	 2.3531647604e+00	-1.3554547430e+00
 2.4402300768e-01	 2.3588378112e+00	-1.3098503116e+00
 1.9457593526e-01	 2.3634304138e+00	-1.2665866001e+00
 1.4542162875e-01	 2.3669634147e+00	-1.2318893455e+00
 9.6589242363e-02	 2.3694585772e+00	-1.2115971010e+00
 4.8106563617e-02	 2.3709384941e+00	-1.2111549517e+00
 0.0000000000e+00	 2.3714265014e+00	-1.2356121596e+00
 4.9900553101e-01	 2.3402461591e+00	-1.4619707375e+00
 4.4812241873e-01	 2.3505200546e+00	-1.4790155193e+00
 3.9736783326e-01	 2.3596306276e+00	-1.4690450625e+00
 3.4677767495e-01	 2.3675943244e+00	-1.4405686839e+00
 2.9638662368e-01	 2.3744288713e+00	-1.4020918050e+00
 2.4622809436e-01	 2.3801531859e+00	-1.3620666127e+00
 1.9633419900e-01	 2.3847872891e+00	-1.3288466976e+00
 1.4673571507e-01	 2.3883522156e+00	-1.3106458469e+00
 9.7462060275e-02	 2.3908699253e+00	-1.3155010856e+00
 4.8541273212e-02	 2.3923632153e+00	-1.3512399836e+00
 0.0000000000e+00	 2.3928556324e+00	-1.4254521736e+00
 5.0347434374e-01	 2.3612040868e+00	-1.4913435631e+00
 4.5213555094e-01	 2.3715699896e+00	-1.5083708772e+00
 4.0092643597e-01	 2.3807621517e+00	-1.4990495927e+00
 3.4988322067e-01	 2.3887971669e+00	-1.4727581268e+00
 2.9904089549e-01	 2.3956929201e+00	-1.4392658061e+00
 2.4843317461e-01	 2.4014684984e+00	-1.4086536032e+00
 1.9809245760e-01	 2.4061441021e+00	-1.3912378573e+00
 1.4804979756e-01	 2.4097409540e+00	-1.3974974840e+00
 9.8334875640e-02	 2.4122812110e+00	-1.4380050837e+00
 4.8975981538e-02	 2.4137878740e+00	-1.5233622558e+00
 0.0000000000e+00	 2.4142847010e+00	-1.6641393383e+00
 5.0794313978e-01	 2.3821619362e+00	-1.5098242708e+00
 4.5614866816e-01	 2.3926198459e+00	-1.5237198642e+00
 4.0448502538e-01	 2.4018935969e+00	-1.5138333688e+00
 3.5298875478e-01	 2.4099999302e+00	-1.4903940089e+00
 3.0169515739e-01	 2.4169568895e+00	-1.4644959411e+00
 2.5063824663e-01	 2.4227837314e+00	-1.4479844027e+00
 1.9985070963e-01	 2.4275008353e+00	-1.4533435472e+00
 1.4936387514e-01	 2.4311296126e+00	-1.4935868690e+00
 9.9207687746e-02	 2.4336924167e+00	-1.5821509936e+00
 4.9410688241e-02	 2.4352124527e+00	-1.7327934955e+00
 0.0000000000e+00	 2.4357136895e+00	-1.9594952871e+00
 5.1241191549e-01	 2.4031196903e+00	-1.5152682439e+00
 4.6016176712e-01	 2.4136696064e+00	-1.5223146366e+00
 4.0804359860e-01	 2.4230249459e+00	-1.5104074631e+00
 3.5609427477e-01	 2.4312025970e+00	-1.4906057760e+00
 3.0434940722e-01	 2.4382207622e+00	-1.4753855325e+00
 2.5284330861e-01	 2.4440988674e+00	-1.4784865531e+00
 2.0160895366e-01	 2.4488574714e+00	-1.5147595774e+00
 1.5067794674e-01	 2.4525181739e+00	-1.6000147695e+00
 1.0008049588e-01	 2.4551035250e+00	-1.7508728826e+00
 4.9845392964e-02	 2.4566369340e+00	-1.9846201511e+00
 0.0000000000e+00	 2.4571425805e+00	-2.3190678332e+00
 5.1688066722e-01	 2.4240773319e+00	-1.5056028291e+00
 4.6417484454e-01	 2.4347192540e+00	-1.5015000661e+00
 4.1160215272e-01	 2.4441561815e+00	-1.4858839310e+00
 3.5919977808e-01	 2.4524051501e+00	-1.4706197385e+00
 3.0700364279e-01	 2.4594845207e+00	-1.4696184033e+00
 2.5504835875e-01	 2.4654138890e+00	-1.4986396718e+00
 2.0336718826e-01	 2.4702139928e+00	-1.5750935682e+00
 1.5199201129e-01	 2.4739066204e+00	-1.7178419177e+00
 1.0095329932e-01	 2.4765145183e+00	-1.9470016488e+00
 5.0280095354e-02	 2.4780613002e+00	-2.2837514033e+00
 0.0000000000e+00	 2.4785713565e+00	-2.7501428119e+00
 5.2134939130e-01	 2.4450348439e+00	-1.4788242911e+00
 4.6818789715e-01	 2.4557687714e+00	-1.4587097961e+00
 4.1516068483e-01	 2.4652872865e+00	-1.4374715051e+00
 3.6230526219e-01	 2.4736075720e+00	-1.4277549351e+00
 3.0965786195e-01	 2.4807481478e+00	-1.4449554370e+00
 2.5725339526e-01	 2.4867287788e+00	-1.5069732249e+00
 2.0512541197e-01	 2.4915703822e+00	-1.6339644461e+00
 1.5330606771e-01	 2.4952949347e+00	-1.8480907269e+00
 1.0182609737e-01	 2.4979253793e+00	-2.1732694435e+00
 5.0714795054e-02	 2.4994855340e+00	-2.6349267659e+00
 0.0000000000e+00	 2.5000000000e+00	-3.2597553161e+00
