x	y	stress_yy
 1.000000000000000e+00	 0.000000000000000e+00	 2.676300509696197e+01
 9.997942136041430e-01	 2.028591802679378e-02	 2.673342921771002e+01
 9.991701517322812e-01	 4.073043895732996e-02	 2.665363595387616e+01
 9.981179738659461e-01	 6.132242709398375e-02	 2.652178367959490e+01
 9.966281528999331e-01	 8.205016480108969e-02	 2.633647823251700e+01
 9.946915115410935e-01	 1.029013581149163e-01	 2.609680277223397e+01
 9.922992591451227e-01	 1.238631447915628e-01	 2.580234603798458e+01
 9.894430288203904e-01	 1.449221048859623e-01	 2.545322866104781e+01
 9.861149146151664e-01	 1.660642739430359e-01	 2.505012718290002e+01
 9.823075085927058e-01	 1.872751588682954e-01	 2.459429543006579e+01
 9.780139375877577e-01	 2.085397565298897e-01	 2.408758290094831e+01
 1.021428643505832e+00	 0.000000000000000e+00	 2.546247436291051e+01
 1.021218447386510e+00	 2.072061773363239e-02	 2.543528890987600e+01
 1.020581012714856e+00	 4.160323701545225e-02	 2.536343373148549e+01
 1.019506288103497e+00	 6.263648352503386e-02	 2.524522246386929e+01
 1.017984542294350e+00	 8.380838853377182e-02	 2.507937631936340e+01
 1.016006401337383e+00	 1.051063946350698e-01	 2.486505110859035e+01
 1.013562886216773e+00	 1.265173639646926e-01	 2.460186277677025e+01
 1.010645450749817e+00	 1.480275890064633e-01	 2.428991113981112e+01
 1.007246019571033e+00	 1.696228060660851e-01	 2.392980150230070e+01
 1.003357026001709e+00	 1.912882114818296e-01	 2.352266383997420e+01
 9.989714495940581e-01	 2.130084806252003e-01	 2.307016923386128e+01
 1.042857419516156e+00	 0.000000000000000e+00	 2.430312288639163e+01
 1.042642813646134e+00	 2.115532012778683e-02	 2.427832152077513e+01
 1.041992006092093e+00	 4.247604046947519e-02	 2.421379542850532e+01
 1.040894734596435e+00	 6.395054808032835e-02	 2.410800659707351e+01
 1.039341063746916e+00	 8.556662313721250e-02	 2.395978840667182e+01
 1.037321422935393e+00	 1.073114447890000e-01	 2.376837002595477e+01
 1.034826644773343e+00	 1.291715995493786e-01	 2.353339942304584e+01
 1.031848003785864e+00	 1.511330923292427e-01	 2.325496470487377e+01
 1.028377255192658e+00	 1.731813601931859e-01	 2.293361349539409e+01
 1.024406673572047e+00	 1.953012889102773e-01	 2.257037006434403e+01
 1.019929091192779e+00	 2.174772323533424e-01	 2.216674992315331e+01
 1.064286310530212e+00	 0.000000000000000e+00	 2.326786103003233e+01
 1.064067294885857e+00	 2.159002485435523e-02	 2.324541424092324e+01
 1.063403114377741e+00	 4.334884860678007e-02	 2.318763851060775e+01
 1.062283295876901e+00	 6.526461968691667e-02	 2.309313777386099e+01
 1.060697699815823e+00	 8.732486717572448e-02	 2.296085470763570e+01
 1.058636558927184e+00	 1.095165067760990e-01	 2.279009270156988e+01
 1.056090517448735e+00	 1.318258493781382e-01	 2.258053653120594e+01
 1.053050670612401e+00	 1.542386123182305e-01	 2.233227147200883e+01
 1.049508604222139e+00	 1.767399334182189e-01	 2.204580059064513e+01
 1.045456434112439e+00	 1.993143878762661e-01	 2.172205995175998e+01
 1.040886845267778e+00	 2.219460080647578e-01	 2.136243148388694e+01
 1.085715299047245e+00	 0.000000000000000e+00	 2.234091298570899e+01
 1.085491873608516e+00	 2.202473155843574e-02	 2.232077219834247e+01
 1.084814320085547e+00	 4.422166071474820e-02	 2.226919825436676e+01
 1.083671954477038e+00	 6.657869727184827e-02	 2.218493108515885e+01
 1.082054433059266e+00	 8.908311921362053e-02	 2.206702009022645e+01
 1.079951791904819e+00	 1.117215787957585e-01	 2.191484387540926e+01
 1.077354486876854e+00	 1.344801112834888e-01	 2.172812876804269e+01
 1.074253433913294e+00	 1.573441464373569e-01	 2.150696586971218e+01
 1.070640049401569e+00	 1.802985228350641e-01	 2.125182640651316e+01
 1.066506290431602e+00	 2.033275051024242e-01	 2.096357513923465e+01
 1.061844694702915e+00	 2.264148041098882e-01	 2.064348160178926e+01
 1.107144367566494e+00	 0.000000000000000e+00	 2.150768965058471e+01
 1.106916532316949e+00	 2.245943988512645e-02	 2.148979112057069e+01
 1.106225605729260e+00	 4.509447608076091e-02	 2.144390059674695e+01
 1.105060692928989e+00	 6.789277976217256e-02	 2.136888846119951e+01
 1.103411246035438e+00	 9.084137781521351e-02	 2.126390852310816e+01
 1.101267104460359e+00	 1.139266590473704e-01	 2.112841571023593e+01
 1.098618535691603e+00	 1.371343830979478e-01	 2.096218259870363e+01
 1.095456276372411e+00	 1.604496921505520e-01	 2.076531456181644e+01
 1.091771573473045e+00	 1.838571255376023e-01	 2.053826331892298e+01
 1.087556225338255e+00	 2.073406373113792e-01	 2.028183866856730e+01
 1.082802622382047e+00	 2.308836168391752e-01	 1.999721819669290e+01
 1.128573498587201e+00	 0.000000000000000e+00	 2.075467598012735e+01
 1.128341253513995e+00	 2.289414947952548e-02	 2.073894449778788e+01
 1.127636953822624e+00	 4.596729399219950e-02	 2.069824946370401e+01
 1.126449493764897e+00	 6.920686608493898e-02	 2.063158652500221e+01
 1.124768121302530e+00	 9.259964154481601e-02	 2.053821181631825e+01
 1.122582479185865e+00	 1.161317457303265e-01	 2.041765778351600e+01
 1.119882646526885e+00	 1.397886626540325e-01	 2.026974789432845e+01
 1.116659180673621e+00	 1.635552469217459e-01	 2.009461003447836e+01
 1.112903159178661e+00	 1.874157386197134e-01	 1.989268838899321e+01
 1.108606221641115e+00	 2.113537812257591e-01	 1.966475361254003e+01
 1.103760611189034e+00	 2.353524426030607e-01	 1.941191109979129e+01
 1.150002674608608e+00	 0.000000000000000e+00	 2.006933093056119e+01
 1.149766019702493e+00	 2.332885998673096e-02	 2.005568335636208e+01
 1.149048346879390e+00	 4.684011373644527e-02	 2.001972669006474e+01
 1.147838339516904e+00	 7.052095516719697e-02	 1.996057697742051e+01
 1.146125041418737e+00	 9.435790896674096e-02	 1.987759079291031e+01
 1.143897898673398e+00	 1.183368370440186e-01	 1.977037936862114e+01
 1.141146802016604e+00	 1.424429477842606e-01	 1.963882164619866e+01
 1.137862129500790e+00	 1.666608082148687e-01	 1.948307606591948e+01
 1.134034789260514e+00	 1.909743591752778e-01	 1.930359090905078e+01
 1.129656262148901e+00	 2.153669335681918e-01	 1.910111301466630e+01
 1.124718644007732e+00	 2.398212777519861e-01	 1.887669470005505e+01
 1.171431878129957e+00	 0.000000000000000e+00	 1.943999837932338e+01
 1.171190813385280e+00	 2.376357105184102e-02	 1.942834702869597e+01
 1.170459767413303e+00	 4.771293460087955e-02	 1.939670291901411e+01
 1.169227212717153e+00	 7.183504593599596e-02	 1.934429790972324e+01
 1.167481988942252e+00	 9.611617864530096e-02	 1.927058730040012e+01
 1.165213345515019e+00	 1.205419311878386e-01	 1.917526243229196e+01
 1.162410984794663e+00	 1.450972363211491e-01	 1.905826223676447e+01
 1.159065105537788e+00	 1.697663734938503e-01	 1.891978355792192e+01
 1.155166446460698e+00	 1.945329842981758e-01	 1.876029007978257e+01
 1.150706329670330e+00	 2.193800910613053e-01	 1.858051969434624e+01
 1.145676703722003e+00	 2.442901186363934e-01	 1.838149015574366e+01
 1.192861091650489e+00	 0.000000000000000e+00	 1.885582764358946e+01
 1.192615617065195e+00	 2.419828231995378e-02	 1.884608353713473e+01
 1.191871197938111e+00	 4.858575587288364e-02	 1.881835810104459e+01
 1.190616095897788e+00	 7.314913731838538e-02	 1.877199467010632e+01
 1.188838946431268e+00	 9.787444914480888e-02	 1.870654569943713e+01
 1.186528802302791e+00	 1.227470263611784e-01	 1.862178400131093e+01
 1.183675177494965e+00	 1.477515260972157e-01	 1.851771294052915e+01
 1.180268091468482e+00	 1.728719402226212e-01	 1.839457542658486e+01
 1.176298113521310e+00	 1.980916110822880e-01	 1.825286154501590e+01
 1.171756407014122e+00	 2.233932504277272e-01	 1.809331467732051e+01
 1.166634773215702e+00	 2.487589616067241e-01	 1.791693596865158e+01
 1.214290297669446e+00	 0.000000000000000e+00	 1.830670241167284e+01
 1.214040413245077e+00	 2.463299343616735e-02	 1.829877840476169e+01
 1.213282620967562e+00	 4.945857683983884e-02	 1.827461040699392e+01
 1.212004971590950e+00	 7.446322824141469e-02	 1.823364910438062e+01
 1.210195896443978e+00	 9.963271902957743e-02	 1.817554265941522e+01
 1.207844251628774e+00	 1.249521207634298e-01	 1.810014674143367e+01
 1.204939362751414e+00	 1.504058149449777e-01	 1.800753351504519e+01
 1.201471069976739e+00	 1.759775058651112e-01	 1.789799943365838e+01
 1.197429773184443e+00	 2.016502366214944e-01	 1.777207169034059e+01
 1.192806476988992e+00	 2.274064083900854e-01	 1.763051318632261e+01
 1.187592835372691e+00	 2.532278030134200e-01	 1.747432588840908e+01
 9.780139375877577e-01	 2.085397565298897e-01	 2.408758290094830e+01
 9.732282518626567e-01	 2.298410867697774e-01	 2.353219431016473e+01
 9.679444735972303e-01	 2.511647027528097e-01	 2.292977511224628e+01
 9.621575490304195e-01	 2.724942383587359e-01	 2.228225697615916e+01
 9.558630981313170e-01	 2.938129209596946e-01	 2.159204882836974e+01
 9.490574463164518e-01	 3.151036037782406e-01	 2.086204201851186e+01
 9.417376544619561e-01	 3.363488008802307e-01	 2.009561228433950e+01
 9.339015469729997e-01	 3.575307247119079e-01	 1.929661834742688e+01
 9.255477376767898e-01	 3.786313260672552e-01	 1.846939699834574e+01
 9.166756533117869e-01	 3.996323363483558e-01	 1.761875456039233e+01
 9.072855543946887e-01	 4.205153119584039e-01	 1.674995465401872e+01
 9.989714495940581e-01	 2.130084806252003e-01	 2.307016923386129e+01
 9.940832131156619e-01	 2.347662694764963e-01	 2.257363856516739e+01
 9.886862106497466e-01	 2.565468216244761e-01	 2.203392127324593e+01
 9.827752801399662e-01	 2.783334202450918e-01	 2.145281671324619e+01
 9.763459476972483e-01	 3.001089332957766e-01	 2.083255813290944e+01
 9.693944599967363e-01	 3.218558465668612e-01	 2.017581668637630e+01
 9.619178149330774e-01	 3.435562994243084e-01	 1.948570251205837e+01
 9.539137902913475e-01	 3.651921231511672e-01	 1.876576272926728e+01
 9.453809701949015e-01	 3.867448817713726e-01	 1.801997623378175e+01
 9.363187690979322e-01	 4.081959152156873e-01	 1.725274520064063e+01
 9.267274530996050e-01	 4.295263846659970e-01	 1.646888323284770e+01
 1.019929091192779e+00	 2.174772323533424e-01	 2.216674992315331e+01
 1.014938303326879e+00	 2.396914826387362e-01	 2.172327975319390e+01
 1.009428075960190e+00	 2.619289737772124e-01	 2.124009041596377e+01
 1.003393138740421e+00	 2.841726382387691e-01	 2.071886048733849e+01
 9.968289239197675e-01	 3.064049845639252e-01	 2.016166209070319e+01
 9.897315994315167e-01	 3.286081311085273e-01	 1.957096381768018e+01
 9.820981001884546e-01	 3.507638425363410e-01	 1.894963095960777e+01
 9.739261573552893e-01	 3.728535689648780e-01	 1.830092292665317e+01
 9.652143253513547e-01	 3.948584876456475e-01	 1.762848775531253e+01
 9.559620063465154e-01	 4.167595470356862e-01	 1.693635363110148e+01
 9.461694720224560e-01	 4.385375130931406e-01	 1.622891738114094e+01
 1.040886845267778e+00	 2.219460080647578e-01	 2.136243148388694e+01
 1.035793505463931e+00	 2.446167222341214e-01	 2.096672740628577e+01
 1.030170052588673e+00	 2.673111548154466e-01	 2.053442831247189e+01
 1.024011107993203e+00	 2.900118875709073e-01	 2.006710345418165e+01
 1.017312010070490e+00	 3.127010696221890e-01	 1.956667816441803e+01
 1.010068848011553e+00	 3.353604518886944e-01	 1.903543573906821e+01
 1.002278493746992e+00	 3.579714243299930e-01	 1.847601685848004e+01
 9.939386318209120e-01	 3.805150558960257e-01	 1.789141644711718e+01
 9.850477869484796e-01	 4.029721370638132e-01	 1.728497789183115e+01
 9.756053490151769e-01	 4.253232248145771e-01	 1.666038456345579e+01
 9.656115952852508e-01	 4.475486898806173e-01	 1.602164861201756e+01
 1.061844694702915e+00	 2.264148041098882e-01	 2.064348160178926e+01
 1.056648802494440e+00	 2.495419842402760e-01	 2.029071417017829e+01
 1.050912123595312e+00	 2.726933603436072e-01	 1.990416307011763e+01
 1.044629171059732e+00	 2.958511634726447e-01	 1.948529960942933e+01
 1.037795189421028e+00	 3.189971833286157e-01	 1.903591646095514e+01
 1.030406189127603e+00	 3.421128033928177e-01	 1.855812855446794e+01
 1.022458979127597e+00	 3.651790389189289e-01	 1.805437172081330e+01
 1.013951197344305e+00	 3.881765776875966e-01	 1.752739900677339e+01
 1.004881338788606e+00	 4.110858233996026e-01	 1.698027460027454e+01
 9.952487810615555e-01	 4.338869415585853e-01	 1.641636532802036e+01
 9.850538070099996e-01	 4.565599076692103e-01	 1.583932971108620e+01
 1.082802622382047e+00	 2.308836168391752e-01	 1.999721819669290e+01
 1.077504177386029e+00	 2.544672646348242e-01	 1.968298863817213e+01
 1.071654272040220e+00	 2.780755859661224e-01	 1.933750199016807e+01
 1.065247311101426e+00	 3.016904611751203e-01	 1.896214292649256e+01
 1.058278445242995e+00	 3.252933205412539e-01	 1.855858540192946e+01
 1.050743606170426e+00	 3.488651801063524e-01	 1.812879259948535e+01
 1.042639539849171e+00	 3.723866804168130e-01	 1.767501482568437e+01
 1.033963837581557e+00	 3.958381280825752e-01	 1.719978529199056e+01
 1.024714964674065e+00	 4.191995400267485e-01	 1.670591374044734e+01
 1.014892286443292e+00	 4.424506902739357e-01	 1.619647789255241e+01
 1.004496091318712e+00	 4.655711590997022e-01	 1.567481272188309e+01
 1.103760611189034e+00	 2.353524426030607e-01	 1.941191109979129e+01
 1.098359613106321e+00	 2.593925593953900e-01	 1.913222036575494e+01
 1.092396480983510e+00	 2.834578272874197e-01	 1.882354014500267e+01
 1.085865511279706e+00	 3.075297759094727e-01	 1.848717972163242e+01
 1.078761760808005e+00	 3.315894761181519e-01	 1.812470810114815e+01
 1.071081082530781e+00	 3.556175765147537e-01	 1.773795305391033e+01
 1.062820159430623e+00	 3.795943429373099e-01	 1.732899828640507e+01
 1.053976536188754e+00	 4.034997008239476e-01	 1.690017869730922e+01
 1.044548648407187e+00	 4.273132803189844e-01	 1.645407369438017e+01
 1.034535849118026e+00	 4.510144639668530e-01	 1.599349856776959e+01
 1.023938432333398e+00	 4.745824368128753e-01	 1.552149393507809e+01
 1.124718644007732e+00	 2.398212777519861e-01	 1.887669470005506e+01
 1.119215092622939e+00	 2.643178644995977e-01	 1.862791547778317e+01
 1.113138733485298e+00	 2.888400799119279e-01	 1.835217914592488e+01
 1.106483754755991e+00	 3.133691029068406e-01	 1.805073078242237e+01
 1.099245119387670e+00	 3.378856449173577e-01	 1.772504805304410e+01
 1.091418601599426e+00	 3.623699871034770e-01	 1.737683938785202e+01
 1.083000821390855e+00	 3.868020205940836e-01	 1.700804044958544e+01
 1.073989276821986e+00	 4.111612896546989e-01	 1.662080886921616e+01
 1.064382373790302e+00	 4.354270376500429e-01	 1.621751724219903e+01
 1.054179453043397e+00	 4.595782556435625e-01	 1.580074439732985e+01
 1.043380814176068e+00	 4.835937334495128e-01	 1.537326496823660e+01
 1.145676703722003e+00	 2.442901186363934e-01	 1.838149015574366e+01
 1.140070598903503e+00	 2.692431759250715e-01	 1.816034151235999e+01
 1.133881012605697e+00	 2.942223394440748e-01	 1.791405479717540e+01
 1.127102024691700e+00	 3.192084373983631e-01	 1.764382200984963e+01
 1.119728504253606e+00	 3.441818217969195e-01	 1.735104294024055e+01
 1.111756146767122e+00	 3.691224063579771e-01	 1.703732251077611e+01
 1.103181509248773e+00	 3.940097075007988e-01	 1.670446655947295e+01
 1.094002043137341e+00	 4.188228883178152e-01	 1.635447605659939e+01
 1.084216124625741e+00	 4.435408053936571e-01	 1.598953976564372e+01
 1.073823082177046e+00	 4.681420583102890e-01	 1.561202537663055e+01
 1.062823220968731e+00	 4.926050416503971e-01	 1.522446915651476e+01
 1.166634773215702e+00	 2.487589616067241e-01	 1.791693596865158e+01
 1.160926114915639e+00	 2.741684896494354e-01	 1.772046034032720e+01
 1.154623301404820e+00	 2.996046014882886e-01	 1.750047251912039e+01
 1.147720304248252e+00	 3.250477746151783e-01	 1.725812250385795e+01
 1.140211898677425e+00	 3.504780016148855e-01	 1.699474553963833e+01
 1.132093701424626e+00	 3.758748287637098e-01	 1.671185865515489e+01
 1.123362206523283e+00	 4.012173977711197e-01	 1.641115577428711e+01
 1.114014818790906e+00	 4.264844905562815e-01	 1.609450141224842e+01
 1.104049884715835e+00	 4.516545769235600e-01	 1.576392298381354e+01
 1.093466720476611e+00	 4.767058649732576e-01	 1.542160176770666e+01
 1.082265636833397e+00	 5.016163540563112e-01	 1.506986258666623e+01
 1.187592835372691e+00	 2.532278030134200e-01	 1.747432588840908e+01
 1.181781623626968e+00	 2.790938016503138e-01	 1.729986816314403e+01
 1.175365582942782e+00	 3.049868616489975e-01	 1.710334958122631e+01
 1.168338576587066e+00	 3.308871097884256e-01	 1.688588917316563e+01
 1.160695285930740e+00	 3.567741792293043e-01	 1.664877085044978e+01
 1.152431248962697e+00	 3.826272488061300e-01	 1.639343916308931e+01
 1.143542896733289e+00	 4.084250855187107e-01	 1.612149375015493e+01
 1.134027587438770e+00	 4.341460901130836e-01	 1.583468251051503e+01
 1.123883637862912e+00	 4.597683456134844e-01	 1.553489353797224e+01
 1.113110351899734e+00	 4.852696686386933e-01	 1.522414588091475e+01
 1.101708045892076e+00	 5.106276633080375e-01	 1.490457920095785e+01
 9.072855543946887e-01	 4.205153119584039e-01	 1.674995465401871e+01
 8.973778426309759e-01	 4.412631267957646e-01	 1.586764313479833e+01
 8.869551416254857e-01	 4.618556531118257e-01	 1.497557462116026e+01
 8.760203156838144e-01	 4.822741974000463e-01	 1.407790976166582e+01
 8.645771165329884e-01	 5.025000860247010e-01	 1.317890783325642e+01
 8.526301882742356e-01	 5.225147171506273e-01	 1.228290909901741e+01
 8.401850687269298e-01	 5.422996134099225e-01	 1.139431633640476e+01
 8.272481870752481e-01	 5.618364750149920e-01	 1.051757565473376e+01
 8.138268577557128e-01	 5.811072330167580e-01	 9.657156727748136e+00
 7.999292705517563e-01	 6.000941023989975e-01	 8.817532572817578e+00
 7.855644768903997e-01	 6.187796346948449e-01	 8.003159012809778e+00
 9.267274530996050e-01	 4.295263846659970e-01	 1.646888323284769e+01
 9.166074325133625e-01	 4.507187970315008e-01	 1.567134326313690e+01
 9.059613871643314e-01	 4.717525932532430e-01	 1.486232019153544e+01
 8.947922427362981e-01	 4.926086792482119e-01	 1.404570474047366e+01
 8.831038313507167e-01	 5.132679812300157e-01	 1.322548197367816e+01
 8.709008966256139e-01	 5.337114987514157e-01	 1.240571449236986e+01
 8.581890950483269e-01	 5.539203584995974e-01	 1.159052486140528e+01
 8.449749935717367e-01	 5.738758685473588e-01	 1.078407737879163e+01
 8.312660633708281e-01	 5.935595727525728e-01	 9.990559307731758e+00
 8.170706697249901e-01	 6.129533049902617e-01	 9.214161694839023e+00
 8.023980580210568e-01	 6.320392428966034e-01	 8.459059901475568e+00
 9.461694720224560e-01	 4.385375130931406e-01	 1.622891738114094e+01
 9.358371413006450e-01	 4.601745257357878e-01	 1.550763549500084e+01
 9.249677502268455e-01	 4.816495945916609e-01	 1.477332803713481e+01
 9.135642858634088e-01	 5.029432249987976e-01	 1.402963206251200e+01
 9.016306607267102e-01	 5.240359430176634e-01	 1.328027456752871e+01
 8.891717179521819e-01	 5.449083495864748e-01	 1.252905648322438e+01
 8.761932326958565e-01	 5.655411754450540e-01	 1.177983596006157e+01
 8.627019096801651e-01	 5.859153365241648e-01	 1.103651105261773e+01
 8.487053768195171e-01	 6.060119894862327e-01	 1.030300191687980e+01
 8.342121748903391e-01	 6.258125870951656e-01	 9.583232635966690e+00
 8.192317432404702e-01	 6.452989330878690e-01	 8.881112792129729e+00
 9.656115952852508e-01	 4.475486898806173e-01	 1.602164861201756e+01
 9.550669532882546e-01	 4.696303051863300e-01	 1.536890958796727e+01
 9.439742152908877e-01	 4.915466490444217e-01	 1.470178126303288e+01
 9.323364297343916e-01	 5.132778262118273e-01	 1.402366313884878e+01
 9.201575895304888e-01	 5.348039625937184e-01	 1.333804014037129e+01
 9.074426373325500e-01	 5.561052605116253e-01	 1.264846736510694e+01
 8.941974669659334e-01	 5.771620547558787e-01	 1.195855418794004e+01
 8.804289209233546e-01	 5.979548691130999e-01	 1.127194782512488e+01
 8.661447838594841e-01	 6.184644730481857e-01	 1.059231646387190e+01
 8.513537720487253e-01	 6.386719382118828e-01	 9.923332065626120e+00
 8.360655188009578e-01	 6.585586944398125e-01	 9.268652951759709e+00
 9.850538070099996e-01	 4.565599076692103e-01	 1.583932971108620e+01
 9.742968527716235e-01	 4.790861276608320e-01	 1.524815423101372e+01
 9.629807668343175e-01	 5.014437485288680e-01	 1.464139986082588e+01
 9.511086590184907e-01	 5.236124744473241e-01	 1.402224453066586e+01
 9.386846026315760e-01	 5.455720311642558e-01	 1.339394695200684e+01
 9.257136398453290e-01	 5.673022223826882e-01	 1.275983208217972e+01
 9.122017831549702e-01	 5.887829869416565e-01	 1.212327601123962e+01
 8.981560128241259e-01	 6.099944564818535e-01	 1.148769037027264e+01
 8.835842702484357e-01	 6.309170132688808e-01	 1.085650636152119e+01
 8.684954472010722e-01	 6.515313478385863e-01	 1.023315851078532e+01
 8.528993709548366e-01	 6.718185161236035e-01	 9.621068241658223e+00
 1.004496091318712e+00	 4.655711590997022e-01	 1.567481272188308e+01
 9.935268240461826e-01	 4.885419854369982e-01	 1.513890109012509e+01
 9.819873893349953e-01	 5.113408849623421e-01	 1.458639078365668e+01
 9.698809583849516e-01	 5.339471612653121e-01	 1.402025402231725e+01
 9.572116848994920e-01	 5.563401399353490e-01	 1.344353903547506e+01
 9.439847105691278e-01	 5.784992260554838e-01	 1.285935620131475e+01
 9.302061665593823e-01	 6.004039625119739e-01	 1.227086367821322e+01
 9.158831709053001e-01	 6.220340887981143e-01	 1.168125262318419e+01
 9.010238217440759e-01	 6.433695999787661e-01	 1.109373209193570e+01
 8.856371863483031e-01	 6.643908054734494e-01	 1.051151371344629e+01
 8.697332859544248e-01	 6.850783873104126e-01	 9.937796229400494e+00
 1.023938432333398e+00	 4.745824368128753e-01	 1.552149393507809e+01
 1.012756851407364e+00	 4.979978707925334e-01	 1.503517516434130e+01
 1.000994067270781e+00	 5.212380502621865e-01	 1.453140364217001e+01
 9.886533125030187e-01	 5.442818782258143e-01	 1.401296162973572e+01
 9.757388212037590e-01	 5.671082801130731e-01	 1.348270248986464e+01
 9.622558345825569e-01	 5.896962623858329e-01	 1.294353746059665e+01
 9.482106024755820e-01	 6.120249719764159e-01	 1.239842199391877e+01
 9.336103806896991e-01	 6.340737562295730e-01	 1.185034175089657e+01
 9.184634241041097e-01	 6.558222230082897e-01	 1.130229834214538e+01
 9.027789754913409e-01	 6.772503006146461e-01	 1.075729489908352e+01
 8.865672500520388e-01	 6.983382971714092e-01	 1.021832155702803e+01
 1.043380814176068e+00	 4.835937334495128e-01	 1.537326496823660e+01
 1.031986919150600e+00	 5.074537760051423e-01	 1.493145062943051e+01
 1.020000785119533e+00	 5.311352363457440e-01	 1.447149128848274e+01
 1.007425706041936e+00	 5.546166168888547e-01	 1.399599490065964e+01
 9.942659964138990e-01	 5.778764429035027e-01	 1.350763547226392e+01
 9.805269969642261e-01	 6.008933222295565e-01	 1.300914042790480e+01
 9.662150761999840e-01	 6.236460058445684e-01	 1.250327761971081e+01
 9.513376277001433e-01	 6.461134489439182e-01	 1.199284206634140e+01
 9.359030630862430e-01	 6.682748721878998e-01	 1.148064250538476e+01
 9.199208006311085e-01	 6.901098227603493e-01	 1.096948783721134e+01
 9.034012494999971e-01	 7.115982348777641e-01	 1.046217353198706e+01
 1.062823220968731e+00	 4.926050416503971e-01	 1.522446915651477e+01
 1.051217011571321e+00	 5.169096933525292e-01	 1.482261146673935e+01
 1.039007527359112e+00	 5.410324351303567e-01	 1.440207466246922e+01
 1.026198123670950e+00	 5.649513688144565e-01	 1.396530795729181e+01
 1.012793195399433e+00	 5.886446195127114e-01	 1.351482141532615e+01
 9.987981827927459e-01	 6.120903964424752e-01	 1.305317387144700e+01
 9.842195730290011e-01	 6.352670546260167e-01	 1.258296057426634e+01
 9.690648974594546e-01	 6.581531571088396e-01	 1.210680063678121e+01
 9.533427244481810e-01	 6.807275373480454e-01	 1.162732437318674e+01
 9.370626477685290e-01	 7.029693614087323e-01	 1.114716059264356e+01
 9.202352705506168e-01	 7.248581896006466e-01	 1.066892391226487e+01
 1.082265636833397e+00	 5.016163540563112e-01	 1.506986258666623e+01
 1.070447112964960e+00	 5.263656151123988e-01	 1.470391627568563e+01
 1.058014278467378e+00	 5.509296385333676e-01	 1.431891136455075e+01
 1.044970550059303e+00	 5.752861255626432e-01	 1.391715381092802e+01
 1.031320403029883e+00	 5.994128011467749e-01	 1.350100506495068e+01
 1.017069377146726e+00	 6.232874758804096e-01	 1.307287050131341e+01
 1.002224078259048e+00	 6.468881088303472e-01	 1.263518765937310e+01
 9.867921754904537e-01	 6.701928708920269e-01	 1.219041437366988e+01
 9.707823939476281e-01	 6.931802083191746e-01	 1.174101686856185e+01
 9.542045029045261e-01	 7.158289060579697e-01	 1.128945788058543e+01
 9.370692994562149e-01	 7.381181505112275e-01	 1.083818486127204e+01
 1.101708045892076e+00	 5.106276633080375e-01	 1.490457920095785e+01
 1.089677207626948e+00	 5.358215335624558e-01	 1.457096675325152e+01
 1.077021022922191e+00	 5.608268384721187e-01	 1.421806749479543e+01
 1.063742969876242e+00	 5.856208786934388e-01	 1.384805954448922e+01
 1.049847604174770e+00	 6.101809790117667e-01	 1.346317098980922e+01
 1.035340565104777e+00	 6.344845513991805e-01	 1.306566878923446e+01
 1.020228577186538e+00	 6.585091589671449e-01	 1.265784757276898e+01
 1.004519447315962e+00	 6.822325804611694e-01	 1.224201842096891e+01
 9.882220573422899e-01	 7.056328749317351e-01	 1.182049769167010e+01
 9.713463520400218e-01	 7.286884462062339e-01	 1.139559595095746e+01
 9.539033224691094e-01	 7.513781067806766e-01	 1.096960705147250e+01
 7.855644768903997e-01	 6.187796346948449e-01	 8.003159012809778e+00
 7.707423701765810e-01	 6.371467715387087e-01	 7.218250073671397e+00
 7.554736580333883e-01	 6.551789005581102e-01	 6.465902298866983e+00
 7.397698440641727e-01	 6.728598994536507e-01	 5.748605480436281e+00
 7.236432017326105e-01	 6.901741818186914e-01	 5.068490850701606e+00
 7.071067426773200e-01	 7.071067426773202e-01	 4.427325930304172e+00
 6.901741818186911e-01	 7.236432017326108e-01	 3.826512060913817e+00
 6.728598994536503e-01	 7.397698440641729e-01	 3.267084604647303e+00
 6.551789005581099e-01	 7.554736580333886e-01	 2.749715764878259e+00
 6.371467715387082e-01	 7.707423701765813e-01	 2.274719957478198e+00
 6.187796346948450e-01	 7.855644768903999e-01	 1.842061637920918e+00
 8.023980580210568e-01	 6.320392428966034e-01	 8.459059901475568e+00
 7.872583336662222e-01	 6.507999625683830e-01	 7.728025369540309e+00
 7.716624337334248e-01	 6.692184956525079e-01	 7.022903809271280e+00
 7.556221083326433e-01	 6.872783743705597e-01	 6.346231713580514e+00
 7.391498939312462e-01	 7.049636783203347e-01	 5.700236680367296e+00
 7.222590809896289e-01	 7.222590809896291e-01	 5.086831098927181e+00
 7.049636783203347e-01	 7.391498939312467e-01	 4.507608138965344e+00
 6.872783743705594e-01	 7.556221083326436e-01	 3.963840034818327e+00
 6.692184956525077e-01	 7.716624337334250e-01	 3.456478634596235e+00
 6.507999625683827e-01	 7.872583336662224e-01	 2.986158162689668e+00
 6.320392428966034e-01	 8.023980580210568e-01	 2.553200124723118e+00
 8.192317432404702e-01	 6.452989330878690e-01	 8.881112792129729e+00
 8.037743992806687e-01	 6.644532380212435e-01	 8.198186607832204e+00
 7.878513095351404e-01	 6.832581775593793e-01	 7.535244124990598e+00
 7.714744706220162e-01	 7.016969384427031e-01	 6.894849014433127e+00
 7.546566820139806e-01	 7.197532662713827e-01	 6.279300989333258e+00
 7.374115129949314e-01	 7.374115129949317e-01	 5.690628526791163e+00
 7.197532662713823e-01	 7.546566820139807e-01	 5.130583542799895e+00
 7.016969384427029e-01	 7.714744706220167e-01	 4.600638021112684e+00
 6.832581775593791e-01	 7.878513095351407e-01	 4.101982577739737e+00
 6.644532380212431e-01	 8.037743992806691e-01	 3.635526925635359e+00
 6.452989330878689e-01	 8.192317432404701e-01	 3.201902188791915e+00
 8.360655188009578e-01	 6.585586944398125e-01	 9.268652951759709e+00
 8.202905535316367e-01	 6.781065867470273e-01	 8.628787067216324e+00
 8.040402722174659e-01	 6.972979348128892e-01	 8.003640681617888e+00
 7.873269179860506e-01	 7.161155798948174e-01	 7.395786859678406e+00
 7.701635533168030e-01	 7.345429335935574e-01	 6.807575141215398e+00
 7.525640263186183e-01	 7.525640263186185e-01	 6.241123488398533e+00
 7.345429335935570e-01	 7.701635533168031e-01	 5.698311868679270e+00
 7.161155798948173e-01	 7.873269179860510e-01	 5.180777479176449e+00
 6.972979348128893e-01	 8.040402722174663e-01	 4.689911603273168e+00
 6.781065867470268e-01	 8.202905535316370e-01	 4.226858076844607e+00
 6.585586944398124e-01	 8.360655188009579e-01	 3.792513329997345e+00
 8.528993709548366e-01	 6.718185161236035e-01	 9.621068241658223e+00
 8.368067829308420e-01	 6.917599975954706e-01	 9.019875664464390e+00
 8.202293085593317e-01	 7.113377559472025e-01	 8.428753736130057e+00
 8.031794374785077e-01	 7.305342869516385e-01	 7.850268728566643e+00
 7.856704951757033e-01	 7.493326682085840e-01	 7.286799522505529e+00
 7.677166085860817e-01	 7.677166085860819e-01	 6.740528965399439e+00
 7.493326682085839e-01	 7.856704951757036e-01	 6.213436577603920e+00
 7.305342869516384e-01	 8.031794374785082e-01	 5.707292615208718e+00
 7.113377559472021e-01	 8.202293085593320e-01	 5.223653486326763e+00
 6.917599975954701e-01	 8.368067829308423e-01	 4.763858507873238e+00
 6.718185161236035e-01	 8.528993709548366e-01	 4.329027981946902e+00
 8.697332859544248e-01	 6.850783873104126e-01	 9.937796229400494e+00
 8.533230739900002e-01	 7.054134594163103e-01	 9.371499596578925e+00
 8.364184053396694e-01	 7.253776294964832e-01	 8.811194137058299e+00
 8.190320161531471e-01	 7.449530478379018e-01	 8.259424612138067e+00
 8.011774949266720e-01	 7.641224580381865e-01	 7.718580416561397e+00
 7.828692474227116e-01	 7.828692474227119e-01	 7.190886527290205e+00
 7.641224580381860e-01	 8.011774949266722e-01	 6.678395542348579e+00
 7.449530478379015e-01	 8.190320161531474e-01	 6.182980818034032e+00
 7.253776294964830e-01	 8.364184053396695e-01	 5.706330704369341e+00
 7.054134594163100e-01	 8.533230739900004e-01	 5.249943872210164e+00
 6.850783873104126e-01	 8.697332859544249e-01	 4.815125720931498e+00
 8.865672500520388e-01	 6.983382971714092e-01	 1.021832155702803e+01
 8.698394132208275e-01	 7.190669610592838e-01	 9.683706610392834e+00
 8.526075493374089e-01	 7.394175439948966e-01	 9.151530139629472e+00
 8.348846410637298e-01	 7.593718507783438e-01	 8.624302029631668e+00
 8.166845399056983e-01	 7.789122910040875e-01	 8.104404890011992e+00
 7.980219304538989e-01	 7.980219304538996e-01	 7.594084770889832e+00
 7.789122910040872e-01	 8.166845399056983e-01	 7.095442738721932e+00
 7.593718507783433e-01	 8.348846410637299e-01	 6.610427317710769e+00
 7.394175439948960e-01	 8.526075493374089e-01	 6.140827796733877e+00
 7.190669610592832e-01	 8.698394132208278e-01	 5.688268398353773e+00
 6.983382971714092e-01	 8.865672500520388e-01	 5.254203305230029e+00
 9.034012494999971e-01	 7.115982348777641e-01	 1.046217353198706e+01
 8.863557871350394e-01	 7.327204913741271e-01	 9.956546948164807e+00
 8.687967273314808e-01	 7.534574879766064e-01	 9.450293390347904e+00
 8.507372992640161e-01	 7.737906839977000e-01	 8.945875746668236e+00
 8.321916174487727e-01	 7.937021550280120e-01	 8.445653950675085e+00
 8.131746453050358e-01	 8.131746453050365e-01	 7.951875636838826e+00
 7.937021550280117e-01	 8.321916174487727e-01	 7.466667453342791e+00
 7.737906839977000e-01	 8.507372992640163e-01	 6.992027032212819e+00
 7.534574879766063e-01	 8.687967273314813e-01	 6.529815613778613e+00
 7.327204913741269e-01	 8.863557871350398e-01	 6.081751321915403e+00
 7.115982348777641e-01	 9.034012494999973e-01	 5.649403088372893e+00
 9.202352705506168e-01	 7.248581896006466e-01	 1.066892391226487e+01
 9.028721822443518e-01	 7.463740392105777e-01	 1.019007501059679e+01
 8.849859261008165e-01	 7.674974499757784e-01	 9.707984187283335e+00
 8.665899778077661e-01	 7.882095357207065e-01	 9.225056361331919e+00
 8.476987148918844e-01	 8.084920380316823e-01	 8.743614198185444e+00
 8.283273796015135e-01	 8.283273796015139e-01	 8.265888874811312e+00
 8.084920380316822e-01	 8.476987148918850e-01	 7.794011325769063e+00
 7.882095357207061e-01	 8.665899778077666e-01	 7.330003962061655e+00
 7.674974499757782e-01	 8.849859261008168e-01	 6.875772853760461e+00
 7.463740392105774e-01	 9.028721822443523e-01	 6.433100369463276e+00
 7.248581896006467e-01	 9.202352705506168e-01	 6.003638270446464e+00
 9.370692994562149e-01	 7.381181505112275e-01	 1.083818486127204e+01
 9.193885850604807e-01	 7.600275934183721e-01	 1.038435077275235e+01
 9.011751324243462e-01	 7.815374185265763e-01	 9.925076107066854e+00
 8.824426637487408e-01	 8.026283941720994e-01	 9.462697900413731e+00
 8.632058195710240e-01	 8.232819279368239e-01	 8.999488156756946e+00
 8.434801209687223e-01	 8.434801209687225e-01	 8.537644890104797e+00
 8.232819279368236e-01	 8.632058195710244e-01	 8.079283497158892e+00
 8.026283941720993e-01	 8.824426637487413e-01	 7.626428441087172e+00
 7.815374185265760e-01	 9.011751324243464e-01	 7.181005228310851e+00
 7.600275934183719e-01	 9.193885850604807e-01	 6.744832664659919e+00
 7.381181505112275e-01	 9.370692994562149e-01	 6.319615384854236e+00
 9.539033224691094e-01	 7.513781067806766e-01	 1.096960705147250e+01
 9.359049820951422e-01	 7.736811428472474e-01	 1.053944098335020e+01
 9.173643330810004e-01	 7.955773821631652e-01	 1.010202007675634e+01
 8.982953441407002e-01	 8.170472475766148e-01	 9.659604548005433e+00
 8.787129188221813e-01	 8.380718126651596e-01	 9.214403452772764e+00
 8.586328570320533e-01	 8.586328570320538e-01	 8.768566171439209e+00
 8.380718126651595e-01	 8.787129188221815e-01	 8.324174099233003e+00
 8.170472475766142e-01	 8.982953441407006e-01	 7.883232508007866e+00
 7.955773821631648e-01	 9.173643330810007e-01	 7.447662549300085e+00
 7.736811428472473e-01	 9.359049820951423e-01	 7.019293374953056e+00
 7.513781067806767e-01	 9.539033224691095e-01	 6.599854361865730e+00
 6.187796346948450e-01	 7.855644768903999e-01	 1.842061637920918e+00
 6.000941023989972e-01	 7.999292705517564e-01	 1.450354871974155e+00
 5.811072330167577e-01	 8.138268577557130e-01	 1.098398803697981e+00
 5.618364750149918e-01	 8.272481870752482e-01	 7.858601014239759e-01
 5.422996134099223e-01	 8.401850687269302e-01	 5.119917301595880e-01
 5.225147171506268e-01	 8.526301882742356e-01	 2.756494187484519e-01
 5.025000860247008e-01	 8.645771165329886e-01	 7.531065841000853e-02
 4.822741974000460e-01	 8.760203156838146e-01	-9.090397437100073e-02
 4.618556531118254e-01	 8.869551416254861e-01	-2.252073925381065e-01
 4.412631267957642e-01	 8.973778426309756e-01	-3.301207049448841e-01
 4.205153119584038e-01	 9.072855543946884e-01	-4.084462985061318e-01
 6.320392428966034e-01	 8.023980580210568e-01	 2.553200124723118e+00
 6.129533049902616e-01	 8.170706697249903e-01	 2.156093122353242e+00
 5.935595727525724e-01	 8.312660633708283e-01	 1.793470390070377e+00
 5.738758685473585e-01	 8.449749935717368e-01	 1.465354765205545e+00
 5.539203584995970e-01	 8.581890950483272e-01	 1.171397648059696e+00
 5.337114987514154e-01	 8.709008966256140e-01	 9.108918010553909e-01
 5.132679812300153e-01	 8.831038313507170e-01	 6.827864221422527e-01
 4.926086792482115e-01	 8.947922427362983e-01	 4.857043295121121e-01
 4.717525932532428e-01	 9.059613871643315e-01	 3.179610820134672e-01
 4.507187970315005e-01	 9.166074325133627e-01	 1.775858488886922e-01
 4.295263846659971e-01	 9.267274530996050e-01	 6.234383348785899e-02
 6.452989330878689e-01	 8.192317432404701e-01	 3.201902188791915e+00
 6.258125870951656e-01	 8.342121748903389e-01	 2.799503702052604e+00
 6.060119894862324e-01	 8.487053768195172e-01	 2.426839968438974e+00
 5.859153365241646e-01	 8.627019096801652e-01	 2.084251307152029e+00
 5.655411754450539e-01	 8.761932326958571e-01	 1.771745624241117e+00
 5.449083495864745e-01	 8.891717179521820e-01	 1.489007836016526e+00
 5.240359430176632e-01	 9.016306607267103e-01	 1.235411321308759e+00
 5.029432249987972e-01	 9.135642858634091e-01	 1.010031280844407e+00
 4.816495945916606e-01	 9.249677502268457e-01	 8.116598716754990e-01
 4.601745257357874e-01	 9.358371413006453e-01	 6.388229754320905e-01
 4.385375130931406e-01	 9.461694720224560e-01	 4.897984510485505e-01
 6.585586944398124e-01	 8.360655188009579e-01	 3.792513329997345e+00
 6.386719382118824e-01	 8.513537720487252e-01	 3.385207308192875e+00
 6.184644730481854e-01	 8.661447838594846e-01	 3.003360087866874e+00
 5.979548691130996e-01	 8.804289209233550e-01	 2.647593332739789e+00
 5.771620547558782e-01	 8.941974669659335e-01	 2.318232256911995e+00
 5.561052605116251e-01	 9.074426373325506e-01	 2.015311950267049e+00
 5.348039625937184e-01	 9.201575895304894e-01	 1.738585497826107e+00
 5.132778262118267e-01	 9.323364297343917e-01	 1.487533809818182e+00
 4.915466490444214e-01	 9.439742152908878e-01	 1.261377071309858e+00
 4.696303051863295e-01	 9.550669532882545e-01	 1.059087712809760e+00
 4.475486898806173e-01	 9.656115952852506e-01	 8.794047961288760e-01
 6.718185161236035e-01	 8.528993709548366e-01	 4.329027981946902e+00
 6.515313478385860e-01	 8.684954472010725e-01	 3.917450370482523e+00
 6.309170132688804e-01	 8.835842702484357e-01	 3.527489149601166e+00
 6.099944564818532e-01	 8.981560128241262e-01	 3.160013551368650e+00
 5.887829869416564e-01	 9.122017831549707e-01	 2.815629431938797e+00
 5.673022223826878e-01	 9.257136398453292e-01	 2.494682763294695e+00
 5.455720311642555e-01	 9.386846026315764e-01	 2.197264693391307e+00
 5.236124744473237e-01	 9.511086590184908e-01	 1.923218127349489e+00
 5.014437485288675e-01	 9.629807668343175e-01	 1.672145776972535e+00
 4.790861276608314e-01	 9.742968527716233e-01	 1.443419620280832e+00
 4.565599076692103e-01	 9.850538070099997e-01	 1.236191706796378e+00
 6.850783873104126e-01	 8.697332859544249e-01	 4.815125720931498e+00
 6.643908054734493e-01	 8.856371863483036e-01	 4.400143477211995e+00
 6.433695999787655e-01	 9.010238217440757e-01	 4.003331720445489e+00
 6.220340887981141e-01	 9.158831709053001e-01	 3.625775665309191e+00
 6.004039625119737e-01	 9.302061665593826e-01	 3.268327494680606e+00
 5.784992260554833e-01	 9.439847105691280e-01	 2.931607269749578e+00
 5.563401399353486e-01	 9.572116848994920e-01	 2.616005191172579e+00
 5.339471612653116e-01	 9.698809583849518e-01	 2.321685197324686e+00
 5.113408849623419e-01	 9.819873893349959e-01	 2.048589882978571e+00
 4.885419854369978e-01	 9.935268240461828e-01	 1.796446718189819e+00
 4.655711590997021e-01	 1.004496091318712e+00	 1.564775542531923e+00
 6.983382971714092e-01	 8.865672500520388e-01	 5.254203305230029e+00
 6.772503006146458e-01	 9.027789754913409e-01	 4.836895383020717e+00
 6.558222230082891e-01	 9.184634241041100e-01	 4.434674216904246e+00
 6.340737562295727e-01	 9.336103806896990e-01	 4.048811453919717e+00
 6.120249719764157e-01	 9.482106024755824e-01	 3.680373474871252e+00
 5.896962623858325e-01	 9.622558345825569e-01	 3.330219963500200e+00
 5.671082801130728e-01	 9.757388212037590e-01	 2.999003616408247e+00
 5.442818782258141e-01	 9.886533125030188e-01	 2.687171010798850e+00
 5.212380502621862e-01	 1.000994067270781e+00	 2.394964647191591e+00
 4.979978707925330e-01	 1.012756851407364e+00	 2.122426182901292e+00
 4.745824368128753e-01	 1.023938432333398e+00	 1.869400868958982e+00
 7.115982348777641e-01	 9.034012494999973e-01	 5.649403088372893e+00
 6.901098227603490e-01	 9.199208006311087e-01	 5.231043174451235e+00
 6.682748721878996e-01	 9.359030630862434e-01	 4.825016563622170e+00
 6.461134489439179e-01	 9.513376277001435e-01	 4.432753679541303e+00
 6.236460058445679e-01	 9.662150761999836e-01	 4.055505009498110e+00
 6.008933222295560e-01	 9.805269969642263e-01	 3.694337562903903e+00
 5.778764429035024e-01	 9.942659964138990e-01	 3.350132266180782e+00
 5.546166168888542e-01	 1.007425706041936e+00	 3.023582339844873e+00
 5.311352363457437e-01	 1.020000785119533e+00	 2.715192706632938e+00
 5.074537760051419e-01	 1.031986919150600e+00	 2.425280480540666e+00
 4.835937334495127e-01	 1.043380814176068e+00	 2.153976585248815e+00
 7.248581896006467e-01	 9.202352705506168e-01	 6.003638270446464e+00
 7.029693614087323e-01	 9.370626477685295e-01	 5.585679085040764e+00
 6.807275373480450e-01	 9.533427244481812e-01	 5.177600341360359e+00
 6.581531571088395e-01	 9.690648974594548e-01	 4.780965349845193e+00
 6.352670546260165e-01	 9.842195730290018e-01	 4.397180514287860e+00
 6.120903964424750e-01	 9.987981827927465e-01	 4.027489900286146e+00
 5.886446195127112e-01	 1.012793195399433e+00	 3.672970540584447e+00
 5.649513688144562e-01	 1.026198123670950e+00	 3.334528549609629e+00
 5.410324351303566e-01	 1.039007527359113e+00	 3.012896125725551e+00
 5.169096933525288e-01	 1.051217011571321e+00	 2.708629523334217e+00
 4.926050416503973e-01	 1.062823220968731e+00	 2.422108077500547e+00
 7.381181505112275e-01	 9.370692994562149e-01	 6.319615384854236e+00
 7.158289060579694e-01	 9.542045029045262e-01	 5.903674381062556e+00
 6.931802083191740e-01	 9.707823939476286e-01	 5.495433865729725e+00
 6.701928708920266e-01	 9.867921754904537e-01	 5.096565794586256e+00
 6.468881088303469e-01	 1.002224078259048e+00	 4.708606075306452e+00
 6.232874758804091e-01	 1.017069377146727e+00	 4.332947457749297e+00
 5.994128011467743e-01	 1.031320403029883e+00	 3.970832965303728e+00
 5.752861255626429e-01	 1.044970550059304e+00	 3.623349964025598e+00
 5.509296385333672e-01	 1.058014278467379e+00	 3.291424975836190e+00
 5.263656151123984e-01	 1.070447112964960e+00	 2.975819348472381e+00
 5.016163540563112e-01	 1.082265636833397e+00	 2.677125897599468e+00
 7.513781067806767e-01	 9.539033224691095e-01	 6.599854361865730e+00
 7.286884462062335e-01	 9.713463520400222e-01	 6.187700679598287e+00
 7.056328749317351e-01	 9.882220573422903e-01	 5.781314575641419e+00
 6.822325804611691e-01	 1.004519447315962e+00	 5.382453950087100e+00
 6.585091589671447e-01	 1.020228577186539e+00	 4.992759465644921e+00
 6.344845513991801e-01	 1.035340565104777e+00	 4.613745963392514e+00
 6.101809790117663e-01	 1.049847604174770e+00	 4.246794226467407e+00
 5.856208786934384e-01	 1.063742969876243e+00	 3.893143210705793e+00
 5.608268384721183e-01	 1.077021022922191e+00	 3.553882874405669e+00
 5.358215335624553e-01	 1.089677207626948e+00	 3.229947748874011e+00
 5.106276633080377e-01	 1.101708045892076e+00	 2.922111396566569e+00
 4.205153119584038e-01	 9.072855543946884e-01	-4.084462985061316e-01
 3.996323363483559e-01	 9.166756533117867e-01	-4.655184020098757e-01
 3.786313260672554e-01	 9.255477376767897e-01	-5.052705007546249e-01
 3.575307247119081e-01	 9.339015469729992e-01	-5.287650817627136e-01
 3.363488008802308e-01	 9.417376544619560e-01	-5.372923109003247e-01
 3.151036037782408e-01	 9.490574463164519e-01	-5.323519117352200e-01
 2.938129209596947e-01	 9.558630981313170e-01	-5.156338903319295e-01
 2.724942383587361e-01	 9.621575490304196e-01	-4.889982914187243e-01
 2.511647027528098e-01	 9.679444735972303e-01	-4.544541781427207e-01
 2.298410867697775e-01	 9.732282518626566e-01	-4.141380323822466e-01
 2.085397565298897e-01	 9.780139375877577e-01	-3.702917752045494e-01
 4.295263846659971e-01	 9.267274530996050e-01	 6.234383348785877e-02
 4.081959152156875e-01	 9.363187690979321e-01	-3.260570757978831e-02
 3.867448817713726e-01	 9.453809701949013e-01	-1.108643355831569e-01
 3.651921231511673e-01	 9.539137902913475e-01	-1.731437772235207e-01
 3.435562994243084e-01	 9.619178149330770e-01	-2.203759484690861e-01
 3.218558465668613e-01	 9.693944599967365e-01	-2.536977137842267e-01
 3.001089332957768e-01	 9.763459476972484e-01	-2.744344079528567e-01
 2.783334202450919e-01	 9.827752801399664e-01	-2.840822782645538e-01
 2.565468216244761e-01	 9.886862106497463e-01	-2.842900144810385e-01
 2.347662694764965e-01	 9.940832131156619e-01	-2.768395419227523e-01
 2.130084806252003e-01	 9.989714495940584e-01	-2.636262590174612e-01
 4.385375130931406e-01	 9.461694720224560e-01	 4.897984510485467e-01
 4.167595470356864e-01	 9.559620063465152e-01	 3.601940760982674e-01
 3.948584876456476e-01	 9.652143253513543e-01	 2.467125008661666e-01
 3.728535689648783e-01	 9.739261573552891e-01	 1.489616262477056e-01
 3.507638425363411e-01	 9.820981001884548e-01	 6.633600866458256e-02
 3.286081311085275e-01	 9.897315994315168e-01	-1.970628931868612e-03
 3.064049845639254e-01	 9.968289239197676e-01	-5.695156647185518e-02
 2.841726382387694e-01	 1.003393138740421e+00	-9.977206721071674e-02
 2.619289737772125e-01	 1.009428075960190e+00	-1.317533123093679e-01
 2.396914826387364e-01	 1.014938303326879e+00	-1.543554437353558e-01
 2.174772323533424e-01	 1.019929091192779e+00	-1.691598790497078e-01
 4.475486898806173e-01	 9.656115952852506e-01	 8.794047961288742e-01
 4.253232248145773e-01	 9.756053490151767e-01	 7.183436506024905e-01
 4.029721370638132e-01	 9.850477869484793e-01	 5.728863940846975e-01
 3.805150558960260e-01	 9.939386318209121e-01	 4.429314470458343e-01
 3.579714243299932e-01	 1.002278493746992e+00	 3.281701162544073e-01
 3.353604518886946e-01	 1.010068848011553e+00	 2.280965136852617e-01
 3.127010696221891e-01	 1.017312010070490e+00	 1.420188761993957e-01
 2.900118875709075e-01	 1.024011107993203e+00	 6.907218216577116e-02
 2.673111548154468e-01	 1.030170052588674e+00	 8.231945877208879e-03
 2.446167222341216e-01	 1.035793505463931e+00	-4.167094361530976e-02
 2.219460080647578e-01	 1.040886845267778e+00	-8.193448539468973e-02
 4.565599076692103e-01	 9.850538070099997e-01	 1.236191706796378e+00
 4.338869415585854e-01	 9.952487810615555e-01	 1.046847660356733e+00
 4.110858233996027e-01	 1.004881338788606e+00	 8.726270895818315e-01
 3.881765776875967e-01	 1.013951197344305e+00	 7.136917252344599e-01
 3.651790389189292e-01	 1.022458979127596e+00	 5.700018296865677e-01
 3.421128033928178e-01	 1.030406189127603e+00	 4.413236489948034e-01
 3.189971833286159e-01	 1.037795189421028e+00	 3.272383460970130e-01
 2.958511634726449e-01	 1.044629171059732e+00	 2.271523378613061e-01
 2.726933603436074e-01	 1.050912123595312e+00	 1.403089405780380e-01
 2.495419842402762e-01	 1.056648802494440e+00	 6.580121110439796e-02
 2.264148041098882e-01	 1.061844694702915e+00	 2.585854690902334e-03
 4.655711590997021e-01	 1.004496091318712e+00	 1.564775542531923e+00
 4.424506902739356e-01	 1.014892286443292e+00	 1.350298474065082e+00
 4.191995400267488e-01	 1.024714964674065e+00	 1.150493221780034e+00
 3.958381280825752e-01	 1.033963837581557e+00	 9.657594036137156e-01
 3.723866804168133e-01	 1.042639539849171e+00	 7.963002556532208e-01
 3.488651801063526e-01	 1.050743606170426e+00	 6.421277306878090e-01
 3.252933205412541e-01	 1.058278445242995e+00	 5.030691575279800e-01
 3.016904611751206e-01	 1.065247311101426e+00	 3.787754102931424e-01
 2.780755859661225e-01	 1.071654272040220e+00	 2.687305159206179e-01
 2.544672646348243e-01	 1.077504177386029e+00	 1.722626075859279e-01
 2.308836168391752e-01	 1.082802622382047e+00	 8.855611211096415e-02
 4.745824368128753e-01	 1.023938432333398e+00	 1.869400868958982e+00
 4.510144639668531e-01	 1.034535849118026e+00	 1.632916744469899e+00
 4.273132803189845e-01	 1.044548648407187e+00	 1.410672652222462e+00
 4.034997008239476e-01	 1.053976536188754e+00	 1.203282359656490e+00
 3.795943429373100e-01	 1.062820159430623e+00	 1.011167805253743e+00
 3.556175765147537e-01	 1.071081082530780e+00	 8.345619453203275e-01
 3.315894761181520e-01	 1.078761760808004e+00	 6.735132405791020e-01
 3.075297759094728e-01	 1.085865511279706e+00	 5.278917583130431e-01
 2.834578272874200e-01	 1.092396480983510e+00	 3.973968420178697e-01
 2.593925593953902e-01	 1.098359613106321e+00	 2.815662767660134e-01
 2.353524426030607e-01	 1.103760611189034e+00	 1.797868553860289e-01
 4.835937334495127e-01	 1.043380814176068e+00	 2.153976585248815e+00
 4.595782556435624e-01	 1.054179453043397e+00	 1.898587427218532e+00
 4.354270376500431e-01	 1.064382373790302e+00	 1.657018293840383e+00
 4.111612896546992e-01	 1.073989276821986e+00	 1.430074959642802e+00
 3.868020205940839e-01	 1.083000821390855e+00	 1.218375413265445e+00
 3.623699871034771e-01	 1.091418601599426e+00	 1.022350543001616e+00
 3.378856449173579e-01	 1.099245119387670e+00	 8.422465406850055e-01
 3.133691029068408e-01	 1.106483754755991e+00	 6.781290263992650e-01
 2.888400799119281e-01	 1.113138733485298e+00	 5.298888698652504e-01
 2.643178644995979e-01	 1.119215092622939e+00	 3.972496573742541e-01
 2.398212777519862e-01	 1.124718644007733e+00	 2.797767264947424e-01
 4.926050416503973e-01	 1.062823220968731e+00	 2.422108077500547e+00
 4.681420583102891e-01	 1.073823082177045e+00	 2.150891840035364e+00
 4.435408053936573e-01	 1.084216124625741e+00	 1.893079999030281e+00
 4.188228883178154e-01	 1.094002043137341e+00	 1.649649708122809e+00
 3.940097075007988e-01	 1.103181509248773e+00	 1.421393891084413e+00
 3.691224063579773e-01	 1.111756146767121e+00	 1.208919845721034e+00
 3.441818217969195e-01	 1.119728504253606e+00	 1.012649644207263e+00
 3.192084373983631e-01	 1.127102024691700e+00	 8.328223594137871e-01
 2.942223394440749e-01	 1.133881012605696e+00	 6.694981173120174e-01
 2.692431759250716e-01	 1.140070598903504e+00	 5.225639452667366e-01
 2.442901186363934e-01	 1.145676703722003e+00	 3.917413557879073e-01
 5.016163540563112e-01	 1.082265636833397e+00	 2.677125897599470e+00
 4.767058649732577e-01	 1.093466720476611e+00	 2.393136259903798e+00
 4.516545769235600e-01	 1.104049884715834e+00	 2.122133006292497e+00
 4.264844905562817e-01	 1.114014818790906e+00	 1.865245483497188e+00
 4.012173977711198e-01	 1.123362206523283e+00	 1.623421899312609e+00
 3.758748287637099e-01	 1.132093701424626e+00	 1.397425913764369e+00
 3.504780016148858e-01	 1.140211898677425e+00	 1.187835104397938e+00
 3.250477746151785e-01	 1.147720304248252e+00	 9.950413628212613e-01
 2.996046014882889e-01	 1.154623301404820e+00	 8.192532472796359e-01
 2.741684896494356e-01	 1.160926114915639e+00	 6.605002824322996e-01
 2.487589616067241e-01	 1.166634773215703e+00	 5.186391635776220e-01
 5.106276633080377e-01	 1.101708045892076e+00	 2.922111396566565e+00
 4.852696686386936e-01	 1.113110351899734e+00	 2.628377485725925e+00
 4.597683456134846e-01	 1.123883637862912e+00	 2.347203370364265e+00
 4.341460901130837e-01	 1.134027587438770e+00	 2.079852781249789e+00
 4.084250855187109e-01	 1.143542896733289e+00	 1.827410957384966e+00
 3.826272488061301e-01	 1.152431248962697e+00	 1.590779282867484e+00
 3.567741792293045e-01	 1.160695285930740e+00	 1.370671875176636e+00
 3.308871097884258e-01	 1.168338576587066e+00	 1.167614210233668e+00
 3.049868616489977e-01	 1.175365582942782e+00	 9.819438343170990e-01
 2.790938016503139e-01	 1.181781623626968e+00	 8.138131759058627e-01
 2.532278030134201e-01	 1.187592835372691e+00	 6.631944328340191e-01
 2.085397565298897e-01	 9.780139375877577e-01	-3.702917752045485e-01
 1.872751588682954e-01	 9.823075085927059e-01	-3.271154306603288e-01
 1.660642739430359e-01	 9.861149146151665e-01	-2.873278043224867e-01
 1.449221048859622e-01	 9.894430288203904e-01	-2.510684037038575e-01
 1.238631447915627e-01	 9.922992591451227e-01	-2.185521547703058e-01
 1.029013581149162e-01	 9.946915115410935e-01	-1.900583291076168e-01
 8.205016480108950e-02	 9.966281528999332e-01	-1.659192652808423e-01
 6.132242709398352e-02	 9.981179738659459e-01	-1.465090244881821e-01
 4.073043895732970e-02	 9.991701517322813e-01	-1.322321169096452e-01
 2.028591802679350e-02	 9.997942136041430e-01	-1.235124293549412e-01
 0.000000000000000e+00	 1.000000000000000e+00	-1.207824770782948e-01
 2.130084806252003e-01	 9.989714495940584e-01	-2.636262590174607e-01
 1.912882114818296e-01	 1.003357026001709e+00	-2.485034578216649e-01
 1.696228060660850e-01	 1.007246019571033e+00	-2.339874980612371e-01
 1.480275890064632e-01	 1.010645450749817e+00	-2.201104899252408e-01
 1.265173639646925e-01	 1.013562886216773e+00	-2.069924577833309e-01
 1.051063946350696e-01	 1.016006401337383e+00	-1.948303382199530e-01
 8.380838853377159e-02	 1.017984542294350e+00	-1.838866395338146e-01
 6.263648352503362e-02	 1.019506288103497e+00	-1.744779117705337e-01
 4.160323701545199e-02	 1.020581012714855e+00	-1.669631740711774e-01
 2.072061773363211e-02	 1.021218447386510e+00	-1.617324414406092e-01
 0.000000000000000e+00	 1.021428643505832e+00	-1.591954861408733e-01
 2.174772323533424e-01	 1.019929091192779e+00	-1.691598790497078e-01
 1.953012889102773e-01	 1.024406673572047e+00	-1.797260672523513e-01
 1.731813601931859e-01	 1.028377255192658e+00	-1.884043959748145e-01
 1.511330923292425e-01	 1.031848003785864e+00	-1.951261893500185e-01
 1.291715995493784e-01	 1.034826644773342e+00	-1.999225036433447e-01
 1.073114447889999e-01	 1.037321422935393e+00	-2.029132231281339e-01
 8.556662313721228e-02	 1.039341063746916e+00	-2.042956819477770e-01
 6.395054808032812e-02	 1.040894734596435e+00	-2.043329698861904e-01
 4.247604046947492e-02	 1.041992006092093e+00	-2.033420792093659e-01
 2.115532012778655e-02	 1.042642813646135e+00	-2.016820462928943e-01
 0.000000000000000e+00	 1.042857419516156e+00	-1.997422357718093e-01
 2.219460080647578e-01	 1.040886845267778e+00	-8.193448539468973e-02
 1.993143878762662e-01	 1.045456434112439e+00	-1.158706745052278e-01
 1.767399334182188e-01	 1.049508604222139e+00	-1.456949607106206e-01
 1.542386123182304e-01	 1.053050670612401e+00	-1.712442032747061e-01
 1.318258493781381e-01	 1.056090517448735e+00	-1.924662016451988e-01
 1.095165067760988e-01	 1.058636558927184e+00	-2.094089164222526e-01
 8.732486717572427e-02	 1.060697699815824e+00	-2.222090774120549e-01
 6.526461968691645e-02	 1.062283295876901e+00	-2.310803454410006e-01
 4.334884860677980e-02	 1.063403114377741e+00	-2.363011955110879e-01
 2.159002485435494e-02	 1.064067294885858e+00	-2.382026867662992e-01
 0.000000000000000e+00	 1.064286310530212e+00	-2.371562797883362e-01
 2.264148041098882e-01	 1.061844694702915e+00	 2.585854690902334e-03
 2.033275051024242e-01	 1.066506290431602e+00	-5.244204998196667e-02
 1.802985228350641e-01	 1.070640049401569e+00	-1.013890203188708e-01
 1.573441464373569e-01	 1.074253433913294e+00	-1.440034897637399e-01
 1.344801112834887e-01	 1.077354486876854e+00	-1.801554965682066e-01
 1.117215787957583e-01	 1.079951791904819e+00	-2.098260575434749e-01
 8.908311921362033e-02	 1.082054433059266e+00	-2.330957858855580e-01
 6.657869727184804e-02	 1.083671954477038e+00	-2.501329284308080e-01
 4.422166071474793e-02	 1.084814320085548e+00	-2.611810003973396e-01
 2.202473155843544e-02	 1.085491873608516e+00	-2.665461950303576e-01
 0.000000000000000e+00	 1.085715299047245e+00	-2.665847417399045e-01
 2.308836168391752e-01	 1.082802622382047e+00	 8.855611211096415e-02
 2.073406373113792e-01	 1.087556225338255e+00	 1.467836862476046e-02
 1.838571255376022e-01	 1.091771573473044e+00	-5.138955425648195e-02
 1.604496921505519e-01	 1.095456276372411e+00	-1.093134268249396e-01
 1.371343830979476e-01	 1.098618535691603e+00	-1.588908106794571e-01
 1.139266590473702e-01	 1.101267104460359e+00	-2.000406135509154e-01
 9.084137781521326e-02	 1.103411246035437e+00	-2.327917403854494e-01
 6.789277976217231e-02	 1.105060692928989e+00	-2.572710246654870e-01
 4.509447608076063e-02	 1.106225605729260e+00	-2.736906285916456e-01
 2.245943988512613e-02	 1.106916532316950e+00	-2.823351017117999e-01
 0.000000000000000e+00	 1.107144367566494e+00	-2.835482850051536e-01
 2.353524426030607e-01	 1.103760611189034e+00	 1.797868553860289e-01
 2.113537812257591e-01	 1.108606221641115e+00	 8.926853271425084e-02
 1.874157386197133e-01	 1.112903159178661e+00	 8.062943255645605e-03
 1.635552469217459e-01	 1.116659180673621e+00	-6.341851019982325e-02
 1.397886626540324e-01	 1.119882646526886e+00	-1.249059888874540e-01
 1.161317457303262e-01	 1.122582479185865e+00	-1.762609830167727e-01
 9.259964154481580e-02	 1.124768121302530e+00	-2.174650196586001e-01
 6.920686608493874e-02	 1.126449493764897e+00	-2.486075061228044e-01
 4.596729399219920e-02	 1.127636953822624e+00	-2.698729081366864e-01
 2.289414947952517e-02	 1.128341253513995e+00	-2.815274648425699e-01
 0.000000000000000e+00	 1.128573498587201e+00	-2.839056414239436e-01
 2.398212777519862e-01	 1.124718644007733e+00	 2.797767264947424e-01
 2.153669335681919e-01	 1.129656262148901e+00	 1.747978118014808e-01
 1.909743591752777e-01	 1.134034789260513e+00	 8.042211932664767e-02
 1.666608082148685e-01	 1.137862129500790e+00	-2.866994533829992e-03
 1.424429477842604e-01	 1.141146802016604e+00	-7.473715991259811e-02
 1.183368370440184e-01	 1.143897898673398e+00	-1.349969985251380e-01
 9.435790896674069e-02	 1.146125041418737e+00	-1.835849121142934e-01
 7.052095516719674e-02	 1.147838339516904e+00	-2.205568553840840e-01
 4.684011373644497e-02	 1.149048346879390e+00	-2.460733035579035e-01
 2.332885998673064e-02	 1.149766019702492e+00	-2.603856293092319e-01
 0.000000000000000e+00	 1.150002674608608e+00	-2.638221041119087e-01
 2.442901186363934e-01	 1.145676703722003e+00	 3.917413557879073e-01
 2.193800910613053e-01	 1.150706329670330e+00	 2.744555106735012e-01
 1.945329842981758e-01	 1.155166446460698e+00	 1.688639474406000e-01
 1.697663734938503e-01	 1.159065105537788e+00	 7.551702681840622e-02
 1.450972363211490e-01	 1.162410984794663e+00	-5.195012233282892e-03
 1.205419311878384e-01	 1.165213345515019e+00	-7.303232876088361e-02
 9.611617864530074e-02	 1.167481988942253e+00	-1.278943729414914e-01
 7.183504593599568e-02	 1.169227212717153e+00	-1.698076057164000e-01
 4.771293460087925e-02	 1.170459767413303e+00	-1.989122660612408e-01
 2.376357105184069e-02	 1.171190813385280e+00	-2.154484137033661e-01
 0.000000000000000e+00	 1.171431878129957e+00	-2.197414770470623e-01
 2.487589616067241e-01	 1.166634773215703e+00	 5.186391635776240e-01
 2.233932504277272e-01	 1.171756407014121e+00	 3.911763161146862e-01
 1.980916110822880e-01	 1.176298113521309e+00	 2.763118777601166e-01
 1.728719402226211e-01	 1.180268091468482e+00	 1.746585355854251e-01
 1.477515260972155e-01	 1.183675177494965e+00	 8.665994443115554e-02
 1.227470263611782e-01	 1.186528802302791e+00	 1.260014714088942e-02
 9.787444914480863e-02	 1.188838946431268e+00	-4.738544788691068e-02
 7.314913731838514e-02	 1.190616095897788e+00	-9.329774996448537e-02
 4.858575587288333e-02	 1.191871197938112e+00	-1.252605625010899e-01
 2.419828231995344e-02	 1.192615617065195e+00	-1.435062937494267e-01
 0.000000000000000e+00	 1.192861091650489e+00	-1.483610469118606e-01
 2.532278030134201e-01	 1.187592835372691e+00	 6.631944328340231e-01
 2.274064083900854e-01	 1.192806476988992e+00	 5.276630523385788e-01
 2.016502366214943e-01	 1.197429773184443e+00	 4.054593274220424e-01
 1.759775058651110e-01	 1.201471069976739e+00	 2.972538672065124e-01
 1.504058149449775e-01	 1.204939362751414e+00	 2.035395007589533e-01
 1.249521207634296e-01	 1.207844251628774e+00	 1.246403600073829e-01
 9.963271902957720e-02	 1.210195896443978e+00	 6.072270263882773e-02
 7.446322824141441e-02	 1.212004971590951e+00	 1.180724834272007e-02
 4.945857683983854e-02	 1.213282620967563e+00	-2.221721529037524e-02
 2.463299343616701e-02	 1.214040413245077e+00	-4.157921228211325e-02
 0.000000000000000e+00	 1.214290297669446e+00	-4.660920399466773e-02
 1.214290297669446e+00	 0.000000000000000e+00	 1.830670241167284e+01
 1.214040413245077e+00	 2.463299343616735e-02	 1.829877840476169e+01
 1.213282620967562e+00	 4.945857683983884e-02	 1.827461040699392e+01
 1.212004971590950e+00	 7.446322824141469e-02	 1.823364910438063e+01
 1.210195896443978e+00	 9.963271902957743e-02	 1.817554265941522e+01
 1.207844251628774e+00	 1.249521207634298e-01	 1.810014674143367e+01
 1.204939362751414e+00	 1.504058149449777e-01	 1.800753351504519e+01
 1.201471069976739e+00	 1.759775058651112e-01	 1.789799943365838e+01
 1.197429773184443e+00	 2.016502366214944e-01	 1.777207169034059e+01
 1.192806476988992e+00	 2.274064083900854e-01	 1.763051318632261e+01
 1.187592835372691e+00	 2.532278030134200e-01	 1.747432588840908e+01
 1.235717982007509e+00	 0.000000000000000e+00	 1.779632061085065e+01
 1.235463688057201e+00	 2.506767368405079e-02	 1.779007219796797e+01
 1.234692523578864e+00	 5.033133582869984e-02	 1.776911666756939e+01
 1.233392328467018e+00	 7.577722585210603e-02	 1.773300911989323e+01
 1.231551329906597e+00	 1.013908640611249e-01	 1.768149201659399e+01
 1.229158187351587e+00	 1.271570585836554e-01	 1.761450409901173e+01
 1.226202038044907e+00	 1.530599153135700e-01	 1.753218825645823e+01
 1.222672542868285e+00	 1.790828509833808e-01	 1.743489819892767e+01
 1.218559932295173e+00	 2.052086094647837e-01	 1.732320379496214e+01
 1.213855052205103e+00	 2.314192813802493e-01	 1.719789494465165e+01
 1.208549409304364e+00	 2.576963270899055e-01	 1.705998386990370e+01
 1.257145643846623e+00	 0.000000000000000e+00	 1.733143000214552e+01
 1.256886940375000e+00	 2.550235347585065e-02	 1.732667475070753e+01
 1.256102403709864e+00	 5.120409390174040e-02	 1.730860715265676e+01
 1.254779662886434e+00	 7.709122208384636e-02	 1.727688486163401e+01
 1.252906740946056e+00	 1.031490072474701e-01	 1.723134320973490e+01
 1.250472100694778e+00	 1.293619940895929e-01	 1.717200304678748e+01
 1.247464691012572e+00	 1.557140128962541e-01	 1.709907751837387e+01
 1.243873993498236e+00	 1.821881928418994e-01	 1.701297764377603e+01
 1.239690069219164e+00	 2.087669785725820e-01	 1.691431656251763e+01
 1.234903605320127e+00	 2.354321501576222e-01	 1.680391232867032e+01
 1.229505961231549e+00	 2.621648464750896e-01	 1.668278914555356e+01
 1.278573285686670e+00	 0.000000000000000e+00	 1.690733812074639e+01
 1.278310172697841e+00	 2.593703286221347e-02	 1.690392738013772e+01
 1.277512263858373e+00	 5.207685116066522e-02	 1.688846249148421e+01
 1.276166977344381e+00	 7.840521708978081e-02	 1.686070179187632e+01
 1.274262132053813e+00	 1.049071487935502e-01	 1.682057203881261e+01
 1.271785994144974e+00	 1.315669275382911e-01	 1.676817520381015e+01
 1.268727324135054e+00	 1.583681080024752e-01	 1.670379419006071e+01
 1.265075424340102e+00	 1.852935318027594e-01	 1.662789734144949e+01
 1.260820186421612e+00	 2.123253443598424e-01	 1.654114161897411e+01
 1.255952138789739e+00	 2.394450151901940e-01	 1.644437433243093e+01
 1.250462493599191e+00	 2.666333616901347e-01	 1.633863333010203e+01
 1.300000910027534e+00	 0.000000000000000e+00	 1.651963258585092e+01
 1.299733387525096e+00	 2.637171189378576e-02	 1.651745271784514e+01
 1.298922106522203e+00	 5.294960770717896e-02	 1.650434539443678e+01
 1.297554274336043e+00	 7.971921102305467e-02	 1.648016774181399e+01
 1.295617505721335e+00	 1.066652889043024e-01	 1.644493646848453e+01
 1.293099870188797e+00	 1.337718591867983e-01	 1.639883364692699e+01
 1.289989939893004e+00	 1.610222009416786e-01	 1.634221140093832e+01
 1.286276837867395e+00	 1.883988682280533e-01	 1.627559537146467e+01
 1.281950286367708e+00	 2.158837072415183e-01	 1.619968684372137e+01
 1.277000655069617e+00	 2.434578769459541e-01	 1.611536343165898e+01
 1.271419008852232e+00	 2.711018732562027e-01	 1.602367823221506e+01
 1.321428519369097e+00	 0.000000000000000e+00	 1.616415839076872e+01
 1.321156587356134e+00	 2.680639062121409e-02	 1.616313205201950e+01
 1.320331934199167e+00	 5.382236364298634e-02	 1.615217807447965e+01
 1.318941556356603e+00	 8.103320403681297e-02	 1.613125044019070e+01
 1.316972864440081e+00	 1.084234277846640e-01	 1.610045429260661e+01
 1.314413731312873e+00	 1.359767892921634e-01	 1.606005074052856e+01
 1.311252540767067e+00	 1.636762920233099e-01	 1.601046054548925e+01
 1.307478236553624e+00	 1.915042024798736e-01	 1.595226657014613e+01
 1.303080371522645e+00	 2.194420676325628e-01	 1.588621487663204e+01
 1.298049156615436e+00	 2.474707358928920e-01	 1.581321437858271e+01
 1.292375509435615e+00	 2.755703816944557e-01	 1.573433496857972e+01
 1.342856116211244e+00	 0.000000000000000e+00	 1.583699736741895e+01
 1.342579774690324e+00	 2.724106909514499e-02	 1.583708483886656e+01
 1.341741749387073e+00	 5.469511906979199e-02	 1.582812182971033e+01
 1.340328825901245e+00	 8.234719628420101e-02	 1.581015719192210e+01
 1.338328210701515e+00	 1.101815656395722e-01	 1.578338293451699e+01
 1.335727580003826e+00	 1.381817181114346e-01	 1.574813808469526e+01
 1.332515129237891e+00	 1.663303815568143e-01	 1.570491140602341e+01
 1.328679622872302e+00	 1.946095349203129e-01	 1.565434285525282e+01
 1.324210444351618e+00	 2.230004259479293e-01	 1.559722367221404e+01
 1.319097645882874e+00	 2.514835924989972e-01	 1.553449501361877e+01
 1.313331997794282e+00	 2.800388875260558e-01	 1.546724506138851e+01
 1.364283703053858e+00	 0.000000000000000e+00	 1.553444958614148e+01
 1.364002952027036e+00	 2.767574736622498e-02	 1.553565014474734e+01
 1.363151554583735e+00	 5.556787408930065e-02	 1.552855854941947e+01
 1.361716085465153e+00	 8.366118791836383e-02	 1.551331647031475e+01
 1.359683546997100e+00	 1.119397026739642e-01	 1.549020114825577e+01
 1.357041418748281e+00	 1.403866459016608e-01	 1.545962834882399e+01
 1.353777707786126e+00	 1.689844698516374e-01	 1.542215414263284e+01
 1.349880999296936e+00	 1.977148659114634e-01	 1.537847539664487e+01
 1.345340507319818e+00	 2.265587826025709e-01	 1.532942887577575e+01
 1.340146125327605e+00	 2.554964472322594e-01	 1.527598887215868e+01
 1.334288476373178e+00	 2.845073912721650e-01	 1.521926330113420e+01
 1.385711282396822e+00	 0.000000000000000e+00	 1.525301648131999e+01
 1.385426121865639e+00	 2.811042548510060e-02	 1.525536981003837e+01
 1.384561352286963e+00	 5.644062880321693e-02	 1.525007393543651e+01
 1.383103337543510e+00	 8.497517909244671e-02	 1.523736121573234e+01
 1.381038875818297e+00	 1.136978390927772e-01	 1.521759241494245e+01
 1.378355250032862e+00	 1.425915729198905e-01	 1.519125878662958e+01
 1.375040278892416e+00	 1.716385572172245e-01	 1.515898294821227e+01
 1.371082368301040e+00	 2.008201958154180e-01	 1.512151843315561e+01
 1.366470562892438e+00	 2.301171380114408e-01	 1.507974782436985e+01
 1.361194597405308e+00	 2.595093005606682e-01	 1.503467939213591e+01
 1.355244947617245e+00	 2.889758934539454e-01	 1.498744218362009e+01
 1.407138856740019e+00	 0.000000000000000e+00	 1.498938551883895e+01
 1.406849286705503e+00	 2.854510350241839e-02	 1.499297315117208e+01
 1.405971144994569e+00	 5.731338331324556e-02	 1.498944225590622e+01
 1.404490584631499e+00	 8.628916995959479e-02	 1.497911365879682e+01
 1.402394199656569e+00	 1.154559751009486e-01	 1.496242985360293e+01
 1.399669076344194e+00	 1.447964994231720e-01	 1.493995625328253e+01
 1.396302845037412e+00	 1.742926439630209e-01	 1.491238119104545e+01
 1.392283732358122e+00	 2.039255249942690e-01	 1.488051456018014e+01
 1.387600613534673e+00	 2.336754925894924e-01	 1.484528499931140e+01
 1.382243064571658e+00	 2.635221529522129e-01	 1.480773555172732e+01
 1.376201413971425e+00	 2.934443945925591e-01	 1.476901775337175e+01
 1.428566428583333e+00	 0.000000000000000e+00	 1.474041624347491e+01
 1.428272449045998e+00	 2.897978146882486e-02	 1.474536303934154e+01
 1.427380935204363e+00	 5.818613772109118e-02	 1.474361247058439e+01
 1.425877829224305e+00	 8.760316067295322e-02	 1.473557150804309e+01
 1.423749521003378e+00	 1.172141109034155e-01	 1.472176248742333e+01
 1.420982900168901e+00	 1.470014256685542e-01	 1.470282356695409e+01
 1.417565408701760e+00	 1.769467303984722e-01	 1.467950788875863e+01
 1.413485093941694e+00	 2.070308538101091e-01	 1.465268133355112e+01
 1.408730661711715e+00	 2.372338467516789e-01	 1.462331877785130e+01
 1.403291529282332e+00	 2.675350048748832e-01	 1.459249878702188e+01
 1.397157877880663e+00	 2.979128952091682e-01	 1.456139670577500e+01
 1.187592835372691e+00	 2.532278030134200e-01	 1.747432588840908e+01
 1.181781623626968e+00	 2.790938016503138e-01	 1.729986816314403e+01
 1.175365582942782e+00	 3.049868616489975e-01	 1.710334958122631e+01
 1.168338576587066e+00	 3.308871097884256e-01	 1.688588917316563e+01
 1.160695285930740e+00	 3.567741792293043e-01	 1.664877085044978e+01
 1.152431248962697e+00	 3.826272488061300e-01	 1.639343916308931e+01
 1.143542896733289e+00	 4.084250855187107e-01	 1.612149375015493e+01
 1.134027587438770e+00	 4.341460901130836e-01	 1.583468251051503e+01
 1.123883637862912e+00	 4.597683456134844e-01	 1.553489353797224e+01
 1.113110351899734e+00	 4.852696686386933e-01	 1.522414588091475e+01
 1.101708045892076e+00	 5.106276633080375e-01	 1.490457920095785e+01
 1.208549409304364e+00	 2.576963270899055e-01	 1.705998386990370e+01
 1.202635651395282e+00	 2.840187639070760e-01	 1.690546904236803e+01
 1.196106391577979e+00	 3.103687396177811e-01	 1.673019716010778e+01
 1.188955384829006e+00	 3.367260303129397e-01	 1.653526238518997e+01
 1.181177218665371e+00	 3.630699097547062e-01	 1.632190519660206e+01
 1.172767352338166e+00	 3.893791893618671e-01	 1.609150739902232e+01
 1.163722153919135e+00	 4.156322614511784e-01	 1.584558593100179e+01
 1.154038934986585e+00	 4.418071456226151e-01	 1.558578551642750e+01
 1.143715982621827e+00	 4.678815381477509e-01	 1.531387022005242e+01
 1.132752588435226e+00	 4.938328641916428e-01	 1.503171398331522e+01
 1.121149074351903e+00	 5.196383326700746e-01	 1.474129023010971e+01
 1.229505961231549e+00	 2.621648464750896e-01	 1.668278914555355e+01
 1.223489657266795e+00	 2.889437209932077e-01	 1.654659641344038e+01
 1.216847178435284e+00	 3.157506119361138e-01	 1.639082725633273e+01
 1.209572171423291e+00	 3.425649447070591e-01	 1.621655221800506e+01
 1.201659129894013e+00	 3.693656336700243e-01	 1.602497103239572e+01
 1.193103434360818e+00	 3.961311228284720e-01	 1.581740692020671e+01
 1.183901389916909e+00	 4.228394298164989e-01	 1.559529978152887e+01
 1.174050261522691e+00	 4.494681930884203e-01	 1.536019834488538e+01
 1.163548306557042e+00	 4.759947221635517e-01	 1.511375135007570e+01
 1.152394804346683e+00	 5.023960507536391e-01	 1.485769785730247e+01
 1.140590082399010e+00	 5.286489925713382e-01	 1.459385678770774e+01
 1.250462493599191e+00	 2.666333616901347e-01	 1.633863333010203e+01
 1.244343643674486e+00	 2.938686734831359e-01	 1.621923330725497e+01
 1.237587945934461e+00	 3.211324792317422e-01	 1.608132679233475e+01
 1.230188938775215e+00	 3.484038536518649e-01	 1.592596204867324e+01
 1.222141022006219e+00	 3.756613517096460e-01	 1.575430079802600e+01
 1.213439497403189e+00	 4.028830499935666e-01	 1.556761183782623e+01
 1.204080607080841e+00	 4.300465914554146e-01	 1.536726364126808e+01
 1.194061569381721e+00	 4.571292334041993e-01	 1.515471601707665e+01
 1.183380611982301e+00	 4.841078986073408e-01	 1.493151092304262e+01
 1.172037001925665e+00	 5.109592293236384e-01	 1.469926254231069e+01
 1.160031072301475e+00	 5.376596440629882e-01	 1.445964674339350e+01
 1.271419008852232e+00	 2.711018732562027e-01	 1.602367823221506e+01
 1.265197613051333e+00	 2.987936219512873e-01	 1.591962891206250e+01
 1.258328696495277e+00	 3.265143421324131e-01	 1.579804382297325e+01
 1.250805689290075e+00	 3.542427578284384e-01	 1.565995037234859e+01
 1.242622897391544e+00	 3.819570646079584e-01	 1.550647505140833e+01
 1.233775543837814e+00	 4.096349716447727e-01	 1.533883640213593e+01
 1.224259807765161e+00	 4.372537472086662e-01	 1.515833704400875e+01
 1.214072860898309e+00	 4.647902674636529e-01	 1.496635485385818e+01
 1.203212901211347e+00	 4.922210684255724e-01	 1.476433340982288e+01
 1.191679183463730e+00	 5.195224009005966e-01	 1.455377182523590e+01
 1.179472046327379e+00	 5.466702881961839e-01	 1.433621410974332e+01
 1.292375509435615e+00	 2.755703816944557e-01	 1.573433496857973e+01
 1.286051567830313e+00	 3.037185669720885e-01	 1.564427805782437e+01
 1.279069432537498e+00	 3.318962012658738e-01	 1.553756746128265e+01
 1.271422425373163e+00	 3.600816579178602e-01	 1.541521124147615e+01
 1.263104758439543e+00	 3.882527730993484e-01	 1.527830349352641e+01
 1.254111576037226e+00	 4.163868885697128e-01	 1.512801668701583e+01
 1.244438994324100e+00	 4.444608979169954e-01	 1.496559313466972e+01
 1.234084138407093e+00	 4.724512961604820e-01	 1.479233569779798e+01
 1.223045176557927e+00	 5.003342325647011e-01	 1.460959785662872e+01
 1.211321351252438e+00	 5.280855664834700e-01	 1.441877328866970e+01
 1.198913006744801e+00	 5.556809260220851e-01	 1.422128510930827e+01
 1.313331997794282e+00	 2.800388875260558e-01	 1.546724506138851e+01
 1.306905510444404e+00	 3.086435091199661e-01	 1.538990264541524e+01
 1.299810156480888e+00	 3.372780572598706e-01	 1.529670970357393e+01
 1.292039149429777e+00	 3.659205546012115e-01	 1.518865655183853e+01
 1.283586607539769e+00	 3.945484779182039e-01	 1.506680778109365e+01
 1.274447596373964e+00	 4.231388015560087e-01	 1.493229399528312e+01
 1.264618169111887e+00	 4.516680444211439e-01	 1.478630273339179e+01
 1.254095404242703e+00	 4.801123203883873e-01	 1.463006870198593e+01
 1.242877440335784e+00	 5.084473919711806e-01	 1.446486346399114e+01
 1.230963507583349e+00	 5.366487270712144e-01	 1.429198474468819e+01
 1.218353955821823e+00	 5.646915585918517e-01	 1.411274552674367e+01
 1.334288476373178e+00	 2.845073912721650e-01	 1.521926330113420e+01
 1.327759443326584e+00	 3.135684489693472e-01	 1.515343480683691e+01
 1.320550870745215e+00	 3.426599107421504e-01	 1.507248894505356e+01
 1.312655863865211e+00	 3.717594485595738e-01	 1.497739997238819e+01
 1.304068447081777e+00	 4.008441797989112e-01	 1.486920593001222e+01
 1.294783607220561e+00	 4.298907113912824e-01	 1.474899979556478e+01
 1.284797334482754e+00	 4.588751875618530e-01	 1.461791986573891e+01
 1.274106660739776e+00	 4.877733410410693e-01	 1.447713951334709e+01
 1.262709694858662e+00	 5.165605475914657e-01	 1.432785648256828e+01
 1.250605654748022e+00	 5.452118836627861e-01	 1.417128190185513e+01
 1.237794895826525e+00	 5.737021869566435e-01	 1.400862920473360e+01
 1.355244947617245e+00	 2.889758934539454e-01	 1.498744218362009e+01
 1.348613368909831e+00	 3.184933870946581e-01	 1.493200160906145e+01
 1.341291577750244e+00	 3.480417623404600e-01	 1.486211500296139e+01
 1.333272571084760e+00	 3.775983404740276e-01	 1.477874234092574e+01
 1.324550279455123e+00	 4.071398794758583e-01	 1.468289813742628e+01
 1.315119610949551e+00	 4.366426188631559e-01	 1.457564202494002e+01
 1.304976492790930e+00	 4.660823281798642e-01	 1.445806860030209e+01
 1.294117910232946e+00	 4.954343590122290e-01	 1.433129669950381e+01
 1.282541942440307e+00	 5.246737003720103e-01	 1.419645828323964e+01
 1.270247795038016e+00	 5.537750372571406e-01	 1.405468713194494e+01
 1.257235829026986e+00	 5.827128121676197e-01	 1.390710755989569e+01
 1.376201413971425e+00	 2.934443945925591e-01	 1.476901775337175e+01
 1.369467289627122e+00	 3.234183240703259e-01	 1.472291113695014e+01
 1.362032279915742e+00	 3.534236126825465e-01	 1.466297548652375e+01
 1.353889273493718e+00	 3.834372310256541e-01	 1.459015836936339e+01
 1.345032107049359e+00	 4.134355776834319e-01	 1.450545387114554e+01
 1.335455609933472e+00	 4.433945247592514e-01	 1.440989261175987e+01
 1.325155646390646e+00	 4.732894671159190e-01	 1.430453105433610e+01
 1.314129155056847e+00	 5.030953751955670e-01	 1.419044028662290e+01
 1.302374185394463e+00	 5.327868512592691e-01	 1.406869447630684e+01
 1.289889930744891e+00	 5.623381888532348e-01	 1.394035921915501e+01
 1.276676757691286e+00	 5.917234352759403e-01	 1.380648000993655e+01
 1.397157877880663e+00	 2.979128952091682e-01	 1.456139670577500e+01
 1.390321207911435e+00	 3.283432604707773e-01	 1.452363981044267e+01
 1.382772979661474e+00	 3.588054623961565e-01	 1.447262337230370e+01
 1.374505973497382e+00	 3.892761208955346e-01	 1.440928452106435e+01
 1.365513932254041e+00	 4.197312751560196e-01	 1.433460009336305e+01
 1.355791606544858e+00	 4.501464298671908e-01	 1.424957609052342e+01
 1.345334797636131e+00	 4.804966052107589e-01	 1.415523644478345e+01
 1.334140397546113e+00	 5.107563904847842e-01	 1.405261129159325e+01
 1.322206426034874e+00	 5.409000011996961e-01	 1.394272496964313e+01
 1.309532064160208e+00	 5.709013394500247e-01	 1.382658398864483e+01
 1.296117684087507e+00	 6.007340573327650e-01	 1.370516521637514e+01
 1.101708045892076e+00	 5.106276633080375e-01	 1.490457920095785e+01
 1.089677207626948e+00	 5.358215335624558e-01	 1.457096675325152e+01
 1.077021022922191e+00	 5.608268384721187e-01	 1.421806749479543e+01
 1.063742969876242e+00	 5.856208786934388e-01	 1.384805954448922e+01
 1.049847604174770e+00	 6.101809790117667e-01	 1.346317098980922e+01
 1.035340565104777e+00	 6.344845513991805e-01	 1.306566878923446e+01
 1.020228577186538e+00	 6.585091589671449e-01	 1.265784757276898e+01
 1.004519447315962e+00	 6.822325804611694e-01	 1.224201842096892e+01
 9.882220573422899e-01	 7.056328749317351e-01	 1.182049769167010e+01
 9.713463520400218e-01	 7.286884462062339e-01	 1.139559595095746e+01
 9.539033224691094e-01	 7.513781067806766e-01	 1.096960705147250e+01
 1.121149074351903e+00	 5.196383326700746e-01	 1.474129023010971e+01
 1.108905936766497e+00	 5.452767805513055e-01	 1.443701089753059e+01
 1.096026417714620e+00	 5.707233356144560e-01	 1.411331523566550e+01
 1.082514056670136e+00	 5.959548979573671e-01	 1.377226342022832e+01
 1.068373489709529e+00	 6.209483922326035e-01	 1.341595989088182e+01
 1.053610455632130e+00	 6.456808318179762e-01	 1.304654270122810e+01
 1.038231797620851e+00	 6.701293838977294e-01	 1.266617286273498e+01
 1.022245460334119e+00	 6.942714350952841e-01	 1.227702376139881e+01
 1.005660482352604e+00	 7.180846572853697e-01	 1.188127071203939e+01
 9.884869839388923e-01	 7.415470732036488e-01	 1.148108069967508e+01
 9.707361501040475e-01	 7.646371214658770e-01	 1.107860234118452e+01
 1.140590082399010e+00	 5.286489925713382e-01	 1.459385678770774e+01
 1.128134645716275e+00	 5.547320176126134e-01	 1.431634056180972e+01
 1.115031792551807e+00	 5.806198223659862e-01	 1.401932535874591e+01
 1.101285123754836e+00	 6.062889063711434e-01	 1.370475783237147e+01
 1.086899355792575e+00	 6.317157941482812e-01	 1.337462300023937e+01
 1.071880326976580e+00	 6.568771004813603e-01	 1.303093403686040e+01
 1.056234999152278e+00	 6.817495966278152e-01	 1.267572216341751e+01
 1.039971454740473e+00	 7.063102770893898e-01	 1.231102671144153e+01
 1.023098889053101e+00	 7.305364265654639e-01	 1.193888542113486e+01
 1.005627597840650e+00	 7.544056867003690e-01	 1.156132501654557e+01
 9.875689600650959e-01	 7.778961222299947e-01	 1.118035208050451e+01
 1.160031072301475e+00	 5.376596440629882e-01	 1.445964674339349e+01
 1.147363336719591e+00	 5.641872458494022e-01	 1.420653121549522e+01
 1.134037149651004e+00	 5.905162998812025e-01	 1.393387890870130e+01
 1.120056173320251e+00	 6.166229051402949e-01	 1.364352741426967e+01
 1.105425204585207e+00	 6.424831860148789e-01	 1.333734658306883e+01
 1.090150181269558e+00	 6.680733586954340e-01	 1.301722875662104e+01
 1.074238183881136e+00	 6.933697985129534e-01	 1.268507920425754e+01
 1.057697432602996e+00	 7.183491078478664e-01	 1.234280684296346e+01
 1.040537279478195e+00	 7.429881842245643e-01	 1.199231529651266e+01
 1.022768195744962e+00	 7.672642881963991e-01	 1.163549432871438e+01
 1.004401754316001e+00	 7.911551106197430e-01	 1.127421166298422e+01
 1.179472046327379e+00	 5.466702881961839e-01	 1.433621410974332e+01
 1.166592012019752e+00	 5.736424663646928e-01	 1.410533146199515e+01
 1.153042491229457e+00	 6.004127693145985e-01	 1.385491710687584e+01
 1.138827207556292e+00	 6.269568954703506e-01	 1.358670407462738e+01
 1.123951038248725e+00	 6.532505690884765e-01	 1.330245133801511e+01
 1.108420020642495e+00	 6.792696077662999e-01	 1.300393447435279e+01
 1.092241353907742e+00	 7.049899909086944e-01	 1.269293665092538e+01
 1.075423395989661e+00	 7.303879287750944e-01	 1.237124000987159e+01
 1.057975655662302e+00	 7.554399317152162e-01	 1.204061750520021e+01
 1.039908779651493e+00	 7.801228791917441e-01	 1.170282521926504e+01
 1.021234534820511e+00	 8.044140881818345e-01	 1.135959515980203e+01
 1.198913006744801e+00	 5.556809260220851e-01	 1.422128510930827e+01
 1.185820673860066e+00	 5.830976802615084e-01	 1.401065015733228e+01
 1.172047819504416e+00	 6.103092318206678e-01	 1.378052951816064e+01
 1.157598228652869e+00	 6.372908785668374e-01	 1.353255620973954e+01
 1.142476858944431e+00	 6.640179446251530e-01	 1.326838265229616e+01
 1.126689847226822e+00	 6.904658490000599e-01	 1.298967175310131e+01
 1.110244511332412e+00	 7.166101751705887e-01	 1.269808844005866e+01
 1.093149346968438e+00	 7.424267412754532e-01	 1.239529172013578e+01
 1.075414019639836e+00	 7.678916704899656e-01	 1.208292731158453e+01
 1.057049351559909e+00	 7.929814611864083e-01	 1.176262086968067e+01
 1.038067303542373e+00	 8.176730564629836e-01	 1.143597179557056e+01
 1.218353955821823e+00	 5.646915585918517e-01	 1.411274552674367e+01
 1.205049324483841e+00	 5.925528886428706e-01	 1.392054471047109e+01
 1.191053136693129e+00	 6.202056885539035e-01	 1.370894329678095e+01
 1.176369238799892e+00	 6.476248556352835e-01	 1.347947889242676e+01
 1.161002668833623e+00	 6.747853138809872e-01	 1.323370173185854e+01
 1.144959663153971e+00	 7.016620837028154e-01	 1.297316617490208e+01
 1.128247658255463e+00	 7.282303526541866e-01	 1.269942278737934e+01
 1.110875287607300e+00	 7.544655467533233e-01	 1.241401108116858e+01
 1.092852373445211e+00	 7.803434020013585e-01	 1.211845295916347e+01
 1.074189913469875e+00	 8.058400356803961e-01	 1.181424687719210e+01
 1.054900062445334e+00	 8.309320170099024e-01	 1.150286270056339e+01
 1.237794895826525e+00	 5.737021869566435e-01	 1.400862920473360e+01
 1.224277966134384e+00	 6.020080926118017e-01	 1.383321043543044e+01
 1.210058445012847e+00	 6.301021406687995e-01	 1.363851339237757e+01
 1.195140240187270e+00	 6.579588278812166e-01	 1.342598493028294e+01
 1.179528470077603e+00	 6.855526781120591e-01	 1.319707751036528e+01
 1.163229470555374e+00	 7.128583131806686e-01	 1.295324109941243e+01
 1.146250796777212e+00	 7.398505247150396e-01	 1.269591579515481e+01
 1.128601219974219e+00	 7.665043466130843e-01	 1.242652525552523e+01
 1.110290719112843e+00	 7.927951277019407e-01	 1.214647097406206e+01
 1.091330467381058e+00	 8.186986041737121e-01	 1.185712740579756e+01
 1.071732813493140e+00	 8.441909713693050e-01	 1.155983790897347e+01
 1.257235829026986e+00	 5.827128121676197e-01	 1.390710755989569e+01
 1.243506601055003e+00	 6.114632932713230e-01	 1.374697084132764e+01
 1.229063746680817e+00	 6.399985893198491e-01	 1.356771361243212e+01
 1.213911235004914e+00	 6.682927965101650e-01	 1.337069669913374e+01
 1.198054264837671e+00	 6.963200385744475e-01	 1.315727925270867e+01
 1.181499271562462e+00	 7.240545387397219e-01	 1.292881103682389e+01
 1.164253928997976e+00	 7.514706927086973e-01	 1.268662559412648e+01
 1.146327146137165e+00	 7.785431422591159e-01	 1.243203437168362e+01
 1.127729058677147e+00	 8.052468490442584e-01	 1.216632184466100e+01
 1.108471015293122e+00	 8.315571681663614e-01	 1.189074163483728e+01
 1.088565558649539e+00	 8.574499210879043e-01	 1.160651357657364e+01
 1.276676757691286e+00	 5.917234352759403e-01	 1.380648000993655e+01
 1.262735231489007e+00	 6.209184917244573e-01	 1.366026876037075e+01
 1.248069043914288e+00	 6.498950356615459e-01	 1.349512844975081e+01
 1.232682225442734e+00	 6.786267627276558e-01	 1.331233866906974e+01
 1.216580055275128e+00	 7.070873965242318e-01	 1.311316977901376e+01
 1.199769068306666e+00	 7.352507616860772e-01	 1.289887556957341e+01
 1.182257057018070e+00	 7.630908579907101e-01	 1.267068696293306e+01
 1.164053068164112e+00	 7.905819350957992e-01	 1.242980684139596e+01
 1.145167394172536e+00	 8.176985674808571e-01	 1.217740603724600e+01
 1.125611559205735e+00	 8.444157291583477e-01	 1.191462047340635e+01
 1.105398299878278e+00	 8.707088677124132e-01	 1.164254939439400e+01
 1.296117684087507e+00	 6.007340573327650e-01	 1.370516521637514e+01
 1.281963859679703e+00	 6.303736890742270e-01	 1.357165822581370e+01
 1.267074338930509e+00	 6.597914808483830e-01	 1.341944559467463e+01
 1.251453213690639e+00	 6.889607277392177e-01	 1.324973055033334e+01
 1.235105843551274e+00	 7.178547532174914e-01	 1.306369924398058e+01
 1.218038862919418e+00	 7.464469833258361e-01	 1.286251376523083e+01
 1.200260182937812e+00	 7.747110219166298e-01	 1.264730637489330e+01
 1.181778988123030e+00	 8.026207265275134e-01	 1.241917504092225e+01
 1.162605727633426e+00	 8.301502844642831e-01	 1.217918031239769e+01
 1.142752101118561e+00	 8.572742886496769e-01	 1.192834351269540e+01
 1.122231039143104e+00	 8.839678127895461e-01	 1.166764617783695e+01
 9.539033224691094e-01	 7.513781067806766e-01	 1.096960705147250e+01
 9.359049820951422e-01	 7.736811428472474e-01	 1.053944098335020e+01
 9.173643330810004e-01	 7.955773821631652e-01	 1.010202007675634e+01
 8.982953441407002e-01	 8.170472475766148e-01	 9.659604548005429e+00
 8.787129188221813e-01	 8.380718126651596e-01	 9.214403452772761e+00
 8.586328570320533e-01	 8.586328570320538e-01	 8.768566171439209e+00
 8.380718126651595e-01	 8.787129188221815e-01	 8.324174099233003e+00
 8.170472475766142e-01	 8.982953441407006e-01	 7.883232508007866e+00
 7.955773821631648e-01	 9.173643330810007e-01	 7.447662549300088e+00
 7.736811428472473e-01	 9.359049820951423e-01	 7.019293374953058e+00
 7.513781067806767e-01	 9.539033224691095e-01	 6.599854361865726e+00
 9.707361501040475e-01	 7.646371214658770e-01	 1.107860234118452e+01
 9.524202063064088e-01	 7.873337227429530e-01	 1.067055216895099e+01
 9.335523841484195e-01	 8.096163488274210e-01	 1.025369772726385e+01
 9.141468988396736e-01	 8.314650771039285e-01	 9.830219866838073e+00
 8.942189169200120e-01	 8.528606471694401e-01	 9.402260165359136e+00
 8.737845171053263e-01	 8.737845171053266e-01	 8.971912955179683e+00
 8.528606471694397e-01	 8.942189169200122e-01	 8.541217444976009e+00
 8.314650771039280e-01	 9.141468988396738e-01	 8.112149886092913e+00
 8.096163488274206e-01	 9.335523841484197e-01	 7.686615738594011e+00
 7.873337227429523e-01	 9.524202063064089e-01	 7.266441800751102e+00
 7.646371214658773e-01	 9.707361501040475e-01	 6.853368278589731e+00
 9.875689600650959e-01	 7.778961222299947e-01	 1.118035208050451e+01
 9.689354131773041e-01	 8.009862883043352e-01	 1.079253061674473e+01
 9.497404182190402e-01	 8.236553007516381e-01	 1.039451469865083e+01
 9.299984368952128e-01	 8.458828914933745e-01	 9.988408998764438e+00
 9.097248987372876e-01	 8.676494661462674e-01	 9.576290128613575e+00
 8.889361612701406e-01	 8.889361612701406e-01	 9.160199244739633e+00
 8.676494661462667e-01	 9.097248987372878e-01	 8.742134642652410e+00
 8.458828914933744e-01	 9.299984368952133e-01	 8.324044271761355e+00
 8.236553007516376e-01	 9.497404182190402e-01	 7.907818110033258e+00
 8.009862883043346e-01	 9.689354131773045e-01	 7.495280347892869e+00
 7.778961222299949e-01	 9.875689600650960e-01	 7.088181346424067e+00
 1.004401754316001e+00	 7.911551106197430e-01	 1.127421166298422e+01
 9.854506046345121e-01	 8.146388411240247e-01	 1.090491641388552e+01
 9.659284371813641e-01	 8.376942395735272e-01	 1.052418717876486e+01
 9.458499601565503e-01	 8.603006924268740e-01	 1.013405558397767e+01
 9.252308660829119e-01	 8.824382713208537e-01	 9.736535763496171e+00
 9.040877912940503e-01	 9.040877912940507e-01	 9.333617582863980e+00
 8.824382713208535e-01	 9.252308660829124e-01	 8.927259749834747e+00
 8.603006924268733e-01	 9.458499601565509e-01	 8.519382725384952e+00
 8.376942395735268e-01	 9.659284371813643e-01	 8.111861355822416e+00
 8.146388411240244e-01	 9.854506046345127e-01	 7.706517159513336e+00
 7.911551106197429e-01	 1.004401754316001e+00	 7.305110219990723e+00
 1.021234534820511e+00	 8.044140881818345e-01	 1.135959515980203e+01
 1.001965782604716e+00	 8.282913827946506e-01	 1.100729611181940e+01
 9.821164429238932e-01	 8.517331669308026e-01	 1.064246608188354e+01
 9.617014704729175e-01	 8.747184815863454e-01	 1.026706672102595e+01
 9.407368207657906e-01	 8.972270644184118e-01	 9.883052142677258e+00
 9.192394089446086e-01	 9.192394089446090e-01	 9.492362807954287e+00
 8.972270644184116e-01	 9.407368207657908e-01	 9.096919201195645e+00
 8.747184815863452e-01	 9.617014704729178e-01	 8.698615188277214e+00
 8.517331669308021e-01	 9.821164429238933e-01	 8.299310958520778e+00
 8.282913827946503e-01	 1.001965782604716e+00	 7.900825465821796e+00
 8.044140881818346e-01	 1.021234534820511e+00	 7.504928305610107e+00
 1.038067303542373e+00	 8.176730564629836e-01	 1.143597179557056e+01
 1.018480949014599e+00	 8.419439149088439e-01	 1.109930021680465e+01
 9.983044373351290e-01	 8.657720844611750e-01	 1.074913551770464e+01
 9.775529696935463e-01	 8.891362606537089e-01	 1.038737237781846e+01
 9.562427645948276e-01	 9.120158471641556e-01	 1.001590730699519e+01
 9.343910159893679e-01	 9.343910159893685e-01	 9.636633239414783e+00
 9.120158471641555e-01	 9.562427645948279e-01	 9.251433826288903e+00
 8.891362606537084e-01	 9.775529696935467e-01	 8.862177296685401e+00
 8.657720844611745e-01	 9.983044373351294e-01	 8.470709765369731e+00
 8.419439149088433e-01	 1.018480949014600e+00	 8.078847883361517e+00
 8.176730564629834e-01	 1.038067303542373e+00	 7.688370750688119e+00
 1.054900062445334e+00	 8.309320170099024e-01	 1.150286270056339e+01
 1.034996105790846e+00	 8.555964390592333e-01	 1.118060086055261e+01
 1.014492422303574e+00	 8.798109938023572e-01	 1.084401134799825e+01
 9.934044596676692e-01	 9.035540313108849e-01	 1.049492480167559e+01
 9.717486993789275e-01	 9.268046212832972e-01	 1.013518249617048e+01
 9.495426141958827e-01	 9.495426141958832e-01	 9.766631696266588e+00
 9.268046212832969e-01	 9.717486993789277e-01	 9.391120623369810e+00
 9.035540313108841e-01	 9.934044596676690e-01	 9.010492878293880e+00
 8.798109938023571e-01	 1.014492422303574e+00	 8.626581175233783e+00
 8.555964390592327e-01	 1.034996105790846e+00	 8.241200260530734e+00
 8.309320170099023e-01	 1.054900062445334e+00	 7.856138916461257e+00
 1.071732813493140e+00	 8.441909713693050e-01	 1.155983790897347e+01
 1.051511254860137e+00	 8.692489568384484e-01	 1.125090963118879e+01
 1.030680399717729e+00	 8.938498965920609e-01	 1.092693982128647e+01
 1.009255942244516e+00	 9.179717952397922e-01	 1.058969792853388e+01
 9.872546269269951e-01	 9.415933885010491e-01	 1.024097230320868e+01
 9.646942053317054e-01	 9.646942053317057e-01	 9.882566367368202e+00
 9.415933885010488e-01	 9.872546269269954e-01	 9.516294316084277e+00
 9.179717952397918e-01	 1.009255942244516e+00	 9.143976166153106e+00
 8.938498965920609e-01	 1.030680399717730e+00	 8.767431980755287e+00
 8.692489568384477e-01	 1.051511254860138e+00	 8.388475119261544e+00
 8.441909713693050e-01	 1.071732813493140e+00	 8.008904390911487e+00
 1.088565558649539e+00	 8.574499210879043e-01	 1.160651357657364e+01
 1.068026398149158e+00	 8.829014698391190e-01	 1.130997554718412e+01
 1.046868371466098e+00	 9.078887944679994e-01	 1.099779627710893e+01
 1.025107419273321e+00	 9.323895541223510e-01	 1.067168679140165e+01
 1.002760549047935e+00	 9.563821505426250e-01	 1.033338476075794e+01
 9.798457911643897e-01	 9.798457911643903e-01	 9.984651549311343e+00
 9.563821505426245e-01	 1.002760549047935e+00	 9.627268716536182e+00
 9.323895541223510e-01	 1.025107419273321e+00	 9.263033760628261e+00
 9.078887944679991e-01	 1.046868371466098e+00	 8.893754903051736e+00
 8.829014698391190e-01	 1.068026398149159e+00	 8.521244736578300e+00
 8.574499210879042e-01	 1.088565558649539e+00	 8.147312591633769e+00
 1.105398299878278e+00	 8.707088677124132e-01	 1.164254939439400e+01
 1.084541537584593e+00	 8.965539796538760e-01	 1.135758315901893e+01
 1.063056339437180e+00	 9.219276890678842e-01	 1.105648391245992e+01
 1.040958892603314e+00	 9.468073096404813e-01	 1.074090692814943e+01
 1.018266467550652e+00	 9.711709091332374e-01	 1.041254136667944e+01
 9.949973734614892e-01	 9.949973734614896e-01	 1.007310826610234e+01
 9.711709091332367e-01	 1.018266467550651e+00	 9.724357915378972e+00
 9.468073096404810e-01	 1.040958892603315e+00	 9.368066366234636e+00
 9.219276890678837e-01	 1.063056339437180e+00	 9.006030851736663e+00
 8.965539796538756e-01	 1.084541537584593e+00	 8.640063904430292e+00
 8.707088677124133e-01	 1.105398299878278e+00	 8.271986002373755e+00
 1.122231039143104e+00	 8.839678127895461e-01	 1.166764617783695e+01
 1.101056675093123e+00	 9.102064878753481e-01	 1.139355076517043e+01
 1.079244305519478e+00	 9.359665820294276e-01	 1.110293260387266e+01
 1.056810364083729e+00	 9.612250634761028e-01	 1.079739378870878e+01
 1.033772384244049e+00	 9.859596659980987e-01	 1.047857705521709e+01
 1.010148953990557e+00	 1.010148953990557e+00	 1.014816478304648e+01
 9.859596659980979e-01	 1.033772384244049e+00	 9.807877317098296e+00
 9.612250634761024e-01	 1.056810364083729e+00	 9.459470327001711e+00
 9.359665820294277e-01	 1.079244305519479e+00	 9.104730939110638e+00
 9.102064878753476e-01	 1.101056675093124e+00	 8.745472401586287e+00
 8.839678127895459e-01	 1.122231039143104e+00	 8.383527081706525e+00
 7.513781067806767e-01	 9.539033224691095e-01	 6.599854361865726e+00
 7.286884462062335e-01	 9.713463520400222e-01	 6.187700679598287e+00
 7.056328749317351e-01	 9.882220573422903e-01	 5.781314575641419e+00
 6.822325804611691e-01	 1.004519447315962e+00	 5.382453950087100e+00
 6.585091589671447e-01	 1.020228577186539e+00	 4.992759465644918e+00
 6.344845513991801e-01	 1.035340565104777e+00	 4.613745963392518e+00
 6.101809790117663e-01	 1.049847604174770e+00	 4.246794226467403e+00
 5.856208786934384e-01	 1.063742969876243e+00	 3.893143210705793e+00
 5.608268384721183e-01	 1.077021022922191e+00	 3.553882874405672e+00
 5.358215335624553e-01	 1.089677207626948e+00	 3.229947748874009e+00
 5.106276633080377e-01	 1.101708045892076e+00	 2.922111396566568e+00
 7.646371214658773e-01	 9.707361501040475e-01	 6.853368278589731e+00
 7.415470732036484e-01	 9.884869839388924e-01	 6.445798703659108e+00
 7.180846572853693e-01	 1.005660482352604e+00	 6.042285251450611e+00
 6.942714350952838e-01	 1.022245460334119e+00	 5.644652258959672e+00
 6.701293838977288e-01	 1.038231797620851e+00	 5.254623994118790e+00
 6.456808318179758e-01	 1.053610455632130e+00	 4.873814775255863e+00
 6.209483922326030e-01	 1.068373489709530e+00	 4.503719244901825e+00
 5.959548979573668e-01	 1.082514056670136e+00	 4.145702937489007e+00
 5.707233356144555e-01	 1.096026417714620e+00	 3.800993297511876e+00
 5.452767805513049e-01	 1.108905936766497e+00	 3.470671317538483e+00
 5.196383326700746e-01	 1.121149074351903e+00	 3.155663973321583e+00
 7.778961222299949e-01	 9.875689600650960e-01	 7.088181346424067e+00
 7.544056867003687e-01	 1.005627597840651e+00	 6.684993809287668e+00
 7.305364265654636e-01	 1.023098889053101e+00	 6.284350989922460e+00
 7.063102770893895e-01	 1.039971454740473e+00	 5.888127175635969e+00
 6.817495966278149e-01	 1.056234999152278e+00	 5.498112501001277e+00
 6.568771004813599e-01	 1.071880326976580e+00	 5.116001924785833e+00
 6.317157941482805e-01	 1.086899355792575e+00	 4.743384164189383e+00
 6.062889063711429e-01	 1.101285123754836e+00	 4.381730744961216e+00
 5.806198223659860e-01	 1.115031792551808e+00	 4.032385347158436e+00
 5.547320176126129e-01	 1.128134645716276e+00	 3.696553642768238e+00
 5.286489925713381e-01	 1.140590082399010e+00	 3.375293832295928e+00
 7.911551106197429e-01	 1.004401754316001e+00	 7.305110219990723e+00
 7.672642881963988e-01	 1.022768195744962e+00	 6.906198354548652e+00
 7.429881842245639e-01	 1.040537279478196e+00	 6.508502698195145e+00
 7.183491078478662e-01	 1.057697432602996e+00	 6.113932137201403e+00
 6.933697985129529e-01	 1.074238183881136e+00	 5.724326160141051e+00
 6.680733586954336e-01	 1.090150181269558e+00	 5.341442840778478e+00
 6.424831860148784e-01	 1.105425204585207e+00	 4.966946576749939e+00
 6.166229051402946e-01	 1.120056173320251e+00	 4.602395760165765e+00
 5.905162998812021e-01	 1.134037149651004e+00	 4.249230581940007e+00
 5.641872458494017e-01	 1.147363336719592e+00	 3.908761192091928e+00
 5.376596440629881e-01	 1.160031072301475e+00	 3.582156452486581e+00
 8.044140881818346e-01	 1.021234534820511e+00	 7.504928305610107e+00
 7.801228791917437e-01	 1.039908779651493e+00	 7.110273801917049e+00
 7.554399317152156e-01	 1.057975655662302e+00	 6.715673717416756e+00
 7.303879287750938e-01	 1.075423395989661e+00	 6.323057251988086e+00
 7.049899909086940e-01	 1.092241353907742e+00	 5.934297889874416e+00
 6.792696077662996e-01	 1.108420020642495e+00	 5.551200532255582e+00
 6.532505690884762e-01	 1.123951038248725e+00	 5.175488178574118e+00
 6.269568954703503e-01	 1.138827207556292e+00	 4.808788348863413e+00
 6.004127693145982e-01	 1.153042491229457e+00	 4.452619469834888e+00
 5.736424663646924e-01	 1.166592012019752e+00	 4.108377472253235e+00
 5.466702881961839e-01	 1.179472046327378e+00	 3.777322865045284e+00
 8.176730564629834e-01	 1.038067303542373e+00	 7.688370750688119e+00
 7.929814611864079e-01	 1.057049351559909e+00	 7.298036336115734e+00
 7.678916704899652e-01	 1.075414019639836e+00	 6.906745983113572e+00
 7.424267412754527e-01	 1.093149346968438e+00	 6.516435921452700e+00
 7.166101751705883e-01	 1.110244511332412e+00	 6.128999360614383e+00
 6.904658490000594e-01	 1.126689847226822e+00	 5.746272911489570e+00
 6.640179446251525e-01	 1.142476858944430e+00	 5.370022343209651e+00
 6.372908785668371e-01	 1.157598228652869e+00	 5.001927882055552e+00
 6.103092318206673e-01	 1.172047819504416e+00	 4.643569295110618e+00
 5.830976802615079e-01	 1.185820673860066e+00	 4.296411030807722e+00
 5.556809260220850e-01	 1.198913006744801e+00	 3.961787710499426e+00
 8.309320170099023e-01	 1.054900062445334e+00	 7.856138916461257e+00
 8.058400356803955e-01	 1.074189913469875e+00	 7.470261908386298e+00
 7.803434020013582e-01	 1.092852373445212e+00	 7.082555563326288e+00
 7.544655467533229e-01	 1.110875287607301e+00	 6.694950798907795e+00
 7.282303526541866e-01	 1.128247658255463e+00	 6.309347305590164e+00
 7.016620837028147e-01	 1.144959663153971e+00	 5.927599393124991e+00
 6.747853138809868e-01	 1.161002668833623e+00	 5.551500950848745e+00
 6.476248556352834e-01	 1.176369238799892e+00	 5.182769742061055e+00
 6.202056885539030e-01	 1.191053136693130e+00	 4.823031294059205e+00
 5.925528886428700e-01	 1.205049324483841e+00	 4.473802680006560e+00
 5.646915585918519e-01	 1.218353955821823e+00	 4.136476515246481e+00
 8.441909713693050e-01	 1.071732813493140e+00	 8.008904390911487e+00
 8.186986041737117e-01	 1.091330467381058e+00	 7.627690770263757e+00
 7.927951277019403e-01	 1.110290719112844e+00	 7.243897642936270e+00
 7.665043466130838e-01	 1.128601219974219e+00	 6.859439158026746e+00
 7.398505247150390e-01	 1.146250796777212e+00	 6.476209211365215e+00
 7.128583131806682e-01	 1.163229470555374e+00	 6.096066848997152e+00
 6.855526781120588e-01	 1.179528470077603e+00	 5.720820554423844e+00
 6.579588278812166e-01	 1.195140240187270e+00	 5.352211651764282e+00
 6.301021406687992e-01	 1.210058445012847e+00	 4.991897104358354e+00
 6.020080926118010e-01	 1.224277966134384e+00	 4.641432028483671e+00
 5.737021869566434e-01	 1.237794895826525e+00	 4.302252273171433e+00
 8.574499210879042e-01	 1.088565558649539e+00	 8.147312591633769e+00
 8.315571681663609e-01	 1.108471015293123e+00	 7.771031552122929e+00
 8.052468490442578e-01	 1.127729058677147e+00	 7.391531014137769e+00
 7.785431422591157e-01	 1.146327146137166e+00	 7.010697735022235e+00
 7.514706927086967e-01	 1.164253928997976e+00	 6.630408455277396e+00
 7.240545387397214e-01	 1.181499271562462e+00	 6.252514988400478e+00
 6.963200385744472e-01	 1.198054264837672e+00	 5.878827954488992e+00
 6.682927965101644e-01	 1.213911235004914e+00	 5.511099400308740e+00
 6.399985893198488e-01	 1.229063746680817e+00	 5.151004602366132e+00
 6.114632932713226e-01	 1.243506601055004e+00	 4.800123395682947e+00
 5.827128121676197e-01	 1.257235829026986e+00	 4.459921407611186e+00
 8.707088677124133e-01	 1.105398299878278e+00	 8.271986002373755e+00
 8.444157291583471e-01	 1.125611559205735e+00	 7.900964935030727e+00
 8.176985674808565e-01	 1.145167394172536e+00	 7.526182125708200e+00
 7.905819350957988e-01	 1.164053068164112e+00	 7.149487100609575e+00
 7.630908579907099e-01	 1.182257057018070e+00	 6.772728948768238e+00
 7.352507616860767e-01	 1.199769068306667e+00	 6.397741225060242e+00
 7.070873965242315e-01	 1.216580055275129e+00	 6.026325245915420e+00
 6.786267627276555e-01	 1.232682225442734e+00	 5.660232029580895e+00
 6.498950356615451e-01	 1.248069043914288e+00	 5.301143193601532e+00
 6.209184917244570e-01	 1.262735231489007e+00	 4.950651174831650e+00
 5.917234352759403e-01	 1.276676757691286e+00	 4.610239179730264e+00
 8.839678127895459e-01	 1.122231039143104e+00	 8.383527081706525e+00
 8.572742886496763e-01	 1.142752101118562e+00	 8.018146958613313e+00
 8.301502844642827e-01	 1.162605727633426e+00	 7.648548737409701e+00
 8.026207265275128e-01	 1.181778988123030e+00	 7.276535611136504e+00
 7.747110219166292e-01	 1.200260182937813e+00	 6.903919338488549e+00
 7.464469833258357e-01	 1.218038862919419e+00	 6.532505084711601e+00
 7.178547532174911e-01	 1.235105843551275e+00	 6.164074391869923e+00
 6.889607277392172e-01	 1.251453213690640e+00	 5.800366538109272e+00
 6.597914808483826e-01	 1.267074338930509e+00	 5.443058613833410e+00
 6.303736890742265e-01	 1.281963859679704e+00	 5.093744702370305e+00
 6.007340573327651e-01	 1.296117684087506e+00	 4.753914601439001e+00
 5.106276633080377e-01	 1.101708045892076e+00	 2.922111396566566e+00
 4.852696686386936e-01	 1.113110351899734e+00	 2.628377485725932e+00
 4.597683456134846e-01	 1.123883637862912e+00	 2.347203370364267e+00
 4.341460901130837e-01	 1.134027587438770e+00	 2.079852781249789e+00
 4.084250855187109e-01	 1.143542896733289e+00	 1.827410957384964e+00
 3.826272488061301e-01	 1.152431248962697e+00	 1.590779282867488e+00
 3.567741792293045e-01	 1.160695285930740e+00	 1.370671875176638e+00
 3.308871097884258e-01	 1.168338576587066e+00	 1.167614210233668e+00
 3.049868616489977e-01	 1.175365582942782e+00	 9.819438343170990e-01
 2.790938016503139e-01	 1.181781623626968e+00	 8.138131759058627e-01
 2.532278030134201e-01	 1.187592835372691e+00	 6.631944328340191e-01
 5.196383326700746e-01	 1.121149074351903e+00	 3.155663973321587e+00
 4.938328641916429e-01	 1.132752588435226e+00	 2.854172501327906e+00
 4.678815381477510e-01	 1.143715982621827e+00	 2.564822410192621e+00
 4.418071456226153e-01	 1.154038934986585e+00	 2.288995143705318e+00
 4.156322614511785e-01	 1.163722153919135e+00	 2.027895931291289e+00
 3.893791893618673e-01	 1.172767352338166e+00	 1.782546522584262e+00
 3.630699097547064e-01	 1.181177218665371e+00	 1.553779949519789e+00
 3.367260303129400e-01	 1.188955384829006e+00	 1.342237430306050e+00
 3.103687396177812e-01	 1.196106391577979e+00	 1.148367491421845e+00
 2.840187639070761e-01	 1.202635651395282e+00	 9.724273433254649e-01
 2.576963270899055e-01	 1.208549409304363e+00	 8.144865040031555e-01
 5.286489925713381e-01	 1.140590082399010e+00	 3.375293832295928e+00
 5.023960507536394e-01	 1.152394804346683e+00	 3.066994471256987e+00
 4.759947221635519e-01	 1.163548306557042e+00	 2.770443894361113e+00
 4.494681930884203e-01	 1.174050261522690e+00	 2.487125766709660e+00
 4.228394298164992e-01	 1.183901389916909e+00	 2.218349515686511e+00
 3.961311228284722e-01	 1.193103434360818e+00	 1.965241208545862e+00
 3.693656336700246e-01	 1.201659129894012e+00	 1.728736531602795e+00
 3.425649447070593e-01	 1.209572171423291e+00	 1.509576015345574e+00
 3.157506119361139e-01	 1.216847178435284e+00	 1.308302608615576e+00
 2.889437209932079e-01	 1.223489657266795e+00	 1.125261661019229e+00
 2.621648464750896e-01	 1.229505961231549e+00	 9.606033272165282e-01
 5.376596440629881e-01	 1.160031072301475e+00	 3.582156452486585e+00
 5.109592293236386e-01	 1.172037001925664e+00	 3.267983005268277e+00
 4.841078986073412e-01	 1.183380611982301e+00	 2.965187470242284e+00
 4.571292334041995e-01	 1.194061569381721e+00	 2.675341569740748e+00
 4.300465914554147e-01	 1.204080607080841e+00	 2.399844477624586e+00
 4.028830499935667e-01	 1.213439497403189e+00	 2.139911874864726e+00
 3.756613517096462e-01	 1.222141022006219e+00	 1.896567178803110e+00
 3.484038536518652e-01	 1.230188938775215e+00	 1.670635121477420e+00
 3.211324792317424e-01	 1.237587945934461e+00	 1.462737808233879e+00
 2.938686734831362e-01	 1.244343643674486e+00	 1.273293340278385e+00
 2.666333616901347e-01	 1.250462493599191e+00	 1.102517035231713e+00
 5.466702881961839e-01	 1.179472046327378e+00	 3.777322865045284e+00
 5.195224009005970e-01	 1.191679183463729e+00	 3.458192128410848e+00
 4.922210684255726e-01	 1.203212901211347e+00	 3.150086398179579e+00
 4.647902674636531e-01	 1.214072860898310e+00	 2.854652568307564e+00
 4.372537472086664e-01	 1.224259807765161e+00	 2.573366400009686e+00
 4.096349716447729e-01	 1.233775543837813e+00	 2.307519780087171e+00
 3.819570646079585e-01	 1.242622897391544e+00	 2.058210222981316e+00
 3.542427578284386e-01	 1.250805689290074e+00	 1.826332824268275e+00
 3.265143421324134e-01	 1.258328696495277e+00	 1.612574826128525e+00
 2.987936219512875e-01	 1.265197613051333e+00	 1.417412904082729e+00
 2.711018732562027e-01	 1.271419008852232e+00	 1.241113230513524e+00
 5.556809260220850e-01	 1.198913006744801e+00	 3.961787710499426e+00
 5.280855664834702e-01	 1.211321351252438e+00	 3.638598358116189e+00
 5.003342325647013e-01	 1.223045176557927e+00	 3.326095614764017e+00
 4.724512961604821e-01	 1.234084138407093e+00	 3.025989894689518e+00
 4.444608979169956e-01	 1.244438994324099e+00	 2.739821636132888e+00
 4.163868885697131e-01	 1.254111576037227e+00	 2.468946776996106e+00
 3.882527730993486e-01	 1.263104758439542e+00	 2.214524542204653e+00
 3.600816579178603e-01	 1.271422425373163e+00	 1.977507784234523e+00
 3.318962012658740e-01	 1.279069432537498e+00	 1.758636068036477e+00
 3.037185669720887e-01	 1.286051567830313e+00	 1.558431636591549e+00
 2.755703816944557e-01	 1.292375509435615e+00	 1.377198335244310e+00
 5.646915585918519e-01	 1.218353955821823e+00	 4.136476515246481e+00
 5.366487270712145e-01	 1.230963507583349e+00	 3.810108000747825e+00
 5.084473919711809e-01	 1.242877440335783e+00	 3.494099018749190e+00
 4.801123203883875e-01	 1.254095404242703e+00	 3.190213047006192e+00
 4.516680444211442e-01	 1.264618169111888e+00	 2.900044500259420e+00
 4.231388015560089e-01	 1.274447596373964e+00	 2.625002427725670e+00
 3.945484779182040e-01	 1.283586607539769e+00	 2.366296588095969e+00
 3.659205546012119e-01	 1.292039149429777e+00	 2.124926178857630e+00
 3.372780572598708e-01	 1.299810156480888e+00	 1.901671443419501e+00
 3.086435091199663e-01	 1.306905510444404e+00	 1.697088320673760e+00
 2.800388875260558e-01	 1.313331997794282e+00	 1.511506239076544e+00
 5.737021869566434e-01	 1.237794895826525e+00	 4.302252273171436e+00
 5.452118836627862e-01	 1.250605654748021e+00	 3.973563753438224e+00
 5.165605475914659e-01	 1.262709694858662e+00	 3.654916065083204e+00
 4.877733410410696e-01	 1.274106660739776e+00	 3.348116451469328e+00
 4.588751875618532e-01	 1.284797334482754e+00	 3.054803778268361e+00
 4.298907113912827e-01	 1.294783607220561e+00	 2.776430447170795e+00
 4.008441797989115e-01	 1.304068447081777e+00	 2.514246750658479e+00
 3.717594485595739e-01	 1.312655863865211e+00	 2.269287981758858e+00
 3.426599107421506e-01	 1.320550870745215e+00	 2.042364556221970e+00
 3.135684489693475e-01	 1.327759443326584e+00	 1.834055341761780e+00
 2.845073912721650e-01	 1.334288476373178e+00	 1.644704321843603e+00
 5.827128121676197e-01	 1.257235829026986e+00	 4.459921407611186e+00
 5.537750372571409e-01	 1.270247795038016e+00	 4.129750686422162e+00
 5.246737003720107e-01	 1.282541942440307e+00	 3.809307741958359e+00
 4.954343590122293e-01	 1.294117910232945e+00	 3.500435412168848e+00
 4.660823281798644e-01	 1.304976492790930e+00	 3.204808631953374e+00
 4.366426188631561e-01	 1.315119610949552e+00	 2.923914547408071e+00
 4.071398794758586e-01	 1.324550279455123e+00	 2.659035132297546e+00
 3.775983404740276e-01	 1.333272571084760e+00	 2.411232659707910e+00
 3.480417623404605e-01	 1.341291577750245e+00	 2.181338322162582e+00
 3.184933870946584e-01	 1.348613368909831e+00	 1.969944226627737e+00
 2.889758934539454e-01	 1.355244947617244e+00	 1.777398918892446e+00
 5.917234352759403e-01	 1.276676757691286e+00	 4.610239179730266e+00
 5.623381888532349e-01	 1.289889930744891e+00	 4.279401671911160e+00
 5.327868512592693e-01	 1.302374185394463e+00	 3.957981996655417e+00
 5.030953751955672e-01	 1.314129155056846e+00	 3.647851513687832e+00
 4.732894671159193e-01	 1.325155646390646e+00	 3.350713961626162e+00
 4.433945247592517e-01	 1.335455609933472e+00	 3.068083746985645e+00
 4.134355776834322e-01	 1.345032107049359e+00	 2.801266794024946e+00
 3.834372310256544e-01	 1.353889273493718e+00	 2.551344349526854e+00
 3.534236126825467e-01	 1.362032279915742e+00	 2.319160073696346e+00
 3.234183240703262e-01	 1.369467289627122e+00	 2.105310677322015e+00
 2.934443945925591e-01	 1.376201413971425e+00	 1.910140288457356e+00
 6.007340573327651e-01	 1.296117684087506e+00	 4.753914601439003e+00
 5.709013394500249e-01	 1.309532064160208e+00	 4.423202317629230e+00
 5.409000011996963e-01	 1.322206426034874e+00	 4.101598668065190e+00
 5.107563904847843e-01	 1.334140397546113e+00	 3.790997534006752e+00
 4.804966052107591e-01	 1.345334797636131e+00	 3.493125283906442e+00
 4.501464298671911e-01	 1.355791606544858e+00	 3.209517201276117e+00
 4.197312751560198e-01	 1.365513932254041e+00	 2.941496529270125e+00
 3.892761208955348e-01	 1.374505973497381e+00	 2.690156569507089e+00
 3.588054623961567e-01	 1.382772979661473e+00	 2.456346206445049e+00
 3.283432604707774e-01	 1.390321207911435e+00	 2.240659153286764e+00
 2.979128952091682e-01	 1.397157877880663e+00	 2.043427133365296e+00
 2.532278030134201e-01	 1.187592835372691e+00	 6.631944328340191e-01
 2.274064083900854e-01	 1.192806476988992e+00	 5.276630523385732e-01
 2.016502366214943e-01	 1.197429773184443e+00	 4.054593274220386e-01
 1.759775058651110e-01	 1.201471069976739e+00	 2.972538672065161e-01
 1.504058149449775e-01	 1.204939362751414e+00	 2.035395007589533e-01
 1.249521207634296e-01	 1.207844251628774e+00	 1.246403600073867e-01
 9.963271902957720e-02	 1.210195896443978e+00	 6.072270263882373e-02
 7.446322824141441e-02	 1.212004971590951e+00	 1.180724834271829e-02
 4.945857683983854e-02	 1.213282620967563e+00	-2.221721529037524e-02
 2.463299343616701e-02	 1.214040413245077e+00	-4.157921228211148e-02
 0.000000000000000e+00	 1.214290297669446e+00	-4.660920399466773e-02
 2.576963270899055e-01	 1.208549409304363e+00	 8.144865040031519e-01
 2.314192813802493e-01	 1.213855052205103e+00	 6.721818410085632e-01
 2.052086094647836e-01	 1.218559932295173e+00	 5.437997012546332e-01
 1.790828509833808e-01	 1.222672542868285e+00	 4.300707780484823e-01
 1.530599153135699e-01	 1.226202038044907e+00	 3.315389419792485e-01
 1.271570585836551e-01	 1.229158187351587e+00	 2.485699284353089e-01
 1.013908640611247e-01	 1.231551329906598e+00	 1.813619610814980e-01
 7.577722585210574e-02	 1.233392328467018e+00	 1.299580760786119e-01
 5.033133582869952e-02	 1.234692523578864e+00	 9.425989162848580e-02
 2.506767368405044e-02	 1.235463688057201e+00	 7.404255337371479e-02
 0.000000000000000e+00	 1.235717982007509e+00	 6.897057826244901e-02
 2.621648464750896e-01	 1.229505961231549e+00	 9.606033272165282e-01
 2.354321501576223e-01	 1.234903605320127e+00	 8.120212987973192e-01
 2.087669785725819e-01	 1.239690069219164e+00	 6.778603372903911e-01
 1.821881928418994e-01	 1.243873993498235e+00	 5.589195894485199e-01
 1.557140128962540e-01	 1.247464691012572e+00	 4.558015995367974e-01
 1.293619940895927e-01	 1.250472100694779e+00	 3.689205196596554e-01
 1.031490072474699e-01	 1.252906740946056e+00	 2.985124701017103e-01
 7.709122208384607e-02	 1.254779662886434e+00	 2.446478057215746e-01
 5.120409390174007e-02	 1.256102403709864e+00	 2.072450207890346e-01
 2.550235347585030e-02	 1.256886940375000e+00	 1.860860076361508e-01
 0.000000000000000e+00	 1.257145643846623e+00	 1.808323741533380e-01
 2.666333616901347e-01	 1.250462493599191e+00	 1.102517035231709e+00
 2.394450151901940e-01	 1.255952138789739e+00	 9.481560432766756e-01
 2.123253443598423e-01	 1.260820186421612e+00	 8.086262093259959e-01
 1.852935318027594e-01	 1.265075424340102e+00	 6.848032609308445e-01
 1.583681080024750e-01	 1.268727324135055e+00	 5.773557677349266e-01
 1.315669275382908e-01	 1.271785994144974e+00	 4.867527919905783e-01
 1.049071487935499e-01	 1.274262132053813e+00	 4.132739218367489e-01
 7.840521708978057e-02	 1.276166977344381e+00	 3.570214344840885e-01
 5.207685116066488e-02	 1.277512263858373e+00	 3.179343090185798e-01
 2.593703286221311e-02	 1.278310172697842e+00	 2.958037882666140e-01
 0.000000000000000e+00	 1.278573285686670e+00	 2.902901761396441e-01
 2.711018732562027e-01	 1.271419008852232e+00	 1.241113230513524e+00
 2.434578769459541e-01	 1.277000655069617e+00	 1.081474231193771e+00
 2.158837072415182e-01	 1.281950286367708e+00	 9.369958203970141e-01
 1.883988682280532e-01	 1.286276837867395e+00	 8.086382335516622e-01
 1.610222009416785e-01	 1.289989939893004e+00	 6.971431769816006e-01
 1.337718591867981e-01	 1.293099870188797e+00	 6.030408348925789e-01
 1.066652889043021e-01	 1.295617505721334e+00	 5.266595112202909e-01
 7.971921102305438e-02	 1.297554274336043e+00	 4.681376444379604e-01
 5.294960770717862e-02	 1.298922106522204e+00	 4.274379018665626e-01
 2.637171189378541e-02	 1.299733387525096e+00	 4.043630362067590e-01
 0.000000000000000e+00	 1.300000910027534e+00	 3.985731710302377e-01
 2.755703816944557e-01	 1.292375509435615e+00	 1.377198335244308e+00
 2.474707358928920e-01	 1.298049156615436e+00	 1.212784821856436e+00
 2.194420676325628e-01	 1.303080371522645e+00	 1.063788393159007e+00
 1.915042024798735e-01	 1.307478236553625e+00	 9.312615589692359e-01
 1.636762920233097e-01	 1.311252540767066e+00	 8.160260713606080e-01
 1.359767892921631e-01	 1.314413731312873e+00	 7.186792030452387e-01
 1.084234277846637e-01	 1.316972864440081e+00	 6.396029327501324e-01
 8.103320403681270e-02	 1.318941556356603e+00	 5.789757664946780e-01
 5.382236364298600e-02	 1.320331934199166e+00	 5.367868876485791e-01
 2.680639062121374e-02	 1.321156587356134e+00	 5.128523009413979e-01
 0.000000000000000e+00	 1.321428519369097e+00	 5.068326163850271e-01
 2.800388875260558e-01	 1.313331997794282e+00	 1.511506239076545e+00
 2.514835924989972e-01	 1.319097645882874e+00	 1.342824146595458e+00
 2.230004259479292e-01	 1.324210444351618e+00	 1.189750373266901e+00
 1.946095349203127e-01	 1.328679622872302e+00	 1.053437347226826e+00
 1.663303815568142e-01	 1.332515129237891e+00	 9.347936096332911e-01
 1.381817181114345e-01	 1.335727580003826e+00	 8.344892777536259e-01
 1.101815656395719e-01	 1.338328210701515e+00	 7.529647079222642e-01
 8.234719628420067e-02	 1.340328825901245e+00	 6.904420779558524e-01
 5.469511906979165e-02	 1.341741749387074e+00	 6.469395677329070e-01
 2.724106909514462e-02	 1.342579774690324e+00	 6.222877847231384e-01
 0.000000000000000e+00	 1.342856116211244e+00	 6.161480585131092e-01
 2.845073912721650e-01	 1.334288476373178e+00	 1.644704321843596e+00
 2.554964472322594e-01	 1.340146125327605e+00	 1.472261860604807e+00
 2.265587826025708e-01	 1.345340507319818e+00	 1.315561321291568e+00
 1.977148659114633e-01	 1.349880999296936e+00	 1.175862608160095e+00
 1.689844698516372e-01	 1.353777707786126e+00	 1.054167664061868e+00
 1.403866459016606e-01	 1.357041418748281e+00	 9.512250296670165e-01
 1.119397026739639e-01	 1.359683546997099e+00	 8.675379169254736e-01
 8.366118791836354e-02	 1.361716085465153e+00	 8.033755069074644e-01
 5.556787408930028e-02	 1.363151554583735e+00	 7.587871360510114e-01
 2.767574736622461e-02	 1.364002952027036e+00	 7.336189983521111e-01
 0.000000000000000e+00	 1.364283703053858e+00	 7.275329644583485e-01
 2.889758934539454e-01	 1.355244947617244e+00	 1.777398918892444e+00
 2.595093005606681e-01	 1.361194597405308e+00	 1.601706344018891e+00
 2.301171380114408e-01	 1.366470562892439e+00	 1.441839259365492e+00
 2.008201958154179e-01	 1.371082368301039e+00	 1.299172552069848e+00
 1.716385572172243e-01	 1.375040278892417e+00	 1.174808082241166e+00
 1.425915729198902e-01	 1.378355250032861e+00	 1.069578247617078e+00
 1.136978390927769e-01	 1.381038875818296e+00	 9.840533990867335e-01
 8.497517909244642e-02	 1.383103337543510e+00	 9.185528076698347e-01
 5.644062880321656e-02	 1.384561352286963e+00	 8.731588317848487e-01
 2.811042548510022e-02	 1.385426121865639e+00	 8.477338922105815e-01
 0.000000000000000e+00	 1.385711282396822e+00	 8.419398314100887e-01
 2.934443945925591e-01	 1.376201413971425e+00	 1.910140288457356e+00
 2.635221529522129e-01	 1.382243064571658e+00	 1.731709610941431e+00
 2.336754925894923e-01	 1.387600613534673e+00	 1.569145530686618e+00
 2.039255249942689e-01	 1.392283732358122e+00	 1.423945407304961e+00
 1.742926439630208e-01	 1.396302845037412e+00	 1.297317469185368e+00
 1.447964994231718e-01	 1.399669076344194e+00	 1.190183290488584e+00
 1.154559751009483e-01	 1.402394199656568e+00	 1.103184478700711e+00
 8.628916995959447e-02	 1.404490584631499e+00	 1.036693263690145e+00
 5.731338331324518e-02	 1.405971144994568e+00	 9.908266213925013e-01
 2.854510350241799e-02	 1.406849286705503e+00	 9.654635184937739e-01
 0.000000000000000e+00	 1.407138856740019e+00	 9.602648292469906e-01
 2.979128952091682e-01	 1.397157877880663e+00	 2.043427133365296e+00
 2.675350048748832e-01	 1.403291529282332e+00	 1.862771778094286e+00
 2.372338467516789e-01	 1.408730661711715e+00	 1.697989223034056e+00
 2.070308538101089e-01	 1.413485093941693e+00	 1.550706805483474e+00
 1.769467303984721e-01	 1.417565408701761e+00	 1.422245540044156e+00
 1.470014256685540e-01	 1.420982900168902e+00	 1.313621412206457e+00
 1.172141109034152e-01	 1.423749521003378e+00	 1.225551266079635e+00
 8.760316067295294e-02	 1.425877829224306e+00	 1.158462967497492e+00
 5.818613772109082e-02	 1.427380935204363e+00	 1.112509459392794e+00
 2.897978146882448e-02	 1.428272449045998e+00	 1.087586273861259e+00
 0.000000000000000e+00	 1.428566428583333e+00	 1.083352025237023e+00
 1.428566428583333e+00	 0.000000000000000e+00	 1.474041624347491e+01
 1.428272449045998e+00	 2.897978146882486e-02	 1.474536303934153e+01
 1.427380935204363e+00	 5.818613772109118e-02	 1.474361247058439e+01
 1.425877829224305e+00	 8.760316067295322e-02	 1.473557150804309e+01
 1.423749521003378e+00	 1.172141109034155e-01	 1.472176248742333e+01
 1.420982900168901e+00	 1.470014256685542e-01	 1.470282356695410e+01
 1.417565408701760e+00	 1.769467303984722e-01	 1.467950788875863e+01
 1.413485093941694e+00	 2.070308538101091e-01	 1.465268133355112e+01
 1.408730661711715e+00	 2.372338467516789e-01	 1.462331877785130e+01
 1.403291529282332e+00	 2.675350048748832e-01	 1.459249878702188e+01
 1.397157877880663e+00	 2.979128952091682e-01	 1.456139670577501e+01
 1.449995499181647e+00	 0.000000000000000e+00	 1.450695829907371e+01
 1.449697109833070e+00	 2.941448983860340e-02	 1.451334573993451e+01
 1.448792222925418e+00	 5.905895317343568e-02	 1.451329527905055e+01
 1.447266569751416e+00	 8.891724329299891e-02	 1.450733613662885e+01
 1.445106336051617e+00	 1.189723696782540e-01	 1.449610545264624e+01
 1.442298214792488e+00	 1.492065061370588e-01	 1.448034375522220e+01
 1.438829459579589e+00	 1.796010024735820e-01	 1.446088956465040e+01
 1.434687938457957e+00	 2.101363998278110e-01	 1.443867316050977e+01
 1.429862187833423e+00	 2.407924498026650e-01	 1.441470954876514e+01
 1.424341466231304e+00	 2.715481374762986e-01	 1.439007853297370e+01
 1.418115807593190e+00	 3.023817083749849e-01	 1.436593551876366e+01
 1.471424564779844e+00	 0.000000000000000e+00	 1.429080288165865e+01
 1.471121765621054e+00	 2.984919810671369e-02	 1.429871816582197e+01
 1.470203505650512e+00	 5.993176842169688e-02	 1.430037533904751e+01
 1.468655305287833e+00	 9.023132560585176e-02	 1.429641509320945e+01
 1.466463146116619e+00	 1.207306280421508e-01	 1.428757864704134e+01
 1.463613524442529e+00	 1.514115860902909e-01	 1.427470195367599e+01
 1.460093505495844e+00	 1.822552739285674e-01	 1.425870905223458e+01
 1.455890778026941e+00	 2.132419451200787e-01	 1.424060460358815e+01
 1.450993709024503e+00	 2.443510520225141e-01	 1.422146566050797e+01
 1.445391398268700e+00	 2.755612691405500e-01	 1.420243273231194e+01
 1.439073732415621e+00	 3.068505204973566e-01	 1.418470021363075e+01
 1.492853620377808e+00	 0.000000000000000e+00	 1.409034423423798e+01
 1.492546411410866e+00	 3.028390617175231e-02	 1.409985869931765e+01
 1.491614778383680e+00	 6.080458326226987e-02	 1.410322724546302e+01
 1.490044030842858e+00	 9.154540730496345e-02	 1.410119906316910e+01
 1.487819946215142e+00	 1.224888855849311e-01	 1.409461689538768e+01
 1.484928824145480e+00	 1.536166650138291e-01	 1.408441002905241e+01
 1.481357541488952e+00	 1.849095441442039e-01	 1.407158643961886e+01
 1.477093607701365e+00	 2.163474889623962e-01	 1.405722414102651e+01
 1.472125220354330e+00	 2.479096525810012e-01	 1.404246180415301e+01
 1.466441320482941e+00	 2.795743989313582e-01	 1.402848871718347e+01
 1.460031647457859e+00	 3.113193305336813e-01	 1.401653417117529e+01
 1.514282660975422e+00	 0.000000000000000e+00	 1.390406592328549e+01
 1.513971042203420e+00	 3.071861393231583e-02	 1.391523575974908e+01
 1.513026036128963e+00	 6.167739749154973e-02	 1.392031192122956e+01
 1.511432741425798e+00	 9.285948808378569e-02	 1.392014939442323e+01
 1.509176731363953e+00	 1.242471418964206e-01	 1.391569013955128e+01
 1.506244108927795e+00	 1.558217423932516e-01	 1.390795490902820e+01
 1.502621562597342e+00	 1.875638125012670e-01	 1.389803422871924e+01
 1.498296422533949e+00	 2.194530306302475e-01	 1.388707860606406e+01
 1.493256716892276e+00	 2.514682506479013e-01	 1.387628804053996e+01
 1.487491227962451e+00	 2.835875259124445e-01	 1.386690092272391e+01
 1.480989547829808e+00	 3.157881374413563e-01	 1.386018241838973e+01
 1.535711681572569e+00	 0.000000000000000e+00	 1.373053461165292e+01
 1.535395652999628e+00	 3.115332128700082e-02	 1.374340192300068e+01
 1.534437273890396e+00	 6.255021090593156e-02	 1.375017514090852e+01
 1.532821432045957e+00	 9.417356763577016e-02	 1.375181259884364e+01
 1.530533496579810e+00	 1.260053965664448e-01	 1.374935339833435e+01
 1.527559373815928e+00	 1.580268177141372e-01	 1.374390809642398e+01
 1.523885563859440e+00	 1.902180783805323e-01	 1.373664856592829e+01
 1.519499217577412e+00	 2.225585693991171e-01	 1.372879710423172e+01
 1.514388193707715e+00	 2.550268453929895e-01	 1.372161487804990e+01
 1.508541115795653e+00	 2.876006491475298e-01	 1.371638980277678e+01
 1.501947428641371e+00	 3.202569401777798e-01	 1.371442396550999e+01
 1.557140677169134e+00	 0.000000000000000e+00	 1.356839434075304e+01
 1.556820238800403e+00	 3.158802813440383e-02	 1.358298815872327e+01
 1.555848486672018e+00	 6.342302330181039e-02	 1.359144174742004e+01
 1.554210097712639e+00	 9.548764565436864e-02	 1.359481457398940e+01
 1.551890236879478e+00	 1.277636491848292e-01	 1.359424102062048e+01
 1.548874613836336e+00	 1.602318904620643e-01	 1.359091998104885e+01
 1.545149540313671e+00	 1.928723411627752e-01	 1.358610364074974e+01
 1.540701987884476e+00	 2.256641045444891e-01	 1.358108552760063e+01
 1.535519645870019e+00	 2.585854359860407e-01	 1.357718793194679e+01
 1.529590979070970e+00	 2.916137677003350e-01	 1.357574880656935e+01
 1.522905285002452e+00	 3.247257377003494e-01	 1.357810826780949e+01
 1.578569642764997e+00	 0.000000000000000e+00	 1.341636127839116e+01
 1.578244794606660e+00	 3.202273437312145e-02	 1.343269853680727e+01
 1.577259669477867e+00	 6.429583447558138e-02	 1.344281033956268e+01
 1.575598733435150e+00	 9.680172183303276e-02	 1.344785529497985e+01
 1.573246947279715e+00	 1.295218993413993e-01	 1.344906140576043e+01
 1.570189824015471e+00	 1.624369601226113e-01	 1.344771461355730e+01
 1.566413486998465e+00	 1.955266002287714e-01	 1.344514653882295e+01
 1.561904728507859e+00	 2.287696353418478e-01	 1.344272151334376e+01
 1.556651068448562e+00	 2.621440215968300e-01	 1.344182301544838e+01
 1.550640812876824e+00	 2.956268806345810e-01	 1.344383962979162e+01
 1.543863112022955e+00	 3.291945289664627e-01	 1.345015066462956e+01
 1.599998573360045e+00	 0.000000000000000e+00	 1.327321888859598e+01
 1.599669315419313e+00	 3.245743990175022e-02	 1.329130535913187e+01
 1.598670817311980e+00	 6.516864422363956e-02	 1.330304838619199e+01
 1.596987334222794e+00	 9.811579586521423e-02	 1.330970393243927e+01
 1.594603622797286e+00	 1.312801466259807e-01	 1.331259214740064e+01
 1.591504999379790e+00	 1.646420261813569e-01	 1.331308489801011e+01
 1.587677398952247e+00	 1.981808549592961e-01	 1.331259250674290e+01
 1.583107434500282e+00	 2.318751610666773e-01	 1.331254980496065e+01
 1.577782456512717e+00	 2.657026013951323e-01	 1.331440162205604e+01
 1.571690612301640e+00	 2.996399870139888e-01	 1.331958784321774e+01
 1.564820904812782e+00	 3.336633129335175e-01	 1.332952817989212e+01
 1.621427463954159e+00	 0.000000000000000e+00	 1.313781348441532e+01
 1.621093796239274e+00	 3.289214461888672e-02	 1.315764467725208e+01
 1.620081925178396e+00	 6.604145234238003e-02	 1.317098772759208e+01
 1.618375895084876e+00	 9.942986744436480e-02	 1.317919435710157e+01
 1.615960258448952e+00	 1.330383906283987e-01	 1.318367556158478e+01
 1.612820134955746e+00	 1.668470881238793e-01	 1.318588816440837e+01
 1.608941271213444e+00	 2.008351047351250e-01	 1.318732059058432e+01
 1.604310100914466e+00	 2.349806809944619e-01	 1.318947797891828e+01
 1.598913805131856e+00	 2.692611745507228e-01	 1.319386676295129e+01
 1.592740372433839e+00	 3.036530859022795e-01	 1.320197886394704e+01
 1.585778658481837e+00	 3.381320885589116e-01	 1.321527565065690e+01
 1.642856309547222e+00	 0.000000000000000e+00	 1.300905012871483e+01
 1.642518232067458e+00	 3.332684842312753e-02	 1.303061216079037e+01
 1.641492988081151e+00	 6.691425862819787e-02	 1.304552042869195e+01
 1.639764411030700e+00	 1.007439362639361e-01	 1.305522099577501e+01
 1.637316849251474e+00	 1.347966309384790e-01	 1.306121456404707e+01
 1.634135225769794e+00	 1.690521454357572e-01	 1.306504208651125e+01
 1.630205098820483e+00	 2.034893489370335e-01	 1.306826961401222e+01
 1.625512722803128e+00	 2.380861944006857e-01	 1.307247250334741e+01
 1.620045109375352e+00	 2.728197402333763e-01	 1.307921912704315e+01
 1.613790088361845e+00	 3.076661763631741e-01	 1.309005423798433e+01
 1.606736368140026e+00	 3.426008548000429e-01	 1.310648215377375e+01
 1.397157877880663e+00	 2.979128952091682e-01	 1.456139670577500e+01
 1.390321207911435e+00	 3.283432604707773e-01	 1.452363981044267e+01
 1.382772979661474e+00	 3.588054623961565e-01	 1.447262337230370e+01
 1.374505973497382e+00	 3.892761208955346e-01	 1.440928452106435e+01
 1.365513932254041e+00	 4.197312751560196e-01	 1.433460009336305e+01
 1.355791606544858e+00	 4.501464298671908e-01	 1.424957609052343e+01
 1.345334797636131e+00	 4.804966052107589e-01	 1.415523644478345e+01
 1.334140397546113e+00	 5.107563904847842e-01	 1.405261129159325e+01
 1.322206426034874e+00	 5.409000011996961e-01	 1.394272496964313e+01
 1.309532064160208e+00	 5.709013394500247e-01	 1.382658398864483e+01
 1.296117684087507e+00	 6.007340573327650e-01	 1.370516521637514e+01
 1.418115807593190e+00	 3.023817083749849e-01	 1.436593551876366e+01
 1.411176584826471e+00	 3.332685413459622e-01	 1.433578828483387e+01
 1.403515130118839e+00	 3.641876885434341e-01	 1.429290280759813e+01
 1.395124115539500e+00	 3.951154191668939e-01	 1.423820894010131e+01
 1.385997190063342e+00	 4.260274129816328e-01	 1.417266989200767e+01
 1.376129025560859e+00	 4.568988072377368e-01	 1.409727109408383e+01
 1.365515360315660e+00	 4.877042474096103e-01	 1.401300837991421e+01
 1.354153039725019e+00	 5.184179416245797e-01	 1.392087570208940e+01
 1.342040053844614e+00	 5.490137186153758e-01	 1.382185262600743e+01
 1.329175571447773e+00	 5.794650889974661e-01	 1.371689186403576e+01
 1.315559970282518e+00	 6.097453096387191e-01	 1.360690712481911e+01
 1.439073732415621e+00	 3.068505204973566e-01	 1.418470021363075e+01
 1.432031956875350e+00	 3.381938210712481e-01	 1.416163700463044e+01
 1.424257275736481e+00	 3.695699134342548e-01	 1.412634120555457e+01
 1.415742252770840e+00	 4.009547160752124e-01	 1.407969995553943e+01
 1.406480443093345e+00	 4.323235493376784e-01	 1.402266535029744e+01
 1.396466439831600e+00	 4.636511830323276e-01	 1.395620592895475e+01
 1.385695918286535e+00	 4.949118879263421e-01	 1.388129269912143e+01
 1.374165677234460e+00	 5.260794909764009e-01	 1.379888621948109e+01
 1.361873677026661e+00	 5.571274341376236e-01	 1.370992351127796e+01
 1.348819074152008e+00	 5.880288365465024e-01	 1.361530508633712e+01
 1.335002251941154e+00	 6.187565598418697e-01	 1.351588239194174e+01
 1.460031647457859e+00	 3.113193305336813e-01	 1.401653417117529e+01
 1.452887319191917e+00	 3.431190984975254e-01	 1.399990686493955e+01
 1.444999411674672e+00	 3.749521358128902e-01	 1.397162984071369e+01
 1.436360380380620e+00	 4.067940102581153e-01	 1.393253458883066e+01
 1.426963686564753e+00	 4.386196827551881e-01	 1.388345488384723e+01
 1.416803844611821e+00	 4.704035556755414e-01	 1.382531423047677e+01
 1.405876466840104e+00	 5.021195250793080e-01	 1.375908295775100e+01
 1.394178305404967e+00	 5.337410367526935e-01	 1.368569111012861e+01
 1.381707290953323e+00	 5.652411458733838e-01	 1.360603550387379e+01
 1.368462567689588e+00	 5.965925800990770e-01	 1.352096617231139e+01
 1.354444524527037e+00	 6.277678058397489e-01	 1.343127333539963e+01
 1.480989547829808e+00	 3.157881374413563e-01	 1.386018241838973e+01
 1.473742666910018e+00	 3.480443724756851e-01	 1.384939911262345e+01
 1.465741533093688e+00	 3.803343544236131e-01	 1.382752088822751e+01
 1.456978493558061e+00	 4.126333003532271e-01	 1.379537778979298e+01
 1.447446915698271e+00	 4.449158117651933e-01	 1.375378821753968e+01
 1.437141235156264e+00	 4.771559235919575e-01	 1.370355137174280e+01
 1.426057001267715e+00	 5.093271571868619e-01	 1.364544599879110e+01
 1.414190919567078e+00	 5.414025771659036e-01	 1.358040966377334e+01
 1.401540890996910e+00	 5.733548519296027e-01	 1.350935540541557e+01
 1.388106047477182e+00	 6.051563176571331e-01	 1.343308463829355e+01
 1.373886783503789e+00	 6.367790455298894e-01	 1.335232753655787e+01
 1.501947428641371e+00	 3.202569401777798e-01	 1.371442396550999e+01
 1.494597995163497e+00	 3.529696418566181e-01	 1.370895456488582e+01
 1.486483635153804e+00	 3.857165680106959e-01	 1.369291241545967e+01
 1.477596587492386e+00	 4.184725849981724e-01	 1.366712931881717e+01
 1.467930125714600e+00	 4.512119348987256e-01	 1.363241230518284e+01
 1.457478606719667e+00	 4.839082852061540e-01	 1.358953573907956e+01
 1.446237516860712e+00	 5.165347825673574e-01	 1.353923401897850e+01
 1.434203515051323e+00	 5.490641104284768e-01	 1.348219497856906e+01
 1.421374472529729e+00	 5.814685504132245e-01	 1.341911475916434e+01
 1.407749508931462e+00	 6.137200472226142e-01	 1.335093292377329e+01
 1.393329024335036e+00	 6.457902768098238e-01	 1.327835385692190e+01
 1.522905285002452e+00	 3.247257377003494e-01	 1.357810826780949e+01
 1.515453299086196e+00	 3.578949054912148e-01	 1.357748178664847e+01
 1.507225713015295e+00	 3.910987753184111e-01	 1.356677002975049e+01
 1.498214657372813e+00	 4.243118628305759e-01	 1.354680963542554e+01
 1.488413311834442e+00	 4.575080506868162e-01	 1.351839866923653e+01
 1.477815954556771e+00	 4.906606389427100e-01	 1.348228835944135e+01
 1.466418008910445e+00	 5.237423995391485e-01	 1.343917555279523e+01
 1.454216087188239e+00	 5.567256347528590e-01	 1.338969600761977e+01
 1.441208030924087e+00	 5.895822394311954e-01	 1.333441863141015e+01
 1.427392947469101e+00	 6.222837667974633e-01	 1.327384261168566e+01
 1.412771242484401e+00	 6.548014975770848e-01	 1.320871874109442e+01
 1.543863112022955e+00	 3.291945289664627e-01	 1.345015066462956e+01
 1.536308573811963e+00	 3.628201622303664e-01	 1.345395272567309e+01
 1.527967761838435e+00	 3.964809750910310e-01	 1.344812035910126e+01
 1.518832698388564e+00	 4.301511324880623e-01	 1.343349800057641e+01
 1.508896469278502e+00	 4.638041576604971e-01	 1.341087704317692e+01
 1.498153273922315e+00	 4.974129832262040e-01	 1.338098717172906e+01
 1.486598472708260e+00	 5.309500064205889e-01	 1.334448854856278e+01
 1.474228631308358e+00	 5.643871483514963e-01	 1.330196497744056e+01
 1.461041561552292e+00	 5.976959170904599e-01	 1.325391816175812e+01
 1.447036358506768e+00	 6.308474743836244e-01	 1.320076315950889e+01
 1.432213433415505e+00	 6.638127057292049e-01	 1.314282512090613e+01
 1.564820904812782e+00	 3.336633129335175e-01	 1.332952817989212e+01
 1.557163814474638e+00	 3.677454109249632e-01	 1.333739869235664e+01
 1.548709776783500e+00	 4.018631660728283e-01	 1.333604720008931e+01
 1.539450705728858e+00	 4.359903926082565e-01	 1.332632878136813e+01
 1.529379593267484e+00	 4.701002543507994e-01	 1.330903033942487e+01
 1.518490560071041e+00	 5.041653164812150e-01	 1.328486150528464e+01
 1.506778903545503e+00	 5.381576015300327e-01	 1.325444652766740e+01
 1.494241142742214e+00	 5.720486494368344e-01	 1.321831728710887e+01
 1.480875059786653e+00	 6.058095814979635e-01	 1.317690755980171e+01
 1.466679737461136e+00	 6.394111679830407e-01	 1.313054864181598e+01
 1.451655592591975e+00	 6.728238991637165e-01	 1.307946642627833e+01
 1.585778658481837e+00	 3.381320885589116e-01	 1.321527565065690e+01
 1.578019016208070e+00	 3.726706504258964e-01	 1.322690665231739e+01
 1.569451753010765e+00	 4.072453470080751e-01	 1.322968796411780e+01
 1.560068674582917e+00	 4.418296418287829e-01	 1.322448804044076e+01
 1.549862679022088e+00	 4.763963392887547e-01	 1.321209137128906e+01
 1.538827808257688e+00	 5.109176371323216e-01	 1.319318892371584e+01
 1.526959296713520e+00	 5.453651831858333e-01	 1.316836971040236e+01
 1.514253616820342e+00	 5.797101362213192e-01	 1.313811363351275e+01
 1.500708520999477e+00	 6.139232307606518e-01	 1.310278573930925e+01
 1.486323079748878e+00	 6.479748455976551e-01	 1.306263200293904e+01
 1.471097715477432e+00	 6.818350757781524e-01	 1.301777674323844e+01
 1.606736368140026e+00	 3.426008548000429e-01	 1.310648215377375e+01
 1.598874174146099e+00	 3.775958795840561e-01	 1.312161580321479e+01
 1.590193685680504e+00	 4.126275166410439e-01	 1.312823039476335e+01
 1.580686600139960e+00	 4.476688787872662e-01	 1.312721038408360e+01
 1.570345721763017e+00	 4.826924110053945e-01	 1.311933982198305e+01
 1.559165013736997e+00	 5.176699436041022e-01	 1.310529230493709e+01
 1.547139647503661e+00	 5.525727497063446e-01	 1.308562219715848e+01
 1.534266048873275e+00	 5.873716069173964e-01	 1.306075728387691e+01
 1.520541940563071e+00	 6.220368629854692e-01	 1.303099300187947e+01
 1.505966380786663e+00	 6.565385052294113e-01	 1.299648837607100e+01
 1.490539797535500e+00	 6.908462334700449e-01	 1.295726376976282e+01
 1.296117684087507e+00	 6.007340573327650e-01	 1.370516521637514e+01
 1.281963859679703e+00	 6.303736890742270e-01	 1.357165822581370e+01
 1.267074338930509e+00	 6.597914808483830e-01	 1.341944559467463e+01
 1.251453213690639e+00	 6.889607277392177e-01	 1.324973055033334e+01
 1.235105843551274e+00	 7.178547532174914e-01	 1.306369924398058e+01
 1.218038862919418e+00	 7.464469833258361e-01	 1.286251376523083e+01
 1.200260182937812e+00	 7.747110219166298e-01	 1.264730637489330e+01
 1.181778988123030e+00	 8.026207265275134e-01	 1.241917504092225e+01
 1.162605727633426e+00	 8.301502844642831e-01	 1.217918031239769e+01
 1.142752101118561e+00	 8.572742886496769e-01	 1.192834351269540e+01
 1.122231039143104e+00	 8.839678127895461e-01	 1.166764617783695e+01
 1.315559970282518e+00	 6.097453096387191e-01	 1.360690712481911e+01
 1.301193832819959e+00	 6.398295477690124e-01	 1.348507545883107e+01
 1.286080963275212e+00	 6.696886182433677e-01	 1.334476852262942e+01
 1.270225514878399e+00	 6.992954155612896e-01	 1.318711816723374e+01
 1.253632927616717e+00	 7.286228630348721e-01	 1.301323148125664e+01
 1.236309935415939e+00	 7.576439880866992e-01	 1.282418413745109e+01
 1.218264568089122e+00	 7.863319986163192e-01	 1.262101514023394e+01
 1.199506147924278e+00	 8.146603600139233e-01	 1.240472306331934e+01
 1.180045280821333e+00	 8.426028723845139e-01	 1.217626381078440e+01
 1.159893841929293e+00	 8.701337475344513e-01	 1.193654987516466e+01
 1.139064955776485e+00	 8.972276852651485e-01	 1.168645100479925e+01
 1.335002251941154e+00	 6.187565598418697e-01	 1.351588239194174e+01
 1.320423801473375e+00	 6.492854042572533e-01	 1.340482865543193e+01
 1.305087583185188e+00	 6.795857533288279e-01	 1.327551624142087e+01
 1.288997811686099e+00	 7.096301009717146e-01	 1.312901063267095e+01
 1.272160007359306e+00	 7.393909703394383e-01	 1.296634545481038e+01
 1.254581003649326e+00	 7.688409902346313e-01	 1.278851612630705e+01
 1.236268949039506e+00	 7.979529726041076e-01	 1.259647509705471e+01
 1.217233303589262e+00	 8.266999906907053e-01	 1.239112876974362e+01
 1.197484829940055e+00	 8.550554573987261e-01	 1.217333613641377e+01
 1.177035578740290e+00	 8.829932034182446e-01	 1.194390909647360e+01
 1.155898868481916e+00	 9.104875546463292e-01	 1.170361435449555e+01
 1.354444524527037e+00	 6.277678058397489e-01	 1.343127333539963e+01
 1.339653761153115e+00	 6.587412563327480e-01	 1.333013985378803e+01
 1.324094194225708e+00	 6.894828837956045e-01	 1.321095506659705e+01
 1.307770099733683e+00	 7.199647815592474e-01	 1.307472303448846e+01
 1.290687078456197e+00	 7.501590726188204e-01	 1.292240941254662e+01
 1.272852063356467e+00	 7.800379871571943e-01	 1.275493537285077e+01
 1.254273321588074e+00	 8.095739411686381e-01	 1.257317330904503e+01
 1.234960450981773e+00	 8.387396157488207e-01	 1.237794442312625e+01
 1.214924370920487e+00	 8.675080366015272e-01	 1.217001822658917e+01
 1.194177307551941e+00	 8.958526533007305e-01	 1.195011391518097e+01
 1.172732773331609e+00	 9.237474178393288e-01	 1.171890350153260e+01
 1.373886783503789e+00	 6.367790455298894e-01	 1.335232753655787e+01
 1.358883707372339e+00	 6.681971017892955e-01	 1.326029455622525e+01
 1.343100791962047e+00	 6.993800073345399e-01	 1.315041266825769e+01
 1.326542374641095e+00	 7.302994549126425e-01	 1.302362941303883e+01
 1.309214136584547e+00	 7.609271673606491e-01	 1.288084787809936e+01
 1.291123110274250e+00	 7.912349762419519e-01	 1.272292085994777e+01
 1.272277681533936e+00	 8.211949015985522e-01	 1.255064700798551e+01
 1.252687585965604e+00	 8.507792323792299e-01	 1.236476905787466e+01
 1.232363899693529e+00	 8.799606070875265e-01	 1.216597418697260e+01
 1.211319024364632e+00	 9.087120941815811e-01	 1.195489644437424e+01
 1.189566666397781e+00	 9.370072717503887e-01	 1.173212112566059e+01
 1.393329024335036e+00	 6.457902768098238e-01	 1.327835385692190e+01
 1.378113635644210e+00	 6.776529384206935e-01	 1.319463784492698e+01
 1.362107371959476e+00	 7.092771216364750e-01	 1.309327431072225e+01
 1.345314632028278e+00	 7.406341186206541e-01	 1.297515914924563e+01
 1.327741177421514e+00	 7.716952520525563e-01	 1.284113821131075e+01
 1.309394140139563e+00	 8.024319548764670e-01	 1.269200166864421e+01
 1.290282024676203e+00	 8.328158511824933e-01	 1.252848056877341e+01
 1.270414704404546e+00	 8.628188377728937e-01	 1.235124569547606e+01
 1.249803412190078e+00	 8.924131659513319e-01	 1.216090876868590e+01
 1.228460725178751e+00	 9.215715230604694e-01	 1.195802593004346e+01
 1.206400543752646e+00	 9.502671132857498e-01	 1.174310336990438e+01
 1.412771242484401e+00	 6.548014975770848e-01	 1.320871874109442e+01
 1.397343541481887e+00	 6.871087640207412e-01	 1.313257077364584e+01
 1.381113929783269e+00	 7.191742243922515e-01	 1.303897935587877e+01
 1.364086867515178e+00	 7.509687702720376e-01	 1.292879360225783e+01
 1.346268196644251e+00	 7.824633241821719e-01	 1.280280740251128e+01
 1.327665148689293e+00	 8.136289204483015e-01	 1.266175395090753e+01
 1.308286346813982e+00	 8.444367872091038e-01	 1.250630268183177e+01
 1.288141802162392e+00	 8.748584291207741e-01	 1.233705873701522e+01
 1.267242904341031e+00	 9.048657102875507e-01	 1.215456500046831e+01
 1.245602405994683e+00	 9.344309369370680e-01	 1.195930664135982e+01
 1.223234401468420e+00	 9.635269393516541e-01	 1.175171800626054e+01
 1.432213433415505e+00	 6.638127057292049e-01	 1.314282512090613e+01
 1.416573420398534e+00	 6.965645763832368e-01	 1.307354700919899e+01
 1.400120460998699e+00	 7.290713132927109e-01	 1.298701800516000e+01
 1.382859076721738e+00	 7.613034074555473e-01	 1.288406297298137e+01
 1.364795189929917e+00	 7.932313812371272e-01	 1.276542907838652e+01
 1.345936131660326e+00	 8.248258703450192e-01	 1.263179809818163e+01
 1.326290643746386e+00	 8.560577069670260e-01	 1.248378370414794e+01
 1.305868875102934e+00	 8.868980036138313e-01	 1.232193151579742e+01
 1.284682372077287e+00	 9.173182371907922e-01	 1.214672196115691e+01
 1.262744062812819e+00	 9.472903328110500e-01	 1.195857588032620e+01
 1.240068235617315e+00	 9.767867468543421e-01	 1.175786269873983e+01
 1.451655592591975e+00	 6.728238991637165e-01	 1.307946642627833e+01
 1.435803267907312e+00	 7.060203733019786e-01	 1.301699618742735e+01
 1.419126961171039e+00	 7.389683860286949e-01	 1.293692825777781e+01
 1.401631255267902e+00	 7.716380277599376e-01	 1.284054337231492e+01
 1.383322152955669e+00	 8.039994207050533e-01	 1.272862069959646e+01
 1.364207084789552e+00	 8.360228019541825e-01	 1.260179608740163e+01
 1.344294911272523e+00	 8.676786077449022e-01	 1.246063317219709e+01
 1.323595919089963e+00	 8.989375584430266e-01	 1.230562399506841e+01
 1.302121811329744e+00	 9.297707437556647e-01	 1.213719267933648e+01
 1.279885691633543e+00	 9.601497076820873e-01	 1.195570209960929e+01
 1.256902042271548e+00	 9.900465327000560e-01	 1.176146335462925e+01
 1.471097715477432e+00	 6.818350757781524e-01	 1.301777674323844e+01
 1.455033079521381e+00	 7.154761525707655e-01	 1.296168244157152e+01
 1.438133425865562e+00	 7.488654402910444e-01	 1.288816056381958e+01
 1.420403398773615e+00	 7.819726287739635e-01	 1.279785407515405e+01
 1.401849081398661e+00	 8.147674400735805e-01	 1.269204093241081e+01
 1.382478003813858e+00	 8.472197126633544e-01	 1.257144898805330e+01
 1.362299145191503e+00	 8.792994868313756e-01	 1.243659746177696e+01
 1.341322929987272e+00	 9.109770907993211e-01	 1.228793059741060e+01
 1.319561218029299e+00	 9.422232270767761e-01	 1.212582214839606e+01
 1.297027288457242e+00	 9.730090585498532e-01	 1.195058311854722e+01
 1.273735817503334e+00	 1.003306293795036e+00	 1.176247255581353e+01
 1.490539797535500e+00	 6.908462334700449e-01	 1.295726376976282e+01
 1.474262850753904e+00	 7.249319119833955e-01	 1.290694482691546e+01
 1.457139850647540e+00	 7.587624737706010e-01	 1.283953127564221e+01
 1.439175502858820e+00	 7.923072080863791e-01	 1.275548988919921e+01
 1.420375970936052e+00	 8.255354368303396e-01	 1.265538717847412e+01
 1.400748884470129e+00	 8.584165998600977e-01	 1.254049461557577e+01
 1.380303341302437e+00	 8.909203415150886e-01	 1.241145758134240e+01
 1.359049903658652e+00	 9.230165978736755e-01	 1.226867815379491e+01
 1.337000588106851e+00	 9.546756842487342e-01	 1.211248544645742e+01
 1.314168849284303e+00	 9.858683824140202e-01	 1.194314442837040e+01
 1.290569557384885e+00	 1.016566027045524e+00	 1.176086806284829e+01
 1.122231039143104e+00	 8.839678127895461e-01	 1.166764617783695e+01
 1.101056675093123e+00	 9.102064878753481e-01	 1.139355076517043e+01
 1.079244305519478e+00	 9.359665820294276e-01	 1.110293260387266e+01
 1.056810364083729e+00	 9.612250634761028e-01	 1.079739378870878e+01
 1.033772384244049e+00	 9.859596659980987e-01	 1.047857705521708e+01
 1.010148953990557e+00	 1.010148953990557e+00	 1.014816478304648e+01
 9.859596659980979e-01	 1.033772384244049e+00	 9.807877317098297e+00
 9.612250634761024e-01	 1.056810364083729e+00	 9.459470327001707e+00
 9.359665820294277e-01	 1.079244305519479e+00	 9.104730939110638e+00
 9.102064878753476e-01	 1.101056675093124e+00	 8.745472401586287e+00
 8.839678127895459e-01	 1.122231039143104e+00	 8.383527081706521e+00
 1.139064955776485e+00	 8.972276852651485e-01	 1.168645100479925e+01
 1.117572967755451e+00	 9.238599510231368e-01	 1.142252147245735e+01
 1.095433403871457e+00	 9.500064569430546e-01	 1.114176576060786e+01
 1.072662944297590e+00	 9.756438257633305e-01	 1.084573283739304e+01
 1.049279385500946e+00	 1.000749457264482e+00	 1.053601862899109e+01
 1.025301594298962e+00	 1.025301594298963e+00	 1.021426612841007e+01
 1.000749457264481e+00	 1.049279385500947e+00	 9.882164762322407e+00
 9.756438257633303e-01	 1.072662944297591e+00	 9.541448698798202e+00
 9.500064569430545e-01	 1.095433403871457e+00	 9.193893792934013e+00
 9.238599510231363e-01	 1.117572967755451e+00	 8.841312895563370e+00
 8.972276852651483e-01	 1.139064955776485e+00	 8.485549291960458e+00
 1.155898868481916e+00	 9.104875546463292e-01	 1.170361435449555e+01
 1.134089256563889e+00	 9.375134109846690e-01	 1.144911644503060e+01
 1.111622498445837e+00	 9.640463285802824e-01	 1.117756002358828e+01
 1.088515520812319e+00	 9.900625846857832e-01	 1.089043856354964e+01
 1.064786383139289e+00	 1.015539245079557e+00	 1.058929842502150e+01
 1.040454231071444e+00	 1.040454231071444e+00	 1.027574018300643e+01
 1.015539245079557e+00	 1.064786383139289e+00	 9.951419159436828e+00
 9.900625846857829e-01	 1.088515520812319e+00	 9.618044801013323e+00
 9.640463285802823e-01	 1.111622498445838e+00	 9.277378559263013e+00
 9.375134109846684e-01	 1.134089256563889e+00	 8.931229959211535e+00
 9.104875546463294e-01	 1.155898868481916e+00	 8.581450588006813e+00
 1.172732773331609e+00	 9.237474178393288e-01	 1.171890350153260e+01
 1.150605537664771e+00	 9.511668645743447e-01	 1.147317631288080e+01
 1.127811585465305e+00	 9.780861936653397e-01	 1.121022457721489e+01
 1.104368089929129e+00	 1.004481336879273e+00	 1.093148392802697e+01
 1.080293373540936e+00	 1.030329025992554e+00	 1.063844843333342e+01
 1.055606860772555e+00	 1.055606860772555e+00	 1.033267326220355e+01
 1.030329025992554e+00	 1.080293373540937e+00	 1.001577650689377e+01
 1.004481336879273e+00	 1.104368089929129e+00	 9.689439758195558e+00
 9.780861936653389e-01	 1.127811585465305e+00	 9.355407046269848e+00
 9.511668645743440e-01	 1.150605537664771e+00	 9.015481790967403e+00
 9.237474178393289e-01	 1.172732773331609e+00	 8.671521453878940e+00
 1.189566666397781e+00	 9.370072717503887e-01	 1.173212112566059e+01
 1.167121807204428e+00	 9.648203086065620e-01	 1.149457317791189e+01
 1.144000661152543e+00	 9.921260489224550e-01	 1.123969637316106e+01
 1.120220647949233e+00	 1.018900078979615e+00	 1.096886616694365e+01
 1.095800353087748e+00	 1.045118796552703e+00	 1.068352162181966e+01
 1.070759479866851e+00	 1.070759479866852e+00	 1.038516953658153e+01
 1.045118796552703e+00	 1.095800353087748e+00	 1.007538768909318e+01
 1.018900078979615e+00	 1.120220647949234e+00	 9.755826742449710e+00
 9.921260489224547e-01	 1.144000661152543e+00	 9.428210378840475e+00
 9.648203086065613e-01	 1.167121807204428e+00	 9.094333258931112e+00
 9.370072717503887e-01	 1.189566666397781e+00	 8.756056456202682e+00
 1.206400543752646e+00	 9.502671132857498e-01	 1.174310336990438e+01
 1.183638061329192e+00	 9.784737398957201e-01	 1.151320897513091e+01
 1.160189721730237e+00	 1.006165891075858e+00	 1.126593878391104e+01
 1.136073191173848e+00	 1.033318807622620e+00	 1.100260572723552e+01
 1.111307318161584e+00	 1.059908553309234e+00	 1.072459114383141e+01
 1.085912084818888e+00	 1.085912084818888e+00	 1.043335050198650e+01
 1.059908553309234e+00	 1.111307318161584e+00	 1.013041819971448e+01
 1.033318807622620e+00	 1.136073191173848e+00	 9.817410941267106e+00
 1.006165891075858e+00	 1.160189721730238e+00	 9.496029202548030e+00
 9.784737398957200e-01	 1.183638061329192e+00	 9.168056333071508e+00
 9.502671132857498e-01	 1.206400543752646e+00	 8.835354897187431e+00
 1.223234401468420e+00	 9.635269393516541e-01	 1.175171800626054e+01
 1.200154296185394e+00	 9.921271552562185e-01	 1.152901391712359e+01
 1.176378763421072e+00	 1.020205716849779e+00	 1.128894031650690e+01
 1.151925715904186e+00	 1.047737519444104e+00	 1.103274524049092e+01
 1.126814265144303e+00	 1.074698292811377e+00	 1.076174956324386e+01
 1.101064672093217e+00	 1.101064672093218e+00	 1.047735444729595e+01
 1.074698292811377e+00	 1.126814265144304e+00	 1.018104784398504e+01
 1.047737519444104e+00	 1.151925715904187e+00	 9.874409486445064e+00
 1.020205716849779e+00	 1.176378763421072e+00	 9.559113831727512e+00
 9.921271552562180e-01	 1.200154296185395e+00	 9.236930445331948e+00
 9.635269393516543e-01	 1.223234401468420e+00	 8.909721380032618e+00
 1.240068235617315e+00	 9.767867468543421e-01	 1.175786269873983e+01
 1.216670507919368e+00	 1.005780551502456e+00	 1.154194501390081e+01
 1.192567782447730e+00	 1.034245522968447e+00	 1.130871338078265e+01
 1.167778218441463e+00	 1.062156211079880e+00	 1.105934853143603e+01
 1.142321190417767e+00	 1.089488011608362e+00	 1.079510809533438e+01
 1.116217238154395e+00	 1.116217238154396e+00	 1.051733592010993e+01
 1.089488011608362e+00	 1.142321190417767e+00	 1.022747042188445e+01
 1.062156211079880e+00	 1.167778218441464e+00	 9.927051347789954e+00
 1.034245522968446e+00	 1.192567782447731e+00	 9.617724346958809e+00
 1.005780551502455e+00	 1.216670507919368e+00	 9.301242784483870e+00
 9.767867468543423e-01	 1.240068235617315e+00	 8.979466295067621e+00
 1.256902042271548e+00	 9.900465327000560e-01	 1.176146335462925e+01
 1.233186692677444e+00	 1.019433925448831e+00	 1.155198466105140e+01
 1.208756775032898e+00	 1.048285306156090e+00	 1.132529310697691e+01
 1.183630695086892e+00	 1.076574879165760e+00	 1.108249965782032e+01
 1.157828090363832e+00	 1.104277706249419e+00	 1.082479586198995e+01
 1.131369779466976e+00	 1.131369779466977e+00	 1.055346519056087e+01
 1.104277706249418e+00	 1.157828090363832e+00	 1.026989339406891e+01
 1.076574879165760e+00	 1.183630695086892e+00	 9.975577194902012e+00
 1.048285306156090e+00	 1.208756775032898e+00	 9.672130646697788e+00
 1.019433925448831e+00	 1.233186692677445e+00	 9.361288531840682e+00
 9.900465327000560e-01	 1.256902042271548e+00	 9.044906234050803e+00
 1.273735817503334e+00	 1.003306293795036e+00	 1.176247255581353e+01
 1.249702846605955e+00	 1.033087273909743e+00	 1.155913928988168e+01
 1.224945737399259e+00	 1.062325063136939e+00	 1.133873620815631e+01
 1.199483142141688e+00	 1.090993520337559e+00	 1.110230197879729e+01
 1.173334961364359e+00	 1.119067373283777e+00	 1.085095915991676e+01
 1.146522292495515e+00	 1.146522292495515e+00	 1.058592771341467e+01
 1.119067373283777e+00	 1.173334961364360e+00	 1.030853753211271e+01
 1.090993520337559e+00	 1.199483142141688e+00	 1.002023922999221e+01
 1.062325063136939e+00	 1.224945737399259e+00	 9.722612457293856e+00
 1.033087273909742e+00	 1.249702846605955e+00	 9.417371043299388e+00
 1.003306293795036e+00	 1.273735817503334e+00	 9.106364339270371e+00
 1.290569557384885e+00	 1.016566027045524e+00	 1.176086806284829e+01
 1.266218965851231e+00	 1.046740593699590e+00	 1.156343807388392e+01
 1.241134665769497e+00	 1.076364790635222e+00	 1.134911988335870e+01
 1.215335555907064e+00	 1.105412131231090e+00	 1.111887724919869e+01
 1.188841799801208e+00	 1.133857009260667e+00	 1.087376074066488e+01
 1.161674773704565e+00	 1.161674773704565e+00	 1.061492358861837e+01
 1.133857009260667e+00	 1.188841799801209e+00	 1.034363655449703e+01
 1.105412131231089e+00	 1.215335555907065e+00	 1.006130099437400e+01
 1.076364790635221e+00	 1.241134665769497e+00	 9.769459305190786e+00
 1.046740593699590e+00	 1.266218965851232e+00	 9.469801982607800e+00
 1.016566027045524e+00	 1.290569557384886e+00	 9.164170593395333e+00
 8.839678127895459e-01	 1.122231039143104e+00	 8.383527081706521e+00
 8.572742886496763e-01	 1.142752101118562e+00	 8.018146958613313e+00
 8.301502844642827e-01	 1.162605727633426e+00	 7.648548737409701e+00
 8.026207265275128e-01	 1.181778988123030e+00	 7.276535611136502e+00
 7.747110219166292e-01	 1.200260182937813e+00	 6.903919338488549e+00
 7.464469833258357e-01	 1.218038862919419e+00	 6.532505084711601e+00
 7.178547532174911e-01	 1.235105843551275e+00	 6.164074391869923e+00
 6.889607277392172e-01	 1.251453213690640e+00	 5.800366538109272e+00
 6.597914808483826e-01	 1.267074338930509e+00	 5.443058613833410e+00
 6.303736890742265e-01	 1.281963859679704e+00	 5.093744702370302e+00
 6.007340573327651e-01	 1.296117684087506e+00	 4.753914601438999e+00
 8.972276852651483e-01	 1.139064955776485e+00	 8.485549291960458e+00
 8.701337475344506e-01	 1.159893841929293e+00	 8.125924837720314e+00
 8.426028723845135e-01	 1.180045280821334e+00	 7.761674215318147e+00
 8.146603600139232e-01	 1.199506147924279e+00	 7.394548685408669e+00
 7.863319986163185e-01	 1.218264568089122e+00	 7.026316766238834e+00
 7.576439880866987e-01	 1.236309935415939e+00	 6.658749108191132e+00
 7.286228630348719e-01	 1.253632927616718e+00	 6.293601220176548e+00
 6.992954155612895e-01	 1.270225514878400e+00	 5.932594314158773e+00
 6.696886182433671e-01	 1.286080963275213e+00	 5.577394610408767e+00
 6.398295477690119e-01	 1.301193832819959e+00	 5.229591513297001e+00
 6.097453096387191e-01	 1.315559970282518e+00	 4.890675122983674e+00
 9.104875546463294e-01	 1.155898868481916e+00	 8.581450588006813e+00
 8.829932034182445e-01	 1.177035578740290e+00	 8.227414722395807e+00
 8.550554573987257e-01	 1.197484829940055e+00	 7.868357640477926e+00
 8.266999906907052e-01	 1.217233303589262e+00	 7.505976371513391e+00
 7.979529726041075e-01	 1.236268949039506e+00	 7.141993842268874e+00
 7.688409902346308e-01	 1.254581003649326e+00	 6.778143853273641e+00
 7.393909703394376e-01	 1.272160007359306e+00	 6.416153613302054e+00
 7.096301009717144e-01	 1.288997811686100e+00	 6.057724104161389e+00
 6.795857533288273e-01	 1.305087583185189e+00	 5.704508632780358e+00
 6.492854042572528e-01	 1.320423801473376e+00	 5.358090002914557e+00
 6.187565598418698e-01	 1.335002251941154e+00	 5.019956801703119e+00
 9.237474178393289e-01	 1.172732773331609e+00	 8.671521453878940e+00
 8.958526533007303e-01	 1.194177307551941e+00	 8.322933377408939e+00
 8.675080366015266e-01	 1.214924370920487e+00	 7.968934218436967e+00
 8.387396157488203e-01	 1.234960450981774e+00	 7.611164846836487e+00
 8.095739411686373e-01	 1.254273321588074e+00	 7.251300688615387e+00
 7.800379871571941e-01	 1.272852063356468e+00	 6.891036872251080e+00
 7.501590726188196e-01	 1.290687078456197e+00	 6.532070622271193e+00
 7.199647815592468e-01	 1.307770099733683e+00	 6.176081177066799e+00
 6.894828837956043e-01	 1.324094194225709e+00	 5.824707602043787e+00
 6.587412563327476e-01	 1.339653761153116e+00	 5.479524953255592e+00
 6.277678058397487e-01	 1.354444524527036e+00	 5.142019317513207e+00
 9.370072717503887e-01	 1.189566666397781e+00	 8.756056456202682e+00
 9.087120941815807e-01	 1.211319024364632e+00	 8.412799220262364e+00
 8.799606070875260e-01	 1.232363899693529e+00	 8.063738631745757e+00
 8.507792323792295e-01	 1.252687585965604e+00	 7.710457820077059e+00
 8.211949015985517e-01	 1.272277681533936e+00	 7.354583219183727e+00
 7.912349762419516e-01	 1.291123110274250e+00	 6.997769952882479e+00
 7.609271673606488e-01	 1.309214136584548e+00	 6.641684137883964e+00
 7.302994549126419e-01	 1.326542374641095e+00	 6.287982385384172e+00
 6.993800073345395e-01	 1.343100791962047e+00	 5.938288886175275e+00
 6.681971017892951e-01	 1.358883707372340e+00	 5.594170557591591e+00
 6.367790455298894e-01	 1.373886783503790e+00	 5.257110810007765e+00
 9.502671132857498e-01	 1.206400543752646e+00	 8.835354897187431e+00
 9.215715230604690e-01	 1.228460725178751e+00	 8.497333179591291e+00
 8.924131659513314e-01	 1.249803412190078e+00	 8.153106080553361e+00
 8.628188377728934e-01	 1.270414704404547e+00	 7.804197731541049e+00
 8.328158511824929e-01	 1.290282024676203e+00	 7.452184478057806e+00
 8.024319548764665e-01	 1.309394140139563e+00	 7.098680573963601e+00
 7.716952520525558e-01	 1.327741177421514e+00	 6.745320443816405e+00
 7.406341186206540e-01	 1.345314632028278e+00	 6.393737797219483e+00
 7.092771216364746e-01	 1.362107371959476e+00	 6.045541993640916e+00
 6.776529384206931e-01	 1.378113635644210e+00	 5.702292159577006e+00
 6.457902768098240e-01	 1.393329024335036e+00	 5.365469648515744e+00
 9.635269393516543e-01	 1.223234401468420e+00	 8.909721380032618e+00
 9.344309369370676e-01	 1.245602405994684e+00	 8.576859451827646e+00
 9.048657102875504e-01	 1.267242904341031e+00	 8.237373209263463e+00
 8.748584291207737e-01	 1.288141802162392e+00	 7.892726829141834e+00
 8.444367872091033e-01	 1.308286346813982e+00	 7.544445844915849e+00
 8.136289204483012e-01	 1.327665148689293e+00	 7.194103221045134e+00
 7.824633241821717e-01	 1.346268196644252e+00	 6.843301624445133e+00
 7.509687702720369e-01	 1.364086867515178e+00	 6.493652179020925e+00
 7.191742243922511e-01	 1.381113929783270e+00	 6.146750114986490e+00
 6.871087640207407e-01	 1.397343541481888e+00	 5.804147838803772e+00
 6.548014975770848e-01	 1.412771242484400e+00	 5.467326048024359e+00
 9.767867468543423e-01	 1.240068235617315e+00	 8.979466295067621e+00
 9.472903328110496e-01	 1.262744062812819e+00	 8.651706165790207e+00
 9.173182371907920e-01	 1.284682372077287e+00	 8.316878930070358e+00
 8.868980036138306e-01	 1.305868875102934e+00	 7.976388131911646e+00
 8.560577069670254e-01	 1.326290643746386e+00	 7.631708120173033e+00
 8.248258703450188e-01	 1.345936131660327e+00	 7.284370575582001e+00
 7.932313812371268e-01	 1.364795189929918e+00	 6.935946841191214e+00
 7.613034074555469e-01	 1.382859076721738e+00	 6.588026343211304e+00
 7.290713132927105e-01	 1.400120460998699e+00	 6.242191526845151e+00
 6.965645763832362e-01	 1.416573420398534e+00	 5.899989857352827e+00
 6.638127057292049e-01	 1.432213433415505e+00	 5.563040717618293e+00
 9.900465327000560e-01	 1.256902042271548e+00	 9.044906234050803e+00
 9.601497076820870e-01	 1.279885691633543e+00	 8.722205963827879e+00
 9.297707437556644e-01	 1.302121811329745e+00	 8.391965153036921e+00
 8.989375584430259e-01	 1.323595919089963e+00	 8.055526291563455e+00
 8.676786077449021e-01	 1.344294911272524e+00	 7.714312501119989e+00
 8.360228019541820e-01	 1.364207084789553e+00	 7.369814589372945e+00
 8.039994207050526e-01	 1.383322152955669e+00	 7.023573489704342e+00
 7.716380277599370e-01	 1.401631255267902e+00	 6.677158373367101e+00
 7.389683860286944e-01	 1.419126961171039e+00	 6.332140871254529e+00
 7.060203733019781e-01	 1.435803267907312e+00	 5.990660229161600e+00
 6.728238991637165e-01	 1.451655592591975e+00	 5.658136084410697e+00
 1.003306293795036e+00	 1.273735817503334e+00	 9.106364339270371e+00
 9.730090585498526e-01	 1.297027288457242e+00	 8.788696507230672e+00
 9.422232270767756e-01	 1.319561218029300e+00	 8.462977431355737e+00
 9.109770907993208e-01	 1.341322929987272e+00	 8.130488361529324e+00
 8.792994868313757e-01	 1.362299145191504e+00	 7.792601459135436e+00
 8.472197126633536e-01	 1.382478003813857e+00	 7.450767454895673e+00
 8.147674400735802e-01	 1.401849081398661e+00	 7.106498248903987e+00
 7.819726287739628e-01	 1.420403398773615e+00	 6.761344738266018e+00
 7.488654402910437e-01	 1.438133425865562e+00	 6.417987980256949e+00
 7.154761525707649e-01	 1.455033079521382e+00	 6.082781836332128e+00
 6.818350757781524e-01	 1.471097715477432e+00	 5.755931999689284e+00
 1.016566027045524e+00	 1.290569557384886e+00	 9.164170593395333e+00
 9.858683824140199e-01	 1.314168849284304e+00	 8.851520912819016e+00
 9.546756842487338e-01	 1.337000588106851e+00	 8.530265529531924e+00
 9.230165978736752e-01	 1.359049903658652e+00	 8.201624481917888e+00
 8.909203415150879e-01	 1.380303341302437e+00	 7.866919526999848e+00
 8.584165998600968e-01	 1.400748884470129e+00	 7.527562481037307e+00
 8.255354368303393e-01	 1.420375970936052e+00	 7.185038031744874e+00
 7.923072080863784e-01	 1.439175502858820e+00	 6.842339899841027e+00
 7.587624737706004e-01	 1.457139850647540e+00	 6.506838370022747e+00
 7.249319119833950e-01	 1.474262850753904e+00	 6.178706623038313e+00
 6.908462334700449e-01	 1.490539797535500e+00	 5.857148302828479e+00
 6.007340573327651e-01	 1.296117684087506e+00	 4.753914601438999e+00
 5.709013394500249e-01	 1.309532064160208e+00	 4.423202317629230e+00
 5.409000011996963e-01	 1.322206426034874e+00	 4.101598668065193e+00
 5.107563904847843e-01	 1.334140397546113e+00	 3.790997534006758e+00
 4.804966052107591e-01	 1.345334797636131e+00	 3.493125283906446e+00
 4.501464298671911e-01	 1.355791606544858e+00	 3.209517201276113e+00
 4.197312751560198e-01	 1.365513932254041e+00	 2.941496529270126e+00
 3.892761208955348e-01	 1.374505973497381e+00	 2.690156569507089e+00
 3.588054623961567e-01	 1.382772979661473e+00	 2.456346206445042e+00
 3.283432604707774e-01	 1.390321207911435e+00	 2.240659153286767e+00
 2.979128952091682e-01	 1.397157877880663e+00	 2.043427133365292e+00
 6.097453096387191e-01	 1.315559970282518e+00	 4.890675122983674e+00
 5.794650889974664e-01	 1.329175571447772e+00	 4.560423206834241e+00
 5.490137186153762e-01	 1.342040053844613e+00	 4.238989843252325e+00
 5.184179416245800e-01	 1.354153039725019e+00	 3.928302493859893e+00
 4.877042474096104e-01	 1.365515360315660e+00	 3.630121113606722e+00
 4.568988072377371e-01	 1.376129025560858e+00	 3.346012542844917e+00
 4.260274129816329e-01	 1.385997190063341e+00	 3.077327574168686e+00
 3.951154191668941e-01	 1.395124115539500e+00	 2.825181178367195e+00
 3.641876885434345e-01	 1.403515130118839e+00	 2.590436304168946e+00
 3.332685413459623e-01	 1.411176584826470e+00	 2.373691586573570e+00
 3.023817083749848e-01	 1.418115807593190e+00	 2.175273211087927e+00
 6.187565598418698e-01	 1.335002251941154e+00	 5.019956801703119e+00
 5.880288365465025e-01	 1.348819074152009e+00	 4.690044066454903e+00
 5.571274341376238e-01	 1.361873677026661e+00	 4.368701798293650e+00
 5.260794909764012e-01	 1.374165677234460e+00	 4.057918206690261e+00
 4.949118879263423e-01	 1.385695918286535e+00	 3.759513969594440e+00
 4.636511830323277e-01	 1.396466439831600e+00	 3.475114280639746e+00
 4.323235493376787e-01	 1.406480443093344e+00	 3.206123636060040e+00
 4.009547160752126e-01	 1.415742252770839e+00	 2.953703896971764e+00
 3.695699134342549e-01	 1.424257275736481e+00	 2.718756089271507e+00
 3.381938210712483e-01	 1.432031956875349e+00	 2.501896386562501e+00
 3.068505204973566e-01	 1.439073732415621e+00	 2.303236918411830e+00
 6.277678058397487e-01	 1.354444524527036e+00	 5.142019317513209e+00
 5.965925800990772e-01	 1.368462567689588e+00	 4.812300522248799e+00
 5.652411458733843e-01	 1.381707290953324e+00	 4.490950358942573e+00
 5.337410367526938e-01	 1.394178305404968e+00	 4.180044632648355e+00
 5.021195250793082e-01	 1.405876466840104e+00	 3.881491581624966e+00
 4.704035556755415e-01	 1.416803844611821e+00	 3.597001266223677e+00
 4.386196827551883e-01	 1.426963686564753e+00	 3.328057768840427e+00
 4.067940102581155e-01	 1.436360380380620e+00	 3.076028179492106e+00
 3.749521358128905e-01	 1.444999411674672e+00	 2.841704618015420e+00
 3.431190984975257e-01	 1.452887319191917e+00	 2.625125097875048e+00
 3.113193305336813e-01	 1.460031647457859e+00	 2.426173515299046e+00
 6.367790455298894e-01	 1.373886783503790e+00	 5.257110810007765e+00
 6.051563176571332e-01	 1.388106047477182e+00	 4.927415599463381e+00
 5.733548519296028e-01	 1.401540890996910e+00	 4.605937437959274e+00
 5.414025771659037e-01	 1.414190919567077e+00	 4.294866313465874e+00
 5.093271571868621e-01	 1.426057001267714e+00	 3.996224623514934e+00
 4.771559235919575e-01	 1.437141235156264e+00	 3.712195701893258e+00
 4.449158117651935e-01	 1.447446915698270e+00	 3.444619686579828e+00
 4.126333003532273e-01	 1.456978493558061e+00	 3.193899429610298e+00
 3.803343544236134e-01	 1.465741533093688e+00	 2.960272943614960e+00
 3.480443724756854e-01	 1.473742666910018e+00	 2.743844103111488e+00
 3.157881374413564e-01	 1.480989547829808e+00	 2.544575090172525e+00
 6.457902768098240e-01	 1.393329024335036e+00	 5.365469648515737e+00
 6.137200472226145e-01	 1.407749508931462e+00	 5.035601523061670e+00
 5.814685504132250e-01	 1.421374472529729e+00	 4.713852875400037e+00
 5.490641104284769e-01	 1.434203515051323e+00	 4.402786136787861e+00
 5.165347825673575e-01	 1.446237516860712e+00	 4.105844656326928e+00
 4.839082852061543e-01	 1.457478606719667e+00	 3.824119573777325e+00
 4.512119348987258e-01	 1.467930125714599e+00	 3.558168295755610e+00
 4.184725849981726e-01	 1.477596587492386e+00	 3.308438579516863e+00
 3.857165680106963e-01	 1.486483635153804e+00	 3.075257608337559e+00
 3.529696418566183e-01	 1.494597995163496e+00	 2.858822139934959e+00
 3.202569401777798e-01	 1.501947428641371e+00	 2.659189808152165e+00
 6.548014975770848e-01	 1.412771242484400e+00	 5.467326048024359e+00
 6.222837667974634e-01	 1.427392947469100e+00	 5.137061363137821e+00
 5.895822394311954e-01	 1.441208030924086e+00	 4.816243699748845e+00
 5.567256347528593e-01	 1.454216087188239e+00	 4.508288900907282e+00
 5.237423995391486e-01	 1.466418008910444e+00	 4.214031323966234e+00
 4.906606389427103e-01	 1.477815954556770e+00	 3.934214887192216e+00
 4.575080506868165e-01	 1.488413311834442e+00	 3.669492925022756e+00
 4.243118628305763e-01	 1.498214657372813e+00	 3.420415037341460e+00
 3.910987753184114e-01	 1.507225713015294e+00	 3.187414903185168e+00
 3.578949054912152e-01	 1.515453299086197e+00	 2.970799161927300e+00
 3.247257377003493e-01	 1.522905285002452e+00	 2.770737452968922e+00
 6.638127057292049e-01	 1.432213433415505e+00	 5.563040717618295e+00
 6.308474743836248e-01	 1.447036358506768e+00	 5.235296510369070e+00
 5.976959170904600e-01	 1.461041561552292e+00	 4.918502693512912e+00
 5.643871483514965e-01	 1.474228631308358e+00	 4.613628733758205e+00
 5.309500064205892e-01	 1.486598472708259e+00	 4.321592151899750e+00
 4.974129832262044e-01	 1.498153273922315e+00	 4.043242478664536e+00
 4.638041576604973e-01	 1.508896469278502e+00	 3.779345900158742e+00
 4.301511324880625e-01	 1.518832698388563e+00	 3.530570729897069e+00
 3.964809750910314e-01	 1.527967761838435e+00	 3.297473833634222e+00
 3.628201622303667e-01	 1.536308573811962e+00	 3.080488121683208e+00
 3.291945289664627e-01	 1.543863112022954e+00	 2.879911211177723e+00
 6.728238991637165e-01	 1.451655592591975e+00	 5.658136084410696e+00
 6.394111679830408e-01	 1.466679737461136e+00	 5.335038879008389e+00
 6.058095814979639e-01	 1.480875059786653e+00	 5.021820785345309e+00
 5.720486494368345e-01	 1.494241142742214e+00	 4.719553973078783e+00
 5.381576015300329e-01	 1.506778903545502e+00	 4.429268940461700e+00
 5.041653164812153e-01	 1.518490560071041e+00	 4.151937015816542e+00
 4.701002543507996e-01	 1.529379593267484e+00	 3.888453516446725e+00
 4.359903926082567e-01	 1.539450705728858e+00	 3.639621714615985e+00
 4.018631660728287e-01	 1.548709776783500e+00	 3.406137749341404e+00
 3.677454109249634e-01	 1.557163814474638e+00	 3.188576610999608e+00
 3.336633129335176e-01	 1.564820904812782e+00	 2.987379313238924e+00
 6.818350757781524e-01	 1.471097715477432e+00	 5.755931999689286e+00
 6.479748455976554e-01	 1.486323079748878e+00	 5.437038862910443e+00
 6.139232307606518e-01	 1.500708520999476e+00	 5.126927541843212e+00
 5.797101362213193e-01	 1.514253616820342e+00	 4.826787854676280e+00
 5.453651831858335e-01	 1.526959296713521e+00	 4.537778593402160e+00
 5.109176371323217e-01	 1.538827808257688e+00	 4.261008438685332e+00
 4.763963392887550e-01	 1.549862679022088e+00	 3.997517502898866e+00
 4.418296418287829e-01	 1.560068674582916e+00	 3.748259664417865e+00
 4.072453470080754e-01	 1.569451753010765e+00	 3.514085845165606e+00
 3.726706504258965e-01	 1.578019016208069e+00	 3.295728371381093e+00
 3.381320885589117e-01	 1.585778658481838e+00	 3.093786544710894e+00
 6.908462334700449e-01	 1.490539797535500e+00	 5.857148302828479e+00
 6.565385052294117e-01	 1.505966380786663e+00	 5.542008529655860e+00
 6.220368629854696e-01	 1.520541940563071e+00	 5.234528432916340e+00
 5.873716069173968e-01	 1.534266048873276e+00	 4.936029802805804e+00
 5.525727497063448e-01	 1.547139647503662e+00	 4.647814426888100e+00
 5.176699436041026e-01	 1.559165013736996e+00	 4.371143289508261e+00
 4.826924110053948e-01	 1.570345721763018e+00	 4.107216372872966e+00
 4.476688787872664e-01	 1.580686600139960e+00	 3.857153237111027e+00
 4.126275166410442e-01	 1.590193685680504e+00	 3.621974545254756e+00
 3.775958795840564e-01	 1.598874174146099e+00	 3.402584686700637e+00
 3.426008548000429e-01	 1.606736368140026e+00	 3.199755639411256e+00
 2.979128952091682e-01	 1.397157877880663e+00	 2.043427133365292e+00
 2.675350048748832e-01	 1.403291529282332e+00	 1.862771778094284e+00
 2.372338467516789e-01	 1.408730661711715e+00	 1.697989223034056e+00
 2.070308538101089e-01	 1.413485093941693e+00	 1.550706805483474e+00
 1.769467303984721e-01	 1.417565408701761e+00	 1.422245540044156e+00
 1.470014256685540e-01	 1.420982900168902e+00	 1.313621412206457e+00
 1.172141109034152e-01	 1.423749521003378e+00	 1.225551266079632e+00
 8.760316067295294e-02	 1.425877829224306e+00	 1.158462967497481e+00
 5.818613772109082e-02	 1.427380935204363e+00	 1.112509459392800e+00
 2.897978146882448e-02	 1.428272449045998e+00	 1.087586273861262e+00
 0.000000000000000e+00	 1.428566428583333e+00	 1.083352025237023e+00
 3.023817083749848e-01	 1.418115807593190e+00	 2.175273211087931e+00
 2.715481374762986e-01	 1.424341466231305e+00	 1.993375378017093e+00
 2.407924498026650e-01	 1.429862187833423e+00	 1.827450166892411e+00
 2.101363998278109e-01	 1.434687938457957e+00	 1.678983125126428e+00
 1.796010024735818e-01	 1.438829459579588e+00	 1.549219883682704e+00
 1.492065061370586e-01	 1.442298214792488e+00	 1.439248682145662e+00
 1.189723696782538e-01	 1.445106336051618e+00	 1.349915174773655e+00
 8.891724329299860e-02	 1.447266569751417e+00	 1.281815793160631e+00
 5.905895317343531e-02	 1.448792222925418e+00	 1.235293526598970e+00
 2.941448983860299e-02	 1.449697109833070e+00	 1.210436057036605e+00
 0.000000000000000e+00	 1.449995499181647e+00	 1.207076164423063e+00
 3.068505204973566e-01	 1.439073732415621e+00	 2.303236918411830e+00
 2.755612691405500e-01	 1.445391398268700e+00	 2.120691809727908e+00
 2.443510520225140e-01	 1.450993709024503e+00	 1.953617472187489e+00
 2.132419451200786e-01	 1.455890778026942e+00	 1.803704794382750e+00
 1.822552739285672e-01	 1.460093505495844e+00	 1.672420462843048e+00
 1.514115860902907e-01	 1.463613524442529e+00	 1.560993756785888e+00
 1.207306280421504e-01	 1.466463146116618e+00	 1.470405924922412e+00
 9.023132560585141e-02	 1.468655305287833e+00	 1.401382137871735e+00
 5.993176842169650e-02	 1.470203505650512e+00	 1.354385983516272e+00
 2.984919810671328e-02	 1.471121765621054e+00	 1.329616448069593e+00
 0.000000000000000e+00	 1.471424564779844e+00	 1.327007302950635e+00
 3.113193305336813e-01	 1.460031647457859e+00	 2.426173515299050e+00
 2.795743989313583e-01	 1.466441320482941e+00	 2.242900765794060e+00
 2.479096525810011e-01	 1.472125220354330e+00	 2.074842671382356e+00
 2.163474889623960e-01	 1.477093607701365e+00	 1.923799490223819e+00
 1.849095441442037e-01	 1.481357541488952e+00	 1.791345728541056e+00
 1.536166650138288e-01	 1.484928824145480e+00	 1.678815514003179e+00
 1.224888855849308e-01	 1.487819946215143e+00	 1.587290639571630e+00
 9.154540730496313e-02	 1.490044030842859e+00	 1.517591280022573e+00
 6.080458326226949e-02	 1.491614778383681e+00	 1.470269355825172e+00
 3.028390617175189e-02	 1.492546411410866e+00	 1.445604493147834e+00
 0.000000000000000e+00	 1.492853620377808e+00	 1.443602504720771e+00
 3.157881374413564e-01	 1.480989547829808e+00	 2.544575090172526e+00
 2.835875259124445e-01	 1.487491227962451e+00	 2.360677668496495e+00
 2.514682506479013e-01	 1.493256716892276e+00	 2.191844048441765e+00
 2.194530306302473e-01	 1.498296422533949e+00	 2.039947741735962e+00
 1.875638125012669e-01	 1.502621562597342e+00	 1.906635672047707e+00
 1.558217423932514e-01	 1.506244108927795e+00	 1.793312336300150e+00
 1.242471418964203e-01	 1.509176731363953e+00	 1.701126704867705e+00
 9.285948808378534e-02	 1.511432741425798e+00	 1.630961871163561e+00
 6.167739749154932e-02	 1.513026036128963e+00	 1.583427432534114e+00
 3.071861393231541e-02	 1.513971042203420e+00	 1.558854557364430e+00
 0.000000000000000e+00	 1.514282660975422e+00	 1.557293668106797e+00
 3.202569401777798e-01	 1.501947428641371e+00	 2.659189808152161e+00
 2.876006491475298e-01	 1.508541115795653e+00	 2.474744361783843e+00
 2.550268453929894e-01	 1.514388193707715e+00	 2.305311116470295e+00
 2.225585693991169e-01	 1.519499217577412e+00	 2.152802375472243e+00
 1.902180783805321e-01	 1.523885563859440e+00	 2.018903716609406e+00
 1.580268177141370e-01	 1.527559373815928e+00	 1.905057145084869e+00
 1.260053965664445e-01	 1.530533496579810e+00	 1.812447033924653e+00
 9.417356763576984e-02	 1.532821432045957e+00	 1.741988870477051e+00
 6.255021090593116e-02	 1.534437273890396e+00	 1.694320798037791e+00
 3.115332128700040e-02	 1.535395652999628e+00	 1.669797913775226e+00
 0.000000000000000e+00	 1.535711681572569e+00	 1.668489258015049e+00
 3.247257377003493e-01	 1.522905285002452e+00	 2.770737452968922e+00
 2.916137677003350e-01	 1.529590979070970e+00	 2.585794937182696e+00
 2.585854359860407e-01	 1.535519645870019e+00	 2.415906504813522e+00
 2.256641045444890e-01	 1.540701987884476e+00	 2.262990351369574e+00
 1.928723411627751e-01	 1.545149540313672e+00	 2.128738494954624e+00
 1.602318904620641e-01	 1.548874613836336e+00	 2.014599118800912e+00
 1.277636491848289e-01	 1.551890236879477e+00	 1.921761730720685e+00
 9.548764565436829e-02	 1.554210097712639e+00	 1.851145165532713e+00
 6.342302330180999e-02	 1.555848486672018e+00	 1.803388426590735e+00
 3.158802813440340e-02	 1.556820238800403e+00	 1.778844334023066e+00
 0.000000000000000e+00	 1.557140677169134e+00	 1.777575920455863e+00
 3.291945289664627e-01	 1.543863112022954e+00	 2.879911211177721e+00
 2.956268806345810e-01	 1.550640812876824e+00	 2.694497501854113e+00
 2.621440215968298e-01	 1.556651068448561e+00	 2.524267692524496e+00
 2.287696353418476e-01	 1.561904728507859e+00	 2.371114449148187e+00
 1.955266002287711e-01	 1.566413486998464e+00	 2.236705482011958e+00
 1.624369601226111e-01	 1.570189824015470e+00	 2.122465271089975e+00
 1.295218993413990e-01	 1.573246947279715e+00	 2.029559618445716e+00
 9.680172183303240e-02	 1.575598733435150e+00	 1.958883061015932e+00
 6.429583447558097e-02	 1.577259669477867e+00	 1.911049146907071e+00
 3.202273437312100e-02	 1.578244794606660e+00	 1.886383549413654e+00
 0.000000000000000e+00	 1.578569642764997e+00	 1.884919965626255e+00
 3.336633129335176e-01	 1.564820904812782e+00	 2.987379313238921e+00
 2.996399870139889e-01	 1.571690612301640e+00	 2.801495804714965e+00
 2.657026013951322e-01	 1.577782456512716e+00	 2.631008602598664e+00
 2.318751610666772e-01	 1.583107434500283e+00	 2.477754819211806e+00
 1.981808549592958e-01	 1.587677398952246e+00	 2.343348496410192e+00
 1.646420261813566e-01	 1.591504999379789e+00	 2.229161902110177e+00
 1.312801466259803e-01	 1.594603622797286e+00	 2.136309645005809e+00
 9.811579586521389e-02	 1.596987334222794e+00	 2.065635647805339e+00
 6.516864422363915e-02	 1.598670817311980e+00	 2.017702989061389e+00
 3.245743990174978e-02	 1.599669315419313e+00	 1.992786594589123e+00
 0.000000000000000e+00	 1.599998573360045e+00	 1.990868731829583e+00
 3.381320885589117e-01	 1.585778658481838e+00	 3.093786544710894e+00
 3.036530859022795e-01	 1.592740372433839e+00	 2.907410733751494e+00
 2.692611745507227e-01	 1.598913805131856e+00	 2.736721069855681e+00
 2.349806809944618e-01	 1.604310100914466e+00	 2.583470410579593e+00
 2.008351047351248e-01	 1.608941271213443e+00	 2.449191082900995e+00
 1.668470881238790e-01	 1.612820134955746e+00	 2.335175934740453e+00
 1.330383906283984e-01	 1.615960258448952e+00	 2.242462177047358e+00
 9.942986744436444e-02	 1.618375895084876e+00	 2.171818063467081e+00
 6.604145234237961e-02	 1.620081925178396e+00	 2.123732424576367e+00
 3.289214461888629e-02	 1.621093796239274e+00	 2.098407044656459e+00
 0.000000000000000e+00	 1.621427463954159e+00	 2.095751841254872e+00
 3.426008548000429e-01	 1.606736368140026e+00	 3.199755639411252e+00
 3.076661763631741e-01	 1.613790088361845e+00	 3.012841696287499e+00
 2.728197402333763e-01	 1.620045109375353e+00	 2.841976194004136e+00
 2.380861944006856e-01	 1.625512722803128e+00	 2.688800287079661e+00
 2.034893489370334e-01	 1.630205098820482e+00	 2.554737786572606e+00
 1.690521454357569e-01	 1.634135225769794e+00	 2.440976146183444e+00
 1.347966309384787e-01	 1.637316849251474e+00	 2.348450192680086e+00
 1.007439362639357e-01	 1.639764411030700e+00	 2.277828654078691e+00
 6.691425862819741e-02	 1.641492988081151e+00	 2.229503509449680e+00
 3.332684842312708e-02	 1.642518232067458e+00	 2.203582155499559e+00
 0.000000000000000e+00	 1.642856309547222e+00	 2.199882357487957e+00
 1.642856309547222e+00	 0.000000000000000e+00	 1.300905012871483e+01
 1.642518232067458e+00	 3.332684842312753e-02	 1.303061216079037e+01
 1.641492988081151e+00	 6.691425862819787e-02	 1.304552042869195e+01
 1.639764411030700e+00	 1.007439362639361e-01	 1.305522099577501e+01
 1.637316849251474e+00	 1.347966309384790e-01	 1.306121456404707e+01
 1.634135225769794e+00	 1.690521454357572e-01	 1.306504208651125e+01
 1.630205098820483e+00	 2.034893489370335e-01	 1.306826961401222e+01
 1.625512722803128e+00	 2.380861944006857e-01	 1.307247250334741e+01
 1.620045109375352e+00	 2.728197402333763e-01	 1.307921912704315e+01
 1.613790088361845e+00	 3.076661763631741e-01	 1.309005423798433e+01
 1.606736368140026e+00	 3.426008548000429e-01	 1.310648215377375e+01
 1.664285107639178e+00	 0.000000000000000e+00	 1.288728357186343e+01
 1.663942620404321e+00	 3.376155126378418e-02	 1.291063560961266e+01
 1.662904003522265e+00	 6.778706297931456e-02	 1.292713201970349e+01
 1.661152879564920e+00	 1.020580021706862e-01	 1.293831503040024e+01
 1.658673392713236e+00	 1.365548673511727e-01	 1.294577724352991e+01
 1.655450269335162e+00	 1.712571978598223e-01	 1.295114631971350e+01
 1.651468879292577e+00	 2.061435872554546e-01	 1.295606891065182e+01
 1.646715297692631e+00	 2.411917009231369e-01	 1.296219397420880e+01
 1.641176366777895e+00	 2.763782980280262e-01	 1.297115562198091e+01
 1.634839757629869e+00	 3.116792579285773e-01	 1.298455566209528e+01
 1.627694031342298e+00	 3.470696111356522e-01	 1.300394601188708e+01
 1.685713865730200e+00	 0.000000000000000e+00	 1.277315370912267e+01
 1.685366968748493e+00	 3.419625329302799e-02	 1.279841261083284e+01
 1.684314978995682e+00	 6.865986570125705e-02	 1.281656251399252e+01
 1.682541308173578e+00	 1.033720656245988e-01	 1.282924666452187e+01
 1.680029896309090e+00	 1.383131004819332e-01	 1.283815487632582e+01
 1.676765273112167e+00	 1.734622461679198e-01	 1.284500728203934e+01
 1.672732620072087e+00	 2.087978206194497e-01	 1.285153734007142e+01
 1.667917833003894e+00	 2.442972016488188e-01	 1.285947424235259e+01
 1.662307584735421e+00	 2.799368491802377e-01	 1.287052488145941e+01
 1.655889387605277e+00	 3.156923320031289e-01	 1.288635554913855e+01
 1.648651655423799e+00	 3.515383591298536e-01	 1.290857355042358e+01
 1.707142593820522e+00	 0.000000000000000e+00	 1.266605761581423e+01
 1.706791287098147e+00	 3.463095471374527e-02	 1.269330994062748e+01
 1.705725924493324e+00	 6.953266720137864e-02	 1.271315389316569e+01
 1.703929706838065e+00	 1.046861272389638e-01	 1.272733844404755e+01
 1.701386370005516e+00	 1.400713311513399e-01	 1.273765576359411e+01
 1.698080247047902e+00	 1.756672913891477e-01	 1.274592403106554e+01
 1.693996331082160e+00	 2.114520502677381e-01	 1.275396950623372e+01
 1.689120338631476e+00	 2.474026980270385e-01	 1.276360801602354e+01
 1.683438773109186e+00	 2.834953953507346e-01	 1.277662602356286e+01
 1.676938988111221e+00	 3.197054004596522e-01	 1.279476146065321e+01
 1.669609250164720e+00	 3.560071008681043e-01	 1.281968451714961e+01
 1.728571301910378e+00	 0.000000000000000e+00	 1.256542091981970e+01
 1.728215585451455e+00	 3.506565572882234e-02	 1.259472484526225e+01
 1.727136850007118e+00	 7.040546788703275e-02	 1.261628030030212e+01
 1.725318085539769e+00	 1.060001876270712e-01	 1.263194654457706e+01
 1.722742823768991e+00	 1.418295601799719e-01	 1.264362308526369e+01
 1.719395201089455e+00	 1.778723345526046e-01	 1.265323153819942e+01
 1.715260022245938e+00	 2.141062774390384e-01	 1.266269675426437e+01
 1.710322824469939e+00	 2.505081915071032e-01	 1.267392737173436e+01
 1.704569941760444e+00	 2.870539382002401e-01	 1.268879597027608e+01
 1.697988568970860e+00	 3.237184651709712e-01	 1.270911901627863e+01
 1.690566825345256e+00	 3.604758384358618e-01	 1.273663680203891e+01
 1.750000000000000e+00	 0.000000000000000e+00	 1.247069605321183e+01
 1.749639873806591e+00	 3.550035654114551e-02	 1.250208319970880e+01
 1.748547765528988e+00	 7.127826816557271e-02	 1.252534611809026e+01
 1.746706454260085e+00	 1.073142474022108e-01	 1.254245878117284e+01
 1.744099267565988e+00	 1.435877883884084e-01	 1.255543285308809e+01
 1.740710145183917e+00	 1.800773766873887e-01	 1.256629859616503e+01
 1.736523703486572e+00	 2.167605033720697e-01	 1.257708504297119e+01
 1.731525300413842e+00	 2.536136835383201e-01	 1.258979960183484e+01
 1.725701100550448e+00	 2.906124793894783e-01	 1.260640727949668e+01
 1.719038140007343e+00	 3.277315280099089e-01	 1.262880971894056e+01
 1.711524390745600e+00	 3.649445739185834e-01	 1.265882426366583e+01
 1.771428698089623e+00	 0.000000000000000e+00	 1.238136063083985e+01
 1.771064162161726e+00	 3.593505735360107e-02	 1.241483779993364e+01
 1.769958681050858e+00	 7.215106844435183e-02	 1.243978418636044e+01
 1.768094822980399e+00	 1.086283071776727e-01	 1.245829276228217e+01
 1.765455711362985e+00	 1.453460165972285e-01	 1.247249201167128e+01
 1.762025089278379e+00	 1.822824188225982e-01	 1.248452587737657e+01
 1.757787384727205e+00	 2.194147293055509e-01	 1.249653297030243e+01
 1.752727776357744e+00	 2.567191755699963e-01	 1.251062521624937e+01
 1.746832259340452e+00	 2.941710205791724e-01	 1.252886613166823e+01
 1.740087711043827e+00	 3.317445908492893e-01	 1.255324893438512e+01
 1.732481956145943e+00	 3.694133094017262e-01	 1.258567470899976e+01
 1.792857406179478e+00	 0.000000000000000e+00	 1.229691594524191e+01
 1.792488460515034e+00	 3.636975836907533e-02	 1.233246677766974e+01
 1.791369606564652e+00	 7.302386913072352e-02	 1.235905414734488e+01
 1.789483201682104e+00	 1.099423675667468e-01	 1.237889417574540e+01
 1.786812165126460e+00	 1.471042456270115e-01	 1.239423667507918e+01
 1.783340043319932e+00	 1.844874619873315e-01	 1.240734413057007e+01
 1.779051075890985e+00	 2.220689564782011e-01	 1.242046993894343e+01
 1.773930262196207e+00	 2.598246690514389e-01	 1.243583608547937e+01
 1.767963427991710e+00	 2.977295634300461e-01	 1.245561045809361e+01
 1.761137291903464e+00	 3.357576555619355e-01	 1.248188401214153e+01
 1.753439531326480e+00	 3.738820469707478e-01	 1.251664801376124e+01
 1.814286134269800e+00	 0.000000000000000e+00	 1.221688556826222e+01
 1.813912778864688e+00	 3.680445979045461e-02	 1.225447212753943e+01
 1.812780552062295e+00	 7.389667063204100e-02	 1.228264090810041e+01
 1.810871600346590e+00	 1.112564291827232e-01	 1.230373519596478e+01
 1.808168638822886e+00	 1.488624762983365e-01	 1.232013048782242e+01
 1.804655017255666e+00	 1.866925072106869e-01	 1.233421250425772e+01
 1.800314786901056e+00	 2.247231861287390e-01	 1.234835445046092e+01
 1.795132767823789e+00	 2.629301654319551e-01	 1.236489371318677e+01
 1.789094616365475e+00	 3.012881096028230e-01	 1.238610819920993e+01
 1.782186892409409e+00	 3.397707240206714e-01	 1.241419253621713e+01
 1.774397126067402e+00	 3.783507887111052e-01	 1.245123437171510e+01
 1.835714892360823e+00	 0.000000000000000e+00	 1.214081405064930e+01
 1.835337127208860e+00	 3.723916182062521e-02	 1.218037833734390e+01
 1.834191527535712e+00	 7.476947335565777e-02	 1.221005321051600e+01
 1.832260028955248e+00	 1.125704926388916e-01	 1.223231300232982e+01
 1.829525142418742e+00	 1.506207094317827e-01	 1.224966310004358e+01
 1.825970021032672e+00	 1.888975555217627e-01	 1.226461698663833e+01
 1.821578527680566e+00	 2.273774194958836e-01	 1.227967251748731e+01
 1.816335303135052e+00	 2.660356661608522e-01	 1.229728762776673e+01
 1.810225834323002e+00	 3.048466607582265e-01	 1.231985568220262e+01
 1.803236522384817e+00	 3.437837980983204e-01	 1.234968069491994e+01
 1.795354750148902e+00	 3.828195367082558e-01	 1.238895266236048e+01
 1.857143690452778e+00	 0.000000000000000e+00	 1.206826571171757e+01
 1.856761515545723e+00	 3.767386466247341e-02	 1.210973111318291e+01
 1.855602542976826e+00	 7.564227770892705e-02	 1.214082230021184e+01
 1.853648497489467e+00	 1.138845585485422e-01	 1.216414839990918e+01
 1.850881685880502e+00	 1.523789458479293e-01	 1.218234874768144e+01
 1.847285064598040e+00	 1.911026079496572e-01	 1.219806895255417e+01
 1.842842308152661e+00	 2.300316578183542e-01	 1.221393618440753e+01
 1.837537878024554e+00	 2.691411726874371e-01	 1.223253388329512e+01
 1.831357091725543e+00	 3.084052185569803e-01	 1.225637610831571e+01
 1.824286191652841e+00	 3.477968796677058e-01	 1.228788176018388e+01
 1.816312413351174e+00	 3.872882930476569e-01	 1.232934892745232e+01
 1.606736368140026e+00	 3.426008548000429e-01	 1.310648215377375e+01
 1.598874174146099e+00	 3.775958795840561e-01	 1.312161580321479e+01
 1.590193685680504e+00	 4.126275166410439e-01	 1.312823039476335e+01
 1.580686600139960e+00	 4.476688787872662e-01	 1.312721038408360e+01
 1.570345721763017e+00	 4.826924110053945e-01	 1.311933982198305e+01
 1.559165013736997e+00	 5.176699436041022e-01	 1.310529230493709e+01
 1.547139647503661e+00	 5.525727497063446e-01	 1.308562219715848e+01
 1.534266048873275e+00	 5.873716069173964e-01	 1.306075728387691e+01
 1.520541940563071e+00	 6.220368629854692e-01	 1.303099300187947e+01
 1.505966380786663e+00	 6.565385052294113e-01	 1.299648837607100e+01
 1.490539797535500e+00	 6.908462334700449e-01	 1.295726376976282e+01
 1.627694031342298e+00	 3.470696111356522e-01	 1.300394601188709e+01
 1.619729285855650e+00	 3.825210978249279e-01	 1.302239168871775e+01
 1.610935572372855e+00	 4.180096743439076e-01	 1.303261188633658e+01
 1.601304479994599e+00	 4.535081028025522e-01	 1.303550605236119e+01
 1.590828719100625e+00	 4.889884687662645e-01	 1.303185640196038e+01
 1.579502174136337e+00	 5.244222351088729e-01	 1.302231738306821e+01
 1.567319953561599e+00	 5.597803002507672e-01	 1.300740656092269e+01
 1.554278436566281e+00	 5.950330606313097e-01	 1.298749709333801e+01
 1.540375316163592e+00	 6.301504772259069e-01	 1.296281195355670e+01
 1.525609638282828e+00	 6.651021458792965e-01	 1.293342003903215e+01
 1.509981836497992e+00	 6.998573711881746e-01	 1.289923428196460e+01
 1.648651655423799e+00	 3.515383591298536e-01	 1.290857355042358e+01
 1.640584358635956e+00	 3.874463068723727e-01	 1.293018563393047e+01
 1.631677420347406e+00	 4.233918220004396e-01	 1.294383633671449e+01
 1.621922321363001e+00	 4.593473159183694e-01	 1.295043561711694e+01
 1.611311678203856e+00	 4.952845147749664e-01	 1.295075924181429e+01
 1.599839296573599e+00	 5.311745140098975e-01	 1.294543780540146e+01
 1.587500221950312e+00	 5.669878373416850e-01	 1.293494731954170e+01
 1.574290786903559e+00	 6.026945000444899e-01	 1.291960155469628e+01
 1.560208654742575e+00	 6.382640763216340e-01	 1.289954630195657e+01
 1.545252859112366e+00	 6.736657705444731e-01	 1.287475570282141e+01
 1.529423839169470e+00	 7.088684920863136e-01	 1.284503077077549e+01
 1.669609250164720e+00	 3.560071008681043e-01	 1.281968451714961e+01
 1.661439402219327e+00	 3.923715090248461e-01	 1.284433270415895e+01
 1.652419239283606e+00	 4.287739621223139e-01	 1.286125694412886e+01
 1.642540133866729e+00	 4.651865208596682e-01	 1.287137335638998e+01
 1.631794608631304e+00	 5.015805519696155e-01	 1.287544677126495e+01
 1.620176390539302e+00	 5.379267834581766e-01	 1.287407934260279e+01
 1.607680462087106e+00	 5.741953643425297e-01	 1.286770088244554e+01
 1.594303109224039e+00	 6.103559287321668e-01	 1.285656111232013e+01
 1.580041965555406e+00	 6.463776640588650e-01	 1.284072400925223e+01
 1.564896052441934e+00	 6.822293832211469e-01	 1.282006440376496e+01
 1.548865814622691e+00	 7.178796003694811e-01	 1.279426696169971e+01
 1.690566825345256e+00	 3.604758384358618e-01	 1.273663680203891e+01
 1.682294426338076e+00	 3.972967065808035e-01	 1.276420604853143e+01
 1.673161038860907e+00	 4.341560972212048e-01	 1.278426480325269e+01
 1.663157927127338e+00	 4.710257203513980e-01	 1.279773111999030e+01
 1.652277519941563e+00	 5.078765832883276e-01	 1.280535452230465e+01
 1.640513465523965e+00	 5.446790466047110e-01	 1.280770424652498e+01
 1.627860683389288e+00	 5.814028846167320e-01	 1.280515936161985e+01
 1.614315412866656e+00	 6.180173502695686e-01	 1.279790097179940e+01
 1.599875257857469e+00	 6.544912442238148e-01	 1.278590669044085e+01
 1.584539227438188e+00	 6.907929879055247e-01	 1.276894755197002e+01
 1.568307771930404e+00	 7.268907002426965e-01	 1.274658750150131e+01
 1.711524390745600e+00	 3.649445739185834e-01	 1.265882426366583e+01
 1.703149440724514e+00	 4.022219018387003e-01	 1.268921473398341e+01
 1.693902828758757e+00	 4.395382298087860e-01	 1.271228675242482e+01
 1.683775710766388e+00	 4.768649171185081e-01	 1.272895619625276e+01
 1.672760421693228e+00	 5.141726116692188e-01	 1.273995302241019e+01
 1.660850531018110e+00	 5.514313066005020e-01	 1.274580917744252e+01
 1.648040895274165e+00	 5.886104015277228e-01	 1.274684854105172e+01
 1.634327707170340e+00	 6.256787682319244e-01	 1.274317912040289e+01
 1.619708540904147e+00	 6.626048206026982e-01	 1.273468769420632e+01
 1.604182393267785e+00	 6.993565885938114e-01	 1.272103708255697e+01
 1.587749720165365e+00	 7.359017959109800e-01	 1.270166619031279e+01
 1.732481956145943e+00	 3.694133094017262e-01	 1.258567470899976e+01
 1.724004455110951e+00	 4.071470970969919e-01	 1.261880173114873e+01
 1.714644618656608e+00	 4.449203623967314e-01	 1.264478337079578e+01
 1.704393494405438e+00	 4.827041138859490e-01	 1.266452932619752e+01
 1.693243323444893e+00	 5.204686400504043e-01	 1.267874583207933e+01
 1.681187596512254e+00	 5.581835665965502e-01	 1.268792327192247e+01
 1.668221107159040e+00	 5.958179184389332e-01	 1.269232598248382e+01
 1.654340001474025e+00	 6.333401861944631e-01	 1.269198447884171e+01
 1.639541823950825e+00	 6.707183969817290e-01	 1.268669030938051e+01
 1.623825559097382e+00	 7.079201892822143e-01	 1.267599372604856e+01
 1.607191668400326e+00	 7.449128915793511e-01	 1.265920432569903e+01
 1.753439531326480e+00	 3.738820469707478e-01	 1.251664801376124e+01
 1.744859479229701e+00	 4.120722946541339e-01	 1.255244203944247e+01
 1.735386418233907e+00	 4.503024974967149e-01	 1.258124711284687e+01
 1.725011287666047e+00	 4.885433133786701e-01	 1.260396285275990e+01
 1.713726234755153e+00	 5.267646713699999e-01	 1.262126771461194e+01
 1.701524671496917e+00	 5.649358297438561e-01	 1.263360633956109e+01
 1.688401328461222e+00	 6.030254387137944e-01	 1.264117925606757e+01
 1.674352305116642e+00	 6.410016077324134e-01	 1.264393517334829e+01
 1.659375116252888e+00	 6.788319771471221e-01	 1.264156608649035e+01
 1.643468734093635e+00	 7.164837939669388e-01	 1.263350538794260e+01
 1.626633625708040e+00	 7.539239914528290e-01	 1.261892914930549e+01
 1.774397126067402e+00	 3.783507887111052e-01	 1.245123437171510e+01
 1.765714522813072e+00	 4.169974968085814e-01	 1.248964093982390e+01
 1.756128237170108e+00	 4.556846376204107e-01	 1.252120056892095e+01
 1.745629100169774e+00	 4.943825183216212e-01	 1.254679899391834e+01
 1.734209165182601e+00	 5.330607085661215e-01	 1.256708292719813e+01
 1.721861765462620e+00	 5.716880991934213e-01	 1.258244717792752e+01
 1.708581568598017e+00	 6.102329657157372e-01	 1.259302428558567e+01
 1.694364627437122e+00	 6.486630364210043e-01	 1.259867691811992e+01
 1.679208427065719e+00	 6.869455648850927e-01	 1.259899326487207e+01
 1.663111927423202e+00	 7.250474066441912e-01	 1.259328562843745e+01
 1.646075601161259e+00	 7.629350997364340e-01	 1.258059238760604e+01
 1.795354750148902e+00	 3.828195367082558e-01	 1.238895266236048e+01
 1.786569595593378e+00	 4.219227058587903e-01	 1.242993236480281e+01
 1.776870085144659e+00	 4.610667852794927e-01	 1.246419484146441e+01
 1.766246941538178e+00	 5.002217314397521e-01	 1.249260822959286e+01
 1.754692124285832e+00	 5.393567545768845e-01	 1.251578362339769e+01
 1.742198887899882e+00	 5.784403780962460e-01	 1.253406199605226e+01
 1.728761836986730e+00	 6.174405028081926e-01	 1.254750379887819e+01
 1.714376977774400e+00	 6.563244758354647e-01	 1.255588149910485e+01
 1.699041765644703e+00	 6.950591639818546e-01	 1.255867529672271e+01
 1.682755148252741e+00	 7.336110313101778e-01	 1.255507223412299e+01
 1.665517603832739e+00	 7.719462206351850e-01	 1.254396887905714e+01
 1.816312413351174e+00	 3.872882930476569e-01	 1.232934892745232e+01
 1.807424707302929e+00	 4.268479241032157e-01	 1.237287737621623e+01
 1.797611971837011e+00	 4.664489429856347e-01	 1.240980802763156e+01
 1.786864821392816e+00	 5.060609554580124e-01	 1.244098779312173e+01
 1.775175121623439e+00	 5.456528123404047e-01	 1.246698835801033e+01
 1.762536048299222e+00	 5.851926696033313e-01	 1.248809293768984e+01
 1.748942143044667e+00	 6.246480533545914e-01	 1.250428587497173e+01
 1.734389365467405e+00	 6.639859295510233e-01	 1.251524535094219e+01
 1.718875141245223e+00	 7.031727782236227e-01	 1.252033946025572e+01
 1.702398405748905e+00	 7.421746719611043e-01	 1.251862587420522e+01
 1.684959642795230e+00	 7.809573583541023e-01	 1.250885528067633e+01
 1.490539797535500e+00	 6.908462334700449e-01	 1.295726376976282e+01
 1.474262850753904e+00	 7.249319119833955e-01	 1.290694482691546e+01
 1.457139850647540e+00	 7.587624737706010e-01	 1.283953127564221e+01
 1.439175502858820e+00	 7.923072080863791e-01	 1.275548988919921e+01
 1.420375970936052e+00	 8.255354368303396e-01	 1.265538717847412e+01
 1.400748884470129e+00	 8.584165998600977e-01	 1.254049461557577e+01
 1.380303341302437e+00	 8.909203415150886e-01	 1.241145758134240e+01
 1.359049903658652e+00	 9.230165978736755e-01	 1.226867815379491e+01
 1.337000588106851e+00	 9.546756842487342e-01	 1.211248544645742e+01
 1.314168849284303e+00	 9.858683824140202e-01	 1.194314442837040e+01
 1.290569557384885e+00	 1.016566027045524e+00	 1.176086806284829e+01
 1.509981836497992e+00	 6.998573711881746e-01	 1.289923428196460e+01
 1.493492579361462e+00	 7.343876504367819e-01	 1.285408161765046e+01
 1.476146233299611e+00	 7.686594853127994e-01	 1.279219241851838e+01
 1.457947565333491e+00	 8.026417644915770e-01	 1.271395790775663e+01
 1.438902819406420e+00	 8.363034097191622e-01	 1.261977091949359e+01
 1.419019724626812e+00	 8.696134622382103e-01	 1.251016299359904e+01
 1.398307497504879e+00	 9.025411704403801e-01	 1.238640541013337e+01
 1.376776838036002e+00	 9.350560782615907e-01	 1.224902156788841e+01
 1.354439919527851e+00	 9.671281138188649e-01	 1.209830319175705e+01
 1.331310372114926e+00	 9.987276777744469e-01	 1.193447631659447e+01
 1.307403259952318e+00	 1.029825730904663e+00	 1.175771478276783e+01
 1.529423839169470e+00	 7.088684920863136e-01	 1.284503077077549e+01
 1.512722272074312e+00	 7.438433712402949e-01	 1.280443748199771e+01
 1.495152580473866e+00	 7.785564783814465e-01	 1.274748080784375e+01
 1.476719592767710e+00	 8.129763016064964e-01	 1.267448144299204e+01
 1.457429633294030e+00	 8.470713625086799e-01	 1.258576196778497e+01
 1.437290530678577e+00	 8.808103037164330e-01	 1.248165413823840e+01
 1.416311620100174e+00	 9.141619776743792e-01	 1.236271494689575e+01
 1.394503739323643e+00	 9.470955361767232e-01	 1.223019940273525e+01
 1.371879218395967e+00	 9.795805201453597e-01	 1.208447948211793e+01
 1.348451862948548e+00	 1.011586949131732e+00	 1.192575058779657e+01
 1.324236931097336e+00	 1.043085410013202e+00	 1.175415533682135e+01
 1.548865814622691e+00	 7.178796003694811e-01	 1.279426696169971e+01
 1.531951937866131e+00	 7.532990788064182e-01	 1.275767359628822e+01
 1.514158901039758e+00	 7.884534575949403e-01	 1.270510673883484e+01
 1.495491593921590e+00	 8.233108242537143e-01	 1.263682126171167e+01
 1.475956421244573e+00	 8.578393002237225e-01	 1.255307442221076e+01
 1.455561311151656e+00	 8.920071295197407e-01	 1.245413408263800e+01
 1.434315717490104e+00	 9.257827686399089e-01	 1.234028794036537e+01
 1.412230615794001e+00	 9.591349772372693e-01	 1.221220387818512e+01
 1.389318492849419e+00	 9.920329090391283e-01	 1.207105136522810e+01
 1.365593329784421e+00	 1.024446202486663e+00	 1.191704861169452e+01
 1.341070578675541e+00	 1.056345070558790e+00	 1.175031452943363e+01
 1.568307771930404e+00	 7.268907002426965e-01	 1.274658750150131e+01
 1.551181585710597e+00	 7.627547775476370e-01	 1.271348047444798e+01
 1.533165203866742e+00	 7.983504275716808e-01	 1.266480818338255e+01
 1.514263577555247e+00	 8.336453372558088e-01	 1.260076408421133e+01
 1.494483191903739e+00	 8.686072278891213e-01	 1.252154472676785e+01
 1.473832074572277e+00	 9.032039448731092e-01	 1.242735888274435e+01
 1.452319798076461e+00	 9.374035487597955e-01	 1.231843774392275e+01
 1.429957475719506e+00	 9.711744070614252e-01	 1.219504602577181e+01
 1.406757751026430e+00	 1.004485286311080e+00	 1.205807523017373e+01
 1.382734780621793e+00	 1.037305443840022e+00	 1.190846928474483e+01
 1.357904210542541e+00	 1.069604718729078e+00	 1.174633297178464e+01
 1.587749720165365e+00	 7.359017959109800e-01	 1.270166619031279e+01
 1.570411224581385e+00	 7.722104718764353e-01	 1.267157628927574e+01
 1.552171497824271e+00	 8.082473929300672e-01	 1.262634920587293e+01
 1.533035552428790e+00	 8.439798454353568e-01	 1.256612109947379e+01
 1.513009953917215e+00	 8.793751505297088e-01	 1.249103212758442e+01
 1.492102829466669e+00	 9.144007550015130e-01	 1.240123645945749e+01
 1.470323870261031e+00	 9.490243234568631e-01	 1.229691342094997e+01
 1.447684327372584e+00	 9.832138312673877e-01	 1.217827959884025e+01
 1.424197001065219e+00	 1.016937657772123e+00	 1.204562557861975e+01
 1.399876223459915e+00	 1.050164679192597e+00	 1.190012792752366e+01
 1.374737834553936e+00	 1.082864360711715e+00	 1.174236610805638e+01
 1.607191668400326e+00	 7.449128915793511e-01	 1.265920432569903e+01
 1.589640863452173e+00	 7.816661662052974e-01	 1.263170529788788e+01
 1.571177791781800e+00	 8.181443582884990e-01	 1.258951847502667e+01
 1.551807527302334e+00	 8.543143536149346e-01	 1.253272656792862e+01
 1.531536715930691e+00	 8.901430731703153e-01	 1.246141737061125e+01
 1.510373584361060e+00	 9.255975651299279e-01	 1.237569463737311e+01
 1.488327942445600e+00	 9.606450981539356e-01	 1.227569015288860e+01
 1.465411179025661e+00	 9.952532554733522e-01	 1.216157681737546e+01
 1.441636251104008e+00	 1.029390029233166e+00	 1.203358252686243e+01
 1.417017666298038e+00	 1.063023914545171e+00	 1.189215521567971e+01
 1.391571458565331e+00	 1.096124002694353e+00	 1.173858326625741e+01
 1.626633625708040e+00	 7.539239914528290e-01	 1.261892914930549e+01
 1.608870511296639e+00	 7.911218649467084e-01	 1.259363636261163e+01
 1.590184094608784e+00	 8.280413282653751e-01	 1.255412786372037e+01
 1.570579510935990e+00	 8.646488666171201e-01	 1.250043650444582e+01
 1.550063486589857e+00	 9.009110008357720e-01	 1.243260147156716e+01
 1.528644347781681e+00	 9.367943804833296e-01	 1.235068000496898e+01
 1.506332023031957e+00	 9.722658782738393e-01	 1.225476037160560e+01
 1.483138038951166e+00	 1.007292685297516e+00	 1.214497591193224e+01
 1.459075509281018e+00	 1.041842406505120e+00	 1.202151993112319e+01
 1.434159117135410e+00	 1.075883155898531e+00	 1.188466116336102e+01
 1.408405090432330e+00	 1.109383650864640e+00	 1.173516673156624e+01
 1.646075601161259e+00	 7.629350997364340e-01	 1.258059238760604e+01
 1.628100177088458e+00	 8.005775725131522e-01	 1.255716155943159e+01
 1.609190415174675e+00	 8.379383074790946e-01	 1.252001112951208e+01
 1.589351512089871e+00	 8.749833892644902e-01	 1.246912743492588e+01
 1.568590274540400e+00	 9.116789385509103e-01	 1.240450455216090e+01
 1.546915128254760e+00	 9.479912062866930e-01	 1.232615683358311e+01
 1.524336120421888e+00	 9.838866692393975e-01	 1.223413276378521e+01
 1.500864915421525e+00	 1.019332126358074e+00	 1.212852994783995e+01
 1.476514783734470e+00	 1.054294795398892e+00	 1.200951099679704e+01
 1.451300583971282e+00	 1.088742409253461e+00	 1.187732002911028e+01
 1.425238738010537e+00	 1.122643311410229e+00	 1.173231084032724e+01
 1.665517603832739e+00	 7.719462206351850e-01	 1.254396887905714e+01
 1.647329869801308e+00	 8.100332933171132e-01	 1.252209486683159e+01
 1.628196762348930e+00	 8.478353005480573e-01	 1.248702266927290e+01
 1.608123539524091e+00	 8.853179263796220e-01	 1.243869522046961e+01
 1.587117088428011e+00	 9.224468913405620e-01	 1.237706473717122e+01
 1.565185934306526e+00	 9.591880477649936e-01	 1.230210605037718e+01
 1.542340243017182e+00	 9.955074764734361e-01	 1.221383132232627e+01
 1.518591816709166e+00	 1.031371584273223e+00	 1.211230595713875e+01
 1.493954082602585e+00	 1.066747201725392e+00	 1.199766546424284e+01
 1.468442074804905e+00	 1.101601680610748e+00	 1.187013298433907e+01
 1.442072409155554e+00	 1.135902990518767e+00	 1.173003713962834e+01
 1.684959642795230e+00	 7.809573583541023e-01	 1.250885528067633e+01
 1.666559598408865e+00	 8.194890317710753e-01	 1.248827092853521e+01
 1.647203145001001e+00	 8.577323120906620e-01	 1.245503634193591e+01
 1.626895601998760e+00	 8.956524827850925e-01	 1.240905394366543e+01
 1.605643936898378e+00	 9.332148642295568e-01	 1.235023710746568e+01
 1.583456774463209e+00	 9.703849101432068e-01	 1.227852426092099e+01
 1.560344399219624e+00	 1.007128305398779e+00	 1.219389444094534e+01
 1.536318751086516e+00	 1.043411064661160e+00	 1.209638410725034e+01
 1.511393414023586e+00	 1.079199631295529e+00	 1.198610496754317e+01
 1.485583597635527e+00	 1.114460975971175e+00	 1.186326251598565e+01
 1.458906111722985e+00	 1.149162694377905e+00	 1.172817493532746e+01
 1.290569557384885e+00	 1.016566027045524e+00	 1.176086806284829e+01
 1.266218965851231e+00	 1.046740593699590e+00	 1.156343807388392e+01
 1.241134665769497e+00	 1.076364790635222e+00	 1.134911988335870e+01
 1.215335555907064e+00	 1.105412131231090e+00	 1.111887724919869e+01
 1.188841799801208e+00	 1.133857009260667e+00	 1.087376074066488e+01
 1.161674773704565e+00	 1.161674773704565e+00	 1.061492358861837e+01
 1.133857009260667e+00	 1.188841799801209e+00	 1.034363655449703e+01
 1.105412131231089e+00	 1.215335555907065e+00	 1.006130099437400e+01
 1.076364790635221e+00	 1.241134665769497e+00	 9.769459305190786e+00
 1.046740593699590e+00	 1.266218965851232e+00	 9.469801982607800e+00
 1.016566027045524e+00	 1.290569557384886e+00	 9.164170593395333e+00
 1.307403259952318e+00	 1.029825730904663e+00	 1.175771478276783e+01
 1.282735048486447e+00	 1.060393883225595e+00	 1.156592230564465e+01
 1.257323558254964e+00	 1.090404487013075e+00	 1.135745523821727e+01
 1.231187934533641e+00	 1.119830710164279e+00	 1.113319235870902e+01
 1.204348603865323e+00	 1.148646612454722e+00	 1.089410115855389e+01
 1.176827221326420e+00	 1.176827221326421e+00	 1.064125625908509e+01
 1.148646612454722e+00	 1.204348603865324e+00	 1.037585686735272e+01
 1.119830710164278e+00	 1.231187934533641e+00	 1.009924236840406e+01
 1.090404487013074e+00	 1.257323558254964e+00	 9.812905160531773e+00
 1.060393883225595e+00	 1.282735048486447e+00	 9.518499883483237e+00
 1.029825730904663e+00	 1.307403259952318e+00	 9.217848266964976e+00
 1.324236931097336e+00	 1.043085410013202e+00	 1.175415533682135e+01
 1.299251100292142e+00	 1.074047147266268e+00	 1.156770377925633e+01
 1.273512420521682e+00	 1.104444157184259e+00	 1.136481193480451e+01
 1.247040283569654e+00	 1.134249262183504e+00	 1.114625640884402e+01
 1.219855378983983e+00	 1.163436188042186e+00	 1.091290278803163e+01
 1.191979640664329e+00	 1.191979640664329e+00	 1.066572691979942e+01
 1.163436188042186e+00	 1.219855378983984e+00	 1.040583527207778e+01
 1.134249262183503e+00	 1.247040283569654e+00	 1.013448338510928e+01
 1.104444157184259e+00	 1.273512420521682e+00	 9.853091434445389e+00
 1.074047147266268e+00	 1.299251100292142e+00	 9.563255968641297e+00
 1.043085410013202e+00	 1.324236931097335e+00	 9.266756966355874e+00
 1.341070578675541e+00	 1.056345070558790e+00	 1.175031452943363e+01
 1.315767128975695e+00	 1.087700392192942e+00	 1.156894505460615e+01
 1.289701260124337e+00	 1.118483807700442e+00	 1.137138033642180e+01
 1.262892610412744e+00	 1.148667794017256e+00	 1.115827799043615e+01
 1.235362132393552e+00	 1.178225742924708e+00	 1.093038326577302e+01
 1.207132038789277e+00	 1.207132038789277e+00	 1.068855348938938e+01
 1.178225742924707e+00	 1.235362132393552e+00	 1.043378165285365e+01
 1.148667794017256e+00	 1.262892610412745e+00	 1.016721806138494e+01
 1.118483807700442e+00	 1.289701260124337e+00	 9.890188969772268e+00
 1.087700392192941e+00	 1.315767128975696e+00	 9.604211174936555e+00
 1.056345070558790e+00	 1.341070578675542e+00	 9.311001619935254e+00
 1.357904210542541e+00	 1.069604718729078e+00	 1.174633297178464e+01
 1.332283142244489e+00	 1.101353624376950e+00	 1.156982309796911e+01
 1.305890084617616e+00	 1.132523445113290e+00	 1.137736432729140e+01
 1.278744922460553e+00	 1.163086312394027e+00	 1.116947880598627e+01
 1.250868871330393e+00	 1.193015284003934e+00	 1.094677336464981e+01
 1.222284422772252e+00	 1.222284422772253e+00	 1.070996743522795e+01
 1.193015284003934e+00	 1.250868871330394e+00	 1.045992019455611e+01
 1.163086312394027e+00	 1.278744922460553e+00	 1.019765575520766e+01
 1.132523445113289e+00	 1.305890084617616e+00	 9.924385226492349e+00
 1.101353624376949e+00	 1.332283142244489e+00	 9.641524514088054e+00
 1.069604718729078e+00	 1.357904210542541e+00	 9.350706815660148e+00
 1.374737834553936e+00	 1.082864360711715e+00	 1.174236610805638e+01
 1.348799147805900e+00	 1.115006850189624e+00	 1.157052842558736e+01
 1.322078901556208e+00	 1.146563075974471e+00	 1.138298054936296e+01
 1.294597227110720e+00	 1.177504824042306e+00	 1.118009297716621e+01
 1.266375603030871e+00	 1.207804818181512e+00	 1.096231635104277e+01
 1.237436799684240e+00	 1.237436799684241e+00	 1.073021316137942e+01
 1.207804818181512e+00	 1.266375603030871e+00	 1.048448878393459e+01
 1.177504824042306e+00	 1.294597227110720e+00	 1.022602056447885e+01
 1.146563075974470e+00	 1.322078901556208e+00	 9.955883664553212e+00
 1.115006850189623e+00	 1.348799147805901e+00	 9.675372427754441e+00
 1.082864360711715e+00	 1.374737834553936e+00	 9.386016118651048e+00
 1.391571458565331e+00	 1.096124002694353e+00	 1.173858326625741e+01
 1.365315153367313e+00	 1.128660076002299e+00	 1.157126426396277e+01
 1.338267718494799e+00	 1.160602706835651e+00	 1.138845765000001e+01
 1.310449531760888e+00	 1.191923335690586e+00	 1.119036635927129e+01
 1.281882334731348e+00	 1.222594352359091e+00	 1.097726734693921e+01
 1.252589176596229e+00	 1.252589176596229e+00	 1.074954740078658e+01
 1.222594352359090e+00	 1.281882334731349e+00	 1.050773841595361e+01
 1.191923335690586e+00	 1.310449531760888e+00	 1.025255073325916e+01
 1.160602706835651e+00	 1.338267718494800e+00	 9.984903137458994e+00
 1.128660076002298e+00	 1.365315153367314e+00	 9.705948157708654e+00
 1.096124002694353e+00	 1.391571458565331e+00	 9.417091408998461e+00
 1.408405090432330e+00	 1.109383650864640e+00	 1.173516673156624e+01
 1.381831166636106e+00	 1.142313308186306e+00	 1.157224572546203e+01
 1.354456542988079e+00	 1.174642344248500e+00	 1.139403553963486e+01
 1.326301843808695e+00	 1.206341854067357e+00	 1.120055586204062e+01
 1.297389073668190e+00	 1.237383893438317e+00	 1.099189269641550e+01
 1.267741560579204e+00	 1.267741560579204e+00	 1.076823861134387e+01
 1.237383893438316e+00	 1.297389073668190e+00	 1.052993260486610e+01
 1.206341854067356e+00	 1.326301843808696e+00	 1.027749806477757e+01
 1.174642344248499e+00	 1.354456542988079e+00	 1.001167729572233e+01
 1.142313308186306e+00	 1.381831166636106e+00	 9.733461129852984e+00
 1.109383650864640e+00	 1.408405090432330e+00	 9.444112238113833e+00
 1.425238738010537e+00	 1.122643311410229e+00	 1.173231084032724e+01
 1.398347195319659e+00	 1.155966553112979e+00	 1.157369899796496e+01
 1.370645382590733e+00	 1.188681994764683e+00	 1.139996465856503e+01
 1.342154170651786e+00	 1.220760385901109e+00	 1.121092877631698e+01
 1.312895827077758e+00	 1.252173448320838e+00	 1.100646933614120e+01
 1.282893958704152e+00	 1.282893958704153e+00	 1.078656637553620e+01
 1.252173448320838e+00	 1.312895827077759e+00	 1.055134679962874e+01
 1.220760385901108e+00	 1.342154170651786e+00	 1.030112734065761e+01
 1.188681994764682e+00	 1.370645382590734e+00	 1.003645399936702e+01
 1.155966553112979e+00	 1.398347195319660e+00	 9.758136350933238e+00
 1.122643311410229e+00	 1.425238738010537e+00	 9.467275202096012e+00
 1.442072409155554e+00	 1.135902990518767e+00	 1.173003713962834e+01
 1.414863247125354e+00	 1.169619817153652e+00	 1.157586054740454e+01
 1.386834244857451e+00	 1.202721664935867e+00	 1.140650525214086e+01
 1.358006519687799e+00	 1.235178937920334e+00	 1.122176210606639e+01
 1.328402602196418e+00	 1.266963023908302e+00	 1.102128416957436e+01
 1.298046378042060e+00	 1.298046378042061e+00	 1.080482080335056e+01
 1.266963023908302e+00	 1.328402602196418e+00	 1.057226780330388e+01
 1.235178937920334e+00	 1.358006519687800e+00	 1.032371574585263e+01
 1.202721664935866e+00	 1.386834244857451e+00	 1.005949473874307e+01
 1.169619817153652e+00	 1.414863247125355e+00	 9.780213816916906e+00
 1.135902990518767e+00	 1.442072409155554e+00	 9.489628616225474e+00
 1.458906111722985e+00	 1.149162694377905e+00	 1.172817493532746e+01
 1.431379329760570e+00	 1.183273106679658e+00	 1.157896960799618e+01
 1.403023137342918e+00	 1.216761361313720e+00	 1.141392665366242e+01
 1.373858898314375e+00	 1.249597516853523e+00	 1.123334190532136e+01
 1.343909406260533e+00	 1.281752627102357e+00	 1.103663344454738e+01
 1.313198825663916e+00	 1.313198825663916e+00	 1.082330193819464e+01
 1.281752627102357e+00	 1.343909406260533e+00	 1.059299319612604e+01
 1.249597516853523e+00	 1.373858898314376e+00	 1.034555229883015e+01
 1.216761361313719e+00	 1.403023137342919e+00	 1.008107406298448e+01
 1.183273106679656e+00	 1.431379329760570e+00	 9.800068190963360e+00
 1.149162694377906e+00	 1.458906111722986e+00	 9.517263950386965e+00
 1.016566027045524e+00	 1.290569557384886e+00	 9.164170593395333e+00
 9.858683824140199e-01	 1.314168849284304e+00	 8.851520912819016e+00
 9.546756842487338e-01	 1.337000588106851e+00	 8.530265529531924e+00
 9.230165978736752e-01	 1.359049903658652e+00	 8.201624481917888e+00
 8.909203415150879e-01	 1.380303341302437e+00	 7.866919526999848e+00
 8.584165998600968e-01	 1.400748884470129e+00	 7.527562481037307e+00
 8.255354368303393e-01	 1.420375970936052e+00	 7.185038031744874e+00
 7.923072080863784e-01	 1.439175502858820e+00	 6.842339899841027e+00
 7.587624737706004e-01	 1.457139850647540e+00	 6.506838370022747e+00
 7.249319119833950e-01	 1.474262850753904e+00	 6.178706623038313e+00
 6.908462334700449e-01	 1.490539797535500e+00	 5.857148302828479e+00
 1.029825730904663e+00	 1.307403259952318e+00	 9.217848266964976e+00
 9.987276777744463e-01	 1.331310372114926e+00	 8.909722866388904e+00
 9.671281138188641e-01	 1.354439919527851e+00	 8.592326372264068e+00
 9.350560782615900e-01	 1.376776838036002e+00	 8.266840972634416e+00
 9.025411704403795e-01	 1.398307497504880e+00	 7.934563390573603e+00
 8.696134622382101e-01	 1.419019724626812e+00	 7.596893765981825e+00
 8.363034097191617e-01	 1.438902819406419e+00	 7.256771235814252e+00
 8.026417644915765e-01	 1.457947565333491e+00	 6.922785307799529e+00
 7.686594853127989e-01	 1.476146233299612e+00	 6.595417145648518e+00
 7.343876504367813e-01	 1.493492579361462e+00	 6.273803189838929e+00
 6.998573711881746e-01	 1.509981836497991e+00	 5.957030544383793e+00
 1.043085410013202e+00	 1.324236931097335e+00	 9.266756966355874e+00
 1.011586949131732e+00	 1.348451862948549e+00	 8.962152410886684e+00
 9.795805201453591e-01	 1.371879218395968e+00	 8.647446520954123e+00
 9.470955361767228e-01	 1.394503739323643e+00	 8.323829100302708e+00
 9.141619776743785e-01	 1.416311620100174e+00	 7.992620752614892e+00
 8.808103037164325e-01	 1.437290530678578e+00	 7.656336711455271e+00
 8.470713625086789e-01	 1.457429633294030e+00	 7.324814234993983e+00
 8.129763016064956e-01	 1.476719592767710e+00	 6.999410945633688e+00
 7.785564783814458e-01	 1.495152580473866e+00	 6.679236387717362e+00
 7.438433712402942e-01	 1.512722272074312e+00	 6.363353395108304e+00
 7.088684920863135e-01	 1.529423839169470e+00	 6.050781159363305e+00
 1.056345070558790e+00	 1.341070578675542e+00	 9.311001619935254e+00
 1.024446202486662e+00	 1.365593329784421e+00	 9.008882585705704e+00
 9.920329090391279e-01	 1.389318492849420e+00	 8.695679956468316e+00
 9.591349772372687e-01	 1.412230615794002e+00	 8.372635027695692e+00
 9.257827686399085e-01	 1.434315717490105e+00	 8.041619056655055e+00
 8.920071295197405e-01	 1.455561311151657e+00	 7.713180708267366e+00
 8.578393002237218e-01	 1.475956421244573e+00	 7.390491834427959e+00
 8.233108242537139e-01	 1.495491593921590e+00	 7.072674601513484e+00
 7.884534575949395e-01	 1.514158901039758e+00	 6.758806262574380e+00
 7.532990788064176e-01	 1.531951937866131e+00	 6.447922797238849e+00
 7.178796003694810e-01	 1.548865814622691e+00	 6.139022282139946e+00
 1.069604718729078e+00	 1.357904210542541e+00	 9.350706815660148e+00
 1.037305443840021e+00	 1.382734780621793e+00	 9.050007274071632e+00
 1.004485286311079e+00	 1.406757751026430e+00	 8.737101838259061e+00
 9.711744070614248e-01	 1.429957475719507e+00	 8.413353279446001e+00
 9.374035487597947e-01	 1.452319798076461e+00	 8.088520172273562e+00
 9.032039448731085e-01	 1.473832074572278e+00	 7.769080008463524e+00
 8.686072278891209e-01	 1.494483191903739e+00	 7.454204444323497e+00
 8.336453372558085e-01	 1.514263577555247e+00	 7.143022142133679e+00
 7.983504275716804e-01	 1.533165203866742e+00	 6.834622679457123e+00
 7.627547775476365e-01	 1.551181585710597e+00	 6.528060188124288e+00
 7.268907002426965e-01	 1.568307771930404e+00	 6.222356681544744e+00
 1.082864360711715e+00	 1.374737834553936e+00	 9.386016118651048e+00
 1.050164679192596e+00	 1.399876223459916e+00	 9.085640504343239e+00
 1.016937657772122e+00	 1.424197001065219e+00	 8.771807836855825e+00
 9.832138312673870e-01	 1.447684327372585e+00	 8.451502270881997e+00
 9.490243234568622e-01	 1.470323870261031e+00	 8.135845441675222e+00
 9.144007550015125e-01	 1.492102829466669e+00	 7.824387756061383e+00
 8.793751505297083e-01	 1.513009953917215e+00	 7.516342734775117e+00
 8.439798454353563e-01	 1.533035552428790e+00	 7.210887767087923e+00
 8.082473929300668e-01	 1.552171497824271e+00	 6.907167712286760e+00
 7.722104718764347e-01	 1.570411224581385e+00	 6.604298193981235e+00
 7.359017959109799e-01	 1.587749720165365e+00	 6.301368547062810e+00
 1.096124002694353e+00	 1.391571458565331e+00	 9.417091408998461e+00
 1.063023914545171e+00	 1.417017666298037e+00	 9.115915775192146e+00
 1.029390029233166e+00	 1.441636251104008e+00	 8.802526742575523e+00
 9.952532554733519e-01	 1.465411179025662e+00	 8.491379183935116e+00
 9.606450981539351e-01	 1.488327942445600e+00	 8.183911092914601e+00
 9.255975651299275e-01	 1.510373584361061e+00	 7.879448944671993e+00
 8.901430731703146e-01	 1.531536715930691e+00	 7.577287737226701e+00
 8.543143536149344e-01	 1.551807527302334e+00	 7.276694249398501e+00
 8.181443582884984e-01	 1.571177791781801e+00	 6.976909994932626e+00
 7.816661662052971e-01	 1.589640863452174e+00	 6.677153836142981e+00
 7.449128915793510e-01	 1.607191668400326e+00	 6.376624221066476e+00
 1.109383650864640e+00	 1.408405090432330e+00	 9.444112238113833e+00
 1.075883155898531e+00	 1.434159117135410e+00	 9.141465049152627e+00
 1.041842406505119e+00	 1.459075509281018e+00	 8.835906863828873e+00
 1.007292685297515e+00	 1.483138038951166e+00	 8.533273777094882e+00
 9.722658782738384e-01	 1.506332023031956e+00	 8.233026222311912e+00
 9.367943804833290e-01	 1.528644347781682e+00	 7.934600407282540e+00
 9.009110008357716e-01	 1.550063486589857e+00	 7.637410943756452e+00
 8.646488666171194e-01	 1.570579510935990e+00	 7.340853163354765e+00
 8.280413282653746e-01	 1.590184094608784e+00	 7.044305092165620e+00
 7.911218649467079e-01	 1.608870511296639e+00	 6.747129055170314e+00
 7.539239914528291e-01	 1.626633625708040e+00	 6.448672881598203e+00
 1.122643311410229e+00	 1.425238738010537e+00	 9.467275202096012e+00
 1.088742409253461e+00	 1.451300583971283e+00	 9.169048520220501e+00
 1.054294795398891e+00	 1.476514783734471e+00	 8.872518797067565e+00
 1.019332126358073e+00	 1.500864915421526e+00	 8.577469150921857e+00
 9.838866692393970e-01	 1.524336120421888e+00	 8.283492711177200e+00
 9.479912062866922e-01	 1.546915128254760e+00	 7.990170812344088e+00
 9.116789385509099e-01	 1.568590274540401e+00	 7.697074404359739e+00
 8.749833892644895e-01	 1.589351512089871e+00	 7.403765100703878e+00
 8.379383074790940e-01	 1.609190415174676e+00	 7.109795848305533e+00
 8.005775725131515e-01	 1.628100177088458e+00	 6.814711201309251e+00
 7.629350997364340e-01	 1.646075601161259e+00	 6.518047179787653e+00
 1.135902990518767e+00	 1.442072409155554e+00	 9.489628616225474e+00
 1.101601680610747e+00	 1.468442074804905e+00	 9.201010652931748e+00
 1.066747201725391e+00	 1.493954082602587e+00	 8.912629552709056e+00
 1.031371584273223e+00	 1.518591816709167e+00	 8.624241627475037e+00
 9.955074764734356e-01	 1.542340243017182e+00	 8.335605154423760e+00
 9.591880477649930e-01	 1.565185934306527e+00	 8.046480665642362e+00
 9.224468913405612e-01	 1.587117088428011e+00	 7.756630822386784e+00
 8.853179263796215e-01	 1.608123539524091e+00	 7.465819876141458e+00
 8.478353005480569e-01	 1.628196762348931e+00	 7.173812715380691e+00
 8.100332933171125e-01	 1.647329869801308e+00	 6.880373494041019e+00
 7.719462206351853e-01	 1.665517603832739e+00	 6.585263835608471e+00
 1.149162694377906e+00	 1.458906111722986e+00	 9.517263950386965e+00
 1.114460975971175e+00	 1.485583597635528e+00	 9.237612175184793e+00
 1.079199631295528e+00	 1.511393414023587e+00	 8.956499317357251e+00
 1.043411064661159e+00	 1.536318751086516e+00	 8.673860644609251e+00
 1.007128305398779e+00	 1.560344399219625e+00	 8.389650800104405e+00
 9.703849101432062e-01	 1.583456774463210e+00	 8.103842317478859e+00
 9.332148642295562e-01	 1.605643936898379e+00	 7.816423648279120e+00
 8.956524827850918e-01	 1.626895601998761e+00	 7.527396722960432e+00
 8.577323120906617e-01	 1.647203145001002e+00	 7.236774062451026e+00
 8.194890317710750e-01	 1.666559598408866e+00	 6.944575453218530e+00
 7.809573583541024e-01	 1.684959642795230e+00	 6.650824195335861e+00
 6.908462334700449e-01	 1.490539797535500e+00	 5.857148302828479e+00
 6.565385052294117e-01	 1.505966380786663e+00	 5.542008529655860e+00
 6.220368629854696e-01	 1.520541940563071e+00	 5.234528432916340e+00
 5.873716069173968e-01	 1.534266048873276e+00	 4.936029802805804e+00
 5.525727497063448e-01	 1.547139647503662e+00	 4.647814426888100e+00
 5.176699436041026e-01	 1.559165013736996e+00	 4.371143289508261e+00
 4.826924110053948e-01	 1.570345721763018e+00	 4.107216372872966e+00
 4.476688787872664e-01	 1.580686600139960e+00	 3.857153237111027e+00
 4.126275166410442e-01	 1.590193685680504e+00	 3.621974545254756e+00
 3.775958795840564e-01	 1.598874174146099e+00	 3.402584686700637e+00
 3.426008548000429e-01	 1.606736368140026e+00	 3.199755639411256e+00
 6.998573711881746e-01	 1.509981836497991e+00	 5.957030544383796e+00
 6.651021458792968e-01	 1.525609638282828e+00	 5.645237236076664e+00
 6.301504772259071e-01	 1.540375316163592e+00	 5.340103746556117e+00
 5.950330606313099e-01	 1.554278436566281e+00	 5.043067759330023e+00
 5.597803002507673e-01	 1.567319953561598e+00	 4.755557417649337e+00
 5.244222351088731e-01	 1.579502174136336e+00	 4.478968956224862e+00
 4.889884687662648e-01	 1.590828719100625e+00	 4.214644905259142e+00
 4.535081028025524e-01	 1.601304479994598e+00	 3.963853056868136e+00
 4.180096743439077e-01	 1.610935572372854e+00	 3.727766372425037e+00
 3.825210978249282e-01	 1.619729285855650e+00	 3.507443996757396e+00
 3.470696111356523e-01	 1.627694031342298e+00	 3.303813531554665e+00
 7.088684920863135e-01	 1.529423839169470e+00	 6.050781159363305e+00
 6.736657705444734e-01	 1.545252859112366e+00	 5.742008584867994e+00
 6.382640763216343e-01	 1.560208654742575e+00	 5.439152095186278e+00
 6.026945000444901e-01	 1.574290786903558e+00	 5.143720378478984e+00
 5.669878373416852e-01	 1.587500221950311e+00	 4.857221564450223e+00
 5.311745140098977e-01	 1.599839296573599e+00	 4.581139705112332e+00
 4.952845147749666e-01	 1.611311678203856e+00	 4.316911790230954e+00
 4.593473159183699e-01	 1.621922321363002e+00	 4.065905496631516e+00
 4.233918220004398e-01	 1.631677420347405e+00	 3.829397859142461e+00
 3.874463068723730e-01	 1.640584358635956e+00	 3.608555038466333e+00
 3.515383591298535e-01	 1.648651655423799e+00	 3.404413347779397e+00
 7.178796003694810e-01	 1.548865814622691e+00	 6.139022282139946e+00
 6.822293832211472e-01	 1.564896052441934e+00	 5.832991627128182e+00
 6.463776640588654e-01	 1.580041965555406e+00	 5.532371289377934e+00
 6.103559287321669e-01	 1.594303109224039e+00	 5.238697786524078e+00
 5.741953643425297e-01	 1.607680462087105e+00	 4.953514615323561e+00
 5.379267834581767e-01	 1.620176390539301e+00	 4.678347990482612e+00
 5.015805519696158e-01	 1.631794608631304e+00	 4.414683072385293e+00
 4.651865208596684e-01	 1.642540133866729e+00	 4.163940888396683e+00
 4.287739621223143e-01	 1.652419239283606e+00	 3.927456141438975e+00
 3.923715090248464e-01	 1.661439402219327e+00	 3.706456087503371e+00
 3.560071008681043e-01	 1.669609250164720e+00	 3.502040650720366e+00
 7.268907002426965e-01	 1.568307771930404e+00	 6.222356681544751e+00
 6.907929879055251e-01	 1.584539227438188e+00	 5.918833890623759e+00
 6.544912442238149e-01	 1.599875257857469e+00	 5.620436314521663e+00
 6.180173502695688e-01	 1.614315412866656e+00	 5.328686746996182e+00
 5.814028846167322e-01	 1.627860683389288e+00	 5.045121088917631e+00
 5.446790466047114e-01	 1.640513465523965e+00	 4.771263746914515e+00
 5.078765832883279e-01	 1.652277519941563e+00	 4.508603467138079e+00
 4.710257203513982e-01	 1.663157927127338e+00	 4.258569810725233e+00
 4.341560972212050e-01	 1.673161038860906e+00	 4.022510467288373e+00
 3.972967065808038e-01	 1.682294426338077e+00	 3.801669591506156e+00
 3.604758384358618e-01	 1.690566825345256e+00	 3.597167335652381e+00
 7.359017959109799e-01	 1.587749720165365e+00	 6.301368547062812e+00
 6.993565885938119e-01	 1.604182393267784e+00	 6.000162325053338e+00
 6.626048206026984e-01	 1.619708540904147e+00	 5.704000383306949e+00
 6.256787682319245e-01	 1.634327707170340e+00	 5.414351773966536e+00
 5.886104015277231e-01	 1.648040895274165e+00	 5.132703407686144e+00
 5.514313066005023e-01	 1.660850531018109e+00	 4.860535507043107e+00
 5.141726116692190e-01	 1.672760421693228e+00	 4.599297433417819e+00
 4.768649171185084e-01	 1.683775710766388e+00	 4.350384092268976e+00
 4.395382298087862e-01	 1.693902828758757e+00	 4.115113112496894e+00
 4.022219018387006e-01	 1.703149440724514e+00	 3.894702985432589e+00
 3.649445739185834e-01	 1.711524390745600e+00	 3.690252337923257e+00
 7.449128915793510e-01	 1.607191668400326e+00	 6.376624221066476e+00
 7.079201892822147e-01	 1.623825559097381e+00	 6.077584181354884e+00
 6.707183969817293e-01	 1.639541823950825e+00	 5.783695914051019e+00
 6.333401861944633e-01	 1.654340001474025e+00	 5.496336166388188e+00
 5.958179184389334e-01	 1.668221107159040e+00	 5.216902950356481e+00
 5.581835665965504e-01	 1.681187596512253e+00	 4.946791439445852e+00
 5.204686400504046e-01	 1.693243323444894e+00	 4.687370169467709e+00
 4.827041138859491e-01	 1.704393494405438e+00	 4.439957743201902e+00
 4.449203623967316e-01	 1.714644618656608e+00	 4.205800230673779e+00
 4.071470970969923e-01	 1.724004455110951e+00	 3.986049448142001e+00
 3.694133094017262e-01	 1.732481956145943e+00	 3.781742289320879e+00
 7.539239914528291e-01	 1.626633625708040e+00	 6.448672881598208e+00
 7.164837939669392e-01	 1.643468734093634e+00	 6.151687830572810e+00
 6.788319771471224e-01	 1.659375116252888e+00	 5.860135441079160e+00
 6.410016077324138e-01	 1.674352305116642e+00	 5.575262970101211e+00
 6.030254387137948e-01	 1.688401328461222e+00	 5.298341030429214e+00
 5.649358297438567e-01	 1.701524671496917e+00	 5.030640313311054e+00
 5.267646713700003e-01	 1.713726234755153e+00	 4.773408538191998e+00
 4.885433133786704e-01	 1.725011287666047e+00	 4.527847820590098e+00
 4.503024974967154e-01	 1.735386418233908e+00	 4.295092642797865e+00
 4.120722946541341e-01	 1.744859479229700e+00	 4.076188605117482e+00
 3.738820469707478e-01	 1.753439531326480e+00	 3.872072127646681e+00
 7.629350997364340e-01	 1.646075601161259e+00	 6.518047179787652e+00
 7.250474066441916e-01	 1.663111927423202e+00	 6.223043527280768e+00
 6.869455648850931e-01	 1.679208427065719e+00	 5.933912462773150e+00
 6.486630364210046e-01	 1.694364627437122e+00	 5.651735873482785e+00
 6.102329657157373e-01	 1.708581568598017e+00	 5.377619806823917e+00
 5.716880991934217e-01	 1.721861765462620e+00	 5.112672395941837e+00
 5.330607085661218e-01	 1.734209165182600e+00	 4.857981927869435e+00
 4.943825183216216e-01	 1.745629100169774e+00	 4.614595233163373e+00
 4.556846376204109e-01	 1.756128237170108e+00	 4.383496571373763e+00
 4.169974968085816e-01	 1.765714522813072e+00	 4.165587181782566e+00
 3.783507887111051e-01	 1.774397126067401e+00	 3.961665663364610e+00
 7.719462206351853e-01	 1.665517603832739e+00	 6.585263835608471e+00
 7.336110313101780e-01	 1.682755148252740e+00	 6.292204122087110e+00
 6.950591639818547e-01	 1.699041765644702e+00	 6.005602232379453e+00
 6.563244758354650e-01	 1.714376977774400e+00	 5.726340042161006e+00
 6.174405028081928e-01	 1.728761836986729e+00	 5.455323132215897e+00
 5.784403780962465e-01	 1.742198887899882e+00	 5.193460288583680e+00
 5.393567545768849e-01	 1.754692124285831e+00	 4.941643053517183e+00
 5.002217314397523e-01	 1.766246941538177e+00	 4.700725490439007e+00
 4.610667852794929e-01	 1.776870085144659e+00	 4.471504323705934e+00
 4.219227058587907e-01	 1.786569595593378e+00	 4.254699611449200e+00
 3.828195367082557e-01	 1.795354750148902e+00	 4.050936106833608e+00
 7.809573583541024e-01	 1.684959642795230e+00	 6.650824195335861e+00
 7.421746719611046e-01	 1.702398405748905e+00	 6.359705727334616e+00
 7.031727782236229e-01	 1.718875141245223e+00	 6.075762496198899e+00
 6.639859295510238e-01	 1.734389365467405e+00	 5.799642897715165e+00
 6.246480533545917e-01	 1.748942143044666e+00	 5.532017344094545e+00
 5.851926696033319e-01	 1.762536048299222e+00	 5.273559705555989e+00
 5.456528123404050e-01	 1.775175121623439e+00	 5.024928703696593e+00
 5.060609554580128e-01	 1.786864821392816e+00	 4.786749400692945e+00
 4.664489429856349e-01	 1.797611971837010e+00	 4.559594928400656e+00
 4.268479241032159e-01	 1.807424707302928e+00	 4.343968601562009e+00
 3.872882930476569e-01	 1.816312413351174e+00	 4.140286559307060e+00
 3.426008548000429e-01	 1.606736368140026e+00	 3.199755639411252e+00
 3.076661763631741e-01	 1.613790088361845e+00	 3.012841696287499e+00
 2.728197402333763e-01	 1.620045109375353e+00	 2.841976194004136e+00
 2.380861944006856e-01	 1.625512722803128e+00	 2.688800287079661e+00
 2.034893489370334e-01	 1.630205098820482e+00	 2.554737786572606e+00
 1.690521454357569e-01	 1.634135225769794e+00	 2.440976146183444e+00
 1.347966309384787e-01	 1.637316849251474e+00	 2.348450192680086e+00
 1.007439362639357e-01	 1.639764411030700e+00	 2.277828654078691e+00
 6.691425862819741e-02	 1.641492988081151e+00	 2.229503509449680e+00
 3.332684842312708e-02	 1.642518232067458e+00	 2.203582155499559e+00
 0.000000000000000e+00	 1.642856309547222e+00	 2.199882357487957e+00
 3.470696111356523e-01	 1.627694031342298e+00	 3.303813531554665e+00
 3.116792579285771e-01	 1.634839757629868e+00	 3.116416601849118e+00
 2.763782980280260e-01	 1.641176366777895e+00	 2.945398045008852e+00
 2.411917009231368e-01	 1.646715297692631e+00	 2.792293277172424e+00
 2.061435872554544e-01	 1.651468879292577e+00	 2.658424066547022e+00
 1.712571978598221e-01	 1.655450269335162e+00	 2.544879400757119e+00
 1.365548673511724e-01	 1.658673392713235e+00	 2.452499049213451e+00
 1.020580021706859e-01	 1.661152879564920e+00	 2.381859880955008e+00
 6.778706297931411e-02	 1.662904003522265e+00	 2.333264969355763e+00
 3.376155126378372e-02	 1.663942620404321e+00	 2.306735486681714e+00
 0.000000000000000e+00	 1.664285107639178e+00	 2.302005364025335e+00
 3.515383591298535e-01	 1.648651655423799e+00	 3.404413347779397e+00
 3.156923320031289e-01	 1.655889387605277e+00	 3.216670479850996e+00
 2.799368491802376e-01	 1.662307584735421e+00	 3.045507002288935e+00
 2.442972016488187e-01	 1.667917833003894e+00	 2.892390243807890e+00
 2.087978206194496e-01	 1.672732620072087e+00	 2.758577967255782e+00
 1.734622461679196e-01	 1.676765273112168e+00	 2.645098838329904e+00
 1.383131004819329e-01	 1.680029896309091e+00	 2.552735552058143e+00
 1.033720656245985e-01	 1.682541308173578e+00	 2.482010686000560e+00
 6.865986570125659e-02	 1.684314978995681e+00	 2.433175320371379e+00
 3.419625329302751e-02	 1.685366968748493e+00	 2.406200436995590e+00
 0.000000000000000e+00	 1.685713865730200e+00	 2.400771081494045e+00
 3.560071008681043e-01	 1.669609250164720e+00	 3.502040650720366e+00
 3.197054004596522e-01	 1.676938988111222e+00	 3.314038888938325e+00
 2.834953953507344e-01	 1.683438773109186e+00	 3.142695799309150e+00
 2.474026980270385e-01	 1.689120338631477e+00	 2.989446937893236e+00
 2.114520502677379e-01	 1.693996331082160e+00	 2.855522782390932e+00
 1.756672913891475e-01	 1.698080247047902e+00	 2.741928527658879e+00
 1.400713311513396e-01	 1.701386370005517e+00	 2.649426513297454e+00
 1.046861272389635e-01	 1.703929706838064e+00	 2.578521362229607e+00
 6.953266720137821e-02	 1.705725924493324e+00	 2.529447880558324e+00
 3.463095471374479e-02	 1.706791287098147e+00	 2.502161740638111e+00
 0.000000000000000e+00	 1.707142593820522e+00	 2.496332941527102e+00
 3.604758384358618e-01	 1.690566825345256e+00	 3.597167335652382e+00
 3.237184651709711e-01	 1.697988568970860e+00	 3.408945652851602e+00
 2.870539382002401e-01	 1.704569941760444e+00	 3.237346914458685e+00
 2.505081915071031e-01	 1.710322824469939e+00	 3.083809946754730e+00
 2.141062774390382e-01	 1.715260022245939e+00	 2.949573409478901e+00
 1.778723345526043e-01	 1.719395201089455e+00	 2.835654648664863e+00
 1.418295601799715e-01	 1.722742823768991e+00	 2.742831166935959e+00
 1.060001876270708e-01	 1.725318085539769e+00	 2.671624801594170e+00
 7.040546788703229e-02	 1.727136850007118e+00	 2.622288672144768e+00
 3.506565572882187e-02	 1.728215585451455e+00	 2.594796930308960e+00
 0.000000000000000e+00	 1.728571301910378e+00	 2.588837317371298e+00
 3.649445739185834e-01	 1.711524390745600e+00	 3.690252337923254e+00
 3.277315280099088e-01	 1.719038140007343e+00	 3.501803472432523e+00
 2.906124793894782e-01	 1.725701100550448e+00	 3.329833113615726e+00
 2.536136835383199e-01	 1.731525300413842e+00	 3.175817189070211e+00
 2.167605033720695e-01	 1.736523703486572e+00	 3.041036814830804e+00
 1.800773766873884e-01	 1.740710145183917e+00	 2.926555940922813e+00
 1.435877883884080e-01	 1.744099267565988e+00	 2.833201610376585e+00
 1.073142474022104e-01	 1.746706454260084e+00	 2.761546934881115e+00
 7.127826816557226e-02	 1.748547765528988e+00	 2.711896861342975e+00
 3.550035654114503e-02	 1.749639873806591e+00	 2.684276774605562e+00
 0.000000000000000e+00	 1.750000000000000e+00	 2.678423952777733e+00
 3.694133094017262e-01	 1.732481956145943e+00	 3.781742289320879e+00
 3.317445908492893e-01	 1.740087711043827e+00	 3.593014493394442e+00
 2.941710205791723e-01	 1.746832259340452e+00	 3.420517953445563e+00
 2.567191755699961e-01	 1.752727776357744e+00	 3.265798373941798e+00
 2.194147293055507e-01	 1.757787384727206e+00	 3.130212464775045e+00
 1.822824188225979e-01	 1.762025089278380e+00	 3.014904119610792e+00
 1.453460165972282e-01	 1.765455711362986e+00	 2.920783213855120e+00
 1.086283071776724e-01	 1.768094822980399e+00	 2.848507139678536e+00
 7.215106844435137e-02	 1.769958681050858e+00	 2.798465166240221e+00
 3.593505735360058e-02	 1.771064162161726e+00	 2.770765683666129e+00
 0.000000000000000e+00	 1.771428698089623e+00	 2.765226359751112e+00
 3.738820469707478e-01	 1.753439531326480e+00	 3.872072127646681e+00
 3.357576555619355e-01	 1.761137291903464e+00	 3.682970833558969e+00
 2.977295634300460e-01	 1.767963427991710e+00	 3.509756248717868e+00
 2.598246690514388e-01	 1.773930262196207e+00	 3.354075427109914e+00
 2.220689564782008e-01	 1.779051075890984e+00	 3.217392725996051e+00
 1.844874619873312e-01	 1.783340043319932e+00	 3.100964261640176e+00
 1.471042456270111e-01	 1.786812165126459e+00	 3.005815000514434e+00
 1.099423675667465e-01	 1.789483201682104e+00	 2.932718619083004e+00
 7.302386913072303e-02	 1.791369606564652e+00	 2.882180235436771e+00
 3.636975836907484e-02	 1.792488460515034e+00	 2.854422085718299e+00
 0.000000000000000e+00	 1.792857406179478e+00	 2.849372187764591e+00
 3.783507887111051e-01	 1.774397126067401e+00	 3.961665663364610e+00
 3.397707240206714e-01	 1.782186892409409e+00	 3.772055072910597e+00
 3.012881096028229e-01	 1.789094616365475e+00	 3.597894506618893e+00
 2.629301654319551e-01	 1.795132767823789e+00	 3.440962887025816e+00
 2.247231861287388e-01	 1.800314786901056e+00	 3.302863237532242e+00
 1.866925072106866e-01	 1.804655017255666e+00	 3.184995164434425e+00
 1.488624762983361e-01	 1.808168638822887e+00	 3.088529999546522e+00
 1.112564291827228e-01	 1.810871600346590e+00	 3.014388753569321e+00
 7.389667063204054e-02	 1.812780552062295e+00	 2.963222999848597e+00
 3.680445979045411e-02	 1.813912778864688e+00	 2.935398776939834e+00
 0.000000000000000e+00	 1.814286134269800e+00	 2.930983566800559e+00
 3.828195367082557e-01	 1.795354750148902e+00	 4.050936106833608e+00
 3.437837980983204e-01	 1.803236522384817e+00	 3.860640709506987e+00
 3.048466607582264e-01	 1.810225834323002e+00	 3.685271330755605e+00
 2.660356661608521e-01	 1.816335303135052e+00	 3.526768273245689e+00
 2.273774194958836e-01	 1.821578527680567e+00	 3.386903256750443e+00
 1.888975555217624e-01	 1.825970021032672e+00	 3.267249679591023e+00
 1.506207094317823e-01	 1.829525142418741e+00	 3.169155574603769e+00
 1.125704926388912e-01	 1.832260028955248e+00	 3.093719428214928e+00
 7.476947335565728e-02	 1.834191527535712e+00	 3.041768999870829e+00
 3.723916182062469e-02	 1.835337127208860e+00	 3.013843246813277e+00
 0.000000000000000e+00	 1.835714892360823e+00	 3.010177426357188e+00
 3.872882930476569e-01	 1.816312413351174e+00	 4.140286559307060e+00
 3.477968796677059e-01	 1.824286191652841e+00	 3.949092584003839e+00
 3.084052185569802e-01	 1.831357091725543e+00	 3.772217797299659e+00
 2.691411726874370e-01	 1.837537878024554e+00	 3.611792429382983e+00
 2.300316578183539e-01	 1.842842308152661e+00	 3.469785981399301e+00
 1.911026079496569e-01	 1.847285064598040e+00	 3.347975023456768e+00
 1.523789458479289e-01	 1.850881685880502e+00	 3.247913729478912e+00
 1.138845585485418e-01	 1.853648497489467e+00	 3.170907337272162e+00
 7.564227770892655e-02	 1.855602542976825e+00	 3.117988689891158e+00
 3.767386466247289e-02	 1.856761515545723e+00	 3.089897980955478e+00
 0.000000000000000e+00	 1.857143690452778e+00	 3.087065792362849e+00
 1.857143690452778e+00	 0.000000000000000e+00	 1.206826571171757e+01
 1.856761515545723e+00	 3.767386466247341e-02	 1.210973111318291e+01
 1.855602542976826e+00	 7.564227770892705e-02	 1.214082230021184e+01
 1.853648497489467e+00	 1.138845585485422e-01	 1.216414839990918e+01
 1.850881685880502e+00	 1.523789458479293e-01	 1.218234874768144e+01
 1.847285064598040e+00	 1.911026079496572e-01	 1.219806895255417e+01
 1.842842308152661e+00	 2.300316578183542e-01	 1.221393618440753e+01
 1.837537878024554e+00	 2.691411726874371e-01	 1.223253388329512e+01
 1.831357091725543e+00	 3.084052185569803e-01	 1.225637610831571e+01
 1.824286191652841e+00	 3.477968796677058e-01	 1.228788176018388e+01
 1.816312413351174e+00	 3.872882930476569e-01	 1.232934892745232e+01
 1.878572536045842e+00	 0.000000000000000e+00	 1.199943166470553e+01
 1.878185951373907e+00	 3.810856846815736e-02	 1.204267415056023e+01
 1.877013605879581e+00	 7.651508399735196e-02	 1.207507025331888e+01
 1.875037013435292e+00	 1.151986273716261e-01	 1.209936765829280e+01
 1.872238276683024e+00	 1.541371861621915e-01	 1.211834224770304e+01
 1.868600155412089e+00	 1.933076652661729e-01	 1.213477311952678e+01
 1.864106135759701e+00	 2.326859020251671e-01	 1.215141681875960e+01
 1.858740499913218e+00	 2.722466860986676e-01	 1.217098098726934e+01
 1.852488395969041e+00	 3.119637842446044e-01	 1.219609765612988e+01
 1.845335907580846e+00	 3.518099701334236e-01	 1.222929642150372e+01
 1.837270123009362e+00	 3.917570592933805e-01	 1.227297776156140e+01
 1.900001426639956e+00	 0.000000000000000e+00	 1.193445500138012e+01
 1.899610432193868e+00	 3.854327318692236e-02	 1.197937302812329e+01
 1.898424713745996e+00	 7.738789211903432e-02	 1.201299792703612e+01
 1.896425574297374e+00	 1.165126989547405e-01	 1.203821973236759e+01
 1.893594912334690e+00	 1.558954301693286e-01	 1.205795207069327e+01
 1.889915290988044e+00	 1.955127272139288e-01	 1.207510599559905e+01
 1.885370008020898e+00	 2.353401518065301e-01	 1.209256303703153e+01
 1.879943166327400e+00	 2.753522060321016e-01	 1.211314767904971e+01
 1.873619744588180e+00	 3.155223574058038e-01	 1.213959949781688e+01
 1.866385667713046e+00	 3.558230690271570e-01	 1.217454520933423e+01
 1.858227876678418e+00	 3.962258349239570e-01	 1.222047089341568e+01
 1.921430357235003e+00	 0.000000000000000e+00	 1.187285774135374e+01
 1.921034953006520e+00	 3.897797871728554e-02	 1.191943457272859e+01
 1.919835861580109e+00	 7.826070187022578e-02	 1.195428201849270e+01
 1.917814175085018e+00	 1.178267729911437e-01	 1.198043613901745e+01
 1.914951587852261e+00	 1.576536774589359e-01	 1.200094943970142e+01
 1.911230466352363e+00	 1.977177932782481e-01	 1.201886338749522e+01
 1.906633919974679e+00	 2.379944065429490e-01	 1.203718015591396e+01
 1.901145872319824e+00	 2.784577317629481e-01	 1.205883382131587e+01
 1.894751132652334e+00	 3.190809372100797e-01	 1.208666125170518e+01
 1.887435467137861e+00	 3.598361754123613e-01	 1.212337294743890e+01
 1.879185669468245e+00	 4.006946188965311e-01	 1.217152411076330e+01
 1.942859322830867e+00	 0.000000000000000e+00	 1.181418177443551e+01
 1.942459508812778e+00	 3.941268495776403e-02	 1.186248232878357e+01
 1.941247044385958e+00	 7.913351304717783e-02	 1.189861347502937e+01
 1.939202810807529e+00	 1.191408491740938e-01	 1.192576086225698e+01
 1.936308298252500e+00	 1.594119276206086e-01	 1.194711694298103e+01
 1.932545676531499e+00	 1.999228629444540e-01	 1.196585204116602e+01
 1.927897866659472e+00	 2.406486656149291e-01	 1.198508467394569e+01
 1.922348612943207e+00	 2.815632625664156e-01	 1.200785136028688e+01
 1.915882555230876e+00	 3.226395228269336e-01	 1.203707616868001e+01
 1.908485300943716e+00	 3.638492883524926e-01	 1.207554027449495e+01
 1.900143496488748e+00	 4.051634101682481e-01	 1.212585181570728e+01
 1.964288318427431e+00	 0.000000000000000e+00	 1.175798777692635e+01
 1.963884094613554e+00	 3.984739180687496e-02	 1.180815566797322e+01
 1.962658257167581e+00	 8.000632544614210e-02	 1.184569675804003e+01
 1.960591476474211e+00	 1.204549271968495e-01	 1.187394973168173e+01
 1.957665038552166e+00	 1.611701802439422e-01	 1.189624798749137e+01
 1.953860916551905e+00	 2.021279356978698e-01	 1.191588913087799e+01
 1.949161843113704e+00	 2.433029284029761e-01	 1.193610375697411e+01
 1.943551383250271e+00	 2.846687977177128e-01	 1.196002376874142e+01
 1.937014007393181e+00	 3.261981134258674e-01	 1.199065049452149e+01
 1.929535164219033e+00	 3.678624069110056e-01	 1.203082288824588e+01
 1.921101352849829e+00	 4.096322076962525e-01	 1.208318611408067e+01
 1.985717339024578e+00	 0.000000000000000e+00	 1.170385419806130e+01
 1.985308705409761e+00	 4.028209916313545e-02	 1.175610895657543e+01
 1.984069494929014e+00	 8.087913886337010e-02	 1.179524915431374e+01
 1.981980167094370e+00	 1.217690067526689e-01	 1.182476984080919e+01
 1.979021803768024e+00	 1.629284349185320e-01	 1.184814628715859e+01
 1.975176181440039e+00	 2.043330110238186e-01	 1.186880178040230e+01
 1.970425844375801e+00	 2.459571942875955e-01	 1.189007475550859e+01
 1.964754178293735e+00	 2.877743364920480e-01	 1.191518552315155e+01
 1.958145484208620e+00	 3.297567081763817e-01	 1.194720287096797e+01
 1.950585052052235e+00	 3.718755301513563e-01	 1.198901083533621e+01
 1.942059233661392e+00	 4.141010104376896e-01	 1.204327595974877e+01
 2.007146379622192e+00	 0.000000000000000e+00	 1.165137631135822e+01
 2.006733336202314e+00	 4.071680692506262e-02	 1.170601077606307e+01
 2.005480752674296e+00	 8.175195309511345e-02	 1.174700013132835e+01
 2.003368877677310e+00	 1.230830875348104e-01	 1.177799900232955e+01
 2.000378588916834e+00	 1.646866912339731e-01	 1.180262538329902e+01
 1.996491466222354e+00	 2.065380884076235e-01	 1.182442661390410e+01
 1.991689865484192e+00	 2.486114626492929e-01	 1.184684475158346e+01
 1.985956993126318e+00	 2.908798781646302e-01	 1.187318161238089e+01
 1.979276980746566e+00	 3.333153062479786e-01	 1.190656377261099e+01
 1.971634959531745e+00	 3.758886571369999e-01	 1.194990784341429e+01
 1.963017134033341e+00	 4.185698173497043e-01	 1.200588634973448e+01
 2.028575435220155e+00	 0.000000000000000e+00	 1.160016532607552e+01
 2.028157981992126e+00	 4.115151499117362e-02	 1.165754319305337e+01
 2.026892025407465e+00	 8.262476793762372e-02	 1.170069073324666e+01
 2.024757603232335e+00	 1.243971692365323e-01	 1.173342523753805e+01
 2.021735389015359e+00	 1.664449487798609e-01	 1.175950819482702e+01
 2.017806765925305e+00	 2.087431673346079e-01	 1.178260933433706e+01
 2.012953901477300e+00	 2.512657328685736e-01	 1.180627013294885e+01
 2.007159822800742e+00	 2.939854220106677e-01	 1.183386707561348e+01
 2.000408492076392e+00	 3.368739068101590e-01	 1.186857497697251e+01
 1.992684881745986e+00	 3.799017869313923e-01	 1.191333069237869e+01
 1.983975049075579e+00	 4.230386273894415e-01	 1.197079756640913e+01
 2.050004500818354e+00	 0.000000000000000e+00	 1.154984755438194e+01
 2.049582637780111e+00	 4.158622325998555e-02	 1.161040107499544e+01
 2.048303308132558e+00	 8.349758318715243e-02	 1.165607301463767e+01
 2.046146338768752e+00	 1.257112515510929e-01	 1.169084629744820e+01
 2.043092199080359e+00	 1.682032071457909e-01	 1.171862659606823e+01
 2.039122075575345e+00	 2.109482472900948e-01	 1.174320432733009e+01
 2.034217947393555e+00	 2.539200043259434e-01	 1.176821619258994e+01
 2.028362662369725e+00	 2.970909673053695e-01	 1.179710656737454e+01
 2.021540013267473e+00	 3.404325090324247e-01	 1.183308906533680e+01
 2.013734813783382e+00	 3.839149185979887e-01	 1.187910862190422e+01
 2.004932973898010e+00	 4.275074395140459e-01	 1.193780446330607e+01
 2.071433571416667e+00	 0.000000000000000e+00	 1.150006363020545e+01
 2.071007298567182e+00	 4.202093163001555e-02	 1.156429144828429e+01
 2.069714595853613e+00	 8.437039863995120e-02	 1.161290950919192e+01
 2.067535079295861e+00	 1.270253341717507e-01	 1.165006921329173e+01
 2.064449014128598e+00	 1.699614659213580e-01	 1.167982102017949e+01
 2.060437390198933e+00	 2.131533277594077e-01	 1.170607428872089e+01
 2.055481998271383e+00	 2.565742764019078e-01	 1.173255675174038e+01
 2.049565506885989e+00	 3.001965133239439e-01	 1.176277394768147e+01
 2.042671539389180e+00	 3.439911120842769e-01	 1.179996895210993e+01
 2.034784750732354e+00	 3.879280512002444e-01	 1.184708277262079e+01
 2.025890903610537e+00	 4.319762526806628e-01	 1.190671579139820e+01
 1.816312413351174e+00	 3.872882930476569e-01	 1.232934892745232e+01
 1.807424707302929e+00	 4.268479241032157e-01	 1.237287737621623e+01
 1.797611971837011e+00	 4.664489429856347e-01	 1.240980802763156e+01
 1.786864821392816e+00	 5.060609554580124e-01	 1.244098779312173e+01
 1.775175121623439e+00	 5.456528123404047e-01	 1.246698835801033e+01
 1.762536048299222e+00	 5.851926696033313e-01	 1.248809293768984e+01
 1.748942143044667e+00	 6.246480533545914e-01	 1.250428587497173e+01
 1.734389365467405e+00	 6.639859295510233e-01	 1.251524535094219e+01
 1.718875141245223e+00	 7.031727782236227e-01	 1.252033946025572e+01
 1.702398405748905e+00	 7.421746719611043e-01	 1.251862587420522e+01
 1.684959642795230e+00	 7.809573583541023e-01	 1.250885528067633e+01
 1.837270123009362e+00	 3.917570592933805e-01	 1.227297776156140e+01
 1.828279865240958e+00	 4.317731532656795e-01	 1.231905751962416e+01
 1.818353904506749e+00	 4.718311126225738e-01	 1.235862289530222e+01
 1.807482746949861e+00	 5.119001924200982e-01	 1.239249839609473e+01
 1.795658164364369e+00	 5.519488840602544e-01	 1.242121613113322e+01
 1.782873253778531e+00	 5.919449760779156e-01	 1.244500244818401e+01
 1.769122493834807e+00	 6.318556198774972e-01	 1.246376756777990e+01
 1.754401797520338e+00	 6.716474002490935e-01	 1.247709849719944e+01
 1.738708560808818e+00	 7.112864104500519e-01	 1.248425548526817e+01
 1.722041706786691e+00	 7.507383315941215e-01	 1.248417225077382e+01
 1.704401724853298e+00	 7.899685160469485e-01	 1.247546018216792e+01
 1.858227876678418e+00	 3.962258349239570e-01	 1.222047089341568e+01
 1.849135066974388e+00	 4.366983927714691e-01	 1.226908743016519e+01
 1.839095880734014e+00	 4.772132935623012e-01	 1.231121977932669e+01
 1.828100715803918e+00	 5.177394416446897e-01	 1.234767116653545e+01
 1.816141250118972e+00	 5.582449690018318e-01	 1.237893739624338e+01
 1.803210501965179e+00	 5.986972967321855e-01	 1.240519343097641e+01
 1.789302887002826e+00	 6.390632015359993e-01	 1.242628310672335e+01
 1.774414271598467e+00	 6.793088870358278e-01	 1.244171227654710e+01
 1.758542022021642e+00	 7.194000597145587e-01	 1.245064565266684e+01
 1.741685049074432e+00	 7.593020092101596e-01	 1.245190758876243e+01
 1.723843847738756e+00	 7.989796926624607e-01	 1.244398700853462e+01
 1.879185669468245e+00	 4.006946188965311e-01	 1.217152411076330e+01
 1.869990307637065e+00	 4.416236414712386e-01	 1.222261400811474e+01
 1.859837895679079e+00	 4.825954845488703e-01	 1.226721091479316e+01
 1.848718723144213e+00	 5.235787017692131e-01	 1.230609775853039e+01
 1.836624374107953e+00	 5.645410656959915e-01	 1.233973712219346e+01
 1.823547788113905e+00	 6.054496299905657e-01	 1.236825782512276e+01
 1.809483317840070e+00	 6.462707966483203e-01	 1.239144476268140e+01
 1.794426783032323e+00	 6.869703881235609e-01	 1.240873230448380e+01
 1.778375520256003e+00	 7.275137241239990e-01	 1.241920153009285e+01
 1.761328428028801e+00	 7.678657028110910e-01	 1.242158155244402e+01
 1.743286006915225e+00	 8.079908860981183e-01	 1.241425514323605e+01
 1.900143496488748e+00	 4.051634101682481e-01	 1.212585181570728e+01
 1.890845582362830e+00	 4.465488982156414e-01	 1.217930554789929e+01
 1.880579944502220e+00	 4.879776843263350e-01	 1.222623206925685e+01
 1.869336764159963e+00	 5.294179714310953e-01	 1.226739486144843e+01
 1.857107531552014e+00	 5.708371726735891e-01	 1.230322618946607e+01
 1.843885107479449e+00	 6.122019742774804e-01	 1.233381374330189e+01
 1.829663781637883e+00	 6.534784035326818e-01	 1.235889064298805e+01
 1.814439327152442e+00	 6.946319017246300e-01	 1.237782911487768e+01
 1.798209050884207e+00	 7.356274017852300e-01	 1.238963812579595e+01
 1.780971839066468e+00	 7.764294103987911e-01	 1.239296523341759e+01
 1.762728197846329e+00	 8.170020942514019e-01	 1.238610287520873e+01
 1.921101352849829e+00	 4.096322076962525e-01	 1.208318611408067e+01
 1.911700886285531e+00	 4.514741618553319e-01	 1.213885067090685e+01
 1.901322022363710e+00	 4.933598916387493e-01	 1.218794135124275e+01
 1.889954834040390e+00	 5.352572492677620e-01	 1.223120291624659e+01
 1.877590717671858e+00	 5.771332884654784e-01	 1.226904004613087e+01
 1.864222455316552e+00	 6.189543280173542e-01	 1.230150409888940e+01
 1.849844273687616e+00	 6.606860205073060e-01	 1.232828332058189e+01
 1.834451899289356e+00	 7.022934260513709e-01	 1.234869682152020e+01
 1.818042609278566e+00	 7.437410908051079e-01	 1.236169261215985e+01
 1.800615277604106e+00	 7.849931299751329e-01	 1.236584996478156e+01
 1.782170415995694e+00	 8.260133150197916e-01	 1.235938633134304e+01
 1.942059233661392e+00	 4.141010104376896e-01	 1.204327595974877e+01
 1.932556214539010e+00	 4.563994312409635e-01	 1.210095732250942e+01
 1.922064124423826e+00	 4.987421052301669e-01	 1.215201809008697e+01
 1.910572927974714e+00	 5.410965339166400e-01	 1.219718490809763e+01
 1.898073927688186e+00	 5.834294116025146e-01	 1.223683744298705e+01
 1.884559826879955e+00	 6.257066896346112e-01	 1.227099531299418e+01
 1.870024789280614e+00	 6.678936458904153e-01	 1.229930854185130e+01
 1.854464494773602e+00	 7.099549593161198e-01	 1.232105185511399e+01
 1.837876190811384e+00	 7.518547892904891e-01	 1.233512311946566e+01
 1.820258739058387e+00	 7.935568595419911e-01	 1.234004619848459e+01
 1.801612656826940e+00	 8.350245463007669e-01	 1.233397846328851e+01
 1.963017134033341e+00	 4.185698173497043e-01	 1.200588634973448e+01
 1.953411562257110e+00	 4.613247052231902e-01	 1.206535182850012e+01
 1.942806245842842e+00	 5.041243238446417e-01	 1.211816178178660e+01
 1.931191041152156e+00	 5.469358240151556e-01	 1.216502522963688e+01
 1.918557156821704e+00	 5.897255406155530e-01	 1.220629924197517e+01
 1.904897217424397e+00	 6.324590575536760e-01	 1.224197609548355e+01
 1.890205323708224e+00	 6.751012780002316e-01	 1.227167400729607e+01
 1.874477108935713e+00	 7.176164997312131e-01	 1.229463177005930e+01
 1.857709790854971e+00	 7.599684953482303e-01	 1.230970759464674e+01
 1.839902218845981e+00	 8.021205971012388e-01	 1.231538244113389e+01
 1.821054915803694e+00	 8.440357859918090e-01	 1.230976808452913e+01
 1.983975049075579e+00	 4.230386273894415e-01	 1.197079756640913e+01
 1.974266924573678e+00	 4.662499826526657e-01	 1.203177800655243e+01
 1.963548381781033e+00	 5.095065462262276e-01	 1.208609109597835e+01
 1.951809168761936e+00	 5.527751182007353e-01	 1.213442860960823e+01
 1.939040400293112e+00	 5.960216740354478e-01	 1.217712729244218e+01
 1.925234622204619e+00	 6.392114301989733e-01	 1.221415629452805e+01
 1.910385872261793e+00	 6.823089151549765e-01	 1.224510821962249e+01
 1.894489737106221e+00	 7.252780455089870e-01	 1.226919411587961e+01
 1.877543404781634e+00	 7.680822070851886e-01	 1.228524272023063e+01
 1.859545712383560e+00	 8.106843406547504e-01	 1.229170424394055e+01
 1.840497188389576e+00	 8.530470319903963e-01	 1.228665895401328e+01
 2.004932973898010e+00	 4.275074395140459e-01	 1.193780446330607e+01
 1.995122296622557e+00	 4.711752623800439e-01	 1.199999632867653e+01
 1.984290527398675e+00	 5.148887711189785e-01	 1.205554293957455e+01
 1.972427305993276e+00	 5.586144151108057e-01	 1.210511910212496e+01
 1.959523653323115e+00	 6.023178103930540e-01	 1.214904337029617e+01
 1.945572036475360e+00	 6.459638059949269e-01	 1.218726580965344e+01
 1.930566430232669e+00	 6.895165556728722e-01	 1.221935939433977e+01
 1.914502374615661e+00	 7.329395948617770e-01	 1.224451536855857e+01
 1.897377027963681e+00	 7.761959226082197e-01	 1.226154288906628e+01
 1.879189215087797e+00	 8.192480882044000e-01	 1.226887324284222e+01
 1.859939470048212e+00	 8.620582821940106e-01	 1.226456890293359e+01
 2.025890903610537e+00	 4.319762526806628e-01	 1.190671579139820e+01
 2.015977673537592e+00	 4.761005432559788e-01	 1.196978313098070e+01
 2.005032677856041e+00	 5.202709972669480e-01	 1.202627157295426e+01
 1.993045448035394e+00	 5.644537133827925e-01	 1.207683913215751e+01
 1.980006911132414e+00	 6.086139482192265e-01	 1.212178817549816e+01
 1.965909455491361e+00	 6.527161833659613e-01	 1.216105356370324e+01
 1.950746992912197e+00	 6.967241978721409e-01	 1.219419442833345e+01
 1.934515016794567e+00	 7.406011460019196e-01	 1.222038991745165e+01
 1.917210655773421e+00	 7.843096400241804e-01	 1.223843923079867e+01
 1.898832722375361e+00	 8.278118377520610e-01	 1.224676624517165e+01
 1.879381756243224e+00	 8.710695345001308e-01	 1.224342900153391e+01
 1.684959642795230e+00	 7.809573583541023e-01	 1.250885528067633e+01
 1.666559598408865e+00	 8.194890317710753e-01	 1.248827092853521e+01
 1.647203145001001e+00	 8.577323120906620e-01	 1.245503634193591e+01
 1.626895601998760e+00	 8.956524827850925e-01	 1.240905394366543e+01
 1.605643936898378e+00	 9.332148642295568e-01	 1.235023710746568e+01
 1.583456774463209e+00	 9.703849101432068e-01	 1.227852426092099e+01
 1.560344399219624e+00	 1.007128305398779e+00	 1.219389444094534e+01
 1.536318751086516e+00	 1.043411064661160e+00	 1.209638410725034e+01
 1.511393414023586e+00	 1.079199631295529e+00	 1.198610496754317e+01
 1.485583597635527e+00	 1.114460975971175e+00	 1.186326251598565e+01
 1.458906111722985e+00	 1.149162694377905e+00	 1.172817493532746e+01
 1.704401724853298e+00	 7.899685160469485e-01	 1.247546018216792e+01
 1.685789369641388e+00	 8.289447911844039e-01	 1.245591407949695e+01
 1.666209569782980e+00	 8.676293455707107e-01	 1.242431819817966e+01
 1.645667706083966e+00	 9.059870620978392e-01	 1.238052851577101e+01
 1.624170826435769e+00	 9.439828609865253e-01	 1.232441239281103e+01
 1.601727655119481e+00	 9.815817973400711e-01	 1.225586347308395e+01
 1.578348595330558e+00	 1.018749160082554e+00	 1.217481811770388e+01
 1.554045724757896e+00	 1.055450571735541e+00	 1.208127317622494e+01
 1.528832784101138e+00	 1.091652088467495e+00	 1.197530484360320e+01
 1.502725158462590e+00	 1.127320299835344e+00	 1.185708829651337e+01
 1.475739851604538e+00	 1.162422427628394e+00	 1.172691774801348e+01
 1.723843847738756e+00	 7.989796926624607e-01	 1.244398700853462e+01
 1.705019181255459e+00	 8.384005704539781e-01	 1.242526625550005e+01
 1.685216034477503e+00	 8.775263998336159e-01	 1.239516575018928e+01
 1.664439849589679e+00	 9.163216631122383e-01	 1.235348067661106e+01
 1.642697754878762e+00	 9.547508803552882e-01	 1.230001547693412e+01
 1.619998574143785e+00	 9.927787080493798e-01	 1.223459962373560e+01
 1.596352829249539e+00	 1.030370039169098e+00	 1.215710503340716e+01
 1.571772735655205e+00	 1.067490104091865e+00	 1.206746492221530e+01
 1.546272190800694e+00	 1.104104571788615e+00	 1.196569384902961e+01
 1.519866755286288e+00	 1.140179650703110e+00	 1.185190862988540e+01
 1.492573626836324e+00	 1.175682188723374e+00	 1.172634975119867e+01
 1.743286006915225e+00	 8.079908860981183e-01	 1.241425514323605e+01
 1.724249028764236e+00	 8.478563673735590e-01	 1.239621619291980e+01
 1.704222534649843e+00	 8.874234725701906e-01	 1.236752533880088e+01
 1.683212028135843e+00	 9.266562834170260e-01	 1.232790301771832e+01
 1.661224717904513e+00	 9.655189198234653e-01	 1.227707428836978e+01
 1.638269527273011e+00	 1.003975639658689e+00	 1.221478554737398e+01
 1.614357096775676e+00	 1.041990939947049e+00	 1.214082301974625e+01
 1.589499779642234e+00	 1.079529658921092e+00	 1.205503282413564e+01
 1.563711630053150e+00	 1.116557078353497e+00	 1.195734235220385e+01
 1.537008384107012e+00	 1.153039025574149e+00	 1.184778263873872e+01
 1.509407433490556e+00	 1.188941974569088e+00	 1.172651133645275e+01
 1.762728197846329e+00	 8.170020942514019e-01	 1.238610287520872e+01
 1.743478907680883e+00	 8.573121797369063e-01	 1.236866903611603e+01
 1.723229065865272e+00	 8.973205614712504e-01	 1.234135774559874e+01
 1.701984237342403e+00	 9.369909206009391e-01	 1.230380112038383e+01
 1.679751711190180e+00	 9.762869768786756e-01	 1.225562879409840e+01
 1.656540510244046e+00	 1.015172589555555e+00	 1.219648564610959e+01
 1.632361393708079e+00	 1.053611859705047e+00	 1.212605146379513e+01
 1.607226852582776e+00	 1.091569233414182e+00	 1.204406233807389e+01
 1.581151097789407e+00	 1.129009605256747e+00	 1.195033352719705e+01
 1.554150040925147e+00	 1.165898421448132e+00	 1.184478345665384e+01
 1.526241267639453e+00	 1.202201782071776e+00	 1.172745845565182e+01
 1.782170415995694e+00	 8.260133150197916e-01	 1.235938633134304e+01
 1.762708813518560e+00	 8.667680053377796e-01	 1.234254538726209e+01
 1.742235623689065e+00	 9.072176642276093e-01	 1.231663733201877e+01
 1.720756472829302e+00	 9.473255722527139e-01	 1.228119275718174e+01
 1.698278730412917e+00	 9.870550490085385e-01	 1.223573023798985e+01
 1.674811518793775e+00	 1.026369555127533e+00	 1.217977514099710e+01
 1.650365715845859e+00	 1.065232795731732e+00	 1.211288054978471e+01
 1.624953950340622e+00	 1.103608824762093e+00	 1.203465010875516e+01
 1.598590589940360e+00	 1.141462149592976e+00	 1.194476251596168e+01
 1.571291721741080e+00	 1.178757835324731e+00	 1.184299732399710e+01
 1.543075125355226e+00	 1.215461608137680e+00	 1.172926163535819e+01
 1.801612656826940e+00	 8.350245463007669e-01	 1.233397846328851e+01
 1.781938741790431e+00	 8.762238419699399e-01	 1.231778040172925e+01
 1.761242203686495e+00	 9.171147785300816e-01	 1.229335121707810e+01
 1.739528730216487e+00	 9.576602359610873e-01	 1.226010712696785e+01
 1.716805771249882e+00	 9.978231337006733e-01	 1.221744040926959e+01
 1.693082548659087e+00	 1.037566533762180e+00	 1.216473935155586e+01
 1.668370058988125e+00	 1.076853745315740e+00	 1.210141052875820e+01
 1.642681068779564e+00	 1.115648430155785e+00	 1.202690321000634e+01
 1.616030102436909e+00	 1.153914708456790e+00	 1.194073562196529e+01
 1.588433422555199e+00	 1.191617264203621e+00	 1.184252271885287e+01
 1.559909002710091e+00	 1.228721449673042e+00	 1.173200503102568e+01
 1.821054915803694e+00	 8.440357859918090e-01	 1.230976808452913e+01
 1.801168688009655e+00	 8.856796874271466e-01	 1.229432292562350e+01
 1.780248801422833e+00	 9.270119020694817e-01	 1.227149849084566e+01
 1.758301005123898e+00	 9.679949093147947e-01	 1.224058412085144e+01
 1.735332829378233e+00	 1.008591228442700e+00	 1.220083093876503e+01
 1.711353595576871e+00	 1.048763522847052e+00	 1.215147300137391e+01
 1.686374418933987e+00	 1.088474705745714e+00	 1.209175101402592e+01
 1.660408203763395e+00	 1.127688046786220e+00	 1.202093841205609e+01
 1.633469631209950e+00	 1.166367278942797e+00	 1.193836953291799e+01
 1.605575139367890e+00	 1.204476705084473e+00	 1.184346952042520e+01
 1.576742895776263e+00	 1.241981303584101e+00	 1.173578551805652e+01
 1.840497188389576e+00	 8.530470319903963e-01	 1.228665895401328e+01
 1.820398647689395e+00	 8.951355395031599e-01	 1.227213467235968e+01
 1.799255412463354e+00	 9.369090325366246e-01	 1.225108946101257e+01
 1.777073293171482e+00	 9.783295899025729e-01	 1.222267361685203e+01
 1.753859900475124e+00	 1.019359330722237e+00	 1.218598262087938e+01
 1.729624655284013e+00	 1.059960519769706e+00	 1.214007954786877e+01
 1.704378791482555e+00	 1.100095674310290e+00	 1.208402030051338e+01
 1.678135351155906e+00	 1.139727671844354e+00	 1.201688147368834e+01
 1.650909172190383e+00	 1.178819858145604e+00	 1.193779057044447e+01
 1.622716868179541e+00	 1.217336154966959e+00	 1.184595820251003e+01
 1.593576800625957e+00	 1.255241166777101e+00	 1.174071181698687e+01
 1.859939470048212e+00	 8.620582821940106e-01	 1.226456890293359e+01
 1.839628616342812e+00	 9.045913959917403e-01	 1.225118943541812e+01
 1.818262032373329e+00	 9.468061676223235e-01	 1.223214493014214e+01
 1.795845589979181e+00	 9.886642753131590e-01	 1.220643480114378e+01
 1.772386980217713e+00	 1.030127438026905e+00	 1.217298475941243e+01
 1.747895723517399e+00	 1.071157521917696e+00	 1.213067053443906e+01
 1.722383172432940e+00	 1.111716648298109e+00	 1.207834470625658e+01
 1.695862506820890e+00	 1.151767302521149e+00	 1.201486645743196e+01
 1.668348721309104e+00	 1.191272443159819e+00	 1.193913396473107e+01
 1.639858604990538e+00	 1.230195610850753e+00	 1.185011905483977e+01
 1.610410713331387e+00	 1.268501036158282e+00	 1.174690365030605e+01
 1.879381756243224e+00	 8.710695345001308e-01	 1.224342900153391e+01
 1.858858589483066e+00	 9.140472546866473e-01	 1.223147233466571e+01
 1.837268656718033e+00	 9.567033050173938e-01	 1.221469550137965e+01
 1.814617891166941e+00	 9.989989631352880e-01	 1.219193551396397e+01
 1.790914064283155e+00	 1.040895547844322e+00	 1.216193453550326e+01
 1.766166796013919e+00	 1.082354526678580e+00	 1.212336496338743e+01
 1.740387557584249e+00	 1.123337624997809e+00	 1.207485793444252e+01
 1.713589666622138e+00	 1.163806936007564e+00	 1.201503506612124e+01
 1.685788274497012e+00	 1.203725031080052e+00	 1.194254315234160e+01
 1.657000345801269e+00	 1.243055069735527e+00	 1.185609143028447e+01
 1.627244629964768e+00	 1.281760908633884e+00	 1.175449092862114e+01
 1.458906111722985e+00	 1.149162694377905e+00	 1.172817493532746e+01
 1.431379329760570e+00	 1.183273106679658e+00	 1.157896960799618e+01
 1.403023137342918e+00	 1.216761361313720e+00	 1.141392665366242e+01
 1.373858898314375e+00	 1.249597516853523e+00	 1.123334190532136e+01
 1.343909406260533e+00	 1.281752627102357e+00	 1.103663344454738e+01
 1.313198825663916e+00	 1.313198825663916e+00	 1.082330193819464e+01
 1.281752627102357e+00	 1.343909406260533e+00	 1.059299319612604e+01
 1.249597516853523e+00	 1.373858898314376e+00	 1.034555229883015e+01
 1.216761361313719e+00	 1.403023137342919e+00	 1.008107406298448e+01
 1.183273106679656e+00	 1.431379329760570e+00	 9.800068190963360e+00
 1.149162694377906e+00	 1.458906111722986e+00	 9.517263950386965e+00
 1.475739851604538e+00	 1.162422427628394e+00	 1.172691774801348e+01
 1.447895449005847e+00	 1.196926426469505e+00	 1.158266683033865e+01
 1.419212065713156e+00	 1.230801088812003e+00	 1.142182353016102e+01
 1.389711312079752e+00	 1.264016127747054e+00	 1.124484868109171e+01
 1.359416244697382e+00	 1.296542263079248e+00	 1.105124237462116e+01
 1.328351306872967e+00	 1.328351306872967e+00	 1.084026101839523e+01
 1.296542263079247e+00	 1.359416244697383e+00	 1.061130561113060e+01
 1.264016127747053e+00	 1.389711312079752e+00	 1.036398186557609e+01
 1.230801088812002e+00	 1.419212065713157e+00	 1.009815659911540e+01
 1.196926426469505e+00	 1.447895449005847e+00	 9.819810730975872e+00
 1.162422427628394e+00	 1.475739851604539e+00	 9.546865946836803e+00
 1.492573626836324e+00	 1.175682188723374e+00	 1.172634975119867e+01
 1.464411602934357e+00	 1.210579774930417e+00	 1.158657190505340e+01
 1.435401028079517e+00	 1.244840845792851e+00	 1.142958171182127e+01
 1.405563759134548e+00	 1.278434768918852e+00	 1.125527948292100e+01
 1.374923115697910e+00	 1.311331930113606e+00	 1.106365631577374e+01
 1.343503819901505e+00	 1.343503819901506e+00	 1.085378367169552e+01
 1.311331930113606e+00	 1.374923115697911e+00	 1.062484589947208e+01
 1.278434768918852e+00	 1.405563759134548e+00	 1.037623983075042e+01
 1.244840845792851e+00	 1.435401028079517e+00	 1.010835173143908e+01
 1.210579774930417e+00	 1.464411602934357e+00	 9.839017442740870e+00
 1.175682188723374e+00	 1.492573626836323e+00	 9.574946577849726e+00
 1.509407433490556e+00	 1.188941974569088e+00	 1.172651133645275e+01
 1.480927787692433e+00	 1.224233148876792e+00	 1.159070960945795e+01
 1.451590020664685e+00	 1.258880628980495e+00	 1.143694440080927e+01
 1.421416235779977e+00	 1.292853437004733e+00	 1.126466641808468e+01
 1.390430015643976e+00	 1.326121624754662e+00	 1.107392336582334e+01
 1.358656361214085e+00	 1.358656361214087e+00	 1.086394344895454e+01
 1.326121624754662e+00	 1.390430015643976e+00	 1.063372106322704e+01
 1.292853437004733e+00	 1.421416235779978e+00	 1.038247313459532e+01
 1.258880628980495e+00	 1.451590020664685e+00	 1.011785994307896e+01
 1.224233148876792e+00	 1.480927787692433e+00	 9.857895026435342e+00
 1.188941974569088e+00	 1.509407433490556e+00	 9.601770688327655e+00
 1.526241267639453e+00	 1.202201782071776e+00	 1.172745845565182e+01
 1.497443999426406e+00	 1.237886545123029e+00	 1.159512170146964e+01
 1.467779039691343e+00	 1.272920435099163e+00	 1.144388771589018e+01
 1.437268738317254e+00	 1.307272128640509e+00	 1.127301780709995e+01
 1.405936940917438e+00	 1.340911343551647e+00	 1.108211057623361e+01
 1.373808927275264e+00	 1.373808927275264e+00	 1.087083268746448e+01
 1.340911343551646e+00	 1.405936940917438e+00	 1.063805634458737e+01
 1.307272128640508e+00	 1.437268738317254e+00	 1.038398875262220e+01
 1.272920435099163e+00	 1.467779039691344e+00	 1.012819524334288e+01
 1.237886545123029e+00	 1.497443999426407e+00	 9.876643387692397e+00
 1.202201782071776e+00	 1.526241267639452e+00	 9.627594101697547e+00
 1.543075125355226e+00	 1.215461608137680e+00	 1.172926163535819e+01
 1.513960234282610e+00	 1.251539960483528e+00	 1.159986586333559e+01
 1.483968081382178e+00	 1.286960260873083e+00	 1.145046802094842e+01
 1.453121263047592e+00	 1.321690840461992e+00	 1.128018812187398e+01
 1.421443887900158e+00	 1.355701083053790e+00	 1.108830268389558e+01
 1.388961514549593e+00	 1.388961514549594e+00	 1.087456131683803e+01
 1.355701083053789e+00	 1.421443887900159e+00	 1.063799413138133e+01
 1.321690840461992e+00	 1.453121263047593e+00	 1.038664958331046e+01
 1.286960260873083e+00	 1.483968081382179e+00	 1.013950143934154e+01
 1.251539960483527e+00	 1.513960234282610e+00	 9.895455527836923e+00
 1.215461608137680e+00	 1.543075125355226e+00	 9.652663640356920e+00
 1.559909002710091e+00	 1.228721449673042e+00	 1.173200503102568e+01
 1.530476488407374e+00	 1.265193391772687e+00	 1.160501468933972e+01
 1.500157141959871e+00	 1.301000103026487e+00	 1.145675738671664e+01
 1.468973806272207e+00	 1.336109569104999e+00	 1.128622986999868e+01
 1.436950852973994e+00	 1.370490839810321e+00	 1.109257268565675e+01
 1.404114119501630e+00	 1.404114119501630e+00	 1.087525570608516e+01
 1.370490839810321e+00	 1.436950852973994e+00	 1.063472903110095e+01
 1.336109569104998e+00	 1.468973806272207e+00	 1.039134067676781e+01
 1.301000103026486e+00	 1.500157141959872e+00	 1.015191714357137e+01
 1.265193391772686e+00	 1.530476488407374e+00	 9.914517449234944e+00
 1.228721449673041e+00	 1.559909002710091e+00	 9.677217152346712e+00
 1.576742895776263e+00	 1.241981303584101e+00	 1.173578551805652e+01
 1.546992757947030e+00	 1.278846835804903e+00	 1.161065471420316e+01
 1.516346217647111e+00	 1.315039958283603e+00	 1.146284258656542e+01
 1.484826364292312e+00	 1.350528311205340e+00	 1.129123972281479e+01
 1.452457832520805e+00	 1.385280610370470e+00	 1.109489088861081e+01
 1.419266738595926e+00	 1.419266738595926e+00	 1.087305754880215e+01
 1.385280610370470e+00	 1.452457832520806e+00	 1.063373729937433e+01
 1.350528311205339e+00	 1.484826364292312e+00	 1.039815493757712e+01
 1.315039958283602e+00	 1.516346217647111e+00	 1.016557558990239e+01
 1.278846835804903e+00	 1.546992757947030e+00	 9.934008074630874e+00
 1.241981303584101e+00	 1.576742895776263e+00	 9.701483543789021e+00
 1.593576800625957e+00	 1.255241166777101e+00	 1.174071181698687e+01
 1.563509039047912e+00	 1.292500289394579e+00	 1.161688547917060e+01
 1.532535304666578e+00	 1.329079823368659e+00	 1.146882413175127e+01
 1.500678933409121e+00	 1.364947063398830e+00	 1.129532842170899e+01
 1.467964822922453e+00	 1.400070391283467e+00	 1.109536588883393e+01
 1.434419368297037e+00	 1.434419368297038e+00	 1.086860270639091e+01
 1.400070391283467e+00	 1.467964822922453e+00	 1.063584065903900e+01
 1.364947063398829e+00	 1.500678933409122e+00	 1.040718113696428e+01
 1.329079823368658e+00	 1.532535304666579e+00	 1.018060446949305e+01
 1.292500289394578e+00	 1.563509039047913e+00	 9.954099179441346e+00
 1.255241166777101e+00	 1.593576800625956e+00	 9.725682816666597e+00
 1.610410713331387e+00	 1.268501036158282e+00	 1.174690365030605e+01
 1.580025327856351e+00	 1.306153749356111e+00	 1.162381863302760e+01
 1.548724399240959e+00	 1.343119695005886e+00	 1.147481534323736e+01
 1.516531509923849e+00	 1.379365822321282e+00	 1.129861984572371e+01
 1.483471820560796e+00	 1.414860179098542e+00	 1.109414009031545e+01
 1.449572005069518e+00	 1.449572005069519e+00	 1.086680844361993e+01
 1.414860179098542e+00	 1.483471820560796e+00	 1.064109187071285e+01
 1.379365822321282e+00	 1.516531509923851e+00	 1.041850368790210e+01
 1.343119695005886e+00	 1.548724399240959e+00	 1.019712578517692e+01
 1.306153749356111e+00	 1.580025327856351e+00	 9.974955336060894e+00
 1.268501036158281e+00	 1.610410713331387e+00	 9.750026111555908e+00
 1.627244629964768e+00	 1.281760908633884e+00	 1.175449092862114e+01
 1.596541620518678e+00	 1.319807212503900e+00	 1.163157706552201e+01
 1.564913497592937e+00	 1.357159569919514e+00	 1.148094145744174e+01
 1.532384090137712e+00	 1.393784584608510e+00	 1.130125011318543e+01
 1.498978821817692e+00	 1.429649970364926e+00	 1.109138342117506e+01
 1.464724645377923e+00	 1.464724645377924e+00	 1.086894342675868e+01
 1.429649970364925e+00	 1.498978821817692e+00	 1.064954006980667e+01
 1.393784584608510e+00	 1.532384090137712e+00	 1.043220244265286e+01
 1.357159569919513e+00	 1.564913497592937e+00	 1.021525572298735e+01
 1.319807212503899e+00	 1.596541620518678e+00	 9.996733869312559e+00
 1.281760908633884e+00	 1.627244629964768e+00	 9.774715754958073e+00
 1.149162694377906e+00	 1.458906111722986e+00	 9.517263950386965e+00
 1.114460975971175e+00	 1.485583597635528e+00	 9.237612175184793e+00
 1.079199631295528e+00	 1.511393414023587e+00	 8.956499317357251e+00
 1.043411064661159e+00	 1.536318751086516e+00	 8.673860644609251e+00
 1.007128305398779e+00	 1.560344399219625e+00	 8.389650800104405e+00
 9.703849101432062e-01	 1.583456774463210e+00	 8.103842317478859e+00
 9.332148642295562e-01	 1.605643936898379e+00	 7.816423648279120e+00
 8.956524827850918e-01	 1.626895601998761e+00	 7.527396722960432e+00
 8.577323120906617e-01	 1.647203145001002e+00	 7.236774062451026e+00
 8.194890317710750e-01	 1.666559598408866e+00	 6.944575453218530e+00
 7.809573583541024e-01	 1.684959642795230e+00	 6.650824195335861e+00
 1.162422427628394e+00	 1.475739851604539e+00	 9.546865946836803e+00
 1.127320299835343e+00	 1.502725158462590e+00	 9.275331201429777e+00
 1.091652088467494e+00	 1.528832784101138e+00	 9.000710100005294e+00
 1.055450571735540e+00	 1.554045724757897e+00	 8.723123572864136e+00
 1.018749160082554e+00	 1.578348595330559e+00	 8.442729596421591e+00
 9.815817973400707e-01	 1.601727655119481e+00	 8.159719853061709e+00
 9.439828609865246e-01	 1.624170826435769e+00	 7.874315832846872e+00
 9.059870620978389e-01	 1.645667706083967e+00	 7.586764418175409e+00
 8.676293455707101e-01	 1.666209569782980e+00	 7.297332987297278e+00
 8.289447911844033e-01	 1.685789369641389e+00	 7.006304067223878e+00
 7.899685160469486e-01	 1.704401724853299e+00	 6.713969561648470e+00
 1.175682188723374e+00	 1.492573626836323e+00	 9.574946577849726e+00
 1.140179650703110e+00	 1.519866755286289e+00	 9.310695038678999e+00
 1.104104571788615e+00	 1.546272190800694e+00	 9.041925607760291e+00
 1.067490104091864e+00	 1.571772735655205e+00	 8.768930065304424e+00
 1.030370039169098e+00	 1.596352829249539e+00	 8.492053580222166e+00
 9.927787080493794e-01	 1.619998574143786e+00	 8.211689653219048e+00
 9.547508803552879e-01	 1.642697754878762e+00	 7.928274439862729e+00
 9.163216631122378e-01	 1.664439849589679e+00	 7.642280513329739e+00
 8.775263998336150e-01	 1.685216034477503e+00	 7.354210120173202e+00
 8.384005704539776e-01	 1.705019181255459e+00	 7.064587975658711e+00
 7.989796926624605e-01	 1.723843847738756e+00	 6.773953638724199e+00
 1.188941974569088e+00	 1.509407433490556e+00	 9.601770688327655e+00
 1.153039025574149e+00	 1.537008384107013e+00	 9.344024300039262e+00
 1.116557078353496e+00	 1.563711630053150e+00	 9.080513625583604e+00
 1.079529658921091e+00	 1.589499779642234e+00	 8.811686958219525e+00
 1.041990939947049e+00	 1.614357096775676e+00	 8.538061018393911e+00
 1.003975639658688e+00	 1.638269527273011e+00	 8.260214315414718e+00
 9.655189198234646e-01	 1.661224717904514e+00	 7.978779835953961e+00
 9.266562834170257e-01	 1.683212028135843e+00	 7.694437136402589e+00
 8.874234725701901e-01	 1.704222534649843e+00	 7.407903908410095e+00
 8.478563673735584e-01	 1.724249028764236e+00	 7.119927078608931e+00
 8.079908860981183e-01	 1.743286006915225e+00	 6.831273495360602e+00
 1.202201782071776e+00	 1.526241267639452e+00	 9.627594101697547e+00
 1.165898421448131e+00	 1.554150040925147e+00	 9.375628480273168e+00
 1.129009605256747e+00	 1.581151097789408e+00	 9.116829124653561e+00
 1.091569233414181e+00	 1.607226852582776e+00	 8.851786955713937e+00
 1.053611859705047e+00	 1.632361393708079e+00	 8.581175078408803e+00
 1.015172589555554e+00	 1.656540510244046e+00	 8.305740694391154e+00
 9.762869768786748e-01	 1.679751711190179e+00	 8.026296297124940e+00
 9.369909206009385e-01	 1.701984237342403e+00	 7.743710242569929e+00
 8.973205614712498e-01	 1.723229065865273e+00	 7.458896779358824e+00
 8.573121797369054e-01	 1.743478907680883e+00	 7.172805612387895e+00
 8.170020942514019e-01	 1.762728197846329e+00	 6.886411063801232e+00
 1.215461608137680e+00	 1.543075125355226e+00	 9.652663640356920e+00
 1.178757835324731e+00	 1.571291721741080e+00	 9.405806100156671e+00
 1.141462149592975e+00	 1.598590589940361e+00	 9.151214509635025e+00
 1.103608824762092e+00	 1.624953950340622e+00	 8.889608960306713e+00
 1.065232795731731e+00	 1.650365715845860e+00	 8.621804224155849e+00
 1.026369555127532e+00	 1.674811518793775e+00	 8.348700346682497e+00
 9.870550490085379e-01	 1.698278730412917e+00	 8.071272486989709e+00
 9.473255722527137e-01	 1.720756472829303e+00	 7.790560112829365e+00
 9.072176642276085e-01	 1.742235623689066e+00	 7.507655647744205e+00
 8.667680053377792e-01	 1.762708813518561e+00	 7.223692655644133e+00
 8.260133150197916e-01	 1.782170415995694e+00	 6.939833636322472e+00
 1.228721449673041e+00	 1.559909002710091e+00	 9.677217152346712e+00
 1.191617264203620e+00	 1.588433422555199e+00	 9.434844848563282e+00
 1.153914708456789e+00	 1.616030102436909e+00	 9.183999856518007e+00
 1.115648430155785e+00	 1.642681068779564e+00	 8.925518388200318e+00
 1.076853745315740e+00	 1.668370058988126e+00	 8.660342591710780e+00
 1.037566533762179e+00	 1.693082548659087e+00	 8.389509951405245e+00
 9.978231337006730e-01	 1.716805771249883e+00	 8.114141908599034e+00
 9.576602359610864e-01	 1.739528730216486e+00	 7.835431824411097e+00
 9.171147785300811e-01	 1.761242203686496e+00	 7.554632393768834e+00
 8.762238419699393e-01	 1.781938741790431e+00	 7.273042605849277e+00
 8.350245463007668e-01	 1.801612656826940e+00	 6.991994332390528e+00
 1.241981303584101e+00	 1.576742895776263e+00	 9.701483543789021e+00
 1.204476705084472e+00	 1.605575139367891e+00	 9.463021722447355e+00
 1.166367278942796e+00	 1.633469631209951e+00	 9.215503141732619e+00
 1.127688046786219e+00	 1.660408203763395e+00	 8.959867470366882e+00
 1.088474705745714e+00	 1.686374418933987e+00	 8.697170346544610e+00
 1.048763522847052e+00	 1.711353595576872e+00	 8.428571709102034e+00
 1.008591228442700e+00	 1.735332829378234e+00	 8.155323331836893e+00
 9.679949093147937e-01	 1.758301005123898e+00	 7.878755695084651e+00
 9.270119020694810e-01	 1.780248801422833e+00	 7.600264314153259e+00
 8.856796874271460e-01	 1.801168688009655e+00	 7.321295628379785e+00
 8.440357859918088e-01	 1.821054915803693e+00	 7.043332538588780e+00
 1.255241166777101e+00	 1.593576800625956e+00	 9.725682816666597e+00
 1.217336154966959e+00	 1.622716868179541e+00	 9.490603164884540e+00
 1.178819858145603e+00	 1.650909172190383e+00	 9.246030463188150e+00
 1.139727671844354e+00	 1.678135351155907e+00	 8.992995540502749e+00
 1.100095674310289e+00	 1.704378791482556e+00	 8.732654023544935e+00
 1.059960519769705e+00	 1.729624655284013e+00	 8.466273720262500e+00
 1.019359330722237e+00	 1.753859900475125e+00	 8.195221198195075e+00
 9.783295899025725e-01	 1.777073293171482e+00	 7.920947703293626e+00
 9.369090325366237e-01	 1.799255412463354e+00	 7.644974548115849e+00
 8.951355395031593e-01	 1.820398647689395e+00	 7.368878080221306e+00
 8.530470319903964e-01	 1.840497188389576e+00	 7.094274323330866e+00
 1.268501036158281e+00	 1.610410713331387e+00	 9.750026111555908e+00
 1.230195610850753e+00	 1.639858604990539e+00	 9.517845201314421e+00
 1.191272443159819e+00	 1.668348721309105e+00	 9.275876253829582e+00
 1.151767302521148e+00	 1.695862506820890e+00	 9.025229310814783e+00
 1.111716648298108e+00	 1.722383172432940e+00	 8.767146851110500e+00
 1.071157521917696e+00	 1.747895723517399e+00	 8.502990345011190e+00
 1.030127438026904e+00	 1.772386980217713e+00	 8.234226004582595e+00
 9.886642753131583e-01	 1.795845589979182e+00	 7.962409885889063e+00
 9.468061676223229e-01	 1.818262032373330e+00	 7.689172480127345e+00
 9.045913959917398e-01	 1.839628616342812e+00	 7.416202910153638e+00
 8.620582821940106e-01	 1.859939470048212e+00	 7.145232828205199e+00
 1.281760908633884e+00	 1.627244629964768e+00	 9.774715754958073e+00
 1.243055069735527e+00	 1.657000345801269e+00	 9.544993574117797e+00
 1.203725031080051e+00	 1.685788274497013e+00	 9.305323488255569e+00
 1.163806936007563e+00	 1.713589666622138e+00	 9.056883136521288e+00
 1.123337624997809e+00	 1.740387557584249e+00	 8.800989060473769e+00
 1.082354526678579e+00	 1.766166796013919e+00	 8.539082545327197e+00
 1.040895547844321e+00	 1.790914064283156e+00	 8.272714667690099e+00
 9.989989631352876e-01	 1.814617891166942e+00	 8.003530715084480e+00
 9.567033050173931e-01	 1.837268656718033e+00	 7.733254121123450e+00
 9.140472546866468e-01	 1.858858589483067e+00	 7.463670037121055e+00
 8.710695345001309e-01	 1.879381756243224e+00	 7.196608637644921e+00
 7.809573583541024e-01	 1.684959642795230e+00	 6.650824195335861e+00
 7.421746719611046e-01	 1.702398405748905e+00	 6.359705727334616e+00
 7.031727782236229e-01	 1.718875141245223e+00	 6.075762496198899e+00
 6.639859295510238e-01	 1.734389365467405e+00	 5.799642897715165e+00
 6.246480533545917e-01	 1.748942143044666e+00	 5.532017344094545e+00
 5.851926696033319e-01	 1.762536048299222e+00	 5.273559705555989e+00
 5.456528123404050e-01	 1.775175121623439e+00	 5.024928703696593e+00
 5.060609554580128e-01	 1.786864821392816e+00	 4.786749400692945e+00
 4.664489429856349e-01	 1.797611971837010e+00	 4.559594928400656e+00
 4.268479241032159e-01	 1.807424707302928e+00	 4.343968601562009e+00
 3.872882930476569e-01	 1.816312413351174e+00	 4.140286559307060e+00
 7.899685160469486e-01	 1.704401724853299e+00	 6.713969561648470e+00
 7.507383315941218e-01	 1.722041706786691e+00	 6.424938004589394e+00
 7.112864104500525e-01	 1.738708560808818e+00	 6.143831273635964e+00
 6.716474002490942e-01	 1.754401797520338e+00	 5.871050638030132e+00
 6.318556198774976e-01	 1.769122493834808e+00	 5.607017033338798e+00
 5.919449760779159e-01	 1.782873253778531e+00	 5.352154634918145e+00
 5.519488840602548e-01	 1.795658164364369e+00	 5.106874280903130e+00
 5.119001924200984e-01	 1.807482746949860e+00	 4.871556867525259e+00
 4.718311126225743e-01	 1.818353904506750e+00	 4.646536842132598e+00
 4.317731532656797e-01	 1.828279865240958e+00	 4.432085922287311e+00
 3.917570592933806e-01	 1.837270123009362e+00	 4.228397172394936e+00
 7.989796926624605e-01	 1.723843847738756e+00	 6.773953638724199e+00
 7.593020092101597e-01	 1.741685049074432e+00	 6.487276609453589e+00
 7.194000597145590e-01	 1.758542022021641e+00	 6.209213745607993e+00
 6.793088870358278e-01	 1.774414271598466e+00	 5.939924415088029e+00
 6.390632015359996e-01	 1.789302887002826e+00	 5.679585201648546e+00
 5.986972967321857e-01	 1.803210501965179e+00	 5.428375628857573e+00
 5.582449690018323e-01	 1.816141250118972e+00	 5.186463631951229e+00
 5.177394416446899e-01	 1.828100715803918e+00	 4.953990878395929e+00
 4.772132935623017e-01	 1.839095880734015e+00	 4.731058043103475e+00
 4.366983927714694e-01	 1.849135066974389e+00	 4.517710150157166e+00
 3.962258349239570e-01	 1.858227876678418e+00	 4.313922099145513e+00
 8.079908860981183e-01	 1.743286006915225e+00	 6.831273495360604e+00
 7.678657028110917e-01	 1.761328428028801e+00	 6.547213270955472e+00
 7.275137241239994e-01	 1.778375520256003e+00	 6.272394978245151e+00
 6.869703881235610e-01	 1.794426783032323e+00	 6.006741015838273e+00
 6.462707966483204e-01	 1.809483317840069e+00	 5.750188455224730e+00
 6.054496299905661e-01	 1.823547788113904e+00	 5.502676936011291e+00
 5.645410656959918e-01	 1.836624374107953e+00	 5.264136208038285e+00
 5.235787017692134e-01	 1.848718723144213e+00	 5.034473398402803e+00
 4.825954845488706e-01	 1.859837895679079e+00	 4.813560089140168e+00
 4.416236414712388e-01	 1.869990307637065e+00	 4.601219300177131e+00
 4.006946188965311e-01	 1.879185669468245e+00	 4.397212481643260e+00
 8.170020942514019e-01	 1.762728197846329e+00	 6.886411063801232e+00
 7.764294103987915e-01	 1.780971839066468e+00	 6.605225194386293e+00
 7.356274017852302e-01	 1.798209050884207e+00	 6.333846152716930e+00
 6.946319017246304e-01	 1.814439327152442e+00	 6.071964012323691e+00
 6.534784035326823e-01	 1.829663781637883e+00	 5.819280891525803e+00
 6.122019742774807e-01	 1.843885107479449e+00	 5.575501042903629e+00
 5.708371726735894e-01	 1.857107531552014e+00	 5.340320489239816e+00
 5.294179714310955e-01	 1.869336764159963e+00	 5.113416260336765e+00
 4.879776843263354e-01	 1.880579944502219e+00	 4.894435295460689e+00
 4.465488982156418e-01	 1.890845582362831e+00	 4.682983088019521e+00
 4.051634101682481e-01	 1.900143496488748e+00	 4.478612161858889e+00
 8.260133150197916e-01	 1.782170415995694e+00	 6.939833636322472e+00
 7.849931299751333e-01	 1.800615277604106e+00	 6.661775544654772e+00
 7.437410908051082e-01	 1.818042609278566e+00	 6.394025034777599e+00
 7.022934260513709e-01	 1.834451899289357e+00	 6.136044216406723e+00
 6.606860205073066e-01	 1.849844273687616e+00	 5.887304537731956e+00
 6.189543280173545e-01	 1.864222455316552e+00	 5.647279094278051e+00
 5.771332884654787e-01	 1.877590717671858e+00	 5.415434384418011e+00
 5.352572492677622e-01	 1.889954834040390e+00	 5.191221541461744e+00
 4.933598916387497e-01	 1.901322022363710e+00	 4.974067085217323e+00
 4.514741618553322e-01	 1.911700886285531e+00	 4.763363250827314e+00
 4.096322076962525e-01	 1.921101352849829e+00	 4.558457968834478e+00
 8.350245463007668e-01	 1.801612656826940e+00	 6.991994332390528e+00
 7.935568595419912e-01	 1.820258739058387e+00	 6.717313900670288e+00
 7.518547892904897e-01	 1.837876190811385e+00	 6.453376415866737e+00
 7.099549593161204e-01	 1.854464494773603e+00	 6.199420106673415e+00
 6.678936458904158e-01	 1.870024789280614e+00	 5.954689762137801e+00
 6.257066896346114e-01	 1.884559826879955e+00	 5.718431287263243e+00
 5.834294116025148e-01	 1.898073927688186e+00	 5.489885606051860e+00
 5.410965339166404e-01	 1.910572927974714e+00	 5.268281916512059e+00
 4.987421052301673e-01	 1.922064124423826e+00	 5.052830317785047e+00
 4.563994312409638e-01	 1.932556214539009e+00	 4.842713847550467e+00
 4.141010104376896e-01	 1.942059233661392e+00	 4.637079987465539e+00
 8.440357859918088e-01	 1.821054915803693e+00	 7.043332538588780e+00
 8.021205971012392e-01	 1.839902218845981e+00	 6.772276682920818e+00
 7.599684953482307e-01	 1.857709790854971e+00	 6.512332527891392e+00
 7.176164997312134e-01	 1.874477108935713e+00	 6.262518229597313e+00
 6.751012780002318e-01	 1.890205323708224e+00	 6.021855660498008e+00
 6.324590575536765e-01	 1.904897217424397e+00	 5.789367241329200e+00
 5.897255406155534e-01	 1.918557156821703e+00	 5.564072021862964e+00
 5.469358240151559e-01	 1.931191041152156e+00	 5.344980988683872e+00
 5.041243238446420e-01	 1.942806245842842e+00	 5.131091596459792e+00
 4.613247052231904e-01	 1.953411562257110e+00	 4.921381540343321e+00
 4.185698173497043e-01	 1.963017134033341e+00	 4.714801810256532e+00
 8.530470319903964e-01	 1.840497188389576e+00	 7.094274323330866e+00
 8.106843406547507e-01	 1.859545712383560e+00	 6.827087556229275e+00
 7.680822070851889e-01	 1.877543404781634e+00	 6.571313433636981e+00
 7.252780455089873e-01	 1.894489737106221e+00	 6.325753576865322e+00
 6.823089151549768e-01	 1.910385872261793e+00	 6.089210419178857e+00
 6.392114301989736e-01	 1.925234622204618e+00	 5.860486345824785e+00
 5.960216740354481e-01	 1.939040400293112e+00	 5.638381984954520e+00
 5.527751182007359e-01	 1.951809168761937e+00	 5.421693600250206e+00
 5.095065462262280e-01	 1.963548381781033e+00	 5.209209557088435e+00
 4.662499826526660e-01	 1.974266924573678e+00	 4.999705858425114e+00
 4.230386273894415e-01	 1.983975049075579e+00	 4.791940773307831e+00
 8.620582821940106e-01	 1.859939470048212e+00	 7.145232828205199e+00
 8.192480882044003e-01	 1.879189215087796e+00	 6.882157809505197e+00
 7.761959226082200e-01	 1.897377027963681e+00	 6.630727394591576e+00
 7.329395948617772e-01	 1.914502374615661e+00	 6.389529940612421e+00
 6.895165556728725e-01	 1.930566430232668e+00	 6.157151656813136e+00
 6.459638059949274e-01	 1.945572036475360e+00	 5.932178086737614e+00
 6.023178103930545e-01	 1.959523653323115e+00	 5.713194644035191e+00
 5.586144151108060e-01	 1.972427305993276e+00	 5.498786124288946e+00
 5.148887711189789e-01	 1.984290527398675e+00	 5.287535139027545e+00
 4.711752623800443e-01	 1.995122296622557e+00	 5.078019445686138e+00
 4.275074395140459e-01	 2.004932973898010e+00	 4.868808177689566e+00
 8.710695345001309e-01	 1.879381756243224e+00	 7.196608637644921e+00
 8.278118377520619e-01	 1.898832722375362e+00	 6.937886714159557e+00
 7.843096400241808e-01	 1.917210655773421e+00	 6.690971217820094e+00
 7.406011460019200e-01	 1.934515016794567e+00	 6.454240248165068e+00
 6.967241978721410e-01	 1.950746992912197e+00	 6.226066746017026e+00
 6.527161833659616e-01	 1.965909455491361e+00	 6.004822354181325e+00
 6.086139482192269e-01	 1.980006911132415e+00	 5.788880235171781e+00
 5.644537133827929e-01	 1.993045448035395e+00	 5.576616738894050e+00
 5.202709972669484e-01	 2.005032677856041e+00	 5.366411839709832e+00
 4.761005432559790e-01	 2.015977673537592e+00	 5.156648293217741e+00
 4.319762526806628e-01	 2.025890903610537e+00	 4.945709497260038e+00
 3.872882930476569e-01	 1.816312413351174e+00	 4.140286559307060e+00
 3.477968796677059e-01	 1.824286191652841e+00	 3.949092584003839e+00
 3.084052185569802e-01	 1.831357091725543e+00	 3.772217797299659e+00
 2.691411726874370e-01	 1.837537878024554e+00	 3.611792429382983e+00
 2.300316578183539e-01	 1.842842308152661e+00	 3.469785981399301e+00
 1.911026079496569e-01	 1.847285064598040e+00	 3.347975023456768e+00
 1.523789458479289e-01	 1.850881685880502e+00	 3.247913729478912e+00
 1.138845585485418e-01	 1.853648497489467e+00	 3.170907337272162e+00
 7.564227770892655e-02	 1.855602542976825e+00	 3.117988689891158e+00
 3.767386466247289e-02	 1.856761515545723e+00	 3.089897980955478e+00
 0.000000000000000e+00	 1.857143690452778e+00	 3.087065792362849e+00
 3.917570592933806e-01	 1.837270123009362e+00	 4.228397172394936e+00
 3.518099701334236e-01	 1.845335907580847e+00	 4.036159871527192e+00
 3.119637842446042e-01	 1.852488395969041e+00	 3.857618644362346e+00
 2.722466860986674e-01	 1.858740499913217e+00	 3.695097755604444e+00
 2.326859020251668e-01	 1.864106135759700e+00	 3.550769457982887e+00
 1.933076652661726e-01	 1.868600155412089e+00	 3.426619241582242e+00
 1.541371861621911e-01	 1.872238276683024e+00	 3.324413858435424e+00
 1.151986273716257e-01	 1.875037013435292e+00	 3.245672331395560e+00
 7.651508399735146e-02	 1.877013605879581e+00	 3.191640123099642e+00
 3.810856846815684e-02	 1.878185951373907e+00	 3.163266606261604e+00
 0.000000000000000e+00	 1.878572536045842e+00	 3.161185940946404e+00
 3.962258349239570e-01	 1.858227876678418e+00	 4.313922099145513e+00
 3.558230690271570e-01	 1.866385667713046e+00	 4.120570282317827e+00
 3.155223574058037e-01	 1.873619744588180e+00	 3.940337792940397e+00
 2.753522060321015e-01	 1.879943166327401e+00	 3.775723685510692e+00
 2.353401518065299e-01	 1.885370008020897e+00	 3.629084893073921e+00
 1.955127272139285e-01	 1.889915290988044e+00	 3.502598996491648e+00
 1.558954301693282e-01	 1.893594912334690e+00	 3.398229791474845e+00
 1.165126989547401e-01	 1.896425574297374e+00	 3.317695883416665e+00
 7.738789211903384e-02	 1.898424713745996e+00	 3.262442506139740e+00
 3.854327318692184e-02	 1.899610432193868e+00	 3.233616725117720e+00
 0.000000000000000e+00	 1.900001426639956e+00	 3.232046148929758e+00
 4.006946188965311e-01	 1.879185669468245e+00	 4.397212481643257e+00
 3.598361754123613e-01	 1.887435467137861e+00	 4.202645340186958e+00
 3.190809372100795e-01	 1.894751132652334e+00	 4.020665561055676e+00
 2.784577317629480e-01	 1.901145872319824e+00	 3.853928417200111e+00
 2.379944065429488e-01	 1.906633919974680e+00	 3.704958120859897e+00
 1.977177932782478e-01	 1.911230466352363e+00	 3.576108179808405e+00
 1.576536774589355e-01	 1.914951587852261e+00	 3.469524557930323e+00
 1.178267729911433e-01	 1.917814175085018e+00	 3.387111891561470e+00
 7.826070187022530e-02	 1.919835861580110e+00	 3.330502978574416e+00
 3.897797871728502e-02	 1.921034953006521e+00	 3.301031720844076e+00
 0.000000000000000e+00	 1.921430357235003e+00	 3.299709662854279e+00
 4.051634101682481e-01	 1.900143496488748e+00	 4.478612161858887e+00
 3.638492883524924e-01	 1.908485300943716e+00	 4.282700292615537e+00
 3.226395228269336e-01	 1.915882555230876e+00	 4.098886982874532e+00
 2.815632625664154e-01	 1.922348612943207e+00	 3.929965792423172e+00
 2.406486656149288e-01	 1.927897866659472e+00	 3.778611449131658e+00
 1.999228629444538e-01	 1.932545676531499e+00	 3.647337857764127e+00
 1.594119276206082e-01	 1.936308298252500e+00	 3.538458903731460e+00
 1.191408491740935e-01	 1.939202810807529e+00	 3.454052324974442e+00
 7.913351304717732e-02	 1.941247044385958e+00	 3.395926890404023e+00
 3.941268495776349e-02	 1.942459508812778e+00	 3.365593086355998e+00
 0.000000000000000e+00	 1.942859322830867e+00	 3.364237473736211e+00
 4.096322076962525e-01	 1.921101352849829e+00	 4.558457968834478e+00
 3.678624069110055e-01	 1.929535164219033e+00	 4.361044361901971e+00
 3.261981134258671e-01	 1.937014007393181e+00	 4.175282024199232e+00
 2.846687977177125e-01	 1.943551383250271e+00	 4.004085478393794e+00
 2.433029284029759e-01	 1.949161843113704e+00	 3.850263810935456e+00
 2.021279356978695e-01	 1.953860916551905e+00	 3.716476397709584e+00
 1.611701802439418e-01	 1.957665038552166e+00	 3.605191399232382e+00
 1.204549271968491e-01	 1.960591476474211e+00	 3.518647320706875e+00
 8.000632544614156e-02	 1.962658257167580e+00	 3.458817897378566e+00
 3.984739180687441e-02	 1.963884094613554e+00	 3.427380528228679e+00
 0.000000000000000e+00	 1.964288318427431e+00	 3.425688441509844e+00
 4.141010104376896e-01	 1.942059233661392e+00	 4.637079987465539e+00
 3.718755301513562e-01	 1.950585052052235e+00	 4.437980980155996e+00
 3.297567081763816e-01	 1.958145484208620e+00	 4.250125784052635e+00
 2.877743364920479e-01	 1.964754178293735e+00	 4.076533137831136e+00
 2.459571942875953e-01	 1.970425844375802e+00	 3.920130906384621e+00
 2.043330110238182e-01	 1.975176181440039e+00	 3.783709586401433e+00
 1.629284349185315e-01	 1.979021803768024e+00	 3.669878540024440e+00
 1.217690067526685e-01	 1.981980167094370e+00	 3.581025274396728e+00
 8.087913886336957e-02	 1.984069494929014e+00	 3.519278050122093e+00
 4.028209916313489e-02	 1.985308705409761e+00	 3.486472064017632e+00
 0.000000000000000e+00	 1.985717339024578e+00	 3.484119411414154e+00
 4.185698173497043e-01	 1.963017134033341e+00	 4.714801810256532e+00
 3.758886571370000e-01	 1.971634959531745e+00	 4.513808009344417e+00
 3.333153062479784e-01	 1.979276980746566e+00	 4.323688683393242e+00
 2.908798781646300e-01	 1.985956993126318e+00	 4.147550588112621e+00
 2.486114626492926e-01	 1.991689865484191e+00	 3.988425335364307e+00
 2.065380884076232e-01	 1.996491466222354e+00	 3.849220740679206e+00
 1.646866912339727e-01	 2.000378588916834e+00	 3.732674841258772e+00
 1.230830875348099e-01	 2.003368877677309e+00	 3.641312925114160e+00
 8.175195309511292e-02	 2.005480752674295e+00	 3.577407877530769e+00
 4.071680692506207e-02	 2.006733336202315e+00	 3.542944113338673e+00
 0.000000000000000e+00	 2.007146379622192e+00	 3.539585322925199e+00
 4.230386273894415e-01	 1.983975049075579e+00	 4.791940773307836e+00
 3.799017869313923e-01	 1.992684881745986e+00	 4.588817947496096e+00
 3.368739068101589e-01	 2.000408492076393e+00	 4.396236641913918e+00
 2.939854220106676e-01	 2.007159822800741e+00	 4.217375950341706e+00
 2.512657328685733e-01	 2.012953901477299e+00	 4.055356721805326e+00
 2.087431673346076e-01	 2.017806765925305e+00	 3.913190811095399e+00
 1.664449487798605e-01	 2.021735389015359e+00	 3.793732925956934e+00
 1.243971692365318e-01	 2.024757603232335e+00	 3.699635434802542e+00
 8.262476793762319e-02	 2.026892025407465e+00	 3.633306464869094e+00
 4.115151499117305e-02	 2.028157981992126e+00	 3.596871583168351e+00
 0.000000000000000e+00	 2.028575435220155e+00	 3.592139311784711e+00
 4.275074395140459e-01	 2.004932973898010e+00	 4.868808177689568e+00
 3.839149185979886e-01	 2.013734813783382e+00	 4.663298122077603e+00
 3.404325090324246e-01	 2.021540013267473e+00	 4.468031243795942e+00
 2.970909673053693e-01	 2.028362662369725e+00	 4.286243789070768e+00
 2.539200043259432e-01	 2.034217947393556e+00	 4.121131830141983e+00
 2.109482472900945e-01	 2.039122075575346e+00	 3.975798479014638e+00
 1.682032071457904e-01	 2.043092199080359e+00	 3.853203607751467e+00
 1.257112515510925e-01	 2.046146338768752e+00	 3.756116462710985e+00
 8.349758318715192e-02	 2.048303308132558e+00	 3.687071526950623e+00
 4.158622325998498e-02	 2.049582637780111e+00	 3.648327947787832e+00
 0.000000000000000e+00	 2.050004500818354e+00	 3.641832805630837e+00
 4.319762526806628e-01	 2.025890903610537e+00	 4.945709497260035e+00
 3.879280512002444e-01	 2.034784750732353e+00	 4.737530871469668e+00
 3.439911120842769e-01	 2.042671539389181e+00	 4.539329893217920e+00
 3.001965133239438e-01	 2.049565506885989e+00	 4.354385243353353e+00
 2.565742764019076e-01	 2.055481998271383e+00	 4.185954674520903e+00
 2.131533277594072e-01	 2.060437390198932e+00	 4.037220247653943e+00
 1.699614659213576e-01	 2.064449014128598e+00	 3.911235968457769e+00
 1.270253341717502e-01	 2.067535079295862e+00	 3.810878235180486e+00
 8.437039863995066e-02	 2.069714595853613e+00	 3.738799476760627e+00
 4.202093163001498e-02	 2.071007298567183e+00	 3.697385323758155e+00
 0.000000000000000e+00	 2.071433571416667e+00	 3.688715613692682e+00
 2.071433571416667e+00	 0.000000000000000e+00	 1.150006363020545e+01
 2.071007298567182e+00	 4.202093163001555e-02	 1.156429144828429e+01
 2.069714595853613e+00	 8.437039863995120e-02	 1.161290950919192e+01
 2.067535079295861e+00	 1.270253341717507e-01	 1.165006921329173e+01
 2.064449014128598e+00	 1.699614659213580e-01	 1.167982102017949e+01
 2.060437390198933e+00	 2.131533277594077e-01	 1.170607428872089e+01
 2.055481998271383e+00	 2.565742764019078e-01	 1.173255675174038e+01
 2.049565506885989e+00	 3.001965133239439e-01	 1.176277394768147e+01
 2.042671539389180e+00	 3.439911120842769e-01	 1.179996895210993e+01
 2.034784750732354e+00	 3.879280512002444e-01	 1.184708277262079e+01
 2.025890903610537e+00	 4.319762526806628e-01	 1.190671579139820e+01
 2.092861143259980e+00	 0.000000000000000e+00	 1.145218882050994e+01
 2.092430460907677e+00	 4.245560959617669e-02	 1.151998222842883e+01
 2.091124386063405e+00	 8.524315304735298e-02	 1.157152215184579e+01
 2.088922323888666e+00	 1.283393248845102e-01	 1.161111347976662e+01
 2.085804335475403e+00	 1.717196017231107e-01	 1.164293293534808e+01
 2.081751214023634e+00	 2.153582540039962e-01	 1.167098672936606e+01
 2.076744561935723e+00	 2.592283628365182e-01	 1.169906796252746e+01
 2.070766868469550e+00	 3.033018421389237e-01	 1.173071411772189e+01
 2.063801587566209e+00	 3.475494662456074e-01	 1.176916500392034e+01
 2.055833215443013e+00	 3.919409031220824e-01	 1.181732153424622e+01
 2.046847367519760e+00	 4.364447532964779e-01	 1.187770574164100e+01
 2.114288717603178e+00	 0.000000000000000e+00	 1.140767276208798e+01
 2.113853625747539e+00	 4.289028761283678e-02	 1.147832186505550e+01
 2.112534178771003e+00	 8.611590755618896e-02	 1.153231392681289e+01
 2.110309570976637e+00	 1.296533157500447e-01	 1.157407530674629e+01
 2.107159659313644e+00	 1.734777377293525e-01	 1.160787217243490e+01
 2.103065040334922e+00	 2.175631805051277e-01	 1.163776601177218e+01
 2.098007128080660e+00	 2.618824495800294e-01	 1.166756904583507e+01
 2.091968232526561e+00	 3.064071713154292e-01	 1.170079990358738e+01
 2.084931638208360e+00	 3.511078208213174e-01	 1.174063993987315e+01
 2.076881682609269e+00	 3.959537555113420e-01	 1.178989059877989e+01
 2.067803833873838e+00	 4.409132544329041e-01	 1.185093224522584e+01
 2.135716296946142e+00	 0.000000000000000e+00	 1.136629437240384e+01
 2.135276795586136e+00	 4.332496573075953e-02	 1.143916087515638e+01
 2.133943976474208e+00	 8.698866226837164e-02	 1.149518867024096e+01
 2.131696823054944e+00	 1.309673069217738e-01	 1.153889457005157e+01
 2.128514988134760e+00	 1.752358741453403e-01	 1.157459845542649e+01
 2.124378871619384e+00	 2.197681075201961e-01	 1.160637669273983e+01
 2.119269699186794e+00	 2.645365369422423e-01	 1.163801564078725e+01
 2.113169601530469e+00	 3.095125012159048e-01	 1.167296562968321e+01
 2.106061693780753e+00	 3.546661762266980e-01	 1.171429581381390e+01
 2.097930154686715e+00	 3.999666088363301e-01	 1.176465032100392e+01
 2.088760305117629e+00	 4.453817566113962e-01	 1.182620614037784e+01
 2.157143883788756e+00	 0.000000000000000e+00	 1.132784026264746e+01
 2.156699972922836e+00	 4.375964400070866e-02	 1.140235534922162e+01
 2.155353781670824e+00	 8.786141728581350e-02	 1.146005440053935e+01
 2.153084082618757e+00	 1.322812985531171e-01	 1.150551461791434e+01
 2.149870324430184e+00	 1.769940111763303e-01	 1.154307490161978e+01
 2.145692710363607e+00	 2.219730353065954e-01	 1.157678722047118e+01
 2.140532277734722e+00	 2.671906252329570e-01	 1.161036829683878e+01
 2.134370977954724e+00	 3.126178322027947e-01	 1.164715201150489e+01
 2.127191756748507e+00	 3.582245328770406e-01	 1.169004295176463e+01
 2.118978634130946e+00	 4.039794635653531e-01	 1.174147154546007e+01
 2.109716783695988e+00	 4.498502603534081e-01	 1.180335124319055e+01
 2.178571480630902e+00	 0.000000000000000e+00	 1.129210435924999e+01
 2.178123160257006e+00	 4.419432247344785e-02	 1.136776669606308e+01
 2.176763596858654e+00	 8.873417271042701e-02	 1.142682314822270e+01
 2.174471352163239e+00	 1.335952907974939e-01	 1.147388214964049e+01
 2.171225670691354e+00	 1.787521490275793e-01	 1.151326791516962e+01
 2.167006559054178e+00	 2.241779641217194e-01	 1.154896981151262e+01
 2.161794866205041e+00	 2.698447147619743e-01	 1.158459230524662e+01
 2.155572364272776e+00	 3.157231646385434e-01	 1.162330591557034e+01
 2.148321829576744e+00	 3.617828911876364e-01	 1.166779961721709e+01
 2.140027123397559e+00	 4.079923201667177e-01	 1.172023515714043e+01
 2.130673272053770e+00	 4.543187661803940e-01	 1.178220376704476e+01
 2.199999089972466e+00	 0.000000000000000e+00	 1.125888754751952e+01
 2.199546360088013e+00	 4.462900119974082e-02	 1.133526140251993e+01
 2.198173424535506e+00	 8.960692864412469e-02	 1.139541079556874e+01
 2.195858634183561e+00	 1.349092838083238e-01	 1.144394710106363e+01
 2.192581029409706e+00	 1.805102879043437e-01	 1.148514708631390e+01
 2.188320420177683e+00	 2.263828942229620e-01	 1.152290033402720e+01
 2.183057467078351e+00	 2.724988058390951e-01	 1.156065753913406e+01
 2.176773762958072e+00	 3.188284988855949e-01	 1.160138013165406e+01
 2.169451914730584e+00	 3.653412515737767e-01	 1.164749169371227e+01
 2.161075624942148e+00	 4.120051791087305e-01	 1.170083165554030e+01
 2.151629772635832e+00	 4.587872746138076e-01	 1.176261177236775e+01
 2.221426714313330e+00	 0.000000000000000e+00	 1.122799733590300e+01
 2.220969574915227e+00	 4.506368023035131e-02	 1.130471080704110e+01
 2.219583267199179e+00	 9.047968518881908e-02	 1.136573692542682e+01
 2.217245931174891e+00	 1.362232777390264e-01	 1.141566253633120e+01
 2.213936403076679e+00	 1.822684280118800e-01	 1.145868509589306e+01
 2.209634296220712e+00	 2.285878258677172e-01	 1.149855819696955e+01
 2.204320082835248e+00	 2.751528987741196e-01	 1.153853830156727e+01
 2.197975176484062e+00	 3.219338353063938e-01	 1.158133315649333e+01
 2.190582014675150e+00	 3.688996144507528e-01	 1.162905238353871e+01
 2.182124141220308e+00	 4.160180408596983e-01	 1.168316075049551e+01
 2.172586287887028e+00	 4.632557861751034e-01	 1.174443464468401e+01
 2.242854356153377e+00	 0.000000000000000e+00	 1.119924753949509e+01
 2.242392807238013e+00	 4.549835961604302e-02	 1.127599088621667e+01
 2.240993127347479e+00	 9.135244244642260e-02	 1.133772467856620e+01
 2.238633245632396e+00	 1.375372727430212e-01	 1.138898454559929e+01
 2.235291794183706e+00	 1.840265695554448e-01	 1.143385762481013e+01
 2.230948189669850e+00	 2.307927593133788e-01	 1.147592624476859e+01
 2.225582715956331e+00	 2.778069938768486e-01	 1.151821318110869e+01
 2.219176607324195e+00	 3.250391742633842e-01	 1.156312898819885e+01
 2.211712131875561e+00	 3.724579802338561e-01	 1.161242192147165e+01
 2.203172674687636e+00	 4.200309058879276e-01	 1.166713097834742e+01
 2.193542820252215e+00	 4.677243013857354e-01	 1.172754259906500e+01
 2.264282017992491e+00	 0.000000000000000e+00	 1.117245798151835e+01
 2.263816059555740e+00	 4.593303940757962e-02	 1.124898205340000e+01
 2.262403007478211e+00	 9.222520051884783e-02	 1.131130061899731e+01
 2.260020580051246e+00	 1.388512689737277e-01	 1.136387214824518e+01
 2.256647205222224e+00	 1.857847127402946e-01	 1.141064326810406e+01
 2.252262103011683e+00	 2.329976948173407e-01	 1.145499065715336e+01
 2.246845368922198e+00	 2.804610914570828e-01	 1.149966491435185e+01
 2.240378057951919e+00	 3.281445161190104e-01	 1.154673693066088e+01
 2.232842268796937e+00	 3.760163493383776e-01	 1.159754730255682e+01
 2.224221227799726e+00	 4.240437746617247e-01	 1.165265933708865e+01
 2.214499372176251e+00	 4.721928207671577e-01	 1.171181620922921e+01
 2.285709702330555e+00	 0.000000000000000e+00	 1.114745421159545e+01
 2.285239334367776e+00	 4.636771965572492e-02	 1.122356896862759e+01
 2.283812910089176e+00	 9.309795950800720e-02	 1.128639460674364e+01
 2.281407936926607e+00	 1.401652665845655e-01	 1.134028720123526e+01
 2.278002638683671e+00	 1.875428577716861e-01	 1.138902345333359e+01
 2.273576038732799e+00	 2.352026326369968e-01	 1.143574085378468e+01
 2.268108044213447e+00	 2.831151918246225e-01	 1.148288025497989e+01
 2.261579530840685e+00	 3.312498612357169e-01	 1.153213140729516e+01
 2.253972427904400e+00	 3.795747221796088e-01	 1.158438202301701e+01
 2.245269803012173e+00	 4.280566476493967e-01	 1.163967093924418e+01
 2.235455946103989e+00	 4.766613448408244e-01	 1.169714595967463e+01
 2.025890903610537e+00	 4.319762526806628e-01	 1.190671579139820e+01
 2.015977673537592e+00	 4.761005432559788e-01	 1.196978313098070e+01
 2.005032677856041e+00	 5.202709972669480e-01	 1.202627157295426e+01
 1.993045448035394e+00	 5.644537133827925e-01	 1.207683913215751e+01
 1.980006911132414e+00	 6.086139482192265e-01	 1.212178817549816e+01
 1.965909455491361e+00	 6.527161833659613e-01	 1.216105356370324e+01
 1.950746992912197e+00	 6.967241978721409e-01	 1.219419442833345e+01
 1.934515016794567e+00	 7.406011460019196e-01	 1.222038991745165e+01
 1.917210655773421e+00	 7.843096400241804e-01	 1.223843923079867e+01
 1.898832722375361e+00	 8.278118377520610e-01	 1.224676624517165e+01
 1.879381756243224e+00	 8.710695345001308e-01	 1.224342900153391e+01
 2.046847367519760e+00	 4.364447532964779e-01	 1.187770574164100e+01
 2.036831591821890e+00	 4.810254796556844e-01	 1.194139491345653e+01
 2.025773377601757e+00	 5.256528469798690e-01	 1.199859717143262e+01
 2.013662148039044e+00	 5.702926032520470e-01	 1.204995312307307e+01
 2.000488736337084e+00	 6.149096456912558e-01	 1.209575041161492e+01
 1.986245452102735e+00	 6.594680884734127e-01	 1.213591229458348e+01
 1.970926144157671e+00	 7.039313359665638e-01	 1.216998984021382e+01
 1.954526259283825e+00	 7.482621612907896e-01	 1.219715807627682e+01
 1.937042896413824e+00	 7.924227899643260e-01	 1.221621641588822e+01
 1.918474855790671e+00	 8.363749883486311e-01	 1.222559366727673e+01
 1.898822682639440e+00	 8.800801565567893e-01	 1.222335790770958e+01
 2.067803833873838e+00	 4.409132544329041e-01	 1.185093224522584e+01
 2.057685512539077e+00	 4.859504166292932e-01	 1.191506018365437e+01
 2.046514079767151e+00	 5.310346973200484e-01	 1.197280170757798e+01
 2.034278850447902e+00	 5.761314938019381e-01	 1.202477860984033e+01
 2.020970563931227e+00	 6.212053438972792e-01	 1.207126473076848e+01
 2.006581451086571e+00	 6.662199943681509e-01	 1.211217504178769e+01
 1.991105297757314e+00	 7.111384749014573e-01	 1.214705830814354e+01
 1.974537504107663e+00	 7.559231774731597e-01	 1.217509366530837e+01
 1.956875139367929e+00	 8.005359408508015e-01	 1.219509143663896e+01
 1.938116991497506e+00	 8.449381399441118e-01	 1.220549850520532e+01
 1.918263611303710e+00	 8.890907796646462e-01	 1.220440852873606e+01
 2.088760305117629e+00	 4.453817566113962e-01	 1.182620614037784e+01
 2.078539438122040e+00	 4.908753547514970e-01	 1.189054286571315e+01
 2.067254786771898e+00	 5.364165489154722e-01	 1.194861405227997e+01
 2.054895557667181e+00	 5.819703857137583e-01	 1.200102118686699e+01
 2.041452396304321e+00	 6.275010435718682e-01	 1.204802510947207e+01
 2.026917454815333e+00	 6.729719018379572e-01	 1.208953566845665e+01
 2.011284456065289e+00	 7.183456155176976e-01	 1.212510489450286e+01
 1.994548753600662e+00	 7.635841954428418e-01	 1.215392402690680e+01
 1.976707386949434e+00	 8.086490936301498e-01	 1.217482472206414e+01
 1.957759131787390e+00	 8.535012935375295e-01	 1.218628476272273e+01
 1.937704544504087e+00	 8.981014048749136e-01	 1.218643856583398e+01
 2.109716783695988e+00	 4.498502603534081e-01	 1.180335124319055e+01
 2.099393371003666e+00	 4.958002945969888e-01	 1.186762220549421e+01
 2.087995501035677e+00	 5.417984023941257e-01	 1.192578023043525e+01
 2.075512272102087e+00	 5.878092796688011e-01	 1.197840492840606e+01
 2.061934235845837e+00	 6.337967454495963e-01	 1.202574483120123e+01
 2.047253465661486e+00	 6.797238116706130e-01	 1.206770768342365e+01
 2.031463621435766e+00	 7.255527586561605e-01	 1.210385417063460e+01
 2.014560010097404e+00	 7.712452160936476e-01	 1.213339541567909e+01
 1.996539641472042e+00	 8.167622492489142e-01	 1.215519457466984e+01
 1.977401278951850e+00	 8.620644501279096e-01	 1.216777285662146e+01
 1.957145484508626e+00	 9.071120332388044e-01	 1.216932027365162e+01
 2.130673272053770e+00	 4.543187661803940e-01	 1.178220376704475e+01
 2.120247313616847e+00	 5.007252367404610e-01	 1.184609206256237e+01
 2.108736224978164e+00	 5.471802583839948e-01	 1.190406260754708e+01
 2.096128996157832e+00	 5.936481763483592e-01	 1.195667149179523e+01
 2.082416084945255e+00	 6.400924502650357e-01	 1.200415552818490e+01
 2.067589485997490e+00	 6.864757246539001e-01	 1.204642324328471e+01
 2.051642796222910e+00	 7.327599051577218e-01	 1.208304920065719e+01
 2.034571275932468e+00	 7.789062403193883e-01	 1.211327198515249e+01
 2.016371905249450e+00	 8.248754086536378e-01	 1.213599618067907e+01
 1.997043435282408e+00	 8.706276107142777e-01	 1.214979867067031e+01
 1.976586433585382e+00	 9.161226658075299e-01	 1.215293957751207e+01
 2.151629772635832e+00	 4.587872746138076e-01	 1.176261177236775e+01
 2.141101268394468e+00	 5.056501817566057e-01	 1.182576023919285e+01
 2.129476961019035e+00	 5.525621175130654e-01	 1.188323911868315e+01
 2.116745732239626e+00	 5.994870764337260e-01	 1.193557926704052e+01
 2.102897945992045e+00	 6.463881587527592e-01	 1.198300627219415e+01
 2.087925518195810e+00	 6.932276415755994e-01	 1.202543220480463e+01
 2.071821982780889e+00	 7.399670558632573e-01	 1.206245057565981e+01
 2.054582553440436e+00	 7.865672690138754e-01	 1.209333482361493e+01
 2.036204180595361e+00	 8.329885727908642e-01	 1.211704066697868e+01
 2.016685603070591e+00	 8.791907762956590e-01	 1.213221265265496e+01
 1.996027394002406e+00	 9.251333036323027e-01	 1.213719522897851e+01
 2.172586287887028e+00	 4.632557861751034e-01	 1.174443464468401e+01
 2.161955237769416e+00	 5.105751302201155e-01	 1.180644784390362e+01
 2.150217711577969e+00	 5.579439804093227e-01	 1.186310253693074e+01
 2.137362482752677e+00	 6.053259806061945e-01	 1.191490256961437e+01
 2.123379821375684e+00	 6.526838716473390e-01	 1.196206271101932e+01
 2.108261564628909e+00	 6.999795632234921e-01	 1.200450122425904e+01
 2.092001183463870e+00	 7.471742116136433e-01	 1.204183549487725e+01
 2.074593844955887e+00	 7.942283030709205e-01	 1.207338103580088e+01
 2.056036469823477e+00	 8.411017426071367e-01	 1.209815420163310e+01
 2.036327784607921e+00	 8.877539478710794e-01	 1.211487895159933e+01
 2.015468368027755e+00	 9.341439477643351e-01	 1.212199799714909e+01
 2.193542820252215e+00	 4.677243013857354e-01	 1.172754259906500e+01
 2.182809224174582e+00	 5.155000827056827e-01	 1.178798868720389e+01
 2.170958479074642e+00	 5.633258477007529e-01	 1.184345977870743e+01
 2.157979250102196e+00	 6.111648895470575e-01	 1.189443087357779e+01
 2.143861713485647e+00	 6.589795896833478e-01	 1.194110624757928e+01
 2.128597627669248e+00	 7.067314903853598e-01	 1.198341290057288e+01
 2.112180400626019e+00	 7.543813732497547e-01	 1.202099689070129e+01
 2.094605152813403e+00	 8.018893433843358e-01	 1.205322286735605e+01
 2.075868775247495e+00	 8.492149190489982e-01	 1.207917713505030e+01
 2.055969982185927e+00	 8.963171264395644e-01	 1.209767459247899e+01
 2.034909357929481e+00	 9.431545992548388e-01	 1.210726989329080e+01
 2.214499372176251e+00	 4.721928207671577e-01	 1.171181620922921e+01
 2.203663230042855e+00	 5.204250397879999e-01	 1.177022870742432e+01
 2.191699265928731e+00	 5.687077200153414e-01	 1.182413124348533e+01
 2.178596036693390e+00	 6.170038039376080e-01	 1.187396808235429e+01
 2.164343624711408e+00	 6.652753135953585e-01	 1.191993325883828e+01
 2.148933709689293e+00	 7.134834238489842e-01	 1.196196495935314e+01
 2.132359636621505e+00	 7.615885416124683e-01	 1.199974259462409e+01
 2.114616479347565e+00	 8.095503908479317e-01	 1.203268686924571e+01
 2.095701099181118e+00	 8.573281030629925e-01	 1.205996317910583e+01
 2.075612198096131e+00	 9.048803130001392e-01	 1.208048868594233e+01
 2.054350365975638e+00	 9.521652591550263e-01	 1.209294342660230e+01
 2.235455946103989e+00	 4.766613448408244e-01	 1.169714595967463e+01
 2.224517257807120e+00	 5.253500020417595e-01	 1.175302542465446e+01
 2.212440074559912e+00	 5.740895979810740e-01	 1.180495018567041e+01
 2.199212844931473e+00	 6.228427244591394e-01	 1.185333183468471e+01
 2.184825557442442e+00	 6.715710441179432e-01	 1.189835435191702e+01
 2.169269813061506e+00	 7.202353644021465e-01	 1.193996947513148e+01
 2.152538893804492e+00	 7.687957175426593e-01	 1.197789454142639e+01
 2.134627826892952e+00	 8.172114463555201e-01	 1.201161309948449e+01
 2.115533443938045e+00	 8.654412955956624e-01	 1.204037862173276e+01
 2.095254434630057e+00	 9.134435085518292e-01	 1.206322167074034e+01
 2.073791394434280e+00	 9.611759285161097e-01	 1.207896088906172e+01
 1.879381756243224e+00	 8.710695345001308e-01	 1.224342900153391e+01
 1.858858589483066e+00	 9.140472546866473e-01	 1.223147233466571e+01
 1.837268656718033e+00	 9.567033050173938e-01	 1.221469550137965e+01
 1.814617891166941e+00	 9.989989631352880e-01	 1.219193551396397e+01
 1.790914064283155e+00	 1.040895547844322e+00	 1.216193453550326e+01
 1.766166796013919e+00	 1.082354526678580e+00	 1.212336496338743e+01
 1.740387557584249e+00	 1.123337624997809e+00	 1.207485793444252e+01
 1.713589666622138e+00	 1.163806936007564e+00	 1.201503506612124e+01
 1.685788274497012e+00	 1.203725031080052e+00	 1.194254315234160e+01
 1.657000345801269e+00	 1.243055069735527e+00	 1.185609143028447e+01
 1.627244629964768e+00	 1.281760908633884e+00	 1.175449092862114e+01
 1.898822682639440e+00	 8.800801565567893e-01	 1.222335790770958e+01
 1.878087217673760e+00	 9.235024520362951e-01	 1.221298673117878e+01
 1.856273951734252e+00	 9.665997502041451e-01	 1.219860292921084e+01
 1.833388879414845e+00	 1.009332928146792e+00	 1.217887611789629e+01
 1.809439852559300e+00	 1.051662904537545e+00	 1.215235807605698e+01
 1.784436590626670e+00	 1.093550748318318e+00	 1.211750919563633e+01
 1.758390683503990e+00	 1.134957788923717e+00	 1.207272868599733e+01
 1.731315586581056e+00	 1.175845727439273e+00	 1.201638835309940e+01
 1.703226607957901e+00	 1.216176748063476e+00	 1.194686967224363e+01
 1.674140887714095e+00	 1.255913629226856e+00	 1.186260376346140e+01
 1.644077369229593e+00	 1.295019853711016e+00	 1.176211376470370e+01
 1.918263611303710e+00	 8.890907796646462e-01	 1.220440852873606e+01
 1.897315848107741e+00	 9.329576504890901e-01	 1.219567392083937e+01
 1.875279248967707e+00	 9.764961965456023e-01	 1.218367306910129e+01
 1.852159869852654e+00	 1.019666894364122e+00	 1.216690946919837e+01
 1.827965642996751e+00	 1.062430262487227e+00	 1.214374435158475e+01
 1.802706387370872e+00	 1.104746971264615e+00	 1.211242445951231e+01
 1.776393811524083e+00	 1.146577954205701e+00	 1.207111393055135e+01
 1.749041508608002e+00	 1.187884520275944e+00	 1.201793011109470e+01
 1.720664943453291e+00	 1.228628466500071e+00	 1.195098302433646e+01
 1.691281431626708e+00	 1.268772190218843e+00	 1.186841809491368e+01
 1.660910110458333e+00	 1.308278800335526e+00	 1.176846161097814e+01
 1.937704544504087e+00	 8.981014048749136e-01	 1.218643856583398e+01
 1.916544483028299e+00	 9.424128511480929e-01	 1.217944795225029e+01
 1.894284550635634e+00	 9.863926451962863e-01	 1.216987173168902e+01
 1.870930864670270e+00	 1.030000862992825e+00	 1.215604853066682e+01
 1.846491437756801e+00	 1.073197622949461e+00	 1.213614885239941e+01
 1.820976188377949e+00	 1.115943196823578e+00	 1.210820414076892e+01
 1.794396943744841e+00	 1.158198122199312e+00	 1.207014031477777e+01
 1.766767434770946e+00	 1.199923315921956e+00	 1.201981561355474e+01
 1.738103283017593e+00	 1.241080187842383e+00	 1.195506247599966e+01
 1.708421979538773e+00	 1.281630754211491e+00	 1.187373305380128e+01
 1.677742855614732e+00	 1.321537750054125e+00	 1.177374782520598e+01
 1.957145484508626e+00	 9.071120332388044e-01	 1.216932027365162e+01
 1.935773124678724e+00	 9.518680551163642e-01	 1.216423547386379e+01
 1.913289858955267e+00	 9.962890973107171e-01	 1.215717557549820e+01
 1.889701866057591e+00	 1.040334835238445e+00	 1.214631557138584e+01
 1.865017239000746e+00	 1.083964987180335e+00	 1.212963505160183e+01
 1.839245995779331e+00	 1.127139426301317e+00	 1.210494850909881e+01
 1.812400082266579e+00	 1.169818294260106e+00	 1.206994050029869e+01
 1.784493367137860e+00	 1.211962115781692e+00	 1.202220551346148e+01
 1.755541628685223e+00	 1.253531913542958e+00	 1.195929227439926e+01
 1.725562533449955e+00	 1.294489322704806e+00	 1.187875208533918e+01
 1.694575606662538e+00	 1.334796704413528e+00	 1.177819065200400e+01
 1.976586433585382e+00	 9.161226658075299e-01	 1.215293957751207e+01
 1.955001775302303e+00	 9.613232634969645e-01	 1.214997491961541e+01
 1.932295176143844e+00	 1.006185554043417e+00	 1.214557135204512e+01
 1.908472876204522e+00	 1.050668812306531e+00	 1.213774146248689e+01
 1.883543048889880e+00	 1.094732356435942e+00	 1.212427374280863e+01
 1.857515811706447e+00	 1.138335661003940e+00	 1.210276408931055e+01
 1.830403229189613e+00	 1.181438471743636e+00	 1.207065255999276e+01
 1.802219307776714e+00	 1.224000921259533e+00	 1.202526525668172e+01
 1.772979982490597e+00	 1.265983645054342e+00	 1.196386106905226e+01
 1.742703095359921e+00	 1.307347897198793e+00	 1.188368287503265e+01
 1.711408365565498e+00	 1.348055664960446e+00	 1.178201264151576e+01
 1.996027394002406e+00	 9.251333036323027e-01	 1.213719522897851e+01
 1.974230437142326e+00	 9.707784773929543e-01	 1.213661572781831e+01
 1.951300504418597e+00	 1.016082016548903e+00	 1.213505517969196e+01
 1.927243897300960e+00	 1.061002795402626e+00	 1.213036499769371e+01
 1.902068869585498e+00	 1.105499731972371e+00	 1.212014239925585e+01
 1.875785638290723e+00	 1.149531902237556e+00	 1.210176305102710e+01
 1.848406386614257e+00	 1.193058656005457e+00	 1.207241939052234e+01
 1.819945258755481e+00	 1.236039733759861e+00	 1.202916450978389e+01
 1.790418346468128e+00	 1.278435383829083e+00	 1.196896134764649e+01
 1.759843667268337e+00	 1.320206479193455e+00	 1.188873678548996e+01
 1.728241134287360e+00	 1.361314633241596e+00	 1.178544008050476e+01
 2.015468368027755e+00	 9.341439477643351e-01	 1.212199799714909e+01
 1.993459112442080e+00	 9.802336979073933e-01	 1.212411759107086e+01
 1.970305845996764e+00	 1.025978485981699e+00	 1.212563184430539e+01
 1.946014931536810e+00	 1.071336785732278e+00	 1.212423223697730e+01
 1.920594703248894e+00	 1.116267115045714e+00	 1.211732455283425e+01
 1.894055477663589e+00	 1.160728151308274e+00	 1.210206261565354e+01
 1.866409556640827e+00	 1.204678848401122e+00	 1.207538813998357e+01
 1.837671222142130e+00	 1.248078554687057e+00	 1.203407660134261e+01
 1.807856722652230e+00	 1.290887131319725e+00	 1.197478888421900e+01
 1.776984251174867e+00	 1.333065070188799e+00	 1.189412830496149e+01
 1.745073914791870e+00	 1.374573610803687e+00	 1.178870243502840e+01
 2.034909357929481e+00	 9.431545992548388e-01	 1.210726989329079e+01
 2.012687803444855e+00	 9.896889261433434e-01	 1.211244973510197e+01
 1.989311203095579e+00	 1.035874963496324e+00	 1.211731412492635e+01
 1.964785981101968e+00	 1.081670784501032e+00	 1.211939587177396e+01
 1.939120552041364e+00	 1.127034506912060e+00	 1.211590919172098e+01
 1.912325331956473e+00	 1.171924409522202e+00	 1.210378447945778e+01
 1.884412741369637e+00	 1.216299050286185e+00	 1.207970964966599e+01
 1.855397200004633e+00	 1.260117385445502e+00	 1.204017797582751e+01
 1.825295113077318e+00	 1.303338888978815e+00	 1.198154219886445e+01
 1.794124849079177e+00	 1.345923671684828e+00	 1.190007450681919e+01
 1.761906709042776e+00	 1.387832599193435e+00	 1.179203180391678e+01
 2.054350365975638e+00	 9.521652591550263e-01	 1.209294342660230e+01
 2.031916512393939e+00	 9.991441632038637e-01	 1.210159022463598e+01
 2.008316577932277e+00	 1.045771450247299e+00	 1.211012214279232e+01
 1.983557048186338e+00	 1.092004792914435e+00	 1.211591461033641e+01
 1.957646418124202e+00	 1.137801908827502e+00	 1.211599017537479e+01
 1.930595203300802e+00	 1.183120678185449e+00	 1.210705425169467e+01
 1.902415942901002e+00	 1.227919263016201e+00	 1.208553790898554e+01
 1.873123194410962e+00	 1.272156227439578e+00	 1.204764765924022e+01
 1.842733519777808e+00	 1.315790658258901e+00	 1.198942202820799e+01
 1.811265462980935e+00	 1.358782285181547e+00	 1.190679451924939e+01
 1.778739519003824e+00	 1.401091599957553e+00	 1.179566238233807e+01
 2.073791394434280e+00	 9.611759285161097e-01	 1.207896088906172e+01
 2.051145241532621e+00	 1.008599410192016e+00	 1.209152529450230e+01
 2.027321972724093e+00	 1.055667947389144e+00	 1.210408273217830e+01
 2.002328134979822e+00	 1.102338812178033e+00	 1.211385258189517e+01
 1.976172303658703e+00	 1.148569322048130e+00	 1.211766566575301e+01
 1.948865093828005e+00	 1.194316958604124e+00	 1.211200090678483e+01
 1.920419163335237e+00	 1.239539487946723e+00	 1.209302952272414e+01
 1.890849207429085e+00	 1.284195082073666e+00	 1.205666673572736e+01
 1.860171944788112e+00	 1.328242440612528e+00	 1.199863080593414e+01
 1.828406094879804e+00	 1.371640912178962e+00	 1.191450900448710e+01
 1.795572346638762e+00	 1.414350614642753e+00	 1.179982993478671e+01
 1.627244629964768e+00	 1.281760908633884e+00	 1.175449092862114e+01
 1.596541620518678e+00	 1.319807212503900e+00	 1.163157706552201e+01
 1.564913497592937e+00	 1.357159569919514e+00	 1.148094145744174e+01
 1.532384090137712e+00	 1.393784584608510e+00	 1.130125011318543e+01
 1.498978821817692e+00	 1.429649970364926e+00	 1.109138342117506e+01
 1.464724645377923e+00	 1.464724645377924e+00	 1.086894342675868e+01
 1.429649970364925e+00	 1.498978821817692e+00	 1.064954006980667e+01
 1.393784584608510e+00	 1.532384090137712e+00	 1.043220244265286e+01
 1.357159569919513e+00	 1.564913497592937e+00	 1.021525572298735e+01
 1.319807212503899e+00	 1.596541620518678e+00	 9.996733869312560e+00
 1.281760908633884e+00	 1.627244629964768e+00	 9.774715754958075e+00
 1.644077369229593e+00	 1.295019853711016e+00	 1.176211376470370e+01
 1.613056758027208e+00	 1.333459720725372e+00	 1.163875999917880e+01
 1.581101463675235e+00	 1.371198462881057e+00	 1.148581122314640e+01
 1.548235561618126e+00	 1.408202338444131e+00	 1.130188110938502e+01
 1.514484738511090e+00	 1.444438727229787e+00	 1.108925835908655e+01
 1.479876225906991e+00	 1.479876225906992e+00	 1.087370289022555e+01
 1.444438727229786e+00	 1.514484738511091e+00	 1.065998349795414e+01
 1.408202338444131e+00	 1.548235561618126e+00	 1.044723608649524e+01
 1.371198462881057e+00	 1.581101463675236e+00	 1.023408786990801e+01
 1.333459720725371e+00	 1.613056758027209e+00	 1.001865136454598e+01
 1.295019853711016e+00	 1.644077369229594e+00	 9.799067881722859e+00
 1.660910110458333e+00	 1.308278800335526e+00	 1.176846161097814e+01
 1.629571897462642e+00	 1.347112230540128e+00	 1.164402870994488e+01
 1.597289431646318e+00	 1.385237357480942e+00	 1.148810242482312e+01
 1.564087034948119e+00	 1.422620093962262e+00	 1.129924528163887e+01
 1.529990657013806e+00	 1.459227485820399e+00	 1.108905907353838e+01
 1.495027808204091e+00	 1.495027808204091e+00	 1.087982892799356e+01
 1.459227485820399e+00	 1.529990657013807e+00	 1.067126063775226e+01
 1.422620093962261e+00	 1.564087034948120e+00	 1.046258433440876e+01
 1.385237357480942e+00	 1.597289431646319e+00	 1.025271822597342e+01
 1.347112230540128e+00	 1.629571897462643e+00	 1.003990501692888e+01
 1.308278800335526e+00	 1.660910110458333e+00	 9.822354669543730e+00
 1.677742855614732e+00	 1.321537750054125e+00	 1.177374782520598e+01
 1.646087040751664e+00	 1.360764743540799e+00	 1.164760953372037e+01
 1.613477403394685e+00	 1.399276255356880e+00	 1.148805526980485e+01
 1.579938511976924e+00	 1.437037852844821e+00	 1.129453557112218e+01
 1.545496579134747e+00	 1.474016247861975e+00	 1.109086702407277e+01
 1.510179394036775e+00	 1.510179394036776e+00	 1.088740730055895e+01
 1.474016247861974e+00	 1.545496579134747e+00	 1.068346248801229e+01
 1.437037852844821e+00	 1.579938511976924e+00	 1.047834963949435e+01
 1.399276255356880e+00	 1.613477403394687e+00	 1.027125332280463e+01
 1.360764743540799e+00	 1.646087040751664e+00	 1.006060811922619e+01
 1.321537750054125e+00	 1.677742855614732e+00	 9.844695965074001e+00
 1.694575606662538e+00	 1.334796704413528e+00	 1.177819065200400e+01
 1.662602189820956e+00	 1.374417261320015e+00	 1.164973388052781e+01
 1.629665380808841e+00	 1.413315158146584e+00	 1.148591523265777e+01
 1.595789994553771e+00	 1.451455616773728e+00	 1.129200266774276e+01
 1.561002506682813e+00	 1.488805015079727e+00	 1.109475704863321e+01
 1.525330985172598e+00	 1.525330985172598e+00	 1.089651708242389e+01
 1.488805015079726e+00	 1.561002506682814e+00	 1.069667329397968e+01
 1.451455616773728e+00	 1.595789994553772e+00	 1.049463522570112e+01
 1.413315158146584e+00	 1.629665380808842e+00	 1.028979317363764e+01
 1.374417261320014e+00	 1.662602189820956e+00	 1.008086751241976e+01
 1.334796704413528e+00	 1.694575606662538e+00	 9.866205268151132e+00
 1.711408365565498e+00	 1.348055664960446e+00	 1.178201264151576e+01
 1.679117346597201e+00	 1.388069785470404e+00	 1.165063764635483e+01
 1.645853365777286e+00	 1.427354067487766e+00	 1.148193246445670e+01
 1.611641484527893e+00	 1.465873387430904e+00	 1.129218897284681e+01
 1.576508441466913e+00	 1.503593789198868e+00	 1.110079735860550e+01
 1.540482583379113e+00	 1.540482583379113e+00	 1.090723066090898e+01
 1.503593789198868e+00	 1.576508441466914e+00	 1.071097054962812e+01
 1.465873387430904e+00	 1.611641484527894e+00	 1.051152580311739e+01
 1.427354067487766e+00	 1.645853365777287e+00	 1.030843123157995e+01
 1.388069785470403e+00	 1.679117346597202e+00	 1.010078354406980e+01
 1.348055664960446e+00	 1.711408365565499e+00	 9.886989688737899e+00
 1.728241134287360e+00	 1.361314633241596e+00	 1.178544008050476e+01
 1.695632513007084e+00	 1.401722317584596e+00	 1.165056063744125e+01
 1.662041360188522e+00	 1.441392985018139e+00	 1.147838247418297e+01
 1.627492983748522e+00	 1.480291166498268e+00	 1.129515309555615e+01
 1.592014385295951e+00	 1.518382571944612e+00	 1.110904954560529e+01
 1.555634190423872e+00	 1.555634190423873e+00	 1.091961374632232e+01
 1.518382571944611e+00	 1.592014385295951e+00	 1.072642501087949e+01
 1.480291166498267e+00	 1.627492983748523e+00	 1.052909788731504e+01
 1.441392985018138e+00	 1.662041360188523e+00	 1.032728016343055e+01
 1.401722317584596e+00	 1.695632513007085e+00	 1.012045003633145e+01
 1.361314633241595e+00	 1.728241134287360e+00	 9.907149913189929e+00
 1.745073914791870e+00	 1.374573610803687e+00	 1.178870243502840e+01
 1.712147690977289e+00	 1.415374859255223e+00	 1.164974600616803e+01
 1.678229365931051e+00	 1.455431912375414e+00	 1.147822435457823e+01
 1.643344494064889e+00	 1.494708955657738e+00	 1.130094708434625e+01
 1.607520339978830e+00	 1.533171365042171e+00	 1.111956859921842e+01
 1.570785808074430e+00	 1.570785808074431e+00	 1.093372539271698e+01
 1.533171365042170e+00	 1.607520339978830e+00	 1.074310071901125e+01
 1.494708955657738e+00	 1.643344494064890e+00	 1.054742122571816e+01
 1.455431912375413e+00	 1.678229365931051e+00	 1.034645370055696e+01
 1.415374859255222e+00	 1.712147690977289e+00	 1.013995426297433e+01
 1.374573610803687e+00	 1.745073914791870e+00	 9.926780179218895e+00
 1.761906709042776e+00	 1.387832599193435e+00	 1.179203180391678e+01
 1.728662882434497e+00	 1.429027412074912e+00	 1.164844180250871e+01
 1.694417384893375e+00	 1.469470851197304e+00	 1.148152152592151e+01
 1.659196017326227e+00	 1.509126756591238e+00	 1.130961645225210e+01
 1.623026307324454e+00	 1.547960170216757e+00	 1.113240293496068e+01
 1.585937438098340e+00	 1.585937438098341e+00	 1.094961802852814e+01
 1.547960170216756e+00	 1.623026307324454e+00	 1.076105503356902e+01
 1.509126756591238e+00	 1.659196017326228e+00	 1.056655883207157e+01
 1.469470851197302e+00	 1.694417384893375e+00	 1.036602128679277e+01
 1.429027412074912e+00	 1.728662882434497e+00	 1.015937698352475e+01
 1.387832599193435e+00	 1.761906709042776e+00	 9.945968258968694e+00
 1.778739519003824e+00	 1.401091599957553e+00	 1.179566238233807e+01
 1.745178089305393e+00	 1.442679977636295e+00	 1.164915621934561e+01
 1.710605418963995e+00	 1.483509803121520e+00	 1.148831141399518e+01
 1.675047555381767e+00	 1.523544570980685e+00	 1.132120021187977e+01
 1.638532289141730e+00	 1.562748989193584e+00	 1.114759443177920e+01
 1.601089082263154e+00	 1.601089082263155e+00	 1.096733749643504e+01
 1.562748989193583e+00	 1.638532289141730e+00	 1.078033867415409e+01
 1.523544570980684e+00	 1.675047555381767e+00	 1.058656702942312e+01
 1.483509803121520e+00	 1.710605418963996e+00	 1.038604538547068e+01
 1.442679977636294e+00	 1.745178089305393e+00	 1.017884460828340e+01
 1.401091599957553e+00	 1.778739519003824e+00	 9.964795449666230e+00
 1.795572346638762e+00	 1.414350614642753e+00	 1.179982993478671e+01
 1.761693313516659e+00	 1.456332557532000e+00	 1.165398800378366e+01
 1.726793470031414e+00	 1.497548769785776e+00	 1.149862500170828e+01
 1.690899110080739e+00	 1.537962400507998e+00	 1.133573091957953e+01
 1.654038287239560e+00	 1.577537823697865e+00	 1.116517847846905e+01
 1.616240742336427e+00	 1.616240742336428e+00	 1.098692310184116e+01
 1.577537823697864e+00	 1.654038287239561e+00	 1.080099577050278e+01
 1.537962400507997e+00	 1.690899110080740e+00	 1.060749550106059e+01
 1.497548769785776e+00	 1.726793470031415e+00	 1.040658178143374e+01
 1.456332557532000e+00	 1.761693313516660e+00	 1.019846730557015e+01
 1.414350614642753e+00	 1.795572346638762e+00	 9.983336571348921e+00
 1.281760908633884e+00	 1.627244629964768e+00	 9.774715754958075e+00
 1.243055069735527e+00	 1.657000345801269e+00	 9.544993574117797e+00
 1.203725031080051e+00	 1.685788274497013e+00	 9.305323488255569e+00
 1.163806936007563e+00	 1.713589666622138e+00	 9.056883136521288e+00
 1.123337624997809e+00	 1.740387557584249e+00	 8.800989060473769e+00
 1.082354526678579e+00	 1.766166796013919e+00	 8.539082545327201e+00
 1.040895547844321e+00	 1.790914064283156e+00	 8.272714667690099e+00
 9.989989631352876e-01	 1.814617891166942e+00	 8.003530715084478e+00
 9.567033050173931e-01	 1.837268656718033e+00	 7.733254121123449e+00
 9.140472546866468e-01	 1.858858589483067e+00	 7.463670037121055e+00
 8.710695345001309e-01	 1.879381756243224e+00	 7.196608637644921e+00
 1.295019853711016e+00	 1.644077369229594e+00	 9.799067881722859e+00
 1.255913629226856e+00	 1.674140887714096e+00	 9.571427217801059e+00
 1.216176748063476e+00	 1.703226607957902e+00	 9.333772503431337e+00
 1.175845727439272e+00	 1.731315586581056e+00	 9.087339222618231e+00
 1.134957788923717e+00	 1.758390683503991e+00	 8.833507989047556e+00
 1.093550748318318e+00	 1.784436590626671e+00	 8.573789750470453e+00
 1.051662904537544e+00	 1.809439852559301e+00	 8.309810213241185e+00
 1.009332928146792e+00	 1.833388879414846e+00	 8.043293661243391e+00
 9.665997502041446e-01	 1.856273951734252e+00	 7.776046319401471e+00
 9.235024520362944e-01	 1.878087217673760e+00	 7.509939386133714e+00
 8.800801565567894e-01	 1.898822682639440e+00	 7.246891833133251e+00
 1.308278800335526e+00	 1.660910110458333e+00	 9.822354669543730e+00
 1.268772190218842e+00	 1.691281431626708e+00	 9.596458302699041e+00
 1.228628466500070e+00	 1.720664943453291e+00	 9.360539995442529e+00
 1.187884520275943e+00	 1.749041508608002e+00	 9.115885071457900e+00
 1.146577954205700e+00	 1.776393811524083e+00	 8.863930886268410e+00
 1.104746971264614e+00	 1.802706387370872e+00	 8.606251431985802e+00
 1.062430262487227e+00	 1.827965642996751e+00	 8.344541172897690e+00
 1.019666894364122e+00	 1.852159869852654e+00	 8.080598295235056e+00
 9.764961965456016e-01	 1.875279248967707e+00	 7.816307527694921e+00
 9.329576504890892e-01	 1.897315848107741e+00	 7.553622660615250e+00
 8.890907796646462e-01	 1.918263611303710e+00	 7.294548862910327e+00
 1.321537750054125e+00	 1.677742855614732e+00	 9.844695965074001e+00
 1.281630754211490e+00	 1.708421979538773e+00	 9.620214420047571e+00
 1.241080187842382e+00	 1.738103283017594e+00	 9.385764174958867e+00
 1.199923315921955e+00	 1.766767434770946e+00	 9.142672516202159e+00
 1.158198122199311e+00	 1.794396943744842e+00	 8.892426317490987e+00
 1.115943196823577e+00	 1.820976188377948e+00	 8.636656081004180e+00
 1.073197622949460e+00	 1.846491437756801e+00	 8.377119217418489e+00
 1.030000862992824e+00	 1.870930864670270e+00	 8.115682757464240e+00
 9.863926451962859e-01	 1.894284550635634e+00	 7.854305658037561e+00
 9.424128511480923e-01	 1.916544483028300e+00	 7.595020834267655e+00
 8.981014048749136e-01	 1.937704544504087e+00	 7.339917017219276e+00
 1.334796704413528e+00	 1.694575606662538e+00	 9.866205268151132e+00
 1.294489322704805e+00	 1.725562533449955e+00	 9.642816900756277e+00
 1.253531913542957e+00	 1.755541628685224e+00	 9.409576991820222e+00
 1.211962115781691e+00	 1.784493367137860e+00	 9.167847034587567e+00
 1.169818294260105e+00	 1.812400082266580e+00	 8.919156297217885e+00
 1.127139426301316e+00	 1.839245995779331e+00	 8.665185335137082e+00
 1.083964987180335e+00	 1.865017239000747e+00	 8.407748748030858e+00
 1.040334835238445e+00	 1.889701866057591e+00	 8.148777383627920e+00
 9.962890973107167e-01	 1.913289858955267e+00	 7.890300157863143e+00
 9.518680551163634e-01	 1.935773124678724e+00	 7.634425626293190e+00
 9.071120332388044e-01	 1.957145484508626e+00	 7.383323406858149e+00
 1.348055664960446e+00	 1.711408365565499e+00	 9.886989688737899e+00
 1.307347897198792e+00	 1.742703095359922e+00	 9.664380772345844e+00
 1.265983645054341e+00	 1.772979982490597e+00	 9.432104096898179e+00
 1.224000921259532e+00	 1.802219307776715e+00	 9.191547721123017e+00
 1.181438471743635e+00	 1.830403229189614e+00	 8.944276277497632e+00
 1.138335661003939e+00	 1.857515811706447e+00	 8.692013989358841e+00
 1.094732356435941e+00	 1.883543048889880e+00	 8.436626936464920e+00
 1.050668812306530e+00	 1.908472876204522e+00	 8.180104780914981e+00
 1.006185554043416e+00	 1.932295176143844e+00	 7.924542129691075e+00
 9.613232634969638e-01	 1.955001775302304e+00	 7.672119672149893e+00
 9.161226658075297e-01	 1.976586433585382e+00	 7.425085192812872e+00
 1.361314633241595e+00	 1.728241134287360e+00	 9.907149913189929e+00
 1.320206479193455e+00	 1.759843667268337e+00	 9.685014724780327e+00
 1.278435383829081e+00	 1.790418346468128e+00	 9.453464812119131e+00
 1.236039733759860e+00	 1.819945258755481e+00	 9.213907266390045e+00
 1.193058656005456e+00	 1.848406386614257e+00	 8.967935142020453e+00
 1.149531902237555e+00	 1.875785638290723e+00	 8.717310010816330e+00
 1.105499731972370e+00	 1.902068869585499e+00	 8.463943766761941e+00
 1.061002795402626e+00	 1.927243897300961e+00	 8.209879903428305e+00
 1.016082016548903e+00	 1.951300504418597e+00	 7.957274447068922e+00
 9.707784773929536e-01	 1.974230437142327e+00	 7.708376687175141e+00
 9.251333036323027e-01	 1.996027394002406e+00	 7.465509804935403e+00
 1.374573610803687e+00	 1.745073914791870e+00	 9.926780179218895e+00
 1.333065070188799e+00	 1.776984251174868e+00	 9.704821084592643e+00
 1.290887131319724e+00	 1.807856722652231e+00	 9.473772108096437e+00
 1.248078554687056e+00	 1.837671222142131e+00	 9.235051942965022e+00
 1.204678848401121e+00	 1.866409556640827e+00	 8.990275205526142e+00
 1.160728151308273e+00	 1.894055477663589e+00	 8.741234557299972e+00
 1.116267115045713e+00	 1.920594703248895e+00	 8.489882078736006e+00
 1.071336785732278e+00	 1.946014931536810e+00	 8.238310126879831e+00
 1.025978485981698e+00	 1.970305845996764e+00	 7.988731867023610e+00
 9.802336979073927e-01	 1.993459112442081e+00	 7.743461623558023e+00
 9.341439477643351e-01	 2.015468368027755e+00	 7.504895150405888e+00
 1.387832599193435e+00	 1.761906709042776e+00	 9.945968258968694e+00
 1.345923671684828e+00	 1.794124849079178e+00	 9.723895796747827e+00
 1.303338888978815e+00	 1.825295113077319e+00	 9.493132588861856e+00
 1.260117385445501e+00	 1.855397200004633e+00	 9.255101597519785e+00
 1.216299050286185e+00	 1.884412741369637e+00	 9.011432218167798e+00
 1.171924409522201e+00	 1.912325331956473e+00	 8.763941999130143e+00
 1.127034506912059e+00	 1.939120552041364e+00	 8.514617612977039e+00
 1.081670784501032e+00	 1.964785981101969e+00	 8.265595322606668e+00
 1.035874963496324e+00	 1.989311203095579e+00	 8.019141139254353e+00
 9.896889261433425e-01	 2.012687803444856e+00	 7.777630821104756e+00
 9.431545992548389e-01	 2.034909357929481e+00	 7.543529812661353e+00
 1.401091599957553e+00	 1.778739519003824e+00	 9.964795449666230e+00
 1.358782285181547e+00	 1.811265462980935e+00	 9.742328413730235e+00
 1.315790658258900e+00	 1.842733519777807e+00	 9.511646483225338e+00
 1.272156227439577e+00	 1.873123194410961e+00	 9.274169648690098e+00
 1.227919263016200e+00	 1.902415942901002e+00	 9.031535374502235e+00
 1.183120678185448e+00	 1.930595203300802e+00	 8.785579944232060e+00
 1.137801908827502e+00	 1.957646418124203e+00	 8.538319057293174e+00
 1.092004792914435e+00	 1.983557048186339e+00	 8.291927930952752e+00
 1.045771450247299e+00	 2.008316577932277e+00	 8.048721112282262e+00
 9.991441632038630e-01	 2.031916512393940e+00	 7.811132152207154e+00
 9.521652591550263e-01	 2.054350365975638e+00	 7.581693241422158e+00
 1.414350614642753e+00	 1.795572346638762e+00	 9.983336571348921e+00
 1.371640912178961e+00	 1.828406094879805e+00	 9.760202091380050e+00
 1.328242440612527e+00	 1.860171944788112e+00	 9.529407642326600e+00
 1.284195082073665e+00	 1.890849207429085e+00	 9.292363090332696e+00
 1.239539487946722e+00	 1.920419163335237e+00	 9.050707326802556e+00
 1.194316958604123e+00	 1.948865093828005e+00	 8.806289266188806e+00
 1.148569322048129e+00	 1.976172303658703e+00	 8.561148094496161e+00
 1.102338812178032e+00	 2.002328134979822e+00	 8.317493034056195e+00
 1.055667947389144e+00	 2.027321972724094e+00	 8.077682836755326e+00
 1.008599410192015e+00	 2.051145241532621e+00	 7.844205161394531e+00
 9.611759285161097e-01	 2.073791394434280e+00	 7.619655934399390e+00
 8.710695345001309e-01	 1.879381756243224e+00	 7.196608637644921e+00
 8.278118377520619e-01	 1.898832722375362e+00	 6.937886714159557e+00
 7.843096400241808e-01	 1.917210655773421e+00	 6.690971217820094e+00
 7.406011460019200e-01	 1.934515016794567e+00	 6.454240248165069e+00
 6.967241978721410e-01	 1.950746992912197e+00	 6.226066746017026e+00
 6.527161833659616e-01	 1.965909455491361e+00	 6.004822354181325e+00
 6.086139482192269e-01	 1.980006911132415e+00	 5.788880235171781e+00
 5.644537133827929e-01	 1.993045448035395e+00	 5.576616738894049e+00
 5.202709972669484e-01	 2.005032677856041e+00	 5.366411839709832e+00
 4.761005432559790e-01	 2.015977673537592e+00	 5.156648293217738e+00
 4.319762526806628e-01	 2.025890903610537e+00	 4.945709497260035e+00
 8.800801565567894e-01	 1.898822682639440e+00	 7.246891833133253e+00
 8.363749883486312e-01	 1.918474855790671e+00	 6.992600857018425e+00
 7.924227899643262e-01	 1.937042896413824e+00	 6.750227981594610e+00
 7.482621612907894e-01	 1.954526259283824e+00	 6.517958000795044e+00
 7.039313359665643e-01	 1.970926144157672e+00	 6.293966827475448e+00
 6.594680884734130e-01	 1.986245452102734e+00	 6.076427690620767e+00
 6.149096456912561e-01	 2.000488736337084e+00	 5.863516202314387e+00
 5.702926032520473e-01	 2.013662148039043e+00	 5.653414157081833e+00
 5.256528469798695e-01	 2.025773377601758e+00	 5.444311955375374e+00
 4.810254796556848e-01	 2.036831591821890e+00	 5.234409577133724e+00
 4.364447532964779e-01	 2.046847367519760e+00	 5.021916069271997e+00
 8.890907796646462e-01	 1.918263611303710e+00	 7.294548862910327e+00
 8.449381399441122e-01	 1.938116991497506e+00	 7.044629123739356e+00
 8.005359408508018e-01	 1.956875139367929e+00	 6.806707081197207e+00
 7.559231774731601e-01	 1.974537504107663e+00	 6.578804578868189e+00
 7.111384749014579e-01	 1.991105297757314e+00	 6.358929501155961e+00
 6.662199943681512e-01	 2.006581451086570e+00	 6.145084188776242e+00
 6.212053438972794e-01	 2.020970563931227e+00	 5.935272654490837e+00
 5.761314938019384e-01	 2.034278850447902e+00	 5.727506430793551e+00
 5.310346973200488e-01	 2.046514079767151e+00	 5.519808912876094e+00
 4.859504166292934e-01	 2.057685512539077e+00	 5.310218097469016e+00
 4.409132544329042e-01	 2.067803833873838e+00	 5.096787659710253e+00
 8.981014048749136e-01	 1.937704544504087e+00	 7.339917017219275e+00
 8.535012935375297e-01	 1.957759131787390e+00	 7.094345107070282e+00
 8.086490936301503e-01	 1.976707386949434e+00	 6.860814485864357e+00
 7.635841954428423e-01	 1.994548753600662e+00	 6.637213395730393e+00
 7.183456155176980e-01	 2.011284456065289e+00	 6.421409713988051e+00
 6.729719018379574e-01	 2.026917454815333e+00	 6.211261473545511e+00
 6.275010435718685e-01	 2.041452396304320e+00	 6.004626131581001e+00
 5.819703857137587e-01	 2.054895557667180e+00	 5.799368386676250e+00
 5.364165489154726e-01	 2.067254786771898e+00	 5.593366378454323e+00
 4.908753547514974e-01	 2.078539438122039e+00	 5.384516143991827e+00
 4.453817566113962e-01	 2.088760305117629e+00	 5.170734250353535e+00
 9.071120332388044e-01	 1.957145484508626e+00	 7.383323406858151e+00
 8.620644501279100e-01	 1.977401278951850e+00	 7.142111283115262e+00
 8.167622492489147e-01	 1.996539641472041e+00	 6.912944246587378e+00
 7.712452160936478e-01	 2.014560010097404e+00	 6.693605312370483e+00
 7.255527586561610e-01	 2.031463621435766e+00	 6.481849424323494e+00
 6.797238116706134e-01	 2.047253465661485e+00	 6.275415971755818e+00
 6.337967454495966e-01	 2.061934235845838e+00	 6.072040019842766e+00
 5.878092796688014e-01	 2.075512272102087e+00	 5.869462021695038e+00
 5.417984023941260e-01	 2.087995501035677e+00	 5.665435815967418e+00
 4.958002945969892e-01	 2.099393371003667e+00	 5.457734756908410e+00
 4.498502603534081e-01	 2.109716783695988e+00	 5.244155872251461e+00
 9.161226658075297e-01	 1.976586433585382e+00	 7.425085192812872e+00
 8.706276107142780e-01	 1.997043435282408e+00	 7.188279301557717e+00
 8.248754086536381e-01	 2.016371905249450e+00	 6.963478841284379e+00
 7.789062403193885e-01	 2.034571275932468e+00	 6.748389030215224e+00
 7.327599051577223e-01	 2.051642796222910e+00	 6.540678033392203e+00
 6.864757246539005e-01	 2.067589485997490e+00	 6.337991371732935e+00
 6.400924502650359e-01	 2.082416084945254e+00	 6.137965027518702e+00
 5.936481763483596e-01	 2.096128996157832e+00	 5.938236981236839e+00
 5.471802583839953e-01	 2.108736224978164e+00	 5.736456952548082e+00
 5.007252367404612e-01	 2.120247313616847e+00	 5.530294163815634e+00
 4.543187661803939e-01	 2.130673272053770e+00	 5.317442996450714e+00
 9.251333036323027e-01	 1.996027394002406e+00	 7.465509804935403e+00
 8.791907762956593e-01	 2.016685603070590e+00	 7.233190261031243e+00
 8.329885727908645e-01	 2.036204180595362e+00	 7.012789501577998e+00
 7.865672690138762e-01	 2.054582553440436e+00	 6.801961462446297e+00
 7.399670558632581e-01	 2.071821982780889e+00	 6.598312792749305e+00
 6.932276415755992e-01	 2.087925518195809e+00	 6.399419056977875e+00
 6.463881587527596e-01	 2.102897945992045e+00	 6.202839633402668e+00
 5.994870764337265e-01	 2.116745732239627e+00	 6.006131009847032e+00
 5.525621175130656e-01	 2.129476961019035e+00	 5.806858217474735e+00
 5.056501817566060e-01	 2.141101268394467e+00	 5.602604191414843e+00
 4.587872746138076e-01	 2.151629772635831e+00	 5.390976902084316e+00
 9.341439477643351e-01	 2.015468368027755e+00	 7.504895150405888e+00
 8.877539478710798e-01	 2.036327784607921e+00	 7.277174970639473e+00
 8.411017426071371e-01	 2.056036469823477e+00	 7.061236522420892e+00
 7.942283030709212e-01	 2.074593844955887e+00	 6.854708085288768e+00
 7.471742116136436e-01	 2.092001183463870e+00	 6.655159189334857e+00
 6.999795632234923e-01	 2.108261564628908e+00	 6.460118515699351e+00
 6.526838716473393e-01	 2.123379821375684e+00	 6.267090510192442e+00
 6.053259806061946e-01	 2.137362482752677e+00	 6.073570376447805e+00
 5.579439804093231e-01	 2.150217711577969e+00	 5.877057156058266e+00
 5.105751302201158e-01	 2.161955237769416e+00	 5.675064653691877e+00
 4.632557861751034e-01	 2.172586287887028e+00	 5.465130023353796e+00
 9.431545992548389e-01	 2.034909357929481e+00	 7.543529812661353e+00
 8.963171264395647e-01	 2.055969982185927e+00	 7.320554198551128e+00
 8.492149190489988e-01	 2.075868775247495e+00	 7.109169555715333e+00
 8.018893433843360e-01	 2.094605152813404e+00	 6.907003270610645e+00
 7.543813732497551e-01	 2.112180400626019e+00	 6.711611309642237e+00
 7.067314903853603e-01	 2.128597627669248e+00	 6.520497727816629e+00
 6.589795896833482e-01	 2.143861713485647e+00	 6.331132924313673e+00
 6.111648895470575e-01	 2.157979250102195e+00	 6.140970275743737e+00
 5.633258477007533e-01	 2.170958479074642e+00	 5.947460820217728e+00
 5.155000827056830e-01	 2.182809224174583e+00	 5.748065718136496e+00
 4.677243013857355e-01	 2.193542820252216e+00	 5.540266276814560e+00
 9.521652591550263e-01	 2.054350365975638e+00	 7.581693241422162e+00
 9.048803130001394e-01	 2.075612198096130e+00	 7.363638908525590e+00
 8.573281030629928e-01	 2.095701099181118e+00	 7.156927888986418e+00
 8.095503908479320e-01	 2.114616479347565e+00	 6.959210601070319e+00
 7.615885416124684e-01	 2.132359636621504e+00	 6.768052184379169e+00
 7.134834238489844e-01	 2.148933709689294e+00	 6.580953530924530e+00
 6.652753135953589e-01	 2.164343624711408e+00	 6.395371113774242e+00
 6.170038039376082e-01	 2.178596036693391e+00	 6.208735207392624e+00
 5.687077200153419e-01	 2.191699265928731e+00	 6.018466137287952e+00
 5.204250397880004e-01	 2.203663230042855e+00	 5.821988251455957e+00
 4.721928207671577e-01	 2.214499372176251e+00	 5.616741370269812e+00
 9.611759285161097e-01	 2.073791394434280e+00	 7.619655934399388e+00
 9.134435085518297e-01	 2.095254434630057e+00	 7.406730485160816e+00
 8.654412955956630e-01	 2.115533443938045e+00	 7.204840710089529e+00
 8.172114463555208e-01	 2.134627826892953e+00	 7.011683168957511e+00
 7.687957175426596e-01	 2.152538893804492e+00	 6.824854114901214e+00
 7.202353644021467e-01	 2.169269813061505e+00	 6.641871966601027e+00
 6.715710441179437e-01	 2.184825557442442e+00	 6.460198645489974e+00
 6.228427244591397e-01	 2.199212844931472e+00	 6.277259334399835e+00
 5.740895979810745e-01	 2.212440074559913e+00	 6.090460258488241e+00
 5.253500020417597e-01	 2.224517257807119e+00	 5.897204146128315e+00
 4.766613448408244e-01	 2.235455946103989e+00	 5.694903094479939e+00
 4.319762526806628e-01	 2.025890903610537e+00	 4.945709497260038e+00
 3.879280512002444e-01	 2.034784750732353e+00	 4.737530871469668e+00
 3.439911120842769e-01	 2.042671539389181e+00	 4.539329893217920e+00
 3.001965133239438e-01	 2.049565506885989e+00	 4.354385243353353e+00
 2.565742764019076e-01	 2.055481998271383e+00	 4.185954674520896e+00
 2.131533277594072e-01	 2.060437390198932e+00	 4.037220247653943e+00
 1.699614659213576e-01	 2.064449014128598e+00	 3.911235968457769e+00
 1.270253341717502e-01	 2.067535079295862e+00	 3.810878235180490e+00
 8.437039863995066e-02	 2.069714595853613e+00	 3.738799476760631e+00
 4.202093163001498e-02	 2.071007298567183e+00	 3.697385323758155e+00
 0.000000000000000e+00	 2.071433571416667e+00	 3.688715613692682e+00
 4.364447532964779e-01	 2.046847367519760e+00	 5.021916069271997e+00
 3.919409031220824e-01	 2.055833215443014e+00	 4.811340803818617e+00
 3.475494662456074e-01	 2.063801587566210e+00	 4.610532339067117e+00
 3.033018421389235e-01	 2.070766868469550e+00	 4.422704803987123e+00
 2.592283628365179e-01	 2.076744561935723e+00	 4.251073657421625e+00
 2.153582540039958e-01	 2.081751214023633e+00	 4.098799587140443e+00
 1.717196017231103e-01	 2.085804335475403e+00	 3.968934636882479e+00
 1.283393248845097e-01	 2.088922323888665e+00	 3.864370995306737e+00
 8.524315304735246e-02	 2.091124386063406e+00	 3.787792850396096e+00
 4.245560959617611e-02	 2.092430460907678e+00	 3.741631677511876e+00
 0.000000000000000e+00	 2.092861143259980e+00	 3.728025289340218e+00
 4.409132544329042e-01	 2.067803833873838e+00	 5.096787659710253e+00
 3.959537555113419e-01	 2.076881682609268e+00	 4.884622918585357e+00
 3.511078208213173e-01	 2.084931638208360e+00	 4.682081443067305e+00
 3.064071713154290e-01	 2.091968232526561e+00	 4.492117278246555e+00
 2.618824495800290e-01	 2.098007128080660e+00	 4.317712847065714e+00
 2.175631805051274e-01	 2.103065040334922e+00	 4.161822719333271e+00
 1.734777377293521e-01	 2.107159659313644e+00	 4.027319323225300e+00
 1.296533157500442e-01	 2.110309570976638e+00	 3.916941052974410e+00
 8.611590755618841e-02	 2.112534178771003e+00	 3.833243199359816e+00
 4.289028761283620e-02	 2.113853625747538e+00	 3.778552096982094e+00
 0.000000000000000e+00	 2.114288717603178e+00	 3.754922844438179e+00
 4.453817566113962e-01	 2.088760305117629e+00	 5.170734250353531e+00
 3.999666088363301e-01	 2.097930154686715e+00	 4.957739614046388e+00
 3.546661762266979e-01	 2.106061693780752e+00	 4.754276784153026e+00
 3.095125012159047e-01	 2.113169601530470e+00	 4.562850030976196e+00
 2.645365369422418e-01	 2.119269699186794e+00	 4.386023754205095e+00
 2.197681075201958e-01	 2.124378871619384e+00	 4.226367310607074e+00
 1.752358741453398e-01	 2.128514988134759e+00	 4.086401386543532e+00
 1.309673069217733e-01	 2.131696823054944e+00	 3.968546385972866e+00
 8.698866226837108e-02	 2.133943976474207e+00	 3.875073282262321e+00
 4.332496573075895e-02	 2.135276795586137e+00	 3.808057353576103e+00
 0.000000000000000e+00	 2.135716296946142e+00	 3.769335187092363e+00
 4.498502603534081e-01	 2.109716783695988e+00	 5.244155872251461e+00
 4.039794635653531e-01	 2.118978634130946e+00	 5.031045147833204e+00
 3.582245328770405e-01	 2.127191756748507e+00	 4.827412113818665e+00
 3.126178322027945e-01	 2.134370977954724e+00	 4.635127178115198e+00
 2.671906252329567e-01	 2.140532277734721e+00	 4.456157251109946e+00
 2.219730353065951e-01	 2.145692710363608e+00	 4.292512802906708e+00
 1.769940111763299e-01	 2.149870324430184e+00	 4.146195956827485e+00
 1.322812985531165e-01	 2.153084082618756e+00	 4.019150104014765e+00
 8.786141728581293e-02	 2.155353781670824e+00	 3.913211507821198e+00
 4.375964400070806e-02	 2.156699972922836e+00	 3.830063343547464e+00
 0.000000000000000e+00	 2.157143883788756e+00	 3.771192589175659e+00
 4.543187661803939e-01	 2.130673272053770e+00	 5.317442996450714e+00
 4.079923201667177e-01	 2.140027123397559e+00	 5.104885955541058e+00
 3.617828911876362e-01	 2.148321829576743e+00	 4.901775576874939e+00
 3.157231646385432e-01	 2.155572364272775e+00	 4.709169695323929e+00
 2.698447147619742e-01	 2.161794866205042e+00	 4.528263565038081e+00
 2.241779641217191e-01	 2.167006559054178e+00	 4.360340300040082e+00
 1.787521490275789e-01	 2.171225670691355e+00	 4.206721732827003e+00
 1.335952907974934e-01	 2.174471352163239e+00	 4.068720187226809e+00
 8.873417271042644e-02	 2.176763596858655e+00	 3.947591653233670e+00
 4.419432247344724e-02	 2.178123160257006e+00	 3.844490835190782e+00
 0.000000000000000e+00	 2.178571480630902e+00	 3.760428520627989e+00
 4.587872746138076e-01	 2.151629772635831e+00	 5.390976902084318e+00
 4.120051791087306e-01	 2.161075624942147e+00	 5.179600950839530e+00
 3.653412515737766e-01	 2.169451914730585e+00	 4.977649919370742e+00
 3.188284988855947e-01	 2.176773762958071e+00	 4.785195520291196e+00
 2.724988058390947e-01	 2.183057467078351e+00	 4.602492272092328e+00
 2.263828942229617e-01	 2.188320420177684e+00	 4.429932460610657e+00
 1.805102879043433e-01	 2.192581029409707e+00	 4.268000791684153e+00
 1.349092838083233e-01	 2.195858634183561e+00	 4.117229239917900e+00
 8.960692864412410e-02	 2.198173424535505e+00	 3.978152599005799e+00
 4.462900119974023e-02	 2.199546360088014e+00	 3.851265230812563e+00
 0.000000000000000e+00	 2.199999089972466e+00	 3.736979493441085e+00
 4.632557861751034e-01	 2.172586287887028e+00	 5.465130023353800e+00
 4.160180408596983e-01	 2.182124141220309e+00	 5.255521808334701e+00
 3.688996144507527e-01	 2.190582014675150e+00	 5.055312684546799e+00
 3.219338353063936e-01	 2.197975176484062e+00	 4.863419649148195e+00
 2.751528987741193e-01	 2.204320082835248e+00	 4.678992291437853e+00
 2.285878258677168e-01	 2.209634296220713e+00	 4.501373397139990e+00
 1.822684280118795e-01	 2.213936403076679e+00	 4.330058409575109e+00
 1.362232777390260e-01	 2.217245931174891e+00	 4.164654258591359e+00
 9.047968518881849e-02	 2.219583267199179e+00	 4.004838079127946e+00
 4.506368023035070e-02	 2.220969574915227e+00	 3.850316342480915e+00
 0.000000000000000e+00	 2.221426714313330e+00	 3.700784914676130e+00
 4.677243013857355e-01	 2.193542820252216e+00	 5.540266276814554e+00
 4.200309058879275e-01	 2.203172674687637e+00	 5.332973230335480e+00
 3.724579802338558e-01	 2.211712131875560e+00	 5.135036397620618e+00
 3.250391742633841e-01	 2.219176607324195e+00	 4.944054227382892e+00
 2.778069938768483e-01	 2.225582715956331e+00	 4.757911879856319e+00
 2.307927593133784e-01	 2.230948189669850e+00	 4.574748580967793e+00
 1.840265695554444e-01	 2.235291794183705e+00	 4.392922892624743e+00
 1.375372727430208e-01	 2.238633245632397e+00	 4.210976413249726e+00
 9.135244244642203e-02	 2.240993127347479e+00	 4.027596445568898e+00
 4.549835961604239e-02	 2.242392807238013e+00	 3.841578180631939e+00
 0.000000000000000e+00	 2.242854356153377e+00	 3.651786947907718e+00
 4.721928207671577e-01	 2.214499372176251e+00	 5.616741370269812e+00
 4.240437746617247e-01	 2.224221227799726e+00	 5.412273198590707e+00
 3.760163493383774e-01	 2.232842268796936e+00	 5.217088740143975e+00
 3.281445161190102e-01	 2.240378057951919e+00	 5.027308635620254e+00
 2.804610914570824e-01	 2.246845368922198e+00	 4.839398626614573e+00
 2.329976948173403e-01	 2.252262103011682e+00	 4.650144752545065e+00
 1.857847127402942e-01	 2.256647205222224e+00	 4.456625417413331e+00
 1.388512689737273e-01	 2.260020580051247e+00	 4.256180841110803e+00
 9.222520051884722e-02	 2.262403007478210e+00	 4.046380446140588e+00
 4.593303940757901e-02	 2.263816059555741e+00	 3.824988754680784e+00
 0.000000000000000e+00	 2.264282017992491e+00	 3.589930382537963e+00
 4.766613448408244e-01	 2.235455946103989e+00	 5.694903094479939e+00
 4.280566476493967e-01	 2.245269803012173e+00	 5.493733211983156e+00
 3.795747221796087e-01	 2.253972427904400e+00	 5.301732714615325e+00
 3.312498612357167e-01	 2.261579530840685e+00	 5.113389570603477e+00
 2.831151918246224e-01	 2.268108044213447e+00	 4.923599448625944e+00
 2.352026326369965e-01	 2.273576038732799e+00	 4.727649836767601e+00
 1.875428577716857e-01	 2.278002638683672e+00	 4.521199880445408e+00
 1.401652665845650e-01	 2.281407936926608e+00	 4.300256451920353e+00
 9.309795950800662e-02	 2.283812910089177e+00	 4.061147014855498e+00
 4.636771965572428e-02	 2.285239334367776e+00	 3.800489884850587e+00
 0.000000000000000e+00	 2.285709702330555e+00	 3.515162510463027e+00
 2.285709702330555e+00	 0.000000000000000e+00	 1.114745421159545e+01
 2.285239334367776e+00	 4.636771965572492e-02	 1.122356896862759e+01
 2.283812910089176e+00	 9.309795950800720e-02	 1.128639460674364e+01
 2.281407936926607e+00	 1.401652665845655e-01	 1.134028720123526e+01
 2.278002638683671e+00	 1.875428577716861e-01	 1.138902345333359e+01
 2.273576038732799e+00	 2.352026326369968e-01	 1.143574085378468e+01
 2.268108044213447e+00	 2.831151918246225e-01	 1.148288025497989e+01
 2.261579530840685e+00	 3.312498612357169e-01	 1.153213140729516e+01
 2.253972427904400e+00	 3.795747221796088e-01	 1.158438202301701e+01
 2.245269803012173e+00	 4.280566476493967e-01	 1.163967093924418e+01
 2.235455946103989e+00	 4.766613448408244e-01	 1.169714595967463e+01
 2.307138908349512e+00	 0.000000000000000e+00	 1.112582353520893e+01
 2.306664130547552e+00	 4.680243077277465e-02	 1.120026164150445e+01
 2.305224333118228e+00	 9.397078047626485e-02	 1.126293598659812e+01
 2.302796812618926e+00	 1.414793575090448e-01	 1.131794000788967e+01
 2.299359588694984e+00	 1.893011276577873e-01	 1.136873074115305e+01
 2.294891488056761e+00	 2.374077270402537e-01	 1.141806896241118e+01
 2.289372229467221e+00	 2.857694806729109e-01	 1.146796218346878e+01
 2.282782509345629e+00	 3.343554268781614e-01	 1.151961106821458e+01
 2.275104087563641e+00	 3.831333477181670e-01	 1.157335984084278e+01
 2.266319872982676e+00	 4.320698056105363e-01	 1.162865126161281e+01
 2.256414008256287e+00	 4.811301862458283e-01	 1.168398675097471e+01
 2.328568121870044e+00	 0.000000000000000e+00	 1.111248263070257e+01
 2.328088934227355e+00	 4.723714204207514e-02	 1.118181178446361e+01
 2.326635763642614e+00	 9.484360175019492e-02	 1.124214526284169e+01
 2.324185695798672e+00	 1.427934488937076e-01	 1.129702312479913e+01
 2.320716546182525e+00	 1.910593981595859e-01	 1.134931682867235e+01
 2.316206944842396e+00	 2.396128222156351e-01	 1.140117267993272e+01
 2.310636422164698e+00	 2.884237704505695e-01	 1.145395856585625e+01
 2.303985495272823e+00	 3.374609936079422e-01	 1.150821452434707e+01
 2.296235754620143e+00	 3.866919745026454e-01	 1.156360769265868e+01
 2.287369950321857e+00	 4.360829649766908e-01	 1.161889218113685e+01
 2.277372077745035e+00	 4.855990292153431e-01	 1.167187441782033e+01
 2.349997325391393e+00	 0.000000000000000e+00	 1.111211760089433e+01
 2.349513727910038e+00	 4.767185310843382e-02	 1.117137560138990e+01
 2.348047184176136e+00	 9.571642261668062e-02	 1.122583583093486e+01
 2.345574568998093e+00	 1.441075396649715e-01	 1.127820144040292e+01
 2.342073493704668e+00	 1.928176678406940e-01	 1.133049913941653e+01
 2.337522391682034e+00	 2.418179163618175e-01	 1.138402922963034e+01
 2.331900604940131e+00	 2.910780589894290e-01	 1.143931934638160e+01
 2.325188471306568e+00	 3.405665588883642e-01	 1.149608240507551e+01
 2.317367411816507e+00	 3.902505996263814e-01	 1.155317923979923e+01
 2.308420017839000e+00	 4.400961224700385e-01	 1.160858641442357e+01
 2.298330137454701e+00	 4.900678700994515e-01	 1.165936968149795e+01
 2.371426501412799e+00	 0.000000000000000e+00	 1.112924418647854e+01
 2.370938494098454e+00	 4.810656361665806e-02	 1.117199504979332e+01
 2.369458577232591e+00	 9.658924236260502e-02	 1.121575617755770e+01
 2.366963414749446e+00	 1.454216287492544e-01	 1.126211722198403e+01
 2.363430413819788e+00	 1.945759352647236e-01	 1.131200745939414e+01
 2.358837811167995e+00	 2.440230076774767e-01	 1.136565564265016e+01
 2.353164760427771e+00	 2.937323441213199e-01	 1.142255397166706e+01
 2.346391420131164e+00	 3.436721201827317e-01	 1.148142659678435e+01
 2.338499041895334e+00	 3.938092201827127e-01	 1.154020305171416e+01
 2.329470058343392e+00	 4.441092748127572e-01	 1.159599699742513e+01
 2.319288170269756e+00	 4.945367052482362e-01	 1.164509064655275e+01
 2.392855632433507e+00	 0.000000000000000e+00	 1.116821539679427e+01
 2.392363215295452e+00	 4.854127321155522e-02	 1.118660297483247e+01
 2.390869925325779e+00	 9.746206027485142e-02	 1.121359281887173e+01
 2.388352215584979e+00	 1.467357150729743e-01	 1.124939117099947e+01
 2.384787289086263e+00	 1.963341989952869e-01	 1.129358343341373e+01
 2.380153185892605e+00	 2.462280943612890e-01	 1.134510702947219e+01
 2.374428871261868e+00	 2.963866236780724e-01	 1.140222878083300e+01
 2.367594324430906e+00	 3.467776749543492e-01	 1.146252710344360e+01
 2.359630627599226e+00	 3.973678332649775e-01	 1.152287929609257e+01
 2.350520054644317e+00	 4.481224187270251e-01	 1.157945417026908e+01
 2.340246159074666e+00	 4.990055310117795e-01	 1.162771025035689e+01
 2.414284700952755e+00	 0.000000000000000e+00	 1.123322873484183e+01
 2.413787874003888e+00	 4.897598153793274e-02	 1.121802797030767e+01
 2.412281210969500e+00	 9.833487564030279e-02	 1.122097308240756e+01
 2.409740954036949e+00	 1.480497975625489e-01	 1.124062342199405e+01
 2.406144102062465e+00	 1.980924575959958e-01	 1.127498008765146e+01
 2.401468498448189e+00	 2.484331746119307e-01	 1.132147494246099e+01
 2.395692920076675e+00	 2.990408954915173e-01	 1.137696453319208e+01
 2.388797166890095e+00	 3.498832206665216e-01	 1.143772907249192e+01
 2.380762151670787e+00	 4.009264359665133e-01	 1.149947660284515e+01
 2.371569989551065e+00	 4.521355509350203e-01	 1.155735242502137e+01
 2.361204086753899e+00	 5.034743437401641e-01	 1.160595384494395e+01
 2.435713689469788e+00	 0.000000000000000e+00	 1.132833304149758e+01
 2.435212452726612e+00	 4.941068824059797e-02	 1.126899898341255e+01
 2.433692416677551e+00	 9.920768774584247e-02	 1.123946774219354e+01
 2.431129612637605e+00	 1.493638751443961e-01	 1.123639448856610e+01
 2.427500835306768e+00	 1.998507096304625e-01	 1.125596137685459e+01
 2.422783731427070e+00	 2.506382466280781e-01	 1.129388582389639e+01
 2.416956889506443e+00	 3.016951573934846e-01	 1.134543406506145e+01
 2.409999930193029e+00	 3.529887547825532e-01	 1.140543997585373e+01
 2.401893596852616e+00	 4.044850253806578e-01	 1.146832909125297e+01
 2.392619845872918e+00	 4.561486681589207e-01	 1.152814770636247e+01
 2.382161936191926e+00	 5.079431397834724e-01	 1.157859690297645e+01
 2.457142580483845e+00	 0.000000000000000e+00	 1.145743498213965e+01
 2.456636933966477e+00	 4.984539296435832e-02	 1.134214967886358e+01
 2.455103524963736e+00	 1.000804958783535e-01	 1.127059351607055e+01
 2.452518173919202e+00	 1.506779467449339e-01	 1.123726615961176e+01
 2.448857471377549e+00	 2.016089536622990e-01	 1.123630175467816e+01
 2.444098867421572e+00	 2.528433086084071e-01	 1.126149953427248e+01
 2.438220762185422e+00	 3.043494072158050e-01	 1.130636006782114e+01
 2.431202597024008e+00	 3.560942747657489e-01	 1.136412693663280e+01
 2.423024945887314e+00	 4.080435986007486e-01	 1.142783355033608e+01
 2.413669606419165e+00	 4.601617671209048e-01	 1.149035475585534e+01
 2.403119690273213e+00	 5.124119154917871e-01	 1.154446284028001e+01
 2.478571356494168e+00	 0.000000000000000e+00	 1.162430519729363e+01
 2.478061300226335e+00	 5.028009535402118e-02	 1.144002257694757e+01
 2.476514518341851e+00	 1.009532993247190e-01	 1.131581543352034e+01
 2.473906620413990e+00	 1.519920112905800e-01	 1.124378234885136e+01
 2.470213992833183e+00	 2.033671882551175e-01	 1.121578576575552e+01
 2.465413889024021e+00	 2.550483587515942e-01	 1.122350795601357e+01
 2.459484520747865e+00	 3.070036427903091e-01	 1.125851297989111e+01
 2.452405150067330e+00	 3.591997780794130e-01	 1.131231419267833e+01
 2.444156181517485e+00	 4.116021527201237e-01	 1.137644676318225e+01
 2.434719253999090e+00	 4.641748445431501e-01	 1.144254459112788e+01
 2.424077331882229e+00	 5.168806672151909e-01	 1.150242094790014e+01
 2.500000000000000e+00	 0.000000000000000e+00	 1.183258413742824e+01
 2.499485534009037e+00	 5.071479505439391e-02	 1.156507297903271e+01
 2.497925379325695e+00	 1.018260973718223e-01	 1.137654908176509e+01
 2.495294934654221e+00	 1.533060677077523e-01	 1.125646990043645e+01
 2.491570382232043e+00	 2.051254119725298e-01	 1.119420765820044e+01
 2.486728778826740e+00	 2.572533952563153e-01	 1.117913366808704e+01
 2.480748147828021e+00	 3.096578619488271e-01	 1.120070898580026e+01
 2.473607572007293e+00	 3.623052621868502e-01	 1.124858068882238e+01
 2.465287286485730e+00	 4.151606848321207e-01	 1.131268296661046e+01
 2.455768771421980e+00	 4.681878971478351e-01	 1.138334211188637e+01
 2.445034843903442e+00	 5.213493913037660e-01	 1.145138442712034e+01
 2.235455946103989e+00	 4.766613448408244e-01	 1.169714595967463e+01
 2.224517257807120e+00	 5.253500020417595e-01	 1.175302542465446e+01
 2.212440074559912e+00	 5.740895979810740e-01	 1.180495018567041e+01
 2.199212844931473e+00	 6.228427244591394e-01	 1.185333183468471e+01
 2.184825557442442e+00	 6.715710441179432e-01	 1.189835435191702e+01
 2.169269813061506e+00	 7.202353644021465e-01	 1.193996947513148e+01
 2.152538893804492e+00	 7.687957175426593e-01	 1.197789454142639e+01
 2.134627826892952e+00	 8.172114463555201e-01	 1.201161309948449e+01
 2.115533443938045e+00	 8.654412955956624e-01	 1.204037862173276e+01
 2.095254434630057e+00	 9.134435085518292e-01	 1.206322167074034e+01
 2.073791394434280e+00	 9.611759285161097e-01	 1.207896088906172e+01
 2.256414008256287e+00	 4.811301862458283e-01	 1.168398675097471e+01
 2.245372766513624e+00	 5.302753140406218e-01	 1.173672714864590e+01
 2.233182356093088e+00	 5.794718581395882e-01	 1.178610143669785e+01
 2.219831117265688e+00	 6.286820596301397e-01	 1.183252125698493e+01
 2.205308944691468e+00	 6.778672217301693e-01	 1.187618910850004e+01
 2.189607360595696e+00	 7.269877844425154e-01	 1.191709431816649e+01
 2.172719584011091e+00	 7.760034052884064e-01	 1.195501127648276e+01
 2.154640595537924e+00	 8.248730459107300e-01	 1.198950023263161e+01
 2.135367197082753e+00	 8.735550642842691e-01	 1.201991098187776e+01
 2.114898066051313e+00	 9.220073122162220e-01	 1.204538980984751e+01
 2.093233803491546e+00	 9.701872377670455e-01	 1.206489007994952e+01
 2.277372077745035e+00	 4.855990292153431e-01	 1.167187441782033e+01
 2.266228282520663e+00	 5.352006277637669e-01	 1.172109657070812e+01
 2.253924644887158e+00	 5.848541201823239e-01	 1.176747294652401e+01
 2.240449396817386e+00	 6.345213968453441e-01	 1.181148169794816e+01
 2.225792339110761e+00	 6.841634015464994e-01	 1.185340003684709e+01
 2.209944915249102e+00	 7.337402068466751e-01	 1.189329998911403e+01
 2.192900281282004e+00	 7.832110955572863e-01	 1.193104625125077e+01
 2.174653371188434e+00	 8.325346481479363e-01	 1.196629644997479e+01
 2.155200957170344e+00	 8.816688358131211e-01	 1.199850415125353e+01
 2.134541704348909e+00	 9.305711188783562e-01	 1.202692500387946e+01
 2.112676219354720e+00	 9.791985501723268e-01	 1.205062643104684e+01
 2.298330137454701e+00	 4.900678700994515e-01	 1.165936968149795e+01
 2.287083788796493e+00	 5.401259391885382e-01	 1.170514966459709e+01
 2.274666924002859e+00	 5.902363797134946e-01	 1.174847896294977e+01
 2.261067666748581e+00	 6.403607313357293e-01	 1.178996730718250e+01
 2.246275723972488e+00	 6.904595784248611e-01	 1.183002164146188e+01
 2.230282460412988e+00	 7.404926260999934e-01	 1.186884085611554e+01
 2.213080969136578e+00	 7.904187824629013e-01	 1.190641250204683e+01
 2.194666137500949e+00	 8.401962468100808e-01	 1.194251180480195e+01
 2.175034708003458e+00	 8.897826035559196e-01	 1.197670334837845e+01
 2.154185333480725e+00	 9.391349215444331e-01	 1.200834584458899e+01
 2.132118626145997e+00	 9.882098583727182e-01	 1.203660043874692e+01
 2.319288170269756e+00	 4.945367052482362e-01	 1.164509064655275e+01
 2.307939268309359e+00	 5.450512442922796e-01	 1.168794362615917e+01
 2.295409176500926e+00	 5.956186323373118e-01	 1.172856078526502e+01
 2.281685910221292e+00	 6.462000583322722e-01	 1.176774716031277e+01
 2.266759082548822e+00	 6.967557472231837e-01	 1.180609332079435e+01
 2.250619979478617e+00	 7.472450366878393e-01	 1.184396828408358e+01
 2.233261631094163e+00	 7.976264601188545e-01	 1.188151433391184e+01
 2.214678878131932e+00	 8.478578356401045e-01	 1.191864408671314e+01
 2.194868433384731e+00	 8.978963608863662e-01	 1.195504020963203e+01
 2.173828937404647e+00	 9.476987132206544e-01	 1.199015824682381e+01
 2.151561007987568e+00	 9.972211550089856e-01	 1.202323305217913e+01
 2.340246159074666e+00	 4.990055310117795e-01	 1.162771025035689e+01
 2.328794704027514e+00	 5.499765390523342e-01	 1.166857502841195e+01
 2.316151385442097e+00	 6.010008736579895e-01	 1.170718553224969e+01
 2.302304110397535e+00	 6.520393730659489e-01	 1.174460454512817e+01
 2.287242398111933e+00	 7.030519027993953e-01	 1.178165907491757e+01
 2.270957455837254e+00	 7.539974330955811e-01	 1.181893066580356e+01
 2.253442250674105e+00	 8.048341226387467e-01	 1.185674757592167e+01
 2.234691576737848e+00	 8.555194083809484e-01	 1.189517920120096e+01
 2.214702117116804e+00	 9.060101011781614e-01	 1.193403319284914e+01
 2.193472500078554e+00	 9.562624869132216e-01	 1.197285577597644e+01
 2.171003349001629e+00	 1.006232432721893e+00	 1.201093582487996e+01
 2.361204086753899e+00	 5.034743437401641e-01	 1.160595384494395e+01
 2.349650078919209e+00	 5.549018194460459e-01	 1.164617807067839e+01
 2.336893533887108e+00	 6.063830992797401e-01	 1.168384497088155e+01
 2.322922250439329e+00	 6.578786707677364e-01	 1.172033628007715e+01
 2.307725653933993e+00	 7.093480400114246e-01	 1.175676722228313e+01
 2.291294872880161e+00	 7.607498098085866e-01	 1.179397344402232e+01
 2.273622811395755e+00	 8.120417641361812e-01	 1.183249981463513e+01
 2.254704216975163e+00	 8.631809587755539e-01	 1.187259151980881e+01
 2.234535743002314e+00	 9.141238178050065e-01	 1.191418794924676e+01
 2.213116005460331e+00	 9.648262356283369e-01	 1.195691994683967e+01
 2.190445633310372e+00	 1.015243684152207e+00	 1.200011104624296e+01
 2.382161936191926e+00	 5.079431397834724e-01	 1.157859690297645e+01
 2.370505375952691e+00	 5.598270814507580e-01	 1.161992291599113e+01
 2.357635604896696e+00	 6.117653048067765e-01	 1.165805440201863e+01
 2.343540313508692e+00	 6.637179466686113e-01	 1.169475206312205e+01
 2.328208833287173e+00	 7.156441537172005e-01	 1.173147012499970e+01
 2.311632213998602e+00	 7.675021613122252e-01	 1.176933912508098e+01
 2.293803296778457e+00	 8.192493787247600e-01	 1.180915060702831e+01
 2.274716782500338e+00	 8.708424805668625e-01	 1.185134420268143e+01
 2.254369294843901e+00	 9.222375041406022e-01	 1.189599766563687e+01
 2.232759437507859e+00	 9.733899523722006e-01	 1.194282049563345e+01
 2.209887845035992e+00	 1.024254901940693e+00	 1.199115185399889e+01
 2.403119690273213e+00	 5.124119154917871e-01	 1.154446284028001e+01
 2.391360578096211e+00	 5.647523210438142e-01	 1.158901411138727e+01
 2.378377581531597e+00	 6.171474858433109e-01	 1.162935159958480e+01
 2.364158282767639e+00	 6.695571959995501e-01	 1.166767384910509e+01
 2.348691919443643e+00	 7.219402387746505e-01	 1.170582392211773e+01
 2.331969462583841e+00	 7.742544820918645e-01	 1.174526728461134e+01
 2.313983690341562e+00	 8.264569605180853e-01	 1.178707167417025e+01
 2.294729256969841e+00	 8.785039674978151e-01	 1.183188949519614e+01
 2.274202756444202e+00	 9.303511535586509e-01	 1.187994337874310e+01
 2.252402780179022e+00	 9.819536301510154e-01	 1.193101562684567e+01
 2.229329968300680e+00	 1.033266078728114e+00	 1.198444232889099e+01
 2.424077331882229e+00	 5.168806672151909e-01	 1.150242094790014e+01
 2.412215668318022e+00	 5.696775342025580e-01	 1.155268908608529e+01
 2.399119446852547e+00	 6.225296379935568e-01	 1.159729580002692e+01
 2.384776141378188e+00	 6.753964139915297e-01	 1.163893525390503e+01
 2.369174895675575e+00	 7.282362900417040e-01	 1.167988827043980e+01
 2.352306602027141e+00	 7.810067666328734e-01	 1.172199456577932e+01
 2.334163975604418e+00	 8.336645036297594e-01	 1.176662707680879e+01
 2.314741624040133e+00	 8.861654133113528e-01	 1.181466900024682e+01
 2.294036111605858e+00	 9.384647594328523e-01	 1.186649426331382e+01
 2.272046017431703e+00	 9.905172619709826e-01	 1.192195223641680e+01
 2.248771987226633e+00	 1.042277207155237e+00	 1.198035757263006e+01
 2.445034843903442e+00	 5.213493913037660e-01	 1.145138442712034e+01
 2.433070629586371e+00	 5.746027169043326e-01	 1.151021672287903e+01
 2.419861183920283e+00	 6.279117568617266e-01	 1.156146673903302e+01
 2.405393872502356e+00	 6.812355958755263e-01	 1.160838098378171e+01
 2.389657745255139e+00	 7.345323023762887e-01	 1.165372609240885e+01
 2.372643615719767e+00	 7.877590094206199e-01	 1.169975467052615e+01
 2.354344136086372e+00	 8.408720021733842e-01	 1.174817337395517e+01
 2.334753867367681e+00	 8.938268117504171e-01	 1.180011392764566e+01
 2.313869344131505e+00	 9.465783151369085e-01	 1.185610789560865e+01
 2.291689133223782e+00	 9.990808408383031e-01	 1.191606611269388e+01
 2.268213885936042e+00	 1.051288279862827e+00	 1.197926377014029e+01
 2.073791394434280e+00	 9.611759285161097e-01	 1.207896088906172e+01
 2.051145241532621e+00	 1.008599410192016e+00	 1.209152529450230e+01
 2.027321972724093e+00	 1.055667947389144e+00	 1.210408273217830e+01
 2.002328134979822e+00	 1.102338812178033e+00	 1.211385258189517e+01
 1.976172303658703e+00	 1.148569322048130e+00	 1.211766566575301e+01
 1.948865093828005e+00	 1.194316958604124e+00	 1.211200090678483e+01
 1.920419163335237e+00	 1.239539487946723e+00	 1.209302952272414e+01
 1.890849207429085e+00	 1.284195082073666e+00	 1.205666673572736e+01
 1.860171944788112e+00	 1.328242440612528e+00	 1.199863080593414e+01
 1.828406094879804e+00	 1.371640912178962e+00	 1.191450900448710e+01
 1.795572346638762e+00	 1.414350614642753e+00	 1.179982993478671e+01
 2.093233803491546e+00	 9.701872377670455e-01	 1.206489007994952e+01
 2.070375336193575e+00	 1.018055328641494e+00	 1.208187745163031e+01
 2.046328717178178e+00	 1.065565147327488e+00	 1.209886655542603e+01
 2.021100554796270e+00	 1.112673565308554e+00	 1.211291497943635e+01
 1.994699504803280e+00	 1.159337499912949e+00	 1.212065674381351e+01
 1.967136281785876e+00	 1.205514034122794e+00	 1.211833987064738e+01
 1.938423662262635e+00	 1.251160538083469e+00	 1.210187198295047e+01
 1.908576479254555e+00	 1.296234791642787e+00	 1.206687394365919e+01
 1.877611608182762e+00	 1.340695107225082e+00	 1.200874136347776e+01
 1.845547944015299e+00	 1.384500452327225e+00	 1.192271360316999e+01
 1.812406369651657e+00	 1.427610570912203e+00	 1.180394967650311e+01
 2.112676219354720e+00	 9.791985501723268e-01	 1.205062643104684e+01
 2.089605437586121e+00	 1.027511250400900e+00	 1.207249152287429e+01
 2.065335468285674e+00	 1.075462350730172e+00	 1.209427373244469e+01
 2.039872981184107e+00	 1.123008322056522e+00	 1.211285615798284e+01
 2.013226712433403e+00	 1.170105681546873e+00	 1.212466599337833e+01
 1.985407476139666e+00	 1.216711113560648e+00	 1.212571307020896e+01
 1.956428167492585e+00	 1.262781592287759e+00	 1.211163690932521e+01
 1.926303757285513e+00	 1.308274505425956e+00	 1.207776232430654e+01
 1.895051277682196e+00	 1.353147778196205e+00	 1.201916342790380e+01
 1.862689799151294e+00	 1.397359996976461e+00	 1.193073567835933e+01
 1.829240398557255e+00	 1.440870531822783e+00	 1.180884733426868e+01
 2.132118626145997e+00	 9.882098583727182e-01	 1.203660043874692e+01
 2.108835530005828e+00	 1.036967167747927e+00	 1.206368678706581e+01
 2.084342210524538e+00	 1.085359549514531e+00	 1.209052737965672e+01
 2.058645398812639e+00	 1.133343073981953e+00	 1.211381831884277e+01
 2.031753911418633e+00	 1.180873858155975e+00	 1.212977006611582e+01
 2.003678661968010e+00	 1.227908187773503e+00	 1.213414701126275e+01
 1.974432664321512e+00	 1.274402641069175e+00	 1.212231601859609e+01
 1.944031027044785e+00	 1.320314213590864e+00	 1.208930402545156e+01
 1.912490939044124e+00	 1.365600443356347e+00	 1.202986456784752e+01
 1.879831646288713e+00	 1.410219535624845e+00	 1.193855288292104e+01
 1.846074419607875e+00	 1.454130486545666e+00	 1.181647555057818e+01
 2.151561007987568e+00	 9.972211550089856e-01	 1.202323305217913e+01
 2.128065597748260e+00	 1.046423072960264e+00	 1.205577695639749e+01
 2.103348928372724e+00	 1.095256735597897e+00	 1.208784851114401e+01
 2.077417792351176e+00	 1.143677812644865e+00	 1.211594451432289e+01
 2.050281086628532e+00	 1.191642020946323e+00	 1.213604891442286e+01
 2.021949824349539e+00	 1.239105247617180e+00	 1.214367345566107e+01
 1.992437138045842e+00	 1.286023674937303e+00	 1.213390775543699e+01
 1.961758274055199e+00	 1.332353906305199e+00	 1.210147892372774e+01
 1.929930578026248e+00	 1.378053092535955e+00	 1.204082062474268e+01
 1.896973471428480e+00	 1.423079057770548e+00	 1.194615124475200e+01
 1.862908419055833e+00	 1.467390424252021e+00	 1.182662466211880e+01
 2.171003349001629e+00	 1.006232432721893e+00	 1.201093582487996e+01
 2.147295625108984e+00	 1.055878958315605e+00	 1.204907011474777e+01
 2.122355606308186e+00	 1.105153900897605e+00	 1.208645578786611e+01
 2.096190146469026e+00	 1.154012529605275e+00	 1.211937823241679e+01
 2.068808222932662e+00	 1.202410161123989e+00	 1.214358523639550e+01
 2.040220948362890e+00	 1.250302283947496e+00	 1.215432875150924e+01
 2.010441573962000e+00	 1.297644684401728e+00	 1.214641653282385e+01
 1.979485483839581e+00	 1.344393573736651e+00	 1.211427380003930e+01
 1.947370180386277e+00	 1.390505715565476e+00	 1.205201484793154e+01
 1.914115260571517e+00	 1.435938552911743e+00	 1.195403005194213e+01
 1.879742383153447e+00	 1.480650334113018e+00	 1.183907646010009e+01
 2.190445633310372e+00	 1.015243684152207e+00	 1.200011104624296e+01
 2.166525596383566e+00	 1.065334816091642e+00	 1.204386864616671e+01
 2.141362228808880e+00	 1.115051037330987e+00	 1.208656526615383e+01
 2.114962445835497e+00	 1.164347216423201e+00	 1.212426298860739e+01
 2.087335305200585e+00	 1.213178269895043e+00	 1.215246393447393e+01
 2.058492019086692e+00	 1.261499287620269e+00	 1.216615318231816e+01
 2.028445957366415e+00	 1.309265659972034e+00	 1.215985199538526e+01
 1.997212641920757e+00	 1.356433206052907e+00	 1.212768154071735e+01
 1.964809731881917e+00	 1.402958302275360e+00	 1.206343705703846e+01
 1.931256999718747e+00	 1.448798010546607e+00	 1.196441186740537e+01
 1.896576298153035e+00	 1.493910205299827e+00	 1.185361438583051e+01
 2.209887845035992e+00	 1.024254901940693e+00	 1.199115185399889e+01
 2.185755495867571e+00	 1.074790638566064e+00	 1.204046915413672e+01
 2.160368780352759e+00	 1.124948136815378e+00	 1.208839014553275e+01
 2.133734675119899e+00	 1.174681864658661e+00	 1.213074192435703e+01
 2.105862318301863e+00	 1.223946338465557e+00	 1.216277158693262e+01
 2.076763021599581e+00	 1.272696249491318e+00	 1.217919033396170e+01
 2.046450273555509e+00	 1.320886592157804e+00	 1.217422830432814e+01
 2.014939733821552e+00	 1.368472793421657e+00	 1.214170036284367e+01
 1.982249218270876e+00	 1.415410842496054e+00	 1.207508282994438e+01
 1.948398674871096e+00	 1.461657420173310e+00	 1.197736799923499e+01
 1.913410150306914e+00	 1.507170026983618e+00	 1.187002327842007e+01
 2.229329968300680e+00	 1.033266078728114e+00	 1.198444232889099e+01
 2.204985307856567e+00	 1.084246418016566e+00	 1.203916237217992e+01
 2.179375245417779e+00	 1.134845191268110e+00	 1.209214051592780e+01
 2.152506818991539e+00	 1.185016465871671e+00	 1.213895741188848e+01
 2.124389247106057e+00	 1.234714358041600e+00	 1.217459593144463e+01
 2.095033940980191e+00	 1.283893160416461e+00	 1.219348647836694e+01
 2.064454507825709e+00	 1.332507471468625e+00	 1.218956344263667e+01
 2.032666745064793e+00	 1.380512326010591e+00	 1.215633306228299e+01
 1.999688625310859e+00	 1.427863326058007e+00	 1.208695271481624e+01
 1.965540272029484e+00	 1.474516771290027e+00	 1.199267767257962e+01
 1.930243925867402e+00	 1.520429788335561e+00	 1.188808914610079e+01
 2.248771987226633e+00	 1.042277207155237e+00	 1.198035757263006e+01
 2.224215016646120e+00	 1.093702146720838e+00	 1.204023306634496e+01
 2.198381608481893e+00	 1.144742192606517e+00	 1.209802310429711e+01
 2.171278862119725e+00	 1.195351011622250e+00	 1.214905066488858e+01
 2.142916076482729e+00	 1.245482319829243e+00	 1.218802536000279e+01
 2.113304762307152e+00	 1.295090011251518e+00	 1.220908997293881e+01
 2.082458645473441e+00	 1.344128288414080e+00	 1.220587853933336e+01
 2.050393661173307e+00	 1.392551793987397e+00	 1.217158628306569e+01
 2.017127938759572e+00	 1.440315742791666e+00	 1.210015907697373e+01
 1.982681777194836e+00	 1.487376053394931e+00	 1.201012130820086e+01
 1.947077611086815e+00	 1.533689478526827e+00	 1.190759895974018e+01
 2.268213885936042e+00	 1.051288279862827e+00	 1.197926377014029e+01
 2.243444606531794e+00	 1.103157816956572e+00	 1.204395993006995e+01
 2.217387854023056e+00	 1.154639132747933e+00	 1.210624102074034e+01
 2.190050789173766e+00	 1.205685493470414e+00	 1.216116135479169e+01
 2.161442791301442e+00	 1.256250215034557e+00	 1.220314842453047e+01
 2.131575470659103e+00	 1.306286792852306e+00	 1.222605067479040e+01
 2.100462671795131e+00	 1.355749033503755e+00	 1.222319721167447e+01
 2.068120467669920e+00	 1.404591187519763e+00	 1.218746980685728e+01
 2.034567144374725e+00	 1.452768082527481e+00	 1.211596189002301e+01
 1.999823176368074e+00	 1.500235255986195e+00	 1.202948032209339e+01
 1.963911192217472e+00	 1.546949086728585e+00	 1.192834046721932e+01
 1.795572346638762e+00	 1.414350614642753e+00	 1.179982993478671e+01
 1.761693313516659e+00	 1.456332557532000e+00	 1.165398800378366e+01
 1.726793470031414e+00	 1.497548769785776e+00	 1.149862500170828e+01
 1.690899110080739e+00	 1.537962400507998e+00	 1.133573091957953e+01
 1.654038287239560e+00	 1.577537823697865e+00	 1.116517847846905e+01
 1.616240742336427e+00	 1.616240742336428e+00	 1.098692310184116e+01
 1.577537823697864e+00	 1.654038287239561e+00	 1.080099577050278e+01
 1.537962400507997e+00	 1.690899110080740e+00	 1.060749550106059e+01
 1.497548769785776e+00	 1.726793470031415e+00	 1.040658178143374e+01
 1.456332557532000e+00	 1.761693313516660e+00	 1.019846730557015e+01
 1.414350614642753e+00	 1.795572346638762e+00	 9.983336571348921e+00
 1.812406369651657e+00	 1.427610570912203e+00	 1.180394967650311e+01
 1.778209710551321e+00	 1.469986106960876e+00	 1.166205261752731e+01
 1.742982670688069e+00	 1.511588733422366e+00	 1.151150013369739e+01
 1.706751790472699e+00	 1.552381253912513e+00	 1.135218197800358e+01
 1.669545386490718e+00	 1.592327708426201e+00	 1.118408013165614e+01
 1.631393478399758e+00	 1.631393478399759e+00	 1.100727145732661e+01
 1.592327708426200e+00	 1.669545386490718e+00	 1.082191906477495e+01
 1.552381253912513e+00	 1.706751790472700e+00	 1.062826320241591e+01
 1.511588733422365e+00	 1.742982670688069e+00	 1.042661204095478e+01
 1.469986106960875e+00	 1.778209710551321e+00	 1.021733272609229e+01
 1.427610570912203e+00	 1.812406369651657e+00	 1.000084271621692e+01
 1.829240398557255e+00	 1.440870531822783e+00	 1.180884733426868e+01
 1.794726113367449e+00	 1.483639661168670e+00	 1.167231116234667e+01
 1.759171877011598e+00	 1.525628701973163e+00	 1.152583881514697e+01
 1.722604476413673e+00	 1.566800112363906e+00	 1.136941447246262e+01
 1.685052491169857e+00	 1.607117598331341e+00	 1.120314059982975e+01
 1.646546219766967e+00	 1.646546219766968e+00	 1.102722866595684e+01
 1.607117598331341e+00	 1.685052491169857e+00	 1.084198889723568e+01
 1.566800112363906e+00	 1.722604476413674e+00	 1.064781944102113e+01
 1.525628701973163e+00	 1.759171877011599e+00	 1.044519533862292e+01
 1.483639661168669e+00	 1.794726113367450e+00	 1.023465772242199e+01
 1.440870531822783e+00	 1.829240398557255e+00	 1.001680364790595e+01
 1.846074419607875e+00	 1.454130486545666e+00	 1.181647555057818e+01
 1.811242508476762e+00	 1.497293209005121e+00	 1.168456089378793e+01
 1.775361075780934e+00	 1.539668663972335e+00	 1.154146654755078e+01
 1.738457154957424e+00	 1.581218964086913e+00	 1.138729058237968e+01
 1.700559588612969e+00	 1.621907481335013e+00	 1.122226695004931e+01
 1.661698954063444e+00	 1.661698954063445e+00	 1.104675463790285e+01
 1.621907481335012e+00	 1.700559588612970e+00	 1.086122569039327e+01
 1.581218964086913e+00	 1.738457154957425e+00	 1.066625250257404e+01
 1.539668663972334e+00	 1.775361075780934e+00	 1.046249482356224e+01
 1.497293209005120e+00	 1.811242508476762e+00	 1.025068692440541e+01
 1.454130486545666e+00	 1.846074419607875e+00	 1.003162538285271e+01
 1.862908419055833e+00	 1.467390424252021e+00	 1.182662466211880e+01
 1.827758882390974e+00	 1.510946739319964e+00	 1.169860059233706e+01
 1.791550253775006e+00	 1.553708607954045e+00	 1.155820936175490e+01
 1.754309813157710e+00	 1.595637797306269e+00	 1.140567173862430e+01
 1.716066666156044e+00	 1.636697345358937e+00	 1.124136394882863e+01
 1.676851668914581e+00	 1.676851668914582e+00	 1.106580516669503e+01
 1.636697345358936e+00	 1.716066666156043e+00	 1.087964368157605e+01
 1.595637797306269e+00	 1.754309813157711e+00	 1.068364217984474e+01
 1.553708607954044e+00	 1.791550253775007e+00	 1.047866261971280e+01
 1.510946739319963e+00	 1.827758882390974e+00	 1.026565119597186e+01
 1.467390424252021e+00	 1.862908419055833e+00	 1.004562389179106e+01
 1.879742383153447e+00	 1.480650334113018e+00	 1.183907646010009e+01
 1.844275221621801e+00	 1.524600240962937e+00	 1.171423029408984e+01
 1.807739397772746e+00	 1.567748522452459e+00	 1.157589359533733e+01
 1.770162438068293e+00	 1.610056600246711e+00	 1.142441845911414e+01
 1.731573711135070e+00	 1.651487178324838e+00	 1.126033396713992e+01
 1.692004351945769e+00	 1.692004351945770e+00	 1.108433191443399e+01
 1.651487178324837e+00	 1.731573711135070e+00	 1.089725099873514e+01
 1.610056600246710e+00	 1.770162438068294e+00	 1.070005994899604e+01
 1.567748522452457e+00	 1.807739397772746e+00	 1.049384011209417e+01
 1.524600240962937e+00	 1.844275221621801e+00	 1.027976804022789e+01
 1.480650334113017e+00	 1.879742383153447e+00	 1.005909862374088e+01
 1.896576298153035e+00	 1.493910205299827e+00	 1.185361438583051e+01
 1.860791512680959e+00	 1.538253702783777e+00	 1.173125104642669e+01
 1.823928494553083e+00	 1.581788396001739e+00	 1.159434569251898e+01
 1.786015016742933e+00	 1.624475361132975e+00	 1.144339020380632e+01
 1.747080710886038e+00	 1.666276968154439e+00	 1.127907690101527e+01
 1.707156990782400e+00	 1.707156990782400e+00	 1.110228240817742e+01
 1.666276968154439e+00	 1.747080710886039e+00	 1.091404974239814e+01
 1.624475361132974e+00	 1.786015016742933e+00	 1.071556914645206e+01
 1.581788396001738e+00	 1.823928494553083e+00	 1.050815822746769e+01
 1.538253702783777e+00	 1.860791512680960e+00	 1.029324199228626e+01
 1.493910205299827e+00	 1.896576298153035e+00	 1.007233337488265e+01
 1.913410150306914e+00	 1.507170026983618e+00	 1.187002327842007e+01
 1.877307742080164e+00	 1.551907113632220e+00	 1.174946468715714e+01
 1.840117530894949e+00	 1.595828217136052e+00	 1.161339202522383e+01
 1.801867536235389e+00	 1.638894068189795e+00	 1.146244524788886e+01
 1.762587652744938e+00	 1.681066702769467e+00	 1.129749010678914e+01
 1.722309573049862e+00	 1.722309573049863e+00	 1.111960004681890e+01
 1.681066702769466e+00	 1.762587652744940e+00	 1.093003607339809e+01
 1.638894068189795e+00	 1.801867536235390e+00	 1.073022514628457e+01
 1.595828217136051e+00	 1.840117530894950e+00	 1.052173770974529e+01
 1.551907113632220e+00	 1.877307742080165e+00	 1.030626500058763e+01
 1.507170026983617e+00	 1.913410150306914e+00	 1.008559678317530e+01
 1.930243925867402e+00	 1.520429788335561e+00	 1.188808914610079e+01
 1.893823896331132e+00	 1.565560462358004e+00	 1.176867364570598e+01
 1.856306493577275e+00	 1.609867974389562e+00	 1.163285873400096e+01
 1.817719983599424e+00	 1.653312709641909e+00	 1.148144057206519e+01
 1.778094524047761e+00	 1.695856370091642e+00	 1.131546835009172e+01
 1.737462086373549e+00	 1.737462086373550e+00	 1.113622411782128e+01
 1.695856370091641e+00	 1.778094524047761e+00	 1.094520030602838e+01
 1.653312709641909e+00	 1.817719983599424e+00	 1.074407553808779e+01
 1.609867974389562e+00	 1.856306493577276e+00	 1.053468939046752e+01
 1.565560462358004e+00	 1.893823896331133e+00	 1.031901679741879e+01
 1.520429788335561e+00	 1.930243925867402e+00	 1.009914280587568e+01
 1.947077611086815e+00	 1.533689478526827e+00	 1.190759895974018e+01
 1.910339961945579e+00	 1.579213737810865e+00	 1.178868076501099e+01
 1.872495369378991e+00	 1.623907656296434e+00	 1.165257158761041e+01
 1.833572345888796e+00	 1.667731273714054e+00	 1.150023176890084e+01
 1.793601312130495e+00	 1.710645958042690e+00	 1.133290376776427e+01
 1.752614518378852e+00	 1.752614518378852e+00	 1.115208982321127e+01
 1.710645958042689e+00	 1.793601312130496e+00	 1.095952700629775e+01
 1.667731273714053e+00	 1.833572345888797e+00	 1.075716030531463e+01
 1.623907656296433e+00	 1.872495369378991e+00	 1.054711445465148e+01
 1.579213737810864e+00	 1.910339961945580e+00	 1.033166525928321e+01
 1.533689478526827e+00	 1.947077611086815e+00	 1.011321118099562e+01
 1.963911192217472e+00	 1.546949086728585e+00	 1.192834046721932e+01
 1.926855925435220e+00	 1.592866928840539e+00	 1.180928914289297e+01
 1.888684145079027e+00	 1.637947251390831e+00	 1.167235586015610e+01
 1.849424610157267e+00	 1.682149748630962e+00	 1.151867296427120e+01
 1.809108004329131e+00	 1.725435454544333e+00	 1.134968584192373e+01
 1.767766856691161e+00	 1.767766856691161e+00	 1.116712831428188e+01
 1.725435454544332e+00	 1.809108004329131e+00	 1.097299509498146e+01
 1.682149748630961e+00	 1.849424610157268e+00	 1.076951200404844e+01
 1.637947251390831e+00	 1.888684145079027e+00	 1.055910470228770e+01
 1.592866928840538e+00	 1.926855925435221e+00	 1.034436675773395e+01
 1.546949086728585e+00	 1.963911192217472e+00	 1.012802787366140e+01
 1.414350614642753e+00	 1.795572346638762e+00	 9.983336571348921e+00
 1.371640912178961e+00	 1.828406094879805e+00	 9.760202091380050e+00
 1.328242440612527e+00	 1.860171944788112e+00	 9.529407642326600e+00
 1.284195082073665e+00	 1.890849207429085e+00	 9.292363090332699e+00
 1.239539487946722e+00	 1.920419163335237e+00	 9.050707326802554e+00
 1.194316958604123e+00	 1.948865093828005e+00	 8.806289266188806e+00
 1.148569322048129e+00	 1.976172303658703e+00	 8.561148094496158e+00
 1.102338812178032e+00	 2.002328134979822e+00	 8.317493034056197e+00
 1.055667947389144e+00	 2.027321972724094e+00	 8.077682836755326e+00
 1.008599410192015e+00	 2.051145241532621e+00	 7.844205161394529e+00
 9.611759285161097e-01	 2.073791394434280e+00	 7.619655934399388e+00
 1.427610570912203e+00	 1.812406369651657e+00	 1.000084271621692e+01
 1.384500452327224e+00	 1.845547944015299e+00	 9.776980031150787e+00
 1.340695107225081e+00	 1.877611608182762e+00	 9.546135179409971e+00
 1.296234791642786e+00	 1.908576479254555e+00	 9.309685982761625e+00
 1.251160538083468e+00	 1.938423662262635e+00	 9.069247111259511e+00
 1.205514034122793e+00	 1.967136281785876e+00	 8.826650979128299e+00
 1.159337499912948e+00	 1.994699504803280e+00	 8.583927920105262e+00
 1.112673565308554e+00	 2.021100554796270e+00	 8.343285916779900e+00
 1.065565147327487e+00	 2.046328717178179e+00	 8.107090100777500e+00
 1.018055328641493e+00	 2.070375336193575e+00	 7.877842179660160e+00
 9.701872377670455e-01	 2.093233803491546e+00	 7.658159885548082e+00
 1.440870531822783e+00	 1.829240398557255e+00	 1.001680364790595e+01
 1.397359996976461e+00	 1.862689799151295e+00	 9.792355720054170e+00
 1.353147778196205e+00	 1.895051277682197e+00	 9.561799039562890e+00
 1.308274505425955e+00	 1.926303757285513e+00	 9.326389695738897e+00
 1.262781592287758e+00	 1.956428167492585e+00	 9.087674210010457e+00
 1.216711113560648e+00	 1.985407476139667e+00	 8.847417160887929e+00
 1.170105681546872e+00	 2.013226712433402e+00	 8.607581804444660e+00
 1.123008322056521e+00	 2.039872981184107e+00	 8.370310339415399e+00
 1.075462350730171e+00	 2.065335468285674e+00	 8.137904032372361e+00
 1.027511250400900e+00	 2.089605437586122e+00	 7.912803352413878e+00
 9.791985501723267e-01	 2.112676219354720e+00	 7.697568199040992e+00
 1.454130486545666e+00	 1.846074419607875e+00	 1.003162538285271e+01
 1.410219535624844e+00	 1.879831646288714e+00	 9.806742041410956e+00
 1.365600443356346e+00	 1.912490939044124e+00	 9.576852769699407e+00
 1.320314213590864e+00	 1.944031027044786e+00	 9.342935800314322e+00
 1.274402641069174e+00	 1.974432664321512e+00	 9.106426702422542e+00
 1.227908187773503e+00	 2.003678661968010e+00	 8.868972126673514e+00
 1.180873858155973e+00	 2.031753911418634e+00	 8.632411380465930e+00
 1.133343073981952e+00	 2.058645398812639e+00	 8.398757791075937e+00
 1.085359549514530e+00	 2.084342210524538e+00	 8.170180064777478e+00
 1.036967167747926e+00	 2.108835530005828e+00	 7.948983778419737e+00
 9.882098583727184e-01	 2.132118626145997e+00	 7.737593068784408e+00
 1.467390424252021e+00	 1.862908419055833e+00	 1.004562389179106e+01
 1.423079057770546e+00	 1.896973471428480e+00	 9.820532892893750e+00
 1.378053092535954e+00	 1.929930578026248e+00	 9.591729874160524e+00
 1.332353906305199e+00	 1.961758274055200e+00	 9.359765978272463e+00
 1.286023674937302e+00	 1.992437138045842e+00	 9.125924100380686e+00
 1.239105247617180e+00	 2.021949824349539e+00	 8.891684067662245e+00
 1.191642020946322e+00	 2.050281086628532e+00	 8.658705670588400e+00
 1.143677812644864e+00	 2.077417792351176e+00	 8.428811677686388e+00
 1.095256735597896e+00	 2.103348928372724e+00	 8.203971028758787e+00
 1.046423072960264e+00	 2.128065597748261e+00	 7.986282323619806e+00
 9.972211550089856e-01	 2.151561007987568e+00	 7.777957646382323e+00
 1.480650334113017e+00	 1.879742383153447e+00	 1.005909862374088e+01
 1.435938552911743e+00	 1.914115260571518e+00	 9.834127069900251e+00
 1.390505715565476e+00	 1.947370180386277e+00	 9.606844448997563e+00
 1.344393573736650e+00	 1.979485483839581e+00	 9.377302650626401e+00
 1.297644684401727e+00	 2.010441573962001e+00	 9.146567919474716e+00
 1.250302283947495e+00	 2.040220948362889e+00	 8.915905515594627e+00
 1.202410161123988e+00	 2.068808222932663e+00	 8.686741397829318e+00
 1.154012529605274e+00	 2.096190146469027e+00	 8.460647435386155e+00
 1.105153900897604e+00	 2.122355606308187e+00	 8.239327026783421e+00
 1.055878958315605e+00	 2.147295625108984e+00	 8.024601217484557e+00
 1.006232432721893e+00	 2.171003349001629e+00	 7.818395324111438e+00
 1.493910205299827e+00	 1.896576298153035e+00	 1.007233337488265e+01
 1.448798010546606e+00	 1.931256999718748e+00	 9.847985961434842e+00
 1.402958302275359e+00	 1.964809731881918e+00	 9.622591788016239e+00
 1.356433206052906e+00	 1.997212641920757e+00	 9.395949577759470e+00
 1.309265659972032e+00	 2.028445957366415e+00	 9.168742224457585e+00
 1.261499287620268e+00	 2.058492019086692e+00	 8.941973786882976e+00
 1.213178269895042e+00	 2.087335305200585e+00	 8.716783284193816e+00
 1.164347216423200e+00	 2.114962445835498e+00	 8.494432641298014e+00
 1.115051037330986e+00	 2.141362228808881e+00	 8.276295316885532e+00
 1.065334816091641e+00	 2.166525596383565e+00	 8.063845673452127e+00
 1.015243684152207e+00	 2.190445633310373e+00	 7.858649058291835e+00
 1.507170026983617e+00	 1.913410150306914e+00	 1.008559678317530e+01
 1.461657420173309e+00	 1.948398674871096e+00	 9.862456276138250e+00
 1.415410842496053e+00	 1.982249218270876e+00	 9.639348962323080e+00
 1.368472793421657e+00	 2.014939733821552e+00	 9.416092432963755e+00
 1.320886592157803e+00	 2.046450273555509e+00	 9.192814150562342e+00
 1.272696249491317e+00	 2.076763021599582e+00	 8.970211407500873e+00
 1.223946338465555e+00	 2.105862318301862e+00	 8.749084337112443e+00
 1.174681864658660e+00	 2.133734675119899e+00	 8.530327121829616e+00
 1.124948136815377e+00	 2.160368780352759e+00	 8.314920205633607e+00
 1.074790638566064e+00	 2.185755495867572e+00	 8.103923531980092e+00
 1.024254901940692e+00	 2.209887845035991e+00	 7.898470730574213e+00
 1.520429788335561e+00	 1.930243925867402e+00	 1.009914280587568e+01
 1.474516771290026e+00	 1.965540272029485e+00	 9.877854609489592e+00
 1.427863326058006e+00	 1.999688625310859e+00	 9.657475374994132e+00
 1.380512326010590e+00	 2.032666745064793e+00	 9.438099351001682e+00
 1.332507471468624e+00	 2.064454507825709e+00	 9.219134402153799e+00
 1.283893160416461e+00	 2.095033940980191e+00	 9.000926519830365e+00
 1.234714358041599e+00	 2.124389247106057e+00	 8.783886124660047e+00
 1.185016465871670e+00	 2.152506818991539e+00	 8.568483058663125e+00
 1.134845191268109e+00	 2.179375245417779e+00	 8.355242949649455e+00
 1.084246418016565e+00	 2.204985307856568e+00	 8.144744924835917e+00
 1.033266078728114e+00	 2.229329968300680e+00	 7.937620544836401e+00
 1.533689478526827e+00	 1.947077611086815e+00	 1.011321118099562e+01
 1.487376053394930e+00	 1.982681777194836e+00	 9.894481407842841e+00
 1.440315742791666e+00	 2.017127938759574e+00	 9.677379901391623e+00
 1.392551793987396e+00	 2.050393661173308e+00	 9.462321453204538e+00
 1.344128288414080e+00	 2.082458645473442e+00	 9.248037730089806e+00
 1.295090011251517e+00	 2.113304762307154e+00	 9.034413272561732e+00
 1.245482319829242e+00	 2.142916076482730e+00	 8.821419040238784e+00
 1.195351011622249e+00	 2.171278862119725e+00	 8.609045092577240e+00
 1.144742192606516e+00	 2.198381608481893e+00	 8.397301665166808e+00
 1.093702146720837e+00	 2.224215016646120e+00	 8.186221959347362e+00
 1.042277207155237e+00	 2.248771987226633e+00	 7.975866457542445e+00
 1.546949086728585e+00	 1.963911192217472e+00	 1.012802787366140e+01
 1.500235255986194e+00	 1.999823176368075e+00	 9.912621491516751e+00
 1.452768082527480e+00	 2.034567144374725e+00	 9.699467006135976e+00
 1.404591187519762e+00	 2.068120467669921e+00	 9.489093350518287e+00
 1.355749033503754e+00	 2.100462671795132e+00	 9.279843389071488e+00
 1.306286792852305e+00	 2.131575470659103e+00	 9.070952194665352e+00
 1.256250215034556e+00	 2.161442791301442e+00	 8.861902557360555e+00
 1.205685493470413e+00	 2.190050789173767e+00	 8.652150425235856e+00
 1.154639132747932e+00	 2.217387854023056e+00	 8.441131245151780e+00
 1.103157816956571e+00	 2.243444606531794e+00	 8.228268421421136e+00
 1.051288279862827e+00	 2.268213885936041e+00	 8.012983639563146e+00
 9.611759285161097e-01	 2.073791394434280e+00	 7.619655934399388e+00
 9.134435085518297e-01	 2.095254434630057e+00	 7.406730485160816e+00
 8.654412955956630e-01	 2.115533443938045e+00	 7.204840710089529e+00
 8.172114463555208e-01	 2.134627826892953e+00	 7.011683168957511e+00
 7.687957175426596e-01	 2.152538893804492e+00	 6.824854114901211e+00
 7.202353644021467e-01	 2.169269813061505e+00	 6.641871966601029e+00
 6.715710441179437e-01	 2.184825557442442e+00	 6.460198645489976e+00
 6.228427244591397e-01	 2.199212844931472e+00	 6.277259334399833e+00
 5.740895979810745e-01	 2.212440074559913e+00	 6.090460258488239e+00
 5.253500020417597e-01	 2.224517257807119e+00	 5.897204146128315e+00
 4.766613448408244e-01	 2.235455946103989e+00	 5.694903094479941e+00
 9.701872377670455e-01	 2.093233803491546e+00	 7.658159885548081e+00
 9.220073122162222e-01	 2.114898066051313e+00	 7.450120926714888e+00
 8.735550642842697e-01	 2.135367197082753e+00	 7.252582705758598e+00
 8.248730459107305e-01	 2.154640595537923e+00	 7.063357220037330e+00
 7.760034052884065e-01	 2.172719584011090e+00	 6.880148802560988e+00
 7.269877844425157e-01	 2.189607360595695e+00	 6.700577216512746e+00
 6.778672217301696e-01	 2.205308944691468e+00	 6.522199663546928e+00
 6.286820596301398e-01	 2.219831117265688e+00	 6.342531232000164e+00
 5.794718581395887e-01	 2.233182356093088e+00	 6.159063356231258e+00
 5.302753140406222e-01	 2.245372766513623e+00	 5.969279916762575e+00
 4.811301862458281e-01	 2.256414008256286e+00	 5.770670680421896e+00
 9.791985501723267e-01	 2.112676219354720e+00	 7.697568199040990e+00
 9.305711188783564e-01	 2.134541704348908e+00	 7.493598775012108e+00
 8.816688358131216e-01	 2.155200957170345e+00	 7.299259864141858e+00
 8.325346481479367e-01	 2.174653371188434e+00	 7.112592318790968e+00
 7.832110955572866e-01	 2.192900281282003e+00	 6.931538277932859e+00
 7.337402068466754e-01	 2.209944915249102e+00	 6.753963343057317e+00
 6.841634015464996e-01	 2.225792339110760e+00	 6.577677662983739e+00
 6.345213968453446e-01	 2.240449396817386e+00	 6.400455439252078e+00
 5.848541201823243e-01	 2.253924644887158e+00	 6.220052409081751e+00
 5.352006277637672e-01	 2.266228282520663e+00	 6.034220922407831e+00
 4.855990292153431e-01	 2.277372077745035e+00	 5.840722300834086e+00
 9.882098583727184e-01	 2.132118626145997e+00	 7.737593068784408e+00
 9.391349215444335e-01	 2.154185333480724e+00	 7.536725595672872e+00
 8.897826035559203e-01	 2.175034708003457e+00	 7.344366674356243e+00
 8.401962468100813e-01	 2.194666137500949e+00	 7.158895646020950e+00
 7.904187824629018e-01	 2.213080969136578e+00	 6.978618118212541e+00
 7.404926260999937e-01	 2.230282460412988e+00	 6.801785708061616e+00
 6.904595784248615e-01	 2.246275723972488e+00	 6.626614636803091e+00
 6.403607313357296e-01	 2.261067666748581e+00	 6.451302688310472e+00
 5.902363797134947e-01	 2.274666924002858e+00	 6.274044089532634e+00
 5.401259391885384e-01	 2.287083788796492e+00	 6.093041930755785e+00
 4.900678700994515e-01	 2.298330137454701e+00	 5.906517816069822e+00
 9.972211550089856e-01	 2.151561007987568e+00	 7.777957646382323e+00
 9.476987132206549e-01	 2.173828937404646e+00	 7.579079933815976e+00
 8.978963608863666e-01	 2.194868433384731e+00	 7.387417597511822e+00
 8.478578356401049e-01	 2.214678878131932e+00	 7.201794446747702e+00
 7.976264601188547e-01	 2.233261631094163e+00	 7.021001295387435e+00
 7.472450366878395e-01	 2.250619979478617e+00	 6.843811784415431e+00
 6.967557472231845e-01	 2.266759082548822e+00	 6.668996946245210e+00
 6.462000583322726e-01	 2.281685910221292e+00	 6.495338039830006e+00
 5.956186323373124e-01	 2.295409176500925e+00	 6.321637230207434e+00
 5.450512442922797e-01	 2.307939268309359e+00	 6.146725746126181e+00
 4.945367052482362e-01	 2.319288170269756e+00	 5.969469222317901e+00
 1.006232432721893e+00	 2.171003349001629e+00	 7.818395324111436e+00
 9.562624869132221e-01	 2.193472500078554e+00	 7.620256337168755e+00
 9.060101011781613e-01	 2.214702117116803e+00	 7.427945966749521e+00
 8.555194083809486e-01	 2.234691576737848e+00	 7.240834938127341e+00
 8.048341226387470e-01	 2.253442250674104e+00	 7.058317216692885e+00
 7.539974330955813e-01	 2.270957455837253e+00	 6.879820447011671e+00
 7.030519027993956e-01	 2.287242398111933e+00	 6.704814973072303e+00
 6.520393730659493e-01	 2.302304110397535e+00	 6.532821000036065e+00
 6.010008736579899e-01	 2.316151385442097e+00	 6.363413501451681e+00
 5.499765390523345e-01	 2.328794704027514e+00	 6.196224535356326e+00
 4.990055310117795e-01	 2.340246159074666e+00	 6.030942705409397e+00
 1.015243684152207e+00	 2.190445633310373e+00	 7.858649058291835e+00
 9.648262356283369e-01	 2.213116005460330e+00	 7.659864433056962e+00
 9.141238178050067e-01	 2.234535743002314e+00	 7.465502947393288e+00
 8.631809587755542e-01	 2.254704216975162e+00	 7.275581276782685e+00
 8.120417641361818e-01	 2.273622811395754e+00	 7.090210817176816e+00
 7.607498098085869e-01	 2.291294872880161e+00	 6.909601302248107e+00
 7.093480400114252e-01	 2.307725653933993e+00	 6.734062791000735e+00
 6.578786707677368e-01	 2.322922250439329e+00	 6.564005632056665e+00
 6.063830992797405e-01	 2.336893533887108e+00	 6.399938053233919e+00
 5.549018194460464e-01	 2.349650078919209e+00	 6.242461083408682e+00
 5.034743437401641e-01	 2.361204086753900e+00	 6.092260585540364e+00
 1.024254901940692e+00	 2.209887845035991e+00	 7.898470730574213e+00
 9.733899523722012e-01	 2.232759437507859e+00	 7.697528055965309e+00
 9.222375041406029e-01	 2.254369294843900e+00	 7.499656553524625e+00
 8.708424805668628e-01	 2.274716782500338e+00	 7.305614581896425e+00
 8.192493787247603e-01	 2.293803296778457e+00	 7.116341701173694e+00
 7.675021613122256e-01	 2.311632213998602e+00	 6.932954053723581e+00
 7.156441537172005e-01	 2.328208833287172e+00	 6.756737855106948e+00
 6.637179466686117e-01	 2.343540313508692e+00	 6.589140661870843e+00
 6.117653048067768e-01	 2.357635604896696e+00	 6.431760123555216e+00
 5.598270814507585e-01	 2.370505375952690e+00	 6.286329983020493e+00
 5.079431397834724e-01	 2.382161936191926e+00	 6.154703159620546e+00
 1.033266078728114e+00	 2.229329968300680e+00	 7.937620544836401e+00
 9.819536301510160e-01	 2.252402780179022e+00	 7.732884422591502e+00
 9.303511535586513e-01	 2.274202756444202e+00	 7.529990717544625e+00
 8.785039674978153e-01	 2.294729256969840e+00	 7.330532010672875e+00
 8.264569605180856e-01	 2.313983690341562e+00	 7.136383329708551e+00
 7.742544820918649e-01	 2.331969462583841e+00	 6.949687901925228e+00
 7.219402387746509e-01	 2.348691919443643e+00	 6.772840708114331e+00
 6.695571959995504e-01	 2.364158282767639e+00	 6.608469579205033e+00
 6.171474858433115e-01	 2.378377581531597e+00	 6.459413615409366e+00
 5.647523210438147e-01	 2.391360578096212e+00	 6.328698762417954e+00
 5.124119154917871e-01	 2.403119690273212e+00	 6.219510447490272e+00
 1.042277207155237e+00	 2.248771987226633e+00	 7.975866457542445e+00
 9.905172619709828e-01	 2.272046017431702e+00	 7.765583351526812e+00
 9.384647594328528e-01	 2.294036111605858e+00	 7.556104409524782e+00
 8.861654133113531e-01	 2.314741624040133e+00	 7.349945883006758e+00
 8.336645036297597e-01	 2.334163975604418e+00	 7.150022251060787e+00
 7.810067666328739e-01	 2.352306602027142e+00	 6.959620975856225e+00
 7.282362900417043e-01	 2.369174895675575e+00	 6.782374702544271e+00
 6.753964139915301e-01	 2.384776141378187e+00	 6.622230733685190e+00
 6.225296379935574e-01	 2.399119446852548e+00	 6.483417644198758e+00
 5.696775342025584e-01	 2.412215668318022e+00	 6.370408954841164e+00
 5.168806672151909e-01	 2.424077331882229e+00	 6.287883847816625e+00
 1.051288279862827e+00	 2.268213885936041e+00	 8.012983639563146e+00
 9.990808408383033e-01	 2.291689133223781e+00	 7.795286524894473e+00
 9.465783151369087e-01	 2.313869344131504e+00	 7.577610803368806e+00
 8.938268117504173e-01	 2.334753867367680e+00	 7.363482852415095e+00
 8.408720021733844e-01	 2.354344136086372e+00	 7.156957371904541e+00
 7.877590094206205e-01	 2.372643615719767e+00	 6.962579794694275e+00
 7.345323023762894e-01	 2.389657745255140e+00	 6.785345737783636e+00
 6.812355958755265e-01	 2.405393872502356e+00	 6.630657426531625e+00
 6.279117568617270e-01	 2.419861183920283e+00	 6.504277057376720e+00
 5.746027169043331e-01	 2.433070629586371e+00	 6.412277113365777e+00
 5.213493913037660e-01	 2.445034843903442e+00	 6.360987709082277e+00
 4.766613448408244e-01	 2.235455946103989e+00	 5.694903094479941e+00
 4.280566476493967e-01	 2.245269803012173e+00	 5.493733211983154e+00
 3.795747221796087e-01	 2.253972427904400e+00	 5.301732714615325e+00
 3.312498612357167e-01	 2.261579530840685e+00	 5.113389570603472e+00
 2.831151918246224e-01	 2.268108044213447e+00	 4.923599448625943e+00
 2.352026326369965e-01	 2.273576038732799e+00	 4.727649836767601e+00
 1.875428577716857e-01	 2.278002638683672e+00	 4.521199880445406e+00
 1.401652665845650e-01	 2.281407936926608e+00	 4.300256451920353e+00
 9.309795950800662e-02	 2.283812910089177e+00	 4.061147014855501e+00
 4.636771965572428e-02	 2.285239334367776e+00	 3.800489884850587e+00
 0.000000000000000e+00	 2.285709702330555e+00	 3.515162510463027e+00
 4.811301862458281e-01	 2.256414008256286e+00	 5.770670680421897e+00
 4.320698056105363e-01	 2.266319872982676e+00	 5.574065859669298e+00
 3.831333477181670e-01	 2.275104087563641e+00	 5.386812066544388e+00
 3.343554268781613e-01	 2.282782509345629e+00	 5.201483483286339e+00
 2.857694806729105e-01	 2.289372229467221e+00	 5.011110543861049e+00
 2.374077270402534e-01	 2.294891488056760e+00	 4.809176045282310e+00
 1.893011276577868e-01	 2.299359588694984e+00	 4.589605732677549e+00
 1.414793575090443e-01	 2.302796812618926e+00	 4.346753848294282e+00
 9.397078047626424e-02	 2.305224333118228e+00	 4.075384202844013e+00
 4.680243077277400e-02	 2.306664130547552e+00	 3.770647381125876e+00
 0.000000000000000e+00	 2.307138908349512e+00	 3.428054732087215e+00
 4.855990292153431e-01	 2.277372077745035e+00	 5.840722300834088e+00
 4.360829649766909e-01	 2.287369950321857e+00	 5.651003697594473e+00
 3.866919745026452e-01	 2.296235754620143e+00	 5.471301163041844e+00
 3.374609936079421e-01	 2.303985495272823e+00	 5.291873667898257e+00
 2.884237704505693e-01	 2.310636422164699e+00	 5.103453072643674e+00
 2.396128222156348e-01	 2.316206944842397e+00	 4.897257250322420e+00
 1.910593981595854e-01	 2.320716546182525e+00	 4.664996353869750e+00
 1.427934488937070e-01	 2.324185695798671e+00	 4.398872658050707e+00
 9.484360175019434e-02	 2.326635763642615e+00	 4.091574495550391e+00
 4.723714204207450e-02	 2.328088934227355e+00	 3.736264880413583e+00
 0.000000000000000e+00	 2.328568121870044e+00	 3.326565468942014e+00
 4.900678700994515e-01	 2.298330137454701e+00	 5.906517816069822e+00
 4.400961224700386e-01	 2.308420017839000e+00	 5.726353915569420e+00
 3.902505996263812e-01	 2.317367411816506e+00	 5.557123425037707e+00
 3.405665588883641e-01	 2.325188471306569e+00	 5.386381133188257e+00
 2.910780589894287e-01	 2.331900604940131e+00	 5.202139975211070e+00
 2.418179163618171e-01	 2.337522391682034e+00	 4.992906113826404e+00
 1.928176678406935e-01	 2.342073493704668e+00	 4.747705752403608e+00
 1.441075396649709e-01	 2.345574568998092e+00	 4.456104012883014e+00
 9.571642261668001e-02	 2.348047184176136e+00	 4.108216325805067e+00
 4.767185310843317e-02	 2.349513727910038e+00	 3.694712877504673e+00
 0.000000000000000e+00	 2.349997325391393e+00	 3.206816739179726e+00
 4.945367052482362e-01	 2.319288170269756e+00	 5.969469222317901e+00
 4.441092748127572e-01	 2.329470058343391e+00	 5.801863385009825e+00
 3.938092201827127e-01	 2.338499041895334e+00	 5.646137756621096e+00
 3.436721201827315e-01	 2.346391420131163e+00	 5.486765968005908e+00
 2.937323441213197e-01	 2.353164760427771e+00	 5.308634185352043e+00
 2.440230076774763e-01	 2.358837811167995e+00	 5.097103026649856e+00
 1.945759352647231e-01	 2.363430413819788e+00	 4.838059715257370e+00
 1.454216287492539e-01	 2.366963414749445e+00	 4.517960669122601e+00
 9.658924236260444e-02	 2.369458577232591e+00	 4.123864867744293e+00
 4.810656361665739e-02	 2.370938494098454e+00	 3.643458464754111e+00
 0.000000000000000e+00	 2.371426501412799e+00	 3.065071220395514e+00
 4.990055310117795e-01	 2.340246159074666e+00	 6.030942705409397e+00
 4.481224187270251e-01	 2.350520054644318e+00	 5.879221286108456e+00
 3.973678332649775e-01	 2.359630627599226e+00	 5.740141375329701e+00
 3.467776749543491e-01	 2.367594324430906e+00	 5.594730024731732e+00
 2.963866236780723e-01	 2.374428871261869e+00	 5.424350838102444e+00
 2.462280943612886e-01	 2.380153185892606e+00	 5.210797533455566e+00
 1.963341989952864e-01	 2.384787289086263e+00	 4.936376165417212e+00
 1.467357150729738e-01	 2.388352215584980e+00	 4.583976035869378e+00
 9.746206027485077e-02	 2.390869925325779e+00	 4.137129497096196e+00
 4.854127321155457e-02	 2.392363215295453e+00	 3.580061009450768e+00
 0.000000000000000e+00	 2.392855632433507e+00	 2.897725952660277e+00
 5.034743437401641e-01	 2.361204086753900e+00	 6.092260585540364e+00
 4.521355509350203e-01	 2.371569989551065e+00	 5.960061595362843e+00
 4.009264359665132e-01	 2.380762151670787e+00	 5.840872491940524e+00
 3.498832206665213e-01	 2.388797166890095e+00	 5.711919459984476e+00
 2.990408954915169e-01	 2.395692920076676e+00	 5.550659359994807e+00
 2.484331746119304e-01	 2.401468498448190e+00	 5.334909681775745e+00
 1.980924575959954e-01	 2.406144102062465e+00	 5.042965500225810e+00
 1.480497975625483e-01	 2.409740954036949e+00	 4.653703254753609e+00
 9.833487564030222e-02	 2.412281210969500e+00	 4.146671386481124e+00
 4.897598153793207e-02	 2.413787874003888e+00	 3.502168061024588e+00
 0.000000000000000e+00	 2.414284700952755e+00	 2.701306376388168e+00
 5.079431397834724e-01	 2.382161936191926e+00	 6.154703159620547e+00
 4.561486681589207e-01	 2.392619845872919e+00	 6.045965442045465e+00
 4.044850253806576e-01	 2.401893596852615e+00	 5.950012849018670e+00
 3.529887547825531e-01	 2.409999930193030e+00	 5.839927141380880e+00
 3.016951573934843e-01	 2.416956889506443e+00	 5.688885449083538e+00
 2.506382466280777e-01	 2.422783731427069e+00	 5.470331299909963e+00
 1.998507096304620e-01	 2.427500835306768e+00	 5.158130911841230e+00
 1.493638751443956e-01	 2.431129612637606e+00	 4.726714328154407e+00
 9.920768774584184e-02	 2.433692416677553e+00	 4.151201227424989e+00
 4.941068824059729e-02	 2.435212452726612e+00	 3.407511473955905e+00
 0.000000000000000e+00	 2.435713689469788e+00	 2.472460684449477e+00
 5.124119154917871e-01	 2.403119690273212e+00	 6.219510447490272e+00
 4.601617671209048e-01	 2.413669606419165e+00	 6.138463341608936e+00
 4.080435986007485e-01	 2.423024945887314e+00	 6.069190126833884e+00
 3.560942747657486e-01	 2.431202597024008e+00	 5.980294928515800e+00
 3.043494072158048e-01	 2.438220762185422e+00	 5.840312951466828e+00
 2.528433086084067e-01	 2.444098867421572e+00	 5.617927207995766e+00
 2.016089536622986e-01	 2.448857471377549e+00	 5.282168690896360e+00
 1.506779467449334e-01	 2.452518173919202e+00	 4.802599292921633e+00
 1.000804958783528e-01	 2.455103524963736e+00	 4.149477071360962e+00
 4.984539296435764e-02	 2.456636933966477e+00	 3.293903733239451e+00
 0.000000000000000e+00	 2.457142580483845e+00	 2.207954469373010e+00
 5.168806672151909e-01	 2.424077331882229e+00	 6.287883847816625e+00
 4.641748445431502e-01	 2.434719253999091e+00	 6.239037313463111e+00
 4.116021527201235e-01	 2.444156181517485e+00	 6.199980224661779e+00
 3.591997780794128e-01	 2.452405150067329e+00	 6.134515835762831e+00
 3.070036427903088e-01	 2.459484520747865e+00	 6.006185640559262e+00
 2.550483587515938e-01	 2.465413889024022e+00	 5.778536366293757e+00
 2.033671882551170e-01	 2.470213992833183e+00	 5.415368514376031e+00
 1.519920112905795e-01	 2.473906620413989e+00	 4.880965436850911e+00
 1.009532993247184e-01	 2.476514518341851e+00	 4.140302282429957e+00
 5.028009535402049e-02	 2.478061300226334e+00	 3.159234470162319e+00
 0.000000000000000e+00	 2.478571356494168e+00	 1.904665647805878e+00
 5.213493913037660e-01	 2.445034843903442e+00	 6.360987709082277e+00
 4.681878971478351e-01	 2.455768771421980e+00	 6.349122890053174e+00
 4.151606848321205e-01	 2.465287286485730e+00	 6.343909424937666e+00
 3.623052621868500e-01	 2.473607572007293e+00	 6.304036083978858e+00
 3.096578619488268e-01	 2.480748147828021e+00	 6.187708904944746e+00
 2.572533952563149e-01	 2.486728778826740e+00	 5.952972964446769e+00
 2.051254119725293e-01	 2.491570382232043e+00	 5.558013718656007e+00
 1.533060677077518e-01	 2.495294934654221e+00	 4.961436555351683e+00
 1.018260973718216e-01	 2.497925379325695e+00	 4.122523595380615e+00
 5.071479505439321e-02	 2.499485534009037e+00	 3.001467156993800e+00
 0.000000000000000e+00	 2.500000000000000e+00	 1.559579645619384e+00
