x	y	stress_yy
 1.000000000000000e+00	 0.000000000000000e+00	 3.076491649248394e+01
 9.999652819873316e-01	 8.333048840547298e-03	 3.076145288981884e+01
 9.998606548526504e-01	 1.669391286202172e-02	 3.074717039375638e+01
 9.996854145678035e-01	 2.508186591579744e-02	 3.072214785793655e+01
 9.994388649236412e-01	 3.349616549931930e-02	 3.068646646845624e+01
 9.991203179452327e-01	 4.193605278629495e-02	 3.064020967693468e+01
 9.987290943103193e-01	 5.040075266753075e-02	 3.058346313214969e+01
 9.982645237707195e-01	 5.888947380262372e-02	 3.051631461011364e+01
 9.977259455763865e-01	 6.740140868271496e-02	 3.043885394237012e+01
 9.971127089018138e-01	 7.593573370450242e-02	 3.035117294230333e+01
 9.964241732744672e-01	 8.449160925570288e-02	 3.025336532925689e+01
 1.008823457328410e+00	 0.000000000000000e+00	 3.013626232190330e+01
 1.008788432982907e+00	 8.406575145132409e-03	 3.013298069823199e+01
 1.008682882675344e+00	 1.684121089620530e-02	 3.011937050986031e+01
 1.008506096165558e+00	 2.530317469758155e-02	 3.009551595737956e+01
 1.008257371101382e+00	 3.379171749539848e-02	 3.006150269342634e+01
 1.007936013437521e+00	 4.230607376802643e-02	 3.001741773745560e+01
 1.007541337857695e+00	 5.084546156726499e-02	 2.996334938946993e+01
 1.007072668199768e+00	 5.940908257049081e-02	 2.989938714257406e+01
 1.006529337883544e+00	 6.799612214396498e-02	 2.982562159414265e+01
 1.005910690340937e+00	 7.660574941749865e-02	 2.974214435539104e+01
 1.005216079448178e+00	 8.523711737066911e-02	 2.964904795915314e+01
 1.017646782159778e+00	 0.000000000000000e+00	 2.953527118931463e+01
 1.017611451486040e+00	 8.480100344912849e-03	 2.953219029212967e+01
 1.017504978019459e+00	 1.698850671730691e-02	 2.951924278581617e+01
 1.017326645307965e+00	 2.552448015460338e-02	 2.949651777618732e+01
 1.017075744856467e+00	 3.408726505170349e-02	 2.946410500308639e+01
 1.016751576549402e+00	 4.267608919171342e-02	 2.942209473908272e+01
 1.016353449076568e+00	 5.129016378750074e-02	 2.937057768746265e+01
 1.015880680361970e+00	 5.992868353429856e-02	 2.930964487938696e+01
 1.015332597995354e+00	 6.859082667356628e-02	 2.923938756999559e+01
 1.014708539666144e+00	 7.727575506830839e-02	 2.915989713324769e+01
 1.014007853599432e+00	 8.598261429004454e-02	 2.907126495529560e+01
 1.026469991993312e+00	 0.000000000000000e+00	 2.896018045465042e+01
 1.026434354995330e+00	 8.553624585774041e-03	 2.895731197136314e+01
 1.026326958381762e+00	 1.713580061756481e-02	 2.894501251146082e+01
 1.026147079488713e+00	 2.574578272591117e-02	 2.892337564614931e+01
 1.025894003678258e+00	 3.438280875453906e-02	 2.889249482430444e+01
 1.025567024764651e+00	 4.304609979135286e-02	 2.885246325730652e+01
 1.025165445443851e+00	 5.173486021035203e-02	 2.880337380346852e+01
 1.024688577726083e+00	 6.044827772469145e-02	 2.874531885192092e+01
 1.024135743371121e+00	 6.918552345109567e-02	 2.867839020572425e+01
 1.023506274325981e+00	 7.794575198583098e-02	 2.860267896398590e+01
 1.022799513164692e+00	 8.672810149242928e-02	 2.851827540276953e+01
 1.035293104328222e+00	 0.000000000000000e+00	 2.840928878082344e+01
 1.035257161009377e+00	 8.627148013601409e-03	 2.840663778076254e+01
 1.035148841259015e+00	 1.728309288921725e-02	 2.839496708268351e+01
 1.034967416201492e+00	 2.596708285055307e-02	 2.837437428467928e+01
 1.034712165056120e+00	 3.467834919020986e-02	 2.834495616711928e+01
 1.034382375567044e+00	 4.341610630094170e-02	 2.830680856584496e+01
 1.033977344436454e+00	 5.217955171793285e-02	 2.826002624521401e+01
 1.033496377760867e+00	 6.096786617231392e-02	 2.820470277084335e+01
 1.032938791470156e+00	 6.978021365613013e-02	 2.814093038180343e+01
 1.032303911768995e+00	 7.861574149896601e-02	 2.806879986202361e+01
 1.031591075580421e+00	 8.747358045642353e-02	 2.798840041068026e+01
 1.044116136663715e+00	 0.000000000000000e+00	 2.788095354051926e+01
 1.044079887026780e+00	 8.700670774280397e-03	 2.787851890194626e+01
 1.043970644147982e+00	 1.743038382450248e-02	 2.786745338113386e+01
 1.043787672939991e+00	 2.618838096757728e-02	 2.784785816531430e+01
 1.043530246479419e+00	 3.497388694502057e-02	 2.781983298893450e+01
 1.043197646440357e+00	 4.378610945447693e-02	 2.778347599744187e+01
 1.042789163531287e+00	 5.262423919235713e-02	 2.773888361113146e+01
 1.042304097935081e+00	 6.148744990781047e-02	 2.768615038888339e+01
 1.041741759751765e+00	 7.037489846824647e-02	 2.762536889151919e+01
 1.041101469443733e+00	 7.928572493661279e-02	 2.755662954451356e+01
 1.040382558283081e+00	 8.821905266062735e-02	 2.748002049980729e+01
 1.052939106499000e+00	 0.000000000000000e+00	 2.737358835404861e+01
 1.052902550546137e+00	 8.774193013696412e-03	 2.737136317694893e+01
 1.052792384545428e+00	 1.757767371565877e-02	 2.736087528635269e+01
 1.052607867197901e+00	 2.640967751603199e-02	 2.734222902108547e+01
 1.052348265437516e+00	 3.526942260527586e-02	 2.731552669187410e+01
 1.052012854868362e+00	 4.415610998595550e-02	 2.728086843796129e+01
 1.051600920205261e+00	 5.306892351573896e-02	 2.723835208395109e+01
 1.051111755717485e+00	 6.200702996182560e-02	 2.718807299668566e+01
 1.050544665675257e+00	 7.096957906702162e-02	 2.713012394185214e+01
 1.049898964798739e+00	 7.995570362767086e-02	 2.706459494002444e+01
 1.049173978709136e+00	 8.896451958364097e-02	 2.699157312185497e+01
 1.061762031333285e+00	 0.000000000000000e+00	 2.688566075059903e+01
 1.061725169066050e+00	 8.847714877734898e-03	 2.688363275596314e+01
 1.061614079948116e+00	 1.772496285492436e-02	 2.687369131258496e+01
 1.061428016468911e+00	 2.663097293496538e-02	 2.685594347299235e+01
 1.061166239419777e+00	 3.556495675728044e-02	 2.683049374551670e+01
 1.060828018334836e+00	 4.452610862937438e-02	 2.679744394598634e+01
 1.060412631935287e+00	 5.351360557019224e-02	 2.675689304977547e+01
 1.059919368576834e+00	 6.252660736500375e-02	 2.670893704397603e+01
 1.059347526699940e+00	 7.156425663203250e-02	 2.665366877935245e+01
 1.058696415282561e+00	 8.062567890103969e-02	 2.659117782174617e+01
 1.057965354295047e+00	 8.970998270406452e-02	 2.652155030260790e+01
 1.070584928665779e+00	 0.000000000000000e+00	 2.641568994573161e+01
 1.070547760085116e+00	 8.921236512281286e-03	 2.641384186200041e+01
 1.070435747852810e+00	 1.787225153453750e-02	 2.640441236304753e+01
 1.070248138246710e+00	 2.685226766342562e-02	 2.638751077632920e+01
 1.069984185915565e+00	 3.586048998733898e-02	 2.636324342774013e+01
 1.069643154323555e+00	 4.489610611873055e-02	 2.633171349064765e+01
 1.069224316198276e+00	 5.395828623783099e-02	 2.629302083536308e+01
 1.068726953981891e+00	 6.304618314798940e-02	 2.624726187877510e+01
 1.068150360285121e+00	 7.215893234285592e-02	 2.619452943376125e+01
 1.067493838343746e+00	 8.129565208561870e-02	 2.613491255799882e+01
 1.066756702477279e+00	 9.045544350049813e-02	 2.606849640180801e+01
 1.079407815995689e+00	 0.000000000000000e+00	 2.596224472843910e+01
 1.079370341101936e+00	 8.994758063220995e-03	 2.596055466574807e+01
 1.079257405756275e+00	 1.801954004673646e-02	 2.595159959489841e+01
 1.079068250024988e+00	 2.707356214046092e-02	 2.593549067808814e+01
 1.078802122414245e+00	 3.615602288175620e-02	 2.591233567688605e+01
 1.078458280318292e+00	 4.526610318802097e-02	 2.588223880088445e+01
 1.078035990471137e+00	 5.440296640076923e-02	 2.584530055682455e+01
 1.077534529401413e+00	 6.356575834142703e-02	 2.580161759787257e+01
 1.076953183890108e+00	 7.275360737906882e-02	 2.575128257260926e+01
 1.076291251430838e+00	 8.196562451030735e-02	 2.569438397330250e+01
 1.075548040692293e+00	 9.120090345154196e-02	 2.563100598304302e+01
 1.088230710822225e+00	 0.000000000000000e+00	 2.552394145151787e+01
 1.088192929615107e+00	 9.068279676439462e-03	 2.552238326433907e+01
 1.088079071155274e+00	 1.816682868375948e-02	 2.551386238859536e+01
 1.087888369297435e+00	 2.729485680511945e-02	 2.549849137910432e+01
 1.087620066405180e+00	 3.645155602683674e-02	 2.547637904889731e+01
 1.087273413802824e+00	 4.563610057124259e-02	 2.544763031978365e+01
 1.086847672230783e+00	 5.484764694112092e-02	 2.541234607337886e+01
 1.086342112304158e+00	 6.408533397596111e-02	 2.537062300221903e+01
 1.085756014974210e+00	 7.334828292024807e-02	 2.532255346046455e+01
 1.085088671992387e+00	 8.263559750400509e-02	 2.526822531370319e+01
 1.084339386376554e+00	 9.194636403579613e-02	 2.520772178737286e+01
 9.964241732744672e-01	 8.449160925570288e-02	 3.025336532925690e+01
 9.956595725195881e-01	 9.306963622590368e-02	 3.014501472723536e+01
 9.948183983547721e-01	 1.016674728801871e-01	 3.002573934956986e+01
 9.939000435131441e-01	 1.102842106753847e-01	 2.989563427861567e+01
 9.929039128517897e-01	 1.189189249707242e-01	 2.975479524560445e+01
 9.918294237927018e-01	 1.275706751727545e-01	 2.960331852819943e+01
 9.906760067638285e-01	 1.362385048931707e-01	 2.944130084663068e+01
 9.894431056398209e-01	 1.449214421196757e-01	 2.926883925846908e+01
 9.881301781820826e-01	 1.536184993999990e-01	 2.908603105213583e+01
 9.867366964777042e-01	 1.623286740391850e-01	 2.889297363929439e+01
 9.852621473768629e-01	 1.710509483102449e-01	 2.868976444631735e+01
 1.005216079448178e+00	 8.523711737066911e-02	 2.964904795915314e+01
 1.004444732270168e+00	 9.389083219510361e-02	 2.954590456400850e+01
 1.003596136039742e+00	 1.025645314936881e-01	 2.943231875290934e+01
 1.002669678131902e+00	 1.112572987067345e-01	 2.930838253231169e+01
 1.001664758152585e+00	 1.199682010349142e-01	 2.917418798525506e+01
 1.000580788383504e+00	 1.286962895854614e-01	 2.902982716364983e+01
 9.994171942270832e-01	 1.374405995313911e-01	 2.887539197917134e+01
 9.981734146511001e-01	 1.462001502838679e-01	 2.871097409280326e+01
 9.968489026326105e-01	 1.549739456778490e-01	 2.853666480312125e+01
 9.954431256007640e-01	 1.637609741711127e-01	 2.835255493345283e+01
 9.939555658780577e-01	 1.725602090567694e-01	 2.815873471810527e+01
 1.014007853599432e+00	 8.598261429004454e-02	 2.907126495529561e+01
 1.013229760099880e+00	 9.471201583233832e-02	 2.897305790221755e+01
 1.012373741915620e+00	 1.034615766361879e-01	 2.886487357435652e+01
 1.011439181063595e+00	 1.122303721255099e-01	 2.874680158226703e+01
 1.010425471898656e+00	 1.210174613425458e-01	 2.861893104588879e+01
 1.009332021562298e+00	 1.298218870953440e-01	 2.848135048087497e+01
 1.008158250431481e+00	 1.386426761183703e-01	 2.833414768348914e+01
 1.006903592567163e+00	 1.474788392463839e-01	 2.817740961410433e+01
 1.005567496162113e+00	 1.563293716017047e-01	 2.801122227937978e+01
 1.004149423987590e+00	 1.651932527949823e-01	 2.783567061324617e+01
 1.002648853838463e+00	 1.740694471395653e-01	 2.765083835688285e+01
 1.022799513164692e+00	 8.672810149242928e-02	 2.851827540276953e+01
 1.022014673431769e+00	 9.553318876629954e-02	 2.842474607577150e+01
 1.021151233390689e+00	 1.043586100868197e-01	 2.832168703820725e+01
 1.020208569700392e+00	 1.132034328616197e-01	 2.820918616148025e+01
 1.019186071464699e+00	 1.220667079746211e-01	 2.808733026486983e+01
 1.018083140684936e+00	 1.309474699347983e-01	 2.795620499523714e+01
 1.016899192712655e+00	 1.398447370381818e-01	 2.781589470520302e+01
 1.015633656702043e+00	 1.487575115432413e-01	 2.766648232981373e+01
 1.014285976061628e+00	 1.576847798597771e-01	 2.750804926175853e+01
 1.012855608904825e+00	 1.666255127514291e-01	 2.734067522525943e+01
 1.011342028498917e+00	 1.755786655519053e-01	 2.716443814880958e+01
 1.031591075580421e+00	 8.747358045642353e-02	 2.798840041068026e+01
 1.030799489688879e+00	 9.635435262567885e-02	 2.789930209685139e+01
 1.029928627873231e+00	 1.052556336247170e-01	 2.780110369887713e+01
 1.028977861434461e+00	 1.141764828449729e-01	 2.769389198316511e+01
 1.027946574225408e+00	 1.231159430121420e-01	 2.757775210879708e+01
 1.026834163107274e+00	 1.320730403362202e-01	 2.745276749998330e+01
 1.025640038406241e+00	 1.410467846748993e-01	 2.731901971682763e+01
 1.024363624369772e+00	 1.500361697104582e-01	 2.717658832440077e+01
 1.023004359622191e+00	 1.590401731402770e-01	 2.702555076017138e+01
 1.021561697619110e+00	 1.680577568810879e-01	 2.686598219990315e+01
 1.020035107100263e+00	 1.770878672870617e-01	 2.669795542218792e+01
 1.040382558283081e+00	 8.821905266062735e-02	 2.748002049980729e+01
 1.039584226294253e+00	 9.717550903916800e-02	 2.739511805600221e+01
 1.038705942771529e+00	 1.061526490290131e-01	 2.730152685290481e+01
 1.037747073657973e+00	 1.151495240054783e-01	 2.719933316410737e+01
 1.036706997555479e+00	 1.241651685361106e-01	 2.708862110762912e+01
 1.035585106185164e+00	 1.331986005320056e-01	 2.696947251052198e+01
 1.034380804847875e+00	 1.422488214125964e-01	 2.684196677155925e+01
 1.033093512884382e+00	 1.513148162840521e-01	 2.670618072198520e+01
 1.031722664134840e+00	 1.603955541314154e-01	 2.656218848435814e+01
 1.030267707397086e+00	 1.694899880245941e-01	 2.641006132958205e+01
 1.028728106883340e+00	 1.785970553383068e-01	 2.624986753228790e+01
 1.049173978709136e+00	 8.896451958364097e-02	 2.699157312185497e+01
 1.048368900670936e+00	 9.799665963545866e-02	 2.691064265309358e+01
 1.047483195493863e+00	 1.070496580788411e-01	 2.682141608111068e+01
 1.046516223763096e+00	 1.161225582730450e-01	 2.672397977748247e+01
 1.045467358829610e+00	 1.252143866275290e-01	 2.661841741759375e+01
 1.044335987274461e+00	 1.343241527545505e-01	 2.650480983683032e+01
 1.043121509373192e+00	 1.434508496353468e-01	 2.638323488455823e+01
 1.041823339559904e+00	 1.525934538000410e-01	 2.625376727584641e+01
 1.040440906890610e+00	 1.617509255214033e-01	 2.611647844094626e+01
 1.038973655505396e+00	 1.709222090225831e-01	 2.597143637260827e+01
 1.037421045088988e+00	 1.801062326989132e-01	 2.581870547138574e+01
 1.057965354295047e+00	 8.970998270406452e-02	 2.652155030260790e+01
 1.057153530241971e+00	 9.881780604324247e-02	 2.644437885149843e+01
 1.056260403448518e+00	 1.079466625533347e-01	 2.635928491330319e+01
 1.055285329142001e+00	 1.170955875775819e-01	 2.626635552756638e+01
 1.054227675422494e+00	 1.262635993673991e-01	 2.616567450535402e+01
 1.053086823731018e+00	 1.354496992362507e-01	 2.605732227650004e+01
 1.051862169317826e+00	 1.446528717272240e-01	 2.594137573427378e+01
 1.050553121710371e+00	 1.538720847944426e-01	 2.581790807740096e+01
 1.049159105180538e+00	 1.631062899984514e-01	 2.568698864942974e+01
 1.047679559210682e+00	 1.723544227156898e-01	 2.554868277550606e+01
 1.046113938958048e+00	 1.816154023621531e-01	 2.540305159669527e+01
 1.066756702477279e+00	 9.045544350049813e-02	 2.606849640180801e+01
 1.065938132430403e+00	 9.963894989121116e-02	 2.599488164834723e+01
 1.065037584043776e+00	 1.088436642316269e-01	 2.591369860842812e+01
 1.064054407186855e+00	 1.180686138489978e-01	 2.582503553927294e+01
 1.062987964708828e+00	 1.273128088367230e-01	 2.572897694640086e+01
 1.061837632910689e+00	 1.365752422095023e-01	 2.562560342142787e+01
 1.060602802017413e+00	 1.458548900723017e-01	 2.551499147685118e+01
 1.059282876649815e+00	 1.551507118032747e-01	 2.539721337772088e+01
 1.057877276295661e+00	 1.644616502507708e-01	 2.527233697016955e+01
 1.056385435779585e+00	 1.737866319445492e-01	 2.514042550684258e+01
 1.054806805731360e+00	 1.831245673212992e-01	 2.500153746935375e+01
 1.075548040692293e+00	 9.120090345154196e-02	 2.563100598304302e+01
 1.074722724659275e+00	 1.004600928080565e-01	 2.556075595418446e+01
 1.073814754687918e+00	 1.097406648928512e-01	 2.548327204352409e+01
 1.072823475289827e+00	 1.190416390172018e-01	 2.539864425591517e+01
 1.071748244063308e+00	 1.283620171165029e-01	 2.530695833110386e+01
 1.070588432169329e+00	 1.377007839067012e-01	 2.520829557161639e+01
 1.069343424807589e+00	 1.470569070546535e-01	 2.510273266711860e+01
 1.068012621692267e+00	 1.564293373625551e-01	 2.499034151512101e+01
 1.066595437527016e+00	 1.658170089665724e-01	 2.487118903797317e+01
 1.065091302478747e+00	 1.752188395497967e-01	 2.474533699616966e+01
 1.063499662649765e+00	 1.846337305696236e-01	 2.461284179807506e+01
 1.084339386376554e+00	 9.194636403579613e-02	 2.520772178737286e+01
 1.083507324351631e+00	 1.012812364224699e-01	 2.514065457578779e+01
 1.082591932789227e+00	 1.106376663161409e-01	 2.506666770527860e+01
 1.081592550843088e+00	 1.200146650121027e-01	 2.498585343901925e+01
 1.080508530860630e+00	 1.294112262877406e-01	 2.489829927228128e+01
 1.079339238862790e+00	 1.388263265602434e-01	 2.480408774997505e+01
 1.078084055023988e+00	 1.482589250583530e-01	 2.470329628007426e+01
 1.076742374151761e+00	 1.577079640083017e-01	 2.459599694276444e+01
 1.075313606165639e+00	 1.671723688340671e-01	 2.448225629523032e+01
 1.073797176574809e+00	 1.766510483720674e-01	 2.436213517208037e+01
 1.072192526954103e+00	 1.861428951003989e-01	 2.423568848149784e+01
 9.852621473768629e-01	 1.710509483102449e-01	 2.868976444631735e+01
 9.837063042735066e-01	 1.797828046792139e-01	 2.847661359918197e+01
 9.820684407268566e-01	 1.885246801511627e-01	 2.825364885354066e+01
 9.803480899544126e-01	 1.972755162273639e-01	 2.802094971130331e+01
 9.785448016382446e-01	 2.060342404108244e-01	 2.777859491545652e+01
 9.766581423474189e-01	 2.147997664840680e-01	 2.752666235555848e+01
 9.746876959562029e-01	 2.235709948004863e-01	 2.726522897532243e+01
 9.726330640575948e-01	 2.323468125892456e-01	 2.699437068290862e+01
 9.704938663716977e-01	 2.411260942737208e-01	 2.671416226461080e+01
 9.682697411484724e-01	 2.499077018034106e-01	 2.642467730269806e+01
 9.659603455643851e-01	 2.586904849992691e-01	 2.612598809824195e+01
 9.939555658780577e-01	 1.725602090567694e-01	 2.815873471810527e+01
 9.923859948590488e-01	 1.813691105874806e-01	 2.795540038327073e+01
 9.907336796932259e-01	 1.901881196242338e-01	 2.774266878867524e+01
 9.889981494794223e-01	 1.990161683287150e-01	 2.752061069604238e+01
 9.871789499263163e-01	 2.078521747408316e-01	 2.728929516674900e+01
 9.852756437785816e-01	 2.166950430589465e-01	 2.704878945555187e+01
 9.832878112387866e-01	 2.255436639337991e-01	 2.679915890673229e+01
 9.812150503845686e-01	 2.343969147761029e-01	 2.654046685331621e+01
 9.790569775806152e-01	 2.432536600777888e-01	 2.627277452010497e+01
 9.768132278849667e-01	 2.521127517468493e-01	 2.599614093132658e+01
 9.744834554491673e-01	 2.609730294557169e-01	 2.571062282378945e+01
 1.002648853838463e+00	 1.740694471395653e-01	 2.765083835688285e+01
 1.001065555109914e+00	 1.829553926750787e-01	 2.745690466513834e+01
 9.993987885418061e-01	 1.918515341183668e-01	 2.725397263512885e+01
 9.976480791143788e-01	 2.007567942916664e-01	 2.704210568474378e+01
 9.958129685629900e-01	 2.096700817719251e-01	 2.682136463362052e+01
 9.938930158079936e-01	 2.185902911734854e-01	 2.659180758375211e+01
 9.918877973803253e-01	 2.275163034445774e-01	 2.635348980271142e+01
 9.897969078423287e-01	 2.364469861776063e-01	 2.610646361019279e+01
 9.876199602033381e-01	 2.453811939332054e-01	 2.585077826865002e+01
 9.853565863295357e-01	 2.543177685780086e-01	 2.558647987889121e+01
 9.830064373476020e-01	 2.632555396360757e-01	 2.531361128157003e+01
 1.011342028498917e+00	 1.755786655519053e-01	 2.716443814880958e+01
 1.009745002239733e+00	 1.845416540880865e-01	 2.697949751636782e+01
 1.008063784457593e+00	 1.935149269326224e-01	 2.678594036181005e+01
 1.006297896014211e+00	 2.024973975684194e-01	 2.658382412456099e+01
 1.004446874671686e+00	 2.114879651095853e-01	 2.637320279133363e+01
 1.002510275526112e+00	 2.204855145865648e-01	 2.615412676227108e+01
 1.000487671436852e+00	 2.294889172452022e-01	 2.592664271977554e+01
 9.983786534510133e-01	 2.384970308597194e-01	 2.569079350076368e+01
 9.961828312226307e-01	 2.475087000595783e-01	 2.544661797317423e+01
 9.938998334260826e-01	 2.565227566701822e-01	 2.519415091763952e+01
 9.915293081632356e-01	 2.655380200673481e-01	 2.493342291531820e+01
 1.020035107100263e+00	 1.770878672870617e-01	 2.669795542218792e+01
 1.018424353462134e+00	 1.861278979725826e-01	 2.652160819333544e+01
 1.016728684625583e+00	 1.951783013660614e-01	 2.633700973040444e+01
 1.014947617333847e+00	 2.042379816111748e-01	 2.614421283015675e+01
 1.013080685375823e+00	 2.133058283592927e-01	 2.594326602560949e+01
 1.011127440023394e+00	 2.223807170570650e-01	 2.573421343637053e+01
 1.009087450464400e+00	 2.314615092480545e-01	 2.551709462159862e+01
 1.006960304230760e+00	 2.405470528884052e-01	 2.529194443636631e+01
 1.004745607621257e+00	 2.496361826765149e-01	 2.505879289229796e+01
 1.002442986118509e+00	 2.587277203966641e-01	 2.481766502344657e+01
 1.000052084799612e+00	 2.678204752765360e-01	 2.456858075846551e+01
 1.028728106883340e+00	 1.785970553383068e-01	 2.624986753228790e+01
 1.027103625990749e+00	 1.877141274746451e-01	 2.608172162876160e+01
 1.025393506230771e+00	 1.968416607177445e-01	 2.590567379453676e+01
 1.023597260228217e+00	 2.059785498721337e-01	 2.572177349131456e+01
 1.021714417798819e+00	 2.151236751265281e-01	 2.553006514948028e+01
 1.019744526390295e+00	 2.242759023438662e-01	 2.533058800129679e+01
 1.017687151519001e+00	 2.334340833655150e-01	 2.512337591652360e+01
 1.015541877201707e+00	 2.425970563296270e-01	 2.490845724128141e+01
 1.013308306381981e+00	 2.517636460036226e-01	 2.468585464107851e+01
 1.010986061350717e+00	 2.609326641307482e-01	 2.445558494901619e+01
 1.008574784160278e+00	 2.701029097906421e-01	 2.421765902029036e+01
 1.037421045088988e+00	 1.801062326989132e-01	 2.581870547138573e+01
 1.035782837039206e+00	 1.893003457403527e-01	 2.565837604793300e+01
 1.034058266458154e+00	 1.985050082867326e-01	 2.549047852300712e+01
 1.032246841852249e+00	 2.077191058034972e-01	 2.531506030397511e+01
 1.030348089064095e+00	 2.169415090167715e-01	 2.513216304286746e+01
 1.028361551717273e+00	 2.261710742058484e-01	 2.494182245109673e+01
 1.026286791656689e+00	 2.354066435099647e-01	 2.474406811626626e+01
 1.024123389383992e+00	 2.446470452493479e-01	 2.453892332192801e+01
 1.021870944487567e+00	 2.538910942605090e-01	 2.432640487125199e+01
 1.019529076066611e+00	 2.631375922457283e-01	 2.410652291567825e+01
 1.017097423148778e+00	 2.723853281366685e-01	 2.387928078972925e+01
 1.046113938958048e+00	 1.816154023621531e-01	 2.540305159669526e+01
 1.044462003821135e+00	 1.908865559157836e-01	 2.525016070230502e+01
 1.042722982492728e+00	 2.001683473720864e-01	 2.509002053984392e+01
 1.040896379360873e+00	 2.094596528574664e-01	 2.492267771747792e+01
 1.038981716295068e+00	 2.187593336355037e-01	 2.474817240770703e+01
 1.036978533094784e+00	 2.280662364018920e-01	 2.456653814227963e+01
 1.034886387933496e+00	 2.373791935937844e-01	 2.437780160872210e+01
 1.032704857797753e+00	 2.466970237135312e-01	 2.418198244937976e+01
 1.030433538920778e+00	 2.560185316667817e-01	 2.397909306397983e+01
 1.028072047210091e+00	 2.653425091148985e-01	 2.376913841683979e+01
 1.025620018668658e+00	 2.746677348416176e-01	 2.355211584996197e+01
 1.054806805731360e+00	 1.831245673212992e-01	 2.500153746935375e+01
 1.053141143550166e+00	 1.924727611470166e-01	 2.485571371367616e+01
 1.051387671519489e+00	 2.018316812728667e-01	 2.470294497439833e+01
 1.049545889909018e+00	 2.112001944862422e-01	 2.454327829126725e+01
 1.047615316615159e+00	 2.205771525882051e-01	 2.437675363191872e+01
 1.045595487613285e+00	 2.299613926908770e-01	 2.420340366566071e+01
 1.043485957405453e+00	 2.393517375293550e-01	 2.402325353825444e+01
 1.041286299463128e+00	 2.487469957881400e-01	 2.383632064862653e+01
 1.038996106664379e+00	 2.581459624420481e-01	 2.364261442856959e+01
 1.036614991725062e+00	 2.675474191115525e-01	 2.344213612660899e+01
 1.034142587623462e+00	 2.769501344324914e-01	 2.323487859734044e+01
 1.063499662649765e+00	 1.846337305696236e-01	 2.461284179807505e+01
 1.061820273439929e+00	 1.940589645801295e-01	 2.447372002257461e+01
 1.060052350723433e+00	 2.034950132881345e-01	 2.432794341514922e+01
 1.058195390651612e+00	 2.129407341420258e-01	 2.417556065476416e+01
 1.056248907147787e+00	 2.223949694803564e-01	 2.401661275595592e+01
 1.054212432363233e+00	 2.318565468316837e-01	 2.385113282016098e+01
 1.052085517128595e+00	 2.413242792290574e-01	 2.367914578727806e+01
 1.049867731400256e+00	 2.507969655391378e-01	 2.350066818843588e+01
 1.047558664701134e+00	 2.602733908059156e-01	 2.331570790106921e+01
 1.045157926555424e+00	 2.697523266089842e-01	 2.312426390753710e+01
 1.042665146916736e+00	 2.792325314362925e-01	 2.292632605865120e+01
 1.072192526954103e+00	 1.861428951003989e-01	 2.423568848149784e+01
 1.070499410704053e+00	 1.956451693612012e-01	 2.410290943490865e+01
 1.068717037289555e+00	 2.051583467169502e-01	 2.396375196129971e+01
 1.066844898743585e+00	 2.146812752770183e-01	 2.381826756451622e+01
 1.064882505016370e+00	 2.242127879174378e-01	 2.366649953608048e+01
 1.062829384435084e+00	 2.337517025831922e-01	 2.350848268274294e+01
 1.060685084158954e+00	 2.432968226052727e-01	 2.334424305335456e+01
 1.058449170629273e+00	 2.528469370324876e-01	 2.317379766607016e+01
 1.056121230013807e+00	 2.624008209779921e-01	 2.299715423703083e+01
 1.053700868645081e+00	 2.719572359804877e-01	 2.281431091181536e+01
 1.051187713452026e+00	 2.815149303800232e-01	 2.262525600109466e+01
 9.659603455643851e-01	 2.586904849992691e-01	 2.612598809824195e+01
 9.635653563227460e-01	 2.674732820350743e-01	 2.581886273310047e+01
 9.610844706690255e-01	 2.762549201886375e-01	 2.550405120343980e+01
 9.585174061376137e-01	 2.850342158783321e-01	 2.518159773798730e+01
 9.558639007082445e-01	 2.938099749412080e-01	 2.485154665518238e+01
 9.531237131637238e-01	 3.025809930437929e-01	 2.451394238185037e+01
 9.502966234386567e-01	 3.113460561054973e-01	 2.416882948171808e+01
 9.473824329586863e-01	 3.201039407344277e-01	 2.381625269491963e+01
 9.443809649697816e-01	 3.288534146753910e-01	 2.345625698969830e+01
 9.412920648570995e-01	 3.375932372698591e-01	 2.308888762755055e+01
 9.381156004529616e-01	 3.463221599276365e-01	 2.271419024309385e+01
 9.744834554491673e-01	 2.609730294557169e-01	 2.571062282378944e+01
 9.720673341239003e-01	 2.698333211268695e-01	 2.541699762888872e+01
 9.695645584832749e-01	 2.786924436906383e-01	 2.511603325502717e+01
 9.669748435693406e-01	 2.875492031220878e-01	 2.480776909754807e+01
 9.642979250498880e-01	 2.964023947215949e-01	 2.449224280633016e+01
 9.615335595793364e-01	 3.052508035292754e-01	 2.416949026658380e+01
 9.586815251505340e-01	 3.140932047521239e-01	 2.383954559094313e+01
 9.557416214369939e-01	 3.229283642036727e-01	 2.350244112415521e+01
 9.527136701250852e-01	 3.317550387559495e-01	 2.315820746172372e+01
 9.495975152357088e-01	 3.405719768035005e-01	 2.280687348390771e+01
 9.463930234349912e-01	 3.493779187392194e-01	 2.244846640652342e+01
 9.830064373476020e-01	 2.632555396360757e-01	 2.531361128157004e+01
 9.805691842556489e-01	 2.721933247787372e-01	 2.503294977220326e+01
 9.780445189564625e-01	 2.811299305890004e-01	 2.474526951074462e+01
 9.754321539997879e-01	 2.900641525987808e-01	 2.445060359941759e+01
 9.727318227415056e-01	 2.989947755719440e-01	 2.414898171109106e+01
 9.699432797076762e-01	 3.079205739223554e-01	 2.384043003582853e+01
 9.670663009494203e-01	 3.168403121447574e-01	 2.352497124002252e+01
 9.641006843881437e-01	 3.257527452582738e-01	 2.320262443956010e+01
 9.610462501506362e-01	 3.346566192623189e-01	 2.287340518852264e+01
 9.579028408935608e-01	 3.435506716046804e-01	 2.253732548497388e+01
 9.546703221168643e-01	 3.524336316615091e-01	 2.219439379543630e+01
 9.915293081632356e-01	 2.655380200673481e-01	 2.493342291531820e+01
 9.890709235796760e-01	 2.745532976713896e-01	 2.466520362298127e+01
 9.865243689069056e-01	 2.835673857181275e-01	 2.439026383678617e+01
 9.838893542023931e-01	 2.925790692964668e-01	 2.410862896720298e+01
 9.811656105101376e-01	 3.015871226339011e-01	 2.382031946054953e+01
 9.783528902278685e-01	 3.105903095181872e-01	 2.352535071481307e+01
 9.754509674650010e-01	 3.195873837319579e-01	 2.322373300918042e+01
 9.724596383908544e-01	 3.285770895000708e-01	 2.291547144885880e+01
 9.693787215726591e-01	 3.375581619494725e-01	 2.260056592683203e+01
 9.662080583028561e-01	 3.465293275813365e-01	 2.227901110425411e+01
 9.629475129152258e-01	 3.554893047552184e-01	 2.195079641123077e+01
 1.000052084799612e+00	 2.678204752765360e-01	 2.456858075846551e+01
 9.975725689576675e-01	 2.769132444855391e-01	 2.431229652822504e+01
 9.950041251529212e-01	 2.860048139124229e-01	 2.404957212616378e+01
 9.923464609505925e-01	 2.950939582032003e-01	 2.378042393224626e+01
 9.895993050828242e-01	 3.041794410491115e-01	 2.350486197449786e+01
 9.867624078190368e-01	 3.132600156119249e-01	 2.322288981750953e+01
 9.838355413269591e-01	 3.223344249622841e-01	 2.293450446560436e+01
 9.808185000238453e-01	 3.314014025309032e-01	 2.263969628238002e+01
 9.777111009173797e-01	 3.404596725723824e-01	 2.233844892840859e+01
 9.745131839357962e-01	 3.495079506414066e-01	 2.203073931893764e+01
 9.712246122467209e-01	 3.585449440810584e-01	 2.171653760349150e+01
 1.008574784160278e+00	 2.701029097906421e-01	 2.421765902029036e+01
 1.006074137251309e+00	 2.792731699018982e-01	 2.397281632444457e+01
 1.003483804512826e+00	 2.884422200062909e-01	 2.372179992372898e+01
 1.000803491017823e+00	 2.976088243070368e-01	 2.346461588759269e+01
 9.980329231866059e-01	 3.067717359592214e-01	 2.320126269079744e+01
 9.951718491603041e-01	 3.159296974987229e-01	 2.293173107790637e+01
 9.922200391649797e-01	 3.250814412842958e-01	 2.265600394321809e+01
 9.891772858658344e-01	 3.342256899526103e-01	 2.237405622798512e+01
 9.860434047110226e-01	 3.433611568860221e-01	 2.208585483683041e+01
 9.828182342645817e-01	 3.524865466928280e-01	 2.179135857534590e+01
 9.795016365279939e-01	 3.616005556997415e-01	 2.149051811091239e+01
 1.017097423148778e+00	 2.723853281366685e-01	 2.387928078972924e+01
 1.014575645322286e+00	 2.816330786011796e-01	 2.364539905665107e+01
 1.011963423804938e+00	 2.908796088341344e-01	 2.340560016631215e+01
 1.009260461177522e+00	 3.001236725960307e-01	 2.315987865531627e+01
 1.006466481548522e+00	 3.093640125058759e-01	 2.290822036600388e+01
 1.003581230930795e+00	 3.185993604737352e-01	 2.265060229011826e+01
 1.000604477608747e+00	 3.278284381465518e-01	 2.238699242852790e+01
 9.975360124955410e-01	 3.370499573670315e-01	 2.211734966896429e+01
 9.943756494798129e-01	 3.462626206453642e-01	 2.184162368381784e+01
 9.911232257614139e-01	 3.554651216435385e-01	 2.155975485010762e+01
 9.877786021756902e-01	 3.646561456719794e-01	 2.127167419380745e+01
 1.025620018668658e+00	 2.746677348416176e-01	 2.355211584996197e+01
 1.023077110032282e+00	 2.839929752640952e-01	 2.332872680707964e+01
 1.020442999847574e+00	 2.933169852303574e-01	 2.309967103123952e+01
 1.017717388203125e+00	 3.026385080582376e-01	 2.286493036056309e+01
 1.014899996895614e+00	 3.119562758307208e-01	 2.262447698073957e+01
 1.011990569809631e+00	 3.212690098321160e-01	 2.237827325095709e+01
 1.008988873287944e+00	 3.305754209976118e-01	 2.212627154632546e+01
 1.005894696491684e+00	 3.398742103760061e-01	 2.186841411886703e+01
 1.002707851749976e+00	 3.491640696053813e-01	 2.160463297924138e+01
 9.994281748984939e-01	 3.584436814014762e-01	 2.133484980144922e+01
 9.960555256064552e-01	 3.677117200584841e-01	 2.105897585283656e+01
 1.034142587623462e+00	 2.769501344324914e-01	 2.323487859734044e+01
 1.031578548242984e+00	 2.863528645713577e-01	 2.302152562726857e+01
 1.028922549459051e+00	 2.957543540293634e-01	 2.280275388693497e+01
 1.026174288868070e+00	 3.051533356817125e-01	 2.257853140611556e+01
 1.023333485954921e+00	 3.145485310754019e-01	 2.234881574372868e+01
 1.020399882475940e+00	 3.239386508690197e-01	 2.211355379901110e+01
 1.017373242832256e+00	 3.333223952860350e-01	 2.187268163944613e+01
 1.014253354432981e+00	 3.426984545813739e-01	 2.162612434763108e+01
 1.011040028047737e+00	 3.520655095210467e-01	 2.137379588936905e+01
 1.007733098148022e+00	 3.614222318745779e-01	 2.111559900535826e+01
 1.004332423236933e+00	 3.707672849199675e-01	 2.085142512893179e+01
 1.042665146916736e+00	 2.792325314362925e-01	 2.292632605865120e+01
 1.040079976816076e+00	 2.887127512036795e-01	 2.272256356754355e+01
 1.037402089457687e+00	 2.981917200655562e-01	 2.251363133972384e+01
 1.034631179945794e+00	 3.076681604545102e-01	 2.229948254168421e+01
 1.031766965453483e+00	 3.171407833815649e-01	 2.208005918880869e+01
 1.028809185608841e+00	 3.266082888796002e-01	 2.185529194466966e+01
 1.025757602871366e+00	 3.360693664603806e-01	 2.162509993715874e+01
 1.022612002898152e+00	 3.455226955849741e-01	 2.138939059374519e+01
 1.019372194899320e+00	 3.549669461473329e-01	 2.114805949826307e+01
 1.016038011982201e+00	 3.644007789707822e-01	 2.090099027172328e+01
 1.012609311483770e+00	 3.738228463171415e-01	 2.064805447973460e+01
 1.051187713452026e+00	 2.815149303800232e-01	 2.262525600109465e+01
 1.048581412613244e+00	 2.910726398417731e-01	 2.243064879834023e+01
 1.045881636661798e+00	 3.006290881733392e-01	 2.223112537134336e+01
 1.043088078209732e+00	 3.101829873646860e-01	 2.202662302251383e+01
 1.040200452118341e+00	 3.197330378908551e-01	 2.181706735960277e+01
 1.037218495887461e+00	 3.292779291590120e-01	 2.160237208589189e+01
 1.034141970034960e+00	 3.388163399692082e-01	 2.138243880711697e+01
 1.030970658465916e+00	 3.483469389886462e-01	 2.115715685752349e+01
 1.027704368830951e+00	 3.578683852392130e-01	 2.092640314756608e+01
 1.024342932873230e+00	 3.673793285980262e-01	 2.069004203586985e+01
 1.020886206763610e+00	 3.768784103107179e-01	 2.044792522816384e+01
 9.381156004529616e-01	 3.463221599276365e-01	 2.271419024309384e+01
 9.348508998318095e-01	 3.550404073758257e-01	 2.233373536903978e+01
 9.314984086111489e-01	 3.637452306608892e-01	 2.194917569348159e+01
 9.280580630371016e-01	 3.724353592601340e-01	 2.156048264525967e+01
 9.245298229341035e-01	 3.811095166967163e-01	 2.116762135336395e+01
 9.209136719525729e-01	 3.897664210659201e-01	 2.077055080816130e+01
 9.172096178030529e-01	 3.984047855712462e-01	 2.036922405422472e+01
 9.134176924764241e-01	 4.070233190699295e-01	 1.996358841622922e+01
 9.095379524497916e-01	 4.156207266274775e-01	 1.955358575931658e+01
 9.055704788776667e-01	 4.241957100808110e-01	 1.913915278527207e+01
 9.015153777680721e-01	 4.327469686095653e-01	 1.872022136577472e+01
 9.463930234349912e-01	 3.493779187392194e-01	 2.244846640652343e+01
 9.430995168686512e-01	 3.581730912730492e-01	 2.208448192246432e+01
 9.397174450860709e-01	 3.669547211961475e-01	 2.171649412436674e+01
 9.362467437708336e-01	 3.757215267753867e-01	 2.134445708564308e+01
 9.326873723928802e-01	 3.844722202709525e-01	 2.096831840892543e+01
 9.290393144583593e-01	 3.932055084672652e-01	 2.058801938883173e+01
 9.253025777458402e-01	 4.019200932137996e-01	 2.020349520700653e+01
 9.214771945284640e-01	 4.106146719754152e-01	 1.981467516099816e+01
 9.175632217816512e-01	 4.192879383917875e-01	 1.942148292848419e+01
 9.135607413759673e-01	 4.279385828455182e-01	 1.902383686828594e+01
 9.094698602547836e-01	 4.365652930384773e-01	 1.862165035954605e+01
 9.546703221168643e-01	 3.524336316615091e-01	 2.219439379543630e+01
 9.513480100376310e-01	 3.613057281255642e-01	 2.184605273349539e+01
 9.479363581370631e-01	 3.701641635330709e-01	 2.149382032334243e+01
 9.444353015362197e-01	 3.790076449406455e-01	 2.113763372239969e+01
 9.408447993505555e-01	 3.878348733456836e-01	 2.077742333091770e+01
 9.371648349419601e-01	 3.966445442219223e-01	 2.041311295361762e+01
 9.333954161570299e-01	 4.054353480649910e-01	 2.004461999440377e+01
 9.295365755511700e-01	 4.142059709475558e-01	 1.967185568582376e+01
 9.255883705981118e-01	 4.229550950836430e-01	 1.929472535489785e+01
 9.215508838844715e-01	 4.316813994017183e-01	 1.891312872688127e+01
 9.174242232889597e-01	 4.403835601260684e-01	 1.852696026843891e+01
 9.629475129152258e-01	 3.554893047552184e-01	 2.195079641123077e+01
 9.595963956982929e-01	 3.644383241466699e-01	 2.161732938794491e+01
 9.561551640650344e-01	 3.733735640373091e-01	 2.128009072152142e+01
 9.526237525739953e-01	 3.822937202736523e-01	 2.093900110393126e+01
 9.490021199861547e-01	 3.911974825904597e-01	 2.059397407001568e+01
 9.452902495191458e-01	 4.000835351509420e-01	 2.024491615529935e+01
 9.414881490875990e-01	 4.089505570970414e-01	 1.989172708779452e+01
 9.375958515291822e-01	 4.177972231093881e-01	 1.953430001559627e+01
 9.336134148159376e-01	 4.266222039765179e-01	 1.917252177201729e+01
 9.295409222505252e-01	 4.354241671729183e-01	 1.880627317994997e+01
 9.253784826469882e-01	 4.442017774454529e-01	 1.843542939706327e+01
 9.712246122467209e-01	 3.585449440810584e-01	 2.171653760349150e+01
 9.678446902101844e-01	 3.675708855496655e-01	 2.139723062920589e+01
 9.643738791708958e-01	 3.765829290745127e-01	 2.107427681242297e+01
 9.608121131248981e-01	 3.855797592921484e-01	 2.074758084203052e+01
 9.571593504787009e-01	 3.945600546748302e-01	 2.041703973809699e+01
 9.534155743056878e-01	 4.035224880753752e-01	 2.008254300310935e+01
 9.495807925885241e-01	 4.124657272821720e-01	 1.974397280824275e+01
 9.456550384471418e-01	 4.213884355839487e-01	 1.940120421659704e+01
 9.416383703518920e-01	 4.302892723438851e-01	 1.905410544528416e+01
 9.375308723214741e-01	 4.391668935826254e-01	 1.870253816819351e+01
 9.333326541052582e-01	 4.480199525697459e-01	 1.834635786118011e+01
 9.795016365279939e-01	 3.616005556997415e-01	 2.149051811091237e+01
 9.760929099328501e-01	 3.707034185478503e-01	 2.118471047605362e+01
 9.725925197555580e-01	 3.797922650103322e-01	 2.087538334257586e+01
 9.690003994296654e-01	 3.888657685138760e-01	 2.056242587121240e+01
 9.653165070072187e-01	 3.979225962683448e-01	 2.024571893223935e+01
 9.615408254173563e-01	 4.069614098162727e-01	 1.992513524734674e+01
 9.576733627107815e-01	 4.159808655926035e-01	 1.960053956769975e+01
 9.537141522896891e-01	 4.249796154942740e-01	 1.927178889027066e+01
 9.496632531227387e-01	 4.339563074592176e-01	 1.893873271447571e+01
 9.455207499446650e-01	 4.429095860543472e-01	 1.860121334109099e+01
 9.412867534401580e-01	 4.518380930720615e-01	 1.825906621534170e+01
 9.877786021756902e-01	 3.646561456719794e-01	 2.127167419380745e+01
 9.843410712258356e-01	 3.738359293545230e-01	 2.097875642782208e+01
 9.808111021199305e-01	 3.830015782104174e-01	 2.068244658548507e+01
 9.771886277290335e-01	 3.921517544565758e-01	 2.038261878760570e+01
 9.734736057507323e-01	 4.012851140405534e-01	 2.007913813468176e+01
 9.696660189699228e-01	 4.104003071946854e-01	 1.977186083656459e+01
 9.657658755053475e-01	 4.194959790005573e-01	 1.946063437958797e+01
 9.617732090414657e-01	 4.285707699634006e-01	 1.914529773339794e+01
 9.576880790452408e-01	 4.376233165959891e-01	 1.882568159967864e+01
 9.535105709674433e-01	 4.466522520115910e-01	 1.850160870490858e+01
 9.492407964280759e-01	 4.556562065255140e-01	 1.817289413920245e+01
 9.960555256064552e-01	 3.677117200584841e-01	 2.105897585283656e+01
 9.925891904486867e-01	 3.769684241829833e-01	 2.077838775182789e+01
 9.890296425649242e-01	 3.862108750404191e-01	 2.049453269407348e+01
 9.853768142637397e-01	 3.954377236379905e-01	 2.020727026273846e+01
 9.816306628882662e-01	 4.046476146610058e-01	 1.991645018428913e+01
 9.777911710791584e-01	 4.138391870316641e-01	 1.962191244306371e+01
 9.738583470231990e-01	 4.230110744782542e-01	 1.932348743469108e+01
 9.698322246871114e-01	 4.321619061143651e-01	 1.902099616076471e+01
 9.657128640361627e-01	 4.412903070276732e-01	 1.871425046714030e+01
 9.615003512371543e-01	 4.503948988778640e-01	 1.840305332816163e+01
 9.571947988454013e-01	 4.594743005032184e-01	 1.808719917904425e+01
 1.004332423236933e+00	 3.707672849199675e-01	 2.085142512893179e+01
 1.000837283960950e+00	 3.801009092465300e-01	 2.058265384825571e+01
 9.972481573914492e-01	 3.894201618659871e-01	 2.031073612702676e+01
 9.935649752745213e-01	 3.987236825758612e-01	 2.003551752785071e+01
 9.897876945988443e-01	 4.080101047992519e-01	 1.975683281535288e+01
 9.859162978608341e-01	 4.172780561482596e-01	 1.947450605271250e+01
 9.819507933153128e-01	 4.265261589979156e-01	 1.918835073853826e+01
 9.778912152112671e-01	 4.357530310702037e-01	 1.889816998667613e+01
 9.737376240122680e-01	 4.449572860277427e-01	 1.860375675149869e+01
 9.694901066011445e-01	 4.541375340766737e-01	 1.830489410116852e+01
 9.651487764685219e-01	 4.632923825782889e-01	 1.800135554128850e+01
 1.012609311483770e+00	 3.738228463171415e-01	 2.064805447973460e+01
 1.009085368122169e+00	 3.832333907584627e-01	 2.039063268803073e+01
 1.005466662900416e+00	 3.926294450527717e-01	 2.013017814477254e+01
 1.001753127002115e+00	 4.020096377879295e-01	 1.986652292466039e+01
 9.979447170614915e-01	 4.113725911248411e-01	 1.959948725983298e+01
 9.940414154307206e-01	 4.207169213655227e-01	 1.932887961536770e+01
 9.900432304326650e-01	 4.300412395317623e-01	 1.905449680672375e+01
 9.859501965985736e-01	 4.393441519539534e-01	 1.877612416190981e+01
 9.817623748903193e-01	 4.486242608696710e-01	 1.849353573112508e+01
 9.774798529067596e-01	 4.578801650315273e-01	 1.820649454656118e+01
 9.731027450738268e-01	 4.671104603238400e-01	 1.791475293497626e+01
 1.020886206763610e+00	 3.768784103107179e-01	 2.044792522816384e+01
 1.017333459291891e+00	 3.863658749320800e-01	 2.020142931949655e+01
 1.013685175392733e+00	 3.958387309664232e-01	 1.995200537110165e+01
 1.009941285687257e+00	 4.052955957919373e-01	 1.969947251876940e+01
 1.006101746455231e+00	 4.147350803073234e-01	 1.944363690940051e+01
 1.002166539904589e+00	 4.241557895045043e-01	 1.918429175241928e+01
 9.981356744262321e-01	 4.335563230520150e-01	 1.892121741483192e+01
 9.940091848336720e-01	 4.429352758886505e-01	 1.865418156291946e+01
 9.897871325870814e-01	 4.522912388269316e-01	 1.838293935352254e+01
 9.854696060013458e-01	 4.616227991659320e-01	 1.810723367781631e+01
 9.810567204377049e-01	 4.709285413129863e-01	 1.782679546039628e+01
 9.015153777680721e-01	 4.327469686095653e-01	 1.872022136577472e+01
 8.973734916289077e-01	 4.412717521407645e-01	 1.829852125231842e+01
 8.931442941867405e-01	 4.497702121745721e-01	 1.787573142196637e+01
 8.888279661850488e-01	 4.582410436156898e-01	 1.745192356727762e+01
 8.844247137540192e-01	 4.666829410531057e-01	 1.702717581087404e+01
 8.799347685068711e-01	 4.750945993647693e-01	 1.660157310564261e+01
 8.753583876192406e-01	 4.834747143274810e-01	 1.617520766141638e+01
 8.706958538913733e-01	 4.918219832314509e-01	 1.574817939850695e+01
 8.659474757928984e-01	 5.001351054989742e-01	 1.532059642831871e+01
 8.611135874899662e-01	 5.084127833066525e-01	 1.489257556110826e+01
 8.561945488545586e-01	 5.166537222105835e-01	 1.446424284077857e+01
 9.094698602547836e-01	 4.365652930384773e-01	 1.862165035954605e+01
 9.052914283598296e-01	 4.451652946325164e-01	 1.821674621614922e+01
 9.010249147741403e-01	 4.537387404645846e-01	 1.781088748119701e+01
 8.966705018359983e-01	 4.622843139239722e-01	 1.740410438788964e+01
 8.922283974943962e-01	 4.708006980814723e-01	 1.699643250390261e+01
 8.876988354062080e-01	 4.792865762993890e-01	 1.658791316329357e+01
 8.830820750162708e-01	 4.877406328468080e-01	 1.617859392807193e+01
 8.783784016201311e-01	 4.961615535195786e-01	 1.576852907987027e+01
 8.735881264092127e-01	 5.045480262644485e-01	 1.535778014201066e+01
 8.687115864981905e-01	 5.128987418067736e-01	 1.494641643207600e+01
 8.637491449343864e-01	 5.212123942812260e-01	 1.453451564491969e+01
 9.174242232889597e-01	 4.403835601260684e-01	 1.852696026843891e+01
 9.132092461870271e-01	 4.490587786537446e-01	 1.813812557411318e+01
 9.089054170182405e-01	 4.577072091584488e-01	 1.774846269856762e+01
 9.045129197156632e-01	 4.663275235142201e-01	 1.735796207922942e+01
 9.000319640470583e-01	 4.749183932738121e-01	 1.696661835345009e+01
 8.954627857129170e-01	 4.834784902840402e-01	 1.657443081903744e+01
 8.908056464272401e-01	 4.920064873064326e-01	 1.618140392770139e+01
 8.860608339808328e-01	 5.005010586426355e-01	 1.578754781194720e+01
 8.812286622868647e-01	 5.089608807640041e-01	 1.539287884577004e+01
 8.763094714084870e-01	 5.173846329448051e-01	 1.499742023932939e+01
 8.713036275683089e-01	 5.257709978984395e-01	 1.460120266758092e+01
 9.253784826469882e-01	 4.442017774454529e-01	 1.843542939706327e+01
 9.211269608144043e-01	 4.529522119266949e-01	 1.806196963791563e+01
 9.167858165489323e-01	 4.616756261270721e-01	 1.768779900865665e+01
 9.123552353783855e-01	 4.703706804055071e-01	 1.731286978234031e+01
 9.078354288892730e-01	 4.790360347968520e-01	 1.693713725798045e+01
 9.032266348256714e-01	 4.876703496325702e-01	 1.656056024658888e+01
 8.985291171707118e-01	 4.962722861667687e-01	 1.618310159346832e+01
 8.937431662104189e-01	 5.048405072070253e-01	 1.580472873738090e+01
 8.888690985796693e-01	 5.133736777494393e-01	 1.542541430703245e+01
 8.839072572900483e-01	 5.218704656173233e-01	 1.504513675511777e+01
 8.788580117394046e-01	 5.303295421029417e-01	 1.466388102996626e+01
 9.333326541052582e-01	 4.480199525697459e-01	 1.834635786118011e+01
 9.290445879458680e-01	 4.568456021736130e-01	 1.798760928211400e+01
 9.246661289961033e-01	 4.656439992413594e-01	 1.762825768661635e+01
 9.201974643785068e-01	 4.744137926169062e-01	 1.726821878466698e+01
 9.156388074983086e-01	 4.831536308173199e-01	 1.690741009834837e+01
 9.109903981431454e-01	 4.918621626588275e-01	 1.654575147024753e+01
 9.062525025652485e-01	 5.005380378882299e-01	 1.618316561153310e+01
 9.014254135458306e-01	 5.091799078191523e-01	 1.581957869043029e+01
 8.965094504414431e-01	 5.177864259725528e-01	 1.545492096162790e+01
 8.915049592120664e-01	 5.263562487209043e-01	 1.508912743694356e+01
 8.864123124307511e-01	 5.348880359354498e-01	 1.472213859735734e+01
 9.412867534401580e-01	 4.518380930720615e-01	 1.825906621534171e+01
 9.369621432853240e-01	 4.607389571167452e-01	 1.791439461010395e+01
 9.325463699896418e-01	 4.696123363722164e-01	 1.756921805175590e+01
 9.280396222703682e-01	 4.784568681674906e-01	 1.722341726042823e+01
 9.234421153514332e-01	 4.872711895019432e-01	 1.687687351411108e+01
 9.187540910640122e-01	 4.960539376766596e-01	 1.652946917624246e+01
 9.139758179294120e-01	 5.048037509312295e-01	 1.618108826647595e+01
 9.091075912240104e-01	 5.135192690854202e-01	 1.583161707546331e+01
 9.041497330260017e-01	 5.221991341851426e-01	 1.548094482429071e+01
 8.991025922437338e-01	 5.308419911521246e-01	 1.512896436898772e+01
 8.939665446254272e-01	 5.394464884366806e-01	 1.477557295029946e+01
 9.492407964280759e-01	 4.556562065255140e-01	 1.817289413920245e+01
 9.448796425366777e-01	 4.646322844783374e-01	 1.784169367652694e+01
 9.404265551594381e-01	 4.735806453905491e-01	 1.751007622533424e+01
 9.358817246083116e-01	 4.824999150763336e-01	 1.717788906303872e+01
 9.312453679259155e-01	 4.913887190174496e-01	 1.684497872977211e+01
 9.265177289869452e-01	 5.002456829999145e-01	 1.651119157194621e+01
 9.216990785817664e-01	 5.090694337561815e-01	 1.617637433258183e+01
 9.167897144818992e-01	 5.178585996122334e-01	 1.584037478936791e+01
 9.117899614871610e-01	 5.266118111390078e-01	 1.550304244120275e+01
 9.067001714542431e-01	 5.353277018075605e-01	 1.516422924374299e+01
 9.015207233065106e-01	 5.440049086473518e-01	 1.482379039424184e+01
 9.571947988454013e-01	 4.594743005032184e-01	 1.808719917904425e+01
 9.527971014038353e-01	 4.685255919806352e-01	 1.776889126277023e+01
 9.483067001353794e-01	 4.775489341672630e-01	 1.745024393936529e+01
 9.437237869466789e-01	 4.865429413625085e-01	 1.713107256650427e+01
 9.390485806990231e-01	 4.955062275305661e-01	 1.681119042800895e+01
 9.342813273106181e-01	 5.044374069424400e-01	 1.649040929013137e+01
 9.294222998408734e-01	 5.133350948234994e-01	 1.616854000827834e+01
 9.244717985564375e-01	 5.221979080059954e-01	 1.584539318527890e+01
 9.194301509787368e-01	 5.310244655859463e-01	 1.552077988207420e+01
 9.142977119127867e-01	 5.398133895837890e-01	 1.519451238147164e+01
 9.090748634570801e-01	 5.485633056081808e-01	 1.486640500534684e+01
 9.651487764685219e-01	 4.632923825782889e-01	 1.800135554128850e+01
 9.607145355907024e-01	 4.724188873458850e-01	 1.769538770245454e+01
 9.561868205473563e-01	 4.815172105732643e-01	 1.738914739344924e+01
 9.515658248398112e-01	 4.905859550450882e-01	 1.708241955292409e+01
 9.468517691480248e-01	 4.996237232080208e-01	 1.677498566712997e+01
 9.420449014337045e-01	 5.086291178180842e-01	 1.646662433562571e+01
 9.371454970252964e-01	 5.176007425935968e-01	 1.615711189119059e+01
 9.321538586845686e-01	 5.265372028731108e-01	 1.584622307519381e+01
 9.270703166545445e-01	 5.354371062777572e-01	 1.553373176943971e+01
 9.218952286885570e-01	 5.442990633773857e-01	 1.521941178525836e+01
 9.166289800602130e-01	 5.531216883598840e-01	 1.490303771034007e+01
 9.731027450738268e-01	 4.671104603238400e-01	 1.791475293497626e+01
 9.686319608011851e-01	 4.763121782963325e-01	 1.762059775400501e+01
 9.640669320252565e-01	 4.854854824794586e-01	 1.732622615683874e+01
 9.594078538420502e-01	 4.946289641431463e-01	 1.703139414341636e+01
 9.546549487501882e-01	 5.037412142165409e-01	 1.673585284018604e+01
 9.498084667548776e-01	 5.128208239406948e-01	 1.643934907189623e+01
 9.448686854535973e-01	 5.218663855268871e-01	 1.614162599144587e+01
 9.398359101032321e-01	 5.308764928199834e-01	 1.584242376920696e+01
 9.347104736684004e-01	 5.398497419662385e-01	 1.554148034299246e+01
 9.294927368507461e-01	 5.487847320849273e-01	 1.523853222957844e+01
 9.241830880989882e-01	 5.576800659431796e-01	 1.493331539840531e+01
 9.810567204377049e-01	 4.709285413129863e-01	 1.782679546039628e+01
 9.765493927391889e-01	 4.802054725542235e-01	 1.754394951759158e+01
 9.719470501989695e-01	 4.894537577567515e-01	 1.726093211312915e+01
 9.672498895077370e-01	 4.986719766757557e-01	 1.697747176996033e+01
 9.624581349827819e-01	 5.078587087228539e-01	 1.669329067332819e+01
 9.575720386728110e-01	 5.170125336241197e-01	 1.640810524525110e+01
 9.525918804443397e-01	 5.261320320837842e-01	 1.612162678101153e+01
 9.475179680493709e-01	 5.352157864530170e-01	 1.583356214923890e+01
 9.423506371741205e-01	 5.442623814031888e-01	 1.554361455692516e+01
 9.370902514685465e-01	 5.532704046029900e-01	 1.525148438043272e+01
 9.317372025564836e-01	 5.622384473987843e-01	 1.495687006326127e+01
 8.561945488545586e-01	 5.166537222105835e-01	 1.446424284077857e+01
 8.511907456626934e-01	 5.248566319374305e-01	 1.403758891386774e+01
 8.461025901846804e-01	 5.330202275143922e-01	 1.361437863850804e+01
 8.409305205124762e-01	 5.411432294266815e-01	 1.319440519452720e+01
 8.356750002871786e-01	 5.492243640870376e-01	 1.277746064922396e+01
 8.303365186157974e-01	 5.572623644660746e-01	 1.236333700454908e+01
 8.249155899695261e-01	 5.652559707219061e-01	 1.195182728619427e+01
 8.194127540634818e-01	 5.732039308284176e-01	 1.154272667252528e+01
 8.138285757179111e-01	 5.811050012015556e-01	 1.113583366105579e+01
 8.081636447008754e-01	 5.889579473229990e-01	 1.073097790524315e+01
 8.024185755524645e-01	 5.967615443605806e-01	 1.033145833802400e+01
 8.637491449343864e-01	 5.212123942812260e-01	 1.453451564491970e+01
 8.587011908977178e-01	 5.294876820298390e-01	 1.412390165258446e+01
 8.535681402961494e-01	 5.377233087419441e-01	 1.371619047707451e+01
 8.483504350871245e-01	 5.459179836130426e-01	 1.331115319284731e+01
 8.430485430026597e-01	 5.540704218184632e-01	 1.290855971780109e+01
 8.376629574653811e-01	 5.621793451492738e-01	 1.250817989445667e+01
 8.321941974858973e-01	 5.702434826474593e-01	 1.210978461542067e+01
 8.266428075414806e-01	 5.782615712397395e-01	 1.171314699106887e+01
 8.210093574360455e-01	 5.862323563693832e-01	 1.131804355710084e+01
 8.152944421414487e-01	 5.941545926253828e-01	 1.092583357273390e+01
 8.094986816201494e-01	 6.020270443683502e-01	 1.054043621895648e+01
 8.713036275683089e-01	 5.257709978984395e-01	 1.460120266758091e+01
 8.662115233500910e-01	 5.341186625824692e-01	 1.420589151086135e+01
 8.610335782993952e-01	 5.424263193485215e-01	 1.381296166103813e+01
 8.557702382390909e-01	 5.506926661025537e-01	 1.342216258316267e+01
 8.504219749920489e-01	 5.589164067826506e-01	 1.303324264241554e+01
 8.449892862964444e-01	 5.670962520004978e-01	 1.264595021918744e+01
 8.394726957022308e-01	 5.752309196821163e-01	 1.226003487076738e+01
 8.338727524487609e-01	 5.833191357072233e-01	 1.187524853756523e+01
 8.281900313235401e-01	 5.913596345465710e-01	 1.149174867409763e+01
 8.224251325021389e-01	 5.993511598966268e-01	 1.111333278929354e+01
 8.165786813693012e-01	 6.072924653109393e-01	 1.074129277946399e+01
 8.788580117394046e-01	 5.303295421029417e-01	 1.466388102996626e+01
 8.737217579152943e-01	 5.387495827795208e-01	 1.428316413612355e+01
 8.684989190008251e-01	 5.471292686611281e-01	 1.390432939103435e+01
 8.631899446842412e-01	 5.554672863643203e-01	 1.352710513238585e+01
 8.577953108792116e-01	 5.637623285900818e-01	 1.315121875206303e+01
 8.523155196394018e-01	 5.720130947708595e-01	 1.277639784499582e+01
 8.467510990540494e-01	 5.802182917168527e-01	 1.240237140689437e+01
 8.411026031245225e-01	 5.883766342609167e-01	 1.202887214740547e+01
 8.353706116218506e-01	 5.964868459014283e-01	 1.165823716224526e+01
 8.295557299252466e-01	 6.045476594424677e-01	 1.129302946706659e+01
 8.236585888416686e-01	 6.125578176306615e-01	 1.093362785470346e+01
 8.864123124307511e-01	 5.348880359354498e-01	 1.472213859735734e+01
 8.812319094888068e-01	 5.433804518051942e-01	 1.435533495878727e+01
 8.759641772068461e-01	 5.518321660067671e-01	 1.398993960717947e+01
 8.706095691384411e-01	 5.602418538674465e-01	 1.362566022191751e+01
 8.651685652880142e-01	 5.686081968512386e-01	 1.326220378473286e+01
 8.596416720246698e-01	 5.769298832114717e-01	 1.289927776215501e+01
 8.540294219768775e-01	 5.852056086426440e-01	 1.253659133908551e+01
 8.483323739079661e-01	 5.934340769308681e-01	 1.217477944788538e+01
 8.425511125724330e-01	 6.016140006022647e-01	 1.181718550642247e+01
 8.366862485530752e-01	 6.097441015686451e-01	 1.146447535498610e+01
 8.307384180790003e-01	 6.178231117698287e-01	 1.111703751384241e+01
 8.939665446254272e-01	 5.394464884366806e-01	 1.477557295029945e+01
 8.887419929661107e-01	 5.480112788436901e-01	 1.442202819469627e+01
 8.834293677238655e-01	 5.565350207124422e-01	 1.406944602691834e+01
 8.780291263175578e-01	 5.650163780810377e-01	 1.371751392504958e+01
 8.725417528423216e-01	 5.734540211766025e-01	 1.336591900849496e+01
 8.669677579826620e-01	 5.818466270734466e-01	 1.301434925383391e+01
 8.613076789062371e-01	 5.901928803504651e-01	 1.266261142599751e+01
 8.555620791382921e-01	 5.984914737471259e-01	 1.231336322256105e+01
 8.497315484167444e-01	 6.067411088173905e-01	 1.196810314311007e+01
 8.438167025279261e-01	 6.149404965808971e-01	 1.162722011896606e+01
 8.378181831230445e-01	 6.230883581707538e-01	 1.129111421282644e+01
 9.015207233065106e-01	 5.440049086473518e-01	 1.482379039424184e+01
 8.962520232426849e-01	 5.526420730792081e-01	 1.448287588419130e+01
 8.908945053582911e-01	 5.612378421051567e-01	 1.414250921748326e+01
 8.854486309374568e-01	 5.697908684741977e-01	 1.380235811676101e+01
 8.799148881660003e-01	 5.782998111766552e-01	 1.346209037256247e+01
 8.742937920437945e-01	 5.867633361078972e-01	 1.312137509234035e+01
 8.685858842776520e-01	 5.951801167312915e-01	 1.278120150652760e+01
 8.627917331547008e-01	 6.035488347397386e-01	 1.244409594230103e+01
 8.569119333962408e-01	 6.118681807151147e-01	 1.211049889434003e+01
 8.509471059921021e-01	 6.201368547849615e-01	 1.178081143693667e+01
 8.448978980155512e-01	 6.283535672757500e-01	 1.145544695842677e+01
 9.090748634570801e-01	 5.485633056081808e-01	 1.486640500534685e+01
 9.037620152140117e-01	 5.572728436959491e-01	 1.453751696563719e+01
 8.983596049165294e-01	 5.659406395119149e-01	 1.420879570090791e+01
 8.928680977140043e-01	 5.745653345160320e-01	 1.387988961397850e+01
 8.872879858829165e-01	 5.831455764618790e-01	 1.355044768654449e+01
 8.816197887384816e-01	 5.916800200659359e-01	 1.322039672802481e+01
 8.758640525266459e-01	 6.001673276760989e-01	 1.289208943045845e+01
 8.700213502963929e-01	 6.086061699387545e-01	 1.256645073540471e+01
 8.640922817523794e-01	 6.169952264637478e-01	 1.224388101402919e+01
 8.580774730879046e-01	 6.253331864865770e-01	 1.192479510785446e+01
 8.519775767982680e-01	 6.336187495271290e-01	 1.160962148290927e+01
 9.166289800602130e-01	 5.531216883598840e-01	 1.490303771034006e+01
 9.112719837755705e-01	 5.619035998781131e-01	 1.458559638137246e+01
 9.058246812049882e-01	 5.706434222597192e-01	 1.426797708967197e+01
 9.002875413630671e-01	 5.793397856756451e-01	 1.394980934449866e+01
 8.946610606169344e-01	 5.879913266427550e-01	 1.363072382621686e+01
 8.889457625971390e-01	 5.965966886986754e-01	 1.331179100149175e+01
 8.831421980887418e-01	 6.051545230758629e-01	 1.299471739908575e+01
 8.772509449025682e-01	 6.136634893742215e-01	 1.267990139327165e+01
 8.712726077266154e-01	 6.221222562315994e-01	 1.236775725047500e+01
 8.652078179576365e-01	 6.305295019914821e-01	 1.205871517388331e+01
 8.590572335129438e-01	 6.388839153672046e-01	 1.175322042871342e+01
 9.241830880989882e-01	 5.576800659431796e-01	 1.493331539840531e+01
 9.187819438228425e-01	 5.665343508099006e-01	 1.462676421418220e+01
 9.132897490300741e-01	 5.753461996755740e-01	 1.431972925117810e+01
 9.077069766005101e-01	 5.841142314221418e-01	 1.401182154288770e+01
 9.020341269919213e-01	 5.928370713297655e-01	 1.370300159242065e+01
 8.962717281501817e-01	 6.015133517572285e-01	 1.339502614719811e+01
 8.904203353994636e-01	 6.101417128215584e-01	 1.308852933472133e+01
 8.844805313124273e-01	 6.187208030761884e-01	 1.278392239397022e+01
 8.784529255604061e-01	 6.272492801869793e-01	 1.248163492408902e+01
 8.723381547435993e-01	 6.357258116054149e-01	 1.218211405499054e+01
 8.661368822013277e-01	 6.441490752382886e-01	 1.188582354256970e+01
 9.317372025564836e-01	 5.622384473987843e-01	 1.495687006326128e+01
 9.262919102513079e-01	 5.711651056755117e-01	 1.466067485251562e+01
 9.207548231981949e-01	 5.800489810864823e-01	 1.436373149937934e+01
 9.151264181422006e-01	 5.888886812246268e-01	 1.406563859641604e+01
 9.094071996317424e-01	 5.976828201333920e-01	 1.376721149273716e+01
 9.035976999280246e-01	 6.064300189927078e-01	 1.346952046674937e+01
 8.976984788943334e-01	 6.151289068041607e-01	 1.317297087208226e+01
 8.917101238651709e-01	 6.237781210747034e-01	 1.287798894269262e+01
 8.856332494952078e-01	 6.323763084981971e-01	 1.258502101950557e+01
 8.794684975880961e-01	 6.409221256341138e-01	 1.229453269525832e+01
 8.732165369051681e-01	 6.494142395826942e-01	 1.200700787852431e+01
 8.024185755524645e-01	 5.967615443605806e-01	 1.033145833802400e+01
 7.965930109800831e-01	 6.045158907765116e-01	 9.937744094097356e+00
 7.906885874742027e-01	 6.122184477348452e-01	 9.548228566808010e+00
 7.847059963145351e-01	 6.198680180939394e-01	 9.163380200584719e+00
 7.786459526990358e-01	 6.274634168227140e-01	 8.783670871494266e+00
 7.725091954758022e-01	 6.350034715981188e-01	 8.409574988967936e+00
 7.662964868572391e-01	 6.424870233956012e-01	 8.041568570237679e+00
 7.600086121167052e-01	 6.499129270719646e-01	 7.680128290387581e+00
 7.536463792678838e-01	 6.572800519400025e-01	 7.325730511133655e+00
 7.472106187271417e-01	 6.645872823343153e-01	 6.978850291678284e+00
 7.407021829591638e-01	 6.718335181677186e-01	 6.639960385158090e+00
 8.094986816201494e-01	 6.020270443683502e-01	 1.054043621895647e+01
 8.036217154269951e-01	 6.098498109292910e-01	 1.016019443530124e+01
 7.976651944919537e-01	 6.176203310709076e-01	 9.783487688578997e+00
 7.916298161942060e-01	 6.253373970885747e-01	 9.410799736361891e+00
 7.855163020422161e-01	 6.329998134950842e-01	 9.042618718238783e+00
 7.793253974032675e-01	 6.406063976233868e-01	 8.679436213527563e+00
 7.730578712151039e-01	 6.481559802222706e-01	 8.321746268709026e+00
 7.667145156799011e-01	 6.556474060443600e-01	 7.970044397613442e+00
 7.602961459408082e-01	 6.630795344258220e-01	 7.624826557629765e+00
 7.538035997413250e-01	 6.704512398571739e-01	 7.286588105429112e+00
 7.472377370678133e-01	 6.777614125446016e-01	 6.955822735919657e+00
 8.165786813693012e-01	 6.072924653109393e-01	 1.074129277946398e+01
 8.106503143273643e-01	 6.151836509892984e-01	 1.037379581497108e+01
 8.046416967455776e-01	 6.230221332934016e-01	 1.000921308333548e+01
 7.985535321025004e-01	 6.308066939558101e-01	 9.648043803894367e+00
 7.923865482170144e-01	 6.385361270333599e-01	 9.290792467614057e+00
 7.861414969754934e-01	 6.462092395151721e-01	 8.937967850092733e+00
 7.798191540409224e-01	 6.538248519235408e-01	 8.590081991270219e+00
 7.734203185441926e-01	 6.613817989070782e-01	 8.247649145004235e+00
 7.669458127578129e-01	 6.688789298254855e-01	 7.911184701935205e+00
 7.603964817523109e-01	 6.763151093253599e-01	 7.581204089300157e+00
 7.537731930356146e-01	 6.836892179064176e-01	 7.258221651591832e+00
 8.236585888416686e-01	 6.125578176306615e-01	 1.093362785470346e+01
 8.176788216209810e-01	 6.205174215345686e-01	 1.057819457375293e+01
 8.116181080715288e-01	 6.284238651151836e-01	 1.022509603120784e+01
 8.054771577711725e-01	 6.362759195424054e-01	 9.874847069463508e+00
 7.992567048491315e-01	 6.440723684172610e-01	 9.527968633467765e+00
 7.929575077107871e-01	 6.518120083851870e-01	 9.184986738305536e+00
 7.865803487442807e-01	 6.594936497421310e-01	 8.846431400433424e+00
 7.801260340091297e-01	 6.671161170328332e-01	 8.512835535868028e+00
 7.735953929071139e-01	 6.746782496406746e-01	 8.184733828898922e+00
 7.669892778356941e-01	 6.821789023684698e-01	 7.862661575160928e+00
 7.603085638242696e-01	 6.896169460096039e-01	 7.547153503147572e+00
 8.307384180790003e-01	 6.178231117698287e-01	 1.111703751384241e+01
 8.247072512476353e-01	 6.258511331431356e-01	 1.077303166279917e+01
 8.185944423062617e-01	 6.338255372491119e-01	 1.043082085162874e+01
 8.124007069319761e-01	 6.417450846951208e-01	 1.009093571916545e+01
 8.061267855642680e-01	 6.496085486265063e-01	 9.753913781116282e+00
 7.997734431274555e-01	 6.574147153451445e-01	 9.420298351492642e+00
 7.933414687347635e-01	 6.651623849207586e-01	 9.090637424599731e+00
 7.868316753742628e-01	 6.728503717943410e-01	 8.765482521025124e+00
 7.802448995769263e-01	 6.804775053730707e-01	 8.445387501353149e+00
 7.735820010670694e-01	 6.880426306160995e-01	 8.130907351619109e+00
 7.668438623954803e-01	 6.955446086105990e-01	 7.822596944774507e+00
 8.378181831230445e-01	 6.230883581707538e-01	 1.129111421282644e+01
 8.317356171471174e-01	 6.311847963930338e-01	 1.095794286933805e+01
 8.255707132862306e-01	 6.392271604080448e-01	 1.062606519882948e+01
 8.193241933166653e-01	 6.472142002607169e-01	 1.029602782148145e+01
 8.129968039881240e-01	 6.551446786408139e-01	 9.968384954148501e+00
 8.065893167438050e-01	 6.630173715067564e-01	 9.643697284888926e+00
 8.001025274219574e-01	 6.708310687021428e-01	 9.322530804913653e+00
 7.935372559391436e-01	 6.785845745643170e-01	 9.005455601529970e+00
 7.868943459554661e-01	 6.862767085243553e-01	 8.693044615973022e+00
 7.801746645220309e-01	 6.939063056978452e-01	 8.385872370318275e+00
 7.733791017109483e-01	 7.014722174658394e-01	 8.084513667943291e+00
 8.448978980155512e-01	 6.283535672757500e-01	 1.145544695842677e+01
 8.387639332592167e-01	 6.365184218622979e-01	 1.113255904992814e+01
 8.325469348478910e-01	 6.446287453048386e-01	 1.081050036155742e+01
 8.262476306569944e-01	 6.526832770859530e-01	 1.048983369072589e+01
 8.198667737464004e-01	 6.606807694399038e-01	 1.017113009889386e+01
 8.134051420781427e-01	 6.686199879817359e-01	 9.854967738435569e+00
 8.068635382154477e-01	 6.764997123290019e-01	 9.541930633723435e+00
 8.002427890033217e-01	 6.843187367154759e-01	 9.232607420152574e+00
 7.935437452309484e-01	 6.920758705962095e-01	 8.927590045165305e+00
 7.867672812761725e-01	 6.997699392433018e-01	 8.627472435651427e+00
 7.799142947323758e-01	 7.073997843317636e-01	 8.332849136398352e+00
 8.519775767982680e-01	 6.336187495271290e-01	 1.160962148290926e+01
 8.457922135237235e-01	 6.418520201289618e-01	 1.129650637095490e+01
 8.395231208276964e-01	 6.500303026523526e-01	 1.098379156677145e+01
 8.331710326847167e-01	 6.581523260175891e-01	 1.067205625132828e+01
 8.267367084647974e-01	 6.662168320034949e-01	 1.036188848669755e+01
 8.202209326487752e-01	 6.742225758817946e-01	 1.005388399447240e+01
 8.136245145248202e-01	 6.821683270440537e-01	 9.748644885138612e+00
 8.069482878663485e-01	 6.900528696205332e-01	 9.446778342274644e+00
 8.001931105915888e-01	 6.978750030903157e-01	 9.148895265803224e+00
 7.933598644050892e-01	 7.056335428820665e-01	 8.855608878864384e+00
 7.864494544214645e-01	 7.133273209648090e-01	 8.567533303190151e+00
 8.590572335129438e-01	 6.388839153672046e-01	 1.175322042871341e+01
 8.528204718804285e-01	 6.471856017710603e-01	 1.144940655594957e+01
 8.464992850621017e-01	 6.554318431634429e-01	 1.114559828708571e+01
 8.400944131315864e-01	 6.636213579023855e-01	 1.084239140290207e+01
 8.336066217690161e-01	 6.717528773113061e-01	 1.054039113412998e+01
 8.270367019740094e-01	 6.798251463186452e-01	 1.024021089062308e+01
 8.203854697596604e-01	 6.878369240900172e-01	 9.942470938148402e+00
 8.136537658277739e-01	 6.957869846522043e-01	 9.647797026819720e+00
 8.068424552256028e-01	 7.036741175083541e-01	 9.356818975574749e+00
 7.999524269843750e-01	 7.114971282437339e-01	 9.070169217455192e+00
 7.929845937399159e-01	 7.192548391214126e-01	 8.788481310790955e+00
 8.661368822013277e-01	 6.441490752382886e-01	 1.188582354256970e+01
 8.598487222691207e-01	 6.525191773666280e-01	 1.159087713934410e+01
 8.534754413875616e-01	 6.608333775509690e-01	 1.129557455175398e+01
 8.470177857293582e-01	 6.690903835871029e-01	 1.100052838606215e+01
 8.404765272847562e-01	 6.772889163430560e-01	 1.070636122125604e+01
 8.338524635721513e-01	 6.854277104040002e-01	 1.041370428815662e+01
 8.271464173295543e-01	 6.935055147096107e-01	 1.012319609273254e+01
 8.203592361871495e-01	 7.015210931832043e-01	 9.835480987796036e+00
 8.134917923212063e-01	 7.094732253520071e-01	 9.551207697661479e+00
 8.065449820896243e-01	 7.173607069579004e-01	 9.271027800723020e+00
 7.995197256494324e-01	 7.251823505580131e-01	 8.995594175274215e+00
 8.732165369051681e-01	 6.494142395826942e-01	 1.200700787852431e+01
 8.668769786295907e-01	 6.578527574936988e-01	 1.172053172630273e+01
 8.604516036405305e-01	 6.662349165277870e-01	 1.143336926099739e+01
 8.539411642097845e-01	 6.745594139185001e-01	 1.114615014895314e+01
 8.473464386377192e-01	 6.828249600784643e-01	 1.085951450808431e+01
 8.406682309615092e-01	 6.910302792495726e-01	 1.057411153609069e+01
 8.339073706440876e-01	 6.991741101455530e-01	 1.029059807937390e+01
 8.270647122440257e-01	 7.072552065862484e-01	 1.000963714699363e+01
 8.201411350666138e-01	 7.152723381229559e-01	 9.731896374422268e+00
 8.131375427964318e-01	 7.232242906541624e-01	 9.458046442262154e+00
 8.060548631117155e-01	 7.311098670310472e-01	 9.188759455473225e+00
 7.407021829591638e-01	 6.718335181677186e-01	 6.639960385158090e+00
 7.341230687229586e-01	 6.790164615925394e-01	 6.308079496611073e+00
 7.274730610723107e-01	 6.861362925476358e-01	 5.982132508491021e+00
 7.207530641401294e-01	 6.931919731627650e-01	 5.662611798542739e+00
 7.139640025157525e-01	 7.001824832538673e-01	 5.349998258977131e+00
 7.071068208180253e-01	 7.071068208180252e-01	 5.044760287847682e+00
 7.001824832538673e-01	 7.139640025157528e-01	 4.747352798439762e+00
 6.931919731627649e-01	 7.207530641401293e-01	 4.458216250991149e+00
 6.861362925476358e-01	 7.274730610723109e-01	 4.177775711064777e+00
 6.790164615925391e-01	 7.341230687229588e-01	 3.906439938893256e+00
 6.718335181677186e-01	 7.407021829591638e-01	 3.644600513973352e+00
 7.472377370678133e-01	 6.777614125446016e-01	 6.955822735919658e+00
 7.406005722975900e-01	 6.850077343654265e-01	 6.631501120052037e+00
 7.338918885878577e-01	 6.921903868461908e-01	 6.312502492256728e+00
 7.271125980490919e-01	 6.993083229590611e-01	 5.999341157183278e+00
 7.202636334286914e-01	 7.063605135184399e-01	 5.692521181709955e+00
 7.133459476802922e-01	 7.133459476802920e-01	 5.392535321940411e+00
 7.063605135184399e-01	 7.202636334286913e-01	 5.099863965987647e+00
 6.993083229590610e-01	 7.271125980490921e-01	 4.814974097119119e+00
 6.921903868461905e-01	 7.338918885878579e-01	 4.538318281856425e+00
 6.850077343654261e-01	 7.406005722975902e-01	 4.270333687619532e+00
 6.777614125446015e-01	 7.472377370678134e-01	 4.011441134489481e+00
 7.537731930356146e-01	 6.836892179064176e-01	 7.258221651591835e+00
 7.470779786030873e-01	 6.909989171712875e-01	 6.941167766881608e+00
 7.403106197153839e-01	 6.982443902341711e-01	 6.628881037814418e+00
 7.334720364604299e-01	 7.054245809097757e-01	 6.321893241993650e+00
 7.265631697435692e-01	 7.125384510110958e-01	 6.020726919618069e+00
 7.195849808531080e-01	 7.195849808531080e-01	 5.725894240966267e+00
 7.125384510110958e-01	 7.265631697435693e-01	 5.437895887726078e+00
 7.054245809097756e-01	 7.334720364604301e-01	 5.157219952992929e+00
 6.982443902341712e-01	 7.403106197153843e-01	 4.884340864796853e+00
 6.909989171712871e-01	 7.470779786030874e-01	 4.619718338028939e+00
 6.836892179064176e-01	 7.537731930356144e-01	 4.363796359613343e+00
 7.603085638242696e-01	 6.896169460096039e-01	 7.547153503147578e+00
 7.535553004860229e-01	 6.969900218922882e-01	 7.237105299370957e+00
 7.467292671850901e-01	 7.042983147183586e-01	 6.931317887998913e+00
 7.398313919867479e-01	 7.115407591451790e-01	 6.630336196294937e+00
 7.328626239541822e-01	 7.187163079844499e-01	 6.334696671948918e+00
 7.258239327102680e-01	 7.258239327102679e-01	 6.044926095761689e+00
 7.187163079844500e-01	 7.328626239541822e-01	 5.761540406496009e+00
 7.115407591451791e-01	 7.398313919867480e-01	 5.485043542979398e+00
 7.042983147183586e-01	 7.467292671850901e-01	 5.215926308578473e+00
 6.969900218922880e-01	 7.535553004860231e-01	 4.954665263188839e+00
 6.896169460096039e-01	 7.603085638242696e-01	 4.701721647870174e+00
 7.668438623954803e-01	 6.955446086105990e-01	 7.822596944774507e+00
 7.600325507929693e-01	 7.029810604105929e-01	 7.519320810580137e+00
 7.531478437271784e-01	 7.103521723055354e-01	 7.219843155933610e+00
 7.461906772406504e-01	 7.176568697955423e-01	 6.924717861234062e+00
 7.391620085543288e-01	 7.248940966911156e-01	 6.634490847356095e+00
 7.320628156255664e-01	 7.320628156255664e-01	 6.349698838083333e+00
 7.248940966911156e-01	 7.391620085543289e-01	 6.070868133294478e+00
 7.176568697955424e-01	 7.461906772406506e-01	 5.798513398243204e+00
 7.103521723055352e-01	 7.531478437271785e-01	 5.533136474313305e+00
 7.029810604105927e-01	 7.600325507929695e-01	 5.275225216670165e+00
 6.955446086105990e-01	 7.668438623954806e-01	 5.025252364205108e+00
 7.733791017109483e-01	 7.014722174658394e-01	 8.084513667943293e+00
 7.665097423704988e-01	 7.089720446083670e-01	 7.787803420443121e+00
 7.595663620718501e-01	 7.164059750024827e-01	 7.494468154399452e+00
 7.525499048347427e-01	 7.237729249911359e-01	 7.205066629889048e+00
 7.454613360378058e-01	 7.310718293837064e-01	 6.920149934381417e+00
 7.383016419727988e-01	 7.383016419727987e-01	 6.640260199311332e+00
 7.310718293837067e-01	 7.454613360378060e-01	 6.365929326246519e+00
 7.237729249911358e-01	 7.525499048347428e-01	 6.097677728242266e+00
 7.164059750024824e-01	 7.595663620718502e-01	 5.836013092032680e+00
 7.089720446083670e-01	 7.665097423704992e-01	 5.581429166745157e+00
 7.014722174658394e-01	 7.733791017109484e-01	 5.334404584813694e+00
 7.799142947323758e-01	 7.073997843317636e-01	 8.332849136398346e+00
 7.729868880651846e-01	 7.149629863677764e-01	 8.042525050555211e+00
 7.659848349493077e-01	 7.224597348159835e-01	 7.755186202108185e+00
 7.589090873816301e-01	 7.298889368622302e-01	 7.471392276895266e+00
 7.517606188984109e-01	 7.372495183148371e-01	 7.191695346483631e+00
 7.445404241257600e-01	 7.445404241257600e-01	 6.916638543116395e+00
 7.372495183148372e-01	 7.517606188984112e-01	 6.646754743341595e+00
 7.298889368622299e-01	 7.589090873816300e-01	 6.382565266169704e+00
 7.224597348159834e-01	 7.659848349493079e-01	 6.124578591671840e+00
 7.149629863677766e-01	 7.729868880651850e-01	 5.873289105973291e+00
 7.073997843317635e-01	 7.799142947323758e-01	 5.629175878598740e+00
 7.864494544214645e-01	 7.133273209648090e-01	 8.567533303190151e+00
 7.794640007235981e-01	 7.209538975709855e-01	 8.283441178907575e+00
 7.724032750897520e-01	 7.285134637528188e-01	 8.001973408231866e+00
 7.652682374939169e-01	 7.360049175390959e-01	 7.723686765025339e+00
 7.580598696299415e-01	 7.434271757371210e-01	 7.449130243098191e+00
 7.507791744582448e-01	 7.507791744582448e-01	 7.178843693608511e+00
 7.434271757371208e-01	 7.580598696299413e-01	 6.913356470469401e+00
 7.360049175390958e-01	 7.652682374939170e-01	 6.653186089862970e+00
 7.285134637528189e-01	 7.724032750897525e-01	 6.398836910037411e+00
 7.209538975709853e-01	 7.794640007235986e-01	 6.150798837611885e+00
 7.133273209648087e-01	 7.864494544214645e-01	 5.909546066622360e+00
 7.929845937399159e-01	 7.192548391214126e-01	 8.788481310790953e+00
 7.859410931923126e-01	 7.269447901001596e-01	 8.510491575738323e+00
 7.788216952233861e-01	 7.345671738197718e-01	 8.234789436451106e+00
 7.716273677842082e-01	 7.421208791520038e-01	 7.961925030060212e+00
 7.643591007261943e-01	 7.496048139031718e-01	 7.692440328121899e+00
 7.570179053440483e-01	 7.570179053440486e-01	 7.426867740396904e+00
 7.496048139031719e-01	 7.643591007261945e-01	 7.165728726190046e+00
 7.421208791520038e-01	 7.716273677842083e-01	 6.909532419603362e+00
 7.345671738197715e-01	 7.788216952233864e-01	 6.658774275146626e+00
 7.269447901001591e-01	 7.859410931923128e-01	 6.413934740198437e+00
 7.192548391214126e-01	 7.929845937399160e-01	 6.175477960828981e+00
 7.995197256494324e-01	 7.251823505580131e-01	 8.995594175274215e+00
 7.924181783178998e-01	 7.329356758374636e-01	 8.723601021586779e+00
 7.852401080804104e-01	 7.406208770236232e-01	 8.453578249706947e+00
 7.779864908651088e-01	 7.482368338312242e-01	 8.186065745208195e+00
 7.706583246809673e-01	 7.557824450656035e-01	 7.921594627125931e+00
 7.632566291569655e-01	 7.632566291569653e-01	 7.660685821888299e+00
 7.557824450656037e-01	 7.706583246809673e-01	 7.403848644578423e+00
 7.482368338312242e-01	 7.779864908651088e-01	 7.151579394142066e+00
 7.406208770236232e-01	 7.852401080804107e-01	 6.904359969246678e+00
 7.329356758374633e-01	 7.924181783179000e-01	 6.662656511559644e+00
 7.251823505580127e-01	 7.995197256494323e-01	 6.426918083232677e+00
 8.060548631117155e-01	 7.311098670310472e-01	 9.188759455473221e+00
 7.988952689469325e-01	 7.389265666650634e-01	 8.922680008578023e+00
 7.916585263910276e-01	 7.466745853711559e-01	 8.658268836761859e+00
 7.843456193492238e-01	 7.543527937070280e-01	 8.396052066240966e+00
 7.769575539880575e-01	 7.619600814770303e-01	 8.136546244516065e+00
 7.694953582707912e-01	 7.694953582707911e-01	 7.880256888073327e+00
 7.619600814770304e-01	 7.769575539880578e-01	 7.627677037401447e+00
 7.543527937070278e-01	 7.843456193492236e-01	 7.379285826197107e+00
 7.466745853711558e-01	 7.916585263910276e-01	 7.135547071732525e+00
 7.389265666650633e-01	 7.988952689469326e-01	 6.896907893426571e+00
 7.311098670310470e-01	 8.060548631117156e-01	 6.663797366687616e+00
 6.718335181677186e-01	 7.407021829591638e-01	 3.644600513973352e+00
 6.645872823343156e-01	 7.472106187271413e-01	 3.391196970823318e+00
 6.572800519400028e-01	 7.536463792678837e-01	 3.145161927973950e+00
 6.499129270719648e-01	 7.600086121167050e-01	 2.906716055033749e+00
 6.424870233956014e-01	 7.662964868572387e-01	 2.676058216935636e+00
 6.350034715981191e-01	 7.725091954758020e-01	 2.453365073999777e+00
 6.274634168227144e-01	 7.786459526990355e-01	 2.238790742879291e+00
 6.198680180939397e-01	 7.847059963145349e-01	 2.032466521355218e+00
 6.122184477348455e-01	 7.906885874742023e-01	 1.834500679702809e+00
 6.045158907765119e-01	 7.965930109800829e-01	 1.644978321111289e+00
 5.967615443605807e-01	 8.024185755524647e-01	 1.463961313342673e+00
 6.777614125446015e-01	 7.472377370678134e-01	 4.011441134489481e+00
 6.704512398571738e-01	 7.538035997413243e-01	 3.760556336313381e+00
 6.630795344258222e-01	 7.602961459408076e-01	 3.516572277154662e+00
 6.556474060443600e-01	 7.667145156799008e-01	 3.279715908826129e+00
 6.481559802222708e-01	 7.730578712151039e-01	 3.050190722214559e+00
 6.406063976233870e-01	 7.793253974032672e-01	 2.828176319098615e+00
 6.329998134950845e-01	 7.855163020422160e-01	 2.613828048452389e+00
 6.253373970885753e-01	 7.916298161942056e-01	 2.407276710380418e+00
 6.176203310709081e-01	 7.976651944919537e-01	 2.208628330608950e+00
 6.098498109292915e-01	 8.036217154269948e-01	 2.017964008167985e+00
 6.020270443683503e-01	 8.094986816201495e-01	 1.835339838633152e+00
 6.836892179064176e-01	 7.537731930356144e-01	 4.363796359613343e+00
 6.763151093253604e-01	 7.603964817523108e-01	 4.115439308130456e+00
 6.688789298254858e-01	 7.669458127578128e-01	 3.873480516439102e+00
 6.613817989070783e-01	 7.734203185441922e-01	 3.638158511408900e+00
 6.538248519235411e-01	 7.798191540409223e-01	 3.409687043862081e+00
 6.462092395151726e-01	 7.861414969754933e-01	 3.188254621320179e+00
 6.385361270333604e-01	 7.923865482170143e-01	 2.974024108411695e+00
 6.308066939558106e-01	 7.985535321025001e-01	 2.767132398319199e+00
 6.230221332934019e-01	 8.046416967455774e-01	 2.567690158395579e+00
 6.151836509892988e-01	 8.106503143273640e-01	 2.375781652798614e+00
 6.072924653109394e-01	 8.165786813693011e-01	 2.191464644691642e+00
 6.896169460096039e-01	 7.603085638242696e-01	 4.701721647870171e+00
 6.821789023684701e-01	 7.669892778356936e-01	 4.455887789276849e+00
 6.746782496406749e-01	 7.735953929071133e-01	 4.215923961451784e+00
 6.671161170328336e-01	 7.801260340091294e-01	 3.982085425603488e+00
 6.594936497421313e-01	 7.865803487442801e-01	 3.754601686454722e+00
 6.518120083851873e-01	 7.929575077107869e-01	 3.533675975129124e+00
 6.440723684172615e-01	 7.992567048491314e-01	 3.319484802465698e+00
 6.362759195424057e-01	 8.054771577711719e-01	 3.112177586399637e+00
 6.284238651151838e-01	 8.116181080715283e-01	 2.911876356777780e+00
 6.205174215345687e-01	 8.176788216209809e-01	 2.718675540694899e+00
 6.125578176306614e-01	 8.236585888416685e-01	 2.532641831114896e+00
 6.955446086105990e-01	 7.668438623954806e-01	 5.025252364205112e+00
 6.880426306160998e-01	 7.735820010670689e-01	 4.781924042052664e+00
 6.804775053730712e-01	 7.802448995769261e-01	 4.543920442458349e+00
 6.728503717943414e-01	 7.868316753742626e-01	 4.311518592043287e+00
 6.651623849207594e-01	 7.933414687347632e-01	 4.084969108960018e+00
 6.574147153451448e-01	 7.997734431274558e-01	 3.864495625165640e+00
 6.496085486265061e-01	 8.061267855642678e-01	 3.650294281492258e+00
 6.417450846951215e-01	 8.124007069319756e-01	 3.442533299431816e+00
 6.338255372491125e-01	 8.185944423062615e-01	 3.241352633280710e+00
 6.258511331431357e-01	 8.247072512476352e-01	 3.046863705989705e+00
 6.178231117698285e-01	 8.307384180790000e-01	 2.859149231737551e+00
 7.014722174658394e-01	 7.733791017109484e-01	 5.334404584813693e+00
 6.939063056978454e-01	 7.801746645220303e-01	 5.093551466242159e+00
 6.862767085243556e-01	 7.868943459554656e-01	 4.857469068165465e+00
 6.785845745643173e-01	 7.935372559391431e-01	 4.626461090647964e+00
 6.708310687021432e-01	 8.001025274219570e-01	 4.400804495741862e+00
 6.630173715067569e-01	 8.065893167438052e-01	 4.180748858430301e+00
 6.551446786408142e-01	 8.129968039881238e-01	 3.966515792333141e+00
 6.472142002607170e-01	 8.193241933166648e-01	 3.758298454412422e+00
 6.392271604080451e-01	 8.255707132862308e-01	 3.556261132622088e+00
 6.311847963930342e-01	 8.317356171471170e-01	 3.360538920142191e+00
 6.230883581707538e-01	 8.378181831230447e-01	 3.171237479491577e+00
 7.073997843317635e-01	 7.799142947323758e-01	 5.629175878598745e+00
 6.997699392433021e-01	 7.867672812761722e-01	 5.390755355019314e+00
 6.920758705962100e-01	 7.935437452309481e-01	 5.156550967697564e+00
 6.843187367154763e-01	 8.002427890033215e-01	 4.926897880108539e+00
 6.764997123290020e-01	 8.068635382154474e-01	 4.702104504806390e+00
 6.686199879817362e-01	 8.134051420781426e-01	 4.482451772336618e+00
 6.606807694399039e-01	 8.198667737464003e-01	 4.268192476494050e+00
 6.526832770859533e-01	 8.262476306569940e-01	 4.059550700497053e+00
 6.446287453048393e-01	 8.325469348478909e-01	 3.856721328362349e+00
 6.365184218622980e-01	 8.387639332592164e-01	 3.659869645435627e+00
 6.283535672757499e-01	 8.448978980155509e-01	 3.469131031692913e+00
 7.133273209648087e-01	 7.864494544214645e-01	 5.909546066622363e+00
 7.056335428820666e-01	 7.933598644050885e-01	 5.673503629874488e+00
 6.978750030903159e-01	 8.001931105915884e-01	 5.441130012024469e+00
 6.900528696205338e-01	 8.069482878663481e-01	 5.212796516673251e+00
 6.821683270440539e-01	 8.136245145248197e-01	 4.988847994612949e+00
 6.742225758817945e-01	 8.202209326487746e-01	 4.769602020033896e+00
 6.662168320034951e-01	 8.267367084647972e-01	 4.555348144267723e+00
 6.581523260175896e-01	 8.331710326847167e-01	 4.346347232009895e+00
 6.500303026523528e-01	 8.395231208276961e-01	 4.142830884670405e+00
 6.418520201289624e-01	 8.457922135237235e-01	 3.945000955159655e+00
 6.336187495271294e-01	 8.519775767982681e-01	 3.753029158067394e+00
 7.192548391214126e-01	 7.929845937399160e-01	 6.175477960828978e+00
 7.114971282437339e-01	 7.999524269843745e-01	 5.941747555776355e+00
 7.036741175083546e-01	 8.068424552256025e-01	 5.711153516031341e+00
 6.957869846522046e-01	 8.136537658277735e-01	 5.484107853424609e+00
 6.878369240900176e-01	 8.203854697596602e-01	 5.260996730694945e+00
 6.798251463186454e-01	 8.270367019740091e-01	 5.042179534321917e+00
 6.717528773113062e-01	 8.336066217690158e-01	 4.827988025707283e+00
 6.636213579023863e-01	 8.400944131315866e-01	 4.618725576047291e+00
 6.554318431634435e-01	 8.464992850621015e-01	 4.414666489935650e+00
 6.471856017710610e-01	 8.528204718804281e-01	 4.216055422395862e+00
 6.388839153672043e-01	 8.590572335129436e-01	 4.023106893667681e+00
 7.251823505580127e-01	 7.995197256494323e-01	 6.426918083232678e+00
 7.173607069579006e-01	 8.065449820896240e-01	 6.195422437710827e+00
 7.094732253520075e-01	 8.134917923212057e-01	 5.966552922345544e+00
 7.015210931832044e-01	 8.203592361871491e-01	 5.740766721179750e+00
 6.935055147096113e-01	 8.271464173295542e-01	 5.518496073249412e+00
 6.854277104040010e-01	 8.338524635721513e-01	 5.300147231381665e+00
 6.772889163430563e-01	 8.404765272847563e-01	 5.086099499776076e+00
 6.690903835871032e-01	 8.470177857293578e-01	 4.876704356138910e+00
 6.608333775509692e-01	 8.534754413875614e-01	 4.672284663842331e+00
 6.525191773666283e-01	 8.598487222691203e-01	 4.473133979214902e+00
 6.441490752382885e-01	 8.661368822013278e-01	 4.279515958699559e+00
 7.311098670310470e-01	 8.060548631117156e-01	 6.663797366687618e+00
 7.232242906541625e-01	 8.131375427964316e-01	 6.434448299658751e+00
 7.152723381229562e-01	 8.201411350666139e-01	 6.207244467962583e+00
 7.072552065862487e-01	 8.270647122440252e-01	 5.982692592055836e+00
 6.991741101455531e-01	 8.339073706440872e-01	 5.761275646783288e+00
 6.910302792495729e-01	 8.406682309615087e-01	 5.543451695481172e+00
 6.828249600784644e-01	 8.473464386377187e-01	 5.329652802920005e+00
 6.745594139185006e-01	 8.539411642097847e-01	 5.120284033328722e+00
 6.662349165277873e-01	 8.604516036405299e-01	 4.915722539418169e+00
 6.578527574936991e-01	 8.668769786295902e-01	 4.716316747967415e+00
 6.494142395826941e-01	 8.732165369051680e-01	 4.522385647139568e+00
 5.967615443605807e-01	 8.024185755524647e-01	 1.463961313342670e+00
 5.889579473229991e-01	 8.081636447008754e-01	 1.291566663166885e+00
 5.811050012015555e-01	 8.138285757179110e-01	 1.128229143133762e+00
 5.732039308284177e-01	 8.194127540634818e-01	 9.743979678363147e-01
 5.652559707219063e-01	 8.249155899695259e-01	 8.296080195908370e-01
 5.572623644660748e-01	 8.303365186157972e-01	 6.933520684447774e-01
 5.492243640870379e-01	 8.356750002871786e-01	 5.650890572597594e-01
 5.411432294266819e-01	 8.409305205124760e-01	 4.442457478790798e-01
 5.330202275143926e-01	 8.461025901846800e-01	 3.302184329428736e-01
 5.248566319374309e-01	 8.511907456626929e-01	 2.223747073972420e-01
 5.166537222105835e-01	 8.561945488545585e-01	 1.200552935887112e-01
 6.020270443683503e-01	 8.094986816201495e-01	 1.835339838633152e+00
 5.941545926253828e-01	 8.152944421414487e-01	 1.660784502041150e+00
 5.862323563693834e-01	 8.210093574360454e-01	 1.494144953001845e+00
 5.782615712397398e-01	 8.266428075414807e-01	 1.336135870129440e+00
 5.702434826474595e-01	 8.321941974858972e-01	 1.186742282272090e+00
 5.621793451492739e-01	 8.376629574653810e-01	 1.045490186450078e+00
 5.540704218184637e-01	 8.430485430026596e-01	 9.118729359007325e-01
 5.459179836130430e-01	 8.483504350871243e-01	 7.853528682830444e-01
 5.377233087419445e-01	 8.535681402961492e-01	 6.653629995284077e-01
 5.294876820298395e-01	 8.587011908977176e-01	 5.513087772720793e-01
 5.212123942812260e-01	 8.637491449343863e-01	 4.425698876663302e-01
 6.072924653109394e-01	 8.165786813693011e-01	 2.191464644691643e+00
 5.993511598966267e-01	 8.224251325021388e-01	 2.014719779441577e+00
 5.913596345465711e-01	 8.281900313235401e-01	 1.845317158521668e+00
 5.833191357072233e-01	 8.338727524487605e-01	 1.683314541219123e+00
 5.752309196821165e-01	 8.394726957022305e-01	 1.529461087394688e+00
 5.670962520004982e-01	 8.449892862964444e-01	 1.383423391044397e+00
 5.589164067826511e-01	 8.504219749920485e-01	 1.244720259106991e+00
 5.506926661025542e-01	 8.557702382390908e-01	 1.112840233861648e+00
 5.424263193485221e-01	 8.610335782993951e-01	 9.872432854490112e-01
 5.341186625824696e-01	 8.662115233500908e-01	 8.673625643230832e-01
 5.257709978984394e-01	 8.713036275683087e-01	 7.526062073041657e-01
 6.125578176306614e-01	 8.236585888416685e-01	 2.532641831114895e+00
 6.045476594424680e-01	 8.295557299252467e-01	 2.353738903791632e+00
 5.964868459014281e-01	 8.353706116218506e-01	 2.181726128672358e+00
 5.883766342609166e-01	 8.411026031245220e-01	 2.016414744684544e+00
 5.802182917168530e-01	 8.467510990540494e-01	 1.858273422553279e+00
 5.720130947708599e-01	 8.523155196394021e-01	 1.707678760103075e+00
 5.637623285900822e-01	 8.577953108792116e-01	 1.564166604411122e+00
 5.554672863643207e-01	 8.631899446842410e-01	 1.427242546841856e+00
 5.471292686611287e-01	 8.684989190008250e-01	 1.296383964031961e+00
 5.387495827795215e-01	 8.737217579152938e-01	 1.171041786305575e+00
 5.303295421029417e-01	 8.788580117394046e-01	 1.050642320323529e+00
 6.178231117698285e-01	 8.307384180790000e-01	 2.859149231737552e+00
 6.097441015686452e-01	 8.366862485530753e-01	 2.678178069964825e+00
 6.016140006022648e-01	 8.425511125724326e-01	 2.503711707074940e+00
 5.934340769308682e-01	 8.483323739079662e-01	 2.335573033781623e+00
 5.852056086426443e-01	 8.540294219768771e-01	 2.173655204022725e+00
 5.769298832114720e-01	 8.596416720246697e-01	 2.018750019713377e+00
 5.686081968512389e-01	 8.651685652880139e-01	 1.870714263588552e+00
 5.602418538674470e-01	 8.706095691384411e-01	 1.729061627834829e+00
 5.518321660067675e-01	 8.759641772068457e-01	 1.593277560628623e+00
 5.433804518051949e-01	 8.812319094888067e-01	 1.462821067302082e+00
 5.348880359354498e-01	 8.864123124307511e-01	 1.337126566796225e+00
 6.230883581707538e-01	 8.378181831230447e-01	 3.171237479491579e+00
 6.149404965808971e-01	 8.438167025279262e-01	 2.988344397293313e+00
 6.067411088173906e-01	 8.497315484167444e-01	 2.811627776537761e+00
 5.984914737471259e-01	 8.555620791382919e-01	 2.640915306015812e+00
 5.901928803504652e-01	 8.613076789062367e-01	 2.476006374680706e+00
 5.818466270734469e-01	 8.669677579826620e-01	 2.317098446286251e+00
 5.734540211766028e-01	 8.725417528423215e-01	 2.164833152469375e+00
 5.650163780810380e-01	 8.780291263175577e-01	 2.018767319421642e+00
 5.565350207124428e-01	 8.834293677238656e-01	 1.878385336385429e+00
 5.480112788436906e-01	 8.887419929661101e-01	 1.743144788445105e+00
 5.394464884366807e-01	 8.939665446254271e-01	 1.612478363845653e+00
 6.283535672757499e-01	 8.448978980155509e-01	 3.469131031692913e+00
 6.201368547849613e-01	 8.509471059921022e-01	 3.284517023959669e+00
 6.118681807151147e-01	 8.569119333962407e-01	 3.105798774731174e+00
 6.035488347397386e-01	 8.627917331547008e-01	 2.932802108889113e+00
 5.951801167312919e-01	 8.685858842776515e-01	 2.765323690447822e+00
 5.867633361078975e-01	 8.742937920437943e-01	 2.603153716665863e+00
 5.782998111766555e-01	 8.799148881659999e-01	 2.446961668491789e+00
 5.697908684741982e-01	 8.854486309374567e-01	 2.296798337925141e+00
 5.612378421051575e-01	 8.908945053582910e-01	 2.152138121340080e+00
 5.526420730792088e-01	 8.962520232426846e-01	 2.012427889776125e+00
 5.440049086473521e-01	 9.015207233065108e-01	 1.877088964050809e+00
 6.336187495271294e-01	 8.519775767982681e-01	 3.753029158067394e+00
 6.253331864865769e-01	 8.580774730879045e-01	 3.566948160309091e+00
 6.169952264637479e-01	 8.640922817523790e-01	 3.386520798605051e+00
 6.086061699387543e-01	 8.700213502963925e-01	 3.211564558135833e+00
 6.001673276760995e-01	 8.758640525266457e-01	 3.041866470052077e+00
 5.916800200659360e-01	 8.816197887384813e-01	 2.877183585312212e+00
 5.831455764618791e-01	 8.872879858829158e-01	 2.717507499016603e+00
 5.745653345160326e-01	 8.928680977140044e-01	 2.563563076369053e+00
 5.659406395119152e-01	 8.983596049165290e-01	 2.414937099777926e+00
 5.572728436959498e-01	 9.037620152140113e-01	 2.271056626071040e+00
 5.485633056081808e-01	 9.090748634570800e-01	 2.131322170135229e+00
 6.388839153672043e-01	 8.590572335129436e-01	 4.023106893667684e+00
 6.305295019914822e-01	 8.652078179576365e-01	 3.835864103461219e+00
 6.221222562315996e-01	 8.712726077266152e-01	 3.654062667210383e+00
 6.136634893742217e-01	 8.772509449025678e-01	 3.477505435540359e+00
 6.051545230758633e-01	 8.831421980887416e-01	 3.305963084831336e+00
 5.965966886986757e-01	 8.889457625971390e-01	 3.139174606130542e+00
 5.879913266427554e-01	 8.946610606169341e-01	 2.976848383230081e+00
 5.793397856756455e-01	 9.002875413630667e-01	 2.819440361425026e+00
 5.706434222597198e-01	 9.058246812049876e-01	 2.667154550587991e+00
 5.619035998781138e-01	 9.112719837755702e-01	 2.519389279270441e+00
 5.531216883598842e-01	 9.166289800602131e-01	 2.375515008448422e+00
 6.441490752382885e-01	 8.661368822013278e-01	 4.279515958699558e+00
 6.357258116054149e-01	 8.723381547435994e-01	 4.091466215442146e+00
 6.272492801869796e-01	 8.784529255604061e-01	 3.908666945311725e+00
 6.187208030761885e-01	 8.844805313124271e-01	 3.730900245461969e+00
 6.101417128215585e-01	 8.904203353994633e-01	 3.557913896407998e+00
 6.015133517572289e-01	 8.962717281501813e-01	 3.389421876502166e+00
 5.928370713297658e-01	 9.020341269919210e-01	 3.225104994937964e+00
 5.841142314221424e-01	 9.077069766005100e-01	 3.064780166963987e+00
 5.753461996755745e-01	 9.132897490300738e-01	 2.909134545176309e+00
 5.665343508099012e-01	 9.187819438228424e-01	 2.757756829984761e+00
 5.576800659431796e-01	 9.241830880989883e-01	 2.609978363584641e+00
 6.494142395826941e-01	 8.732165369051680e-01	 4.522385647139568e+00
 6.409221256341137e-01	 8.794684975880961e-01	 4.333931866914283e+00
 6.323763084981971e-01	 8.856332494952077e-01	 4.150550930023686e+00
 6.237781210747034e-01	 8.917101238651706e-01	 3.971998232421285e+00
 6.151289068041612e-01	 8.976984788943336e-01	 3.797992293519168e+00
 6.064300189927078e-01	 9.035976999280244e-01	 3.628215306473588e+00
 5.976828201333925e-01	 9.094071996317421e-01	 3.462313813670597e+00
 5.888886812246272e-01	 9.151264181422003e-01	 3.299899507819115e+00
 5.800489810864830e-01	 9.207548231981942e-01	 3.141193605331161e+00
 5.711651056755123e-01	 9.262919102513077e-01	 2.986463590379933e+00
 5.622384473987841e-01	 9.317372025564835e-01	 2.834997576325034e+00
 5.166537222105835e-01	 8.561945488545585e-01	 1.200552935887112e-01
 5.084127833066525e-01	 8.611135874899662e-01	 2.392295249441409e-02
 5.001351054989744e-01	 8.659474757928982e-01	-6.504377490855690e-02
 4.918219832314512e-01	 8.706958538913729e-01	-1.470628572381386e-01
 4.834747143274812e-01	 8.753583876192402e-01	-2.223691046108151e-01
 4.750945993647698e-01	 8.799347685068711e-01	-2.912129893689064e-01
 4.666829410531063e-01	 8.844247137540189e-01	-3.538594451551372e-01
 4.582410436156905e-01	 8.888279661850482e-01	-4.105866492802029e-01
 4.497702121745728e-01	 8.931442941867402e-01	-4.616847932838330e-01
 4.412717521407651e-01	 8.973734916289072e-01	-5.074548465103150e-01
 4.327469686095653e-01	 9.015153777680721e-01	-5.482073174299018e-01
 5.212123942812260e-01	 8.637491449343863e-01	 4.425698876663302e-01
 5.128987418067739e-01	 8.687115864981905e-01	 3.399098269572586e-01
 5.045480262644486e-01	 8.735881264092124e-01	 2.443596838498502e-01
 4.961615535195790e-01	 8.783784016201314e-01	 1.556682694152374e-01
 4.877406328468082e-01	 8.830820750162707e-01	 7.356666148068641e-02
 4.792865762993894e-01	 8.876988354062075e-01	-2.230521720976930e-03
 4.708006980814730e-01	 8.922283974943961e-01	-7.202382566947796e-02
 4.622843139239729e-01	 8.966705018359983e-01	-1.361276466921822e-01
 4.537387404645851e-01	 9.010249147741397e-01	-1.948689072970132e-01
 4.451652946325172e-01	 9.052914283598297e-01	-2.485857248102997e-01
 4.365652930384774e-01	 9.094698602547839e-01	-2.976260783161185e-01
 5.257709978984394e-01	 8.713036275683087e-01	 7.526062073041657e-01
 5.173846329448053e-01	 8.763094714084868e-01	 6.438046421881063e-01
 5.089608807640044e-01	 8.812286622868644e-01	 5.420189411495507e-01
 5.005010586426358e-01	 8.860608339808327e-01	 4.469709200652294e-01
 4.920064873064329e-01	 8.908056464272397e-01	 3.583639502172914e-01
 4.834784902840406e-01	 8.954627857129168e-01	 2.758843170253690e-01
 4.749183932738125e-01	 9.000319640470580e-01	 1.992026014499746e-01
 4.663275235142208e-01	 9.045129197156628e-01	 1.279750785503676e-01
 4.577072091584498e-01	 9.089054170182405e-01	 6.184512773161743e-02
 4.490587786537454e-01	 9.132092461870266e-01	 4.446493143985819e-04
 4.403835601260683e-01	 9.174242232889595e-01	-5.660451784390141e-02
 5.303295421029417e-01	 8.788580117394046e-01	 1.050642320323529e+00
 5.218704656173233e-01	 8.839072572900480e-01	 9.360565401829450e-01
 5.133736777494395e-01	 8.888690985796693e-01	 8.283600550213012e-01
 5.048405072070256e-01	 8.937431662104185e-01	 7.272536931289149e-01
 4.962722861667690e-01	 8.985291171707114e-01	 6.324193038578527e-01
 4.876703496325708e-01	 9.032266348256713e-01	 5.435211923770481e-01
 4.790360347968526e-01	 9.078354288892727e-01	 4.602075774217661e-01
 4.703706804055078e-01	 9.123552353783850e-01	 3.821120662484849e-01
 4.616756261270729e-01	 9.167858165489321e-01	 3.088551410670359e-01
 4.529522119266955e-01	 9.211269608144040e-01	 2.400456513282232e-01
 4.442017774454530e-01	 9.253784826469883e-01	 1.752823063414537e-01
 5.348880359354498e-01	 8.864123124307511e-01	 1.337126566796225e+00
 5.263562487209041e-01	 8.915049592120662e-01	 1.217086358645362e+00
 5.177864259725530e-01	 8.965094504414431e-01	 1.103782016244233e+00
 5.091799078191525e-01	 9.014254135458308e-01	 9.968991764717284e-01
 5.005380378882303e-01	 9.062525025652480e-01	 8.961041366353097e-01
 4.918621626588278e-01	 9.109903981431452e-01	 8.010453564402700e-01
 4.831536308173205e-01	 9.156388074983082e-01	 7.113549831471242e-01
 4.744137926169066e-01	 9.201974643785064e-01	 6.266503938726513e-01
 4.656439992413601e-01	 9.246661289961029e-01	 5.465357490572862e-01
 4.568456021736138e-01	 9.290445879458676e-01	 4.706035512223348e-01
 4.480199525697461e-01	 9.333326541052582e-01	 3.984362032660074e-01
 5.394464884366807e-01	 8.939665446254271e-01	 1.612478363845653e+00
 5.308419911521247e-01	 8.991025922437338e-01	 1.487287387720472e+00
 5.221991341851430e-01	 9.041497330260017e-01	 1.368657465150224e+00
 5.135192690854204e-01	 9.091075912240101e-01	 1.256264632130230e+00
 5.048037509312301e-01	 9.139758179294122e-01	 1.149765394966218e+00
 4.960539376766600e-01	 9.187540910640118e-01	 1.048798290882187e+00
 4.872711895019438e-01	 9.234421153514331e-01	 9.529854718897242e-01
 4.784568681674912e-01	 9.280396222703680e-01	 8.619343056250790e-01
 4.696123363722171e-01	 9.325463699896414e-01	 7.752389869358154e-01
 4.607389571167459e-01	 9.369621432853233e-01	 6.924821541069641e-01
 4.518380930720615e-01	 9.412867534401579e-01	 6.132365037455720e-01
 5.440049086473521e-01	 9.015207233065108e-01	 1.877088964050809e+00
 5.353277018075605e-01	 9.067001714542431e-01	 1.747026082902873e+00
 5.266118111390080e-01	 9.117899614871613e-01	 1.623333366766720e+00
 5.178585996122335e-01	 9.167897144818986e-01	 1.505682641150678e+00
 5.090694337561820e-01	 9.216990785817660e-01	 1.393726179163470e+00
 5.002456829999148e-01	 9.265177289869448e-01	 1.287098312419586e+00
 4.913887190174501e-01	 9.312453679259152e-01	 1.185417065158606e+00
 4.824999150763343e-01	 9.358817246083114e-01	 1.088285805042290e+00
 4.735806453905497e-01	 9.404265551594374e-01	 9.952949041845103e-01
 4.646322844783382e-01	 9.448796425366773e-01	 9.060234040744497e-01
 4.556562065255141e-01	 9.492407964280762e-01	 8.200406781987686e-01
 5.485633056081808e-01	 9.090748634570800e-01	 2.131322170135229e+00
 5.398133895837890e-01	 9.142977119127865e-01	 1.996642736657013e+00
 5.310244655859467e-01	 9.194301509787366e-01	 1.868131646712976e+00
 5.221979080059957e-01	 9.244717985564375e-01	 1.745461710847783e+00
 5.133350948234998e-01	 9.294222998408733e-01	 1.628286328881720e+00
 5.044374069424405e-01	 9.342813273106180e-01	 1.516241143006784e+00
 4.955062275305668e-01	 9.390485806990229e-01	 1.408945713922527e+00
 4.865429413625088e-01	 9.437237869466782e-01	 1.306005213251494e+00
 4.775489341672636e-01	 9.483067001353793e-01	 1.207012125564744e+00
 4.685255919806359e-01	 9.527971014038344e-01	 1.111547953464583e+00
 4.594743005032186e-01	 9.571947988454016e-01	 1.019184919320100e+00
 5.531216883598842e-01	 9.166289800602131e-01	 2.375515008448422e+00
 5.442990633773858e-01	 9.218952286885570e-01	 2.236452111114885e+00
 5.354371062777575e-01	 9.270703166545445e-01	 2.103349790098277e+00
 5.265372028731111e-01	 9.321538586845679e-01	 1.975886846637238e+00
 5.176007425935969e-01	 9.371454970252960e-01	 1.853722974371069e+00
 5.086291178180846e-01	 9.420449014337039e-01	 1.736500446741901e+00
 4.996237232080215e-01	 9.468517691480246e-01	 1.623845827145482e+00
 4.905859550450887e-01	 9.515658248398107e-01	 1.515371694848350e+00
 4.815172105732649e-01	 9.561868205473558e-01	 1.410678379790738e+00
 4.724188873458858e-01	 9.607145355907017e-01	 1.309355699516036e+00
 4.632923825782890e-01	 9.651487764685223e-01	 1.210984691626070e+00
 5.576800659431796e-01	 9.241830880989883e-01	 2.609978363584641e+00
 5.487847320849274e-01	 9.294927368507458e-01	 2.466744034064872e+00
 5.398497419662388e-01	 9.347104736684007e-01	 2.329261405521216e+00
 5.308764928199836e-01	 9.398359101032322e-01	 2.197220090454599e+00
 5.218663855268874e-01	 9.448686854535971e-01	 2.070291055481554e+00
 5.128208239406953e-01	 9.498084667548771e-01	 1.948128335384823e+00
 5.037412142165415e-01	 9.546549487501877e-01	 1.830370769498473e+00
 4.946289641431469e-01	 9.594078538420494e-01	 1.716643753236782e+00
 4.854854824794593e-01	 9.640669320252562e-01	 1.606560997678598e+00
 4.763121782963332e-01	 9.686319608011845e-01	 1.499726290258450e+00
 4.671104603238401e-01	 9.731027450738271e-01	 1.395735249764410e+00
 5.622384473987841e-01	 9.317372025564835e-01	 2.834997576325034e+00
 5.532704046029903e-01	 9.370902514685463e-01	 2.687783960299107e+00
 5.442623814031892e-01	 9.423506371741205e-01	 2.546116756139701e+00
 5.352157864530174e-01	 9.475179680493709e-01	 2.409701027641092e+00
 5.261320320837845e-01	 9.525918804443393e-01	 2.278223810234897e+00
 5.170125336241201e-01	 9.575720386728107e-01	 2.151355844252070e+00
 5.078587087228544e-01	 9.624581349827813e-01	 2.028753329983351e+00
 4.986719766757564e-01	 9.672498895077365e-01	 1.910059697149491e+00
 4.894537577567521e-01	 9.719470501989690e-01	 1.794907381496856e+00
 4.802054725542244e-01	 9.765493927391885e-01	 1.682919601378498e+00
 4.709285413129862e-01	 9.810567204377044e-01	 1.573712127344246e+00
 4.327469686095653e-01	 9.015153777680721e-01	-5.482073174298999e-01
 4.241957100808111e-01	 9.055704788776667e-01	-5.835809098485308e-01
 4.156207266274777e-01	 9.095379524497916e-01	-6.132150592965306e-01
 4.070233190699297e-01	 9.134176924764242e-01	-6.374488859372865e-01
 3.984047855712466e-01	 9.172096178030530e-01	-6.566226832722606e-01
 3.897664210659204e-01	 9.209136719525728e-01	-6.710768329383505e-01
 3.811095166967166e-01	 9.245298229341032e-01	-6.811507458817223e-01
 3.724353592601342e-01	 9.280580630371011e-01	-6.871818332801543e-01
 3.637452306608896e-01	 9.314984086111489e-01	-6.895045103506898e-01
 3.550404073758262e-01	 9.348508998318095e-01	-6.884492359838155e-01
 3.463221599276364e-01	 9.381156004529614e-01	-6.843415908917347e-01
 4.365652930384774e-01	 9.094698602547839e-01	-2.976260783161204e-01
 4.279385828455186e-01	 9.135607413759669e-01	-3.416077364201272e-01
 4.192879383917877e-01	 9.175632217816508e-01	-3.801127097464698e-01
 4.106146719754153e-01	 9.214771945284639e-01	-4.134676811002773e-01
 4.019200932138001e-01	 9.253025777458400e-01	-4.420009150347843e-01
 3.932055084672654e-01	 9.290393144583587e-01	-4.660411494812235e-01
 3.844722202709527e-01	 9.326873723928797e-01	-4.859165142174866e-01
 3.757215267753868e-01	 9.362467437708336e-01	-5.019534796469949e-01
 3.669547211961480e-01	 9.397174450860710e-01	-5.144758391661173e-01
 3.581730912730496e-01	 9.430995168686511e-01	-5.238037281542958e-01
 3.493779187392193e-01	 9.463930234349912e-01	-5.302526823756961e-01
 4.403835601260683e-01	 9.174242232889595e-01	-5.660451784390097e-02
 4.316813994017186e-01	 9.215508838844714e-01	-1.088929360560467e-01
 4.229550950836435e-01	 9.255883705981116e-01	-1.559442102888384e-01
 4.142059709475561e-01	 9.295365755511696e-01	-1.980728854697202e-01
 4.054353480649912e-01	 9.333954161570298e-01	-2.355953458106497e-01
 3.966445442219227e-01	 9.371648349419602e-01	-2.688286841082907e-01
 3.878348733456837e-01	 9.408447993505553e-01	-2.980895985489493e-01
 3.790076449406457e-01	 9.444353015362192e-01	-3.236933206328347e-01
 3.701641635330711e-01	 9.479363581370627e-01	-3.459525776033523e-01
 3.613057281255647e-01	 9.513480100376308e-01	-3.651765925135539e-01
 3.524336316615091e-01	 9.546703221168643e-01	-3.816701248308507e-01
 4.442017774454530e-01	 9.253784826469883e-01	 1.752823063414501e-01
 4.354241671729185e-01	 9.295409222505252e-01	 1.150078012988616e-01
 4.266222039765180e-01	 9.336134148159371e-01	 5.975782672938434e-02
 4.177972231093883e-01	 9.375958515291819e-01	 9.229639362091202e-03
 4.089505570970417e-01	 9.414881490875989e-01	-3.688145232670492e-02
 4.000835351509423e-01	 9.452902495191456e-01	-7.888093580848499e-02
 3.911974825904601e-01	 9.490021199861547e-01	-1.170739706060684e-01
 3.822937202736527e-01	 9.526237525739951e-01	-1.517642965475816e-01
 3.733735640373093e-01	 9.561551640650339e-01	-1.832531776599582e-01
 3.644383241466703e-01	 9.595963956982930e-01	-2.118383849497434e-01
 3.554893047552183e-01	 9.629475129152257e-01	-2.378132210488042e-01
 4.480199525697461e-01	 9.333326541052582e-01	 3.984362032660074e-01
 4.391668935826256e-01	 9.375308723214744e-01	 3.305154954430243e-01
 4.302892723438853e-01	 9.416383703518919e-01	 2.674372144117523e-01
 4.213884355839490e-01	 9.456550384471414e-01	 2.089100455724409e-01
 4.124657272821722e-01	 9.495807925885241e-01	 1.546407634734248e-01
 4.035224880753754e-01	 9.534155743056876e-01	 1.043354050888283e-01
 3.945600546748304e-01	 9.571593504787007e-01	 5.770041355256961e-02
 3.855797592921488e-01	 9.608121131248982e-01	 1.444374849031105e-02
 3.765829290745132e-01	 9.643738791708957e-01	-2.572404065672984e-02
 3.675708855496659e-01	 9.678446902101842e-01	-6.308878165452514e-02
 3.585449440810582e-01	 9.712246122467207e-01	-9.793168992463919e-02
 4.518380930720615e-01	 9.412867534401579e-01	 6.132365037455711e-01
 4.429095860543477e-01	 9.455207499446651e-01	 5.380285510083791e-01
 4.339563074592180e-01	 9.496632531227386e-01	 4.675148917204983e-01
 4.249796154942742e-01	 9.537141522896891e-01	 4.014152301591585e-01
 4.159808655926037e-01	 9.576733627107813e-01	 3.394475414114786e-01
 4.069614098162730e-01	 9.615408254173561e-01	 2.813292650893893e-01
 3.979225962683451e-01	 9.653165070072187e-01	 2.267784681369360e-01
 3.888657685138760e-01	 9.690003994296651e-01	 1.755149727522416e-01
 3.797922650103325e-01	 9.725925197555580e-01	 1.272614457150216e-01
 3.707034185478507e-01	 9.760929099328496e-01	 8.174444567394801e-02
 3.616005556997414e-01	 9.795016365279939e-01	 3.869542524212699e-02
 4.556562065255141e-01	 9.492407964280762e-01	 8.200406781987686e-01
 4.466522520115913e-01	 9.535105709674431e-01	 7.379233943948964e-01
 4.376233165959894e-01	 9.576880790452408e-01	 6.603895846084882e-01
 4.285707699634009e-01	 9.617732090414655e-01	 5.871695253188545e-01
 4.194959790005576e-01	 9.657658755053471e-01	 5.179920877239552e-01
 4.104003071946858e-01	 9.696660189699224e-01	 4.525859514510062e-01
 4.012851140405538e-01	 9.734736057507321e-01	 3.906807857663470e-01
 3.921517544565761e-01	 9.771886277290334e-01	 3.320083941929100e-01
 3.830015782104179e-01	 9.808111021199305e-01	 2.763038187129099e-01
 3.738359293545235e-01	 9.843410712258351e-01	 2.233064000226999e-01
 3.646561456719793e-01	 9.877786021756902e-01	 1.727607905962030e-01
 4.594743005032186e-01	 9.571947988454016e-01	 1.019184919320096e+00
 4.503948988778645e-01	 9.615003512371543e-01	 9.305550747620508e-01
 4.412903070276735e-01	 9.657128640361626e-01	 8.464384301482211e-01
 4.321619061143654e-01	 9.698322246871109e-01	 7.665753505138528e-01
 4.230110744782546e-01	 9.738583470231991e-01	 6.907052598389727e-01
 4.138391870316644e-01	 9.777911710791585e-01	 6.185678744095358e-01
 4.046476146610062e-01	 9.816306628882663e-01	 5.499044018579460e-01
 3.954377236379908e-01	 9.853768142637400e-01	 4.844587016712021e-01
 3.862108750404194e-01	 9.890296425649238e-01	 4.219784032398439e-01
 3.769684241829837e-01	 9.925891904486867e-01	 3.622159778224332e-01
 3.677117200584841e-01	 9.960555256064554e-01	 3.049297611011554e-01
 4.632923825782890e-01	 9.651487764685223e-01	 1.210984691626072e+00
 4.541375340766741e-01	 9.694901066011445e-01	 1.116257831139682e+00
 4.449572860277429e-01	 9.737376240122678e-01	 1.026017565788368e+00
 4.357530310702041e-01	 9.778912152112670e-01	 9.400138284315229e-01
 4.265261589979158e-01	 9.819507933153125e-01	 8.579962135716295e-01
 4.172780561482598e-01	 9.859162978608338e-01	 7.797152301187902e-01
 4.080101047992523e-01	 9.897876945988444e-01	 7.049235177831235e-01
 3.987236825758614e-01	 9.935649752745210e-01	 6.333770227655591e-01
 3.894201618659873e-01	 9.972481573914486e-01	 5.648361287163355e-01
 3.801009092465304e-01	 1.000837283960949e+00	 4.990667392451882e-01
 3.707672849199675e-01	 1.004332423236934e+00	 4.358413085810438e-01
 4.671104603238401e-01	 9.731027450738271e-01	 1.395735249764416e+00
 4.578801650315275e-01	 9.774798529067594e-01	 1.295345627590238e+00
 4.486242608696714e-01	 9.817623748903196e-01	 1.199462685723816e+00
 4.393441519539537e-01	 9.859501965985737e-01	 1.107845366895747e+00
 4.300412395317624e-01	 9.900432304326646e-01	 1.020253014886483e+00
 4.207169213655230e-01	 9.940414154307203e-01	 9.364466465445533e-01
 4.113725911248414e-01	 9.979447170614913e-01	 8.561901851466289e-01
 4.020096377879298e-01	 1.001753127002114e+00	 7.792516506577223e-01
 3.926294450527720e-01	 1.005466662900415e+00	 7.054043027559227e-01
 3.832333907584631e-01	 1.009085368122169e+00	 6.344277328153463e-01
 3.738228463171416e-01	 1.012609311483770e+00	 5.661089013727900e-01
 4.709285413129862e-01	 9.810567204377044e-01	 1.573712127344246e+00
 4.616227991659323e-01	 9.854696060013456e-01	 1.468112658223732e+00
 4.522912388269320e-01	 9.897871325870814e-01	 1.367089566236105e+00
 4.429352758886508e-01	 9.940091848336716e-01	 1.270410208653006e+00
 4.335563230520154e-01	 9.981356744262322e-01	 1.177843218228011e+00
 4.241557895045047e-01	 1.002166539904589e+00	 1.089159794410833e+00
 4.147350803073237e-01	 1.006101746455231e+00	 1.004134953391732e+00
 4.052955957919376e-01	 1.009941285687257e+00	 9.225487324087092e-01
 3.958387309664236e-01	 1.013685175392733e+00	 8.441873440891592e-01
 3.863658749320805e-01	 1.017333459291891e+00	 7.688442769241228e-01
 3.768784103107179e-01	 1.020886206763610e+00	 6.963213383331381e-01
 3.463221599276364e-01	 9.381156004529614e-01	-6.843415908917347e-01
 3.375932372698592e-01	 9.412920648570996e-01	-6.770564091558411e-01
 3.288534146753911e-01	 9.443809649697815e-01	-6.664856862734601e-01
 3.201039407344279e-01	 9.473824329586862e-01	-6.529781322178025e-01
 3.113460561054977e-01	 9.502966234386565e-01	-6.368801262487591e-01
 3.025809930437933e-01	 9.531237131637239e-01	-6.185349051852871e-01
 2.938099749412085e-01	 9.558639007082442e-01	-5.982817954576318e-01
 2.850342158783328e-01	 9.585174061376137e-01	-5.764554902229295e-01
 2.762549201886382e-01	 9.610844706690251e-01	-5.533853725902156e-01
 2.674732820350750e-01	 9.635653563227456e-01	-5.293948857758064e-01
 2.586904849992691e-01	 9.659603455643853e-01	-5.048009507748206e-01
 3.493779187392193e-01	 9.463930234349912e-01	-5.302526823756952e-01
 3.405719768035007e-01	 9.495975152357088e-01	-5.337333519201413e-01
 3.317550387559495e-01	 9.527136701250852e-01	-5.341366242394261e-01
 3.229283642036728e-01	 9.557416214369937e-01	-5.317391696285587e-01
 3.140932047521242e-01	 9.586815251505340e-01	-5.268135680791413e-01
 3.052508035292757e-01	 9.615335595793360e-01	-5.196276003468370e-01
 2.964023947215954e-01	 9.642979250498879e-01	-5.104435846084714e-01
 2.875492031220883e-01	 9.669748435693404e-01	-4.995177598211473e-01
 2.786924436906389e-01	 9.695645584832749e-01	-4.870997166784896e-01
 2.698333211268703e-01	 9.720673341238998e-01	-4.734318768048480e-01
 2.609730294557168e-01	 9.744834554491671e-01	-4.587490206105711e-01
 3.524336316615091e-01	 9.546703221168643e-01	-3.816701248308485e-01
 3.435506716046804e-01	 9.579028408935608e-01	-3.953504429312096e-01
 3.346566192623192e-01	 9.610462501506360e-01	-4.060876486643452e-01
 3.257527452582740e-01	 9.641006843881436e-01	-4.141002457918401e-01
 3.168403121447577e-01	 9.670663009494199e-01	-4.196010871103546e-01
 3.079205739223558e-01	 9.699432797076759e-01	-4.227967466576175e-01
 2.989947755719446e-01	 9.727318227415055e-01	-4.238869394929581e-01
 2.900641525987814e-01	 9.754321539997876e-01	-4.230639900559279e-01
 2.811299305890010e-01	 9.780445189564622e-01	-4.205123498440742e-01
 2.721933247787379e-01	 9.805691842556483e-01	-4.164081649283582e-01
 2.632555396360758e-01	 9.830064373476023e-01	-4.109188935687329e-01
 3.554893047552183e-01	 9.629475129152257e-01	-2.378132210488042e-01
 3.465293275813366e-01	 9.662080583028563e-01	-2.610788052838187e-01
 3.375581619494726e-01	 9.693787215726594e-01	-2.814709235202417e-01
 3.285770895000711e-01	 9.724596383908545e-01	-2.991634370813645e-01
 3.195873837319583e-01	 9.754509674650006e-01	-3.143231904482526e-01
 3.105903095181876e-01	 9.783528902278685e-01	-3.271094432227621e-01
 3.015871226339016e-01	 9.811656105101376e-01	-3.376733518518056e-01
 2.925790692964674e-01	 9.838893542023929e-01	-3.461575020153296e-01
 2.835673857181281e-01	 9.865243689069053e-01	-3.526954923196488e-01
 2.745532976713903e-01	 9.890709235796759e-01	-3.574115696951750e-01
 2.655380200673480e-01	 9.915293081632356e-01	-3.604203166471289e-01
 3.585449440810582e-01	 9.712246122467207e-01	-9.793168992463919e-02
 3.495079506414066e-01	 9.745131839357960e-01	-1.301211806492306e-01
 3.404596725723826e-01	 9.777111009173797e-01	-1.594511317470744e-01
 3.314014025309034e-01	 9.808185000238452e-01	-1.860639498753702e-01
 3.223344249622846e-01	 9.838355413269591e-01	-2.100938496999327e-01
 3.132600156119253e-01	 9.867624078190367e-01	-2.316663245145039e-01
 3.041794410491121e-01	 9.895993050828240e-01	-2.508976689985567e-01
 2.950939582032009e-01	 9.923464609505922e-01	-2.678945549508223e-01
 2.860048139124236e-01	 9.950041251529208e-01	-2.827536605625176e-01
 2.769132444855399e-01	 9.975725689576678e-01	-2.955613535439277e-01
 2.678204752765360e-01	 1.000052084799612e+00	-3.063934281606571e-01
 3.616005556997414e-01	 9.795016365279939e-01	 3.869542524212699e-02
 3.524865466928280e-01	 9.828182342645816e-01	-1.710774880109067e-03
 3.433611568860222e-01	 9.860434047110223e-01	-3.922427120246974e-02
 3.342256899526104e-01	 9.891772858658342e-01	-7.396887936306085e-02
 3.250814412842961e-01	 9.922200391649798e-01	-1.060592346250360e-01
 3.159296974987232e-01	 9.951718491603040e-01	-1.356002803134606e-01
 3.067717359592219e-01	 9.980329231866057e-01	-1.626868109653223e-01
 2.976088243070373e-01	 1.000803491017823e+00	-1.874030709886427e-01
 2.884422200062915e-01	 1.003483804512826e+00	-2.098224093517529e-01
 2.792731699018992e-01	 1.006074137251309e+00	-2.300069905537248e-01
 2.701029097906421e-01	 1.008574784160278e+00	-2.480075618657356e-01
 3.646561456719793e-01	 9.877786021756902e-01	 1.727607905962030e-01
 3.554651216435386e-01	 9.911232257614135e-01	 1.248898355092520e-01
 3.462626206453643e-01	 9.943756494798131e-01	 7.998348614487272e-02
 3.370499573670317e-01	 9.975360124955408e-01	 3.792396666116682e-02
 3.278284381465522e-01	 1.000604477608747e+00	-1.396512911245207e-03
 3.185993604737355e-01	 1.003581230930795e+00	-3.807524234076798e-02
 3.093640125058764e-01	 1.006466481548522e+00	-7.219855434910505e-02
 3.001236725960315e-01	 1.009260461177522e+00	-1.038414260381422e-01
 2.908796088341351e-01	 1.011963423804938e+00	-1.330671390858402e-01
 2.816330786011804e-01	 1.014575645322285e+00	-1.599269989361773e-01
 2.723853281366685e-01	 1.017097423148778e+00	-1.844601129268995e-01
 3.677117200584841e-01	 9.960555256064554e-01	 3.049297611011559e-01
 3.584436814014762e-01	 9.994281748984939e-01	 2.503897395393260e-01
 3.491640696053815e-01	 1.002707851749976e+00	 1.989168754650414e-01
 3.398742103760065e-01	 1.005894696491684e+00	 1.503871828089536e-01
 3.305754209976122e-01	 1.008988873287944e+00	 1.046872877836984e-01
 3.212690098321165e-01	 1.011990569809632e+00	 6.171496631635121e-02
 3.119562758307214e-01	 1.014899996895614e+00	 2.137962102980628e-02
 3.026385080582383e-01	 1.017717388203125e+00	-1.639730303674014e-02
 2.933169852303582e-01	 1.020442999847574e+00	-5.168196447598872e-02
 2.839929752640960e-01	 1.023077110032282e+00	-8.452783354567783e-02
 2.746677348416175e-01	 1.025620018668658e+00	-1.149754621140646e-01
 3.707672849199675e-01	 1.004332423236934e+00	 4.358413085810433e-01
 3.614222318745780e-01	 1.007733098148022e+00	 3.754706739456686e-01
 3.520655095210469e-01	 1.011040028047737e+00	 3.182925642014247e-01
 3.426984545813742e-01	 1.014253354432981e+00	 2.641648234515883e-01
 3.333223952860354e-01	 1.017373242832256e+00	 2.129563591228916e-01
 3.239386508690201e-01	 1.020399882475939e+00	 1.645477226092864e-01
 3.145485310754026e-01	 1.023333485954921e+00	 1.188316262911182e-01
 3.051533356817132e-01	 1.026174288868070e+00	 7.571339607614735e-02
 2.957543540293642e-01	 1.028922549459051e+00	 3.511135891597394e-02
 2.863528645713586e-01	 1.031578548242984e+00	-3.042834935869987e-03
 2.769501344324914e-01	 1.034142587623462e+00	-3.880395486128130e-02
 3.738228463171416e-01	 1.012609311483770e+00	 5.661089013727900e-01
 3.644007789707822e-01	 1.016038011982201e+00	 5.007879544414275e-01
 3.549669461473333e-01	 1.019372194899320e+00	 4.388001243068413e-01
 3.455226955849744e-01	 1.022612002898152e+00	 3.799734057188484e-01
 3.360693664603810e-01	 1.025757602871367e+00	 3.241471360778445e-01
 3.266082888796006e-01	 1.028809185608841e+00	 2.711726391648082e-01
 3.171407833815654e-01	 1.031766965453483e+00	 2.209138018755072e-01
 3.076681604545108e-01	 1.034631179945793e+00	 1.732475830252045e-01
 2.981917200655569e-01	 1.037402089457687e+00	 1.280644536152322e-01
 2.887127512036804e-01	 1.040079976816076e+00	 8.526876828240315e-02
 2.792325314362926e-01	 1.042665146916737e+00	 4.477906796198017e-02
 3.768784103107179e-01	 1.020886206763610e+00	 6.963213383331381e-01
 3.673793285980262e-01	 1.024342932873229e+00	 6.269713589511308e-01
 3.578683852392132e-01	 1.027704368830951e+00	 5.611029545835184e-01
 3.483469389886465e-01	 1.030970658465916e+00	 4.985028612361355e-01
 3.388163399692086e-01	 1.034141970034960e+00	 4.389692687576598e-01
 3.292779291590125e-01	 1.037218495887461e+00	 3.823125473181932e-01
 3.197330378908556e-01	 1.040200452118341e+00	 3.283559033136116e-01
 3.101829873646866e-01	 1.043088078209732e+00	 2.769359636552147e-01
 3.006290881733399e-01	 1.045881636661798e+00	 2.279032877495593e-01
 2.910726398417740e-01	 1.048581412613244e+00	 1.811228068140172e-01
 2.815149303800232e-01	 1.051187713452026e+00	 1.364741905080762e-01
 2.586904849992691e-01	 9.659603455643853e-01	-5.048009507748206e-01
 2.499077018034105e-01	 9.682697411484725e-01	-4.798874229369425e-01
 2.411260942737208e-01	 9.704938663716978e-01	-4.548092583675065e-01
 2.323468125892457e-01	 9.726330640575948e-01	-4.296781317659653e-01
 2.235709948004865e-01	 9.746876959562027e-01	-4.045967124280332e-01
 2.147997664840682e-01	 9.766581423474187e-01	-3.796585770701331e-01
 2.060342404108247e-01	 9.785448016382445e-01	-3.549481647580617e-01
 1.972755162273643e-01	 9.803480899544124e-01	-3.305407728596039e-01
 1.885246801511632e-01	 9.820684407268568e-01	-3.065025928205918e-01
 1.797828046792145e-01	 9.837063042735065e-01	-2.828907844123281e-01
 1.710509483102450e-01	 9.852621473768629e-01	-2.597535869898255e-01
 2.609730294557168e-01	 9.744834554491671e-01	-4.587490206105711e-01
 2.521127517468493e-01	 9.768132278849668e-01	-4.432411485546730e-01
 2.432536600777888e-01	 9.790569775806152e-01	-4.270410229777184e-01
 2.343969147761029e-01	 9.812150503845687e-01	-4.102845282255347e-01
 2.255436639337993e-01	 9.832878112387866e-01	-3.930980249942015e-01
 2.166950430589468e-01	 9.852756437785815e-01	-3.755982324559155e-01
 2.078521747408320e-01	 9.871789499263158e-01	-3.578921553525980e-01
 1.990161683287154e-01	 9.889981494794224e-01	-3.400770549629861e-01
 1.901881196242343e-01	 9.907336796932259e-01	-3.222404626739870e-01
 1.813691105874812e-01	 9.923859948590483e-01	-3.044602347692935e-01
 1.725602090567694e-01	 9.939555658780580e-01	-2.868046468989993e-01
 2.632555396360758e-01	 9.830064373476023e-01	-4.109188935687329e-01
 2.543177685780085e-01	 9.853565863295358e-01	-4.041696842776989e-01
 2.453811939332054e-01	 9.876199602033382e-01	-3.962852830723103e-01
 2.364469861776064e-01	 9.897969078423287e-01	-3.874183741896546e-01
 2.275163034445776e-01	 9.918877973803252e-01	-3.777115650075547e-01
 2.185902911734856e-01	 9.938930158079935e-01	-3.672972472563401e-01
 2.096700817719254e-01	 9.958129685629901e-01	-3.562975059513893e-01
 2.007567942916670e-01	 9.976480791143790e-01	-3.448240749068323e-01
 1.918515341183674e-01	 9.993987885418061e-01	-3.329783375013919e-01
 1.829553926750793e-01	 1.001065555109914e+00	-3.208513712443657e-01
 1.740694471395654e-01	 1.002648853838462e+00	-3.085240345403326e-01
 2.655380200673480e-01	 9.915293081632356e-01	-3.604203166471289e-01
 2.565227566701820e-01	 9.938998334260823e-01	-3.618067109169667e-01
 2.475087000595783e-01	 9.961828312226307e-01	-3.616977292614814e-01
 2.384970308597195e-01	 9.983786534510133e-01	-3.602556584055123e-01
 2.294889172452025e-01	 1.000487671436852e+00	-3.576321185235067e-01
 2.204855145865652e-01	 1.002510275526112e+00	-3.539679131823803e-01
 2.114879651095856e-01	 1.004446874671686e+00	-3.493929296518647e-01
 2.024973975684198e-01	 1.006297896014210e+00	-3.440260883740982e-01
 1.935149269326229e-01	 1.008063784457593e+00	-3.379753402008872e-01
 1.845416540880871e-01	 1.009745002239733e+00	-3.313377098650760e-01
 1.755786655519054e-01	 1.011342028498917e+00	-3.241993840005462e-01
 2.678204752765360e-01	 1.000052084799612e+00	-3.063934281606571e-01
 2.587277203966640e-01	 1.002442986118508e+00	-3.153151985868781e-01
 2.496361826765149e-01	 1.004745607621257e+00	-3.224623235303259e-01
 2.405470528884053e-01	 1.006960304230760e+00	-3.279997004222852e-01
 2.314615092480548e-01	 1.009087450464400e+00	-3.320809324488274e-01
 2.223807170570653e-01	 1.011127440023394e+00	-3.348481767403064e-01
 2.133058283592931e-01	 1.013080685375822e+00	-3.364320454685856e-01
 2.042379816111752e-01	 1.014947617333847e+00	-3.369515585623577e-01
 1.951783013660619e-01	 1.016728684625583e+00	-3.365141465748223e-01
 1.861278979725831e-01	 1.018424353462134e+00	-3.352157020766180e-01
 1.770878672870617e-01	 1.020035107100263e+00	-3.331406777922976e-01
 2.701029097906421e-01	 1.008574784160278e+00	-2.480075618657356e-01
 2.609326641307481e-01	 1.010986061350717e+00	-2.638862486759721e-01
 2.517636460036225e-01	 1.013308306381981e+00	-2.777901758492982e-01
 2.425970563296270e-01	 1.015541877201707e+00	-2.898800589278605e-01
 2.334340833655153e-01	 1.017687151519002e+00	-3.003046519901158e-01
 2.242759023438665e-01	 1.019744526390295e+00	-3.092006034735317e-01
 2.151236751265283e-01	 1.021714417798819e+00	-3.166923673420441e-01
 2.059785498721341e-01	 1.023597260228216e+00	-3.228921682223262e-01
 1.968416607177450e-01	 1.025393506230771e+00	-3.279000189473718e-01
 1.877141274746457e-01	 1.027103625990749e+00	-3.318037887818028e-01
 1.785970553383068e-01	 1.028728106883340e+00	-3.346793204405030e-01
 2.723853281366685e-01	 1.017097423148778e+00	-1.844601129268995e-01
 2.631375922457282e-01	 1.019529076066611e+00	-2.067379956401107e-01
 2.538910942605090e-01	 1.021870944487567e+00	-2.269184787510312e-01
 2.446470452493480e-01	 1.024123389383992e+00	-2.451514963525065e-01
 2.354066435099648e-01	 1.026286791656689e+00	-2.615743128068373e-01
 2.261710742058487e-01	 1.028361551717272e+00	-2.763113954641168e-01
 2.169415090167718e-01	 1.030348089064095e+00	-2.894743450672568e-01
 2.077191058034977e-01	 1.032246841852249e+00	-3.011618823680138e-01
 1.985050082867332e-01	 1.034058266458155e+00	-3.114598892878484e-01
 1.893003457403533e-01	 1.035782837039205e+00	-3.204415027833125e-01
 1.801062326989132e-01	 1.037421045088988e+00	-3.281672594136262e-01
 2.746677348416175e-01	 1.025620018668658e+00	-1.149754621140646e-01
 2.653425091148984e-01	 1.028072047210091e+00	-1.431145651218189e-01
 2.560185316667817e-01	 1.030433538920778e+00	-1.691094964920055e-01
 2.466970237135312e-01	 1.032704857797753e+00	-1.930929964550403e-01
 2.373791935937846e-01	 1.034886387933496e+00	-2.151843846701142e-01
 2.280662364018922e-01	 1.036978533094784e+00	-2.354894589812657e-01
 2.187593336355040e-01	 1.038981716295068e+00	-2.541004541103526e-01
 2.094596528574669e-01	 1.040896379360873e+00	-2.710960587051625e-01
 2.001683473720871e-01	 1.042722982492729e+00	-2.865414889530102e-01
 1.908865559157843e-01	 1.044462003821135e+00	-3.004886167998970e-01
 1.816154023621532e-01	 1.046113938958048e+00	-3.129761506377480e-01
 2.769501344324914e-01	 1.034142587623462e+00	-3.880395486128130e-02
 2.675474191115524e-01	 1.036614991725062e+00	-7.228508514378928e-02
 2.581459624420481e-01	 1.038996106664379e+00	-1.036496056401259e-01
 2.487469957881402e-01	 1.041286299463128e+00	-1.330068318219464e-01
 2.393517375293552e-01	 1.043485957405453e+00	-1.604518636468728e-01
 2.299613926908773e-01	 1.045595487613285e+00	-1.860655193721699e-01
 2.205771525882055e-01	 1.047615316615159e+00	-2.099143314818073e-01
 2.112001944862428e-01	 1.049545889909018e+00	-2.320506030092511e-01
 2.018316812728673e-01	 1.051387671519489e+00	-2.525125223441669e-01
 1.924727611470172e-01	 1.053141143550166e+00	-2.713243344195075e-01
 1.831245673212992e-01	 1.054806805731360e+00	-2.884965660070784e-01
 2.792325314362926e-01	 1.042665146916737e+00	 4.477906796198017e-02
 2.697523266089842e-01	 1.045157926555424e+00	 6.457252677548819e-03
 2.602733908059157e-01	 1.047558664701134e+00	-2.984838413426294e-02
 2.507969655391379e-01	 1.049867731400256e+00	-6.421767841969883e-02
 2.413242792290576e-01	 1.052085517128595e+00	-9.671541002498163e-02
 2.318565468316840e-01	 1.054212432363233e+00	-1.273912804867954e-01
 2.223949694803567e-01	 1.056248907147787e+00	-1.562799550225709e-01
 2.129407341420264e-01	 1.058195390651612e+00	-1.834011668757012e-01
 2.034950132881350e-01	 1.060052350723433e+00	-2.087598819549599e-01
 1.940589645801301e-01	 1.061820273439928e+00	-2.323465215190952e-01
 1.846337305696236e-01	 1.063499662649765e+00	-2.541372404804192e-01
 2.815149303800232e-01	 1.051187713452026e+00	 1.364741905080762e-01
 2.719572359804875e-01	 1.053700868645081e+00	 9.379608474024570e-02
 2.624008209779921e-01	 1.056121230013807e+00	 5.296225394058451e-02
 2.528469370324877e-01	 1.058449170629273e+00	 1.392822548853356e-02
 2.432968226052729e-01	 1.060685084158954e+00	-2.333452937074387e-02
 2.337517025831925e-01	 1.062829384435084e+00	-5.883862609441870e-02
 2.242127879174382e-01	 1.064882505016369e+00	-9.258086362895801e-02
 2.146812752770187e-01	 1.066844898743585e+00	-1.245423854248329e-01
 2.051583467169507e-01	 1.068717037289555e+00	-1.546889024571896e-01
 1.956451693612018e-01	 1.070499410704053e+00	-1.829709758491549e-01
 1.861428951003990e-01	 1.072192526954103e+00	-2.093243565048519e-01
 1.710509483102450e-01	 9.852621473768629e-01	-2.597535869898246e-01
 1.623286740391851e-01	 9.867366964777040e-01	-2.372562382215762e-01
 1.536184993999991e-01	 9.881301781820826e-01	-2.155899696951318e-01
 1.449214421196758e-01	 9.894431056398207e-01	-1.948168091095193e-01
 1.362385048931709e-01	 9.906760067638284e-01	-1.749897070357171e-01
 1.275706751727547e-01	 9.918294237927018e-01	-1.561527564248655e-01
 1.189189249707245e-01	 9.929039128517897e-01	-1.383414410642976e-01
 1.102842106753850e-01	 9.939000435131441e-01	-1.215829109916671e-01
 1.016674728801875e-01	 9.948183983547720e-01	-1.058962828377705e-01
 9.306963622590408e-02	 9.956595725195880e-01	-9.129296303804324e-02
 8.449160925570287e-02	 9.964241732744671e-01	-7.777699184791143e-02
 1.725602090567694e-01	 9.939555658780580e-01	-2.868046468989984e-01
 1.637609741711128e-01	 9.954431256007639e-01	-2.694573811916197e-01
 1.549739456778491e-01	 9.968489026326103e-01	-2.526168079363842e-01
 1.462001502838681e-01	 9.981734146511001e-01	-2.363501694563288e-01
 1.374405995313913e-01	 9.994171942270833e-01	-2.207155360390578e-01
 1.286962895854617e-01	 1.000580788383504e+00	-2.057620229727313e-01
 1.199682010349145e-01	 1.001664758152585e+00	-1.915300379065146e-01
 1.112572987067349e-01	 1.002669678131902e+00	-1.780515564616252e-01
 1.025645314936885e-01	 1.003596136039742e+00	-1.653504239842825e-01
 9.389083219510402e-02	 1.004444732270168e+00	-1.534426813029048e-01
 8.523711737066909e-02	 1.005216079448178e+00	-1.423369123296370e-01
 1.740694471395654e-01	 1.002648853838462e+00	-3.085240345403317e-01
 1.651932527949823e-01	 1.004149423987590e+00	-2.961977730865026e-01
 1.563293716017048e-01	 1.005567496162113e+00	-2.840811560160494e-01
 1.474788392463840e-01	 1.006903592567163e+00	-2.722446862073413e-01
 1.386426761183705e-01	 1.008158250431481e+00	-2.607495221429668e-01
 1.298218870953443e-01	 1.009332021562298e+00	-2.496476967284034e-01
 1.210174613425461e-01	 1.010425471898656e+00	-2.389823678434828e-01
 1.122303721255102e-01	 1.011439181063595e+00	-2.287880984679154e-01
 1.034615766361883e-01	 1.012373741915620e+00	-2.190911641772484e-01
 9.471201583233875e-02	 1.013229760099880e+00	-2.099098857840813e-01
 8.598261429004453e-02	 1.014007853599432e+00	-2.012549848699381e-01
 1.755786655519054e-01	 1.011342028498917e+00	-3.241993840005444e-01
 1.666255127514291e-01	 1.012855608904825e+00	-3.167781545055992e-01
 1.576847798597771e-01	 1.014285976061628e+00	-3.092950142125344e-01
 1.487575115432415e-01	 1.015633656702043e+00	-3.018218286661556e-01
 1.398447370381820e-01	 1.016899192712655e+00	-2.944208691334014e-01
 1.309474699347986e-01	 1.018083140684936e+00	-2.871450374288669e-01
 1.220667079746213e-01	 1.019186071464699e+00	-2.800381239173175e-01
 1.132034328616200e-01	 1.020208569700392e+00	-2.731350964438697e-01
 1.043586100868202e-01	 1.021151233390689e+00	-2.664624178824937e-01
 9.553318876629997e-02	 1.022014673431769e+00	-2.600383899795142e-01
 8.672810149242925e-02	 1.022799513164692e+00	-2.538735211355796e-01
 1.770878672870617e-01	 1.020035107100263e+00	-3.331406777922985e-01
 1.680577568810880e-01	 1.021561697619110e+00	-3.305210831630667e-01
 1.590401731402771e-01	 1.023004359622191e+00	-3.275917527923311e-01
 1.500361697104583e-01	 1.024363624369772e+00	-3.244240712210953e-01
 1.410467846748995e-01	 1.025640038406241e+00	-3.210795011974508e-01
 1.320730403362205e-01	 1.026834163107274e+00	-3.176098187028744e-01
 1.231159430121423e-01	 1.027946574225408e+00	-3.140573826452604e-01
 1.141764828449732e-01	 1.028977861434461e+00	-3.104554368576986e-01
 1.052556336247174e-01	 1.029928627873231e+00	-3.068284419865366e-01
 9.635435262567926e-02	 1.030799489688879e+00	-3.031924348374933e-01
 8.747358045642349e-02	 1.031591075580421e+00	-2.995554127108786e-01
 1.785970553383068e-01	 1.028728106883340e+00	-3.346793204405030e-01
 1.694899880245943e-01	 1.030267707397086e+00	-3.367700250813344e-01
 1.603955541314155e-01	 1.031722664134840e+00	-3.383252176701390e-01
 1.513148162840523e-01	 1.033093512884382e+00	-3.394140104137042e-01
 1.422488214125966e-01	 1.034380804847875e+00	-3.400951884219143e-01
 1.331986005320059e-01	 1.035585106185164e+00	-3.404174591095122e-01
 1.241651685361109e-01	 1.036706997555479e+00	-3.404197377914273e-01
 1.151495240054787e-01	 1.037747073657973e+00	-3.401314669940536e-01
 1.061526490290135e-01	 1.038705942771529e+00	-3.395729669531602e-01
 9.717550903916843e-02	 1.039584226294253e+00	-3.387558147425049e-01
 8.821905266062734e-02	 1.040382558283081e+00	-3.376832494500697e-01
 1.801062326989132e-01	 1.037421045088988e+00	-3.281672594136262e-01
 1.709222090225832e-01	 1.038973655505397e+00	-3.348884921792004e-01
 1.617509255214035e-01	 1.040440906890610e+00	-3.408688816746386e-01
 1.525934538000412e-01	 1.041823339559904e+00	-3.461735269788622e-01
 1.434508496353470e-01	 1.043121509373191e+00	-3.508567167889134e-01
 1.343241527545507e-01	 1.044335987274461e+00	-3.549621973456958e-01
 1.252143866275292e-01	 1.045467358829610e+00	-3.585234781242490e-01
 1.161225582730454e-01	 1.046516223763096e+00	-3.615641726842491e-01
 1.070496580788416e-01	 1.047483195493863e+00	-3.640983720276001e-01
 9.799665963545907e-02	 1.048368900670936e+00	-3.661310477764967e-01
 8.896451958364093e-02	 1.049173978709135e+00	-3.676584824637814e-01
 1.816154023621532e-01	 1.046113938958048e+00	-3.129761506377480e-01
 1.723544227156898e-01	 1.047679559210682e+00	-3.242592235411239e-01
 1.631062899984516e-01	 1.049159105180538e+00	-3.346150387491580e-01
 1.538720847944427e-01	 1.050553121710371e+00	-3.441029902276740e-01
 1.446528717272242e-01	 1.051862169317825e+00	-3.527711000625446e-01
 1.354496992362510e-01	 1.053086823731018e+00	-3.606563090367629e-01
 1.262635993673994e-01	 1.054227675422494e+00	-3.677848065888196e-01
 1.170955875775823e-01	 1.055285329142001e+00	-3.741723974126372e-01
 1.079466625533351e-01	 1.056260403448518e+00	-3.798249019085720e-01
 9.881780604324290e-02	 1.057153530241971e+00	-3.847385876664542e-01
 8.970998270406449e-02	 1.057965354295048e+00	-3.889006291315424e-01
 1.831245673212992e-01	 1.054806805731360e+00	-2.884965660070788e-01
 1.737866319445493e-01	 1.056385435779585e+00	-3.042834078407233e-01
 1.644616502507710e-01	 1.057877276295661e+00	-3.189740386040545e-01
 1.551507118032748e-01	 1.059282876649815e+00	-3.326205023183610e-01
 1.458548900723019e-01	 1.060602802017413e+00	-3.452628311409041e-01
 1.365752422095026e-01	 1.061837632910689e+00	-3.569293627033714e-01
 1.273128088367234e-01	 1.062987964708828e+00	-3.676370984943786e-01
 1.180686138489982e-01	 1.064054407186855e+00	-3.773921004023628e-01
 1.088436642316273e-01	 1.065037584043776e+00	-3.861899224865155e-01
 9.963894989121164e-02	 1.065938132430402e+00	-3.940160750032922e-01
 9.045544350049811e-02	 1.066756702477279e+00	-4.008465177018912e-01
 1.846337305696236e-01	 1.063499662649765e+00	-2.541372404804196e-01
 1.752188395497968e-01	 1.065091302478747e+00	-2.743799445466539e-01
 1.658170089665726e-01	 1.066595437527016e+00	-2.933735594917319e-01
 1.564293373625553e-01	 1.068012621692268e+00	-3.111611801228320e-01
 1.470569070546537e-01	 1.069343424807588e+00	-3.277731706049520e-01
 1.377007839067015e-01	 1.070588432169328e+00	-3.432275126507087e-01
 1.283620171165032e-01	 1.071748244063308e+00	-3.575301964700497e-01
 1.190416390172021e-01	 1.072823475289827e+00	-3.706756514399294e-01
 1.097406648928516e-01	 1.073814754687917e+00	-3.826472134018206e-01
 1.004600928080569e-01	 1.074722724659275e+00	-3.934176254712902e-01
 9.120090345154194e-02	 1.075548040692294e+00	-4.029495692052967e-01
 1.861428951003990e-01	 1.072192526954103e+00	-2.093243565048466e-01
 1.766510483720675e-01	 1.073797176574809e+00	-2.339847417082277e-01
 1.671723688340672e-01	 1.075313606165639e+00	-2.572579169351519e-01
 1.577079640083019e-01	 1.076742374151761e+00	-2.791764725474035e-01
 1.482589250583532e-01	 1.078084055023988e+00	-2.997594703422495e-01
 1.388263265602436e-01	 1.079339238862790e+00	-3.190128266742662e-01
 1.294112262877410e-01	 1.080508530860630e+00	-3.369297400992042e-01
 1.200146650121030e-01	 1.081592550843088e+00	-3.534911603406998e-01
 1.106376663161413e-01	 1.082591932789227e+00	-3.686662953225452e-01
 1.012812364224704e-01	 1.083507324351631e+00	-3.824131529814165e-01
 9.194636403579609e-02	 1.084339386376554e+00	-3.946791145505735e-01
 8.449160925570287e-02	 9.964241732744671e-01	-7.777699184791143e-02
 7.593573370450234e-02	 9.971127089018138e-01	-6.545546067603425e-02
 6.740140868271495e-02	 9.977259455763865e-01	-5.443184420766212e-02
 5.888947380262378e-02	 9.982645237707195e-01	-4.470236823073481e-02
 5.040075266753091e-02	 9.987290943103193e-01	-3.625859941566478e-02
 4.193605278629518e-02	 9.991203179452326e-01	-2.908779028366126e-02
 3.349616549931961e-02	 9.994388649236411e-01	-2.317323316297859e-02
 2.508186591579783e-02	 9.996854145678036e-01	-1.849462131853219e-02
 1.669391286202219e-02	 9.998606548526503e-01	-1.502841547512013e-02
 8.333048840547847e-03	 9.999652819873316e-01	-1.274821400730364e-02
 0.000000000000000e+00	 1.000000000000000e+00	-1.162512505803015e-02
 8.523711737066909e-02	 1.005216079448178e+00	-1.423369123296370e-01
 7.660574941749855e-02	 1.005910690340937e+00	-1.321642443159812e-01
 6.799612214396497e-02	 1.006529337883544e+00	-1.230563017278952e-01
 5.940908257049088e-02	 1.007072668199767e+00	-1.150183479591469e-01
 5.084546156726515e-02	 1.007541337857695e+00	-1.080503915631619e-01
 4.230607376802668e-02	 1.007936013437521e+00	-1.021475449424587e-01
 3.379171749539878e-02	 1.008257371101382e+00	-9.730039304986438e-02
 2.530317469758193e-02	 1.008506096165558e+00	-9.349537017174203e-02
 1.684121089620578e-02	 1.008682882675343e+00	-9.071514292532701e-02
 8.406575145132969e-03	 1.008788432982907e+00	-8.893899763698254e-02
 0.000000000000000e+00	 1.008823457328410e+00	-8.814323026483706e-02
 8.598261429004453e-02	 1.014007853599432e+00	-2.012549848699381e-01
 7.727575506830826e-02	 1.014708539666144e+00	-1.932730844139119e-01
 6.859082667356629e-02	 1.015332597995354e+00	-1.861159808224739e-01
 5.992868353429864e-02	 1.015880680361969e+00	-1.797963820571820e-01
 5.129016378750089e-02	 1.016353449076568e+00	-1.743211844601467e-01
 4.267608919171366e-02	 1.016751576549402e+00	-1.696918464204602e-01
 3.408726505170382e-02	 1.017075744856466e+00	-1.659047730103813e-01
 2.552448015460378e-02	 1.017326645307965e+00	-1.629517095649415e-01
 1.698850671730739e-02	 1.017504978019459e+00	-1.608201422244049e-01
 8.480100344913409e-03	 1.017611451486040e+00	-1.594937035173345e-01
 0.000000000000000e+00	 1.017646782159778e+00	-1.589525810374699e-01
 8.672810149242925e-02	 1.022799513164692e+00	-2.538735211355796e-01
 7.794575198583088e-02	 1.023506274325981e+00	-2.481227958605485e-01
 6.918552345109566e-02	 1.024135743371121e+00	-2.429515897621268e-01
 6.044827772469152e-02	 1.024688577726083e+00	-2.383784860079619e-01
 5.173486021035217e-02	 1.025165445443851e+00	-2.344157367767243e-01
 4.304609979135309e-02	 1.025567024764651e+00	-2.310696531822254e-01
 3.438280875453938e-02	 1.025894003678258e+00	-2.283410070761187e-01
 2.574578272591156e-02	 1.026147079488713e+00	-2.262254425885395e-01
 1.713580061756530e-02	 1.026326958381762e+00	-2.247138953309413e-01
 8.553624585774605e-03	 1.026434354995330e+00	-2.237930172310554e-01
 0.000000000000000e+00	 1.026469991993312e+00	-2.234456049516309e-01
 8.747358045642349e-02	 1.031591075580421e+00	-2.995554127108795e-01
 7.861574149896590e-02	 1.032303911768995e+00	-2.960749450492077e-01
 6.978021365613014e-02	 1.032938791470156e+00	-2.929247314104524e-01
 6.096786617231400e-02	 1.033496377760868e+00	-2.901276832387998e-01
 5.217955171793299e-02	 1.033977344436454e+00	-2.876998975152079e-01
 4.341610630094193e-02	 1.034382375567044e+00	-2.856510642571450e-01
 3.467834919021018e-02	 1.034712165056121e+00	-2.839848867406936e-01
 2.596708285055348e-02	 1.034967416201492e+00	-2.826995122133997e-01
 1.728309288921774e-02	 1.035148841259015e+00	-2.817879709011155e-01
 8.627148013601984e-03	 1.035257161009377e+00	-2.812386211794227e-01
 0.000000000000000e+00	 1.035293104328222e+00	-2.810355987581277e-01
 8.821905266062734e-02	 1.040382558283081e+00	-3.376832494500688e-01
 7.928572493661271e-02	 1.041101469443732e+00	-3.365109601706435e-01
 7.037489846824646e-02	 1.041741759751765e+00	-3.354170070443225e-01
 6.148744990781054e-02	 1.042304097935081e+00	-3.344271040940106e-01
 5.262423919235730e-02	 1.042789163531287e+00	-3.335597018108771e-01
 4.378610945447717e-02	 1.043197646440356e+00	-3.328264135712020e-01
 3.497388694502088e-02	 1.043530246479419e+00	-3.322324555797529e-01
 2.618838096757769e-02	 1.043787672939991e+00	-3.317770979880024e-01
 1.743038382450298e-02	 1.043970644147982e+00	-3.314541248879488e-01
 8.700670774280966e-03	 1.044079887026780e+00	-3.312523009457777e-01
 0.000000000000000e+00	 1.044116136663715e+00	-3.311558424080143e-01
 8.896451958364093e-02	 1.049173978709135e+00	-3.676584824637814e-01
 7.995570362767078e-02	 1.049898964798739e+00	-3.688312865274601e-01
 7.096957906702160e-02	 1.050544665675257e+00	-3.698291655035324e-01
 6.200702996182567e-02	 1.051111755717484e+00	-3.706791303687389e-01
 5.306892351573909e-02	 1.051600920205261e+00	-3.714005124327837e-01
 4.415610998595575e-02	 1.052012854868362e+00	-3.720054100527115e-01
 3.526942260527619e-02	 1.052348265437516e+00	-3.724991496231413e-01
 2.640967751603239e-02	 1.052607867197901e+00	-3.728807583784430e-01
 1.757767371565926e-02	 1.052792384545428e+00	-3.731434465902663e-01
 8.774193013696993e-03	 1.052902550546138e+00	-3.732750968217884e-01
 0.000000000000000e+00	 1.052939106499000e+00	-3.732587578589768e-01
 8.970998270406449e-02	 1.057965354295048e+00	-3.889006291315424e-01
 8.062567890103961e-02	 1.058696415282561e+00	-3.924545842358551e-01
 7.156425663203246e-02	 1.059347526699940e+00	-3.955802950157237e-01
 6.252660736500382e-02	 1.059919368576835e+00	-3.983045827319160e-01
 5.351360557019239e-02	 1.060412631935287e+00	-4.006462043226287e-01
 4.452610862937462e-02	 1.060828018334836e+00	-4.026163208296096e-01
 3.556495675728077e-02	 1.061166239419777e+00	-4.042189808004983e-01
 2.663097293496578e-02	 1.061428016468911e+00	-4.054516160837922e-01
 1.772496285492486e-02	 1.061614079948116e+00	-4.063055474873347e-01
 8.847714877735490e-03	 1.061725169066050e+00	-4.067664978517422e-01
 0.000000000000000e+00	 1.061762031333285e+00	-4.068151100422872e-01
 9.045544350049811e-02	 1.066756702477279e+00	-4.008465177018921e-01
 8.129565208561859e-02	 1.067493838343746e+00	-4.068169658566072e-01
 7.215893234285591e-02	 1.068150360285121e+00	-4.121070552251025e-01
 6.304618314798945e-02	 1.068726953981891e+00	-4.167419485565458e-01
 5.395828623783116e-02	 1.069224316198276e+00	-4.207383896663957e-01
 4.489610611873081e-02	 1.069643154323555e+00	-4.241051950240076e-01
 3.586048998733932e-02	 1.069984185915565e+00	-4.268437609664102e-01
 2.685226766342604e-02	 1.070248138246710e+00	-4.289485838346088e-01
 1.787225153453801e-02	 1.070435747852810e+00	-4.304077903882511e-01
 8.921236512281874e-03	 1.070547760085116e+00	-4.312036759322204e-01
 0.000000000000000e+00	 1.070584928665779e+00	-4.313132475481556e-01
 9.120090345154194e-02	 1.075548040692294e+00	-4.029495692052945e-01
 8.196562451030721e-02	 1.076291251430839e+00	-4.113712716579725e-01
 7.275360737906883e-02	 1.076953183890108e+00	-4.188629471100720e-01
 6.356575834142709e-02	 1.077534529401412e+00	-4.254466478321790e-01
 5.440296640076939e-02	 1.078035990471137e+00	-4.311356811757610e-01
 4.526610318802121e-02	 1.078458280318292e+00	-4.359351258073008e-01
 3.615602288175654e-02	 1.078802122414245e+00	-4.398423641702309e-01
 2.707356214046134e-02	 1.079068250024988e+00	-4.428476283485536e-01
 1.801954004673697e-02	 1.079257405756275e+00	-4.449345565697898e-01
 8.994758063221591e-03	 1.079370341101936e+00	-4.460807576628838e-01
 0.000000000000000e+00	 1.079407815995689e+00	-4.462583807448612e-01
 9.194636403579609e-02	 1.084339386376554e+00	-3.946791145505735e-01
 8.263559750400498e-02	 1.085088671992387e+00	-4.055863803671587e-01
 7.334828292024807e-02	 1.085756014974210e+00	-4.153176186320788e-01
 6.408533397596120e-02	 1.086342112304158e+00	-4.238903349873131e-01
 5.484764694112109e-02	 1.086847672230783e+00	-4.313129913947891e-01
 4.563610057124283e-02	 1.087273413802824e+00	-4.375855485342588e-01
 3.645155602683708e-02	 1.087620066405180e+00	-4.427000249886550e-01
 2.729485680511988e-02	 1.087888369297435e+00	-4.466410702618093e-01
 1.816682868375999e-02	 1.088079071155274e+00	-4.493865487400583e-01
 9.068279676440062e-03	 1.088192929615108e+00	-4.509081317972106e-01
 0.000000000000000e+00	 1.088230710822225e+00	-4.511718951965049e-01
 1.088230710822225e+00	 0.000000000000000e+00	 2.552394145151787e+01
 1.088192929615107e+00	 9.068279676439462e-03	 2.552238326433907e+01
 1.088079071155274e+00	 1.816682868375948e-02	 2.551386238859536e+01
 1.087888369297435e+00	 2.729485680511945e-02	 2.549849137910432e+01
 1.087620066405180e+00	 3.645155602683674e-02	 2.547637904889731e+01
 1.087273413802824e+00	 4.563610057124259e-02	 2.544763031978365e+01
 1.086847672230783e+00	 5.484764694112092e-02	 2.541234607337887e+01
 1.086342112304158e+00	 6.408533397596111e-02	 2.537062300221902e+01
 1.085756014974210e+00	 7.334828292024807e-02	 2.532255346046455e+01
 1.085088671992387e+00	 8.263559750400509e-02	 2.526822531370319e+01
 1.084339386376554e+00	 9.194636403579613e-02	 2.520772178737287e+01
 1.097055127299335e+00	 0.000000000000000e+00	 2.510159545817431e+01
 1.097017039726013e+00	 9.141813969514469e-03	 2.510015278355933e+01
 1.096902257992762e+00	 1.831414272286017e-02	 2.509204014147139e+01
 1.096710009741660e+00	 2.751618963533152e-02	 2.507737103320775e+01
 1.096439531192658e+00	 3.674714014106653e-02	 2.505625491609996e+01
 1.096090067599097e+00	 4.600616176616928e-02	 2.502879705786698e+01
 1.095660873706773e+00	 5.529240417350908e-02	 2.499509839139028e+01
 1.095151214216240e+00	 6.460499921942921e-02	 2.495525536946966e+01
 1.094560364248029e+00	 7.394306102259096e-02	 2.490935981899870e+01
 1.093887609810434e+00	 8.330568604516959e-02	 2.485749879400221e+01
 1.093132248269526e+00	 9.269195318661062e-02	 2.479975442698982e+01
 1.105879566280446e+00	 0.000000000000000e+00	 2.469634196126565e+01
 1.105841172340124e+00	 9.215348450025041e-03	 2.469500949342931e+01
 1.105725467331068e+00	 1.846145713748255e-02	 2.468729382956366e+01
 1.105531672682705e+00	 2.773752302978262e-02	 2.467330896475520e+01
 1.105259018471340e+00	 3.704272500886424e-02	 2.465316456851806e+01
 1.104906743879326e+00	 4.637622390458419e-02	 2.462696584440664e+01
 1.104474097657828e+00	 5.573716253987651e-02	 2.459481338998550e+01
 1.103960338592844e+00	 6.512466578791759e-02	 2.455680305664734e+01
 1.103364735974160e+00	 7.453784064152361e-02	 2.451302580864605e+01
 1.102686570066909e+00	 8.397577629500011e-02	 2.446356758071585e+01
 1.101925132585359e+00	 9.343754423865204e-02	 2.440850913365788e+01
 1.114704025265223e+00	 0.000000000000000e+00	 2.430711836658148e+01
 1.114665324957197e+00	 9.288883097171774e-03	 2.430588899541121e+01
 1.114548696670210e+00	 1.860877188594414e-02	 2.429855761089916e+01
 1.114353355621034e+00	 2.795885692582726e-02	 2.428523824338347e+01
 1.114078525742313e+00	 3.733831054654514e-02	 2.426604033689733e+01
 1.113723440145404e+00	 4.674628688169091e-02	 2.424106861554571e+01
 1.113287341586830e+00	 5.618192191424676e-02	 2.421042295015102e+01
 1.112769482938021e+00	 6.564433353420504e-02	 2.417419822458523e+01
 1.112169127658013e+00	 7.513262160851973e-02	 2.413248420107787e+01
 1.111485550268765e+00	 8.464586806360869e-02	 2.408536538379335e+01
 1.110718036832733e+00	 9.418313698061842e-02	 2.403292087998027e+01
 1.123528501753334e+00	 0.000000000000000e+00	 2.393289649502699e+01
 1.123489495076986e+00	 9.362417890155253e-03	 2.393176158549315e+01
 1.123371943510211e+00	 1.875608692656248e-02	 2.392480059024370e+01
 1.123175056057113e+00	 2.818019126081997e-02	 2.391212711005636e+01
 1.122898050506667e+00	 3.763389667042450e-02	 2.389384991987415e+01
 1.122540153899225e+00	 4.711635059269311e-02	 2.387007284348582e+01
 1.122100602996660e+00	 5.662668217064334e-02	 2.384089462836269e+01
 1.121578644755825e+00	 6.616400231107049e-02	 2.380640881999010e+01
 1.120973536804998e+00	 7.572740375505296e-02	 2.376670363489971e+01
 1.120284547922956e+00	 8.531596116110746e-02	 2.372186183161196e+01
 1.119510958520333e+00	 9.492873120120816e-02	 2.367196057870687e+01
 1.132352993244445e+00	 0.000000000000000e+00	 2.357268124193434e+01
 1.132313680199246e+00	 9.435952808176076e-03	 2.357163090599516e+01
 1.132195205351089e+00	 1.890340221765512e-02	 2.356502546386849e+01
 1.131996771491405e+00	 2.840152597211526e-02	 2.355297761525994e+01
 1.131717590265489e+00	 3.792948329681762e-02	 2.353559501607002e+01
 1.131356882642683e+00	 4.748641493279446e-02	 2.351298016295376e+01
 1.130913879390200e+00	 5.707144318308978e-02	 2.348523027790010e+01
 1.130387821550311e+00	 6.668367197129281e-02	 2.345243719208228e+01
 1.129777960920524e+00	 7.632218691259703e-02	 2.341468722809704e+01
 1.129083560536432e+00	 8.598605539760849e-02	 2.337206107971059e+01
 1.128303895156839e+00	 9.567432668911932e-02	 2.332463368824052e+01
 1.141177497238223e+00	 0.000000000000000e+00	 2.322550929851983e+01
 1.141137877823732e+00	 9.509487830434836e-03	 2.322453265986417e+01
 1.141018479692866e+00	 1.905071771753957e-02	 2.321826722711799e+01
 1.140818499424374e+00	 2.862286099706764e-02	 2.320682432028157e+01
 1.140537142519870e+00	 3.822507034203977e-02	 2.319031001952160e+01
 1.140173623877672e+00	 4.785647979719859e-02	 2.316882506122505e+01
 1.139727168270332e+00	 5.751620482560961e-02	 2.314246473390812e+01
 1.139197010825530e+00	 6.720334236765083e-02	 2.311131877314179e+01
 1.138582397510003e+00	 7.691697091262552e-02	 2.307547125451433e+01
 1.137882585616146e+00	 8.665615058322386e-02	 2.303500048365333e+01
 1.137096844250934e+00	 9.641992323305025e-02	 2.298997888233790e+01
 1.150002011234334e+00	 0.000000000000000e+00	 2.289044793215177e+01
 1.149962085450197e+00	 9.583022936132122e-03	 2.288953338410352e+01
 1.149841764035561e+00	 1.919803338453339e-02	 2.288359194140899e+01
 1.149640237356486e+00	 2.884419627303163e-02	 2.287273305818686e+01
 1.149356704770895e+00	 3.852065772240622e-02	 2.285706077504749e+01
 1.148990375106086e+00	 4.822654508110917e-02	 2.283667362829331e+01
 1.148540467139938e+00	 5.796096697222636e-02	 2.281166455878422e+01
 1.148006210085537e+00	 6.772301335292341e-02	 2.278212081953061e+01
 1.147386844078842e+00	 7.751175558661223e-02	 2.274812388093222e+01
 1.146681620669051e+00	 8.732624652806566e-02	 2.270974933258164e+01
 1.145889803311299e+00	 9.716552062169910e-02	 2.266706678056044e+01
 1.158826532732445e+00	 0.000000000000000e+00	 2.256659382229667e+01
 1.158786300578399e+00	 9.656558104468534e-03	 2.256572927918814e+01
 1.158665055879196e+00	 1.934534917695411e-02	 2.256009555749452e+01
 1.158461982788203e+00	 2.906553173736174e-02	 2.254979975131550e+01
 1.158176274519656e+00	 3.881624535423227e-02	 2.253494339035902e+01
 1.157807133829818e+00	 4.859661067972984e-02	 2.251562236398216e+01
 1.157353773501899e+00	 5.840572949696354e-02	 2.249192684467875e+01
 1.156815416834384e+00	 6.824268477988943e-02	 2.246394120997087e+01
 1.156191298132452e+00	 7.810654076603075e-02	 2.243174396151383e+01
 1.155480663202100e+00	 8.799634304224592e-02	 2.239540764022284e+01
 1.154682769846619e+00	 9.791111864376412e-02	 2.235499873623894e+01
 1.167651059232224e+00	 0.000000000000000e+00	 2.225307194920087e+01
 1.167610520708092e+00	 9.730093314644661e-03	 2.225224509150569e+01
 1.167488352723790e+00	 1.949266505311926e-02	 2.224690279201977e+01
 1.167283733219993e+00	 2.928686732741249e-02	 2.223714928230771e+01
 1.166995849267240e+00	 3.911183315383319e-02	 2.222308310191583e+01
 1.166623897550763e+00	 4.896667648826426e-02	 2.220479703898937e+01
 1.166167084859096e+00	 5.885049227384472e-02	 2.218237807008887e+01
 1.165624628576125e+00	 6.876235650132773e-02	 2.215590729805128e+01
 1.164995757176244e+00	 7.870132628235484e-02	 2.212545988658891e+01
 1.164279710722243e+00	 8.866643993587678e-02	 2.209110499031734e+01
 1.163475741365573e+00	 9.865671708794350e-02	 2.205290567891236e+01
 1.176475588233336e+00	 0.000000000000000e+00	 2.194903453254072e+01
 1.176434743339030e+00	 9.803628545861098e-03	 2.194823304604192e+01
 1.176311652069365e+00	 1.963998097134639e-02	 2.194316605457328e+01
 1.176105486152319e+00	 2.950820298053838e-02	 2.193393441585361e+01
 1.175815426514735e+00	 3.940742103752425e-02	 2.192063319170678e+01
 1.175440663770814e+00	 4.933674240191608e-02	 2.190335160703405e+01
 1.174980398714412e+00	 5.929525517689338e-02	 2.188217300770864e+01
 1.174433842814813e+00	 6.928202837001721e-02	 2.185717481611803e+01
 1.173800218715625e+00	 7.929611196705813e-02	 2.182842848292443e+01
 1.173078760736435e+00	 8.933653701907034e-02	 2.179599943361014e+01
 1.172268715376846e+00	 9.940231574293547e-02	 2.175994700838278e+01
 1.084339386376554e+00	 9.194636403579613e-02	 2.520772178737286e+01
 1.083507324351631e+00	 1.012812364224699e-01	 2.514065457578780e+01
 1.082591932789227e+00	 1.106376663161409e-01	 2.506666770527860e+01
 1.081592550843088e+00	 1.200146650121027e-01	 2.498585343901924e+01
 1.080508530860630e+00	 1.294112262877406e-01	 2.489829927228129e+01
 1.079339238862790e+00	 1.388263265602434e-01	 2.480408774997505e+01
 1.078084055023988e+00	 1.482589250583530e-01	 2.470329628007426e+01
 1.076742374151761e+00	 1.577079640083017e-01	 2.459599694276444e+01
 1.075313606165639e+00	 1.671723688340671e-01	 2.448225629523032e+01
 1.073797176574809e+00	 1.766510483720674e-01	 2.436213517208038e+01
 1.072192526954103e+00	 1.861428951003989e-01	 2.423568848149784e+01
 1.093132248269526e+00	 9.269195318661062e-02	 2.479975442698982e+01
 1.092293439089185e+00	 1.021025216562378e-01	 2.473573955874728e+01
 1.091370624655715e+00	 1.115348224417167e-01	 2.466510094006130e+01
 1.090363138764083e+00	 1.209878588209781e-01	 2.458793304272404e+01
 1.089270328509909e+00	 1.304606164119928e-01	 2.450432511361711e+01
 1.088091554773214e+00	 1.399520633317617e-01	 2.441436098294753e+01
 1.086826192702272e+00	 1.494611503694586e-01	 2.431811886768815e+01
 1.085473632197129e+00	 1.589868111738753e-01	 2.421567117002497e+01
 1.084033278392373e+00	 1.685279624553000e-01	 2.410708427069228e+01
 1.082504552138659e+00	 1.780835042019535e-01	 2.399241831716468e+01
 1.080886890482565e+00	 1.876523199110862e-01	 2.387172700677241e+01
 1.101925132585359e+00	 9.343754423865204e-02	 2.440850913365787e+01
 1.101079576232330e+00	 1.029238089842890e-01	 2.434746147143629e+01
 1.100149338908817e+00	 1.124319808550753e-01	 2.428007085100568e+01
 1.099133749050991e+00	 1.219610551115601e-01	 2.420643336311707e+01
 1.098032148502666e+00	 1.315100092122798e-01	 2.412663949708551e+01
 1.096843893002933e+00	 1.410778029740275e-01	 2.404077394221226e+01
 1.095568352673903e+00	 1.506633787463890e-01	 2.394891538363074e+01
 1.094204912508127e+00	 1.602656616006945e-01	 2.385113629233104e+01
 1.092752972855232e+00	 1.698835595335220e-01	 2.374750270920290e+01
 1.091211949907333e+00	 1.795159636848740e-01	 2.363807402302884e+01
 1.089581276182744e+00	 1.891617485711329e-01	 2.352290274246334e+01
 1.110718036832733e+00	 9.418313698061842e-02	 2.403292087998027e+01
 1.109865733291667e+00	 1.037450981738555e-01	 2.397475755869165e+01
 1.108928073061242e+00	 1.133291413019369e-01	 2.391051865973631e+01
 1.107904379218823e+00	 1.229342536080121e-01	 2.384030131577590e+01
 1.106793988356403e+00	 1.325594043911656e-01	 2.376419676187028e+01
 1.105596251072132e+00	 1.422035451679651e-01	 2.368229013257379e+01
 1.104310532461951e+00	 1.518656098483895e-01	 2.359466025256886e+01
 1.102936212610899e+00	 1.615445149262890e-01	 2.350137942053768e+01
 1.101472687083637e+00	 1.712391596845126e-01	 2.340251318606048e+01
 1.099919367413728e+00	 1.809484264148249e-01	 2.329812011942920e+01
 1.098275681591209e+00	 1.906711806527213e-01	 2.318825157437215e+01
 1.119510958520333e+00	 9.492873120120816e-02	 2.367196057870687e+01
 1.118651907777798e+00	 1.045663889921698e-01	 2.361660097566622e+01
 1.117706824625701e+00	 1.142263035280213e-01	 2.355542139476961e+01
 1.116675026782588e+00	 1.239074540344973e-01	 2.348851944561310e+01
 1.115555845588620e+00	 1.336088016512145e-01	 2.341598662432388e+01
 1.114348626500999e+00	 1.433292895944985e-01	 2.333790810881501e+01
 1.113052729589483e+00	 1.530678433347055e-01	 2.325436254658457e+01
 1.111667530031593e+00	 1.628233707881889e-01	 2.316542183469510e+01
 1.110192418607010e+00	 1.725947625240513e-01	 2.307115089166556e+01
 1.108626802190737e+00	 1.823808919858028e-01	 2.297160742111053e+01
 1.106970104244528e+00	 1.921806157280337e-01	 2.286684166707679e+01
 1.128303895156839e+00	 9.567432668911932e-02	 2.332463368824052e+01
 1.127438097201324e+00	 1.053876812064641e-01	 2.327199939143598e+01
 1.126485591114902e+00	 1.151234672790487e-01	 2.321379049540560e+01
 1.125445689257293e+00	 1.248806561151792e-01	 2.315010453325644e+01
 1.124317717716819e+00	 1.346582006949903e-01	 2.308103278905776e+01
 1.123101016809721e+00	 1.444550359345519e-01	 2.300666009373802e+01
 1.121794941579570e+00	 1.542700788645822e-01	 2.292706461242195e+01
 1.120398862296355e+00	 1.641022288239236e-01	 2.284231762277406e+01
 1.118912164954772e+00	 1.739503676679175e-01	 2.275248328401142e+01
 1.117334251771257e+00	 1.838133599918037e-01	 2.265761839636231e+01
 1.115664541679271e+00	 1.936900533692525e-01	 2.255777215086533e+01
 1.137096844250934e+00	 9.641992323305025e-02	 2.298997888233790e+01
 1.136224299072845e+00	 1.062089745839706e-01	 2.293999365679559e+01
 1.135264370041556e+00	 1.160206323007391e-01	 2.288467047969159e+01
 1.134216364157948e+00	 1.258538595742210e-01	 2.282410626527284e+01
 1.133079602258502e+00	 1.357076012250574e-01	 2.275839162353702e+01
 1.131853419518487e+00	 1.455807838690494e-01	 2.268761065925512e+01
 1.130537165955278e+00	 1.554723160972651e-01	 2.261184076121828e+01
 1.129130206931329e+00	 1.653810886710231e-01	 2.253115238119396e+01
 1.127631923656345e+00	 1.753059747318906e-01	 2.244560880218100e+01
 1.126041713688183e+00	 1.852458300268237e-01	 2.235526589566927e+01
 1.124358991432006e+00	 1.951994931485598e-01	 2.226017186773829e+01
 1.145889803311299e+00	 9.716552062169910e-02	 2.266706678056044e+01
 1.145010510902963e+00	 1.070302688919216e-01	 2.261965653279780e+01
 1.144043158918370e+00	 1.169177983388124e-01	 2.256713767301968e+01
 1.142987048999564e+00	 1.268270641357863e-01	 2.250960596481059e+01
 1.141841496731169e+00	 1.367570029439797e-01	 2.244715089277041e+01
 1.140605832147483e+00	 1.467065330789150e-01	 2.237985546714742e+01
 1.139279400239678e+00	 1.566745546919998e-01	 2.230779601736505e+01
 1.137861561462665e+00	 1.666599499670174e-01	 2.223104197383686e+01
 1.136351692241150e+00	 1.766615833317499e-01	 2.214965563757674e+01
 1.134749185474410e+00	 1.866783016848592e-01	 2.206369193723279e+01
 1.133053451039304e+00	 1.967089346381378e-01	 2.197319817330843e+01
 1.154682769846619e+00	 9.791111864376412e-02	 2.235499873623894e+01
 1.153796730202278e+00	 1.078515638975493e-01	 2.231009147680150e+01
 1.152821955258055e+00	 1.178149651389887e-01	 2.226029899412794e+01
 1.151757741297147e+00	 1.278002695240381e-01	 2.220571537944100e+01
 1.150603398652322e+00	 1.378064055543212e-01	 2.214642855089586e+01
 1.149358252216897e+00	 1.478322832450730e-01	 2.208252006631240e+01
 1.148021641955836e+00	 1.578767943080314e-01	 2.201406492335155e+01
 1.146592923416506e+00	 1.679388123494360e-01	 2.194113134643311e+01
 1.145071468238608e+00	 1.780171930832749e-01	 2.186378055980881e+01
 1.143456664662833e+00	 1.881107745599064e-01	 2.178206654633389e+01
 1.141747918037733e+00	 1.982183774101689e-01	 2.169603579162220e+01
 1.163475741365573e+00	 9.865671708794350e-02	 2.205290567891236e+01
 1.162582954481391e+00	 1.086728593680860e-01	 2.201043148298867e+01
 1.161600756573321e+00	 1.187121324469881e-01	 2.196329079547203e+01
 1.160528438565709e+00	 1.287734754631399e-01	 2.191157552317695e+01
 1.159365305539462e+00	 1.388558087586461e-01	 2.185537158665419e+01
 1.158110677246916e+00	 1.489580340484473e-01	 2.179475874351516e+01
 1.156763888626824e+00	 1.590790346046053e-01	 2.172981039763038e+01
 1.155324290319000e+00	 1.692176754558090e-01	 2.166059339339183e+01
 1.153791249178141e+00	 1.793728036022450e-01	 2.158716779435277e+01
 1.152164148786348e+00	 1.895432482459615e-01	 2.150958664569249e+01
 1.150442389963861e+00	 1.997278210368353e-01	 2.142789572010613e+01
 1.172268715376846e+00	 9.940231574293547e-02	 2.175994700838278e+01
 1.171369181250904e+00	 1.094941550707639e-01	 2.171983797449231e+01
 1.170379560376876e+00	 1.196093000085306e-01	 2.167527775511407e+01
 1.169299138320258e+00	 1.297466816772552e-01	 2.162635556982581e+01
 1.168127214910092e+00	 1.399052122595186e-01	 2.157315491992344e+01
 1.166863104757728e+00	 1.500837851699623e-01	 2.151575342483680e+01
 1.165506137775708e+00	 1.602812752409670e-01	 2.145422264272484e+01
 1.164055659696292e+00	 1.704965389236660e-01	 2.138862787432541e+01
 1.162511032589170e+00	 1.807284145044398e-01	 2.131902794926124e+01
 1.160871635377850e+00	 1.909757223370206e-01	 2.124547499414796e+01
 1.159136864354258e+00	 2.012372650903192e-01	 2.116801418200813e+01
 1.072192526954103e+00	 1.861428951003989e-01	 2.423568848149783e+01
 1.070499410704053e+00	 1.956451693612012e-01	 2.410290943490865e+01
 1.068717037289555e+00	 2.051583467169502e-01	 2.396375196129971e+01
 1.066844898743585e+00	 2.146812752770183e-01	 2.381826756451622e+01
 1.064882505016370e+00	 2.242127879174378e-01	 2.366649953608049e+01
 1.062829384435084e+00	 2.337517025831922e-01	 2.350848268274294e+01
 1.060685084158954e+00	 2.432968226052727e-01	 2.334424305335456e+01
 1.058449170629273e+00	 2.528469370324876e-01	 2.317379766607016e+01
 1.056121230013807e+00	 2.624008209779921e-01	 2.299715423703083e+01
 1.053700868645081e+00	 2.719572359804877e-01	 2.281431091181536e+01
 1.051187713452026e+00	 2.815149303800232e-01	 2.262525600109465e+01
 1.080886890482565e+00	 1.876523199110862e-01	 2.387172700677241e+01
 1.079180044824954e+00	 1.972316477090707e-01	 2.374498103893405e+01
 1.077383218220314e+00	 2.068219670147026e-01	 2.361211715113809e+01
 1.075495898582547e+00	 2.164221165967264e-01	 2.347318984974411e+01
 1.073517591888097e+00	 2.260309198670193e-01	 2.332824493712770e+01
 1.071447822639375e+00	 2.356471851853353e-01	 2.317731921573950e+01
 1.069286134323551e+00	 2.452697061789316e-01	 2.302044019044171e+01
 1.067032089866219e+00	 2.548972620770691e-01	 2.285762577016529e+01
 1.064685272079408e+00	 2.645286180603516e-01	 2.268888397008071e+01
 1.062245284103420e+00	 2.741625256248553e-01	 2.251421261562582e+01
 1.059711749841981e+00	 2.837977229609758e-01	 2.233359904988934e+01
 1.089581276182744e+00	 1.891617485711329e-01	 2.352290274246334e+01
 1.087860701082651e+00	 1.988181301028490e-01	 2.340193739072547e+01
 1.086049421251115e+00	 2.084855915551455e-01	 2.327509714194938e+01
 1.084146920482950e+00	 2.181629623561129e-01	 2.314243871143999e+01
 1.082152700780804e+00	 2.278490564534478e-01	 2.300400968700404e+01
 1.080066282822310e+00	 2.375426726216475e-01	 2.285984821139027e+01
 1.077887206422568e+00	 2.472425947842087e-01	 2.270998266184710e+01
 1.075615030991461e+00	 2.569475923508174e-01	 2.255443132787067e+01
 1.073249335985267e+00	 2.666564205694989e-01	 2.239320208837508e+01
 1.070789721352055e+00	 2.763678208936757e-01	 2.222629208967918e+01
 1.068235807970332e+00	 2.860805213640624e-01	 2.205368742586870e+01
 1.098275681591209e+00	 1.906711806527213e-01	 2.318825157437215e+01
 1.096541377017587e+00	 2.004046160928794e-01	 2.307283397314026e+01
 1.094715643926478e+00	 2.101492198667576e-01	 2.295176831633738e+01
 1.092797961993595e+00	 2.199038120617696e-01	 2.282511277000268e+01
 1.090787829247780e+00	 2.296671971614080e-01	 2.269291601757215e+01
 1.088684762541872e+00	 2.394381643548901e-01	 2.255521692253146e+01
 1.086488298018892e+00	 2.492154878619281e-01	 2.241204418690616e+01
 1.084197991573000e+00	 2.589979272726092e-01	 2.226341600668738e+01
 1.081813419304712e+00	 2.687842279023556e-01	 2.210933972545980e+01
 1.079334177969853e+00	 2.785731211619117e-01	 2.194981148767205e+01
 1.076759885421701e+00	 2.883633249422864e-01	 2.178481589316624e+01
 1.106970104244528e+00	 1.921806157280337e-01	 2.286684166707679e+01
 1.105222070170204e+00	 2.019911052295054e-01	 2.275675777406486e+01
 1.103381883790923e+00	 2.118128514780181e-01	 2.264123772853074e+01
 1.101449020663285e+00	 2.216446652202883e-01	 2.252034042376001e+01
 1.099422974842311e+00	 2.314853414755846e-01	 2.239411498405759e+01
 1.097303259356043e+00	 2.413336598478243e-01	 2.226260040940310e+01
 1.095089406675410e+00	 2.511883848529137e-01	 2.212582521454056e+01
 1.092780969178836e+00	 2.610482662613206e-01	 2.198380706361945e+01
 1.090377519611071e+00	 2.709120394558432e-01	 2.183655240168518e+01
 1.087878651535683e+00	 2.807784258045261e-01	 2.168405608450114e+01
 1.085283979780712e+00	 2.906461330486506e-01	 2.152630100837338e+01
 1.115664541679271e+00	 1.936900533692525e-01	 2.255777215086533e+01
 1.113902778080947e+00	 2.035775970630707e-01	 2.245282599371952e+01
 1.112048138388968e+00	 2.134764859174058e-01	 2.234264183375499e+01
 1.110100094040817e+00	 2.233855213382608e-01	 2.222727860214406e+01
 1.108058135117686e+00	 2.333034888806627e-01	 2.210678524380133e+01
 1.105921770822807e+00	 2.432291585632111e-01	 2.198120034579167e+01
 1.103690529955006e+00	 2.531612851979896e-01	 2.185055175864154e+01
 1.101363961376972e+00	 2.630986087358285e-01	 2.171485621168468e+01
 1.098941634477672e+00	 2.730398546268836e-01	 2.157411892376755e+01
 1.096423139628413e+00	 2.829837341964819e-01	 2.142833321083431e+01
 1.093808088631989e+00	 2.929289450361586e-01	 2.127748009211373e+01
 1.124358991432006e+00	 1.951994931485598e-01	 2.226017186773830e+01
 1.122583498290258e+00	 2.051640911439185e-01	 2.216018480990252e+01
 1.120714405265136e+00	 2.151401227133998e-01	 2.205514527432868e+01
 1.118751179674995e+00	 2.251263799222787e-01	 2.194511157428639e+01
 1.116693307627193e+00	 2.351216388613269e-01	 2.183013188903877e+01
 1.114540294500143e+00	 2.451246599638118e-01	 2.171024387771372e+01
 1.112291665420569e+00	 2.551341883379800e-01	 2.158547428441477e+01
 1.109946965735407e+00	 2.651489541150091e-01	 2.145583853571348e+01
 1.107505761477841e+00	 2.751676728123982e-01	 2.132134033186944e+01
 1.104967639826910e+00	 2.851890457127417e-01	 2.118197123333373e+01
 1.102332209560157e+00	 2.952117602578134e-01	 2.103771024430405e+01
 1.133053451039304e+00	 1.967089346381378e-01	 2.197319817330844e+01
 1.131264228338580e+00	 2.067505870223924e-01	 2.187800819806515e+01
 1.129380681963944e+00	 2.168037613944789e-01	 2.177793971944045e+01
 1.127402275114619e+00	 2.268672404789337e-01	 2.167304981006054e+01
 1.125328489924120e+00	 2.369397909022619e-01	 2.156338533080672e+01
 1.123158827946038e+00	 2.470201635123877e-01	 2.144898253182125e+01
 1.120892810634984e+00	 2.571070937137088e-01	 2.132986664295335e+01
 1.118529979822143e+00	 2.671993018177391e-01	 2.120605145479203e+01
 1.116069898184907e+00	 2.772954934093091e-01	 2.107753889164948e+01
 1.113512149710043e+00	 2.873943597282683e-01	 2.094431857808166e+01
 1.110856340149837e+00	 2.974945780666181e-01	 2.080636740075764e+01
 1.141747918037733e+00	 1.982183774101689e-01	 2.169603579162220e+01
 1.139944965766357e+00	 2.083370842488358e-01	 2.160549680329703e+01
 1.138046966029914e+00	 2.184674014891222e-01	 2.151024275574798e+01
 1.136053377908490e+00	 2.286081025148177e-01	 2.141032889077885e+01
 1.133963679561754e+00	 2.387579444881526e-01	 2.130580023125587e+01
 1.131777368718472e+00	 2.489156686717000e-01	 2.119669117088210e+01
 1.129493963161138e+00	 2.590800007660000e-01	 2.108302505147097e+01
 1.127113001205179e+00	 2.692496512628949e-01	 2.096481372886673e+01
 1.124634042172197e+00	 2.794233158145375e-01	 2.084205712888840e+01
 1.122056666856679e+00	 2.895996756180249e-01	 2.071474279491004e+01
 1.119380477985655e+00	 2.997773978155760e-01	 2.058284542893094e+01
 1.150442389963861e+00	 1.997278210368353e-01	 2.142789572010614e+01
 1.148625708114031e+00	 2.099235823735922e-01	 2.134187686147943e+01
 1.146713255007565e+00	 2.201310425258087e-01	 2.125129682611394e+01
 1.144704485605409e+00	 2.303489655365222e-01	 2.115620846691947e+01
 1.142598874093383e+00	 2.405760991036838e-01	 2.105665448181108e+01
 1.140395914375427e+00	 2.508111749045097e-01	 2.095266699384743e+01
 1.138095120561916e+00	 2.610529089356778e-01	 2.084426711678306e+01
 1.135696027452518e+00	 2.713000018693528e-01	 2.073146450717668e+01
 1.133198191013039e+00	 2.815511394250055e-01	 2.061425690444154e+01
 1.130601188845688e+00	 2.918049927569740e-01	 2.049262966047304e+01
 1.127904620652233e+00	 3.020602188576901e-01	 2.036655526074484e+01
 1.159136864354258e+00	 2.012372650903192e-01	 2.116801418200813e+01
 1.157306452922046e+00	 2.115100809470052e-01	 2.108639916702693e+01
 1.155379546441417e+00	 2.217946840330171e-01	 2.100036821395345e+01
 1.153355595754176e+00	 2.320898290506393e-01	 2.090997126041762e+01
 1.151234071072297e+00	 2.423942542335403e-01	 2.081524822477513e+01
 1.149014462474888e+00	 2.527066816735781e-01	 2.071622857816868e+01
 1.146696280400205e+00	 2.630258176635662e-01	 2.061293089976814e+01
 1.144279056132160e+00	 2.733503530559895e-01	 2.050536241632101e+01
 1.141762342280760e+00	 2.836789636376347e-01	 2.039351852740419e+01
 1.139145713255937e+00	 2.940103105200784e-01	 2.027738231803090e+01
 1.136428765734195e+00	 3.043430405459637e-01	 2.015692406053787e+01
 1.051187713452026e+00	 2.815149303800232e-01	 2.262525600109465e+01
 1.048581412613244e+00	 2.910726398417731e-01	 2.243064879834023e+01
 1.045881636661798e+00	 3.006290881733392e-01	 2.223112537134336e+01
 1.043088078209732e+00	 3.101829873646860e-01	 2.202662302251384e+01
 1.040200452118341e+00	 3.197330378908551e-01	 2.181706735960277e+01
 1.037218495887461e+00	 3.292779291590120e-01	 2.160237208589189e+01
 1.034141970034960e+00	 3.388163399692082e-01	 2.138243880711698e+01
 1.030970658465916e+00	 3.483469389886462e-01	 2.115715685752349e+01
 1.027704368830951e+00	 3.578683852392130e-01	 2.092640314756608e+01
 1.024342932873230e+00	 3.673793285980262e-01	 2.069004203586985e+01
 1.020886206763610e+00	 3.768784103107179e-01	 2.044792522816384e+01
 1.059711749841981e+00	 2.837977229609758e-01	 2.233359904988934e+01
 1.057084314620796e+00	 2.934329354814531e-01	 2.214769789729927e+01
 1.054362646301285e+00	 3.030668766452962e-01	 2.195713210550567e+01
 1.051546435002888e+00	 3.126982479980471e-01	 2.176182445246771e+01
 1.048635393274711e+00	 3.223257394769500e-01	 2.156168550971122e+01
 1.045629256487975e+00	 3.319480298616244e-01	 2.135661342135328e+01
 1.042527783218591e+00	 3.415637872385635e-01	 2.114649369963791e+01
 1.039330755619318e+00	 3.511716694792438e-01	 2.093119903948818e+01
 1.036037979781014e+00	 3.607703247316135e-01	 2.071058915470432e+01
 1.032649286082447e+00	 3.703583919246967e-01	 2.048451063855090e+01
 1.029164529528158e+00	 3.799345012860394e-01	 2.025279685158000e+01
 1.068235807970332e+00	 2.860805213640624e-01	 2.205368742586870e+01
 1.065587238312894e+00	 2.957932371409369e-01	 2.187604145290661e+01
 1.062843677569518e+00	 3.055046713346897e-01	 2.169396998419915e+01
 1.060004813367034e+00	 3.152135150464138e-01	 2.150738487960571e+01
 1.057070355942356e+00	 3.249184476755314e-01	 2.131618520998362e+01
 1.054040038538092e+00	 3.346181373740901e-01	 2.112025701825192e+01
 1.050913617788186e+00	 3.443112415149979e-01	 2.091947309667483e+01
 1.047690874093082e+00	 3.539964071739803e-01	 2.071369278299105e+01
 1.044371611983876e+00	 3.636722716250192e-01	 2.050276177815047e+01
 1.040955660474934e+00	 3.733374628490190e-01	 2.028651198854142e+01
 1.037442873404483e+00	 3.829906000554127e-01	 2.006476139570591e+01
 1.076759885421701e+00	 2.883633249422864e-01	 2.178481589316624e+01
 1.074090181280135e+00	 2.981535441512704e-01	 2.161500633990676e+01
 1.071324728063283e+00	 3.079424715506127e-01	 2.144099533585947e+01
 1.068463210905362e+00	 3.177287877969357e-01	 2.126268736615911e+01
 1.065505337731094e+00	 3.275111617518153e-01	 2.107997347545187e+01
 1.062450839654468e+00	 3.372882509397047e-01	 2.089273100422439e+01
 1.059299471367465e+00	 3.470587020199035e-01	 2.070082334098955e+01
 1.056051011518212e+00	 3.568211512723621e-01	 2.050409969308967e+01
 1.052705263078036e+00	 3.665742250970736e-01	 2.030239487902247e+01
 1.049262053696909e+00	 3.763165405267977e-01	 2.009552914532988e+01
 1.045721236046741e+00	 3.860467057528314e-01	 1.988330801121251e+01
 1.085283979780712e+00	 2.906461330486506e-01	 2.152630100837338e+01
 1.082593141113114e+00	 3.005138558434994e-01	 2.136393990024812e+01
 1.079805795379363e+00	 3.103802766021593e-01	 2.119758370314745e+01
 1.076921625221063e+00	 3.202440655367617e-01	 2.102713301092973e+01
 1.073940336250740e+00	 3.301038809710174e-01	 2.085247425842475e+01
 1.070861657453763e+00	 3.399583698017635e-01	 2.067347942627456e+01
 1.067685341580148e+00	 3.498061679746717e-01	 2.049000576119187e+01
 1.064411165525704e+00	 3.596459009738958e-01	 2.030189551454381e+01
 1.061038930701994e+00	 3.694761843254195e-01	 2.010897570232667e+01
 1.057568463394589e+00	 3.792956241138375e-01	 1.991105788974099e+01
 1.053999615109085e+00	 3.891028175122886e-01	 1.970793800371205e+01
 1.093808088631989e+00	 2.929289450361586e-01	 2.127748009211373e+01
 1.091096115402428e+00	 3.028741715486697e-01	 2.112220895108599e+01
 1.088286877114546e+00	 3.128180857984232e-01	 2.096312888415520e+01
 1.085380053917330e+00	 3.227593475530421e-01	 2.080014002038353e+01
 1.082375349111109e+00	 3.326966045983535e-01	 2.063312754606801e+01
 1.079272489552634e+00	 3.426284932035625e-01	 2.046196137135473e+01
 1.076071226049955e+00	 3.525536386006939e-01	 2.028649581175165e+01
 1.072771333746560e+00	 3.624706554780879e-01	 2.010656928760862e+01
 1.069372612494248e+00	 3.723781484877003e-01	 1.992200404480285e+01
 1.065874887214190e+00	 3.822747127659428e-01	 1.973260590002588e+01
 1.062278008245671e+00	 3.921589344677780e-01	 1.953816401421260e+01
 1.102332209560157e+00	 2.952117602578134e-01	 2.103771024430405e+01
 1.099599101738671e+00	 3.052344905978273e-01	 2.088919883452667e+01
 1.096767970865613e+00	 3.152558984484984e-01	 2.073704201355116e+01
 1.093838494597351e+00	 3.252746331329259e-01	 2.058114281803178e+01
 1.090810373922018e+00	 3.352893318990401e-01	 2.042138849477298e+01
 1.087683333567742e+00	 3.452986203883973e-01	 2.025765012239204e+01
 1.084457122400605e+00	 3.553011131193616e-01	 2.008978224727601e+01
 1.081131513811779e+00	 3.652954139844449e-01	 1.991762253707743e+01
 1.077706306093297e+00	 3.752801167615593e-01	 1.974099145517338e+01
 1.074181322801931e+00	 3.852538056389181e-01	 1.955969195968530e+01
 1.070556413110653e+00	 3.952150557532932e-01	 1.937350923081145e+01
 1.110856340149837e+00	 2.974945780666181e-01	 2.080636740075764e+01
 1.108102097712440e+00	 3.075948123220183e-01	 2.066431250687461e+01
 1.105249074229351e+00	 3.176937138614783e-01	 2.051875068152493e+01
 1.102296944864320e+00	 3.277899215635631e-01	 2.036959119004714e+01
 1.099245408293281e+00	 3.378820621382923e-01	 2.021672659934082e+01
 1.096094187115743e+00	 3.479687505995634e-01	 2.006003234786097e+01
 1.092843028255819e+00	 3.580485907520670e-01	 1.989936632921471e+01
 1.089491703352362e+00	 3.681201756924732e-01	 1.973456849279237e+01
 1.086040009137640e+00	 3.781820883246395e-01	 1.956546046505981e+01
 1.082487767804028e+00	 3.882329018885685e-01	 1.939184519532404e+01
 1.078834827358186e+00	 3.982711805028277e-01	 1.921350662995319e+01
 1.119380477985655e+00	 2.997773978155760e-01	 2.058284542893094e+01
 1.116605100914329e+00	 3.099551360522884e-01	 2.044696966527920e+01
 1.113730184802543e+00	 3.201315313464569e-01	 2.030769808851821e+01
 1.110755402321427e+00	 3.303052121321027e-01	 2.016494946518675e+01
 1.107680449834716e+00	 3.404747945813266e-01	 2.001862489513024e+01
 1.104505047813296e+00	 3.506388830803566e-01	 1.986860732311634e+01
 1.101228941239316e+00	 3.607960707202009e-01	 1.971476106326830e+01
 1.097851899999308e+00	 3.709449398016796e-01	 1.955693133994855e+01
 1.094373719265776e+00	 3.810840623545844e-01	 1.939494384893638e+01
 1.090794219866699e+00	 3.912120006706980e-01	 1.922860434294165e+01
 1.087113248642424e+00	 4.013273078503746e-01	 1.905769824568064e+01
 1.127904620652233e+00	 3.020602188576901e-01	 2.036655526074484e+01
 1.125108108934936e+00	 3.123154611196834e-01	 2.023660590980737e+01
 1.122211300181975e+00	 3.225693502125279e-01	 2.010334223385351e+01
 1.119213864571863e+00	 3.328205041256945e-01	 1.996669572721026e+01
 1.116115496156136e+00	 3.430675284933584e-01	 1.982657919142834e+01
 1.112915913277059e+00	 3.533090170740725e-01	 1.968288618181119e+01
 1.109614858974815e+00	 3.635435522451554e-01	 1.953549046587982e+01
 1.106212101383617e+00	 3.737697055115701e-01	 1.938424549762030e+01
 1.102707434116205e+00	 3.839860380290369e-01	 1.922898391158805e+01
 1.099100676636162e+00	 3.941911011411116e-01	 1.906951704115748e+01
 1.095391674617524e+00	 4.043834369299280e-01	 1.890563446540252e+01
 1.136428765734195e+00	 3.043430405459637e-01	 2.015692406053788e+01
 1.133611119364855e+00	 3.146757868552493e-01	 2.003267193908400e+01
 1.130692417964432e+00	 3.250071697687851e-01	 1.990515513648330e+01
 1.127672329218821e+00	 3.353357968314881e-01	 1.977432105809083e+01
 1.124550544867360e+00	 3.456602631396041e-01	 1.964009733440910e+01
 1.121326781123693e+00	 3.559791518240068e-01	 1.950239119582298e+01
 1.118000779086037e+00	 3.662910345483221e-01	 1.936108885828549e+01
 1.114572305136289e+00	 3.765944720216516e-01	 1.921605492403076e+01
 1.111041151327425e+00	 3.868880145256406e-01	 1.906713180163306e+01
 1.107407135758632e+00	 3.971702024556138e-01	 1.891413914996092e+01
 1.103670102937638e+00	 4.074395668754809e-01	 1.875687335078926e+01
 1.020886206763610e+00	 3.768784103107179e-01	 2.044792522816384e+01
 1.017333459291891e+00	 3.863658749320800e-01	 2.020142931949655e+01
 1.013685175392733e+00	 3.958387309664232e-01	 1.995200537110163e+01
 1.009941285687257e+00	 4.052955957919373e-01	 1.969947251876940e+01
 1.006101746455231e+00	 4.147350803073234e-01	 1.944363690940050e+01
 1.002166539904589e+00	 4.241557895045043e-01	 1.918429175241928e+01
 9.981356744262321e-01	 4.335563230520150e-01	 1.892121741483191e+01
 9.940091848336720e-01	 4.429352758886505e-01	 1.865418156291946e+01
 9.897871325870814e-01	 4.522912388269316e-01	 1.838293935352254e+01
 9.854696060013458e-01	 4.616227991659320e-01	 1.810723367781631e+01
 9.810567204377049e-01	 4.709285413129863e-01	 1.782679546039628e+01
 1.029164529528158e+00	 3.799345012860394e-01	 2.025279685158001e+01
 1.025582972978587e+00	 3.894988993535164e-01	 2.001681429483182e+01
 1.021905105300711e+00	 3.990485703735404e-01	 1.977800486054300e+01
 1.018130856553068e+00	 4.085821205126956e-01	 1.953617471402091e+01
 1.014260182660907e+00	 4.180981494055361e-01	 1.929111580304622e+01
 1.010293065687895e+00	 4.275952507319402e-01	 1.904260588292915e+01
 1.006229514092981e+00	 4.370720128052312e-01	 1.879040858699785e+01
 1.002069562971986e+00	 4.465270191706388e-01	 1.853427354572811e+01
 9.978132742834664e-01	 4.559588492136598e-01	 1.827393655768999e+01
 9.934607370584578e-01	 4.653660787778533e-01	 1.800911981543329e+01
 9.890120675936659e-01	 4.747472807915894e-01	 1.773953218935306e+01
 1.037442873404483e+00	 3.829906000554127e-01	 2.006476139570590e+01
 1.033832507703591e+00	 3.926319317651642e-01	 1.983886177348842e+01
 1.030125056171560e+00	 4.022584179667251e-01	 1.961023907468299e+01
 1.026320448304341e+00	 4.118686536150448e-01	 1.937868589941557e+01
 1.022418639672665e+00	 4.214612270805012e-01	 1.914397933869776e+01
 1.018419612195926e+00	 4.310347207308974e-01	 1.890588097163336e+01
 1.014323374401121e+00	 4.405877115243154e-01	 1.866413690991033e+01
 1.010129961666376e+00	 4.501187716123899e-01	 1.841847789301573e+01
 1.005839436448636e+00	 4.596264689535636e-01	 1.816861943757986e+01
 1.001451888495083e+00	 4.691093679358495e-01	 1.791426204420308e+01
 9.969674350378889e-01	 4.785660300086246e-01	 1.765509146503944e+01
 1.045721236046741e+00	 3.860467057528314e-01	 1.988330801121251e+01
 1.042082061129215e+00	 3.957649712792321e-01	 1.966706497548695e+01
 1.038345025675969e+00	 4.054682728364353e-01	 1.944820442099943e+01
 1.034510058620366e+00	 4.151551941677294e-01	 1.922650482478948e+01
 1.030577115178610e+00	 4.248243123792884e-01	 1.900172780103083e+01
 1.026546177125825e+00	 4.344741985268150e-01	 1.877361806880920e+01
 1.022417253057053e+00	 4.441034182131226e-01	 1.854190346910264e+01
 1.018190378632725e+00	 4.537105321962240e-01	 1.830629503463991e+01
 1.013865616808171e+00	 4.632940970074801e-01	 1.806648711628441e+01
 1.009443058046719e+00	 4.728526655793323e-01	 1.782215756953975e+01
 1.004922820516011e+00	 4.823847878821361e-01	 1.757296800469326e+01
 1.053999615109085e+00	 3.891028175122886e-01	 1.970793800371206e+01
 1.050331630917773e+00	 3.988980170079295e-01	 1.950092877275403e+01
 1.046565011484631e+00	 4.086781340731296e-01	 1.929140848483377e+01
 1.042699685180430e+00	 4.184417412394937e-01	 1.907914097303411e+01
 1.038735606866850e+00	 4.281874043489683e-01	 1.886387179242975e+01
 1.034672758174738e+00	 4.379136831451326e-01	 1.864532815676953e+01
 1.030511147767179e+00	 4.476191318755069e-01	 1.842321892633933e+01
 1.026250811586913e+00	 4.573022999044600e-01	 1.819723465092943e+01
 1.021891813087648e+00	 4.669617323362465e-01	 1.796704767180611e+01
 1.017434243448865e+00	 4.765959706477123e-01	 1.773231228653592e+01
 1.012878221773671e+00	 4.862035533301683e-01	 1.749266498043492e+01
 1.062278008245671e+00	 3.921589344677780e-01	 1.953816401421260e+01
 1.058581214731576e+00	 4.020310680634651e-01	 1.933996887137392e+01
 1.054785011268236e+00	 4.118880007672663e-01	 1.913936921225330e+01
 1.050889325663823e+00	 4.217282938990814e-01	 1.893611374241302e+01
 1.046894112425490e+00	 4.315505020366112e-01	 1.872993141363449e+01
 1.042799353039807e+00	 4.413531736112888e-01	 1.852053132774875e+01
 1.038605056237903e+00	 4.511348515153236e-01	 1.830760269368328e+01
 1.034311258244820e+00	 4.608940737194175e-01	 1.809081484190943e+01
 1.029918023012649e+00	 4.706293739006999e-01	 1.786981730045178e+01
 1.025425442437019e+00	 4.803392820804009e-01	 1.764423993657499e+01
 1.020833636556505e+00	 4.900223252707657e-01	 1.741369316818302e+01
 1.070556413110653e+00	 3.952150557532932e-01	 1.937350923081145e+01
 1.066830810232940e+00	 4.051641235580484e-01	 1.918371102470194e+01
 1.063005022697474e+00	 4.150978720093037e-01	 1.899161412345209e+01
 1.059078977749833e+00	 4.250148512152375e-01	 1.879695165914743e+01
 1.055052629542636e+00	 4.349136044892867e-01	 1.859943547443887e+01
 1.050925959418177e+00	 4.447926689507231e-01	 1.839875599167287e+01
 1.046698976175627e+00	 4.546505761364262e-01	 1.819458213732950e+01
 1.042371716322328e+00	 4.644858526234160e-01	 1.798656132622344e+01
 1.037944244308755e+00	 4.742970206616781e-01	 1.777431950990416e+01
 1.033416652746681e+00	 4.840825988168092e-01	 1.755746129364623e+01
 1.028789062610151e+00	 4.938411026219722e-01	 1.733557012634353e+01
 1.078834827358186e+00	 3.982711805028277e-01	 1.921350662995320e+01
 1.075080415084176e+00	 4.082971826038884e-01	 1.903169027568613e+01
 1.071225043443037e+00	 4.183077468896999e-01	 1.884767955505466e+01
 1.067268639117747e+00	 4.283014122567055e-01	 1.866119161864927e+01
 1.063211155906394e+00	 4.382767107540651e-01	 1.847192073282967e+01
 1.059052575006993e+00	 4.482321681888744e-01	 1.827953811221237e+01
 1.054792905286752e+00	 4.581663047426702e-01	 1.808369180961056e+01
 1.050432183535317e+00	 4.680776355987747e-01	 1.788400666816390e+01
 1.045970474701542e+00	 4.779646715800179e-01	 1.768008434038063e+01
 1.041407872113348e+00	 4.878259197963483e-01	 1.747150337877135e+01
 1.036744497680246e+00	 4.976598843018319e-01	 1.725781940267768e+01
 1.087113248642424e+00	 4.013273078503746e-01	 1.905769824568064e+01
 1.083330026947597e+00	 4.114302443131942e-01	 1.888345022684518e+01
 1.079445071175615e+00	 4.215176244989133e-01	 1.870710992978726e+01
 1.075458307446855e+00	 4.315879760922303e-01	 1.852837815387996e+01
 1.071369689204871e+00	 4.416398198780166e-01	 1.834693116105648e+01
 1.067179197503398e+00	 4.516716703511819e-01	 1.816242046961601e+01
 1.062886841277681e+00	 4.616820363379091e-01	 1.797447270767850e+01
 1.058492657599668e+00	 4.716694216278132e-01	 1.778268953131673e+01
 1.053996711916591e+00	 4.816323256165564e-01	 1.758664761238886e+01
 1.049399098272520e+00	 4.915692439584290e-01	 1.738589870105082e+01
 1.044699939512429e+00	 5.014786692283897e-01	 1.717996976785338e+01
 1.095391674617524e+00	 4.043834369299280e-01	 1.890563446540251e+01
 1.091579643485516e+00	 4.145633077981749e-01	 1.873854233644340e+01
 1.087665103565899e+00	 4.247275039274023e-01	 1.856945705207217e+01
 1.083647980416445e+00	 4.348745417905558e-01	 1.839806272940402e+01
 1.079528227126172e+00	 4.450029309082112e-01	 1.822401723721135e+01
 1.075305824604536e+00	 4.551111744630849e-01	 1.804695194891347e+01
 1.070980781854817e+00	 4.651977699259983e-01	 1.786647155745619e+01
 1.066553136231262e+00	 4.752612096928513e-01	 1.768215395741805e+01
 1.062022953679483e+00	 4.852999817321313e-01	 1.749355019967649e+01
 1.057390328959694e+00	 4.953125702424627e-01	 1.730018452392667e+01
 1.052655385852337e+00	 5.052974563196895e-01	 1.710155447427361e+01
 1.103670102937638e+00	 4.074395668754809e-01	 1.875687335078926e+01
 1.099829262360247e+00	 4.176963721710397e-01	 1.859652523949140e+01
 1.095885138284579e+00	 4.279373842656255e-01	 1.843427942818953e+01
 1.091837655705804e+00	 4.381611084204264e-01	 1.826980305979277e+01
 1.087686767358405e+00	 4.483660428917192e-01	 1.810273526098465e+01
 1.083432454007551e+00	 4.585506795500225e-01	 1.793268685215963e+01
 1.079074724724561e+00	 4.687135045107917e-01	 1.775924012153638e+01
 1.074613617145979e+00	 4.788529987762081e-01	 1.758194866910411e+01
 1.070049197715797e+00	 4.889676388875796e-01	 1.740033732605781e+01
 1.065381561910370e+00	 4.990558975878605e-01	 1.721390215534346e+01
 1.060610834445606e+00	 5.091162444937753e-01	 1.702211053886043e+01
 9.810567204377049e-01	 4.709285413129863e-01	 1.782679546039628e+01
 9.765493927391889e-01	 4.802054725542235e-01	 1.754394951759158e+01
 9.719470501989695e-01	 4.894537577567515e-01	 1.726093211312916e+01
 9.672498895077370e-01	 4.986719766757557e-01	 1.697747176996034e+01
 9.624581349827819e-01	 5.078587087228539e-01	 1.669329067332820e+01
 9.575720386728110e-01	 5.170125336241197e-01	 1.640810524525110e+01
 9.525918804443397e-01	 5.261320320837842e-01	 1.612162678101153e+01
 9.475179680493709e-01	 5.352157864530170e-01	 1.583356214923889e+01
 9.423506371741205e-01	 5.442623814031888e-01	 1.554361455692516e+01
 9.370902514685465e-01	 5.532704046029900e-01	 1.525148438043272e+01
 9.317372025564836e-01	 5.622384473987843e-01	 1.495687006326127e+01
 9.890120675936659e-01	 4.747472807915894e-01	 1.773953218935307e+01
 9.844681901667695e-01	 4.840994382732193e-01	 1.746753507526433e+01
 9.798285274268862e-01	 4.934227174267359e-01	 1.719540348116774e+01
 9.750932776596671e-01	 5.027156864906005e-01	 1.692283956321402e+01
 9.702626670013819e-01	 5.119769133569180e-01	 1.664953778379223e+01
 9.653369495445935e-01	 5.212049662348005e-01	 1.637518548719154e+01
 9.603164074252435e-01	 5.303984143194491e-01	 1.609946354111438e+01
 9.552013508908868e-01	 5.395558284663584e-01	 1.582204704581651e+01
 9.499921183498045e-01	 5.486757818700373e-01	 1.554260611238218e+01
 9.446890764007800e-01	 5.577568507466210e-01	 1.526080671135907e+01
 9.392926198433109e-01	 5.667976150197382e-01	 1.497631159266302e+01
 9.969674350378889e-01	 4.785660300086246e-01	 1.765509146503943e+01
 9.923870077893991e-01	 4.879934139223986e-01	 1.739350699738515e+01
 9.877100247546671e-01	 4.973916872180565e-01	 1.713182470647700e+01
 9.829366858143073e-01	 5.067594066173066e-01	 1.686972116493995e+01
 9.780672189235764e-01	 5.160951284927164e-01	 1.660686415230060e+01
 9.731018802188975e-01	 5.253974095364095e-01	 1.634291323214612e+01
 9.680409541056478e-01	 5.346648074345296e-01	 1.607752039869562e+01
 9.628847533269373e-01	 5.438958815468701e-01	 1.581033079474442e+01
 9.576336190131246e-01	 5.530891935910521e-01	 1.554098350266777e+01
 9.522879207118242e-01	 5.622433083306284e-01	 1.526911240987235e+01
 9.468480563982066e-01	 5.713567942664680e-01	 1.499434714975680e+01
 1.004922820516011e+00	 4.823847878821361e-01	 1.757296800469326e+01
 1.000305843363073e+00	 4.918873983985056e-01	 1.732136046639113e+01
 9.955915399488828e-01	 5.013606660062216e-01	 1.706969789319004e+01
 9.907801117490235e-01	 5.108031359102169e-01	 1.681763206432862e+01
 9.858717885377440e-01	 5.202133529634974e-01	 1.656480511796245e+01
 9.808668284953328e-01	 5.295898623411743e-01	 1.631085013002875e+01
 9.757655182966073e-01	 5.389312102203117e-01	 1.605539176580270e+01
 9.705681731802422e-01	 5.482359444649770e-01	 1.579804700629606e+01
 9.652751369986770e-01	 5.575026153158812e-01	 1.553842595136502e+01
 9.598867822483672e-01	 5.667297760839710e-01	 1.527613270108470e+01
 9.544035100801627e-01	 5.759159838473319e-01	 1.501076631660856e+01
 1.012878221773671e+00	 4.862035533301683e-01	 1.749266498043492e+01
 1.008224694643785e+00	 4.957813905982835e-01	 1.725059880593475e+01
 1.003473070776104e+00	 5.053296526667397e-01	 1.700853278533270e+01
 9.986235532411808e-01	 5.148468732236733e-01	 1.676609470256343e+01
 9.936763736322627e-01	 5.243315856025080e-01	 1.652290209861316e+01
 9.886317921735073e-01	 5.337823234613228e-01	 1.627856285218582e+01
 9.834900978091781e-01	 5.431976214680809e-01	 1.603267583606394e+01
 9.782516082735184e-01	 5.525760159911044e-01	 1.578483165151044e+01
 9.729166701410578e-01	 5.619160457941728e-01	 1.553461344276382e+01
 9.674856588570963e-01	 5.712162527356066e-01	 1.528159779335611e+01
 9.619589787481722e-01	 5.804751824706879e-01	 1.502535570563637e+01
 1.020833636556505e+00	 4.900223252707657e-01	 1.741369316818302e+01
 1.016143559387530e+00	 4.996753894184763e-01	 1.718073262549123e+01
 1.011354615002900e+00	 5.092986460751195e-01	 1.694784591478610e+01
 1.006467008068146e+00	 5.188906174120183e-01	 1.671463763180055e+01
 1.001480971995511e+00	 5.284498252429963e-01	 1.648070176846660e+01
 9.963967690530297e-01	 5.379747917090832e-01	 1.624562229536266e+01
 9.912146904544151e-01	 5.474640399691240e-01	 1.600897382259026e+01
 9.859350564294850e-01	 5.569160948956771e-01	 1.577032234162662e+01
 9.805582162748619e-01	 5.663294837755743e-01	 1.552922605039397e+01
 9.750845483846996e-01	 5.757027370144935e-01	 1.528523626345531e+01
 9.695144602612272e-01	 5.850343888448946e-01	 1.503789840888614e+01
 1.028789062610151e+00	 4.938411026219722e-01	 1.733557012634353e+01
 1.024062435350302e+00	 5.035693937558273e-01	 1.711127899465577e+01
 1.019236170395844e+00	 5.132676451068693e-01	 1.688715977850500e+01
 1.014310474007282e+00	 5.229343673295935e-01	 1.666279470262034e+01
 1.009285581415867e+00	 5.325680707182097e-01	 1.643775526310374e+01
 1.004161756933508e+00	 5.421672658966828e-01	 1.621160281152155e+01
 9.989392940433742e-01	 5.517304645147258e-01	 1.598388921989843e+01
 9.936185154708608e-01	 5.612561799491205e-01	 1.575415762936321e+01
 9.881997732346863e-01	 5.707429280097348e-01	 1.552194328488349e+01
 9.826834486778641e-01	 5.801892276495898e-01	 1.528677445818365e+01
 9.770699524783206e-01	 5.895936016783100e-01	 1.504815934015180e+01
 1.036744497680246e+00	 4.976598843018319e-01	 1.725781940267768e+01
 1.031981320288096e+00	 5.074634025070800e-01	 1.704176064554210e+01
 1.027117734721504e+00	 5.172366486374980e-01	 1.682600204342686e+01
 1.022153948835957e+00	 5.269781218307419e-01	 1.661010427842646e+01
 1.017090199681709e+00	 5.366863208613959e-01	 1.639361741033591e+01
 1.011926753614553e+00	 5.463597448363501e-01	 1.617608146213174e+01
 1.006663906387111e+00	 5.559968938961732e-01	 1.595702708857274e+01
 1.001301983220362e+00	 5.655962699218591e-01	 1.573597633087605e+01
 9.958413388551272e-01	 5.751563772463020e-01	 1.551244346010934e+01
 9.902823575832775e-01	 5.846757233698533e-01	 1.528593591158302e+01
 9.846254532584435e-01	 5.941528196792929e-01	 1.505561424146850e+01
 1.044699939512429e+00	 5.014786692283897e-01	 1.717996976785337e+01
 1.039900211956906e+00	 5.113574145689785e-01	 1.697170520179009e+01
 1.034999305746452e+00	 5.212056555425141e-01	 1.676390477760133e+01
 1.029997430331535e+00	 5.310218797698053e-01	 1.655610847536251e+01
 1.024894824581416e+00	 5.408045745058023e-01	 1.634784598556811e+01
 1.019691756895771e+00	 5.505522273403123e-01	 1.613863729562994e+01
 1.014388525296681e+00	 5.602633269047520e-01	 1.592799336145798e+01
 1.008985457500709e+00	 5.699363635843182e-01	 1.571541686729806e+01
 1.003482910970780e+00	 5.795698302349235e-01	 1.550040307667208e+01
 9.978812729476279e-01	 5.891622229042426e-01	 1.528242840598128e+01
 9.921809604605897e-01	 5.987120415562009e-01	 1.505969556022556e+01
 1.052655385852337e+00	 5.052974563196895e-01	 1.710155447427361e+01
 1.047819108112727e+00	 5.152514288382660e-01	 1.690064443278064e+01
 1.042880881237259e+00	 5.251746646974262e-01	 1.670040370615919e+01
 1.037840916271382e+00	 5.350656400011260e-01	 1.650035242640217e+01
 1.032699453903367e+00	 5.449228304846773e-01	 1.630000099037482e+01
 1.027456764576772e+00	 5.547447122207979e-01	 1.609885064683462e+01
 1.022113148583140e+00	 5.645297623317480e-01	 1.589639417025238e+01
 1.016668936134619e+00	 5.742764597069229e-01	 1.569211662483154e+01
 1.011124487416240e+00	 5.839832857252477e-01	 1.548549622178542e+01
 1.005480192617603e+00	 5.936487249817158e-01	 1.527553836366756e+01
 9.997364719437505e-01	 6.032712660173928e-01	 1.505988659538342e+01
 1.060610834445606e+00	 5.091162444937753e-01	 1.702211053886042e+01
 1.055738006511554e+00	 5.191454442116863e-01	 1.682811353174055e+01
 1.050762458960495e+00	 5.291436749777426e-01	 1.663503749082231e+01
 1.045684404432864e+00	 5.391094013790461e-01	 1.644238356835031e+01
 1.040504085435939e+00	 5.490410876312676e-01	 1.624964395307319e+01
 1.035221774457164e+00	 5.589371982900342e-01	 1.605630245716598e+01
 1.029837774057543e+00	 5.687961989684474e-01	 1.586183519143453e+01
 1.024352416944811e+00	 5.786165570600982e-01	 1.566571133242526e+01
 1.018766066026104e+00	 5.883967424669228e-01	 1.546739326668269e+01
 1.013079114439890e+00	 5.981352283312306e-01	 1.526456747677980e+01
 1.007291985566919e+00	 6.078304917712264e-01	 1.505567159742995e+01
 9.317372025564836e-01	 5.622384473987843e-01	 1.495687006326128e+01
 9.262919102513079e-01	 5.711651056755117e-01	 1.466067485251561e+01
 9.207548231981949e-01	 5.800489810864823e-01	 1.436373149937934e+01
 9.151264181422006e-01	 5.888886812246268e-01	 1.406563859641604e+01
 9.094071996317424e-01	 5.976828201333920e-01	 1.376721149273716e+01
 9.035976999280246e-01	 6.064300189927078e-01	 1.346952046674936e+01
 8.976984788943334e-01	 6.151289068041607e-01	 1.317297087208226e+01
 8.917101238651709e-01	 6.237781210747034e-01	 1.287798894269262e+01
 8.856332494952078e-01	 6.323763084981971e-01	 1.258502101950557e+01
 8.794684975880961e-01	 6.409221256341138e-01	 1.229453269525832e+01
 8.732165369051681e-01	 6.494142395826942e-01	 1.200700787852431e+01
 9.392926198433109e-01	 5.667976150197382e-01	 1.497631159266302e+01
 9.338031718950223e-01	 5.757966591884043e-01	 1.469001517613077e+01
 9.282211848391264e-01	 5.847525735667986e-01	 1.440275368636615e+01
 9.225471392865777e-01	 5.936639544568921e-01	 1.411438832691083e+01
 9.167815438771442e-01	 6.025294046634778e-01	 1.382596683610419e+01
 9.109249351881055e-01	 6.113475341857021e-01	 1.353797901086422e+01
 9.049778776226468e-01	 6.201169609077936e-01	 1.325084392681170e+01
 8.989409632779298e-01	 6.288363112883151e-01	 1.296500324652628e+01
 8.928148117928265e-01	 6.375042210472364e-01	 1.268092042527078e+01
 8.866000701753368e-01	 6.461193358501363e-01	 1.239907982944170e+01
 8.802974126097415e-01	 6.546803119888378e-01	 1.211998576869519e+01
 9.468480563982066e-01	 5.713567942664680e-01	 1.499434714975681e+01
 9.413144526941549e-01	 5.804282245116329e-01	 1.471759157215102e+01
 9.356875655209295e-01	 5.894561780411436e-01	 1.443971067672689e+01
 9.299678793553906e-01	 5.984392398659800e-01	 1.416098845105027e+01
 9.241559069286706e-01	 6.073760015522522e-01	 1.388203729793477e+01
 9.182521891341346e-01	 6.162650619182919e-01	 1.360326509255400e+01
 9.122572949148786e-01	 6.251050277309402e-01	 1.332510448063667e+01
 9.061718211307390e-01	 6.338945144003422e-01	 1.304801215561325e+01
 8.999963924047992e-01	 6.426321466725445e-01	 1.277246804278176e+01
 8.937316609494236e-01	 6.513165593192054e-01	 1.249897439090782e+01
 8.873783063718548e-01	 6.599463978237008e-01	 1.222805477218178e+01
 9.544035100801627e-01	 5.759159838473319e-01	 1.501076631660856e+01
 9.488257505202146e-01	 5.850598003330492e-01	 1.474325243191819e+01
 9.431539631278391e-01	 5.941597931769582e-01	 1.447458728068909e+01
 9.373886362458128e-01	 6.032145360990208e-01	 1.420506108591174e+01
 9.315302866966412e-01	 6.122226094266370e-01	 1.393508108099520e+01
 9.255794596897862e-01	 6.211826007972977e-01	 1.366506732028977e+01
 9.195367287082652e-01	 6.300931058604298e-01	 1.339546586614290e+01
 9.134026953745993e-01	 6.389527289777324e-01	 1.312674804895919e+01
 9.071779892960974e-01	 6.477600839213058e-01	 1.285940962921674e+01
 9.008632678894988e-01	 6.565137945688587e-01	 1.259396986180197e+01
 8.944592161850218e-01	 6.652124955952957e-01	 1.233097046355733e+01
 9.619589787481722e-01	 5.804751824706879e-01	 1.502535570563637e+01
 9.563370632447112e-01	 5.896913853405049e-01	 1.476683905067689e+01
 9.506203755440933e-01	 5.988634176416837e-01	 1.450705517098598e+01
 9.448094078550190e-01	 6.079898418031447e-01	 1.424622438342278e+01
 9.389046810913775e-01	 6.170692269135547e-01	 1.398475133371738e+01
 9.329067447787349e-01	 6.261001494295396e-01	 1.372306833379722e+01
 9.268161769400405e-01	 6.350811938830888e-01	 1.346163470675383e+01
 9.206335839605109e-01	 6.440109535874334e-01	 1.320093602911314e+01
 9.143596004316896e-01	 6.528880313407018e-01	 1.294148327016681e+01
 9.079948889747038e-01	 6.617110401266333e-01	 1.268381182866857e+01
 9.015401400427564e-01	 6.704786038116352e-01	 1.242848046776271e+01
 9.695144602612272e-01	 5.850343888448946e-01	 1.503789840888614e+01
 9.638483887391534e-01	 5.943229782218515e-01	 1.478807043132500e+01
 9.580868006539277e-01	 6.035670501027610e-01	 1.453668951430043e+01
 9.522301920801836e-01	 6.127651556254826e-01	 1.428409279899508e+01
 9.462790880231997e-01	 6.219158526399278e-01	 1.403069647077875e+01
 9.402340423246559e-01	 6.310177064218385e-01	 1.377694516913442e+01
 9.340956375474405e-01	 6.400692903857459e-01	 1.352331131885990e+01
 9.278644848394750e-01	 6.490691867963930e-01	 1.327029435391399e+01
 9.215412237765471e-01	 6.580159874779166e-01	 1.301841983358007e+01
 9.151265221841793e-01	 6.669082945200655e-01	 1.276823845119531e+01
 9.086210759385727e-01	 6.757447209807316e-01	 1.252032493628041e+01
 9.770699524783206e-01	 5.895936016783100e-01	 1.504815934015180e+01
 9.713597248750498e-01	 5.989545776649403e-01	 1.480649000014446e+01
 9.655532363415797e-01	 6.082706892276318e-01	 1.456306320246146e+01
 9.596509868184813e-01	 6.175404762131644e-01	 1.431827736477932e+01
 9.536535054024289e-01	 6.267624852326784e-01	 1.407256049608886e+01
 9.475613502512236e-01	 6.359352703810148e-01	 1.382636962428975e+01
 9.413751084677006e-01	 6.450573939552287e-01	 1.358019011291282e+01
 9.350953959624921e-01	 6.541274271715577e-01	 1.333453486597371e+01
 9.287228572956394e-01	 6.631439508801323e-01	 1.308994342054287e+01
 9.222581654970682e-01	 6.721055562766924e-01	 1.284698092722101e+01
 9.157020218659846e-01	 6.810108456105990e-01	 1.260623701932624e+01
 9.846254532584435e-01	 5.941528196792929e-01	 1.505561424146850e+01
 9.788710695239099e-01	 6.035861823576232e-01	 1.482162655131973e+01
 9.730196804912862e-01	 6.129743336837368e-01	 1.458574707563374e+01
 9.670717899670859e-01	 6.223158022133204e-01	 1.434838596729403e+01
 9.610279311393856e-01	 6.316091233187291e-01	 1.410998332805179e+01
 9.548886664821129e-01	 6.408528399138887e-01	 1.387100862527142e+01
 9.486545876380552e-01	 6.500455031783643e-01	 1.363195999353831e+01
 9.423263152805632e-01	 6.591856732798763e-01	 1.339336342001897e+01
 9.359044989539360e-01	 6.682719200945320e-01	 1.315577181306763e+01
 9.293898168925112e-01	 6.773028239240513e-01	 1.291976395420922e+01
 9.227829758185061e-01	 6.862769762092492e-01	 1.268594333427043e+01
 9.921809604605897e-01	 5.987120415562009e-01	 1.505969556022556e+01
 9.863824205572431e-01	 6.082177909877514e-01	 1.483300824700929e+01
 9.804861309872833e-01	 6.176779821385172e-01	 1.460431015192831e+01
 9.744925994231712e-01	 6.270911322730811e-01	 1.437402362919241e+01
 9.684023631443909e-01	 6.364557655250026e-01	 1.414260112698164e+01
 9.622159889409980e-01	 6.457704136272805e-01	 1.391052459266100e+01
 9.559340729957395e-01	 6.550336166419815e-01	 1.367830475871901e+01
 9.495572407446884e-01	 6.642439236882957e-01	 1.344648030820164e+01
 9.430861467164074e-01	 6.733998936682984e-01	 1.321561691904487e+01
 9.365214743496496e-01	 6.825000959896784e-01	 1.298630618737113e+01
 9.298639357896512e-01	 6.915431112846954e-01	 1.275916443048719e+01
 9.997364719437505e-01	 6.032712660173928e-01	 1.505988659538342e+01
 9.938937758465578e-01	 6.128494022431766e-01	 1.484016279681859e+01
 9.879525857138084e-01	 6.223816332594143e-01	 1.461831986309188e+01
 9.819134130839129e-01	 6.318664650395769e-01	 1.439479279494777e+01
 9.757767993277645e-01	 6.413024104784206e-01	 1.417004662455609e+01
 9.695433155515549e-01	 6.506879901280113e-01	 1.394457580860432e+01
 9.632135624779894e-01	 6.600217329329074e-01	 1.371890349809381e+01
 9.567881703058686e-01	 6.693021769637632e-01	 1.349358068348554e+01
 9.502677985480233e-01	 6.785278701486148e-01	 1.326918521450705e+01
 9.436531358476259e-01	 6.876973710011113e-01	 1.304632069461541e+01
 9.369448997729339e-01	 6.968092493449503e-01	 1.282561525082017e+01
 1.007291985566919e+00	 6.078304917712264e-01	 1.505567159742995e+01
 1.001405133263364e+00	 6.174810148117503e-01	 1.484261764534565e+01
 9.954190425550976e-01	 6.270852857138690e-01	 1.462734229595406e+01
 9.893342288464844e-01	 6.366417991599383e-01	 1.441029362024939e+01
 9.831512375998286e-01	 6.461490568059063e-01	 1.419194945519839e+01
 9.768706442374566e-01	 6.556055680229007e-01	 1.397281678421431e+01
 9.704930540220390e-01	 6.650098506379701e-01	 1.375343099041792e+01
 9.640191019151049e-01	 6.743604316732268e-01	 1.353435498120679e+01
 9.574494524137537e-01	 6.836558480826636e-01	 1.331617818334295e+01
 9.507847993655814e-01	 6.928946474858871e-01	 1.309951540848668e+01
 9.440258657618684e-01	 7.020753888980267e-01	 1.288500558983724e+01
 8.732165369051681e-01	 6.494142395826942e-01	 1.200700787852431e+01
 8.668769786295907e-01	 6.578527574936988e-01	 1.172053172630273e+01
 8.604516036405305e-01	 6.662349165277870e-01	 1.143336926099739e+01
 8.539411642097845e-01	 6.745594139185001e-01	 1.114615014895315e+01
 8.473464386377192e-01	 6.828249600784643e-01	 1.085951450808431e+01
 8.406682309615092e-01	 6.910302792495726e-01	 1.057411153609069e+01
 8.339073706440876e-01	 6.991741101455530e-01	 1.029059807937390e+01
 8.270647122440257e-01	 7.072552065862484e-01	 1.000963714699363e+01
 8.201411350666138e-01	 7.152723381229559e-01	 9.731896374422263e+00
 8.131375427964318e-01	 7.232242906541624e-01	 9.458046442262148e+00
 8.060548631117155e-01	 7.311098670310472e-01	 9.188759455473225e+00
 8.802974126097415e-01	 6.546803119888378e-01	 1.211998576869519e+01
 8.739064471263016e-01	 6.631872574819838e-01	 1.184168341471351e+01
 8.674289690452558e-01	 6.716373870864926e-01	 1.156239054181379e+01
 8.608657367385442e-01	 6.800293874718312e-01	 1.128275213362049e+01
 8.542175348177374e-01	 6.883619585934222e-01	 1.100342407298234e+01
 8.474851738399164e-01	 6.966338143480947e-01	 1.072507172100060e+01
 8.406694899940959e-01	 7.048436832218645e-01	 1.044836843315490e+01
 8.337713447684271e-01	 7.129903089293578e-01	 1.017399401702104e+01
 8.267916245984525e-01	 7.210724510442200e-01	 9.902633136521430e+00
 8.197312404966919e-01	 7.290888856198445e-01	 9.634973668079649e+00
 8.125911276638866e-01	 7.370384057997872e-01	 9.371705014455783e+00
 8.873783063718548e-01	 6.599463978237008e-01	 1.222805477218177e+01
 8.809359335494392e-01	 6.685217710735557e-01	 1.195770322292197e+01
 8.744063522435255e-01	 6.770398714218879e-01	 1.168607764419304e+01
 8.677903269262099e-01	 6.854993749740654e-01	 1.141383466388598e+01
 8.610886485202849e-01	 6.938989712282767e-01	 1.114164223800518e+01
 8.543021341027531e-01	 7.022373637362607e-01	 1.087017818473235e+01
 8.474316265887262e-01	 7.105132707562937e-01	 1.060012865186726e+01
 8.404779943959537e-01	 7.187254258977580e-01	 1.033218652229241e+01
 8.334421310902458e-01	 7.268725787566198e-01	 1.006704976258168e+01
 8.263249550120824e-01	 7.349534955411549e-01	 9.805419720326565e+00
 8.191274088847291e-01	 7.429669596872678e-01	 9.547999376182698e+00
 8.944592161850218e-01	 6.652124955952957e-01	 1.233097046355733e+01
 8.879654359070920e-01	 6.738562967570239e-01	 1.206834567313496e+01
 8.813837512581991e-01	 6.824423680033102e-01	 1.180418342081100e+01
 8.747149328106094e-01	 6.909693748753963e-01	 1.153914839159219e+01
 8.679597777983509e-01	 6.994359964142149e-01	 1.127391701067499e+01
 8.611191098183604e-01	 7.078409258263885e-01	 1.100917593668809e+01
 8.541937785118618e-01	 7.161828711424306e-01	 1.074562048446775e+01
 8.471846592262180e-01	 7.244605558664553e-01	 1.048395298216150e+01
 8.400926526575229e-01	 7.326727196167279e-01	 1.022488106795268e+01
 8.329186844742319e-01	 7.408181187563810e-01	 9.969115932182705e+00
 8.256637049221497e-01	 7.488955270136476e-01	 9.717370511096865e+00
 9.015401400427564e-01	 6.704786038116352e-01	 1.242848046776271e+01
 8.949949522073473e-01	 6.791908330209985e-01	 1.217335737532581e+01
 8.883611641121361e-01	 6.878448753000952e-01	 1.191645286121986e+01
 8.816395524295698e-01	 6.964393856260184e-01	 1.165843616337070e+01
 8.748309207049226e-01	 7.049730325824228e-01	 1.139998865713858e+01
 8.679360990550784e-01	 7.134444990307952e-01	 1.114180231180880e+01
 8.609559438473861e-01	 7.218524827738645e-01	 1.088457807263742e+01
 8.538913373588338e-01	 7.301956972104570e-01	 1.062902417339113e+01
 8.467431874158123e-01	 7.384728719811159e-01	 1.037585438484715e+01
 8.395124270147665e-01	 7.466827536038118e-01	 1.012578620522501e+01
 8.322000139240548e-01	 7.548241060990848e-01	 9.879538999003064e+00
 9.086210759385727e-01	 6.757447209807316e-01	 1.252032493628040e+01
 9.020244804582942e-01	 6.845253783540910e-01	 1.227247750651633e+01
 8.953385888281969e-01	 6.932473917815792e-01	 1.202262357301242e+01
 8.885641838209184e-01	 7.019094056761254e-01	 1.177143350256421e+01
 8.817020752929885e-01	 7.105100781640873e-01	 1.151959018383228e+01
 8.747530998812489e-01	 7.190480817617987e-01	 1.126778745107530e+01
 8.677181206791826e-01	 7.275221040441857e-01	 1.101672842931961e+01
 8.605980268934147e-01	 7.359308483047705e-01	 1.076712380604306e+01
 8.533937334806440e-01	 7.442730342063565e-01	 1.051969003500769e+01
 8.461061807653150e-01	 7.525473984217358e-01	 1.027514747840959e+01
 8.387363340383519e-01	 7.607526952637379e-01	 1.003421849402016e+01
 9.157020218659846e-01	 6.810108456105990e-01	 1.260623701932624e+01
 9.090540186680200e-01	 6.898599312449109e-01	 1.236543828601364e+01
 9.023160234292411e-01	 6.986499159170990e-01	 1.212242625891486e+01
 8.954888250224818e-01	 7.073794334759109e-01	 1.187786908708895e+01
 8.885732396155370e-01	 7.160471315903951e-01	 1.163244781512780e+01
 8.815701103652125e-01	 7.246516724317157e-01	 1.138685477805515e+01
 8.744803070911354e-01	 7.331917333469848e-01	 1.114179191339136e+01
 8.673047259295744e-01	 7.416660075244027e-01	 1.089796899560069e+01
 8.600442889675458e-01	 7.500732046490217e-01	 1.065610179871766e+01
 8.526999438575039e-01	 7.584120515484403e-01	 1.041691019351446e+01
 8.452726634129473e-01	 7.666812928277663e-01	 1.018111618610783e+01
 9.227829758185061e-01	 6.862769762092492e-01	 1.268594333427043e+01
 9.160835648446138e-01	 6.951944901820696e-01	 1.245196544681525e+01
 9.092934659381288e-01	 7.040524461759905e-01	 1.221558519002590e+01
 9.024134740720878e-01	 7.128494674755695e-01	 1.197746522345333e+01
 8.954444117255564e-01	 7.215841912925324e-01	 1.173828146717387e+01
 8.883871285753105e-01	 7.302552694528643e-01	 1.149872147170739e+01
 8.812425011671274e-01	 7.388613690758504e-01	 1.125948270067255e+01
 8.740114325669264e-01	 7.474011732443607e-01	 1.102127073152680e+01
 8.666948519920474e-01	 7.558733816656835e-01	 1.078479738035031e+01
 8.592937144229610e-01	 7.642767113222140e-01	 1.055077875722778e+01
 8.518090001957481e-01	 7.726098971113272e-01	 1.031993325934760e+01
 9.298639357896512e-01	 6.915431112846954e-01	 1.275916443048719e+01
 9.231131169961629e-01	 7.005290536541761e-01	 1.253177870338441e+01
 9.162709143777190e-01	 7.094549810275903e-01	 1.230181867540465e+01
 9.093381290075637e-01	 7.183195061252947e-01	 1.206993831713517e+01
 9.023155896760346e-01	 7.271212557016860e-01	 1.183680521813210e+01
 8.952041525798842e-01	 7.358588712375621e-01	 1.160309893564238e+01
 8.880047009910419e-01	 7.445310096243730e-01	 1.136950925146793e+01
 8.807181449050837e-01	 7.531363438396513e-01	 1.113673434244153e+01
 8.733454206696770e-01	 7.616735636129135e-01	 1.090547887063800e+01
 8.658874905933135e-01	 7.701413760813454e-01	 1.067645200006144e+01
 8.583453425346611e-01	 7.785385064345802e-01	 1.045036534715127e+01
 9.369448997729339e-01	 6.968092493449503e-01	 1.282561525082017e+01
 9.301426731307558e-01	 7.058636201498422e-01	 1.260459221598776e+01
 9.232483667708727e-01	 7.148575189412348e-01	 1.238083952819964e+01
 9.162627878667365e-01	 7.237895478752813e-01	 1.215499933950935e+01
 9.091867715199606e-01	 7.326583232490428e-01	 1.192772777499802e+01
 9.020211804472744e-01	 7.414624761981263e-01	 1.169969326402089e+01
 8.947669046467629e-01	 7.502006533861424e-01	 1.147157477482052e+01
 8.874248610436600e-01	 7.588715176852815e-01	 1.124405995810013e+01
 8.799959931159638e-01	 7.674737488472848e-01	 1.101784320583450e+01
 8.724812705001891e-01	 7.760060441641221e-01	 1.079362363225310e+01
 8.648816885775930e-01	 7.844671191176835e-01	 1.057210298455507e+01
 9.440258657618684e-01	 7.020753888980267e-01	 1.288500558983724e+01
 9.371722312564811e-01	 7.111981881576777e-01	 1.267011505177006e+01
 9.302258211404490e-01	 7.202600583862604e-01	 1.245235552849571e+01
 9.231874486874327e-01	 7.292595911757217e-01	 1.223235429150149e+01
 9.160579553103223e-01	 7.381953923657890e-01	 1.201075293718200e+01
 9.088382102458218e-01	 7.470660827468745e-01	 1.178820570426656e+01
 9.015291102181738e-01	 7.558702987547489e-01	 1.156537768964883e+01
 8.941315790822691e-01	 7.646066931562584e-01	 1.134294296833293e+01
 8.866465674464368e-01	 7.732739357253688e-01	 1.112158262392827e+01
 8.790750522752150e-01	 7.818707139088330e-01	 1.090198269681297e+01
 8.714180364724508e-01	 7.903957334807954e-01	 1.068483205775140e+01
 8.060548631117155e-01	 7.311098670310472e-01	 9.188759455473226e+00
 7.988952689469325e-01	 7.389265666650634e-01	 8.922680008578023e+00
 7.916585263910276e-01	 7.466745853711559e-01	 8.658268836761859e+00
 7.843456193492238e-01	 7.543527937070280e-01	 8.396052066240964e+00
 7.769575539880575e-01	 7.619600814770303e-01	 8.136546244516063e+00
 7.694953582707912e-01	 7.694953582707911e-01	 7.880256888073325e+00
 7.619600814770304e-01	 7.769575539880578e-01	 7.627677037401442e+00
 7.543527937070278e-01	 7.843456193492236e-01	 7.379285826197103e+00
 7.466745853711558e-01	 7.916585263910276e-01	 7.135547071732521e+00
 7.389265666650633e-01	 7.988952689469326e-01	 6.896907893426573e+00
 7.311098670310470e-01	 8.060548631117156e-01	 6.663797366687614e+00
 8.125911276638866e-01	 7.370384057997872e-01	 9.371705014455785e+00
 8.053734766547415e-01	 7.449184907183373e-01	 9.111412916071886e+00
 7.980780516614322e-01	 7.527293377782888e-01	 8.852481810962997e+00
 7.907058445676367e-01	 7.604698083787359e-01	 8.595425375788176e+00
 7.832578696988616e-01	 7.681387833214931e-01	 8.340746897460459e+00
 7.757351633540875e-01	 7.757351633540879e-01	 8.088937791201477e+00
 7.681387833214931e-01	 7.832578696988619e-01	 7.840476125804459e+00
 7.604698083787358e-01	 7.907058445676368e-01	 7.595825163250623e+00
 7.527293377782883e-01	 7.980780516614322e-01	 7.355431919936067e+00
 7.449184907183369e-01	 8.053734766547417e-01	 7.119725756840933e+00
 7.370384057997871e-01	 8.125911276638867e-01	 6.889117006002343e+00
 8.191274088847291e-01	 7.429669596872678e-01	 9.547999376182700e+00
 8.118517008831698e-01	 7.509104300520323e-01	 9.293307280455950e+00
 8.044975933028083e-01	 7.587841056260951e-01	 9.039649530282411e+00
 7.970660860057953e-01	 7.665868386499206e-01	 8.787533329547305e+00
 7.895582014766284e-01	 7.743175009227624e-01	 8.537454890712404e+00
 7.819749843500270e-01	 7.819749843500269e-01	 8.289897912900004e+00
 7.743175009227623e-01	 7.895582014766283e-01	 8.045332066690765e+00
 7.665868386499205e-01	 7.970660860057954e-01	 7.804211493075342e+00
 7.587841056260950e-01	 8.044975933028085e-01	 7.566973324128107e+00
 7.509104300520321e-01	 8.118517008831699e-01	 7.334036233053847e+00
 7.429669596872678e-01	 8.191274088847291e-01	 7.105799021294711e+00
 8.256637049221497e-01	 7.488955270136476e-01	 9.717370511096865e+00
 8.183299397965803e-01	 7.569023829683370e-01	 9.468090113847198e+00
 8.109171494961495e-01	 7.648388871989545e-01	 9.219502588757218e+00
 8.034263418614996e-01	 7.727038827873124e-01	 8.972114518388963e+00
 7.958585475361363e-01	 7.804962325300847e-01	 8.726421099138550e+00
 7.882148194905371e-01	 7.882148194905371e-01	 8.482904569060288e+00
 7.804962325300848e-01	 7.958585475361365e-01	 8.242032641512310e+00
 7.727038827873124e-01	 8.034263418614997e-01	 8.004256952394357e+00
 7.648388871989543e-01	 8.109171494961497e-01	 7.770011528880899e+00
 7.569023829683370e-01	 8.183299397965804e-01	 7.539711287649050e+00
 7.488955270136475e-01	 8.256637049221496e-01	 7.313750570644398e+00
 8.322000139240548e-01	 7.548241060990848e-01	 9.879538999003069e+00
 8.248081915593343e-01	 7.628943477694412e-01	 9.635480996849285e+00
 8.173367184224497e-01	 7.708936807812456e-01	 9.391763959674282e+00
 8.097866103325501e-01	 7.788209390576423e-01	 9.148899579437735e+00
 8.021589060921652e-01	 7.866749763927070e-01	 8.907387971860611e+00
 7.944546670075465e-01	 7.944546670075465e-01	 8.667716043719546e+00
 7.866749763927070e-01	 8.021589060921653e-01	 8.430355864679694e+00
 7.788209390576420e-01	 8.097866103325502e-01	 8.195763051787530e+00
 7.708936807812454e-01	 8.173367184224500e-01	 7.964375174894231e+00
 7.628943477694410e-01	 8.248081915593346e-01	 7.736610191386470e+00
 7.548241060990847e-01	 8.322000139240550e-01	 7.512864918653957e+00
 8.387363340383519e-01	 7.607526952637379e-01	 1.003421849402015e+01
 8.312864543357945e-01	 7.688863227575329e-01	 9.795192541919709e+00
 8.237562982627029e-01	 7.769484846573474e-01	 9.556149462404115e+00
 8.161468896167464e-01	 7.849380057276407e-01	 9.317611671268333e+00
 8.084592753594937e-01	 7.928537307598756e-01	 9.080090020541181e+00
 8.006945251329849e-01	 8.006945251329849e-01	 8.844082095001195e+00
 7.928537307598753e-01	 8.084592753594936e-01	 8.610070511550418e+00
 7.849380057276407e-01	 8.161468896167464e-01	 8.378521229947605e+00
 7.769484846573469e-01	 8.237562982627030e-01	 8.149881883564492e+00
 7.688863227575328e-01	 8.312864543357947e-01	 7.924580138953752e+00
 7.607526952637380e-01	 8.387363340383518e-01	 7.703022093067963e+00
 8.452726634129473e-01	 7.666812928277663e-01	 1.018111618610783e+01
 8.377647262903229e-01	 7.748783062348019e-01	 9.946930853295074e+00
 8.301758871979027e-01	 7.830032971116390e-01	 9.712368225528598e+00
 8.225071779118891e-01	 7.910550810640383e-01	 9.477966944885079e+00
 8.147596535529009e-01	 7.990324938808365e-01	 9.244254302710999e+00
 8.069343920987798e-01	 8.069343920987799e-01	 9.011744455125099e+00
 7.990324938808367e-01	 8.147596535529011e-01	 8.780936639297970e+00
 7.910550810640383e-01	 8.225071779118890e-01	 8.552313399419020e+00
 7.830032971116386e-01	 8.301758871979027e-01	 8.326338831438335e+00
 7.748783062348014e-01	 8.377647262903228e-01	 8.103456855806892e+00
 7.666812928277663e-01	 8.452726634129474e-01	 7.884089527504615e+00
 8.518090001957481e-01	 7.726098971113272e-01	 1.031993325934760e+01
 8.442430055872812e-01	 7.808702965034366e-01	 1.009039598365782e+01
 8.365954834090430e-01	 7.890581164284990e-01	 9.860123146457841e+00
 8.288674734157780e-01	 7.971721633335661e-01	 9.629675010709636e+00
 8.210600388871664e-01	 8.052112640048374e-01	 9.399600900400715e+00
 8.131742661368601e-01	 8.131742661368601e-01	 9.170437324805150e+00
 8.052112640048373e-01	 8.210600388871666e-01	 8.942706101042933e+00
 7.971721633335662e-01	 8.288674734157782e-01	 8.716912484275950e+00
 7.890581164284987e-01	 8.365954834090429e-01	 8.493543315089136e+00
 7.808702965034362e-01	 8.442430055872814e-01	 8.273065193738312e+00
 7.726098971113273e-01	 8.518090001957482e-01	 8.055922691042618e+00
 8.583453425346611e-01	 7.785385064345802e-01	 1.045036534715127e+01
 8.507212903910316e-01	 7.868622918656261e-01	 1.022528238771526e+01
 8.430150850771172e-01	 7.951129408923064e-01	 9.999111347721511e+00
 8.352277743262138e-01	 8.032892508029551e-01	 9.772439401788761e+00
 8.273604295770690e-01	 8.113900393811238e-01	 9.545843394325656e+00
 8.194141454791547e-01	 8.194141454791545e-01	 9.319887862331299e+00
 8.113900393811235e-01	 8.273604295770690e-01	 9.095123053604098e+00
 8.032892508029549e-01	 8.352277743262141e-01	 8.872082950165904e+00
 7.951129408923062e-01	 8.430150850771174e-01	 8.651283306925739e+00
 7.868622918656258e-01	 8.507212903910317e-01	 8.433219715770147e+00
 7.785385064345803e-01	 8.583453425346611e-01	 8.218365705362297e+00
 8.648816885775930e-01	 7.844671191176835e-01	 1.057210298455507e+01
 8.571995788659357e-01	 7.928542906235593e-01	 1.035127937285231e+01
 8.494346903831198e-01	 8.011677687874404e-01	 1.012902463010943e+01
 8.415880788409963e-01	 8.094063417389350e-01	 9.905958033418123e+00
 8.336608238373878e-01	 8.175688182589426e-01	 9.682689333858091e+00
 8.256540283575917e-01	 8.256540283575919e-01	 9.459816667614190e+00
 8.175688182589423e-01	 8.336608238373877e-01	 9.237924459204825e+00
 8.094063417389347e-01	 8.415880788409962e-01	 9.017581327120586e+00
 8.011677687874402e-01	 8.494346903831200e-01	 8.799338002411689e+00
 7.928542906235592e-01	 8.571995788659362e-01	 8.583725270935995e+00
 7.844671191176832e-01	 8.648816885775930e-01	 8.371251950097598e+00
 8.714180364724508e-01	 7.903957334807954e-01	 1.068483205775140e+01
 8.636778691763565e-01	 7.988462910794256e-01	 1.046807154700893e+01
 8.558542975080441e-01	 8.072225983982798e-01	 1.024954992282183e+01
 8.479483851579257e-01	 8.155234344082373e-01	 1.002992365936904e+01
 8.399612198829021e-01	 8.237475988875402e-01	 9.809840703003097e+00
 8.318939130041005e-01	 8.318939130041005e-01	 9.589938261455998e+00
 8.237475988875400e-01	 8.399612198829022e-01	 9.370840581447219e+00
 8.155234344082370e-01	 8.479483851579258e-01	 9.153156725513963e+00
 8.072225983982796e-01	 8.558542975080441e-01	 8.937478359143038e+00
 7.988462910794255e-01	 8.636778691763568e-01	 8.724377559479500e+00
 7.903957334807953e-01	 8.714180364724509e-01	 8.514404657014966e+00
 7.311098670310470e-01	 8.060548631117156e-01	 6.663797366687614e+00
 7.232242906541625e-01	 8.131375427964316e-01	 6.434448299658751e+00
 7.152723381229562e-01	 8.201411350666139e-01	 6.207244467962589e+00
 7.072552065862487e-01	 8.270647122440252e-01	 5.982692592055830e+00
 6.991741101455531e-01	 8.339073706440872e-01	 5.761275646783288e+00
 6.910302792495729e-01	 8.406682309615087e-01	 5.543451695481180e+00
 6.828249600784644e-01	 8.473464386377187e-01	 5.329652802920002e+00
 6.745594139185006e-01	 8.539411642097847e-01	 5.120284033328719e+00
 6.662349165277873e-01	 8.604516036405299e-01	 4.915722539418173e+00
 6.578527574936991e-01	 8.668769786295902e-01	 4.716316747967415e+00
 6.494142395826941e-01	 8.732165369051680e-01	 4.522385647139568e+00
 7.370384057997871e-01	 8.125911276638867e-01	 6.889117006002343e+00
 7.290888856198445e-01	 8.197312404966914e-01	 6.661821586612764e+00
 7.210724510442204e-01	 8.267916245984521e-01	 6.436248616699379e+00
 7.129903089293581e-01	 8.337713447684270e-01	 6.212950743090544e+00
 7.048436832218647e-01	 8.406694899940956e-01	 5.992457988457652e+00
 6.966338143480950e-01	 8.474851738399161e-01	 5.775276462873496e+00
 6.883619585934224e-01	 8.542175348177372e-01	 5.561887154364922e+00
 6.800293874718317e-01	 8.608657367385442e-01	 5.352744805172355e+00
 6.716373870864928e-01	 8.674289690452557e-01	 5.148276880096927e+00
 6.631872574819845e-01	 8.739064471263016e-01	 4.948882632953485e+00
 6.546803119888379e-01	 8.802974126097414e-01	 4.754932276741393e+00
 7.429669596872678e-01	 8.191274088847291e-01	 7.105799021294712e+00
 7.349534955411552e-01	 8.263249550120821e-01	 6.880487942365142e+00
 7.268725787566203e-01	 8.334421310902453e-01	 6.656552514062823e+00
 7.187254258977582e-01	 8.404779943959533e-01	 6.434579974708673e+00
 7.105132707562940e-01	 8.474316265887258e-01	 6.215135616067778e+00
 7.022373637362609e-01	 8.543021341027530e-01	 5.998761387140617e+00
 6.938989712282770e-01	 8.610886485202850e-01	 5.785974577655310e+00
 6.854993749740658e-01	 8.677903269262097e-01	 5.577266588428833e+00
 6.770398714218884e-01	 8.744063522435251e-01	 5.373101795426565e+00
 6.685217710735558e-01	 8.809359335494390e-01	 5.173916513976156e+00
 6.599463978237010e-01	 8.873783063718549e-01	 4.980118069170957e+00
 7.488955270136475e-01	 8.256637049221496e-01	 7.313750570644399e+00
 7.408181187563816e-01	 8.329186844742316e-01	 7.090386620105484e+00
 7.326727196167282e-01	 8.400926526575224e-01	 6.868118119998249e+00
 7.244605558664557e-01	 8.471846592262179e-01	 6.647555862729018e+00
 7.161828711424310e-01	 8.541937785118615e-01	 6.429288934519432e+00
 7.078409258263892e-01	 8.611191098183603e-01	 6.213883225850385e+00
 6.994359964142151e-01	 8.679597777983505e-01	 6.001880022862454e+00
 6.909693748753966e-01	 8.747149328106090e-01	 5.793794687320752e+00
 6.824423680033107e-01	 8.813837512581987e-01	 5.590115432403914e+00
 6.738562967570241e-01	 8.879654359070915e-01	 5.391302201196289e+00
 6.652124955952956e-01	 8.944592161850218e-01	 5.197785654327387e+00
 7.548241060990847e-01	 8.322000139240550e-01	 7.512864918653957e+00
 7.466827536038124e-01	 8.395124270147665e-01	 7.291441880647326e+00
 7.384728719811161e-01	 8.467431874158121e-01	 7.070891601697897e+00
 7.301956972104575e-01	 8.538913373588336e-01	 6.851837680152293e+00
 7.218524827738650e-01	 8.609559438473855e-01	 6.634881817739178e+00
 7.134444990307955e-01	 8.679360990550783e-01	 6.420602250739060e+00
 7.049730325824233e-01	 8.748309207049224e-01	 6.209552263907185e+00
 6.964393856260189e-01	 8.816395524295694e-01	 6.002258795179695e+00
 6.878448753000955e-01	 8.883611641121356e-01	 5.799221138844584e+00
 6.791908330209988e-01	 8.949949522073469e-01	 5.600909754460281e+00
 6.704786038116349e-01	 9.015401400427563e-01	 5.407765188358986e+00
 7.607526952637380e-01	 8.387363340383518e-01	 7.703022093067959e+00
 7.525473984217361e-01	 8.461061807653149e-01	 7.483563682552451e+00
 7.442730342063568e-01	 8.533937334806437e-01	 7.264804045165659e+00
 7.359308483047710e-01	 8.605980268934145e-01	 7.047369118452702e+00
 7.275221040441863e-01	 8.677181206791824e-01	 6.831862328347214e+00
 7.190480817617986e-01	 8.747530998812484e-01	 6.618862954797025e+00
 7.105100781640874e-01	 8.817020752929882e-01	 6.408924582469248e+00
 7.019094056761256e-01	 8.885641838209178e-01	 6.202573644981122e+00
 6.932473917815797e-01	 8.953385888281963e-01	 6.000308070742634e+00
 6.845253783540911e-01	 9.020244804582935e-01	 5.802596038085375e+00
 6.757447209807317e-01	 9.086210759385727e-01	 5.609874846890118e+00
 7.666812928277663e-01	 8.452726634129474e-01	 7.884089527504612e+00
 7.584120515484405e-01	 8.526999438575036e-01	 7.666648356580263e+00
 7.500732046490222e-01	 8.600442889675458e-01	 7.449772149862933e+00
 7.416660075244033e-01	 8.673047259295743e-01	 7.234078991241638e+00
 7.331917333469850e-01	 8.744803070911350e-01	 7.020163419510752e+00
 7.246516724317160e-01	 8.815701103652124e-01	 6.808594741838058e+00
 7.160471315903953e-01	 8.885732396155367e-01	 6.599915435165832e+00
 7.073794334759114e-01	 8.954888250224813e-01	 6.394639644397040e+00
 6.986499159170994e-01	 9.023160234292408e-01	 6.193251785842218e+00
 6.898599312449114e-01	 9.090540186680197e-01	 5.996205263980868e+00
 6.810108456105990e-01	 9.157020218659847e-01	 5.803921309111759e+00
 7.726098971113273e-01	 8.518090001957482e-01	 8.055922691042618e+00
 7.642767113222145e-01	 8.592937144229608e-01	 7.840579265301955e+00
 7.558733816656837e-01	 8.666948519920472e-01	 7.625698907345702e+00
 7.474011732443611e-01	 8.740114325669259e-01	 7.411881921252033e+00
 7.388613690758508e-01	 8.812425011671269e-01	 7.199703619932007e+00
 7.302552694528648e-01	 8.883871285753102e-01	 6.989712599490487e+00
 7.215841912925328e-01	 8.954444117255559e-01	 6.782429104894486e+00
 7.128494674755699e-01	 9.024134740720874e-01	 6.578343496195009e+00
 7.040524461759912e-01	 9.092934659381283e-01	 6.377914824158257e+00
 6.951944901820696e-01	 9.160835648446135e-01	 6.181569523725832e+00
 6.862769762092491e-01	 9.227829758185060e-01	 5.989700233228159e+00
 7.785385064345803e-01	 8.583453425346611e-01	 8.218365705362297e+00
 7.701413760813457e-01	 8.658874905933132e-01	 8.005227448664973e+00
 7.616735636129139e-01	 8.733454206696766e-01	 7.792474264742680e+00
 7.531363438396516e-01	 8.807181449050833e-01	 7.580679011528165e+00
 7.445310096243735e-01	 8.880047009910416e-01	 7.370387702868708e+00
 7.358588712375627e-01	 8.952041525798839e-01	 7.162117756494451e+00
 7.271212557016866e-01	 9.023155896760349e-01	 6.956356337185474e+00
 7.183195061252952e-01	 9.093381290075632e-01	 6.753558804764163e+00
 7.094549810275907e-01	 9.162709143777187e-01	 6.554147276142505e+00
 7.005290536541765e-01	 9.231131169961628e-01	 6.358509310194700e+00
 6.915431112846953e-01	 9.298639357896511e-01	 6.166996723716530e+00
 7.844671191176832e-01	 8.648816885775930e-01	 8.371251950097601e+00
 7.760060441641224e-01	 8.724812705001884e-01	 8.160452256253508e+00
 7.674737488472851e-01	 8.799959931159634e-01	 7.949975773874080e+00
 7.588715176852819e-01	 8.874248610436598e-01	 7.740358501654583e+00
 7.502006533861428e-01	 8.947669046467623e-01	 7.532107340029023e+00
 7.414624761981264e-01	 9.020211804472739e-01	 7.325698325131026e+00
 7.326583232490430e-01	 9.091867715199604e-01	 7.121574962352036e+00
 7.237895478752813e-01	 9.162627878667361e-01	 6.920146669500497e+00
 7.148575189412353e-01	 9.232483667708724e-01	 6.721787339147804e+00
 7.058636201498424e-01	 9.301426731307557e-01	 6.526834029279527e+00
 6.968092493449500e-01	 9.369448997729340e-01	 6.335585790833898e+00
 7.903957334807953e-01	 8.714180364724509e-01	 8.514404657014968e+00
 7.818707139088333e-01	 8.790750522752145e-01	 8.306101966937964e+00
 7.732739357253692e-01	 8.866465674464368e-01	 8.098069226764304e+00
 7.646066931562587e-01	 8.941315790822688e-01	 7.890796409808674e+00
 7.558702987547491e-01	 9.015291102181732e-01	 7.684741741134333e+00
 7.470660827468745e-01	 9.088382102458219e-01	 7.480329929562895e+00
 7.381953923657893e-01	 9.160579553103224e-01	 7.277950504184725e+00
 7.292595911757221e-01	 9.231874486874327e-01	 7.077956265738808e+00
 7.202600583862604e-01	 9.302258211404485e-01	 6.880661862800911e+00
 7.111981881576781e-01	 9.371722312564811e-01	 6.686342502230898e+00
 7.020753888980266e-01	 9.440258657618683e-01	 6.495232802776344e+00
 6.494142395826941e-01	 8.732165369051680e-01	 4.522385647139571e+00
 6.409221256341137e-01	 8.794684975880961e-01	 4.333931866914283e+00
 6.323763084981971e-01	 8.856332494952077e-01	 4.150550930023686e+00
 6.237781210747034e-01	 8.917101238651706e-01	 3.971998232421283e+00
 6.151289068041612e-01	 8.976984788943336e-01	 3.797992293519168e+00
 6.064300189927078e-01	 9.035976999280244e-01	 3.628215306473586e+00
 5.976828201333925e-01	 9.094071996317421e-01	 3.462313813670600e+00
 5.888886812246272e-01	 9.151264181422003e-01	 3.299899507819112e+00
 5.800489810864830e-01	 9.207548231981942e-01	 3.141193605331159e+00
 5.711651056755123e-01	 9.262919102513077e-01	 2.986463590379931e+00
 5.622384473987841e-01	 9.317372025564835e-01	 2.834997576325034e+00
 6.546803119888379e-01	 8.802974126097414e-01	 4.754932276741391e+00
 6.461193358501361e-01	 8.866000701753367e-01	 4.566358975783167e+00
 6.375042210472364e-01	 8.928148117928264e-01	 4.382641448017874e+00
 6.288363112883149e-01	 8.989409632779295e-01	 4.203513639108868e+00
 6.201169609077938e-01	 9.049778776226468e-01	 4.028670095464711e+00
 6.113475341857024e-01	 9.109249351881052e-01	 3.857766541058687e+00
 6.025294046634784e-01	 9.167815438771442e-01	 3.690420586257367e+00
 5.936639544568926e-01	 9.225471392865776e-01	 3.526212569138535e+00
 5.847525735667993e-01	 9.282211848391264e-01	 3.364803450900255e+00
 5.757966591884045e-01	 9.338031718950218e-01	 3.206779026770023e+00
 5.667976150197382e-01	 9.392926198433107e-01	 3.051688286327584e+00
 6.599463978237010e-01	 8.873783063718549e-01	 4.980118069170961e+00
 6.513165593192055e-01	 8.937316609494235e-01	 4.791534357298074e+00
 6.426321466725446e-01	 8.999963924047993e-01	 4.607511581141411e+00
 6.338945144003423e-01	 9.061718211307391e-01	 4.427778312991727e+00
 6.251050277309407e-01	 9.122572949148787e-01	 4.252021686703348e+00
 6.162650619182922e-01	 9.182521891341345e-01	 4.079887972583577e+00
 6.073760015522525e-01	 9.241559069286699e-01	 3.910983290772479e+00
 5.984392398659804e-01	 9.299678793553903e-01	 3.744874463723488e+00
 5.894561780411440e-01	 9.356875655209290e-01	 3.581090007755666e+00
 5.804282245116336e-01	 9.413144526941547e-01	 3.419689942366774e+00
 5.713567942664680e-01	 9.468480563982064e-01	 3.260942153488828e+00
 6.652124955952956e-01	 8.944592161850218e-01	 5.197785654327387e+00
 6.565137945688587e-01	 9.008632678894991e-01	 5.009262893444848e+00
 6.477600839213060e-01	 9.071779892960974e-01	 4.824941671089377e+00
 6.389527289777324e-01	 9.134026953745989e-01	 4.644560867215196e+00
 6.300931058604299e-01	 9.195367287082650e-01	 4.467816358455179e+00
 6.211826007972980e-01	 9.255794596897858e-01	 4.294361562885674e+00
 6.122226094266374e-01	 9.315302866966412e-01	 4.123808129445411e+00
 6.032145360990211e-01	 9.373886362458119e-01	 3.955726772807548e+00
 5.941597931769588e-01	 9.431539631278388e-01	 3.789648253838084e+00
 5.850598003330498e-01	 9.488257505202145e-01	 3.625158738158498e+00
 5.759159838473318e-01	 9.544035100801623e-01	 3.462788384707063e+00
 6.704786038116349e-01	 9.015401400427563e-01	 5.407765188358986e+00
 6.617110401266332e-01	 9.079948889747035e-01	 5.219338174969312e+00
 6.528880313407022e-01	 9.143596004316898e-01	 5.034701550732076e+00
 6.440109535874335e-01	 9.206335839605108e-01	 4.853619801895810e+00
 6.350811938830891e-01	 9.268161769400405e-01	 4.675813311804653e+00
 6.261001494295401e-01	 9.329067447787348e-01	 4.500958847602299e+00
 6.170692269135550e-01	 9.389046810913773e-01	 4.328690197442536e+00
 6.079898418031454e-01	 9.448094078550191e-01	 4.158598959259709e+00
 5.988634176416842e-01	 9.506203755440931e-01	 3.990235481446866e+00
 5.896913853405055e-01	 9.563370632447107e-01	 3.823109955070046e+00
 5.804751824706880e-01	 9.619589787481722e-01	 3.657238046074765e+00
 6.757447209807317e-01	 9.086210759385727e-01	 5.609874846890120e+00
 6.669082945200654e-01	 9.151265221841794e-01	 5.421542936635434e+00
 6.580159874779168e-01	 9.215412237765472e-01	 5.236550936964421e+00
 6.490691867963929e-01	 9.278644848394750e-01	 5.054703869635697e+00
 6.400692903857462e-01	 9.340956375474406e-01	 4.875762010465024e+00
 6.310177064218390e-01	 9.402340423246556e-01	 4.699441290268911e+00
 6.219158526399281e-01	 9.462790880231998e-01	 4.525413851873997e+00
 6.127651556254828e-01	 9.522301920801834e-01	 4.353308764553834e+00
 6.035670501027616e-01	 9.580868006539273e-01	 4.182712896513337e+00
 5.943229782218520e-01	 9.638483887391527e-01	 4.013171945298681e+00
 5.850343888448946e-01	 9.695144602612272e-01	 3.844284292211462e+00
 6.810108456105990e-01	 9.157020218659847e-01	 5.803921309111759e+00
 6.721055562766927e-01	 9.222581654970681e-01	 5.615649485708323e+00
 6.631439508801326e-01	 9.287228572956394e-01	 5.430239818408789e+00
 6.541274271715580e-01	 9.350953959624919e-01	 5.247552436819069e+00
 6.450573939552288e-01	 9.413751084677004e-01	 5.067402529571083e+00
 6.359352703810152e-01	 9.475613502512236e-01	 4.889560632035442e+00
 6.267624852326787e-01	 9.536535054024289e-01	 4.713753075374889e+00
 6.175404762131650e-01	 9.596509868184810e-01	 4.539662598662378e+00
 6.082706892276323e-01	 9.655532363415797e-01	 4.366929125020466e+00
 5.989545776649410e-01	 9.713597248750493e-01	 4.195150701960605e+00
 5.895936016783102e-01	 9.770699524783206e-01	 4.023884605308877e+00
 6.862769762092491e-01	 9.227829758185060e-01	 5.989700233228159e+00
 6.773028239240513e-01	 9.293898168925111e-01	 5.801420124023203e+00
 6.682719200945323e-01	 9.359044989539361e-01	 5.615508838249301e+00
 6.591856732798765e-01	 9.423263152805633e-01	 5.431895840916591e+00
 6.500455031783646e-01	 9.486545876380549e-01	 5.250465900713555e+00
 6.408528399138891e-01	 9.548886664821129e-01	 5.071059237236397e+00
 6.316091233187295e-01	 9.610279311393857e-01	 4.893471834553234e+00
 6.223158022133211e-01	 9.670717899670854e-01	 4.717455923256479e+00
 6.129743336837374e-01	 9.730196804912860e-01	 4.542720632349463e+00
 6.035861823576238e-01	 9.788710695239099e-01	 4.368932811504845e+00
 5.941528196792930e-01	 9.846254532584438e-01	 4.195718023404109e+00
 6.915431112846953e-01	 9.298639357896511e-01	 6.166996723716531e+00
 6.825000959896785e-01	 9.365214743496496e-01	 5.978607563981232e+00
 6.733998936682988e-01	 9.430861467164073e-01	 5.792089672454874e+00
 6.642439236882958e-01	 9.495572407446882e-01	 5.607455744008822e+00
 6.550336166419817e-01	 9.559340729957396e-01	 5.424674453414692e+00
 6.457704136272808e-01	 9.622159889409981e-01	 5.243670435034439e+00
 6.364557655250028e-01	 9.684023631443908e-01	 5.064324433578911e+00
 6.270911322730816e-01	 9.744925994231711e-01	 4.886473628567320e+00
 6.176779821385179e-01	 9.804861309872830e-01	 4.709912134285924e+00
 6.082177909877524e-01	 9.863824205572429e-01	 4.534391676199309e+00
 5.987120415562011e-01	 9.921809604605897e-01	 4.359622443901597e+00
 6.968092493449500e-01	 9.369448997729340e-01	 6.335585790833898e+00
 6.876973710011114e-01	 9.436531358476259e-01	 6.146955338793783e+00
 6.785278701486148e-01	 9.502677985480235e-01	 5.959705403634273e+00
 6.693021769637635e-01	 9.567881703058687e-01	 5.773945482731145e+00
 6.600217329329079e-01	 9.632135624779891e-01	 5.589742153232382e+00
 6.506879901280118e-01	 9.695433155515548e-01	 5.407118857345111e+00
 6.413024104784212e-01	 9.757767993277645e-01	 5.226055863168210e+00
 6.318664650395774e-01	 9.819134130839124e-01	 5.046490404242840e+00
 6.223816332594149e-01	 9.879525857138078e-01	 4.868317000128584e+00
 6.128494022431772e-01	 9.938937758465576e-01	 4.691387959429636e+00
 6.032712660173928e-01	 9.997364719437507e-01	 4.515514065795696e+00
 7.020753888980266e-01	 9.440258657618683e-01	 6.495232802776344e+00
 6.928946474858869e-01	 9.507847993655812e-01	 6.306198207276176e+00
 6.836558480826637e-01	 9.574494524137538e-01	 6.118070890753314e+00
 6.743604316732270e-01	 9.640191019151049e-01	 5.931070414824168e+00
 6.650098506379702e-01	 9.704930540220392e-01	 5.745374936670967e+00
 6.556055680229015e-01	 9.768706442374568e-01	 5.561120773238669e+00
 6.461490568059066e-01	 9.831512375998281e-01	 5.378402145208277e+00
 6.366417991599389e-01	 9.893342288464843e-01	 5.197271104519325e+00
 6.270852857138696e-01	 9.954190425550969e-01	 5.017737648315691e+00
 6.174810148117510e-01	 1.001405133263363e+00	 4.839770021269064e+00
 6.078304917712264e-01	 1.007291985566919e+00	 4.663295207294161e+00
 5.622384473987841e-01	 9.317372025564835e-01	 2.834997576325034e+00
 5.532704046029903e-01	 9.370902514685463e-01	 2.687783960299108e+00
 5.442623814031892e-01	 9.423506371741205e-01	 2.546116756139700e+00
 5.352157864530174e-01	 9.475179680493709e-01	 2.409701027641092e+00
 5.261320320837845e-01	 9.525918804443393e-01	 2.278223810234897e+00
 5.170125336241201e-01	 9.575720386728107e-01	 2.151355844252070e+00
 5.078587087228544e-01	 9.624581349827813e-01	 2.028753329983351e+00
 4.986719766757564e-01	 9.672498895077365e-01	 1.910059697149490e+00
 4.894537577567521e-01	 9.719470501989690e-01	 1.794907381496855e+00
 4.802054725542244e-01	 9.765493927391885e-01	 1.682919601378501e+00
 4.709285413129862e-01	 9.810567204377044e-01	 1.573712127344247e+00
 5.667976150197382e-01	 9.392926198433107e-01	 3.051688286327584e+00
 5.577568507466210e-01	 9.446890764007799e-01	 2.900595053717708e+00
 5.486757818700376e-01	 9.499921183498042e-01	 2.754903827617904e+00
 5.395558284663587e-01	 9.552013508908862e-01	 2.614328245357731e+00
 5.303984143194497e-01	 9.603164074252436e-01	 2.478564411902569e+00
 5.212049662348012e-01	 9.653369495445931e-01	 2.347292664332207e+00
 5.119769133569183e-01	 9.702626670013813e-01	 2.220179357614794e+00
 5.027156864906011e-01	 9.750932776596664e-01	 2.096878664058151e+00
 4.934227174267368e-01	 9.798285274268859e-01	 1.977034378931375e+00
 4.840994382732201e-01	 9.844681901667690e-01	 1.860281724907932e+00
 4.747472807915894e-01	 9.890120675936659e-01	 1.746249148145878e+00
 5.713567942664680e-01	 9.468480563982064e-01	 3.260942153488828e+00
 5.622433083306285e-01	 9.522879207118241e-01	 3.106035510714387e+00
 5.530891935910524e-01	 9.576336190131246e-01	 2.956494726717072e+00
 5.438958815468704e-01	 9.628847533269371e-01	 2.812024005905993e+00
 5.346648074345299e-01	 9.680409541056474e-01	 2.672310122478376e+00
 5.253974095364100e-01	 9.731018802188972e-01	 2.537024247216408e+00
 5.160951284927170e-01	 9.780672189235762e-01	 2.405823795250454e+00
 5.067594066173073e-01	 9.829366858143070e-01	 2.278354286880758e+00
 4.973916872180574e-01	 9.877100247546671e-01	 2.154251213677981e+00
 4.879934139223994e-01	 9.923870077893987e-01	 2.033141902236804e+00
 4.785660300086246e-01	 9.969674350378890e-01	 1.914647368143759e+00
 5.759159838473318e-01	 9.544035100801623e-01	 3.462788384707063e+00
 5.667297760839711e-01	 9.598867822483672e-01	 3.304200825578659e+00
 5.575026153158813e-01	 9.652751369986767e-01	 3.151041094397651e+00
 5.482359444649775e-01	 9.705681731802419e-01	 3.002986360666865e+00
 5.389312102203119e-01	 9.757655182966071e-01	 2.859696076993051e+00
 5.295898623411749e-01	 9.808668284953329e-01	 2.720813899010013e+00
 5.202133529634978e-01	 9.858717885377437e-01	 2.585969626108542e+00
 5.108031359102176e-01	 9.907801117490229e-01	 2.454781154724859e+00
 5.013606660062222e-01	 9.955915399488822e-01	 2.326856436067871e+00
 4.918873983985063e-01	 1.000305843363072e+00	 2.201795430334355e+00
 4.823847878821362e-01	 1.004922820516011e+00	 2.079192049655561e+00
 5.804751824706880e-01	 9.619589787481722e-01	 3.657238046074765e+00
 5.712162527356068e-01	 9.674856588570964e-01	 3.495166788262342e+00
 5.619160457941728e-01	 9.729166701410574e-01	 3.338673636125195e+00
 5.525760159911045e-01	 9.782516082735183e-01	 3.187391512585819e+00
 5.431976214680816e-01	 9.834900978091780e-01	 3.040934952988867e+00
 5.337823234613233e-01	 9.886317921735067e-01	 2.898902148674416e+00
 5.243315856025086e-01	 9.936763736322622e-01	 2.760877011373240e+00
 5.148468732236742e-01	 9.986235532411809e-01	 2.626431249770167e+00
 5.053296526667403e-01	 1.003473070776103e+00	 2.495126449723602e+00
 4.957813905982844e-01	 1.008224694643784e+00	 2.366516149802103e+00
 4.862035533301683e-01	 1.012878221773671e+00	 2.240147904014132e+00
 5.850343888448946e-01	 9.695144602612272e-01	 3.844284292211462e+00
 5.757027370144936e-01	 9.750845483846995e-01	 3.678989786982986e+00
 5.663294837755748e-01	 9.805582162748622e-01	 3.519502485033885e+00
 5.569160948956775e-01	 9.859350564294853e-01	 3.365394227712860e+00
 5.474640399691242e-01	 9.912146904544148e-01	 3.216217418780360e+00
 5.379747917090835e-01	 9.963967690530293e-01	 3.071507221892328e+00
 5.284498252429969e-01	 1.001480971995510e+00	 2.930783779087592e+00
 5.188906174120189e-01	 1.006467008068145e+00	 2.793554441165076e+00
 5.092986460751201e-01	 1.011354615002900e+00	 2.659316000983747e+00
 4.996753894184770e-01	 1.016143559387529e+00	 2.527556920910403e+00
 4.900223252707658e-01	 1.020833636556505e+00	 2.397759545857350e+00
 5.895936016783102e-01	 9.770699524783206e-01	 4.023884605308877e+00
 5.801892276495898e-01	 9.826834486778639e-01	 3.855707092129848e+00
 5.707429280097351e-01	 9.881997732346868e-01	 3.693617543707343e+00
 5.612561799491207e-01	 9.936185154708602e-01	 3.537128223238135e+00
 5.517304645147261e-01	 9.989392940433741e-01	 3.385712556633724e+00
 5.421672658966834e-01	 1.004161756933508e+00	 3.238825488789663e+00
 5.325680707182103e-01	 1.009285581415867e+00	 3.095905886335575e+00
 5.229343673295942e-01	 1.014310474007282e+00	 2.956378952104251e+00
 5.132676451068702e-01	 1.019236170395843e+00	 2.819658641843497e+00
 5.035693937558281e-01	 1.024062435350301e+00	 2.685150073897343e+00
 4.938411026219721e-01	 1.028789062610151e+00	 2.552251922816790e+00
 5.941528196792930e-01	 9.846254532584438e-01	 4.195718023404109e+00
 5.846757233698534e-01	 9.902823575832775e-01	 4.025337122483000e+00
 5.751563772463021e-01	 9.958413388551269e-01	 3.861088805730017e+00
 5.655962699218595e-01	 1.001301983220362e+00	 3.702706533292524e+00
 5.559968938961736e-01	 1.006663906387111e+00	 3.549568262216053e+00
 5.463597448363504e-01	 1.011926753614553e+00	 3.401031886921925e+00
 5.366863208613966e-01	 1.017090199681709e+00	 3.256437856146047e+00
 5.269781218307426e-01	 1.022153948835957e+00	 3.115111801532072e+00
 5.172366486374987e-01	 1.027117734721504e+00	 2.976367167836563e+00
 5.074634025070810e-01	 1.031981320288095e+00	 2.839507834917514e+00
 4.976598843018319e-01	 1.036744497680246e+00	 2.703830721930875e+00
 5.987120415562011e-01	 9.921809604605897e-01	 4.359622443901597e+00
 5.891622229042429e-01	 9.978812729476279e-01	 4.187871475503723e+00
 5.795698302349237e-01	 1.003482910970779e+00	 4.021966658086419e+00
 5.699363635843187e-01	 1.008985457500709e+00	 3.862221853698144e+00
 5.602633269047524e-01	 1.014388525296681e+00	 3.707911621581605e+00
 5.505522273403126e-01	 1.019691756895771e+00	 3.558280320845940e+00
 5.408045745058032e-01	 1.024894824581416e+00	 3.412553190471412e+00
 5.310218797698059e-01	 1.029997430331535e+00	 3.269939221823325e+00
 5.212056555425149e-01	 1.034999305746452e+00	 3.129634032194361e+00
 5.113574145689793e-01	 1.039900211956906e+00	 2.990822728937649e+00
 5.014786692283897e-01	 1.044699939512429e+00	 2.852682754019380e+00
 6.032712660173928e-01	 9.997364719437507e-01	 4.515514065795696e+00
 5.936487249817157e-01	 1.005480192617603e+00	 4.343048532605890e+00
 5.839832857252478e-01	 1.011124487416240e+00	 4.176282165429374e+00
 5.742764597069232e-01	 1.016668936134619e+00	 4.015746866786384e+00
 5.645297623317486e-01	 1.022113148583140e+00	 3.860849266884917e+00
 5.547447122207984e-01	 1.027456764576772e+00	 3.710704039518104e+00
 5.449228304846778e-01	 1.032699453903367e+00	 3.564404760508416e+00
 5.350656400011267e-01	 1.037840916271382e+00	 3.421027053716966e+00
 5.251746646974269e-01	 1.042880881237259e+00	 3.279631737541020e+00
 5.152514288382668e-01	 1.047819108112727e+00	 3.139267960801548e+00
 5.052974563196894e-01	 1.052655385852336e+00	 2.998976317194430e+00
 6.078304917712264e-01	 1.007291985566919e+00	 4.663295207294161e+00
 5.981352283312307e-01	 1.013079114439890e+00	 4.490713734325419e+00
 5.883967424669230e-01	 1.018766066026104e+00	 4.324047020713407e+00
 5.786165570600984e-01	 1.024352416944811e+00	 4.163334547332446e+00
 5.687961989684477e-01	 1.029837774057543e+00	 4.008467711942020e+00
 5.589371982900345e-01	 1.035221774457163e+00	 3.858415992684354e+00
 5.490410876312684e-01	 1.040504085435938e+00	 3.712125175550745e+00
 5.391094013790468e-01	 1.045684404432863e+00	 3.568521119697094e+00
 5.291436749777435e-01	 1.050762458960495e+00	 3.426513206305266e+00
 5.191454442116871e-01	 1.055738006511553e+00	 3.284997775613984e+00
 5.091162444937753e-01	 1.060610834445606e+00	 3.142861540597406e+00
 4.709285413129862e-01	 9.810567204377044e-01	 1.573712127344246e+00
 4.616227991659323e-01	 9.854696060013456e-01	 1.468112658223732e+00
 4.522912388269320e-01	 9.897871325870814e-01	 1.367089566236106e+00
 4.429352758886508e-01	 9.940091848336716e-01	 1.270410208653004e+00
 4.335563230520154e-01	 9.981356744262322e-01	 1.177843218228009e+00
 4.241557895045047e-01	 1.002166539904589e+00	 1.089159794410833e+00
 4.147350803073237e-01	 1.006101746455231e+00	 1.004134953391736e+00
 4.052955957919376e-01	 1.009941285687257e+00	 9.225487324087078e-01
 3.958387309664236e-01	 1.013685175392733e+00	 8.441873440891556e-01
 3.863658749320805e-01	 1.017333459291891e+00	 7.688442769241264e-01
 3.768784103107179e-01	 1.020886206763610e+00	 6.963213383331324e-01
 4.747472807915894e-01	 9.890120675936659e-01	 1.746249148145877e+00
 4.653660787778535e-01	 9.934607370584575e-01	 1.635828740234058e+00
 4.559588492136603e-01	 9.978132742834666e-01	 1.530051825405275e+00
 4.465270191706391e-01	 1.002069562971986e+00	 1.428695004711057e+00
 4.370720128052314e-01	 1.006229514092981e+00	 1.331537083989609e+00
 4.275952507319404e-01	 1.010293065687895e+00	 1.238360383343337e+00
 4.180981494055364e-01	 1.014260182660907e+00	 1.148952002830820e+00
 4.085821205126959e-01	 1.018130856553068e+00	 1.063105039689361e+00
 3.990485703735407e-01	 1.021905105300711e+00	 9.806197527524425e-01
 3.894988993535169e-01	 1.025582972978587e+00	 9.013046700805201e-01
 3.799345012860394e-01	 1.029164529528158e+00	 8.249776361793364e-01
 4.785660300086246e-01	 9.969674350378890e-01	 1.914647368143760e+00
 4.691093679358498e-01	 1.001451888495082e+00	 1.799710661192869e+00
 4.596264689535641e-01	 1.005839436448636e+00	 1.689427484232271e+00
 4.501187716123904e-01	 1.010129961666376e+00	 1.583585885867692e+00
 4.405877115243157e-01	 1.014323374401120e+00	 1.481977025318769e+00
 4.310347207308977e-01	 1.018419612195926e+00	 1.384396498359551e+00
 4.214612270805013e-01	 1.022418639672665e+00	 1.290645616881458e+00
 4.118686536150452e-01	 1.026320448304341e+00	 1.200532637284452e+00
 4.022584179667253e-01	 1.030125056171559e+00	 1.113873933251344e+00
 3.926319317651646e-01	 1.033832507703590e+00	 1.030495108834975e+00
 3.829906000554127e-01	 1.037442873404484e+00	 9.502320481615358e-01
 4.823847878821362e-01	 1.004922820516011e+00	 2.079192049655560e+00
 4.728526655793324e-01	 1.009443058046719e+00	 1.960030163356891e+00
 4.632940970074804e-01	 1.013865616808170e+00	 1.845474217567906e+00
 4.537105321962244e-01	 1.018190378632725e+00	 1.735325805339578e+00
 4.441034182131228e-01	 1.022417253057053e+00	 1.629390514230250e+00
 4.344741985268155e-01	 1.026546177125825e+00	 1.527479267019521e+00
 4.248243123792888e-01	 1.030577115178610e+00	 1.429409613483339e+00
 4.151551941677298e-01	 1.034510058620366e+00	 1.335006968312048e+00
 4.054682728364357e-01	 1.038345025675969e+00	 1.244105790623977e+00
 3.957649712792327e-01	 1.042082061129215e+00	 1.156550700909999e+00
 3.860467057528313e-01	 1.045721236046741e+00	 1.072197531641747e+00
 4.862035533301683e-01	 1.012878221773671e+00	 2.240147904014131e+00
 4.765959706477127e-01	 1.017434243448864e+00	 2.117039453524462e+00
 4.669617323362469e-01	 1.021891813087648e+00	 1.998431196660021e+00
 4.573022999044603e-01	 1.026250811586913e+00	 1.884140262898956e+00
 4.476191318755074e-01	 1.030511147767179e+00	 1.773988639702323e+00
 4.379136831451330e-01	 1.034672758174737e+00	 1.667804526431032e+00
 4.281874043489687e-01	 1.038735606866850e+00	 1.565423636782081e+00
 4.184417412394940e-01	 1.042699685180430e+00	 1.466690444701861e+00
 4.086781340731299e-01	 1.046565011484631e+00	 1.371459369121637e+00
 3.988980170079298e-01	 1.050331630917772e+00	 1.279595893259813e+00
 3.891028175122886e-01	 1.053999615109086e+00	 1.190977614642434e+00
 4.900223252707658e-01	 1.020833636556505e+00	 2.397759545857352e+00
 4.803392820804012e-01	 1.025425442437019e+00	 2.270971631286766e+00
 4.706293739007002e-01	 1.029918023012649e+00	 2.148519490698851e+00
 4.608940737194178e-01	 1.034311258244820e+00	 2.030237678944776e+00
 4.511348515153240e-01	 1.038605056237903e+00	 1.915966453409350e+00
 4.413531736112893e-01	 1.042799353039807e+00	 1.805553139677053e+00
 4.315505020366115e-01	 1.046894112425490e+00	 1.698853443190611e+00
 4.217282938990817e-01	 1.050889325663823e+00	 1.595732701733447e+00
 4.118880007672668e-01	 1.054785011268236e+00	 1.496067073974269e+00
 4.020310680634656e-01	 1.058581214731576e+00	 1.399744659718883e+00
 3.921589344677779e-01	 1.062278008245671e+00	 1.306666547949111e+00
 4.938411026219721e-01	 1.028789062610151e+00	 2.552251922816793e+00
 4.840825988168095e-01	 1.033416652746681e+00	 2.422041094010504e+00
 4.742970206616783e-01	 1.037944244308754e+00	 2.295942446459733e+00
 4.644858526234161e-01	 1.042371716322328e+00	 2.173809748073142e+00
 4.546505761364266e-01	 1.046698976175627e+00	 2.055503296391328e+00
 4.447926689507233e-01	 1.050925959418177e+00	 1.940891294663255e+00
 4.349136044892870e-01	 1.055052629542636e+00	 1.829851171399603e+00
 4.250148512152379e-01	 1.059078977749833e+00	 1.722270838106835e+00
 4.150978720093040e-01	 1.063005022697474e+00	 1.618049880325063e+00
 4.051641235580489e-01	 1.066830810232940e+00	 1.517100677523812e+00
 3.952150557532931e-01	 1.070556413110653e+00	 1.419349447849123e+00
 4.976598843018319e-01	 1.036744497680246e+00	 2.703830721930876e+00
 4.878259197963485e-01	 1.041407872113348e+00	 2.570443919807317e+00
 4.779646715800181e-01	 1.045970474701542e+00	 2.440886047221926e+00
 4.680776355987750e-01	 1.050432183535317e+00	 2.315031773246762e+00
 4.581663047426705e-01	 1.054792905286752e+00	 2.192763107683547e+00
 4.482321681888748e-01	 1.059052575006993e+00	 2.073970786328177e+00
 4.382767107540655e-01	 1.063211155906394e+00	 1.958555597201863e+00
 4.283014122567060e-01	 1.067268639117747e+00	 1.846429642323344e+00
 4.183077468897003e-01	 1.071225043443037e+00	 1.737517530030665e+00
 4.082971826038889e-01	 1.075080415084176e+00	 1.631757493304631e+00
 3.982711805028276e-01	 1.078834827358185e+00	 1.529102430011210e+00
 5.014786692283897e-01	 1.044699939512429e+00	 2.852682754019380e+00
 4.915692439584294e-01	 1.049399098272520e+00	 2.716358229662123e+00
 4.816323256165569e-01	 1.053996711916592e+00	 2.583519252069246e+00
 4.716694216278137e-01	 1.058492657599668e+00	 2.454062981599679e+00
 4.616820363379095e-01	 1.062886841277681e+00	 2.327894715871969e+00
 4.516716703511823e-01	 1.067179197503398e+00	 2.204929283108086e+00
 4.416398198780169e-01	 1.071369689204871e+00	 2.085092373939220e+00
 4.315879760922307e-01	 1.075458307446854e+00	 1.968321806109393e+00
 4.215176244989138e-01	 1.079445071175615e+00	 1.854568716968826e+00
 4.114302443131947e-01	 1.083330026947597e+00	 1.743798679110051e+00
 4.013273078503746e-01	 1.087113248642424e+00	 1.635992734978587e+00
 5.052974563196894e-01	 1.052655385852336e+00	 2.998976317194431e+00
 4.953125702424631e-01	 1.057390328959694e+00	 2.859944529824538e+00
 4.852999817321316e-01	 1.062022953679483e+00	 2.723994316612465e+00
 4.752612096928517e-01	 1.066553136231262e+00	 2.591046822853293e+00
 4.651977699259986e-01	 1.070980781854817e+00	 2.461032114478213e+00
 4.551111744630852e-01	 1.075305824604536e+00	 2.333890578488083e+00
 4.450029309082117e-01	 1.079528227126172e+00	 2.209574259337246e+00
 4.348745417905561e-01	 1.083647980416444e+00	 2.088048125568300e+00
 4.247275039274028e-01	 1.087665103565898e+00	 1.969291261467939e+00
 4.145633077981754e-01	 1.091579643485516e+00	 1.853297978994486e+00
 4.043834369299279e-01	 1.095391674617524e+00	 1.740078845720916e+00
 5.091162444937753e-01	 1.060610834445606e+00	 3.142861540597405e+00
 4.990558975878610e-01	 1.065381561910370e+00	 3.001346035505100e+00
 4.889676388875799e-01	 1.070049197715796e+00	 2.862447096111403e+00
 4.788529987762085e-01	 1.074613617145979e+00	 2.726111251253196e+00
 4.687135045107921e-01	 1.079074724724561e+00	 2.592294722024896e+00
 4.585506795500227e-01	 1.083432454007551e+00	 2.460964828426164e+00
 4.483660428917197e-01	 1.087686767358405e+00	 2.332101329440637e+00
 4.381611084204268e-01	 1.091837655705804e+00	 2.205697690706995e+00
 4.279373842656258e-01	 1.095885138284579e+00	 2.081762274428189e+00
 4.176963721710401e-01	 1.099829262360247e+00	 1.960319446664029e+00
 4.074395668754807e-01	 1.103670102937638e+00	 1.841410597663877e+00
 3.768784103107179e-01	 1.020886206763610e+00	 6.963213383331324e-01
 3.673793285980262e-01	 1.024342932873229e+00	 6.269713589511325e-01
 3.578683852392132e-01	 1.027704368830951e+00	 5.611029545835131e-01
 3.483469389886465e-01	 1.030970658465916e+00	 4.985028612361355e-01
 3.388163399692086e-01	 1.034141970034960e+00	 4.389692687576603e-01
 3.292779291590125e-01	 1.037218495887461e+00	 3.823125473181932e-01
 3.197330378908556e-01	 1.040200452118341e+00	 3.283559033136170e-01
 3.101829873646866e-01	 1.043088078209732e+00	 2.769359636552133e-01
 3.006290881733399e-01	 1.045881636661798e+00	 2.279032877495633e-01
 2.910726398417740e-01	 1.048581412613244e+00	 1.811228068140127e-01
 2.815149303800232e-01	 1.051187713452026e+00	 1.364741905080757e-01
 3.799345012860394e-01	 1.029164529528158e+00	 8.249776361793386e-01
 3.703583919246967e-01	 1.032649286082447e+00	 7.519871021789286e-01
 3.607703247316137e-01	 1.036037979781014e+00	 6.825983566618783e-01
 3.511716694792442e-01	 1.039330755619317e+00	 6.165584506118007e-01
 3.415637872385637e-01	 1.042527783218591e+00	 5.536260313927976e-01
 3.319480298616250e-01	 1.045629256487976e+00	 4.935721508387956e-01
 3.223257394769506e-01	 1.048635393274710e+00	 4.361809991029819e-01
 3.126982479980479e-01	 1.051546435002888e+00	 3.812505631205196e-01
 3.030668766452971e-01	 1.054362646301285e+00	 3.285932089022379e-01
 2.934329354814539e-01	 1.057084314620796e+00	 2.780361872392922e-01
 2.837977229609758e-01	 1.059711749841981e+00	 2.294220627397192e-01
 3.829906000554127e-01	 1.037442873404484e+00	 9.502320481615372e-01
 3.733374628490192e-01	 1.040955660474934e+00	 8.734177544896427e-01
 3.636722716250195e-01	 1.044371611983876e+00	 8.002710500483468e-01
 3.539964071739805e-01	 1.047690874093082e+00	 7.305134314685051e-01
 3.443112415149984e-01	 1.050913617788185e+00	 6.638783616925030e-01
 3.346181373740906e-01	 1.054040038538092e+00	 6.001121380854797e-01
 3.249184476755320e-01	 1.057070355942356e+00	 5.389746826629040e-01
 3.152135150464144e-01	 1.060004813367034e+00	 4.802402532198342e-01
 3.055046713346904e-01	 1.062843677569518e+00	 4.236980745184495e-01
 2.957932371409377e-01	 1.065587238312894e+00	 3.691528890806386e-01
 2.860805213640624e-01	 1.068235807970332e+00	 3.164254274803167e-01
 3.860467057528313e-01	 1.045721236046741e+00	 1.072197531641747e+00
 3.763165405267979e-01	 1.049262053696909e+00	 9.913573529204220e-01
 3.665742250970738e-01	 1.052705263078036e+00	 9.142037581293216e-01
 3.568211512723624e-01	 1.056051011518212e+00	 8.404464287318354e-01
 3.470587020199041e-01	 1.059299471367465e+00	 7.698076083070009e-01
 3.372882509397052e-01	 1.062450839654468e+00	 7.020230094346918e-01
 3.275111617518158e-01	 1.065505337731094e+00	 6.368426390758724e-01
 3.177287877969363e-01	 1.068463210905362e+00	 5.740315411877202e-01
 3.079424715506134e-01	 1.071324728063283e+00	 5.133704557127352e-01
 2.981535441512712e-01	 1.074090181280135e+00	 4.546563934725834e-01
 2.883633249422863e-01	 1.076759885421701e+00	 3.977031268753435e-01
 3.891028175122886e-01	 1.053999615109086e+00	 1.190977614642430e+00
 3.792956241138376e-01	 1.057568463394589e+00	 1.105891622828228e+00
 3.694761843254197e-01	 1.061038930701994e+00	 1.024471758043811e+00
 3.596459009738961e-01	 1.064411165525704e+00	 9.464292455840497e-01
 3.498061679746720e-01	 1.067685341580148e+00	 8.714886931143146e-01
 3.399583698017640e-01	 1.070861657453763e+00	 7.993890154167316e-01
 3.301038809710178e-01	 1.073940336250739e+00	 7.298842740208005e-01
 3.202440655367624e-01	 1.076921625221063e+00	 6.627444304510997e-01
 3.103802766021601e-01	 1.079805795379364e+00	 5.977560122349543e-01
 3.005138558435000e-01	 1.082593141113114e+00	 5.347226912224126e-01
 2.906461330486507e-01	 1.085283979780712e+00	 4.734657741653021e-01
 3.921589344677779e-01	 1.062278008245671e+00	 1.306666547949111e+00
 3.822747127659429e-01	 1.065874887214190e+00	 1.217098098650252e+00
 3.723781484877006e-01	 1.069372612494248e+00	 1.131142979682597e+00
 3.624706554780882e-01	 1.072771333746560e+00	 1.048526949827935e+00
 3.525536386006943e-01	 1.076071226049955e+00	 9.689901936171781e-01
 3.426284932035629e-01	 1.079272489552634e+00	 8.922882433466914e-01
 3.326966045983542e-01	 1.082375349111109e+00	 8.181928123797135e-01
 3.227593475530428e-01	 1.085380053917329e+00	 7.464925384831425e-01
 3.128180857984240e-01	 1.088286877114545e+00	 6.769936363787741e-01
 3.028741715486706e-01	 1.091096115402428e+00	 6.095204591112102e-01
 2.929289450361587e-01	 1.093808088631989e+00	 5.439159682456918e-01
 3.952150557532931e-01	 1.070556413110653e+00	 1.419349447849123e+00
 3.852538056389183e-01	 1.074181322801931e+00	 1.325046236867192e+00
 3.752801167615595e-01	 1.077706306093297e+00	 1.234278098012268e+00
 3.652954139844452e-01	 1.081131513811779e+00	 1.146797954273168e+00
 3.553011131193620e-01	 1.084457122400605e+00	 1.062374419651192e+00
 3.452986203883977e-01	 1.087683333567741e+00	 9.807926981769608e-01
 3.352893318990406e-01	 1.090810373922017e+00	 9.018553906119164e-01
 3.252746331329267e-01	 1.093838494597351e+00	 8.253832076340069e-01
 3.152558984484991e-01	 1.096767970865613e+00	 7.512155887550342e-01
 3.052344905978284e-01	 1.099599101738671e+00	 6.792112266490502e-01
 2.952117602578134e-01	 1.102332209560156e+00	 6.092484970020955e-01
 3.982711805028276e-01	 1.078834827358185e+00	 1.529102430011206e+00
 3.882329018885686e-01	 1.082487767804028e+00	 1.429797521590604e+00
 3.781820883246397e-01	 1.086040009137640e+00	 1.333930619085380e+00
 3.681201756924736e-01	 1.089491703352362e+00	 1.241294091464445e+00
 3.580485907520672e-01	 1.092843028255819e+00	 1.151697484712435e+00
 3.479687505995637e-01	 1.096094187115742e+00	 1.064968377883568e+00
 3.378820621382930e-01	 1.099245408293281e+00	 9.809531432343035e-01
 3.277899215635637e-01	 1.102296944864320e+00	 8.995176093163741e-01
 3.176937138614790e-01	 1.105249074229350e+00	 8.205476263700415e-01
 3.075948123220192e-01	 1.108102097712440e+00	 7.439495338087800e-01
 2.974945780666181e-01	 1.110856340149837e+00	 6.696505300270976e-01
 4.013273078503746e-01	 1.087113248642424e+00	 1.635992734978586e+00
 3.912120006706981e-01	 1.090794219866700e+00	 1.531405563168458e+00
 3.810840623545846e-01	 1.094373719265776e+00	 1.430146960070994e+00
 3.709449398016797e-01	 1.097851899999308e+00	 1.332060683056024e+00
 3.607960707202014e-01	 1.101228941239315e+00	 1.237009372192823e+00
 3.506388830803571e-01	 1.104505047813296e+00	 1.144875343676746e+00
 3.404747945813272e-01	 1.107680449834715e+00	 1.055561283720620e+00
 3.303052121321033e-01	 1.110755402321427e+00	 9.689908419005495e-01
 3.201315313464578e-01	 1.113730184802543e+00	 8.851091234177044e-01
 3.099551360522893e-01	 1.116605100914329e+00	 8.038830802077421e-01
 2.997773978155759e-01	 1.119380477985654e+00	 7.253018012809096e-01
 4.043834369299279e-01	 1.095391674617524e+00	 1.740078845720924e+00
 3.941911011411117e-01	 1.099100676636162e+00	 1.629916190179249e+00
 3.839860380290372e-01	 1.102707434116205e+00	 1.522966523626531e+00
 3.737697055115706e-01	 1.106212101383617e+00	 1.419136604117323e+00
 3.635435522451559e-01	 1.109614858974815e+00	 1.318353996792628e+00
 3.533090170740730e-01	 1.112915913277060e+00	 1.220567785311799e+00
 3.430675284933590e-01	 1.116115496156136e+00	 1.125749180116954e+00
 3.328205041256952e-01	 1.119213864571864e+00	 1.033892022654110e+00
 3.225693502125287e-01	 1.122211300181975e+00	 9.450131851731007e-01
 3.123154611196843e-01	 1.125108108934936e+00	 8.591528661986838e-01
 3.020602188576900e-01	 1.127904620652233e+00	 7.763747822331415e-01
 4.074395668754807e-01	 1.103670102937638e+00	 1.841410597663877e+00
 3.971702024556140e-01	 1.107407135758633e+00	 1.725367535163941e+00
 3.868880145256408e-01	 1.111041151327425e+00	 1.612421766908128e+00
 3.765944720216519e-01	 1.114572305136289e+00	 1.502554342633938e+00
 3.662910345483225e-01	 1.118000779086037e+00	 1.395769261363806e+00
 3.559791518240072e-01	 1.121326781123692e+00	 1.292094081759640e+00
 3.456602631396047e-01	 1.124550544867359e+00	 1.191580425650929e+00
 3.353357968314888e-01	 1.127672329218821e+00	 1.094304374036242e+00
 3.250071697687858e-01	 1.130692417964432e+00	 1.000366755350096e+00
 3.146757868552502e-01	 1.133611119364855e+00	 9.098933262919497e-01
 3.043430405459638e-01	 1.136428765734195e+00	 8.230348459814456e-01
 2.815149303800232e-01	 1.051187713452026e+00	 1.364741905080757e-01
 2.719572359804875e-01	 1.053700868645081e+00	 9.379608474024881e-02
 2.624008209779921e-01	 1.056121230013807e+00	 5.296225394058540e-02
 2.528469370324877e-01	 1.058449170629273e+00	 1.392822548853356e-02
 2.432968226052729e-01	 1.060685084158954e+00	-2.333452937074432e-02
 2.337517025831925e-01	 1.062829384435084e+00	-5.883862609441781e-02
 2.242127879174382e-01	 1.064882505016369e+00	-9.258086362895801e-02
 2.146812752770187e-01	 1.066844898743585e+00	-1.245423854248351e-01
 2.051583467169507e-01	 1.068717037289555e+00	-1.546889024571896e-01
 1.956451693612018e-01	 1.070499410704053e+00	-1.829709758491531e-01
 1.861428951003990e-01	 1.072192526954103e+00	-2.093243565048519e-01
 2.837977229609758e-01	 1.059711749841981e+00	 2.294220627397192e-01
 2.741625256248551e-01	 1.062245284103420e+00	 1.825802970202162e-01
 2.645286180603517e-01	 1.064685272079408e+00	 1.374217998789682e-01
 2.548972620770692e-01	 1.067032089866219e+00	 9.393566830775235e-02
 2.452697061789318e-01	 1.069286134323551e+00	 5.212785468899384e-02
 2.356471851853356e-01	 1.071447822639375e+00	 1.202108506806487e-02
 2.260309198670197e-01	 1.073517591888097e+00	-2.634529095094784e-02
 2.164221165967268e-01	 1.075495898582547e+00	-6.291551653565053e-02
 2.068219670147032e-01	 1.077383218220314e+00	-9.761770781181323e-02
 1.972316477090714e-01	 1.079180044824955e+00	-1.303641953311119e-01
 1.876523199110862e-01	 1.080886890482565e+00	-1.610519240668418e-01
 2.860805213640624e-01	 1.068235807970332e+00	 3.164254274803167e-01
 2.763678208936756e-01	 1.070789721352055e+00	 2.653572715651435e-01
 2.666564205694990e-01	 1.073249335985267e+00	 2.159014115816058e-01
 2.569475923508175e-01	 1.075615030991461e+00	 1.680712850002242e-01
 2.472425947842089e-01	 1.077887206422568e+00	 1.218980958950460e-01
 2.375426726216478e-01	 1.080066282822310e+00	 7.743069393065261e-02
 2.278490564534482e-01	 1.082152700780805e+00	 3.473538248272856e-02
 2.181629623561134e-01	 1.084146920482950e+00	-6.104341815498238e-03
 2.084855915551461e-01	 1.086049421251115e+00	-4.498811558076854e-02
 1.988181301028497e-01	 1.087860701082651e+00	-8.179909851366762e-02
 1.891617485711329e-01	 1.089581276182744e+00	-1.164044236374906e-01
 2.883633249422863e-01	 1.076759885421701e+00	 3.977031268753435e-01
 2.785731211619116e-01	 1.079334177969854e+00	 3.423814676544548e-01
 2.687842279023556e-01	 1.081813419304712e+00	 2.886876291772293e-01
 2.589979272726093e-01	 1.084197991573000e+00	 2.366503701993357e-01
 2.492154878619283e-01	 1.086488298018892e+00	 1.863171280324396e-01
 2.394381643548905e-01	 1.088684762541873e+00	 1.377538699616920e-01
 2.296671971614083e-01	 1.090787829247780e+00	 9.104487097316349e-02
 2.199038120617701e-01	 1.092797961993595e+00	 4.629242021068869e-02
 2.101492198667583e-01	 1.094715643926478e+00	 3.616458828623159e-03
 2.004046160928801e-01	 1.096541377017587e+00	-3.684584788333067e-02
 1.906711806527213e-01	 1.098275681591209e+00	-7.494060102632583e-02
 2.906461330486507e-01	 1.085283979780712e+00	 4.734657741653021e-01
 2.807784258045261e-01	 1.087878651535683e+00	 4.138983486853869e-01
 2.709120394558433e-01	 1.090377519611071e+00	 3.560573201445894e-01
 2.610482662613208e-01	 1.092780969178836e+00	 2.999779522476080e-01
 2.511883848529139e-01	 1.095089406675410e+00	 2.457151010233458e-01
 2.413336598478245e-01	 1.097303259356043e+00	 1.933430502375004e-01
 2.314853414755851e-01	 1.099422974842311e+00	 1.429552699480308e-01
 2.216446652202888e-01	 1.101449020663285e+00	 9.466410075409382e-02
 2.118128514780187e-01	 1.103381883790922e+00	 4.860036653526967e-02
 2.019911052295061e-01	 1.105222070170204e+00	 4.912918701904356e-03
 1.921806157280338e-01	 1.106970104244528e+00	-3.623188481401440e-02
 2.929289450361587e-01	 1.093808088631989e+00	 5.439159682456918e-01
 2.829837341964819e-01	 1.096423139628413e+00	 4.801446357405279e-01
 2.730398546268836e-01	 1.098941634477672e+00	 4.182779680028839e-01
 2.630986087358285e-01	 1.101363961376972e+00	 3.583491133950374e-01
 2.531612851979899e-01	 1.103690529955006e+00	 3.004117292881814e-01
 2.432291585632114e-01	 1.105921770822807e+00	 2.445398128835614e-01
 2.333034888806631e-01	 1.108058135117686e+00	 1.908274516698705e-01
 2.233855213382613e-01	 1.110100094040817e+00	 1.393884961924488e-01
 2.134764859174065e-01	 1.112048138388968e+00	 9.035615805352570e-02
 2.035775970630714e-01	 1.113902778080947e+00	 4.388253630649164e-02
 1.936900533692525e-01	 1.115664541679271e+00	 1.380756146676099e-04
 2.952117602578134e-01	 1.102332209560156e+00	 6.092484970020955e-01
 2.851890457127416e-01	 1.104967639826909e+00	 5.413485482099940e-01
 2.751676728123982e-01	 1.107505761477841e+00	 4.756079465166487e-01
 2.651489541150092e-01	 1.109946965735407e+00	 4.120492941341709e-01
 2.551341883379802e-01	 1.112291665420569e+00	 3.507166230137932e-01
 2.451246599638122e-01	 1.114540294500143e+00	 2.916752323370200e-01
 2.351216388613272e-01	 1.116693307627193e+00	 2.350114418064799e-01
 2.251263799222792e-01	 1.118751179674995e+00	 1.808322635153532e-01
 2.151401227134003e-01	 1.120714405265136e+00	 1.292649954370377e-01
 2.051640911439192e-01	 1.122583498290258e+00	 8.045673983237522e-02
 1.951994931485598e-01	 1.124358991432006e+00	 3.457385008255054e-02
 2.974945780666181e-01	 1.110856340149837e+00	 6.696505300270976e-01
 2.873943597282683e-01	 1.113512149710043e+00	 5.977300321665022e-01
 2.772954934093091e-01	 1.116069898184907e+00	 5.282967801899137e-01
 2.671993018177392e-01	 1.118529979822142e+00	 4.613545825218410e-01
 2.571070937137090e-01	 1.120892810634984e+00	 3.969296032486636e-01
 2.470201635123880e-01	 1.123158827946038e+00	 3.350702174064990e-01
 2.369397909022623e-01	 1.125328489924120e+00	 2.758467778901985e-01
 2.268672404789342e-01	 1.127402275114618e+00	 2.193512968597737e-01
 2.168037613944795e-01	 1.129380681963944e+00	 1.656970448073780e-01
 2.067505870223931e-01	 1.131264228338580e+00	 1.150180707012325e-01
 1.967089346381378e-01	 1.133053451039304e+00	 6.746864685720322e-02
 2.997773978155759e-01	 1.119380477985654e+00	 7.253018012809096e-01
 2.895996756180249e-01	 1.122056666856680e+00	 6.495009771458209e-01
 2.794233158145376e-01	 1.124634042172197e+00	 5.765853917858959e-01
 2.692496512628950e-01	 1.127113001205179e+00	 5.065319892865592e-01
 2.590800007660003e-01	 1.129493963161138e+00	 4.393410016854649e-01
 2.489156686717003e-01	 1.131777368718472e+00	 3.750358330458545e-01
 2.387579444881531e-01	 1.133963679561754e+00	 3.136628506292469e-01
 2.286081025148181e-01	 1.136053377908490e+00	 2.552910861400801e-01
 2.184674014891227e-01	 1.138046966029914e+00	 2.000118503135422e-01
 2.083370842488365e-01	 1.139944965766357e+00	 1.479382643840630e-01
 1.982183774101689e-01	 1.141747918037733e+00	 9.920471221762872e-02
 3.020602188576900e-01	 1.127904620652233e+00	 7.763747822331415e-01
 2.918049927569739e-01	 1.130601188845688e+00	 6.968654219454669e-01
 2.815511394250055e-01	 1.133198191013039e+00	 6.207063375538948e-01
 2.713000018693529e-01	 1.135696027452518e+00	 5.478397094763592e-01
 2.610529089356780e-01	 1.138095120561916e+00	 4.782319459420146e-01
 2.508111749045100e-01	 1.140395914375427e+00	 4.118736067025290e-01
 2.405760991036842e-01	 1.142598874093383e+00	 3.487792289817131e-01
 2.303489655365227e-01	 1.144704485605409e+00	 2.889870587222845e-01
 2.201310425258092e-01	 1.146713255007565e+00	 2.325586905041859e-01
 2.099235823735930e-01	 1.148625708114031e+00	 1.795786197877121e-01
 1.997278210368353e-01	 1.150442389963861e+00	 1.301537113915701e-01
 3.043430405459638e-01	 1.136428765734195e+00	 8.230348459814456e-01
 2.940103105200784e-01	 1.139145713255937e+00	 7.400197500194312e-01
 2.836789636376346e-01	 1.141762342280760e+00	 6.608840308107866e-01
 2.733503530559896e-01	 1.144279056132160e+00	 5.855273713522431e-01
 2.630258176635664e-01	 1.146696280400205e+00	 5.138746311012117e-01
 2.527066816735784e-01	 1.149014462474888e+00	 4.458758200517825e-01
 2.423942542335408e-01	 1.151234071072297e+00	 3.815059698407608e-01
 2.320898290506398e-01	 1.153355595754177e+00	 3.207649050308961e-01
 2.217946840330177e-01	 1.155379546441417e+00	 2.636769180352641e-01
 2.115100809470059e-01	 1.157306452922045e+00	 2.102903514521555e-01
 2.012372650903192e-01	 1.159136864354258e+00	 1.606770918423019e-01
 1.861428951003990e-01	 1.072192526954103e+00	-2.093243565048502e-01
 1.766510483720675e-01	 1.073797176574809e+00	-2.339847417082277e-01
 1.671723688340672e-01	 1.075313606165639e+00	-2.572579169351519e-01
 1.577079640083019e-01	 1.076742374151761e+00	-2.791764725473982e-01
 1.482589250583532e-01	 1.078084055023988e+00	-2.997594703422513e-01
 1.388263265602436e-01	 1.079339238862790e+00	-3.190128266742658e-01
 1.294112262877410e-01	 1.080508530860630e+00	-3.369297400992068e-01
 1.200146650121030e-01	 1.081592550843088e+00	-3.534911603407043e-01
 1.106376663161413e-01	 1.082591932789227e+00	-3.686662953225461e-01
 1.012812364224704e-01	 1.083507324351631e+00	-3.824131529814205e-01
 9.194636403579609e-02	 1.084339386376554e+00	-3.946791145505752e-01
 1.876523199110862e-01	 1.080886890482565e+00	-1.610519240668409e-01
 1.780835042019536e-01	 1.082504552138659e+00	-1.899046293379536e-01
 1.685279624553002e-01	 1.084033278392373e+00	-2.172348747105683e-01
 1.589868111738754e-01	 1.085473632197129e+00	-2.430656788628740e-01
 1.494611503694588e-01	 1.086826192702271e+00	-2.674056892450047e-01
 1.399520633317619e-01	 1.088091554773214e+00	-2.902496002729009e-01
 1.304606164119931e-01	 1.089270328509909e+00	-3.115786179177302e-01
 1.209878588209785e-01	 1.090363138764082e+00	-3.313609673167748e-01
 1.115348224417171e-01	 1.091370624655714e+00	-3.495524399849144e-01
 1.021025216562383e-01	 1.092293439089185e+00	-3.660969771685108e-01
 9.269195318661062e-02	 1.093132248269526e+00	-3.809272858608028e-01
 1.891617485711329e-01	 1.089581276182744e+00	-1.164044236374950e-01
 1.795159636848741e-01	 1.091211949907333e+00	-1.490227225636827e-01
 1.698835595335222e-01	 1.092752972855232e+00	-1.799766082740639e-01
 1.602656616006947e-01	 1.094204912508127e+00	-2.092828652137459e-01
 1.506633787463893e-01	 1.095568352673903e+00	-2.369430533525607e-01
 1.410778029740277e-01	 1.096843893002933e+00	-2.629439577176096e-01
 1.315100092122801e-01	 1.098032148502666e+00	-2.872580863488823e-01
 1.219610551115605e-01	 1.099133749050992e+00	-3.098442131395309e-01
 1.124319808550757e-01	 1.100149338908817e+00	-3.306479619664033e-01
 1.029238089842894e-01	 1.101079576232330e+00	-3.496024284776382e-01
 9.343754423865198e-02	 1.101925132585359e+00	-3.666288358917087e-01
 1.906711806527213e-01	 1.098275681591209e+00	-7.494060102632583e-02
 1.809484264148250e-01	 1.099919367413728e+00	-1.108882732309264e-01
 1.712391596845128e-01	 1.101472687083637e+00	-1.450249743644076e-01
 1.615445149262892e-01	 1.102936212610899e+00	-1.773645063445990e-01
 1.518656098483897e-01	 1.104310532461951e+00	-2.079045816114644e-01
 1.422035451679654e-01	 1.105596251072132e+00	-2.366273003517092e-01
 1.325594043911660e-01	 1.106793988356403e+00	-2.634996783376935e-01
 1.229342536080124e-01	 1.107904379218823e+00	-2.884742216724265e-01
 1.133291413019373e-01	 1.108928073061243e+00	-3.114895446701280e-01
 1.037450981738560e-01	 1.109865733291667e+00	-3.324710270698326e-01
 9.418313698061839e-02	 1.110718036832734e+00	-3.513315067548342e-01
 1.921806157280338e-01	 1.106970104244528e+00	-3.623188481401352e-02
 1.823808919858028e-01	 1.108626802190737e+00	-7.506338616051345e-02
 1.725947625240515e-01	 1.110192418607010e+00	-1.119348101802013e-01
 1.628233707881890e-01	 1.111667530031593e+00	-1.468601448513338e-01
 1.530678433347056e-01	 1.113052729589483e+00	-1.798364107295338e-01
 1.433292895944988e-01	 1.114348626500999e+00	-2.108441623071817e-01
 1.336088016512149e-01	 1.115555845588621e+00	-2.398480423467624e-01
 1.239074540344977e-01	 1.116675026782587e+00	-2.667973852927563e-01
 1.142263035280217e-01	 1.117706824625701e+00	-2.916268658297292e-01
 1.045663889921703e-01	 1.118651907777798e+00	-3.142571886005840e-01
 9.492873120120811e-02	 1.119510958520333e+00	-3.345958150809856e-01
 1.936900533692525e-01	 1.115664541679271e+00	 1.380756146609485e-04
 1.838133599918037e-01	 1.117334251771257e+00	-4.112254536552884e-02
 1.739503676679177e-01	 1.118912164954772e+00	-8.027344985448215e-02
 1.641022288239238e-01	 1.120398862296354e+00	-1.173318998818775e-01
 1.542700788645824e-01	 1.121794941579569e+00	-1.522972979661765e-01
 1.444550359345522e-01	 1.123101016809721e+00	-1.851517091481933e-01
 1.346582006949907e-01	 1.124317717716819e+00	-2.158604385071676e-01
 1.248806561151796e-01	 1.125445689257293e+00	-2.443726601033029e-01
 1.151234672790491e-01	 1.126485591114903e+00	-2.706220932263275e-01
 1.053876812064646e-01	 1.127438097201324e+00	-2.945277217873667e-01
 9.567432668911931e-02	 1.128303895156839e+00	-3.159945526747863e-01
 1.951994931485598e-01	 1.124358991432006e+00	 3.457385008255454e-02
 1.852458300268238e-01	 1.126041713688183e+00	-8.652162715456324e-03
 1.753059747318907e-01	 1.127631923656345e+00	-4.962026377533002e-02
 1.653810886710233e-01	 1.129130206931330e+00	-8.835399899259100e-02
 1.554723160972654e-01	 1.130537165955279e+00	-1.248581473111425e-01
 1.455807838690497e-01	 1.131853419518487e+00	-1.591192600478686e-01
 1.357076012250577e-01	 1.133079602258502e+00	-1.911062583801630e-01
 1.258538595742214e-01	 1.134216364157949e+00	-2.207710847619584e-01
 1.160206323007395e-01	 1.135264370041556e+00	-2.480494039677579e-01
 1.062089745839710e-01	 1.136224299072846e+00	-2.728613494208449e-01
 9.641992323305024e-02	 1.137096844250934e+00	-2.951123104447828e-01
 1.967089346381378e-01	 1.133053451039304e+00	 6.746864685719967e-02
 1.866783016848593e-01	 1.134749185474410e+00	 2.274985215723024e-02
 1.766615833317499e-01	 1.136351692241150e+00	-1.956621952569115e-02
 1.666599499670176e-01	 1.137861561462664e+00	-5.951233192204342e-02
 1.566745546920000e-01	 1.139279400239678e+00	-9.710155778989282e-02
 1.467065330789153e-01	 1.140605832147483e+00	-1.323278322394672e-01
 1.367570029439800e-01	 1.141841496731169e+00	-1.651665670632947e-01
 1.268270641357866e-01	 1.142987048999564e+00	-1.955753216594975e-01
 1.169177983388128e-01	 1.144043158918370e+00	-2.234945260637269e-01
 1.070302688919220e-01	 1.145010510902963e+00	-2.488482515654811e-01
 9.716552062169906e-02	 1.145889803311299e+00	-2.715450243575428e-01
 1.982183774101689e-01	 1.141747918037733e+00	 9.920471221763272e-02
 1.881107745599065e-01	 1.143456664662833e+00	 5.347450184180413e-02
 1.780171930832751e-01	 1.145071468238607e+00	 1.028653670839486e-02
 1.679388123494363e-01	 1.146592923416506e+00	-3.040402510799378e-02
 1.578767943080316e-01	 1.148021641955837e+00	-6.862139272125889e-02
 1.478322832450733e-01	 1.149358252216897e+00	-1.043697065502540e-01
 1.378064055543216e-01	 1.150603398652322e+00	-1.376336664494189e-01
 1.278002695240385e-01	 1.151757741297148e+00	-1.683792192595264e-01
 1.178149651389892e-01	 1.152821955258056e+00	-1.965543011107269e-01
 1.078515638975497e-01	 1.153796730202278e+00	-2.220896297628929e-01
 9.791111864376409e-02	 1.154682769846619e+00	-2.448995422455149e-01
 1.997278210368353e-01	 1.150442389963861e+00	 1.301537113915692e-01
 1.895432482459616e-01	 1.152164148786348e+00	 8.390209208590749e-02
 1.793728036022452e-01	 1.153791249178140e+00	 4.032507934401597e-02
 1.692176754558092e-01	 1.155324290318999e+00	-6.370358574505630e-04
 1.590790346046055e-01	 1.156763888626824e+00	-3.902236882010346e-02
 1.489580340484477e-01	 1.158110677246916e+00	-7.484801290748111e-02
 1.388558087586465e-01	 1.159365305539463e+00	-1.081106785197492e-01
 1.287734754631403e-01	 1.160528438565709e+00	-1.387873944789502e-01
 1.187121324469886e-01	 1.161600756573321e+00	-1.668362669698005e-01
 1.086728593680864e-01	 1.162582954481391e+00	-1.921972911312295e-01
 9.865671708794346e-02	 1.163475741365573e+00	-2.147932103650447e-01
 2.012372650903192e-01	 1.159136864354258e+00	 1.606770918423064e-01
 1.909757223370208e-01	 1.160871635377850e+00	 1.144026046847060e-01
 1.807284145044399e-01	 1.162511032589169e+00	 7.092608423896030e-02
 1.704965389236662e-01	 1.164055659696293e+00	 3.017023486628823e-02
 1.602812752409672e-01	 1.165506137775708e+00	-7.919664100493939e-03
 1.500837851699626e-01	 1.166863104757728e+00	-4.337633476672487e-02
 1.399052122595189e-01	 1.168127214910092e+00	-7.621114762361314e-02
 1.297466816772556e-01	 1.169299138320258e+00	-1.064148340585995e-01
 1.196093000085310e-01	 1.170379560376875e+00	-1.339582593888902e-01
 1.094941550707644e-01	 1.171369181250904e+00	-1.587932513148940e-01
 9.940231574293544e-02	 1.172268715376846e+00	-1.808534786680074e-01
 9.194636403579609e-02	 1.084339386376554e+00	-3.946791145505770e-01
 8.263559750400498e-02	 1.085088671992387e+00	-4.055863803671578e-01
 7.334828292024807e-02	 1.085756014974210e+00	-4.153176186320788e-01
 6.408533397596120e-02	 1.086342112304158e+00	-4.238903349873131e-01
 5.484764694112109e-02	 1.086847672230783e+00	-4.313129913947908e-01
 4.563610057124283e-02	 1.087273413802824e+00	-4.375855485342570e-01
 3.645155602683708e-02	 1.087620066405180e+00	-4.427000249886568e-01
 2.729485680511988e-02	 1.087888369297435e+00	-4.466410702618093e-01
 1.816682868375999e-02	 1.088079071155274e+00	-4.493865487400583e-01
 9.068279676440062e-03	 1.088192929615108e+00	-4.509081317972079e-01
 0.000000000000000e+00	 1.088230710822225e+00	-4.511718951965040e-01
 9.269195318661062e-02	 1.093132248269526e+00	-3.809272858608050e-01
 8.330568604516947e-02	 1.093887609810434e+00	-3.941642174026514e-01
 7.394306102259096e-02	 1.094560364248029e+00	-4.059970464838956e-01
 6.460499921942929e-02	 1.095151214216240e+00	-4.164386083494129e-01
 5.529240417350925e-02	 1.095660873706773e+00	-4.254923768238594e-01
 4.600616176616953e-02	 1.096090067599097e+00	-4.331530339071983e-01
 3.674714014106687e-02	 1.096439531192658e+00	-4.394070567356945e-01
 2.751618963533194e-02	 1.096710009741660e+00	-4.442333188243452e-01
 1.831414272286069e-02	 1.096902257992762e+00	-4.476037025758393e-01
 9.141813969515078e-03	 1.097017039726013e+00	-4.494837201286468e-01
 0.000000000000000e+00	 1.097055127299335e+00	-4.498331395719899e-01
 9.343754423865198e-02	 1.101925132585359e+00	-3.666288358917060e-01
 8.397577629499998e-02	 1.102686570066909e+00	-3.818533085876958e-01
 7.453784064152362e-02	 1.103364735974160e+00	-3.954769170681152e-01
 6.512466578791765e-02	 1.103960338592843e+00	-4.075089768322324e-01
 5.573716253987668e-02	 1.104474097657828e+00	-4.179490601127025e-01
 4.637622390458444e-02	 1.104906743879326e+00	-4.267875932088931e-01
 3.704272500886458e-02	 1.105259018471340e+00	-4.340064718562835e-01
 2.773752302978304e-02	 1.105531672682705e+00	-4.395796914105441e-01
 1.846145713748307e-02	 1.105725467331067e+00	-4.434739887007391e-01
 9.215348450025656e-03	 1.105841172340124e+00	-4.456494924886996e-01
 0.000000000000000e+00	 1.105879566280446e+00	-4.460603794399010e-01
 9.418313698061839e-02	 1.110718036832734e+00	-3.513315067548386e-01
 8.464586806360859e-02	 1.111485550268766e+00	-3.682081920332498e-01
 7.513262160851970e-02	 1.112169127658013e+00	-3.833183621303236e-01
 6.564433353420512e-02	 1.112769482938021e+00	-3.966689196020337e-01
 5.618192191424692e-02	 1.113287341586829e+00	-4.082565778303677e-01
 4.674628688169116e-02	 1.113723440145404e+00	-4.180684866833753e-01
 3.733831054654548e-02	 1.114078525742313e+00	-4.260828769752161e-01
 2.795885692582769e-02	 1.114353355621034e+00	-4.322697203616475e-01
 1.860877188594467e-02	 1.114548696670210e+00	-4.365914013792831e-01
 9.288883097172389e-03	 1.114665324957197e+00	-4.390033984405211e-01
 0.000000000000000e+00	 1.114704025265223e+00	-4.394549705408779e-01
 9.492873120120811e-02	 1.119510958520333e+00	-3.345958150809856e-01
 8.531596116110735e-02	 1.120284547922956e+00	-3.527960623028168e-01
 7.572740375505296e-02	 1.120973536804998e+00	-3.690950786571814e-01
 6.616400231107059e-02	 1.121578644755825e+00	-3.834984176042440e-01
 5.662668217064351e-02	 1.122100602996660e+00	-3.960009334685797e-01
 4.711635059269338e-02	 1.122540153899225e+00	-4.065874360698731e-01
 3.763389667042485e-02	 1.122898050506667e+00	-4.152333650098177e-01
 2.818019126082040e-02	 1.123175056057113e+00	-4.219054800924180e-01
 1.875608692656302e-02	 1.123371943510211e+00	-4.265625644497928e-01
 9.362417890155872e-03	 1.123489495076986e+00	-4.291561370368684e-01
 0.000000000000000e+00	 1.123528501753334e+00	-4.296311711111320e-01
 9.567432668911931e-02	 1.128303895156839e+00	-3.159945526747849e-01
 8.598605539760837e-02	 1.129083560536432e+00	-3.351962744087480e-01
 7.632218691259701e-02	 1.129777960920525e+00	-3.523928355333004e-01
 6.668367197129288e-02	 1.130387821550310e+00	-3.675894621483868e-01
 5.707144318308994e-02	 1.130913879390200e+00	-3.807801071816890e-01
 4.748641493279472e-02	 1.131356882642683e+00	-3.919481346878704e-01
 3.792948329681797e-02	 1.131717590265490e+00	-4.010670247432091e-01
 2.840152597211570e-02	 1.131996771491404e+00	-4.081010952629769e-01
 1.890340221765566e-02	 1.132195205351089e+00	-4.130062371588066e-01
 9.435952808176700e-03	 1.132313680199245e+00	-4.157306593491437e-01
 0.000000000000000e+00	 1.132352993244445e+00	-4.162156400957495e-01
 9.641992323305024e-02	 1.137096844250934e+00	-2.951123104447833e-01
 8.665615058322375e-02	 1.137882585616146e+00	-3.149998709069708e-01
 7.691697091262550e-02	 1.138582397510003e+00	-3.328090031458828e-01
 6.720334236765091e-02	 1.139197010825530e+00	-3.485455863318423e-01
 5.751620482560978e-02	 1.139727168270332e+00	-3.622035883000407e-01
 4.785647979719885e-02	 1.140173623877673e+00	-3.737657802637626e-01
 3.822507034204013e-02	 1.140537142519870e+00	-3.832044731556250e-01
 2.862286099706809e-02	 1.140818499424373e+00	-3.904822717627354e-01
 1.905071771754012e-02	 1.141018479692866e+00	-3.955528429098285e-01
 9.509487830435464e-03	 1.141137877823731e+00	-3.983616940571615e-01
 0.000000000000000e+00	 1.141177497238223e+00	-3.988469586215606e-01
 9.716552062169906e-02	 1.145889803311299e+00	-2.715450243575463e-01
 8.732624652806553e-02	 1.146681620669051e+00	-2.918091308452362e-01
 7.751175558661223e-02	 1.147386844078842e+00	-3.099521047090192e-01
 6.772301335292351e-02	 1.148006210085537e+00	-3.259814180833716e-01
 5.796096697222652e-02	 1.148540467139938e+00	-3.398919293923606e-01
 4.822654508110944e-02	 1.148990375106087e+00	-3.516666292800248e-01
 3.852065772240658e-02	 1.149356704770896e+00	-3.612774092883031e-01
 2.884419627303208e-02	 1.149640237356485e+00	-3.686858492791325e-01
 1.919803338453394e-02	 1.149841764035561e+00	-3.738440196966248e-01
 9.583022936132756e-03	 1.149962085450197e+00	-3.766952948656419e-01
 0.000000000000000e+00	 1.150002011234334e+00	-3.771751734815285e-01
 9.791111864376409e-02	 1.154682769846619e+00	-2.448995422455189e-01
 8.799634304224582e-02	 1.155480663202100e+00	-2.652371394026334e-01
 7.810654076603075e-02	 1.156191298132453e+00	-2.834413881500075e-01
 6.824268477988950e-02	 1.156815416834384e+00	-2.995222536680826e-01
 5.840572949696372e-02	 1.157353773501898e+00	-3.134763207301714e-01
 4.859661067973010e-02	 1.157807133829818e+00	-3.252875717007475e-01
 3.881624535423264e-02	 1.158176274519656e+00	-3.349281884929334e-01
 2.906553173736219e-02	 1.158461982788204e+00	-3.423593743062074e-01
 1.934534917695466e-02	 1.158665055879196e+00	-3.475321910631393e-01
 9.656558104469172e-03	 1.158786300578399e+00	-3.503884085809017e-01
 0.000000000000000e+00	 1.158826532732445e+00	-3.508613614591707e-01
 9.865671708794346e-02	 1.163475741365573e+00	-2.147932103650452e-01
 8.866643993587668e-02	 1.164279710722243e+00	-2.349073771301291e-01
 7.870132628235482e-02	 1.164995757176243e+00	-2.529064174704345e-01
 6.876235650132782e-02	 1.165624628576125e+00	-2.688036505788913e-01
 5.885049227384490e-02	 1.166167084859096e+00	-2.825981840778060e-01
 4.896667648826453e-02	 1.166623897550763e+00	-2.942757249938235e-01
 3.911183315383355e-02	 1.166995849267240e+00	-3.038094159930940e-01
 2.928686732741294e-02	 1.167283733219994e+00	-3.111606925087695e-01
 1.949266505311982e-02	 1.167488352723791e+00	-3.162801565081064e-01
 9.730093314645305e-03	 1.167610520708092e+00	-3.191084627572747e-01
 0.000000000000000e+00	 1.167651059232224e+00	-3.195772133902044e-01
 9.940231574293544e-02	 1.172268715376846e+00	-1.808534786680074e-01
 8.933653701907020e-02	 1.173078760736435e+00	-2.004533277573319e-01
 7.929611196705814e-02	 1.173800218715625e+00	-2.179866825607912e-01
 6.928202837001728e-02	 1.174433842814812e+00	-2.334710387915924e-01
 5.929525517689356e-02	 1.174980398714412e+00	-2.469087847906049e-01
 4.933674240191636e-02	 1.175440663770815e+00	-2.582880464434605e-01
 3.940742103752461e-02	 1.175815426514736e+00	-2.675835587402786e-01
 2.950820298053884e-02	 1.176105486152319e+00	-2.747575594278779e-01
 1.963998097134695e-02	 1.176311652069365e+00	-2.797607003123024e-01
 9.803628545861746e-03	 1.176434743339030e+00	-2.825329718888652e-01
 0.000000000000000e+00	 1.176475588233336e+00	-2.830046369266532e-01
 1.176475588233336e+00	 0.000000000000000e+00	 2.194903453254071e+01
 1.176434743339030e+00	 9.803628545861098e-03	 2.194823304604192e+01
 1.176311652069365e+00	 1.963998097134639e-02	 2.194316605457328e+01
 1.176105486152319e+00	 2.950820298053838e-02	 2.193393441585360e+01
 1.175815426514735e+00	 3.940742103752425e-02	 2.192063319170678e+01
 1.175440663770814e+00	 4.933674240191608e-02	 2.190335160703405e+01
 1.174980398714412e+00	 5.929525517689338e-02	 2.188217300770864e+01
 1.174433842814813e+00	 6.928202837001721e-02	 2.185717481611803e+01
 1.173800218715625e+00	 7.929611196705813e-02	 2.182842848292443e+01
 1.173078760736435e+00	 8.933653701907034e-02	 2.179599943361014e+01
 1.172268715376846e+00	 9.940231574293547e-02	 2.175994700838278e+01
 1.185298617647136e+00	 0.000000000000000e+00	 2.165502526947799e+01
 1.185257466434718e+00	 9.877151281161975e-03	 2.165421230032736e+01
 1.185133452036587e+00	 1.978727185593458e-02	 2.164933097468890e+01
 1.184925739969079e+00	 2.972950102159615e-02	 2.164047605127692e+01
 1.184633505016388e+00	 3.970295869113886e-02	 2.162773845120796e+01
 1.184255931722710e+00	 4.970674542905543e-02	 2.161120547085700e+01
 1.183792214888245e+00	 5.973994249974178e-02	 2.159096097907205e+01
 1.183241560068681e+00	 6.980161192876748e-02	 2.156708559692694e+01
 1.182603184077831e+00	 7.989079657725708e-02	 2.153965685801590e+01
 1.181876315493052e+00	 9.000652022961739e-02	 2.150874934726756e+01
 1.181060195163063e+00	 1.001477876948355e-01	 2.147443481623476e+01
 1.194121647061736e+00	 0.000000000000000e+00	 2.137168263713714e+01
 1.194080189531207e+00	 9.950674016655510e-03	 2.137084793965930e+01
 1.193955252004609e+00	 1.993456274082628e-02	 2.136613936592116e+01
 1.193745993786640e+00	 2.995079906299752e-02	 2.135764368713695e+01
 1.193451583518840e+00	 3.999849634507768e-02	 2.134544402735889e+01
 1.193071199675406e+00	 5.007674845645151e-02	 2.132962009680627e+01
 1.192604031062879e+00	 6.018462982274300e-02	 2.131024840911604e+01
 1.192049277323350e+00	 7.032119548754176e-02	 2.128740248063358e+01
 1.191406149440836e+00	 8.048548118733836e-02	 2.126115300968428e+01
 1.190673870250469e+00	 9.067650343990434e-02	 2.123156803373871e+01
 1.189851674950080e+00	 1.008932596463443e-01	 2.119871306236073e+01
 1.202944676476936e+00	 0.000000000000000e+00	 2.109843682237487e+01
 1.202902912628295e+00	 1.002419675229353e-02	 2.109757431304866e+01
 1.202777051973230e+00	 2.008185362594559e-02	 2.109303023526160e+01
 1.202566247604800e+00	 3.017209710465659e-02	 2.108488372188160e+01
 1.202269662021893e+00	 4.029403399925969e-02	 2.107321046008077e+01
 1.201886467628702e+00	 5.044675148404016e-02	 2.105808294485970e+01
 1.201415847238112e+00	 6.062931714585874e-02	 2.103957071603488e+01
 1.200856994578618e+00	 7.084077904633405e-02	 2.101774057674760e+01
 1.200209114804443e+00	 8.108016579733142e-02	 2.099265679137265e+01
 1.199471425008485e+00	 9.134648664999623e-02	 2.096438126067445e+01
 1.198643154737697e+00	 1.016387315975597e-01	 2.093297367203335e+01
 1.211767705892536e+00	 0.000000000000000e+00	 2.083473243928388e+01
 1.211725635725783e+00	 1.009771948802787e-02	 2.083383992506921e+01
 1.211598851942252e+00	 2.022914451121664e-02	 2.082945550871777e+01
 1.211386501423361e+00	 3.039339514648746e-02	 2.082165102042581e+01
 1.211087740525344e+00	 4.058957165360378e-02	 2.081049505727458e+01
 1.210701735582398e+00	 5.081675451175718e-02	 2.079605325667608e+01
 1.210227663413746e+00	 6.107400446905088e-02	 2.077838855280202e+01
 1.209664711834286e+00	 7.136036260513832e-02	 2.075756141399648e+01
 1.209012080168449e+00	 8.167485040726569e-02	 2.073363005898710e+01
 1.208268979766902e+00	 9.201646985995805e-02	 2.070665064967865e+01
 1.207434634525714e+00	 1.023842035485794e-01	 2.067667745828553e+01
 1.220590735308335e+00	 0.000000000000000e+00	 2.058002803256625e+01
 1.220548358823472e+00	 1.017124222381038e-02	 2.057910707389922e+01
 1.220420651911474e+00	 2.037643539656356e-02	 2.057488077759119e+01
 1.220206755242121e+00	 3.061469318840423e-02	 2.056741399387002e+01
 1.219905819028996e+00	 4.088510930802895e-02	 2.055676856361935e+01
 1.219517003536293e+00	 5.118675753953839e-02	 2.054300361147360e+01
 1.219039479589579e+00	 6.151869179228121e-02	 2.052617582139797e+01
 1.218472429090154e+00	 7.187994616394859e-02	 2.050633969269377e+01
 1.217815045532654e+00	 8.226953501717052e-02	 2.048354777418296e+01
 1.217066534525519e+00	 9.268645306985483e-02	 2.045785087429125e+01
 1.216226114313930e+00	 1.031296754995015e-01	 2.042929824472183e+01
 1.229413764724135e+00	 0.000000000000000e+00	 2.033379557766085e+01
 1.229371081921160e+00	 1.024476495959287e-02	 2.033285135308060e+01
 1.229242451880695e+00	 2.052372628191047e-02	 2.032878480177997e+01
 1.229027009060881e+00	 3.083599123032097e-02	 2.032165410424725e+01
 1.228723897532648e+00	 4.118064696245408e-02	 2.031151466665170e+01
 1.228332271490189e+00	 5.155676056731959e-02	 2.029841943331893e+01
 1.227851295765413e+00	 6.196337911551154e-02	 2.028241918117276e+01
 1.227280146346022e+00	 7.239952972275890e-02	 2.026356279402649e+01
 1.226618010896860e+00	 8.286421962707538e-02	 2.024189751441538e+01
 1.225864089284136e+00	 9.335643627975165e-02	 2.021746917062726e+01
 1.225017594102147e+00	 1.038751474504235e-01	 2.019032237655740e+01
 1.238236794139735e+00	 0.000000000000000e+00	 2.009552000224191e+01
 1.238193805018648e+00	 1.031828769532718e-02	 2.009456117458210e+01
 1.238064251849717e+00	 2.067101716718147e-02	 2.009065903433009e+01
 1.237847262879441e+00	 3.105728927215179e-02	 2.008386539047374e+01
 1.237541976036100e+00	 4.147618461679812e-02	 2.007422952401700e+01
 1.237147539443884e+00	 5.192676359503657e-02	 2.006179851956708e+01
 1.236663111941046e+00	 6.240806643870367e-02	 2.004661757835154e+01
 1.236087863601690e+00	 7.291911328156318e-02	 2.002873031049119e+01
 1.235420976260865e+00	 8.345890423700963e-02	 2.000817900415874e+01
 1.234661644042553e+00	 9.402641948971353e-02	 1.998500486921872e+01
 1.233809073890164e+00	 1.046206194014434e-01	 1.995924825290999e+01
 1.247059823554935e+00	 0.000000000000000e+00	 1.986469872803002e+01
 1.247016528115735e+00	 1.039181043096515e-02	 1.986373731211241e+01
 1.246886051818338e+00	 2.081830805230071e-02	 1.986000716618310e+01
 1.246667516697602e+00	 3.127858731381077e-02	 1.985355401445404e+01
 1.246360054539152e+00	 4.177172227098004e-02	 1.984442131084290e+01
 1.245962807397180e+00	 5.229676662262516e-02	 1.983265058940416e+01
 1.245474928116279e+00	 6.285275376181938e-02	 1.981828179563598e+01
 1.244895580856958e+00	 7.343869684035545e-02	 1.980135359643169e+01
 1.244223941624471e+00	 8.405358884700274e-02	 1.978190366624612e+01
 1.243459198800570e+00	 9.469640269980548e-02	 1.975996894701028e+01
 1.242600553677780e+00	 1.053660913526588e-01	 1.973558587929268e+01
 1.255882852969535e+00	 0.000000000000000e+00	 1.964084123191665e+01
 1.255839251212224e+00	 1.046533316645861e-02	 1.963989246368665e+01
 1.255707851786360e+00	 2.096559893719228e-02	 1.963634469012723e+01
 1.255487770515162e+00	 3.149988535521200e-02	 1.963023782634878e+01
 1.255178133041604e+00	 4.206725992491875e-02	 1.962160978624620e+01
 1.254778075349876e+00	 5.266676965002115e-02	 1.961049685150515e+01
 1.254286744290912e+00	 6.329744108482051e-02	 1.959693402091344e+01
 1.253703298111626e+00	 7.395828039912969e-02	 1.958095533768958e+01
 1.253026906987477e+00	 8.464827345708408e-02	 1.956259419233998e+01
 1.252256753557986e+00	 9.536638591009251e-02	 1.954188359851694e+01
 1.251392033464797e+00	 1.061115633041678e-01	 1.951885643931370e+01
 1.264705882383334e+00	 0.000000000000000e+00	 1.942346862545931e+01
 1.264661974307912e+00	 1.053885590175940e-02	 1.942255083250657e+01
 1.264529651753582e+00	 2.111288982178033e-02	 1.941919848301369e+01
 1.264308024331922e+00	 3.172118339626960e-02	 1.941344594806948e+01
 1.263996211543256e+00	 4.236279757853321e-02	 1.940532587803839e+01
 1.263593343301772e+00	 5.303677267716038e-02	 1.939486958987231e+01
 1.263098560464746e+00	 6.374212840766885e-02	 1.938210743414050e+01
 1.262511015365494e+00	 7.447786395787998e-02	 1.936706913943430e+01
 1.261829872349682e+00	 8.524295806728308e-02	 1.934978413159935e+01
 1.261054308314603e+00	 9.603636912063970e-02	 1.933028182520796e+01
 1.260183513251014e+00	 1.068570352560680e-01	 1.930859188464573e+01
 1.172268715376846e+00	 9.940231574293547e-02	 2.175994700838278e+01
 1.171369181250904e+00	 1.094941550707639e-01	 2.171983797449231e+01
 1.170379560376876e+00	 1.196093000085306e-01	 2.167527775511406e+01
 1.169299138320258e+00	 1.297466816772552e-01	 2.162635556982581e+01
 1.168127214910092e+00	 1.399052122595186e-01	 2.157315491992345e+01
 1.166863104757728e+00	 1.500837851699623e-01	 2.151575342483680e+01
 1.165506137775708e+00	 1.602812752409670e-01	 2.145422264272484e+01
 1.164055659696292e+00	 1.704965389236660e-01	 2.138862787432540e+01
 1.162511032589170e+00	 1.807284145044398e-01	 2.131902794926124e+01
 1.160871635377850e+00	 1.909757223370206e-01	 2.124547499414795e+01
 1.159136864354258e+00	 2.012372650903192e-01	 2.116801418200813e+01
 1.181060195163063e+00	 1.001477876948355e-01	 2.147443481623475e+01
 1.180153914941946e+00	 1.103153112067115e-01	 2.143629938060247e+01
 1.179156872363373e+00	 1.205063151100233e-01	 2.139397115364515e+01
 1.178068347634899e+00	 1.307197225096803e-01	 2.134756319523325e+01
 1.176887635334594e+00	 1.409544374301230e-01	 2.129718684370580e+01
 1.175614044933695e+00	 1.512093449871018e-01	 2.124291622308878e+01
 1.174246901319383e+00	 1.614833115747477e-01	 2.118473429893194e+01
 1.172785545317201e+00	 1.717751850680931e-01	 2.112269842025112e+01
 1.171229334212640e+00	 1.820837950411903e-01	 2.105686630246755e+01
 1.169577642271410e+00	 1.924079530009565e-01	 2.098728931073989e+01
 1.167829861257889e+00	 2.027464526368590e-01	 2.091401221323284e+01
 1.189851674950080e+00	 1.008932596463443e-01	 2.119871306236073e+01
 1.188938648633787e+00	 1.111364673421580e-01	 2.116217423077295e+01
 1.187934184350669e+00	 1.214033302109266e-01	 2.112157988308939e+01
 1.186837556950337e+00	 1.316927633414465e-01	 2.107703858629334e+01
 1.185648055759887e+00	 1.420036626000158e-01	 2.102865775217545e+01
 1.184364985110446e+00	 1.523349048034913e-01	 2.097654357332129e+01
 1.182987664863831e+00	 1.626853479077516e-01	 2.092080092003167e+01
 1.181515430938867e+00	 1.730538312117260e-01	 2.086153319610276e+01
 1.179947635836845e+00	 1.834391755771360e-01	 2.079884215143010e+01
 1.178283649165677e+00	 1.938401836640810e-01	 2.073282764944499e+01
 1.176522858162191e+00	 2.042556401825827e-01	 2.066358738744548e+01
 1.198643154737697e+00	 1.016387315975597e-01	 2.093297367203336e+01
 1.197723382326229e+00	 1.119576234772288e-01	 2.089802277757665e+01
 1.196711496338564e+00	 1.223003453113876e-01	 2.085915974031733e+01
 1.195606766266373e+00	 1.326658041727180e-01	 2.081648902831777e+01
 1.194408476185774e+00	 1.430528877693737e-01	 2.077011450331346e+01
 1.193115925287784e+00	 1.534604646193159e-01	 2.072013937180661e+01
 1.191728428408858e+00	 1.638873842401688e-01	 2.066666609576867e+01
 1.190245316561099e+00	 1.743324773547565e-01	 2.060979626079257e+01
 1.188665937461600e+00	 1.847945561124677e-01	 2.054963039957257e+01
 1.186989656060471e+00	 1.952724143265822e-01	 2.048626776863163e+01
 1.185215855066995e+00	 2.057648277276741e-01	 2.041980607627092e+01
 1.207434634525714e+00	 1.023842035485794e-01	 2.067667745828553e+01
 1.206508116019070e+00	 1.127787796120490e-01	 2.064330413177694e+01
 1.205488808326859e+00	 1.231973604115535e-01	 2.060616692047637e+01
 1.204375975582806e+00	 1.336388450036591e-01	 2.056536657429030e+01
 1.203168896612058e+00	 1.441021129383733e-01	 2.052100376871490e+01
 1.201866865465514e+00	 1.545860244347604e-01	 2.047317907008993e+01
 1.200469191954271e+00	 1.650894205721890e-01	 2.042199285913805e+01
 1.198975202183708e+00	 1.756111234973761e-01	 2.036754521054686e+01
 1.197384239086723e+00	 1.861499366473764e-01	 2.030993572638572e+01
 1.195695662955618e+00	 1.967046449886485e-01	 2.024926332119064e+01
 1.193908851972134e+00	 2.072740152723169e-01	 2.018562595660471e+01
 1.216226114313930e+00	 1.031296754995015e-01	 2.042929824472183e+01
 1.215292849712111e+00	 1.135999357467439e-01	 2.039749039506202e+01
 1.214266120315354e+00	 1.240943755115717e-01	 2.036207062099620e+01
 1.213145184899439e+00	 1.346118858344340e-01	 2.032313632224106e+01
 1.211929317038539e+00	 1.451513381071913e-01	 2.028078533956872e+01
 1.210617805643441e+00	 1.557115842500100e-01	 2.023511593329268e+01
 1.209209955499877e+00	 1.662914569040019e-01	 2.018622671871907e+01
 1.207705087806507e+00	 1.768897696397766e-01	 2.013421655623674e+01
 1.206102540712028e+00	 1.875053171820530e-01	 2.007918439375442e+01
 1.204401669850942e+00	 1.981368756504678e-01	 2.002122905923257e+01
 1.202601848877440e+00	 2.087832028166949e-01	 1.996044900111101e+01
 1.225017594102147e+00	 1.038751474504235e-01	 2.019032237655739e+01
 1.224077583405152e+00	 1.144210918814387e-01	 2.016006617096399e+01
 1.223043432303848e+00	 1.249913906115893e-01	 2.012635255153437e+01
 1.221914394216071e+00	 1.355849266652067e-01	 2.008927592335156e+01
 1.220689737465020e+00	 1.462005632760042e-01	 2.004893163203886e+01
 1.219368745821367e+00	 1.568371440652496e-01	 2.000541595456886e+01
 1.217950719045483e+00	 1.674934932357977e-01	 1.995882604571996e+01
 1.216434973429306e+00	 1.781684157821495e-01	 1.990925983777393e+01
 1.214820842337333e+00	 1.888606977166884e-01	 1.985681589107762e+01
 1.213107676746267e+00	 1.995691063122281e-01	 1.980159319313416e+01
 1.211294845782747e+00	 2.102923903609917e-01	 1.974369090393741e+01
 1.233809073890164e+00	 1.046206194014434e-01	 1.995924825290999e+01
 1.232862317097992e+00	 1.152422480162587e-01	 1.993052809710968e+01
 1.231820744292143e+00	 1.258884057117535e-01	 1.989850646537753e+01
 1.230683603532504e+00	 1.365579674961415e-01	 1.986327511168211e+01
 1.229450157891303e+00	 1.472497884449886e-01	 1.982492721448030e+01
 1.228119685999097e+00	 1.579627038806643e-01	 1.978355737895695e+01
 1.226691482590897e+00	 1.686955295677660e-01	 1.973926159359981e+01
 1.225164859051915e+00	 1.794470619246865e-01	 1.969213713862214e+01
 1.223539143962455e+00	 1.902160782514733e-01	 1.964228244377556e+01
 1.221813683641414e+00	 2.010013369741175e-01	 1.958979689313377e+01
 1.219987842687886e+00	 2.118015779053913e-01	 1.953478057447771e+01
 1.242600553677780e+00	 1.053660913526588e-01	 1.973558587929268e+01
 1.241647050790434e+00	 1.160634041513292e-01	 1.970838439774831e+01
 1.240598056280037e+00	 1.267854208122115e-01	 1.967803771123570e+01
 1.239452812848539e+00	 1.375310083274024e-01	 1.964463525445140e+01
 1.238210578317190e+00	 1.482990136143212e-01	 1.960826835540814e+01
 1.236870626176436e+00	 1.590882636964390e-01	 1.956903024823024e+01
 1.235432246135923e+00	 1.698975659000967e-01	 1.952701603897684e+01
 1.233894744674147e+00	 1.807257080675793e-01	 1.948232262192788e+01
 1.232257445587210e+00	 1.915714587865987e-01	 1.943504854379342e+01
 1.230519690536209e+00	 2.024335676363241e-01	 1.938529381334595e+01
 1.228680839592690e+00	 2.133107654500772e-01	 1.933315965402220e+01
 1.251392033464797e+00	 1.061115633041678e-01	 1.951885643931370e+01
 1.250431784482275e+00	 1.168845602867754e-01	 1.949315445555749e+01
 1.249375368267333e+00	 1.276824359131106e-01	 1.946446280442647e+01
 1.248222022163977e+00	 1.385040491591539e-01	 1.943286892185701e+01
 1.246970998742484e+00	 1.493482387841786e-01	 1.939846259120003e+01
 1.245621566353186e+00	 1.602138235127588e-01	 1.936133596571239e+01
 1.244173009680370e+00	 1.710996022329797e-01	 1.932158354277688e+01
 1.242624630295811e+00	 1.820043542110194e-01	 1.927930208720723e+01
 1.240975747211415e+00	 1.929268393222557e-01	 1.923459050102009e+01
 1.239225697430475e+00	 2.038657982990361e-01	 1.918754963709256e+01
 1.237373836496991e+00	 2.148199529952334e-01	 1.913828205416924e+01
 1.260183513251014e+00	 1.068570352560680e-01	 1.930859188464573e+01
 1.259216518173316e+00	 1.177057164227225e-01	 1.928436840178708e+01
 1.258152680253831e+00	 1.285794510145979e-01	 1.925730901650254e+01
 1.256991231478618e+00	 1.394770899915600e-01	 1.922749947548332e+01
 1.255731419166985e+00	 1.503974639547374e-01	 1.919502831256762e+01
 1.254372506529152e+00	 1.613393833298087e-01	 1.915998688008407e+01
 1.252913773224046e+00	 1.723016385666049e-01	 1.912246933063311e+01
 1.251354515916720e+00	 1.832830003551986e-01	 1.908257254658514e+01
 1.249694048834886e+00	 1.942822198586347e-01	 1.904039601460050e+01
 1.247931704324034e+00	 2.052980289624415e-01	 1.899604164250959e+01
 1.246066833400622e+00	 2.163291405410434e-01	 1.894961351593616e+01
 1.159136864354258e+00	 2.012372650903192e-01	 2.116801418200813e+01
 1.157306452922046e+00	 2.115100809470052e-01	 2.108639916702693e+01
 1.155379546441417e+00	 2.217946840330171e-01	 2.100036821395344e+01
 1.153355595754176e+00	 2.320898290506393e-01	 2.090997126041762e+01
 1.151234071072297e+00	 2.423942542335403e-01	 2.081524822477513e+01
 1.149014462474888e+00	 2.527066816735781e-01	 2.071622857816868e+01
 1.146696280400205e+00	 2.630258176635662e-01	 2.061293089976814e+01
 1.144279056132160e+00	 2.733503530559895e-01	 2.050536241632101e+01
 1.141762342280760e+00	 2.836789636376347e-01	 2.039351852740419e+01
 1.139145713255937e+00	 2.940103105200784e-01	 2.027738231803091e+01
 1.136428765734195e+00	 3.043430405459637e-01	 2.015692406053787e+01
 1.167829861257889e+00	 2.027464526368590e-01	 2.091401221323285e+01
 1.165985722576369e+00	 2.130963099192848e-01	 2.083675889772759e+01
 1.164044365177641e+00	 2.234580428298795e-01	 2.075523723329103e+01
 1.162005235785069e+00	 2.338303967317619e-01	 2.066949402299331e+01
 1.159867800637453e+00	 2.442121003959282e-01	 2.057956622200262e+01
 1.157631545989724e+00	 2.546018663305070e-01	 2.048548050186591e+01
 1.155295978608647e+00	 2.649983911260979e-01	 2.038725279559812e+01
 1.152860626262969e+00	 2.754003558171758e-01	 2.028488782469966e+01
 1.150325038207474e+00	 2.858064262595311e-01	 2.017837860949479e+01
 1.147688785660359e+00	 2.962152535236883e-01	 2.006770596446214e+01
 1.144951462273380e+00	 3.066254743042259e-01	 1.995283798051636e+01
 1.176522858162191e+00	 2.042556401825827e-01	 2.066358738744548e+01
 1.174664992231320e+00	 2.146825388907432e-01	 2.059071026489497e+01
 1.172709183914441e+00	 2.251214016259154e-01	 2.051372460196779e+01
 1.170654875816480e+00	 2.355709644120536e-01	 2.043267411954536e+01
 1.168501530203065e+00	 2.460299465574824e-01	 2.034759287910269e+01
 1.166248629504951e+00	 2.564970509866029e-01	 2.025850482135591e+01
 1.163895676817407e+00	 2.669709645878008e-01	 2.016542330013329e+01
 1.161442196394021e+00	 2.774503585775422e-01	 2.006835059567151e+01
 1.158887734134355e+00	 2.879338888806232e-01	 1.996727740873184e+01
 1.156231858064868e+00	 2.984201965265156e-01	 1.986218233722673e+01
 1.153474158812572e+00	 3.089079080617355e-01	 1.975303133734946e+01
 1.185215855066995e+00	 2.057648277276741e-01	 2.041980607627092e+01
 1.183344261886740e+00	 2.162687678615585e-01	 2.034996354952706e+01
 1.181374002651673e+00	 2.267847604212964e-01	 2.027644451888615e+01
 1.179304515848281e+00	 2.373115320916787e-01	 2.019935538578882e+01
 1.177135259769021e+00	 2.478477927183592e-01	 2.011879705443729e+01
 1.174865713020469e+00	 2.583922356420124e-01	 2.003473326607920e+01
 1.172495375026404e+00	 2.689435380488110e-01	 1.994685546918879e+01
 1.170023766525256e+00	 2.795003613372139e-01	 1.985514425288917e+01
 1.167450430061359e+00	 2.900613515010231e-01	 1.975958807173460e+01
 1.164774930469440e+00	 3.006251395286592e-01	 1.966016337628427e+01
 1.161996855351768e+00	 3.111903418185773e-01	 1.955683405150344e+01
 1.193908851972134e+00	 2.072740152723169e-01	 2.018562595660470e+01
 1.192023531542475e+00	 2.178549968319091e-01	 2.011870946080002e+01
 1.190038821389194e+00	 2.284481192161947e-01	 2.004818461173666e+01
 1.187954155880343e+00	 2.390520997708019e-01	 1.997415567955572e+01
 1.185768989335205e+00	 2.496656388787149e-01	 1.989672193261459e+01
 1.183482796536182e+00	 2.602874202968821e-01	 1.981597701508429e+01
 1.181095073235562e+00	 2.709161115092651e-01	 1.973200826481155e+01
 1.178605336656612e+00	 2.815503640963158e-01	 1.964489597015504e+01
 1.176013125988446e+00	 2.921888141208432e-01	 1.955470066913514e+01
 1.173318002874057e+00	 3.028300825302183e-01	 1.946101815020914e+01
 1.170519551890967e+00	 3.134727755748353e-01	 1.936359338355060e+01
 1.202601848877440e+00	 2.087832028166949e-01	 1.996044900111101e+01
 1.200702801198366e+00	 2.194412258019734e-01	 1.989649714908065e+01
 1.198703640126859e+00	 2.301114780107821e-01	 1.982901012541278e+01
 1.196603795912534e+00	 2.407926674495875e-01	 1.975809010932903e+01
 1.194402718901504e+00	 2.514834850387053e-01	 1.968383477044514e+01
 1.192099880051993e+00	 2.621826049513587e-01	 1.960633664592670e+01
 1.189694771444798e+00	 2.728886849692991e-01	 1.952568245591476e+01
 1.187186906788029e+00	 2.836003668549724e-01	 1.944195235584282e+01
 1.184575821915574e+00	 2.943162767401958e-01	 1.935521912441201e+01
 1.181861075278695e+00	 3.050350255312918e-01	 1.926554728614882e+01
 1.179042248430169e+00	 3.157552093305945e-01	 1.917299216764077e+01
 1.211294845782747e+00	 2.102923903609917e-01	 1.974369090393741e+01
 1.209382070854257e+00	 2.210274547719297e-01	 1.968272881500294e+01
 1.207368458864525e+00	 2.317748368052306e-01	 1.961830904886030e+01
 1.205253435944724e+00	 2.425332351282001e-01	 1.955053173171766e+01
 1.203036448467802e+00	 2.533013311984865e-01	 1.947949296947133e+01
 1.200716963567804e+00	 2.640777896055888e-01	 1.940528422422993e+01
 1.198294469654035e+00	 2.748612584290493e-01	 1.932799162710971e+01
 1.195768476919446e+00	 2.856503696133086e-01	 1.924769522583465e+01
 1.193138517842703e+00	 2.964437393591937e-01	 1.916446816581728e+01
 1.190404147683332e+00	 3.072399685319787e-01	 1.907837580355725e+01
 1.187564944969370e+00	 3.180376430859392e-01	 1.898947475136571e+01
 1.219987842687886e+00	 2.118015779053913e-01	 1.953478057447771e+01
 1.218061340509991e+00	 2.226136837419563e-01	 1.947682015389844e+01
 1.216033277602045e+00	 2.334381955997120e-01	 1.941548316173795e+01
 1.213903075976785e+00	 2.442738028068044e-01	 1.935086770658197e+01
 1.211670178033985e+00	 2.551191773582147e-01	 1.928306836348501e+01
 1.209334047083517e+00	 2.659729742597194e-01	 1.921217554969390e+01
 1.206894167863191e+00	 2.768338318886519e-01	 1.913827483464302e+01
 1.204350047050801e+00	 2.877003723714494e-01	 1.906144618266190e+01
 1.201701213769790e+00	 2.985712019779490e-01	 1.898176312698282e+01
 1.198947220087949e+00	 3.094449115323776e-01	 1.889929187379324e+01
 1.196087641508569e+00	 3.203200768409540e-01	 1.881409033525336e+01
 1.228680839592690e+00	 2.133107654500772e-01	 1.933315965402220e+01
 1.226740610165411e+00	 2.241999127122316e-01	 1.927819986446306e+01
 1.224698096339278e+00	 2.351015543943984e-01	 1.921994753473981e+01
 1.222552716008586e+00	 2.460143704855646e-01	 1.915849878864227e+01
 1.220303907599941e+00	 2.569370235180458e-01	 1.909394670104425e+01
 1.217951130599036e+00	 2.678681589138968e-01	 1.902638067267960e+01
 1.215493866072189e+00	 2.788064053482432e-01	 1.895588573718878e+01
 1.212931617182036e+00	 2.897503751295194e-01	 1.888254179878445e+01
 1.210263909696794e+00	 3.006986645965739e-01	 1.880642279903059e+01
 1.207490292492523e+00	 3.116498545325880e-01	 1.872759581138904e+01
 1.204610338047766e+00	 3.226025105957234e-01	 1.864612006236176e+01
 1.237373836496991e+00	 2.148199529952334e-01	 1.913828205416924e+01
 1.235419879820361e+00	 2.257861416829341e-01	 1.908630917966329e+01
 1.233362915076078e+00	 2.367649131894615e-01	 1.903113005265560e+01
 1.231202356039998e+00	 2.477549381646454e-01	 1.897283884234532e+01
 1.228937637165553e+00	 2.587548696781362e-01	 1.891152715179070e+01
 1.226568214114262e+00	 2.697633435682678e-01	 1.884728339161271e+01
 1.224093564280949e+00	 2.807789788079594e-01	 1.878019208396789e+01
 1.221513187313088e+00	 2.918003778876436e-01	 1.871033309504565e+01
 1.218826605623674e+00	 3.028261272151813e-01	 1.863778079449068e+01
 1.216033364897031e+00	 3.138547975327083e-01	 1.856260314030962e+01
 1.213133034586957e+00	 3.248849443503319e-01	 1.848486068799775e+01
 1.246066833400622e+00	 2.163291405410434e-01	 1.894961351593616e+01
 1.244099149474685e+00	 2.273723706542418e-01	 1.890060141879511e+01
 1.242027733812302e+00	 2.384282719850735e-01	 1.884847095905816e+01
 1.239851996070890e+00	 2.494955058442114e-01	 1.879331437885272e+01
 1.237571366730709e+00	 2.605727158386419e-01	 1.873522183540381e+01
 1.235185297629098e+00	 2.716585282229791e-01	 1.867428077356132e+01
 1.232693262489390e+00	 2.827515522679369e-01	 1.861057522659770e+01
 1.230094757443897e+00	 2.938503806459467e-01	 1.854418504343602e+01
 1.227389301550388e+00	 3.049535898338829e-01	 1.847518504061230e+01
 1.224576437301453e+00	 3.160597405328378e-01	 1.840364407743647e+01
 1.221655731126142e+00	 3.271673781048639e-01	 1.832962405299168e+01
 1.136428765734195e+00	 3.043430405459637e-01	 2.015692406053788e+01
 1.133611119364855e+00	 3.146757868552493e-01	 2.003267193908400e+01
 1.130692417964432e+00	 3.250071697687851e-01	 1.990515513648330e+01
 1.127672329218821e+00	 3.353357968314881e-01	 1.977432105809083e+01
 1.124550544867360e+00	 3.456602631396041e-01	 1.964009733440910e+01
 1.121326781123693e+00	 3.559791518240068e-01	 1.950239119582298e+01
 1.118000779086037e+00	 3.662910345483221e-01	 1.936108885828549e+01
 1.114572305136289e+00	 3.765944720216516e-01	 1.921605492403076e+01
 1.111041151327425e+00	 3.868880145256406e-01	 1.906713180163306e+01
 1.107407135758632e+00	 3.971702024556138e-01	 1.891413914996092e+01
 1.103670102937638e+00	 4.074395668754809e-01	 1.875687335078925e+01
 1.144951462273380e+00	 3.066254743042259e-01	 1.995283798051636e+01
 1.142112684843400e+00	 3.170357114902753e-01	 1.983424579269268e+01
 1.139172094515728e+00	 3.274445750557203e-01	 1.971241385828692e+01
 1.136129356484066e+00	 3.378506621026978e-01	 1.958730524136720e+01
 1.132984160175947e+00	 3.482525571913147e-01	 1.945886224243901e+01
 1.129736219676757e+00	 3.586488328265700e-01	 1.932700570149416e+01
 1.126385274143080e+00	 3.690380499602166e-01	 1.919163431083672e+01
 1.122931088204792e+00	 3.794187585073285e-01	 1.905262394199197e+01
 1.119373452355374e+00	 3.897894978773229e-01	 1.890982699126481e+01
 1.115712183329848e+00	 4.001487975191529e-01	 1.876307174876087e+01
 1.111947124469834e+00	 4.104951774803757e-01	 1.861216179591262e+01
 1.153474158812572e+00	 3.089079080617355e-01	 1.975303133734946e+01
 1.150614250321872e+00	 3.193956361245875e-01	 1.964022724575505e+01
 1.147651771066873e+00	 3.298819803419887e-01	 1.952419601771421e+01
 1.144586383749081e+00	 3.403655273732951e-01	 1.940491280088219e+01
 1.141417775484229e+00	 3.508448512424738e-01	 1.928233123022572e+01
 1.138145658229444e+00	 3.613185138286488e-01	 1.915638266616800e+01
 1.134769769199677e+00	 3.717850653716985e-01	 1.902697544106111e+01
 1.131289871272786e+00	 3.822430449926694e-01	 1.889399411851031e+01
 1.127705753382754e+00	 3.926909812287492e-01	 1.875729877035460e+01
 1.124017230900445e+00	 4.031273925825186e-01	 1.861672427637114e+01
 1.120224146001366e+00	 4.135507880851814e-01	 1.847207965201904e+01
 1.161996855351768e+00	 3.111903418185773e-01	 1.955683405150344e+01
 1.159115815800289e+00	 3.217555607582549e-01	 1.944992653334259e+01
 1.156131447617902e+00	 3.323193856276428e-01	 1.933979771261298e+01
 1.153043411013923e+00	 3.428803926433160e-01	 1.922643136251468e+01
 1.149851390792280e+00	 3.534371452931002e-01	 1.910978923179951e+01
 1.146555096781848e+00	 3.639881948302445e-01	 1.898981022461884e+01
 1.143154264255939e+00	 3.745320807827520e-01	 1.886640958696889e+01
 1.139648654340397e+00	 3.850673314776409e-01	 1.873947810446781e+01
 1.136038054409709e+00	 3.955924645798689e-01	 1.860888131649557e+01
 1.132322278470577e+00	 4.061059876456440e-01	 1.847445875201187e+01
 1.128501167532400e+00	 4.166063986898156e-01	 1.833602319263051e+01
 1.170519551890967e+00	 3.134727755748353e-01	 1.936359338355060e+01
 1.167617381278668e+00	 3.241154853913467e-01	 1.926267135851979e+01
 1.164611124168855e+00	 3.347567909127361e-01	 1.915853246072190e+01
 1.161500438278651e+00	 3.453952579127965e-01	 1.905116574581647e+01
 1.158285006100180e+00	 3.560294393432130e-01	 1.894053796852625e+01
 1.154964535334063e+00	 3.666578758313583e-01	 1.882659271062034e+01
 1.151538759311978e+00	 3.772790961933608e-01	 1.870924951348156e+01
 1.148007437407754e+00	 3.878916179622096e-01	 1.858840302019224e+01
 1.144370355436380e+00	 3.984939479306318e-01	 1.846392213238825e+01
 1.140627326040400e+00	 4.090845827084624e-01	 1.833564918743312e+01
 1.136778189063103e+00	 4.196620092941962e-01	 1.820339916174877e+01
 1.179042248430169e+00	 3.157552093305945e-01	 1.917299216764077e+01
 1.176118946757030e+00	 3.264754100239322e-01	 1.907780604113822e+01
 1.173090800719770e+00	 3.371941961973210e-01	 1.897973033329333e+01
 1.169957465543320e+00	 3.479101231817727e-01	 1.887843708850116e+01
 1.166718621408004e+00	 3.586217333928308e-01	 1.877389507060498e+01
 1.163373973886183e+00	 3.693275568319918e-01	 1.866604978169658e+01
 1.159923254367905e+00	 3.800261116035090e-01	 1.855482254677963e+01
 1.156366220474983e+00	 3.907159044463420e-01	 1.844010960584089e+01
 1.152702656462909e+00	 4.013954312809876e-01	 1.832178121878988e+01
 1.148932373610068e+00	 4.120631777709072e-01	 1.819968078904839e+01
 1.145055210593639e+00	 4.227176198982410e-01	 1.807362401187575e+01
 1.187564944969370e+00	 3.180376430859392e-01	 1.898947475136571e+01
 1.184620512235391e+00	 3.288353346560799e-01	 1.889794539435064e+01
 1.181570477270685e+00	 3.396316014814507e-01	 1.880400930450862e+01
 1.178414492807989e+00	 3.504249884502805e-01	 1.870776337312902e+01
 1.175152236715827e+00	 3.612140274419724e-01	 1.860919323170475e+01
 1.171783412438303e+00	 3.719972378321463e-01	 1.850751557661475e+01
 1.168307749423834e+00	 3.827731270131802e-01	 1.840246974071780e+01
 1.164725003542212e+00	 3.935401909300046e-01	 1.829395140289547e+01
 1.161034957489440e+00	 4.042969146308856e-01	 1.818183027733599e+01
 1.157237421179736e+00	 4.150417728329116e-01	 1.806594918841409e+01
 1.153332232124176e+00	 4.257732305018673e-01	 1.794612316856244e+01
 1.196087641508569e+00	 3.203200768409540e-01	 1.881409033525336e+01
 1.193122077713771e+00	 3.311952592878596e-01	 1.872626313103454e+01
 1.190050153821638e+00	 3.420690067651778e-01	 1.863595461691492e+01
 1.186871520072717e+00	 3.529398537183563e-01	 1.854326179988036e+01
 1.183585852023727e+00	 3.638063214906566e-01	 1.844826226105125e+01
 1.180192850990518e+00	 3.746669188318231e-01	 1.835101260381746e+01
 1.176692244479873e+00	 3.855201424223584e-01	 1.825154683375144e+01
 1.173083786609569e+00	 3.963644774131641e-01	 1.814929396521741e+01
 1.169367258516111e+00	 4.071983979802760e-01	 1.804345194174508e+01
 1.165542468749559e+00	 4.180203678944087e-01	 1.793385969964083e+01
 1.161609253654879e+00	 4.288288411049933e-01	 1.782033032016317e+01
 1.204610338047766e+00	 3.226025105957234e-01	 1.864612006236175e+01
 1.201623643192187e+00	 3.335551839193402e-01	 1.856203059913169e+01
 1.198529830372667e+00	 3.445064120485555e-01	 1.847539860087141e+01
 1.195328547337559e+00	 3.554547189860359e-01	 1.838631814013718e+01
 1.192019467331779e+00	 3.663986155389025e-01	 1.829486496770841e+01
 1.188602289542922e+00	 3.773365998310234e-01	 1.820109495390198e+01
 1.185076739536135e+00	 3.882671578310274e-01	 1.810504245815483e+01
 1.181442569677181e+00	 3.991887638957868e-01	 1.800671862776359e+01
 1.177699559543066e+00	 4.100998813291077e-01	 1.790610962697256e+01
 1.173847516319692e+00	 4.209989629553322e-01	 1.780282660240252e+01
 1.169886275185913e+00	 4.318844517075364e-01	 1.769568673154630e+01
 1.213133034586957e+00	 3.248849443503319e-01	 1.848486068799775e+01
 1.210125208670659e+00	 3.359151085505906e-01	 1.840452773443833e+01
 1.207009506923811e+00	 3.469438173316365e-01	 1.832160900675975e+01
 1.203785574602574e+00	 3.579695842533556e-01	 1.823619267528705e+01
 1.200453082640061e+00	 3.689909095867285e-01	 1.814834992048034e+01
 1.197011728095609e+00	 3.800062808297490e-01	 1.805813337532870e+01
 1.193461234592732e+00	 3.910141732391713e-01	 1.796557549230620e+01
 1.189801352745175e+00	 4.020130503778395e-01	 1.787068683565073e+01
 1.186031860570447e+00	 4.130013646773308e-01	 1.777345430003031e+01
 1.182152563890289e+00	 4.239775580156149e-01	 1.767383925698613e+01
 1.178163296717446e+00	 4.349400623094145e-01	 1.757177563087683e+01
 1.221655731126142e+00	 3.271673781048639e-01	 1.832962405299168e+01
 1.218626774149205e+00	 3.382750331816800e-01	 1.825304989170229e+01
 1.215489183475108e+00	 3.493812226144739e-01	 1.817386920301729e+01
 1.212242601867819e+00	 3.604844495203512e-01	 1.809216136703056e+01
 1.208886697948648e+00	 3.715832036341537e-01	 1.800799033135655e+01
 1.205421166648673e+00	 3.826759618280010e-01	 1.792140306243881e+01
 1.201845729649776e+00	 3.937611886467735e-01	 1.783242791752336e+01
 1.198160135813678e+00	 4.048373368592888e-01	 1.774107293790717e+01
 1.194364161598396e+00	 4.159028480248947e-01	 1.764732406438263e+01
 1.190457611461505e+00	 4.269561530751902e-01	 1.755114327612932e+01
 1.186440318249641e+00	 4.379956729105452e-01	 1.745246665464746e+01
 1.103670102937638e+00	 4.074395668754809e-01	 1.875687335078926e+01
 1.099829262360247e+00	 4.176963721710397e-01	 1.859652523949140e+01
 1.095885138284579e+00	 4.279373842656255e-01	 1.843427942818953e+01
 1.091837655705804e+00	 4.381611084204264e-01	 1.826980305979277e+01
 1.087686767358405e+00	 4.483660428917192e-01	 1.810273526098464e+01
 1.083432454007551e+00	 4.585506795500225e-01	 1.793268685215963e+01
 1.079074724724561e+00	 4.687135045107917e-01	 1.775924012153638e+01
 1.074613617145979e+00	 4.788529987762081e-01	 1.758194866910411e+01
 1.070049197715797e+00	 4.889676388875796e-01	 1.740033732605781e+01
 1.065381561910370e+00	 4.990558975878605e-01	 1.721390215534346e+01
 1.060610834445606e+00	 5.091162444937753e-01	 1.702211053886043e+01
 1.111947124469834e+00	 4.104951774803757e-01	 1.861216179591262e+01
 1.108077479342722e+00	 4.208289041295597e-01	 1.845827460961986e+01
 1.104103776138325e+00	 4.311467191359472e-01	 1.830256541046374e+01
 1.100025939289305e+00	 4.414471165508733e-01	 1.814468534859774e+01
 1.095843921175665e+00	 4.517285833682289e-01	 1.798425579040689e+01
 1.091557702418317e+00	 4.619896001482553e-01	 1.782086798238611e+01
 1.087167292156603e+00	 4.722286416529718e-01	 1.765408278144189e+01
 1.082672728309315e+00	 4.824441774927753e-01	 1.748343045760352e+01
 1.078074077818739e+00	 4.926346727837354e-01	 1.730841057513920e+01
 1.073371436877250e+00	 5.027985888150822e-01	 1.712849195803528e+01
 1.068564931136062e+00	 5.129343837263703e-01	 1.694311274573137e+01
 1.120224146001366e+00	 4.135507880851814e-01	 1.847207965201904e+01
 1.116325696324497e+00	 4.239614360880763e-01	 1.832452740374500e+01
 1.112322413991342e+00	 4.343560540063507e-01	 1.817519427606433e+01
 1.108214222872052e+00	 4.447331246814866e-01	 1.802371765106258e+01
 1.104001074992155e+00	 4.550911238449870e-01	 1.786970341555172e+01
 1.099682950828301e+00	 4.654285207468165e-01	 1.771272557510819e+01
 1.095259859587853e+00	 4.757437787955558e-01	 1.755232593665475e+01
 1.090731839471855e+00	 4.860353562098174e-01	 1.738801386591857e+01
 1.086098957920882e+00	 4.963017066804309e-01	 1.721926612610893e+01
 1.081361311843331e+00	 5.065412800429014e-01	 1.704552680413009e+01
 1.076519027825718e+00	 5.167525229596125e-01	 1.686620733057619e+01
 1.128501167532400e+00	 4.166063986898156e-01	 1.833602319263052e+01
 1.124573913305746e+00	 4.270939680464921e-01	 1.819471799913886e+01
 1.120541051843811e+00	 4.375653888767255e-01	 1.805163971912759e+01
 1.116402506454235e+00	 4.480191328121430e-01	 1.790641419539048e+01
 1.112158228808068e+00	 4.584536643218595e-01	 1.775863411919869e+01
 1.107808199237697e+00	 4.688674413455605e-01	 1.760785859062147e+01
 1.103352427018511e+00	 4.792589159383890e-01	 1.745361274938582e+01
 1.098790950633799e+00	 4.896265349271706e-01	 1.729538748296471e+01
 1.094123838022425e+00	 4.999687405774948e-01	 1.713263921860284e+01
 1.089351186808811e+00	 5.102839712711402e-01	 1.696478980596310e+01
 1.084473124514775e+00	 5.205706621933194e-01	 1.679122649701413e+01
 1.136778189063103e+00	 4.196620092941962e-01	 1.820339916174877e+01
 1.132822130286645e+00	 4.302265000047105e-01	 1.806828960823726e+01
 1.128759689695915e+00	 4.407747237469610e-01	 1.793138259891307e+01
 1.124590790036041e+00	 4.513051409427194e-01	 1.779229467171465e+01
 1.120315382623595e+00	 4.618162047987112e-01	 1.765060761132143e+01
 1.115933447646702e+00	 4.723063619443426e-01	 1.750586795178351e+01
 1.111444994448772e+00	 4.827740530813165e-01	 1.735758655155780e+01
 1.106850061795343e+00	 4.932177136446720e-01	 1.720523824801173e+01
 1.102148718123570e+00	 5.036357744747566e-01	 1.704826159848205e+01
 1.097341061773892e+00	 5.140266624996217e-01	 1.688605871495690e+01
 1.092427221203431e+00	 5.243888014273070e-01	 1.671799519938770e+01
 1.145055210593639e+00	 4.227176198982410e-01	 1.807362401187575e+01
 1.141070347267370e+00	 4.333590319626346e-01	 1.794469355653266e+01
 1.136978327547836e+00	 4.439840586169468e-01	 1.781391025876001e+01
 1.132779073617660e+00	 4.545911490730927e-01	 1.768088359329456e+01
 1.128472536438929e+00	 4.651787452754078e-01	 1.754518673368438e+01
 1.124058696055512e+00	 4.757452825430175e-01	 1.740635599315440e+01
 1.119537561878837e+00	 4.862891902241840e-01	 1.726389033961647e+01
 1.114909172956689e+00	 4.968088923621582e-01	 1.711725099227230e+01
 1.110173598224515e+00	 5.073028083720453e-01	 1.696586110728832e+01
 1.105330936738772e+00	 5.177693537281682e-01	 1.680910556001109e+01
 1.100381317891887e+00	 5.282069406613931e-01	 1.664633083113387e+01
 1.153332232124176e+00	 4.257732305018673e-01	 1.794612316856243e+01
 1.149318564248094e+00	 4.364915639201673e-01	 1.782338858500488e+01
 1.145196965399759e+00	 4.471933934865727e-01	 1.769871586753861e+01
 1.140967357199277e+00	 4.578771572031403e-01	 1.757170967811277e+01
 1.136629690254264e+00	 4.685412857518146e-01	 1.744193688269545e+01
 1.132183944464321e+00	 4.791842031414399e-01	 1.730892592619973e+01
 1.127630129308901e+00	 4.898043273668362e-01	 1.717216628316258e+01
 1.122968284118035e+00	 5.004000710794656e-01	 1.703110799202487e+01
 1.118198478325460e+00	 5.109698422691897e-01	 1.688516128090014e+01
 1.113320811703653e+00	 5.215120449566023e-01	 1.673369629271638e+01
 1.108335414580344e+00	 5.320250798953942e-01	 1.657604291756090e+01
 1.161609253654879e+00	 4.288288411049933e-01	 1.782033032016318e+01
 1.157566781228993e+00	 4.396240958772121e-01	 1.770384017586559e+01
 1.153415603251863e+00	 4.504027283557278e-01	 1.758529778247406e+01
 1.149155640781084e+00	 4.611631653327386e-01	 1.746430524985460e+01
 1.144786844069792e+00	 4.719038262277970e-01	 1.734042544960374e+01
 1.140309192873327e+00	 4.826231237394645e-01	 1.721318131975538e+01
 1.135722696739162e+00	 4.933194645091186e-01	 1.708205524671637e+01
 1.131027395279580e+00	 5.039912497964312e-01	 1.694648853269474e+01
 1.126223358426605e+00	 5.146368761660195e-01	 1.680588095693169e+01
 1.121310686668735e+00	 5.252547361847464e-01	 1.665959043905392e+01
 1.116289511269000e+00	 5.358432191291277e-01	 1.650693281281224e+01
 1.169886275185913e+00	 4.318844517075364e-01	 1.769568673154631e+01
 1.165814998210243e+00	 4.427566278336720e-01	 1.758551990046213e+01
 1.161634241104332e+00	 4.536120632243018e-01	 1.747315893228479e+01
 1.157343924363267e+00	 4.644491734617650e-01	 1.735820565731072e+01
 1.152943997885704e+00	 4.752663667032204e-01	 1.724022127718426e+01
 1.148434441282723e+00	 4.860620443369463e-01	 1.711872559499781e+01
 1.143815264169820e+00	 4.968346016508763e-01	 1.699319632396389e+01
 1.139086506441523e+00	 5.075824285128914e-01	 1.686306848335170e+01
 1.134248238528149e+00	 5.183039100623631e-01	 1.672773389044121e+01
 1.129300561634215e+00	 5.289974274124229e-01	 1.658654075725769e+01
 1.124243607958056e+00	 5.396613583624100e-01	 1.643879340080915e+01
 1.178163296717446e+00	 4.349400623094145e-01	 1.757177563087683e+01
 1.174063215192018e+00	 4.458891597894502e-01	 1.746790478825067e+01
 1.169852878957349e+00	 4.568213980921843e-01	 1.736180621963592e+01
 1.165532207946015e+00	 4.677351815900962e-01	 1.725294871129696e+01
 1.161101151702194e+00	 4.786289071779501e-01	 1.714089413209787e+01
 1.156559689692707e+00	 4.895009649337401e-01	 1.702516153420669e+01
 1.151907831601071e+00	 5.003497387919548e-01	 1.690522638387112e+01
 1.147145617604063e+00	 5.111736072286830e-01	 1.678051988111140e+01
 1.142273118630292e+00	 5.219709439580501e-01	 1.665042837754008e+01
 1.137290436600296e+00	 5.327401186394548e-01	 1.651429290153767e+01
 1.132197704647713e+00	 5.434794975950584e-01	 1.637140879997742e+01
 1.186440318249641e+00	 4.379956729105452e-01	 1.745246665464746e+01
 1.182311432174493e+00	 4.490216917444495e-01	 1.735212060983208e+01
 1.178071516811096e+00	 4.600307329592652e-01	 1.725086943779166e+01
 1.173720491529515e+00	 4.710211897176092e-01	 1.714807413823564e+01
 1.169258305519455e+00	 4.819914476518518e-01	 1.704201419216184e+01
 1.164684938103474e+00	 4.929398855297004e-01	 1.693209080264646e+01
 1.160000399033113e+00	 5.038648759321990e-01	 1.681777962808695e+01
 1.155204728767399e+00	 5.147647859436427e-01	 1.669851052495668e+01
 1.150297998733234e+00	 5.256379778529094e-01	 1.657366688651763e+01
 1.145280311567176e+00	 5.364828098656644e-01	 1.644258509137719e+01
 1.140151801338169e+00	 5.472976368268900e-01	 1.630455407157306e+01
 1.060610834445606e+00	 5.091162444937753e-01	 1.702211053886043e+01
 1.055738006511554e+00	 5.191454442116863e-01	 1.682811353174054e+01
 1.050762458960495e+00	 5.291436749777426e-01	 1.663503749082231e+01
 1.045684404432864e+00	 5.391094013790461e-01	 1.644238356835031e+01
 1.040504085435939e+00	 5.490410876312676e-01	 1.624964395307319e+01
 1.035221774457164e+00	 5.589371982900342e-01	 1.605630245716599e+01
 1.029837774057543e+00	 5.687961989684474e-01	 1.586183519143454e+01
 1.024352416944811e+00	 5.786165570600982e-01	 1.566571133242526e+01
 1.018766066026104e+00	 5.883967424669228e-01	 1.546739326668269e+01
 1.013079114439890e+00	 5.981352283312306e-01	 1.526456747677980e+01
 1.007291985566919e+00	 6.078304917712264e-01	 1.505567159742995e+01
 1.068564931136062e+00	 5.129343837263703e-01	 1.694311274573136e+01
 1.063655559218690e+00	 5.230387978599927e-01	 1.675562072898065e+01
 1.058642697334096e+00	 5.331120107887881e-01	 1.656935069833917e+01
 1.053526559717424e+00	 5.431524755849616e-01	 1.638378788361367e+01
 1.048307390694655e+00	 5.531586449465021e-01	 1.619840925251879e+01
 1.042985464796769e+00	 5.631289719139037e-01	 1.601268409112268e+01
 1.037561086853845e+00	 5.730619105930658e-01	 1.582607467415613e+01
 1.032034592068782e+00	 5.829559168837306e-01	 1.563803702905866e+01
 1.026406346070359e+00	 5.928094492127962e-01	 1.544756241490518e+01
 1.020676744945409e+00	 6.026209692718354e-01	 1.525127983515968e+01
 1.014846215249852e+00	 6.123889427581338e-01	 1.504892597431762e+01
 1.076519027825718e+00	 5.167525229596125e-01	 1.686620733057619e+01
 1.071573111925027e+00	 5.269321515089876e-01	 1.668488116013316e+01
 1.066522935706896e+00	 5.370803466005551e-01	 1.650512224083721e+01
 1.061368715001185e+00	 5.471955497916245e-01	 1.632640505501615e+01
 1.056110695952571e+00	 5.572762022625033e-01	 1.614819617256002e+01
 1.050749155135574e+00	 5.673207455385539e-01	 1.596995481284096e+01
 1.045284399649348e+00	 5.773276222184746e-01	 1.579113349851906e+01
 1.039716767191954e+00	 5.872952767081590e-01	 1.561117880538959e+01
 1.034046626113814e+00	 5.972221559594681e-01	 1.542759527108704e+01
 1.028274375450128e+00	 6.071067102132397e-01	 1.523764364874878e+01
 1.022400444931984e+00	 6.169473937458408e-01	 1.504169027516416e+01
 1.084473124514775e+00	 5.205706621933194e-01	 1.679122649701413e+01
 1.079490664630763e+00	 5.308255051584834e-01	 1.661577334219543e+01
 1.074403174079098e+00	 5.410486824128525e-01	 1.644227013939664e+01
 1.069210870284345e+00	 5.512386239988405e-01	 1.627018571908692e+01
 1.063914001209887e+00	 5.613937595790750e-01	 1.609898100097832e+01
 1.058512845473778e+00	 5.715125191637869e-01	 1.592810952538394e+01
 1.053007712444251e+00	 5.815933338444743e-01	 1.575701807892072e+01
 1.047398942314525e+00	 5.916346365331834e-01	 1.558482576480999e+01
 1.041686906156670e+00	 6.016348627067389e-01	 1.540725418703161e+01
 1.035872005954248e+00	 6.115924511552439e-01	 1.522340980716784e+01
 1.029954674613517e+00	 6.215058447341478e-01	 1.503369622727777e+01
 1.092427221203431e+00	 5.243888014273070e-01	 1.671799519938770e+01
 1.087408217336101e+00	 5.347188588082925e-01	 1.654816675142865e+01
 1.082283412450898e+00	 5.450170182254889e-01	 1.638070179877066e+01
 1.077053025567106e+00	 5.552816982064155e-01	 1.621506854021139e+01
 1.071717306466803e+00	 5.655113168960207e-01	 1.605072692112489e+01
 1.066276535811584e+00	 5.757042927894047e-01	 1.588712912222534e+01
 1.060731025238754e+00	 5.858590454708664e-01	 1.572372014557298e+01
 1.055081117436697e+00	 5.959739963586046e-01	 1.555816337886470e+01
 1.049327186199125e+00	 6.060475694544086e-01	 1.538629477678534e+01
 1.043469636457968e+00	 6.160781920976479e-01	 1.520832296614951e+01
 1.037508904294649e+00	 6.260642957228550e-01	 1.502467004869835e+01
 1.100381317891887e+00	 5.282069406613931e-01	 1.664633083113387e+01
 1.095325770041238e+00	 5.386122124582273e-01	 1.648192155853391e+01
 1.090163650822499e+00	 5.489853540382726e-01	 1.632031378192928e+01
 1.084895180849667e+00	 5.593247724141557e-01	 1.616098001700782e+01
 1.079520611723520e+00	 5.696288742131441e-01	 1.600338384249860e+01
 1.074040226149189e+00	 5.798960664152100e-01	 1.584698033431026e+01
 1.068454338033057e+00	 5.901247570974516e-01	 1.569109586544104e+01
 1.062763292558668e+00	 6.003133561842228e-01	 1.553092337861570e+01
 1.056967466241380e+00	 6.104602762022775e-01	 1.536446636228744e+01
 1.051067266961487e+00	 6.205639330402516e-01	 1.519212198877646e+01
 1.045063133975582e+00	 6.306227467117621e-01	 1.501433287648550e+01
 1.108335414580344e+00	 5.320250798953942e-01	 1.657604291756090e+01
 1.103243322746374e+00	 5.425055661080999e-01	 1.641688836595545e+01
 1.098043889194100e+00	 5.529536898510131e-01	 1.626099158477614e+01
 1.092737336132228e+00	 5.633678466218662e-01	 1.610783428724945e+01
 1.087323916980236e+00	 5.737464315302493e-01	 1.595688822857799e+01
 1.081803916486794e+00	 5.840878400410043e-01	 1.580761557341445e+01
 1.076177650827359e+00	 5.943904687240315e-01	 1.565814101303742e+01
 1.070445467680639e+00	 6.046527160098385e-01	 1.550285222630028e+01
 1.064607746283636e+00	 6.148729829501458e-01	 1.534151241451302e+01
 1.058664897465007e+00	 6.250496739828550e-01	 1.517454038264667e+01
 1.052617363656515e+00	 6.351811977006688e-01	 1.500240119172046e+01
 1.116289511269000e+00	 5.358432191291277e-01	 1.650693281281224e+01
 1.111160875451712e+00	 5.463989197577231e-01	 1.635290794720526e+01
 1.105924127565902e+00	 5.569220256635186e-01	 1.620260941102898e+01
 1.100579491414989e+00	 5.674109208293535e-01	 1.605553293140695e+01
 1.095127222237152e+00	 5.778639888471396e-01	 1.591116292204436e+01
 1.089567606824600e+00	 5.882796136665901e-01	 1.576897255973612e+01
 1.083900963621862e+00	 5.986561803504070e-01	 1.562442319601371e+01
 1.078127642802811e+00	 6.089920758352523e-01	 1.547369067337077e+01
 1.072248026326091e+00	 6.192856896978132e-01	 1.531717099033352e+01
 1.066262527968726e+00	 6.295354149252588e-01	 1.515530673316776e+01
 1.060171593337648e+00	 6.397396486893756e-01	 1.498858724138831e+01
 1.124243607958056e+00	 5.396613583624100e-01	 1.643879340080915e+01
 1.119078428157448e+00	 5.502922734069091e-01	 1.628981098810947e+01
 1.113804365938102e+00	 5.608903614755977e-01	 1.614502994725699e+01
 1.108421646698150e+00	 5.714539950364231e-01	 1.600396477487812e+01
 1.102930527494469e+00	 5.819815461636191e-01	 1.586611696752508e+01
 1.097331297162805e+00	 5.924713872917693e-01	 1.573025230075658e+01
 1.091624276416765e+00	 6.029218919763792e-01	 1.558967378318557e+01
 1.085809817925383e+00	 6.133314356602649e-01	 1.544317418901079e+01
 1.079888306368947e+00	 6.236983964450802e-01	 1.529117516530762e+01
 1.073860158472846e+00	 6.340211558672622e-01	 1.513414513317215e+01
 1.067725823019181e+00	 6.442980996776826e-01	 1.497259945729317e+01
 1.132197704647713e+00	 5.434794975950584e-01	 1.637140879997741e+01
 1.126995980863785e+00	 5.541856270554704e-01	 1.622741782988162e+01
 1.121684604310903e+00	 5.648586972870597e-01	 1.608810413806644e+01
 1.116263801981911e+00	 5.754970692428815e-01	 1.595300568897052e+01
 1.110733832752385e+00	 5.860991034794907e-01	 1.582164543197942e+01
 1.105094987501610e+00	 5.966631609163446e-01	 1.569056123661641e+01
 1.099347589212268e+00	 6.071876036017492e-01	 1.555361916012108e+01
 1.093491993048554e+00	 6.176707954846768e-01	 1.541103338471216e+01
 1.087528586412402e+00	 6.281111031917473e-01	 1.526325346260198e+01
 1.081457788977566e+00	 6.385068968086658e-01	 1.511077560903537e+01
 1.075280052701313e+00	 6.488565506653895e-01	 1.495414287215291e+01
 1.140151801338169e+00	 5.472976368268900e-01	 1.630455407157305e+01
 1.134913533570922e+00	 5.580789807032194e-01	 1.616553821393406e+01
 1.129564842684505e+00	 5.688270330977130e-01	 1.603167096142831e+01
 1.124105957266472e+00	 5.795401434485337e-01	 1.590251839069726e+01
 1.118537138011102e+00	 5.902166607945590e-01	 1.577744965630769e+01
 1.112858677841215e+00	 6.008549345401176e-01	 1.564961077423571e+01
 1.107070902008571e+00	 6.114533152263181e-01	 1.551598113877822e+01
 1.101174168172526e+00	 6.220101553082881e-01	 1.537699443510499e+01
 1.095168866456658e+00	 6.325238099376140e-01	 1.523313027823081e+01
 1.089055419483085e+00	 6.429926377492694e-01	 1.508491454346618e+01
 1.082834282384246e+00	 6.534150016522964e-01	 1.493291953301141e+01
 1.007291985566919e+00	 6.078304917712264e-01	 1.505567159742995e+01
 1.001405133263364e+00	 6.174810148117503e-01	 1.484261764534565e+01
 9.954190425550976e-01	 6.270852857138690e-01	 1.462734229595406e+01
 9.893342288464844e-01	 6.366417991599383e-01	 1.441029362024939e+01
 9.831512375998286e-01	 6.461490568059063e-01	 1.419194945519839e+01
 9.768706442374566e-01	 6.556055680229007e-01	 1.397281678421431e+01
 9.704930540220390e-01	 6.650098506379701e-01	 1.375343099041792e+01
 9.640191019151049e-01	 6.743604316732268e-01	 1.353435498120679e+01
 9.574494524137537e-01	 6.836558480826636e-01	 1.331617818334294e+01
 9.507847993655814e-01	 6.928946474858871e-01	 1.309951540848668e+01
 9.440258657618684e-01	 7.020753888980267e-01	 1.288500558983724e+01
 1.014846215249852e+00	 6.123889427581338e-01	 1.504892597431762e+01
 1.008915214243577e+00	 6.221118403124096e-01	 1.484236748570290e+01
 1.002884230589933e+00	 6.317881388583758e-01	 1.463349322055185e+01
 9.967537835585789e-01	 6.414163217891901e-01	 1.442276108852242e+01
 9.905244227025363e-01	 6.509948795239019e-01	 1.421065845530284e+01
 9.841967277595369e-01	 6.605223102546007e-01	 1.399770151576209e+01
 9.777713085314413e-01	 6.699971206927113e-01	 1.378443453588725e+01
 9.712488047417002e-01	 6.794178268136822e-01	 1.357142896188744e+01
 9.646298858708372e-01	 6.887829545993260e-01	 1.335928239556180e+01
 9.579152509699865e-01	 6.980910407770571e-01	 1.314861743577376e+01
 9.511056284525322e-01	 7.073406335552738e-01	 1.294008038664249e+01
 1.022400444931984e+00	 6.169473937458408e-01	 1.504169027516416e+01
 1.016425295222991e+00	 6.267426658138692e-01	 1.484153113534994e+01
 1.010349418623969e+00	 6.364909920036813e-01	 1.463897601893403e+01
 1.004173338269877e+00	 6.461908444192387e-01	 1.443448588749754e+01
 9.978976078044521e-01	 6.558407022426891e-01	 1.422855095946472e+01
 9.915228112808313e-01	 6.654390524870845e-01	 1.402169008692268e+01
 9.850495630400686e-01	 6.749843907482238e-01	 1.381444999695543e+01
 9.784785075675356e-01	 6.844752219548921e-01	 1.360740439570523e+01
 9.718103193271798e-01	 6.939100611167204e-01	 1.340115293411816e+01
 9.650457025736762e-01	 7.032874340689307e-01	 1.319632003511024e+01
 9.581853911425121e-01	 7.126058782131882e-01	 1.299355358269006e+01
 1.029954674613517e+00	 6.215058447341478e-01	 1.503369622727777e+01
 1.023935376201805e+00	 6.313734913159278e-01	 1.483981838966054e+01
 1.017814606657407e+00	 6.411938451495862e-01	 1.464348085350144e+01
 1.011592892980577e+00	 6.509653670498839e-01	 1.444514096342835e+01
 1.005270792905772e+00	 6.606865249620703e-01	 1.424528523266878e+01
 9.988488948015339e-01	 6.703557947201551e-01	 1.404442873449366e+01
 9.923278175481102e-01	 6.799716608043150e-01	 1.384311435362648e+01
 9.857082103927933e-01	 6.895326170966674e-01	 1.364191189563133e+01
 9.789907527829566e-01	 6.990371676346639e-01	 1.344141705307721e+01
 9.721761541768139e-01	 7.084838273613314e-01	 1.324225022808088e+01
 9.652651538319589e-01	 7.178711228716030e-01	 1.304505521166938e+01
 1.037508904294649e+00	 6.260642957228550e-01	 1.502467004869835e+01
 1.031445457180219e+00	 6.360043168183867e-01	 1.483693433503484e+01
 1.025279794690444e+00	 6.458966982958904e-01	 1.464669390462977e+01
 1.019012447690877e+00	 6.557398896809278e-01	 1.445439592939982e+01
 1.012643978006694e+00	 6.655323476818468e-01	 1.426051677283227e+01
 1.006174978321839e+00	 6.752725369536177e-01	 1.406556140697926e+01
 9.996060720557555e-01	 6.849589308607914e-01	 1.387006268457859e+01
 9.929379132176571e-01	 6.945900122388203e-01	 1.367458046409593e+01
 9.861711862383420e-01	 7.041642741529737e-01	 1.347970058629281e+01
 9.793066057795643e-01	 7.136802206540840e-01	 1.328603370177130e+01
 9.723449165210218e-01	 7.231363675303518e-01	 1.309421394981423e+01
 1.045063133975582e+00	 6.306227467117621e-01	 1.501433287648550e+01
 1.038955538158433e+00	 6.406351423210455e-01	 1.483257976089912e+01
 1.032744982723282e+00	 6.505995514423945e-01	 1.464829776839522e+01
 1.026432002400977e+00	 6.605144123121706e-01	 1.446191745092790e+01
 1.020017163107413e+00	 6.703781704018210e-01	 1.427389868656418e+01
 1.013501061841940e+00	 6.801892791872760e-01	 1.408473013292717e+01
 1.006884326563193e+00	 6.899462009174608e-01	 1.389492853063452e+01
 1.000167616042309e+00	 6.996474073811618e-01	 1.370503785427827e+01
 9.933516196935103e-01	 7.092913806714665e-01	 1.351562830933529e+01
 9.864370573820904e-01	 7.188766139470123e-01	 1.332729517428151e+01
 9.794246792098521e-01	 7.284016121892672e-01	 1.314065748808369e+01
 1.052617363656515e+00	 6.351811977006688e-01	 1.500240119172046e+01
 1.046465619136647e+00	 6.452659678237042e-01	 1.482645156934138e+01
 1.040210170756118e+00	 6.553024045888980e-01	 1.464797185275540e+01
 1.033851557111074e+00	 6.652889349434135e-01	 1.446736963072980e+01
 1.027390348208127e+00	 6.752239931217954e-01	 1.428508206469642e+01
 1.020827145362030e+00	 6.851060214209344e-01	 1.410157538952343e+01
 1.014162581070614e+00	 6.949334709741305e-01	 1.391734425884777e+01
 1.007397318866934e+00	 7.047048025235035e-01	 1.373291093224105e+01
 1.000532053148636e+00	 7.144184871899589e-01	 1.354882430235727e+01
 9.935675089845566e-01	 7.240730072399407e-01	 1.336565876113115e+01
 9.865044418985992e-01	 7.336668568481826e-01	 1.318401290503640e+01
 1.060171593337648e+00	 6.397396486893756e-01	 1.498858724138831e+01
 1.053975700115061e+00	 6.498967933261628e-01	 1.481824318250017e+01
 1.047675358789154e+00	 6.600052577352021e-01	 1.464539277226393e+01
 1.041271111821368e+00	 6.700634575744565e-01	 1.447041439270556e+01
 1.034763533309033e+00	 6.800698158415720e-01	 1.429371635759964e+01
 1.028153228882305e+00	 6.900227636543970e-01	 1.411573647143076e+01
 1.021440835578206e+00	 6.999207410306072e-01	 1.393694142717533e+01
 1.014627021691712e+00	 7.097621976656561e-01	 1.375782603986993e+01
 1.007712486603895e+00	 7.195455937082684e-01	 1.357891231385192e+01
 1.000697960587126e+00	 7.292694005326930e-01	 1.340074834250879e+01
 9.935842045874139e-01	 7.389321015069312e-01	 1.322390704036140e+01
 1.067725823019181e+00	 6.442980996776826e-01	 1.497259945729317e+01
 1.061485781093874e+00	 6.545276188282213e-01	 1.480764494781765e+01
 1.055140546822588e+00	 6.647081108811067e-01	 1.464023474138914e+01
 1.048690666532057e+00	 6.748379802051019e-01	 1.447071186517093e+01
 1.042136718410326e+00	 6.849156385609526e-01	 1.429944975029346e+01
 1.035479312402956e+00	 6.949395058874676e-01	 1.412685185985886e+01
 1.028719090086158e+00	 7.049080110866980e-01	 1.395335114970632e+01
 1.021856724516829e+00	 7.148195928074316e-01	 1.377940935857547e+01
 1.014892920059460e+00	 7.246727002262118e-01	 1.360551612525826e+01
 1.007828412189962e+00	 7.344657938250938e-01	 1.343218793132481e+01
 1.000663967276446e+00	 7.441973461653458e-01	 1.325996686903491e+01
 1.075280052701313e+00	 6.488565506653895e-01	 1.495414287215290e+01
 1.068995862073288e+00	 6.591584443296803e-01	 1.479434454126259e+01
 1.062605734856620e+00	 6.694109640264118e-01	 1.463216996650820e+01
 1.056110221243340e+00	 6.796125028351502e-01	 1.446792076337713e+01
 1.049509903512206e+00	 6.897614612797396e-01	 1.430192953736180e+01
 1.042805395924178e+00	 6.998562481199506e-01	 1.413455959185499e+01
 1.035997344594661e+00	 7.098952811422102e-01	 1.396620446242098e+01
 1.029086427342466e+00	 7.198769879486409e-01	 1.379728727372243e+01
 1.022073353515506e+00	 7.297998067436061e-01	 1.362825991637368e+01
 1.014958863793230e+00	 7.396621871169671e-01	 1.345960204202705e+01
 1.007743729965846e+00	 7.494625908232602e-01	 1.329181987607057e+01
 1.082834282384246e+00	 6.534150016522964e-01	 1.493291953301141e+01
 1.076505943053501e+00	 6.637892698303393e-01	 1.477802736862163e+01
 1.070070922891450e+00	 6.741138171709183e-01	 1.462086903663914e+01
 1.063529775955415e+00	 6.843870254644014e-01	 1.446169877135327e+01
 1.056883088614866e+00	 6.946072839977351e-01	 1.430080249768217e+01
 1.050131479446166e+00	 7.047729903516500e-01	 1.413849762980482e+01
 1.043275599103903e+00	 7.148825511969510e-01	 1.397513268945214e+01
 1.036316130168806e+00	 7.249343830890960e-01	 1.381108673974887e+01
 1.029253786972209e+00	 7.349269132602679e-01	 1.364676863153128e+01
 1.022089315397092e+00	 7.448585804081368e-01	 1.348261606014411e+01
 1.014823492655765e+00	 7.547278354805068e-01	 1.331909443183580e+01
 9.440258657618684e-01	 7.020753888980267e-01	 1.288500558983725e+01
 9.371722312564811e-01	 7.111981881576777e-01	 1.267011505177006e+01
 9.302258211404490e-01	 7.202600583862604e-01	 1.245235552849571e+01
 9.231874486874327e-01	 7.292595911757217e-01	 1.223235429150150e+01
 9.160579553103223e-01	 7.381953923657890e-01	 1.201075293718200e+01
 9.088382102458218e-01	 7.470660827468745e-01	 1.178820570426656e+01
 9.015291102181738e-01	 7.558702987547489e-01	 1.156537768964883e+01
 8.941315790822691e-01	 7.646066931562584e-01	 1.134294296833293e+01
 8.866465674464368e-01	 7.732739357253688e-01	 1.112158262392827e+01
 8.790750522752150e-01	 7.818707139088330e-01	 1.090198269681297e+01
 8.714180364724508e-01	 7.903957334807954e-01	 1.068483205775140e+01
 9.511056284525322e-01	 7.073406335552738e-01	 1.294008038664249e+01
 9.442005948199346e-01	 7.165318496413063e-01	 1.273108767096013e+01
 9.372020898020160e-01	 7.256616797563571e-01	 1.251908542689513e+01
 9.301109327716072e-01	 7.347287049299641e-01	 1.230468779125980e+01
 9.229279714517997e-01	 7.437315205462982e-01	 1.208852365131489e+01
 9.156540815981642e-01	 7.526687370523376e-01	 1.187123494552572e+01
 9.082901666599540e-01	 7.615389806577543e-01	 1.165347485743617e+01
 9.008371574205393e-01	 7.703408940257686e-01	 1.143590590850268e+01
 8.932960116173648e-01	 7.790731369542668e-01	 1.121919795648220e+01
 8.856677135417462e-01	 7.877343870464623e-01	 1.100402610669216e+01
 8.779532736188399e-01	 7.963233403704034e-01	 1.079106854415990e+01
 9.581853911425121e-01	 7.126058782131882e-01	 1.299355358269005e+01
 9.512289583827420e-01	 7.218655111255589e-01	 1.279022590196324e+01
 9.441783584629813e-01	 7.310633011270273e-01	 1.258373138066382e+01
 9.370344168552288e-01	 7.401978186847248e-01	 1.237467743012929e+01
 9.297979875927751e-01	 7.492676487272668e-01	 1.216368678592573e+01
 9.224699529500577e-01	 7.582713913582004e-01	 1.195139578267247e+01
 9.150512231013397e-01	 7.672076625610975e-01	 1.173845251625096e+01
 9.075427357584669e-01	 7.760750948955559e-01	 1.152551489938132e+01
 8.999454557880022e-01	 7.848723381833849e-01	 1.131324861734130e+01
 8.922603748080340e-01	 7.935980601842565e-01	 1.110232499136662e+01
 8.844885107650281e-01	 8.022509472601288e-01	 1.089341875800317e+01
 9.652651538319589e-01	 7.178711228716030e-01	 1.304505521166938e+01
 9.582573219450380e-01	 7.271991726102791e-01	 1.284716548173424e+01
 9.511546271234597e-01	 7.364649224981273e-01	 1.264593679421815e+01
 9.439579009383914e-01	 7.456669324398738e-01	 1.244197610438652e+01
 9.366680037333223e-01	 7.548037769085791e-01	 1.223590641399478e+01
 9.292858243015548e-01	 7.638740456643593e-01	 1.202836501101762e+01
 9.218122795423613e-01	 7.728763444646892e-01	 1.182000159056683e+01
 9.142483140960651e-01	 7.818092957655439e-01	 1.161147626314201e+01
 9.065948999583420e-01	 7.906715394126563e-01	 1.140345745719077e+01
 8.988530360740573e-01	 7.994617333221602e-01	 1.119661972375281e+01
 8.910237479109830e-01	 8.081785541499212e-01	 1.099164145174060e+01
 9.723449165210218e-01	 7.231363675303518e-01	 1.309421394981424e+01
 9.652856855069558e-01	 7.325328340953110e-01	 1.290154067377800e+01
 9.581308957835671e-01	 7.418665438695140e-01	 1.270534341027061e+01
 9.508813850211906e-01	 7.511360461952811e-01	 1.250623479189067e+01
 9.435380198735148e-01	 7.603399050901185e-01	 1.230484436882336e+01
 9.361016956527080e-01	 7.694766999707124e-01	 1.210181680439604e+01
 9.285733359830514e-01	 7.785450263684408e-01	 1.189780994516284e+01
 9.209538924333449e-01	 7.875434966356567e-01	 1.169349277183654e+01
 9.132443441283795e-01	 7.964707406420167e-01	 1.148954323826326e+01
 9.054456973397951e-01	 8.053254064601162e-01	 1.128664600647515e+01
 8.975589850566711e-01	 8.141061610397301e-01	 1.108549008667348e+01
 9.794246792098521e-01	 7.284016121892672e-01	 1.314065748808369e+01
 9.723140490686299e-01	 7.378664955804988e-01	 1.295298464949907e+01
 9.651071644434184e-01	 7.472681652410436e-01	 1.276159170208346e+01
 9.578048691037211e-01	 7.566051599508157e-01	 1.256710295683615e+01
 9.504080360134270e-01	 7.658760332717687e-01	 1.237016066272944e+01
 9.429175670035700e-01	 7.750793542771577e-01	 1.217142314910367e+01
 9.353343924234413e-01	 7.842137082722636e-01	 1.197156283545338e+01
 9.276594707703180e-01	 7.932776975058171e-01	 1.177126411511851e+01
 9.198937882981078e-01	 8.022699418713994e-01	 1.157122112030982e+01
 9.120383586052256e-01	 8.111890795980683e-01	 1.137213537678804e+01
 9.040942222020594e-01	 8.200337679295063e-01	 1.117471335737021e+01
 9.865044418985992e-01	 7.336668568481826e-01	 1.318401290503640e+01
 9.793424126301939e-01	 7.432001570656864e-01	 1.300112986992187e+01
 9.720834331031291e-01	 7.526697866125723e-01	 1.281432126568462e+01
 9.647283531860783e-01	 7.620742737063482e-01	 1.262422895396973e+01
 9.572780521531328e-01	 7.714121614534136e-01	 1.243151390463499e+01
 9.497334383541932e-01	 7.806820085835927e-01	 1.223685427608160e+01
 9.420954488635623e-01	 7.898823901760680e-01	 1.204094335535406e+01
 9.343650491069970e-01	 7.990118983759491e-01	 1.184448736473423e+01
 9.265432324675217e-01	 8.080691431007399e-01	 1.164820314251499e+01
 9.186310198703277e-01	 8.170527527359595e-01	 1.145281570657295e+01
 9.106294593471145e-01	 8.259613748191990e-01	 1.125905571026083e+01
 9.935842045874139e-01	 7.389321015069312e-01	 1.322390704036140e+01
 9.863707761917819e-01	 7.485338185507181e-01	 1.304560846776449e+01
 9.790597017628141e-01	 7.580714079839570e-01	 1.286317121204457e+01
 9.716518372683572e-01	 7.675433874617485e-01	 1.267726043229920e+01
 9.641480682927054e-01	 7.769482896349368e-01	 1.248856171659978e+01
 9.565493097046298e-01	 7.862846628899146e-01	 1.229777909143347e+01
 9.488565053034465e-01	 7.955510720797655e-01	 1.210563288280446e+01
 9.410706274433931e-01	 8.047460992459757e-01	 1.191285743593874e+01
 9.331926766366142e-01	 8.138683443299721e-01	 1.172019870155711e+01
 9.252236811350806e-01	 8.229164258737331e-01	 1.152841169765669e+01
 9.171646964918033e-01	 8.318889817087582e-01	 1.133825785668943e+01
 1.000663967276446e+00	 7.441973461653458e-01	 1.325996686903491e+01
 9.933991397535278e-01	 7.538674800354376e-01	 1.308605262984829e+01
 9.860359704225894e-01	 7.634730293550537e-01	 1.290778055921842e+01
 9.785753213506526e-01	 7.730125012168860e-01	 1.272584473832007e+01
 9.710180844322190e-01	 7.824844178162224e-01	 1.254096114935388e+01
 9.633651810549324e-01	 7.918873171960218e-01	 1.235386560535892e+01
 9.556175617431246e-01	 8.012197539832674e-01	 1.216531152306728e+01
 9.477762057795182e-01	 8.104803001158215e-01	 1.197606754599301e+01
 9.398421208053800e-01	 8.196675455590305e-01	 1.178691502600669e+01
 9.318163423994631e-01	 8.287800990113333e-01	 1.159864537268338e+01
 9.236999336360932e-01	 8.378165885981341e-01	 1.141205728070191e+01
 1.007743729965846e+00	 7.494625908232602e-01	 1.329181987607058e+01
 1.000427503315565e+00	 7.592011415196893e-01	 1.312209497982613e+01
 9.930122390825695e-01	 7.688746507257190e-01	 1.294778862445382e+01
 9.854988054330599e-01	 7.784816149716307e-01	 1.276962931878124e+01
 9.778881005717478e-01	 7.880205459971537e-01	 1.258836909687983e+01
 9.701810524051532e-01	 7.974899715018113e-01	 1.240478135958099e+01
 9.623786181826289e-01	 8.068884358864846e-01	 1.221965854990960e+01
 9.544817841153842e-01	 8.162145009854088e-01	 1.203380966988273e+01
 9.464915649738130e-01	 8.254667467878500e-01	 1.184805764724082e+01
 9.384090036634535e-01	 8.346437721487031e-01	 1.166323656175752e+01
 9.302351707799503e-01	 8.437441954872766e-01	 1.148018874182597e+01
 1.014823492655765e+00	 7.547278354805068e-01	 1.331909443183580e+01
 1.007455866878029e+00	 7.645348030033171e-01	 1.315336896121422e+01
 9.999885077428706e-01	 7.742762720958096e-01	 1.298283541626639e+01
 9.924222895156739e-01	 7.839507287258528e-01	 1.280826212301521e+01
 9.847581167113650e-01	 7.935566741776144e-01	 1.263044271008738e+01
 9.769969237553450e-01	 8.030926258071813e-01	 1.245019385334231e+01
 9.691396746219908e-01	 8.125571177893284e-01	 1.226835284477236e+01
 9.611873624510034e-01	 8.219487018546621e-01	 1.208577499339678e+01
 9.531410091419071e-01	 8.312659480163649e-01	 1.190333086704550e+01
 9.450016649270306e-01	 8.405074452857859e-01	 1.172190338506632e+01
 9.367704079233418e-01	 8.496718023761349e-01	 1.154238477308731e+01
 8.714180364724508e-01	 7.903957334807954e-01	 1.068483205775140e+01
 8.636778691763565e-01	 7.988462910794256e-01	 1.046807154700894e+01
 8.558542975080441e-01	 8.072225983982798e-01	 1.024954992282184e+01
 8.479483851579257e-01	 8.155234344082373e-01	 1.002992365936903e+01
 8.399612198829021e-01	 8.237475988875402e-01	 9.809840703003095e+00
 8.318939130041005e-01	 8.318939130041005e-01	 9.589938261455996e+00
 8.237475988875400e-01	 8.399612198829022e-01	 9.370840581447217e+00
 8.155234344082370e-01	 8.479483851579258e-01	 9.153156725513965e+00
 8.072225983982796e-01	 8.558542975080441e-01	 8.937478359143034e+00
 7.988462910794255e-01	 8.636778691763568e-01	 8.724377559479500e+00
 7.903957334807953e-01	 8.714180364724509e-01	 8.514404657014969e+00
 8.779532736188399e-01	 7.963233403704034e-01	 1.079106854415990e+01
 8.701550586043140e-01	 8.048372732902872e-01	 1.057822096891852e+01
 8.622728137228147e-01	 8.132763990872637e-01	 1.036331834665645e+01
 8.543076106419603e-01	 8.216394875750371e-01	 1.014705234536059e+01
 8.462605452763456e-01	 8.299253295307218e-01	 9.930107043181319e+00
 8.381327372815127e-01	 8.381327372815127e-01	 9.713156595617960e+00
 8.299253295307216e-01	 8.462605452763458e-01	 9.496862887339558e+00
 8.216394875750371e-01	 8.543076106419605e-01	 9.281873179990219e+00
 8.132763990872635e-01	 8.622728137228151e-01	 9.068817767616659e+00
 8.048372732902869e-01	 8.701550586043140e-01	 8.858307651563232e+00
 7.963233403704033e-01	 8.779532736188399e-01	 8.650932246829424e+00
 8.844885107650281e-01	 8.022509472601288e-01	 1.089341875800317e+01
 8.766322480321082e-01	 8.108282555012237e-01	 1.068439285571101e+01
 8.686913299374546e-01	 8.193301997762862e-01	 1.047307017269075e+01
 8.606668361258938e-01	 8.277555407418445e-01	 1.026016869422360e+01
 8.525598706697153e-01	 8.361030601738820e-01	 1.004639944481343e+01
 8.443715615588773e-01	 8.443715615588772e-01	 9.832464043149344e+00
 8.361030601738819e-01	 8.525598706697151e-01	 9.619052238220922e+00
 8.277555407418448e-01	 8.606668361258942e-01	 9.406839438467141e+00
 8.193301997762860e-01	 8.686913299374550e-01	 9.196484246139592e+00
 8.108282555012236e-01	 8.766322480321086e-01	 8.988626009300788e+00
 8.022509472601289e-01	 8.844885107650282e-01	 8.783882404032997e+00
 8.910237479109830e-01	 8.081785541499212e-01	 1.099164145174060e+01
 8.831094374596983e-01	 8.168192377121896e-01	 1.078636143109020e+01
 8.751098461519181e-01	 8.253840004653031e-01	 1.057858866169279e+01
 8.670260616096777e-01	 8.338715939086144e-01	 1.036905878856975e+01
 8.588591960629617e-01	 8.422807908169750e-01	 1.015850082228657e+01
 8.506103858361458e-01	 8.506103858361459e-01	 9.947634591227015e+00
 8.422807908169753e-01	 8.588591960629618e-01	 9.737168171811884e+00
 8.338715939086142e-01	 8.670260616096778e-01	 9.527795309069255e+00
 8.253840004653029e-01	 8.751098461519182e-01	 9.320192840281750e+00
 8.168192377121891e-01	 8.831094374596986e-01	 9.115018134694157e+00
 8.081785541499210e-01	 8.910237479109830e-01	 8.912906562440471e+00
 8.975589850566711e-01	 8.141061610397301e-01	 1.108549008667348e+01
 8.895866268870420e-01	 8.228102199231370e-01	 1.088389507800703e+01
 8.815283623661589e-01	 8.314378011542688e-01	 1.067965085874025e+01
 8.733852870932630e-01	 8.399876470753004e-01	 1.047350228946461e+01
 8.651585214560367e-01	 8.484585214599543e-01	 1.026618762600324e+01
 8.568492101132708e-01	 8.568492101132706e-01	 1.005843587826931e+01
 8.484585214599538e-01	 8.651585214560364e-01	 9.850964144126380e+00
 8.399876470753004e-01	 8.733852870932631e-01	 9.644474931174912e+00
 8.314378011542687e-01	 8.815283623661589e-01	 9.439653479734186e+00
 8.228102199231370e-01	 8.895866268870424e-01	 9.237165100563708e+00
 8.141061610397300e-01	 8.975589850566711e-01	 9.037652541062457e+00
 9.040942222020594e-01	 8.200337679295063e-01	 1.117471335737021e+01
 8.960638163140994e-01	 8.288012021340211e-01	 1.097675687917294e+01
 8.879468785801301e-01	 8.374916018431384e-01	 1.077602814268366e+01
 8.797445125766020e-01	 8.461037002418582e-01	 1.057327298792671e+01
 8.714578468488909e-01	 8.546362521027719e-01	 1.036923038922877e+01
 8.630880343902038e-01	 8.630880343902039e-01	 1.016462972967841e+01
 8.546362521027719e-01	 8.714578468488910e-01	 9.960188047895038e+00
 8.461037002418583e-01	 8.797445125766024e-01	 9.756607270546183e+00
 8.374916018431383e-01	 8.879468785801308e-01	 9.554571444423800e+00
 8.288012021340210e-01	 8.960638163140997e-01	 9.354743982181413e+00
 8.200337679295063e-01	 9.040942222020595e-01	 9.157764936044927e+00
 9.106294593471145e-01	 8.259613748191990e-01	 1.125905571026082e+01
 9.025410057408281e-01	 8.347921843447945e-01	 1.106470515096424e+01
 8.943653947937867e-01	 8.435454025318672e-01	 1.086748676851878e+01
 8.861037380596460e-01	 8.522197534082422e-01	 1.066813934913577e+01
 8.777571722414761e-01	 8.608139827453826e-01	 1.046739426772216e+01
 8.693268586668979e-01	 8.693268586668977e-01	 1.026597268670284e+01
 8.608139827453825e-01	 8.777571722414760e-01	 1.006458272469782e+01
 8.522197534082420e-01	 8.861037380596462e-01	 9.863916609005930e+00
 8.435454025318668e-01	 8.943653947937871e-01	 9.664647826245194e+00
 8.347921843447942e-01	 9.025410057408284e-01	 9.467428285807443e+00
 8.259613748191990e-01	 9.106294593471145e-01	 9.272885511014781e+00
 9.171646964918033e-01	 8.318889817087582e-01	 1.133825785668942e+01
 9.090181951671872e-01	 8.407831665554112e-01	 1.114749397105065e+01
 9.007839110070821e-01	 8.495992032204092e-01	 1.095378840302312e+01
 8.924629635423469e-01	 8.583358065744062e-01	 1.075786504971468e+01
 8.840564976337426e-01	 8.669917133877393e-01	 1.056043957250977e+01
 8.755656829433037e-01	 8.755656829433036e-01	 1.036221652876382e+01
 8.669917133877394e-01	 8.840564976337428e-01	 1.016388647112234e+01
 8.583358065744061e-01	 8.924629635423469e-01	 9.966123028930962e+00
 8.495992032204090e-01	 9.007839110070822e-01	 9.769579986621229e+00
 8.407831665554110e-01	 9.090181951671874e-01	 9.574888374286953e+00
 8.318889817087582e-01	 9.171646964918035e-01	 9.382653585912603e+00
 9.236999336360932e-01	 8.378165885981341e-01	 1.141205728070191e+01
 9.154953845931353e-01	 8.467741487658239e-01	 1.122487370005750e+01
 9.072024272199697e-01	 8.556530039087195e-01	 1.103469065399018e+01
 8.988221890246559e-01	 8.644518597403058e-01	 1.084220950842854e+01
 8.903558230256432e-01	 8.731694440297960e-01	 1.064812229614251e+01
 8.818045072193750e-01	 8.818045072193749e-01	 1.045310878956862e+01
 8.731694440297960e-01	 8.903558230256429e-01	 1.025783353924278e+01
 8.644518597403055e-01	 8.988221890246559e-01	 1.006294289282068e+01
 8.556530039087191e-01	 9.072024272199695e-01	 9.869062010104464e+00
 8.467741487658237e-01	 9.154953845931353e-01	 9.676791889849783e+00
 8.378165885981341e-01	 9.236999336360933e-01	 9.486706424386615e+00
 9.302351707799503e-01	 8.437441954872766e-01	 1.148018874182597e+01
 9.219725740186306e-01	 8.527651309759867e-01	 1.129659149755356e+01
 9.136209434324032e-01	 8.617068045967529e-01	 1.110994759337501e+01
 9.051814145065243e-01	 8.705679129058951e-01	 1.092092841062324e+01
 8.966551484171277e-01	 8.793471746715056e-01	 1.073019463275500e+01
 8.880433314950628e-01	 8.880433314950626e-01	 1.053839326731620e+01
 8.793471746715055e-01	 8.966551484171278e-01	 1.034615463169889e+01
 8.705679129058945e-01	 9.051814145065242e-01	 1.015408931818180e+01
 8.617068045967528e-01	 9.136209434324036e-01	 9.962785154211169e+00
 8.527651309759866e-01	 9.219725740186312e-01	 9.772804174252290e+00
 8.437441954872763e-01	 9.302351707799503e-01	 9.584679619818825e+00
 9.367704079233418e-01	 8.496718023761349e-01	 1.154238477308731e+01
 9.284497634436332e-01	 8.587561131858535e-01	 1.136239183264476e+01
 9.200394596443375e-01	 8.677606052844652e-01	 1.117931027465044e+01
 9.115406399879045e-01	 8.766839660711286e-01	 1.099377422671109e+01
 9.029544738081481e-01	 8.855249053128216e-01	 1.080640549223227e+01
 8.942821557703193e-01	 8.942821557703196e-01	 1.061781052928504e+01
 8.855249053128216e-01	 9.029544738081482e-01	 1.042857739163815e+01
 8.766839660711283e-01	 9.115406399879040e-01	 1.023927264795797e+01
 8.677606052844652e-01	 9.200394596443375e-01	 1.005043829567311e+01
 8.587561131858534e-01	 9.284497634436334e-01	 9.862588686390513e+00
 8.496718023761349e-01	 9.367704079233418e-01	 9.676207480049687e+00
 7.903957334807953e-01	 8.714180364724509e-01	 8.514404657014969e+00
 7.818707139088333e-01	 8.790750522752145e-01	 8.306101966937968e+00
 7.732739357253692e-01	 8.866465674464368e-01	 8.098069226764304e+00
 7.646066931562587e-01	 8.941315790822688e-01	 7.890796409808675e+00
 7.558702987547491e-01	 9.015291102181732e-01	 7.684741741134335e+00
 7.470660827468745e-01	 9.088382102458219e-01	 7.480329929562898e+00
 7.381953923657893e-01	 9.160579553103224e-01	 7.277950504184725e+00
 7.292595911757221e-01	 9.231874486874327e-01	 7.077956265738810e+00
 7.202600583862604e-01	 9.302258211404485e-01	 6.880661862800911e+00
 7.111981881576781e-01	 9.371722312564811e-01	 6.686342502230898e+00
 7.020753888980266e-01	 9.440258657618683e-01	 6.495232802776345e+00
 7.963233403704033e-01	 8.779532736188399e-01	 8.650932246829422e+00
 7.877343870464625e-01	 8.856677135417456e-01	 8.445213697533791e+00
 7.790731369542674e-01	 8.932960116173644e-01	 8.239677066737316e+00
 7.703408940257687e-01	 9.008371574205389e-01	 8.034769094705537e+00
 7.615389806577547e-01	 9.082901666599538e-01	 7.830902184401737e+00
 7.526687370523381e-01	 9.156540815981640e-01	 7.628452624605952e+00
 7.437315205462984e-01	 9.229279714517993e-01	 7.427758922382562e+00
 7.347287049299646e-01	 9.301109327716072e-01	 7.229120255657991e+00
 7.256616797563574e-01	 9.372020898020157e-01	 7.032795056226773e+00
 7.165318496413067e-01	 9.442005948199340e-01	 6.838999732997032e+00
 7.073406335552739e-01	 9.511056284525322e-01	 6.647907544711259e+00
 8.022509472601289e-01	 8.844885107650282e-01	 8.783882404033005e+00
 7.935980601842570e-01	 8.922603748080338e-01	 8.580727749167082e+00
 7.848723381833853e-01	 8.999454557880018e-01	 8.377601422343387e+00
 7.760750948955564e-01	 9.075427357584666e-01	 8.174921299442412e+00
 7.672076625610978e-01	 9.150512231013392e-01	 7.973068838007838e+00
 7.582713913582009e-01	 9.224699529500576e-01	 7.772387265847633e+00
 7.492676487272671e-01	 9.297979875927751e-01	 7.573179883229400e+00
 7.401978186847253e-01	 9.370344168552285e-01	 7.375708489885270e+00
 7.310633011270277e-01	 9.441783584629808e-01	 7.180191947584684e+00
 7.218655111255592e-01	 9.512289583827419e-01	 6.986804888508884e+00
 7.126058782131883e-01	 9.581853911425123e-01	 6.795676579065236e+00
 8.081785541499210e-01	 8.910237479109830e-01	 8.912906562440471e+00
 7.994617333221604e-01	 8.988530360740570e-01	 8.712265041770539e+00
 7.906715394126566e-01	 9.065948999583416e-01	 8.511443977796869e+00
 7.818092957655444e-01	 9.142483140960648e-01	 8.310846453402590e+00
 7.728763444646894e-01	 9.218122795423608e-01	 8.110837552577582e+00
 7.638740456643596e-01	 9.292858243015544e-01	 7.911742489004554e+00
 7.548037769085794e-01	 9.366680037333217e-01	 7.713844851887682e+00
 7.456669324398739e-01	 9.439579009383908e-01	 7.517384980754725e+00
 7.364649224981278e-01	 9.511546271234597e-01	 7.322558480494044e+00
 7.271991726102796e-01	 9.582573219450375e-01	 7.129514887343122e+00
 7.178711228716032e-01	 9.652651538319588e-01	 6.938356495935715e+00
 8.141061610397300e-01	 8.975589850566711e-01	 9.037652541062457e+00
 8.053254064601169e-01	 9.054456973397945e-01	 8.839443588570745e+00
 7.964707406420168e-01	 9.132443441283792e-01	 8.640803888907069e+00
 7.875434966356573e-01	 9.209538924333449e-01	 8.442135516168200e+00
 7.785450263684411e-01	 9.285733359830510e-01	 8.243801458188143e+00
 7.694766999707131e-01	 9.361016956527077e-01	 8.046123659729231e+00
 7.603399050901186e-01	 9.435380198735145e-01	 7.849381185973537e+00
 7.511360461952813e-01	 9.508813850211900e-01	 7.653808518622295e+00
 7.418665438695143e-01	 9.581308957835668e-01	 7.459593996429406e+00
 7.325328340953113e-01	 9.652856855069557e-01	 7.266878411433404e+00
 7.231363675303516e-01	 9.723449165210217e-01	 7.075753771524187e+00
 8.200337679295063e-01	 9.040942222020595e-01	 9.157764936044929e+00
 8.111890795980690e-01	 9.120383586052254e-01	 8.961878851612953e+00
 8.022699418713997e-01	 9.198937882981073e-01	 8.765278113589474e+00
 7.932776975058174e-01	 9.276594707703176e-01	 8.568377294093672e+00
 7.842137082722636e-01	 9.353343924234409e-01	 8.371551277746825e+00
 7.750793542771580e-01	 9.429175670035697e-01	 8.175133194195553e+00
 7.658760332717690e-01	 9.504080360134268e-01	 7.979412473406855e+00
 7.566051599508160e-01	 9.578048691037208e-01	 7.784633036683713e+00
 7.472681652410438e-01	 9.651071644434180e-01	 7.590991635850237e+00
 7.378664955804992e-01	 9.723140490686297e-01	 7.398636352488566e+00
 7.284016121892671e-01	 9.794246792098519e-01	 7.207665268448402e+00
 8.259613748191990e-01	 9.106294593471145e-01	 9.272885511014781e+00
 8.170527527359598e-01	 9.186310198703275e-01	 9.079184097043917e+00
 8.080691431007402e-01	 9.265432324675211e-01	 8.884461742982378e+00
 7.990118983759492e-01	 9.343650491069969e-01	 8.689158757843126e+00
 7.898823901760681e-01	 9.420954488635621e-01	 8.493675641220380e+00
 7.806820085835928e-01	 9.497334383541928e-01	 8.298370879966214e+00
 7.714121614534138e-01	 9.572780521531322e-01	 8.103558869532336e+00
 7.620742737063489e-01	 9.647283531860780e-01	 7.909507973625026e+00
 7.526697866125729e-01	 9.720834331031289e-01	 7.716438735314275e+00
 7.432001570656870e-01	 9.793424126301941e-01	 7.524522252150902e+00
 7.336668568481827e-01	 9.865044418985993e-01	 7.333878727172316e+00
 8.318889817087582e-01	 9.171646964918035e-01	 9.382653585912605e+00
 8.229164258737339e-01	 9.252236811350806e-01	 9.190970750163341e+00
 8.138683443299718e-01	 9.331926766366134e-01	 8.997948333137233e+00
 8.047460992459763e-01	 9.410706274433928e-01	 8.804065360845215e+00
 7.955510720797658e-01	 9.488565053034462e-01	 8.609761400675133e+00
 7.862846628899151e-01	 9.565493097046294e-01	 8.415434197128981e+00
 7.769482896349370e-01	 9.641480682927049e-01	 8.221437433545093e+00
 7.675433874617488e-01	 9.716518372683567e-01	 8.028078634211866e+00
 7.580714079839574e-01	 9.790597017628141e-01	 7.835617220772122e+00
 7.485338185507183e-01	 9.863707761917819e-01	 7.644262736206668e+00
 7.389321015069312e-01	 9.935842045874137e-01	 7.454173249000364e+00
 8.378165885981341e-01	 9.236999336360933e-01	 9.486706424386607e+00
 8.287800990113339e-01	 9.318163423994625e-01	 9.296848750255302e+00
 8.196675455590310e-01	 9.398421208053795e-01	 9.105330237255846e+00
 8.104803001158217e-01	 9.477762057795178e-01	 8.912681358619057e+00
 8.012197539832677e-01	 9.556175617431245e-01	 8.719393946085429e+00
 7.918873171960218e-01	 9.633651810549317e-01	 8.525918639686781e+00
 7.824844178162226e-01	 9.710180844322188e-01	 8.332662464258764e+00
 7.730125012168866e-01	 9.785753213506524e-01	 8.139986547920909e+00
 7.634730293550539e-01	 9.860359704225892e-01	 7.948203997236197e+00
 7.538674800354382e-01	 9.933991397535278e-01	 7.757577943143874e+00
 7.441973461653459e-01	 1.000663967276446e+00	 7.568319771053073e+00
 8.437441954872763e-01	 9.302351707799503e-01	 9.584679619818825e+00
 8.346437721487034e-01	 9.384090036634529e-01	 9.396426905211083e+00
 8.254667467878506e-01	 9.464915649738127e-01	 9.206198938445802e+00
 8.162145009854095e-01	 9.544817841153842e-01	 9.014590128928107e+00
 8.068884358864848e-01	 9.623786181826288e-01	 8.822157521875479e+00
 7.974899715018117e-01	 9.701810524051531e-01	 8.629418037190019e+00
 7.880205459971542e-01	 9.778881005717474e-01	 8.436845835244874e+00
 7.784816149716313e-01	 9.854988054330598e-01	 8.244869825707873e+00
 7.688746507257196e-01	 9.930122390825695e-01	 8.053871334997634e+00
 7.592011415196898e-01	 1.000427503315565e+00	 7.864181947333756e+00
 7.494625908232601e-01	 1.007743729965846e+00	 7.676081533617134e+00
 8.496718023761349e-01	 9.367704079233418e-01	 9.676207480049687e+00
 8.405074452857861e-01	 9.450016649270302e-01	 9.489313245954069e+00
 8.312659480163652e-01	 9.531410091419068e-01	 9.300145382970912e+00
 8.219487018546624e-01	 9.611873624510029e-01	 9.109374492722949e+00
 8.125571177893285e-01	 9.691396746219902e-01	 8.917635544154960e+00
 8.030926258071817e-01	 9.769969237553447e-01	 8.725524876599680e+00
 7.935566741776152e-01	 9.847581167113648e-01	 8.533597329377130e+00
 7.839507287258533e-01	 9.924222895156736e-01	 8.342363515005129e+00
 7.742762720958096e-01	 9.999885077428703e-01	 8.152287252562900e+00
 7.645348030033176e-01	 1.007455866878029e+00	 7.963783177099957e+00
 7.547278354805067e-01	 1.014823492655765e+00	 7.777214540243079e+00
 7.020753888980266e-01	 9.440258657618683e-01	 6.495232802776346e+00
 6.928946474858869e-01	 9.507847993655812e-01	 6.306198207276183e+00
 6.836558480826637e-01	 9.574494524137538e-01	 6.118070890753314e+00
 6.743604316732270e-01	 9.640191019151049e-01	 5.931070414824166e+00
 6.650098506379702e-01	 9.704930540220392e-01	 5.745374936670970e+00
 6.556055680229015e-01	 9.768706442374568e-01	 5.561120773238666e+00
 6.461490568059066e-01	 9.831512375998281e-01	 5.378402145208280e+00
 6.366417991599389e-01	 9.893342288464843e-01	 5.197271104519327e+00
 6.270852857138696e-01	 9.954190425550969e-01	 5.017737648315692e+00
 6.174810148117510e-01	 1.001405133263363e+00	 4.839770021269066e+00
 6.078304917712264e-01	 1.007291985566919e+00	 4.663295207294160e+00
 7.073406335552739e-01	 9.511056284525322e-01	 6.647907544711259e+00
 6.980910407770571e-01	 9.579152509699864e-01	 6.458388063732524e+00
 6.887829545993261e-01	 9.646298858708370e-01	 6.269387016648127e+00
 6.794178268136825e-01	 9.712488047417003e-01	 6.081226068151995e+00
 6.699971206927116e-01	 9.777713085314411e-01	 5.894186779748688e+00
 6.605223102546014e-01	 9.841967277595369e-01	 5.708509960849247e+00
 6.509948795239024e-01	 9.905244227025363e-01	 5.524395204230784e+00
 6.414163217891905e-01	 9.967537835585785e-01	 5.342000610230574e+00
 6.317881388583765e-01	 1.002884230589933e+00	 5.161442703111752e+00
 6.221118403124105e-01	 1.008915214243577e+00	 4.982796542075005e+00
 6.123889427581338e-01	 1.014846215249852e+00	 4.806096028418208e+00
 7.126058782131883e-01	 9.581853911425123e-01	 6.795676579065237e+00
 7.032874340689306e-01	 9.650457025736758e-01	 6.605730891471913e+00
 6.939100611167207e-01	 9.718103193271801e-01	 6.416046968599322e+00
 6.844752219548920e-01	 9.784785075675352e-01	 6.227020089680195e+00
 6.749843907482240e-01	 9.850495630400683e-01	 6.039005899372095e+00
 6.654390524870848e-01	 9.915228112808311e-01	 5.852319587753193e+00
 6.558407022426896e-01	 9.978976078044520e-01	 5.667235260224770e+00
 6.461908444192391e-01	 1.004173338269877e+00	 5.483985502222221e+00
 6.364909920036818e-01	 1.010349418623969e+00	 5.302761142664525e+00
 6.267426658138696e-01	 1.016425295222990e+00	 5.123711219078571e+00
 6.169473937458410e-01	 1.022400444931984e+00	 4.946943146305816e+00
 7.178711228716032e-01	 9.652651538319588e-01	 6.938356495935717e+00
 7.084838273613315e-01	 9.721761541768139e-01	 6.748098189615826e+00
 6.990371676346641e-01	 9.789907527829564e-01	 6.557959628994794e+00
 6.895326170966677e-01	 9.857082103927935e-01	 6.368381886212618e+00
 6.799716608043151e-01	 9.923278175481099e-01	 6.179766044670041e+00
 6.703557947201557e-01	 9.988488948015339e-01	 5.992472249234033e+00
 6.606865249620707e-01	 1.005270792905772e+00	 5.806818952841125e+00
 6.509653670498845e-01	 1.011592892980576e+00	 5.623082364870451e+00
 6.411938451495870e-01	 1.017814606657407e+00	 5.441496105648603e+00
 6.313734913159285e-01	 1.023935376201804e+00	 5.262251070408208e+00
 6.215058447341479e-01	 1.029954674613517e+00	 5.085495504958358e+00
 7.231363675303516e-01	 9.723449165210217e-01	 7.075753771524191e+00
 7.136802206540841e-01	 9.793066057795643e-01	 6.885349616834739e+00
 7.041642741529737e-01	 9.861711862383419e-01	 6.695020837018278e+00
 6.945900122388207e-01	 9.929379132176569e-01	 6.505227124337825e+00
 6.849589308607916e-01	 9.996060720557549e-01	 6.316387014894823e+00
 6.752725369536181e-01	 1.006174978321839e+00	 6.128876849670391e+00
 6.655323476818472e-01	 1.012643978006694e+00	 5.943029939403377e+00
 6.557398896809283e-01	 1.019012447690877e+00	 5.759135939089915e+00
 6.458966982958908e-01	 1.025279794690444e+00	 5.577440436826868e+00
 6.360043168183873e-01	 1.031445457180219e+00	 5.398144760650414e+00
 6.260642957228550e-01	 1.037508904294649e+00	 5.221406005904244e+00
 7.284016121892671e-01	 9.794246792098519e-01	 7.207665268448405e+00
 7.188766139470122e-01	 9.864370573820908e-01	 7.017333539984202e+00
 7.092913806714666e-01	 9.933516196935105e-01	 6.827113966599475e+00
 6.996474073811622e-01	 1.000167616042309e+00	 6.637458319385170e+00
 6.899462009174613e-01	 1.006884326563193e+00	 6.448775241783218e+00
 6.801892791872765e-01	 1.013501061841939e+00	 6.261429161421097e+00
 6.703781704018215e-01	 1.020017163107412e+00	 6.075739414172009e+00
 6.605144123121709e-01	 1.026432002400976e+00	 5.891979586568564e+00
 6.505995514423948e-01	 1.032744982723281e+00	 5.710377081603191e+00
 6.406351423210458e-01	 1.038955538158433e+00	 5.531112911821771e+00
 6.306227467117619e-01	 1.045063133975582e+00	 5.354321722460713e+00
 7.336668568481827e-01	 9.865044418985993e-01	 7.333878727172314e+00
 7.240730072399407e-01	 9.935675089845567e-01	 7.143887571473913e+00
 7.144184871899589e-01	 1.000532053148636e+00	 6.954110491527585e+00
 7.047048025235035e-01	 1.007397318866933e+00	 6.764965410753851e+00
 6.949334709741307e-01	 1.014162581070613e+00	 6.576824358253287e+00
 6.851060214209347e-01	 1.020827145362030e+00	 6.390012370736876e+00
 6.752239931217958e-01	 1.027390348208127e+00	 6.204806616013075e+00
 6.652889349434135e-01	 1.033851557111074e+00	 6.021435744450041e+00
 6.553024045888988e-01	 1.040210170756118e+00	 5.840079473691508e+00
 6.452659678237050e-01	 1.046465619136647e+00	 5.660868410726345e+00
 6.351811977006688e-01	 1.052617363656515e+00	 5.483884114216240e+00
 7.389321015069312e-01	 9.935842045874137e-01	 7.454173249000364e+00
 7.292694005326930e-01	 1.000697960587126e+00	 7.264839095933468e+00
 7.195455937082688e-01	 1.007712486603895e+00	 7.075870538365324e+00
 7.097621976656562e-01	 1.014627021691712e+00	 6.887626324292979e+00
 6.999207410306076e-01	 1.021440835578206e+00	 6.700415754121341e+00
 6.900227636543973e-01	 1.028153228882304e+00	 6.514497611342502e+00
 6.800698158415723e-01	 1.034763533309032e+00	 6.330079325050503e+00
 6.700634575744570e-01	 1.041271111821368e+00	 6.147316370938762e+00
 6.600052577352026e-01	 1.047675358789153e+00	 5.966311916244863e+00
 6.498967933261636e-01	 1.053975700115061e+00	 5.787116712877920e+00
 6.397396486893757e-01	 1.060171593337648e+00	 5.609729241717199e+00
 7.441973461653459e-01	 1.000663967276446e+00	 7.568319771053073e+00
 7.344657938250939e-01	 1.007828412189962e+00	 7.380005786705770e+00
 7.246727002262116e-01	 1.014892920059460e+00	 7.192243427768501e+00
 7.148195928074318e-01	 1.021856724516829e+00	 7.005307522375203e+00
 7.049080110866982e-01	 1.028719090086158e+00	 6.819419119478346e+00
 6.949395058874678e-01	 1.035479312402956e+00	 6.634744486302061e+00
 6.849156385609531e-01	 1.042136718410326e+00	 6.451394348846790e+00
 6.748379802051023e-01	 1.048690666532056e+00	 6.269423382276329e+00
 6.647081108811073e-01	 1.055140546822587e+00	 6.088829956770542e+00
 6.545276188282223e-01	 1.061485781093874e+00	 5.909556143159844e+00
 6.442980996776826e-01	 1.067725823019180e+00	 5.731487981354200e+00
 7.494625908232601e-01	 1.007743729965846e+00	 7.676081533617134e+00
 7.396621871169671e-01	 1.014958863793230e+00	 7.489196112664558e+00
 7.297998067436061e-01	 1.022073353515506e+00	 7.303068204783877e+00
 7.198769879486411e-01	 1.029086427342466e+00	 7.117864542269228e+00
 7.098952811422103e-01	 1.035997344594660e+00	 6.933692976335889e+00
 6.998562481199507e-01	 1.042805395924178e+00	 6.750601578742557e+00
 6.897614612797399e-01	 1.049509903512205e+00	 6.568577998628870e+00
 6.796125028351504e-01	 1.056110221243339e+00	 6.387549081516839e+00
 6.694109640264124e-01	 1.062605734856620e+00	 6.207380756132045e+00
 6.591584443296810e-01	 1.068995862073288e+00	 6.027878193377556e+00
 6.488565506653894e-01	 1.075280052701313e+00	 5.848786240435061e+00
 7.547278354805067e-01	 1.014823492655765e+00	 7.777214540243081e+00
 7.448585804081368e-01	 1.022089315397092e+00	 7.592209835832813e+00
 7.349269132602683e-01	 1.029253786972208e+00	 7.408174158658839e+00
 7.249343830890960e-01	 1.036316130168806e+00	 7.225142523381695e+00
 7.148825511969510e-01	 1.043275599103902e+00	 7.043085199111315e+00
 7.047729903516504e-01	 1.050131479446166e+00	 6.861906951980790e+00
 6.946072839977357e-01	 1.056883088614866e+00	 6.681446556042115e+00
 6.843870254644020e-01	 1.063529775955414e+00	 6.501476579496590e+00
 6.741138171709191e-01	 1.070070922891449e+00	 6.321703451932889e+00
 6.637892698303400e-01	 1.076505943053501e+00	 6.141767816862806e+00
 6.534150016522964e-01	 1.082834282384246e+00	 5.961245172434905e+00
 6.078304917712264e-01	 1.007291985566919e+00	 4.663295207294160e+00
 5.981352283312307e-01	 1.013079114439890e+00	 4.490713734325419e+00
 5.883967424669230e-01	 1.018766066026104e+00	 4.324047020713410e+00
 5.786165570600984e-01	 1.024352416944811e+00	 4.163334547332447e+00
 5.687961989684477e-01	 1.029837774057543e+00	 4.008467711942022e+00
 5.589371982900345e-01	 1.035221774457163e+00	 3.858415992684354e+00
 5.490410876312684e-01	 1.040504085435938e+00	 3.712125175550749e+00
 5.391094013790468e-01	 1.045684404432863e+00	 3.568521119697092e+00
 5.291436749777435e-01	 1.050762458960495e+00	 3.426513206305264e+00
 5.191454442116871e-01	 1.055738006511553e+00	 3.284997775613987e+00
 5.091162444937753e-01	 1.060610834445606e+00	 3.142861540597410e+00
 6.123889427581338e-01	 1.014846215249852e+00	 4.806096028418208e+00
 6.026209692718355e-01	 1.020676744945409e+00	 4.633729896269346e+00
 5.928094492127964e-01	 1.026406346070359e+00	 4.467557540464654e+00
 5.829559168837308e-01	 1.032034592068782e+00	 4.306977343558742e+00
 5.730619105930663e-01	 1.037561086853845e+00	 4.152203801754725e+00
 5.631289719139041e-01	 1.042985464796768e+00	 4.002255920010038e+00
 5.531586449465027e-01	 1.048307390694655e+00	 3.855944235175287e+00
 5.431524755849623e-01	 1.053526559717424e+00	 3.712057516981738e+00
 5.331120107887890e-01	 1.058642697334095e+00	 3.569366504262820e+00
 5.230387978599937e-01	 1.063655559218690e+00	 3.426627628126706e+00
 5.129343837263705e-01	 1.068564931136062e+00	 3.282586709865464e+00
 6.169473937458410e-01	 1.022400444931984e+00	 4.946943146305816e+00
 6.071067102132399e-01	 1.028274375450128e+00	 4.774771104993587e+00
 5.972221559594684e-01	 1.034046626113814e+00	 4.608877770972812e+00
 5.872952767081590e-01	 1.039716767191953e+00	 4.448361512236982e+00
 5.773276222184750e-01	 1.045284399649348e+00	 4.293157098926002e+00
 5.673207455385545e-01	 1.050749155135573e+00	 4.142711373202848e+00
 5.572762022625037e-01	 1.056110695952570e+00	 3.995739906529635e+00
 5.471955497916253e-01	 1.061368715001184e+00	 3.850935194860027e+00
 5.370803466005560e-01	 1.066522935706896e+00	 3.706970623665805e+00
 5.269321515089886e-01	 1.071573111925027e+00	 3.562504418689535e+00
 5.167525229596127e-01	 1.076519027825718e+00	 3.416183569608893e+00
 6.215058447341479e-01	 1.029954674613517e+00	 5.085495504958358e+00
 6.115924511552441e-01	 1.035872005954248e+00	 4.913422786236083e+00
 6.016348627067392e-01	 1.041686906156670e+00	 4.747539602488370e+00
 5.916346365331837e-01	 1.047398942314525e+00	 4.586892981340242e+00
 5.815933338444745e-01	 1.053007712444251e+00	 4.430817148457796e+00
 5.715125191637872e-01	 1.058512845473778e+00	 4.279276046603646e+00
 5.613937595790757e-01	 1.063914001209887e+00	 4.131026005851384e+00
 5.512386239988413e-01	 1.069210870284345e+00	 3.984703088476563e+00
 5.410486824128533e-01	 1.074403174079097e+00	 3.838923633664824e+00
 5.308255051584843e-01	 1.079490664630763e+00	 3.692288378161977e+00
 5.205706621933194e-01	 1.084473124514775e+00	 3.543386548091865e+00
 6.260642957228550e-01	 1.037508904294649e+00	 5.221406005904244e+00
 6.160781920976480e-01	 1.043469636457968e+00	 5.049266524997508e+00
 6.060475694544087e-01	 1.049327186199125e+00	 4.883072728323839e+00
 5.959739963586048e-01	 1.055081117436697e+00	 4.721864098792938e+00
 5.858590454708666e-01	 1.060731025238754e+00	 4.564670279795473e+00
 5.757042927894054e-01	 1.066276535811583e+00	 4.411440950542255e+00
 5.655113168960212e-01	 1.071717306466803e+00	 4.261313740290539e+00
 5.552816982064163e-01	 1.077053025567106e+00	 4.112907168992733e+00
 5.450170182254896e-01	 1.082283412450898e+00	 3.964819881704806e+00
 5.347188588082935e-01	 1.087408217336100e+00	 3.815634882306786e+00
 5.243888014273070e-01	 1.092427221203431e+00	 3.663923736727940e+00
 6.306227467117619e-01	 1.045063133975582e+00	 5.354321722460713e+00
 6.205639330402520e-01	 1.051067266961488e+00	 5.181880187351350e+00
 6.104602762022779e-01	 1.056967466241380e+00	 5.015004694723981e+00
 6.003133561842231e-01	 1.062763292558668e+00	 4.852763361937997e+00
 5.901247570974519e-01	 1.068454338033056e+00	 4.694170780665475e+00
 5.798960664152104e-01	 1.074040226149189e+00	 4.538694086382377e+00
 5.696288742131447e-01	 1.079520611723519e+00	 4.386111393771049e+00
 5.593247724141563e-01	 1.084895180849667e+00	 4.235090155902113e+00
 5.489853540382736e-01	 1.090163650822499e+00	 4.084249746926877e+00
 5.386122124582282e-01	 1.095325770041237e+00	 3.932194259906510e+00
 5.282069406613931e-01	 1.100381317891887e+00	 3.777516765523600e+00
 6.351811977006688e-01	 1.052617363656515e+00	 5.483884114216240e+00
 6.250496739828554e-01	 1.058664897465007e+00	 5.310838046125230e+00
 6.148729829501459e-01	 1.064607746283636e+00	 5.142860957370781e+00
 6.046527160098388e-01	 1.070445467680639e+00	 4.979084949362271e+00
 5.943904687240321e-01	 1.076177650827360e+00	 4.818588104676703e+00
 5.840878400410048e-01	 1.081803916486794e+00	 4.660520131627046e+00
 5.737464315302498e-01	 1.087323916980236e+00	 4.504924022564818e+00
 5.633678466218669e-01	 1.092737336132228e+00	 4.350791238035477e+00
 5.529536898510138e-01	 1.098043889194100e+00	 4.196799400613479e+00
 5.425055661081007e-01	 1.103243322746374e+00	 4.041611605686914e+00
 5.320250798953944e-01	 1.108335414580344e+00	 3.883880680552954e+00
 6.397396486893757e-01	 1.060171593337648e+00	 5.609729241717199e+00
 6.295354149252589e-01	 1.066262527968727e+00	 5.435710910254836e+00
 6.192856896978135e-01	 1.072248026326091e+00	 5.266164944193116e+00
 6.089920758352526e-01	 1.078127642802811e+00	 5.100321973363195e+00
 5.986561803504076e-01	 1.083900963621862e+00	 4.937358713865691e+00
 5.882796136665905e-01	 1.089567606824599e+00	 4.776400093965492e+00
 5.778639888471403e-01	 1.095127222237152e+00	 4.617253160092766e+00
 5.674109208293543e-01	 1.100579491414989e+00	 4.459545802828869e+00
 5.569220256635192e-01	 1.105924127565901e+00	 4.302050573326552e+00
 5.463989197577240e-01	 1.111160875451711e+00	 4.143526597810014e+00
 5.358432191291275e-01	 1.116289511269000e+00	 3.982723823359378e+00
 6.442980996776826e-01	 1.067725823019180e+00	 5.731487981354200e+00
 6.340211558672625e-01	 1.073860158472846e+00	 5.556066257632502e+00
 6.236983964450806e-01	 1.079888306368947e+00	 5.384438124169014e+00
 6.133314356602655e-01	 1.085809817925383e+00	 5.215966501871371e+00
 6.029218919763797e-01	 1.091624276416765e+00	 5.049961090644672e+00
 5.924713872917698e-01	 1.097331297162804e+00	 4.885680285480785e+00
 5.819815461636195e-01	 1.102930527494469e+00	 4.722596530497423e+00
 5.714539950364240e-01	 1.108421646698149e+00	 4.560885173439980e+00
 5.608903614755986e-01	 1.113804365938102e+00	 4.399580328406544e+00
 5.502922734069102e-01	 1.119078428157448e+00	 4.237573319709096e+00
 5.396613583624100e-01	 1.124243607958056e+00	 4.073747712191147e+00
 6.488565506653894e-01	 1.075280052701313e+00	 5.848786240435061e+00
 6.385068968086663e-01	 1.081457788977566e+00	 5.671468371276610e+00
 6.281111031917473e-01	 1.087528586412402e+00	 5.497200081825465e+00
 6.176707954846771e-01	 1.093491993048554e+00	 5.325509587724543e+00
 6.071876036017496e-01	 1.099347589212268e+00	 5.155873153537351e+00
 5.966631609163449e-01	 1.105094987501609e+00	 4.987716741756556e+00
 5.860991034794915e-01	 1.110733832752385e+00	 4.820447770555636e+00
 5.754970692428820e-01	 1.116263801981910e+00	 4.654336353329551e+00
 5.648586972870605e-01	 1.121684604310903e+00	 4.488960841520498e+00
 5.541856270554715e-01	 1.126995980863785e+00	 4.323380086052627e+00
 5.434794975950584e-01	 1.132197704647713e+00	 4.156646924978862e+00
 6.534150016522964e-01	 1.082834282384246e+00	 5.961245172434905e+00
 6.429926377492695e-01	 1.089055419483085e+00	 5.781478478659690e+00
 6.325238099376145e-01	 1.095168866456658e+00	 5.603968597156472e+00
 6.220101553082884e-01	 1.101174168172526e+00	 5.428441304933633e+00
 6.114533152263187e-01	 1.107070902008571e+00	 5.254572264786201e+00
 6.008549345401182e-01	 1.112858677841215e+00	 5.081988350524052e+00
 5.902166607945597e-01	 1.118537138011101e+00	 4.910269242353417e+00
 5.795401434485343e-01	 1.124105957266471e+00	 4.739421777942669e+00
 5.688270330977138e-01	 1.129564842684504e+00	 4.569759185962928e+00
 5.580789807032205e-01	 1.134913533570922e+00	 4.400569272634810e+00
 5.472976368268903e-01	 1.140151801338169e+00	 4.231108983972035e+00
 5.091162444937753e-01	 1.060610834445606e+00	 3.142861540597407e+00
 4.990558975878610e-01	 1.065381561910370e+00	 3.001346035505104e+00
 4.889676388875799e-01	 1.070049197715796e+00	 2.862447096111405e+00
 4.788529987762085e-01	 1.074613617145979e+00	 2.726111251253192e+00
 4.687135045107921e-01	 1.079074724724561e+00	 2.592294722024896e+00
 4.585506795500227e-01	 1.083432454007551e+00	 2.460964828426161e+00
 4.483660428917197e-01	 1.087686767358405e+00	 2.332101329440637e+00
 4.381611084204268e-01	 1.091837655705804e+00	 2.205697690706991e+00
 4.279373842656258e-01	 1.095885138284579e+00	 2.081762274428190e+00
 4.176963721710401e-01	 1.099829262360247e+00	 1.960319446664033e+00
 4.074395668754807e-01	 1.103670102937638e+00	 1.841410597663874e+00
 5.129343837263705e-01	 1.068564931136062e+00	 3.282586709865464e+00
 5.027985888150827e-01	 1.073371436877250e+00	 3.138574536722500e+00
 4.926346727837358e-01	 1.078074077818739e+00	 2.996785970863531e+00
 4.824441774927757e-01	 1.082672728309315e+00	 2.857190123745174e+00
 4.722286416529720e-01	 1.087167292156603e+00	 2.719766544689593e+00
 4.619896001482556e-01	 1.091557702418317e+00	 2.584506639066188e+00
 4.517285833682293e-01	 1.095843921175665e+00	 2.451415017275957e+00
 4.414471165508738e-01	 1.100025939289304e+00	 2.320510768551029e+00
 4.311467191359477e-01	 1.104103776138325e+00	 2.191828654077951e+00
 4.208289041295602e-01	 1.108077479342722e+00	 2.065420214476048e+00
 4.104951774803756e-01	 1.111947124469834e+00	 1.941354787187365e+00
 5.167525229596127e-01	 1.076519027825718e+00	 3.416183569608897e+00
 5.065412800429018e-01	 1.081361311843331e+00	 3.269482138225058e+00
 4.963017066804311e-01	 1.086098957920881e+00	 3.124815395467499e+00
 4.860353562098177e-01	 1.090731839471855e+00	 2.982168180091033e+00
 4.757437787955561e-01	 1.095259859587853e+00	 2.841536473686803e+00
 4.654285207468167e-01	 1.099682950828301e+00	 2.702928841817120e+00
 4.550911238449873e-01	 1.104001074992155e+00	 2.566367803121716e+00
 4.447331246814870e-01	 1.108214222872052e+00	 2.431891120229611e+00
 4.343560540063511e-01	 1.112322413991341e+00	 2.299553006837416e+00
 4.239614360880767e-01	 1.116325696324497e+00	 2.169425245848312e+00
 4.135507880851813e-01	 1.120224146001366e+00	 2.041598214017030e+00
 5.205706621933194e-01	 1.084473124514775e+00	 3.543386548091869e+00
 5.102839712711407e-01	 1.089351186808811e+00	 3.393882235606045e+00
 4.999687405774952e-01	 1.094123838022425e+00	 3.246425944102659e+00
 4.896265349271711e-01	 1.098790950633798e+00	 3.101011491132076e+00
 4.792589159383892e-01	 1.103352427018510e+00	 2.957644501870277e+00
 4.688674413455609e-01	 1.107808199237697e+00	 2.816343884605699e+00
 4.584536643218597e-01	 1.112158228808068e+00	 2.677143231152892e+00
 4.480191328121434e-01	 1.116402506454235e+00	 2.540092135834478e+00
 4.375653888767260e-01	 1.120541051843811e+00	 2.405257427221561e+00
 4.270939680464926e-01	 1.124573913305746e+00	 2.272724307376190e+00
 4.166063986898157e-01	 1.128501167532400e+00	 2.142597393912093e+00
 5.243888014273070e-01	 1.092427221203431e+00	 3.663923736727943e+00
 5.140266624996221e-01	 1.097341061773892e+00	 3.511580267645344e+00
 5.036357744747570e-01	 1.102148718123570e+00	 3.361498665316486e+00
 4.932177136446722e-01	 1.106850061795343e+00	 3.213675079760226e+00
 4.827740530813169e-01	 1.111444994448772e+00	 3.068118093703720e+00
 4.723063619443430e-01	 1.115933447646702e+00	 2.924850243796289e+00
 4.618162047987116e-01	 1.120315382623595e+00	 2.783909463493427e+00
 4.513051409427196e-01	 1.124590790036041e+00	 2.645350441040816e+00
 4.407747237469615e-01	 1.128759689695915e+00	 2.509245886557219e+00
 4.302265000047110e-01	 1.132822130286645e+00	 2.375687702795124e+00
 4.196620092941962e-01	 1.136778189063103e+00	 2.244788054743941e+00
 5.282069406613931e-01	 1.100381317891887e+00	 3.777516765523599e+00
 5.177693537281687e-01	 1.105330936738773e+00	 3.622373664078324e+00
 5.073028083720457e-01	 1.110173598224515e+00	 3.469905100239408e+00
 4.968088923621584e-01	 1.114909172956688e+00	 3.320103007849127e+00
 4.862891902241845e-01	 1.119537561878837e+00	 3.172972339318280e+00
 4.757452825430177e-01	 1.124058696055511e+00	 3.028532643927750e+00
 4.651787452754081e-01	 1.128472536438929e+00	 2.886819564326923e+00
 4.545911490730932e-01	 1.132779073617659e+00	 2.747886244429772e+00
 4.439840586169475e-01	 1.136978327547836e+00	 2.611804642499544e+00
 4.333590319626351e-01	 1.141070347267370e+00	 2.478666743811214e+00
 4.227176198982409e-01	 1.145055210593639e+00	 2.348585667902206e+00
 5.320250798953944e-01	 1.108335414580344e+00	 3.883880680552954e+00
 5.215120449566026e-01	 1.113320811703653e+00	 3.726051792399164e+00
 5.109698422691901e-01	 1.118198478325459e+00	 3.571507296924838e+00
 5.004000710794660e-01	 1.122968284118035e+00	 3.420228456469502e+00
 4.898043273668365e-01	 1.127630129308900e+00	 3.272210099080584e+00
 4.791842031414403e-01	 1.132183944464322e+00	 3.127462265249306e+00
 4.685412857518150e-01	 1.136629690254264e+00	 2.986011769151046e+00
 4.578771572031405e-01	 1.140967357199278e+00	 2.847903667349865e+00
 4.471933934865731e-01	 1.145196965399758e+00	 2.713202628519428e+00
 4.364915639201679e-01	 1.149318564248094e+00	 2.581994198376161e+00
 4.257732305018673e-01	 1.153332232124176e+00	 2.454385954648856e+00
 5.358432191291275e-01	 1.116289511269000e+00	 3.982723823359382e+00
 5.252547361847466e-01	 1.121310686668734e+00	 3.822395903748604e+00
 5.146368761660197e-01	 1.126223358426604e+00	 3.666157821001688e+00
 5.039912497964316e-01	 1.131027395279580e+00	 3.513973799719494e+00
 4.933194645091190e-01	 1.135722696739162e+00	 3.365822139144467e+00
 4.826231237394649e-01	 1.140309192873327e+00	 3.221696939664208e+00
 4.719038262277974e-01	 1.144786844069791e+00	 3.081609739918138e+00
 4.611631653327389e-01	 1.149155640781084e+00	 2.945591057185469e+00
 4.504027283557281e-01	 1.153415603251863e+00	 2.813691824366662e+00
 4.396240958772127e-01	 1.157566781228993e+00	 2.685984717532313e+00
 4.288288411049933e-01	 1.161609253654879e+00	 2.562565368668792e+00
 5.396613583624100e-01	 1.124243607958056e+00	 4.073747712191143e+00
 5.289974274124233e-01	 1.129300561634215e+00	 3.911179077930343e+00
 5.183039100623634e-01	 1.134248238528148e+00	 3.753699762825872e+00
 5.075824285128918e-01	 1.139086506441523e+00	 3.601250672490909e+00
 4.968346016508768e-01	 1.143815264169820e+00	 3.453787258431865e+00
 4.860620443369466e-01	 1.148434441282723e+00	 3.311281335657259e+00
 4.752663667032207e-01	 1.152943997885704e+00	 3.173722806759581e+00
 4.644491734617653e-01	 1.157343924363267e+00	 3.041121284856315e+00
 4.536120632243023e-01	 1.161634241104332e+00	 2.913507608443383e+00
 4.427566278336725e-01	 1.165814998210243e+00	 2.790935241889756e+00
 4.318844517075363e-01	 1.169886275185913e+00	 2.673481555995428e+00
 5.434794975950584e-01	 1.132197704647713e+00	 4.156646924978865e+00
 5.327401186394553e-01	 1.137290436600296e+00	 3.992166167599536e+00
 5.219709439580504e-01	 1.142273118630292e+00	 3.833966741303305e+00
 5.111736072286834e-01	 1.147145617604063e+00	 3.681960032464807e+00
 5.003497387919552e-01	 1.151907831601071e+00	 3.536072407467059e+00
 4.895009649337404e-01	 1.156559689692707e+00	 3.396247132745669e+00
 4.786289071779504e-01	 1.161101151702194e+00	 3.262446196954149e+00
 4.677351815900966e-01	 1.165532207946015e+00	 3.134652027323156e+00
 4.568213980921848e-01	 1.169852878957349e+00	 3.012869092985441e+00
 4.458891597894507e-01	 1.174063215192018e+00	 2.897125388736100e+00
 4.349400623094145e-01	 1.178163296717446e+00	 2.786704148121307e+00
 5.472976368268903e-01	 1.140151801338169e+00	 4.231108983972035e+00
 5.364828098656651e-01	 1.145280311567177e+00	 4.065113741663450e+00
 5.256379778529098e-01	 1.150297998733234e+00	 3.906782904542186e+00
 5.147647859436432e-01	 1.155204728767399e+00	 3.755992216622301e+00
 5.038648759321993e-01	 1.160000399033112e+00	 3.612632799459130e+00
 4.929398855297008e-01	 1.164684938103473e+00	 3.476613185964950e+00
 4.819914476518521e-01	 1.169258305519455e+00	 3.347861251763327e+00
 4.710211897176096e-01	 1.173720491529516e+00	 3.226326035830204e+00
 4.600307329592656e-01	 1.178071516811095e+00	 3.111293091536334e+00
 4.490216917444500e-01	 1.182311432174493e+00	 2.995390206105343e+00
 4.379956729105452e-01	 1.186440318249641e+00	 2.877258188250180e+00
 4.074395668754807e-01	 1.103670102937638e+00	 1.841410597663873e+00
 3.971702024556140e-01	 1.107407135758633e+00	 1.725367535163945e+00
 3.868880145256408e-01	 1.111041151327425e+00	 1.612421766908120e+00
 3.765944720216519e-01	 1.114572305136289e+00	 1.502554342633934e+00
 3.662910345483225e-01	 1.118000779086037e+00	 1.395769261363806e+00
 3.559791518240072e-01	 1.121326781123692e+00	 1.292094081759640e+00
 3.456602631396047e-01	 1.124550544867359e+00	 1.191580425650928e+00
 3.353357968314888e-01	 1.127672329218821e+00	 1.094304374036237e+00
 3.250071697687858e-01	 1.130692417964432e+00	 1.000366755350100e+00
 3.146757868552502e-01	 1.133611119364855e+00	 9.098933262919422e-01
 3.043430405459638e-01	 1.136428765734195e+00	 8.230348459814372e-01
 4.104951774803756e-01	 1.111947124469834e+00	 1.941354787187369e+00
 4.001487975191530e-01	 1.115712183329848e+00	 1.820030741110878e+00
 3.897894978773230e-01	 1.119373452355373e+00	 1.701768410775510e+00
 3.794187585073288e-01	 1.122931088204793e+00	 1.586615079190869e+00
 3.690380499602168e-01	 1.126385274143079e+00	 1.474643093415605e+00
 3.586488328265704e-01	 1.129736219676757e+00	 1.365950384800827e+00
 3.482525571913153e-01	 1.132984160175946e+00	 1.260660878493193e+00
 3.378506621026985e-01	 1.136129356484066e+00	 1.158924791652002e+00
 3.274445750557212e-01	 1.139172094515729e+00	 1.060918820342462e+00
 3.170357114902763e-01	 1.142112684843400e+00	 9.668462155849396e-01
 3.066254743042259e-01	 1.144951462273381e+00	 8.769367495212337e-01
 4.135507880851813e-01	 1.120224146001366e+00	 2.041598214017030e+00
 4.031273925825187e-01	 1.124017230900445e+00	 1.916542848447357e+00
 3.926909812287495e-01	 1.127705753382754e+00	 1.794661700613757e+00
 3.822430449926698e-01	 1.131289871272786e+00	 1.676041504049447e+00
 3.717850653716988e-01	 1.134769769199676e+00	 1.560795902834581e+00
 3.613185138286493e-01	 1.138145658229445e+00	 1.449065922212900e+00
 3.508448512424743e-01	 1.141417775484228e+00	 1.341020324068441e+00
 3.403655273732957e-01	 1.144586383749080e+00	 1.236855846813416e+00
 3.298819803419893e-01	 1.147651771066872e+00	 1.136797329766894e+00
 3.193956361245884e-01	 1.150614250321871e+00	 1.041097722640558e+00
 3.089079080617355e-01	 1.153474158812572e+00	 9.500379812423576e-01
 4.166063986898157e-01	 1.128501167532400e+00	 2.142597393912093e+00
 4.061059876456443e-01	 1.132322278470578e+00	 2.015420398647532e+00
 3.955924645798691e-01	 1.136038054409710e+00	 1.891666005570125e+00
 3.850673314776412e-01	 1.139648654340397e+00	 1.771434184392619e+00
 3.745320807827524e-01	 1.143154264255938e+00	 1.654853398181105e+00
 3.639881948302449e-01	 1.146555096781847e+00	 1.542081064385814e+00
 3.534371452931008e-01	 1.149851390792280e+00	 1.433303895843950e+00
 3.428803926433168e-01	 1.153043411013923e+00	 1.328738121345763e+00
 3.323193856276437e-01	 1.156131447617902e+00	 1.228629585916700e+00
 3.217555607582559e-01	 1.159115815800288e+00	 1.133253731510227e+00
 3.111903418185772e-01	 1.161996855351768e+00	 1.042915459330904e+00
 4.196620092941962e-01	 1.136778189063103e+00	 2.244788054743942e+00
 4.090845827084626e-01	 1.140627326040400e+00	 2.117158002525796e+00
 3.984939479306320e-01	 1.144370355436380e+00	 1.993322961999801e+00
 3.878916179622100e-01	 1.148007437407754e+00	 1.873370475445560e+00
 3.772790961933614e-01	 1.151538759311978e+00	 1.757417902108874e+00
 3.666578758313588e-01	 1.154964535334063e+00	 1.645612909257528e+00
 3.560294393432137e-01	 1.158285006100180e+00	 1.538133837828616e+00
 3.453952579127971e-01	 1.161500438278650e+00	 1.435189942253561e+00
 3.347567909127369e-01	 1.164611124168855e+00	 1.337021504624106e+00
 3.241154853913476e-01	 1.167617381278668e+00	 1.243899823938073e+00
 3.134727755748354e-01	 1.170519551890967e+00	 1.156127081697968e+00
 4.227176198982409e-01	 1.145055210593639e+00	 2.348585667902206e+00
 4.120631777709073e-01	 1.148932373610068e+00	 2.222228925403902e+00
 4.013954312809877e-01	 1.152702656462910e+00	 2.100152099834815e+00
 3.907159044463422e-01	 1.156366220474983e+00	 1.982405176109857e+00
 3.800261116035095e-01	 1.159923254367906e+00	 1.869069024953668e+00
 3.693275568319923e-01	 1.163373973886183e+00	 1.760255963172887e+00
 3.586217333928314e-01	 1.166718621408003e+00	 1.656110182651904e+00
 3.479101231817733e-01	 1.169957465543320e+00	 1.556808047595057e+00
 3.371941961973218e-01	 1.173090800719770e+00	 1.462558260147147e+00
 3.264754100239330e-01	 1.176118946757029e+00	 1.373601895116107e+00
 3.157552093305945e-01	 1.179042248430168e+00	 1.288471156382300e+00
 4.257732305018673e-01	 1.153332232124176e+00	 2.454385954648860e+00
 4.150417728329115e-01	 1.157237421179736e+00	 2.331085645017403e+00
 4.042969146308859e-01	 1.161034957489440e+00	 2.212651440024982e+00
 3.935401909300050e-01	 1.164725003542213e+00	 2.099071154515499e+00
 3.827731270131807e-01	 1.168307749423834e+00	 1.990364307568165e+00
 3.719972378321467e-01	 1.171783412438303e+00	 1.886582790776295e+00
 3.612140274419730e-01	 1.175152236715827e+00	 1.787811398889540e+00
 3.504249884502812e-01	 1.178414492807989e+00	 1.693165697534801e+00
 3.396316014814514e-01	 1.181570477270684e+00	 1.598785661256056e+00
 3.288353346560809e-01	 1.184620512235391e+00	 1.504980812208923e+00
 3.180376430859393e-01	 1.187564944969370e+00	 1.412582090102694e+00
 4.288288411049933e-01	 1.161609253654879e+00	 2.562565368668799e+00
 4.180203678944087e-01	 1.165542468749559e+00	 2.444160383524318e+00
 4.071983979802761e-01	 1.169367258516111e+00	 2.331298064496204e+00
 3.963644774131643e-01	 1.173083786609569e+00	 2.223879944989610e+00
 3.855201424223589e-01	 1.176692244479873e+00	 2.121829986902287e+00
 3.746669188318235e-01	 1.180192850990518e+00	 2.021376267032645e+00
 3.638063214906573e-01	 1.183585852023727e+00	 1.919951675760564e+00
 3.529398537183571e-01	 1.186871520072716e+00	 1.818269423230055e+00
 3.420690067651786e-01	 1.190050153821637e+00	 1.717065128376642e+00
 3.311952592878606e-01	 1.193122077713771e+00	 1.617094302703697e+00
 3.203200768409540e-01	 1.196087641508569e+00	 1.519129883347691e+00
 4.318844517075363e-01	 1.169886275185913e+00	 2.673481555995428e+00
 4.209989629553321e-01	 1.173847516319692e+00	 2.561865614893922e+00
 4.100998813291079e-01	 1.177699559543065e+00	 2.456149873520459e+00
 3.991887638957872e-01	 1.181442569677181e+00	 2.350529268496425e+00
 3.882671578310279e-01	 1.185076739536136e+00	 2.243585084938874e+00
 3.773365998310240e-01	 1.188602289542922e+00	 2.135898786180545e+00
 3.663986155389030e-01	 1.192019467331779e+00	 2.028078841655454e+00
 3.554547189860368e-01	 1.195328547337558e+00	 1.920758179192146e+00
 3.445064120485563e-01	 1.198529830372667e+00	 1.814591674586497e+00
 3.335551839193410e-01	 1.201623643192187e+00	 1.710253685388996e+00
 3.226025105957234e-01	 1.204610338047766e+00	 1.608435635361111e+00
 4.349400623094145e-01	 1.178163296717446e+00	 2.786704148121307e+00
 4.239775580156150e-01	 1.182152563890288e+00	 2.675679831169497e+00
 4.130013646773309e-01	 1.186031860570447e+00	 2.563499994228918e+00
 4.020130503778399e-01	 1.189801352745175e+00	 2.450584764739327e+00
 3.910141732391717e-01	 1.193461234592733e+00	 2.337385510282077e+00
 3.800062808297496e-01	 1.197011728095609e+00	 2.224382316941138e+00
 3.689909095867292e-01	 1.200453082640061e+00	 2.112081490736228e+00
 3.579695842533565e-01	 1.203785574602574e+00	 2.001013089993395e+00
 3.469438173316374e-01	 1.207009506923811e+00	 1.891728496057866e+00
 3.359151085505915e-01	 1.210125208670659e+00	 1.784798029272327e+00
 3.248849443503319e-01	 1.213133034586957e+00	 1.680808616660206e+00
 4.379956729105452e-01	 1.186440318249641e+00	 2.877258188250181e+00
 4.269561530751904e-01	 1.190457611461505e+00	 2.758297458931408e+00
 4.159028480248949e-01	 1.194364161598395e+00	 2.639498090257595e+00
 4.048373368592890e-01	 1.198160135813678e+00	 2.521159544677748e+00
 3.937611886467740e-01	 1.201845729649776e+00	 2.403611288363935e+00
 3.826759618280015e-01	 1.205421166648674e+00	 2.287210380246634e+00
 3.715832036341543e-01	 1.208886697948648e+00	 2.172339084988621e+00
 3.604844495203520e-01	 1.212242601867819e+00	 2.059402517741513e+00
 3.493812226144747e-01	 1.215489183475108e+00	 1.948826328047191e+00
 3.382750331816809e-01	 1.218626774149204e+00	 1.841054429763889e+00
 3.271673781048640e-01	 1.221655731126142e+00	 1.736546783390972e+00
 3.043430405459638e-01	 1.136428765734195e+00	 8.230348459814372e-01
 2.940103105200784e-01	 1.139145713255937e+00	 7.400197500194277e-01
 2.836789636376346e-01	 1.141762342280760e+00	 6.608840308107866e-01
 2.733503530559896e-01	 1.144279056132160e+00	 5.855273713522480e-01
 2.630258176635664e-01	 1.146696280400205e+00	 5.138746311012197e-01
 2.527066816735784e-01	 1.149014462474888e+00	 4.458758200517785e-01
 2.423942542335408e-01	 1.151234071072297e+00	 3.815059698407683e-01
 2.320898290506398e-01	 1.153355595754177e+00	 3.207649050308961e-01
 2.217946840330177e-01	 1.155379546441417e+00	 2.636769180352596e-01
 2.115100809470059e-01	 1.157306452922045e+00	 2.102903514521515e-01
 2.012372650903192e-01	 1.159136864354258e+00	 1.606770918423024e-01
 3.066254743042259e-01	 1.144951462273381e+00	 8.769367495212337e-01
 2.962152535236881e-01	 1.147688785660359e+00	 7.914339219650186e-01
 2.858064262595311e-01	 1.150325038207474e+00	 7.103048241099801e-01
 2.754003558171759e-01	 1.152860626262969e+00	 6.334040008748243e-01
 2.649983911260981e-01	 1.155295978608647e+00	 5.606121857766890e-01
 2.546018663305073e-01	 1.157631545989724e+00	 4.918363284042639e-01
 2.442121003959286e-01	 1.159867800637453e+00	 4.270095134838408e-01
 2.338303967317625e-01	 1.162005235785069e+00	 3.660907747605919e-01
 2.234580428298802e-01	 1.164044365177641e+00	 3.090648072660795e-01
 2.130963099192855e-01	 1.165985722576369e+00	 2.559415818527313e-01
 2.027464526368590e-01	 1.167829861257889e+00	 2.067558661526689e-01
 3.089079080617355e-01	 1.153474158812572e+00	 9.500379812423576e-01
 2.984201965265155e-01	 1.156231858064867e+00	 8.638372094342941e-01
 2.879338888806232e-01	 1.158887734134355e+00	 7.823741464932352e-01
 2.774503585775424e-01	 1.161442196394022e+00	 7.054604722957740e-01
 2.669709645878010e-01	 1.163895676817406e+00	 6.329351857375807e-01
 2.564970509866032e-01	 1.166248629504951e+00	 5.646646810938605e-01
 2.460299465574828e-01	 1.168501530203065e+00	 5.005427103934159e-01
 2.355709644120541e-01	 1.170654875816480e+00	 4.404902351359770e-01
 2.251214016259160e-01	 1.172709183914441e+00	 3.844551710224717e-01
 2.146825388907438e-01	 1.174664992231320e+00	 3.324120297117115e-01
 2.042556401825828e-01	 1.176522858162191e+00	 2.843613733463148e-01
 3.111903418185772e-01	 1.161996855351768e+00	 1.042915459330904e+00
 3.006251395286592e-01	 1.164774930469441e+00	 9.577747716562075e-01
 2.900613515010231e-01	 1.167450430061359e+00	 8.776069093452041e-01
 2.795003613372141e-01	 1.170023766525256e+00	 8.021828776965654e-01
 2.689435380488112e-01	 1.172495375026404e+00	 7.313022506702658e-01
 2.583922356420127e-01	 1.174865713020469e+00	 6.647932916689832e-01
 2.478477927183597e-01	 1.177135259769021e+00	 6.024102544766023e-01
 2.373115320916792e-01	 1.179304515848281e+00	 5.423446166392769e-01
 2.267847604212971e-01	 1.181374002651673e+00	 4.842138043888777e-01
 2.162687678615592e-01	 1.183344261886740e+00	 4.283368527039673e-01
 2.057648277276742e-01	 1.185215855066995e+00	 3.750358292381919e-01
 3.134727755748354e-01	 1.170519551890967e+00	 1.156127081697968e+00
 3.028300825302183e-01	 1.173318002874057e+00	 1.073774088379183e+00
 2.921888141208432e-01	 1.176013125988446e+00	 9.965016181854591e-01
 2.815503640963159e-01	 1.178605336656612e+00	 9.228739064102718e-01
 2.709161115092655e-01	 1.181095073235562e+00	 8.506242986321464e-01
 2.602874202968823e-01	 1.183482796536182e+00	 7.799599258017227e-01
 2.496656388787153e-01	 1.185768989335205e+00	 7.111591566140256e-01
 2.390520997708024e-01	 1.187954155880343e+00	 6.445062664436398e-01
 2.284481192161953e-01	 1.190038821389194e+00	 5.802903400886064e-01
 2.178549968319098e-01	 1.192023531542475e+00	 5.188042309528536e-01
 2.072740152723170e-01	 1.193908851972134e+00	 4.603435778114791e-01
 3.157552093305945e-01	 1.179042248430168e+00	 1.288471156382300e+00
 3.050350255312917e-01	 1.181861075278695e+00	 1.204636554282122e+00
 2.943162767401960e-01	 1.184575821915574e+00	 1.122153466482616e+00
 2.836003668549725e-01	 1.187186906788029e+00	 1.041253564265493e+00
 2.728886849692993e-01	 1.189694771444798e+00	 9.621778145887632e-01
 2.621826049513589e-01	 1.192099880051993e+00	 8.851752161358115e-01
 2.514834850387057e-01	 1.194402718901503e+00	 8.105015886908753e-01
 2.407926674495880e-01	 1.196603795912533e+00	 7.384184180546791e-01
 2.301114780107828e-01	 1.198703640126860e+00	 6.691917583322617e-01
 2.194412258019741e-01	 1.200702801198366e+00	 6.030911930639007e-01
 2.087832028166949e-01	 1.202601848877441e+00	 5.403888563089787e-01
 3.180376430859393e-01	 1.187564944969370e+00	 1.412582090102694e+00
 3.072399685319786e-01	 1.190404147683333e+00	 1.322003190907781e+00
 2.964437393591938e-01	 1.193138517842703e+00	 1.233232566339264e+00
 2.856503696133087e-01	 1.195768476919445e+00	 1.146482715930363e+00
 2.748612584290495e-01	 1.198294469654034e+00	 1.061975251735462e+00
 2.640777896055892e-01	 1.200716963567804e+00	 9.799396212029823e-01
 2.533013311984869e-01	 1.203036448467802e+00	 9.006118859556678e-01
 2.425332351282008e-01	 1.205253435944724e+00	 8.242335587012450e-01
 2.317748368052311e-01	 1.207368458864524e+00	 7.510505001030203e-01
 2.210274547719304e-01	 1.209382070854256e+00	 6.813118770581617e-01
 2.102923903609918e-01	 1.211294845782747e+00	 6.152691834698027e-01
 3.203200768409540e-01	 1.196087641508569e+00	 1.519129883347691e+00
 3.094449115323776e-01	 1.198947220087949e+00	 1.423452233833443e+00
 2.985712019779490e-01	 1.201701213769790e+00	 1.329944300907071e+00
 2.877003723714495e-01	 1.204350047050801e+00	 1.238802045659787e+00
 2.768338318886523e-01	 1.206894167863191e+00	 1.150230398788197e+00
 2.659729742597197e-01	 1.209334047083517e+00	 1.064441964886053e+00
 2.551191773582150e-01	 1.211670178033985e+00	 9.816557853787409e-01
 2.442738028068050e-01	 1.213903075976785e+00	 9.020961623361736e-01
 2.334381955997127e-01	 1.216033277602045e+00	 8.259915449957995e-01
 2.226136837419571e-01	 1.218061340509991e+00	 7.535734804338003e-01
 2.118015779053913e-01	 1.219987842687886e+00	 6.850756294345766e-01
 3.226025105957234e-01	 1.204610338047766e+00	 1.608435635361111e+00
 3.116498545325878e-01	 1.207490292492523e+00	 1.509272581466029e+00
 3.006986645965741e-01	 1.210263909696794e+00	 1.412547405026620e+00
 2.897503751295196e-01	 1.212931617182036e+00	 1.318442115222249e+00
 2.788064053482435e-01	 1.215493866072189e+00	 1.227147586820172e+00
 2.678681589138971e-01	 1.217951130599036e+00	 1.138862240508573e+00
 2.569370235180463e-01	 1.220303907599940e+00	 1.053790784759482e+00
 2.460143704855653e-01	 1.222552716008587e+00	 9.721430214883648e-01
 2.351015543943990e-01	 1.224698096339278e+00	 8.941327173342206e-01
 2.241999127122325e-01	 1.226740610165411e+00	 8.199765420005107e-01
 2.133107654500772e-01	 1.228680839592689e+00	 7.498930746755239e-01
 3.248849443503319e-01	 1.213133034586957e+00	 1.680808616660206e+00
 3.138547975327082e-01	 1.216033364897031e+00	 1.579742057917375e+00
 3.028261272151812e-01	 1.218826605623674e+00	 1.481290251481837e+00
 2.918003778876437e-01	 1.221513187313088e+00	 1.385623796406285e+00
 2.807789788079597e-01	 1.224093564280949e+00	 1.292922090866591e+00
 2.697633435682682e-01	 1.226568214114262e+00	 1.203371983176276e+00
 2.587548696781368e-01	 1.228937637165553e+00	 1.117166487389063e+00
 2.477549381646460e-01	 1.231202356039998e+00	 1.034503565767644e+00
 2.367649131894622e-01	 1.233362915076078e+00	 9.555849799685381e-01
 2.257861416829349e-01	 1.235419879820361e+00	 8.806152123619411e-01
 2.148199529952333e-01	 1.237373836496991e+00	 8.098004584935057e-01
 3.271673781048640e-01	 1.221655731126142e+00	 1.736546783390972e+00
 3.160597405328376e-01	 1.224576437301452e+00	 1.635127892601706e+00
 3.049535898338829e-01	 1.227389301550389e+00	 1.536411297589938e+00
 2.938503806459468e-01	 1.230094757443897e+00	 1.440558686300538e+00
 2.827515522679372e-01	 1.232693262489390e+00	 1.347740515529017e+00
 2.716585282229795e-01	 1.235185297629098e+00	 1.258134627288691e+00
 2.605727158386424e-01	 1.237571366730709e+00	 1.171924932979689e+00
 2.494955058442119e-01	 1.239851996070890e+00	 1.089300167670729e+00
 2.384282719850742e-01	 1.242027733812301e+00	 1.010452716355553e+00
 2.273723706542426e-01	 1.244099149474684e+00	 9.355775136024311e-01
 2.163291405410435e-01	 1.246066833400622e+00	 8.648710175872170e-01
 2.012372650903192e-01	 1.159136864354258e+00	 1.606770918423024e-01
 1.909757223370208e-01	 1.160871635377850e+00	 1.144026046847135e-01
 1.807284145044399e-01	 1.162511032589169e+00	 7.092608423896030e-02
 1.704965389236662e-01	 1.164055659696293e+00	 3.017023486628823e-02
 1.602812752409672e-01	 1.165506137775708e+00	-7.919664100497048e-03
 1.500837851699626e-01	 1.166863104757728e+00	-4.337633476673286e-02
 1.399052122595189e-01	 1.168127214910092e+00	-7.621114762361803e-02
 1.297466816772556e-01	 1.169299138320258e+00	-1.064148340586031e-01
 1.196093000085310e-01	 1.170379560376875e+00	-1.339582593888897e-01
 1.094941550707644e-01	 1.171369181250904e+00	-1.587932513148931e-01
 9.940231574293544e-02	 1.172268715376846e+00	-1.808534786680074e-01
 2.027464526368590e-01	 1.167829861257889e+00	 2.067558661526654e-01
 1.924079530009566e-01	 1.169577642271411e+00	 1.610177870437406e-01
 1.820837950411904e-01	 1.171229334212641e+00	 1.181429410788155e-01
 1.717751850680933e-01	 1.172785545317202e+00	 7.803652092746383e-02
 1.614833115747479e-01	 1.174246901319383e+00	 4.062734327190309e-02
 1.512093449871021e-01	 1.175614044933695e+00	 5.867266299832252e-03
 1.409544374301233e-01	 1.176887635334593e+00	-2.630301239204869e-02
 1.307197225096806e-01	 1.178068347634899e+00	-5.633605927617413e-02
 1.205063151100237e-01	 1.179156872363373e+00	-8.422234805551332e-02
 1.103153112067120e-01	 1.180153914941946e+00	-1.097695824185529e-01
 1.001477876948355e-01	 1.181060195163063e+00	-1.327860425018477e-01
 2.042556401825828e-01	 1.176522858162191e+00	 2.843613733463108e-01
 1.938401836640811e-01	 1.178283649165676e+00	 2.389875527830010e-01
 1.834391755771361e-01	 1.179947635836845e+00	 1.951241231697245e-01
 1.730538312117262e-01	 1.181515430938867e+00	 1.529421441690815e-01
 1.626853479077519e-01	 1.182987664863832e+00	 1.126138470459255e-01
 1.523349048034916e-01	 1.184364985110445e+00	 7.431218579861332e-02
 1.420036626000162e-01	 1.185648055759887e+00	 3.821043380506595e-02
 1.316927633414469e-01	 1.186837556950337e+00	 4.481825107581106e-03
 1.214033302109270e-01	 1.187934184350669e+00	-2.670076072405436e-02
 1.111364673421585e-01	 1.188938648633787e+00	-5.516507139537197e-02
 1.008932596463443e-01	 1.189851674950080e+00	-8.073971375637390e-02
 2.057648277276742e-01	 1.185215855066995e+00	 3.750358292381915e-01
 1.952724143265823e-01	 1.186989656060471e+00	 3.240441414981383e-01
 1.847945561124680e-01	 1.188665937461601e+00	 2.750002512093133e-01
 1.743324773547567e-01	 1.190245316561098e+00	 2.280599359171269e-01
 1.638873842401690e-01	 1.191728428408858e+00	 1.833797835844586e-01
 1.534604646193161e-01	 1.193115925287784e+00	 1.411167549630998e-01
 1.430528877693740e-01	 1.194408476185774e+00	 1.014277935513390e-01
 1.326658041727185e-01	 1.195606766266372e+00	 6.446948217259463e-02
 1.223003453113881e-01	 1.196711496338564e+00	 3.039774500750880e-02
 1.119576234772293e-01	 1.197723382326228e+00	-6.324062689508914e-04
 1.016387315975596e-01	 1.198643154737697e+00	-2.846708376180285e-02
 2.072740152723170e-01	 1.193908851972134e+00	 4.603435778114786e-01
 1.967046449886486e-01	 1.195695662955619e+00	 4.045940090207591e-01
 1.861499366473765e-01	 1.197384239086723e+00	 3.511573009908573e-01
 1.756111234973764e-01	 1.198975202183708e+00	 3.001764999595991e-01
 1.650894205721892e-01	 1.200469191954271e+00	 2.517951428771839e-01
 1.545860244347607e-01	 1.201866865465514e+00	 2.061568265865596e-01
 1.441021129383737e-01	 1.203168896612058e+00	 1.634048267951700e-01
 1.336388450036595e-01	 1.204375975582805e+00	 1.236817657800078e-01
 1.231973604115540e-01	 1.205488808326859e+00	 8.712932756073632e-02
 1.127787796120495e-01	 1.206508116019070e+00	 5.388801908127805e-02
 1.023842035485794e-01	 1.207434634525714e+00	 2.409697577149217e-02
 2.087832028166949e-01	 1.202601848877441e+00	 5.403888563089787e-01
 1.981368756504679e-01	 1.204401669850942e+00	 4.807263755667084e-01
 1.875053171820532e-01	 1.206102540712028e+00	 4.236720076247518e-01
 1.768897696397768e-01	 1.207705087806507e+00	 3.693585610245371e-01
 1.662914569040022e-01	 1.209209955499877e+00	 3.179190552384619e-01
 1.557115842500103e-01	 1.210617805643440e+00	 2.694862922849128e-01
 1.451513381071916e-01	 1.211929317038539e+00	 2.241924804790123e-01
 1.346118858344344e-01	 1.213145184899439e+00	 1.821689091652914e-01
 1.240943755115722e-01	 1.214266120315354e+00	 1.435456730655633e-01
 1.135999357467444e-01	 1.215292849712110e+00	 1.084514446786808e-01
 1.031296754995014e-01	 1.216226114313930e+00	 7.701329299225979e-02
 2.102923903609918e-01	 1.211294845782747e+00	 6.152691834697988e-01
 1.995691063122282e-01	 1.213107676746267e+00	 5.525242169877254e-01
 1.888606977166885e-01	 1.214820842337333e+00	 4.926152827428616e-01
 1.781684157821497e-01	 1.216434973429306e+00	 4.356673898691572e-01
 1.674934932357980e-01	 1.217950719045483e+00	 3.818055170085148e-01
 1.568371440652499e-01	 1.219368745821367e+00	 3.311541820520585e-01
 1.462005632760045e-01	 1.220689737465020e+00	 2.838370664946390e-01
 1.355849266652071e-01	 1.221914394216071e+00	 2.399766931561795e-01
 1.249913906115898e-01	 1.223043432303848e+00	 1.996941558070258e-01
 1.144210918814393e-01	 1.224077583405152e+00	 1.631088990264158e-01
 1.038751474504234e-01	 1.225017594102147e+00	 1.303385464405469e-01
 2.118015779053913e-01	 1.219987842687886e+00	 6.850756294345766e-01
 2.010013369741176e-01	 1.221813683641414e+00	 6.200645126607280e-01
 1.902160782514735e-01	 1.223539143962455e+00	 5.580524426426166e-01
 1.794470619246867e-01	 1.225164859051915e+00	 4.991590138803965e-01
 1.686955295677663e-01	 1.226691482590897e+00	 4.435035857551930e-01
 1.579627038806646e-01	 1.228119685999097e+00	 3.912048461438307e-01
 1.472497884449890e-01	 1.229450157891303e+00	 3.423804322615116e-01
 1.365579674961419e-01	 1.230683603532504e+00	 2.971466073977183e-01
 1.258884057117540e-01	 1.231820744292142e+00	 2.556179919833366e-01
 1.152422480162592e-01	 1.232862317097992e+00	 2.179073472134796e-01
 1.046206194014433e-01	 1.233809073890164e+00	 1.841254092605709e-01
 2.133107654500772e-01	 1.228680839592689e+00	 7.498930746755279e-01
 2.024335676363242e-01	 1.230519690536209e+00	 6.834184832892536e-01
 1.915714587865989e-01	 1.232257445587211e+00	 6.200434271328086e-01
 1.807257080675794e-01	 1.233894744674147e+00	 5.598844190815349e-01
 1.698975659000969e-01	 1.235432246135923e+00	 5.030575674947868e-01
 1.590882636964393e-01	 1.236870626176435e+00	 4.496781295056838e-01
 1.482990136143216e-01	 1.238210578317190e+00	 3.998601242959083e-01
 1.375310083274029e-01	 1.239452812848540e+00	 3.537160049320058e-01
 1.267854208122119e-01	 1.240598056280037e+00	 3.113563871027949e-01
 1.160634041513297e-01	 1.241647050790434e+00	 2.728898328780263e-01
 1.053660913526588e-01	 1.242600553677780e+00	 2.384226874070363e-01
 2.148199529952333e-01	 1.237373836496991e+00	 8.098004584935057e-01
 2.038657982990362e-01	 1.239225697430475e+00	 7.426518191132090e-01
 1.929268393222558e-01	 1.240975747211415e+00	 6.786430095400293e-01
 1.820043542110196e-01	 1.242624630295811e+00	 6.178897439655189e-01
 1.710996022329800e-01	 1.244173009680370e+00	 5.605071963233199e-01
 1.602138235127591e-01	 1.245621566353186e+00	 5.066095391142547e-01
 1.493482387841790e-01	 1.246970998742483e+00	 4.563095451141232e-01
 1.385040491591543e-01	 1.248222022163977e+00	 4.097182504576937e-01
 1.276824359131110e-01	 1.249375368267334e+00	 3.669446773355431e-01
 1.168845602867759e-01	 1.250431784482275e+00	 3.280956143216642e-01
 1.061115633041677e-01	 1.251392033464797e+00	 2.932754521390548e-01
 2.163291405410435e-01	 1.246066833400622e+00	 8.648710175872205e-01
 2.052980289624416e-01	 1.247931704324035e+00	 7.978248989927148e-01
 1.942822198586349e-01	 1.249694048834886e+00	 7.339009983093052e-01
 1.832830003551988e-01	 1.251354515916720e+00	 6.732164655554249e-01
 1.723016385666052e-01	 1.252913773224046e+00	 6.158878068278442e-01
 1.613393833298090e-01	 1.254372506529152e+00	 5.620304045743081e-01
 1.503974639547379e-01	 1.255731419166985e+00	 5.117581037958558e-01
 1.394770899915604e-01	 1.256991231478618e+00	 4.651828625806063e-01
 1.285794510145984e-01	 1.258152680253831e+00	 4.224144651129929e-01
 1.177057164227230e-01	 1.259216518173316e+00	 3.835602950679724e-01
 1.068570352560679e-01	 1.260183513251014e+00	 3.487251670830749e-01
 9.940231574293544e-02	 1.172268715376846e+00	-1.808534786680074e-01
 8.933653701907020e-02	 1.173078760736435e+00	-2.004533277573284e-01
 7.929611196705814e-02	 1.173800218715625e+00	-2.179866825607948e-01
 6.928202837001728e-02	 1.174433842814812e+00	-2.334710387915924e-01
 5.929525517689356e-02	 1.174980398714412e+00	-2.469087847906049e-01
 4.933674240191636e-02	 1.175440663770815e+00	-2.582880464434529e-01
 3.940742103752461e-02	 1.175815426514736e+00	-2.675835587402786e-01
 2.950820298053884e-02	 1.176105486152319e+00	-2.747575594278779e-01
 1.963998097134695e-02	 1.176311652069365e+00	-2.797607003123108e-01
 9.803628545861746e-03	 1.176434743339030e+00	-2.825329718888687e-01
 0.000000000000000e+00	 1.176475588233336e+00	-2.830046369266532e-01
 1.001477876948355e-01	 1.181060195163063e+00	-1.327860425018517e-01
 9.000652022961728e-02	 1.181876315493052e+00	-1.534973313507333e-01
 7.989079657725708e-02	 1.182603184077831e+00	-1.722224601028581e-01
 6.980161192876753e-02	 1.183241560068681e+00	-1.888996065566033e-01
 5.973994249974197e-02	 1.183792214888246e+00	-2.034672402224569e-01
 4.970674542905570e-02	 1.184255931722710e+00	-2.158640034575283e-01
 3.970295869113922e-02	 1.184633505016388e+00	-2.260285698707247e-01
 2.972950102159660e-02	 1.184925739969079e+00	-2.338994821095732e-01
 1.978727185593514e-02	 1.185133452036587e+00	-2.394149711660627e-01
 9.877151281162630e-03	 1.185257466434719e+00	-2.425127593452445e-01
 0.000000000000000e+00	 1.185298617647136e+00	-2.431298488414448e-01
 1.008932596463443e-01	 1.189851674950080e+00	-8.073971375637035e-02
 9.067650343990423e-02	 1.190673870250469e+00	-1.036874568159201e-01
 8.048548118733835e-02	 1.191406149440837e+00	-1.243608461960353e-01
 7.032119548754186e-02	 1.192049277323350e+00	-1.427120492916569e-01
 6.018462982274317e-02	 1.192604031062879e+00	-1.586936803364378e-01
 5.007674845645180e-02	 1.193071199675406e+00	-1.722586579917278e-01
 3.999849634507806e-02	 1.193451583518840e+00	-1.833600392862236e-01
 2.995079906299798e-02	 1.193745993786640e+00	-1.919508321311423e-01
 1.993456274082684e-02	 1.193955252004609e+00	-1.979837886767877e-01
 9.950674016656167e-03	 1.194080189531207e+00	-2.014111817706155e-01
 0.000000000000000e+00	 1.194121647061736e+00	-2.021845665739552e-01
 1.016387315975596e-01	 1.198643154737697e+00	-2.846708376180684e-02
 9.134648664999610e-02	 1.199471425008485e+00	-5.340204128044235e-02
 8.108016579733142e-02	 1.200209114804443e+00	-7.581814840078893e-02
 7.084077904633415e-02	 1.200856994578618e+00	-9.567735941521494e-02
 6.062931714585892e-02	 1.201415847238113e+00	-1.129422804389009e-01
 5.044675148404044e-02	 1.201886467628702e+00	-1.275760070442042e-01
 4.029403399926004e-02	 1.202269662021892e+00	-1.395419371081390e-01
 3.017209710465706e-02	 1.202566247604800e+00	-1.488035612346905e-01
 2.008185362594616e-02	 1.202777051973230e+00	-1.553242331338629e-01
 1.002419675229419e-02	 1.202902912628295e+00	-1.590669223459571e-01
 0.000000000000000e+00	 1.202944676476936e+00	-1.599939514858038e-01
 1.023842035485794e-01	 1.207434634525714e+00	 2.409697577148862e-02
 9.201646985995794e-02	 1.208268979766902e+00	-2.568870037408466e-03
 8.167485040726566e-02	 1.209012080168448e+00	-2.651402900906508e-02
 7.136036260513841e-02	 1.209664711834286e+00	-4.770613869248352e-02
 6.107400446905107e-02	 1.210227663413746e+00	-6.611374334322417e-02
 5.081675451175748e-02	 1.210701735582398e+00	-8.170611510483172e-02
 4.058957165360418e-02	 1.211087740525344e+00	-9.445304906954322e-02
 3.039339514648793e-02	 1.211386501423361e+00	-1.043246347018163e-01
 2.022914451121722e-02	 1.211598851942252e+00	-1.112910061388486e-01
 1.009771948802854e-02	 1.211725635725784e+00	-1.153220738833287e-01
 0.000000000000000e+00	 1.211767705892536e+00	-1.163872401826742e-01
 1.031296754995014e-01	 1.216226114313930e+00	 7.701329299225934e-02
 9.268645306985471e-02	 1.217066534525519e+00	 4.888001177548951e-02
 8.226953501717052e-02	 1.217815045532654e+00	 2.362761960719606e-02
 7.187994616394870e-02	 1.218472429090154e+00	 1.286802916777408e-03
 6.151869179228140e-02	 1.219039479589579e+00	-1.811296342533653e-02
 5.118675753953868e-02	 1.219517003536293e+00	-3.454322426931822e-02
 4.088510930802933e-02	 1.219905819028996e+00	-4.797632468047675e-02
 3.061469318840470e-02	 1.220206755242121e+00	-5.838516538765925e-02
 2.037643539656413e-02	 1.220420651911474e+00	-6.574293582416302e-02
 1.017124222381105e-02	 1.220548358823471e+00	-7.002282741796773e-02
 0.000000000000000e+00	 1.220590735308335e+00	-7.119772954150072e-02
 1.038751474504234e-01	 1.225017594102147e+00	 1.303385464405433e-01
 9.335643627975154e-02	 1.225864089284136e+00	 1.010084469704506e-01
 8.286421962707537e-02	 1.226618010896860e+00	 7.467882080929433e-02
 7.239952972275898e-02	 1.227280146346022e+00	 5.138259175639837e-02
 6.196337911551174e-02	 1.227851295765412e+00	 3.115111711864227e-02
 5.155676056731988e-02	 1.228332271490189e+00	 1.401438921725240e-02
 4.118064696245446e-02	 1.228723897532648e+00	 1.266310347913802e-06
 3.083599123032144e-02	 1.229027009060881e+00	-1.086026982222466e-02
 2.052372628191104e-02	 1.229242451880695e+00	-1.854283241268129e-02
 1.024476495959354e-02	 1.229371081921160e+00	-2.301932713964128e-02
 0.000000000000000e+00	 1.229413764724135e+00	-2.426263101550363e-02
 1.046206194014433e-01	 1.233809073890164e+00	 1.841254092605669e-01
 9.402641948971339e-02	 1.234661644042552e+00	 1.538763078778547e-01
 8.345890423700963e-02	 1.235420976260865e+00	 1.267076533475313e-01
 7.291911328156325e-02	 1.236087863601690e+00	 1.026584288487995e-01
 6.240806643870384e-02	 1.236663111941046e+00	 8.176564591098456e-02
 5.192676359503685e-02	 1.237147539443885e+00	 6.406455231010999e-02
 4.147618461679851e-02	 1.237541976036100e+00	 4.958887133727119e-02
 3.105728927215226e-02	 1.237847262879441e+00	 3.837106954492975e-02
 2.067101716718206e-02	 1.238064251849717e+00	 3.044265005051638e-02
 1.031828769532786e-02	 1.238193805018648e+00	 2.583446847521409e-02
 0.000000000000000e+00	 1.238236794139735e+00	 2.457706883166222e-02
 1.053660913526588e-01	 1.242600553677780e+00	 2.384226874070399e-01
 9.469640269980534e-02	 1.243459198800570e+00	 2.075396319994989e-01
 8.405358884700272e-02	 1.244223941624471e+00	 1.797783851589709e-01
 7.343869684035552e-02	 1.244895580856958e+00	 1.551877224513245e-01
 6.285275376181958e-02	 1.245474928116279e+00	 1.338139922275940e-01
 5.229676662262545e-02	 1.245962807397180e+00	 1.157013267129958e-01
 4.177172227098042e-02	 1.246360054539152e+00	 1.008918866208974e-01
 3.127858731381124e-02	 1.246667516697602e+00	 8.942613626497131e-02
 2.081830805230130e-02	 1.246886051818339e+00	 8.134314610217364e-02
 1.039181043096584e-02	 1.247016528115736e+00	 7.668091963779755e-02
 0.000000000000000e+00	 1.247059823554935e+00	 7.547674187190800e-02
 1.061115633041677e-01	 1.251392033464797e+00	 2.932754521390626e-01
 9.536638591009239e-02	 1.252256753557986e+00	 2.620507520322157e-01
 8.464827345708406e-02	 1.253026906987477e+00	 2.339516015988661e-01
 7.395828039912980e-02	 1.253703298111626e+00	 2.090402150787851e-01
 6.329744108482070e-02	 1.254286744290912e+00	 1.873758733163131e-01
 5.266676965002144e-02	 1.254778075349876e+00	 1.690151349078519e-01
 4.206725992491914e-02	 1.255178133041604e+00	 1.540120832425032e-01
 3.149988535521250e-02	 1.255487770515162e+00	 1.424186062561181e-01
 2.096559893719288e-02	 1.255707851786360e+00	 1.342847056872154e-01
 1.046533316645931e-02	 1.255839251212224e+00	 1.296588326177566e-01
 0.000000000000000e+00	 1.255882852969535e+00	 1.285882463287871e-01
 1.068570352560679e-01	 1.260183513251014e+00	 3.487251670830749e-01
 9.603636912063959e-02	 1.261054308314603e+00	 3.174584205445610e-01
 8.524295806728306e-02	 1.261829872349682e+00	 2.892843283755553e-01
 7.447786395788004e-02	 1.262511015365494e+00	 2.642821052673225e-01
 6.374212840766905e-02	 1.263098560464746e+00	 2.425274754686519e-01
 5.303677267716066e-02	 1.263593343301771e+00	 2.240928809380329e-01
 4.236279757853359e-02	 1.263996211543256e+00	 2.090477279599152e-01
 3.172118339627010e-02	 1.264308024331922e+00	 1.974586688918418e-01
 2.111288982178093e-02	 1.264529651753582e+00	 1.893899156821557e-01
 1.053885590176010e-02	 1.264661974307913e+00	 1.849035817823985e-01
 0.000000000000000e+00	 1.264705882383334e+00	 1.840600493403128e-01
 1.264705882383334e+00	 0.000000000000000e+00	 1.942346862545931e+01
 1.264661974307912e+00	 1.053885590175940e-02	 1.942255083250657e+01
 1.264529651753582e+00	 2.111288982178033e-02	 1.941919848301369e+01
 1.264308024331922e+00	 3.172118339626960e-02	 1.941344594806948e+01
 1.263996211543256e+00	 4.236279757853321e-02	 1.940532587803839e+01
 1.263593343301772e+00	 5.303677267716038e-02	 1.939486958987231e+01
 1.263098560464746e+00	 6.374212840766885e-02	 1.938210743414050e+01
 1.262511015365494e+00	 7.447786395787998e-02	 1.936706913943430e+01
 1.261829872349682e+00	 8.524295806728308e-02	 1.934978413159935e+01
 1.261054308314603e+00	 9.603636912063970e-02	 1.933028182520796e+01
 1.260183513251014e+00	 1.068570352560680e-01	 1.930859188464573e+01
 1.273528911796184e+00	 0.000000000000000e+00	 1.921285597746409e+01
 1.273484697402651e+00	 1.061237863683563e-02	 1.921197043553727e+01
 1.273351451719854e+00	 2.126018070601511e-02	 1.920880913566148e+01
 1.273128278147735e+00	 3.194248143692809e-02	 1.920340086574164e+01
 1.272814290043961e+00	 4.265833523177232e-02	 1.919577299570940e+01
 1.272408611252722e+00	 5.340677570400430e-02	 1.918595188350601e+01
 1.271910376637635e+00	 6.418681573034457e-02	 1.917396326018429e+01
 1.271318732618420e+00	 7.499744751660918e-02	 1.915983259172975e+01
 1.270632837710947e+00	 8.583764267762742e-02	 1.914358541499639e+01
 1.269851863070280e+00	 9.670635233149950e-02	 1.912524764510906e+01
 1.268974993036293e+00	 1.076025072084343e-01	 1.910484585164535e+01
 1.282351941208134e+00	 0.000000000000000e+00	 1.900934106595789e+01
 1.282307420496490e+00	 1.068590137172055e-02	 1.900847172067469e+01
 1.282173251685232e+00	 2.140747158995149e-02	 1.900547987045183e+01
 1.281948531962658e+00	 3.216377947725368e-02	 1.900038838695476e+01
 1.281632368543785e+00	 4.295387288470495e-02	 1.899321905955243e+01
 1.281223879202800e+00	 5.377677873061699e-02	 1.898399302096167e+01
 1.280722192809662e+00	 6.463150305290123e-02	 1.897273115140232e+01
 1.280126449870493e+00	 7.551703107535598e-02	 1.895945445880636e+01
 1.279435803071370e+00	 8.643232728813821e-02	 1.894418443241833e+01
 1.278649417825125e+00	 9.737633554267387e-02	 1.892694336707723e+01
 1.277766472820747e+00	 1.083479791612502e-01	 1.890775465543123e+01
 1.291174970619284e+00	 0.000000000000000e+00	 1.881255375524708e+01
 1.291130143589533e+00	 1.075942410646369e-02	 1.881168704073189e+01
 1.290995051649821e+00	 2.155476247367047e-02	 1.880884582705551e+01
 1.290768785776804e+00	 3.238507751734306e-02	 1.880404674186893e+01
 1.290450447042847e+00	 4.324941053742991e-02	 1.879730569886896e+01
 1.290039147152133e+00	 5.414678175708833e-02	 1.878863834407547e+01
 1.289534008980963e+00	 6.507619037541079e-02	 1.877806048000327e+01
 1.288934167121860e+00	 7.603661463416801e-02	 1.876558846521366e+01
 1.288238768431106e+00	 8.702701189883462e-02	 1.875123958652417e+01
 1.287446972579301e+00	 9.804631875415229e-02	 1.873503240110501e+01
 1.286557952604549e+00	 1.090934511144762e-01	 1.871698704564986e+01
 1.299998000029734e+00	 0.000000000000000e+00	 1.862213196021036e+01
 1.299952866681880e+00	 1.083294684111459e-02	 1.862125668067117e+01
 1.299816851613724e+00	 2.170205335725304e-02	 1.861854994834236e+01
 1.299589039590283e+00	 3.260637555729292e-02	 1.861402182439286e+01
 1.299268525541265e+00	 4.354494819004602e-02	 1.860768205677955e+01
 1.298854415100850e+00	 5.451678478350810e-02	 1.859954054811056e+01
 1.298345825151676e+00	 6.552087769794512e-02	 1.858960780077817e+01
 1.297741884372669e+00	 7.655619819309291e-02	 1.857789533679054e+01
 1.297041733790313e+00	 8.762169650973599e-02	 1.856441608951875e+01
 1.296244527332977e+00	 9.871630196592412e-02	 1.854918476452711e+01
 1.295349432387875e+00	 1.098389230680726e-01	 1.853221816660962e+01
 1.308821029439584e+00	 0.000000000000000e+00	 1.843772137494555e+01
 1.308775589773633e+00	 1.090646957572278e-02	 1.843682858718618e+01
 1.308638651577050e+00	 2.184934424078023e-02	 1.843424271152210e+01
 1.308409293403207e+00	 3.282767359719992e-02	 1.842996692551252e+01
 1.308086604039158e+00	 4.384048584265215e-02	 1.842400452637587e+01
 1.307669683049076e+00	 5.488678780996606e-02	 1.841635942137199e+01
 1.307157641321937e+00	 6.596556502057621e-02	 1.840703659482311e+01
 1.306549601623067e+00	 7.707578175217830e-02	 1.839604254914432e+01
 1.305844699149148e+00	 8.821638112086166e-02	 1.838338571703974e+01
 1.305042082086316e+00	 9.938628517797886e-02	 1.836907684197041e+01
 1.304140912170899e+00	 1.105843950219999e-01	 1.835312932395104e+01
 1.317644058848934e+00	 0.000000000000000e+00	 1.825897521231833e+01
 1.317598312864892e+00	 1.097999231033778e-02	 1.825805810915138e+01
 1.317460451539901e+00	 2.199663512433303e-02	 1.825558187009947e+01
 1.317229547215688e+00	 3.304897163716073e-02	 1.825154247736272e+01
 1.316904682536645e+00	 4.413602349534710e-02	 1.824593649752402e+01
 1.316484950996940e+00	 5.525679083655199e-02	 1.823876159536355e+01
 1.315969457491885e+00	 6.641025234337597e-02	 1.823001702367450e+01
 1.315357318873199e+00	 7.759536531147178e-02	 1.821970408639365e+01
 1.314647664507767e+00	 8.881106573223085e-02	 1.820782657214114e+01
 1.313839636839487e+00	 1.000562683903058e-01	 1.819439115521310e+01
 1.312932391953795e+00	 1.113298669762187e-01	 1.817940776101903e+01
 1.326467088257884e+00	 0.000000000000000e+00	 1.808555395390563e+01
 1.326421035955760e+00	 1.105351504500914e-02	 1.808460774843348e+01
 1.326282251502385e+00	 2.214392600799244e-02	 1.808223220614048e+01
 1.326049801027835e+00	 3.327026967727203e-02	 1.807841580754085e+01
 1.325722761033845e+00	 4.443156114822970e-02	 1.807314811382449e+01
 1.325300218944570e+00	 5.562679386335576e-02	 1.806642030499577e+01
 1.324781273661655e+00	 6.685493966641630e-02	 1.805822569337249e+01
 1.324165036123214e+00	 7.811494887102097e-02	 1.804856020969833e+01
 1.323450629866328e+00	 8.940575034386299e-02	 1.803742285890316e+01
 1.322637191592656e+00	 1.007262516028946e-01	 1.802481614249145e+01
 1.321723871736737e+00	 1.120753389306894e-01	 1.801074644448550e+01
 1.335290117666534e+00	 0.000000000000000e+00	 1.791712510985237e+01
 1.335243759046337e+00	 1.112703777978639e-02	 1.791614692058489e+01
 1.335104051464604e+00	 2.229121689183949e-02	 1.791386529237263e+01
 1.334870054839761e+00	 3.349156771763051e-02	 1.791026090318975e+01
 1.334540839530876e+00	 4.472709880139877e-02	 1.790531603925765e+01
 1.334115486892093e+00	 5.599679689046708e-02	 1.789901515838028e+01
 1.333593089831385e+00	 6.729962698976914e-02	 1.789134542799346e+01
 1.332972753373260e+00	 7.863453243087351e-02	 1.788229723512277e+01
 1.332253595224988e+00	 9.000043495577721e-02	 1.787186466522315e+01
 1.331434746345987e+00	 1.013962348157344e-01	 1.786004594681741e+01
 1.330515351519901e+00	 1.128208108853725e-01	 1.784684385879457e+01
 1.344113147074984e+00	 0.000000000000000e+00	 1.775336298818657e+01
 1.344066482136726e+00	 1.120056051471905e-02	 1.775235172496561e+01
 1.343925851426666e+00	 2.243850777595517e-02	 1.775015926366766e+01
 1.343690308651576e+00	 3.371286575833281e-02	 1.774675818440020e+01
 1.343358918027857e+00	 4.502263645495318e-02	 1.774212323407085e+01
 1.342930754839637e+00	 5.636679991797579e-02	 1.773623191576964e+01
 1.342404906001214e+00	 6.774431431350644e-02	 1.772906505221585e+01
 1.341780470623482e+00	 7.915411599107704e-02	 1.772060732040451e+01
 1.341056560583903e+00	 9.059511956799296e-02	 1.771084775436639e+01
 1.340232301099649e+00	 1.020662180288148e-01	 1.769978021289304e+01
 1.339306831303461e+00	 1.135662828402284e-01	 1.768740380902458e+01
 1.352936176483334e+00	 0.000000000000000e+00	 1.759394847316059e+01
 1.352889205227027e+00	 1.127408324985666e-02	 1.759290472386299e+01
 1.352747651388675e+00	 2.258579866042048e-02	 1.759079859747785e+01
 1.352510562463392e+00	 3.393416379947564e-02	 1.758759428650782e+01
 1.352176996524908e+00	 4.531817410899172e-02	 1.758325873948443e+01
 1.351746022787329e+00	 5.673680294597166e-02	 1.757776227722595e+01
 1.351216722171277e+00	 6.818900163770010e-02	 1.757107918250770e+01
 1.350588187874028e+00	 7.967369955167911e-02	 1.756318826022124e+01
 1.349859525943230e+00	 9.118980418052945e-02	 1.755407336487549e+01
 1.349029855853806e+00	 1.027362012421251e-01	 1.754372389222885e+01
 1.348098311087590e+00	 1.143117547952177e-01	 1.753213523178314e+01
 1.260183513251014e+00	 1.068570352560680e-01	 1.930859188464573e+01
 1.259216518173316e+00	 1.177057164227225e-01	 1.928436840178708e+01
 1.258152680253831e+00	 1.285794510145979e-01	 1.925730901650254e+01
 1.256991231478618e+00	 1.394770899915600e-01	 1.922749947548332e+01
 1.255731419166985e+00	 1.503974639547374e-01	 1.919502831256763e+01
 1.254372506529152e+00	 1.613393833298087e-01	 1.915998688008407e+01
 1.252913773224046e+00	 1.723016385666049e-01	 1.912246933063310e+01
 1.251354515916720e+00	 1.832830003551986e-01	 1.908257254658514e+01
 1.249694048834886e+00	 1.942822198586347e-01	 1.904039601460049e+01
 1.247931704324034e+00	 2.052980289624415e-01	 1.899604164250959e+01
 1.246066833400622e+00	 2.163291405410434e-01	 1.894961351593616e+01
 1.268974993036293e+00	 1.076025072084343e-01	 1.910484585164535e+01
 1.268001251863421e+00	 1.185268725592640e-01	 1.908204658153656e+01
 1.266929992239393e+00	 1.294764661167815e-01	 1.905656007353842e+01
 1.265760440792328e+00	 1.404501308247396e-01	 1.902847052497592e+01
 1.264491839590562e+00	 1.514466891261245e-01	 1.899786536755961e+01
 1.263123446704203e+00	 1.624649431477207e-01	 1.896483530748223e+01
 1.261654536766819e+00	 1.735036749011069e-01	 1.892947431466166e+01
 1.260084401536747e+00	 1.845616465002523e-01	 1.889187955833339e+01
 1.258412350457498e+00	 1.956376003958709e-01	 1.885215128621993e+01
 1.256637711216769e+00	 2.067302596266734e-01	 1.881039264453503e+01
 1.254759830303468e+00	 2.178383280876382e-01	 1.876670943612457e+01
 1.277766472820747e+00	 1.083479791612502e-01	 1.890775465543123e+01
 1.276785985552708e+00	 1.193480286963663e-01	 1.888629704354753e+01
 1.275707304224143e+00	 1.303734812196127e-01	 1.886229314658918e+01
 1.274529650105232e+00	 1.414231716586314e-01	 1.883582559139001e+01
 1.273252260013340e+00	 1.524959142982677e-01	 1.880698071542114e+01
 1.271874386878465e+00	 1.635905029664143e-01	 1.877584861627304e+01
 1.270395300308816e+00	 1.747057112363996e-01	 1.874252314898451e+01
 1.268814287156011e+00	 1.858402926460913e-01	 1.870710186834553e+01
 1.267130652079369e+00	 1.969929809338748e-01	 1.866968591332147e+01
 1.265343718108786e+00	 2.081624902916448e-01	 1.863037983077556e+01
 1.263452827205628e+00	 2.193475156349365e-01	 1.858929133570825e+01
 1.286557952604549e+00	 1.090934511144762e-01	 1.871698704564986e+01
 1.285570719241357e+00	 1.201691848339639e-01	 1.869679407089784e+01
 1.284484616208268e+00	 1.312704963230037e-01	 1.867418810519260e+01
 1.283298859417521e+00	 1.423962124931286e-01	 1.864925018591278e+01
 1.282012680435511e+00	 1.535451394710451e-01	 1.862206556612461e+01
 1.280625327052128e+00	 1.647160627857561e-01	 1.859272377407792e+01
 1.279136063850222e+00	 1.759077475723417e-01	 1.856131861924372e+01
 1.277544172774695e+00	 1.871189387925704e-01	 1.852794814194265e+01
 1.275848953700673e+00	 1.983483614725007e-01	 1.849271450363091e+01
 1.274049725000251e+00	 2.095947209572144e-01	 1.845572381493805e+01
 1.272145824107253e+00	 2.208567031828042e-01	 1.841708589858996e+01
 1.295349432387875e+00	 1.098389230680726e-01	 1.853221816660963e+01
 1.294355452929551e+00	 1.209903409719913e-01	 1.851321812196968e+01
 1.293261928191953e+00	 1.321675114268666e-01	 1.849193077202035e+01
 1.292068068729384e+00	 1.433692533281246e-01	 1.846843554783721e+01
 1.290773100857267e+00	 1.545943646443348e-01	 1.844281662980475e+01
 1.289376267225383e+00	 1.658416226056126e-01	 1.841516301775098e+01
 1.287876827391227e+00	 1.771097839087920e-01	 1.838556854631421e+01
 1.286274058392983e+00	 1.883975849395443e-01	 1.835413184251155e+01
 1.284567255321584e+00	 1.997037420116034e-01	 1.832095622249468e+01
 1.282755731891327e+00	 2.110269516232397e-01	 1.828614952450307e+01
 1.280838821008495e+00	 2.223658907311072e-01	 1.824982387506144e+01
 1.304140912170899e+00	 1.105843950219999e-01	 1.835312932395104e+01
 1.303140186617469e+00	 1.218114971103832e-01	 1.833525560436998e+01
 1.302039240175386e+00	 1.330645265311138e-01	 1.831521270444849e+01
 1.300837278041010e+00	 1.443422941635125e-01	 1.829307843418328e+01
 1.299533521278798e+00	 1.556435898180148e-01	 1.826893591483136e+01
 1.298127207398422e+00	 1.669671824258504e-01	 1.824287366030402e+01
 1.296617590932019e+00	 1.783118202456092e-01	 1.821498560248071e+01
 1.295003944011058e+00	 1.896762310868675e-01	 1.818537105733190e+01
 1.293285556942278e+00	 2.010591225510373e-01	 1.815413462875400e+01
 1.291461738782179e+00	 2.124591822895795e-01	 1.812138604704106e+01
 1.289531817909503e+00	 2.238750782797112e-01	 1.808723993895211e+01
 1.312932391953795e+00	 1.113298669762187e-01	 1.817940776101903e+01
 1.311924920305294e+00	 1.226326532490740e-01	 1.816259865833134e+01
 1.310816552158751e+00	 1.339615416356570e-01	 1.814373098537784e+01
 1.309606487352589e+00	 1.453153349991858e-01	 1.812288091832901e+01
 1.308293941700296e+00	 1.566928149919633e-01	 1.810013053464229e+01
 1.306878147571434e+00	 1.680927422463360e-01	 1.807556790633215e+01
 1.305358354472785e+00	 1.795138565826521e-01	 1.804928713584644e+01
 1.303733829629101e+00	 1.909548772343950e-01	 1.802138833135719e+01
 1.302003858562929e+00	 2.024145030906567e-01	 1.799197751828515e+01
 1.300167745672973e+00	 2.138914129560916e-01	 1.796116648389653e+01
 1.298224814810431e+00	 2.253842658284821e-01	 1.792907255184055e+01
 1.321723871736737e+00	 1.120753389306894e-01	 1.801074644448549e+01
 1.320709653993206e+00	 1.234538093879985e-01	 1.799494494915228e+01
 1.319593864142237e+00	 1.348585567404087e-01	 1.797718802287330e+01
 1.318375696664313e+00	 1.462883758350378e-01	 1.795755019723101e+01
 1.317054362121952e+00	 1.577420401660584e-01	 1.793611252292779e+01
 1.315629087744610e+00	 1.692183020669360e-01	 1.791296267554411e+01
 1.314099118013713e+00	 1.807158929197792e-01	 1.788819500259044e+01
 1.312463715247296e+00	 1.922335233819813e-01	 1.786191050857871e+01
 1.310722160183713e+00	 2.037698836303163e-01	 1.783421677484847e+01
 1.308873752563872e+00	 2.153236436226345e-01	 1.780522781089792e+01
 1.306917811711429e+00	 2.268934533772858e-01	 1.777506383399791e+01
 1.330515351519901e+00	 1.128208108853725e-01	 1.784684385879457e+01
 1.329494387681388e+00	 1.242749655270910e-01	 1.783199746825815e+01
 1.328371176126029e+00	 1.357555718452810e-01	 1.781529135821395e+01
 1.327144905976369e+00	 1.472614166709617e-01	 1.779679840683785e+01
 1.325814782543958e+00	 1.587912653401782e-01	 1.777659865678062e+01
 1.324380027918142e+00	 1.703438618875169e-01	 1.775477943402257e+01
 1.322839881554991e+00	 1.819179292568495e-01	 1.773143540671057e+01
 1.321193600865825e+00	 1.935121695294811e-01	 1.770666858062271e+01
 1.319440461804804e+00	 2.051252641698705e-01	 1.768058822790876e+01
 1.317579759455040e+00	 2.167558742890663e-01	 1.765331074576844e+01
 1.315610808612648e+00	 2.284026409259881e-01	 1.762495944175314e+01
 1.339306831303461e+00	 1.135662828402284e-01	 1.768740380902457e+01
 1.338279121370020e+00	 1.250961216662862e-01	 1.767346434248703e+01
 1.337148488110314e+00	 1.366525869501860e-01	 1.765775348196819e+01
 1.335914115288949e+00	 1.482344575068510e-01	 1.764034244531948e+01
 1.334575202966505e+00	 1.598404905142007e-01	 1.762131028744583e+01
 1.333130968092220e+00	 1.714694217079452e-01	 1.760074403285916e+01
 1.331580645096808e+00	 1.831199655937215e-01	 1.757873874690816e+01
 1.329923486484871e+00	 1.947908156767491e-01	 1.755539754224731e+01
 1.328158763426378e+00	 2.064806447091739e-01	 1.753083151710572e+01
 1.326285766346644e+00	 2.181881049552449e-01	 1.750515962192895e+01
 1.324303805514240e+00	 2.299118284744549e-01	 1.747850845098477e+01
 1.348098311087590e+00	 1.143117547952177e-01	 1.753213523178314e+01
 1.347063855059284e+00	 1.259172778055186e-01	 1.751905865122527e+01
 1.345925800095279e+00	 1.375496020550358e-01	 1.750429165772651e+01
 1.344683324602242e+00	 1.492074983425989e-01	 1.748790380375581e+01
 1.343335623389784e+00	 1.608897156880040e-01	 1.746997317832266e+01
 1.341881908267035e+00	 1.725949815280876e-01	 1.745058655382730e+01
 1.340321408639350e+00	 1.843220019302541e-01	 1.742983947028827e+01
 1.338653372104616e+00	 1.960694618236400e-01	 1.740783625342527e+01
 1.336877065048610e+00	 2.078360252480808e-01	 1.738468996307233e+01
 1.334991773238847e+00	 2.196203356210290e-01	 1.736052226840220e+01
 1.332996802416356e+00	 2.314210160225521e-01	 1.733546324645893e+01
 1.246066833400622e+00	 2.163291405410434e-01	 1.894961351593616e+01
 1.244099149474685e+00	 2.273723706542418e-01	 1.890060141879511e+01
 1.242027733812302e+00	 2.384282719850735e-01	 1.884847095905816e+01
 1.239851996070890e+00	 2.494955058442114e-01	 1.879331437885272e+01
 1.237571366730709e+00	 2.605727158386419e-01	 1.873522183540381e+01
 1.235185297629098e+00	 2.716585282229791e-01	 1.867428077356132e+01
 1.232693262489390e+00	 2.827515522679369e-01	 1.861057522659770e+01
 1.230094757443897e+00	 2.938503806459467e-01	 1.854418504343602e+01
 1.227389301550388e+00	 3.049535898338829e-01	 1.847518504061230e+01
 1.224576437301453e+00	 3.160597405328378e-01	 1.840364407743647e+01
 1.221655731126142e+00	 3.271673781048639e-01	 1.832962405299168e+01
 1.254759830303468e+00	 2.178383280876382e-01	 1.876670943612457e+01
 1.252778419128273e+00	 2.289585996262831e-01	 1.872056087399876e+01
 1.250692552547848e+00	 2.400916307813596e-01	 1.867138034177707e+01
 1.248501636101170e+00	 2.512360735243844e-01	 1.861925862667137e+01
 1.246205096295324e+00	 2.623905619996813e-01	 1.856428494747058e+01
 1.243802381143473e+00	 2.735537128781450e-01	 1.850654632607518e+01
 1.241292960697452e+00	 2.847241257282849e-01	 1.844612688526611e+01
 1.238676327574413e+00	 2.959003834045325e-01	 1.838310707076866e+01
 1.235951997476899e+00	 3.070810524527766e-01	 1.831756279581730e+01
 1.233119509705762e+00	 3.182646835330661e-01	 1.824956450658618e+01
 1.230178427665308e+00	 3.294498118594008e-01	 1.817917616702586e+01
 1.263452827205628e+00	 2.193475156349365e-01	 1.858929133570825e+01
 1.261457688781213e+00	 2.305448285989857e-01	 1.854585055512962e+01
 1.259357371282790e+00	 2.417549895782588e-01	 1.849946050679737e+01
 1.257151276130895e+00	 2.529766412051173e-01	 1.845021143472744e+01
 1.254838825859441e+00	 2.642084081612222e-01	 1.839819260236729e+01
 1.252419464657410e+00	 2.754488975337499e-01	 1.834349166360254e+01
 1.249892658905143e+00	 2.866966991890051e-01	 1.828619395788547e+01
 1.247257897704627e+00	 2.979503861634202e-01	 1.822638172744318e+01
 1.244514693403182e+00	 3.092085150718983e-01	 1.816413325466796e+01
 1.241662582109921e+00	 3.204696265334467e-01	 1.809952191795089e+01
 1.238701124204402e+00	 3.317322456140109e-01	 1.803261516439589e+01
 1.272145824107253e+00	 2.208567031828042e-01	 1.841708589858996e+01
 1.270136958433639e+00	 2.321310575722266e-01	 1.837620360145391e+01
 1.268022190017244e+00	 2.434183483756634e-01	 1.833245175012316e+01
 1.265800916160163e+00	 2.547172088863202e-01	 1.828592094687589e+01
 1.263472555423135e+00	 2.660262543231952e-01	 1.823670147197286e+01
 1.261036548170961e+00	 2.773440821897458e-01	 1.818488265461545e+01
 1.258492357112488e+00	 2.886692726500726e-01	 1.813055216583834e+01
 1.255839467834543e+00	 3.000003889226081e-01	 1.807379523118892e+01
 1.253077389329214e+00	 3.113359776912703e-01	 1.801469376118726e+01
 1.250205654513883e+00	 3.226745695340228e-01	 1.795332539772009e+01
 1.247223820743357e+00	 3.340146793687591e-01	 1.788976247469702e+01
 1.280838821008495e+00	 2.223658907311072e-01	 1.824982387506144e+01
 1.278816228085687e+00	 2.337172865458834e-01	 1.821135695886647e+01
 1.276687008751327e+00	 2.450817071734658e-01	 1.817009789349838e+01
 1.274450556189068e+00	 2.564577765679031e-01	 1.812613853079916e+01
 1.272106284986476e+00	 2.678441004855303e-01	 1.807957112916555e+01
 1.269653631684175e+00	 2.792392668460848e-01	 1.803048772495065e+01
 1.267092055319515e+00	 2.906418461114625e-01	 1.797897942354306e+01
 1.264421037964160e+00	 3.020503916820947e-01	 1.792513560786339e+01
 1.261640085254977e+00	 3.134634403109134e-01	 1.786904306215976e+01
 1.258748726917606e+00	 3.248795125348388e-01	 1.781078500914320e+01
 1.255746517282108e+00	 3.362971131237101e-01	 1.775044005867728e+01
 1.289531817909503e+00	 2.238750782797112e-01	 1.808723993895211e+01
 1.287495497737492e+00	 2.353035155198335e-01	 1.805105124855463e+01
 1.285351827485155e+00	 2.467450659715584e-01	 1.801214616555189e+01
 1.283100196217707e+00	 2.581983442497764e-01	 1.797061867258775e+01
 1.280740014549541e+00	 2.696619466481580e-01	 1.792656395677728e+01
 1.278270715197102e+00	 2.811344515027192e-01	 1.788007778206093e+01
 1.275691753526249e+00	 2.926144195731493e-01	 1.783125577890894e+01
 1.273002608093484e+00	 3.041003944418779e-01	 1.778019264900059e+01
 1.270202781180447e+00	 3.155909029308493e-01	 1.772698128264374e+01
 1.267291799321045e+00	 3.270844555359385e-01	 1.767171178685693e+01
 1.264269213820593e+00	 3.385795468789295e-01	 1.761447042221100e+01
 1.298224814810431e+00	 2.253842658284821e-01	 1.792907255184055e+01
 1.296174767389189e+00	 2.368897444939545e-01	 1.789503064239483e+01
 1.294016646218845e+00	 2.484084247698334e-01	 1.785834708931486e+01
 1.291749836246175e+00	 2.599389119318503e-01	 1.781911887729802e+01
 1.289373744112402e+00	 2.714797928110083e-01	 1.777744506209917e+01
 1.286887798709794e+00	 2.830296361596007e-01	 1.773342614436001e+01
 1.284291451732717e+00	 2.945869930351080e-01	 1.768716335839579e+01
 1.281584178222514e+00	 3.061503972019562e-01	 1.763875787344359e+01
 1.278765477105603e+00	 3.177183655510993e-01	 1.758830990501702e+01
 1.275834871724156e+00	 3.292893985373658e-01	 1.753591773416575e+01
 1.272791910358743e+00	 3.408619806344818e-01	 1.748167663261561e+01
 1.306917811711429e+00	 2.268934533772858e-01	 1.777506383399791e+01
 1.304854037040913e+00	 2.384759734681233e-01	 1.774304274476959e+01
 1.302681464952513e+00	 2.500717835681833e-01	 1.770845437581260e+01
 1.300399476274568e+00	 2.616794796140349e-01	 1.767139957521000e+01
 1.298007473675132e+00	 2.732976389740117e-01	 1.763198219668078e+01
 1.295504882222299e+00	 2.849248208166815e-01	 1.759030847542410e+01
 1.292891149938944e+00	 2.965595664973139e-01	 1.754648631646323e+01
 1.290165748351254e+00	 3.082003999623277e-01	 1.750062449287065e+01
 1.287328173030424e+00	 3.198458281716852e-01	 1.745283175139138e+01
 1.284377944126897e+00	 3.314943415391647e-01	 1.740321582313802e+01
 1.281314606896496e+00	 3.431444143904320e-01	 1.735188233720308e+01
 1.315610808612648e+00	 2.284026409259881e-01	 1.762495944175314e+01
 1.313533306692800e+00	 2.400622024422176e-01	 1.759483848050689e+01
 1.311346283686275e+00	 2.517351423665004e-01	 1.756222482345162e+01
 1.309049116302981e+00	 2.634200472962404e-01	 1.752722403352107e+01
 1.306641203237805e+00	 2.751154851370984e-01	 1.748994568117734e+01
 1.304121965734667e+00	 2.868200054739138e-01	 1.745050272282504e+01
 1.301490848144957e+00	 2.985321399597414e-01	 1.740901078920724e+01
 1.298747318479706e+00	 3.102504027229908e-01	 1.736558738103529e+01
 1.295890868954890e+00	 3.219732907926282e-01	 1.732035096924040e+01
 1.292921016529221e+00	 3.336992845413789e-01	 1.727341999738713e+01
 1.289837303433786e+00	 3.454268481468455e-01	 1.722491178396196e+01
 1.324303805514240e+00	 2.299118284744549e-01	 1.747850845098476e+01
 1.322212576344983e+00	 2.416484314161148e-01	 1.745017198866132e+01
 1.320011102420249e+00	 2.533985011646773e-01	 1.741941822293386e+01
 1.317698756331511e+00	 2.651606149783770e-01	 1.738635827322571e+01
 1.315274932800494e+00	 2.769333313001989e-01	 1.735110833501337e+01
 1.312739049246950e+00	 2.887151901312495e-01	 1.731378906138266e+01
 1.310090546350782e+00	 3.005047134223657e-01	 1.727452485199034e+01
 1.307328888607871e+00	 3.123004054839436e-01	 1.723344304654943e+01
 1.304453564878978e+00	 3.241007534139495e-01	 1.719067302009252e+01
 1.301464088931087e+00	 3.359042275440524e-01	 1.714634517741477e+01
 1.298359999970548e+00	 3.477092819037867e-01	 1.710058984427265e+01
 1.332996802416356e+00	 2.314210160225521e-01	 1.733546324645893e+01
 1.330891845997599e+00	 2.432346603896922e-01	 1.730880052186993e+01
 1.328675921154549e+00	 2.550618599626060e-01	 1.727979726744712e+01
 1.326348396360253e+00	 2.669011826603550e-01	 1.724857099094492e+01
 1.323908662363273e+00	 2.787511774632431e-01	 1.721524541064313e+01
 1.321356132759197e+00	 2.906103747886408e-01	 1.717994984063450e+01
 1.318690244556446e+00	 3.024772868851618e-01	 1.714281848088477e+01
 1.315910458735754e+00	 3.143504082451844e-01	 1.710398960904807e+01
 1.313016260802667e+00	 3.262282160356711e-01	 1.706360467114989e+01
 1.310007161332449e+00	 3.381091705472291e-01	 1.702180726839945e+01
 1.306882696506716e+00	 3.499917156613212e-01	 1.697874203756296e+01
 1.221655731126142e+00	 3.271673781048639e-01	 1.832962405299168e+01
 1.218626774149205e+00	 3.382750331816800e-01	 1.825304989170228e+01
 1.215489183475108e+00	 3.493812226144739e-01	 1.817386920301728e+01
 1.212242601867819e+00	 3.604844495203512e-01	 1.809216136703056e+01
 1.208886697948648e+00	 3.715832036341537e-01	 1.800799033135655e+01
 1.205421166648673e+00	 3.826759618280010e-01	 1.792140306243881e+01
 1.201845729649776e+00	 3.937611886467735e-01	 1.783242791752336e+01
 1.198160135813678e+00	 4.048373368592888e-01	 1.774107293790717e+01
 1.194364161598396e+00	 4.159028480248947e-01	 1.764732406438263e+01
 1.190457611461505e+00	 4.269561530751902e-01	 1.755114327612932e+01
 1.186440318249641e+00	 4.379956729105452e-01	 1.745246665464746e+01
 1.230178427665308e+00	 3.294498118594008e-01	 1.817917616702585e+01
 1.227128339627824e+00	 3.406349578126802e-01	 1.810628713190746e+01
 1.223968860026572e+00	 3.518186278971284e-01	 1.803080094805784e+01
 1.220699629133324e+00	 3.629993147870726e-01	 1.795278778821239e+01
 1.217320313257583e+00	 3.741754976812158e-01	 1.787230389193341e+01
 1.213830605202171e+00	 3.853456428258042e-01	 1.778939002582671e+01
 1.210230224707332e+00	 3.965082040538466e-01	 1.770406986057786e+01
 1.206518918882770e+00	 4.076616233401334e-01	 1.761634826526648e+01
 1.202696462627001e+00	 4.188043313717861e-01	 1.752620951973215e+01
 1.198762659033439e+00	 4.299347481340324e-01	 1.743361544610202e+01
 1.194717339782609e+00	 4.410512835108906e-01	 1.733850346094116e+01
 1.238701124204402e+00	 3.317322456140109e-01	 1.803261516439589e+01
 1.235629905106451e+00	 3.429948824436725e-01	 1.796327845446186e+01
 1.232448536578126e+00	 3.542560331796937e-01	 1.789138344427073e+01
 1.229156656398998e+00	 3.655141800536230e-01	 1.781699306932815e+01
 1.225753928566769e+00	 3.767677917280263e-01	 1.774015749464727e+01
 1.222240043755998e+00	 3.880153238232781e-01	 1.766091257615059e+01
 1.218614719765293e+00	 3.992552194605155e-01	 1.757927823534288e+01
 1.214877701952336e+00	 4.104859098205040e-01	 1.749525674757331e+01
 1.211028763656146e+00	 4.217058147181386e-01	 1.740883094452832e+01
 1.207067706605971e+00	 4.329133431922778e-01	 1.731996233193618e+01
 1.202994361316223e+00	 4.441068941105893e-01	 1.722858912382364e+01
 1.247223820743357e+00	 3.340146793687591e-01	 1.788976247469702e+01
 1.244131470585002e+00	 3.453548070747416e-01	 1.782385399545363e+01
 1.240928213129666e+00	 3.566934384622711e-01	 1.775544763556539e+01
 1.237613683664728e+00	 3.680290453201193e-01	 1.768460101673420e+01
 1.234187543876076e+00	 3.793600857747162e-01	 1.761135982131887e+01
 1.230649482310011e+00	 3.906850048205653e-01	 1.753575624733074e+01
 1.226999214823504e+00	 4.020022348669338e-01	 1.745780737344323e+01
 1.223236485022214e+00	 4.133101963005631e-01	 1.737751343420970e+01
 1.219361064685659e+00	 4.246072980641230e-01	 1.729485600600927e+01
 1.215372754178922e+00	 4.358919382501040e-01	 1.720979610458742e+01
 1.211271382850301e+00	 4.471625047098242e-01	 1.712227219542225e+01
 1.255746517282108e+00	 3.362971131237101e-01	 1.775044005867727e+01
 1.252633036063392e+00	 3.477147317059714e-01	 1.768784407079126e+01
 1.249407889681094e+00	 3.591308437449620e-01	 1.762282450432890e+01
 1.246070710930393e+00	 3.705439105866788e-01	 1.755543554489082e+01
 1.242621159185372e+00	 3.819523798214166e-01	 1.748571994330706e+01
 1.239058920864069e+00	 3.933546858178091e-01	 1.741370745676240e+01
 1.235383709881812e+00	 4.047492502732552e-01	 1.733941319696956e+01
 1.231595268092240e+00	 4.161344827804735e-01	 1.726283588547274e+01
 1.227693365715369e+00	 4.275087814099098e-01	 1.718395601649341e+01
 1.223677801752115e+00	 4.388705333076881e-01	 1.710273392808258e+01
 1.219548404384659e+00	 4.502181153087785e-01	 1.701910778271342e+01
 1.264269213820593e+00	 3.385795468789295e-01	 1.761447042221100e+01
 1.261134601541538e+00	 3.500746563374462e-01	 1.755507920676878e+01
 1.257887566232307e+00	 3.615682490278681e-01	 1.749334511162033e+01
 1.254527738195880e+00	 3.730587758534182e-01	 1.742932071917311e+01
 1.251054774494528e+00	 3.845446738682577e-01	 1.736304735987593e+01
 1.247468359418027e+00	 3.960243668151525e-01	 1.729455353213704e+01
 1.243768204940064e+00	 4.074962656796332e-01	 1.722385322661231e+01
 1.239954051162253e+00	 4.189587692603978e-01	 1.715094415484666e+01
 1.236025666745107e+00	 4.304102647556698e-01	 1.707580588258612e+01
 1.231982849325372e+00	 4.418491283652077e-01	 1.699839786843305e+01
 1.227825425919116e+00	 4.532737259076350e-01	 1.691865740889375e+01
 1.272791910358743e+00	 3.408619806344818e-01	 1.748167663261561e+01
 1.269636167019354e+00	 3.524345809692498e-01	 1.742539017249125e+01
 1.266367242783203e+00	 3.640056543110907e-01	 1.736684063902615e+01
 1.262984765461068e+00	 3.755736411204544e-01	 1.730608080042791e+01
 1.259488389803411e+00	 3.871369679153703e-01	 1.724315203867995e+01
 1.255877797971742e+00	 3.986940478127378e-01	 1.717808274104092e+01
 1.252152699998105e+00	 4.102432810862211e-01	 1.711088659352242e+01
 1.248312834232089e+00	 4.217830557404990e-01	 1.704156077624164e+01
 1.244357967774700e+00	 4.333117481015735e-01	 1.697008406088382e+01
 1.240287896898517e+00	 4.448277234228399e-01	 1.689641481086728e+01
 1.236102447453487e+00	 4.563293365065765e-01	 1.682048888518610e+01
 1.281314606896496e+00	 3.431444143904320e-01	 1.735188233720308e+01
 1.278137732496757e+00	 3.547945056014667e-01	 1.729860801407389e+01
 1.274846919333681e+00	 3.664430595947313e-01	 1.724314243209865e+01
 1.271441792725843e+00	 3.780885063879045e-01	 1.718554029119530e+01
 1.267922005111894e+00	 3.897292619628857e-01	 1.712584445826848e+01
 1.264287236525072e+00	 4.013637288107079e-01	 1.706408432320265e+01
 1.260537195055783e+00	 4.129902964931727e-01	 1.700027405472605e+01
 1.256671617301585e+00	 4.246073422209395e-01	 1.693441075596785e+01
 1.252690268803980e+00	 4.362132314477918e-01	 1.686647251987259e+01
 1.248592944471371e+00	 4.478063184807623e-01	 1.679641638499587e+01
 1.244379468987590e+00	 4.593849471057861e-01	 1.672417619259379e+01
 1.289837303433786e+00	 3.454268481468455e-01	 1.722491178396196e+01
 1.286639297973662e+00	 3.571544302341815e-01	 1.717456409053308e+01
 1.283326595883640e+00	 3.688804648788916e-01	 1.712208204530441e+01
 1.279898819990088e+00	 3.806033716558857e-01	 1.706752398351759e+01
 1.276355620419842e+00	 3.923215560109339e-01	 1.701093565251586e+01
 1.272696675077875e+00	 4.040334098092062e-01	 1.695234852526638e+01
 1.268921690112943e+00	 4.157373119006413e-01	 1.689177801192806e+01
 1.265030400370579e+00	 4.274316287018824e-01	 1.682922156922601e+01
 1.261022569832773e+00	 4.391147147944949e-01	 1.676465670773518e+01
 1.256897992043759e+00	 4.507849135391521e-01	 1.669803889754223e+01
 1.252656490521242e+00	 4.624405577054467e-01	 1.662929937314312e+01
 1.298359999970548e+00	 3.477092819037867e-01	 1.710058984427265e+01
 1.295140863449987e+00	 3.595143548674776e-01	 1.705309011129118e+01
 1.291806272432977e+00	 3.713178701636730e-01	 1.700349128841371e+01
 1.288355847253684e+00	 3.831182369245146e-01	 1.695185700826331e+01
 1.284789235727127e+00	 3.949138500596459e-01	 1.689823725688911e+01
 1.281106113630006e+00	 4.067030908083754e-01	 1.684266663797499e+01
 1.277306185169434e+00	 4.184843273087805e-01	 1.678516253354934e+01
 1.273389183438908e+00	 4.302559151834902e-01	 1.672572316090659e+01
 1.269354870860911e+00	 4.420161981418542e-01	 1.666432552579480e+01
 1.265203039615501e+00	 4.537635085981866e-01	 1.660092327229077e+01
 1.260933512054261e+00	 4.654961683057414e-01	 1.653544443017856e+01
 1.306882696506716e+00	 3.499917156613212e-01	 1.697874203756296e+01
 1.303642428925645e+00	 3.618742795014395e-01	 1.693401817522181e+01
 1.300285948981592e+00	 3.737552754491766e-01	 1.688720227426456e+01
 1.296812874516516e+00	 3.856331021939083e-01	 1.683836488589637e+01
 1.293222851033617e+00	 3.975061441091527e-01	 1.678756155646897e+01
 1.289515552181324e+00	 4.093727718083583e-01	 1.673483103565354e+01
 1.285690680225100e+00	 4.212313427177439e-01	 1.668019337984957e+01
 1.281747966506409e+00	 4.330802016659257e-01	 1.662364795050133e+01
 1.277687171888223e+00	 4.449176814900397e-01	 1.656517130733804e+01
 1.273508087186421e+00	 4.567421036580434e-01	 1.650471499692348e+01
 1.269210533586462e+00	 4.685517789068530e-01	 1.644220323729662e+01
 1.186440318249641e+00	 4.379956729105452e-01	 1.745246665464746e+01
 1.182311432174493e+00	 4.490216917444495e-01	 1.735212060983208e+01
 1.178071516811096e+00	 4.600307329592652e-01	 1.725086943779166e+01
 1.173720491529515e+00	 4.710211897176092e-01	 1.714807413823564e+01
 1.169258305519455e+00	 4.819914476518518e-01	 1.704201419216185e+01
 1.164684938103474e+00	 4.929398855297004e-01	 1.693209080264646e+01
 1.160000399033113e+00	 5.038648759321990e-01	 1.681777962808695e+01
 1.155204728767399e+00	 5.147647859436427e-01	 1.669851052495668e+01
 1.150297998733234e+00	 5.256379778529094e-01	 1.657366688651763e+01
 1.145280311567176e+00	 5.364828098656644e-01	 1.644258509137720e+01
 1.140151801338169e+00	 5.472976368268900e-01	 1.630455407157306e+01
 1.194717339782609e+00	 4.410512835108906e-01	 1.733850346094116e+01
 1.190559649157784e+00	 4.521542236986208e-01	 1.724157279445852e+01
 1.186290154665692e+00	 4.632400678254837e-01	 1.714346797480509e+01
 1.181908775113894e+00	 4.743071978442341e-01	 1.704394080245297e+01
 1.177415459337614e+00	 4.853539881248453e-01	 1.694269467316547e+01
 1.172810186515153e+00	 4.963788061247397e-01	 1.683872834505082e+01
 1.168092966466078e+00	 5.073800130715131e-01	 1.673022929148879e+01
 1.163263839931666e+00	 5.183559646576676e-01	 1.661658875270578e+01
 1.158322878837110e+00	 5.293050117468320e-01	 1.649719014582455e+01
 1.153270186534992e+00	 5.402255010909370e-01	 1.637136844688170e+01
 1.148105898029562e+00	 5.511157760577856e-01	 1.623840968195848e+01
 1.202994361316223e+00	 4.441068941105893e-01	 1.722858912382364e+01
 1.198807866141762e+00	 4.552867556521041e-01	 1.713526987860603e+01
 1.194508792521010e+00	 4.664494026909810e-01	 1.704051663547700e+01
 1.190097058699019e+00	 4.775932059701119e-01	 1.694409719954632e+01
 1.185572613156540e+00	 4.887165285970725e-01	 1.684573118615797e+01
 1.180935434927616e+00	 4.998177267189982e-01	 1.674508755039128e+01
 1.176185533899837e+00	 5.108951502100374e-01	 1.664177725093593e+01
 1.171322951096734e+00	 5.219471433708966e-01	 1.653410585225310e+01
 1.166347758941792e+00	 5.329720456399558e-01	 1.642052224081815e+01
 1.161260061503619e+00	 5.439681923154100e-01	 1.630036393669874e+01
 1.156059994721770e+00	 5.549339152878812e-01	 1.617291850404311e+01
 1.211271382850301e+00	 4.471625047098242e-01	 1.712227219542224e+01
 1.207056083126241e+00	 4.584192876050872e-01	 1.703269756397725e+01
 1.202727430376858e+00	 4.696587375559486e-01	 1.694144796095853e+01
 1.198285342284700e+00	 4.808792140954367e-01	 1.684830801871362e+01
 1.193729766976039e+00	 4.920790690687295e-01	 1.675301491357035e+01
 1.189060683340665e+00	 5.032566473126742e-01	 1.665525583288003e+01
 1.184278101334194e+00	 5.144102873479705e-01	 1.655466539068386e+01
 1.179382062262408e+00	 5.255383220835296e-01	 1.645082299681301e+01
 1.174372639047090e+00	 5.366390795324807e-01	 1.634303732546659e+01
 1.169249936472870e+00	 5.477108835392831e-01	 1.622895926590576e+01
 1.164014091414612e+00	 5.587520545173768e-01	 1.610749177625892e+01
 1.219548404384659e+00	 4.502181153087785e-01	 1.701910778271342e+01
 1.215304300111032e+00	 4.615518195577570e-01	 1.693334964103206e+01
 1.210946068233046e+00	 4.728680724205773e-01	 1.684570384478425e+01
 1.206473625870739e+00	 4.841652222204024e-01	 1.675597267839051e+01
 1.201886920795915e+00	 4.954416095400124e-01	 1.666391221660498e+01
 1.197185931754106e+00	 5.066955679059651e-01	 1.656922973411601e+01
 1.192370668768954e+00	 5.179254244855110e-01	 1.647158105849132e+01
 1.187441173428497e+00	 5.291295007957657e-01	 1.637056787124307e+01
 1.182397519152813e+00	 5.403061134246067e-01	 1.626573496227002e+01
 1.177239811442557e+00	 5.514535747627561e-01	 1.615656744342818e+01
 1.171968188107903e+00	 5.625701937464722e-01	 1.604153963856409e+01
 1.227825425919116e+00	 4.532737259076350e-01	 1.691865740889375e+01
 1.223552517095950e+00	 4.646843515103017e-01	 1.683672780369450e+01
 1.219164706089381e+00	 4.760774072850587e-01	 1.675273530994017e+01
 1.214661909456945e+00	 4.874512303452038e-01	 1.666650069088888e+01
 1.210044074615973e+00	 4.988041500111174e-01	 1.657780025308305e+01
 1.205311180167741e+00	 5.101344884990687e-01	 1.648636320348980e+01
 1.200463236203922e+00	 5.214405616228586e-01	 1.639186894400425e+01
 1.195500284594805e+00	 5.327206795078044e-01	 1.629394430803147e+01
 1.190422399258768e+00	 5.439731473165332e-01	 1.619216074436358e+01
 1.185229686412492e+00	 5.551962659860294e-01	 1.608603145408139e+01
 1.179922284801460e+00	 5.663883329753678e-01	 1.597500848673032e+01
 1.236102447453487e+00	 4.563293365065765e-01	 1.682048888518610e+01
 1.231800734080805e+00	 4.678168834629083e-01	 1.674234147657394e+01
 1.227383343945674e+00	 4.792867421495839e-01	 1.666200230016332e+01
 1.222850193043124e+00	 4.907372384700341e-01	 1.657931142642699e+01
 1.218201228436018e+00	 5.021666904822411e-01	 1.649406672283907e+01
 1.213436428581376e+00	 5.135734090921832e-01	 1.640602116350922e+01
 1.208555803638901e+00	 5.249556987602113e-01	 1.631488006949842e+01
 1.203559395761140e+00	 5.363118582198457e-01	 1.622029828445023e+01
 1.198447279364764e+00	 5.476401812084607e-01	 1.612187729069048e+01
 1.193219561382486e+00	 5.589389572093026e-01	 1.601916227148165e+01
 1.187876381495098e+00	 5.702064722042632e-01	 1.591163912565965e+01
 1.244379468987590e+00	 4.593849471057861e-01	 1.672417619259379e+01
 1.240048951065411e+00	 4.709494154157650e-01	 1.664970765411810e+01
 1.235601981801731e+00	 4.824960770143439e-01	 1.657297348481138e+01
 1.231038476629083e+00	 4.940232465950880e-01	 1.649383389202156e+01
 1.226358382255854e+00	 5.055292309535793e-01	 1.641210962892472e+01
 1.221561676994814e+00	 5.170123296855063e-01	 1.632757926158056e+01
 1.216648371073698e+00	 5.284708358977686e-01	 1.623997635929390e+01
 1.211618506927306e+00	 5.399030369320887e-01	 1.614898661281060e+01
 1.206472159470610e+00	 5.513072151005886e-01	 1.605424488541581e+01
 1.201209436352352e+00	 5.626816484327760e-01	 1.595533220255405e+01
 1.195830478188635e+00	 5.740246114333587e-01	 1.585177268615921e+01
 1.252656490521242e+00	 4.624405577054467e-01	 1.662929937314312e+01
 1.248297168049579e+00	 4.740819473690587e-01	 1.655835075114583e+01
 1.243820619657364e+00	 4.857054118795300e-01	 1.648512607667365e+01
 1.239226760214626e+00	 4.973092547205594e-01	 1.640950652455424e+01
 1.234515536075286e+00	 5.088917714253288e-01	 1.633133705389082e+01
 1.229686925407861e+00	 5.204512502792356e-01	 1.625042363744327e+01
 1.224740938508116e+00	 5.319859730357289e-01	 1.616653040625084e+01
 1.219677618093109e+00	 5.434942156447331e-01	 1.607937671389487e+01
 1.214497039576115e+00	 5.549742489931168e-01	 1.598863412536028e+01
 1.209199311321902e+00	 5.664243396566493e-01	 1.589392333603101e+01
 1.203784574881888e+00	 5.778427506628541e-01	 1.579481102694324e+01
 1.260933512054261e+00	 4.654961683057414e-01	 1.653544443017857e+01
 1.256545385033123e+00	 4.772144793229773e-01	 1.646780246423681e+01
 1.252039257512380e+00	 4.889147467453337e-01	 1.639794566212944e+01
 1.247415043799562e+00	 5.005952628466426e-01	 1.632577699736152e+01
 1.242672689894119e+00	 5.122543118976854e-01	 1.625116695045444e+01
 1.237812173820320e+00	 5.238901708735690e-01	 1.617395070553842e+01
 1.232833505941960e+00	 5.355011101742917e-01	 1.609392525343593e+01
 1.227736729258357e+00	 5.470853943579782e-01	 1.601084640548220e+01
 1.222521919681086e+00	 5.586412828862450e-01	 1.592442572290983e+01
 1.217189186290948e+00	 5.701670308811225e-01	 1.583432736722470e+01
 1.211738671574672e+00	 5.816608898929493e-01	 1.574016487761442e+01
 1.269210533586462e+00	 4.685517789068530e-01	 1.644220323729662e+01
 1.264793602015855e+00	 4.803470112777081e-01	 1.637760164348251e+01
 1.260257895366589e+00	 4.921240816119458e-01	 1.631092604308988e+01
 1.255603327383696e+00	 5.038812709735316e-01	 1.624210203972987e+01
 1.250829843712159e+00	 5.156168523708458e-01	 1.617102694589452e+01
 1.245937422231995e+00	 5.273290914687045e-01	 1.609756695162902e+01
 1.240926073375035e+00	 5.390162473136549e-01	 1.602155419026458e+01
 1.235795840422856e+00	 5.506765730720238e-01	 1.594278370527952e+01
 1.230546799785333e+00	 5.623083167801735e-01	 1.586101032296204e+01
 1.225179061259301e+00	 5.739097221063956e-01	 1.577594543617291e+01
 1.219692768266804e+00	 5.854790291238445e-01	 1.568725370514461e+01
 1.140151801338169e+00	 5.472976368268900e-01	 1.630455407157306e+01
 1.134913533570922e+00	 5.580789807032194e-01	 1.616553821393406e+01
 1.129564842684505e+00	 5.688270330977130e-01	 1.603167096142831e+01
 1.124105957266472e+00	 5.795401434485337e-01	 1.590251839069726e+01
 1.118537138011102e+00	 5.902166607945590e-01	 1.577744965630769e+01
 1.112858677841215e+00	 6.008549345401176e-01	 1.564961077423571e+01
 1.107070902008571e+00	 6.114533152263181e-01	 1.551598113877822e+01
 1.101174168172526e+00	 6.220101553082881e-01	 1.537699443510499e+01
 1.095168866456658e+00	 6.325238099376140e-01	 1.523313027823080e+01
 1.089055419483085e+00	 6.429926377492694e-01	 1.508491454346618e+01
 1.082834282384246e+00	 6.534150016522964e-01	 1.493291953301141e+01
 1.148105898029562e+00	 5.511157760577856e-01	 1.623840968195848e+01
 1.142831086278996e+00	 5.619723343500329e-01	 1.610459715749319e+01
 1.137445081059043e+00	 5.727953689074317e-01	 1.597640622191808e+01
 1.131948112551971e+00	 5.835832176532515e-01	 1.585342896180449e+01
 1.126340443270758e+00	 5.943342181086932e-01	 1.573350806001376e+01
 1.120622368181761e+00	 6.050467081629568e-01	 1.560862844470369e+01
 1.114794214805816e+00	 6.157190268499535e-01	 1.547820061752257e+01
 1.108856343297441e+00	 6.263495151309660e-01	 1.534268482266563e+01
 1.102809146501857e+00	 6.369365166825475e-01	 1.520258668507090e+01
 1.096653049989549e+00	 6.474783786889398e-01	 1.505845754847137e+01
 1.090388512068123e+00	 6.579734526382700e-01	 1.491089464546812e+01
 1.156059994721770e+00	 5.549339152878812e-01	 1.617291850404311e+01
 1.150748638987892e+00	 5.658656879960468e-01	 1.604477932333673e+01
 1.145325319434410e+00	 5.767637047163499e-01	 1.592274604689967e+01
 1.139790267838306e+00	 5.876262918571695e-01	 1.580642811545261e+01
 1.134143748531256e+00	 5.984517754220279e-01	 1.569040902905024e+01
 1.128386058523156e+00	 6.092384817849962e-01	 1.556863824973437e+01
 1.122517527603915e+00	 6.199847384727891e-01	 1.544153192919303e+01
 1.116538518423214e+00	 6.306888749528436e-01	 1.530956679358755e+01
 1.110449426547919e+00	 6.413492234266810e-01	 1.517326439558427e+01
 1.104250680496879e+00	 6.519641196278099e-01	 1.503319147692417e+01
 1.097942741752867e+00	 6.625319036234437e-01	 1.488996015887509e+01
 1.164014091414612e+00	 5.587520545173768e-01	 1.610749177625893e+01
 1.158666191697431e+00	 5.697590416414604e-01	 1.598552431417297e+01
 1.153205557810433e+00	 5.807320405246689e-01	 1.587015826357377e+01
 1.147632423125309e+00	 5.916693660604879e-01	 1.576040989851259e+01
 1.141947053792436e+00	 6.025693327347621e-01	 1.564752429331089e+01
 1.136149748865245e+00	 6.134302554064358e-01	 1.552904679740689e+01
 1.130240840402720e+00	 6.242504500950247e-01	 1.540541700919015e+01
 1.124220693549705e+00	 6.350282347741220e-01	 1.527711822639882e+01
 1.118089706594707e+00	 6.457619301702145e-01	 1.514467801573029e+01
 1.111848311004940e+00	 6.564498605660801e-01	 1.500866861683451e+01
 1.105496971438344e+00	 6.670903546080174e-01	 1.486970717002872e+01
 1.171968188107903e+00	 5.625701937464722e-01	 1.604153963856410e+01
 1.166583744407436e+00	 5.736523952864742e-01	 1.592626927196989e+01
 1.161085796186939e+00	 5.847003763325871e-01	 1.581810689987623e+01
 1.155474578412816e+00	 5.957124402634059e-01	 1.571376163209537e+01
 1.149750359054139e+00	 6.066868900470965e-01	 1.560423118356745e+01
 1.143913439207876e+00	 6.176220290274752e-01	 1.548926566507741e+01
 1.137964153202087e+00	 6.285161617168603e-01	 1.536930211724513e+01
 1.131902868676772e+00	 6.393675945949999e-01	 1.524482065905563e+01
 1.125729986642083e+00	 6.501746369133482e-01	 1.511634511944558e+01
 1.119445941513597e+00	 6.609356015039503e-01	 1.498444349962510e+01
 1.113051201124420e+00	 6.716488055921910e-01	 1.484972825492896e+01
 1.179922284801460e+00	 5.663883329753678e-01	 1.597500848673032e+01
 1.174501297117727e+00	 5.775457489312879e-01	 1.586644832207338e+01
 1.168966034563758e+00	 5.886687121403056e-01	 1.576604005988401e+01
 1.163316733700660e+00	 5.997555144661237e-01	 1.566581666405437e+01
 1.157553664316206e+00	 6.108044473592312e-01	 1.555991270301599e+01
 1.151677129550899e+00	 6.218138026483148e-01	 1.544871150946370e+01
 1.145687466001867e+00	 6.327818733384957e-01	 1.533263798604079e+01
 1.139585043804274e+00	 6.437069544156779e-01	 1.521215947627099e+01
 1.133370266689911e+00	 6.545873436562815e-01	 1.508778647502750e+01
 1.127043572022716e+00	 6.654213424416205e-01	 1.496007316609237e+01
 1.120605430810964e+00	 6.762072565761650e-01	 1.482961777501596e+01
 1.187876381495098e+00	 5.702064722042632e-01	 1.591163912565965e+01
 1.182418849828129e+00	 5.814391025761014e-01	 1.580708831087468e+01
 1.176846272940716e+00	 5.926370479480242e-01	 1.571236889975053e+01
 1.171158888988677e+00	 6.037985886688417e-01	 1.561593091725228e+01
 1.165356969578480e+00	 6.149220046713653e-01	 1.551395760863626e+01
 1.159440819894159e+00	 6.260055762691541e-01	 1.540680618526248e+01
 1.153410778801916e+00	 6.370475849601311e-01	 1.529487997707469e+01
 1.147267218932070e+00	 6.480463142363558e-01	 1.517862410277918e+01
 1.141010546738053e+00	 6.590000503992147e-01	 1.505852627612172e+01
 1.134641202532164e+00	 6.699070833792907e-01	 1.493511743560779e+01
 1.128159660497840e+00	 6.807657075601384e-01	 1.480897218524644e+01
 1.195830478188635e+00	 5.740246114333587e-01	 1.585177268615921e+01
 1.190336402538461e+00	 5.853324562211150e-01	 1.575155450342234e+01
 1.184726511317642e+00	 5.966053837559427e-01	 1.565882022754072e+01
 1.179001044276700e+00	 6.078416628717598e-01	 1.556374589763038e+01
 1.173160274840800e+00	 6.190395619836996e-01	 1.546576050190891e+01
 1.167204510237504e+00	 6.301973498901932e-01	 1.536297687190247e+01
 1.161134091602085e+00	 6.413132965819665e-01	 1.525548824342793e+01
 1.154949394060018e+00	 6.523856740572336e-01	 1.514370820225872e+01
 1.148650826786372e+00	 6.634127571423485e-01	 1.502809237709938e+01
 1.142238833041805e+00	 6.743928243171609e-01	 1.490913917841006e+01
 1.135713890184916e+00	 6.853241585443121e-01	 1.478739034392284e+01
 1.203784574881888e+00	 5.778427506628541e-01	 1.579481102694323e+01
 1.198253955248546e+00	 5.892258098665284e-01	 1.569939465827618e+01
 1.192606749694363e+00	 6.005737195642609e-01	 1.560730521854643e+01
 1.186843199564566e+00	 6.118847370750775e-01	 1.551258290499574e+01
 1.180963580103007e+00	 6.231571192964340e-01	 1.541560378201947e+01
 1.174968200580783e+00	 6.343891235116323e-01	 1.531665620805586e+01
 1.168857404402229e+00	 6.455790082042018e-01	 1.521392789911936e+01
 1.162631569187978e+00	 6.567250338785113e-01	 1.510690988165295e+01
 1.156291106834732e+00	 6.678254638858818e-01	 1.499601653262109e+01
 1.149836463551505e+00	 6.788785652554309e-01	 1.488170459084411e+01
 1.143268119872058e+00	 6.898826095288855e-01	 1.476447382419435e+01
 1.211738671574672e+00	 5.816608898929493e-01	 1.574016487761442e+01
 1.206171507958207e+00	 5.931191635125417e-01	 1.564879175271381e+01
 1.200486988070708e+00	 6.045420553731793e-01	 1.555718422316195e+01
 1.194685354852107e+00	 6.159278112789953e-01	 1.546311240131043e+01
 1.188766885364944e+00	 6.272746766097681e-01	 1.536692506740942e+01
 1.182731890923842e+00	 6.385808971336716e-01	 1.526898500413298e+01
 1.176580717202202e+00	 6.498447198270372e-01	 1.516966945040081e+01
 1.170313744315808e+00	 6.610643937003891e-01	 1.506773190063995e+01
 1.163931386882993e+00	 6.722381706300147e-01	 1.496183464119543e+01
 1.157434094061130e+00	 6.833643061943009e-01	 1.485238347341222e+01
 1.150822349559133e+00	 6.944410605140587e-01	 1.473982722715316e+01
 1.219692768266804e+00	 5.854790291238445e-01	 1.568725370514461e+01
 1.214089060667263e+00	 5.970125171593550e-01	 1.559862282698348e+01
 1.208367226446505e+00	 6.085103911828973e-01	 1.550783640443659e+01
 1.202527510139158e+00	 6.199708854837129e-01	 1.541474408997151e+01
 1.196570190626451e+00	 6.313922339239018e-01	 1.531965958274169e+01
 1.190495581266530e+00	 6.427726707565107e-01	 1.522290886243538e+01
 1.184304030001858e+00	 6.541104314506720e-01	 1.512483071639601e+01
 1.177995919443366e+00	 6.654037535230667e-01	 1.502577730253771e+01
 1.171571666931022e+00	 6.766508773749481e-01	 1.492508699254907e+01
 1.165031724570545e+00	 6.878500471339707e-01	 1.482074951150808e+01
 1.158376579246009e+00	 6.989995115000320e-01	 1.471305849645355e+01
 1.082834282384246e+00	 6.534150016522964e-01	 1.493291953301141e+01
 1.076505943053501e+00	 6.637892698303393e-01	 1.477802736862163e+01
 1.070070922891450e+00	 6.741138171709183e-01	 1.462086903663914e+01
 1.063529775955415e+00	 6.843870254644014e-01	 1.446169877135327e+01
 1.056883088614866e+00	 6.946072839977351e-01	 1.430080249768217e+01
 1.050131479446166e+00	 7.047729903516500e-01	 1.413849762980483e+01
 1.043275599103903e+00	 7.148825511969510e-01	 1.397513268945214e+01
 1.036316130168806e+00	 7.249343830890960e-01	 1.381108673974887e+01
 1.029253786972209e+00	 7.349269132602679e-01	 1.364676863153129e+01
 1.022089315397092e+00	 7.448585804081368e-01	 1.348261606014410e+01
 1.014823492655765e+00	 7.547278354805068e-01	 1.331909443183580e+01
 1.090388512068123e+00	 6.579734526382700e-01	 1.491089464546813e+01
 1.084016024034659e+00	 6.684200953300652e-01	 1.476068293873456e+01
 1.077536110927221e+00	 6.788166703144929e-01	 1.460831000459758e+01
 1.070949330668425e+00	 6.891615480927239e-01	 1.445398570279493e+01
 1.064256273718450e+00	 6.994531067148073e-01	 1.429795229250479e+01
 1.057457562969055e+00	 7.096897325824356e-01	 1.414048431962103e+01
 1.050553853614018e+00	 7.198698212507918e-01	 1.398188831669714e+01
 1.043545832995979e+00	 7.299917782286703e-01	 1.382250231105557e+01
 1.036434220429690e+00	 7.400540197760759e-01	 1.366269513763651e+01
 1.029219767001664e+00	 7.500549736984856e-01	 1.350286555428212e+01
 1.021903255346308e+00	 7.599930801369752e-01	 1.334344115831479e+01
 1.097942741752867e+00	 6.625319036234437e-01	 1.488996015887509e+01
 1.091526105016681e+00	 6.730509208289913e-01	 1.474426384713828e+01
 1.085001298963854e+00	 6.835195234572684e-01	 1.459646685390045e+01
 1.078368885382286e+00	 6.939360707202499e-01	 1.444674640654913e+01
 1.071629458822871e+00	 7.042989294310876e-01	 1.429531274455694e+01
 1.064783646492761e+00	 7.146064748124378e-01	 1.414240908056789e+01
 1.057832108124917e+00	 7.248570913038612e-01	 1.398831136694595e+01
 1.050775535823896e+00	 7.350491733674904e-01	 1.383332786290346e+01
 1.043614653887864e+00	 7.451811262911517e-01	 1.367779849844773e+01
 1.036350218606865e+00	 7.552513669881316e-01	 1.352209403255150e+01
 1.028983018037402e+00	 7.652583247927758e-01	 1.336661500416662e+01
 1.105496971438344e+00	 6.670903546080174e-01	 1.486970717002872e+01
 1.099036185999435e+00	 6.776817463273176e-01	 1.472839900825408e+01
 1.092466487001211e+00	 6.882223765994447e-01	 1.458500290869405e+01
 1.085788440096861e+00	 6.987105933471784e-01	 1.443967493651224e+01
 1.079002643927987e+00	 7.091447521467743e-01	 1.429260468932640e+01
 1.072109730017137e+00	 7.195232170418521e-01	 1.414401531757444e+01
 1.065110362636457e+00	 7.298443613563518e-01	 1.399416334291225e+01
 1.058005238652415e+00	 7.401065685057445e-01	 1.384333826939405e+01
 1.050795087346593e+00	 7.503082328056783e-01	 1.369186198335212e+01
 1.043480670212565e+00	 7.604477602772499e-01	 1.354008793911036e+01
 1.036062780728931e+00	 7.705235694480761e-01	 1.338840012892816e+01
 1.113051201124420e+00	 6.716488055921910e-01	 1.484972825492896e+01
 1.106546266982786e+00	 6.823125718252437e-01	 1.471271806757824e+01
 1.099931675039156e+00	 6.929252297412211e-01	 1.457358155608738e+01
 1.093207994812010e+00	 7.034851159737091e-01	 1.443246482726199e+01
 1.086375829033657e+00	 7.139905748620659e-01	 1.428954795234589e+01
 1.079435813542042e+00	 7.244399592708750e-01	 1.414504503243723e+01
 1.072388617148494e+00	 7.348316314084572e-01	 1.399920405426773e+01
 1.065234941481394e+00	 7.451639636436211e-01	 1.385230653074453e+01
 1.057975520805739e+00	 7.554353393198385e-01	 1.370466692186575e+01
 1.050611121818636e+00	 7.656441535660167e-01	 1.355663183288599e+01
 1.043142543420778e+00	 7.757888141030427e-01	 1.340857898792570e+01
 1.120605430810964e+00	 6.762072565761650e-01	 1.482961777501596e+01
 1.114056347966599e+00	 6.869433973229701e-01	 1.469685174697547e+01
 1.107396863077554e+00	 6.976280828827985e-01	 1.456186662708897e+01
 1.100627549527593e+00	 7.082596386000406e-01	 1.442480950698934e+01
 1.093749014139739e+00	 7.188363975771588e-01	 1.428586179024443e+01
 1.086761897067330e+00	 7.293567014997019e-01	 1.414523928888680e+01
 1.079666871660883e+00	 7.398189014603694e-01	 1.400319210239361e+01
 1.072464644310690e+00	 7.502213587813089e-01	 1.386000427317432e+01
 1.065155954265166e+00	 7.605624458338158e-01	 1.371599321388549e+01
 1.057741573424948e+00	 7.708405468546072e-01	 1.357150890320834e+01
 1.050222306112825e+00	 7.810540587578422e-01	 1.342693284809400e+01
 1.128159660497840e+00	 6.807657075601384e-01	 1.480897218524644e+01
 1.121566428950742e+00	 6.915742228206959e-01	 1.468043219044695e+01
 1.114862051116267e+00	 7.023309360243754e-01	 1.454952277677670e+01
 1.108047104243473e+00	 7.130341612263716e-01	 1.441640270855927e+01
 1.101122199246091e+00	 7.236822202922523e-01	 1.428126532896396e+01
 1.094087980592859e+00	 7.342734437285288e-01	 1.414433867400754e+01
 1.086945126173480e+00	 7.448061715122818e-01	 1.400588536083558e+01
 1.079694347140162e+00	 7.552787539189969e-01	 1.386620224401251e+01
 1.072336387724735e+00	 7.656895523477931e-01	 1.372561983485808e+01
 1.064872025031371e+00	 7.760369401431979e-01	 1.358450148024165e+01
 1.057302068804957e+00	 7.863193034126421e-01	 1.344324229866901e+01
 1.135713890184916e+00	 6.853241585443121e-01	 1.478739034392284e+01
 1.129076509935079e+00	 6.962050483186220e-01	 1.466309331034941e+01
 1.122327239155160e+00	 7.070337891661519e-01	 1.453621586373777e+01
 1.115466658959509e+00	 7.178086838529022e-01	 1.440693887878587e+01
 1.108495384352572e+00	 7.285280430075431e-01	 1.427547799927255e+01
 1.101414064118486e+00	 7.391901859575513e-01	 1.414208375618041e+01
 1.094223380686142e+00	 7.497934415643868e-01	 1.400704145166074e+01
 1.086924049969666e+00	 7.603361490568736e-01	 1.387067080224878e+01
 1.079516821184309e+00	 7.708166588619533e-01	 1.373332533610173e+01
 1.072002476637777e+00	 7.812333334319643e-01	 1.359539154045738e+01
 1.064381831497056e+00	 7.915845480676086e-01	 1.345728775699520e+01
 1.143268119872058e+00	 6.898826095288855e-01	 1.476447382419435e+01
 1.136586590919476e+00	 7.008358738169480e-01	 1.464447113404509e+01
 1.129792427194096e+00	 7.117366423083283e-01	 1.452161332881148e+01
 1.122886213675563e+00	 7.225832064798309e-01	 1.439611358600486e+01
 1.115868569459039e+00	 7.333738657232296e-01	 1.426821996969877e+01
 1.108740147644065e+00	 7.441069281869657e-01	 1.413821553971020e+01
 1.101501635198725e+00	 7.547807116168771e-01	 1.400641821790715e+01
 1.094153752799062e+00	 7.653935441951275e-01	 1.387318040473882e+01
 1.086697254643750e+00	 7.759437653764797e-01	 1.373888834050683e+01
 1.079132928244035e+00	 7.864297267210824e-01	 1.360396120737675e+01
 1.071461594189006e+00	 7.968497927229087e-01	 1.346884996967202e+01
 1.150822349559133e+00	 6.944410605140587e-01	 1.473982722715316e+01
 1.144096671903800e+00	 7.054666993158739e-01	 1.462420415096272e+01
 1.137257615232939e+00	 7.164394954511032e-01	 1.450538457316704e+01
 1.130305768391496e+00	 7.273577291073564e-01	 1.438362392602226e+01
 1.123241754565352e+00	 7.382196884395098e-01	 1.425921257700737e+01
 1.116066231169455e+00	 7.490236704169675e-01	 1.413247591628912e+01
 1.108779889711084e+00	 7.597679816699466e-01	 1.400377419230510e+01
 1.101383455628205e+00	 7.704509393339470e-01	 1.387350208826263e+01
 1.093877688102920e+00	 7.810708718915549e-01	 1.374208803382530e+01
 1.086263379850017e+00	 7.916261200107276e-01	 1.360999324780170e+01
 1.078541356880689e+00	 8.021150373787092e-01	 1.347771050925474e+01
 1.158376579246009e+00	 6.989995115000320e-01	 1.471305849645355e+01
 1.151606752887915e+00	 7.100975248155994e-01	 1.460193366005052e+01
 1.144722803271552e+00	 7.211423485946773e-01	 1.448720133574731e+01
 1.137725323107168e+00	 7.321322517356784e-01	 1.436916892651239e+01
 1.130614939671369e+00	 7.430655111565818e-01	 1.424817875432678e+01
 1.123392314694512e+00	 7.539404126477526e-01	 1.412460811344074e+01
 1.116058144223075e+00	 7.647552517237869e-01	 1.399886906244029e+01
 1.108613158456955e+00	 7.755083344735211e-01	 1.387140794762725e+01
 1.101058121561683e+00	 7.861979784073621e-01	 1.374270465175215e+01
 1.093393831455592e+00	 7.968225133010768e-01	 1.361327156373896e+01
 1.085621119571988e+00	 8.073802820351770e-01	 1.348365226671159e+01
 1.014823492655765e+00	 7.547278354805068e-01	 1.331909443183580e+01
 1.007455866878029e+00	 7.645348030033171e-01	 1.315336896121422e+01
 9.999885077428706e-01	 7.742762720958096e-01	 1.298283541626640e+01
 9.924222895156739e-01	 7.839507287258528e-01	 1.280826212301521e+01
 9.847581167113650e-01	 7.935566741776144e-01	 1.263044271008738e+01
 9.769969237553450e-01	 8.030926258071813e-01	 1.245019385334231e+01
 9.691396746219908e-01	 8.125571177893284e-01	 1.226835284477235e+01
 9.611873624510034e-01	 8.219487018546621e-01	 1.208577499339678e+01
 9.531410091419071e-01	 8.312659480163649e-01	 1.190333086704550e+01
 9.450016649270306e-01	 8.405074452857859e-01	 1.172190338506632e+01
 9.367704079233418e-01	 8.496718023761349e-01	 1.154238477308731e+01
 1.021903255346308e+00	 7.599930801369752e-01	 1.334344115831479e+01
 1.014484230441013e+00	 7.698684644862169e-01	 1.318157748935540e+01
 1.006964776403574e+00	 7.796778934652291e-01	 1.301470738466321e+01
 9.993457735985644e-01	 7.894198424794652e-01	 1.284363577111325e+01
 9.916281328511281e-01	 7.990928023575281e-01	 1.266919467012472e+01
 9.838127951055509e-01	 8.086952801120634e-01	 1.249224084838703e+01
 9.759007310612396e-01	 8.182257996917395e-01	 1.231365328290996e+01
 9.678929407863931e-01	 8.276829027235307e-01	 1.213433044839509e+01
 9.597904533096691e-01	 8.370651492445328e-01	 1.195518743615369e+01
 9.515943261901918e-01	 8.463711184225460e-01	 1.177715291499001e+01
 9.433056450662566e-01	 8.555994092646793e-01	 1.160116594562431e+01
 1.028983018037402e+00	 7.652583247927758e-01	 1.336661500416662e+01
 1.021512594004457e+00	 7.752021259684926e-01	 1.320851981100366e+01
 1.013941045064636e+00	 7.850795148340746e-01	 1.304527620720918e+01
 1.006269257681702e+00	 7.948889562325552e-01	 1.287771412869521e+01
 9.984981489910247e-01	 8.046289305369722e-01	 1.270669227649595e+01
 9.906286664557780e-01	 8.142979344165282e-01	 1.253309568797518e+01
 9.826617875004017e-01	 8.238944815937811e-01	 1.235783311232904e+01
 9.745985191215946e-01	 8.334171035920709e-01	 1.218183419863459e+01
 9.664398974771549e-01	 8.428643504724043e-01	 1.200604650597956e+01
 9.581869874530051e-01	 8.522347915590314e-01	 1.183143234646267e+01
 9.498408822087722e-01	 8.615270161529561e-01	 1.165896547306343e+01
 1.036062780728931e+00	 7.705235694480761e-01	 1.338840012892816e+01
 1.028540957568261e+00	 7.805357874503007e-01	 1.323397333382410e+01
 1.020917313725976e+00	 7.904811362024879e-01	 1.307430937134044e+01
 1.013192741765033e+00	 8.003580699852531e-01	 1.291025182139291e+01
 1.005368165131026e+00	 8.101650587160644e-01	 1.274267458321651e+01
 9.974445378060230e-01	 8.199005887206797e-01	 1.257247938125307e+01
 9.894228439394991e-01	 8.295631634955454e-01	 1.240059306520963e+01
 9.813040974566558e-01	 8.391513044603643e-01	 1.222796471276809e+01
 9.730893416444341e-01	 8.486635517000538e-01	 1.205556254477678e+01
 9.647796487155581e-01	 8.580984646953105e-01	 1.188437066406417e+01
 9.563761193509887e-01	 8.674546230410330e-01	 1.171538563028592e+01
 1.043142543420778e+00	 7.757888141030427e-01	 1.340857898792570e+01
 1.035569321132326e+00	 7.858694489317968e-01	 1.325771404115164e+01
 1.027893582387516e+00	 7.958827575706146e-01	 1.310157328315080e+01
 1.020116225848501e+00	 8.058271837376898e-01	 1.294100279310449e+01
 1.012238181271103e+00	 8.157011868949218e-01	 1.277688041230957e+01
 1.004260409156283e+00	 8.255032430246221e-01	 1.261011319876721e+01
 9.961839003785548e-01	 8.352318453971241e-01	 1.244163466570221e+01
 9.880096757916245e-01	 8.448855053284937e-01	 1.227240181270946e+01
 9.797387858115763e-01	 8.544627529275555e-01	 1.210339195963170e+01
 9.713723099779371e-01	 8.639621378314525e-01	 1.193559939464494e+01
 9.629113564930061e-01	 8.733822299289763e-01	 1.177003184935790e+01
 1.050222306112825e+00	 7.810540587578422e-01	 1.342693284809399e+01
 1.042597684696553e+00	 7.912031104131366e-01	 1.327951700371180e+01
 1.034869851049178e+00	 8.012843789385971e-01	 1.312683377192678e+01
 1.027039709932053e+00	 8.112962974899961e-01	 1.296972080046380e+01
 1.019108197411227e+00	 8.212373150736622e-01	 1.280904883554446e+01
 1.011076280506557e+00	 8.311058973284604e-01	 1.264571913902058e+01
 1.002944956817593e+00	 8.409005272986109e-01	 1.248066067907136e+01
 9.947152541265479e-01	 8.506197061965409e-01	 1.231482710335578e+01
 9.863882299786499e-01	 8.602619541549832e-01	 1.214919350497945e+01
 9.779649712402301e-01	 8.698258109675258e-01	 1.198475299307513e+01
 9.694465936349229e-01	 8.793098368168527e-01	 1.182251308118218e+01
 1.057302068804957e+00	 7.863193034126421e-01	 1.344324229866901e+01
 1.049626048260840e+00	 7.965367718944765e-01	 1.329915688645200e+01
 1.041846119710883e+00	 8.066860003065802e-01	 1.314985659013557e+01
 1.033963194015633e+00	 8.167654112423022e-01	 1.299615990320704e+01
 1.025978213551370e+00	 8.267734432524022e-01	 1.283891965260735e+01
 1.017892151856842e+00	 8.367085516322990e-01	 1.267902039208235e+01
 1.009706013256637e+00	 8.465692092000973e-01	 1.251737555858892e+01
 1.001420832461473e+00	 8.563539070645878e-01	 1.235492440081944e+01
 9.930376741457240e-01	 8.660611553824104e-01	 1.219262869044606e+01
 9.845576325025225e-01	 8.756894841035987e-01	 1.203146922818701e+01
 9.759818307768401e-01	 8.852374437047291e-01	 1.187244215824851e+01
 1.064381831497056e+00	 7.915845480676086e-01	 1.345728775699520e+01
 1.056654411825089e+00	 8.018704333759725e-01	 1.331640845070774e+01
 1.048822388372552e+00	 8.120876216747063e-01	 1.317040790907575e+01
 1.040886678099189e+00	 8.222345249947390e-01	 1.302007495062600e+01
 1.032848229691502e+00	 8.323095714312597e-01	 1.286623386587144e+01
 1.024708023207134e+00	 8.423112059362412e-01	 1.270974180038842e+01
 1.016467069695709e+00	 8.522378911016759e-01	 1.255148589027933e+01
 1.008126410796449e+00	 8.620881079327173e-01	 1.239238015923880e+01
 9.996871183128678e-01	 8.718603566099119e-01	 1.223336218805043e+01
 9.911502937649018e-01	 8.815531572397404e-01	 1.207538956890237e+01
 9.825170679188570e-01	 8.911650505926724e-01	 1.191943615843237e+01
 1.071461594189006e+00	 7.968497927229087e-01	 1.346884996967202e+01
 1.063682775389200e+00	 8.072040948577802e-01	 1.333104705192274e+01
 1.055798657034108e+00	 8.174892430431202e-01	 1.318825481039401e+01
 1.047810162182663e+00	 8.277036387474366e-01	 1.304122206429055e+01
 1.039718245831595e+00	 8.378456996103520e-01	 1.289073415192397e+01
 1.031523894557432e+00	 8.479138602403927e-01	 1.273761031686210e+01
 1.023228126134833e+00	 8.579065730034401e-01	 1.258270083561753e+01
 1.014831989131521e+00	 8.678223088010109e-01	 1.242688389623303e+01
 1.006336562480151e+00	 8.776595578375613e-01	 1.227106223879433e+01
 9.977429550274552e-01	 8.874168303760197e-01	 1.211615957053626e+01
 9.890523050610736e-01	 8.970926574807490e-01	 1.196311676979172e+01
 1.078541356880689e+00	 8.021150373787092e-01	 1.347771050925474e+01
 1.070711138953074e+00	 8.125377563400561e-01	 1.334284913312480e+01
 1.062774925695471e+00	 8.228908644119648e-01	 1.320316577365543e+01
 1.054733646266003e+00	 8.331727525005264e-01	 1.305935911721077e+01
 1.046588261971619e+00	 8.433818277897960e-01	 1.291216532999829e+01
 1.038339765907732e+00	 8.535165145448569e-01	 1.276235546047821e+01
 1.029989182574033e+00	 8.635752549054815e-01	 1.261073257227430e+01
 1.021537567466739e+00	 8.735565096695507e-01	 1.245812861706409e+01
 1.012986006647641e+00	 8.834587590654330e-01	 1.230540105866852e+01
 1.004335616290269e+00	 8.932805035125048e-01	 1.215342926126741e+01
 9.955875422035889e-01	 9.030202643690258e-01	 1.200311065631820e+01
 1.085621119571988e+00	 8.073802820351770e-01	 1.348365226671158e+01
 1.077739502516610e+00	 8.178714178229555e-01	 1.335159271435244e+01
 1.069751194356563e+00	 8.282924857813846e-01	 1.321491116014885e+01
 1.061657130349154e+00	 8.386418662541383e-01	 1.307424620960161e+01
 1.053458278111545e+00	 8.489179559697088e-01	 1.293027482745276e+01
 1.045155637258033e+00	 8.591191688497392e-01	 1.278370976938785e+01
 1.036750239013331e+00	 8.692439368078929e-01	 1.263529673299604e+01
 1.028243145802149e+00	 8.792907105384193e-01	 1.248581123756437e+01
 1.019635450815409e+00	 8.892579602936008e-01	 1.233605524410292e+01
 1.010928277553431e+00	 8.991441766492650e-01	 1.218685352877061e+01
 1.002122779346504e+00	 9.089478712575699e-01	 1.203904982459775e+01
 9.367704079233418e-01	 8.496718023761349e-01	 1.154238477308731e+01
 9.284497634436332e-01	 8.587561131858535e-01	 1.136239183264476e+01
 9.200394596443375e-01	 8.677606052844652e-01	 1.117931027465044e+01
 9.115406399879045e-01	 8.766839660711286e-01	 1.099377422671109e+01
 9.029544738081481e-01	 8.855249053128216e-01	 1.080640549223228e+01
 8.942821557703193e-01	 8.942821557703196e-01	 1.061781052928504e+01
 8.855249053128216e-01	 9.029544738081482e-01	 1.042857739163814e+01
 8.766839660711283e-01	 9.115406399879040e-01	 1.023927264795797e+01
 8.677606052844652e-01	 9.200394596443375e-01	 1.005043829567311e+01
 8.587561131858534e-01	 9.284497634436334e-01	 9.862588686390509e+00
 8.496718023761349e-01	 9.367704079233418e-01	 9.676207480049687e+00
 9.433056450662566e-01	 8.555994092646793e-01	 1.160116594562431e+01
 9.349269528681248e-01	 8.647470953953964e-01	 1.142476048288050e+01
 9.264579758557512e-01	 8.738144059718300e-01	 1.124518764772626e+01
 9.178998654687733e-01	 8.828000192359826e-01	 1.106304859572507e+01
 9.092537991986805e-01	 8.917026359537202e-01	 1.087893068639159e+01
 9.005209800451207e-01	 9.005209800451206e-01	 1.069340440998333e+01
 8.917026359537202e-01	 9.092537991986804e-01	 1.050702027442736e+01
 8.828000192359825e-01	 9.178998654687734e-01	 1.032030566892762e+01
 8.738144059718299e-01	 9.264579758557512e-01	 1.013376172131859e+01
 8.647470953953961e-01	 9.349269528681250e-01	 9.947860166645185e+00
 8.555994092646789e-01	 9.433056450662566e-01	 9.763040244765063e+00
 9.498408822087722e-01	 8.615270161529561e-01	 1.165896547306342e+01
 9.414041422921891e-01	 8.707380776046652e-01	 1.148607303214979e+01
 9.328764920667283e-01	 8.798682066589015e-01	 1.130986573915170e+01
 9.242590909492125e-01	 8.889160724005157e-01	 1.113092728959965e+01
 9.155531245888028e-01	 8.978803665942670e-01	 1.094982667417435e+01
 9.067598043195394e-01	 9.067598043195393e-01	 1.076711502796275e+01
 8.978803665942670e-01	 9.155531245888026e-01	 1.058332243683067e+01
 8.889160724005154e-01	 9.242590909492127e-01	 1.039895471806421e+01
 8.798682066589014e-01	 9.328764920667287e-01	 1.021449019297265e+01
 8.707380776046647e-01	 9.414041422921891e-01	 1.003037646959055e+01
 8.615270161529561e-01	 9.498408822087723e-01	 9.847027253953694e+00
 9.563761193509887e-01	 8.674546230410330e-01	 1.171538563028592e+01
 9.478813317159320e-01	 8.767290598137282e-01	 1.154590946442373e+01
 9.392950082773779e-01	 8.859220073457531e-01	 1.137291193070483e+01
 9.306183164293290e-01	 8.950321255648077e-01	 1.119697448386271e+01
 9.218524499786171e-01	 9.040580972345493e-01	 1.101866352258352e+01
 9.129986285936698e-01	 9.129986285936695e-01	 1.083852713589243e+01
 9.040580972345493e-01	 9.218524499786170e-01	 1.065709180265445e+01
 8.950321255648074e-01	 9.306183164293292e-01	 1.047485906200218e+01
 8.859220073457528e-01	 9.392950082773779e-01	 1.029230217307611e+01
 8.767290598137280e-01	 9.478813317159325e-01	 1.010986278293485e+01
 8.674546230410328e-01	 9.563761193509887e-01	 9.927947621853251e+00
 9.629113564930061e-01	 8.733822299289763e-01	 1.177003184935790e+01
 9.543585211394608e-01	 8.827200420226536e-01	 1.160385339474692e+01
 9.457135244878090e-01	 8.919758080324571e-01	 1.143389742585076e+01
 9.369775419092313e-01	 9.011481787289394e-01	 1.126075809196684e+01
 9.281517753682257e-01	 9.102358278746556e-01	 1.108501468756202e+01
 9.192374528676087e-01	 9.192374528676086e-01	 1.090722827057713e+01
 9.102358278746558e-01	 9.281517753682260e-01	 1.072793822885679e+01
 9.011481787289390e-01	 9.369775419092313e-01	 1.054765881323405e+01
 8.919758080324569e-01	 9.457135244878091e-01	 1.036687565641220e+01
 8.827200420226536e-01	 9.543585211394611e-01	 1.018604229728433e+01
 8.733822299289763e-01	 9.629113564930061e-01	 1.000557673072128e+01
 9.694465936349229e-01	 8.793098368168527e-01	 1.182251308118218e+01
 9.608357105628825e-01	 8.887110242315107e-01	 1.165949241061713e+01
 9.521320406981307e-01	 8.980296087190884e-01	 1.149239757948910e+01
 9.433367673890262e-01	 9.072642318929911e-01	 1.132185009176341e+01
 9.344511007577324e-01	 9.164135585146743e-01	 1.114845734526889e+01
 9.254762771414523e-01	 9.254762771414523e-01	 1.097280909682042e+01
 9.164135585146742e-01	 9.344511007577320e-01	 1.079547386948726e+01
 9.072642318929910e-01	 9.433367673890262e-01	 1.061699532131405e+01
 8.980296087190881e-01	 9.521320406981308e-01	 1.043788859545416e+01
 8.887110242315106e-01	 9.608357105628831e-01	 1.025863667220742e+01
 8.793098368168526e-01	 9.694465936349231e-01	 1.007968674386677e+01
 9.759818307768401e-01	 8.852374437047291e-01	 1.187244215824851e+01
 9.673128999863048e-01	 8.947020064403680e-01	 1.171241841520208e+01
 9.585505569084526e-01	 9.040834094057193e-01	 1.154799222991331e+01
 9.496959928688209e-01	 9.133802850570429e-01	 1.137982685421523e+01
 9.407504261472385e-01	 9.225912891546927e-01	 1.120857272528298e+01
 9.317151014152957e-01	 9.317151014152956e-01	 1.103486375257824e+01
 9.225912891546927e-01	 9.407504261472386e-01	 1.085931353996529e+01
 9.133802850570429e-01	 9.496959928688209e-01	 1.068251156314730e+01
 9.040834094057193e-01	 9.585505569084530e-01	 1.050501932325919e+01
 8.947020064403676e-01	 9.673128999863054e-01	 1.032736649802513e+01
 8.852374437047289e-01	 9.759818307768400e-01	 1.015004711233142e+01
 9.825170679188570e-01	 8.911650505926724e-01	 1.191943615843237e+01
 9.737900894098337e-01	 9.006929886492934e-01	 1.176222797230603e+01
 9.649690731188835e-01	 9.101372100924239e-01	 1.160026603287937e+01
 9.560552183487234e-01	 9.194963382211753e-01	 1.143426947424391e+01
 9.470497515368475e-01	 9.287690197947991e-01	 1.126494644564439e+01
 9.379539256892346e-01	 9.379539256892346e-01	 1.109299019534189e+01
 9.287690197947989e-01	 9.470497515368473e-01	 1.091907508168115e+01
 9.194963382211746e-01	 9.560552183487231e-01	 1.074385253240870e+01
 9.101372100924237e-01	 9.649690731188838e-01	 1.056794697402114e+01
 9.006929886492934e-01	 9.737900894098341e-01	 1.039195175353060e+01
 8.911650505926724e-01	 9.825170679188571e-01	 1.021642507551419e+01
 9.890523050610736e-01	 8.970926574807490e-01	 1.196311676979172e+01
 9.802672788335767e-01	 9.066839708583566e-01	 1.180852265300629e+01
 9.713875893295331e-01	 9.161910107792749e-01	 1.164880879768638e+01
 9.624144438288397e-01	 9.256123913854671e-01	 1.148476410361377e+01
 9.533490769266617e-01	 9.349467504350817e-01	 1.131716884964871e+01
 9.441927499633654e-01	 9.441927499633652e-01	 1.114679054969526e+01
 9.349467504350812e-01	 9.533490769266614e-01	 1.097437972690618e+01
 9.256123913854669e-01	 9.624144438288401e-01	 1.080066562813067e+01
 9.161910107792747e-01	 9.713875893295333e-01	 1.062635190139130e+01
 9.066839708583559e-01	 9.802672788335772e-01	 1.045211225982291e+01
 8.970926574807490e-01	 9.890523050610733e-01	 1.027858615602123e+01
 9.955875422035889e-01	 9.030202643690258e-01	 1.200311065631819e+01
 9.867444682576400e-01	 9.126749530676246e-01	 1.185090938388334e+01
 9.778061055405098e-01	 9.222448114663463e-01	 1.169321582517688e+01
 9.687736693092788e-01	 9.317284445499999e-01	 1.153090228575768e+01
 9.596484023167835e-01	 9.411244810756280e-01	 1.136483534431332e+01
 9.504315742377832e-01	 9.504315742377832e-01	 1.119587145599028e+01
 9.411244810756282e-01	 9.596484023167835e-01	 1.102485246399606e+01
 9.317284445499999e-01	 9.687736693092789e-01	 1.085260104249791e+01
 9.222448114663458e-01	 9.778061055405101e-01	 1.067991609466977e+01
 9.126749530676247e-01	 9.867444682576409e-01	 1.050756813043506e+01
 9.030202643690258e-01	 9.955875422035888e-01	 1.033629464900545e+01
 1.002122779346504e+00	 9.089478712575699e-01	 1.203904982459774e+01
 9.932216576821324e-01	 9.186659352771679e-01	 1.188900079677028e+01
 9.842246217519234e-01	 9.282986121537109e-01	 1.173308824756798e+01
 9.751328947901475e-01	 9.378444977148536e-01	 1.157228129245643e+01
 9.659477277073155e-01	 9.473022117165263e-01	 1.140754674044009e+01
 9.566703985125847e-01	 9.566703985125846e-01	 1.123984442009073e+01
 9.473022117165264e-01	 9.659477277073159e-01	 1.107012240287543e+01
 9.378444977148535e-01	 9.751328947901475e-01	 1.089931214788683e+01
 9.282986121537108e-01	 9.842246217519237e-01	 1.072832359296366e+01
 9.186659352771674e-01	 9.932216576821324e-01	 1.055804021792616e+01
 9.089478712575698e-01	 1.002122779346504e+00	 1.038931410624743e+01
 8.496718023761349e-01	 9.367704079233418e-01	 9.676207480049690e+00
 8.405074452857861e-01	 9.450016649270302e-01	 9.489313245954065e+00
 8.312659480163652e-01	 9.531410091419068e-01	 9.300145382970914e+00
 8.219487018546624e-01	 9.611873624510029e-01	 9.109374492722949e+00
 8.125571177893285e-01	 9.691396746219902e-01	 8.917635544154960e+00
 8.030926258071817e-01	 9.769969237553447e-01	 8.725524876599680e+00
 7.935566741776152e-01	 9.847581167113648e-01	 8.533597329377127e+00
 7.839507287258533e-01	 9.924222895156736e-01	 8.342363515005127e+00
 7.742762720958096e-01	 9.999885077428703e-01	 8.152287252562902e+00
 7.645348030033176e-01	 1.007455866878029e+00	 7.963783177099955e+00
 7.547278354805067e-01	 1.014823492655765e+00	 7.777214540243076e+00
 8.555994092646789e-01	 9.433056450662566e-01	 9.763040244765058e+00
 8.463711184225464e-01	 9.515943261901914e-01	 9.577366342537633e+00
 8.370651492445332e-01	 9.597904533096687e-01	 9.389198613511599e+00
 8.276829027235312e-01	 9.678929407863927e-01	 9.199276174224366e+00
 8.182257996917399e-01	 9.759007310612396e-01	 9.008303959685756e+00
 8.086952801120642e-01	 9.838127951055508e-01	 8.816949497004920e+00
 7.990928023575288e-01	 9.916281328511279e-01	 8.625839805501927e+00
 7.894198424794654e-01	 9.993457735985641e-01	 8.435558441344281e+00
 7.796778934652294e-01	 1.006964776403574e+00	 8.246642704200498e+00
 7.698684644862173e-01	 1.014484230441013e+00	 8.059581022744798e+00
 7.599930801369751e-01	 1.021903255346308e+00	 7.874810535087827e+00
 8.615270161529561e-01	 9.498408822087723e-01	 9.847027253953694e+00
 8.522347915590320e-01	 9.581869874530049e-01	 9.662593748369797e+00
 8.428643504724047e-01	 9.664398974771545e-01	 9.475567585699922e+00
 8.334171035920713e-01	 9.745985191215947e-01	 9.286729354900320e+00
 8.238944815937815e-01	 9.826617875004013e-01	 9.096825912755193e+00
 8.142979344165284e-01	 9.906286664557773e-01	 8.906566965215642e+00
 8.046289305369726e-01	 9.984981489910245e-01	 8.716621776382233e+00
 7.948889562325555e-01	 1.006269257681702e+00	 8.527616024087770e+00
 7.850795148340747e-01	 1.013941045064636e+00	 8.340128820478665e+00
 7.752021259684930e-01	 1.021512594004457e+00	 8.154689915316101e+00
 7.652583247927758e-01	 1.028983018037402e+00	 7.971777098943104e+00
 8.674546230410328e-01	 9.563761193509887e-01	 9.927947621853257e+00
 8.580984646953110e-01	 9.647796487155580e-01	 9.744822282867476e+00
 8.486635517000543e-01	 9.730893416444338e-01	 9.559107783921164e+00
 8.391513044603649e-01	 9.813040974566558e-01	 9.371599757798696e+00
 8.295631634955454e-01	 9.894228439394983e-01	 9.183059566306492e+00
 8.199005887206799e-01	 9.974445378060225e-01	 8.994210725797640e+00
 8.101650587160646e-01	 1.005368165131026e+00	 8.805735462695196e+00
 8.003580699852534e-01	 1.013192741765032e+00	 8.618271418841804e+00
 7.904811362024884e-01	 1.020917313725975e+00	 8.432408525931578e+00
 7.805357874503013e-01	 1.028540957568261e+00	 8.248686067588842e+00
 7.705235694480760e-01	 1.036062780728931e+00	 8.067589946852650e+00
 8.733822299289763e-01	 9.629113564930061e-01	 1.000557673072128e+01
 8.639621378314527e-01	 9.713723099779367e-01	 9.823873459144345e+00
 8.544627529275558e-01	 9.797387858115761e-01	 9.639668322241315e+00
 8.448855053284938e-01	 9.880096757916240e-01	 9.453746167017400e+00
 8.352318453971246e-01	 9.961839003785545e-01	 9.266856055834763e+00
 8.255032430246227e-01	 1.004260409156283e+00	 9.079707571927944e+00
 8.157011868949223e-01	 1.012238181271103e+00	 8.892967258459132e+00
 8.058271837376902e-01	 1.020116225848501e+00	 8.707255211762334e+00
 7.958827575706149e-01	 1.027893582387516e+00	 8.523141848849084e+00
 7.858694489317971e-01	 1.035569321132326e+00	 8.341144868530940e+00
 7.757888141030426e-01	 1.043142543420778e+00	 8.161726424690190e+00
 8.793098368168526e-01	 9.694465936349231e-01	 1.007968674386677e+01
 8.698258109675260e-01	 9.779649712402294e-01	 9.899564037967647e+00
 8.602619541549834e-01	 9.863882299786495e-01	 9.717092521495269e+00
 8.506197061965413e-01	 9.947152541265475e-01	 9.533021010680738e+00
 8.409005272986111e-01	 1.002944956817593e+00	 9.348060061564720e+00
 8.311058973284610e-01	 1.011076280506557e+00	 9.162878190657743e+00
 8.212373150736625e-01	 1.019108197411227e+00	 8.978098233845095e+00
 8.112962974899967e-01	 1.027039709932052e+00	 8.794293864973863e+00
 8.012843789385975e-01	 1.034869851049177e+00	 8.611986294961744e+00
 7.912031104131372e-01	 1.042597684696552e+00	 8.431641171532096e+00
 7.810540587578422e-01	 1.050222306112825e+00	 8.253665698826602e+00
 8.852374437047289e-01	 9.759818307768400e-01	 1.015004711233142e+01
 8.756894841035990e-01	 9.845576325025219e-01	 9.971706573514263e+00
 8.660611553824107e-01	 9.930376741457235e-01	 9.791218477034501e+00
 8.563539070645882e-01	 1.001420832461473e+00	 9.609270934113695e+00
 8.465692092000975e-01	 1.009706013256636e+00	 9.426510371026650e+00
 8.367085516322992e-01	 1.017892151856841e+00	 9.243537699410775e+00
 8.267734432524030e-01	 1.025978213551370e+00	 9.060904630679227e+00
 8.167654112423023e-01	 1.033963194015633e+00	 8.879110156725481e+00
 8.066860003065806e-01	 1.041846119710883e+00	 8.698597218481986e+00
 7.965367718944770e-01	 1.049626048260839e+00	 8.519749583145433e+00
 7.863193034126421e-01	 1.057302068804957e+00	 8.342888949991881e+00
 8.911650505926724e-01	 9.825170679188571e-01	 1.021642507551419e+01
 8.815531572397407e-01	 9.911502937649013e-01	 1.004010995131034e+01
 8.718603566099122e-01	 9.996871183128673e-01	 9.861879617565956e+00
 8.620881079327176e-01	 1.008126410796448e+00	 9.682337363669895e+00
 8.522378911016765e-01	 1.016467069695709e+00	 9.502040432476843e+00
 8.423112059362416e-01	 1.024708023207134e+00	 9.321496174127304e+00
 8.323095714312596e-01	 1.032848229691502e+00	 9.141158350977625e+00
 8.222345249947395e-01	 1.040886678099188e+00	 8.961423616530615e+00
 8.120876216747067e-01	 1.048822388372552e+00	 8.782628190620487e+00
 8.018704333759732e-01	 1.056654411825089e+00	 8.605044752321298e+00
 7.915845480676086e-01	 1.064381831497056e+00	 8.428879571136992e+00
 8.970926574807490e-01	 9.890523050610733e-01	 1.027858615602123e+01
 8.874168303760203e-01	 9.977429550274547e-01	 1.010457991871599e+01
 8.776595578375619e-01	 1.006336562480150e+00	 9.928905255495579e+00
 8.678223088010112e-01	 1.014831989131521e+00	 9.752057061645395e+00
 8.579065730034405e-01	 1.023228126134833e+00	 9.574478899585856e+00
 8.479138602403929e-01	 1.031523894557431e+00	 9.396559169438497e+00
 8.378456996103520e-01	 1.039718245831594e+00	 9.218627438833439e+00
 8.277036387474371e-01	 1.047810162182663e+00	 9.040950955522741e+00
 8.174892430431208e-01	 1.055798657034108e+00	 8.863731365698243e+00
 8.072040948577810e-01	 1.063682775389200e+00	 8.687101660107967e+00
 7.968497927229088e-01	 1.071461594189006e+00	 8.511123369112164e+00
 9.030202643690258e-01	 9.955875422035888e-01	 1.033629464900545e+01
 8.932805035125053e-01	 1.004335616290269e+00	 1.016491960829522e+01
 8.834587590654333e-01	 1.012986006647641e+00	 9.992121129168098e+00
 8.735565096695510e-01	 1.021537567466739e+00	 9.818262672687240e+00
 8.635752549054820e-01	 1.029989182574032e+00	 9.643650167796229e+00
 8.535165145448574e-01	 1.038339765907732e+00	 9.468528231237824e+00
 8.433818277897962e-01	 1.046588261971618e+00	 9.293076555965133e+00
 8.331727525005270e-01	 1.054733646266004e+00	 9.117406492245028e+00
 8.228908644119652e-01	 1.062774925695471e+00	 8.941557844962572e+00
 8.125377563400564e-01	 1.070711138953073e+00	 8.765495909799823e+00
 8.021150373787090e-01	 1.078541356880688e+00	 8.589108769982284e+00
 9.089478712575698e-01	 1.002122779346504e+00	 1.038931410624744e+01
 8.991441766492652e-01	 1.010928277553431e+00	 1.022093005439921e+01
 8.892579602936015e-01	 1.019635450815408e+00	 1.005134993737016e+01
 8.792907105384193e-01	 1.028243145802148e+00	 9.880783262087284e+00
 8.692439368078930e-01	 1.036750239013330e+00	 9.709374902731081e+00
 8.591191688497395e-01	 1.045155637258033e+00	 9.537201401997674e+00
 8.489179559697093e-01	 1.053458278111545e+00	 9.364267451211568e+00
 8.386418662541389e-01	 1.061657130349154e+00	 9.190502574084988e+00
 8.282924857813851e-01	 1.069751194356563e+00	 9.015758038211935e+00
 8.178714178229560e-01	 1.077739502516610e+00	 8.839804017510888e+00
 8.073802820351771e-01	 1.085621119571988e+00	 8.662327027818913e+00
 7.547278354805067e-01	 1.014823492655765e+00	 7.777214540243076e+00
 7.448585804081368e-01	 1.022089315397092e+00	 7.592209835832817e+00
 7.349269132602683e-01	 1.029253786972208e+00	 7.408174158658840e+00
 7.249343830890960e-01	 1.036316130168806e+00	 7.225142523381699e+00
 7.148825511969510e-01	 1.043275599103902e+00	 7.043085199111317e+00
 7.047729903516504e-01	 1.050131479446166e+00	 6.861906951980792e+00
 6.946072839977357e-01	 1.056883088614866e+00	 6.681446556042117e+00
 6.843870254644020e-01	 1.063529775955414e+00	 6.501476579496591e+00
 6.741138171709191e-01	 1.070070922891449e+00	 6.321703451932889e+00
 6.637892698303400e-01	 1.076505943053501e+00	 6.141767816862807e+00
 6.534150016522964e-01	 1.082834282384246e+00	 5.961245172434902e+00
 7.599930801369751e-01	 1.021903255346308e+00	 7.874810535087825e+00
 7.500549736984857e-01	 1.029219767001664e+00	 7.691895481774432e+00
 7.400540197760755e-01	 1.036434220429689e+00	 7.510052655596364e+00
 7.299917782286705e-01	 1.043545832995979e+00	 7.329199576024338e+00
 7.198698212507919e-01	 1.050553853614017e+00	 7.149183463599556e+00
 7.096897325824361e-01	 1.057457562969055e+00	 6.969780598527601e+00
 6.994531067148078e-01	 1.064256273718450e+00	 6.790695960643059e+00
 6.891615480927246e-01	 1.070949330668424e+00	 6.611563157882649e+00
 6.788166703144934e-01	 1.077536110927221e+00	 6.431944649006793e+00
 6.684200953300659e-01	 1.084016024034658e+00	 6.251332264880102e+00
 6.579734526382700e-01	 1.090388512068123e+00	 6.069148031141511e+00
 7.652583247927758e-01	 1.028983018037402e+00	 7.971777098943103e+00
 7.552513669881317e-01	 1.036350218606865e+00	 7.790826905886161e+00
 7.451811262911519e-01	 1.043614653887863e+00	 7.610860161663679e+00
 7.350491733674905e-01	 1.050775535823896e+00	 7.431727873822316e+00
 7.248570913038613e-01	 1.057832108124917e+00	 7.253206563587614e+00
 7.146064748124382e-01	 1.064783646492761e+00	 7.074997654781971e+00
 7.042989294310881e-01	 1.071629458822871e+00	 6.896727156118283e+00
 6.939360707202505e-01	 1.078368885382286e+00	 6.717945644300961e+00
 6.835195234572690e-01	 1.085001298963853e+00	 6.538128553909056e+00
 6.730509208289919e-01	 1.091526105016681e+00	 6.356676778551899e+00
 6.625319036234436e-01	 1.097942741752867e+00	 6.172917586251703e+00
 7.705235694480760e-01	 1.036062780728931e+00	 8.067589946852650e+00
 7.604477602772499e-01	 1.043480670212565e+00	 7.888388458994536e+00
 7.503082328056780e-01	 1.050795087346593e+00	 7.709920517666024e+00
 7.401065685057446e-01	 1.058005238652415e+00	 7.532020543874554e+00
 7.298443613563523e-01	 1.065110362636457e+00	 7.354445630663591e+00
 7.195232170418527e-01	 1.072109730017137e+00	 7.176874877451900e+00
 7.091447521467750e-01	 1.079002643927987e+00	 6.998909028733879e+00
 6.987105933471792e-01	 1.085788440096860e+00	 6.820070425025664e+00
 6.882223765994452e-01	 1.092466487001210e+00	 6.639803272439730e+00
 6.776817463273181e-01	 1.099036185999434e+00	 6.457474235717967e+00
 6.670903546080175e-01	 1.105496971438344e+00	 6.272373357965362e+00
 7.757888141030426e-01	 1.043142543420778e+00	 8.161726424690187e+00
 7.656441535660167e-01	 1.050611121818636e+00	 7.983968339223567e+00
 7.554353393198389e-01	 1.057975520805739e+00	 7.806562802056670e+00
 7.451639636436213e-01	 1.065234941481394e+00	 7.629376545609096e+00
 7.348316314084578e-01	 1.072388617148494e+00	 7.452197458702857e+00
 7.244399592708751e-01	 1.079435813542041e+00	 7.274733782188157e+00
 7.139905748620663e-01	 1.086375829033657e+00	 7.096613618909954e+00
 7.034851159737097e-01	 1.093207994812009e+00	 6.917384766522643e+00
 6.929252297412218e-01	 1.099931675039156e+00	 6.736514880106466e+00
 6.823125718252444e-01	 1.106546266982785e+00	 6.553391969918761e+00
 6.716488055921910e-01	 1.113051201124420e+00	 6.367325237973015e+00
 7.810540587578422e-01	 1.050222306112825e+00	 8.253665698826602e+00
 7.708405468546071e-01	 1.057741573424948e+00	 8.076958690959245e+00
 7.605624458338160e-01	 1.065155954265166e+00	 7.900121366920525e+00
 7.502213587813091e-01	 1.072464644310690e+00	 7.723100670529597e+00
 7.398189014603694e-01	 1.079666871660882e+00	 7.545764493128864e+00
 7.293567014997020e-01	 1.086761897067330e+00	 7.367900647096517e+00
 7.188363975771592e-01	 1.093749014139738e+00	 7.189216162695667e+00
 7.082596386000413e-01	 1.100627549527593e+00	 7.009336917557084e+00
 6.976280828827991e-01	 1.107396863077553e+00	 6.827807606477226e+00
 6.869433973229708e-01	 1.114056347966599e+00	 6.644092057539617e+00
 6.762072565761650e-01	 1.120605430810964e+00	 6.457573898859575e+00
 7.863193034126421e-01	 1.057302068804957e+00	 8.342888949991877e+00
 7.760369401431978e-01	 1.064872025031372e+00	 8.166755711368658e+00
 7.656895523477931e-01	 1.072336387724735e+00	 7.989935883753494e+00
 7.552787539189970e-01	 1.079694347140162e+00	 7.812503552921078e+00
 7.448061715122820e-01	 1.086945126173480e+00	 7.634454831254745e+00
 7.342734437285291e-01	 1.094087980592859e+00	 7.455706526455914e+00
 7.236822202922524e-01	 1.101122199246091e+00	 7.276095141620888e+00
 7.130341612263726e-01	 1.108047104243473e+00	 7.095376216934257e+00
 7.023309360243760e-01	 1.114862051116267e+00	 6.913224021555619e+00
 6.915742228206970e-01	 1.121566428950742e+00	 6.729231602540651e+00
 6.807657075601384e-01	 1.128159660497840e+00	 6.542911195869086e+00
 7.915845480676086e-01	 1.064381831497056e+00	 8.428879571136992e+00
 7.812333334319643e-01	 1.072002476637777e+00	 8.252759764121789e+00
 7.708166588619533e-01	 1.079516821184309e+00	 8.075351398581544e+00
 7.603361490568736e-01	 1.086924049969666e+00	 7.896901691001469e+00
 7.497934415643868e-01	 1.094223380686142e+00	 7.717582233188394e+00
 7.391901859575517e-01	 1.101414064118486e+00	 7.537487274167979e+00
 7.285280430075435e-01	 1.108495384352571e+00	 7.356632340533874e+00
 7.178086838529029e-01	 1.115466658959509e+00	 7.174953206613592e+00
 7.070337891661529e-01	 1.122327239155159e+00	 6.992305224084779e+00
 6.962050483186232e-01	 1.129076509935079e+00	 6.808463018881831e+00
 6.853241585443119e-01	 1.135713890184916e+00	 6.623120561389770e+00
 7.968497927229088e-01	 1.071461594189006e+00	 8.511123369112163e+00
 7.864297267210824e-01	 1.079132928244035e+00	 8.334375499983681e+00
 7.759437653764797e-01	 1.086697254643750e+00	 8.155718395985318e+00
 7.653935441951274e-01	 1.094153752799061e+00	 7.975617478035895e+00
 7.547807116168773e-01	 1.101501635198725e+00	 7.794466142813833e+00
 7.441069281869658e-01	 1.108740147644065e+00	 7.612583576488110e+00
 7.333738657232303e-01	 1.115868569459039e+00	 7.430212913058762e+00
 7.225832064798315e-01	 1.122886213675563e+00	 7.247519749946456e+00
 7.117366423083287e-01	 1.129792427194095e+00	 7.064591031691548e+00
 7.008358738169486e-01	 1.136586590919476e+00	 6.881434310752857e+00
 6.898826095288855e-01	 1.143268119872059e+00	 6.697977392495446e+00
 8.021150373787090e-01	 1.078541356880688e+00	 8.589108769982284e+00
 7.916261200107274e-01	 1.086263379850017e+00	 8.411011983961224e+00
 7.810708718915552e-01	 1.093877688102920e+00	 8.230392871625334e+00
 7.704509393339471e-01	 1.101383455628205e+00	 8.047979242958839e+00
 7.597679816699467e-01	 1.108779889711083e+00	 7.864431718385223e+00
 7.490236704169676e-01	 1.116066231169455e+00	 7.680340993610375e+00
 7.382196884395104e-01	 1.123241754565352e+00	 7.496225454318104e+00
 7.273577291073572e-01	 1.130305768391495e+00	 7.312529154803522e+00
 7.164394954511041e-01	 1.137257615232938e+00	 7.129620172785454e+00
 7.054666993158746e-01	 1.144096671903799e+00	 6.947789350706932e+00
 6.944410605140588e-01	 1.150822349559133e+00	 6.767249431860143e+00
 8.073802820351771e-01	 1.085621119571988e+00	 8.662327027818911e+00
 7.968225133010767e-01	 1.093393831455592e+00	 8.482082828703042e+00
 7.861979784073625e-01	 1.101058121561683e+00	 8.298736412875639e+00
 7.755083344735213e-01	 1.108613158456955e+00	 8.113321300066469e+00
 7.647552517237872e-01	 1.116058144223075e+00	 7.926809872295371e+00
 7.539404126477530e-01	 1.123392314694512e+00	 7.740110009703667e+00
 7.430655111565820e-01	 1.130614939671368e+00	 7.554062080594052e+00
 7.321322517356790e-01	 1.137725323107168e+00	 7.369436301366292e+00
 7.211423485946780e-01	 1.144722803271552e+00	 7.186930480131207e+00
 7.100975248156002e-01	 1.151606752887915e+00	 7.007168155795037e+00
 6.989995115000320e-01	 1.158376579246008e+00	 6.830697142351824e+00
 6.534150016522964e-01	 1.082834282384246e+00	 5.961245172434902e+00
 6.429926377492695e-01	 1.089055419483085e+00	 5.781478478659690e+00
 6.325238099376145e-01	 1.095168866456658e+00	 5.603968597156473e+00
 6.220101553082884e-01	 1.101174168172526e+00	 5.428441304933626e+00
 6.114533152263187e-01	 1.107070902008571e+00	 5.254572264786201e+00
 6.008549345401182e-01	 1.112858677841215e+00	 5.081988350524053e+00
 5.902166607945597e-01	 1.118537138011101e+00	 4.910269242353417e+00
 5.795401434485343e-01	 1.124105957266471e+00	 4.739421777942664e+00
 5.688270330977138e-01	 1.129564842684504e+00	 4.569759185962928e+00
 5.580789807032205e-01	 1.134913533570922e+00	 4.400569272634810e+00
 5.472976368268903e-01	 1.140151801338169e+00	 4.231108983972031e+00
 6.579734526382700e-01	 1.090388512068123e+00	 6.069148031141511e+00
 6.474783786889399e-01	 1.096653049989549e+00	 5.886810024130749e+00
 6.369365166825477e-01	 1.102809146501857e+00	 5.706128441907717e+00
 6.263495151309662e-01	 1.108856343297441e+00	 5.527024972008892e+00
 6.157190268499539e-01	 1.114794214805816e+00	 5.349372830696925e+00
 6.050467081629576e-01	 1.120622368181762e+00	 5.172997763585029e+00
 5.943342181086939e-01	 1.126340443270758e+00	 4.997679327009841e+00
 5.835832176532523e-01	 1.131948112551971e+00	 4.823284864019490e+00
 5.727953689074324e-01	 1.137445081059043e+00	 4.650505464175582e+00
 5.619723343500340e-01	 1.142831086278996e+00	 4.479046898881466e+00
 5.511157760577856e-01	 1.148105898029562e+00	 4.308366971036731e+00
 6.625319036234436e-01	 1.097942741752867e+00	 6.172917586251703e+00
 6.519641196278100e-01	 1.104250680496879e+00	 5.988455443217953e+00
 6.413492234266811e-01	 1.110449426547919e+00	 5.805459074676677e+00
 6.306888749528441e-01	 1.116538518423214e+00	 5.624011506139226e+00
 6.199847384727896e-01	 1.122517527603914e+00	 5.444147991903401e+00
 6.092384817849968e-01	 1.128386058523155e+00	 5.265856745263443e+00
 5.984517754220283e-01	 1.134143748531256e+00	 5.089079960957447e+00
 5.876262918571703e-01	 1.139790267838305e+00	 4.913717161291380e+00
 5.767637047163509e-01	 1.145325319434410e+00	 4.740372678688358e+00
 5.658656879960478e-01	 1.150748638987891e+00	 4.569340049910659e+00
 5.549339152878812e-01	 1.156059994721770e+00	 4.400237657673646e+00
 6.670903546080175e-01	 1.105496971438344e+00	 6.272373357965362e+00
 6.564498605660802e-01	 1.111848311004940e+00	 6.086381636759979e+00
 6.457619301702147e-01	 1.118089706594706e+00	 5.902055679462989e+00
 6.350282347741222e-01	 1.124220693549705e+00	 5.719606034467297e+00
 6.242504500950249e-01	 1.130240840402720e+00	 5.539195243650974e+00
 6.134302554064364e-01	 1.136149748865244e+00	 5.360938355622951e+00
 6.025693327347629e-01	 1.141947053792436e+00	 5.184903743604927e+00
 5.916693660604884e-01	 1.147632423125309e+00	 5.011114223330852e+00
 5.807320405246695e-01	 1.153205557810433e+00	 4.839864045676793e+00
 5.697590416414613e-01	 1.158666191697431e+00	 4.671974010825860e+00
 5.587520545173768e-01	 1.164014091414612e+00	 4.507255007001932e+00
 6.716488055921910e-01	 1.113051201124420e+00	 6.367325237973015e+00
 6.609356015039505e-01	 1.119445941513596e+00	 6.180541797491708e+00
 6.501746369133485e-01	 1.125729986642083e+00	 5.995996196701637e+00
 6.393675945950001e-01	 1.131902868676772e+00	 5.813993429594010e+00
 6.285161617168606e-01	 1.137964153202086e+00	 5.634789320179189e+00
 6.176220290274759e-01	 1.143913439207876e+00	 5.458590871500691e+00
 6.066868900470973e-01	 1.149750359054139e+00	 5.285556932595700e+00
 5.957124402634065e-01	 1.155474578412815e+00	 5.115799179008575e+00
 5.847003763325881e-01	 1.161085796186939e+00	 4.949451008992048e+00
 5.736523952864750e-01	 1.166583744407435e+00	 4.787442460600932e+00
 5.625701937464723e-01	 1.171968188107903e+00	 4.629921907982013e+00
 6.762072565761650e-01	 1.120605430810964e+00	 6.457573898859575e+00
 6.654213424416208e-01	 1.127043572022716e+00	 6.270875941835936e+00
 6.545873436562818e-01	 1.133370266689911e+00	 6.087341959430912e+00
 6.437069544156783e-01	 1.139585043804274e+00	 5.907339032810458e+00
 6.327818733384960e-01	 1.145687466001867e+00	 5.731182988415665e+00
 6.218138026483151e-01	 1.151677129550898e+00	 5.559138634774765e+00
 6.108044473592317e-01	 1.157553664316206e+00	 5.391420331490822e+00
 5.997555144661247e-01	 1.163316733700660e+00	 5.228192886149110e+00
 5.886687121403065e-01	 1.168966034563758e+00	 5.069572773177246e+00
 5.775457489312886e-01	 1.174501297117728e+00	 4.916208162357701e+00
 5.663883329753677e-01	 1.179922284801459e+00	 4.765559562956000e+00
 6.807657075601384e-01	 1.128159660497840e+00	 6.542911195869086e+00
 6.699070833792907e-01	 1.134641202532164e+00	 6.357311428833851e+00
 6.590000503992155e-01	 1.141010546738053e+00	 6.176138312098486e+00
 6.480463142363562e-01	 1.147267218932070e+00	 5.999789356161522e+00
 6.370475849601315e-01	 1.153410778801915e+00	 5.828607817363617e+00
 6.260055762691543e-01	 1.159440819894158e+00	 5.662882873832482e+00
 6.149220046713660e-01	 1.165356969578479e+00	 5.502850148766176e+00
 6.037985886688425e-01	 1.171158888988676e+00	 5.348692576845366e+00
 5.926370479480252e-01	 1.176846272940715e+00	 5.200510543391941e+00
 5.814391025761023e-01	 1.182418849828129e+00	 5.049356787061916e+00
 5.702064722042633e-01	 1.187876381495098e+00	 4.889259556220676e+00
 6.853241585443119e-01	 1.135713890184916e+00	 6.623120561389770e+00
 6.743928243171610e-01	 1.142238833041805e+00	 6.439763466810081e+00
 6.634127571423486e-01	 1.148650826786372e+00	 6.262415212808478e+00
 6.523856740572339e-01	 1.154949394060018e+00	 6.091472764326738e+00
 6.413132965819671e-01	 1.161134091602085e+00	 5.927274924316865e+00
 6.301973498901938e-01	 1.167204510237504e+00	 5.770102499483396e+00
 6.190395619837005e-01	 1.173160274840799e+00	 5.620178829461610e+00
 6.078416628717603e-01	 1.179001044276700e+00	 5.476037152036850e+00
 5.966053837559435e-01	 1.184726511317641e+00	 5.324819526890250e+00
 5.853324562211158e-01	 1.190336402538461e+00	 5.164341802130453e+00
 5.740246114333589e-01	 1.195830478188636e+00	 4.996100062036595e+00
 6.898826095288855e-01	 1.143268119872059e+00	 6.697977392495446e+00
 6.788785652554312e-01	 1.149836463551505e+00	 6.518135608342025e+00
 6.678254638858820e-01	 1.156291106834731e+00	 6.346187819781186e+00
 6.567250338785118e-01	 1.162631569187978e+00	 6.182500137248676e+00
 6.455790082042023e-01	 1.168857404402230e+00	 6.027375698971035e+00
 6.343891235116330e-01	 1.174968200580782e+00	 5.881054876502364e+00
 6.231571192964345e-01	 1.180963580103007e+00	 5.738573258942340e+00
 6.118847370750783e-01	 1.186843199564566e+00	 5.587560729713574e+00
 6.005737195642621e-01	 1.192606749694363e+00	 5.428054217817284e+00
 5.892258098665293e-01	 1.198253955248546e+00	 5.260718770370548e+00
 5.778427506628540e-01	 1.203784574881888e+00	 5.086706354966329e+00
 6.944410605140588e-01	 1.150822349559133e+00	 6.767249431860143e+00
 6.833643061943010e-01	 1.157434094061130e+00	 6.592320234071092e+00
 6.722381706300153e-01	 1.163931386882994e+00	 6.427457062746936e+00
 6.610643937003894e-01	 1.170313744315807e+00	 6.272965514398626e+00
 6.498447198270376e-01	 1.176580717202203e+00	 6.129081020455963e+00
 6.385808971336721e-01	 1.182731890923841e+00	 5.986090904357095e+00
 6.272746766097687e-01	 1.188766885364944e+00	 5.835005101889269e+00
 6.159278112789961e-01	 1.194685354852107e+00	 5.676396741673862e+00
 6.045420553731801e-01	 1.200486988070708e+00	 5.510862487900763e+00
 5.931191635125428e-01	 1.206171507958206e+00	 5.339022024600482e+00
 5.816608898929495e-01	 1.211738671574672e+00	 5.161692075278669e+00
 6.989995115000320e-01	 1.158376579246008e+00	 6.830697142351824e+00
 6.878500471339709e-01	 1.165031724570546e+00	 6.662199025862042e+00
 6.766508773749484e-01	 1.171571666931022e+00	 6.506210199962300e+00
 6.654037535230670e-01	 1.177995919443366e+00	 6.362395173094329e+00
 6.541104314506725e-01	 1.184304030001858e+00	 6.217286449605549e+00
 6.427726707565111e-01	 1.190495581266529e+00	 6.065391554514566e+00
 6.313922339239028e-01	 1.196570190626451e+00	 5.907189295595422e+00
 6.199708854837138e-01	 1.202527510139157e+00	 5.743180071709699e+00
 6.085103911828983e-01	 1.208367226446504e+00	 5.573885575586461e+00
 5.970125171593559e-01	 1.214089060667263e+00	 5.399848394600651e+00
 5.854790291238445e-01	 1.219692768266804e+00	 5.221659918996925e+00
 5.472976368268903e-01	 1.140151801338169e+00	 4.231108983972031e+00
 5.364828098656651e-01	 1.145280311567177e+00	 4.065113741663451e+00
 5.256379778529098e-01	 1.150297998733234e+00	 3.906782904542186e+00
 5.147647859436432e-01	 1.155204728767399e+00	 3.755992216622306e+00
 5.038648759321993e-01	 1.160000399033112e+00	 3.612632799459134e+00
 4.929398855297008e-01	 1.164684938103473e+00	 3.476613185964942e+00
 4.819914476518521e-01	 1.169258305519455e+00	 3.347861251763323e+00
 4.710211897176096e-01	 1.173720491529516e+00	 3.226326035830204e+00
 4.600307329592656e-01	 1.178071516811095e+00	 3.111293091536327e+00
 4.490216917444500e-01	 1.182311432174493e+00	 2.995390206105351e+00
 4.379956729105452e-01	 1.186440318249641e+00	 2.877258188250180e+00
 5.511157760577856e-01	 1.148105898029562e+00	 4.308366971036731e+00
 5.402255010909374e-01	 1.153270186534992e+00	 4.142495755538012e+00
 5.293050117468323e-01	 1.158322878837109e+00	 3.985758636527201e+00
 5.183559646576681e-01	 1.163263839931666e+00	 3.837980403136573e+00
 5.073800130715136e-01	 1.168092966466078e+00	 3.699001462574990e+00
 4.963788061247401e-01	 1.172810186515153e+00	 3.568680013048382e+00
 4.853539881248457e-01	 1.177415459337614e+00	 3.446662866780621e+00
 4.743071978442345e-01	 1.181908775113894e+00	 3.325397082735995e+00
 4.632400678254841e-01	 1.186290154665692e+00	 3.201804362251933e+00
 4.521542236986212e-01	 1.190559649157783e+00	 3.076638120593709e+00
 4.410512835108905e-01	 1.194717339782609e+00	 2.950692905152292e+00
 5.549339152878812e-01	 1.156059994721770e+00	 4.400237657673646e+00
 5.439681923154103e-01	 1.161260061503619e+00	 4.237322341344499e+00
 5.329720456399563e-01	 1.166347758941792e+00	 4.084987719239203e+00
 5.219471433708970e-01	 1.171322951096733e+00	 3.942983366697537e+00
 5.108951502100378e-01	 1.176185533899837e+00	 3.811074442825666e+00
 4.998177267189987e-01	 1.180935434927616e+00	 3.683596336454840e+00
 4.887165285970730e-01	 1.185572613156541e+00	 3.553818027330492e+00
 4.775932059701123e-01	 1.190097058699019e+00	 3.422340398994741e+00
 4.664494026909816e-01	 1.194508792521009e+00	 3.289840648878959e+00
 4.552867556521047e-01	 1.198807866141762e+00	 3.157040920839026e+00
 4.441068941105891e-01	 1.202994361316223e+00	 3.024704944242857e+00
 5.587520545173768e-01	 1.164014091414612e+00	 4.507255007001932e+00
 5.477108835392834e-01	 1.169249936472870e+00	 4.350124987914435e+00
 5.366390795324810e-01	 1.174372639047090e+00	 4.204990021514577e+00
 5.255383220835299e-01	 1.179382062262408e+00	 4.069221917733465e+00
 5.144102873479709e-01	 1.184278101334194e+00	 3.932628418716308e+00
 5.032566473126745e-01	 1.189060683340665e+00	 3.794432420151796e+00
 4.920790690687298e-01	 1.193729766976039e+00	 3.655155813431807e+00
 4.808792140954370e-01	 1.198285342284699e+00	 3.515372520854727e+00
 4.696587375559491e-01	 1.202727430376858e+00	 3.375705164993315e+00
 4.584192876050875e-01	 1.207056083126241e+00	 3.236821705352519e+00
 4.471625047098243e-01	 1.211271382850301e+00	 3.099432054961561e+00
 5.625701937464723e-01	 1.171968188107903e+00	 4.629921907982020e+00
 5.514535747627566e-01	 1.177239811442557e+00	 4.481257706123441e+00
 5.403061134246070e-01	 1.182397519152813e+00	 4.336759844054529e+00
 5.291295007957659e-01	 1.187441173428498e+00	 4.191137077645417e+00
 5.179254244855115e-01	 1.192370668768955e+00	 4.044719539966287e+00
 5.066955679059654e-01	 1.197185931754105e+00	 3.897896148504359e+00
 4.954416095400128e-01	 1.201886920795915e+00	 3.751111388770932e+00
 4.841652222204029e-01	 1.206473625870738e+00	 3.604862038004839e+00
 4.728680724205780e-01	 1.210946068233045e+00	 3.459693842496018e+00
 4.615518195577575e-01	 1.215304300111032e+00	 3.316198161763537e+00
 4.502181153087785e-01	 1.219548404384660e+00	 3.175008592482579e+00
 5.663883329753677e-01	 1.179922284801459e+00	 4.765559562955996e+00
 5.551962659860299e-01	 1.185229686412492e+00	 4.610968849423958e+00
 5.439731473165337e-01	 1.190422399258768e+00	 4.456364774789085e+00
 5.327206795078050e-01	 1.195500284594805e+00	 4.301916606847366e+00
 5.214405616228590e-01	 1.200463236203922e+00	 4.147855509692452e+00
 5.101344884990692e-01	 1.205311180167740e+00	 3.994471442034850e+00
 4.988041500111179e-01	 1.210044074615973e+00	 3.842109980532276e+00
 4.874512303452040e-01	 1.214661909456945e+00	 3.691169082125930e+00
 4.760774072850592e-01	 1.219164706089380e+00	 3.542095799144877e+00
 4.646843515103022e-01	 1.223552517095950e+00	 3.395382960627185e+00
 4.532737259076349e-01	 1.227825425919116e+00	 3.251565832967028e+00
 5.702064722042633e-01	 1.187876381495098e+00	 4.889259556220676e+00
 5.589389572093032e-01	 1.193219561382486e+00	 4.725558512114282e+00
 5.476401812084610e-01	 1.198447279364764e+00	 4.563164713253977e+00
 5.363118582198462e-01	 1.203559395761140e+00	 4.402128142162800e+00
 5.249556987602118e-01	 1.208555803638902e+00	 4.242560387843973e+00
 5.135734090921836e-01	 1.213436428581375e+00	 4.084631614886518e+00
 5.021666904822414e-01	 1.218201228436018e+00	 3.928567456173094e+00
 4.907372384700345e-01	 1.222850193043124e+00	 3.774645843388555e+00
 4.792867421495842e-01	 1.227383343945673e+00	 3.623193789280189e+00
 4.678168834629091e-01	 1.231800734080805e+00	 3.474584135306052e+00
 4.563293365065764e-01	 1.236102447453487e+00	 3.329232277959649e+00
 5.740246114333589e-01	 1.195830478188636e+00	 4.996100062036595e+00
 5.626816484327765e-01	 1.201209436352352e+00	 4.825645225920471e+00
 5.513072151005890e-01	 1.206472159470611e+00	 4.657750764570845e+00
 5.399030369320893e-01	 1.211618506927306e+00	 4.492327475863627e+00
 5.284708358977690e-01	 1.216648371073698e+00	 4.329347218858702e+00
 5.170123296855066e-01	 1.221561676994815e+00	 4.168839982980609e+00
 5.055292309535798e-01	 1.226358382255854e+00	 4.010890879315884e+00
 4.940232465950885e-01	 1.231038476629083e+00	 3.855637068389518e+00
 4.824960770143443e-01	 1.235601981801731e+00	 3.703264638523649e+00
 4.709494154157655e-01	 1.240048951065411e+00	 3.554005448569504e+00
 4.593849471057860e-01	 1.244379468987590e+00	 3.408133948432702e+00
 5.778427506628540e-01	 1.203784574881888e+00	 5.086706354966333e+00
 5.664243396566497e-01	 1.209199311321903e+00	 4.911835353853679e+00
 5.549742489931171e-01	 1.214497039576115e+00	 4.740702260004223e+00
 5.434942156447334e-01	 1.219677618093109e+00	 4.573059224528063e+00
 5.319859730357294e-01	 1.224740938508116e+00	 4.408718662339940e+00
 5.204512502792359e-01	 1.229686925407861e+00	 4.247550450267588e+00
 5.088917714253292e-01	 1.234515536075286e+00	 4.089479045716462e+00
 4.973092547205598e-01	 1.239226760214626e+00	 3.934480540376855e+00
 4.857054118795305e-01	 1.243820619657364e+00	 3.782579663197233e+00
 4.740819473690592e-01	 1.248297168049579e+00	 3.633846746528075e+00
 4.624405577054466e-01	 1.252656490521242e+00	 3.488394668960407e+00
 5.816608898929495e-01	 1.211738671574672e+00	 5.161692075278669e+00
 5.701670308811227e-01	 1.217189186290947e+00	 4.984723789121458e+00
 5.586412828862454e-01	 1.222521919681086e+00	 4.812587432224474e+00
 5.470853943579786e-01	 1.227736729258357e+00	 4.644857473912176e+00
 5.355011101742919e-01	 1.232833505941960e+00	 4.481167601164573e+00
 5.238901708735695e-01	 1.237812173820320e+00	 4.321208074074956e+00
 5.122543118976859e-01	 1.242672689894119e+00	 4.164723000229337e+00
 5.005952628466430e-01	 1.247415043799562e+00	 4.011507542585755e+00
 4.889147467453342e-01	 1.252039257512381e+00	 3.861405075157100e+00
 4.772144793229778e-01	 1.256545385033123e+00	 3.714304300481340e+00
 4.654961683057414e-01	 1.260933512054261e+00	 3.570136342473455e+00
 5.854790291238445e-01	 1.219692768266804e+00	 5.221659918996925e+00
 5.739097221063959e-01	 1.225179061259301e+00	 5.044894629201132e+00
 5.623083167801739e-01	 1.230546799785333e+00	 4.873964066571331e+00
 5.506765730720242e-01	 1.235795840422856e+00	 4.708246400928038e+00
 5.390162473136554e-01	 1.240926073375034e+00	 4.547177728055019e+00
 5.273290914687052e-01	 1.245937422231995e+00	 4.390249610507103e+00
 5.156168523708461e-01	 1.250829843712159e+00	 4.237006535633425e+00
 5.038812709735320e-01	 1.255603327383696e+00	 4.087043305449667e+00
 4.921240816119464e-01	 1.260257895366589e+00	 3.940002372715151e+00
 4.803470112777085e-01	 1.264793602015854e+00	 3.795571137235257e+00
 4.685517789068528e-01	 1.269210533586462e+00	 3.653479216023507e+00
 4.379956729105452e-01	 1.186440318249641e+00	 2.877258188250180e+00
 4.269561530751904e-01	 1.190457611461505e+00	 2.758297458931407e+00
 4.159028480248949e-01	 1.194364161598395e+00	 2.639498090257602e+00
 4.048373368592890e-01	 1.198160135813678e+00	 2.521159544677748e+00
 3.937611886467740e-01	 1.201845729649776e+00	 2.403611288363935e+00
 3.826759618280015e-01	 1.205421166648674e+00	 2.287210380246634e+00
 3.715832036341543e-01	 1.208886697948648e+00	 2.172339084988628e+00
 3.604844495203520e-01	 1.212242601867819e+00	 2.059402517741521e+00
 3.493812226144747e-01	 1.215489183475108e+00	 1.948826328047191e+00
 3.382750331816809e-01	 1.218626774149204e+00	 1.841054429763885e+00
 3.271673781048640e-01	 1.221655731126142e+00	 1.736546783390972e+00
 4.410512835108905e-01	 1.194717339782609e+00	 2.950692905152295e+00
 4.299347481340324e-01	 1.198762659033439e+00	 2.825293234417211e+00
 4.188043313717864e-01	 1.202696462627001e+00	 2.701277150260265e+00
 4.076616233401339e-01	 1.206518918882770e+00	 2.578825618046203e+00
 3.965082040538469e-01	 1.210230224707332e+00	 2.458148401479391e+00
 3.853456428258048e-01	 1.213830605202171e+00	 2.339481758354681e+00
 3.741754976812163e-01	 1.217320313257583e+00	 2.223086161212846e+00
 3.629993147870733e-01	 1.220699629133323e+00	 2.109244050723550e+00
 3.518186278971292e-01	 1.223968860026572e+00	 1.998257629130234e+00
 3.406349578126811e-01	 1.227128339627824e+00	 1.890446700591086e+00
 3.294498118594009e-01	 1.230178427665308e+00	 1.786146564741668e+00
 4.441068941105891e-01	 1.202994361316223e+00	 3.024704944242857e+00
 4.329133431922779e-01	 1.207067706605971e+00	 2.894042677040201e+00
 4.217058147181388e-01	 1.211028763656146e+00	 2.765733933895255e+00
 4.104859098205044e-01	 1.214877701952336e+00	 2.639865937988648e+00
 3.992552194605159e-01	 1.218614719765293e+00	 2.516553856561559e+00
 3.880153238232784e-01	 1.222240043755997e+00	 2.395938563340725e+00
 3.767677917280269e-01	 1.225753928566769e+00	 2.278184427187496e+00
 3.655141800536237e-01	 1.229156656398998e+00	 2.163477134832444e+00
 3.542560331796946e-01	 1.232448536578125e+00	 2.052021555061015e+00
 3.429948824436736e-01	 1.235629905106451e+00	 1.944039651194676e+00
 3.317322456140108e-01	 1.238701124204401e+00	 1.839768448186968e+00
 4.471625047098243e-01	 1.211271382850301e+00	 3.099432054961561e+00
 4.358919382501041e-01	 1.215372754178922e+00	 2.964601807779127e+00
 4.246072980641233e-01	 1.219361064685659e+00	 2.832854502586015e+00
 4.133101963005635e-01	 1.223236485022213e+00	 2.704207868740996e+00
 4.020022348669342e-01	 1.226999214823503e+00	 2.578707072406522e+00
 3.906850048205658e-01	 1.230649482310011e+00	 2.456422505982931e+00
 3.793600857747169e-01	 1.234187543876076e+00	 2.337447605441299e+00
 3.680290453201201e-01	 1.237613683664727e+00	 2.221896703515466e+00
 3.566934384622720e-01	 1.240928213129667e+00	 2.109902926201713e+00
 3.453548070747426e-01	 1.244131470585002e+00	 2.001616139474593e+00
 3.340146793687590e-01	 1.247223820743356e+00	 1.897200952594686e+00
 4.502181153087785e-01	 1.219548404384660e+00	 3.175008592482580e+00
 4.388705333076882e-01	 1.223677801752115e+00	 3.037025176648479e+00
 4.275087814099100e-01	 1.227693365715369e+00	 2.902625056684502e+00
 4.161344827804738e-01	 1.231595268092240e+00	 2.771780224845346e+00
 4.047492502732557e-01	 1.235383709881812e+00	 2.644489945952903e+00
 3.933546858178097e-01	 1.239058920864068e+00	 2.520778534542354e+00
 3.819523798214172e-01	 1.242621159185372e+00	 2.400693161932908e+00
 3.705439105866795e-01	 1.246070710930393e+00	 2.284301701347314e+00
 3.591308437449630e-01	 1.249407889681094e+00	 2.171690618662715e+00
 3.477147317059725e-01	 1.252633036063392e+00	 2.062962915825026e+00
 3.362971131237101e-01	 1.255746517282108e+00	 1.958236133397328e+00
 4.532737259076349e-01	 1.227825425919116e+00	 3.251565832967032e+00
 4.418491283652077e-01	 1.231982849325372e+00	 3.111366102640216e+00
 4.304102647556700e-01	 1.236025666745106e+00	 2.975032110787167e+00
 4.189587692603980e-01	 1.239954051162252e+00	 2.842513392038982e+00
 4.074962656796337e-01	 1.243768204940064e+00	 2.713786928460229e+00
 3.960243668151529e-01	 1.247468359418026e+00	 2.588854875454998e+00
 3.845446738682584e-01	 1.251054774494528e+00	 2.467742319987647e+00
 3.730587758534189e-01	 1.254527738195879e+00	 2.350495079450644e+00
 3.615682490278689e-01	 1.257887566232307e+00	 2.237177548956638e+00
 3.500746563374471e-01	 1.261134601541538e+00	 2.127870604263356e+00
 3.385795468789294e-01	 1.264269213820592e+00	 2.022669566949685e+00
 4.563293365065764e-01	 1.236102447453487e+00	 3.329232277959646e+00
 4.448277234228400e-01	 1.240287896898517e+00	 3.187676905755580e+00
 4.333117481015738e-01	 1.244357967774700e+00	 3.050062663652441e+00
 4.217830557404992e-01	 1.248312834232088e+00	 2.916339444852517e+00
 4.102432810862217e-01	 1.252152699998105e+00	 2.786485100110160e+00
 3.986940478127382e-01	 1.255877797971742e+00	 2.660503073793874e+00
 3.871369679153711e-01	 1.259488389803412e+00	 2.538420075005725e+00
 3.755736411204552e-01	 1.262984765461068e+00	 2.420283792359699e+00
 3.640056543110916e-01	 1.266367242783203e+00	 2.306160660448960e+00
 3.524345809692508e-01	 1.269636167019354e+00	 2.196133685430972e+00
 3.408619806344817e-01	 1.272791910358743e+00	 2.090300336555352e+00
 4.593849471057860e-01	 1.244379468987590e+00	 3.408133948432695e+00
 4.478063184807623e-01	 1.248592944471371e+00	 3.266009131486823e+00
 4.362132314477919e-01	 1.252690268803979e+00	 3.127704362971046e+00
 4.246073422209399e-01	 1.256671617301585e+00	 2.993192261067991e+00
 4.129902964931731e-01	 1.260537195055783e+00	 2.862474243108612e+00
 4.013637288107085e-01	 1.264287236525072e+00	 2.735578033517061e+00
 3.897292619628863e-01	 1.267922005111894e+00	 2.612555209905564e+00
 3.780885063879053e-01	 1.271441792725844e+00	 2.493478796257145e+00
 3.664430595947322e-01	 1.274846919333681e+00	 2.378440911527442e+00
 3.547945056014679e-01	 1.278137732496757e+00	 2.267550481374354e+00
 3.431444143904321e-01	 1.281314606896496e+00	 2.160931020085375e+00
 4.624405577054466e-01	 1.252656490521242e+00	 3.488394668960408e+00
 4.507849135391522e-01	 1.256897992043758e+00	 3.346413768107127e+00
 4.391147147944954e-01	 1.261022569832773e+00	 3.207945665228570e+00
 4.274316287018828e-01	 1.265030400370579e+00	 3.073007633184293e+00
 4.157373119006417e-01	 1.268921690112944e+00	 2.941646913354712e+00
 4.040334098092068e-01	 1.272696675077875e+00	 2.813938057507914e+00
 3.923215560109345e-01	 1.276355620419842e+00	 2.689980311268774e+00
 3.806033716558865e-01	 1.279898819990087e+00	 2.569895048517399e+00
 3.688804648788925e-01	 1.283326595883639e+00	 2.453823265405497e+00
 3.571544302341825e-01	 1.286639297973663e+00	 2.341923142026219e+00
 3.454268481468454e-01	 1.289837303433786e+00	 2.234367679115238e+00
 4.654961683057414e-01	 1.260933512054261e+00	 3.570136342473455e+00
 4.537635085981868e-01	 1.265203039615501e+00	 3.428941457094745e+00
 4.420161981418543e-01	 1.269354870860911e+00	 3.290775990883548e+00
 4.302559151834904e-01	 1.273389183438908e+00	 3.155723377026550e+00
 4.184843273087810e-01	 1.277306185169434e+00	 3.023898510742938e+00
 4.067030908083760e-01	 1.281106113630006e+00	 2.895444887417734e+00
 3.949138500596467e-01	 1.284789235727127e+00	 2.770531786154163e+00
 3.831182369245153e-01	 1.288355847253684e+00	 2.649351508504394e+00
 3.713178701636737e-01	 1.291806272432977e+00	 2.532116681487223e+00
 3.595143548674786e-01	 1.295140863449986e+00	 2.419057633309047e+00
 3.477092819037867e-01	 1.298359999970547e+00	 2.310419849510724e+00
 4.685517789068528e-01	 1.269210533586462e+00	 3.653479216023504e+00
 4.567421036580435e-01	 1.273508087186421e+00	 3.513642697003812e+00
 4.449176814900399e-01	 1.277687171888223e+00	 3.376185875076733e+00
 4.330802016659260e-01	 1.281747966506409e+00	 3.241279437630252e+00
 4.212313427177444e-01	 1.285690680225100e+00	 3.109127348161531e+00
 4.093727718083590e-01	 1.289515552181324e+00	 2.979963743321655e+00
 3.975061441091533e-01	 1.293222851033616e+00	 2.854049879549738e+00
 3.856331021939091e-01	 1.296812874516516e+00	 2.731671139555605e+00
 3.737552754491775e-01	 1.300285948981592e+00	 2.613134108223278e+00
 3.618742795014405e-01	 1.303642428925645e+00	 2.498763726786249e+00
 3.499917156613211e-01	 1.306882696506716e+00	 2.388900533395669e+00
 3.271673781048640e-01	 1.221655731126142e+00	 1.736546783390972e+00
 3.160597405328376e-01	 1.224576437301452e+00	 1.635127892601706e+00
 3.049535898338829e-01	 1.227389301550389e+00	 1.536411297589930e+00
 2.938503806459468e-01	 1.230094757443897e+00	 1.440558686300534e+00
 2.827515522679372e-01	 1.232693262489390e+00	 1.347740515529021e+00
 2.716585282229795e-01	 1.235185297629098e+00	 1.258134627288690e+00
 2.605727158386424e-01	 1.237571366730709e+00	 1.171924932979689e+00
 2.494955058442119e-01	 1.239851996070890e+00	 1.089300167670729e+00
 2.384282719850742e-01	 1.242027733812301e+00	 1.010452716355549e+00
 2.273723706542426e-01	 1.244099149474684e+00	 9.355775136024311e-01
 2.163291405410435e-01	 1.246066833400622e+00	 8.648710175872205e-01
 3.294498118594009e-01	 1.230178427665308e+00	 1.786146564741668e+00
 3.182646835330660e-01	 1.233119509705763e+00	 1.685043015944661e+00
 3.070810524527766e-01	 1.235951997476899e+00	 1.586688675858327e+00
 2.959003834045326e-01	 1.238676327574413e+00	 1.491236918722820e+00
 2.847241257282851e-01	 1.241292960697452e+00	 1.398849865610513e+00
 2.735537128781454e-01	 1.243802381143473e+00	 1.309696963946811e+00
 2.623905619996818e-01	 1.246205096295324e+00	 1.223953638171460e+00
 2.512360735243849e-01	 1.248501636101169e+00	 1.141800013887369e+00
 2.400916307813604e-01	 1.250692552547848e+00	 1.063419717368109e+00
 2.289585996262840e-01	 1.252778419128273e+00	 9.889987518470365e-01
 2.178383280876382e-01	 1.254759830303468e+00	 9.187244515550514e-01
 3.317322456140108e-01	 1.238701124204401e+00	 1.839768448186968e+00
 3.204696265334466e-01	 1.241662582109921e+00	 1.738791001095758e+00
 3.092085150718984e-01	 1.244514693403182e+00	 1.640616531152094e+00
 2.979503861634202e-01	 1.247257897704627e+00	 1.545388857729079e+00
 2.866966991890053e-01	 1.249892658905143e+00	 1.453260505425224e+00
 2.754488975337502e-01	 1.252419464657410e+00	 1.364391247626559e+00
 2.642084081612228e-01	 1.254838825859441e+00	 1.278946724636024e+00
 2.529766412051179e-01	 1.257151276130895e+00	 1.197097138750279e+00
 2.417549895782596e-01	 1.259357371282790e+00	 1.119016028161846e+00
 2.305448285989865e-01	 1.261457688781213e+00	 1.044879121111564e+00
 2.193475156349365e-01	 1.263452827205628e+00	 9.748632712341532e-01
 3.340146793687590e-01	 1.247223820743356e+00	 1.897200952594686e+00
 3.226745695340228e-01	 1.250205654513883e+00	 1.796169702054135e+00
 3.113359776912703e-01	 1.253077389329215e+00	 1.698002165468893e+00
 3.000003889226082e-01	 1.255839467834543e+00	 1.602831418905279e+00
 2.886692726500729e-01	 1.258492357112488e+00	 1.510799181235481e+00
 2.773440821897460e-01	 1.261036548170960e+00	 1.422054322577266e+00
 2.660262543231956e-01	 1.263472555423134e+00	 1.336751450822769e+00
 2.547172088863207e-01	 1.265800916160163e+00	 1.255049578659592e+00
 2.434183483756641e-01	 1.268022190017244e+00	 1.177110872980592e+00
 2.321310575722274e-01	 1.270136958433638e+00	 1.103099488088543e+00
 2.208567031828043e-01	 1.272145824107253e+00	 1.033180483623289e+00
 3.362971131237101e-01	 1.255746517282108e+00	 1.958236133397328e+00
 3.248795125348387e-01	 1.258748726917606e+00	 1.856980068844424e+00
 3.134634403109134e-01	 1.261640085254977e+00	 1.758655549161788e+00
 3.020503916820948e-01	 1.264421037964160e+00	 1.663383770719948e+00
 2.906418461114627e-01	 1.267092055319514e+00	 1.571294488219990e+00
 2.792392668460852e-01	 1.269653631684175e+00	 1.482524488802128e+00
 2.678441004855307e-01	 1.272106284986477e+00	 1.397216147855693e+00
 2.564577765679037e-01	 1.274450556189068e+00	 1.315516068968169e+00
 2.450817071734665e-01	 1.276687008751327e+00	 1.237573809909763e+00
 2.337172865458843e-01	 1.278816228085687e+00	 1.163540696055931e+00
 2.223658907311072e-01	 1.280838821008494e+00	 1.093568722137321e+00
 3.385795468789294e-01	 1.264269213820592e+00	 2.022669566949685e+00
 3.270844555359385e-01	 1.267291799321045e+00	 1.921026138218906e+00
 3.155909029308493e-01	 1.270202781180447e+00	 1.822389317839370e+00
 3.041003944418780e-01	 1.273002608093483e+00	 1.726867337504117e+00
 2.926144195731495e-01	 1.275691753526249e+00	 1.634576879453273e+00
 2.811344515027196e-01	 1.278270715197102e+00	 1.545641516987319e+00
 2.696619466481583e-01	 1.280740014549541e+00	 1.460190240403773e+00
 2.581983442497768e-01	 1.283100196217706e+00	 1.378356070808621e+00
 2.467450659715589e-01	 1.285351827485155e+00	 1.300274763718045e+00
 2.353035155198344e-01	 1.287495497737492e+00	 1.226083603820509e+00
 2.238750782797112e-01	 1.289531817909503e+00	 1.155920291774917e+00
 3.408619806344817e-01	 1.272791910358743e+00	 2.090300336555352e+00
 3.292893985373657e-01	 1.275834871724156e+00	 1.988115025710995e+00
 3.177183655510993e-01	 1.278765477105603e+00	 1.889018770299396e+00
 3.061503972019563e-01	 1.281584178222514e+00	 1.793105803156820e+00
 2.945869930351083e-01	 1.284291451732716e+00	 1.700478675303615e+00
 2.830296361596010e-01	 1.286887798709794e+00	 1.611246663554396e+00
 2.714797928110087e-01	 1.289373744112402e+00	 1.525524267373694e+00
 2.599389119318509e-01	 1.291749836246175e+00	 1.443429797455561e+00
 2.484084247698341e-01	 1.294016646218845e+00	 1.365084057936605e+00
 2.368897444939551e-01	 1.296174767389189e+00	 1.290609123603334e+00
 2.253842658284822e-01	 1.298224814810431e+00	 1.220127212926707e+00
 3.431444143904321e-01	 1.281314606896496e+00	 2.160931020085375e+00
 3.314943415391646e-01	 1.284377944126897e+00	 2.058056918969803e+00
 3.198458281716852e-01	 1.287328173030424e+00	 1.958361867444054e+00
 3.082003999623278e-01	 1.290165748351254e+00	 1.861925115537751e+00
 2.965595664973141e-01	 1.292891149938944e+00	 1.768834073235645e+00
 2.849248208166819e-01	 1.295504882222298e+00	 1.679182685828338e+00
 2.732976389740122e-01	 1.298007473675132e+00	 1.593069902439780e+00
 2.616794796140355e-01	 1.300399476274568e+00	 1.510598240234474e+00
 2.500717835681840e-01	 1.302681464952513e+00	 1.431872446209723e+00
 2.384759734681241e-01	 1.304854037040913e+00	 1.356998257914789e+00
 2.268934533772859e-01	 1.306917811711429e+00	 1.286081263889834e+00
 3.454268481468454e-01	 1.289837303433786e+00	 2.234367679115238e+00
 3.336992845413788e-01	 1.292921016529221e+00	 2.130665072319982e+00
 3.219732907926282e-01	 1.295890868954890e+00	 2.030239232136132e+00
 3.102504027229908e-01	 1.298747318479706e+00	 1.933153491519860e+00
 2.985321399597416e-01	 1.301490848144957e+00	 1.839479157992027e+00
 2.868200054739142e-01	 1.304121965734667e+00	 1.749293857316239e+00
 2.751154851370989e-01	 1.306641203237804e+00	 1.662679974412169e+00
 2.634200472962410e-01	 1.309049116302981e+00	 1.579723194009262e+00
 2.517351423665012e-01	 1.311346283686275e+00	 1.500511142950895e+00
 2.400622024422184e-01	 1.313533306692799e+00	 1.425132135465043e+00
 2.284026409259882e-01	 1.315610808612648e+00	 1.353674022146829e+00
 3.477092819037867e-01	 1.298359999970547e+00	 2.310419849510724e+00
 3.359042275440521e-01	 1.301464088931087e+00	 2.205755802491863e+00
 3.241007534139496e-01	 1.304453564878978e+00	 2.104474149946646e+00
 3.123004054839438e-01	 1.307328888607872e+00	 2.006621422668933e+00
 3.005047134223661e-01	 1.310090546350782e+00	 1.912251912141038e+00
 2.887151901312500e-01	 1.312739049246950e+00	 1.821425983092114e+00
 2.769333313001993e-01	 1.315274932800494e+00	 1.734208487455663e+00
 2.651606149783776e-01	 1.317698756331511e+00	 1.650667282259112e+00
 2.533985011646780e-01	 1.320011102420249e+00	 1.570871853336123e+00
 2.416484314161156e-01	 1.322212576344983e+00	 1.494892046155899e+00
 2.299118284744549e-01	 1.324303805514240e+00	 1.422796904468534e+00
 3.499917156613211e-01	 1.306882696506716e+00	 2.388900533395669e+00
 3.381091705472289e-01	 1.310007161332449e+00	 2.283148485462217e+00
 3.262282160356712e-01	 1.313016260802667e+00	 2.180892570760989e+00
 3.143504082451845e-01	 1.315910458735754e+00	 2.082161681522002e+00
 3.024772868851621e-01	 1.318690244556447e+00	 1.986992226974978e+00
 2.906103747886412e-01	 1.321356132759197e+00	 1.895426415280704e+00
 2.787511774632436e-01	 1.323908662363273e+00	 1.807510641162221e+00
 2.669011826603555e-01	 1.326348396360253e+00	 1.723293981769331e+00
 2.550618599626067e-01	 1.328675921154549e+00	 1.642826802665428e+00
 2.432346603896930e-01	 1.330891845997599e+00	 1.566159475196007e+00
 2.314210160225521e-01	 1.332996802416356e+00	 1.493341205889460e+00
 2.163291405410435e-01	 1.246066833400622e+00	 8.648710175872205e-01
 2.052980289624416e-01	 1.247931704324035e+00	 7.978248989927108e-01
 1.942822198586349e-01	 1.249694048834886e+00	 7.339009983093014e-01
 1.832830003551988e-01	 1.251354515916720e+00	 6.732164655554327e-01
 1.723016385666052e-01	 1.252913773224046e+00	 6.158878068278519e-01
 1.613393833298090e-01	 1.254372506529152e+00	 5.620304045743081e-01
 1.503974639547379e-01	 1.255731419166985e+00	 5.117581037958483e-01
 1.394770899915604e-01	 1.256991231478618e+00	 4.651828625806138e-01
 1.285794510145984e-01	 1.258152680253831e+00	 4.224144651129893e-01
 1.177057164227230e-01	 1.259216518173316e+00	 3.835602950679762e-01
 1.068570352560679e-01	 1.260183513251014e+00	 3.487251670830749e-01
 2.178383280876382e-01	 1.254759830303468e+00	 9.187244515550519e-01
 2.067302596266735e-01	 1.256637711216769e+00	 8.520731647637332e-01
 1.956376003958711e-01	 1.258412350457499e+00	 7.884998274152155e-01
 1.845616465002525e-01	 1.260084401536747e+00	 7.281250684949143e-01
 1.735036749011071e-01	 1.261654536766819e+00	 6.710687442039451e-01
 1.624649431477210e-01	 1.263123446704203e+00	 6.174494371186139e-01
 1.514466891261248e-01	 1.264491839590562e+00	 5.673840245033499e-01
 1.404501308247401e-01	 1.265760440792328e+00	 5.209873140868004e-01
 1.294764661167819e-01	 1.266929992239393e+00	 4.783717453476108e-01
 1.185268725592645e-01	 1.268001251863421e+00	 4.396471541107361e-01
 1.076025072084343e-01	 1.268974993036293e+00	 4.049205980274035e-01
 2.193475156349365e-01	 1.263452827205628e+00	 9.748632712341607e-01
 2.081624902916449e-01	 1.265343718108786e+00	 9.084316358485549e-01
 1.969929809338750e-01	 1.267130652079369e+00	 8.450366316239875e-01
 1.858402926460915e-01	 1.268814287156010e+00	 7.848042313941774e-01
 1.747057112363997e-01	 1.270395300308815e+00	 7.278594246784973e-01
 1.635905029664146e-01	 1.271874386878464e+00	 6.743256946722944e-01
 1.524959142982680e-01	 1.273252260013340e+00	 6.243245678194245e-01
 1.414231716586319e-01	 1.274529650105232e+00	 5.779752341882416e-01
 1.303734812196132e-01	 1.275707304224143e+00	 5.353942365893720e-01
 1.193480286963668e-01	 1.276785985552708e+00	 4.966952261178565e-01
 1.083479791612502e-01	 1.277766472820746e+00	 4.619887815753807e-01
 2.208567031828043e-01	 1.272145824107253e+00	 1.033180483623293e+00
 2.095947209572145e-01	 1.274049725000251e+00	 9.668056387055157e-01
 1.983483614725010e-01	 1.275848953700673e+00	 9.034288673196309e-01
 1.871189387925707e-01	 1.277544172774695e+00	 8.431833242123929e-01
 1.759077475723419e-01	 1.279136063850222e+00	 7.862008882255767e-01
 1.647160627857564e-01	 1.280625327052128e+00	 7.326116160735965e-01
 1.535451394710454e-01	 1.282012680435511e+00	 6.825432723495852e-01
 1.423962124931290e-01	 1.283298859417521e+00	 6.361209338803691e-01
 1.312704963230042e-01	 1.284484616208267e+00	 5.934666662535377e-01
 1.201691848339644e-01	 1.285570719241357e+00	 5.546992700807463e-01
 1.090934511144761e-01	 1.286557952604549e+00	 5.199340943214326e-01
 2.223658907311072e-01	 1.280838821008494e+00	 1.093568722137325e+00
 2.110269516232398e-01	 1.282755731891327e+00	 1.027099792138907e+00
 1.997037420116036e-01	 1.284567255321584e+00	 9.635929755758832e-01
 1.883975849395445e-01	 1.286274058392983e+00	 9.031904213402793e-01
 1.771097839087924e-01	 1.287876827391228e+00	 8.460326273283931e-01
 1.658416226056129e-01	 1.289376267225383e+00	 7.922578699846412e-01
 1.545943646443351e-01	 1.290773100857267e+00	 7.420017139363912e-01
 1.433692533281250e-01	 1.292068068729384e+00	 6.953965997269869e-01
 1.321675114268671e-01	 1.293261928191953e+00	 6.525715073555447e-01
 1.209903409719918e-01	 1.294355452929550e+00	 6.136516930632205e-01
 1.098389230680726e-01	 1.295349432387875e+00	 5.787584965451902e-01
 2.238750782797112e-01	 1.289531817909503e+00	 1.155920291774925e+00
 2.124591822895797e-01	 1.291461738782180e+00	 1.089218058508476e+00
 2.010591225510374e-01	 1.293285556942277e+00	 1.025444438891410e+00
 1.896762310868678e-01	 1.295003944011057e+00	 9.647523633096355e-01
 1.783118202456095e-01	 1.296617590932019e+00	 9.072926530873511e-01
 1.669671824258507e-01	 1.298127207398421e+00	 8.532134247958072e-01
 1.556435898180152e-01	 1.299533521278798e+00	 8.026595787279525e-01
 1.443422941635130e-01	 1.300837278041010e+00	 7.557723694345091e-01
 1.330645265311142e-01	 1.302039240175386e+00	 7.126890559072458e-01
 1.218114971103837e-01	 1.303140186617469e+00	 6.735426287105568e-01
 1.105843950219999e-01	 1.304140912170899e+00	 6.384616111014902e-01
 2.253842658284822e-01	 1.298224814810431e+00	 1.220127212926700e+00
 2.138914129560918e-01	 1.300167745672973e+00	 1.153063793295410e+00
 2.024145030906569e-01	 1.302003858562929e+00	 1.088897836012660e+00
 1.909548772343953e-01	 1.303733829629101e+00	 1.027794816350798e+00
 1.795138565826523e-01	 1.305358354472785e+00	 9.699175589622611e-01
 1.680927422463364e-01	 1.306878147571434e+00	 9.154256159721952e-01
 1.566928149919637e-01	 1.308293941700295e+00	 8.644747335262599e-01
 1.453153349991863e-01	 1.309606487352589e+00	 8.172164045762818e-01
 1.339615416356575e-01	 1.310816552158751e+00	 7.737975053610027e-01
 1.226326532490746e-01	 1.311924920305294e+00	 7.343600127365795e-01
 1.113298669762187e-01	 1.312932391953795e+00	 6.990407992509813e-01
 2.268934533772859e-01	 1.306917811711429e+00	 1.286081263889834e+00
 2.153236436226346e-01	 1.308873752563872e+00	 1.218539793094346e+00
 2.037698836303164e-01	 1.310722160183712e+00	 1.153866894933626e+00
 1.922335233819814e-01	 1.312463715247295e+00	 1.092242329896987e+00
 1.807158929197795e-01	 1.314099118013713e+00	 1.033842582254824e+00
 1.692183020669363e-01	 1.315629087744610e+00	 9.788402109644914e-01
 1.577420401660588e-01	 1.317054362121952e+00	 9.274032935482110e-01
 1.462883758350382e-01	 1.318375696664313e+00	 8.796949606003537e-01
 1.348585567404092e-01	 1.319593864142237e+00	 8.358730182422924e-01
 1.234538093879990e-01	 1.320709653993206e+00	 7.960896555329771e-01
 1.120753389306894e-01	 1.321723871736737e+00	 7.604912335715275e-01
 2.284026409259882e-01	 1.315610808612648e+00	 1.353674022146822e+00
 2.167558742890663e-01	 1.317579759455040e+00	 1.285548342112190e+00
 2.051252641698707e-01	 1.319440461804804e+00	 1.220264544156933e+00
 1.935121695294813e-01	 1.321193600865824e+00	 1.158018392133364e+00
 1.819179292568498e-01	 1.322839881554992e+00	 1.099001663439824e+00
 1.703438618875172e-01	 1.324380027918142e+00	 1.043401471792681e+00
 1.587912653401786e-01	 1.325814782543958e+00	 9.913996877133815e-01
 1.472614166709622e-01	 1.327144905976369e+00	 9.431724542472779e-01
 1.357555718452815e-01	 1.328371176126029e+00	 8.988897950977286e-01
 1.242749655270916e-01	 1.329494387681388e+00	 8.587153120269213e-01
 1.128208108853724e-01	 1.330515351519901e+00	 8.228059680878961e-01
 2.299118284744549e-01	 1.324303805514240e+00	 1.422796904468534e+00
 2.181881049552451e-01	 1.326285766346644e+00	 1.353991257235865e+00
 2.064806447091740e-01	 1.328158763426378e+00	 1.288002962297083e+00
 1.947908156767493e-01	 1.329923486484871e+00	 1.225045483675675e+00
 1.831199655937218e-01	 1.331580645096808e+00	 1.165327503439265e+00
 1.714694217079456e-01	 1.333130968092220e+00	 1.109052215415114e+00
 1.598404905142011e-01	 1.334575202966505e+00	 1.056416721576442e+00
 1.482344575068515e-01	 1.335914115288949e+00	 1.007611528495660e+00
 1.366525869501864e-01	 1.337148488110314e+00	 9.628201408846691e-01
 1.250961216662868e-01	 1.338279121370020e+00	 9.222187489209670e-01
 1.135662828402284e-01	 1.339306831303460e+00	 8.859760057439932e-01
 2.314210160225521e-01	 1.332996802416356e+00	 1.493341205889460e+00
 2.196203356210291e-01	 1.334991773238847e+00	 1.423769931737469e+00
 2.078360252480811e-01	 1.336877065048610e+00	 1.356993626100490e+00
 1.960694618236402e-01	 1.338653372104617e+00	 1.293245129467254e+00
 1.843220019302544e-01	 1.340321408639350e+00	 1.232751618939883e+00
 1.725949815280879e-01	 1.341881908267035e+00	 1.175733871978024e+00
 1.608897156880044e-01	 1.343335623389784e+00	 1.122405638008970e+00
 1.492074983425993e-01	 1.344683324602242e+00	 1.072973115150223e+00
 1.375496020550363e-01	 1.345925800095279e+00	 1.027634528915843e+00
 1.259172778055192e-01	 1.347063855059284e+00	 9.865798094278126e-01
 1.143117547952176e-01	 1.348098311087590e+00	 9.499903633442424e-01
 1.068570352560679e-01	 1.260183513251014e+00	 3.487251670830749e-01
 9.603636912063959e-02	 1.261054308314603e+00	 3.174584205445570e-01
 8.524295806728306e-02	 1.261829872349682e+00	 2.892843283755513e-01
 7.447786395788004e-02	 1.262511015365494e+00	 2.642821052673188e-01
 6.374212840766905e-02	 1.263098560464746e+00	 2.425274754686519e-01
 5.303677267716066e-02	 1.263593343301771e+00	 2.240928809380252e-01
 4.236279757853359e-02	 1.263996211543256e+00	 2.090477279599192e-01
 3.172118339627010e-02	 1.264308024331922e+00	 1.974586688918456e-01
 2.111288982178093e-02	 1.264529651753582e+00	 1.893899156821557e-01
 1.053885590176010e-02	 1.264661974307913e+00	 1.849035817824023e-01
 0.000000000000000e+00	 1.264705882383334e+00	 1.840600493403164e-01
 1.076025072084343e-01	 1.268974993036293e+00	 4.049205980273995e-01
 9.670635233149935e-02	 1.269851863070280e+00	 3.737238054206324e-01
 8.583764267762742e-02	 1.270632837710947e+00	 3.455736752504195e-01
 7.499744751660925e-02	 1.271318732618420e+00	 3.205663868885671e-01
 6.418681573034478e-02	 1.271910376637635e+00	 2.987940592597018e-01
 5.340677570400457e-02	 1.272408611252722e+00	 2.803449563262370e-01
 4.265833523177270e-02	 1.272814290043961e+00	 2.653037336752864e-01
 3.194248143692859e-02	 1.273128278147734e+00	 2.537517227186723e-01
 2.126018070601572e-02	 1.273351451719854e+00	 2.457672489863503e-01
 1.061237863683633e-02	 1.273484697402651e+00	 2.414259809833144e-01
 0.000000000000000e+00	 1.273528911796184e+00	 2.408013063347088e-01
 1.083479791612502e-01	 1.277766472820746e+00	 4.619887815753732e-01
 9.737633554267376e-02	 1.278649417825125e+00	 4.307879531592314e-01
 8.643232728813821e-02	 1.279435803071370e+00	 4.025979940745237e-01
 7.551703107535605e-02	 1.280126449870493e+00	 3.775285124041150e-01
 6.463150305290143e-02	 1.280722192809661e+00	 3.556845097208023e-01
 5.377677873061730e-02	 1.281223879202800e+00	 3.371665875686458e-01
 4.295387288470533e-02	 1.281632368543785e+00	 3.220711976132435e-01
 3.216377947725417e-02	 1.281948531962658e+00	 3.104909318173801e-01
 2.140747158995209e-02	 1.282173251685232e+00	 3.025148489568463e-01
 1.068590137172126e-02	 1.282307420496491e+00	 2.982288337792522e-01
 0.000000000000000e+00	 1.282351941208134e+00	 2.977159853758353e-01
 1.090934511144761e-01	 1.286557952604549e+00	 5.199340943214326e-01
 9.804631875415215e-02	 1.287446972579301e+00	 4.886649267678949e-01
 8.702701189883458e-02	 1.288238768431105e+00	 4.603816505952218e-01
 7.603661463416812e-02	 1.288934167121860e+00	 4.352038282913888e-01
 6.507619037541097e-02	 1.289534008980963e+00	 4.132458919331268e-01
 5.414678175708864e-02	 1.290039147152133e+00	 3.946173543269624e-01
 4.324941053743030e-02	 1.290450447042847e+00	 3.794230663233891e-01
 3.238507751734357e-02	 1.290768785776804e+00	 3.677635165006756e-01
 2.155476247367107e-02	 1.290995051649820e+00	 3.597351693549777e-01
 1.075942410646440e-02	 1.291130143589533e+00	 3.554308381384643e-01
 0.000000000000000e+00	 1.291174970619284e+00	 3.549400887425207e-01
 1.098389230680726e-01	 1.295349432387875e+00	 5.787584965451789e-01
 9.871630196592401e-02	 1.296244527332976e+00	 5.473663284143435e-01
 8.762169650973596e-02	 1.297041733790313e+00	 5.189465100487589e-01
 7.655619819309299e-02	 1.297741884372669e+00	 4.936251438035528e-01
 6.552087769794535e-02	 1.298345825151676e+00	 4.715226981122795e-01
 5.451678478350840e-02	 1.298854415100849e+00	 4.527542269497378e-01
 4.354494819004644e-02	 1.299268525541265e+00	 4.374296379231315e-01
 3.260637555729342e-02	 1.299589039590283e+00	 4.256540049979696e-01
 2.170205335725366e-02	 1.299816851613725e+00	 4.175279218353372e-01
 1.083294684111531e-02	 1.299952866681880e+00	 4.131478916949221e-01
 0.000000000000000e+00	 1.299998000029734e+00	 4.126067501362076e-01
 1.105843950219999e-01	 1.304140912170899e+00	 6.384616111014902e-01
 9.938628517797872e-02	 1.305042082086316e+00	 6.069013784119222e-01
 8.821638112086165e-02	 1.305844699149148e+00	 5.783120164547624e-01
 7.707578175217837e-02	 1.306549601623066e+00	 5.528228108523638e-01
 6.596556502057642e-02	 1.307157641321937e+00	 5.305569284151044e-01
 5.488678780996634e-02	 1.307669683049075e+00	 5.116316486027084e-01
 4.384048584265256e-02	 1.308086604039157e+00	 4.961586460016341e-01
 3.282767359720042e-02	 1.308409293403207e+00	 4.842443196493034e-01
 2.184934424078084e-02	 1.308638651577050e+00	 4.759901649960685e-01
 1.090646957572350e-02	 1.308775589773633e+00	 4.714931842806005e-01
 0.000000000000000e+00	 1.308821029439584e+00	 4.708463313687905e-01
 1.113298669762187e-01	 1.312932391953795e+00	 6.990407992509813e-01
 1.000562683903057e-01	 1.313839636839487e+00	 6.672769911178655e-01
 8.881106573223085e-02	 1.314647664507767e+00	 6.384952687944789e-01
 7.759536531147186e-02	 1.315357318873199e+00	 6.128248007320671e-01
 6.641025234337615e-02	 1.315969457491884e+00	 5.903881685404380e-01
 5.525679083655230e-02	 1.316484950996940e+00	 5.713016141240541e-01
 4.413602349534752e-02	 1.316904682536645e+00	 5.556753401722117e-01
 3.304897163716124e-02	 1.317229547215688e+00	 5.436138596449958e-01
 2.199663512433365e-02	 1.317460451539901e+00	 5.352163898553404e-01
 1.097999231033851e-02	 1.317598312864892e+00	 5.305772867368168e-01
 0.000000000000000e+00	 1.317644058848934e+00	 5.297865151670567e-01
 1.120753389306894e-01	 1.321723871736737e+00	 7.604912335715317e-01
 1.007262516028944e-01	 1.322637191592656e+00	 7.284978478903676e-01
 8.940575034386296e-02	 1.323450629866328e+00	 6.995110942167635e-01
 7.811494887102105e-02	 1.324165036123214e+00	 6.736567778370444e-01
 6.685493966641651e-02	 1.324781273661655e+00	 6.510536642680134e-01
 5.562679386335605e-02	 1.325300218944569e+00	 6.318137457580097e-01
 4.443156114823011e-02	 1.325722761033844e+00	 6.160425634240791e-01
 3.327026967727255e-02	 1.326049801027835e+00	 6.038395804732946e-01
 2.214392600799307e-02	 1.326282251502384e+00	 5.952986019200688e-01
 1.105351504500987e-02	 1.326421035955760e+00	 5.905082361871046e-01
 0.000000000000000e+00	 1.326467088257884e+00	 5.895523942726075e-01
 1.128208108853724e-01	 1.330515351519901e+00	 8.228059680878959e-01
 1.013962348157342e-01	 1.331434746345987e+00	 7.905664672399193e-01
 9.000043495577721e-02	 1.332253595224988e+00	 7.613721184108717e-01
 7.863453243087361e-02	 1.332972753373260e+00	 7.353421705047825e-01
 6.729962698976935e-02	 1.333593089831386e+00	 7.125883930817933e-01
 5.599679689046736e-02	 1.334115486892093e+00	 6.932153659158014e-01
 4.472709880139920e-02	 1.334540839530876e+00	 6.773208264254744e-01
 3.349156771763102e-02	 1.334870054839761e+00	 6.649960702258477e-01
 2.229121689184013e-02	 1.335104051464604e+00	 6.563264000060298e-01
 1.112703777978712e-02	 1.335243759046337e+00	 6.513916179252022e-01
 0.000000000000000e+00	 1.335290117666534e+00	 6.502665570092860e-01
 1.135662828402284e-01	 1.339306831303460e+00	 8.859760057439781e-01
 1.020662180288146e-01	 1.340232301099649e+00	 8.534832723040249e-01
 9.059511956799295e-02	 1.341056560583903e+00	 8.240888332720948e-01
 7.915411599107712e-02	 1.341780470623482e+00	 7.979022391223691e-01
 6.774431431350665e-02	 1.342404906001215e+00	 7.750251330092917e-01
 5.636679991797610e-02	 1.342930754839637e+00	 7.555515670913624e-01
 4.502263645495359e-02	 1.343358918027858e+00	 7.395683789168519e-01
 3.371286575833333e-02	 1.343690308651576e+00	 7.271556229093721e-01
 2.243850777595580e-02	 1.343925851426666e+00	 7.183870519573552e-01
 1.120056051471979e-02	 1.344066482136725e+00	 7.133306440834473e-01
 0.000000000000000e+00	 1.344113147074984e+00	 7.120491694806084e-01
 1.143117547952176e-01	 1.348098311087590e+00	 9.499903633442499e-01
 1.027362012421250e-01	 1.349029855853806e+00	 9.172466557650265e-01
 9.118980418052944e-02	 1.349859525943230e+00	 8.876696619907061e-01
 7.967369955167920e-02	 1.350588187874028e+00	 8.613561416180930e-01
 6.818900163770034e-02	 1.351216722171277e+00	 8.383945288037380e-01
 5.673680294597199e-02	 1.351746022787329e+00	 8.188652790714848e-01
 4.531817410899213e-02	 1.352176996524908e+00	 8.028412783250916e-01
 3.393416379947616e-02	 1.352510562463393e+00	 7.903883088958257e-01
 2.258579866042112e-02	 1.352747651388675e+00	 7.815655674062654e-01
 1.127408324985740e-02	 1.352889205227027e+00	 7.764262292211024e-01
 0.000000000000000e+00	 1.352936176483334e+00	 7.750180545520400e-01
 1.352936176483334e+00	 0.000000000000000e+00	 1.759394847316059e+01
 1.352889205227027e+00	 1.127408324985666e-02	 1.759290472386299e+01
 1.352747651388675e+00	 2.258579866042048e-02	 1.759079859747785e+01
 1.352510562463392e+00	 3.393416379947564e-02	 1.758759428650782e+01
 1.352176996524908e+00	 4.531817410899172e-02	 1.758325873948443e+01
 1.351746022787329e+00	 5.673680294597166e-02	 1.757776227722595e+01
 1.351216722171277e+00	 6.818900163770010e-02	 1.757107918250770e+01
 1.350588187874028e+00	 7.967369955167911e-02	 1.756318826022124e+01
 1.349859525943230e+00	 9.118980418052945e-02	 1.755407336487549e+01
 1.349029855853806e+00	 1.027362012421251e-01	 1.754372389222885e+01
 1.348098311087590e+00	 1.143117547952177e-01	 1.753213523178314e+01
 1.361760705896667e+00	 0.000000000000000e+00	 1.743902622407329e+01
 1.361713428270247e+00	 1.134761848484702e-02	 1.743794510158984e+01
 1.361570951146700e+00	 2.273311458624149e-02	 1.743591633183883e+01
 1.361332315808420e+00	 3.415549946404613e-02	 1.743289598262661e+01
 1.360996574185418e+00	 4.561376200799330e-02	 1.742884349641965e+01
 1.360562789420742e+00	 5.710686887879947e-02	 1.742372233359220e+01
 1.360030036440317e+00	 6.863376456377379e-02	 1.741750058841691e+01
 1.359397402526789e+00	 8.019337144721007e-02	 1.741015157481654e+01
 1.358663987896998e+00	 9.178458989584184e-02	 1.740165437866992e+01
 1.357828906282633e+00	 1.034062983596298e-01	 1.739199437339915e+01
 1.356891285513662e+00	 1.150573534881408e-01	 1.738116369550379e+01
 1.370585235310001e+00	 0.000000000000000e+00	 1.728885824438433e+01
 1.370537651313480e+00	 1.142115372004104e-02	 1.728773118673163e+01
 1.370394250904771e+00	 2.288043051240713e-02	 1.728576615684300e+01
 1.370154069153548e+00	 3.437683512904651e-02	 1.728291190186804e+01
 1.369816151846095e+00	 4.590934990746143e-02	 1.727912119015129e+01
 1.369379556054403e+00	 5.747693481208903e-02	 1.727435148087098e+01
 1.368843350709689e+00	 6.907852749027030e-02	 1.726856556571795e+01
 1.368206617179968e+00	 8.071304334309815e-02	 1.726173217957679e+01
 1.367468449851268e+00	 9.237937561142637e-02	 1.725382657694349e+01
 1.366627956712044e+00	 1.040763954773102e-01	 1.724483107074716e+01
 1.365684259940387e+00	 1.158029521811391e-01	 1.723473553017761e+01
 1.379409764723334e+00	 0.000000000000000e+00	 1.714322876836489e+01
 1.379361874356723e+00	 1.149468895538780e-02	 1.714205135308732e+01
 1.379217550662885e+00	 2.302774643883125e-02	 1.714014044228262e+01
 1.378975822498765e+00	 3.459817079436932e-02	 1.713743825096902e+01
 1.378635729506922e+00	 4.620493780727946e-02	 1.713389168945182e+01
 1.378196322688281e+00	 5.784700074572489e-02	 1.712945305874548e+01
 1.377656664979350e+00	 6.952329041708381e-02	 1.712408071730107e+01
 1.377015831833514e+00	 8.123271523925400e-02	 1.711773971594705e+01
 1.376272911805979e+00	 9.297416132721503e-02	 1.711040239772148e+01
 1.375427007141962e+00	 1.047464925951222e-01	 1.710204895920403e+01
 1.374477234367676e+00	 1.165485508741936e-01	 1.709266796988836e+01
 1.388234294136667e+00	 0.000000000000000e+00	 1.700192564436679e+01
 1.388186097399976e+00	 1.156822419083639e-02	 1.700069740692075e+01
 1.388040850421034e+00	 2.317506236542768e-02	 1.699883481298112e+01
 1.387797575844059e+00	 3.481950645990708e-02	 1.699627431906854e+01
 1.387455307167877e+00	 4.650052570733075e-02	 1.699295777828518e+01
 1.387013089322345e+00	 5.821706667959157e-02	 1.698883316090171e+01
 1.386469979249262e+00	 6.996805334410877e-02	 1.698385524548506e+01
 1.385825046487373e+00	 8.175238713558843e-02	 1.697798627742204e+01
 1.385077373761063e+00	 9.356894704313973e-02	 1.697119659146277e+01
 1.384226057572308e+00	 1.054165897130219e-01	 1.696346519483528e+01
 1.383270208795438e+00	 1.172941495672857e-01	 1.695478030741240e+01
 1.397058823550000e+00	 0.000000000000000e+00	 1.686474022068104e+01
 1.397010320443238e+00	 1.164175942633589e-02	 1.686346447571889e+01
 1.396864150179216e+00	 2.332237829211027e-02	 1.686164804063121e+01
 1.396619329189418e+00	 3.504084212555231e-02	 1.685922237279396e+01
 1.396274884828940e+00	 4.679611360749868e-02	 1.685612505429615e+01
 1.395829855956568e+00	 5.858713261357373e-02	 1.685230053706265e+01
 1.395283293519384e+00	 7.041281627123945e-02	 1.684770085772443e+01
 1.394634261141493e+00	 8.227205903201212e-02	 1.684228631904006e+01
 1.393881835716456e+00	 9.416373275913247e-02	 1.683602613444046e+01
 1.393025108003004e+00	 1.060866868309656e-01	 1.682889903219338e+01
 1.392063183223582e+00	 1.180397482603965e-01	 1.682089381561176e+01
 1.405883352963333e+00	 0.000000000000000e+00	 1.673146723569501e+01
 1.405834543486506e+00	 1.171529466183539e-02	 1.673015090114251e+01
 1.405687449937423e+00	 2.346969421879286e-02	 1.672838193971891e+01
 1.405441082534831e+00	 3.526217779119753e-02	 1.672608755532552e+01
 1.405094462490091e+00	 4.709170150766660e-02	 1.672320183117060e+01
 1.404646622590918e+00	 5.895719854755587e-02	 1.671966649878724e+01
 1.404096607789674e+00	 7.085757919837009e-02	 1.671543167597694e+01
 1.403443475795821e+00	 8.279173092843582e-02	 1.671045657043526e+01
 1.402686297672092e+00	 9.475851847512520e-02	 1.670471014558068e+01
 1.401824158433973e+00	 1.067567839489093e-01	 1.669817174503086e+01
 1.400856157652018e+00	 1.187853469535073e-01	 1.669083167209505e+01
 1.414707882376666e+00	 0.000000000000000e+00	 1.660190471216062e+01
 1.414658766529780e+00	 1.178882989728398e-02	 1.660055813598655e+01
 1.414510749695649e+00	 2.361701014538929e-02	 1.659884126735423e+01
 1.414262835880286e+00	 3.548351345673529e-02	 1.659667778926496e+01
 1.413914040151312e+00	 4.738728940771791e-02	 1.659399904469829e+01
 1.413463389225367e+00	 5.932726448142257e-02	 1.659074482887045e+01
 1.412909922060092e+00	 7.130234212539499e-02	 1.658686414957171e+01
 1.412252690450304e+00	 8.331140282477023e-02	 1.658231595229202e+01
 1.411490759627908e+00	 9.535330419104993e-02	 1.657706980660834e+01
 1.410623208865135e+00	 1.074268810668091e-01	 1.657110655022790e+01
 1.409649132080654e+00	 1.195309456465994e-01	 1.656441888700348e+01
 1.423532411789999e+00	 0.000000000000000e+00	 1.647585385539499e+01
 1.423482989573057e+00	 1.186236513263074e-02	 1.647449064497547e+01
 1.423334049453891e+00	 2.376432607181340e-02	 1.647283362683956e+01
 1.423084589225772e+00	 3.570484912205811e-02	 1.647080368314421e+01
 1.422733617812583e+00	 4.768287730753594e-02	 1.646833016237706e+01
 1.422280155859884e+00	 5.969733041505841e-02	 1.646535169418780e+01
 1.421723236330597e+00	 7.174710505220856e-02	 1.646181697142653e+01
 1.421061905104891e+00	 8.383107472092610e-02	 1.645768549605461e+01
 1.420295221583836e+00	 9.594808990683856e-02	 1.645292828535584e+01
 1.419422259296415e+00	 1.080969781846211e-01	 1.644752853479473e+01
 1.418442106509400e+00	 1.202765443396539e-01	 1.644148223378696e+01
 1.432356941203333e+00	 0.000000000000000e+00	 1.635311895524441e+01
 1.432307212616338e+00	 1.193590036782476e-02	 1.635175580922895e+01
 1.432157349212142e+00	 2.391164199797905e-02	 1.635016937481445e+01
 1.431906342571277e+00	 3.592618478705849e-02	 1.634827844141599e+01
 1.431553195473883e+00	 4.797846520700406e-02	 1.634601109640600e+01
 1.431096922494441e+00	 6.006739634834795e-02	 1.634330556183574e+01
 1.430536550601150e+00	 7.219186797870504e-02	 1.634011099746906e+01
 1.429871119759527e+00	 8.435074661681413e-02	 1.633638826675125e+01
 1.429099683539813e+00	 9.654287562242309e-02	 1.633211066209962e+01
 1.428221309727733e+00	 1.087670753023014e-01	 1.632726458581610e+01
 1.427235080938167e+00	 1.210221430326522e-01	 1.632185018284022e+01
 1.441181470616666e+00	 0.000000000000000e+00	 1.623350729164971e+01
 1.441131435659620e+00	 1.200943560281512e-02	 1.623216383424010e+01
 1.440980648970397e+00	 2.405895792380007e-02	 1.623066153182317e+01
 1.440728095916789e+00	 3.614752045162897e-02	 1.622891777777760e+01
 1.440372773135193e+00	 4.827405310600565e-02	 1.622686011992185e+01
 1.439913689129008e+00	 6.043746228117578e-02	 1.622442711842707e+01
 1.439349864871708e+00	 7.263663090477876e-02	 1.622156916912571e+01
 1.438680334414161e+00	 8.487041851234511e-02	 1.621824928879957e+01
 1.437904145495773e+00	 9.713766133773551e-02	 1.621444385879317e+01
 1.437020360159012e+00	 1.094371724198062e-01	 1.621014332321203e+01
 1.436028055366862e+00	 1.217677417255753e-01	 1.620535283787743e+01
 1.348098311087590e+00	 1.143117547952177e-01	 1.753213523178314e+01
 1.347063855059284e+00	 1.259172778055186e-01	 1.751905865122527e+01
 1.345925800095279e+00	 1.375496020550358e-01	 1.750429165772650e+01
 1.344683324602242e+00	 1.492074983425989e-01	 1.748790380375581e+01
 1.343335623389784e+00	 1.608897156880040e-01	 1.746997317832265e+01
 1.341881908267035e+00	 1.725949815280876e-01	 1.745058655382730e+01
 1.340321408639350e+00	 1.843220019302541e-01	 1.742983947028826e+01
 1.338653372104616e+00	 1.960694618236400e-01	 1.740783625342527e+01
 1.336877065048610e+00	 2.078360252480808e-01	 1.738468996307233e+01
 1.334991773238847e+00	 2.196203356210290e-01	 1.736052226840220e+01
 1.332996802416356e+00	 2.314210160225521e-01	 1.733546324645893e+01
 1.356891285513662e+00	 1.150573534881408e-01	 1.738116369550379e+01
 1.355850082243650e+00	 1.267385735496547e-01	 1.736891809216462e+01
 1.354704604313630e+00	 1.384467696614800e-01	 1.735505939201295e+01
 1.353454024771420e+00	 1.501807046049924e-01	 1.733965517341655e+01
 1.352097533174766e+00	 1.619391192404801e-01	 1.732278226000199e+01
 1.350634336191817e+00	 1.737207327044974e-01	 1.730452688240381e+01
 1.349063658201715e+00	 1.855242426247840e-01	 1.728498477612169e+01
 1.347384741894797e+00	 1.973483253529379e-01	 1.726426121187971e+01
 1.345596848871830e+00	 2.091916362150056e-01	 1.724247095487635e+01
 1.343699260241742e+00	 2.210528097801407e-01	 1.721973814931373e+01
 1.341691277217250e+00	 2.329304601474621e-01	 1.719619612460805e+01
 1.365684259940387e+00	 1.158029521811391e-01	 1.723473553017761e+01
 1.364636309428726e+00	 1.275598692937682e-01	 1.722329945454476e+01
 1.363483408532734e+00	 1.393439372678097e-01	 1.721032720607141e+01
 1.362224724941377e+00	 1.511539108671872e-01	 1.719588378380271e+01
 1.360859442960541e+00	 1.629885227926834e-01	 1.718004413234766e+01
 1.359386764117389e+00	 1.748464838805716e-01	 1.716289331912852e+01
 1.357805907764853e+00	 1.867264833189294e-01	 1.714452664652281e+01
 1.356116111685718e+00	 1.986271888818178e-01	 1.712504969520955e+01
 1.354316632695745e+00	 2.105472471814965e-01	 1.710457829502128e+01
 1.352406747245272e+00	 2.224852839388230e-01	 1.708323841959974e+01
 1.350385752018702e+00	 2.344399042719690e-01	 1.706116600116050e+01
 1.374477234367676e+00	 1.165485508741936e-01	 1.709266796988836e+01
 1.373422536614409e+00	 1.283811650378647e-01	 1.708202182405606e+01
 1.372262212752476e+00	 1.402411048740537e-01	 1.706991551900968e+01
 1.370995425111989e+00	 1.521271171292333e-01	 1.705641088074347e+01
 1.369621352746975e+00	 1.640379263446819e-01	 1.704158037277246e+01
 1.368139192043613e+00	 1.759722350563939e-01	 1.702550728947809e+01
 1.366548157328623e+00	 1.879287240127860e-01	 1.700828588318700e+01
 1.364847481477240e+00	 1.999060524103841e-01	 1.699002142121293e+01
 1.363036416520218e+00	 2.119028581476623e-01	 1.697083016907728e+01
 1.361114234249305e+00	 2.239177580971832e-01	 1.695083929611436e+01
 1.359080226820593e+00	 2.359493483961734e-01	 1.693018669967109e+01
 1.383270208795438e+00	 1.172941495672857e-01	 1.695478030741240e+01
 1.382208763800598e+00	 1.292024607819500e-01	 1.694490623484165e+01
 1.381041016972741e+00	 1.411382724802404e-01	 1.693364660320431e+01
 1.379766125283133e+00	 1.531003233911800e-01	 1.692105948292063e+01
 1.378383262533936e+00	 1.650873298965438e-01	 1.690721426557667e+01
 1.376891619970350e+00	 1.770979862320484e-01	 1.689219187395700e+01
 1.375290406892884e+00	 1.891309647064503e-01	 1.687608490470905e+01
 1.373578851269221e+00	 2.011849159387414e-01	 1.685899769978798e+01
 1.371756200345110e+00	 2.132584691136113e-01	 1.684104634281186e+01
 1.369821721253712e+00	 2.253502322553288e-01	 1.682235857644268e+01
 1.367774701622807e+00	 2.374587925201763e-01	 1.680307363690644e+01
 1.392063183223582e+00	 1.180397482603965e-01	 1.682089381561176e+01
 1.390994990987188e+00	 1.300237565260295e-01	 1.681177559489534e+01
 1.389819821193415e+00	 1.420354400863985e-01	 1.680134451357869e+01
 1.388536825454683e+00	 1.540735296530771e-01	 1.678965431490901e+01
 1.387145172321294e+00	 1.661367334483376e-01	 1.677677073864076e+01
 1.385644047897464e+00	 1.782237374076190e-01	 1.676277174834094e+01
 1.384032656457494e+00	 1.903332054000184e-01	 1.674774769028360e+01
 1.382310221061520e+00	 2.024637794669941e-01	 1.673180138000327e+01
 1.380475984170284e+00	 2.146140800794518e-01	 1.671504811255167e+01
 1.378529208258362e+00	 2.267827064133670e-01	 1.669761559248274e+01
 1.376469176425223e+00	 2.389682366440784e-01	 1.667964377958326e+01
 1.400856157652018e+00	 1.187853469535073e-01	 1.669083167209505e+01
 1.399781218174077e+00	 1.308450522701092e-01	 1.668245461464290e+01
 1.398598625414386e+00	 1.429326076925566e-01	 1.667283501998943e+01
 1.397307525626517e+00	 1.550467359149742e-01	 1.666202174326109e+01
 1.395907082108914e+00	 1.671861370001314e-01	 1.665007630310943e+01
 1.394396475824816e+00	 1.793494885831896e-01	 1.663707312686829e+01
 1.392774906022312e+00	 1.915354460935865e-01	 1.662309972631930e+01
 1.391041590853995e+00	 2.037426429952470e-01	 1.660825680005813e+01
 1.389195767995604e+00	 2.159696910452924e-01	 1.659265825841921e+01
 1.387236695263126e+00	 2.282151805714052e-01	 1.657643116689587e+01
 1.385163651227726e+00	 2.404776807679804e-01	 1.655971560397657e+01
 1.409649132080654e+00	 1.195309456465994e-01	 1.656441888700348e+01
 1.408567445361161e+00	 1.316663480141944e-01	 1.655676973856651e+01
 1.407377429635538e+00	 1.438297752987433e-01	 1.654794554258514e+01
 1.406078225798511e+00	 1.560199421769210e-01	 1.653798971550358e+01
 1.404668991896667e+00	 1.682355405519934e-01	 1.652695899593641e+01
 1.403148903752267e+00	 1.804752397588441e-01	 1.651492370825079e+01
 1.401517155587198e+00	 1.927376867872509e-01	 1.650196795584096e+01
 1.399772960646505e+00	 2.050215065236042e-01	 1.648818974000763e+01
 1.397915551820929e+00	 2.173253020112413e-01	 1.647370100031927e+01
 1.395944182267874e+00	 2.296476547295507e-01	 1.645862757230036e+01
 1.393858126030195e+00	 2.419871248919833e-01	 1.644310905827264e+01
 1.418442106509400e+00	 1.202765443396539e-01	 1.644148223378696e+01
 1.417353672548340e+00	 1.324876437582909e-01	 1.643454907974063e+01
 1.416156233856758e+00	 1.447269429049873e-01	 1.642650509000853e+01
 1.414848925970540e+00	 1.569931484389670e-01	 1.641738770191890e+01
 1.413430901684418e+00	 1.692849441039919e-01	 1.640724832516535e+01
 1.411901331679679e+00	 1.816009909346664e-01	 1.639615262438169e+01
 1.410259405152009e+00	 1.939399274811075e-01	 1.638418073055763e+01
 1.408504330438909e+00	 2.063003700521705e-01	 1.637142737713172e+01
 1.406635335646124e+00	 2.186809129774071e-01	 1.635800195655617e+01
 1.404651669272474e+00	 2.310801288879110e-01	 1.634402849308956e+01
 1.402552600832516e+00	 2.434965690161877e-01	 1.632964552754760e+01
 1.427235080938167e+00	 1.210221430326522e-01	 1.632185018284023e+01
 1.426139899735509e+00	 1.333089395024044e-01	 1.631562235715348e+01
 1.424935038077931e+00	 1.456241105113170e-01	 1.630834420031927e+01
 1.423619626142480e+00	 1.579663547011619e-01	 1.630004663999182e+01
 1.422192811472035e+00	 1.703343476561950e-01	 1.629077521782977e+01
 1.420653759606916e+00	 1.827267421107406e-01	 1.628059039162397e+01
 1.419001654716606e+00	 1.951421681752528e-01	 1.626956776548234e+01
 1.417235700231067e+00	 2.075792335810503e-01	 1.625779824383446e+01
 1.415355119471049e+00	 2.200365239438981e-01	 1.624538810496720e+01
 1.413359156276798e+00	 2.325126030465932e-01	 1.623245898976063e+01
 1.411247075634568e+00	 2.450060131406946e-01	 1.621914780125828e+01
 1.436028055366862e+00	 1.217677417255753e-01	 1.620535283787743e+01
 1.434926126922566e+00	 1.341302352465405e-01	 1.619982083569576e+01
 1.433713842298945e+00	 1.465212781177613e-01	 1.619329488452120e+01
 1.432390326314207e+00	 1.589395609635554e-01	 1.618579888140715e+01
 1.430954721259390e+00	 1.713837512086713e-01	 1.617737197035911e+01
 1.429406187533840e+00	 1.838524932871505e-01	 1.616806886456917e+01
 1.427743904280846e+00	 1.963444088697827e-01	 1.615796009599389e+01
 1.425967070022837e+00	 2.088580971103483e-01	 1.614713218796524e+01
 1.424074903295569e+00	 2.213921349108228e-01	 1.613568774646547e+01
 1.422066643280715e+00	 2.339450772057049e-01	 1.612374546564713e+01
 1.419941550436235e+00	 2.465154572656048e-01	 1.611144004313776e+01
 1.332996802416356e+00	 2.314210160225521e-01	 1.733546324645893e+01
 1.330891845997599e+00	 2.432346603896922e-01	 1.730880052186993e+01
 1.328675921154549e+00	 2.550618599626060e-01	 1.727979726744712e+01
 1.326348396360253e+00	 2.669011826603550e-01	 1.724857099094492e+01
 1.323908662363273e+00	 2.787511774632431e-01	 1.721524541064313e+01
 1.321356132759197e+00	 2.906103747886408e-01	 1.717994984063449e+01
 1.318690244556446e+00	 3.024772868851618e-01	 1.714281848088478e+01
 1.315910458735754e+00	 3.143504082451844e-01	 1.710398960904807e+01
 1.313016260802667e+00	 3.262282160356711e-01	 1.706360467114988e+01
 1.310007161332449e+00	 3.381091705472291e-01	 1.702180726839946e+01
 1.306882696506716e+00	 3.499917156613212e-01	 1.697874203756297e+01
 1.341691277217250e+00	 2.329304601474621e-01	 1.719619612460805e+01
 1.339572591215119e+00	 2.448211590379683e-01	 1.717112977759039e+01
 1.337342212996833e+00	 2.567255015481719e-01	 1.714380174343311e+01
 1.334999506916314e+00	 2.686420462563683e-01	 1.711433672884717e+01
 1.332543859748294e+00	 2.805693326785685e-01	 1.708286681531476e+01
 1.329974681263546e+00	 2.925058816467714e-01	 1.704953084796473e+01
 1.327291404798392e+00	 3.044501957057145e-01	 1.701447372656552e+01
 1.324493487817822e+00	 3.164007595280839e-01	 1.697784559547918e+01
 1.321580412471606e+00	 3.283560403481451e-01	 1.693980092954549e+01
 1.318551686142743e+00	 3.403144884137317e-01	 1.690049751301369e+01
 1.315406841987608e+00	 3.522745374565047e-01	 1.686009530880555e+01
 1.350385752018702e+00	 2.344399042719690e-01	 1.706116600116049e+01
 1.348253336433106e+00	 2.464076576858904e-01	 1.703764634225096e+01
 1.346008504839481e+00	 2.583891431334531e-01	 1.701194561599821e+01
 1.343650617472627e+00	 2.703829098521834e-01	 1.698419651070264e+01
 1.341179057133447e+00	 2.823874878937942e-01	 1.695454024745498e+01
 1.338593229767909e+00	 2.944013885049102e-01	 1.692312597173425e+01
 1.335892565040231e+00	 3.064231045263880e-01	 1.689011004448043e+01
 1.333076516899666e+00	 3.184511108112181e-01	 1.685565522934376e+01
 1.330144564140208e+00	 3.304838646609647e-01	 1.681992977293650e+01
 1.327096210952599e+00	 3.425198062806841e-01	 1.678310637505857e+01
 1.323930987467973e+00	 3.545573592522309e-01	 1.674536104603148e+01
 1.359080226820593e+00	 2.359493483961734e-01	 1.693018669967109e+01
 1.356934081651459e+00	 2.479941563335470e-01	 1.690816101771262e+01
 1.354674796682413e+00	 2.600527847185212e-01	 1.688403581328653e+01
 1.352301728029138e+00	 2.721237734478502e-01	 1.685795252256030e+01
 1.349814254518708e+00	 2.842056431089465e-01	 1.683006226642931e+01
 1.347211778272284e+00	 2.962968953630575e-01	 1.680052524400909e+01
 1.344493725281991e+00	 3.083960133471566e-01	 1.676951002297236e+01
 1.341659545981341e+00	 3.205014620945352e-01	 1.673719272329177e+01
 1.338708715808558e+00	 3.326116889740540e-01	 1.670375609106943e+01
 1.335640735762127e+00	 3.447251241479888e-01	 1.666938845927613e+01
 1.332455132947942e+00	 3.568401810483847e-01	 1.663428259238562e+01
 1.367774701622807e+00	 2.374587925201763e-01	 1.680307363690644e+01
 1.365614826870076e+00	 2.495806549810267e-01	 1.678248622845330e+01
 1.363341088525549e+00	 2.617164263034472e-01	 1.675988093782736e+01
 1.360952838585789e+00	 2.738646370434186e-01	 1.673540869913666e+01
 1.358449451904044e+00	 2.860237983240513e-01	 1.670923127719037e+01
 1.355830326776671e+00	 2.981924022212138e-01	 1.668152066209296e+01
 1.353094885523699e+00	 3.103689221679942e-01	 1.665245835806986e+01
 1.350242575062906e+00	 3.225518133779834e-01	 1.662223456294238e+01
 1.347272867476741e+00	 3.347395132873366e-01	 1.659104723478879e+01
 1.344185260571436e+00	 3.469304420155475e-01	 1.655910104246351e+01
 1.340979278427648e+00	 3.591230028448507e-01	 1.652660619680890e+01
 1.376469176425223e+00	 2.389682366440784e-01	 1.667964377958325e+01
 1.374295572088858e+00	 2.511671536284180e-01	 1.666043598123173e+01
 1.372007380368809e+00	 2.633800678883028e-01	 1.663929122871255e+01
 1.369603949142525e+00	 2.756055006389392e-01	 1.661637068807871e+01
 1.367084649289429e+00	 2.878419535391354e-01	 1.659184749618213e+01
 1.364448875281071e+00	 3.000879090793797e-01	 1.656590615561376e+01
 1.361696045765385e+00	 3.123418309888749e-01	 1.653874182127980e+01
 1.358825604144416e+00	 3.246021646615113e-01	 1.651055947489065e+01
 1.355837019144840e+00	 3.368673376007368e-01	 1.648157298375024e+01
 1.352729785380635e+00	 3.491357598832633e-01	 1.645200404036871e+01
 1.349503423907224e+00	 3.614058246415133e-01	 1.642208097957663e+01
 1.385163651227726e+00	 2.404776807679804e-01	 1.655971560397657e+01
 1.382976317307702e+00	 2.527536522758093e-01	 1.654182582763705e+01
 1.380673672212114e+00	 2.650437094731589e-01	 1.652207852669614e+01
 1.378255059699290e+00	 2.773463642344620e-01	 1.650064581720738e+01
 1.375719846674832e+00	 2.896601087542244e-01	 1.647771292030563e+01
 1.373067423785480e+00	 3.019834159375556e-01	 1.645347755677296e+01
 1.370297206007076e+00	 3.143147398097730e-01	 1.642814923066802e+01
 1.367408633225929e+00	 3.266525159450666e-01	 1.640194839815073e+01
 1.364401170812940e+00	 3.389951619141786e-01	 1.637510551774208e+01
 1.361274310189836e+00	 3.513410777510383e-01	 1.634785997838947e+01
 1.358027569386798e+00	 3.636886464382575e-01	 1.632045890185927e+01
 1.393858126030195e+00	 2.419871248919833e-01	 1.644310905827264e+01
 1.391657062526507e+00	 2.543401509232892e-01	 1.642647282939797e+01
 1.389339964055382e+00	 2.667073510580869e-01	 1.640805624208918e+01
 1.386906170256031e+00	 2.790872278300369e-01	 1.638804306461175e+01
 1.384355044060224e+00	 2.914782639693448e-01	 1.636663129881106e+01
 1.381685972289901e+00	 3.038789227957421e-01	 1.634403257362057e+01
 1.378898366248802e+00	 3.162876486306630e-01	 1.632047142508504e+01
 1.375991662307500e+00	 3.287028672285981e-01	 1.629618445888550e+01
 1.372965322481124e+00	 3.411229862275858e-01	 1.627141939145642e+01
 1.369818834999145e+00	 3.535463956187748e-01	 1.624643396590980e+01
 1.366551714866505e+00	 3.659714682349678e-01	 1.622149473913128e+01
 1.402552600832516e+00	 2.434965690161877e-01	 1.632964552754760e+01
 1.400337807745173e+00	 2.559266495709461e-01	 1.631419552633239e+01
 1.398006255898535e+00	 2.683709926431582e-01	 1.629703932532805e+01
 1.395557280812689e+00	 2.808280914257144e-01	 1.627837303147006e+01
 1.392990241445578e+00	 2.932964191845226e-01	 1.625840810799085e+01
 1.390304520794330e+00	 3.057744296539397e-01	 1.623737076622351e+01
 1.387499526490589e+00	 3.182605574515185e-01	 1.621550124139935e+01
 1.384574691389187e+00	 3.307532185120538e-01	 1.619305294827982e+01
 1.381529474149479e+00	 3.432508105408824e-01	 1.617029151256186e+01
 1.378363359808673e+00	 3.557517134863754e-01	 1.614749367411587e+01
 1.375075860346475e+00	 3.682542900315289e-01	 1.612494605826023e+01
 1.411247075634568e+00	 2.450060131406946e-01	 1.621914780125829e+01
 1.409018552963599e+00	 2.575131482188688e-01	 1.620481390682274e+01
 1.406672547741491e+00	 2.700346342284438e-01	 1.618884424010136e+01
 1.404208391369210e+00	 2.825689550215446e-01	 1.617144791748018e+01
 1.401625438830864e+00	 2.951145743997843e-01	 1.615285052855144e+01
 1.398923069298769e+00	 3.076699365121487e-01	 1.613329352560304e+01
 1.396100686732467e+00	 3.202334662723139e-01	 1.611303349460989e+01
 1.393157720471047e+00	 3.328035697953820e-01	 1.609234130342192e+01
 1.390093625818086e+00	 3.453786348539923e-01	 1.607150112293419e+01
 1.386907884618530e+00	 3.579570313537424e-01	 1.605080931714182e+01
 1.383600005826839e+00	 3.705371118278250e-01	 1.603057319811787e+01
 1.419941550436235e+00	 2.465154572656048e-01	 1.611144004313776e+01
 1.417699298181683e+00	 2.590996468671456e-01	 1.609814938070949e+01
 1.415338839584173e+00	 2.716982758140153e-01	 1.608328893892529e+01
 1.412859501925539e+00	 2.843098186175775e-01	 1.606708149878722e+01
 1.410260636216053e+00	 2.969327296151559e-01	 1.604976742555014e+01
 1.407541617803216e+00	 3.095654433703699e-01	 1.603160405532287e+01
 1.404701846974463e+00	 3.222063750930234e-01	 1.601286496071330e+01
 1.401740749553137e+00	 3.348539210785311e-01	 1.599383909106406e+01
 1.398657777487031e+00	 3.475064591668399e-01	 1.597482978291034e+01
 1.395452409428825e+00	 3.601623492207781e-01	 1.595615363640175e+01
 1.392124151307731e+00	 3.728199336237416e-01	 1.593813925356198e+01
 1.306882696506716e+00	 3.499917156613212e-01	 1.697874203756297e+01
 1.303642428925645e+00	 3.618742795014395e-01	 1.693401817522181e+01
 1.300285948981592e+00	 3.737552754491766e-01	 1.688720227426456e+01
 1.296812874516516e+00	 3.856331021939083e-01	 1.683836488589637e+01
 1.293222851033617e+00	 3.975061441091527e-01	 1.678756155646896e+01
 1.289515552181324e+00	 4.093727718083583e-01	 1.673483103565354e+01
 1.285690680225100e+00	 4.212313427177439e-01	 1.668019337984956e+01
 1.281747966506409e+00	 4.330802016659257e-01	 1.662364795050133e+01
 1.277687171888223e+00	 4.449176814900397e-01	 1.656517130733804e+01
 1.273508087186421e+00	 4.567421036580434e-01	 1.650471499692348e+01
 1.269210533586462e+00	 4.685517789068530e-01	 1.644220323729662e+01
 1.315406841987608e+00	 3.522745374565047e-01	 1.686009530880555e+01
 1.312145439753444e+00	 3.642346053473769e-01	 1.681810751131129e+01
 1.308767067160938e+00	 3.761930951192264e-01	 1.677399934380481e+01
 1.305271339559416e+00	 3.881483950168897e-01	 1.672784849493944e+01
 1.301657900139864e+00	 4.000988788759703e-01	 1.667971628916148e+01
 1.297926420422076e+00	 4.120429066822527e-01	 1.662964583894111e+01
 1.294076600729533e+00	 4.239788251482766e-01	 1.657766009097260e+01
 1.290108170651366e+00	 4.359049683068131e-01	 1.652375976597025e+01
 1.286020889490769e+00	 4.478196581209375e-01	 1.646792119203280e+01
 1.281814546699208e+00	 4.597212051103917e-01	 1.641009403192082e+01
 1.277488962295819e+00	 4.716079089938833e-01	 1.635019890498977e+01
 1.323930987467973e+00	 3.545573592522309e-01	 1.674536104603148e+01
 1.320648450580642e+00	 3.665949311939358e-01	 1.670609045624282e+01
 1.317248185339625e+00	 3.786309147899633e-01	 1.666463656364691e+01
 1.313729804601611e+00	 3.906636878406111e-01	 1.662108306130392e+01
 1.310092949245371e+00	 4.026916136435698e-01	 1.657549621167489e+01
 1.306337288662063e+00	 4.147130415569600e-01	 1.652792294973906e+01
 1.302462521233183e+00	 4.267263075796452e-01	 1.647838887853254e+01
 1.298468374795530e+00	 4.387297349485515e-01	 1.642689615666978e+01
 1.294354607092516e+00	 4.507216347526958e-01	 1.637342127775628e+01
 1.290121006211195e+00	 4.627003065636054e-01	 1.631791274197430e+01
 1.285767391004374e+00	 4.746640390817800e-01	 1.626028862052357e+01
 1.332455132947942e+00	 3.568401810483847e-01	 1.663428259238562e+01
 1.329151461407391e+00	 3.689552570409886e-01	 1.659770127406589e+01
 1.325729303517818e+00	 3.810687344612502e-01	 1.655884449686741e+01
 1.322188269643277e+00	 3.931789806649302e-01	 1.651780086335036e+01
 1.318527998350322e+00	 4.052843484118061e-01	 1.647464076869523e+01
 1.314748156901475e+00	 4.173831764323361e-01	 1.642941446150191e+01
 1.310848441736247e+00	 4.294737900117074e-01	 1.638214999518509e+01
 1.306828578939100e+00	 4.415545015910020e-01	 1.633285106944322e+01
 1.302688324693665e+00	 4.536236113851781e-01	 1.628149476162175e+01
 1.298427465722582e+00	 4.656794080175501e-01	 1.622802914817037e+01
 1.294045819712330e+00	 4.777201691704104e-01	 1.617237081679367e+01
 1.340979278427648e+00	 3.591230028448507e-01	 1.652660619680890e+01
 1.337654472233839e+00	 3.713155828884063e-01	 1.649267731039792e+01
 1.334210421695680e+00	 3.835065541329500e-01	 1.645635682421801e+01
 1.330646734684588e+00	 3.956942734897049e-01	 1.641773719213520e+01
 1.326963047454904e+00	 4.078770831805354e-01	 1.637689217019296e+01
 1.323159025140505e+00	 4.200533113082371e-01	 1.633387484185804e+01
 1.319234362238919e+00	 4.322212724443209e-01	 1.628871553176671e+01
 1.315188783082273e+00	 4.443792682340243e-01	 1.624141960733972e+01
 1.311022042294415e+00	 4.565255880182477e-01	 1.619196516798180e+01
 1.306733925233569e+00	 4.686585094720913e-01	 1.614030062195859e+01
 1.302324248419886e+00	 4.807762992596409e-01	 1.608634215144938e+01
 1.349503423907224e+00	 3.614058246415133e-01	 1.642208097957663e+01
 1.346157483060137e+00	 3.736759087360607e-01	 1.639075895859675e+01
 1.342691539873378e+00	 3.859443738049259e-01	 1.635691031548596e+01
 1.339105199725725e+00	 3.982095663147932e-01	 1.632063033253800e+01
 1.335398096559300e+00	 4.104698179496136e-01	 1.628199538691752e+01
 1.331569893379343e+00	 4.227234461845191e-01	 1.624106094709229e+01
 1.327620282741396e+00	 4.349687548773435e-01	 1.619785945540036e+01
 1.323548987225249e+00	 4.472040348774795e-01	 1.615239809599239e+01
 1.319355759894965e+00	 4.594275646517680e-01	 1.610465644773689e+01
 1.315040384744357e+00	 4.716376109270947e-01	 1.605458402205496e+01
 1.310602677127242e+00	 4.838324293493378e-01	 1.600209768605908e+01
 1.358027569386798e+00	 3.636886464382575e-01	 1.632045890185927e+01
 1.354660493886436e+00	 3.760362345838234e-01	 1.629168963010480e+01
 1.351172658051076e+00	 3.883821934770403e-01	 1.626024480500656e+01
 1.347563664766861e+00	 4.007248591400526e-01	 1.622622154835111e+01
 1.343833145663696e+00	 4.130625527188962e-01	 1.618969814949517e+01
 1.339980761618180e+00	 4.253935810610378e-01	 1.615073203969979e+01
 1.336006203243873e+00	 4.377162373106330e-01	 1.610935764996950e+01
 1.331909191368224e+00	 4.500288015212276e-01	 1.606558415148750e+01
 1.327689477495516e+00	 4.623295412856020e-01	 1.601939307808457e+01
 1.323346844255144e+00	 4.746167123824256e-01	 1.597073583056132e+01
 1.318881105834598e+00	 4.868885594393678e-01	 1.591953106309215e+01
 1.366551714866505e+00	 3.659714682349678e-01	 1.622149473913128e+01
 1.363163504712884e+00	 3.783965604315659e-01	 1.619521572878219e+01
 1.359653776228939e+00	 3.908200131491567e-01	 1.616610317114546e+01
 1.356022129808173e+00	 4.032401519653414e-01	 1.613425507115889e+01
 1.352268194768276e+00	 4.156552874882393e-01	 1.609975095097209e+01
 1.348391629857210e+00	 4.280637159376496e-01	 1.606264980887763e+01
 1.344392123746545e+00	 4.404637197440472e-01	 1.602298795885694e+01
 1.340269395511398e+00	 4.528535681651291e-01	 1.598077674966065e+01
 1.336023195096266e+00	 4.652315179196131e-01	 1.593600016269082e+01
 1.331653303766132e+00	 4.775958138379501e-01	 1.588861228833484e+01
 1.327159534542153e+00	 4.899446895295974e-01	 1.583853468081288e+01
 1.375075860346475e+00	 3.682542900315289e-01	 1.612494605826023e+01
 1.371666515539633e+00	 3.807568862791604e-01	 1.610108662905666e+01
 1.368134894407131e+00	 3.932578328211374e-01	 1.607423131957935e+01
 1.364480594849838e+00	 4.057554447905173e-01	 1.604447809284167e+01
 1.360703243873228e+00	 4.182480222574983e-01	 1.601190705265325e+01
 1.356802498096622e+00	 4.307338508142103e-01	 1.597657839382648e+01
 1.352778044249608e+00	 4.432112021774436e-01	 1.593853022984992e+01
 1.348629599654967e+00	 4.556783348090447e-01	 1.589777629675693e+01
 1.344356912697415e+00	 4.681334945536647e-01	 1.585430353226433e+01
 1.339959763277518e+00	 4.805749152935332e-01	 1.580806952964061e+01
 1.335437963250109e+00	 4.930008196198934e-01	 1.575899986617601e+01
 1.383600005826839e+00	 3.705371118278250e-01	 1.603057319811787e+01
 1.380169526366831e+00	 3.831172121264778e-01	 1.600905465772430e+01
 1.376616012585818e+00	 3.956956524928459e-01	 1.598437817021111e+01
 1.372939059892033e+00	 4.082707376154379e-01	 1.595664076154883e+01
 1.369138292978735e+00	 4.208407570265293e-01	 1.592592249309563e+01
 1.365213366336608e+00	 4.334039856905756e-01	 1.589228440974124e+01
 1.361163964753259e+00	 4.459586846106806e-01	 1.585576636211865e+01
 1.356989803799132e+00	 4.585031014528347e-01	 1.581638470139690e+01
 1.352690630299162e+00	 4.710354711876198e-01	 1.577412984551718e+01
 1.348266222789505e+00	 4.835540167490409e-01	 1.572896371611779e+01
 1.343716391958665e+00	 4.960569497101225e-01	 1.568081704581118e+01
 1.392124151307731e+00	 3.728199336237416e-01	 1.593813925356198e+01
 1.388672537194630e+00	 3.854775379733900e-01	 1.591887507924626e+01
 1.385097130765164e+00	 3.981334721641446e-01	 1.589629564756266e+01
 1.381397524934934e+00	 4.107860304399616e-01	 1.587049618099129e+01
 1.377573342084982e+00	 4.234334917951880e-01	 1.584155610011946e+01
 1.373624234577360e+00	 4.360741205666020e-01	 1.580953697637505e+01
 1.369549885257692e+00	 4.487061670436154e-01	 1.577448035517843e+01
 1.365350007944089e+00	 4.613278680963596e-01	 1.573640544779209e+01
 1.361024347901708e+00	 4.739374478213423e-01	 1.569530669049459e+01
 1.356572682302292e+00	 4.865331182043387e-01	 1.565115117008895e+01
 1.351994820668021e+00	 4.991130798001510e-01	 1.560387591517748e+01
 1.269210533586462e+00	 4.685517789068530e-01	 1.644220323729662e+01
 1.264793602015855e+00	 4.803470112777081e-01	 1.637760164348251e+01
 1.260257895366589e+00	 4.921240816119458e-01	 1.631092604308988e+01
 1.255603327383696e+00	 5.038812709735316e-01	 1.624210203972987e+01
 1.250829843712159e+00	 5.156168523708458e-01	 1.617102694589452e+01
 1.245937422231995e+00	 5.273290914687045e-01	 1.609756695162902e+01
 1.240926073375035e+00	 5.390162473136549e-01	 1.602155419026459e+01
 1.235795840422856e+00	 5.506765730720238e-01	 1.594278370527952e+01
 1.230546799785333e+00	 5.623083167801735e-01	 1.586101032296204e+01
 1.225179061259301e+00	 5.739097221063956e-01	 1.577594543617291e+01
 1.219692768266804e+00	 5.854790291238445e-01	 1.568725370514461e+01
 1.277488962295819e+00	 4.716079089938833e-01	 1.635019890498977e+01
 1.273043221278675e+00	 4.834800757957715e-01	 1.628831085654253e+01
 1.268477930472135e+00	 4.953339620991682e-01	 1.622457193240761e+01
 1.263793003058634e+00	 5.071678377562655e-01	 1.615893250701539e+01
 1.258988384328630e+00	 5.189799645111296e-01	 1.609131888776378e+01
 1.254064052017868e+00	 5.307685967163623e-01	 1.602163045333052e+01
 1.249020016626222e+00	 5.425319820631296e-01	 1.594973667946191e+01
 1.243856321717579e+00	 5.542683623240222e-01	 1.587547405612319e+01
 1.238573044200203e+00	 5.659759741082082e-01	 1.579864290052691e+01
 1.233170294587080e+00	 5.776530496282919e-01	 1.571900407120255e+01
 1.227648217235732e+00	 5.892978174782922e-01	 1.563620176902536e+01
 1.285767391004374e+00	 4.746640390817800e-01	 1.626028862052357e+01
 1.281292840540695e+00	 4.866131403147009e-01	 1.620078677013395e+01
 1.276697965576881e+00	 4.985438425872536e-01	 1.613973057250909e+01
 1.271982678732776e+00	 5.104544045398592e-01	 1.607709857782548e+01
 1.267146924944311e+00	 5.223430766522678e-01	 1.601284906501919e+01
 1.262190681802957e+00	 5.342081019648687e-01	 1.594691714011115e+01
 1.257113959876638e+00	 5.460477168134459e-01	 1.587921171279442e+01
 1.251916803011547e+00	 5.578601515768560e-01	 1.580961235500413e+01
 1.246599288614339e+00	 5.696436314370714e-01	 1.573796604584036e+01
 1.241161527914155e+00	 5.813963771510109e-01	 1.566408380788838e+01
 1.235603666203993e+00	 5.931166058335577e-01	 1.558622612990477e+01
 1.294045819712330e+00	 4.777201691704104e-01	 1.617237081679367e+01
 1.289542459802115e+00	 4.897462048343620e-01	 1.611496640196377e+01
 1.284918000681028e+00	 5.017537230760660e-01	 1.605636826168789e+01
 1.280172354406320e+00	 5.137409713241714e-01	 1.599658647168011e+01
 1.275305465559397e+00	 5.257061887941143e-01	 1.593561421058019e+01
 1.270317311587458e+00	 5.376476072140717e-01	 1.587342480881900e+01
 1.265207903126474e+00	 5.495634515644462e-01	 1.580996866689784e+01
 1.259977284304949e+00	 5.614519408303607e-01	 1.574517004664955e+01
 1.254625533027926e+00	 5.733112887665924e-01	 1.567892373972136e+01
 1.249152761240702e+00	 5.851397046743750e-01	 1.561109161821848e+01
 1.243559115171751e+00	 5.969353941894570e-01	 1.553666468220191e+01
 1.302324248419886e+00	 4.807762992596409e-01	 1.608634215144938e+01
 1.297792079063135e+00	 4.928792693546206e-01	 1.603078390821007e+01
 1.293138035784776e+00	 5.049636035654682e-01	 1.597444757944635e+01
 1.288362030079466e+00	 5.170275381090620e-01	 1.591737806203844e+01
 1.283464006174087e+00	 5.290693009365243e-01	 1.585960631484905e+01
 1.278443941371567e+00	 5.410871124638198e-01	 1.580114634881011e+01
 1.273301846375924e+00	 5.530791863159725e-01	 1.574199207793548e+01
 1.268037765597974e+00	 5.650437300843711e-01	 1.568211403468721e+01
 1.262651777441146e+00	 5.769789460965996e-01	 1.562145595381978e+01
 1.257143994566896e+00	 5.888830321982061e-01	 1.555990154602633e+01
 1.251514564139175e+00	 6.007541825458070e-01	 1.548731558796869e+01
 1.310602677127242e+00	 4.838324293493378e-01	 1.600209768605908e+01
 1.306041698323956e+00	 4.960123338753425e-01	 1.594817080365579e+01
 1.301358070888324e+00	 5.081734840553237e-01	 1.589392764028770e+01
 1.296551705752413e+00	 5.203141048943898e-01	 1.583945115638564e+01
 1.291622546788580e+00	 5.324324130793512e-01	 1.578481292467925e+01
 1.286570571155480e+00	 5.445266177139613e-01	 1.573007005233984e+01
 1.281395789625182e+00	 5.565949210678663e-01	 1.567526195591485e+01
 1.276098246890808e+00	 5.686355193387226e-01	 1.562040699235560e+01
 1.270678021854183e+00	 5.806466034269213e-01	 1.556549895015813e+01
 1.265135227892915e+00	 5.926263597223278e-01	 1.550922953937186e+01
 1.259470013106432e+00	 6.045729709024250e-01	 1.543798497091611e+01
 1.318881105834598e+00	 4.868885594393678e-01	 1.591953106309215e+01
 1.314291317584775e+00	 4.991453983963934e-01	 1.586705617828850e+01
 1.309578105991872e+00	 5.113833645454955e-01	 1.581476434289985e+01
 1.304741381425359e+00	 5.236006716800142e-01	 1.576277977091368e+01
 1.299781087403072e+00	 5.357955252224491e-01	 1.571121743641856e+01
 1.294697200939394e+00	 5.479661229643449e-01	 1.566017991879033e+01
 1.289489732874439e+00	 5.601106558199700e-01	 1.560975409288362e+01
 1.284158728183644e+00	 5.722273085932503e-01	 1.556000766741789e+01
 1.278704266267219e+00	 5.843142607573861e-01	 1.551098557548529e+01
 1.273126461218933e+00	 5.963696872465615e-01	 1.545832358370462e+01
 1.267425462073689e+00	 6.083917592591278e-01	 1.538848686253088e+01
 1.327159534542153e+00	 4.899446895295974e-01	 1.583853468081288e+01
 1.322540936845796e+00	 5.022784629176393e-01	 1.578736691052070e+01
 1.317798141095619e+00	 5.145932450358471e-01	 1.573691061493135e+01
 1.312931057098506e+00	 5.268872384657945e-01	 1.568733440003152e+01
 1.307939628017762e+00	 5.391586373656728e-01	 1.563879938328559e+01
 1.302823830723504e+00	 5.514056282148184e-01	 1.559145595300343e+01
 1.297583676123889e+00	 5.636263905721249e-01	 1.554544036527119e+01
 1.292219209476668e+00	 5.758190978477895e-01	 1.550087118153229e+01
 1.286730510680439e+00	 5.879819180878233e-01	 1.545784555066779e+01
 1.281117694545127e+00	 6.001130147707301e-01	 1.540703811566580e+01
 1.275380911041114e+00	 6.122105476157323e-01	 1.533864314520747e+01
 1.335437963250109e+00	 4.930008196198934e-01	 1.575899986617601e+01
 1.330790556107215e+00	 5.054115274389456e-01	 1.570902787717650e+01
 1.326018176199766e+00	 5.178031255262414e-01	 1.566031665355085e+01
 1.321120732772049e+00	 5.301738052515904e-01	 1.561308228092955e+01
 1.316098168632849e+00	 5.425217495088762e-01	 1.556753471732581e+01
 1.310950460508004e+00	 5.548451334652303e-01	 1.552387445797475e+01
 1.305677619373726e+00	 5.671421253241734e-01	 1.548228903063042e+01
 1.300279690770070e+00	 5.794108871021756e-01	 1.544294932431990e+01
 1.294756755094026e+00	 5.916495754180610e-01	 1.540521144212931e+01
 1.289108927871674e+00	 6.038563422946560e-01	 1.535523442552428e+01
 1.283336360008872e+00	 6.160293359720556e-01	 1.528828349252485e+01
 1.343716391958665e+00	 4.960569497101225e-01	 1.568081704581118e+01
 1.339040175369236e+00	 5.085445919601784e-01	 1.563196216038511e+01
 1.334238211304513e+00	 5.210130060165420e-01	 1.558493016197220e+01
 1.329310408446192e+00	 5.334603720372607e-01	 1.553998765341100e+01
 1.324256709248529e+00	 5.458848616519133e-01	 1.549739608618085e+01
 1.319077090293094e+00	 5.582846387154288e-01	 1.545740832215171e+01
 1.313771562624141e+00	 5.706578600759569e-01	 1.542026501902099e+01
 1.308340172064038e+00	 5.830026763562437e-01	 1.538619084235814e+01
 1.302782999508162e+00	 5.953172327479281e-01	 1.535198480314072e+01
 1.297100161198749e+00	 6.075996698181616e-01	 1.530278062473548e+01
 1.291291808977132e+00	 6.198481243279141e-01	 1.523724530679088e+01
 1.351994820668021e+00	 4.991130798001510e-01	 1.560387591517749e+01
 1.347289794632056e+00	 5.116776564812034e-01	 1.555609125151294e+01
 1.342458246410059e+00	 5.242228865066122e-01	 1.551069658211766e+01
 1.337500084121130e+00	 5.367469388226648e-01	 1.546801201519367e+01
 1.332415249865001e+00	 5.492479737946389e-01	 1.542835310489275e+01
 1.327203720078967e+00	 5.617241439652626e-01	 1.539202730156711e+01
 1.321865505875329e+00	 5.741735948273180e-01	 1.535933021926396e+01
 1.316400653358761e+00	 5.865944656098289e-01	 1.533054172331741e+01
 1.310809243923032e+00	 5.989848900772532e-01	 1.529805905887012e+01
 1.305091394526529e+00	 6.113429973410692e-01	 1.524955160990018e+01
 1.299247257946061e+00	 6.236669126831257e-01	 1.518537365397178e+01
 1.219692768266804e+00	 5.854790291238445e-01	 1.568725370514461e+01
 1.214089060667263e+00	 5.970125171593550e-01	 1.559862282698348e+01
 1.208367226446505e+00	 6.085103911828973e-01	 1.550783640443659e+01
 1.202527510139158e+00	 6.199708854837129e-01	 1.541474408997151e+01
 1.196570190626451e+00	 6.313922339239018e-01	 1.531965958274169e+01
 1.190495581266530e+00	 6.427726707565107e-01	 1.522290886243538e+01
 1.184304030001858e+00	 6.541104314506720e-01	 1.512483071639601e+01
 1.177995919443366e+00	 6.654037535230667e-01	 1.502577730253771e+01
 1.171571666931022e+00	 6.766508773749481e-01	 1.492508699254907e+01
 1.165031724570545e+00	 6.878500471339707e-01	 1.482074951150808e+01
 1.158376579246009e+00	 6.989995115000320e-01	 1.471305849645355e+01
 1.227648217235732e+00	 5.892978174782922e-01	 1.563620176902535e+01
 1.222007959440318e+00	 6.009065327169382e-01	 1.554897087156461e+01
 1.216248804542540e+00	 6.124794016511175e-01	 1.545931860033231e+01
 1.210370998671997e+00	 6.240146470532215e-01	 1.536751055903689e+01
 1.204374822528908e+00	 6.355104912657149e-01	 1.527382238704547e+01
 1.198260591515288e+00	 6.469651570245579e-01	 1.517854032183364e+01
 1.192028655843047e+00	 6.583768682897299e-01	 1.508196180501868e+01
 1.185679400618684e+00	 6.697438510821117e-01	 1.498439612964916e+01
 1.179213245904258e+00	 6.810643343259736e-01	 1.488616512597855e+01
 1.172630646754338e+00	 6.923365506962912e-01	 1.478697803580036e+01
 1.165932093228688e+00	 7.035587374701054e-01	 1.468447548481005e+01
 1.235603666203993e+00	 5.931166058335577e-01	 1.558622612990477e+01
 1.229926858212748e+00	 6.048005482753342e-01	 1.550018967165590e+01
 1.224130382638001e+00	 6.164484121201466e-01	 1.541191232935174e+01
 1.218214487204311e+00	 6.280584086235363e-01	 1.532162497173553e+01
 1.212179454430893e+00	 6.396287486083320e-01	 1.522956689291300e+01
 1.206025601763627e+00	 6.511576432934074e-01	 1.513598644778371e+01
 1.199753281683865e+00	 6.626433051295887e-01	 1.504114173646256e+01
 1.193362881793672e+00	 6.740839486419573e-01	 1.494530133530561e+01
 1.186854824877197e+00	 6.854777912777997e-01	 1.484874507168399e+01
 1.180229568937855e+00	 6.968230542594114e-01	 1.475176483917058e+01
 1.173487607211099e+00	 7.081179634409790e-01	 1.465429086248387e+01
 1.243559115171751e+00	 5.969353941894570e-01	 1.553666468220191e+01
 1.237845756984708e+00	 6.086945638343547e-01	 1.545202934290993e+01
 1.232011960733027e+00	 6.204174225897930e-01	 1.536533033393921e+01
 1.226057975736233e+00	 6.321021701944629e-01	 1.527676531530633e+01
 1.219984086332526e+00	 6.437470059515563e-01	 1.518653890501503e+01
 1.213790612011652e+00	 6.553501295628618e-01	 1.509486338705665e+01
 1.207477907524403e+00	 6.669097419700498e-01	 1.500195947369607e+01
 1.201046362968413e+00	 6.784240462024042e-01	 1.490805711960237e+01
 1.194496403849912e+00	 6.898912482302257e-01	 1.481339638488460e+01
 1.187828491121165e+00	 7.013095578231323e-01	 1.471822834359063e+01
 1.181043121193310e+00	 7.126771894124521e-01	 1.462281603371793e+01
 1.251514564139175e+00	 6.007541825458070e-01	 1.548731558796869e+01
 1.245764655756356e+00	 6.125885793938126e-01	 1.540424916379115e+01
 1.239893538827766e+00	 6.243864330598659e-01	 1.531929559766888e+01
 1.233901464267892e+00	 6.361459317658068e-01	 1.523262082562762e+01
 1.227788718233922e+00	 6.478652632951917e-01	 1.514439641466997e+01
 1.221555622259467e+00	 6.595426158327222e-01	 1.505480034292554e+01
 1.215202533364756e+00	 6.711761788109144e-01	 1.496401783927793e+01
 1.208729844142988e+00	 6.827641437632522e-01	 1.487224227997216e+01
 1.202137982822479e+00	 6.943047051830522e-01	 1.477967613918489e+01
 1.195427413304337e+00	 7.057960613872530e-01	 1.468653199001017e+01
 1.188598635175388e+00	 7.172364153843258e-01	 1.459303355177602e+01
 1.259470013106432e+00	 6.045729709024250e-01	 1.543798497091611e+01
 1.253683554527847e+00	 6.164825949535203e-01	 1.535661748785867e+01
 1.247775116922360e+00	 6.283554435301736e-01	 1.527354122291450e+01
 1.241744952799420e+00	 6.401896933373744e-01	 1.518889183258993e+01
 1.235593350135202e+00	 6.519835206390420e-01	 1.510280941520682e+01
 1.229320632507176e+00	 6.637351021027911e-01	 1.501543936277623e+01
 1.222927159205015e+00	 6.754426156519830e-01	 1.492693327743926e+01
 1.216413325317481e+00	 6.871042413243023e-01	 1.483744994992793e+01
 1.209779561794972e+00	 6.987181621360791e-01	 1.474715639695145e+01
 1.203026335487441e+00	 7.102825649515739e-01	 1.465622895385730e+01
 1.196154149157399e+00	 7.217956413563996e-01	 1.456485441835333e+01
 1.267425462073689e+00	 6.083917592591278e-01	 1.538848686253088e+01
 1.261602453299338e+00	 6.203766105132895e-01	 1.530891165420219e+01
 1.255656695016955e+00	 6.323244540005248e-01	 1.522781030786256e+01
 1.249588441330948e+00	 6.442334549089713e-01	 1.514528960591871e+01
 1.243397982036480e+00	 6.561017779829106e-01	 1.506145971880366e+01
 1.237085642754886e+00	 6.679275883728708e-01	 1.497643512813712e+01
 1.230651785045276e+00	 6.797090524930577e-01	 1.489033561945065e+01
 1.224096806491974e+00	 6.914443388853547e-01	 1.480328734187981e+01
 1.217421140767466e+00	 7.031316190891076e-01	 1.471542393165602e+01
 1.210625257670545e+00	 7.147690685158951e-01	 1.462688769564555e+01
 1.203709663139410e+00	 7.263548673284732e-01	 1.453783085059624e+01
 1.275380911041114e+00	 6.122105476157323e-01	 1.533864314520747e+01
 1.269521352070985e+00	 6.242706260729334e-01	 1.526091789611200e+01
 1.263538273111693e+00	 6.362934644707280e-01	 1.518185582289729e+01
 1.257431929862607e+00	 6.482772164804029e-01	 1.510153620142835e+01
 1.251202613937877e+00	 6.602200353266016e-01	 1.502004077473696e+01
 1.244850653002701e+00	 6.721200746427631e-01	 1.493745474702389e+01
 1.238376410885629e+00	 6.839754893339386e-01	 1.485386785213172e+01
 1.231780287666549e+00	 6.957844364462097e-01	 1.476937549384769e+01
 1.225062719740032e+00	 7.075450760419362e-01	 1.468407995479608e+01
 1.218224179853717e+00	 7.192555720800158e-01	 1.459809167007135e+01
 1.211265177121488e+00	 7.309140933003470e-01	 1.451153056114579e+01
 1.283336360008872e+00	 6.160293359720556e-01	 1.528828349252484e+01
 1.277440250842946e+00	 6.281646416322637e-01	 1.521243124805922e+01
 1.271419851206720e+00	 6.402624749405923e-01	 1.513544048638533e+01
 1.265275418394528e+00	 6.523209780514754e-01	 1.505736430768718e+01
 1.259007245839510e+00	 6.643382926699181e-01	 1.497825748898076e+01
 1.252615663250726e+00	 6.763125609122710e-01	 1.489817754849814e+01
 1.246101036726167e+00	 6.882419261744271e-01	 1.481718588936691e+01
 1.239463768841290e+00	 7.001245340066681e-01	 1.473534901990090e+01
 1.232704298712748e+00	 7.119585329943660e-01	 1.465273984719409e+01
 1.225823102037028e+00	 7.237420756437369e-01	 1.456943904007363e+01
 1.218820691103700e+00	 7.354733192718207e-01	 1.448553645682362e+01
 1.291291808977132e+00	 6.198481243279141e-01	 1.523724530679088e+01
 1.285359149615375e+00	 6.320586571910932e-01	 1.516325545106020e+01
 1.279301429302179e+00	 6.442314854099265e-01	 1.508833663988526e+01
 1.273118906926843e+00	 6.563647396219948e-01	 1.501251709307793e+01
 1.266811877741495e+00	 6.684565500126637e-01	 1.493582604509735e+01
 1.260380673499065e+00	 6.805050471811952e-01	 1.485829487934430e+01
 1.253825662566985e+00	 6.925083630143244e-01	 1.477995834649673e+01
 1.247147250016277e+00	 7.044646315665298e-01	 1.470085586416397e+01
 1.240345877685687e+00	 7.163719899461964e-01	 1.462103289448575e+01
 1.233422024220544e+00	 7.282285792068580e-01	 1.454054239564180e+01
 1.226376205086111e+00	 7.400325452426939e-01	 1.445944634256112e+01
 1.299247257946061e+00	 6.236669126831257e-01	 1.518537365397178e+01
 1.293278048388431e+00	 6.359526727492338e-01	 1.511320285649274e+01
 1.287183007398215e+00	 6.482004958785387e-01	 1.504032612280708e+01
 1.280962395459681e+00	 6.604085011917664e-01	 1.496674805323424e+01
 1.274616509643952e+00	 6.725748073546428e-01	 1.489247372636415e+01
 1.268145683747824e+00	 6.846975334493388e-01	 1.481750990277456e+01
 1.261550288408174e+00	 6.967747998534314e-01	 1.474186631746313e+01
 1.254830731191596e+00	 7.088047291255957e-01	 1.466555705823606e+01
 1.247987456658923e+00	 7.207854468972283e-01	 1.458860202661931e+01
 1.241020946404337e+00	 7.327150827691791e-01	 1.451102847716795e+01
 1.233931719068790e+00	 7.445917712127675e-01	 1.443287263034657e+01
 1.158376579246009e+00	 6.989995115000320e-01	 1.471305849645355e+01
 1.151606752887915e+00	 7.100975248155994e-01	 1.460193366005052e+01
 1.144722803271552e+00	 7.211423485946773e-01	 1.448720133574731e+01
 1.137725323107168e+00	 7.321322517356784e-01	 1.436916892651239e+01
 1.130614939671369e+00	 7.430655111565818e-01	 1.424817875432678e+01
 1.123392314694512e+00	 7.539404126477526e-01	 1.412460811344074e+01
 1.116058144223075e+00	 7.647552517237869e-01	 1.399886906244029e+01
 1.108613158456955e+00	 7.755083344735211e-01	 1.387140794762725e+01
 1.101058121561683e+00	 7.861979784073621e-01	 1.374270465175215e+01
 1.093393831455592e+00	 7.968225133010768e-01	 1.361327156373896e+01
 1.085621119571988e+00	 8.073802820351770e-01	 1.348365226671159e+01
 1.165932093228688e+00	 7.035587374701054e-01	 1.468447548481005e+01
 1.159118110662097e+00	 7.147291376038305e-01	 1.457813896551743e+01
 1.152189260467951e+00	 7.258460012721898e-01	 1.446774326545347e+01
 1.145146139222464e+00	 7.369075860824796e-01	 1.435364614246114e+01
 1.137989378293664e+00	 7.479121577138692e-01	 1.423624035105559e+01
 1.130719643728060e+00	 7.588579907757849e-01	 1.411595366569801e+01
 1.123337636112105e+00	 7.697433696653098e-01	 1.399324863314579e+01
 1.115844090408439e+00	 7.805665894227380e-01	 1.386862204607028e+01
 1.108239775766874e+00	 7.913259565844316e-01	 1.374260413172770e+01
 1.100525495310181e+00	 8.020197900321118e-01	 1.361575745113330e+01
 1.092702085894701e+00	 8.126464218377238e-01	 1.348867550592484e+01
 1.173487607211099e+00	 7.081179634409790e-01	 1.465429086248387e+01
 1.166629468436006e+00	 7.193607503928615e-01	 1.455317222744753e+01
 1.159655717664057e+00	 7.305496539505018e-01	 1.444753556065750e+01
 1.152566955337439e+00	 7.416829204300776e-01	 1.433777629305526e+01
 1.145363816915610e+00	 7.527588042719483e-01	 1.422432517999847e+01
 1.138046972761229e+00	 7.637755689046011e-01	 1.410764831527039e+01
 1.130617128000730e+00	 7.747314876076042e-01	 1.398824686389026e+01
 1.123075022359500e+00	 7.856248443727101e-01	 1.386665650555395e+01
 1.115421429971638e+00	 7.964539347622329e-01	 1.374344658219107e+01
 1.107657159164353e+00	 8.072170667638509e-01	 1.361921894485299e+01
 1.099783052217030e+00	 8.179125616409383e-01	 1.349460649695299e+01
 1.181043121193310e+00	 7.126771894124521e-01	 1.462281603371793e+01
 1.174140826209707e+00	 7.239923631824924e-01	 1.452648134582046e+01
 1.167122174859945e+00	 7.352533066294128e-01	 1.442601781499437e+01
 1.159987771452176e+00	 7.464582547782729e-01	 1.432099465121420e+01
 1.152738255537295e+00	 7.576054508306215e-01	 1.421186836919683e+01
 1.145374301794115e+00	 7.686931470340049e-01	 1.409913141153776e+01
 1.137896619889056e+00	 7.797196055504780e-01	 1.398331188208321e+01
 1.130305954310250e+00	 7.906830993232478e-01	 1.386497297869420e+01
 1.122603084176091e+00	 8.015819129405842e-01	 1.374471211854046e+01
 1.114788823018229e+00	 8.124143434961176e-01	 1.362315975086107e+01
 1.106864018539093e+00	 8.231787014446537e-01	 1.350097785400469e+01
 1.188598635175388e+00	 7.172364153843258e-01	 1.459303355177602e+01
 1.181652183983273e+00	 7.286239759725235e-01	 1.449860426110764e+01
 1.174588632055685e+00	 7.399569593087233e-01	 1.440263960091280e+01
 1.167408587566755e+00	 7.512335891268664e-01	 1.430274693901903e+01
 1.160112694158807e+00	 7.624520973896903e-01	 1.419831583748212e+01
 1.152701630826816e+00	 7.736107251638005e-01	 1.408985330115760e+01
 1.145176111777187e+00	 7.847077234937369e-01	 1.397790287747064e+01
 1.137536886260803e+00	 7.957413542741626e-01	 1.386304409792496e+01
 1.129784738380351e+00	 8.067098911193008e-01	 1.374589159989575e+01
 1.121920486871926e+00	 8.176116202287359e-01	 1.362709392332140e+01
 1.113944984861004e+00	 8.284448412487024e-01	 1.350733197885403e+01
 1.196154149157399e+00	 7.217956413563996e-01	 1.456485441835333e+01
 1.189163541756770e+00	 7.332555887627544e-01	 1.447232788569922e+01
 1.182055089251353e+00	 7.446606119882333e-01	 1.437809950616062e+01
 1.174829403681256e+00	 7.560089234756590e-01	 1.428248950740715e+01
 1.167487132780236e+00	 7.672987439489568e-01	 1.418312447581430e+01
 1.160028959859431e+00	 7.785283032937919e-01	 1.407927551442268e+01
 1.152455603665230e+00	 7.896958414371891e-01	 1.397149029705545e+01
 1.144767818211272e+00	 8.007996092252666e-01	 1.386035368269288e+01
 1.136966392584535e+00	 8.118378692982010e-01	 1.374648685244450e+01
 1.129052150725564e+00	 8.228088969615299e-01	 1.363054610813444e+01
 1.121025951182882e+00	 8.337109810529183e-01	 1.351322132876830e+01
 1.203709663139410e+00	 7.263548673284732e-01	 1.453783085059625e+01
 1.196674899530268e+00	 7.378872015529856e-01	 1.444741765652939e+01
 1.189521546447022e+00	 7.493642646677441e-01	 1.435499447553521e+01
 1.182250219795759e+00	 7.607842578244517e-01	 1.426099745227136e+01
 1.174861571401671e+00	 7.721453905082239e-01	 1.416576233575585e+01
 1.167356288892055e+00	 7.834458814237835e-01	 1.406687095870899e+01
 1.159735095553291e+00	 7.946839593806407e-01	 1.396355604691742e+01
 1.151998750161769e+00	 8.058578641763703e-01	 1.385639695320829e+01
 1.144148046788762e+00	 8.169658474771009e-01	 1.374601089884005e+01
 1.136183814579263e+00	 8.280061736943243e-01	 1.363305179185735e+01
 1.128106917504843e+00	 8.389771208571345e-01	 1.351820868897958e+01
 1.211265177121488e+00	 7.309140933003470e-01	 1.451153056114579e+01
 1.204186257303834e+00	 7.425188143430166e-01	 1.442342816249158e+01
 1.196988003642765e+00	 7.540679173470547e-01	 1.433301620933204e+01
 1.189671035910344e+00	 7.655595921730454e-01	 1.424072527960274e+01
 1.182236010023199e+00	 7.769920370672927e-01	 1.414699007259288e+01
 1.174683617924788e+00	 7.883634595535789e-01	 1.405212411870472e+01
 1.167014587441475e+00	 7.996720773239000e-01	 1.395359370063183e+01
 1.159229682112407e+00	 8.109161191272857e-01	 1.385068075046494e+01
 1.151329700993149e+00	 8.220938256558181e-01	 1.374398819338835e+01
 1.143315478433141e+00	 8.332034504269424e-01	 1.363415755577427e+01
 1.135187883827004e+00	 8.442432606611832e-01	 1.352186744950341e+01
 1.218820691103700e+00	 7.354733192718207e-01	 1.448553645682361e+01
 1.211697615077536e+00	 7.471504271326477e-01	 1.439992960463236e+01
 1.204454460838656e+00	 7.587715700259655e-01	 1.431172550921086e+01
 1.197091852025092e+00	 7.703349265212405e-01	 1.422133845154750e+01
 1.189610448644911e+00	 7.818386836259658e-01	 1.412918684217109e+01
 1.182010946957726e+00	 7.932810376829830e-01	 1.403569447663178e+01
 1.174294079329890e+00	 8.046601952667729e-01	 1.394110871399948e+01
 1.166460614063299e+00	 8.159743740778236e-01	 1.384272376225790e+01
 1.158511355197814e+00	 8.272218038341690e-01	 1.373995486277286e+01
 1.150447142287318e+00	 8.384007271592092e-01	 1.363342133489210e+01
 1.142268850149480e+00	 8.495094004648984e-01	 1.352378188611447e+01
 1.226376205086111e+00	 7.400325452426939e-01	 1.445944634256112e+01
 1.219208972851445e+00	 7.517820399216786e-01	 1.437650748747258e+01
 1.211920918034766e+00	 7.634752227042773e-01	 1.429069880129575e+01
 1.204512668140084e+00	 7.751102608688384e-01	 1.420240772698334e+01
 1.196984887266893e+00	 7.866853301840449e-01	 1.411202600969429e+01
 1.189338275990966e+00	 7.981986158117989e-01	 1.401995105989027e+01
 1.181573571218639e+00	 8.096483132090674e-01	 1.392658735732362e+01
 1.173691546014558e+00	 8.210326290277947e-01	 1.383205675493977e+01
 1.165693009402874e+00	 8.323497820119703e-01	 1.373345895207705e+01
 1.157578806141913e+00	 8.435980038909480e-01	 1.363041268165029e+01
 1.149349816472390e+00	 8.547755402681128e-01	 1.352354744530065e+01
 1.233931719068790e+00	 7.445917712127675e-01	 1.443287263034657e+01
 1.226720330625627e+00	 7.564136527099095e-01	 1.435276231574243e+01
 1.219387375231171e+00	 7.681788753817900e-01	 1.426952782346870e+01
 1.211933484255399e+00	 7.798855952156397e-01	 1.418351940178005e+01
 1.204359325889236e+00	 7.915319767413326e-01	 1.409509193577701e+01
 1.196665605024608e+00	 8.031161939398310e-01	 1.400460643551727e+01
 1.188853063107831e+00	 8.146364311505905e-01	 1.391243156823537e+01
 1.180922477966298e+00	 8.260908839770120e-01	 1.381894522576986e+01
 1.172874663608447e+00	 8.374777601890396e-01	 1.372406067588003e+01
 1.164710469997046e+00	 8.487952806219833e-01	 1.362471303414232e+01
 1.156430782795849e+00	 8.600416800706597e-01	 1.352077103302532e+01
 1.085621119571988e+00	 8.073802820351770e-01	 1.348365226671159e+01
 1.077739502516610e+00	 8.178714178229555e-01	 1.335159271435244e+01
 1.069751194356563e+00	 8.282924857813846e-01	 1.321491116014885e+01
 1.061657130349154e+00	 8.386418662541383e-01	 1.307424620960161e+01
 1.053458278111545e+00	 8.489179559697088e-01	 1.293027482745277e+01
 1.045155637258033e+00	 8.591191688497392e-01	 1.278370976938785e+01
 1.036750239013331e+00	 8.692439368078929e-01	 1.263529673299604e+01
 1.028243145802149e+00	 8.792907105384193e-01	 1.248581123756437e+01
 1.019635450815409e+00	 8.892579602936008e-01	 1.233605524410292e+01
 1.010928277553431e+00	 8.991441766492650e-01	 1.218685352877061e+01
 1.002122779346504e+00	 9.089478712575699e-01	 1.203904982459774e+01
 1.092702085894701e+00	 8.126464218377238e-01	 1.348867550592484e+01
 1.084769060973243e+00	 8.232059860834416e-01	 1.335925534670604e+01
 1.076728649054170e+00	 8.336950254822073e-01	 1.322539459979163e+01
 1.068581791495002e+00	 8.441119098134868e-01	 1.308767593174163e+01
 1.060329462224184e+00	 8.544550253484324e-01	 1.294672130518430e+01
 1.051972667375996e+00	 8.647227756634913e-01	 1.280318943368887e+01
 1.043512444901313e+00	 8.749135824444839e-01	 1.265777294418027e+01
 1.034949864154511e+00	 8.850258862803126e-01	 1.251119525658657e+01
 1.026286025456847e+00	 8.950581474454797e-01	 1.236420719230551e+01
 1.017522059636673e+00	 9.050088466705939e-01	 1.221758332492403e+01
 1.008659127546873e+00	 9.148764859000650e-01	 1.207211808842242e+01
 1.099783052217030e+00	 8.179125616409383e-01	 1.349460649695299e+01
 1.091798619429549e+00	 8.285405543445518e-01	 1.336766463463202e+01
 1.083706103751525e+00	 8.390975651836055e-01	 1.323639629721049e+01
 1.075506452640689e+00	 8.495819533733578e-01	 1.310134611498451e+01
 1.067200646336763e+00	 8.599920947276259e-01	 1.296309914484804e+01
 1.058789697494005e+00	 8.703263824776633e-01	 1.282227832331218e+01
 1.050274650789446e+00	 8.805832280814486e-01	 1.267954161462510e+01
 1.041656582507124e+00	 8.907610620225399e-01	 1.253557886384188e+01
 1.032936600098626e+00	 9.008583345976631e-01	 1.239110836666430e+01
 1.024115841720328e+00	 9.108735166922100e-01	 1.224687316979856e+01
 1.015195475747708e+00	 9.208051005428431e-01	 1.210363711745331e+01
 1.106864018539093e+00	 8.231787014446537e-01	 1.350097785400468e+01
 1.098828177885637e+00	 8.338751226061306e-01	 1.337638545292231e+01
 1.090683558448726e+00	 8.445001048854348e-01	 1.324751441081029e+01
 1.082431113786299e+00	 8.550519969336218e-01	 1.311488888536465e+01
 1.074071830449349e+00	 8.655291641071742e-01	 1.297907478693831e+01
 1.065606727612108e+00	 8.759299892921527e-01	 1.284067720493286e+01
 1.057036856677760e+00	 8.862528737186978e-01	 1.270033751611174e+01
 1.048363300859998e+00	 8.964962377650252e-01	 1.255873018488425e+01
 1.039587174740738e+00	 9.066585217500860e-01	 1.241655926766197e+01
 1.030709623804376e+00	 9.167381867140567e-01	 1.227455463539932e+01
 1.021731823948975e+00	 9.267337151858555e-01	 1.213346793038014e+01
 1.113944984861004e+00	 8.284448412487024e-01	 1.350733197885403e+01
 1.105857736341615e+00	 8.392096908680210e-01	 1.338499178747312e+01
 1.097661013145873e+00	 8.499026445875523e-01	 1.325835547645587e+01
 1.089355774931916e+00	 8.605220404941488e-01	 1.312794396377480e+01
 1.080943014562009e+00	 8.710662334869599e-01	 1.299432144358671e+01
 1.072423757730353e+00	 8.815335961068571e-01	 1.285809276146488e+01
 1.063799062566284e+00	 8.919225193561429e-01	 1.271990045762335e+01
 1.055070019213145e+00	 9.022314135076923e-01	 1.258042148842469e+01
 1.046237749383177e+00	 9.124587089026823e-01	 1.244036363860119e+01
 1.037303405888794e+00	 9.226028567360767e-01	 1.230046163871064e+01
 1.028268172150642e+00	 9.326623298290513e-01	 1.216147300438591e+01
 1.121025951182882e+00	 8.337109810529183e-01	 1.351322132876831e+01
 1.112887294797594e+00	 8.445442591300674e-01	 1.339306703023426e+01
 1.104638467843062e+00	 8.553051842898136e-01	 1.326853473020874e+01
 1.096280436077623e+00	 8.659920840548078e-01	 1.314015901698771e+01
 1.087814198674808e+00	 8.766033028668675e-01	 1.300851947809612e+01
 1.079240787848789e+00	 8.871372029216741e-01	 1.287423800006533e+01
 1.070561268455048e+00	 8.975921649936949e-01	 1.273797572151022e+01
 1.061776737566577e+00	 9.079665892504643e-01	 1.260042965008032e+01
 1.052888324025938e+00	 9.182588960553872e-01	 1.246232895608921e+01
 1.043897187973562e+00	 9.284675267582144e-01	 1.232443095780351e+01
 1.034804520352675e+00	 9.385909444723801e-01	 1.218751681549763e+01
 1.128106917504843e+00	 8.389771208571345e-01	 1.351820868897958e+01
 1.119916853253684e+00	 8.498788273921142e-01	 1.340020427775107e+01
 1.111615922540391e+00	 8.607077239920758e-01	 1.327767643366115e+01
 1.103205097223503e+00	 8.714621276154693e-01	 1.315119001024600e+01
 1.094685382787814e+00	 8.821403722467804e-01	 1.302135678499206e+01
 1.086057817967464e+00	 8.927408097365023e-01	 1.288883265959493e+01
 1.077323474344080e+00	 9.032618106312649e-01	 1.275431449804689e+01
 1.068483455920302e+00	 9.137017649932652e-01	 1.261853661345654e+01
 1.059538898669014e+00	 9.240590832081345e-01	 1.248226691681833e+01
 1.050490970058658e+00	 9.343321967804127e-01	 1.234630274322871e+01
 1.041340868555041e+00	 9.445195591157927e-01	 1.221146637324911e+01
 1.135187883827004e+00	 8.442432606611832e-01	 1.352186744950341e+01
 1.126946411709993e+00	 8.552133956540047e-01	 1.340600663314038e+01
 1.118593377237960e+00	 8.661102636941952e-01	 1.328541420175263e+01
 1.110129758369640e+00	 8.769321711760028e-01	 1.316070156135248e+01
 1.101556566901094e+00	 8.876774416265821e-01	 1.303252917057079e+01
 1.092874848086427e+00	 8.983444165512375e-01	 1.290160361755745e+01
 1.084085680233411e+00	 9.089314562687643e-01	 1.276867431845009e+01
 1.075190174274334e+00	 9.194369407360174e-01	 1.263452984868046e+01
 1.066189473312398e+00	 9.298592703608585e-01	 1.249999392080327e+01
 1.057084752144061e+00	 9.401968668026147e-01	 1.236592102489957e+01
 1.047877216757708e+00	 9.504481737592384e-01	 1.223319174990659e+01
 1.142268850149480e+00	 8.495094004648984e-01	 1.352378188611447e+01
 1.133975970166631e+00	 8.605479639155836e-01	 1.341008751135381e+01
 1.125570831935865e+00	 8.715128033960280e-01	 1.329139133296287e+01
 1.117054419516118e+00	 8.824022147362781e-01	 1.316836729619573e+01
 1.108427751014714e+00	 8.932145110061565e-01	 1.304174073392098e+01
 1.099691878205725e+00	 9.039480233657788e-01	 1.291228529654264e+01
 1.090847886123069e+00	 9.146011019061032e-01	 1.278081948642442e+01
 1.081896892628682e+00	 9.251721164786458e-01	 1.264820280849523e+01
 1.072840047956085e+00	 9.356594575134944e-01	 1.251533155122983e+01
 1.063678534229750e+00	 9.460615368247648e-01	 1.238313421466255e+01
 1.054413564960641e+00	 9.563767884026672e-01	 1.225256660448992e+01
 1.149349816472390e+00	 8.547755402681128e-01	 1.352354744530065e+01
 1.141005528623706e+00	 8.658825321766943e-01	 1.341207094758441e+01
 1.132548286634205e+00	 8.769153430974306e-01	 1.329526114177658e+01
 1.123979080663019e+00	 8.878722582961649e-01	 1.317387020564917e+01
 1.115298935128740e+00	 8.987515803853878e-01	 1.304870424840061e+01
 1.106508908325406e+00	 9.095516301800235e-01	 1.292062007019204e+01
 1.097610092013084e+00	 9.202707475431937e-01	 1.279052150830075e+01
 1.088603610983357e+00	 9.309072922210734e-01	 1.265935538202138e+01
 1.079490622600068e+00	 9.414596446659764e-01	 1.252810705106061e+01
 1.070272316315703e+00	 9.519262068468061e-01	 1.239779560473990e+01
 1.060949913163808e+00	 9.623054030460286e-01	 1.226946870181684e+01
 1.156430782795849e+00	 8.600416800706597e-01	 1.352077103302532e+01
 1.148035087081331e+00	 8.712171004371816e-01	 1.341159190868304e+01
 1.139525741333079e+00	 8.823178827982596e-01	 1.329668729332568e+01
 1.130903741810428e+00	 8.933423018555334e-01	 1.317690300378453e+01
 1.122170119243239e+00	 9.042886497641590e-01	 1.305314154354705e+01
 1.113325938445521e+00	 9.151552369938694e-01	 1.292635866870912e+01
 1.104372297903486e+00	 9.259403931799466e-01	 1.279755952182611e+01
 1.095310329338370e+00	 9.366424679632234e-01	 1.266779434628411e+01
 1.086141197244342e+00	 9.472598318182393e-01	 1.253815379653631e+01
 1.076866098401900e+00	 9.577908768686814e-01	 1.240976386222149e+01
 1.067486261367175e+00	 9.682340176892731e-01	 1.228378042678199e+01
 1.002122779346504e+00	 9.089478712575699e-01	 1.203904982459774e+01
 9.932216576821324e-01	 9.186659352771679e-01	 1.188900079677028e+01
 9.842246217519234e-01	 9.282986121537109e-01	 1.173308824756798e+01
 9.751328947901475e-01	 9.378444977148536e-01	 1.157228129245643e+01
 9.659477277073155e-01	 9.473022117165263e-01	 1.140754674044008e+01
 9.566703985125847e-01	 9.566703985125846e-01	 1.123984442009074e+01
 9.473022117165264e-01	 9.659477277073159e-01	 1.107012240287543e+01
 9.378444977148535e-01	 9.751328947901475e-01	 1.089931214788683e+01
 9.282986121537108e-01	 9.842246217519237e-01	 1.072832359296366e+01
 9.186659352771674e-01	 9.932216576821324e-01	 1.055804021792616e+01
 9.089478712575698e-01	 1.002122779346504e+00	 1.038931410624743e+01
 1.008659127546873e+00	 9.148764859000650e-01	 1.207211808842242e+01
 9.996999482954076e-01	 9.246579360151217e-01	 1.192408950335050e+01
 9.906442291770862e-01	 9.343534420492922e-01	 1.176989254441204e+01
 9.814932014047273e-01	 9.439615906715130e-01	 1.161058691702177e+01
 9.722481240479092e-01	 9.534809926350680e-01	 1.144723332135763e+01
 9.629102834516077e-01	 9.629102834516078e-01	 1.128088850445327e+01
 9.534809926350680e-01	 9.722481240479094e-01	 1.111260019850684e+01
 9.439615906715128e-01	 9.814932014047274e-01	 1.094340197060727e+01
 9.343534420492920e-01	 9.906442291770864e-01	 1.077430801000987e+01
 9.246579360151211e-01	 9.996999482954079e-01	 1.060630787988482e+01
 9.148764859000647e-01	 1.008659127546873e+00	 1.044036126109457e+01
 1.015195475747708e+00	 9.208051005428431e-01	 1.210363711745331e+01
 1.006178238909177e+00	 9.306499367533715e-01	 1.195763250275424e+01
 9.970638366027488e-01	 9.404082719451956e-01	 1.180527136666677e+01
 9.878535080197955e-01	 9.500786836285274e-01	 1.164767863462473e+01
 9.785485203889676e-01	 9.596597735540032e-01	 1.148598277323734e+01
 9.691501683910624e-01	 9.691501683910624e-01	 1.132131059952760e+01
 9.596597735540031e-01	 9.785485203889677e-01	 1.115478196609013e+01
 9.500786836285269e-01	 9.878535080197955e-01	 1.098750434842724e+01
 9.404082719451952e-01	 9.970638366027489e-01	 1.082056736170917e+01
 9.306499367533715e-01	 1.006178238909177e+00	 1.065503723504263e+01
 9.208051005428434e-01	 1.015195475747708e+00	 1.049195127200684e+01
 1.021731823948975e+00	 9.267337151858555e-01	 1.213346793038014e+01
 1.012656529523399e+00	 9.366419374918723e-01	 1.198951199163529e+01
 1.003483444028865e+00	 9.464631018413752e-01	 1.183911374129518e+01
 9.942138146353041e-01	 9.561957765858524e-01	 1.168343847884391e+01
 9.848489167304412e-01	 9.658385544732850e-01	 1.152365684953827e+01
 9.753900533308997e-01	 9.753900533308998e-01	 1.136093944133270e+01
 9.658385544732850e-01	 9.848489167304412e-01	 1.119645124818531e+01
 9.561957765858522e-01	 9.942138146353041e-01	 1.103134602703090e+01
 9.464631018413751e-01	 1.003483444028866e+00	 1.086676057674748e+01
 9.366419374918719e-01	 1.012656529523399e+00	 1.070380896832735e+01
 9.267337151858556e-01	 1.021731823948975e+00	 1.054357675618271e+01
 1.028268172150642e+00	 9.326623298290513e-01	 1.216147300438591e+01
 1.019134820138031e+00	 9.426339382305761e-01	 1.201961091980084e+01
 1.009903051455389e+00	 9.525179317377864e-01	 1.187130907973230e+01
 1.000574121251205e+00	 9.623128695434424e-01	 1.171774882348625e+01
 9.911493130722817e-01	 9.720173353928681e-01	 1.156011791171897e+01
 9.816299382710727e-01	 9.816299382710726e-01	 1.139960494105379e+01
 9.720173353928683e-01	 9.911493130722820e-01	 1.123739361627643e+01
 9.623128695434424e-01	 1.000574121251205e+00	 1.107465690839222e+01
 9.525179317377862e-01	 1.009903051455389e+00	 1.091255112792104e+01
 9.426339382305754e-01	 1.019134820138031e+00	 1.075220994373624e+01
 9.326623298290513e-01	 1.028268172150642e+00	 1.059473837851556e+01
 1.034804520352675e+00	 9.385909444723801e-01	 1.218751681549763e+01
 1.025613110753034e+00	 9.486259389694366e-01	 1.204781354807930e+01
 1.016322658882274e+00	 9.585727616343844e-01	 1.190174774165432e+01
 1.006934427867449e+00	 9.684299625012517e-01	 1.175049294104641e+01
 9.974497094144402e-01	 9.781961163127045e-01	 1.159522947159389e+01
 9.878698232115333e-01	 9.878698232115332e-01	 1.143713870093032e+01
 9.781961163127043e-01	 9.974497094144402e-01	 1.127739715026042e+01
 9.684299625012516e-01	 1.006934427867449e+00	 1.111717048437674e+01
 9.585727616343842e-01	 1.016322658882275e+00	 1.095760741081238e+01
 9.486259389694363e-01	 1.025613110753034e+00	 1.079983351950458e+01
 9.385909444723801e-01	 1.034804520352675e+00	 1.064494509513942e+01
 1.041340868555041e+00	 9.445195591157927e-01	 1.221146637324911e+01
 1.032091401368364e+00	 9.546179397084080e-01	 1.207400599977038e+01
 1.022742266309475e+00	 9.646275915311237e-01	 1.193032159201906e+01
 1.013294734483988e+00	 9.745470554592351e-01	 1.178155555454008e+01
 1.003750105756869e+00	 9.843748972327480e-01	 1.162885672756061e+01
 9.941097081522333e-01	 9.941097081522332e-01	 1.147337452488900e+01
 9.843748972327480e-01	 1.003750105756869e+00	 1.131625291391614e+01
 9.745470554592351e-01	 1.013294734483988e+00	 1.115862426790221e+01
 9.646275915311233e-01	 1.022742266309476e+00	 1.100160312193386e+01
 9.546179397084076e-01	 1.032091401368365e+00	 1.084627986496431e+01
 9.445195591157927e-01	 1.041340868555041e+00	 1.069371440118126e+01
 1.047877216757708e+00	 9.504481737592384e-01	 1.223319174990659e+01
 1.038569691983982e+00	 9.606099404474433e-01	 1.209807680595411e+01
 1.029161873736945e+00	 9.706824214279591e-01	 1.195692455167469e+01
 1.019655041100774e+00	 9.806641484173471e-01	 1.181082338300091e+01
 1.010050502099517e+00	 9.905536781529529e-01	 1.166086709496402e+01
 1.000349593093125e+00	 1.000349593093125e+00	 1.150814892414806e+01
 9.905536781529527e-01	 1.010050502099517e+00	 1.135375542652519e+01
 9.806641484173469e-01	 1.019655041100774e+00	 1.119876022176469e+01
 9.706824214279587e-01	 1.029161873736945e+00	 1.104421763636401e+01
 9.606099404474431e-01	 1.038569691983983e+00	 1.089115627901938e+01
 9.504481737592383e-01	 1.047877216757708e+00	 1.074057258253835e+01
 1.054413564960641e+00	 9.563767884026672e-01	 1.225256660448992e+01
 1.045047982599846e+00	 9.666019411864963e-01	 1.211991744492987e+01
 1.035581481164638e+00	 9.767372513248455e-01	 1.198145314181405e+01
 1.026015347717758e+00	 9.867812413755426e-01	 1.183818568091686e+01
 1.016350898442337e+00	 9.967324590732713e-01	 1.169113073085251e+01
 1.006589478034160e+00	 1.006589478034160e+00	 1.154130161801302e+01
 9.967324590732715e-01	 1.016350898442337e+00	 1.138970313081504e+01
 9.867812413755424e-01	 1.026015347717758e+00	 1.123732518523251e+01
 9.767372513248452e-01	 1.035581481164638e+00	 1.108513638489691e+01
 9.666019411864960e-01	 1.045047982599847e+00	 1.093407751016838e+01
 9.563767884026670e-01	 1.054413564960641e+00	 1.078505497150217e+01
 1.060949913163808e+00	 9.623054030460286e-01	 1.226946870181684e+01
 1.051526273215915e+00	 9.725939419255205e-01	 1.213942287603407e+01
 1.042001088592507e+00	 9.827920812217376e-01	 1.200380702254016e+01
 1.032375654334891e+00	 9.928983343337757e-01	 1.186353477186689e+01
 1.022651294785281e+00	 1.002911239993658e+00	 1.171952105336863e+01
 1.012829362975292e+00	 1.012829362975292e+00	 1.157267603007109e+01
 1.002911239993658e+00	 1.022651294785281e+00	 1.142389885738206e+01
 9.928983343337756e-01	 1.032375654334891e+00	 1.127407129850211e+01
 9.827920812217376e-01	 1.042001088592508e+00	 1.112405123072766e+01
 9.725939419255204e-01	 1.051526273215915e+00	 1.097466607800630e+01
 9.623054030460286e-01	 1.060949913163808e+00	 1.082670620606806e+01
 1.067486261367175e+00	 9.682340176892731e-01	 1.228378042678199e+01
 1.058004563832146e+00	 9.785859426644694e-01	 1.215649206808142e+01
 1.048420696020508e+00	 9.888469111185910e-01	 1.202388952579620e+01
 1.038735960952127e+00	 9.990154272920019e-01	 1.188676657660582e+01
 1.028951691128298e+00	 1.009090020914066e+00	 1.174591525600291e+01
 1.019069247916471e+00	 1.019069247916471e+00	 1.160211977998069e+01
 1.009090020914065e+00	 1.028951691128298e+00	 1.145615028574340e+01
 9.990154272920018e-01	 1.038735960952127e+00	 1.130875642511003e+01
 9.888469111185908e-01	 1.048420696020508e+00	 1.116066084569257e+01
 9.785859426644695e-01	 1.058004563832147e+00	 1.101255259614300e+01
 9.682340176892732e-01	 1.067486261367175e+00	 1.086508049276810e+01
 9.089478712575698e-01	 1.002122779346504e+00	 1.038931410624743e+01
 8.991441766492652e-01	 1.010928277553431e+00	 1.022093005439922e+01
 8.892579602936015e-01	 1.019635450815408e+00	 1.005134993737016e+01
 8.792907105384193e-01	 1.028243145802148e+00	 9.880783262087281e+00
 8.692439368078930e-01	 1.036750239013330e+00	 9.709374902731081e+00
 8.591191688497395e-01	 1.045155637258033e+00	 9.537201401997677e+00
 8.489179559697093e-01	 1.053458278111545e+00	 9.364267451211566e+00
 8.386418662541389e-01	 1.061657130349154e+00	 9.190502574084995e+00
 8.282924857813851e-01	 1.069751194356563e+00	 9.015758038211935e+00
 8.178714178229560e-01	 1.077739502516610e+00	 8.839804017510893e+00
 8.073802820351771e-01	 1.085621119571988e+00	 8.662327027818913e+00
 9.148764859000647e-01	 1.008659127546873e+00	 1.044036126109457e+01
 9.050088466705943e-01	 1.017522059636672e+00	 1.027513746784732e+01
 8.950581474454802e-01	 1.026286025456847e+00	 1.010882009904416e+01
 8.850258862803128e-01	 1.034949864154510e+00	 9.941479496999710e+00
 8.749135824444843e-01	 1.043512444901312e+00	 9.773114640946591e+00
 8.647227756634916e-01	 1.051972667375995e+00	 9.603649503211219e+00
 8.544550253484329e-01	 1.060329462224184e+00	 9.432929594168247e+00
 8.441119098134873e-01	 1.068581791495002e+00	 9.260718721444485e+00
 8.336950254822076e-01	 1.076728649054170e+00	 9.086695988105634e+00
 8.232059860834420e-01	 1.084769060973243e+00	 8.910453053654139e+00
 8.126464218377240e-01	 1.092702085894701e+00	 8.731491680620739e+00
 9.208051005428434e-01	 1.015195475747708e+00	 1.049195127200684e+01
 9.108735166922103e-01	 1.024115841720328e+00	 1.032978865488109e+01
 9.008583345976640e-01	 1.032936600098625e+00	 1.016643356610918e+01
 8.907610620225402e-01	 1.041656582507123e+00	 1.000186835199623e+01
 8.805832280814487e-01	 1.050274650789446e+00	 9.835998888740502e+00
 8.703263824776638e-01	 1.058789697494004e+00	 9.668650909467919e+00
 8.599920947276266e-01	 1.067200646336762e+00	 9.499566528032876e+00
 8.495819533733584e-01	 1.075506452640689e+00	 9.328400985903489e+00
 8.390975651836059e-01	 1.083706103751524e+00	 9.154719647685436e+00
 8.285405543445524e-01	 1.091798619429549e+00	 8.977995269911858e+00
 8.179125616409386e-01	 1.099783052217030e+00	 8.797605566637852e+00
 9.267337151858556e-01	 1.021731823948975e+00	 1.054357675618271e+01
 9.167381867140570e-01	 1.030709623804375e+00	 1.038429882346484e+01
 9.066585217500864e-01	 1.039587174740737e+00	 1.022355828168243e+01
 8.964962377650260e-01	 1.048363300859998e+00	 1.006129970162964e+01
 8.862528737186982e-01	 1.057036856677760e+00	 9.897387680252269e+00
 8.759299892921532e-01	 1.065606727612107e+00	 9.731603055102360e+00
 8.655291641071746e-01	 1.074071830449349e+00	 9.563639321623116e+00
 8.550519969336224e-01	 1.082431113786299e+00	 9.393099280602453e+00
 8.445001048854353e-01	 1.090683558448726e+00	 9.219491942347570e+00
 8.338751226061308e-01	 1.098828177885637e+00	 9.042229713181289e+00
 8.231787014446538e-01	 1.106864018539093e+00	 8.860625888742980e+00
 9.326623298290513e-01	 1.028268172150642e+00	 1.059473837851557e+01
 9.226028567360773e-01	 1.037303405888794e+00	 1.043809281261596e+01
 9.124587089026830e-01	 1.046237749383177e+00	 1.027957262462467e+01
 9.022314135076929e-01	 1.055070019213145e+00	 1.011913390838814e+01
 8.919225193561432e-01	 1.063799062566284e+00	 9.956650863972857e+00
 8.815335961068574e-01	 1.072423757730353e+00	 9.791911816696761e+00
 8.710662334869606e-01	 1.080943014562008e+00	 9.624615443144879e+00
 8.605220404941492e-01	 1.089355774931916e+00	 9.454367232700541e+00
 8.499026445875526e-01	 1.097661013145872e+00	 9.280676212321564e+00
 8.392096908680213e-01	 1.105857736341615e+00	 9.102951961315943e+00
 8.284448412487024e-01	 1.113944984861005e+00	 8.920501941719611e+00
 9.385909444723801e-01	 1.034804520352675e+00	 1.064494509513942e+01
 9.284675267582145e-01	 1.043897187973561e+00	 1.049060527263842e+01
 9.182588960553877e-01	 1.052888324025938e+00	 1.033386555040510e+01
 9.079665892504648e-01	 1.061776737566576e+00	 1.017474194734689e+01
 8.975921649936953e-01	 1.070561268455048e+00	 1.001316823354307e+01
 8.871372029216748e-01	 1.079240787848789e+00	 9.848991671574218e+00
 8.766033028668681e-01	 1.087814198674808e+00	 9.681968967097992e+00
 8.659920840548084e-01	 1.096280436077622e+00	 9.511762458565903e+00
 8.553051842898138e-01	 1.104638467843061e+00	 9.337936575166626e+00
 8.445442591300677e-01	 1.112887294797594e+00	 9.159954591078744e+00
 8.337109810529183e-01	 1.121025951182882e+00	 8.977175702938252e+00
 9.445195591157927e-01	 1.041340868555041e+00	 1.069371440118126e+01
 9.343321967804130e-01	 1.050490970058658e+00	 1.054128085176010e+01
 9.240590832081343e-01	 1.059538898669013e+00	 1.038583673964774e+01
 9.137017649932655e-01	 1.068483455920302e+00	 1.022750553890283e+01
 9.032618106312653e-01	 1.077323474344080e+00	 1.006632966618537e+01
 8.927408097365024e-01	 1.086057817967464e+00	 9.902265862653207e+00
 8.821403722467805e-01	 1.094685382787814e+00	 9.735180785483415e+00
 8.714621276154698e-01	 1.103205097223502e+00	 9.564846840457394e+00
 8.607077239920764e-01	 1.111615922540391e+00	 9.390938286221296e+00
 8.498788273921146e-01	 1.119916853253683e+00	 9.213027639817538e+00
 8.389771208571342e-01	 1.128106917504843e+00	 9.030582411870943e+00
 9.504481737592383e-01	 1.047877216757708e+00	 1.074057258253835e+01
 9.401968668026153e-01	 1.057084752144061e+00	 1.058957438888768e+01
 9.298592703608588e-01	 1.066189473312398e+00	 1.043489675402562e+01
 9.194369407360182e-01	 1.075190174274333e+00	 1.027681728923914e+01
 9.089314562687643e-01	 1.084085680233410e+00	 1.011553526843473e+01
 8.983444165512381e-01	 1.092874848086426e+00	 9.951166569386967e+00
 8.876774416265826e-01	 1.101556566901094e+00	 9.783738823127596e+00
 8.769321711760032e-01	 1.110129758369640e+00	 9.613186804627778e+00
 8.661102636941956e-01	 1.118593377237960e+00	 9.439348097091283e+00
 8.552133956540052e-01	 1.126946411709992e+00	 9.261959061138942e+00
 8.442432606611833e-01	 1.135187883827004e+00	 9.080651138935096e+00
 9.563767884026670e-01	 1.054413564960641e+00	 1.078505497150217e+01
 9.460615368247652e-01	 1.063678534229749e+00	 1.063495111222042e+01
 9.356594575134948e-01	 1.072840047956085e+00	 1.048046719918363e+01
 9.251721164786462e-01	 1.081896892628681e+00	 1.032208083818580e+01
 9.146011019061038e-01	 1.090847886123069e+00	 1.016019552885225e+01
 9.039480233657795e-01	 1.099691878205725e+00	 9.995135084523316e+00
 8.932145110061570e-01	 1.108427751014714e+00	 9.827138256942670e+00
 8.824022147362783e-01	 1.117054419516117e+00	 9.656353600791572e+00
 8.715128033960283e-01	 1.125570831935865e+00	 9.482834612265215e+00
 8.605479639155839e-01	 1.133975970166630e+00	 9.306535174840398e+00
 8.495094004648983e-01	 1.142268850149480e+00	 9.127305344126183e+00
 9.623054030460286e-01	 1.060949913163808e+00	 1.082670620606806e+01
 9.519262068468063e-01	 1.070272316315703e+00	 1.067688684346524e+01
 9.414596446659769e-01	 1.079490622600068e+00	 1.052198089438557e+01
 9.309072922210736e-01	 1.088603610983356e+00	 1.036271101415412e+01
 9.202707475431936e-01	 1.097610092013084e+00	 1.019973147742005e+01
 9.095516301800242e-01	 1.106508908325406e+00	 1.003362199643372e+01
 8.987515803853882e-01	 1.115298935128739e+00	 9.864881738955400e+00
 8.878722582961653e-01	 1.123979080663019e+00	 9.693923582894413e+00
 8.769153430974311e-01	 1.132548286634205e+00	 9.521068643935983e+00
 8.658825321766948e-01	 1.141005528623706e+00	 9.346541111348213e+00
 8.547755402681128e-01	 1.149349816472390e+00	 9.170463425881969e+00
 9.682340176892732e-01	 1.067486261367175e+00	 1.086508049276810e+01
 9.577908768686817e-01	 1.076866098401900e+00	 1.071486820741484e+01
 9.472598318182397e-01	 1.086141197244342e+00	 1.055888204860048e+01
 9.366424679632236e-01	 1.095310329338370e+00	 1.039813399584646e+01
 9.259403931799469e-01	 1.104372297903486e+00	 1.023357485133214e+01
 9.151552369938699e-01	 1.113325938445520e+00	 1.006608737677435e+01
 9.042886497641597e-01	 1.122170119243239e+00	 9.896479622941502e+00
 8.933423018555336e-01	 1.130903741810428e+00	 9.725478491131554e+00
 8.823178827982596e-01	 1.139525741333079e+00	 9.553723565106463e+00
 8.712171004371820e-01	 1.148035087081330e+00	 9.381761250897279e+00
 8.600416800706600e-01	 1.156430782795849e+00	 9.210039260595918e+00
 8.073802820351771e-01	 1.085621119571988e+00	 8.662327027818916e+00
 7.968225133010767e-01	 1.093393831455592e+00	 8.482082828703042e+00
 7.861979784073625e-01	 1.101058121561683e+00	 8.298736412875636e+00
 7.755083344735213e-01	 1.108613158456955e+00	 8.113321300066465e+00
 7.647552517237872e-01	 1.116058144223075e+00	 7.926809872295368e+00
 7.539404126477530e-01	 1.123392314694512e+00	 7.740110009703669e+00
 7.430655111565820e-01	 1.130614939671368e+00	 7.554062080594044e+00
 7.321322517356790e-01	 1.137725323107168e+00	 7.369436301366297e+00
 7.211423485946780e-01	 1.144722803271552e+00	 7.186930480131206e+00
 7.100975248156002e-01	 1.151606752887915e+00	 7.007168155795037e+00
 6.989995115000320e-01	 1.158376579246008e+00	 6.830697142351820e+00
 8.126464218377240e-01	 1.092702085894701e+00	 8.731491680620739e+00
 8.020197900321115e-01	 1.100525495310181e+00	 8.548852442264041e+00
 7.913259565844319e-01	 1.108239775766875e+00	 8.362808248306330e+00
 7.805665894227382e-01	 1.115844090408439e+00	 8.174693753255475e+00
 7.697433696653099e-01	 1.123337636112106e+00	 7.985788294361994e+00
 7.588579907757853e-01	 1.130719643728060e+00	 7.797311897071788e+00
 7.479121577138694e-01	 1.137989378293664e+00	 7.610421639518310e+00
 7.369075860824801e-01	 1.145146139222463e+00	 7.426208393371784e+00
 7.258460012721907e-01	 1.152189260467951e+00	 7.245693956391112e+00
 7.147291376038313e-01	 1.159118110662096e+00	 7.069828589959590e+00
 7.035587374701054e-01	 1.165932093228688e+00	 6.899488972770982e+00
 8.179125616409386e-01	 1.099783052217030e+00	 8.797605566637856e+00
 8.072170667638509e-01	 1.107657159164353e+00	 8.613030535167935e+00
 7.964539347622335e-01	 1.115421429971638e+00	 8.425231376345325e+00
 7.856248443727102e-01	 1.123075022359500e+00	 8.235792602681400e+00
 7.747314876076047e-01	 1.130617128000730e+00	 8.046247570919331e+00
 7.637755689046014e-01	 1.138046972761229e+00	 7.858073933556982e+00
 7.527588042719486e-01	 1.145363816915609e+00	 7.672689456079864e+00
 7.416829204300779e-01	 1.152566955337439e+00	 7.491448218729261e+00
 7.305496539505022e-01	 1.159655717664057e+00	 7.315637219586986e+00
 7.193607503928622e-01	 1.166629468436005e+00	 7.146473393633630e+00
 7.081179634409789e-01	 1.173487607211099e+00	 6.985101060236869e+00
 8.231787014446538e-01	 1.106864018539093e+00	 8.860625888742980e+00
 8.124143434961176e-01	 1.114788823018229e+00	 8.674727307422659e+00
 8.015819129405842e-01	 1.122603084176091e+00	 8.486238142494043e+00
 7.906830993232478e-01	 1.130305954310250e+00	 8.296942579949807e+00
 7.797196055504780e-01	 1.137896619889056e+00	 8.108576170265152e+00
 7.686931470340052e-01	 1.145374301794115e+00	 7.922820801312935e+00
 7.576054508306217e-01	 1.152738255537294e+00	 7.741300045485177e+00
 7.464582547782734e-01	 1.159987771452176e+00	 7.565574901239163e+00
 7.352533066294134e-01	 1.167122174859944e+00	 7.397139947170777e+00
 7.239923631824934e-01	 1.174140826209707e+00	 7.237419924517581e+00
 7.126771894124521e-01	 1.181043121193310e+00	 7.082954938080466e+00
 8.284448412487024e-01	 1.113944984861005e+00	 8.920501941719612e+00
 8.176116202287358e-01	 1.121920486871926e+00	 8.734040750408743e+00
 8.067098911193010e-01	 1.129784738380351e+00	 8.546045176947425e+00
 7.957413542741629e-01	 1.137536886260803e+00	 8.358449962868333e+00
 7.847077234937372e-01	 1.145176111777187e+00	 8.173142110429133e+00
 7.736107251638008e-01	 1.152701630826816e+00	 7.991955451124837e+00
 7.624520973896907e-01	 1.160112694158807e+00	 7.816665598728877e+00
 7.512335891268671e-01	 1.167408587566755e+00	 7.648985308357051e+00
 7.399569593087237e-01	 1.174588632055685e+00	 7.490560260856638e+00
 7.286239759725242e-01	 1.181652183983273e+00	 7.336914743135425e+00
 7.172364153843257e-01	 1.188598635175388e+00	 7.173754823109158e+00
 8.337109810529183e-01	 1.121025951182882e+00	 8.977175702938247e+00
 8.228088969615299e-01	 1.129052150725564e+00	 8.791057355691771e+00
 8.118378692982010e-01	 1.136966392584536e+00	 8.604854196308194e+00
 8.007996092252667e-01	 1.144767818211272e+00	 8.420603445692779e+00
 7.896958414371892e-01	 1.152455603665230e+00	 8.240293874451549e+00
 7.785283032937923e-01	 1.160028959859430e+00	 8.065860040115302e+00
 7.672987439489576e-01	 1.167487132780236e+00	 7.899176921031996e+00
 7.560089234756597e-01	 1.174829403681255e+00	 7.742054969582290e+00
 7.446606119882341e-01	 1.182055089251353e+00	 7.589369951329976e+00
 7.332555887627554e-01	 1.189163541756770e+00	 7.427051453871810e+00
 7.217956413563998e-01	 1.196154149157399e+00	 7.256072412900329e+00
 8.389771208571342e-01	 1.128106917504843e+00	 9.030582411870943e+00
 8.280061736943244e-01	 1.136183814579263e+00	 8.845852807960608e+00
 8.169658474771012e-01	 1.144148046788762e+00	 8.662852785657279e+00
 8.058578641763705e-01	 1.151998750161769e+00	 8.483674986867818e+00
 7.946839593806412e-01	 1.159735095553291e+00	 8.310361301181040e+00
 7.834458814237838e-01	 1.167356288892055e+00	 8.144896843844561e+00
 7.721453905082244e-01	 1.174861571401670e+00	 7.989204344358491e+00
 7.607842578244524e-01	 1.182250219795758e+00	 7.837970446169356e+00
 7.493642646677448e-01	 1.189521546447022e+00	 7.677007329339984e+00
 7.378872015529861e-01	 1.196674899530267e+00	 7.507341761789331e+00
 7.263548673284734e-01	 1.203709663139410e+00	 7.330613438940425e+00
 8.442432606611833e-01	 1.135187883827004e+00	 9.080651138935098e+00
 8.332034504269425e-01	 1.143315478433141e+00	 8.898492662779649e+00
 8.220938256558182e-01	 1.151329700993149e+00	 8.720215161832542e+00
 8.109161191272857e-01	 1.159229682112406e+00	 8.547920635246120e+00
 7.996720773238999e-01	 1.167014587441475e+00	 8.383656452662251e+00
 7.883634595535792e-01	 1.174683617924787e+00	 8.229409143921218e+00
 7.769920370672930e-01	 1.182236010023199e+00	 8.080159559892106e+00
 7.655595921730458e-01	 1.189671035910344e+00	 7.921233602956765e+00
 7.540679173470552e-01	 1.196988003642765e+00	 7.753505652859300e+00
 7.425188143430175e-01	 1.204186257303833e+00	 7.578575159333860e+00
 7.309140933003472e-01	 1.211265177121489e+00	 7.398079960624912e+00
 8.495094004648983e-01	 1.142268850149480e+00	 9.127305344126183e+00
 8.384007271592091e-01	 1.150447142287318e+00	 8.949033009819882e+00
 8.272218038341691e-01	 1.158511355197814e+00	 8.777102918734926e+00
 8.159743740778236e-01	 1.166460614063299e+00	 8.613581335722060e+00
 8.046601952667733e-01	 1.174294079329889e+00	 8.460474459129456e+00
 7.932810376829832e-01	 1.182010946957725e+00	 8.313502094864724e+00
 7.818386836259662e-01	 1.189610448644910e+00	 8.157223375304666e+00
 7.703349265212415e-01	 1.197091852025092e+00	 7.992125460605751e+00
 7.587715700259661e-01	 1.204454460838655e+00	 7.819714756334741e+00
 7.471504271326483e-01	 1.211697615077536e+00	 7.641535828675557e+00
 7.354733192718205e-01	 1.218820691103700e+00	 7.459170609409847e+00
 8.547755402681128e-01	 1.149349816472390e+00	 9.170463425881969e+00
 8.435980038909481e-01	 1.157578806141913e+00	 8.997521122189532e+00
 8.323497820119703e-01	 1.165693009402874e+00	 8.833665755436121e+00
 8.210326290277951e-01	 1.173691546014558e+00	 8.680883715163421e+00
 8.096483132090680e-01	 1.181573571218639e+00	 8.535984221925315e+00
 7.981986158117992e-01	 1.189338275990966e+00	 8.382669788816145e+00
 7.866853301840454e-01	 1.196984887266893e+00	 8.220731117065121e+00
 7.751102608688389e-01	 1.204512668140084e+00	 8.051533352779792e+00
 7.634752227042780e-01	 1.211920918034767e+00	 7.876478092773699e+00
 7.517820399216792e-01	 1.219208972851444e+00	 7.697002920288493e+00
 7.400325452426939e-01	 1.226376205086111e+00	 7.514580815708266e+00
 8.600416800706600e-01	 1.156430782795849e+00	 9.210039260595918e+00
 8.487952806219835e-01	 1.164710469997046e+00	 9.043996092464536e+00
 8.374777601890396e-01	 1.172874663608447e+00	 8.890042187823989e+00
 8.260908839770124e-01	 1.180922477966298e+00	 8.746284476491965e+00
 8.146364311505910e-01	 1.188853063107831e+00	 8.595755949168071e+00
 8.031161939398316e-01	 1.196665605024608e+00	 8.437129351670494e+00
 7.915319767413330e-01	 1.204359325889236e+00	 8.271585367796142e+00
 7.798855952156404e-01	 1.211933484255399e+00	 8.100337702524158e+00
 7.681788753817906e-01	 1.219387375231171e+00	 7.924633028304837e+00
 7.564136527099106e-01	 1.226720330625627e+00	 7.745750812835761e+00
 7.445917712127673e-01	 1.233931719068790e+00	 7.565003019272448e+00
 6.989995115000320e-01	 1.158376579246008e+00	 6.830697142351820e+00
 6.878500471339709e-01	 1.165031724570546e+00	 6.662199025862046e+00
 6.766508773749484e-01	 1.171571666931022e+00	 6.506210199962306e+00
 6.654037535230670e-01	 1.177995919443366e+00	 6.362395173094336e+00
 6.541104314506725e-01	 1.184304030001858e+00	 6.217286449605552e+00
 6.427726707565111e-01	 1.190495581266529e+00	 6.065391554514566e+00
 6.313922339239028e-01	 1.196570190626451e+00	 5.907189295595429e+00
 6.199708854837138e-01	 1.202527510139157e+00	 5.743180071709689e+00
 6.085103911828983e-01	 1.208367226446504e+00	 5.573885575586461e+00
 5.970125171593559e-01	 1.214089060667263e+00	 5.399848394600651e+00
 5.854790291238445e-01	 1.219692768266804e+00	 5.221659918996925e+00
 7.035587374701054e-01	 1.165932093228688e+00	 6.899488972770982e+00
 6.923365506962912e-01	 1.172630646754337e+00	 6.739618872697010e+00
 6.810643343259738e-01	 1.179213245904258e+00	 6.592944671522368e+00
 6.697438510821119e-01	 1.185679400618684e+00	 6.444176762798756e+00
 6.583768682897304e-01	 1.192028655843047e+00	 6.290071503061998e+00
 6.469651570245585e-01	 1.198260591515288e+00	 6.131003430134147e+00
 6.355104912657158e-01	 1.204374822528908e+00	 5.967366196090650e+00
 6.240146470532223e-01	 1.210370998671996e+00	 5.799572520082901e+00
 6.124794016511185e-01	 1.216248804542540e+00	 5.628054035309329e+00
 6.009065327169392e-01	 1.222007959440318e+00	 5.453261030373266e+00
 5.892978174782924e-01	 1.227648217235732e+00	 5.275662086132620e+00
 7.081179634409789e-01	 1.173487607211099e+00	 6.985101060236869e+00
 6.968230542594117e-01	 1.180229568937854e+00	 6.833279293913080e+00
 6.854777912777998e-01	 1.186854824877196e+00	 6.679405912017745e+00
 6.740839486419578e-01	 1.193362881793672e+00	 6.521602160449471e+00
 6.626433051295890e-01	 1.199753281683864e+00	 6.360143440850261e+00
 6.511576432934081e-01	 1.206025601763627e+00	 6.195321656966160e+00
 6.396287486083325e-01	 1.212179454430894e+00	 6.027445422342615e+00
 6.280584086235375e-01	 1.218214487204311e+00	 5.856840159287646e+00
 6.164484121201476e-01	 1.224130382638000e+00	 5.683848088149778e+00
 6.048005482753354e-01	 1.229926858212747e+00	 5.508828106859176e+00
 5.931166058335577e-01	 1.235603666203992e+00	 5.332155561601346e+00
 7.126771894124521e-01	 1.181043121193310e+00	 7.082954938080466e+00
 7.013095578231324e-01	 1.187828491121165e+00	 6.922840555452048e+00
 6.898912482302260e-01	 1.194496403849912e+00	 6.760158124411676e+00
 6.784240462024044e-01	 1.201046362968413e+00	 6.595088794456442e+00
 6.669097419700504e-01	 1.207477907524403e+00	 6.427827462606961e+00
 6.553501295628622e-01	 1.213790612011651e+00	 6.258583240494223e+00
 6.437470059515569e-01	 1.219984086332526e+00	 6.087579810934658e+00
 6.321021701944637e-01	 1.226057975736232e+00	 5.915055671747931e+00
 6.204174225897942e-01	 1.232011960733026e+00	 5.741264265528564e+00
 6.086945638343557e-01	 1.237845756984707e+00	 5.566473995049588e+00
 5.969353941894570e-01	 1.243559115171751e+00	 5.390968124921685e+00
 7.172364153843257e-01	 1.188598635175388e+00	 7.173754823109158e+00
 7.057960613872531e-01	 1.195427413304337e+00	 7.005315365501852e+00
 6.943047051830527e-01	 1.202137982822479e+00	 6.835715036032821e+00
 6.827641437632525e-01	 1.208729844142988e+00	 6.665056222507337e+00
 6.711761788109148e-01	 1.215202533364756e+00	 6.493452885772255e+00
 6.595426158327228e-01	 1.221555622259466e+00	 6.321031179185916e+00
 6.478652632951922e-01	 1.227788718233922e+00	 6.147929953391752e+00
 6.361459317658077e-01	 1.233901464267892e+00	 5.974301143780675e+00
 6.243864330598669e-01	 1.239893538827765e+00	 5.800310039027847e+00
 6.125885793938138e-01	 1.245764655756356e+00	 5.626135430101616e+00
 6.007541825458069e-01	 1.251514564139175e+00	 5.451969640139476e+00
 7.217956413563998e-01	 1.196154149157399e+00	 7.256072412900329e+00
 7.102825649515742e-01	 1.203026335487442e+00	 7.081313601920909e+00
 6.987181621360801e-01	 1.209779561794972e+00	 6.906590569007880e+00
 6.871042413243027e-01	 1.216413325317481e+00	 6.731926237384434e+00
 6.754426156519835e-01	 1.222927159205015e+00	 6.557353193168887e+00
 6.637351021027919e-01	 1.229320632507176e+00	 6.382914457164892e+00
 6.519835206390427e-01	 1.235593350135202e+00	 6.208664137241982e+00
 6.401896933373754e-01	 1.241744952799419e+00	 6.034667958318227e+00
 6.283554435301745e-01	 1.247775116922360e+00	 5.861003668009338e+00
 6.164825949535212e-01	 1.253683554527846e+00	 5.687761317060314e+00
 6.045729709024250e-01	 1.259470013106432e+00	 5.515043414732206e+00
 7.263548673284734e-01	 1.203709663139410e+00	 7.330613438940425e+00
 7.147690685158953e-01	 1.210625257670545e+00	 7.151443402689909e+00
 7.031316190891078e-01	 1.217421140767465e+00	 6.973298993552392e+00
 6.914443388853548e-01	 1.224096806491974e+00	 6.796122961271223e+00
 6.797090524930580e-01	 1.230651785045275e+00	 6.619866071551289e+00
 6.679275883728715e-01	 1.237085642754886e+00	 6.444488030201216e+00
 6.561017779829115e-01	 1.243397982036480e+00	 6.269958282621582e+00
 6.442334549089721e-01	 1.249588441330948e+00	 6.096256685271379e+00
 6.323244540005256e-01	 1.255656695016954e+00	 5.923374046850940e+00
 6.203766105132907e-01	 1.261602453299338e+00	 5.751312538049966e+00
 6.083917592591278e-01	 1.267425462073689e+00	 5.580085969799576e+00
 7.309140933003472e-01	 1.211265177121489e+00	 7.398079960624912e+00
 7.192555720800161e-01	 1.218224179853718e+00	 7.216311365326302e+00
 7.075450760419366e-01	 1.225062719740032e+00	 7.036355067763381e+00
 6.957844364462100e-01	 1.231780287666549e+00	 6.858072929052941e+00
 6.839754893339389e-01	 1.238376410885629e+00	 6.681333441517180e+00
 6.721200746427641e-01	 1.244850653002701e+00	 6.506012805313185e+00
 6.602200353266021e-01	 1.251202613937876e+00	 6.331995874620757e+00
 6.482772164804037e-01	 1.257431929862607e+00	 6.159176969640754e+00
 6.362934644707289e-01	 1.263538273111692e+00	 5.987460551817798e+00
 6.242706260729346e-01	 1.269521352070985e+00	 5.816761760864694e+00
 6.122105476157323e-01	 1.275380911041113e+00	 5.647006813305365e+00
 7.354733192718205e-01	 1.218820691103700e+00	 7.459170609409847e+00
 7.237420756437370e-01	 1.225823102037027e+00	 7.276522730883254e+00
 7.119585329943662e-01	 1.232704298712748e+00	 7.096274164500486e+00
 7.001245340066686e-01	 1.239463768841290e+00	 6.918205161088153e+00
 6.882419261744276e-01	 1.246101036726167e+00	 6.742101479157988e+00
 6.763125609122714e-01	 1.252615663250725e+00	 6.567755614259633e+00
 6.643382926699184e-01	 1.259007245839509e+00	 6.394967891551697e+00
 6.523209780514763e-01	 1.265275418394528e+00	 6.223547417470895e+00
 6.402624749405932e-01	 1.271419851206719e+00	 6.053312887580035e+00
 6.281646416322649e-01	 1.277440250842945e+00	 5.884093248901507e+00
 6.160293359720557e-01	 1.283336360008872e+00	 5.715728216243077e+00
 7.400325452426939e-01	 1.226376205086111e+00	 7.514580815708266e+00
 7.282285792068580e-01	 1.233422024220544e+00	 7.332681553200208e+00
 7.163719899461964e-01	 1.240345877685686e+00	 7.153572385909571e+00
 7.044646315665303e-01	 1.247147250016277e+00	 6.976951225905018e+00
 6.925083630143247e-01	 1.253825662566985e+00	 6.802520629804208e+00
 6.805050471811960e-01	 1.260380673499065e+00	 6.629989181183036e+00
 6.684565500126647e-01	 1.266811877741495e+00	 6.459072729316722e+00
 6.563647396219955e-01	 1.273118906926842e+00	 6.289495479741964e+00
 6.442314854099271e-01	 1.279301429302179e+00	 6.120990933397161e+00
 6.320586571910940e-01	 1.285359149615374e+00	 5.953302672376072e+00
 6.198481243279141e-01	 1.291291808977132e+00	 5.786184991591243e+00
 7.445917712127673e-01	 1.233931719068790e+00	 7.565003019272448e+00
 7.327150827691792e-01	 1.241020946404336e+00	 7.385390854036561e+00
 7.207854468972287e-01	 1.247987456658922e+00	 7.208766666120683e+00
 7.088047291255960e-01	 1.254830731191595e+00	 7.034745293255810e+00
 6.967747998534317e-01	 1.261550288408174e+00	 6.862945614202435e+00
 6.846975334493393e-01	 1.268145683747823e+00	 6.692992084657609e+00
 6.725748073546437e-01	 1.274616509643952e+00	 6.524516122045050e+00
 6.604085011917672e-01	 1.280962395459682e+00	 6.357157334285672e+00
 6.482004958785397e-01	 1.287183007398215e+00	 6.190564588980507e+00
 6.359526727492348e-01	 1.293278048388430e+00	 6.024396920767943e+00
 6.236669126831258e-01	 1.299247257946061e+00	 5.858324275946169e+00
 5.854790291238445e-01	 1.219692768266804e+00	 5.221659918996929e+00
 5.739097221063959e-01	 1.225179061259301e+00	 5.044894629201124e+00
 5.623083167801739e-01	 1.230546799785333e+00	 4.873964066571322e+00
 5.506765730720242e-01	 1.235795840422856e+00	 4.708246400928035e+00
 5.390162473136554e-01	 1.240926073375034e+00	 4.547177728055019e+00
 5.273290914687052e-01	 1.245937422231995e+00	 4.390249610507103e+00
 5.156168523708461e-01	 1.250829843712159e+00	 4.237006535633424e+00
 5.038812709735320e-01	 1.255603327383696e+00	 4.087043305449667e+00
 4.921240816119464e-01	 1.260257895366589e+00	 3.940002372715151e+00
 4.803470112777085e-01	 1.264793602015854e+00	 3.795571137235272e+00
 4.685517789068528e-01	 1.269210533586462e+00	 3.653479216023504e+00
 5.892978174782924e-01	 1.227648217235732e+00	 5.275662086132620e+00
 5.776530496282924e-01	 1.233170294587080e+00	 5.100326101701478e+00
 5.659759741082085e-01	 1.238573044200203e+00	 4.931660330994619e+00
 5.542683623240225e-01	 1.243856321717579e+00	 4.768859257650263e+00
 5.425319820631298e-01	 1.249020016626222e+00	 4.611169895117460e+00
 5.307685967163628e-01	 1.254064052017867e+00	 4.457893739303008e+00
 5.189799645111298e-01	 1.258988384328630e+00	 4.308384396253135e+00
 5.071678377562659e-01	 1.263793003058634e+00	 4.162045140113738e+00
 4.953339620991686e-01	 1.268477930472135e+00	 4.018326415797602e+00
 4.834800757957720e-01	 1.273043221278675e+00	 3.876723300454616e+00
 4.716079089938832e-01	 1.277488962295819e+00	 3.736772937436950e+00
 5.931166058335577e-01	 1.235603666203992e+00	 5.332155561601346e+00
 5.813963771510112e-01	 1.241161527914155e+00	 5.158439504126253e+00
 5.696436314370721e-01	 1.246599288614339e+00	 4.991938117436643e+00
 5.578601515768564e-01	 1.251916803011547e+00	 4.831766971113565e+00
 5.460477168134463e-01	 1.257113959876637e+00	 4.677019228799794e+00
 5.342081019648690e-01	 1.262190681802957e+00	 4.526842009355055e+00
 5.223430766522682e-01	 1.267146924944311e+00	 4.380434128830981e+00
 5.104544045398597e-01	 1.271982678732776e+00	 4.237043771409613e+00
 4.985438425872541e-01	 1.276697965576881e+00	 4.095966103904865e+00
 4.866131403147014e-01	 1.281292840540695e+00	 3.956540848081269e+00
 4.746640390817801e-01	 1.285767391004374e+00	 3.818149824630324e+00
 5.969353941894570e-01	 1.243559115171751e+00	 5.390968124921677e+00
 5.851397046743755e-01	 1.249152761240702e+00	 5.219012015797138e+00
 5.733112887665927e-01	 1.254625533027926e+00	 5.054536161801437e+00
 5.614519408303611e-01	 1.259977284304949e+00	 4.896682746987379e+00
 5.495634515644466e-01	 1.265207903126473e+00	 4.744425666642926e+00
 5.376476072140721e-01	 1.270317311587458e+00	 4.596792696534250e+00
 5.257061887941151e-01	 1.275305465559397e+00	 4.452863294276121e+00
 5.137409713241720e-01	 1.280172354406320e+00	 4.311766328612098e+00
 5.017537230760667e-01	 1.284918000681029e+00	 4.172677751462488e+00
 4.897462048343625e-01	 1.289542459802115e+00	 4.034818227240562e+00
 4.777201691704104e-01	 1.294045819712330e+00	 3.897450733512892e+00
 6.007541825458069e-01	 1.251514564139175e+00	 5.451969640139472e+00
 5.888830321982068e-01	 1.257143994566896e+00	 5.281831110176192e+00
 5.769789460965999e-01	 1.262651777441146e+00	 5.119205262604202e+00
 5.650437300843714e-01	 1.268037765597972e+00	 4.963332116329720e+00
 5.530791863159727e-01	 1.273301846375924e+00	 4.813101418628862e+00
 5.410871124638202e-01	 1.278443941371568e+00	 4.667455998545549e+00
 5.290693009365246e-01	 1.283464006174087e+00	 4.525390745232848e+00
 5.170275381090624e-01	 1.288362030079466e+00	 4.385950341390635e+00
 5.049636035654689e-01	 1.293138035784776e+00	 4.248226939025596e+00
 4.928792693546211e-01	 1.297792079063135e+00	 4.111357792367546e+00
 4.807762992596409e-01	 1.302324248419886e+00	 3.974522862336137e+00
 6.045729709024250e-01	 1.259470013106432e+00	 5.515043414732206e+00
 5.926263597223281e-01	 1.265135227892915e+00	 5.346657096609608e+00
 5.806466034269215e-01	 1.270678021854182e+00	 5.185708192217280e+00
 5.686355193387228e-01	 1.276098246890808e+00	 5.031452827691058e+00
 5.565949210678668e-01	 1.281395789625182e+00	 4.882770850066496e+00
 5.445266177139618e-01	 1.286570571155480e+00	 4.738553917975333e+00
 5.324324130793515e-01	 1.291622546788580e+00	 4.597746518114001e+00
 5.203141048943902e-01	 1.296551705752412e+00	 4.459343649097532e+00
 5.081734840553243e-01	 1.301358070888324e+00	 4.322388447535232e+00
 4.960123338753431e-01	 1.306041698323955e+00	 4.185969771585196e+00
 4.838324293493376e-01	 1.310602677127242e+00	 4.049219756786574e+00
 6.083917592591278e-01	 1.267425462073689e+00	 5.580085969799575e+00
 5.963696872465618e-01	 1.273126461218933e+00	 5.413303542928304e+00
 5.843142607573865e-01	 1.278704266267219e+00	 5.253819613793850e+00
 5.722273085932504e-01	 1.284158728183643e+00	 5.100794745535682e+00
 5.601106558199702e-01	 1.289489732874439e+00	 4.953170371063742e+00
 5.479661229643452e-01	 1.294697200939394e+00	 4.809820151835501e+00
 5.357955252224496e-01	 1.299781087403072e+00	 4.669671731211493e+00
 5.236006716800146e-01	 1.304741381425359e+00	 4.531704315405427e+00
 5.113833645454962e-01	 1.309578105991872e+00	 4.394946196904773e+00
 4.991453983963941e-01	 1.314291317584775e+00	 4.258472236124125e+00
 4.868885594393675e-01	 1.318881105834597e+00	 4.121401316582134e+00
 6.122105476157323e-01	 1.275380911041113e+00	 5.647006813305366e+00
 6.001130147707305e-01	 1.281117694545127e+00	 5.481624900828018e+00
 5.879819180878236e-01	 1.286730510680439e+00	 5.323326003621155e+00
 5.758190978477898e-01	 1.292219209476668e+00	 5.171119754703724e+00
 5.636263905721253e-01	 1.297583676123889e+00	 5.024048332293638e+00
 5.514056282148188e-01	 1.302823830723503e+00	 4.880999987323269e+00
 5.391586373656733e-01	 1.307939628017762e+00	 4.740918488622809e+00
 5.268872384657949e-01	 1.312931057098505e+00	 4.602800548061421e+00
 5.145932450358476e-01	 1.317798141095619e+00	 4.465693188747105e+00
 5.022784629176400e-01	 1.322540936845795e+00	 4.328691072650383e+00
 4.899446895295974e-01	 1.327159534542153e+00	 4.190933803510916e+00
 6.160293359720557e-01	 1.283336360008872e+00	 5.715728216243077e+00
 6.038563422946563e-01	 1.289108927871674e+00	 5.551489339860376e+00
 5.916495754180615e-01	 1.294756755094025e+00	 5.394012136188082e+00
 5.794108871021758e-01	 1.300279690770069e+00	 5.242201670653444e+00
 5.671421253241739e-01	 1.305677619373726e+00	 5.095164926786605e+00
 5.548451334652307e-01	 1.310950460508004e+00	 4.951850203524058e+00
 5.425217495088764e-01	 1.316098168632848e+00	 4.811249789738430e+00
 5.301738052515907e-01	 1.321120732772049e+00	 4.672410623534798e+00
 5.178031255262420e-01	 1.326018176199766e+00	 4.534431453063790e+00
 5.054115274389462e-01	 1.330790556107216e+00	 4.396459958377275e+00
 4.930008196198934e-01	 1.335437963250109e+00	 4.257689850844139e+00
 6.198481243279141e-01	 1.291291808977132e+00	 5.786184991591229e+00
 6.075996698181618e-01	 1.297100161198748e+00	 5.622778500301349e+00
 5.953172327479285e-01	 1.302782999508162e+00	 5.465690294900156e+00
 5.830026763562438e-01	 1.308340172064037e+00	 5.313826155233677e+00
 5.706578600759575e-01	 1.313771562624142e+00	 5.166292097485506e+00
 5.582846387154294e-01	 1.319077090293093e+00	 5.022138978804087e+00
 5.458848616519137e-01	 1.324256709248528e+00	 4.880439444051454e+00
 5.334603720372609e-01	 1.329310408446191e+00	 4.740322816350066e+00
 5.210130060165425e-01	 1.334238211304513e+00	 4.600971998725134e+00
 5.085445919601789e-01	 1.339040175369236e+00	 4.461620338838431e+00
 4.960569497101224e-01	 1.343716391958665e+00	 4.321548474071200e+00
 6.236669126831258e-01	 1.299247257946061e+00	 5.858324275946169e+00
 6.113429973410696e-01	 1.305091394526528e+00	 5.695387249906426e+00
 5.989848900772535e-01	 1.310809243923031e+00	 5.538214377746149e+00
 5.865944656098293e-01	 1.316400653358761e+00	 5.385790637748746e+00
 5.741735948273184e-01	 1.321865505875329e+00	 5.237213450316055e+00
 5.617241439652630e-01	 1.327203720078967e+00	 5.091645803647058e+00
 5.492479737946393e-01	 1.332415249865001e+00	 4.948271991061415e+00
 5.367469388226653e-01	 1.337500084121130e+00	 4.806335332899661e+00
 5.242228865066125e-01	 1.342458246410058e+00	 4.665134767577372e+00
 5.116776564812040e-01	 1.347289794632056e+00	 4.524021408210226e+00
 4.991130798001508e-01	 1.351994820668021e+00	 4.382395082890520e+00
 4.685517789068528e-01	 1.269210533586462e+00	 3.653479216023504e+00
 4.567421036580435e-01	 1.273508087186421e+00	 3.513642697003812e+00
 4.449176814900399e-01	 1.277687171888223e+00	 3.376185875076741e+00
 4.330802016659260e-01	 1.281747966506409e+00	 3.241279437630244e+00
 4.212313427177444e-01	 1.285690680225100e+00	 3.109127348161516e+00
 4.093727718083590e-01	 1.289515552181324e+00	 2.979963743321647e+00
 3.975061441091533e-01	 1.293222851033616e+00	 2.854049879549738e+00
 3.856331021939091e-01	 1.296812874516516e+00	 2.731671139555612e+00
 3.737552754491775e-01	 1.300285948981592e+00	 2.613134108223278e+00
 3.618742795014405e-01	 1.303642428925645e+00	 2.498763726786242e+00
 3.499917156613211e-01	 1.306882696506716e+00	 2.388900533395676e+00
 4.716079089938832e-01	 1.277488962295819e+00	 3.736772937436950e+00
 4.597212051103918e-01	 1.281814546699208e+00	 3.598318219676750e+00
 4.478196581209375e-01	 1.286020889490769e+00	 3.461596484192091e+00
 4.359049683068133e-01	 1.290108170651366e+00	 3.326865926257138e+00
 4.239788251482772e-01	 1.294076600729533e+00	 3.194419852766692e+00
 4.120429066822531e-01	 1.297926420422076e+00	 3.064583333847789e+00
 4.000988788759711e-01	 1.301657900139864e+00	 2.937709908358348e+00
 3.881483950168906e-01	 1.305271339559416e+00	 2.814178354043825e+00
 3.761930951192273e-01	 1.308767067160938e+00	 2.694389532395479e+00
 3.642346053473779e-01	 1.312145439753444e+00	 2.578763317504919e+00
 3.522745374565047e-01	 1.315406841987608e+00	 2.467735617442099e+00
 4.746640390817801e-01	 1.285767391004374e+00	 3.818149824630324e+00
 4.627003065636055e-01	 1.290121006211195e+00	 3.680628056769869e+00
 4.507216347526961e-01	 1.294354607092516e+00	 3.544353014732950e+00
 4.387297349485518e-01	 1.298468374795530e+00	 3.409650357325623e+00
 4.267263075796457e-01	 1.302462521233183e+00	 3.276882415657915e+00
 4.147130415569605e-01	 1.306337288662063e+00	 3.146444627599927e+00
 4.026916136435705e-01	 1.310092949245371e+00	 3.018762030323831e+00
 3.906636878406118e-01	 1.313729804601611e+00	 2.894285822178917e+00
 3.786309147899642e-01	 1.317248185339625e+00	 2.773490004381715e+00
 3.665949311939369e-01	 1.320648450580642e+00	 2.656868112220028e+00
 3.545573592522309e-01	 1.323930987467973e+00	 2.544930044673350e+00
 4.777201691704104e-01	 1.294045819712330e+00	 3.897450733512884e+00
 4.656794080175501e-01	 1.298427465722582e+00	 3.760459001885053e+00
 4.536236113851783e-01	 1.302688324693665e+00	 3.624379745940323e+00
 4.415545015910023e-01	 1.306828578939100e+00	 3.489586496009109e+00
 4.294737900117078e-01	 1.310848441736247e+00	 3.356490742296435e+00
 4.173831764323366e-01	 1.314748156901475e+00	 3.225538180042363e+00
 4.052843484118068e-01	 1.318527998350322e+00	 3.097205016877275e+00
 3.931789806649311e-01	 1.322188269643276e+00	 2.971994354055520e+00
 3.810687344612511e-01	 1.325729303517817e+00	 2.850432652457246e+00
 3.689552570409896e-01	 1.329151461407391e+00	 2.733066293424895e+00
 3.568401810483847e-01	 1.332455132947942e+00	 2.620458243678697e+00
 4.807762992596409e-01	 1.302324248419886e+00	 3.974522862336130e+00
 4.686585094720915e-01	 1.306733925233570e+00	 3.837702643636580e+00
 4.565255880182480e-01	 1.311022042294415e+00	 3.701604426525497e+00
 4.443792682340249e-01	 1.315188783082273e+00	 3.566630462944962e+00
 4.322212724443213e-01	 1.319234362238919e+00	 3.433221980815275e+00
 4.200533113082377e-01	 1.323159025140504e+00	 3.301855267344494e+00
 4.078770831805363e-01	 1.326963047454903e+00	 3.173037818562465e+00
 3.956942734897058e-01	 1.330646734684588e+00	 3.047304567159756e+00
 3.835065541329510e-01	 1.334210421695680e+00	 2.925214199889720e+00
 3.713155828884073e-01	 1.337654472233839e+00	 2.807345574944804e+00
 3.591230028448506e-01	 1.340979278427649e+00	 2.694294248845178e+00
 4.838324293493376e-01	 1.310602677127242e+00	 4.049219756786574e+00
 4.716376109270947e-01	 1.315040384744356e+00	 3.912255409005112e+00
 4.594275646517683e-01	 1.319355759894966e+00	 3.775958349397442e+00
 4.472040348774798e-01	 1.323548987225248e+00	 3.640740833799515e+00
 4.349687548773438e-01	 1.327620282741396e+00	 3.507054840226307e+00
 4.227234461845196e-01	 1.331569893379342e+00	 3.375388017378580e+00
 4.104698179496143e-01	 1.335398096559300e+00	 3.246259703321216e+00
 3.982095663147940e-01	 1.339105199725725e+00	 3.120217026785503e+00
 3.859443738049267e-01	 1.342691539873378e+00	 2.997831102683837e+00
 3.736759087360618e-01	 1.346157483060137e+00	 2.879693332553219e+00
 3.614058246415134e-01	 1.349503423907223e+00	 2.766411819739269e+00
 4.868885594393675e-01	 1.318881105834597e+00	 4.121401316582127e+00
 4.746167123824258e-01	 1.323346844255143e+00	 3.984018606677441e+00
 4.623295412856021e-01	 1.327689477495516e+00	 3.847376425123309e+00
 4.500288015212279e-01	 1.331909191368224e+00	 3.711878736552856e+00
 4.377162373106335e-01	 1.336006203243872e+00	 3.577969705569545e+00
 4.253935810610385e-01	 1.339980761618180e+00	 3.446129537103656e+00
 4.130625527188969e-01	 1.343833145663695e+00	 3.316870390817813e+00
 4.007248591400536e-01	 1.347563664766861e+00	 3.190732382343177e+00
 3.883821934770414e-01	 1.351172658051076e+00	 3.068279683248080e+00
 3.760362345838244e-01	 1.354660493886435e+00	 2.950096730711994e+00
 3.636886464382575e-01	 1.358027569386798e+00	 2.836784556968865e+00
 4.899446895295974e-01	 1.327159534542153e+00	 4.190933803510916e+00
 4.775958138379504e-01	 1.331653303766131e+00	 4.052898470372455e+00
 4.652315179196134e-01	 1.336023195096266e+00	 3.915797254172421e+00
 4.528535681651295e-01	 1.340269395511398e+00	 3.780007946602704e+00
 4.404637197440476e-01	 1.344392123746545e+00	 3.645948750137082e+00
 4.280637159376501e-01	 1.348391629857209e+00	 3.514074036496333e+00
 4.156552874882399e-01	 1.352268194768276e+00	 3.384870182979055e+00
 4.032401519653424e-01	 1.356022129808173e+00	 3.258851499737034e+00
 3.908200131491575e-01	 1.359653776228938e+00	 3.136556260161659e+00
 3.783965604315673e-01	 1.363163504712884e+00	 3.018542845603034e+00
 3.659714682349676e-01	 1.366551714866505e+00	 2.905386014681149e+00
 4.930008196198934e-01	 1.335437963250109e+00	 4.257689850844139e+00
 4.805749152935335e-01	 1.339959763277518e+00	 4.118806202160202e+00
 4.681334945536649e-01	 1.344356912697414e+00	 3.981163197996668e+00
 4.556783348090451e-01	 1.348629599654967e+00	 3.845094979779565e+00
 4.432112021774441e-01	 1.352778044249608e+00	 3.710976044900042e+00
 4.307338508142108e-01	 1.356802498096622e+00	 3.579216949172805e+00
 4.182480222574991e-01	 1.360703243873228e+00	 3.450260090912593e+00
 4.057554447905181e-01	 1.364480594849838e+00	 3.324575589981841e+00
 3.932578328211385e-01	 1.368134894407131e+00	 3.202657274210815e+00
 3.807568862791614e-01	 1.371666515539633e+00	 3.085018784613766e+00
 3.682542900315289e-01	 1.375075860346475e+00	 2.972189809838842e+00
 4.960569497101224e-01	 1.343716391958665e+00	 4.321548474071200e+00
 4.835540167490411e-01	 1.348266222789505e+00	 4.181658015764453e+00
 4.710354711876202e-01	 1.352690630299162e+00	 4.043420448999099e+00
 4.585031014528350e-01	 1.356989803799131e+00	 3.907109183363848e+00
 4.459586846106810e-01	 1.361163964753259e+00	 3.773037665259241e+00
 4.334039856905763e-01	 1.365213366336608e+00	 3.641555049852160e+00
 4.208407570265301e-01	 1.369138292978735e+00	 3.513041958356154e+00
 4.082707376154387e-01	 1.372939059892032e+00	 3.387906334223537e+00
 3.956956524928468e-01	 1.376616012585818e+00	 3.266579410855933e+00
 3.831172121264788e-01	 1.380169526366831e+00	 3.149511802429171e+00
 3.705371118278250e-01	 1.383600005826839e+00	 3.037169728417789e+00
 4.991130798001508e-01	 1.351994820668021e+00	 4.382395082890527e+00
 4.865331182043390e-01	 1.356572682302293e+00	 4.241375179857666e+00
 4.739374478213425e-01	 1.361024347901707e+00	 4.102519099438081e+00
 4.613278680963599e-01	 1.365350007944089e+00	 3.966022825194014e+00
 4.487061670436159e-01	 1.369549885257692e+00	 3.832121795231717e+00
 4.360741205666026e-01	 1.373624234577360e+00	 3.701086568789908e+00
 4.234334917951887e-01	 1.377573342084982e+00	 3.573218581814228e+00
 4.107860304399624e-01	 1.381397524934933e+00	 3.448846005315872e+00
 3.981334721641456e-01	 1.385097130765164e+00	 3.328319719280072e+00
 3.854775379733910e-01	 1.388672537194630e+00	 3.212009413876276e+00
 3.728199336237416e-01	 1.392124151307731e+00	 3.100299828656201e+00
 3.499917156613211e-01	 1.306882696506716e+00	 2.388900533395676e+00
 3.381091705472289e-01	 1.310007161332449e+00	 2.283148485462201e+00
 3.262282160356712e-01	 1.313016260802667e+00	 2.180892570760989e+00
 3.143504082451845e-01	 1.315910458735754e+00	 2.082161681522002e+00
 3.024772868851621e-01	 1.318690244556447e+00	 1.986992226974963e+00
 2.906103747886412e-01	 1.321356132759197e+00	 1.895426415280711e+00
 2.787511774632436e-01	 1.323908662363273e+00	 1.807510641162221e+00
 2.669011826603555e-01	 1.326348396360253e+00	 1.723293981769331e+00
 2.550618599626067e-01	 1.328675921154549e+00	 1.642826802665429e+00
 2.432346603896930e-01	 1.330891845997599e+00	 1.566159475196000e+00
 2.314210160225521e-01	 1.332996802416356e+00	 1.493341205889452e+00
 3.522745374565047e-01	 1.315406841987608e+00	 2.467735617442099e+00
 3.403144884137317e-01	 1.318551686142743e+00	 2.360949267978785e+00
 3.283560403481451e-01	 1.321580412471606e+00	 2.257754690957933e+00
 3.164007595280842e-01	 1.324493487817822e+00	 2.158166003511851e+00
 3.044501957057148e-01	 1.327291404798392e+00	 2.062204571203987e+00
 2.925058816467719e-01	 1.329974681263546e+00	 1.969897254810903e+00
 2.805693326785690e-01	 1.332543859748293e+00	 1.881274767327702e+00
 2.686420462563690e-01	 1.334999506916314e+00	 1.796370143751874e+00
 2.567255015481725e-01	 1.337342212996832e+00	 1.715217325520840e+00
 2.448211590379691e-01	 1.339572591215119e+00	 1.637849860836285e+00
 2.329304601474622e-01	 1.341691277217250e+00	 1.564299721473112e+00
 3.545573592522309e-01	 1.323930987467973e+00	 2.544930044673350e+00
 3.425198062806841e-01	 1.327096210952599e+00	 2.437329625092898e+00
 3.304838646609647e-01	 1.330144564140208e+00	 2.333373433037490e+00
 3.184511108112183e-01	 1.333076516899666e+00	 2.233067280077645e+00
 3.064231045263883e-01	 1.335892565040230e+00	 2.136423937970426e+00
 2.944013885049106e-01	 1.338593229767908e+00	 2.043461340815472e+00
 2.823874878937946e-01	 1.341179057133447e+00	 1.954200902301226e+00
 2.703829098521839e-01	 1.343650617472627e+00	 1.868665950615330e+00
 2.583891431334537e-01	 1.346008504839481e+00	 1.786880282897999e+00
 2.464076576858912e-01	 1.348253336433106e+00	 1.708866840440795e+00
 2.344399042719691e-01	 1.350385752018702e+00	 1.634646505186567e+00
 3.568401810483847e-01	 1.332455132947942e+00	 2.620458243678697e+00
 3.447251241479886e-01	 1.335640735762127e+00	 2.512248978614546e+00
 3.326116889740540e-01	 1.338708715808558e+00	 2.407695145578935e+00
 3.205014620945353e-01	 1.341659545981341e+00	 2.306800621140090e+00
 3.083960133471568e-01	 1.344493725281991e+00	 2.209575933026577e+00
 2.962968953630578e-01	 1.347211778272284e+00	 2.116036408238093e+00
 2.842056431089469e-01	 1.349814254518708e+00	 2.026200441453680e+00
 2.721237734478507e-01	 1.352301728029137e+00	 1.940087886340563e+00
 2.600527847185219e-01	 1.354674796682413e+00	 1.857718571645895e+00
 2.479941563335479e-01	 1.356934081651459e+00	 1.779110943256631e+00
 2.359493483961735e-01	 1.359080226820593e+00	 1.704280832740341e+00
 3.591230028448506e-01	 1.340979278427649e+00	 2.694294248845178e+00
 3.469304420155475e-01	 1.344185260571437e+00	 2.585666479272597e+00
 3.347395132873366e-01	 1.347272867476741e+00	 2.480665997719645e+00
 3.225518133779837e-01	 1.350242575062906e+00	 2.379301020678463e+00
 3.103689221679943e-01	 1.353094885523699e+00	 2.281586084866042e+00
 2.981924022212141e-01	 1.355830326776671e+00	 2.187540131922759e+00
 2.860237983240519e-01	 1.358449451904044e+00	 2.097184718958951e+00
 2.738646370434192e-01	 1.360952838585789e+00	 2.010542357590031e+00
 2.617164263034480e-01	 1.363341088525549e+00	 1.927634983351650e+00
 2.495806549810275e-01	 1.365614826870076e+00	 1.848482556669132e+00
 2.374587925201764e-01	 1.367774701622806e+00	 1.773101795850753e+00
 3.614058246415134e-01	 1.349503423907223e+00	 2.766411819739269e+00
 3.491357598832633e-01	 1.352729785380636e+00	 2.657541113597186e+00
 3.368673376007369e-01	 1.355837019144840e+00	 2.552232074812818e+00
 3.246021646615114e-01	 1.358825604144416e+00	 2.450503442347855e+00
 3.123418309888752e-01	 1.361696045765385e+00	 2.352379921392000e+00
 3.000879090793801e-01	 1.364448875281070e+00	 2.257890195331303e+00
 2.878419535391358e-01	 1.367084649289429e+00	 2.167065069463457e+00
 2.756055006389397e-01	 1.369603949142524e+00	 2.079935749141174e+00
 2.633800678883034e-01	 1.372007380368809e+00	 1.996532254255676e+00
 2.511671536284188e-01	 1.374295572088857e+00	 1.916881971222803e+00
 2.389682366440784e-01	 1.376469176425223e+00	 1.841008342906927e+00
 3.636886464382575e-01	 1.358027569386798e+00	 2.836784556968865e+00
 3.513410777510382e-01	 1.361274310189836e+00	 2.727831807686260e+00
 3.389951619141786e-01	 1.364401170812940e+00	 2.622339471331424e+00
 3.266525159450667e-01	 1.367408633225928e+00	 2.520342902662288e+00
 3.143147398097734e-01	 1.370297206007076e+00	 2.421883044430000e+00
 3.019834159375560e-01	 1.373067423785480e+00	 2.327004357348136e+00
 2.896601087542249e-01	 1.375719846674832e+00	 2.235752888054908e+00
 2.773463642344626e-01	 1.378255059699291e+00	 2.148174477802391e+00
 2.650437094731596e-01	 1.380673672212113e+00	 2.064313113808159e+00
 2.527536522758100e-01	 1.382976317307702e+00	 1.984209424424798e+00
 2.404776807679804e-01	 1.385163651227725e+00	 1.907899318533947e+00
 3.659714682349676e-01	 1.366551714866505e+00	 2.905386014681149e+00
 3.535463956187747e-01	 1.369818834999146e+00	 2.796497527998535e+00
 3.411229862275859e-01	 1.372965322481125e+00	 2.690934381142412e+00
 3.287028672285982e-01	 1.375991662307499e+00	 2.588754551850891e+00
 3.162876486306632e-01	 1.378898366248802e+00	 2.490021202181913e+00
 3.038789227957426e-01	 1.381685972289900e+00	 2.394800517258600e+00
 2.914782639693453e-01	 1.384355044060225e+00	 2.303159688606811e+00
 2.790872278300376e-01	 1.386906170256031e+00	 2.215165044879283e+00
 2.667073510580876e-01	 1.389339964055382e+00	 2.130880331926823e+00
 2.543401509232899e-01	 1.391657062526507e+00	 2.050365143378358e+00
 2.419871248919833e-01	 1.393858126030196e+00	 1.973673502101955e+00
 3.682542900315289e-01	 1.375075860346475e+00	 2.972189809838842e+00
 3.557517134863752e-01	 1.378363359808674e+00	 2.863497379298015e+00
 3.432508105408824e-01	 1.381529474149479e+00	 2.757963185263620e+00
 3.307532185120539e-01	 1.384574691389187e+00	 2.655673752488060e+00
 3.182605574515188e-01	 1.387499526490589e+00	 2.556720359706155e+00
 3.057744296539400e-01	 1.390304520794330e+00	 2.461196777976413e+00
 2.932964191845232e-01	 1.392990241445579e+00	 2.369197160567308e+00
 2.808280914257150e-01	 1.395557280812689e+00	 2.280814087252834e+00
 2.683709926431588e-01	 1.398006255898535e+00	 2.196136765013164e+00
 2.559266495709470e-01	 1.400337807745173e+00	 2.115249386300218e+00
 2.434965690161878e-01	 1.402552600832516e+00	 2.038229645225479e+00
 3.705371118278250e-01	 1.383600005826839e+00	 3.037169728417789e+00
 3.579570313537422e-01	 1.386907884618530e+00	 2.928790699873567e+00
 3.453786348539923e-01	 1.390093625818086e+00	 2.823372537211640e+00
 3.328035697953822e-01	 1.393157720471047e+00	 2.721036155993758e+00
 3.202334662723141e-01	 1.396100686732467e+00	 2.621906767516619e+00
 3.076699365121491e-01	 1.398923069298769e+00	 2.526111507603143e+00
 2.951145743997849e-01	 1.401625438830864e+00	 2.433777224261306e+00
 2.825689550215451e-01	 1.404208391369210e+00	 2.345028427131545e+00
 2.700346342284445e-01	 1.406672547741491e+00	 2.259985400776068e+00
 2.575131482188697e-01	 1.409018552963599e+00	 2.178762482964660e+00
 2.450060131406947e-01	 1.411247075634568e+00	 2.101466508297736e+00
 3.728199336237416e-01	 1.392124151307731e+00	 3.100299828656201e+00
 3.601623492207781e-01	 1.395452409428825e+00	 2.992337154153565e+00
 3.475064591668398e-01	 1.398657777487031e+00	 2.887109446044268e+00
 3.348539210785312e-01	 1.401740749553137e+00	 2.784777777094747e+00
 3.222063750930237e-01	 1.404701846974463e+00	 2.685507028370459e+00
 3.095654433703703e-01	 1.407541617803216e+00	 2.589463399381434e+00
 2.969327296151564e-01	 1.410260636216053e+00	 2.496812084765994e+00
 2.843098186175781e-01	 1.412859501925538e+00	 2.407715120529651e+00
 2.716982758140161e-01	 1.415338839584173e+00	 2.322329401921438e+00
 2.590996468671465e-01	 1.417699298181683e+00	 2.240804874127882e+00
 2.465154572656048e-01	 1.419941550436234e+00	 2.163282896100516e+00
 2.314210160225521e-01	 1.332996802416356e+00	 1.493341205889453e+00
 2.196203356210291e-01	 1.334991773238847e+00	 1.423769931737469e+00
 2.078360252480811e-01	 1.336877065048610e+00	 1.356993626100497e+00
 1.960694618236402e-01	 1.338653372104617e+00	 1.293245129467254e+00
 1.843220019302544e-01	 1.340321408639350e+00	 1.232751618939891e+00
 1.725949815280879e-01	 1.341881908267035e+00	 1.175733871978031e+00
 1.608897156880044e-01	 1.343335623389784e+00	 1.122405638008962e+00
 1.492074983425993e-01	 1.344683324602242e+00	 1.072973115150215e+00
 1.375496020550363e-01	 1.345925800095279e+00	 1.027634528915843e+00
 1.259172778055192e-01	 1.347063855059284e+00	 9.865798094278049e-01
 1.143117547952176e-01	 1.348098311087590e+00	 9.499903633442499e-01
 2.329304601474622e-01	 1.341691277217250e+00	 1.564299721473112e+00
 2.210528097801408e-01	 1.343699260241742e+00	 1.493960026049296e+00
 2.091916362150057e-01	 1.345596848871830e+00	 1.426398425995375e+00
 1.973483253529381e-01	 1.347384741894796e+00	 1.361865905156450e+00
 1.855242426247843e-01	 1.349063658201715e+00	 1.300606866806531e+00
 1.737207327044978e-01	 1.350634336191816e+00	 1.242858368992716e+00
 1.619391192404805e-01	 1.352097533174766e+00	 1.188849473045579e+00
 1.501807046049928e-01	 1.353454024771419e+00	 1.138800702354736e+00
 1.384467696614805e-01	 1.354704604313630e+00	 1.092923608114155e+00
 1.267385735496553e-01	 1.355850082243650e+00	 1.051420438382743e+00
 1.150573534881408e-01	 1.356891285513661e+00	 1.014483906480444e+00
 2.344399042719691e-01	 1.350385752018702e+00	 1.634646505186568e+00
 2.224852839388230e-01	 1.352406747245271e+00	 1.563611884527687e+00
 2.105472471814967e-01	 1.354316632695745e+00	 1.495347810240488e+00
 1.986271888818180e-01	 1.356116111685718e+00	 1.430119331479162e+00
 1.867264833189296e-01	 1.357805907764853e+00	 1.368184013354662e+00
 1.748464838805718e-01	 1.359386764117388e+00	 1.309791147910731e+00
 1.629885227926837e-01	 1.360859442960541e+00	 1.255181083551638e+00
 1.511539108671877e-01	 1.362224724941377e+00	 1.204584669870627e+00
 1.393439372678103e-01	 1.363483408532734e+00	 1.158222814404109e+00
 1.275598692937688e-01	 1.364636309428726e+00	 1.116306147478440e+00
 1.158029521811390e-01	 1.365684259940387e+00	 1.079034790973783e+00
 2.359493483961735e-01	 1.359080226820593e+00	 1.704280832740340e+00
 2.239177580971834e-01	 1.361114234249305e+00	 1.632624356807460e+00
 2.119028581476625e-01	 1.363036416520218e+00	 1.563740872344038e+00
 1.999060524103843e-01	 1.364847481477240e+00	 1.497905501396942e+00
 1.879287240127863e-01	 1.366548157328623e+00	 1.435384989983734e+00
 1.759722350563943e-01	 1.368139192043613e+00	 1.376436898700728e+00
 1.640379263446822e-01	 1.369621352746974e+00	 1.321308917066144e+00
 1.521271171292337e-01	 1.370995425111989e+00	 1.270238298376403e+00
 1.402411048740542e-01	 1.372262212752476e+00	 1.223451411429812e+00
 1.283811650378653e-01	 1.373422536614409e+00	 1.181163405087808e+00
 1.165485508741936e-01	 1.374477234367676e+00	 1.143577981296461e+00
 2.374587925201764e-01	 1.367774701622806e+00	 1.773101795850753e+00
 2.253502322553289e-01	 1.369821721253712e+00	 1.700896068541519e+00
 2.132584691136115e-01	 1.371756200345110e+00	 1.631476448341382e+00
 2.011849159387416e-01	 1.373578851269221e+00	 1.565124221505608e+00
 1.891309647064506e-01	 1.375290406892884e+00	 1.502111415535349e+00
 1.770979862320488e-01	 1.376891619970350e+00	 1.442699973390484e+00
 1.650873298965443e-01	 1.378383262533937e+00	 1.387141056717851e+00
 1.531003233911805e-01	 1.379766125283133e+00	 1.335674474701657e+00
 1.411382724802409e-01	 1.381041016972741e+00	 1.288528234700368e+00
 1.292024607819506e-01	 1.382208763800598e+00	 1.245918210441635e+00
 1.172941495672856e-01	 1.383270208795438e+00	 1.208047923189530e+00
 2.389682366440784e-01	 1.376469176425223e+00	 1.841008342906920e+00
 2.267827064133671e-01	 1.378529208258362e+00	 1.768325458006482e+00
 2.146140800794520e-01	 1.380475984170285e+00	 1.698453149504261e+00
 2.024637794669945e-01	 1.382310221061520e+00	 1.631675041079207e+00
 1.903332054000187e-01	 1.384032656457494e+00	 1.568264621965100e+00
 1.782237374076194e-01	 1.385644047897464e+00	 1.508484408716888e+00
 1.661367334483380e-01	 1.387145172321294e+00	 1.452585241275540e+00
 1.540735296530776e-01	 1.388536825454683e+00	 1.400805709756250e+00
 1.420354400863991e-01	 1.389819821193416e+00	 1.353371707932978e+00
 1.300237565260302e-01	 1.390994990987188e+00	 1.310496108982000e+00
 1.180397482603965e-01	 1.392063183223582e+00	 1.272378558679395e+00
 2.404776807679804e-01	 1.385163651227725e+00	 1.907899318533939e+00
 2.282151805714054e-01	 1.387236695263126e+00	 1.834810811715347e+00
 2.159696910452925e-01	 1.389195767995604e+00	 1.764569394164593e+00
 2.037426429952471e-01	 1.391041590853994e+00	 1.697457280325536e+00
 1.915354460935869e-01	 1.392774906022312e+00	 1.633745679314899e+00
 1.793494885831899e-01	 1.394396475824815e+00	 1.573693948164330e+00
 1.671861370001318e-01	 1.395907082108914e+00	 1.517548884651095e+00
 1.550467359149747e-01	 1.397307525626517e+00	 1.465544155957939e+00
 1.429326076925572e-01	 1.398598625414386e+00	 1.417899858926932e+00
 1.308450522701098e-01	 1.399781218174077e+00	 1.374822207260450e+00
 1.187853469535073e-01	 1.400856157652018e+00	 1.336503340632567e+00
 2.419871248919833e-01	 1.393858126030196e+00	 1.973673502101948e+00
 2.296476547295508e-01	 1.395944182267873e+00	 1.900250299080829e+00
 2.173253020112415e-01	 1.397915551820929e+00	 1.829723438688952e+00
 2.050215065236043e-01	 1.399772960646505e+00	 1.762370057890185e+00
 1.927376867872511e-01	 1.401517155587198e+00	 1.698455420021461e+00
 1.804752397588445e-01	 1.403148903752267e+00	 1.638232063407576e+00
 1.682355405519939e-01	 1.404668991896667e+00	 1.581939094872350e+00
 1.560199421769214e-01	 1.406078225798511e+00	 1.529801624183646e+00
 1.438297752987439e-01	 1.407377429635539e+00	 1.482030334994856e+00
 1.316663480141950e-01	 1.408567445361161e+00	 1.438821187404365e+00
 1.195309456465994e-01	 1.409649132080654e+00	 1.400355246866523e+00
 2.434965690161878e-01	 1.402552600832516e+00	 2.038229645225479e+00
 2.310801288879112e-01	 1.404651669272474e+00	 1.964542006168998e+00
 2.186809129774073e-01	 1.406635335646124e+00	 1.893813407640460e+00
 2.063003700521708e-01	 1.408504330438910e+00	 1.826312317638724e+00
 1.939399274811078e-01	 1.410259405152009e+00	 1.762294462586258e+00
 1.816009909346668e-01	 1.411901331679679e+00	 1.702001975196289e+00
 1.692849441039923e-01	 1.413430901684418e+00	 1.645662692556141e+00
 1.569931484389674e-01	 1.414848925970539e+00	 1.593489600264637e+00
 1.447269429049878e-01	 1.416156233856758e+00	 1.545680417965132e+00
 1.324876437582916e-01	 1.417353672548340e+00	 1.502417321166051e+00
 1.202765443396539e-01	 1.418442106509400e+00	 1.463866793837899e+00
 2.450060131406947e-01	 1.411247075634568e+00	 2.101466508297736e+00
 2.325126030465934e-01	 1.413359156276798e+00	 2.027583968584457e+00
 2.200365239438982e-01	 1.415355119471049e+00	 1.956737323167157e+00
 2.075792335810506e-01	 1.417235700231067e+00	 1.889182854750644e+00
 1.951421681752531e-01	 1.419001654716606e+00	 1.825163234636709e+00
 1.827267421107409e-01	 1.420653759606916e+00	 1.764906673695060e+00
 1.703343476561955e-01	 1.422192811472036e+00	 1.708626228898077e+00
 1.579663547011624e-01	 1.423619626142480e+00	 1.656519261042507e+00
 1.456241105113176e-01	 1.424935038077932e+00	 1.608767038776163e+00
 1.333089395024050e-01	 1.426139899735509e+00	 1.565534483576765e+00
 1.210221430326521e-01	 1.427235080938167e+00	 1.526970049923509e+00
 2.465154572656048e-01	 1.419941550436234e+00	 2.163282896100509e+00
 2.339450772057051e-01	 1.422066643280715e+00	 2.089274203523998e+00
 2.213921349108230e-01	 1.424074903295569e+00	 2.018393133643424e+00
 2.088580971103485e-01	 1.425967070022836e+00	 1.950880341152960e+00
 1.963444088697830e-01	 1.427743904280846e+00	 1.886961995403065e+00
 1.838524932871508e-01	 1.429406187533840e+00	 1.826848938309715e+00
 1.713837512086717e-01	 1.430954721259390e+00	 1.770736003200924e+00
 1.589395609635559e-01	 1.432390326314207e+00	 1.718801490008408e+00
 1.465212781177617e-01	 1.433713842298944e+00	 1.671206791680832e+00
 1.341302352465411e-01	 1.434926126922566e+00	 1.628096166218846e+00
 1.217677417255753e-01	 1.436028055366862e+00	 1.589596648313513e+00
 1.143117547952176e-01	 1.348098311087590e+00	 9.499903633442424e-01
 1.027362012421250e-01	 1.349029855853806e+00	 9.172466557650265e-01
 9.118980418052944e-02	 1.349859525943230e+00	 8.876696619906985e-01
 7.967369955167920e-02	 1.350588187874028e+00	 8.613561416180968e-01
 6.818900163770034e-02	 1.351216722171277e+00	 8.383945288037344e-01
 5.673680294597199e-02	 1.351746022787329e+00	 8.188652790714808e-01
 4.531817410899213e-02	 1.352176996524908e+00	 8.028412783250951e-01
 3.393416379947616e-02	 1.352510562463393e+00	 7.903883088958257e-01
 2.258579866042112e-02	 1.352747651388675e+00	 7.815655674062654e-01
 1.127408324985740e-02	 1.352889205227027e+00	 7.764262292211024e-01
 0.000000000000000e+00	 1.352936176483334e+00	 7.750180545520400e-01
 1.150573534881408e-01	 1.356891285513661e+00	 1.014483906480444e+00
 1.034062983596297e-01	 1.357828906282633e+00	 9.814849630325235e-01
 9.178458989584180e-02	 1.358663987896997e+00	 9.517202301738952e-01
 8.019337144721018e-02	 1.359397402526789e+00	 9.252745483046314e-01
 6.863376456377401e-02	 1.360030036440318e+00	 9.022239767844937e-01
 5.710686887879979e-02	 1.360562789420742e+00	 8.826361713306348e-01
 4.561376200799373e-02	 1.360996574185418e+00	 8.665708258825786e-01
 3.415549946404665e-02	 1.361332315808420e+00	 8.540801735407433e-01
 2.273311458624213e-02	 1.361570951146700e+00	 8.452095411371017e-01
 1.134761848484777e-02	 1.361713428270247e+00	 8.399979519879519e-01
 0.000000000000000e+00	 1.361760705896667e+00	 8.384787716775444e-01
 1.158029521811390e-01	 1.365684259940387e+00	 1.079034790973775e+00
 1.040763954773100e-01	 1.366627956712044e+00	 1.045770162264358e+00
 9.237937561142637e-02	 1.367468449851268e+00	 1.015790290284812e+00
 8.071304334309824e-02	 1.368206617179969e+00	 9.891728364039787e-01
 6.907852749027049e-02	 1.368843350709689e+00	 9.659861417047764e-01
 5.747693481208934e-02	 1.369379556054403e+00	 9.462896315140072e-01
 4.590934990746186e-02	 1.369816151846096e+00	 9.301342869275508e-01
 3.437683512904705e-02	 1.370154069153548e+00	 9.175631777096460e-01
 2.288043051240778e-02	 1.370394250904771e+00	 9.086120508935724e-01
 1.142115372004180e-02	 1.370537651313480e+00	 9.033099694089817e-01
 0.000000000000000e+00	 1.370585235310001e+00	 9.016799953604075e-01
 1.165485508741936e-01	 1.374477234367676e+00	 1.143577981296461e+00
 1.047464925951220e-01	 1.375427007141962e+00	 1.110046891742868e+00
 9.297416132721502e-02	 1.376272911805979e+00	 1.079835109470900e+00
 8.123271523925410e-02	 1.377015831833514e+00	 1.053017756459653e+00
 6.952329041708402e-02	 1.377656664979350e+00	 1.029660011283907e+00
 5.784700074572520e-02	 1.378196322688281e+00	 1.009817537405090e+00
 4.620493780727990e-02	 1.378635729506922e+00	 9.935369812525414e-01
 3.459817079436985e-02	 1.378975822498765e+00	 9.808565342361111e-01
 2.302774643883191e-02	 1.379217550662885e+00	 9.718065527915916e-01
 1.149468895538856e-02	 1.379361874356723e+00	 9.664102305370823e-01
 0.000000000000000e+00	 1.379409764723334e+00	 9.646843169415713e-01
 1.172941495672856e-01	 1.383270208795438e+00	 1.208047923189530e+00
 1.054165897130218e-01	 1.384226057572308e+00	 1.174259215560062e+00
 9.356894704313973e-02	 1.385077373761063e+00	 1.143809324860052e+00
 8.175238713558854e-02	 1.385825046487373e+00	 1.116775375116685e+00
 6.996805334410898e-02	 1.386469979249262e+00	 1.093223839698177e+00
 5.821706667959189e-02	 1.387013089322345e+00	 1.073210990076852e+00
 4.650052570733119e-02	 1.387455307167877e+00	 1.056783417449716e+00
 3.481950645990762e-02	 1.387797575844059e+00	 1.043978621108369e+00
 2.317506236542835e-02	 1.388040850421035e+00	 1.034825657420138e+00
 1.156822419083716e-02	 1.388186097399976e+00	 1.029345843259355e+00
 0.000000000000000e+00	 1.388234294136667e+00	 1.027553508045216e+00
 1.180397482603965e-01	 1.392063183223582e+00	 1.272378558679395e+00
 1.060866868309655e-01	 1.393025108003004e+00	 1.238350638866055e+00
 9.416373275913247e-02	 1.393881835716456e+00	 1.207666959431465e+00
 8.227205903201222e-02	 1.394634261141493e+00	 1.180411091931598e+00
 7.041281627123964e-02	 1.395283293519384e+00	 1.156655165564693e+00
 5.858713261357405e-02	 1.395829855956567e+00	 1.136460333212098e+00
 4.679611360749912e-02	 1.396274884828940e+00	 1.119877313661418e+00
 3.504084212555285e-02	 1.396619329189418e+00	 1.106947003660995e+00
 2.332237829211093e-02	 1.396864150179216e+00	 1.097701153418316e+00
 1.164175942633666e-02	 1.397010320443238e+00	 1.092163099132572e+00
 0.000000000000000e+00	 1.397058823550000e+00	 1.090348546466786e+00
 1.187853469535073e-01	 1.400856157652018e+00	 1.336503340632567e+00
 1.067567839489092e-01	 1.401824158433973e+00	 1.302264122627304e+00
 9.475851847512520e-02	 1.402686297672092e+00	 1.271361437354983e+00
 8.279173092843589e-02	 1.403443475795821e+00	 1.243889655593624e+00
 7.085757919837028e-02	 1.404096607789674e+00	 1.219930829282042e+00
 5.895719854755618e-02	 1.404646622590918e+00	 1.199555171723816e+00
 4.709170150766706e-02	 1.405094462490092e+00	 1.182821617562933e+00
 3.526217779119808e-02	 1.405441082534831e+00	 1.169778455940215e+00
 2.346969421879353e-02	 1.405687449937423e+00	 1.160464030169483e+00
 1.171529466183616e-02	 1.405834543486506e+00	 1.154907497283152e+00
 0.000000000000000e+00	 1.405883352963333e+00	 1.153129641087371e+00
 1.195309456465994e-01	 1.409649132080654e+00	 1.400355246866523e+00
 1.074268810668089e-01	 1.410623208865136e+00	 1.365942097913175e+00
 9.535330419104994e-02	 1.411490759627908e+00	 1.334845598819799e+00
 8.331140282477031e-02	 1.412252690450304e+00	 1.307175179593215e+00
 7.130234212539524e-02	 1.412909922060092e+00	 1.283026989760525e+00
 5.932726448142290e-02	 1.413463389225367e+00	 1.262484389700350e+00
 4.738728940771835e-02	 1.413914040151313e+00	 1.245618525615555e+00
 3.548351345673584e-02	 1.414262835880286e+00	 1.232488981279888e+00
 2.361701014538997e-02	 1.414510749695649e+00	 1.223144499649465e+00
 1.178882989728476e-02	 1.414658766529779e+00	 1.217623767410983e+00
 0.000000000000000e+00	 1.414707882376666e+00	 1.215956255854238e+00
 1.202765443396539e-01	 1.418442106509400e+00	 1.463866793837899e+00
 1.080969781846209e-01	 1.419422259296415e+00	 1.429326479731941e+00
 9.594808990683856e-02	 1.420295221583836e+00	 1.398071714373339e+00
 8.383107472092620e-02	 1.421061905104891e+00	 1.370231157352821e+00
 7.174710505220881e-02	 1.421723236330597e+00	 1.345919140561368e+00
 5.969733041505874e-02	 1.422280155859884e+00	 1.325236167709961e+00
 4.768287730753638e-02	 1.422733617812583e+00	 1.308269501614056e+00
 3.570484912205867e-02	 1.423084589225772e+00	 1.295093832117005e+00
 2.376432607181408e-02	 1.423334049453891e+00	 1.285772017465737e+00
 1.186236513263152e-02	 1.423482989573057e+00	 1.280355891943567e+00
 0.000000000000000e+00	 1.423532411789999e+00	 1.278887132870794e+00
 1.210221430326521e-01	 1.427235080938167e+00	 1.526970049923509e+00
 1.087670753023013e-01	 1.428221309727733e+00	 1.492358680437099e+00
 9.654287562242307e-02	 1.429099683539813e+00	 1.460991498797882e+00
 8.435074661681423e-02	 1.429871119759527e+00	 1.433020476846091e+00
 7.219186797870526e-02	 1.430536550601150e+00	 1.408582125478468e+00
 6.006739634834829e-02	 1.431096922494441e+00	 1.387797999488048e+00
 4.797846520700449e-02	 1.431553195473883e+00	 1.370775294570409e+00
 3.592618478705905e-02	 1.431906342571277e+00	 1.357607529087071e+00
 2.391164199797973e-02	 1.432157349212141e+00	 1.348375303122957e+00
 1.193590036782555e-02	 1.432307212616338e+00	 1.343147127365710e+00
 0.000000000000000e+00	 1.432356941203333e+00	 1.341980314631821e+00
 1.217677417255753e-01	 1.436028055366862e+00	 1.589596648313498e+00
 1.094371724198060e-01	 1.437020360159012e+00	 1.554979622722223e+00
 9.713766133773548e-02	 1.437904145495773e+00	 1.523556124536802e+00
 8.487041851234521e-02	 1.438680334414162e+00	 1.495505434732023e+00
 7.263663090477897e-02	 1.439349864871708e+00	 1.470990153580450e+00
 6.043746228117610e-02	 1.439913689129008e+00	 1.450156708036343e+00
 4.827405310600610e-02	 1.440372773135193e+00	 1.433135955950835e+00
 3.614752045162955e-02	 1.440728095916790e+00	 1.420043879424441e+00
 2.405895792380075e-02	 1.440980648970397e+00	 1.410982359548483e+00
 1.200943560281591e-02	 1.441131435659619e+00	 1.406040024773112e+00
 0.000000000000000e+00	 1.441181470616666e+00	 1.405293165442221e+00
 1.441181470616666e+00	 0.000000000000000e+00	 1.623350729164971e+01
 1.441131435659620e+00	 1.200943560281512e-02	 1.623216383424010e+01
 1.440980648970397e+00	 2.405895792380007e-02	 1.623066153182317e+01
 1.440728095916789e+00	 3.614752045162897e-02	 1.622891777777760e+01
 1.440372773135193e+00	 4.827405310600565e-02	 1.622686011992185e+01
 1.439913689129008e+00	 6.043746228117578e-02	 1.622442711842707e+01
 1.439349864871708e+00	 7.263663090477876e-02	 1.622156916912572e+01
 1.438680334414161e+00	 8.487041851234511e-02	 1.621824928879957e+01
 1.437904145495773e+00	 9.713766133773551e-02	 1.621444385879317e+01
 1.437020360159012e+00	 1.094371724198062e-01	 1.621014332321203e+01
 1.436028055366862e+00	 1.217677417255753e-01	 1.620535283787742e+01
 1.450004500024999e+00	 0.000000000000000e+00	 1.611710639036150e+01
 1.449954158749978e+00	 1.208295833795273e-02	 1.611577800586343e+01
 1.449802448932670e+00	 2.420624880826541e-02	 1.611435499193170e+01
 1.449548349729178e+00	 3.636881849277188e-02	 1.611275322267196e+01
 1.449190851633198e+00	 4.856959076004437e-02	 1.611089958735424e+01
 1.448728957078083e+00	 6.080746530917199e-02	 1.610873286934290e+01
 1.448161681043600e+00	 7.308131822897299e-02	 1.610620458952490e+01
 1.447488051666967e+00	 8.539000207294811e-02	 1.610327981078328e+01
 1.446707110857749e+00	 9.773234595027337e-02	 1.609993789982506e+01
 1.445817914916132e+00	 1.101071556331185e-01	 1.609617324258411e+01
 1.444819535154164e+00	 1.225132136805673e-01	 1.609199590932831e+01
 1.458827529433332e+00	 0.000000000000000e+00	 1.600399944952092e+01
 1.458776881840336e+00	 1.215648107288541e-02	 1.600265715962957e+01
 1.458624248894937e+00	 2.435353969238123e-02	 1.600128984455270e+01
 1.458368603541552e+00	 3.659011653347470e-02	 1.599981093562780e+01
 1.458008930131178e+00	 4.886512841359994e-02	 1.599814572434406e+01
 1.457544225027117e+00	 6.117746833668301e-02	 1.599623226263979e+01
 1.456973497215430e+00	 7.352600555271431e-02	 1.599402222685796e+01
 1.456295768919688e+00	 8.590958563315805e-02	 1.599148174187517e+01
 1.455510076219609e+00	 9.832703056249868e-02	 1.598859216167964e+01
 1.454615469673103e+00	 1.107771388462125e-01	 1.598535080258270e+01
 1.453611014941278e+00	 1.232586856354421e-01	 1.598177162515472e+01
 1.467650558841666e+00	 0.000000000000000e+00	 1.589405081644523e+01
 1.467599604930690e+00	 1.223000380766271e-02	 1.589266812631217e+01
 1.467446048857192e+00	 2.450083057622867e-02	 1.589133493008261e+01
 1.467188857353902e+00	 3.681141457383452e-02	 1.588996131177372e+01
 1.466827008629116e+00	 4.916066606677223e-02	 1.588847004486788e+01
 1.466359492976088e+00	 6.154747136380066e-02	 1.588679751429762e+01
 1.465785313387171e+00	 7.397069287607808e-02	 1.588489460130907e+01
 1.465103486172292e+00	 8.642916919302795e-02	 1.588272752768919e+01
 1.464313041581324e+00	 9.892171517443897e-02	 1.588027865560342e+01
 1.463413024429894e+00	 1.114471220590895e-01	 1.587754723919535e+01
 1.462402494728179e+00	 1.240041575901763e-01	 1.587455012400448e+01
 1.476473588250000e+00	 0.000000000000000e+00	 1.578712632193356e+01
 1.476422328021041e+00	 1.230352654233416e-02	 1.578567906236395e+01
 1.476267848819432e+00	 2.464812145988886e-02	 1.578436027183090e+01
 1.476009111166218e+00	 3.703271261394845e-02	 1.578307580125661e+01
 1.475645087126997e+00	 4.945620371966111e-02	 1.578174500470474e+01
 1.475174760924975e+00	 6.191747439061665e-02	 1.578030168334473e+01
 1.474597129558798e+00	 7.441538019913965e-02	 1.577869499157417e+01
 1.473911203424750e+00	 8.694875275261103e-02	 1.577689030175956e+01
 1.473116006942859e+00	 9.951639978612177e-02	 1.577487002381672e+01
 1.472210579186475e+00	 1.121171052717507e-01	 1.577263437575338e+01
 1.471193974514841e+00	 1.247496295447467e-01	 1.577020210119730e+01
 1.485296617658333e+00	 0.000000000000000e+00	 1.568309323620538e+01
 1.485245051111386e+00	 1.237704927694933e-02	 1.568155940790519e+01
 1.485089648781651e+00	 2.479541234344295e-02	 1.568023703596239e+01
 1.484829364978490e+00	 3.725401065391361e-02	 1.567902687105314e+01
 1.484463165624805e+00	 4.975174137236636e-02	 1.567784396504632e+01
 1.483990028873754e+00	 6.228747741722281e-02	 1.567661863720797e+01
 1.483408945730283e+00	 7.486006752197447e-02	 1.567529740190444e+01
 1.482718920677030e+00	 8.746833631196034e-02	 1.567384385424388e+01
 1.481918972304183e+00	 1.001110843975746e-01	 1.567223950985545e+01
 1.481008133942816e+00	 1.127870884841971e-01	 1.567048459490286e+01
 1.479985454301237e+00	 1.254951014991298e-01	 1.566859878232870e+01
 1.494119647066666e+00	 0.000000000000000e+00	 1.558182022640030e+01
 1.494067774201724e+00	 1.245057201155776e-02	 1.558017984620331e+01
 1.493911448743844e+00	 2.494270322697205e-02	 1.557883749286963e+01
 1.493649618790708e+00	 3.747530869382706e-02	 1.557768796816040e+01
 1.493281244122523e+00	 5.004727902498787e-02	 1.557664115744232e+01
 1.492805296822407e+00	 6.265748044371092e-02	 1.557562301836178e+01
 1.492220761901599e+00	 7.530475484465779e-02	 1.557457653042058e+01
 1.491526637929102e+00	 8.798791987112899e-02	 1.557346260187635e+01
 1.490721937665264e+00	 1.007057690088250e-01	 1.557226093014786e+01
 1.489805688698884e+00	 1.134570716964300e-01	 1.557097081180285e+01
 1.488776934087341e+00	 1.262405734533023e-01	 1.556961189809807e+01
 1.502942676475000e+00	 0.000000000000000e+00	 1.548317731557466e+01
 1.502890497292054e+00	 1.252409474620898e-02	 1.548141226458313e+01
 1.502733248706007e+00	 2.508999411055729e-02	 1.548003497991737e+01
 1.502469872602863e+00	 3.769660673378596e-02	 1.547893348410761e+01
 1.502099322620138e+00	 5.034281667762547e-02	 1.547801165002476e+01
 1.501620564770908e+00	 6.302748347017276e-02	 1.547719021222223e+01
 1.501032578072720e+00	 7.574944216726513e-02	 1.547640773864521e+01
 1.500334355180934e+00	 8.850750343017012e-02	 1.547562155911782e+01
 1.499524903026068e+00	 1.013004536199004e-01	 1.547480864677494e+01
 1.498603243454649e+00	 1.141270549084504e-01	 1.547396644849886e+01
 1.497568413873128e+00	 1.269860454072408e-01	 1.547311366031098e+01
 1.511765705883333e+00	 0.000000000000000e+00	 1.538703584313417e+01
 1.511713220382374e+00	 1.259761748095257e-02	 1.538512971670778e+01
 1.511555048668135e+00	 2.523728499427981e-02	 1.538370386550253e+01
 1.511290126414943e+00	 3.791790477388735e-02	 1.538263872073634e+01
 1.510917401117631e+00	 5.063835433037900e-02	 1.538183131496091e+01
 1.510435832719239e+00	 6.339748649670010e-02	 1.538119631623643e+01
 1.509844394243618e+00	 7.619412948987175e-02	 1.538066702220381e+01
 1.509142072432498e+00	 8.902708698913683e-02	 1.538019631045603e+01
 1.508327868386564e+00	 1.018951382308284e-01	 1.537975754136702e+01
 1.507400798210079e+00	 1.147970381202597e-01	 1.537934540942563e+01
 1.506359893658572e+00	 1.277315173609220e-01	 1.537897673900725e+01
 1.520588735291667e+00	 0.000000000000000e+00	 1.529326842664377e+01
 1.520535943472684e+00	 1.267114021583806e-02	 1.529120638617631e+01
 1.520376848630222e+00	 2.538457587822075e-02	 1.528971951437664e+01
 1.520110380226940e+00	 3.813920281422837e-02	 1.528867985719659e+01
 1.519735479614989e+00	 5.093389198334832e-02	 1.528797679708305e+01
 1.519251100667376e+00	 6.376748952338472e-02	 1.528751811011731e+01
 1.518656210414268e+00	 7.663881681255306e-02	 1.528723098264675e+01
 1.517949789683762e+00	 8.954667054808223e-02	 1.528706298380720e+01
 1.517130833746720e+00	 1.024898228416366e-01	 1.528698299008974e+01
 1.516198352965144e+00	 1.154670213318588e-01	 1.528698205799121e+01
 1.515151373443646e+00	 1.284769893143225e-01	 1.528707424066943e+01
 1.529411764700000e+00	 0.000000000000000e+00	 1.520174892495969e+01
 1.529358666562982e+00	 1.274466295091500e-02	 1.519951755138362e+01
 1.529198648592264e+00	 2.553186676246121e-02	 1.519795825417917e+01
 1.528930634038844e+00	 3.836050085490612e-02	 1.519693391811000e+01
 1.528553558112195e+00	 5.122942963663325e-02	 1.519632548364871e+01
 1.528066368615300e+00	 6.413749255031843e-02	 1.519603302717834e+01
 1.527468026584641e+00	 7.708350413538451e-02	 1.519597680034709e+01
 1.526757506934695e+00	 9.006625410705946e-02	 1.519609822497626e+01
 1.525933799106504e+00	 1.030845074523524e-01	 1.519636083967534e+01
 1.524995907719813e+00	 1.161370045432491e-01	 1.519675119420020e+01
 1.523942853228325e+00	 1.292224612674189e-01	 1.519727968746770e+01
 1.436028055366862e+00	 1.217677417255753e-01	 1.620535283787743e+01
 1.434926126922566e+00	 1.341302352465405e-01	 1.619982083569576e+01
 1.433713842298945e+00	 1.465212781177613e-01	 1.619329488452120e+01
 1.432390326314207e+00	 1.589395609635554e-01	 1.618579888140715e+01
 1.430954721259390e+00	 1.713837512086713e-01	 1.617737197035911e+01
 1.429406187533840e+00	 1.838524932871505e-01	 1.616806886456917e+01
 1.427743904280846e+00	 1.963444088697827e-01	 1.615796009599389e+01
 1.425967070022837e+00	 2.088580971103483e-01	 1.614713218796523e+01
 1.424074903295569e+00	 2.213921349108228e-01	 1.613568774646547e+01
 1.422066643280715e+00	 2.339450772057049e-01	 1.612374546564713e+01
 1.419941550436235e+00	 2.465154572656048e-01	 1.611144004313777e+01
 1.444819535154164e+00	 1.225132136805673e-01	 1.609199590932831e+01
 1.443710860615085e+00	 1.349513913857765e-01	 1.608714549033609e+01
 1.442491154287129e+00	 1.474182932226157e-01	 1.608135183094034e+01
 1.441159535630586e+00	 1.599126017993089e-01	 1.607463197491080e+01
 1.439715141685538e+00	 1.724329763824814e-01	 1.606701886992400e+01
 1.438157127711246e+00	 1.849780531073007e-01	 1.605856171028852e+01
 1.436484667825659e+00	 1.975464452063243e-01	 1.604932620632662e+01
 1.434696955644506e+00	 2.101367432572489e-01	 1.603939477602929e+01
 1.432793204919374e+00	 2.227475154497403e-01	 1.602886665453574e+01
 1.430772650174155e+00	 2.353773078714999e-01	 1.601785791693067e+01
 1.428634547339286e+00	 2.480246448137129e-01	 1.600650140980354e+01
 1.453611014941278e+00	 1.232586856354421e-01	 1.598177162515472e+01
 1.452495594307371e+00	 1.357725475249968e-01	 1.597758270361278e+01
 1.451268466275036e+00	 1.483153083275529e-01	 1.597249472568568e+01
 1.449928744946638e+00	 1.608856426352379e-01	 1.596651873983592e+01
 1.448475562111318e+00	 1.734822015565514e-01	 1.595968241172652e+01
 1.446908067888245e+00	 1.861036129277840e-01	 1.595203038765879e+01
 1.445225431370034e+00	 1.987484815432583e-01	 1.594362458396390e+01
 1.443426841265723e+00	 2.114153894045852e-01	 1.593454439789048e+01
 1.441511506542723e+00	 2.241028959891168e-01	 1.592488683546068e+01
 1.439478657067153e+00	 2.368095385377551e-01	 1.591476655169818e+01
 1.437327544241933e+00	 2.495338323622575e-01	 1.590431579857704e+01
 1.462402494728179e+00	 1.240041575901763e-01	 1.587455012400447e+01
 1.461280327999410e+00	 1.365937036641575e-01	 1.587100167140237e+01
 1.460045778262658e+00	 1.492123234325125e-01	 1.586659243288319e+01
 1.458697954262377e+00	 1.618586834712698e-01	 1.586132830660188e+01
 1.457235982536756e+00	 1.745314267308000e-01	 1.585523257651232e+01
 1.455659008064882e+00	 1.872291727485144e-01	 1.584834629673418e+01
 1.453966194914036e+00	 1.999505178804970e-01	 1.584072860115608e+01
 1.452156726886562e+00	 2.126940355522700e-01	 1.583245693374590e+01
 1.450229808165704e+00	 2.254582765288694e-01	 1.582362719495777e+01
 1.448184663959808e+00	 2.382417692043941e-01	 1.581435379955246e+01
 1.446020541144276e+00	 2.510430199111707e-01	 1.580476964108189e+01
 1.471193974514841e+00	 1.247496295447467e-01	 1.577020210119730e+01
 1.470065061691183e+00	 1.374148598032147e-01	 1.576727211719695e+01
 1.468823090249994e+00	 1.501093385374342e-01	 1.576351430595936e+01
 1.467467163577812e+00	 1.628317243073319e-01	 1.575893024765652e+01
 1.465996402961881e+00	 1.755806519051462e-01	 1.575353973111905e+01
 1.464409948241202e+00	 1.883547325694054e-01	 1.574738115934120e+01
 1.462706958457724e+00	 2.011525542179523e-01	 1.574051187949491e+01
 1.460886612507100e+00	 2.139726817002169e-01	 1.573300843285125e+01
 1.458948109788406e+00	 2.268136570689153e-01	 1.572496671991820e+01
 1.456890670852216e+00	 2.396739998713407e-01	 1.571650207602153e+01
 1.454713538046414e+00	 2.525522074603852e-01	 1.570774925248132e+01
 1.479985454301237e+00	 1.254951014991298e-01	 1.566859878232870e+01
 1.478849795382674e+00	 1.382360159421242e-01	 1.566626426768214e+01
 1.477600402237040e+00	 1.510063536422580e-01	 1.566313016585655e+01
 1.476236372892955e+00	 1.638047651433517e-01	 1.565919455898263e+01
 1.474756823386720e+00	 1.766298770795088e-01	 1.565447461391614e+01
 1.473160888417249e+00	 1.894802923903707e-01	 1.564900700908298e+01
 1.471447722001160e+00	 2.023545905555362e-01	 1.564284828509965e+01
 1.469616498127414e+00	 2.152513278483388e-01	 1.563607511449474e+01
 1.467666411410917e+00	 2.281690376091719e-01	 1.562878448575969e+01
 1.465596677744474e+00	 2.411062305385187e-01	 1.562109379686593e+01
 1.463406534948448e+00	 2.540613950098333e-01	 1.561314085330139e+01
 1.488776934087341e+00	 1.262405734533023e-01	 1.556961189809807e+01
 1.487634529073866e+00	 1.390571720808424e-01	 1.556784882953043e+01
 1.486377714223790e+00	 1.519033687469234e-01	 1.556531028043805e+01
 1.485005582207817e+00	 1.647778059792566e-01	 1.556199164275080e+01
 1.483517243811300e+00	 1.776791022538064e-01	 1.555790832133103e+01
 1.481911828593068e+00	 1.906058522113243e-01	 1.555309618235290e+01
 1.480188485544405e+00	 2.035566268931603e-01	 1.554761192472090e+01
 1.478346383747578e+00	 2.165299739965488e-01	 1.554153336977970e+01
 1.476384713033325e+00	 2.295244181495560e-01	 1.553495966446366e+01
 1.474302684636675e+00	 2.425384612058515e-01	 1.552801139293268e+01
 1.472099531850478e+00	 2.555705825594476e-01	 1.552083059164805e+01
 1.497568413873128e+00	 1.269860454072408e-01	 1.547311366031098e+01
 1.496419262764743e+00	 1.398783282193253e-01	 1.547189696736075e+01
 1.495155026210242e+00	 1.528003838513703e-01	 1.546992534503415e+01
 1.493774791522410e+00	 1.657508468149740e-01	 1.546719229107207e+01
 1.492277664235650e+00	 1.787283274279578e-01	 1.546371229541759e+01
 1.490662768768704e+00	 1.917314120321797e-01	 1.545952131031725e+01
 1.488929249087520e+00	 2.047586632307369e-01	 1.545467714272394e+01
 1.487076269367669e+00	 2.178086201447603e-01	 1.544925976418308e+01
 1.485103014655718e+00	 2.308797986899850e-01	 1.544337153326980e+01
 1.483008691528920e+00	 2.439706918732630e-01	 1.543713732553299e+01
 1.480792528752603e+00	 2.570797701091606e-01	 1.543070456580016e+01
 1.506359893658572e+00	 1.277315173609220e-01	 1.537897673900725e+01
 1.505203996455288e+00	 1.406994843575289e-01	 1.537828028281620e+01
 1.503932338196390e+00	 1.536973989555383e-01	 1.537684646408266e+01
 1.502544000836743e+00	 1.667238876504313e-01	 1.537466767080450e+01
 1.501038084659796e+00	 1.797775526018820e-01	 1.537175831242335e+01
 1.499413708944202e+00	 1.928569718528507e-01	 1.536815531182624e+01
 1.497670012630567e+00	 2.059606995681778e-01	 1.536391851891518e+01
 1.495806154987764e+00	 2.190872662928862e-01	 1.535913104085718e+01
 1.493821316278185e+00	 2.322351792303760e-01	 1.535389948400022e+01
 1.491714698421303e+00	 2.454029225406767e-01	 1.534835410232193e+01
 1.489485525654923e+00	 2.585889576589046e-01	 1.534264884716483e+01
 1.515151373443646e+00	 1.284769893143225e-01	 1.528707424066943e+01
 1.513988730145483e+00	 1.415206404954093e-01	 1.528687079471439e+01
 1.512709650182231e+00	 1.545944140593672e-01	 1.528594513381908e+01
 1.511313210150828e+00	 1.676969284855557e-01	 1.528428930937232e+01
 1.509798505083769e+00	 1.808267777754979e-01	 1.528191847231598e+01
 1.508164649119607e+00	 1.939825316732512e-01	 1.527887138721621e+01
 1.506410776173607e+00	 2.071627359053949e-01	 1.527521086717826e+01
 1.504536040607938e+00	 2.203659124408398e-01	 1.527102412464541e+01
 1.502539617900812e+00	 2.335905597706460e-01	 1.526642303298799e+01
 1.500420705313920e+00	 2.468351532080164e-01	 1.526154429366066e+01
 1.498178522557537e+00	 2.600981452086121e-01	 1.525654950357898e+01
 1.523942853228325e+00	 1.292224612674189e-01	 1.519727968746770e+01
 1.522773463835312e+00	 1.423417966329227e-01	 1.519754092022759e+01
 1.521486962167761e+00	 1.554914291627968e-01	 1.519709322597425e+01
 1.520082419464678e+00	 1.686699693202748e-01	 1.519592908155531e+01
 1.518558925507593e+00	 1.818760029487239e-01	 1.519406518922902e+01
 1.516915589294964e+00	 1.951080914932945e-01	 1.519154301296713e+01
 1.515151539716700e+00	 2.083647722423001e-01	 1.518842923488674e+01
 1.513265926228268e+00	 2.216445585885343e-01	 1.518481612678234e+01
 1.511257919523691e+00	 2.349459403107124e-01	 1.518082183158572e+01
 1.509126712206869e+00	 2.482673838752059e-01	 1.517659054944077e+01
 1.506871519460547e+00	 2.616073327582156e-01	 1.517229262294430e+01
 1.419941550436235e+00	 2.465154572656048e-01	 1.611144004313776e+01
 1.417699298181683e+00	 2.590996468671456e-01	 1.609814938070949e+01
 1.415338839584173e+00	 2.716982758140153e-01	 1.608328893892529e+01
 1.412859501925539e+00	 2.843098186175775e-01	 1.606708149878723e+01
 1.410260636216053e+00	 2.969327296151559e-01	 1.604976742555015e+01
 1.407541617803216e+00	 3.095654433703699e-01	 1.603160405532287e+01
 1.404701846974463e+00	 3.222063750930234e-01	 1.601286496071330e+01
 1.401740749553137e+00	 3.348539210785311e-01	 1.599383909106406e+01
 1.398657777487031e+00	 3.475064591668399e-01	 1.597482978291034e+01
 1.395452409428825e+00	 3.601623492207781e-01	 1.595615363640174e+01
 1.392124151307731e+00	 3.728199336237416e-01	 1.593813925356198e+01
 1.428634547339286e+00	 2.480246448137129e-01	 1.600650140980354e+01
 1.426378567834983e+00	 2.606858758407348e-01	 1.599419552757007e+01
 1.424003658318955e+00	 2.733616346119617e-01	 1.598038555532257e+01
 1.421509141954604e+00	 2.860503862995889e-01	 1.596530733526610e+01
 1.418894365779036e+00	 2.987505757782654e-01	 1.594921538278802e+01
 1.416158701315582e+00	 3.114606280278791e-01	 1.593238227102974e+01
 1.413301545180189e+00	 3.241789485560169e-01	 1.591509789213126e+01
 1.410322319681045e+00	 3.369039238400809e-01	 1.589766859054481e+01
 1.407220473410729e+00	 3.496339217890198e-01	 1.588041616389246e+01
 1.403995481830190e+00	 3.623672922246060e-01	 1.586367672694594e+01
 1.400646847843902e+00	 3.751023673821690e-01	 1.584779943443318e+01
 1.437327544241933e+00	 2.495338323622575e-01	 1.590431579857703e+01
 1.435057837487939e+00	 2.622721048147099e-01	 1.589295542996777e+01
 1.432668477053472e+00	 2.750249934102204e-01	 1.588016044453319e+01
 1.430158781983499e+00	 2.877909539818219e-01	 1.586617792030422e+01
 1.427528095341957e+00	 3.005684219414936e-01	 1.585127465971338e+01
 1.424775784828000e+00	 3.133558126853973e-01	 1.583573657440957e+01
 1.421901243386087e+00	 3.261515220189086e-01	 1.581986794451297e+01
 1.418903889809247e+00	 3.389539266014224e-01	 1.580399054755328e+01
 1.415783169334836e+00	 3.517613844108948e-01	 1.578844265240599e+01
 1.412538554232072e+00	 3.645722352280479e-01	 1.577357787363551e+01
 1.409169544380683e+00	 3.773848011401508e-01	 1.575976388177577e+01
 1.446020541144276e+00	 2.510430199111707e-01	 1.580476964108189e+01
 1.443737107140646e+00	 2.638583337890138e-01	 1.579431935779753e+01
 1.441333295787813e+00	 2.766883522087470e-01	 1.578250694527474e+01
 1.438808422012302e+00	 2.895315216642453e-01	 1.576958892335987e+01
 1.436161824904879e+00	 3.023862681048232e-01	 1.575584255012984e+01
 1.433392868340518e+00	 3.152509973429212e-01	 1.574156520923157e+01
 1.430500941592184e+00	 3.281240954817086e-01	 1.572707366957123e+01
 1.427485459937747e+00	 3.410039293625784e-01	 1.571270321243860e+01
 1.424345865259336e+00	 3.538888470324986e-01	 1.569880662121759e+01
 1.421081626634435e+00	 3.667771782311470e-01	 1.568575302891771e+01
 1.417692240918024e+00	 3.796672348977363e-01	 1.567392661887733e+01
 1.454713538046414e+00	 2.525522074603852e-01	 1.570774925248132e+01
 1.452416376793205e+00	 2.654445627635899e-01	 1.569817737002295e+01
 1.449998114522070e+00	 2.783517110074970e-01	 1.568731811292717e+01
 1.447458062041092e+00	 2.912720893468280e-01	 1.567543567910292e+01
 1.444795554467864e+00	 3.042041142682368e-01	 1.566281598140647e+01
 1.442009951853179e+00	 3.171461820004475e-01	 1.564976603979917e+01
 1.439100639798507e+00	 3.300966689444270e-01	 1.563661324390752e+01
 1.436067030066553e+00	 3.430539321235716e-01	 1.562370448091173e+01
 1.432908561184218e+00	 3.560163096538652e-01	 1.561140512374389e+01
 1.429624699037249e+00	 3.689821212339457e-01	 1.560009787465385e+01
 1.426214937455878e+00	 3.819496686549755e-01	 1.559018145930673e+01
 1.463406534948448e+00	 2.540613950098333e-01	 1.561314085330139e+01
 1.461095646445711e+00	 2.670307917383813e-01	 1.560441934411873e+01
 1.458662933256330e+00	 2.800150698064257e-01	 1.559448675626773e+01
 1.456107702069947e+00	 2.930126570295386e-01	 1.558361323113577e+01
 1.453429284030977e+00	 3.060219604317169e-01	 1.557209156490038e+01
 1.450627035366032e+00	 3.190413666579726e-01	 1.556023660781057e+01
 1.447700338005082e+00	 3.320692424070740e-01	 1.554838453206883e+01
 1.444648600195670e+00	 3.451039348844240e-01	 1.553689196307855e+01
 1.441471257109468e+00	 3.581437722750282e-01	 1.552613496886293e+01
 1.438167771440481e+00	 3.711870642364872e-01	 1.551650790253315e+01
 1.434737633994194e+00	 3.842321024119174e-01	 1.550842209277588e+01
 1.472099531850478e+00	 2.555705825594476e-01	 1.552083059164806e+01
 1.469774916098262e+00	 2.686170207133314e-01	 1.551293500575503e+01
 1.467327751990686e+00	 2.816784286054890e-01	 1.550390547431260e+01
 1.464757342098945e+00	 2.947532247123460e-01	 1.549401637570216e+01
 1.462063013594281e+00	 3.078398065952465e-01	 1.548356564626288e+01
 1.459244118879119e+00	 3.209365513154929e-01	 1.547287418901302e+01
 1.456300036211935e+00	 3.340418158696594e-01	 1.546228514932137e+01
 1.453230170325106e+00	 3.471539376451588e-01	 1.545216305212493e+01
 1.450033953035072e+00	 3.602712348960211e-01	 1.544289279532355e+01
 1.446710843844101e+00	 3.733920072388143e-01	 1.543487849404024e+01
 1.443260330532925e+00	 3.865145361686117e-01	 1.542854217052090e+01
 1.480792528752603e+00	 2.570797701091606e-01	 1.543070456580017e+01
 1.478454185750956e+00	 2.702032496883832e-01	 1.542361395871349e+01
 1.475992570725226e+00	 2.833417874046418e-01	 1.541546669326066e+01
 1.473406982128165e+00	 2.964937923952187e-01	 1.540653970538422e+01
 1.470696743157837e+00	 3.096576527588080e-01	 1.539713435563385e+01
 1.467861202392488e+00	 3.228317359730054e-01	 1.538757584965908e+01
 1.464899734419093e+00	 3.360143893321935e-01	 1.537821252415210e+01
 1.461811740454865e+00	 3.492039404057983e-01	 1.536941499266778e+01
 1.458596648961017e+00	 3.623986975168775e-01	 1.536157514576913e+01
 1.455253916248075e+00	 3.755969502409699e-01	 1.535510499999548e+01
 1.451783027072022e+00	 3.887969699251082e-01	 1.535043539022246e+01
 1.489485525654923e+00	 2.585889576589046e-01	 1.534264884716483e+01
 1.487133455403890e+00	 2.717894786634799e-01	 1.533634571502494e+01
 1.484657389460042e+00	 2.850051462038400e-01	 1.532906270353559e+01
 1.482056622157686e+00	 2.982343600781260e-01	 1.532107765278805e+01
 1.479330472721711e+00	 3.114754989223839e-01	 1.531269365772963e+01
 1.476478285906183e+00	 3.247269206305063e-01	 1.530423850277298e+01
 1.473499432626582e+00	 3.379869627946863e-01	 1.529606396051013e+01
 1.470393310584955e+00	 3.512539431663654e-01	 1.528854494878553e+01
 1.467159344887289e+00	 3.645261601376317e-01	 1.528207854039177e+01
 1.463796988652372e+00	 3.778018932429967e-01	 1.527708281968516e+01
 1.460305723611435e+00	 3.910794036814559e-01	 1.527399558048450e+01
 1.498178522557537e+00	 2.600981452086121e-01	 1.525654950357898e+01
 1.495812725057163e+00	 2.733757076385648e-01	 1.525101972532060e+01
 1.493322208195223e+00	 2.866685050030388e-01	 1.524458569692201e+01
 1.490706262187585e+00	 2.999749277610363e-01	 1.523752453421842e+01
 1.487964202285964e+00	 3.132933450859572e-01	 1.523013940182752e+01
 1.485095369420251e+00	 3.266221052879923e-01	 1.522275896423499e+01
 1.482099130834428e+00	 3.399595362571476e-01	 1.521573669979755e+01
 1.478974880715383e+00	 3.533039459268825e-01	 1.520945007174162e+01
 1.475722040813876e+00	 3.666536227583171e-01	 1.520429955023084e+01
 1.472340061056959e+00	 3.800068362449376e-01	 1.520070747959823e+01
 1.468828420151117e+00	 3.933618374377046e-01	 1.519911678488887e+01
 1.506871519460547e+00	 2.616073327582156e-01	 1.517229262294430e+01
 1.504491994710871e+00	 2.749619366135812e-01	 1.516752540938748e+01
 1.501987026930858e+00	 2.883318638021939e-01	 1.516192780379190e+01
 1.499355902217941e+00	 3.017154954439185e-01	 1.515577459334340e+01
 1.496597931850662e+00	 3.151111912495104e-01	 1.514936737165244e+01
 1.493712452934736e+00	 3.285172899454601e-01	 1.514303400869090e+01
 1.490698829042657e+00	 3.419321097195878e-01	 1.513712798262071e+01
 1.487556450846153e+00	 3.553539486873724e-01	 1.513202756741243e+01
 1.484284736740762e+00	 3.687810853789671e-01	 1.512813487013218e+01
 1.480883133461804e+00	 3.822117792468355e-01	 1.512587471178559e+01
 1.477351116691019e+00	 3.956442711939038e-01	 1.512569334564326e+01
 1.392124151307731e+00	 3.728199336237416e-01	 1.593813925356198e+01
 1.388672537194630e+00	 3.854775379733900e-01	 1.591887507924625e+01
 1.385097130765164e+00	 3.981334721641446e-01	 1.589629564756265e+01
 1.381397524934934e+00	 4.107860304399616e-01	 1.587049618099129e+01
 1.377573342084982e+00	 4.234334917951880e-01	 1.584155610011946e+01
 1.373624234577360e+00	 4.360741205666020e-01	 1.580953697637505e+01
 1.369549885257692e+00	 4.487061670436154e-01	 1.577448035517843e+01
 1.365350007944089e+00	 4.613278680963596e-01	 1.573640544779209e+01
 1.361024347901708e+00	 4.739374478213423e-01	 1.569530669049459e+01
 1.356572682302292e+00	 4.865331182043387e-01	 1.565115117008895e+01
 1.351994820668021e+00	 4.991130798001510e-01	 1.560387591517748e+01
 1.400646847843902e+00	 3.751023673821690e-01	 1.584779943443318e+01
 1.397174102670292e+00	 3.878374626085382e-01	 1.583070343774610e+01
 1.393576807313785e+00	 4.005708774511668e-01	 1.581013899852062e+01
 1.389854552197771e+00	 4.133008957112291e-01	 1.578620117569180e+01
 1.386006957391479e+00	 4.260257858469312e-01	 1.575897054632023e+01
 1.382033673128686e+00	 4.387438015691746e-01	 1.572851116440225e+01
 1.377934380313367e+00	 4.514531824554967e-01	 1.569486838626151e+01
 1.373708791011600e+00	 4.641521545819985e-01	 1.565806656055400e+01
 1.369356648929030e+00	 4.768389311729584e-01	 1.561810658126489e+01
 1.364877729873223e+00	 4.895117132677778e-01	 1.557496330246057e+01
 1.360271842200234e+00	 5.021686904049041e-01	 1.552858281398160e+01
 1.409169544380683e+00	 3.773848011401508e-01	 1.575976388177578e+01
 1.405675668146641e+00	 3.901973872432065e-01	 1.574475449950769e+01
 1.402056483863154e+00	 4.030082827376973e-01	 1.572612374066792e+01
 1.398311579461407e+00	 4.158157609820120e-01	 1.570397057741856e+01
 1.394440572698812e+00	 4.286180798982108e-01	 1.567838086863971e+01
 1.390443111680873e+00	 4.414134825713149e-01	 1.564942532121700e+01
 1.386318875369919e+00	 4.542001978669813e-01	 1.561715731394385e+01
 1.382067574079997e+00	 4.669764410672792e-01	 1.558161058181950e+01
 1.377688949957241e+00	 4.797404145242503e-01	 1.554279675886955e+01
 1.373182777445042e+00	 4.924903083309190e-01	 1.550070277800199e+01
 1.368548863733329e+00	 5.052243010093732e-01	 1.545528812683539e+01
 1.417692240918024e+00	 3.796672348977363e-01	 1.567392661887733e+01
 1.414177233623615e+00	 3.925573118774478e-01	 1.566091995392135e+01
 1.410536160413200e+00	 4.054456880237910e-01	 1.564413885652948e+01
 1.406768606725760e+00	 4.183306262523644e-01	 1.562369021426929e+01
 1.402874188006888e+00	 4.312103739490789e-01	 1.559966921825066e+01
 1.398852550233826e+00	 4.440831635730726e-01	 1.557215732339284e+01
 1.394703370427249e+00	 4.569472132781184e-01	 1.554122006721279e+01
 1.390426357149177e+00	 4.698007275522471e-01	 1.550690474466111e+01
 1.386021250986234e+00	 4.826418978752632e-01	 1.546923793687822e+01
 1.381487825017637e+00	 4.954689033938084e-01	 1.542822289212740e+01
 1.376825885267192e+00	 5.082799116136080e-01	 1.538383675758993e+01
 1.426214937455878e+00	 3.819496686549755e-01	 1.559018145930673e+01
 1.422678799101151e+00	 3.949172365113159e-01	 1.557909135055553e+01
 1.419015836963849e+00	 4.078830933095025e-01	 1.556407326637048e+01
 1.415225633990747e+00	 4.208454915223405e-01	 1.554524593846982e+01
 1.411307803315623e+00	 4.338026679995892e-01	 1.552271786682152e+01
 1.407261988787449e+00	 4.467528445744983e-01	 1.549658527549319e+01
 1.403087865485256e+00	 4.596942286889545e-01	 1.546692992280658e+01
 1.398785140219034e+00	 4.726250140369487e-01	 1.543381676306546e+01
 1.394353552015900e+00	 4.855433812260422e-01	 1.539729145746860e+01
 1.389792872590895e+00	 4.984474984564927e-01	 1.535737773220742e+01
 1.385102906801707e+00	 5.113355222176582e-01	 1.531407458217467e+01
 1.434737633994194e+00	 3.842321024119174e-01	 1.550842209277588e+01
 1.431180364579188e+00	 3.972771611448641e-01	 1.549916019038439e+01
 1.427495513515028e+00	 4.103204985948865e-01	 1.548581592472752e+01
 1.423682661256284e+00	 4.233603567919950e-01	 1.546852372809171e+01
 1.419741418624923e+00	 4.363949620497934e-01	 1.544740931324669e+01
 1.415671427341645e+00	 4.494225255756421e-01	 1.542258762158400e+01
 1.411472360543840e+00	 4.624412440995386e-01	 1.539416062122344e+01
 1.407143923289466e+00	 4.754493005214298e-01	 1.536221495209390e+01
 1.402685853046132e+00	 4.884448645766331e-01	 1.532681941533738e+01
 1.398097920164706e+00	 5.014260935190179e-01	 1.528802230477092e+01
 1.393379928336755e+00	 5.143911328215736e-01	 1.524584857857254e+01
 1.443260330532925e+00	 3.865145361686117e-01	 1.542854217052090e+01
 1.439681930057662e+00	 3.996370857781455e-01	 1.542101801650612e+01
 1.435975190066661e+00	 4.127579038799979e-01	 1.540925591640817e+01
 1.432139688522289e+00	 4.258752220613821e-01	 1.539340978822205e+01
 1.428175033934699e+00	 4.389872560997450e-01	 1.537362638982204e+01
 1.424080865896321e+00	 4.520922065765548e-01	 1.535004325619595e+01
 1.419856855602901e+00	 4.651882595099180e-01	 1.532278648219489e+01
 1.415502706360367e+00	 4.782735870057365e-01	 1.529196834753773e+01
 1.411018154076820e+00	 4.913463479270807e-01	 1.525768478115082e+01
 1.406402967738958e+00	 5.044046885814304e-01	 1.522001266230932e+01
 1.401656949872222e+00	 5.174467434254036e-01	 1.517900695647964e+01
 1.451783027072022e+00	 3.887969699251082e-01	 1.535043539022246e+01
 1.448183495536510e+00	 4.019970104112138e-01	 1.534455650437420e+01
 1.444454866618676e+00	 4.151953091648915e-01	 1.533428255198083e+01
 1.440596715788680e+00	 4.283900873305558e-01	 1.531979065160870e+01
 1.436608649244861e+00	 4.415795501494959e-01	 1.530125236788896e+01
 1.432490304451380e+00	 4.547618875772862e-01	 1.527883163475761e+01
 1.428241350662339e+00	 4.679352749201410e-01	 1.525268251964593e+01
 1.423861489431633e+00	 4.810978734899148e-01	 1.522294682508815e+01
 1.419350455107859e+00	 4.942478312774303e-01	 1.518975152455405e+01
 1.414708015313537e+00	 5.073832836437764e-01	 1.515320602969962e+01
 1.409933971407990e+00	 5.205023540291984e-01	 1.511339928666280e+01
 1.460305723611435e+00	 3.910794036814559e-01	 1.527399558048450e+01
 1.456685061015671e+00	 4.043569350441220e-01	 1.526966755156014e+01
 1.452934543170999e+00	 4.176327144496221e-01	 1.526078546277548e+01
 1.449053743055374e+00	 4.309049525995711e-01	 1.524755327880168e+01
 1.445042264555320e+00	 4.441718441990992e-01	 1.523017106296831e+01
 1.440899743006728e+00	 4.574315685778870e-01	 1.520883288352238e+01
 1.436625845722053e+00	 4.706822903302550e-01	 1.518372455616282e+01
 1.432220272503162e+00	 4.839221599740107e-01	 1.515502121904112e+01
 1.427682756139140e+00	 4.971493146277277e-01	 1.512288473675676e+01
 1.423013062888334e+00	 5.103618787061026e-01	 1.508746093026216e+01
 1.418210992943944e+00	 5.235579646330074e-01	 1.504887663002650e+01
 1.468828420151117e+00	 3.933618374377046e-01	 1.519911678488887e+01
 1.465186626495083e+00	 4.067168596769236e-01	 1.519624336706777e+01
 1.461414219723556e+00	 4.200701197342445e-01	 1.518865469541548e+01
 1.457510770322288e+00	 4.334198178684820e-01	 1.517658515781153e+01
 1.453475879865985e+00	 4.467641382486076e-01	 1.516026693940489e+01
 1.449309181562268e+00	 4.601012495784074e-01	 1.513992790900847e+01
 1.445010340781943e+00	 4.734293057403083e-01	 1.511578933698808e+01
 1.440579055574847e+00	 4.867464464580702e-01	 1.508806344055609e+01
 1.436015057170553e+00	 5.000507979780174e-01	 1.505695075271277e+01
 1.431318110463235e+00	 5.133404737684550e-01	 1.502263731146722e+01
 1.426488014479968e+00	 5.266135752368805e-01	 1.498529166640208e+01
 1.477351116691019e+00	 3.956442711939038e-01	 1.512569334564326e+01
 1.473688191974681e+00	 4.090767843096721e-01	 1.512417656021653e+01
 1.469893896276274e+00	 4.225075250188132e-01	 1.511778080589904e+01
 1.465967797589340e+00	 4.359346831373429e-01	 1.510677440330400e+01
 1.461909495176767e+00	 4.493564322980735e-01	 1.509142521454251e+01
 1.457718620117905e+00	 4.627709305788975e-01	 1.507199850697273e+01
 1.453394835841910e+00	 4.761763211503487e-01	 1.504875464356264e+01
 1.448937838646586e+00	 4.895707329421396e-01	 1.502194659548632e+01
 1.444347358201994e+00	 5.029522813283457e-01	 1.499181727290985e+01
 1.439623158038130e+00	 5.163190688308801e-01	 1.495859667030527e+01
 1.434765036015943e+00	 5.296691858408672e-01	 1.492249882306928e+01
 1.351994820668021e+00	 4.991130798001510e-01	 1.560387591517748e+01
 1.347289794632056e+00	 5.116776564812034e-01	 1.555609125151294e+01
 1.342458246410059e+00	 5.242228865066122e-01	 1.551069658211765e+01
 1.337500084121130e+00	 5.367469388226648e-01	 1.546801201519367e+01
 1.332415249865001e+00	 5.492479737946389e-01	 1.542835310489275e+01
 1.327203720078967e+00	 5.617241439652626e-01	 1.539202730156711e+01
 1.321865505875329e+00	 5.741735948273180e-01	 1.535933021926396e+01
 1.316400653358761e+00	 5.865944656098289e-01	 1.533054172331741e+01
 1.310809243923032e+00	 5.989848900772532e-01	 1.529805905887012e+01
 1.305091394526529e+00	 6.113429973410692e-01	 1.524955160990018e+01
 1.299247257946061e+00	 6.236669126831257e-01	 1.518537365397178e+01
 1.360271842200234e+00	 5.021686904049041e-01	 1.552858281398160e+01
 1.355538011614799e+00	 5.148101884395315e-01	 1.548190805462255e+01
 1.350676884264278e+00	 5.274322213766832e-01	 1.543819881514603e+01
 1.345688367705273e+00	 5.400329469527966e-01	 1.539782770987397e+01
 1.340572403683049e+00	 5.526105142707648e-01	 1.536116324209309e+01
 1.335328968490650e+00	 5.651630645630412e-01	 1.532856614269265e+01
 1.329958073308411e+00	 5.776887319689727e-01	 1.530038551973794e+01
 1.324459764523265e+00	 5.901856443258015e-01	 1.527668793110043e+01
 1.318834124027283e+00	 6.026519239727486e-01	 1.524440609731804e+01
 1.313081269494885e+00	 6.150856885675708e-01	 1.519654612247138e+01
 1.307201354638195e+00	 6.274850519149480e-01	 1.513367253956325e+01
 1.368548863733329e+00	 5.052243010093732e-01	 1.545528812683539e+01
 1.363786228598419e+00	 5.179427203975734e-01	 1.540982340371525e+01
 1.358895522119368e+00	 5.306415562464517e-01	 1.536791762556136e+01
 1.353876651290278e+00	 5.433189550825974e-01	 1.532999104433020e+01
 1.348729557501946e+00	 5.559730547465211e-01	 1.529646031090876e+01
 1.343454216903165e+00	 5.686019851604045e-01	 1.526773471017066e+01
 1.338050640742303e+00	 5.812038691101618e-01	 1.524421220060176e+01
 1.332518875688554e+00	 5.937768230412558e-01	 1.522415714743540e+01
 1.326859004132289e+00	 6.063189578676739e-01	 1.519191463701772e+01
 1.321071144463957e+00	 6.188283797934518e-01	 1.514470290255460e+01
 1.315155451330999e+00	 6.313031911461060e-01	 1.508311591416437e+01
 1.376825885267192e+00	 5.082799116136080e-01	 1.538383675758993e+01
 1.372034445582796e+00	 5.210752523553851e-01	 1.533967379099219e+01
 1.367114159975201e+00	 5.338508911159826e-01	 1.529968214498625e+01
 1.362064934876010e+00	 5.466049632121424e-01	 1.526432493866632e+01
 1.356886711321549e+00	 5.593355952219954e-01	 1.523406226726187e+01
 1.351579465316364e+00	 5.720409057574534e-01	 1.520934734162823e+01
 1.346143208176854e+00	 5.847190062510002e-01	 1.519062242588126e+01
 1.340577986854469e+00	 5.973680017563207e-01	 1.517257322814831e+01
 1.334883884237883e+00	 6.099859917621706e-01	 1.514039534950125e+01
 1.329061019433578e+00	 6.225710710188680e-01	 1.509384556640749e+01
 1.323109548024305e+00	 6.351213303767657e-01	 1.503354227056398e+01
 1.385102906801707e+00	 5.113355222176582e-01	 1.531407458217467e+01
 1.380282662567807e+00	 5.242077843130228e-01	 1.527129685417332e+01
 1.375332797831650e+00	 5.370602259853402e-01	 1.523332279106702e+01
 1.370253218462333e+00	 5.498909713415067e-01	 1.520065370359674e+01
 1.365043865141720e+00	 5.626981356972758e-01	 1.517378852337973e+01
 1.359704713730101e+00	 5.754798263542893e-01	 1.515321985483982e+01
 1.354235775611909e+00	 5.882341433916031e-01	 1.513942975961558e+01
 1.348637098020853e+00	 6.009591804711256e-01	 1.512174437096862e+01
 1.342908764343907e+00	 6.136530256563816e-01	 1.508966740544924e+01
 1.337050894403583e+00	 6.263137622439738e-01	 1.504380604132835e+01
 1.331063644717947e+00	 6.389394696070935e-01	 1.498479817425743e+01
 1.393379928336755e+00	 5.143911328215736e-01	 1.524584857857254e+01
 1.388530879553332e+00	 5.273403162705426e-01	 1.520453150940153e+01
 1.383551435688585e+00	 5.402695608545892e-01	 1.516867140421581e+01
 1.378441502049116e+00	 5.531769794707668e-01	 1.513880318199787e+01
 1.373201018962316e+00	 5.660606761724497e-01	 1.511546009519067e+01
 1.367829962144228e+00	 5.789187469510134e-01	 1.509916970206514e+01
 1.362328343047315e+00	 5.917492805320850e-01	 1.508958923681158e+01
 1.356696209187545e+00	 6.045503591857986e-01	 1.507148730410955e+01
 1.350933644450194e+00	 6.173200595504500e-01	 1.503955836839523e+01
 1.345040769373806e+00	 6.300564534689248e-01	 1.499442446310260e+01
 1.339017741411758e+00	 6.427576088372554e-01	 1.493673816619308e+01
 1.401656949872222e+00	 5.174467434254036e-01	 1.517900695647964e+01
 1.396779096539246e+00	 5.304728482279999e-01	 1.513921808390867e+01
 1.391770073545880e+00	 5.434788957237946e-01	 1.510556138415926e+01
 1.386629785636222e+00	 5.564629875999971e-01	 1.507860089027735e+01
 1.381358172783197e+00	 5.694232166476052e-01	 1.505889974951189e+01
 1.375955210558596e+00	 5.823576675477268e-01	 1.504701612411269e+01
 1.370420910482918e+00	 5.952644176725620e-01	 1.504008624585967e+01
 1.364755320354389e+00	 6.081415379004698e-01	 1.502162717717855e+01
 1.358958524556584e+00	 6.209870934445169e-01	 1.498990408769589e+01
 1.353030644344081e+00	 6.337991446938755e-01	 1.494554907246559e+01
 1.346971838105572e+00	 6.465757480674170e-01	 1.488922466423413e+01
 1.409933971407990e+00	 5.205023540291984e-01	 1.511339928666280e+01
 1.405027313525431e+00	 5.336053801854511e-01	 1.507519844845298e+01
 1.399988711403406e+00	 5.466882305930209e-01	 1.504382782630224e+01
 1.394818069223517e+00	 5.597489957292734e-01	 1.501987615956859e+01
 1.389515326604221e+00	 5.727857571228300e-01	 1.500393215103679e+01
 1.384080458973060e+00	 5.857965881445307e-01	 1.499658030414029e+01
 1.378513477918565e+00	 5.987795548131480e-01	 1.499074523631286e+01
 1.372814431521223e+00	 6.117327166152673e-01	 1.497199745157515e+01
 1.366983404662913e+00	 6.246541273387262e-01	 1.494054859079766e+01
 1.361020519314243e+00	 6.375418359189816e-01	 1.489703611062243e+01
 1.354925934799222e+00	 6.503938872977448e-01	 1.484212786338846e+01
 1.418210992943944e+00	 5.235579646330074e-01	 1.504887663002650e+01
 1.413275530511764e+00	 5.367379121429522e-01	 1.501231614953741e+01
 1.408207349261037e+00	 5.498975654623327e-01	 1.498330765791441e+01
 1.403006352810868e+00	 5.630350038586714e-01	 1.496246027675763e+01
 1.397672480425248e+00	 5.761482975982117e-01	 1.495038400913027e+01
 1.392205707387471e+00	 5.892355087415261e-01	 1.494761310478476e+01
 1.386606045354103e+00	 6.022946919539591e-01	 1.494139895058677e+01
 1.380873542687891e+00	 6.153238953303208e-01	 1.492243979039749e+01
 1.375008284769019e+00	 6.283211612332196e-01	 1.489134397482795e+01
 1.369010394284127e+00	 6.412845271443973e-01	 1.484874971386339e+01
 1.362880031492541e+00	 6.542120265284050e-01	 1.479532563485649e+01
 1.426488014479968e+00	 5.266135752368805e-01	 1.498529166640208e+01
 1.421523747498121e+00	 5.398704441005584e-01	 1.495041654141779e+01
 1.416425987118643e+00	 5.531069003317950e-01	 1.492383977414583e+01
 1.411194636398139e+00	 5.663210119882667e-01	 1.490618662534885e+01
 1.405829634246136e+00	 5.795108380738383e-01	 1.489808422444048e+01
 1.400330955801682e+00	 5.926744293388141e-01	 1.489879886501298e+01
 1.394698612789377e+00	 6.058098290951096e-01	 1.489188831311376e+01
 1.388932653854234e+00	 6.189150740457590e-01	 1.487280394787765e+01
 1.383033164874738e+00	 6.319881951281399e-01	 1.484215029753899e+01
 1.377000269253567e+00	 6.450272183702782e-01	 1.480056180731155e+01
 1.370834128185363e+00	 6.580301657595632e-01	 1.474870342394540e+01
 1.434765036015943e+00	 5.296691858408672e-01	 1.492249882306928e+01
 1.429771964484384e+00	 5.430029760583268e-01	 1.488934691790917e+01
 1.424644624976097e+00	 5.563162352014722e-01	 1.486526517387963e+01
 1.419382919985196e+00	 5.696070201181342e-01	 1.485089082617666e+01
 1.413986788066745e+00	 5.828733785497976e-01	 1.484686403533321e+01
 1.408456204215545e+00	 5.961133499364961e-01	 1.484958322859380e+01
 1.402791180224236e+00	 6.093249662367151e-01	 1.484206231917433e+01
 1.396991765020092e+00	 6.225062527617111e-01	 1.482294765836453e+01
 1.391058044979909e+00	 6.356552290236296e-01	 1.479283546763013e+01
 1.384990144222398e+00	 6.487699095967792e-01	 1.475235199783783e+01
 1.378788224877522e+00	 6.618483049913858e-01	 1.470215414689527e+01
 1.299247257946061e+00	 6.236669126831257e-01	 1.518537365397178e+01
 1.293278048388431e+00	 6.359526727492338e-01	 1.511320285649275e+01
 1.287183007398215e+00	 6.482004958785387e-01	 1.504032612280708e+01
 1.280962395459681e+00	 6.604085011917664e-01	 1.496674805323424e+01
 1.274616509643952e+00	 6.725748073546428e-01	 1.489247372636415e+01
 1.268145683747824e+00	 6.846975334493388e-01	 1.481750990277456e+01
 1.261550288408174e+00	 6.967747998534314e-01	 1.474186631746313e+01
 1.254830731191596e+00	 7.088047291255957e-01	 1.466555705823606e+01
 1.247987456658923e+00	 7.207854468972283e-01	 1.458860202661931e+01
 1.241020946404337e+00	 7.327150827691791e-01	 1.451102847716795e+01
 1.233931719068790e+00	 7.445917712127675e-01	 1.443287263034657e+01
 1.307201354638195e+00	 6.274850519149480e-01	 1.513367253956325e+01
 1.301195601097489e+00	 6.398460263967237e-01	 1.506326355393698e+01
 1.295063245774014e+00	 6.521688316887333e-01	 1.499237075122269e+01
 1.288804550746734e+00	 6.644515753968039e-01	 1.492097785303365e+01
 1.282419814905460e+00	 6.766923646689785e-01	 1.484906850852663e+01
 1.275909374090512e+00	 6.888893070722947e-01	 1.477662756385998e+01
 1.269273601207829e+00	 7.010405114771260e-01	 1.470364242513548e+01
 1.262512906319155e+00	 7.131440889482984e-01	 1.463010451204274e+01
 1.255627736706952e+00	 7.251981536421688e-01	 1.455601079872003e+01
 1.248618576913754e+00	 7.372008237088500e-01	 1.448136543762970e+01
 1.241485948755668e+00	 7.491502221987406e-01	 1.440618146151158e+01
 1.315155451330999e+00	 6.313031911461060e-01	 1.508311591416437e+01
 1.309113153807163e+00	 6.437393800435134e-01	 1.501442931536796e+01
 1.302943484150369e+00	 6.561371674981971e-01	 1.494546249406242e+01
 1.296646706034283e+00	 6.684946496010876e-01	 1.487618247557248e+01
 1.290223120167402e+00	 6.808099219825431e-01	 1.480655550967828e+01
 1.283673064433576e+00	 6.930810806944678e-01	 1.473654839900165e+01
 1.276996914007808e+00	 7.053062231000301e-01	 1.466612992590953e+01
 1.270195081446992e+00	 7.174834487702054e-01	 1.459527237514745e+01
 1.263268016755224e+00	 7.296108603863104e-01	 1.452395314868423e+01
 1.256216207423393e+00	 7.416865646477211e-01	 1.445215646850274e+01
 1.249040178442763e+00	 7.537086731839141e-01	 1.437987516230792e+01
 1.323109548024305e+00	 6.351213303767657e-01	 1.503354227056399e+01
 1.317030706517287e+00	 6.476327336897769e-01	 1.496655312770407e+01
 1.310823722527118e+00	 6.601055033071137e-01	 1.489946602291347e+01
 1.304488861322167e+00	 6.725377238048067e-01	 1.483223539001360e+01
 1.298026425429625e+00	 6.849274792955309e-01	 1.476481403293276e+01
 1.291436754776868e+00	 6.972728543160536e-01	 1.469715450625185e+01
 1.284720226807968e+00	 7.095719347223406e-01	 1.462921059956687e+01
 1.277877256574971e+00	 7.218228085915146e-01	 1.456093892289421e+01
 1.270908296803611e+00	 7.340235671298536e-01	 1.449230058958442e+01
 1.263813837933131e+00	 7.461723055859921e-01	 1.442326299243272e+01
 1.256594408129957e+00	 7.582671241684877e-01	 1.435380166788118e+01
 1.331063644717947e+00	 6.389394696070935e-01	 1.498479817425743e+01
 1.324948259227697e+00	 6.515260873356906e-01	 1.491949581766254e+01
 1.318703960904099e+00	 6.640738391156649e-01	 1.485425368004686e+01
 1.312331016610230e+00	 6.765807980081493e-01	 1.478901763304088e+01
 1.305829730691974e+00	 6.890450366081329e-01	 1.472373091381869e+01
 1.299200445120239e+00	 7.014646279372480e-01	 1.465833555107437e+01
 1.292443539608166e+00	 7.138376463442555e-01	 1.459277390038441e+01
 1.285559431702958e+00	 7.261621684124262e-01	 1.452699028621347e+01
 1.278548576851983e+00	 7.384362738729969e-01	 1.446093274703161e+01
 1.271411468442847e+00	 7.506580465238639e-01	 1.439455487920110e+01
 1.264148637817135e+00	 7.628255751526610e-01	 1.432781777446644e+01
 1.339017741411758e+00	 6.427576088372554e-01	 1.493673816619308e+01
 1.332865811938225e+00	 6.554194409814287e-01	 1.487312595972887e+01
 1.326584199281147e+00	 6.680421749240338e-01	 1.480970538981298e+01
 1.320173171898311e+00	 6.806238722113037e-01	 1.474641772183556e+01
 1.313633035954296e+00	 6.931625939205427e-01	 1.468320043294303e+01
 1.306964135463542e+00	 7.056564015582467e-01	 1.461998867675386e+01
 1.300166852408262e+00	 7.181033579659729e-01	 1.455671686330209e+01
 1.293241606830815e+00	 7.305015282331389e-01	 1.449332035151599e+01
 1.286188856900212e+00	 7.428489806159404e-01	 1.442973725071871e+01
 1.279009098952417e+00	 7.551437874615352e-01	 1.436591032679729e+01
 1.271702867504179e+00	 7.673840261366348e-01	 1.430178900782823e+01
 1.346971838105572e+00	 6.465757480674170e-01	 1.488922466423412e+01
 1.340783364648704e+00	 6.593127946271666e-01	 1.482731978254536e+01
 1.334464437658099e+00	 6.720105107324028e-01	 1.476570856822846e+01
 1.328015327186251e+00	 6.846669464144581e-01	 1.470433156508514e+01
 1.321436341216435e+00	 6.972801512329521e-01	 1.464312422659922e+01
 1.314727825806627e+00	 7.098481751792459e-01	 1.458201841273513e+01
 1.307890165208112e+00	 7.223690695876901e-01	 1.452094400808139e+01
 1.300923781958410e+00	 7.348408880538512e-01	 1.445983065871423e+01
 1.293829136948170e+00	 7.472616873588841e-01	 1.439860962430617e+01
 1.286606729461719e+00	 7.596295283992066e-01	 1.433721574112989e+01
 1.279257097190972e+00	 7.719424771206083e-01	 1.427558949071616e+01
 1.354925934799222e+00	 6.503938872977448e-01	 1.484212786338846e+01
 1.348700917358971e+00	 6.632061482730800e-01	 1.478196107378526e+01
 1.342344676034793e+00	 6.759788465409542e-01	 1.472215803082943e+01
 1.335857482473890e+00	 6.887100206178008e-01	 1.466266237210608e+01
 1.329239646478238e+00	 7.013977085455541e-01	 1.460341119540507e+01
 1.322491516149348e+00	 7.140399488004402e-01	 1.454433658097856e+01
 1.315613478007577e+00	 7.266347812096051e-01	 1.448536724153704e+01
 1.308605957085606e+00	 7.391802478747629e-01	 1.442643029744852e+01
 1.301469416995727e+00	 7.516743941020277e-01	 1.436745317371956e+01
 1.294204359970631e+00	 7.641152693370780e-01	 1.430836561443185e+01
 1.286811326877398e+00	 7.765009281047822e-01	 1.424910180937719e+01
 1.362880031492541e+00	 6.542120265284050e-01	 1.479532563485649e+01
 1.356618470068860e+00	 6.670995019193440e-01	 1.473694108357235e+01
 1.350224914411064e+00	 6.799471823498704e-01	 1.467895589886117e+01
 1.343699637761070e+00	 6.927530948215201e-01	 1.462132056015679e+01
 1.337042951739551e+00	 7.055152658585415e-01	 1.456397741105067e+01
 1.330255206491554e+00	 7.182317224220262e-01	 1.450686220041179e+01
 1.323336790806513e+00	 7.309004928319160e-01	 1.444990575792109e+01
 1.316288132212268e+00	 7.435196076960724e-01	 1.439303580159092e+01
 1.309109697042756e+00	 7.560871008455708e-01	 1.433617887392269e+01
 1.301801990479030e+00	 7.686010102753500e-01	 1.427926240241392e+01
 1.294365556563339e+00	 7.810593790893557e-01	 1.422221687916231e+01
 1.370834128185363e+00	 6.580301657595632e-01	 1.474870342394540e+01
 1.364536022778204e+00	 6.709928555661338e-01	 1.469215842650749e+01
 1.358105152786751e+00	 6.839155181593350e-01	 1.463601150387268e+01
 1.351541793047632e+00	 6.967961690258044e-01	 1.458022366001585e+01
 1.344846257000220e+00	 7.096328231721070e-01	 1.452474602123321e+01
 1.338018896833100e+00	 7.224234960441999e-01	 1.446952138955533e+01
 1.331060103604780e+00	 7.351662044548202e-01	 1.441448593753358e+01
 1.323970307338263e+00	 7.478589675179796e-01	 1.435957104209766e+01
 1.316749977089128e+00	 7.604998075897129e-01	 1.430470525422875e+01
 1.309399620986795e+00	 7.730867512142210e-01	 1.424981640021656e+01
 1.301919786248680e+00	 7.856178300745295e-01	 1.419483380926515e+01
 1.378788224877522e+00	 6.618483049913858e-01	 1.470215414689527e+01
 1.372453575486838e+00	 6.748862092136243e-01	 1.464751898235593e+01
 1.365985391161689e+00	 6.878838539695299e-01	 1.459324129077960e+01
 1.359383948333416e+00	 7.008392432308417e-01	 1.453929621989350e+01
 1.352649562260090e+00	 7.137503804864426e-01	 1.448564715285218e+01
 1.345782587173836e+00	 7.266152696671558e-01	 1.443224726739634e+01
 1.338783416402234e+00	 7.394319160785153e-01	 1.437904124363245e+01
 1.331652482463453e+00	 7.521983273406829e-01	 1.432596711827522e+01
 1.324390257134714e+00	 7.649125143346539e-01	 1.427295828220881e+01
 1.316997251493802e+00	 7.775724921538925e-01	 1.421994561720932e+01
 1.309474015933302e+00	 7.901762810605032e-01	 1.416685976662717e+01
 1.233931719068790e+00	 7.445917712127675e-01	 1.443287263034656e+01
 1.226720330625627e+00	 7.564136527099095e-01	 1.435276231574243e+01
 1.219387375231171e+00	 7.681788753817900e-01	 1.426952782346870e+01
 1.211933484255399e+00	 7.798855952156397e-01	 1.418351940178005e+01
 1.204359325889236e+00	 7.915319767413326e-01	 1.409509193577701e+01
 1.196665605024608e+00	 8.031161939398310e-01	 1.400460643551727e+01
 1.188853063107831e+00	 8.146364311505905e-01	 1.391243156823537e+01
 1.180922477966298e+00	 8.260908839770120e-01	 1.381894522576986e+01
 1.172874663608447e+00	 8.374777601890396e-01	 1.372406067588003e+01
 1.164710469997046e+00	 8.487952806219833e-01	 1.362471303414232e+01
 1.156430782795849e+00	 8.600416800706597e-01	 1.352077103302532e+01
 1.241485948755668e+00	 7.491502221987406e-01	 1.440618146151158e+01
 1.234230411609748e+00	 7.610444782096354e-01	 1.432895389490336e+01
 1.226852563269797e+00	 7.728817285253641e-01	 1.424836807323622e+01
 1.219353038971102e+00	 7.846601178439617e-01	 1.416473311020702e+01
 1.211732510995317e+00	 7.963777994584040e-01	 1.407836324231390e+01
 1.203991688549784e+00	 8.080329361706164e-01	 1.398957945031318e+01
 1.196131317620026e+00	 8.196237012044315e-01	 1.389871112797451e+01
 1.188152180795367e+00	 8.311482791165865e-01	 1.380609778886867e+01
 1.180055097067682e+00	 8.426048667048470e-01	 1.371209080125716e+01
 1.171840921603290e+00	 8.539916739123325e-01	 1.361628624416003e+01
 1.163510545488063e+00	 8.653069247271276e-01	 1.351555949078167e+01
 1.249040178442763e+00	 7.537086731839141e-01	 1.437987516230792e+01
 1.241740492594098e+00	 7.656753037085610e-01	 1.430547728281446e+01
 1.234317751308680e+00	 7.775845816681388e-01	 1.422750861868215e+01
 1.226772593687102e+00	 7.894346404714876e-01	 1.414623945497157e+01
 1.219105696101743e+00	 8.012236221746841e-01	 1.406194582631340e+01
 1.211317772075357e+00	 8.129496784006183e-01	 1.397491127114098e+01
 1.203409572132667e+00	 8.246109712575002e-01	 1.388542863633889e+01
 1.195381883624928e+00	 8.362056742554060e-01	 1.379380192267783e+01
 1.187235530527446e+00	 8.477319732199223e-01	 1.370034816070457e+01
 1.178971373210091e+00	 8.591880672019779e-01	 1.360539930609475e+01
 1.170590308180842e+00	 8.705721693829283e-01	 1.350809392766937e+01
 1.256594408129957e+00	 7.582671241684877e-01	 1.435380166788118e+01
 1.249250573578565e+00	 7.703061292068869e-01	 1.428216624421452e+01
 1.241782939347714e+00	 7.822874348103155e-01	 1.420677109649520e+01
 1.234192148403295e+00	 7.942091630984160e-01	 1.412784993402430e+01
 1.226478881208410e+00	 8.060694448903711e-01	 1.404564298080449e+01
 1.218643855601222e+00	 8.178664206300325e-01	 1.396039886201940e+01
 1.210687826645653e+00	 8.295982413099909e-01	 1.387237654398489e+01
 1.202611586454881e+00	 8.412630693936600e-01	 1.378184731757283e+01
 1.194415963987641e+00	 8.528590797344487e-01	 1.368909681437663e+01
 1.186101824817347e+00	 8.643844604910956e-01	 1.359442704419370e+01
 1.177670070874088e+00	 8.758374140382281e-01	 1.349815844174906e+01
 1.264148637817135e+00	 7.628255751526610e-01	 1.432781777446644e+01
 1.256760654563039e+00	 7.749369547048129e-01	 1.425886383339071e+01
 1.249248127386789e+00	 7.869902879520921e-01	 1.418598681071942e+01
 1.241611703119574e+00	 7.989836857249464e-01	 1.410938604103918e+01
 1.233852066315215e+00	 8.109152676056622e-01	 1.402926827469819e+01
 1.225969939127280e+00	 8.227831628590550e-01	 1.394584969604606e+01
 1.217966081158882e+00	 8.345855113620958e-01	 1.385935799814462e+01
 1.209841289285125e+00	 8.463204645315365e-01	 1.377003450357957e+01
 1.201596397448167e+00	 8.579861862486090e-01	 1.367813632023962e+01
 1.193232276424960e+00	 8.695808537798625e-01	 1.358393852020318e+01
 1.184749833567700e+00	 8.811026586931948e-01	 1.348773632919106e+01
 1.271702867504179e+00	 7.673840261366348e-01	 1.430178900782823e+01
 1.264270735547405e+00	 7.795677802025393e-01	 1.423542224975834e+01
 1.256713315425795e+00	 7.916931410936690e-01	 1.416499657718841e+01
 1.249031257835833e+00	 8.037582083512776e-01	 1.409067910038562e+01
 1.241225251422054e+00	 8.157610903207552e-01	 1.401264537994996e+01
 1.233296022653427e+00	 8.276999050878820e-01	 1.393108157636793e+01
 1.225244335672256e+00	 8.395727814140082e-01	 1.384618665898824e+01
 1.217070992115560e+00	 8.513778596692244e-01	 1.375817466367499e+01
 1.208776830908922e+00	 8.631132927625864e-01	 1.366727698760119e+01
 1.200362728032829e+00	 8.747772470684529e-01	 1.357374470888424e+01
 1.191829596261578e+00	 8.863679033479945e-01	 1.347785091805075e+01
 1.279257097190972e+00	 7.719424771206083e-01	 1.427558949071616e+01
 1.271780816531552e+00	 7.841986057002657e-01	 1.421170269284693e+01
 1.264178503464626e+00	 7.963959942352459e-01	 1.414365056770077e+01
 1.256450812551968e+00	 8.085327309776091e-01	 1.407157010212356e+01
 1.248598436528824e+00	 8.206069130358484e-01	 1.399560789897303e+01
 1.240622106179562e+00	 8.326166473167089e-01	 1.391592245758045e+01
 1.232522590185671e+00	 8.445600514659205e-01	 1.383268651654168e+01
 1.224300694946086e+00	 8.564352548069122e-01	 1.374608944772093e+01
 1.215957264369807e+00	 8.682403992765634e-01	 1.365633968952112e+01
 1.207493179640854e+00	 8.799736403570438e-01	 1.356366720668100e+01
 1.198909358955622e+00	 8.916331480027943e-01	 1.346832596311379e+01
 1.286811326877398e+00	 7.765009281047822e-01	 1.424910180937719e+01
 1.279290897515368e+00	 7.888294311981917e-01	 1.418757521671766e+01
 1.271643691503172e+00	 8.010988473770230e-01	 1.412180815394862e+01
 1.263870367267871e+00	 8.133072536041394e-01	 1.405190953702060e+01
 1.255971621635421e+00	 8.254527357511396e-01	 1.397799919229379e+01
 1.247948189705582e+00	 8.375333895457318e-01	 1.390021026753796e+01
 1.239800844699027e+00	 8.495473215180253e-01	 1.381869170813725e+01
 1.231530397776602e+00	 8.614926499447889e-01	 1.373361078700584e+01
 1.223137697830722e+00	 8.733675057907241e-01	 1.364515567585883e+01
 1.214623631248936e+00	 8.851700336458100e-01	 1.355353804465317e+01
 1.205989121649732e+00	 8.968983926577605e-01	 1.345899567523558e+01
 1.294365556563339e+00	 7.810593790893557e-01	 1.422221687916231e+01
 1.286800978498739e+00	 7.934602566965178e-01	 1.416291858383438e+01
 1.279108879541324e+00	 8.058017005191993e-01	 1.409933775120818e+01
 1.271289921983438e+00	 8.180817762310685e-01	 1.403155723159139e+01
 1.263344806741741e+00	 8.302985584668264e-01	 1.395967220643853e+01
 1.255274273231384e+00	 8.424501317751462e-01	 1.388379272955863e+01
 1.247079099212222e+00	 8.545345915705165e-01	 1.380404633637517e+01
 1.238760100607008e+00	 8.665500450830430e-01	 1.372058070936879e+01
 1.230318131291566e+00	 8.784946123052505e-01	 1.363356638693199e+01
 1.221754082856973e+00	 8.903664269349285e-01	 1.354319950200393e+01
 1.213068884343809e+00	 9.021636373130613e-01	 1.344970453603893e+01
 1.301919786248680e+00	 7.856178300745295e-01	 1.419483380926515e+01
 1.294311059481555e+00	 7.980910821954439e-01	 1.413762011841156e+01
 1.286574067578974e+00	 8.105045536619746e-01	 1.407611666180334e+01
 1.278709476698562e+00	 8.228562988585943e-01	 1.401038218315649e+01
 1.270717991847681e+00	 8.351443811831071e-01	 1.394048930204245e+01
 1.262600356756868e+00	 8.473668740051485e-01	 1.386652718500744e+01
 1.254357353725156e+00	 8.595218616235856e-01	 1.378860428757535e+01
 1.245989803437203e+00	 8.716074402218629e-01	 1.370685115488284e+01
 1.237498564752240e+00	 8.836217188203265e-01	 1.362142326776099e+01
 1.228884534464867e+00	 8.955628202245741e-01	 1.353250392018106e+01
 1.220148647037751e+00	 9.074288819688617e-01	 1.344030711313028e+01
 1.309474015933302e+00	 7.901762810605032e-01	 1.416685976662717e+01
 1.301821140463702e+00	 8.027219076951697e-01	 1.411157555925922e+01
 1.294039255616013e+00	 8.152074068055490e-01	 1.405203091835022e+01
 1.286129031413138e+00	 8.276308214869168e-01	 1.398826239492228e+01
 1.278091176953135e+00	 8.399902039001789e-01	 1.392032208217173e+01
 1.269926440281931e+00	 8.522836162359335e-01	 1.384828041624266e+01
 1.261635608237728e+00	 8.645091316774267e-01	 1.377222905069998e+01
 1.253219506267087e+00	 8.766648353614377e-01	 1.369228379207481e+01
 1.244678998212643e+00	 8.887488253361341e-01	 1.360858758287563e+01
 1.236014986072517e+00	 9.007592135149234e-01	 1.352131351752750e+01
 1.227228409731459e+00	 9.126941266253302e-01	 1.343066787581558e+01
 1.156430782795849e+00	 8.600416800706597e-01	 1.352077103302532e+01
 1.148035087081331e+00	 8.712171004371816e-01	 1.341159190868304e+01
 1.139525741333079e+00	 8.823178827982596e-01	 1.329668729332568e+01
 1.130903741810428e+00	 8.933423018555334e-01	 1.317690300378453e+01
 1.122170119243239e+00	 9.042886497641590e-01	 1.305314154354705e+01
 1.113325938445521e+00	 9.151552369938694e-01	 1.292635866870912e+01
 1.104372297903486e+00	 9.259403931799466e-01	 1.279755952182612e+01
 1.095310329338370e+00	 9.366424679632234e-01	 1.266779434628412e+01
 1.086141197244342e+00	 9.472598318182393e-01	 1.253815379653631e+01
 1.076866098401900e+00	 9.577908768686814e-01	 1.240976386222149e+01
 1.067486261367175e+00	 9.682340176892731e-01	 1.228378042678199e+01
 1.163510545488063e+00	 8.653069247271276e-01	 1.351555949078167e+01
 1.155063450646077e+00	 8.765507619200822e-01	 1.340895314066742e+01
 1.146502009995716e+00	 8.877195041676862e-01	 1.329620762281849e+01
 1.137827225895479e+00	 8.988114156091701e-01	 1.317826228349499e+01
 1.129040135385428e+00	 9.098247779441305e-01	 1.305611595142813e+01
 1.120141809798434e+00	 9.207578912988645e-01	 1.293082330803831e+01
 1.111133354345720e+00	 9.316090750825535e-01	 1.280349080629702e+01
 1.102015907676997e+00	 9.423766688324032e-01	 1.267527215134896e+01
 1.092790641415547e+00	 9.530590330468713e-01	 1.254736335885260e+01
 1.083458759668644e+00	 9.636545500061029e-01	 1.242099740976975e+01
 1.074021498513723e+00	 9.741616245787251e-01	 1.229743852304586e+01
 1.170590308180842e+00	 8.705721693829283e-01	 1.350809392766937e+01
 1.162091814211381e+00	 8.818844234023586e-01	 1.340451623766275e+01
 1.153478278658884e+00	 8.931211255365393e-01	 1.329440000730929e+01
 1.144750709981022e+00	 9.042805293622875e-01	 1.317876288553244e+01
 1.135910151528057e+00	 9.153609061236397e-01	 1.305868467317565e+01
 1.126957681151730e+00	 9.263605456034574e-01	 1.293530351603680e+01
 1.117894410788274e+00	 9.372777569848159e-01	 1.280981162703586e+01
 1.108721486015878e+00	 9.481108697012941e-01	 1.268345055111034e+01
 1.099440085586944e+00	 9.588582342752672e-01	 1.255750598937567e+01
 1.090051420935520e+00	 9.695182231433344e-01	 1.243330220198350e+01
 1.080556735660355e+00	 9.800892314680262e-01	 1.231219601192129e+01
 1.177670070874088e+00	 8.758374140382281e-01	 1.349815844174906e+01
 1.169120177777142e+00	 8.872180848841675e-01	 1.339802141956418e+01
 1.160454547322483e+00	 8.985227469049618e-01	 1.329100388025189e+01
 1.151674194066956e+00	 9.097496431150145e-01	 1.317813949761179e+01
 1.142780167671029e+00	 9.208970343028016e-01	 1.306057395852898e+01
 1.133773552505311e+00	 9.319631999077448e-01	 1.293951368613062e+01
 1.124655467231051e+00	 9.429464388868150e-01	 1.281622138332757e+01
 1.115427064354921e+00	 9.538450705699615e-01	 1.269201109974774e+01
 1.106089529758441e+00	 9.646574355034747e-01	 1.256824283916432e+01
 1.096644082202444e+00	 9.753818962804091e-01	 1.244631672752468e+01
 1.087091972806987e+00	 9.860168383571938e-01	 1.232766676461441e+01
 1.184749833567700e+00	 8.811026586931948e-01	 1.348773632919106e+01
 1.176148541343259e+00	 8.925517463656647e-01	 1.338921942013581e+01
 1.167430815986413e+00	 9.039243682730971e-01	 1.328576935945857e+01
 1.158597678153183e+00	 9.152187568674810e-01	 1.317613771676276e+01
 1.149650183814242e+00	 9.264331624817297e-01	 1.306152123930378e+01
 1.140589423859077e+00	 9.375658542118251e-01	 1.294317970774676e+01
 1.131416523673954e+00	 9.486151207886326e-01	 1.282243131892090e+01
 1.122132642694029e+00	 9.595792714384703e-01	 1.270064757231047e+01
 1.112738973929948e+00	 9.704566367315428e-01	 1.257924767792736e+01
 1.103236743469326e+00	 9.812455694173582e-01	 1.245969250632667e+01
 1.093627209953537e+00	 9.919444452462444e-01	 1.234347810457032e+01
 1.191829596261578e+00	 8.863679033479945e-01	 1.347785091805074e+01
 1.183176904909634e+00	 8.978854078470058e-01	 1.337939398669440e+01
 1.174407084650574e+00	 9.093259896410880e-01	 1.327845762122255e+01
 1.165521162239601e+00	 9.206878706198163e-01	 1.317251442047667e+01
 1.156520199957599e+00	 9.319692906605380e-01	 1.306127549502191e+01
 1.147405295212932e+00	 9.431685085157975e-01	 1.294603932407781e+01
 1.138177580116887e+00	 9.542838026903513e-01	 1.282816486977933e+01
 1.128838221033110e+00	 9.653134723068855e-01	 1.270906630050357e+01
 1.119388418101373e+00	 9.762558379595201e-01	 1.259020721609811e+01
 1.109829404736078e+00	 9.871092425542138e-01	 1.247309439641439e+01
 1.100162447099921e+00	 9.978720521351953e-01	 1.235927109770320e+01
 1.198909358955622e+00	 8.916331480027943e-01	 1.346832596311379e+01
 1.190205268476166e+00	 9.032190693283465e-01	 1.337020140068473e+01
 1.181383353314868e+00	 9.147276110090786e-01	 1.326963579408838e+01
 1.172444646326112e+00	 9.261569843721487e-01	 1.316703813860628e+01
 1.163390216101001e+00	 9.375054188393419e-01	 1.305959761951182e+01
 1.154221166566777e+00	 9.487711628197595e-01	 1.294784249110456e+01
 1.144938636559754e+00	 9.599524845920514e-01	 1.283315801343936e+01
 1.135543799372068e+00	 9.710476731752720e-01	 1.271698651048809e+01
 1.126037862272624e+00	 9.820550391874548e-01	 1.260082142937835e+01
 1.116422066002613e+00	 9.929729156910094e-01	 1.248620090369247e+01
 1.106697684246055e+00	 1.003799659024063e+00	 1.237470084612642e+01
 1.205989121649732e+00	 8.968983926577605e-01	 1.345899567523558e+01
 1.197233632042755e+00	 9.085527308098434e-01	 1.336148119672276e+01
 1.188359621979193e+00	 9.201292323772123e-01	 1.326141824021823e+01
 1.179368130412618e+00	 9.316260981246085e-01	 1.315975636654737e+01
 1.170260232244350e+00	 9.430415470182544e-01	 1.305626078843676e+01
 1.161037037920516e+00	 9.543738171238091e-01	 1.294835173782351e+01
 1.151699693002458e+00	 9.656211664938156e-01	 1.283715961991002e+01
 1.142249377710810e+00	 9.767818740436952e-01	 1.272414066261419e+01
 1.132687306443609e+00	 9.878542404153952e-01	 1.261080388565229e+01
 1.123014727268843e+00	 9.988365888277762e-01	 1.249870449457878e+01
 1.113232921391856e+00	 1.009727265912864e+00	 1.238943678524003e+01
 1.213068884343809e+00	 9.021636373130613e-01	 1.344970453603893e+01
 1.204261995609301e+00	 9.138863922916518e-01	 1.335307893195679e+01
 1.195335890643451e+00	 9.255308537456317e-01	 1.325379415836062e+01
 1.186291614499018e+00	 9.370952118773249e-01	 1.315279295698916e+01
 1.177130248387545e+00	 9.485776751973894e-01	 1.305106325948983e+01
 1.167852909274049e+00	 9.599764714280448e-01	 1.294734252763075e+01
 1.158460749444903e+00	 9.712898483957252e-01	 1.283993180405249e+01
 1.148954956049241e+00	 9.825160749122200e-01	 1.273027479300581e+01
 1.139336750614238e+00	 9.936534416433901e-01	 1.261988207417306e+01
 1.129607388534680e+00	 1.004700261964547e+00	 1.251031191137021e+01
 1.119768158537242e+00	 1.015654872801615e+00	 1.240316298403785e+01
 1.220148647037751e+00	 9.074288819688617e-01	 1.344030711313028e+01
 1.211290359175705e+00	 9.192200537739282e-01	 1.334485029689304e+01
 1.202312159307539e+00	 9.309324751144801e-01	 1.324661701360187e+01
 1.193215098585211e+00	 9.425643256304265e-01	 1.314652963283715e+01
 1.184000264530489e+00	 9.541138033768618e-01	 1.304555520482874e+01
 1.174668780627279e+00	 9.655791257325644e-01	 1.294460362081557e+01
 1.165221805886993e+00	 9.769585302978617e-01	 1.284125027937730e+01
 1.155660534387266e+00	 9.882502757809111e-01	 1.273514885692560e+01
 1.145986194784419e+00	 9.994526428714876e-01	 1.262779773692858e+01
 1.136200049800036e+00	 1.010563935101354e+00	 1.252074449022609e+01
 1.126303395682128e+00	 1.021582479690333e+00	 1.241557844850375e+01
 1.227228409731459e+00	 9.126941266253302e-01	 1.343066787581558e+01
 1.218318722741866e+00	 9.245537152568284e-01	 1.333666093173879e+01
 1.209288427971361e+00	 9.363340964839008e-01	 1.323975034330268e+01
 1.200138582671100e+00	 9.480334393840433e-01	 1.314082477113728e+01
 1.190870280673080e+00	 9.596499315567852e-01	 1.304081683985279e+01
 1.181484651980107e+00	 9.711817800374664e-01	 1.294070528622765e+01
 1.171982862328630e+00	 9.826272122003074e-01	 1.284090471320490e+01
 1.162366112724793e+00	 9.939844766498344e-01	 1.273853707384410e+01
 1.152635638954060e+00	 1.005251844099736e+00	 1.263430720210117e+01
 1.142792711064822e+00	 1.016427608238230e+00	 1.252973848166648e+01
 1.132838632826431e+00	 1.027510086579036e+00	 1.242639742797265e+01
 1.067486261367175e+00	 9.682340176892731e-01	 1.228378042678199e+01
 1.058004563832146e+00	 9.785859426644694e-01	 1.215649206808142e+01
 1.048420696020508e+00	 9.888469111185910e-01	 1.202388952579620e+01
 1.038735960952127e+00	 9.990154272920019e-01	 1.188676657660582e+01
 1.028951691128298e+00	 1.009090020914066e+00	 1.174591525600291e+01
 1.019069247916471e+00	 1.019069247916471e+00	 1.160211977998070e+01
 1.009090020914065e+00	 1.028951691128298e+00	 1.145615028574340e+01
 9.990154272920018e-01	 1.038735960952127e+00	 1.130875642511003e+01
 9.888469111185908e-01	 1.048420696020508e+00	 1.116066084569257e+01
 9.785859426644695e-01	 1.058004563832147e+00	 1.101255259614300e+01
 9.682340176892732e-01	 1.067486261367175e+00	 1.086508049276810e+01
 1.074021498513723e+00	 9.741616245787251e-01	 1.229743852304586e+01
 1.064481753260220e+00	 9.845769248752173e-01	 1.217293929888188e+01
 1.054839212235358e+00	 9.949007118074958e-01	 1.204330787606773e+01
 1.045095186436212e+00	 1.005131480458752e+00	 1.190922374259335e+01
 1.035251016521766e+00	 1.015267751557224e+00	 1.177136174809383e+01
 1.025308072193884e+00	 1.025308072193884e+00	 1.163038600059823e+01
 1.015267751557224e+00	 1.035251016521766e+00	 1.148694357693942e+01
 1.005131480458752e+00	 1.045095186436212e+00	 1.134165808137416e+01
 9.949007118074955e-01	 1.054839212235358e+00	 1.119512308842559e+01
 9.845769248752170e-01	 1.064481753260220e+00	 1.104789550722459e+01
 9.741616245787251e-01	 1.074021498513723e+00	 1.090048890567509e+01
 1.080556735660355e+00	 9.800892314680262e-01	 1.231219601192129e+01
 1.070958942688337e+00	 9.905679070858453e-01	 1.219037280088907e+01
 1.061257728450222e+00	 1.000954512496305e+00	 1.206345815051427e+01
 1.051454411920286e+00	 1.011247533625426e+00	 1.193204919237230e+01
 1.041550341915204e+00	 1.021445482200321e+00	 1.179673645030489e+01
 1.031546896471251e+00	 1.031546896471251e+00	 1.165809766226208e+01
 1.021445482200321e+00	 1.041550341915204e+00	 1.151669140881325e+01
 1.011247533625427e+00	 1.051454411920286e+00	 1.137305058385516e+01
 1.000954512496305e+00	 1.061257728450222e+00	 1.122767574457944e+01
 9.905679070858451e-01	 1.070958942688337e+00	 1.108102837907252e+01
 9.800892314680263e-01	 1.080556735660355e+00	 1.093352413102089e+01
 1.087091972806987e+00	 9.860168383571938e-01	 1.232766676461441e+01
 1.077436132116420e+00	 9.965588892963561e-01	 1.220838783432480e+01
 1.067676244665028e+00	 1.007008313185007e+00	 1.208393040359297e+01
 1.057813637404285e+00	 1.017363586792000e+00	 1.195484065123350e+01
 1.047849667308557e+00	 1.027623212843323e+00	 1.182165709951732e+01
 1.037785720748525e+00	 1.037785720748526e+00	 1.168490431142335e+01
 1.027623212843322e+00	 1.047849667308557e+00	 1.154508638592208e+01
 1.017363586792000e+00	 1.057813637404286e+00	 1.140268028792006e+01
 1.007008313185007e+00	 1.067676244665028e+00	 1.125812905108241e+01
 9.965588892963556e-01	 1.077436132116421e+00	 1.111183489312660e+01
 9.860168383571939e-01	 1.087091972806987e+00	 1.096415228432375e+01
 1.093627209953537e+00	 9.919444452462444e-01	 1.234347810457032e+01
 1.083913321544392e+00	 1.002549871506752e+00	 1.222659335163757e+01
 1.074094760879704e+00	 1.013062113873592e+00	 1.210432826521996e+01
 1.064172862888146e+00	 1.023479639958449e+00	 1.197720896028948e+01
 1.054148992701770e+00	 1.033800943486192e+00	 1.184575376014172e+01
 1.044024545025664e+00	 1.044024545025664e+00	 1.171046671962941e+01
 1.033800943486192e+00	 1.054148992701770e+00	 1.157183093615803e+01
 1.023479639958449e+00	 1.064172862888146e+00	 1.143030168627045e+01
 1.013062113873591e+00	 1.074094760879704e+00	 1.128629942731320e+01
 1.002549871506751e+00	 1.083913321544392e+00	 1.114020270511104e+01
 9.919444452462445e-01	 1.093627209953537e+00	 1.099234100977670e+01
 1.100162447099921e+00	 9.978720521351953e-01	 1.235927109770320e+01
 1.090390510972175e+00	 1.008540853717035e+00	 1.224461227544914e+01
 1.080513277094179e+00	 1.019115914562047e+00	 1.212426921597569e+01
 1.070532088371804e+00	 1.029595693124751e+00	 1.199877835809948e+01
 1.060448318094786e+00	 1.039978674128896e+00	 1.186866912091909e+01
 1.050263369302618e+00	 1.050263369302618e+00	 1.173445720386077e+01
 1.039978674128896e+00	 1.060448318094786e+00	 1.159663766256867e+01
 1.029595693124751e+00	 1.070532088371805e+00	 1.145567779978143e+01
 1.019115914562046e+00	 1.080513277094179e+00	 1.131200991207113e+01
 1.008540853717034e+00	 1.090390510972174e+00	 1.116602393482677e+01
 9.978720521351953e-01	 1.100162447099921e+00	 1.101806002911959e+01
 1.106697684246055e+00	 1.003799659024063e+00	 1.237470084612642e+01
 1.096867700399689e+00	 1.014531835927208e+00	 1.226208178036620e+01
 1.086931793308381e+00	 1.025169715250360e+00	 1.214338486619707e+01
 1.076891313855196e+00	 1.035711746290880e+00	 1.201918676585780e+01
 1.066747643487552e+00	 1.046156404771397e+00	 1.189005879464541e+01
 1.056502193579344e+00	 1.056502193579344e+00	 1.175655994883944e+01
 1.046156404771397e+00	 1.066747643487552e+00	 1.161922969590617e+01
 1.035711746290880e+00	 1.076891313855196e+00	 1.147858056754747e+01
 1.025169715250361e+00	 1.086931793308381e+00	 1.133509059797132e+01
 1.014531835927207e+00	 1.096867700399689e+00	 1.118919565133625e+01
 1.003799659024063e+00	 1.106697684246055e+00	 1.104128168364418e+01
 1.113232921391856e+00	 1.009727265912864e+00	 1.238943678524003e+01
 1.103344889826858e+00	 1.020522818137272e+00	 1.227865357850381e+01
 1.093350309522240e+00	 1.031223515938523e+00	 1.216132123879327e+01
 1.083250539338258e+00	 1.041827799456814e+00	 1.203808607600074e+01
 1.073046968880010e+00	 1.052334135413661e+00	 1.190959162069805e+01
 1.062741017855794e+00	 1.062741017855794e+00	 1.177647133123041e+01
 1.052334135413661e+00	 1.073046968880010e+00	 1.163934104787674e+01
 1.041827799456814e+00	 1.083250539338258e+00	 1.149879123616957e+01
 1.031223515938523e+00	 1.093350309522240e+00	 1.135537906336874e+01
 1.020522818137272e+00	 1.103344889826858e+00	 1.120962035373172e+01
 1.009727265912864e+00	 1.113232921391856e+00	 1.106198146960852e+01
 1.119768158537242e+00	 1.015654872801615e+00	 1.240316298403785e+01
 1.109822079253605e+00	 1.026513800347230e+00	 1.229399420856495e+01
 1.099768825735684e+00	 1.037277316626523e+00	 1.217773905563525e+01
 1.089609764820927e+00	 1.047943852622529e+00	 1.205514244409317e+01
 1.079346294272108e+00	 1.058511866055653e+00	 1.192694997025019e+01
 1.068979842131924e+00	 1.068979842131924e+00	 1.179390024565524e+01
 1.058511866055653e+00	 1.079346294272107e+00	 1.165671696505984e+01
 1.047943852622529e+00	 1.089609764820926e+00	 1.151610074831419e+01
 1.037277316626523e+00	 1.099768825735684e+00	 1.137272080191574e+01
 1.026513800347230e+00	 1.109822079253605e+00	 1.122720644766491e+01
 1.015654872801615e+00	 1.119768158537242e+00	 1.108013856733571e+01
 1.126303395682128e+00	 1.021582479690333e+00	 1.241557844850375e+01
 1.116299268679850e+00	 1.032504782557086e+00	 1.230778532833337e+01
 1.106187341948641e+00	 1.043331117314347e+00	 1.219231402737240e+01
 1.095968990303136e+00	 1.054059905788001e+00	 1.207003658385896e+01
 1.085645619663787e+00	 1.064689596697337e+00	 1.194183005406437e+01
 1.075218666407687e+00	 1.075218666407687e+00	 1.180856843244774e+01
 1.064689596697337e+00	 1.085645619663787e+00	 1.167111428347274e+01
 1.054059905788000e+00	 1.095968990303137e+00	 1.153031013057477e+01
 1.043331117314347e+00	 1.106187341948641e+00	 1.138696964984482e+01
 1.032504782557085e+00	 1.116299268679850e+00	 1.124186871781368e+01
 1.021582479690333e+00	 1.126303395682128e+00	 1.109573636424844e+01
 1.132838632826431e+00	 1.027510086579036e+00	 1.242639742797265e+01
 1.122776458105517e+00	 1.038495764766839e+00	 1.231972401044306e+01
 1.112605858161041e+00	 1.049384918001987e+00	 1.220473714653980e+01
 1.102328215784825e+00	 1.060175958953205e+00	 1.208246406523184e+01
 1.091944945054995e+00	 1.070867327338678e+00	 1.195394223276111e+01
 1.081457490683039e+00	 1.081457490683039e+00	 1.182021080708008e+01
 1.070867327338677e+00	 1.091944945054995e+00	 1.168230178375163e+01
 1.060175958953205e+00	 1.102328215784825e+00	 1.154123088066196e+01
 1.049384918001987e+00	 1.112605858161041e+00	 1.139798821107297e+01
 1.038495764766839e+00	 1.122776458105517e+00	 1.125352879644773e+01
 1.027510086579036e+00	 1.132838632826431e+00	 1.110876297208859e+01
 9.682340176892732e-01	 1.067486261367175e+00	 1.086508049276810e+01
 9.577908768686817e-01	 1.076866098401900e+00	 1.071486820741485e+01
 9.472598318182397e-01	 1.086141197244342e+00	 1.055888204860048e+01
 9.366424679632236e-01	 1.095310329338370e+00	 1.039813399584646e+01
 9.259403931799469e-01	 1.104372297903486e+00	 1.023357485133214e+01
 9.151552369938699e-01	 1.113325938445520e+00	 1.006608737677435e+01
 9.042886497641597e-01	 1.122170119243239e+00	 9.896479622941500e+00
 8.933423018555336e-01	 1.130903741810428e+00	 9.725478491131552e+00
 8.823178827982596e-01	 1.139525741333079e+00	 9.553723565106466e+00
 8.712171004371820e-01	 1.148035087081330e+00	 9.381761250897279e+00
 8.600416800706600e-01	 1.156430782795849e+00	 9.210039260595918e+00
 9.741616245787251e-01	 1.074021498513723e+00	 1.090048890567510e+01
 9.636545500061029e-01	 1.083458759668643e+00	 1.074954335693670e+01
 9.530590330468716e-01	 1.092790641415546e+00	 1.059232691181405e+01
 9.423766688324036e-01	 1.102015907676997e+00	 1.043014773951362e+01
 9.316090750825543e-01	 1.111133354345720e+00	 1.026426025174332e+01
 9.207578912988649e-01	 1.120141809798433e+00	 1.009585753674812e+01
 9.098247779441311e-01	 1.129040135385428e+00	 9.926063978650731e+00
 8.988114156091702e-01	 1.137827225895479e+00	 9.755928103733487e+00
 8.877195041676870e-01	 1.146502009995716e+00	 9.586415694460088e+00
 8.765507619200824e-01	 1.155063450646077e+00	 9.418403210941401e+00
 8.653069247271273e-01	 1.163510545488063e+00	 9.252671558238932e+00
 9.800892314680263e-01	 1.080556735660355e+00	 1.093352413102088e+01
 9.695182231433349e-01	 1.090051420935520e+00	 1.078193912308119e+01
 9.588582342752678e-01	 1.099440085586944e+00	 1.062391852244701e+01
 9.481108697012945e-01	 1.108721486015878e+00	 1.046103719102793e+01
 9.372777569848162e-01	 1.117894410788274e+00	 1.029482263056850e+01
 9.263605456034578e-01	 1.126957681151730e+00	 1.012674674968351e+01
 9.153609061236404e-01	 1.135910151528057e+00	 9.958217810021653e+00
 9.042805293622878e-01	 1.144750709981022e+00	 9.790572595466378e+00
 8.931211255365400e-01	 1.153478278658883e+00	 9.625068847444036e+00
 8.818844234023591e-01	 1.162091814211381e+00	 9.462878008305765e+00
 8.705721693829281e-01	 1.170590308180842e+00	 9.305078313407400e+00
 9.860168383571939e-01	 1.087091972806987e+00	 1.096415228432375e+01
 9.753818962804095e-01	 1.096644082202443e+00	 1.081209912246723e+01
 9.646574355034749e-01	 1.106089529758441e+00	 1.065375991605411e+01
 9.538450705699616e-01	 1.115427064354920e+00	 1.049094735986893e+01
 9.429464388868155e-01	 1.124655467231050e+00	 1.032543217646963e+01
 9.319631999077452e-01	 1.133773552505310e+00	 1.015893425131361e+01
 9.208970343028015e-01	 1.142780167671028e+00	 9.993113941968579e+00
 9.097496431150143e-01	 1.151674194066955e+00	 9.829563607564914e+00
 8.985227469049623e-01	 1.160454547322482e+00	 9.669799403797406e+00
 8.872180848841679e-01	 1.169120177777141e+00	 9.515253387672939e+00
 8.758374140382283e-01	 1.177670070874088e+00	 9.367031592846448e+00
 9.919444452462445e-01	 1.093627209953537e+00	 1.099234100977670e+01
 9.812455694173584e-01	 1.103236743469325e+00	 1.084006615225949e+01
 9.704566367315433e-01	 1.112738973929948e+00	 1.068195137477795e+01
 9.595792714384708e-01	 1.122132642694029e+00	 1.052001896946036e+01
 9.486151207886331e-01	 1.131416523673954e+00	 1.035625364761699e+01
 9.375658542118255e-01	 1.140589423859076e+00	 1.019259307729619e+01
 9.264331624817299e-01	 1.149650183814241e+00	 1.003091859100690e+01
 9.152187568674813e-01	 1.158597678153182e+00	 9.873046111977288e+00
 9.039243682730975e-01	 1.167430815986412e+00	 9.720717346473114e+00
 8.925517463656650e-01	 1.176148541343259e+00	 9.575591288567495e+00
 8.811026586931948e-01	 1.184749833567700e+00	 9.427665794104106e+00
 9.978720521351953e-01	 1.100162447099921e+00	 1.101806002911959e+01
 9.871092425542144e-01	 1.109829404736077e+00	 1.086588279447537e+01
 9.762558379595202e-01	 1.119388418101372e+00	 1.070859107408153e+01
 9.653134723068858e-01	 1.128838221033109e+00	 1.054838913375066e+01
 9.542838026903514e-01	 1.138177580116886e+00	 1.038744706597290e+01
 9.431685085157979e-01	 1.147405295212931e+00	 1.022789076350538e+01
 9.319692906605388e-01	 1.156520199957599e+00	 1.007179206030903e+01
 9.206878706198163e-01	 1.165521162239601e+00	 9.921159090403954e+00
 9.093259896410884e-01	 1.174407084650574e+00	 9.777926914348553e+00
 8.978854078470058e-01	 1.183176904909634e+00	 9.636679851130792e+00
 8.863679033479948e-01	 1.191829596261578e+00	 9.481534101247803e+00
 1.003799659024063e+00	 1.106697684246055e+00	 1.104128168364418e+01
 9.929729156910099e-01	 1.116422066002613e+00	 1.088959201127870e+01
 9.820550391874551e-01	 1.126037862272623e+00	 1.073377571877682e+01
 9.710476731752724e-01	 1.135543799372068e+00	 1.057619202183164e+01
 9.599524845920520e-01	 1.144938636559753e+00	 1.041916839878378e+01
 9.487711628197597e-01	 1.154221166566777e+00	 1.026499003310412e+01
 9.375054188393421e-01	 1.163390216101001e+00	 1.011588942150547e+01
 9.261569843721493e-01	 1.172444646326112e+00	 9.974036200421409e+00
 9.147276110090794e-01	 1.181383353314868e+00	 9.837807302719844e+00
 9.032190693283471e-01	 1.190205268476166e+00	 9.690154217665238e+00
 8.916331480027944e-01	 1.198909358955622e+00	 9.529293570655929e+00
 1.009727265912864e+00	 1.113232921391856e+00	 1.106198146960852e+01
 9.988365888277767e-01	 1.123014727268842e+00	 1.091123773162951e+01
 9.878542404153958e-01	 1.132687306443609e+00	 1.075760116878548e+01
 9.767818740436959e-01	 1.142249377710809e+00	 1.060355951108996e+01
 9.656211664938161e-01	 1.151699693002457e+00	 1.045157022780189e+01
 9.543738171238096e-01	 1.161037037920515e+00	 1.030404947093813e+01
 9.430415470182546e-01	 1.170260232244349e+00	 1.016336118377412e+01
 9.316260981246093e-01	 1.179368130412618e+00	 1.003058239072466e+01
 9.201292323772127e-01	 1.188359621979193e+00	 9.889972444309700e+00
 9.085527308098439e-01	 1.197233632042755e+00	 9.736707862749386e+00
 8.968983926577605e-01	 1.205989121649732e+00	 9.571601558220031e+00
 1.015654872801615e+00	 1.119768158537242e+00	 1.108013856733571e+01
 1.004700261964548e+00	 1.129607388534679e+00	 1.093086542964517e+01
 9.936534416433908e-01	 1.139336750614238e+00	 1.078016305505651e+01
 9.825160749122203e-01	 1.148954956049240e+00	 1.063062182935657e+01
 9.712898483957254e-01	 1.158460749444902e+00	 1.048480240674175e+01
 9.599764714280448e-01	 1.167852909274048e+00	 1.034522418577166e+01
 9.485776751973897e-01	 1.177130248387545e+00	 1.021429818905912e+01
 9.370952118773251e-01	 1.186291614499017e+00	 1.008052256025832e+01
 9.255308537456318e-01	 1.195335890643450e+00	 9.934482987221921e+00
 9.138863922916524e-01	 1.204261995609301e+00	 9.777054223247912e+00
 9.021636373130609e-01	 1.213068884343809e+00	 9.609115671807611e+00
 1.021582479690333e+00	 1.126303395682128e+00	 1.109573636424843e+01
 1.010563935101354e+00	 1.136200049800035e+00	 1.094852269500682e+01
 9.994526428714882e-01	 1.145986194784418e+00	 1.080155738603557e+01
 9.882502757809116e-01	 1.155660534387266e+00	 1.065750818650436e+01
 9.769585302978622e-01	 1.165221805886992e+00	 1.051901270744862e+01
 9.655791257325650e-01	 1.174668780627278e+00	 1.038866646085868e+01
 9.541138033768621e-01	 1.184000264530488e+00	 1.026115465147459e+01
 9.425643256304270e-01	 1.193215098585211e+00	 1.012214714308956e+01
 9.309324751144803e-01	 1.202312159307539e+00	 9.972094684359945e+00
 9.192200537739287e-01	 1.211290359175705e+00	 9.811905770773311e+00
 9.074288819688618e-01	 1.220148647037751e+00	 9.642493715069413e+00
 1.027510086579036e+00	 1.132838632826431e+00	 1.110876297208859e+01
 1.016427608238230e+00	 1.142792711064822e+00	 1.096425979573599e+01
 1.005251844099737e+00	 1.152635638954059e+00	 1.082188114507121e+01
 9.939844766498350e-01	 1.162366112724792e+00	 1.068434739591723e+01
 9.826272122003075e-01	 1.171982862328630e+00	 1.055434745523229e+01
 9.711817800374670e-01	 1.181484651980107e+00	 1.043123387798651e+01
 9.596499315567855e-01	 1.190870280673080e+00	 1.029910113609264e+01
 9.480334393840437e-01	 1.200138582671100e+00	 1.015624075720247e+01
 9.363340964839015e-01	 1.209288427971361e+00	 1.000356141254358e+01
 9.245537152568286e-01	 1.218318722741866e+00	 9.841973972645576e+00
 9.126941266253301e-01	 1.227228409731459e+00	 9.672393622937522e+00
 8.600416800706600e-01	 1.156430782795849e+00	 9.210039260595920e+00
 8.487952806219835e-01	 1.164710469997046e+00	 9.043996092464532e+00
 8.374777601890396e-01	 1.172874663608447e+00	 8.890042187823994e+00
 8.260908839770124e-01	 1.180922477966298e+00	 8.746284476491963e+00
 8.146364311505910e-01	 1.188853063107831e+00	 8.595755949168071e+00
 8.031161939398316e-01	 1.196665605024608e+00	 8.437129351670494e+00
 7.915319767413330e-01	 1.204359325889236e+00	 8.271585367796142e+00
 7.798855952156404e-01	 1.211933484255399e+00	 8.100337702524158e+00
 7.681788753817906e-01	 1.219387375231171e+00	 7.924633028304834e+00
 7.564136527099106e-01	 1.226720330625627e+00	 7.745750812835761e+00
 7.445917712127673e-01	 1.233931719068790e+00	 7.565003019272436e+00
 8.653069247271273e-01	 1.163510545488063e+00	 9.252671558238932e+00
 8.539916739123324e-01	 1.171840921603290e+00	 9.095316259054936e+00
 8.426048667048471e-01	 1.180055097067682e+00	 8.950749226248451e+00
 8.311482791165866e-01	 1.188152180795367e+00	 8.801889198689709e+00
 8.196237012044317e-01	 1.196131317620025e+00	 8.645748683902333e+00
 8.080329361706170e-01	 1.203991688549784e+00	 8.483309583462251e+00
 7.963777994584046e-01	 1.211732510995316e+00	 8.315582158054749e+00
 7.846601178439622e-01	 1.219353038971101e+00	 8.143605417863455e+00
 7.728817285253647e-01	 1.226852563269796e+00	 7.968447404109744e+00
 7.610444782096362e-01	 1.234230411609747e+00	 7.791205350645712e+00
 7.491502221987406e-01	 1.241485948755668e+00	 7.613005715536409e+00
 8.705721693829281e-01	 1.170590308180842e+00	 9.305078313407396e+00
 8.591880672019779e-01	 1.178971373210090e+00	 9.157205225657110e+00
 8.477319732199229e-01	 1.187235530527447e+00	 9.008368270966766e+00
 8.362056742554064e-01	 1.195381883624928e+00	 8.853236132958742e+00
 8.246109712575002e-01	 1.203409572132666e+00	 8.692603230001502e+00
 8.129496784006186e-01	 1.211317772075356e+00	 8.527287087544263e+00
 8.012236221746847e-01	 1.219105696101742e+00	 8.358129162339466e+00
 7.894346404714880e-01	 1.226772593687101e+00	 8.185995570236999e+00
 7.775845816681398e-01	 1.234317751308680e+00	 8.011777704403864e+00
 7.656753037085618e-01	 1.241740492594097e+00	 7.836392731797030e+00
 7.537086731839142e-01	 1.249040178442763e+00	 7.660783956780497e+00
 8.758374140382283e-01	 1.177670070874088e+00	 9.367031592846446e+00
 8.643844604910956e-01	 1.186101824817347e+00	 9.216569790962305e+00
 8.528590797344487e-01	 1.194415963987641e+00	 9.060949458137214e+00
 8.412630693936601e-01	 1.202611586454881e+00	 8.900789344808402e+00
 8.295982413099912e-01	 1.210687826645653e+00	 8.736725474822313e+00
 8.178664206300330e-01	 1.218643855601222e+00	 8.569412390147560e+00
 8.060694448903716e-01	 1.226478881208410e+00	 8.399524314416283e+00
 7.942091630984167e-01	 1.234192148403294e+00	 8.227756220099121e+00
 7.822874348103162e-01	 1.241782939347714e+00	 8.054824785021498e+00
 7.703061292068878e-01	 1.249250573578565e+00	 7.881469224950017e+00
 7.582671241684876e-01	 1.256594408129957e+00	 7.708451990086125e+00
 8.811026586931948e-01	 1.184749833567700e+00	 9.427665794104097e+00
 8.695808537798625e-01	 1.193232276424960e+00	 9.270059299784705e+00
 8.579861862486091e-01	 1.201596397448166e+00	 9.109021050743426e+00
 8.463204645315366e-01	 1.209841289285125e+00	 8.945017329758384e+00
 8.345855113620964e-01	 1.217966081158883e+00	 8.778526937545085e+00
 8.227831628590555e-01	 1.225969939127280e+00	 8.610042778377480e+00
 8.109152676056628e-01	 1.233852066315215e+00	 8.440073365451894e+00
 7.989836857249468e-01	 1.241611703119573e+00	 8.269144229601327e+00
 7.869902879520926e-01	 1.249248127386788e+00	 8.097799215908264e+00
 7.749369547048136e-01	 1.256760654563038e+00	 7.926601653823727e+00
 7.628255751526610e-01	 1.264148637817135e+00	 7.756135387548952e+00
 8.863679033479948e-01	 1.191829596261578e+00	 9.481534101247806e+00
 8.747772470684528e-01	 1.200362728032830e+00	 9.318266372296515e+00
 8.631132927625864e-01	 1.208776830908922e+00	 9.153114380251278e+00
 8.513778596692244e-01	 1.217070992115560e+00	 8.986392896340730e+00
 8.395727814140084e-01	 1.225244335672256e+00	 8.818424624233522e+00
 8.276999050878825e-01	 1.233296022653427e+00	 8.649542129577016e+00
 8.157610903207556e-01	 1.241225251422054e+00	 8.480089689878858e+00
 8.037582083512785e-01	 1.249031257835833e+00	 8.310425047110389e+00
 7.916931410936698e-01	 1.256713315425795e+00	 8.140921046404056e+00
 7.795677802025399e-01	 1.264270735547404e+00	 7.971967145301454e+00
 7.673840261366348e-01	 1.271702867504179e+00	 7.803970779216264e+00
 8.916331480027944e-01	 1.198909358955622e+00	 9.529293570655923e+00
 8.799736403570438e-01	 1.207493179640855e+00	 9.361785319329956e+00
 8.682403992765638e-01	 1.215957264369807e+00	 9.193763752916091e+00
 8.564352548069125e-01	 1.224300694946086e+00	 9.025393043506146e+00
 8.445600514659207e-01	 1.232522590185671e+00	 8.856840878548850e+00
 8.326166473167093e-01	 1.240622106179561e+00	 8.688280737515221e+00
 8.206069130358490e-01	 1.248598436528824e+00	 8.519894089182337e+00
 8.085327309776097e-01	 1.256450812551967e+00	 8.351872490675282e+00
 7.963959942352468e-01	 1.264178503464626e+00	 8.184419570420886e+00
 7.841986057002668e-01	 1.271780816531551e+00	 8.017752878308409e+00
 7.719424771206084e-01	 1.279257097190972e+00	 7.852105587606038e+00
 8.968983926577605e-01	 1.205989121649732e+00	 9.571601558220028e+00
 8.851700336458100e-01	 1.214623631248936e+00	 9.401212071848279e+00
 8.733675057907243e-01	 1.223137697830722e+00	 9.231506349449685e+00
 8.614926499447891e-01	 1.231530397776602e+00	 9.062498832661728e+00
 8.495473215180260e-01	 1.239800844699027e+00	 8.894203228295060e+00
 8.375333895457321e-01	 1.247948189705582e+00	 8.726635135530520e+00
 8.254527357511400e-01	 1.255971621635420e+00	 8.559814593695700e+00
 8.133072536041404e-01	 1.263870367267871e+00	 8.393768530481479e+00
 8.010988473770236e-01	 1.271643691503171e+00	 8.228533091520525e+00
 7.888294311981927e-01	 1.279290897515368e+00	 8.064155833432167e+00
 7.765009281047821e-01	 1.286811326877398e+00	 7.900697763741483e+00
 9.021636373130609e-01	 1.213068884343809e+00	 9.609115671807610e+00
 8.903664269349282e-01	 1.221754082856973e+00	 9.437144102759280e+00
 8.784946123052503e-01	 1.230318131291566e+00	 9.266882118322698e+00
 8.665500450830431e-01	 1.238760100607008e+00	 9.098195254564850e+00
 8.545345915705167e-01	 1.247079099212222e+00	 8.930944227964339e+00
 8.424501317751466e-01	 1.255274273231384e+00	 8.764987916755459e+00
 8.302985584668269e-01	 1.263344806741740e+00	 8.600186262483366e+00
 8.180817762310687e-01	 1.271289921983438e+00	 8.436403070333879e+00
 8.058017005192001e-01	 1.279108879541323e+00	 8.273508687896530e+00
 7.934602566965188e-01	 1.286800978498739e+00	 8.111382543253534e+00
 7.810593790893557e-01	 1.294365556563339e+00	 7.949915524639550e+00
 9.074288819688618e-01	 1.220148647037751e+00	 9.642493715069413e+00
 8.955628202245742e-01	 1.228884534464867e+00	 9.470180341379470e+00
 8.836217188203263e-01	 1.237498564752240e+00	 9.300433662958085e+00
 8.716074402218631e-01	 1.245989803437203e+00	 9.132971091276023e+00
 8.595218616235862e-01	 1.254357353725156e+00	 8.967501297447862e+00
 8.473668740051490e-01	 1.262600356756868e+00	 8.803727551539083e+00
 8.351443811831075e-01	 1.270717991847680e+00	 8.641350981393042e+00
 8.228562988585950e-01	 1.278709476698562e+00	 8.480073728211861e+00
 8.105045536619754e-01	 1.286574067578973e+00	 8.319601977262391e+00
 7.980910821954449e-01	 1.294311059481554e+00	 8.159648843360596e+00
 7.856178300745293e-01	 1.301919786248680e+00	 7.999937092195439e+00
 9.126941266253301e-01	 1.227228409731459e+00	 9.672393622937522e+00
 9.007592135149235e-01	 1.236014986072517e+00	 9.500921080848084e+00
 8.887488253361341e-01	 1.244678998212643e+00	 9.332706123061570e+00
 8.766648353614378e-01	 1.253219506267087e+00	 9.167318773374964e+00
 8.645091316774273e-01	 1.261635608237728e+00	 9.004316557064865e+00
 8.522836162359341e-01	 1.269926440281931e+00	 8.843248202181172e+00
 8.399902039001794e-01	 1.278091176953135e+00	 8.683657259346138e+00
 8.276308214869176e-01	 1.286129031413138e+00	 8.525085615929223e+00
 8.152074068055497e-01	 1.294039255616013e+00	 8.367076881652448e+00
 8.027219076951706e-01	 1.301821140463702e+00	 8.209179624017446e+00
 7.901762810605031e-01	 1.309474015933302e+00	 8.050950433403759e+00
 7.445917712127673e-01	 1.233931719068790e+00	 7.565003019272436e+00
 7.327150827691792e-01	 1.241020946404336e+00	 7.385390854036564e+00
 7.207854468972287e-01	 1.247987456658922e+00	 7.208766666120681e+00
 7.088047291255960e-01	 1.254830731191595e+00	 7.034745293255817e+00
 6.967747998534317e-01	 1.261550288408174e+00	 6.862945614202435e+00
 6.846975334493393e-01	 1.268145683747823e+00	 6.692992084657609e+00
 6.725748073546437e-01	 1.274616509643952e+00	 6.524516122045050e+00
 6.604085011917672e-01	 1.280962395459682e+00	 6.357157334285665e+00
 6.482004958785397e-01	 1.287183007398215e+00	 6.190564588980516e+00
 6.359526727492348e-01	 1.293278048388430e+00	 6.024396920767943e+00
 6.236669126831258e-01	 1.299247257946061e+00	 5.858324275946172e+00
 7.491502221987406e-01	 1.241485948755668e+00	 7.613005715536409e+00
 7.372008237088502e-01	 1.248618576913754e+00	 7.436381016504150e+00
 7.251981536421693e-01	 1.255627736706952e+00	 7.262792112573650e+00
 7.131440889482986e-01	 1.262512906319155e+00	 7.091781613727034e+00
 7.010405114771265e-01	 1.269273601207829e+00	 6.922895933194960e+00
 6.888893070722950e-01	 1.275909374090512e+00	 6.755686960616393e+00
 6.766923646689793e-01	 1.282419814905460e+00	 6.589713576095964e+00
 6.644515753968044e-01	 1.288804550746734e+00	 6.424542999895325e+00
 6.521688316887340e-01	 1.295063245774013e+00	 6.259751973880843e+00
 6.398460263967248e-01	 1.301195601097489e+00	 6.094927772255206e+00
 6.274850519149480e-01	 1.307201354638196e+00	 5.929669040473579e+00
 7.537086731839142e-01	 1.249040178442763e+00	 7.660783956780497e+00
 7.416865646477211e-01	 1.256216207423393e+00	 7.487044261090917e+00
 7.296108603863108e-01	 1.263268016755224e+00	 7.316284912441480e+00
 7.174834487702058e-01	 1.270195081446992e+00	 7.147998423736547e+00
 7.053062231000307e-01	 1.276996914007808e+00	 6.981681343374468e+00
 6.930810806944683e-01	 1.283673064433576e+00	 6.816836032998433e+00
 6.808099219825439e-01	 1.290223120167401e+00	 6.652972277656113e+00
 6.684946496010884e-01	 1.296646706034282e+00	 6.489608722785511e+00
 6.561371674981981e-01	 1.302943484150369e+00	 6.326274133899398e+00
 6.437393800435145e-01	 1.309113153807163e+00	 6.162508476297701e+00
 6.313031911461059e-01	 1.315155451330999e+00	 5.997863813588449e+00
 7.582671241684876e-01	 1.256594408129957e+00	 7.708451990086125e+00
 7.461723055859923e-01	 1.263813837933131e+00	 7.537458701956202e+00
 7.340235671298537e-01	 1.270908296803611e+00	 7.369296025265209e+00
 7.218228085915153e-01	 1.277877256574971e+00	 7.203428101586971e+00
 7.095719347223410e-01	 1.284720226807967e+00	 7.039323807153304e+00
 6.972728543160539e-01	 1.291436754776867e+00	 6.876458602973271e+00
 6.849274792955314e-01	 1.298026425429625e+00	 6.714316208358724e+00
 6.725377238048077e-01	 1.304488861322167e+00	 6.552390092002908e+00
 6.601055033071146e-01	 1.310823722527118e+00	 6.390184776277757e+00
 6.476327336897780e-01	 1.317030706517287e+00	 6.227216951940838e+00
 6.351213303767658e-01	 1.323109548024305e+00	 6.063016401959819e+00
 7.628255751526610e-01	 1.264148637817135e+00	 7.756135387548952e+00
 7.506580465238640e-01	 1.271411468442847e+00	 7.587714397094816e+00
 7.384362738729970e-01	 1.278548576851983e+00	 7.421888747606285e+00
 7.261621684124268e-01	 1.285559431702957e+00	 7.258115539243708e+00
 7.138376463442561e-01	 1.292443539608166e+00	 7.095857769944571e+00
 7.014646279372486e-01	 1.299200445120239e+00	 6.934586226121478e+00
 6.890450366081335e-01	 1.305829730691974e+00	 6.773781187240369e+00
 6.765807980081501e-01	 1.312331016610229e+00	 6.612933938202502e+00
 6.640738391156659e-01	 1.318703960904098e+00	 6.451548085039361e+00
 6.515260873356915e-01	 1.324948259227696e+00	 6.289140671021308e+00
 6.389394696070935e-01	 1.331063644717947e+00	 6.125243091862391e+00
 7.673840261366348e-01	 1.271702867504179e+00	 7.803970779216264e+00
 7.551437874615354e-01	 1.279009098952417e+00	 7.637913070464966e+00
 7.428489806159407e-01	 1.286188856900212e+00	 7.474138430902553e+00
 7.305015282331393e-01	 1.293241606830815e+00	 7.312117862155803e+00
 7.181033579659735e-01	 1.300166852408261e+00	 7.151329887880219e+00
 7.056564015582472e-01	 1.306964135463541e+00	 6.991262453673825e+00
 6.931625939205430e-01	 1.313633035954295e+00	 6.831414630813635e+00
 6.806238722113045e-01	 1.320173171898310e+00	 6.671298117559868e+00
 6.680421749240347e-01	 1.326584199281146e+00	 6.510438533431531e+00
 6.554194409814297e-01	 1.332865811938223e+00	 6.348376503508929e+00
 6.427576088372554e-01	 1.339017741411759e+00	 6.184668531479981e+00
 7.719424771206084e-01	 1.279257097190972e+00	 7.852105587606038e+00
 7.596295283992071e-01	 1.286606729461719e+00	 7.688167836350333e+00
 7.472616873588845e-01	 1.293829136948169e+00	 7.526132201980598e+00
 7.348408880538514e-01	 1.300923781958409e+00	 7.365504151932360e+00
 7.223690695876908e-01	 1.307890165208112e+00	 7.205798758370742e+00
 7.098481751792464e-01	 1.314727825806627e+00	 7.046542576379174e+00
 6.972801512329527e-01	 1.321436341216434e+00	 6.887275315368276e+00
 6.846669464144590e-01	 1.328015327186250e+00	 6.727551297327853e+00
 6.720105107324037e-01	 1.334464437658099e+00	 6.566940697255272e+00
 6.593127946271679e-01	 1.340783364648703e+00	 6.405030562831239e+00
 6.465757480674172e-01	 1.346971838105572e+00	 6.241425612130601e+00
 7.765009281047821e-01	 1.286811326877398e+00	 7.900697763741483e+00
 7.641152693370783e-01	 1.294204359970631e+00	 7.738602925864992e+00
 7.516743941020281e-01	 1.301469416995727e+00	 7.577968686113524e+00
 7.391802478747633e-01	 1.308605957085606e+00	 7.418355171754881e+00
 7.266347812096058e-01	 1.315613478007577e+00	 7.259334653391500e+00
 7.140399488004410e-01	 1.322491516149347e+00	 7.100493370892555e+00
 7.013977085455552e-01	 1.329239646478238e+00	 6.941433141404335e+00
 6.887100206178017e-01	 1.335857482473890e+00	 6.781772742965285e+00
 6.759788465409552e-01	 1.342344676034792e+00	 6.621149069052368e+00
 6.632061482730812e-01	 1.348700917358970e+00	 6.459218051177993e+00
 6.503938872977449e-01	 1.354925934799222e+00	 6.295655348459044e+00
 7.810593790893557e-01	 1.294365556563339e+00	 7.949915524639550e+00
 7.686010102753500e-01	 1.301801990479030e+00	 7.789353415513633e+00
 7.560871008455708e-01	 1.309109697042756e+00	 7.629757732521410e+00
 7.435196076960728e-01	 1.316288132212268e+00	 7.470763094417746e+00
 7.309004928319163e-01	 1.323336790806513e+00	 7.312019255382930e+00
 7.182317224220268e-01	 1.330255206491554e+00	 7.153192848585520e+00
 7.055152658585422e-01	 1.337042951739551e+00	 6.993968900116407e+00
 6.927530948215209e-01	 1.343699637761070e+00	 6.834052106782718e+00
 6.799471823498716e-01	 1.350224914411064e+00	 6.673167873109902e+00
 6.670995019193453e-01	 1.356618470068859e+00	 6.511063104786357e+00
 6.542120265284048e-01	 1.362880031492542e+00	 6.347506757637341e+00
 7.856178300745293e-01	 1.301919786248680e+00	 7.999937092195439e+00
 7.730867512142211e-01	 1.309399620986794e+00	 7.840564957721726e+00
 7.604998075897130e-01	 1.316749977089128e+00	 7.681620142215214e+00
 7.478589675179800e-01	 1.323970307338262e+00	 7.522831232884581e+00
 7.351662044548206e-01	 1.331060103604779e+00	 7.363945395660062e+00
 7.224234960442003e-01	 1.338018896833099e+00	 7.204730006673172e+00
 7.096328231721077e-01	 1.344846257000220e+00	 7.044974041840566e+00
 6.967961690258050e-01	 1.351541793047631e+00	 6.884489218032016e+00
 6.839155181593362e-01	 1.358105152786750e+00	 6.723110881251037e+00
 6.709928555661349e-01	 1.364536022778204e+00	 6.560698639210750e+00
 6.580301657595633e-01	 1.370834128185364e+00	 6.397136737613733e+00
 7.901762810605031e-01	 1.309474015933302e+00	 8.050950433403759e+00
 7.775724921538926e-01	 1.316997251493802e+00	 7.892393513258570e+00
 7.649125143346542e-01	 1.324390257134714e+00	 7.733687398087164e+00
 7.521983273406831e-01	 1.331652482463453e+00	 7.574673773264594e+00
 7.394319160785158e-01	 1.338783416402234e+00	 7.415216795228015e+00
 7.266152696671564e-01	 1.345782587173835e+00	 7.255204581570518e+00
 7.137503804864437e-01	 1.352649562260090e+00	 7.094550446385405e+00
 7.008392432308426e-01	 1.359383948333415e+00	 6.933193874391181e+00
 6.878838539695308e-01	 1.365985391161689e+00	 6.771101229381221e+00
 6.748862092136254e-01	 1.372453575486838e+00	 6.608266194573548e+00
 6.618483049913858e-01	 1.378788224877522e+00	 6.444709944450122e+00
 6.236669126831258e-01	 1.299247257946061e+00	 5.858324275946172e+00
 6.113429973410696e-01	 1.305091394526528e+00	 5.695387249906441e+00
 5.989848900772535e-01	 1.310809243923031e+00	 5.538214377746142e+00
 5.865944656098293e-01	 1.316400653358761e+00	 5.385790637748746e+00
 5.741735948273184e-01	 1.321865505875329e+00	 5.237213450316063e+00
 5.617241439652630e-01	 1.327203720078967e+00	 5.091645803647051e+00
 5.492479737946393e-01	 1.332415249865001e+00	 4.948271991061415e+00
 5.367469388226653e-01	 1.337500084121130e+00	 4.806335332899661e+00
 5.242228865066125e-01	 1.342458246410058e+00	 4.665134767577372e+00
 5.116776564812040e-01	 1.347289794632056e+00	 4.524021408210226e+00
 4.991130798001508e-01	 1.351994820668021e+00	 4.382395082890527e+00
 6.274850519149480e-01	 1.307201354638196e+00	 5.929669040473579e+00
 6.150856885675712e-01	 1.313081269494886e+00	 5.766955398831731e+00
 6.026519239727491e-01	 1.318834124027283e+00	 5.609470148598431e+00
 5.901856443258018e-01	 1.324459764523265e+00	 5.456301832842106e+00
 5.776887319689732e-01	 1.329958073308410e+00	 5.306569478233683e+00
 5.651630645630416e-01	 1.335328968490650e+00	 5.159496794075464e+00
 5.526105142707654e-01	 1.340572403683049e+00	 5.014384704737912e+00
 5.400329469527970e-01	 1.345688367705273e+00	 4.870595394505139e+00
 5.274322213766837e-01	 1.350676884264278e+00	 4.727548709898745e+00
 5.148101884395320e-01	 1.355538011614798e+00	 4.584718397057716e+00
 5.021686904049041e-01	 1.360271842200233e+00	 4.441628326290965e+00
 6.313031911461059e-01	 1.315155451330999e+00	 5.997863813588440e+00
 6.188283797934524e-01	 1.321071144463957e+00	 5.835297771703694e+00
 6.063189578676741e-01	 1.326859004132288e+00	 5.677557678137988e+00
 5.937768230412560e-01	 1.332518875688554e+00	 5.523816714787635e+00
 5.812038691101622e-01	 1.338050640742303e+00	 5.373251580070638e+00
 5.686019851604048e-01	 1.343454216903165e+00	 5.225069629623206e+00
 5.559730547465216e-01	 1.348729557501946e+00	 5.078655644263546e+00
 5.433189550825979e-01	 1.353876651290278e+00	 4.933469499672787e+00
 5.306415562464522e-01	 1.358895522119367e+00	 4.789030525762019e+00
 5.179427203975739e-01	 1.363786228598419e+00	 4.644913452869617e+00
 5.052243010093732e-01	 1.368548863733329e+00	 4.500744348576450e+00
 6.351213303767658e-01	 1.323109548024305e+00	 6.063016401959819e+00
 6.225710710188684e-01	 1.329061019433578e+00	 5.900549821060956e+00
 6.099859917621709e-01	 1.334883884237883e+00	 5.742630448503049e+00
 5.973680017563212e-01	 1.340577986854469e+00	 5.588496482090193e+00
 5.847190062510004e-01	 1.346143208176854e+00	 5.437395074589819e+00
 5.720409057574538e-01	 1.351579465316364e+00	 5.288496798912758e+00
 5.593355952219958e-01	 1.356886711321549e+00	 5.141206584129357e+00
 5.466049632121427e-01	 1.362064934876010e+00	 4.995061275409320e+00
 5.338508911159829e-01	 1.367114159975201e+00	 4.849658714365675e+00
 5.210752523553858e-01	 1.372034445582796e+00	 4.704653421679484e+00
 5.082799116136081e-01	 1.376825885267193e+00	 4.559752273733470e+00
 6.389394696070935e-01	 1.331063644717947e+00	 6.125243091862391e+00
 6.263137622439744e-01	 1.337050894403583e+00	 5.962854445936155e+00
 6.136530256563820e-01	 1.342908764343907e+00	 5.804848571792670e+00
 6.009591804711257e-01	 1.348637098020852e+00	 5.650509468407529e+00
 5.882341433916033e-01	 1.354235775611909e+00	 5.499139059951730e+00
 5.754798263542896e-01	 1.359704713730101e+00	 5.349914160943172e+00
 5.626981356972761e-01	 1.365043865141720e+00	 5.202162448461010e+00
 5.498909713415072e-01	 1.370253218462333e+00	 5.055477455705051e+00
 5.370602259853408e-01	 1.375332797831649e+00	 4.909515007991289e+00
 5.242077843130235e-01	 1.380282662567807e+00	 4.763988668059455e+00
 5.113355222176582e-01	 1.385102906801707e+00	 4.618665179632057e+00
 6.427576088372554e-01	 1.339017741411759e+00	 6.184668531479982e+00
 6.300564534689254e-01	 1.345040769373805e+00	 6.022361909537828e+00
 6.173200595504501e-01	 1.350933644450194e+00	 5.864378736288251e+00
 6.045503591857989e-01	 1.356696209187545e+00	 5.710029995875106e+00
 5.917492805320858e-01	 1.362328343047314e+00	 5.558645341131641e+00
 5.789187469510138e-01	 1.367829962144227e+00	 5.409461108723911e+00
 5.660606761724502e-01	 1.373201018962316e+00	 5.261651470193469e+00
 5.531769794707670e-01	 1.378441502049116e+00	 5.114828030979759e+00
 5.402695608545897e-01	 1.383551435688585e+00	 4.968684506757013e+00
 5.273403162705431e-01	 1.388530879553331e+00	 4.822973190503479e+00
 5.143911328215734e-01	 1.393379928336755e+00	 4.677500189675755e+00
 6.465757480674172e-01	 1.346971838105572e+00	 6.241425612130595e+00
 6.337991446938762e-01	 1.353030644344081e+00	 6.079229754849596e+00
 6.209870934445172e-01	 1.358958524556584e+00	 5.921394149820298e+00
 6.081415379004701e-01	 1.364755320354388e+00	 5.767238339905656e+00
 5.952644176725624e-01	 1.370420910482918e+00	 5.616100952695960e+00
 5.823576675477273e-01	 1.375955210558597e+00	 5.467280729076327e+00
 5.694232166476056e-01	 1.381358172783197e+00	 5.319805346498063e+00
 5.564629875999976e-01	 1.386629785636222e+00	 5.173226394054682e+00
 5.434788957237950e-01	 1.391770073545879e+00	 5.027255810335573e+00
 5.304728482280007e-01	 1.396779096539246e+00	 4.881664734393951e+00
 5.174467434254035e-01	 1.401656949872221e+00	 4.736278562797375e+00
 6.503938872977449e-01	 1.354925934799222e+00	 6.295655348459044e+00
 6.375418359189817e-01	 1.361020519314243e+00	 6.133622718229599e+00
 6.246541273387267e-01	 1.366983404662914e+00	 5.976074480401628e+00
 6.117327166152677e-01	 1.372814431521223e+00	 5.822320690733232e+00
 5.987795548131486e-01	 1.378513477918565e+00	 5.671690584128985e+00
 5.857965881445312e-01	 1.384080458973060e+00	 5.523519958765702e+00
 5.727857571228303e-01	 1.389515326604221e+00	 5.376759390616488e+00
 5.597489957292741e-01	 1.394818069223517e+00	 5.230789482786866e+00
 5.466882305930215e-01	 1.399988711403406e+00	 5.085321146767906e+00
 5.336053801854517e-01	 1.405027313525431e+00	 4.940124902643670e+00
 5.205023540291984e-01	 1.409933971407990e+00	 4.795025781871768e+00
 6.542120265284048e-01	 1.362880031492542e+00	 6.347506757637333e+00
 6.412845271443978e-01	 1.369010394284127e+00	 6.185712641093729e+00
 6.283211612332199e-01	 1.375008284769019e+00	 6.028605794237831e+00
 6.153238953303212e-01	 1.380873542687891e+00	 5.875469111839278e+00
 6.022946919539597e-01	 1.386606045354103e+00	 5.725604446420890e+00
 5.892355087415264e-01	 1.392205707387471e+00	 5.578332493885210e+00
 5.761482975982123e-01	 1.397672480425248e+00	 5.432652680248006e+00
 5.630350038586721e-01	 1.403006352810868e+00	 5.287637919506848e+00
 5.498975654623333e-01	 1.408207349261036e+00	 5.142976498486474e+00
 5.367379121429527e-01	 1.413275530511763e+00	 4.998419264118462e+00
 5.235579646330074e-01	 1.418210992943944e+00	 4.853771640609112e+00
 6.580301657595633e-01	 1.370834128185364e+00	 6.397136737613733e+00
 6.450272183702787e-01	 1.377000269253567e+00	 6.235678379760657e+00
 6.319881951281403e-01	 1.383033164874738e+00	 6.079180491219271e+00
 6.189150740457597e-01	 1.388932653854234e+00	 5.926881495384231e+00
 6.058098290951102e-01	 1.394698612789377e+00	 5.778038241968154e+00
 5.926744293388148e-01	 1.400330955801682e+00	 5.631925929618096e+00
 5.795108380738389e-01	 1.405829634246136e+00	 5.487628202630451e+00
 5.663210119882670e-01	 1.411194636398138e+00	 5.343896147386536e+00
 5.531069003317955e-01	 1.416425987118642e+00	 5.200321725665733e+00
 5.398704441005593e-01	 1.421523747498121e+00	 5.056617459920067e+00
 5.266135752368805e-01	 1.426488014479967e+00	 4.912550328990227e+00
 6.618483049913858e-01	 1.378788224877522e+00	 6.444709944450108e+00
 6.487699095967796e-01	 1.384990144222397e+00	 6.283705713530804e+00
 6.356552290236301e-01	 1.391058044979909e+00	 6.127997237999542e+00
 6.225062527617115e-01	 1.396991765020092e+00	 5.976761514767347e+00
 6.093249662367155e-01	 1.402791180224235e+00	 5.829193131329289e+00
 5.961133499364965e-01	 1.408456204215545e+00	 5.684504254216384e+00
 5.828733785497980e-01	 1.413986788066745e+00	 5.541832996446353e+00
 5.696070201181347e-01	 1.419382919985196e+00	 5.399692563861539e+00
 5.563162352014727e-01	 1.424644624976096e+00	 5.257460687003918e+00
 5.430029760583274e-01	 1.429771964484383e+00	 5.114793307622036e+00
 5.296691858408672e-01	 1.434765036015944e+00	 4.971400517304405e+00
 4.991130798001508e-01	 1.351994820668021e+00	 4.382395082890527e+00
 4.865331182043390e-01	 1.356572682302293e+00	 4.241375179857658e+00
 4.739374478213425e-01	 1.361024347901707e+00	 4.102519099438089e+00
 4.613278680963599e-01	 1.365350007944089e+00	 3.966022825194021e+00
 4.487061670436159e-01	 1.369549885257692e+00	 3.832121795231710e+00
 4.360741205666026e-01	 1.373624234577360e+00	 3.701086568789908e+00
 4.234334917951887e-01	 1.377573342084982e+00	 3.573218581814235e+00
 4.107860304399624e-01	 1.381397524934933e+00	 3.448846005315872e+00
 3.981334721641456e-01	 1.385097130765164e+00	 3.328319719280079e+00
 3.854775379733910e-01	 1.388672537194630e+00	 3.212009413876268e+00
 3.728199336237416e-01	 1.392124151307731e+00	 3.100299828656201e+00
 5.021686904049041e-01	 1.360271842200233e+00	 4.441628326290965e+00
 4.895117132677779e-01	 1.364877729873223e+00	 4.299591770543353e+00
 4.768389311729586e-01	 1.369356648929030e+00	 4.160224128185932e+00
 4.641521545819990e-01	 1.373708791011600e+00	 4.023642661488787e+00
 4.514531824554971e-01	 1.377934380313367e+00	 3.890003462839689e+00
 4.387438015691752e-01	 1.382033673128686e+00	 3.759497116659568e+00
 4.260257858469319e-01	 1.386006957391479e+00	 3.632344454100161e+00
 4.133008957112301e-01	 1.389854552197771e+00	 3.508792414514423e+00
 4.005708774511679e-01	 1.393576807313784e+00	 3.389110026653952e+00
 3.878374626085394e-01	 1.397174102670292e+00	 3.273584521470072e+00
 3.751023673821690e-01	 1.400646847843902e+00	 3.162517587336993e+00
 5.052243010093732e-01	 1.368548863733329e+00	 4.500744348576450e+00
 4.924903083309190e-01	 1.373182777445042e+00	 4.357990373743736e+00
 4.797404145242506e-01	 1.377688949957241e+00	 4.218308720432675e+00
 4.669764410672796e-01	 1.382067574079997e+00	 4.081751608286526e+00
 4.542001978669820e-01	 1.386318875369919e+00	 3.948409638599137e+00
 4.414134825713155e-01	 1.390443111680873e+00	 3.818407428148099e+00
 4.286180798982113e-01	 1.394440572698812e+00	 3.691899339893703e+00
 4.158157609820129e-01	 1.398311579461406e+00	 3.569065324780718e+00
 4.030082827376984e-01	 1.402056483863154e+00	 3.450106887796125e+00
 3.901973872432076e-01	 1.405675668146641e+00	 3.335243190347833e+00
 3.773848011401508e-01	 1.409169544380683e+00	 3.224707299916122e+00
 5.082799116136081e-01	 1.376825885267193e+00	 4.559752273733471e+00
 4.954689033938086e-01	 1.381487825017637e+00	 4.416542453987886e+00
 4.826418978752635e-01	 1.386021250986234e+00	 4.276712419547874e+00
 4.698007275522475e-01	 1.390426357149176e+00	 4.140262818396415e+00
 4.569472132781189e-01	 1.394703370427249e+00	 4.007232404971765e+00
 4.440831635730731e-01	 1.398852550233825e+00	 3.877693622626434e+00
 4.312103739490798e-01	 1.402874188006889e+00	 3.751748287338281e+00
 4.183306262523653e-01	 1.406768606725761e+00	 3.629523387183898e+00
 4.054456880237921e-01	 1.410536160413200e+00	 3.511167010971166e+00
 3.925573118774490e-01	 1.414177233623615e+00	 3.396844418305105e+00
 3.796672348977365e-01	 1.417692240918024e+00	 3.286734262213602e+00
 5.113355222176582e-01	 1.385102906801707e+00	 4.618665179632057e+00
 4.984474984564929e-01	 1.389792872590896e+00	 4.475223869870010e+00
 4.855433812260426e-01	 1.394353552015900e+00	 4.335379473631957e+00
 4.726250140369492e-01	 1.398785140219034e+00	 4.199094336837339e+00
 4.596942286889552e-01	 1.403087865485256e+00	 4.066368807275589e+00
 4.467528445744989e-01	 1.407261988787448e+00	 3.937236742517786e+00
 4.338026679995901e-01	 1.411307803315623e+00	 3.811761123769887e+00
 4.208454915223415e-01	 1.415225633990746e+00	 3.690029790481667e+00
 4.078830933095035e-01	 1.419015836963849e+00	 3.572151309393225e+00
 3.949172365113172e-01	 1.422678799101151e+00	 3.458250990529697e+00
 3.819496686549754e-01	 1.426214937455878e+00	 3.348467061479460e+00
 5.143911328215734e-01	 1.393379928336755e+00	 4.677500189675755e+00
 5.014260935190180e-01	 1.398097920164706e+00	 4.534014941924059e+00
 4.884448645766332e-01	 1.402685853046131e+00	 4.394258883585132e+00
 4.754493005214303e-01	 1.407143923289465e+00	 4.258169132900983e+00
 4.624412440995391e-01	 1.411472360543840e+00	 4.125720873372305e+00
 4.494225255756428e-01	 1.415671427341645e+00	 3.996922764067460e+00
 4.363949620497943e-01	 1.419741418624923e+00	 3.871812460854618e+00
 4.233603567919959e-01	 1.423682661256284e+00	 3.750452263734377e+00
 4.103204985948876e-01	 1.427495513515027e+00	 3.632924904257118e+00
 3.972771611448651e-01	 1.431180364579188e+00	 3.519329485812860e+00
 3.842321024119175e-01	 1.434737633994194e+00	 3.409777588365285e+00
 5.174467434254035e-01	 1.401656949872221e+00	 4.736278562797367e+00
 5.044046885814306e-01	 1.406402967738958e+00	 4.592900519614913e+00
 4.913463479270809e-01	 1.411018154076820e+00	 4.453304450923832e+00
 4.782735870057369e-01	 1.415502706360367e+00	 4.317415132457714e+00
 4.651882595099187e-01	 1.419856855602901e+00	 4.185195633968818e+00
 4.520922065765555e-01	 1.424080865896321e+00	 4.056642608972922e+00
 4.389872560997457e-01	 1.428175033934699e+00	 3.931781700719478e+00
 4.258752220613828e-01	 1.432139688522289e+00	 3.810663079939008e+00
 4.127579038799990e-01	 1.435975190066661e+00	 3.693357128707611e+00
 3.996370857781466e-01	 1.439681930057661e+00	 3.579950283517634e+00
 3.865145361686117e-01	 1.443260330532925e+00	 3.470541049390782e+00
 5.205023540291984e-01	 1.409933971407990e+00	 4.795025781871768e+00
 5.073832836437766e-01	 1.414708015313537e+00	 4.651870047484882e+00
 4.942478312774308e-01	 1.419350455107859e+00	 4.512474825354798e+00
 4.810978734899151e-01	 1.423861489431633e+00	 4.376765250500089e+00
 4.679352749201415e-01	 1.428241350662339e+00	 4.244705143502824e+00
 4.547618875772868e-01	 1.432490304451380e+00	 4.116292156837766e+00
 4.415795501494966e-01	 1.436608649244861e+00	 3.991553043031582e+00
 4.283900873305568e-01	 1.440596715788680e+00	 3.870539060632445e+00
 4.151953091648925e-01	 1.444454866618676e+00	 3.753321532704692e+00
 4.019970104112149e-01	 1.448183495536511e+00	 3.639987571277609e+00
 3.887969699251081e-01	 1.451783027072022e+00	 3.530635979884580e+00
 5.235579646330074e-01	 1.418210992943944e+00	 4.853771640609112e+00
 5.103618787061026e-01	 1.423013062888333e+00	 4.710917630486893e+00
 4.971493146277278e-01	 1.427682756139139e+00	 4.571733552116694e+00
 4.839221599740112e-01	 1.432220272503161e+00	 4.436157423905365e+00
 4.706822903302555e-01	 1.436625845722054e+00	 4.304166501595143e+00
 4.574315685778877e-01	 1.440899743006728e+00	 4.175772258416573e+00
 4.441718441991001e-01	 1.445042264555320e+00	 4.051015492991803e+00
 4.309049525995721e-01	 1.449053743055374e+00	 3.929961581431540e+00
 4.176327144496232e-01	 1.452934543170999e+00	 3.812695888748347e+00
 4.043569350441231e-01	 1.456685061015672e+00	 3.699319353394821e+00
 3.910794036814558e-01	 1.460305723611435e+00	 3.589944257378203e+00
 5.266135752368805e-01	 1.426488014479967e+00	 4.912550328990227e+00
 5.133404737684552e-01	 1.431318110463235e+00	 4.770042098541106e+00
 5.000507979780178e-01	 1.436015057170554e+00	 4.631049119100266e+00
 4.867464464580708e-01	 1.440579055574847e+00	 4.495534644417184e+00
 4.734293057403088e-01	 1.445010340781943e+00	 4.363501875040133e+00
 4.601012495784080e-01	 1.449309181562269e+00	 4.234988749618560e+00
 4.467641382486084e-01	 1.453475879865985e+00	 4.110062870202983e+00
 4.334198178684830e-01	 1.457510770322289e+00	 3.988816578466276e+00
 4.200701197342454e-01	 1.461414219723556e+00	 3.871362198431042e+00
 4.067168596769248e-01	 1.465186626495083e+00	 3.757827459905267e+00
 3.933618374377046e-01	 1.468828420151117e+00	 3.648351115437033e+00
 5.296691858408672e-01	 1.434765036015944e+00	 4.971400517304405e+00
 5.163190688308803e-01	 1.439623158038130e+00	 4.829247070343358e+00
 5.029522813283460e-01	 1.444347358201994e+00	 4.690395003753038e+00
 4.895707329421400e-01	 1.448937838646585e+00	 4.554844991831955e+00
 4.761763211503492e-01	 1.453394835841910e+00	 4.422638520314439e+00
 4.627709305788981e-01	 1.457718620117905e+00	 4.293852466239396e+00
 4.493564322980741e-01	 1.461909495176767e+00	 4.168593818376901e+00
 4.359346831373438e-01	 1.465967797589339e+00	 4.046994555674232e+00
 4.225075250188142e-01	 1.469893896276274e+00	 3.929206699780642e+00
 4.090767843096734e-01	 1.473688191974680e+00	 3.815397556292083e+00
 3.956442711939038e-01	 1.477351116691019e+00	 3.705745157909539e+00
 3.728199336237416e-01	 1.392124151307731e+00	 3.100299828656201e+00
 3.601623492207781e-01	 1.395452409428825e+00	 2.992337154153565e+00
 3.475064591668398e-01	 1.398657777487031e+00	 2.887109446044261e+00
 3.348539210785312e-01	 1.401740749553137e+00	 2.784777777094755e+00
 3.222063750930237e-01	 1.404701846974463e+00	 2.685507028370459e+00
 3.095654433703703e-01	 1.407541617803216e+00	 2.589463399381441e+00
 2.969327296151564e-01	 1.410260636216053e+00	 2.496812084765979e+00
 2.843098186175781e-01	 1.412859501925538e+00	 2.407715120529651e+00
 2.716982758140161e-01	 1.415338839584173e+00	 2.322329401921430e+00
 2.590996468671465e-01	 1.417699298181683e+00	 2.240804874127889e+00
 2.465154572656048e-01	 1.419941550436234e+00	 2.163282896100509e+00
 3.751023673821690e-01	 1.400646847843902e+00	 3.162517587336993e+00
 3.623672922246058e-01	 1.403995481830190e+00	 3.054976694342958e+00
 3.496339217890197e-01	 1.407220473410729e+00	 2.949953384005605e+00
 3.369039238400812e-01	 1.410322319681046e+00	 2.847648229304354e+00
 3.241789485560170e-01	 1.413301545180189e+00	 2.748265076538928e+00
 3.114606280278794e-01	 1.416158701315581e+00	 2.652008436460708e+00
 2.987505757782659e-01	 1.418894365779036e+00	 2.559081049819237e+00
 2.860503862995896e-01	 1.421509141954604e+00	 2.469681630415165e+00
 2.733616346119624e-01	 1.424003658318955e+00	 2.384002787781247e+00
 2.606858758407357e-01	 1.426378567834983e+00	 2.302229130689923e+00
 2.480246448137129e-01	 1.428634547339286e+00	 2.224535551768868e+00
 3.773848011401508e-01	 1.409169544380683e+00	 3.224707299916122e+00
 3.645722352280478e-01	 1.412538554232072e+00	 3.117511067638182e+00
 3.517613844108948e-01	 1.415783169334836e+00	 3.012658424776685e+00
 3.389539266014226e-01	 1.418903889809247e+00	 2.910382541553814e+00
 3.261515220189089e-01	 1.421901243386087e+00	 2.810919260288742e+00
 3.133558126853977e-01	 1.424775784828000e+00	 2.714504375732386e+00
 3.005684219414941e-01	 1.427528095341957e+00	 2.621371097727697e+00
 2.877909539818225e-01	 1.430158781983499e+00	 2.531747699350561e+00
 2.750249934102211e-01	 1.432668477053471e+00	 2.445855352684659e+00
 2.622721048147107e-01	 1.435057837487939e+00	 2.363906153424209e+00
 2.495338323622575e-01	 1.437327544241933e+00	 2.286101334552634e+00
 3.796672348977365e-01	 1.417692240918024e+00	 3.286734262213602e+00
 3.667771782311469e-01	 1.421081626634435e+00	 3.179813055203144e+00
 3.538888470324986e-01	 1.424345865259336e+00	 3.075103462843318e+00
 3.410039293625786e-01	 1.427485459937747e+00	 2.972864516107770e+00
 3.281240954817088e-01	 1.430500941592184e+00	 2.873357249039734e+00
 3.152509973429217e-01	 1.433392868340518e+00	 2.776841876370010e+00
 3.023862681048236e-01	 1.436161824904879e+00	 2.683575161416599e+00
 2.895315216642460e-01	 1.438808422012302e+00	 2.593807977465529e+00
 2.766883522087478e-01	 1.441333295787813e+00	 2.507783064814128e+00
 2.638583337890147e-01	 1.443737107140646e+00	 2.425732984645280e+00
 2.510430199111707e-01	 1.446020541144276e+00	 2.347878269946923e+00
 3.819496686549754e-01	 1.426214937455878e+00	 3.348467061479460e+00
 3.689821212339457e-01	 1.429624699037249e+00	 3.241758223701990e+00
 3.560163096538653e-01	 1.432908561184218e+00	 3.137169724422384e+00
 3.430539321235716e-01	 1.436067030066553e+00	 3.034979882276593e+00
 3.300966689444273e-01	 1.439100639798507e+00	 2.935468280552021e+00
 3.171461820004478e-01	 1.442009951853179e+00	 2.838912850045886e+00
 3.042041142682372e-01	 1.444795554467864e+00	 2.745587150196760e+00
 2.912720893468286e-01	 1.447458062041092e+00	 2.655757851744635e+00
 2.783517110074977e-01	 1.449998114522070e+00	 2.569682423100775e+00
 2.654445627635908e-01	 1.452416376793205e+00	 2.487607021573047e+00
 2.525522074603853e-01	 1.454713538046414e+00	 2.409764589595169e+00
 3.842321024119175e-01	 1.434737633994194e+00	 3.409777588365285e+00
 3.711870642364873e-01	 1.438167771440482e+00	 3.303224943598510e+00
 3.581437722750282e-01	 1.441471257109468e+00	 3.198740790829001e+00
 3.451039348844241e-01	 1.444648600195670e+00	 3.096616323683032e+00
 3.320692424070742e-01	 1.447700338005082e+00	 2.997143191036602e+00
 3.190413666579729e-01	 1.450627035366032e+00	 2.900610492927130e+00
 3.060219604317175e-01	 1.453429284030977e+00	 2.807301982794886e+00
 2.930126570295394e-01	 1.456107702069947e+00	 2.717493479341544e+00
 2.800150698064265e-01	 1.458662933256330e+00	 2.631450490178832e+00
 2.670307917383822e-01	 1.461095646445711e+00	 2.549426048374080e+00
 2.540613950098334e-01	 1.463406534948448e+00	 2.471658761976346e+00
 3.865145361686117e-01	 1.443260330532925e+00	 3.470541049390782e+00
 3.733920072388143e-01	 1.446710843844101e+00	 3.364094407669834e+00
 3.602712348960211e-01	 1.450033953035072e+00	 3.259702621812083e+00
 3.471539376451588e-01	 1.453230170325105e+00	 3.157663505307220e+00
 3.340418158696596e-01	 1.456300036211934e+00	 3.058274444885749e+00
 3.209365513154934e-01	 1.459244118879119e+00	 2.961829317173893e+00
 3.078398065952469e-01	 1.462063013594280e+00	 2.868615619799549e+00
 2.947532247123467e-01	 1.464757342098945e+00	 2.778911820252756e+00
 2.816784286054896e-01	 1.467327751990686e+00	 2.692984924658459e+00
 2.686170207133323e-01	 1.469774916098262e+00	 2.611088267516043e+00
 2.555705825594477e-01	 1.472099531850478e+00	 2.533459522407900e+00
 3.887969699251081e-01	 1.451783027072022e+00	 3.530635979884580e+00
 3.755969502409698e-01	 1.455253916248075e+00	 3.424250649717802e+00
 3.623986975168776e-01	 1.458596648961016e+00	 3.319943578865584e+00
 3.492039404057984e-01	 1.461811740454865e+00	 3.218013100316139e+00
 3.360143893321938e-01	 1.464899734419093e+00	 3.118756164041952e+00
 3.228317359730058e-01	 1.467861202392487e+00	 3.022465181961927e+00
 3.096576527588085e-01	 1.470696743157837e+00	 2.929425095546647e+00
 2.964937923952194e-01	 1.473406982128165e+00	 2.839910669371335e+00
 2.833417874046426e-01	 1.475992570725226e+00	 2.754184012752145e+00
 2.702032496883841e-01	 1.478454185750956e+00	 2.672492330457493e+00
 2.570797701091607e-01	 1.480792528752603e+00	 2.595065902391543e+00
 3.910794036814558e-01	 1.460305723611435e+00	 3.589944257378203e+00
 3.778018932429966e-01	 1.463796988652372e+00	 3.483580563475591e+00
 3.645261601376318e-01	 1.467159344887289e+00	 3.379354448513678e+00
 3.512539431663655e-01	 1.470393310584955e+00	 3.277558816689057e+00
 3.379869627946864e-01	 1.473499432626582e+00	 3.178484157018173e+00
 3.247269206305067e-01	 1.476478285906183e+00	 3.082415324046569e+00
 3.114754989223844e-01	 1.479330472721710e+00	 2.989628549466453e+00
 2.982343600781267e-01	 1.482056622157686e+00	 2.900388687948391e+00
 2.850051462038407e-01	 1.484657389460041e+00	 2.814946699276192e+00
 2.717894786634808e-01	 1.487133455403891e+00	 2.733537367704650e+00
 2.585889576589047e-01	 1.489485525654923e+00	 2.656377258330803e+00
 3.933618374377046e-01	 1.468828420151117e+00	 3.648351115437033e+00
 3.800068362449374e-01	 1.472340061056958e+00	 3.541973921698466e+00
 3.666536227583171e-01	 1.475722040813875e+00	 3.437828465571119e+00
 3.533039459268826e-01	 1.478974880715383e+00	 3.336196423647630e+00
 3.399595362571478e-01	 1.482099130834428e+00	 3.237355947587183e+00
 3.266221052879927e-01	 1.485095369420250e+00	 3.141578387887210e+00
 3.132933450859577e-01	 1.487964202285965e+00	 3.049125256915245e+00
 2.999749277610369e-01	 1.490706262187585e+00	 2.960245434490925e+00
 2.866685050030396e-01	 1.493322208195222e+00	 2.875172618055263e+00
 2.733757076385657e-01	 1.495812725057163e+00	 2.794123018259802e+00
 2.600981452086121e-01	 1.498178522557537e+00	 2.717293299642770e+00
 3.956442711939038e-01	 1.477351116691019e+00	 3.705745157909539e+00
 3.822117792468353e-01	 1.480883133461804e+00	 3.599323395431395e+00
 3.687810853789673e-01	 1.484284736740762e+00	 3.495261336379645e+00
 3.553539486873725e-01	 1.487556450846154e+00	 3.393823777896997e+00
 3.419321097195881e-01	 1.490698829042657e+00	 3.295270803148619e+00
 3.285172899454604e-01	 1.493712452934736e+00	 3.199854455352464e+00
 3.151111912495110e-01	 1.496597931850662e+00	 3.107815659510949e+00
 3.017154954439191e-01	 1.499355902217940e+00	 3.019381395109114e+00
 2.883318638021947e-01	 1.501987026930858e+00	 2.934762121753885e+00
 2.749619366135821e-01	 1.504491994710871e+00	 2.854149458484713e+00
 2.616073327582157e-01	 1.506871519460547e+00	 2.777714116292985e+00
 2.465154572656048e-01	 1.419941550436234e+00	 2.163282896100516e+00
 2.339450772057051e-01	 1.422066643280715e+00	 2.089274203523998e+00
 2.213921349108230e-01	 1.424074903295569e+00	 2.018393133643424e+00
 2.088580971103485e-01	 1.425967070022836e+00	 1.950880341152960e+00
 1.963444088697830e-01	 1.427743904280846e+00	 1.886961995403073e+00
 1.838524932871508e-01	 1.429406187533840e+00	 1.826848938309723e+00
 1.713837512086717e-01	 1.430954721259390e+00	 1.770736003200924e+00
 1.589395609635559e-01	 1.432390326314207e+00	 1.718801490008408e+00
 1.465212781177617e-01	 1.433713842298944e+00	 1.671206791680832e+00
 1.341302352465411e-01	 1.434926126922566e+00	 1.628096166218846e+00
 1.217677417255753e-01	 1.436028055366862e+00	 1.589596648313506e+00
 2.480246448137129e-01	 1.428634547339286e+00	 2.224535551768868e+00
 2.353773078715000e-01	 1.430772650174154e+00	 2.150454458126805e+00
 2.227475154497405e-01	 1.432793204919373e+00	 2.079590172732650e+00
 2.101367432572491e-01	 1.434696955644506e+00	 2.012167711261775e+00
 1.975464452063245e-01	 1.436484667825658e+00	 1.948396684914178e+00
 1.849780531073011e-01	 1.438157127711246e+00	 1.888470465769134e+00
 1.724329763824818e-01	 1.439715141685539e+00	 1.832565518619289e+00
 1.599126017993094e-01	 1.441159535630586e+00	 1.780840894460653e+00
 1.474182932226162e-01	 1.442491154287129e+00	 1.733437880270003e+00
 1.349513913857771e-01	 1.443710860615085e+00	 1.690479799217987e+00
 1.225132136805673e-01	 1.444819535154164e+00	 1.652071955025046e+00
 2.495338323622575e-01	 1.437327544241933e+00	 2.286101334552634e+00
 2.368095385377553e-01	 1.439478657067154e+00	 2.211988117600049e+00
 2.241028959891169e-01	 1.441511506542723e+00	 2.141161002213569e+00
 2.114153894045854e-01	 1.443426841265723e+00	 2.073832699814417e+00
 1.987484815432586e-01	 1.445225431370035e+00	 2.010199512465733e+00
 1.861036129277844e-01	 1.446908067888245e+00	 1.950440502903199e+00
 1.734822015565518e-01	 1.448475562111318e+00	 1.894716836885619e+00
 1.608856426352384e-01	 1.449928744946638e+00	 1.843171292802807e+00
 1.483153083275534e-01	 1.451268466275035e+00	 1.795927932928338e+00
 1.357725475249974e-01	 1.452495594307371e+00	 1.753091930193789e+00
 1.232586856354421e-01	 1.453611014941279e+00	 1.714749543921574e+00
 2.510430199111707e-01	 1.446020541144276e+00	 2.347878269946923e+00
 2.382417692043942e-01	 1.448184663959809e+00	 2.273774601476183e+00
 2.254582765288696e-01	 1.450229808165704e+00	 2.203007216711179e+00
 2.126940355522703e-01	 1.452156726886562e+00	 2.135779811081668e+00
 1.999505178804973e-01	 1.453966194914036e+00	 2.072278578986909e+00
 1.872291727485147e-01	 1.455659008064883e+00	 2.012671385774331e+00
 1.745314267308005e-01	 1.457235982536756e+00	 1.957107118180488e+00
 1.618586834712703e-01	 1.458697954262377e+00	 1.905715207929220e+00
 1.492123234325130e-01	 1.460045778262658e+00	 1.858605322614519e+00
 1.365937036641581e-01	 1.461280327999410e+00	 1.815867217479976e+00
 1.240041575901763e-01	 1.462402494728179e+00	 1.777570741236105e+00
 2.525522074603853e-01	 1.454713538046414e+00	 2.409764589595169e+00
 2.396739998713409e-01	 1.456890670852216e+00	 2.335713402181762e+00
 2.268136570689155e-01	 1.458948109788406e+00	 2.265030357531472e+00
 2.139726817002172e-01	 1.460886612507100e+00	 2.197913378258018e+00
 2.011525542179526e-01	 1.462706958457724e+00	 2.134541706407405e+00
 1.883547325694058e-01	 1.464409948241202e+00	 2.075075074701807e+00
 1.755806519051467e-01	 1.465996402961881e+00	 2.019653062688385e+00
 1.628317243073325e-01	 1.467467163577811e+00	 1.968394632245348e+00
 1.501093385374348e-01	 1.468823090249994e+00	 1.921397836307050e+00
 1.374148598032152e-01	 1.470065061691183e+00	 1.878739694136885e+00
 1.247496295447467e-01	 1.471193974514840e+00	 1.840476225999411e+00
 2.540613950098334e-01	 1.463406534948448e+00	 2.471658761976346e+00
 2.411062305385188e-01	 1.465596677744473e+00	 2.397704114273268e+00
 2.281690376091720e-01	 1.467666411410917e+00	 2.327131940605001e+00
 2.152513278483389e-01	 1.469616498127414e+00	 2.260137590234432e+00
 2.023545905555364e-01	 1.471447722001160e+00	 2.196896463347532e+00
 1.894802923903711e-01	 1.473160888417249e+00	 2.137563178917234e+00
 1.766298770795092e-01	 1.474756823386719e+00	 2.082270934225870e+00
 1.638047651433523e-01	 1.476236372892955e+00	 2.031131050246895e+00
 1.510063536422585e-01	 1.477600402237040e+00	 1.984232696467824e+00
 1.382360159421248e-01	 1.478849795382675e+00	 1.941642788203465e+00
 1.254951014991298e-01	 1.479985454301237e+00	 1.903406048946888e+00
 2.555705825594477e-01	 1.472099531850478e+00	 2.533459522407900e+00
 2.425384612058516e-01	 1.474302684636676e+00	 2.459646462997776e+00
 2.295244181495562e-01	 1.476384713033325e+00	 2.389213483763541e+00
 2.165299739965491e-01	 1.478346383747577e+00	 2.322356517713160e+00
 2.035566268931606e-01	 1.480188485544405e+00	 2.259250190152287e+00
 1.906058522113247e-01	 1.481911828593068e+00	 2.200046980566571e+00
 1.776791022538068e-01	 1.483517243811300e+00	 2.144876583228069e+00
 1.647778059792572e-01	 1.485005582207817e+00	 2.093845460463013e+00
 1.519033687469240e-01	 1.486377714223790e+00	 2.047036581885932e+00
 1.390571720808430e-01	 1.487634529073867e+00	 2.004509342349692e+00
 1.262405734533023e-01	 1.488776934087341e+00	 1.966299650850282e+00
 2.570797701091607e-01	 1.480792528752603e+00	 2.595065902391536e+00
 2.439706918732630e-01	 1.483008691528920e+00	 2.521440332208613e+00
 2.308797986899852e-01	 1.485103014655718e+00	 2.451176533378566e+00
 2.178086201447604e-01	 1.487076269367669e+00	 2.384474138686749e+00
 2.047586632307373e-01	 1.488929249087520e+00	 2.321510023296123e+00
 1.917314120321801e-01	 1.490662768768704e+00	 2.262437458089680e+00
 1.787283274279582e-01	 1.492277664235650e+00	 2.207385469113289e+00
 1.657508468149745e-01	 1.493774791522410e+00	 2.156458396790410e+00
 1.528003838513708e-01	 1.495155026210242e+00	 2.109735647928280e+00
 1.398783282193259e-01	 1.496419262764743e+00	 2.067271632953118e+00
 1.269860454072408e-01	 1.497568413873128e+00	 2.029095880302203e+00
 2.585889576589047e-01	 1.489485525654923e+00	 2.656377258330803e+00
 2.454029225406767e-01	 1.491714698421302e+00	 2.582985791661569e+00
 2.322351792303761e-01	 1.493821316278184e+00	 2.512922690388015e+00
 2.190872662928865e-01	 1.495806154987764e+00	 2.446394363310901e+00
 2.059606995681781e-01	 1.497670012630567e+00	 2.383582919184978e+00
 1.928569718528511e-01	 1.499413708944202e+00	 2.324645308999879e+00
 1.797775526018825e-01	 1.501038084659796e+00	 2.269712682057925e+00
 1.667238876504317e-01	 1.502544000836743e+00	 2.218889949245723e+00
 1.536973989555389e-01	 1.503932338196390e+00	 2.172255546217100e+00
 1.406994843575295e-01	 1.505203996455287e+00	 2.129861388621985e+00
 1.277315173609220e-01	 1.506359893658572e+00	 2.091733010969759e+00
 2.600981452086121e-01	 1.498178522557537e+00	 2.717293299642770e+00
 2.468351532080165e-01	 1.500420705313920e+00	 2.644183123717815e+00
 2.335905597706462e-01	 1.502539617900812e+00	 2.574353635734438e+00
 2.203659124408400e-01	 1.504536040607938e+00	 2.508021058194317e+00
 2.071627359053952e-01	 1.506410776173607e+00	 2.445375677378408e+00
 1.939825316732516e-01	 1.508164649119607e+00	 2.386580972088524e+00
 1.808267777754982e-01	 1.509798505083768e+00	 2.331772964202415e+00
 1.676969284855562e-01	 1.511313210150828e+00	 2.281059784154894e+00
 1.545944140593678e-01	 1.512709650182231e+00	 2.234521443760914e+00
 1.415206404954100e-01	 1.513988730145483e+00	 2.192209808190428e+00
 1.284769893143224e-01	 1.515151373443647e+00	 2.154148758344160e+00
 2.616073327582157e-01	 1.506871519460547e+00	 2.777714116292986e+00
 2.482673838752059e-01	 1.509126712206869e+00	 2.704932849474597e+00
 2.349459403107126e-01	 1.511257919523690e+00	 2.635371155239411e+00
 2.216445585885345e-01	 1.513265926228268e+00	 2.569258070127898e+00
 2.083647722423004e-01	 1.515151539716700e+00	 2.506794963256101e+00
 1.951080914932949e-01	 1.516915589294963e+00	 2.448154649078639e+00
 1.818760029487244e-01	 1.518558925507594e+00	 2.393480730308507e+00
 1.686699693202753e-01	 1.520082419464677e+00	 2.342887163808159e+00
 1.554914291627973e-01	 1.521486962167761e+00	 2.296458041561543e+00
 1.423417966329233e-01	 1.522773463835312e+00	 2.254247578202958e+00
 1.292224612674189e-01	 1.523942853228325e+00	 2.216280296003592e+00
 1.217677417255753e-01	 1.436028055366862e+00	 1.589596648313513e+00
 1.094371724198060e-01	 1.437020360159012e+00	 1.554979622722223e+00
 9.713766133773548e-02	 1.437904145495773e+00	 1.523556124536803e+00
 8.487041851234521e-02	 1.438680334414162e+00	 1.495505434732023e+00
 7.263663090477897e-02	 1.439349864871708e+00	 1.470990153580450e+00
 6.043746228117610e-02	 1.439913689129008e+00	 1.450156708036328e+00
 4.827405310600610e-02	 1.440372773135193e+00	 1.433135955950843e+00
 3.614752045162955e-02	 1.440728095916790e+00	 1.420043879424441e+00
 2.405895792380075e-02	 1.440980648970397e+00	 1.410982359548476e+00
 1.200943560281591e-02	 1.441131435659619e+00	 1.406040024773112e+00
 0.000000000000000e+00	 1.441181470616666e+00	 1.405293165442213e+00
 1.225132136805673e-01	 1.444819535154164e+00	 1.652071955025046e+00
 1.101071556331183e-01	 1.445817914916131e+00	 1.617473051815630e+00
 9.773234595027336e-02	 1.446707110857748e+00	 1.586015110002863e+00
 8.539000207294824e-02	 1.447488051666967e+00	 1.557904625982196e+00
 7.308131822897321e-02	 1.448161681043600e+00	 1.533330148730685e+00
 6.080746530917232e-02	 1.448728957078083e+00	 1.512462790963361e+00
 4.856959076004481e-02	 1.449190851633198e+00	 1.495456841895269e+00
 3.636881849277245e-02	 1.449548349729178e+00	 1.482450473626582e+00
 2.420624880826609e-02	 1.449802448932670e+00	 1.473566533110447e+00
 1.208295833795353e-02	 1.449954158749978e+00	 1.468913411637617e+00
 0.000000000000000e+00	 1.450004500024999e+00	 1.468585984083710e+00
 1.232586856354421e-01	 1.453611014941279e+00	 1.714749543921566e+00
 1.107771388462124e-01	 1.454615469673103e+00	 1.680149437387605e+00
 9.832703056249870e-02	 1.455510076219609e+00	 1.648642795941313e+00
 8.590958563315816e-02	 1.456295768919688e+00	 1.620459255710543e+00
 7.352600555271452e-02	 1.456973497215430e+00	 1.595809229977239e+00
 6.117746833668336e-02	 1.457544225027118e+00	 1.574884429281660e+00
 4.886512841360040e-02	 1.458008930131178e+00	 1.557858487873524e+00
 3.659011653347526e-02	 1.458368603541552e+00	 1.544887688229329e+00
 2.435353969238192e-02	 1.458624248894937e+00	 1.536111775283443e+00
 1.215648107288622e-02	 1.458776881840336e+00	 1.531654852004012e+00
 0.000000000000000e+00	 1.458827529433332e+00	 1.531626348253138e+00
 1.240041575901763e-01	 1.462402494728179e+00	 1.777570741236105e+00
 1.114471220590894e-01	 1.463413024429894e+00	 1.742957112051435e+00
 9.892171517443898e-02	 1.464313041581324e+00	 1.711394896093280e+00
 8.642916919302808e-02	 1.465103486172293e+00	 1.683132855818571e+00
 7.397069287607830e-02	 1.465785313387171e+00	 1.658399244852571e+00
 6.154747136380100e-02	 1.466359492976088e+00	 1.637402342225667e+00
 4.916066606677269e-02	 1.466827008629116e+00	 1.620331097669891e+00
 3.681141457383508e-02	 1.467188857353902e+00	 1.607355879375472e+00
 2.450083057622936e-02	 1.467446048857193e+00	 1.598629315543092e+00
 1.223000380766352e-02	 1.467599604930691e+00	 1.594287221048518e+00
 0.000000000000000e+00	 1.467650558841666e+00	 1.594449600830884e+00
 1.247496295447467e-01	 1.471193974514840e+00	 1.840476225999411e+00
 1.121171052717505e-01	 1.472210579186476e+00	 1.805843757525773e+00
 9.951639978612176e-02	 1.473116006942859e+00	 1.774226486804055e+00
 8.694875275261116e-02	 1.473911203424750e+00	 1.745888349761033e+00
 7.441538019913987e-02	 1.474597129558798e+00	 1.721071475099580e+00
 6.191747439061700e-02	 1.475174760924974e+00	 1.699996737862985e+00
 4.945620371966154e-02	 1.475645087126997e+00	 1.682864428740428e+00
 3.703271261394902e-02	 1.476009111166218e+00	 1.669855030190310e+00
 2.464812145988957e-02	 1.476267848819432e+00	 1.661130090391479e+00
 1.230352654233498e-02	 1.476422328021041e+00	 1.656833186006757e+00
 0.000000000000000e+00	 1.476473588250000e+00	 1.657090965047221e+00
 1.254951014991298e-01	 1.479985454301237e+00	 1.903406048946881e+00
 1.127870884841970e-01	 1.481008133942816e+00	 1.868756422034337e+00
 1.001110843975746e-01	 1.481918972304183e+00	 1.837092022781144e+00
 8.746833631196044e-02	 1.482718920677030e+00	 1.808688066578770e+00
 7.486006752197466e-02	 1.483408945730283e+00	 1.783796648944489e+00
 6.228747741722318e-02	 1.483990028873754e+00	 1.762647323614410e+00
 4.975174137236683e-02	 1.484463165624805e+00	 1.745447801040477e+00
 3.725401065391418e-02	 1.484829364978490e+00	 1.732384758023655e+00
 2.479541234344365e-02	 1.485089648781651e+00	 1.723624749157457e+00
 1.237704927695015e-02	 1.485245051111386e+00	 1.719315210730945e+00
 0.000000000000000e+00	 1.485296617658333e+00	 1.719585548036985e+00
 1.262405734533023e-01	 1.488776934087341e+00	 1.966299650850282e+00
 1.134570716964298e-01	 1.489805688698884e+00	 1.931641537165604e+00
 1.007057690088250e-01	 1.490721937665264e+00	 1.899945352355224e+00
 8.798791987112910e-02	 1.491526637929102e+00	 1.871493754482904e+00
 7.530475484465803e-02	 1.492220761901599e+00	 1.846544952966744e+00
 6.265748044371126e-02	 1.492805296822406e+00	 1.825333316424794e+00
 5.004727902498833e-02	 1.493281244122523e+00	 1.808070105554311e+00
 3.747530869382763e-02	 1.493649618790708e+00	 1.794944321437703e+00
 2.494270322697275e-02	 1.493911448743844e+00	 1.786123659594602e+00
 1.245057201155858e-02	 1.494067774201724e+00	 1.781755560086620e+00
 0.000000000000000e+00	 1.494119647066666e+00	 1.781968344266434e+00
 1.269860454072408e-01	 1.497568413873128e+00	 2.029095880302203e+00
 1.141270549084503e-01	 1.498603243454648e+00	 1.994444934216493e+00
 1.013004536199004e-01	 1.499524903026068e+00	 1.962739732264767e+00
 8.850750343017022e-02	 1.500334355180935e+00	 1.934266594001515e+00
 7.574944216726533e-02	 1.501032578072720e+00	 1.909286043583795e+00
 6.302748347017310e-02	 1.501620564770908e+00	 1.888033452599028e+00
 5.034281667762593e-02	 1.502099322620138e+00	 1.870719812539429e+00
 3.769660673378654e-02	 1.502469872602863e+00	 1.857532626960576e+00
 2.508999411055800e-02	 1.502733248706007e+00	 1.848636913285715e+00
 1.252409474620982e-02	 1.502890497292054e+00	 1.844176304194739e+00
 0.000000000000000e+00	 1.502942676475000e+00	 1.844274238841185e+00
 1.277315173609220e-01	 1.506359893658572e+00	 2.091733010969767e+00
 1.147970381202595e-01	 1.507400798210079e+00	 2.057111860039128e+00
 1.018951382308284e-01	 1.508327868386564e+00	 2.025427841981813e+00
 8.902708698913693e-02	 1.509142072432499e+00	 1.996967210717726e+00
 7.619412948987196e-02	 1.509844394243618e+00	 1.971989058169539e+00
 6.339748649670046e-02	 1.510435832719239e+00	 1.950725997316174e+00
 5.063835433037947e-02	 1.510917401117631e+00	 1.933384979494003e+00
 3.791790477388794e-02	 1.511290126414943e+00	 1.920148235610626e+00
 2.523728499428053e-02	 1.511555048668135e+00	 1.911174330862682e+00
 1.259761748095341e-02	 1.511713220382374e+00	 1.906599322527561e+00
 0.000000000000000e+00	 1.511765705883333e+00	 1.906538010697008e+00
 1.284769893143224e-01	 1.515151373443647e+00	 2.154148758344160e+00
 1.154670213318587e-01	 1.516198352965144e+00	 2.119586992413556e+00
 1.024898228416366e-01	 1.517130833746721e+00	 2.087961797598730e+00
 8.954667054808234e-02	 1.517949789683762e+00	 2.059555687604489e+00
 7.663881681255330e-02	 1.518656210414267e+00	 2.034622625815072e+00
 6.376748952338508e-02	 1.519251100667377e+00	 2.013388753835081e+00
 5.093389198334878e-02	 1.519735479614989e+00	 1.996053258866058e+00
 3.813920281422896e-02	 1.520110380226940e+00	 1.982789369201056e+00
 2.538457587822146e-02	 1.520376848630222e+00	 1.973745467047089e+00
 1.267114021583890e-02	 1.520535943472684e+00	 1.969046307859887e+00
 0.000000000000000e+00	 1.520588735291667e+00	 1.968794335680414e+00
 1.292224612674189e-01	 1.523942853228325e+00	 2.216280296003592e+00
 1.161370045432490e-01	 1.524995907719813e+00	 2.181814454962813e+00
 1.030845074523524e-01	 1.525933799106504e+00	 2.150293165294052e+00
 9.006625410705957e-02	 1.526757506934695e+00	 2.121991576980462e+00
 7.708350413538470e-02	 1.527468026584641e+00	 2.097154877754114e+00
 6.413749255031878e-02	 1.528066368615300e+00	 2.075999072405281e+00
 5.122942963663374e-02	 1.528553558112195e+00	 2.058711905505592e+00
 3.836050085490671e-02	 1.528930634038844e+00	 2.045453916434729e+00
 2.553186676246194e-02	 1.529198648592264e+00	 2.036359615519180e+00
 1.274466295091584e-02	 1.529358666562981e+00	 2.031538770087514e+00
 0.000000000000000e+00	 1.529411764700000e+00	 2.031077789522304e+00
 1.529411764700000e+00	 0.000000000000000e+00	 1.520174892495969e+01
 1.529358666562982e+00	 1.274466295091500e-02	 1.519951755138362e+01
 1.529198648592264e+00	 2.553186676246121e-02	 1.519795825417917e+01
 1.528930634038844e+00	 3.836050085490612e-02	 1.519693391811000e+01
 1.528553558112195e+00	 5.122942963663325e-02	 1.519632548364872e+01
 1.528066368615300e+00	 6.413749255031843e-02	 1.519603302717834e+01
 1.527468026584641e+00	 7.708350413538451e-02	 1.519597680034709e+01
 1.526757506934695e+00	 9.006625410705946e-02	 1.519609822497626e+01
 1.525933799106504e+00	 1.030845074523524e-01	 1.519636083967534e+01
 1.524995907719813e+00	 1.161370045432491e-01	 1.519675119420020e+01
 1.523942853228325e+00	 1.292224612674189e-01	 1.519727968746771e+01
 1.538234794108333e+00	 0.000000000000000e+00	 1.511257914322876e+01
 1.538181389653267e+00	 1.281818568621664e-02	 1.511016678601704e+01
 1.538020448554259e+00	 2.567915764705614e-02	 1.510852227114338e+01
 1.537750887850649e+00	 3.858179889598697e-02	 1.510749922077040e+01
 1.537371636609242e+00	 5.152496729030299e-02	 1.510697001268420e+01
 1.536881636562999e+00	 6.450749557756599e-02	 1.510682688276223e+01
 1.536279842754725e+00	 7.752819145842066e-02	 1.510698298630571e+01
 1.535565224185284e+00	 9.058583766610895e-02	 1.510737341464403e+01
 1.534736764465901e+00	 1.036791920629995e-01	 1.510795616317056e+01
 1.533793462474074e+00	 1.168069877544365e-01	 1.510871304684914e+01
 1.532734333012602e+00	 1.299679332201999e-01	 1.510965055910130e+01
 1.547057823516667e+00	 0.000000000000000e+00	 1.502586843121625e+01
 1.547004112743540e+00	 1.289170842171107e-02	 1.502327080229276e+01
 1.546842248516213e+00	 2.582644853195545e-02	 1.502153217177837e+01
 1.546571141662372e+00	 3.880309693741444e-02	 1.502049745754460e+01
 1.546189715106154e+00	 5.182050494430411e-02	 1.502003101035802e+01
 1.545696904510509e+00	 6.487749860508427e-02	 1.502001773693578e+01
 1.545091658924568e+00	 7.797287878163378e-02	 1.502036418161198e+01
 1.544372941435584e+00	 9.110542122522094e-02	 1.502099956303556e+01
 1.543539729824974e+00	 1.042738766735866e-01	 1.502187676207290e+01
 1.542591017227994e+00	 1.174769709654459e-01	 1.502297325696312e+01
 1.541525812796541e+00	 1.307134051727029e-01	 1.502429200164115e+01
 1.555880852925000e+00	 0.000000000000000e+00	 1.494150356019932e+01
 1.555826835833806e+00	 1.296523115735006e-02	 1.493872582062886e+01
 1.555664048478137e+00	 2.597373941708294e-02	 1.493689281719712e+01
 1.555391395474032e+00	 3.902439497910137e-02	 1.493584131790809e+01
 1.555007793602967e+00	 5.211604259855248e-02	 1.493542817814748e+01
 1.554512172457877e+00	 6.524750163280306e-02	 1.493553148262689e+01
 1.553903475094228e+00	 7.841756610497526e-02	 1.493605164572059e+01
 1.553180658685667e+00	 9.162500478437288e-02	 1.493691246663689e+01
 1.552342695183805e+00	 1.048685612841183e-01	 1.493806213561752e+01
 1.551388571981657e+00	 1.181469541763072e-01	 1.493947418722884e+01
 1.550317292580228e+00	 1.314588771249771e-01	 1.494114839667261e+01
 1.564703882333334e+00	 0.000000000000000e+00	 1.485937219550120e+01
 1.564649558924067e+00	 1.303875389308542e-02	 1.485642862456362e+01
 1.564485848440042e+00	 2.612103030236232e-02	 1.485450932601063e+01
 1.564211649285652e+00	 3.924569302096055e-02	 1.485344346894911e+01
 1.563825872099711e+00	 5.241158025296400e-02	 1.485308094140145e+01
 1.563327440405151e+00	 6.561750466065225e-02	 1.485329350941611e+01
 1.562715291263768e+00	 7.886225342839656e-02	 1.485397593439167e+01
 1.561988375935605e+00	 9.214458834354233e-02	 1.485504704508269e+01
 1.561145660542473e+00	 1.054632458945994e-01	 1.485645076050876e+01
 1.560186126735150e+00	 1.188169373870501e-01	 1.485815705985504e+01
 1.559108772363745e+00	 1.322043490770718e-01	 1.486016289530916e+01
 1.573526911741667e+00	 0.000000000000000e+00	 1.477936287142608e+01
 1.573472282014323e+00	 1.311227662886893e-02	 1.477627654250542e+01
 1.573307648401937e+00	 2.626832118771735e-02	 1.477428706256753e+01
 1.573031903097250e+00	 3.946699106290481e-02	 1.477321654976914e+01
 1.572643950596423e+00	 5.270711790745457e-02	 1.477290844956740e+01
 1.572142708352377e+00	 6.598750768856169e-02	 1.477322870925244e+01
 1.571527107433246e+00	 7.930694075184921e-02	 1.477406691055285e+01
 1.570796093185471e+00	 9.266417190270682e-02	 1.477533735681725e+01
 1.569948625901061e+00	 1.060579305050347e-01	 1.477698011102925e+01
 1.568983681488556e+00	 1.194869205977046e-01	 1.477896198077340e+01
 1.567900252147179e+00	 1.329498210290364e-01	 1.478127744612464e+01
 1.582349941150001e+00	 0.000000000000000e+00	 1.470136496703253e+01
 1.582295005104582e+00	 1.318579936465236e-02	 1.469816743009565e+01
 1.582129448363831e+00	 2.641561207307176e-02	 1.469613162559786e+01
 1.581852156908849e+00	 3.968828910484695e-02	 1.469507316609424e+01
 1.581462029093134e+00	 5.300265556194007e-02	 1.469482957645371e+01
 1.580957976299604e+00	 6.635751071646118e-02	 1.469526148204493e+01
 1.580338923602726e+00	 7.975162807528464e-02	 1.469625375489443e+01
 1.579603810435338e+00	 9.318375546184382e-02	 1.469771661436443e+01
 1.578751591259648e+00	 1.066526151154288e-01	 1.469958667864992e+01
 1.577781236241964e+00	 1.201569038083003e-01	 1.470182796325073e+01
 1.576691731930612e+00	 1.336952929809201e-01	 1.470443282242437e+01
 1.591172970558334e+00	 0.000000000000000e+00	 1.462526868271290e+01
 1.591117728194842e+00	 1.325932210038751e-02	 1.462199965316152e+01
 1.590951248325736e+00	 2.656290295834931e-02	 1.461994883724556e+01
 1.590672410720468e+00	 3.990958714669979e-02	 1.461892588508985e+01
 1.590280107589879e+00	 5.329819321633645e-02	 1.461876292052576e+01
 1.589773244246877e+00	 6.672751374428061e-02	 1.461931574113522e+01
 1.589150739772265e+00	 8.019631539865428e-02	 1.462046497620943e+01
 1.588411527685275e+00	 9.370333902093092e-02	 1.462211719922134e+01
 1.587554556618317e+00	 1.072472997257866e-01	 1.462420599116049e+01
 1.586578790995455e+00	 1.208268870188671e-01	 1.462669295093407e+01
 1.585483211714131e+00	 1.344407649327723e-01	 1.462956864888016e+01
 1.599995999966668e+00	 0.000000000000000e+00	 1.455096501754763e+01
 1.599940451285107e+00	 1.333284483602616e-02	 1.454767207123456e+01
 1.599773048287660e+00	 2.671019384347373e-02	 1.454564473247365e+01
 1.599492664532128e+00	 4.013088518837613e-02	 1.454468723037088e+01
 1.599098186086692e+00	 5.359373087055953e-02	 1.454462680523459e+01
 1.598588512194245e+00	 6.709751677194979e-02	 1.454531491865527e+01
 1.597962555941925e+00	 8.064100272190966e-02	 1.454662842148724e+01
 1.597219244935359e+00	 9.422292257994562e-02	 1.454847067639045e+01
 1.596357521977147e+00	 1.078419843361127e-01	 1.455077263133856e+01
 1.595376345749119e+00	 1.214968702294347e-01	 1.455349384035236e+01
 1.594274691497817e+00	 1.351862368846424e-01	 1.455662342755346e+01
 1.608819029375000e+00	 0.000000000000000e+00	 1.447834574740475e+01
 1.608763174375381e+00	 1.340636757152011e-02	 1.447508402161544e+01
 1.608594848249615e+00	 2.685748472836876e-02	 1.447312554882915e+01
 1.608312918343851e+00	 4.035218322978882e-02	 1.447226967719936e+01
 1.607916264583604e+00	 5.388926852452527e-02	 1.447233927937685e+01
 1.607403780141754e+00	 6.746751979939858e-02	 1.447318197077488e+01
 1.606774372111768e+00	 8.108569004500223e-02	 1.447467128577023e+01
 1.606026962185658e+00	 9.474250613886548e-02	 1.447670780856375e+01
 1.605160487336220e+00	 1.084366689464120e-01	 1.447922025517550e+01
 1.604173900503039e+00	 1.221668534400330e-01	 1.448216650289368e+01
 1.603066171281756e+00	 1.359317088365797e-01	 1.448553456333167e+01
 1.617642058783334e+00	 0.000000000000000e+00	 1.440730340375602e+01
 1.617585897465666e+00	 1.347989030682115e-02	 1.440413530396146e+01
 1.617416648211609e+00	 2.700477561295814e-02	 1.440229771655278e+01
 1.617133172155657e+00	 4.057348127085064e-02	 1.440158564786284e+01
 1.616734343080650e+00	 5.418480617814950e-02	 1.440181811748481e+01
 1.616219048089453e+00	 6.783752282655682e-02	 1.440283938284349e+01
 1.615586188281852e+00	 8.153037736788341e-02	 1.440452012178316e+01
 1.614834679436247e+00	 9.526208969766795e-02	 1.440675856997272e+01
 1.613963452695617e+00	 1.090313535566891e-01	 1.440948160967590e+01
 1.612971455257299e+00	 1.228368366506917e-01	 1.441264580627956e+01
 1.611857651066033e+00	 1.366771807886334e-01	 1.441623838879807e+01
 1.523942853228325e+00	 1.292224612674189e-01	 1.519727968746770e+01
 1.522773463835312e+00	 1.423417966329227e-01	 1.519754092022759e+01
 1.521486962167761e+00	 1.554914291627968e-01	 1.519709322597425e+01
 1.520082419464678e+00	 1.686699693202748e-01	 1.519592908155531e+01
 1.518558925507593e+00	 1.818760029487239e-01	 1.519406518922902e+01
 1.516915589294964e+00	 1.951080914932945e-01	 1.519154301296713e+01
 1.515151539716700e+00	 2.083647722423001e-01	 1.518842923488674e+01
 1.513265926228268e+00	 2.216445585885343e-01	 1.518481612678234e+01
 1.511257919523691e+00	 2.349459403107124e-01	 1.518082183158573e+01
 1.509126712206869e+00	 2.482673838752059e-01	 1.517659054944077e+01
 1.506871519460547e+00	 2.616073327582156e-01	 1.517229262294430e+01
 1.532734333012602e+00	 1.299679332201999e-01	 1.510965055910130e+01
 1.531558197524774e+00	 1.431629527700425e-01	 1.511034827756426e+01
 1.530264274152987e+00	 1.563884442657875e-01	 1.511035142650393e+01
 1.528851628778306e+00	 1.696430101545384e-01	 1.510965314200618e+01
 1.527319345931298e+00	 1.829252281215018e-01	 1.510827192471721e+01
 1.525666529470308e+00	 1.962336513129165e-01	 1.510625219847731e+01
 1.523892303259896e+00	 2.095668085788252e-01	 1.510366478842561e+01
 1.521995811848809e+00	 2.229232047359000e-01	 1.510060731347968e+01
 1.519976221146880e+00	 2.363013208505065e-01	 1.509720448794029e+01
 1.517832719100216e+00	 2.496996145421798e-01	 1.509360832682029e+01
 1.515564516364018e+00	 2.631165203076562e-01	 1.508999824934865e+01
 1.541525812796541e+00	 1.307134051727029e-01	 1.502429200164115e+01
 1.540342931213930e+00	 1.439841089068119e-01	 1.502539983945783e+01
 1.539041586137960e+00	 1.572854593683831e-01	 1.502583077744523e+01
 1.537620838091754e+00	 1.706160509883859e-01	 1.502557832700588e+01
 1.536079766354907e+00	 1.839744532938632e-01	 1.502466248258600e+01
 1.534417469645651e+00	 1.973592111321385e-01	 1.502313030267979e+01
 1.532633066803184e+00	 2.107688449149806e-01	 1.502105640974696e+01
 1.530725697469535e+00	 2.242018508829359e-01	 1.501854340388435e+01
 1.528694522770340e+00	 2.376567013900171e-01	 1.501572218492773e+01
 1.526538725993905e+00	 2.511318452089189e-01	 1.501275217749669e+01
 1.524257513267884e+00	 2.646257078569091e-01	 1.500982145333569e+01
 1.550317292580228e+00	 1.314588771249771e-01	 1.494114839667261e+01
 1.549127664902857e+00	 1.448052650432917e-01	 1.494264135107000e+01
 1.547818898122744e+00	 1.581824744706480e-01	 1.494347792798948e+01
 1.546390047405068e+00	 1.715890918218794e-01	 1.494365173512110e+01
 1.544840186778444e+00	 1.850236784658628e-01	 1.494318396060922e+01
 1.543168409820990e+00	 1.984847709510043e-01	 1.494212397645903e+01
 1.541373830346542e+00	 2.119708812507966e-01	 1.494054986040213e+01
 1.539455583090400e+00	 2.254804970296583e-01	 1.493856883100400e+01
 1.537412824394003e+00	 2.390120819292469e-01	 1.493631759061699e+01
 1.535244732887851e+00	 2.525640758754146e-01	 1.493396257060907e+01
 1.532950510172048e+00	 2.661348954059583e-01	 1.493170007312553e+01
 1.559108772363745e+00	 1.322043490770718e-01	 1.486016289530915e+01
 1.557912398591630e+00	 1.456264211795426e-01	 1.486201726083849e+01
 1.556596210107402e+00	 1.590794895726466e-01	 1.486323818370843e+01
 1.555159256718291e+00	 1.725621326550807e-01	 1.486381909362802e+01
 1.553600607201934e+00	 1.860729036375550e-01	 1.486378207665848e+01
 1.551919349996329e+00	 1.996103307695573e-01	 1.486317850104500e+01
 1.550114593889945e+00	 2.131729175863033e-01	 1.486208956116156e+01
 1.548185468711358e+00	 2.267591431760834e-01	 1.486062673429567e+01
 1.546131126017801e+00	 2.403674624681988e-01	 1.485893214480910e+01
 1.543950739781968e+00	 2.539963065416586e-01	 1.485717883002441e+01
 1.541643507076409e+00	 2.676440829547878e-01	 1.485557090200052e+01
 1.567900252147179e+00	 1.329498210290364e-01	 1.478127744612464e+01
 1.566697132280327e+00	 1.464475773156253e-01	 1.478347075189998e+01
 1.565373522091997e+00	 1.599765046744435e-01	 1.478505554134752e+01
 1.563928466031469e+00	 1.735351734880518e-01	 1.478602479655882e+01
 1.562361027625399e+00	 1.871221288089941e-01	 1.478640120988834e+01
 1.560670290171667e+00	 2.007358905878409e-01	 1.478623783222475e+01
 1.558855357433371e+00	 2.143749539215312e-01	 1.478561863914116e+01
 1.556915354332362e+00	 2.280377893222275e-01	 1.478465900959719e+01
 1.554849427641667e+00	 2.417228430068758e-01	 1.478350611166582e+01
 1.552656746676170e+00	 2.554285372076424e-01	 1.478233918955710e+01
 1.550336503980869e+00	 2.691532705033813e-01	 1.478136974601037e+01
 1.576691731930612e+00	 1.336952929809201e-01	 1.470443282242437e+01
 1.575481865969024e+00	 1.472687334516005e-01	 1.470694377279161e+01
 1.574150834076592e+00	 1.608735197761031e-01	 1.470887272284937e+01
 1.572697675344646e+00	 1.745082143208546e-01	 1.471021194194002e+01
 1.571121448048864e+00	 1.881713539802348e-01	 1.471098444108333e+01
 1.569421230347005e+00	 2.018614504058985e-01	 1.471124464369412e+01
 1.567596120976798e+00	 2.155769902565102e-01	 1.471107897405707e+01
 1.565645239953366e+00	 2.293164354681070e-01	 1.471060635818475e+01
 1.563567729265533e+00	 2.430782235452809e-01	 1.470997863147079e+01
 1.561362753570373e+00	 2.568607678733579e-01	 1.470938084733569e+01
 1.559029500885329e+00	 2.706624580517230e-01	 1.470903148084787e+01
 1.585483211714131e+00	 1.344407649327723e-01	 1.462956864888016e+01
 1.584266599657797e+00	 1.480898895875289e-01	 1.463237706746097e+01
 1.582928146061250e+00	 1.617705348776899e-01	 1.463463120863831e+01
 1.581466884657870e+00	 1.754812551535511e-01	 1.463632236825256e+01
 1.579881868472353e+00	 1.892205791513314e-01	 1.463747359219805e+01
 1.578172170522343e+00	 2.029870102237736e-01	 1.463814036958289e+01
 1.576336884520201e+00	 2.167790265912708e-01	 1.463841124364247e+01
 1.574375125574324e+00	 2.305950816137379e-01	 1.463840833498977e+01
 1.572286030889332e+00	 2.444336040834169e-01	 1.463828777155608e+01
 1.570068760464489e+00	 2.582929985387966e-01	 1.463824001934946e+01
 1.567722497789690e+00	 2.721716455997967e-01	 1.463849010792722e+01
 1.594274691497817e+00	 1.351862368846424e-01	 1.455662342755345e+01
 1.593051333346724e+00	 1.489110457234711e-01	 1.455971020461037e+01
 1.591705458046034e+00	 1.626675499792682e-01	 1.456227127019336e+01
 1.590236093971183e+00	 1.764542959862032e-01	 1.456429669014474e+01
 1.588642288895891e+00	 1.902698043223387e-01	 1.456580926512180e+01
 1.586923110697683e+00	 2.041125700415096e-01	 1.456686524618509e+01
 1.585077648063559e+00	 2.179810629258432e-01	 1.456755496825934e+01
 1.583105011195189e+00	 2.318737277591367e-01	 1.456800339600823e+01
 1.581004332512994e+00	 2.457889846212868e-01	 1.456837057642669e+01
 1.578774767358435e+00	 2.597252292039502e-01	 1.456885199220748e+01
 1.576415494693854e+00	 2.736808331475863e-01	 1.456967880969633e+01
 1.603066171281756e+00	 1.359317088365797e-01	 1.448553456333167e+01
 1.601836067035879e+00	 1.497322018594880e-01	 1.448888160640074e+01
 1.600482770031007e+00	 1.635645650809027e-01	 1.449173200193809e+01
 1.599005303284632e+00	 1.774273368188728e-01	 1.449407433342648e+01
 1.597402709319500e+00	 1.913190294933108e-01	 1.449593087969757e+01
 1.595674050873025e+00	 2.052381298591499e-01	 1.449735835292556e+01
 1.593818411606847e+00	 2.191830992602576e-01	 1.449844855473510e+01
 1.591834896815916e+00	 2.331523739043194e-01	 1.449932894493271e+01
 1.589722634136455e+00	 2.471443651588933e-01	 1.450016311711370e+01
 1.587480774252124e+00	 2.611574598688103e-01	 1.450115117513876e+01
 1.585108491597720e+00	 2.751900206950757e-01	 1.450253000421251e+01
 1.611857651066033e+00	 1.366771807886334e-01	 1.441623838879807e+01
 1.610620800725342e+00	 1.505533579956402e-01	 1.441982857654038e+01
 1.609260082016233e+00	 1.644615801826577e-01	 1.442295135247264e+01
 1.607774512598260e+00	 1.784003776516219e-01	 1.442559356937176e+01
 1.606163129743204e+00	 1.923682546643022e-01	 1.442777671102451e+01
 1.604424991048371e+00	 2.063636896767381e-01	 1.442955765259110e+01
 1.602559175150043e+00	 2.203851355945442e-01	 1.443102933945495e+01
 1.600564782436457e+00	 2.344310200493024e-01	 1.443232137903762e+01
 1.598440935759645e+00	 2.484997456962395e-01	 1.443360053978592e+01
 1.596186781145472e+00	 2.625896905333687e-01	 1.443507115126448e+01
 1.593801488501192e+00	 2.766992082422489e-01	 1.443697539900879e+01
 1.506871519460547e+00	 2.616073327582156e-01	 1.517229262294430e+01
 1.504491994710871e+00	 2.749619366135812e-01	 1.516752540938748e+01
 1.501987026930858e+00	 2.883318638021939e-01	 1.516192780379190e+01
 1.499355902217941e+00	 3.017154954439185e-01	 1.515577459334340e+01
 1.496597931850662e+00	 3.151111912495104e-01	 1.514936737165244e+01
 1.493712452934736e+00	 3.285172899454601e-01	 1.514303400869090e+01
 1.490698829042657e+00	 3.419321097195878e-01	 1.513712798262071e+01
 1.487556450846153e+00	 3.553539486873724e-01	 1.513202756741243e+01
 1.484284736740762e+00	 3.687810853789671e-01	 1.512813487013218e+01
 1.480883133461804e+00	 3.822117792468355e-01	 1.512587471178558e+01
 1.477351116691019e+00	 3.956442711939038e-01	 1.512569334564326e+01
 1.515564516364018e+00	 2.631165203076562e-01	 1.508999824934865e+01
 1.513171264365079e+00	 2.765481655884783e-01	 1.508598422234296e+01
 1.510651845667007e+00	 2.899952226012651e-01	 1.508120919408942e+01
 1.508005542248800e+00	 3.034560631267443e-01	 1.507594531816331e+01
 1.505231661415838e+00	 3.169290374130278e-01	 1.507049228186333e+01
 1.502329536449663e+00	 3.304124746029069e-01	 1.506517679576145e+01
 1.499298527251279e+00	 3.439046831820169e-01	 1.506035194424074e+01
 1.496138020977260e+00	 3.574039514478567e-01	 1.505639639073745e+01
 1.492847432667928e+00	 3.709085479996148e-01	 1.505371343137009e+01
 1.489426205866871e+00	 3.844167222487312e-01	 1.505272989063119e+01
 1.485873813231091e+00	 3.979267049501003e-01	 1.505389485284214e+01
 1.524257513267884e+00	 2.646257078569091e-01	 1.500982145333569e+01
 1.521850534019712e+00	 2.781343945632309e-01	 1.500654823191302e+01
 1.519316664403591e+00	 2.916585814002298e-01	 1.500257610032606e+01
 1.516655182280088e+00	 3.051966308094968e-01	 1.499817554069409e+01
 1.513865390981419e+00	 3.187468835765006e-01	 1.499364527155845e+01
 1.510946619964957e+00	 3.323076592603330e-01	 1.498931175621328e+01
 1.507898225460224e+00	 3.458772566444446e-01	 1.498552857120520e+01
 1.504719591108642e+00	 3.594539542083549e-01	 1.498267562853583e+01
 1.501410128595314e+00	 3.730360106202865e-01	 1.498115824505141e+01
 1.497969278272108e+00	 3.866216652506579e-01	 1.498140605248386e+01
 1.494396509771284e+00	 4.002091387063300e-01	 1.498387174161354e+01
 1.532950510172048e+00	 2.661348954059583e-01	 1.493170007312553e+01
 1.530529803674665e+00	 2.797206235378198e-01	 1.492915204285104e+01
 1.527981483140501e+00	 2.933219401990699e-01	 1.492595910201241e+01
 1.525304822311696e+00	 3.069371984921623e-01	 1.492239099831892e+01
 1.522499120547301e+00	 3.205647297399217e-01	 1.491874639368402e+01
 1.519563703480526e+00	 3.342028439177395e-01	 1.491535239055349e+01
 1.516497923669408e+00	 3.478498301068810e-01	 1.491256391767181e+01
 1.513301161240221e+00	 3.615039569688852e-01	 1.491076296863748e+01
 1.509972824522857e+00	 3.751634732410087e-01	 1.491035768653372e+01
 1.506512350677455e+00	 3.888266082526465e-01	 1.491178128788327e+01
 1.502919206311548e+00	 4.024915724626263e-01	 1.491549081916839e+01
 1.541643507076409e+00	 2.676440829547878e-01	 1.485557090200052e+01
 1.539209073329832e+00	 2.813068525122256e-01	 1.485372933611069e+01
 1.536646301877631e+00	 2.949852989977672e-01	 1.485128800065940e+01
 1.533954462343517e+00	 3.086777661747270e-01	 1.484851682099051e+01
 1.531132850113384e+00	 3.223825759032839e-01	 1.484571528916767e+01
 1.528180786996274e+00	 3.360980285751274e-01	 1.484321200756420e+01
 1.525097621878746e+00	 3.498224035693362e-01	 1.484136409125299e+01
 1.521882731371925e+00	 3.635539597294664e-01	 1.484055642236440e+01
 1.518535520450489e+00	 3.772909358618070e-01	 1.484120074949878e+01
 1.515055423082858e+00	 3.910315512547280e-01	 1.484373462522569e+01
 1.511441902851829e+00	 4.047740062190222e-01	 1.484862017467779e+01
 1.550336503980869e+00	 2.691532705033813e-01	 1.478136974601037e+01
 1.547888342985106e+00	 2.828930814864292e-01	 1.478021292882277e+01
 1.545311120614868e+00	 2.966486577963034e-01	 1.477849188169354e+01
 1.542604102375442e+00	 3.104183338571770e-01	 1.477647759473676e+01
 1.539766579679564e+00	 3.242004220665801e-01	 1.477447125165051e+01
 1.536797870512107e+00	 3.379932132324981e-01	 1.477280378988080e+01
 1.533697320088152e+00	 3.517949770318198e-01	 1.477183531904494e+01
 1.530464301503676e+00	 3.656039624901167e-01	 1.477195439059846e+01
 1.527098216378146e+00	 3.794183984827072e-01	 1.477357711163152e+01
 1.523598495488259e+00	 3.932364942569337e-01	 1.477714609560877e+01
 1.519964599392081e+00	 4.070564399755509e-01	 1.478312924282451e+01
 1.559029500885329e+00	 2.706624580517230e-01	 1.470903148084787e+01
 1.556567612640379e+00	 2.844793104604115e-01	 1.470853483347771e+01
 1.553975939352105e+00	 2.983120165946605e-01	 1.470749917563034e+01
 1.551253742407366e+00	 3.121589015394983e-01	 1.470619742449300e+01
 1.548400309245738e+00	 3.260182682298032e-01	 1.470493329163047e+01
 1.545414954027930e+00	 3.398883978898523e-01	 1.470404085908401e+01
 1.542297018297540e+00	 3.537675504943419e-01	 1.470388401328989e+01
 1.539045871635399e+00	 3.676539652508549e-01	 1.470485572961953e+01
 1.535660912305761e+00	 3.815458611037352e-01	 1.470737720022403e+01
 1.532141567893601e+00	 3.954414372592944e-01	 1.471189679777657e+01
 1.528487295932251e+00	 4.093388737322460e-01	 1.471888886764645e+01
 1.567722497789690e+00	 2.721716455997967e-01	 1.463849010792722e+01
 1.565246882295545e+00	 2.860655394341532e-01	 1.463862631634606e+01
 1.562640758089232e+00	 2.999753753928205e-01	 1.463823771853484e+01
 1.559903382439181e+00	 3.138994692216772e-01	 1.463759999628642e+01
 1.557034038811805e+00	 3.278361143929458e-01	 1.463702020004021e+01
 1.554032037543648e+00	 3.417835825471916e-01	 1.463683634032429e+01
 1.550896716506826e+00	 3.557401239569126e-01	 1.463741683668538e+01
 1.547627441767019e+00	 3.697039680116990e-01	 1.463915981672304e+01
 1.544223608233268e+00	 3.836733237249167e-01	 1.464249225770888e+01
 1.540684640298826e+00	 3.976463802618416e-01	 1.464786896316019e+01
 1.537009992472289e+00	 4.116213074891404e-01	 1.465577136666217e+01
 1.576415494693854e+00	 2.736808331475863e-01	 1.456967880969633e+01
 1.573926151950498e+00	 2.876517684076353e-01	 1.457041795516548e+01
 1.571305576826140e+00	 3.016387341907649e-01	 1.457063481179691e+01
 1.568553022470778e+00	 3.156400369036998e-01	 1.457060863879880e+01
 1.565667768377662e+00	 3.296539605560009e-01	 1.457065061128063e+01
 1.562649121059167e+00	 3.436787672045165e-01	 1.457110342649636e+01
 1.559496414715924e+00	 3.577126974195415e-01	 1.457234076735423e+01
 1.556209011898460e+00	 3.717539707726680e-01	 1.457476661562483e+01
 1.552786304160604e+00	 3.858007863462778e-01	 1.457881440712329e+01
 1.549227712703878e+00	 3.998513232646058e-01	 1.458494602101121e+01
 1.545532689012145e+00	 4.139037412462675e-01	 1.459365059526652e+01
 1.585108491597720e+00	 2.751900206950757e-01	 1.450253000421251e+01
 1.582605421605131e+00	 2.892379973808384e-01	 1.450383969612245e+01
 1.579970395562720e+00	 3.033020929884759e-01	 1.450461728124737e+01
 1.577202662502051e+00	 3.173806045855524e-01	 1.450514638433008e+01
 1.574301497943207e+00	 3.314718067189618e-01	 1.450574306573167e+01
 1.571266204574391e+00	 3.455739518618284e-01	 1.450675544198151e+01
 1.568096112924747e+00	 3.596852708822387e-01	 1.450856316348870e+01
 1.564790582029647e+00	 3.738039735337799e-01	 1.451157674166224e+01
 1.561349000087700e+00	 3.879282489678443e-01	 1.451623671750806e+01
 1.557770785108700e+00	 4.020562662676186e-01	 1.452301266362308e+01
 1.554055385551768e+00	 4.161861750036604e-01	 1.453240201138638e+01
 1.593801488501192e+00	 2.766992082422489e-01	 1.443697539900879e+01
 1.591284691259338e+00	 2.908242263537434e-01	 1.443882091015642e+01
 1.588635214298862e+00	 3.049654517859350e-01	 1.444011153564019e+01
 1.585852302532892e+00	 3.191211722672210e-01	 1.444113602918673e+01
 1.582935227508338e+00	 3.332896528818207e-01	 1.444221607176021e+01
 1.579883288089227e+00	 3.474691365191284e-01	 1.444370590597409e+01
 1.576695811133212e+00	 3.616578443450141e-01	 1.444599182768067e+01
 1.573372152160505e+00	 3.758539762950537e-01	 1.444949152679878e+01
 1.569911696014492e+00	 3.900557115896419e-01	 1.445465326924232e+01
 1.566313857513235e+00	 4.042612092709107e-01	 1.446195491163868e+01
 1.562578082091108e+00	 4.184686087613524e-01	 1.447190274038675e+01
 1.477351116691019e+00	 3.956442711939038e-01	 1.512569334564326e+01
 1.473688191974681e+00	 4.090767843096721e-01	 1.512417656021654e+01
 1.469893896276274e+00	 4.225075250188132e-01	 1.511778080589904e+01
 1.465967797589340e+00	 4.359346831373429e-01	 1.510677440330400e+01
 1.461909495176767e+00	 4.493564322980735e-01	 1.509142521454251e+01
 1.457718620117905e+00	 4.627709305788975e-01	 1.507199850697272e+01
 1.453394835841910e+00	 4.761763211503487e-01	 1.504875464356264e+01
 1.448937838646586e+00	 4.895707329421396e-01	 1.502194659548632e+01
 1.444347358201994e+00	 5.029522813283457e-01	 1.499181727290985e+01
 1.439623158038130e+00	 5.163190688308801e-01	 1.495859667030527e+01
 1.434765036015943e+00	 5.296691858408672e-01	 1.492249882306928e+01
 1.485873813231091e+00	 3.979267049501003e-01	 1.505389485284214e+01
 1.482189757454407e+00	 4.114367089424172e-01	 1.505366970740332e+01
 1.478373572829083e+00	 4.249449303033787e-01	 1.504840640946278e+01
 1.474424824856452e+00	 4.384495484062021e-01	 1.503840799735444e+01
 1.470343110487583e+00	 4.519487263475422e-01	 1.502397890860717e+01
 1.466128058673551e+00	 4.654406115793988e-01	 1.500542282306402e+01
 1.461779330901862e+00	 4.789233365604130e-01	 1.498304032762198e+01
 1.457296621718283e+00	 4.923950194262511e-01	 1.495712639791391e+01
 1.452679659233362e+00	 5.058537646787410e-01	 1.492796769258301e+01
 1.447928205612917e+00	 5.192976638934051e-01	 1.489583965618496e+01
 1.443042057551770e+00	 5.327247964449955e-01	 1.486100342718817e+01
 1.494396509771284e+00	 4.002091387063300e-01	 1.498387174161355e+01
 1.490691322934210e+00	 4.137966335751939e-01	 1.498490021570268e+01
 1.486853249381933e+00	 4.273823355879717e-01	 1.498074500799325e+01
 1.482881852123574e+00	 4.409644136750840e-01	 1.497174200020408e+01
 1.478776725798381e+00	 4.545410203970290e-01	 1.495823051131481e+01
 1.474537497229151e+00	 4.681102925799150e-01	 1.494055112680261e+01
 1.470163825961741e+00	 4.816703519704926e-01	 1.491904334439150e+01
 1.465655404789880e+00	 4.952193059103833e-01	 1.489404303131248e+01
 1.461011960264602e+00	 5.087552480291690e-01	 1.486587968840117e+01
 1.456233253187544e+00	 5.222762589559825e-01	 1.483487351673841e+01
 1.451319079087398e+00	 5.357804070492050e-01	 1.480133228297930e+01
 1.502919206311548e+00	 4.024915724626263e-01	 1.491549081916839e+01
 1.499192888414045e+00	 4.161565582080342e-01	 1.491772446235913e+01
 1.495332925934780e+00	 4.298197408726190e-01	 1.491464529214763e+01
 1.491338879390661e+00	 4.434792789440071e-01	 1.490662018904577e+01
 1.487210341109111e+00	 4.571333144465414e-01	 1.489402168743846e+01
 1.482946935784657e+00	 4.707799735804412e-01	 1.487722579770348e+01
 1.478548321021499e+00	 4.844173673805686e-01	 1.485660963962195e+01
 1.474014187861330e+00	 4.980435923945019e-01	 1.483254888173547e+01
 1.469344261295668e+00	 5.116567313795788e-01	 1.480541498162781e+01
 1.464538300761969e+00	 5.252548540185451e-01	 1.477557222248763e+01
 1.459596100622796e+00	 5.388360176534135e-01	 1.474337454174601e+01
 1.511441902851829e+00	 4.047740062190222e-01	 1.484862017467780e+01
 1.507694453893865e+00	 4.185164828409695e-01	 1.485200043273653e+01
 1.503812602487579e+00	 4.322571461573475e-01	 1.484995782551364e+01
 1.499795906657667e+00	 4.459941442129894e-01	 1.484288841599652e+01
 1.495643956419731e+00	 4.597256084960870e-01	 1.483119631440278e+01
 1.491356374340022e+00	 4.734496545809723e-01	 1.481529149996716e+01
 1.486932816081087e+00	 4.871643827906212e-01	 1.479558744868921e+01
 1.482372970932584e+00	 5.008678788785714e-01	 1.477249856133241e+01
 1.477676562326512e+00	 5.145582147299196e-01	 1.474643738628283e+01
 1.472843348336149e+00	 5.282334490810264e-01	 1.471781163225036e+01
 1.467873122157928e+00	 5.418916282575386e-01	 1.468702096623417e+01
 1.519964599392081e+00	 4.070564399755509e-01	 1.478312924282451e+01
 1.516196019373624e+00	 4.208764074740315e-01	 1.478758778328667e+01
 1.512292279040284e+00	 4.346945514421832e-01	 1.478653510890120e+01
 1.508252933924546e+00	 4.485090094820496e-01	 1.478039467563793e+01
 1.504077571730192e+00	 4.623179025456737e-01	 1.476960055501555e+01
 1.499765812895198e+00	 4.761193355815033e-01	 1.475459526236191e+01
 1.495317311140457e+00	 4.899113982006308e-01	 1.473582738560060e+01
 1.490731754003591e+00	 5.036921653625575e-01	 1.471374900846754e+01
 1.486008863357089e+00	 5.174596980801405e-01	 1.468881292237214e+01
 1.481148395910044e+00	 5.312120441433594e-01	 1.466146962149237e+01
 1.476150143692762e+00	 5.449472388614981e-01	 1.463216407612582e+01
 1.528487295932251e+00	 4.093388737322460e-01	 1.471888886764645e+01
 1.524697584853275e+00	 4.232363321072520e-01	 1.472434790498236e+01
 1.520771955592850e+00	 4.371319567271527e-01	 1.472423164521048e+01
 1.516709961191254e+00	 4.510238747512060e-01	 1.471898917318270e+01
 1.512511187040448e+00	 4.649101965953087e-01	 1.470908293081310e+01
 1.508175251450137e+00	 4.787890165820285e-01	 1.469498655864364e+01
 1.503701806199560e+00	 4.926584136105780e-01	 1.467718253239948e+01
 1.499090537074308e+00	 5.065164518464248e-01	 1.465615958803093e+01
 1.494341164387353e+00	 5.203611814301908e-01	 1.463240992904048e+01
 1.489453443483610e+00	 5.341906392054776e-01	 1.460642621026517e+01
 1.484427165227262e+00	 5.480028494652097e-01	 1.457869829271604e+01
 1.537009992472289e+00	 4.116213074891404e-01	 1.465577136666217e+01
 1.533199150332770e+00	 4.255962567406624e-01	 1.466214398719763e+01
 1.529251632145231e+00	 4.395693620122826e-01	 1.466290400485447e+01
 1.525166988457745e+00	 4.535387400204767e-01	 1.465852439324331e+01
 1.520944802350455e+00	 4.675024906450000e-01	 1.464949439599566e+01
 1.516584690004791e+00	 4.814586975825433e-01	 1.463631738849254e+01
 1.512086301258349e+00	 4.954054290204439e-01	 1.461950852895123e+01
 1.507449320144682e+00	 5.093407383301388e-01	 1.459959219193509e+01
 1.502673465417256e+00	 5.232626647800198e-01	 1.457709917764900e+01
 1.497758491056808e+00	 5.371692342673142e-01	 1.455256369074634e+01
 1.492704186761395e+00	 5.510584600685913e-01	 1.452652008280404e+01
 1.545532689012145e+00	 4.139037412462675e-01	 1.459365059526652e+01
 1.541700715812064e+00	 4.279561813742943e-01	 1.460084108201774e+01
 1.537731308697385e+00	 4.420067672975994e-01	 1.460241089171385e+01
 1.533624015723975e+00	 4.560536052898805e-01	 1.459885516917965e+01
 1.529378417660164e+00	 4.700947846947551e-01	 1.459068841192949e+01
 1.524994128559113e+00	 4.841283785830425e-01	 1.457844235894665e+01
 1.520470796316772e+00	 4.981524444302082e-01	 1.456266366309715e+01
 1.515808103214667e+00	 5.121650248136645e-01	 1.454391133978947e+01
 1.511005766446753e+00	 5.261641481295766e-01	 1.452275398478178e+01
 1.506063538629595e+00	 5.401478293288025e-01	 1.449976675439656e+01
 1.500981208295128e+00	 5.541140706715605e-01	 1.447552810182890e+01
 1.554055385551768e+00	 4.161861750036604e-01	 1.453240201138638e+01
 1.550202281291109e+00	 4.303161060081796e-01	 1.454030616896235e+01
 1.546210985249265e+00	 4.444441725831297e-01	 1.454261320960445e+01
 1.542081042989899e+00	 4.585684705594355e-01	 1.453983875300296e+01
 1.537812032969530e+00	 4.726870787445818e-01	 1.453252102219470e+01
 1.533403567113055e+00	 4.867980595835208e-01	 1.452121876631317e+01
 1.528855291374783e+00	 5.008994598398521e-01	 1.450650896116196e+01
 1.524166886284214e+00	 5.149893112969672e-01	 1.448898427974662e+01
 1.519338067475797e+00	 5.290656314788104e-01	 1.446925032518280e+01
 1.514368586201928e+00	 5.431264243898751e-01	 1.444792261874931e+01
 1.509258229828425e+00	 5.571696812740350e-01	 1.442562333627895e+01
 1.562578082091108e+00	 4.184686087613524e-01	 1.447190274038675e+01
 1.558703846769861e+00	 4.326760306423498e-01	 1.448040822010607e+01
 1.554690661800825e+00	 4.468815778688999e-01	 1.448337412923723e+01
 1.550538070255469e+00	 4.610833358291598e-01	 1.448133488581519e+01
 1.546245648278505e+00	 4.752793727944876e-01	 1.447485092815722e+01
 1.541813005666570e+00	 4.894677405839732e-01	 1.446450667853923e+01
 1.537239786432334e+00	 5.036464752493558e-01	 1.445090827880027e+01
 1.532525669353274e+00	 5.178135977800120e-01	 1.443468108951262e+01
 1.527670368504342e+00	 5.319671148276703e-01	 1.441646694462677e+01
 1.522673633773767e+00	 5.461050194504661e-01	 1.439692115384592e+01
 1.517535251361254e+00	 5.602252918759326e-01	 1.437670924540282e+01
 1.434765036015943e+00	 5.296691858408672e-01	 1.492249882306928e+01
 1.429771964484384e+00	 5.430029760583268e-01	 1.488934691790916e+01
 1.424644624976097e+00	 5.563162352014722e-01	 1.486526517387963e+01
 1.419382919985196e+00	 5.696070201181342e-01	 1.485089082617666e+01
 1.413986788066745e+00	 5.828733785497976e-01	 1.484686403533322e+01
 1.408456204215545e+00	 5.961133499364961e-01	 1.484958322859380e+01
 1.402791180224236e+00	 6.093249662367151e-01	 1.484206231917433e+01
 1.396991765020092e+00	 6.225062527617111e-01	 1.482294765836453e+01
 1.391058044979909e+00	 6.356552290236296e-01	 1.479283546763013e+01
 1.384990144222398e+00	 6.487699095967792e-01	 1.475235199783783e+01
 1.378788224877522e+00	 6.618483049913858e-01	 1.470215414689527e+01
 1.443042057551770e+00	 5.327247964449955e-01	 1.486100342718817e+01
 1.438020181470444e+00	 5.461355080162867e-01	 1.482960364015097e+01
 1.432863262833292e+00	 5.595255700713999e-01	 1.480806030609395e+01
 1.427571203571930e+00	 5.728930282483168e-01	 1.479702193819227e+01
 1.422143941886962e+00	 5.862359190261399e-01	 1.479714095772646e+01
 1.416581452628946e+00	 5.995522705346319e-01	 1.480037032094095e+01
 1.410883747658562e+00	 6.128401033788453e-01	 1.479230407229012e+01
 1.405050876185350e+00	 6.260974314782569e-01	 1.477323801639014e+01
 1.399082925084413e+00	 6.393222629197791e-01	 1.474375828139083e+01
 1.392980019190502e+00	 6.525126008239998e-01	 1.470448101597361e+01
 1.386742321568902e+00	 6.656664442239804e-01	 1.465605304062830e+01
 1.451319079087398e+00	 5.357804070492050e-01	 1.480133228297930e+01
 1.446268398456265e+00	 5.492680399743678e-01	 1.477171892417720e+01
 1.441081900690200e+00	 5.627349049414969e-01	 1.475274818860264e+01
 1.435759487158325e+00	 5.761790363787239e-01	 1.474508255553494e+01
 1.430301095706789e+00	 5.895984595027685e-01	 1.474925903523595e+01
 1.424706701041903e+00	 6.029911911331179e-01	 1.475162536438370e+01
 1.418976315092390e+00	 6.163552405213902e-01	 1.474305291871532e+01
 1.413109987350058e+00	 6.296886101952824e-01	 1.472408944904892e+01
 1.407107805188320e+00	 6.429892968164693e-01	 1.469531183024671e+01
 1.400969894157965e+00	 6.562552920518180e-01	 1.465732665395166e+01
 1.394696418259602e+00	 6.694845834572226e-01	 1.461077090816511e+01
 1.459596100622796e+00	 5.388360176534135e-01	 1.474337454174601e+01
 1.454516615441825e+00	 5.524005719324726e-01	 1.471559629110876e+01
 1.449300538546812e+00	 5.659442398116526e-01	 1.469924210809750e+01
 1.443947770744394e+00	 5.794650445092336e-01	 1.469499107728342e+01
 1.438458249526254e+00	 5.929609999795480e-01	 1.470201943106915e+01
 1.432831949454466e+00	 6.064301117318081e-01	 1.470329210411894e+01
 1.427068882525793e+00	 6.198703776641961e-01	 1.469425275396356e+01
 1.421169098514310e+00	 6.332797889126242e-01	 1.467544131441693e+01
 1.415132685291742e+00	 6.466563307135295e-01	 1.464742622933262e+01
 1.408959769124917e+00	 6.599979832800562e-01	 1.461080506338861e+01
 1.402650514949769e+00	 6.733027226909291e-01	 1.456620520462027e+01
 1.467873122157928e+00	 5.418916282575386e-01	 1.468702096623417e+01
 1.462764832427099e+00	 5.555331038905043e-01	 1.466114060780800e+01
 1.457519176403125e+00	 5.691535746817571e-01	 1.464745652714065e+01
 1.452136054330145e+00	 5.827510526397216e-01	 1.464666700458921e+01
 1.446615403345389e+00	 5.963235404563441e-01	 1.465510611264772e+01
 1.440957197866686e+00	 6.098690323305578e-01	 1.465532019809107e+01
 1.435161449958843e+00	 6.233855148071071e-01	 1.464585348725636e+01
 1.429228209678199e+00	 6.368709676301186e-01	 1.462723918626940e+01
 1.423157565394793e+00	 6.503233646107893e-01	 1.460003811347457e+01
 1.416949644091493e+00	 6.637406745085374e-01	 1.456483932247653e+01
 1.410604611639553e+00	 6.771208619249164e-01	 1.452226082226653e+01
 1.476150143692762e+00	 5.449472388614981e-01	 1.463216407612583e+01
 1.471013049412068e+00	 5.586656358483663e-01	 1.460825824916742e+01
 1.465737814259127e+00	 5.723629095516990e-01	 1.459730726049724e+01
 1.460324337915590e+00	 5.860370607700659e-01	 1.460003112827053e+01
 1.454772557164222e+00	 5.996860809330222e-01	 1.460846977250539e+01
 1.449082446278614e+00	 6.133079529292218e-01	 1.460766515536281e+01
 1.443254017391610e+00	 6.269006519499691e-01	 1.459781097404597e+01
 1.437287320841819e+00	 6.404621463476019e-01	 1.457943477795835e+01
 1.431182445497588e+00	 6.539903985080776e-01	 1.455309054961967e+01
 1.424939519057823e+00	 6.674833657370838e-01	 1.451935933415451e+01
 1.418558708329102e+00	 6.809390011590023e-01	 1.447884997163412e+01
 1.484427165227262e+00	 5.480028494652097e-01	 1.457869829271605e+01
 1.479261266396708e+00	 5.617981678059614e-01	 1.455685725918948e+01
 1.473956452114813e+00	 5.755722444213687e-01	 1.454871164996166e+01
 1.468512621500738e+00	 5.893230689001427e-01	 1.455492432020886e+01
 1.462929710982784e+00	 6.030486214094474e-01	 1.456206689598754e+01
 1.457207694690301e+00	 6.167468735276552e-01	 1.456028827264588e+01
 1.451346584824168e+00	 6.304157890926269e-01	 1.455008694677458e+01
 1.445346432005262e+00	 6.440533250649119e-01	 1.453198586470172e+01
 1.439207325600238e+00	 6.576574324052227e-01	 1.450653294794669e+01
 1.432929394024040e+00	 6.712260569655181e-01	 1.447430172332803e+01
 1.426512805018568e+00	 6.847571403930037e-01	 1.443589206212070e+01
 1.492704186761395e+00	 5.510584600685913e-01	 1.452652008280404e+01
 1.487509483380995e+00	 5.649306997631929e-01	 1.450684751090540e+01
 1.482175089970177e+00	 5.787815792906554e-01	 1.450158873773438e+01
 1.476700905085600e+00	 5.926090770298296e-01	 1.451026168035963e+01
 1.471086864801106e+00	 6.064111618854858e-01	 1.451585969910876e+01
 1.465332943101795e+00	 6.201857941257121e-01	 1.451315656906123e+01
 1.459439152256588e+00	 6.339309262349258e-01	 1.450264894393943e+01
 1.453405543168622e+00	 6.476445037818844e-01	 1.448485620434432e+01
 1.447232205702859e+00	 6.613244663020543e-01	 1.446032097170882e+01
 1.440919268990278e+00	 6.749687481936627e-01	 1.442960973317214e+01
 1.434466901708098e+00	 6.885752796267373e-01	 1.439331358213166e+01
 1.500981208295128e+00	 5.541140706715605e-01	 1.447552810182890e+01
 1.495757700364910e+00	 5.680632317199641e-01	 1.445814086517711e+01
 1.490393727825208e+00	 5.819909141594484e-01	 1.445585943840646e+01
 1.484889188670185e+00	 5.958950851590029e-01	 1.446569417334944e+01
 1.479244018619216e+00	 6.097737023610023e-01	 1.446981606472506e+01
 1.473458191513149e+00	 6.236247147232478e-01	 1.446624271919898e+01
 1.467531719688943e+00	 6.374460633767114e-01	 1.445547023752804e+01
 1.461464654331994e+00	 6.512356824983567e-01	 1.443801545665026e+01
 1.455257085805564e+00	 6.649915001984019e-01	 1.441441644585653e+01
 1.448909143956669e+00	 6.787114394213397e-01	 1.438523312055462e+01
 1.442420998397841e+00	 6.923934188600199e-01	 1.435104797876868e+01
 1.509258229828425e+00	 5.571696812740350e-01	 1.442562333627895e+01
 1.504005917348429e+00	 5.711957636761779e-01	 1.441065132842529e+01
 1.498612365679901e+00	 5.852002490276377e-01	 1.441144670960457e+01
 1.493077472254505e+00	 5.991810932875401e-01	 1.442118641537835e+01
 1.487401172437143e+00	 6.131362428358620e-01	 1.442390947708564e+01
 1.481583439924415e+00	 6.270636353201173e-01	 1.441952498454163e+01
 1.475624287121304e+00	 6.409612005178288e-01	 1.440852975888738e+01
 1.469523765495467e+00	 6.548268612141651e-01	 1.439143910118298e+01
 1.463281965908466e+00	 6.686585340940939e-01	 1.436878726448838e+01
 1.456899018923344e+00	 6.824541306483726e-01	 1.434112805061232e+01
 1.450375095087947e+00	 6.962115580926687e-01	 1.430903553708370e+01
 1.517535251361254e+00	 5.602252918759326e-01	 1.437670924540282e+01
 1.512254134331529e+00	 5.743282956317375e-01	 1.436429520932469e+01
 1.506831003534249e+00	 5.884095838951129e-01	 1.436827309829330e+01
 1.501265755838570e+00	 6.024671014153181e-01	 1.437670865823522e+01
 1.495558326254919e+00	 6.164987833099306e-01	 1.437811895482605e+01
 1.489708688335641e+00	 6.305025559161748e-01	 1.437298714331422e+01
 1.483716854553744e+00	 6.444763376581230e-01	 1.436181202308586e+01
 1.477582876659139e+00	 6.584180399291462e-01	 1.434510835382691e+01
 1.471306846011681e+00	 6.723255679889599e-01	 1.432340729717428e+01
 1.464888893890439e+00	 6.861968218745834e-01	 1.429725699051334e+01
 1.458329191778564e+00	 7.000296973245008e-01	 1.426722325891525e+01
 1.378788224877522e+00	 6.618483049913858e-01	 1.470215414689527e+01
 1.372453575486838e+00	 6.748862092136243e-01	 1.464751898235594e+01
 1.365985391161689e+00	 6.878838539695299e-01	 1.459324129077960e+01
 1.359383948333416e+00	 7.008392432308417e-01	 1.453929621989350e+01
 1.352649562260090e+00	 7.137503804864426e-01	 1.448564715285218e+01
 1.345782587173836e+00	 7.266152696671558e-01	 1.443224726739635e+01
 1.338783416402234e+00	 7.394319160785153e-01	 1.437904124363246e+01
 1.331652482463453e+00	 7.521983273406829e-01	 1.432596711827522e+01
 1.324390257134714e+00	 7.649125143346539e-01	 1.427295828220881e+01
 1.316997251493802e+00	 7.775724921538925e-01	 1.421994561720932e+01
 1.309474015933302e+00	 7.901762810605032e-01	 1.416685976662717e+01
 1.386742321568902e+00	 6.656664442239804e-01	 1.465605304062829e+01
 1.380371128194650e+00	 6.787795628619303e-01	 1.460342528615678e+01
 1.373865629535772e+00	 6.918521897805751e-01	 1.455108399638351e+01
 1.367226103618319e+00	 7.048823174367571e-01	 1.449901823844439e+01
 1.360452867519065e+00	 7.178679378016770e-01	 1.444720346095695e+01
 1.353546277513669e+00	 7.308070432910249e-01	 1.439560305926534e+01
 1.346506729198790e+00	 7.436976277031334e-01	 1.434417009666545e+01
 1.339334657587757e+00	 7.565376871643147e-01	 1.429284917960486e+01
 1.332030537179435e+00	 7.693252210805265e-01	 1.424157848383074e+01
 1.324594881999977e+00	 7.820582330944966e-01	 1.419029192740560e+01
 1.317028245617134e+00	 7.947347320474100e-01	 1.413892148542993e+01
 1.394696418259602e+00	 6.694845834572226e-01	 1.461077090816511e+01
 1.388288680901750e+00	 6.826729165109249e-01	 1.456025386071249e+01
 1.381745867909117e+00	 6.958205255923418e-01	 1.450993495829207e+01
 1.375068258902466e+00	 7.089253916434194e-01	 1.445981320748355e+01
 1.368256172777272e+00	 7.219854951176778e-01	 1.440987235066668e+01
 1.361309967852731e+00	 7.349988169156747e-01	 1.436008244448689e+01
 1.354230041994578e+00	 7.479633393285418e-01	 1.431040160160262e+01
 1.347016832711303e+00	 7.608770469887427e-01	 1.426077789385419e+01
 1.339670817223418e+00	 7.737379278271983e-01	 1.421115141393744e+01
 1.332192512505436e+00	 7.865439740359003e-01	 1.416145649157296e+01
 1.324582475300281e+00	 7.992931830351171e-01	 1.411162405904142e+01
 1.402650514949769e+00	 6.733027226909291e-01	 1.456620520462027e+01
 1.396206233608299e+00	 6.865662701604206e-01	 1.451788300437932e+01
 1.389626106281897e+00	 6.997888614046390e-01	 1.446965717793202e+01
 1.382910414186040e+00	 7.129684658506356e-01	 1.442153276028797e+01
 1.376059478034899e+00	 7.261030524342491e-01	 1.437349808152577e+01
 1.369073658191210e+00	 7.391905905409075e-01	 1.432552636550021e+01
 1.361953354789785e+00	 7.522290509545413e-01	 1.427757749907890e+01
 1.354699007834274e+00	 7.652164068137669e-01	 1.422959997019007e+01
 1.347311097266834e+00	 7.781506345744689e-01	 1.418153297186629e+01
 1.339790143010344e+00	 7.910297149779046e-01	 1.413330866834031e+01
 1.332136704982894e+00	 8.038516340234235e-01	 1.408485461808596e+01
 1.410604611639553e+00	 6.771208619249164e-01	 1.452226082226653e+01
 1.404123786314461e+00	 6.904596238102296e-01	 1.447619897106741e+01
 1.397506344654285e+00	 7.037571972172749e-01	 1.443012204153794e+01
 1.390752569469218e+00	 7.170115400582103e-01	 1.438403725393819e+01
 1.383862783292130e+00	 7.302206097511948e-01	 1.433793388454384e+01
 1.376837348529294e+00	 7.433823641665254e-01	 1.429178489150060e+01
 1.369676667584597e+00	 7.564947625809333e-01	 1.424554871841022e+01
 1.362381182956852e+00	 7.695557666391879e-01	 1.419917127406430e+01
 1.354951377309859e+00	 7.825633413221388e-01	 1.415258808560905e+01
 1.347387773514863e+00	 7.955154559203084e-01	 1.410572662125344e+01
 1.339690934665124e+00	 8.084100850121306e-01	 1.405850877743014e+01
 1.418558708329102e+00	 6.809390011590023e-01	 1.447884997163412e+01
 1.412041339020397e+00	 6.943529774601643e-01	 1.443509583415852e+01
 1.405386583026458e+00	 7.077255330300590e-01	 1.439120916951561e+01
 1.398594724752184e+00	 7.210546142659503e-01	 1.434719560680118e+01
 1.391666088549151e+00	 7.343381670683184e-01	 1.430304179051712e+01
 1.384601038867169e+00	 7.475741377923304e-01	 1.425871704036343e+01
 1.377399980379199e+00	 7.607604742075187e-01	 1.421417519592501e+01
 1.370063358079217e+00	 7.738951264648061e-01	 1.416935664479788e+01
 1.362591657352667e+00	 7.869760480700073e-01	 1.412419053153129e+01
 1.354985404019159e+00	 8.000011968629120e-01	 1.407859714354763e+01
 1.347245164347121e+00	 8.129685360010375e-01	 1.403249046895909e+01
 1.426512805018568e+00	 6.847571403930037e-01	 1.443589206212070e+01
 1.419958891726272e+00	 6.982463311100371e-01	 1.439447535040605e+01
 1.413266821398584e+00	 7.116938688427993e-01	 1.435280626617300e+01
 1.406436880035119e+00	 7.250976884736610e-01	 1.431088513668121e+01
 1.399469393806150e+00	 7.384557243854234e-01	 1.426869245923193e+01
 1.392364729205024e+00	 7.517659114181249e-01	 1.422619060157476e+01
 1.385123293173778e+00	 7.650261858340986e-01	 1.418332569433766e+01
 1.377745533201551e+00	 7.782344862904220e-01	 1.414002971415141e+01
 1.370231937395432e+00	 7.913887548178756e-01	 1.409622275493049e+01
 1.362583034523394e+00	 8.044869378055158e-01	 1.405181548351842e+01
 1.354799394029036e+00	 8.175269869899446e-01	 1.400671177461766e+01
 1.434466901708098e+00	 6.885752796267373e-01	 1.439331358213166e+01
 1.427876444432247e+00	 7.021396847596603e-01	 1.435424682381721e+01
 1.421147059770840e+00	 7.156622046553046e-01	 1.431480896980576e+01
 1.414279035318203e+00	 7.291407626811482e-01	 1.427499139961330e+01
 1.407272699063309e+00	 7.425732817023141e-01	 1.423476500951518e+01
 1.400128419543044e+00	 7.559576850437106e-01	 1.419408196012897e+01
 1.392846605968520e+00	 7.692918974604742e-01	 1.415287762312300e+01
 1.385427708324037e+00	 7.825738461158362e-01	 1.411107272584292e+01
 1.377872217438328e+00	 7.958014615655431e-01	 1.406857569139983e+01
 1.370180665027733e+00	 8.089726787479194e-01	 1.402528517046744e+01
 1.362353623711018e+00	 8.220854379786513e-01	 1.398109275970500e+01
 1.442420998397841e+00	 6.923934188600199e-01	 1.435104797876868e+01
 1.435793997138486e+00	 7.060330384088467e-01	 1.431432696951842e+01
 1.429027298143399e+00	 7.196305404673842e-01	 1.427712070312181e+01
 1.422121190601619e+00	 7.331838368882182e-01	 1.423940802927421e+01
 1.415076004320817e+00	 7.466908390187935e-01	 1.420114685009947e+01
 1.407892109881419e+00	 7.601494586688904e-01	 1.416227592135640e+01
 1.400569918763610e+00	 7.735576090864466e-01	 1.412271685985287e+01
 1.393109883446856e+00	 7.869132059408491e-01	 1.408237635597703e+01
 1.385512497481530e+00	 8.002141683128107e-01	 1.404114858896684e+01
 1.377778295532340e+00	 8.134584196899231e-01	 1.399891784120049e+01
 1.369907853393219e+00	 8.266438889669586e-01	 1.395556130641292e+01
 1.450375095087947e+00	 6.962115580926687e-01	 1.430903553708370e+01
 1.443711549845151e+00	 7.099263920574083e-01	 1.427463977760448e+01
 1.436907536516434e+00	 7.235988762788464e-01	 1.423965252399374e+01
 1.429963345885546e+00	 7.372269110946765e-01	 1.420403657698747e+01
 1.422879309578859e+00	 7.508083963346656e-01	 1.416773351127177e+01
 1.415655800220335e+00	 7.643412322934658e-01	 1.413066553664559e+01
 1.408293231559236e+00	 7.778233207118169e-01	 1.409273757245889e+01
 1.400792058570189e+00	 7.912525657652609e-01	 1.405383953435006e+01
 1.393152777525212e+00	 8.046268750594778e-01	 1.401384883097750e+01
 1.385375926037378e+00	 8.179441606313270e-01	 1.397263306705774e+01
 1.377462083075788e+00	 8.312023399546654e-01	 1.393005294759939e+01
 1.458329191778564e+00	 7.000296973245008e-01	 1.426722325891525e+01
 1.451629102552406e+00	 7.138197457051577e-01	 1.423511637697237e+01
 1.444787774890119e+00	 7.275672120895003e-01	 1.420232297652513e+01
 1.437805501170166e+00	 7.412699853003292e-01	 1.416878635229940e+01
 1.430682614837620e+00	 7.549259536497341e-01	 1.413442847727543e+01
 1.423419490559979e+00	 7.685330059172392e-01	 1.409915193002523e+01
 1.416016544355583e+00	 7.820890323363864e-01	 1.406284204238472e+01
 1.408474233694218e+00	 7.955919255888726e-01	 1.402536926659783e+01
 1.400793057569549e+00	 8.090395818053450e-01	 1.398659175969649e+01
 1.392973556543012e+00	 8.224299015719309e-01	 1.394635818145485e+01
 1.385016312758878e+00	 8.357607909415733e-01	 1.390451070078707e+01
 1.309474015933302e+00	 7.901762810605032e-01	 1.416685976662717e+01
 1.301821140463702e+00	 8.027219076951697e-01	 1.411157555925922e+01
 1.294039255616013e+00	 8.152074068055490e-01	 1.405203091835022e+01
 1.286129031413138e+00	 8.276308214869168e-01	 1.398826239492228e+01
 1.278091176953135e+00	 8.399902039001789e-01	 1.392032208217173e+01
 1.269926440281931e+00	 8.522836162359335e-01	 1.384828041624266e+01
 1.261635608237728e+00	 8.645091316774267e-01	 1.377222905069997e+01
 1.253219506267087e+00	 8.766648353614377e-01	 1.369228379207481e+01
 1.244678998212643e+00	 8.887488253361341e-01	 1.360858758287563e+01
 1.236014986072517e+00	 9.007592135149234e-01	 1.352131351752750e+01
 1.227228409731459e+00	 9.126941266253302e-01	 1.343066787581558e+01
 1.317028245617134e+00	 7.947347320474100e-01	 1.413892148542993e+01
 1.309331221445109e+00	 8.073527331958290e-01	 1.408537987493932e+01
 1.301504443652370e+00	 8.199102599500554e-01	 1.402763015044582e+01
 1.293548586127093e+00	 8.324053441161684e-01	 1.396569097700966e+01
 1.285464362058033e+00	 8.448360266181746e-01	 1.389959821441278e+01
 1.277252523806497e+00	 8.572003584676333e-01	 1.382940784325969e+01
 1.268913862749860e+00	 8.694964017321672e-01	 1.375519896775764e+01
 1.260449209096579e+00	 8.817222305018921e-01	 1.367707688217275e+01
 1.251859431672694e+00	 8.938759318527958e-01	 1.359517618694306e+01
 1.243145437679840e+00	 9.059556068060929e-01	 1.350966393945869e+01
 1.234308172424851e+00	 9.179593712825771e-01	 1.342074282359840e+01
 1.324582475300281e+00	 7.992931830351171e-01	 1.411162405904142e+01
 1.316841302425870e+00	 8.119835586972877e-01	 1.405962643559757e+01
 1.308969631688123e+00	 8.246131130953608e-01	 1.400347947866806e+01
 1.300968140840490e+00	 8.371798667462164e-01	 1.394319061567485e+01
 1.292837547162419e+00	 8.496818493369616e-01	 1.387878597420620e+01
 1.284578607330597e+00	 8.621171007001166e-01	 1.381031342510659e+01
 1.276192117261567e+00	 8.744836717876796e-01	 1.373784570555311e+01
 1.267678911925683e+00	 8.867796256431015e-01	 1.366148360875507e+01
 1.259039865132385e+00	 8.990030383701902e-01	 1.358135922585723e+01
 1.250275889286823e+00	 9.111520000979663e-01	 1.349763922461655e+01
 1.241387935117909e+00	 9.232246159404913e-01	 1.341052814846248e+01
 1.332136704982894e+00	 8.038516340234235e-01	 1.408485461808596e+01
 1.324351383406119e+00	 8.166143841993467e-01	 1.403422100823301e+01
 1.316434819723388e+00	 8.293159662412655e-01	 1.397950061561576e+01
 1.308387695553425e+00	 8.419543893768620e-01	 1.392069615915838e+01
 1.300210732266370e+00	 8.545276720563417e-01	 1.385783041696925e+01
 1.291904690854288e+00	 8.670338429331873e-01	 1.379094937818890e+01
 1.283470371772889e+00	 8.794709418437703e-01	 1.372012547846701e+01
 1.274908614754424e+00	 8.918370207848774e-01	 1.364546090535811e+01
 1.266220298591729e+00	 9.041301448881338e-01	 1.356709095882744e+01
 1.257406340893468e+00	 9.163483933903669e-01	 1.348518745100889e+01
 1.248467697810633e+00	 9.284898605989058e-01	 1.339996212835460e+01
 1.339690934665124e+00	 8.084100850121306e-01	 1.405850877743014e+01
 1.331861464385989e+00	 8.212452097018050e-01	 1.400907750435612e+01
 1.323900007758282e+00	 8.340188193875695e-01	 1.395562313985678e+01
 1.315807250265996e+00	 8.467289120079050e-01	 1.389815010701147e+01
 1.307583917369962e+00	 8.593734947761186e-01	 1.383668410128492e+01
 1.299230774377627e+00	 8.719505851666497e-01	 1.377127534300955e+01
 1.290748626283865e+00	 8.844582119002470e-01	 1.370200191747894e+01
 1.282138317582823e+00	 8.968944159270301e-01	 1.362897318860827e+01
 1.273400732050734e+00	 9.092572514064431e-01	 1.355233327097879e+01
 1.264536792499779e+00	 9.215447866831195e-01	 1.347226454398853e+01
 1.255547460503024e+00	 9.337551052576544e-01	 1.338899119078866e+01
 1.347245164347121e+00	 8.129685360010375e-01	 1.403249046895908e+01
 1.339371545365616e+00	 8.258760352044638e-01	 1.398411782154675e+01
 1.331365195792919e+00	 8.387216725340733e-01	 1.393178434480163e+01
 1.323226804978296e+00	 8.515034346391478e-01	 1.387550246475003e+01
 1.314957102473272e+00	 8.642193174960928e-01	 1.381530694773438e+01
 1.306556857900669e+00	 8.768673274003077e-01	 1.375125824550978e+01
 1.298026880794533e+00	 8.894454819569168e-01	 1.368344593227861e+01
 1.289368020410903e+00	 9.019518110693714e-01	 1.361199221930015e+01
 1.280581165509415e+00	 9.143843579249360e-01	 1.353705553152894e+01
 1.271667244105759e+00	 9.267411799760478e-01	 1.345883412959540e+01
 1.262627223195081e+00	 9.390203499165696e-01	 1.337756975935679e+01
 1.354799394029036e+00	 8.175269869899446e-01	 1.400671177461766e+01
 1.346881626345133e+00	 8.305068607071227e-01	 1.395927168492063e+01
 1.338830383827416e+00	 8.434245256805770e-01	 1.390792908718441e+01
 1.330646359690425e+00	 8.562779572703907e-01	 1.385271059787270e+01
 1.322330287576376e+00	 8.690651402160674e-01	 1.379366609690795e+01
 1.313882941423474e+00	 8.817840696339661e-01	 1.373087215746357e+01
 1.305305135304933e+00	 8.944327520135860e-01	 1.366443557237066e+01
 1.296597723238691e+00	 9.070092062117130e-01	 1.359449696247436e+01
 1.287761598967780e+00	 9.195114644434285e-01	 1.352123445103843e+01
 1.278797695711410e+00	 9.319375732689762e-01	 1.344486738711667e+01
 1.269706985886806e+00	 9.442855945754851e-01	 1.336566009967630e+01
 1.362353623711018e+00	 8.220854379786513e-01	 1.398109275970500e+01
 1.354391707324675e+00	 8.351376862095812e-01	 1.393447648850839e+01
 1.346295571861889e+00	 8.481273788268814e-01	 1.388400963516715e+01
 1.338065914402476e+00	 8.610524799014340e-01	 1.382973908526678e+01
 1.329703472679351e+00	 8.739109629358442e-01	 1.377173576662628e+01
 1.321209024946097e+00	 8.867008118674287e-01	 1.371009815596381e+01
 1.312583389815104e+00	 8.994200220700627e-01	 1.364495588721374e+01
 1.303827426066207e+00	 9.120666013538659e-01	 1.357647344653479e+01
 1.294942032425843e+00	 9.246385709617381e-01	 1.350485393777101e+01
 1.285928147316737e+00	 9.371339665617289e-01	 1.343034290089630e+01
 1.276786748578197e+00	 9.495508392342334e-01	 1.335323216479267e+01
 1.369907853393219e+00	 8.266438889669586e-01	 1.395556130641292e+01
 1.361901788304375e+00	 8.397685117116401e-01	 1.390967713655039e+01
 1.353760759896453e+00	 8.528302319727858e-01	 1.385998551608177e+01
 1.345485469114547e+00	 8.658270025320798e-01	 1.380655957202694e+01
 1.337076657782270e+00	 8.787567856552245e-01	 1.374949710840182e+01
 1.328535108468596e+00	 8.916175541004997e-01	 1.368892418203439e+01
 1.319861644325085e+00	 9.044072921261535e-01	 1.362499878542886e+01
 1.311057128893476e+00	 9.171239964956415e-01	 1.355791462144085e+01
 1.302122465883613e+00	 9.297656774796815e-01	 1.348790495319851e+01
 1.293058598921742e+00	 9.423303598541299e-01	 1.341524651142110e+01
 1.283866511269256e+00	 9.548160838926484e-01	 1.334026344006166e+01
 1.377462083075788e+00	 8.312023399546654e-01	 1.393005294759939e+01
 1.369411869284369e+00	 8.443993372130992e-01	 1.388482588471073e+01
 1.361225947931225e+00	 8.575330851180918e-01	 1.383582336382394e+01
 1.352905023826734e+00	 8.706015251621280e-01	 1.378315062170743e+01
 1.344449842885214e+00	 8.836026083740119e-01	 1.372693806317136e+01
 1.335861191991027e+00	 8.965342963329830e-01	 1.366734489840266e+01
 1.327139898834915e+00	 9.093945621816663e-01	 1.360456289311506e+01
 1.318286831720522e+00	 9.221813916368512e-01	 1.353882021601197e+01
 1.309302899341102e+00	 9.348927839970761e-01	 1.347038536668233e+01
 1.300189050526428e+00	 9.475267531460032e-01	 1.339957116571306e+01
 1.290946273959983e+00	 9.600813285505631e-01	 1.332673878752832e+01
 1.385016312758878e+00	 8.357607909415733e-01	 1.390451070078707e+01
 1.376921950264790e+00	 8.490301627137588e-01	 1.385988218121301e+01
 1.368691135966320e+00	 8.622359382625984e-01	 1.381149676591166e+01
 1.360324578539134e+00	 8.753760477913800e-01	 1.375949756803155e+01
 1.351823027988257e+00	 8.884484310920081e-01	 1.370405321632502e+01
 1.343187275513448e+00	 9.014510385646831e-01	 1.364536154646281e+01
 1.334418153344632e+00	 9.143818322364075e-01	 1.358365341130505e+01
 1.325516534547367e+00	 9.272387867773062e-01	 1.351919659437694e+01
 1.316483332798322e+00	 9.400198905137382e-01	 1.345229980936354e+01
 1.307319502130800e+00	 9.527231464371733e-01	 1.338331676705263e+01
 1.298026036650376e+00	 9.653465732078103e-01	 1.331265028982434e+01
 1.227228409731459e+00	 9.126941266253302e-01	 1.343066787581558e+01
 1.218318722741866e+00	 9.245537152568284e-01	 1.333666093173879e+01
 1.209288427971361e+00	 9.363340964839008e-01	 1.323975034330268e+01
 1.200138582671100e+00	 9.480334393840433e-01	 1.314082477113728e+01
 1.190870280673080e+00	 9.596499315567852e-01	 1.304081683985279e+01
 1.181484651980107e+00	 9.711817800374664e-01	 1.294070528622764e+01
 1.171982862328630e+00	 9.826272122003074e-01	 1.284090471320490e+01
 1.162366112724793e+00	 9.939844766498344e-01	 1.273853707384410e+01
 1.152635638954060e+00	 1.005251844099736e+00	 1.263430720210117e+01
 1.142792711064822e+00	 1.016427608238230e+00	 1.252973848166648e+01
 1.132838632826431e+00	 1.027510086579036e+00	 1.242639742797265e+01
 1.234308172424851e+00	 9.179593712825771e-01	 1.342074282359840e+01
 1.225347086307702e+00	 9.298873767404560e-01	 1.332838906549826e+01
 1.216264696634833e+00	 9.417357178539901e-01	 1.323299889084336e+01
 1.207062066756604e+00	 9.535025531382606e-01	 1.313541841329822e+01
 1.197740296815246e+00	 9.651860597372364e-01	 1.303653697711218e+01
 1.188300523332462e+00	 9.767844343428165e-01	 1.293728948671401e+01
 1.178743918769747e+00	 9.882958941031162e-01	 1.283865864790748e+01
 1.169071691061755e+00	 9.997186775190332e-01	 1.274007092277037e+01
 1.159285083123101e+00	 1.011051045328170e+00	 1.263909422890898e+01
 1.149385372328986e+00	 1.022291281375197e+00	 1.253706900289810e+01
 1.139373869970101e+00	 1.033437693467736e+00	 1.243553121550855e+01
 1.241387935117909e+00	 9.232246159404913e-01	 1.341052814846248e+01
 1.232375449873197e+00	 9.352210382247070e-01	 1.331994517341831e+01
 1.223240965297948e+00	 9.471373392246524e-01	 1.322619547090570e+01
 1.213985550841725e+00	 9.589716668929941e-01	 1.313007816624943e+01
 1.204610312956998e+00	 9.707221879181396e-01	 1.303243505289847e+01
 1.195116394684370e+00	 9.823870886485513e-01	 1.293415311396404e+01
 1.185504975210384e+00	 9.939645760062389e-01	 1.283616695835351e+01
 1.175777269398207e+00	 1.005452878388470e+00	 1.273944574967574e+01
 1.165934527291609e+00	 1.016850246556763e+00	 1.264192251657882e+01
 1.155978033592601e+00	 1.028154954512245e+00	 1.254261015097118e+01
 1.145909107113222e+00	 1.039365300356437e+00	 1.244301196973305e+01
 1.248467697810633e+00	 9.284898605989058e-01	 1.339996212835460e+01
 1.239403813438355e+00	 9.405546997094260e-01	 1.331125706275593e+01
 1.230217233960716e+00	 9.525389605957433e-01	 1.321925981517198e+01
 1.220909034926485e+00	 9.644407806481131e-01	 1.312471813884630e+01
 1.211480329098371e+00	 9.762583160993819e-01	 1.302842206116094e+01
 1.201932266035883e+00	 9.879897429545742e-01	 1.293120660766645e+01
 1.192266031650608e+00	 9.996332579095951e-01	 1.283395444363146e+01
 1.182482847734234e+00	 1.011187079258084e+00	 1.273759841222000e+01
 1.172583971459682e+00	 1.022649447785477e+00	 1.264268954318711e+01
 1.162570694855779e+00	 1.034018627649354e+00	 1.254626786346440e+01
 1.152444344255910e+00	 1.045292907245138e+00	 1.244875635822283e+01
 1.255547460503024e+00	 9.337551052576544e-01	 1.338899119078866e+01
 1.246432177003179e+00	 9.458883611944567e-01	 1.330226100648424e+01
 1.237193502623148e+00	 9.579405819671213e-01	 1.321212038152830e+01
 1.227832519010907e+00	 9.699098944034904e-01	 1.311926136920647e+01
 1.218350345239403e+00	 9.817944442808502e-01	 1.302441806898703e+01
 1.208748137387051e+00	 9.935923972607894e-01	 1.292836956360790e+01
 1.199027088090488e+00	 1.005301939813108e+00	 1.283194277653937e+01
 1.189188426069918e+00	 1.016921280127817e+00	 1.273601522809277e+01
 1.179233415627417e+00	 1.028448649014271e+00	 1.264151766810178e+01
 1.169163356118627e+00	 1.039882300786502e+00	 1.254796152327486e+01
 1.158979581398281e+00	 1.051220514133840e+00	 1.245269405266005e+01
 1.262627223195081e+00	 9.390203499165696e-01	 1.337756975935679e+01
 1.253460540567672e+00	 9.512220226796436e-01	 1.329290158284841e+01
 1.244169771285253e+00	 9.633422033386418e-01	 1.320471418848692e+01
 1.234756003095011e+00	 9.753790081589960e-01	 1.311363965586394e+01
 1.225220361380129e+00	 9.873305724624319e-01	 1.302035204639744e+01
 1.215564008737927e+00	 9.991950515671001e-01	 1.292557056405657e+01
 1.205788144530093e+00	 1.010970621716699e+00	 1.283006263926089e+01
 1.195894004405344e+00	 1.022655480997609e+00	 1.273464691335545e+01
 1.185882859794912e+00	 1.034247850243104e+00	 1.264019610068665e+01
 1.175756017381255e+00	 1.045745973923671e+00	 1.254762436803888e+01
 1.165514818540451e+00	 1.057148121022542e+00	 1.245476814623806e+01
 1.269706985886806e+00	 9.442855945754851e-01	 1.336566009967630e+01
 1.260488904131836e+00	 9.565556841648301e-01	 1.328313151458376e+01
 1.251146039947044e+00	 9.687438247101628e-01	 1.319698664944266e+01
 1.241679487178819e+00	 9.808481219145021e-01	 1.310779338887260e+01
 1.232090377520585e+00	 9.928667006440136e-01	 1.301616169614597e+01
 1.222379880088564e+00	 1.004797705873412e+00	 1.292274700814823e+01
 1.212549200969489e+00	 1.016639303620289e+00	 1.282825355626418e+01
 1.202599582740595e+00	 1.028389681867401e+00	 1.273343758968927e+01
 1.192532303962266e+00	 1.040047051471937e+00	 1.263911047725782e+01
 1.182348678643772e+00	 1.051609647060840e+00	 1.254614166360251e+01
 1.172050055682539e+00	 1.063075727911243e+00	 1.245493557011952e+01
 1.276786748578197e+00	 9.495508392342334e-01	 1.335323216479267e+01
 1.267517267695675e+00	 9.618893456498609e-01	 1.327291150780877e+01
 1.258122308608529e+00	 9.741454460815405e-01	 1.318889140676817e+01
 1.248602971262355e+00	 9.863172356698795e-01	 1.310167138085950e+01
 1.238960393660808e+00	 9.984028288254821e-01	 1.301179328352445e+01
 1.229195751439012e+00	 1.010400360179626e+00	 1.291984494227466e+01
 1.219310257408746e+00	 1.022307985523802e+00	 1.282646372714276e+01
 1.209305161075755e+00	 1.034123882737134e+00	 1.273234002333578e+01
 1.199181748129577e+00	 1.045846252700731e+00	 1.263822058321794e+01
 1.188941339906288e+00	 1.057473320197989e+00	 1.254491173244412e+01
 1.178585292824659e+00	 1.069003334799945e+00	 1.245328240489956e+01
 1.283866511269256e+00	 9.548160838926484e-01	 1.334026344006166e+01
 1.274545631259191e+00	 9.672230071345801e-01	 1.326221009060560e+01
 1.265098577269720e+00	 9.795470674526320e-01	 1.318039016575711e+01
 1.255526455345638e+00	 9.917863494249991e-01	 1.309523069803146e+01
 1.245830409800833e+00	 1.003938957006725e+00	 1.300720146617366e+01
 1.236011622789324e+00	 1.016003014485649e+00	 1.291681889047535e+01
 1.226071313847931e+00	 1.027976667427159e+00	 1.282464985939962e+01
 1.216010739410909e+00	 1.039858083606749e+00	 1.273131546211951e+01
 1.205831192296940e+00	 1.051645453929444e+00	 1.263749460110389e+01
 1.195534001168910e+00	 1.063336993335098e+00	 1.254392745854434e+01
 1.185120529966928e+00	 1.074930941688647e+00	 1.245141879022550e+01
 1.290946273959983e+00	 9.600813285505631e-01	 1.332673878752832e+01
 1.281573994822387e+00	 9.725566686188315e-01	 1.325100345130043e+01
 1.272074845930627e+00	 9.849486888232941e-01	 1.317145252841784e+01
 1.262449939428692e+00	 9.972554631797322e-01	 1.308843649113471e+01
 1.252700425940696e+00	 1.009475085187628e+00	 1.300234912389752e+01
 1.242827494139551e+00	 1.021605668791384e+00	 1.291363168483118e+01
 1.232832370287113e+00	 1.033645349330281e+00	 1.282277700117777e+01
 1.222716317746139e+00	 1.045592284476185e+00	 1.273033347230580e+01
 1.212480636464455e+00	 1.057444655158037e+00	 1.263690895339356e+01
 1.202126662431749e+00	 1.069200666472146e+00	 1.254317449252338e+01
 1.191655767109463e+00	 1.080858548577347e+00	 1.244986789370377e+01
 1.298026036650376e+00	 9.653465732078103e-01	 1.331265028982435e+01
 1.288602358385265e+00	 9.778903301024591e-01	 1.323927527645471e+01
 1.279051114591260e+00	 9.903503101933834e-01	 1.316205582712588e+01
 1.269373423511538e+00	 1.002724576933950e+00	 1.308126182637177e+01
 1.259570442080433e+00	 1.015011213368079e+00	 1.299720718848368e+01
 1.249643365489745e+00	 1.027208323096735e+00	 1.291025429586036e+01
 1.239593426726359e+00	 1.039314031233090e+00	 1.282081837393873e+01
 1.229421896081530e+00	 1.051326485345384e+00	 1.272937177529839e+01
 1.219130080632221e+00	 1.063243856386471e+00	 1.263644814498898e+01
 1.208719323694913e+00	 1.075064339609113e+00	 1.254264643872219e+01
 1.198191004252381e+00	 1.086786155466048e+00	 1.244863476532935e+01
 1.132838632826431e+00	 1.027510086579036e+00	 1.242639742797265e+01
 1.122776458105517e+00	 1.038495764766839e+00	 1.231972401044306e+01
 1.112605858161041e+00	 1.049384918001987e+00	 1.220473714653980e+01
 1.102328215784825e+00	 1.060175958953205e+00	 1.208246406523184e+01
 1.091944945054995e+00	 1.070867327338678e+00	 1.195394223276111e+01
 1.081457490683039e+00	 1.081457490683039e+00	 1.182021080708008e+01
 1.070867327338677e+00	 1.091944945054995e+00	 1.168230178375163e+01
 1.060175958953205e+00	 1.102328215784825e+00	 1.154123088066196e+01
 1.049384918001987e+00	 1.112605858161041e+00	 1.139798821107297e+01
 1.038495764766839e+00	 1.122776458105517e+00	 1.125352879644773e+01
 1.027510086579036e+00	 1.132838632826431e+00	 1.110876297208859e+01
 1.139373869970101e+00	 1.033437693467736e+00	 1.243553121550855e+01
 1.129253647530560e+00	 1.044486746976497e+00	 1.232991064544624e+01
 1.119024374372843e+00	 1.055438718689437e+00	 1.221534737536280e+01
 1.108687441265957e+00	 1.066292012118133e+00	 1.209304005705369e+01
 1.098244270445701e+00	 1.077045057979658e+00	 1.196420331177785e+01
 1.087696314957954e+00	 1.087696314957954e+00	 1.183005868759686e+01
 1.077045057979658e+00	 1.098244270445701e+00	 1.169182528681053e+01
 1.066292012118133e+00	 1.108687441265958e+00	 1.155071011278283e+01
 1.055438718689437e+00	 1.119024374372843e+00	 1.140789818773372e+01
 1.044486746976496e+00	 1.129253647530560e+00	 1.126454249506710e+01
 1.033437693467736e+00	 1.139373869970101e+00	 1.112175380149981e+01
 1.145909107113222e+00	 1.039365300356437e+00	 1.244301196973305e+01
 1.135730836955065e+00	 1.050477729186075e+00	 1.233858587619751e+01
 1.125442890584133e+00	 1.061492519376731e+00	 1.222463574120196e+01
 1.115046666746616e+00	 1.072408065282828e+00	 1.210253630695482e+01
 1.104543595835981e+00	 1.083222788620335e+00	 1.197368417024571e+01
 1.093935139232501e+00	 1.093935139232501e+00	 1.183948822780424e+01
 1.083222788620335e+00	 1.104543595835981e+00	 1.170135976971733e+01
 1.072408065282828e+00	 1.115046666746616e+00	 1.156070227219419e+01
 1.061492519376731e+00	 1.125442890584134e+00	 1.141890094336325e+01
 1.050477729186075e+00	 1.135730836955066e+00	 1.127731207786965e+01
 1.039365300356437e+00	 1.145909107113222e+00	 1.113725227782346e+01
 1.152444344255910e+00	 1.045292907245138e+00	 1.244875635822283e+01
 1.142208026379153e+00	 1.056468711395594e+00	 1.234567800989935e+01
 1.131861406795029e+00	 1.067546320063906e+00	 1.223254167807913e+01
 1.121405892226911e+00	 1.078524118447347e+00	 1.211090284594651e+01
 1.110842921225937e+00	 1.089400519260783e+00	 1.198234489303297e+01
 1.100173963506769e+00	 1.100173963506769e+00	 1.184846901356034e+01
 1.089400519260783e+00	 1.110842921225936e+00	 1.171088376011215e+01
 1.078524118447347e+00	 1.121405892226911e+00	 1.157119426598146e+01
 1.067546320063906e+00	 1.131861406795029e+00	 1.143099120203810e+01
 1.056468711395593e+00	 1.142208026379153e+00	 1.129183952614968e+01
 1.045292907245138e+00	 1.152444344255910e+00	 1.115526708505639e+01
 1.158979581398281e+00	 1.051220514133840e+00	 1.245269405266005e+01
 1.148685215802940e+00	 1.062459693605073e+00	 1.235112785013817e+01
 1.138279923005648e+00	 1.073600120751002e+00	 1.223901657545916e+01
 1.127765117706955e+00	 1.084640171611749e+00	 1.211810108811719e+01
 1.117142246615671e+00	 1.095578249901076e+00	 1.199015634617327e+01
 1.106412787780847e+00	 1.106412787780847e+00	 1.185698078238719e+01
 1.095578249901076e+00	 1.117142246615671e+00	 1.172038528224500e+01
 1.084640171611749e+00	 1.127765117706955e+00	 1.158218181933885e+01
 1.073600120751001e+00	 1.138279923005648e+00	 1.144417180616836e+01
 1.062459693605073e+00	 1.148685215802941e+00	 1.130813422072398e+01
 1.051220514133840e+00	 1.158979581398281e+00	 1.117581357116286e+01
 1.165514818540451e+00	 1.057148121022542e+00	 1.245476814623806e+01
 1.155162405226548e+00	 1.068450675814532e+00	 1.235488912301157e+01
 1.144698439216106e+00	 1.079653921438058e+00	 1.224402421292126e+01
 1.134124343186860e+00	 1.090756224776091e+00	 1.212410427364314e+01
 1.123441572005285e+00	 1.101755980541289e+00	 1.199710062798395e+01
 1.112651612054825e+00	 1.112651612054825e+00	 1.186501388244391e+01
 1.101755980541289e+00	 1.123441572005284e+00	 1.172986232352086e+01
 1.090756224776090e+00	 1.134124343186860e+00	 1.159366994938140e+01
 1.079653921438057e+00	 1.144698439216106e+00	 1.145845419725046e+01
 1.068450675814532e+00	 1.155162405226549e+00	 1.132621342927141e+01
 1.057148121022542e+00	 1.165514818540452e+00	 1.119891424162791e+01
 1.172050055682539e+00	 1.063075727911243e+00	 1.245493557011952e+01
 1.161639594650095e+00	 1.074441658023991e+00	 1.235692890195165e+01
 1.151116955426522e+00	 1.085707722125113e+00	 1.224754119316371e+01
 1.140483568666735e+00	 1.096872277940430e+00	 1.212889790976689e+01
 1.129740897394881e+00	 1.107933711181497e+00	 1.200317151778441e+01
 1.118890436328793e+00	 1.118890436328793e+00	 1.187256972872421e+01
 1.107933711181497e+00	 1.129740897394881e+00	 1.173932329789675e+01
 1.096872277940430e+00	 1.140483568666735e+00	 1.160567343543638e+01
 1.085707722125113e+00	 1.151116955426522e+00	 1.147385889272276e+01
 1.074441658023991e+00	 1.161639594650096e+00	 1.134610278940506e+01
 1.063075727911243e+00	 1.172050055682539e+00	 1.122459924837496e+01
 1.178585292824659e+00	 1.069003334799945e+00	 1.245328240489956e+01
 1.168116784073700e+00	 1.080432640233470e+00	 1.235722803129427e+01
 1.157535471637011e+00	 1.091761522812206e+00	 1.224955737340815e+01
 1.146842794146693e+00	 1.102988331104825e+00	 1.213248020982086e+01
 1.136040222784560e+00	 1.114111441821773e+00	 1.200837492230376e+01
 1.125129260602840e+00	 1.125129260602840e+00	 1.187966125658814e+01
 1.114111441821773e+00	 1.136040222784560e+00	 1.174878750625234e+01
 1.102988331104825e+00	 1.146842794146693e+00	 1.161821728594817e+01
 1.091761522812206e+00	 1.157535471637012e+00	 1.149041595907842e+01
 1.080432640233470e+00	 1.168116784073701e+00	 1.136783678764421e+01
 1.069003334799945e+00	 1.178585292824659e+00	 1.125250220853471e+01
 1.185120529966928e+00	 1.074930941688647e+00	 1.245141879022550e+01
 1.174593973497482e+00	 1.086423622442988e+00	 1.235578154864424e+01
 1.163953987847693e+00	 1.097815323499378e+00	 1.225007629526361e+01
 1.153202019626845e+00	 1.109104384269333e+00	 1.213486253037564e+01
 1.142339548174426e+00	 1.120289172462195e+00	 1.201272931986901e+01
 1.131368084877056e+00	 1.131368084877056e+00	 1.188631337272885e+01
 1.120289172462194e+00	 1.142339548174426e+00	 1.175828559385138e+01
 1.109104384269333e+00	 1.153202019626845e+00	 1.163133720212745e+01
 1.097815323499378e+00	 1.163953987847693e+00	 1.150816548137709e+01
 1.086423622442988e+00	 1.174593973497482e+00	 1.139145923444280e+01
 1.074930941688647e+00	 1.185120529966928e+00	 1.127711975073237e+01
 1.191655767109463e+00	 1.080858548577347e+00	 1.244986789370377e+01
 1.181071162921560e+00	 1.092414604652565e+00	 1.235313271310753e+01
 1.170372504058683e+00	 1.103869124186667e+00	 1.224911561311144e+01
 1.159561245107302e+00	 1.115220437434012e+00	 1.213606980657984e+01
 1.148638873564579e+00	 1.126466903102834e+00	 1.201626620245984e+01
 1.137606909151529e+00	 1.137606909151529e+00	 1.189256340367463e+01
 1.126466903102834e+00	 1.148638873564579e+00	 1.176786000500576e+01
 1.115220437434012e+00	 1.159561245107302e+00	 1.164508003847173e+01
 1.103869124186666e+00	 1.170372504058683e+00	 1.152715802929600e+01
 1.092414604652565e+00	 1.181071162921561e+00	 1.141525961863990e+01
 1.080858548577348e+00	 1.191655767109464e+00	 1.129719563767801e+01
 1.198191004252381e+00	 1.086786155466048e+00	 1.244863476532935e+01
 1.187548352346055e+00	 1.098405586862223e+00	 1.235082080835066e+01
 1.176791020270100e+00	 1.109922924874111e+00	 1.224670955374540e+01
 1.165920470588176e+00	 1.121336490598920e+00	 1.213614098576547e+01
 1.154938198955122e+00	 1.132644633743766e+00	 1.201903051570941e+01
 1.143845733426350e+00	 1.143845733426350e+00	 1.189846154191977e+01
 1.132644633743766e+00	 1.154938198955122e+00	 1.177756543504861e+01
 1.121336490598919e+00	 1.165920470588176e+00	 1.165950426027521e+01
 1.109922924874111e+00	 1.176791020270100e+00	 1.154744867318876e+01
 1.098405586862222e+00	 1.187548352346055e+00	 1.143455283283057e+01
 1.086786155466048e+00	 1.198191004252381e+00	 1.131337268809644e+01
 1.027510086579036e+00	 1.132838632826431e+00	 1.110876297208859e+01
 1.016427608238230e+00	 1.142792711064822e+00	 1.096425979573599e+01
 1.005251844099737e+00	 1.152635638954059e+00	 1.082188114507120e+01
 9.939844766498350e-01	 1.162366112724792e+00	 1.068434739591723e+01
 9.826272122003075e-01	 1.171982862328630e+00	 1.055434745523229e+01
 9.711817800374670e-01	 1.181484651980107e+00	 1.043123387798651e+01
 9.596499315567855e-01	 1.190870280673080e+00	 1.029910113609264e+01
 9.480334393840437e-01	 1.200138582671100e+00	 1.015624075720248e+01
 9.363340964839015e-01	 1.209288427971361e+00	 1.000356141254358e+01
 9.245537152568286e-01	 1.218318722741866e+00	 9.841973972645581e+00
 9.126941266253301e-01	 1.227228409731459e+00	 9.672393622937522e+00
 1.033437693467736e+00	 1.139373869970101e+00	 1.112175380149982e+01
 1.022291281375197e+00	 1.149385372328985e+00	 1.098071613396984e+01
 1.011051045328171e+00	 1.159285083123100e+00	 1.084379388718346e+01
 9.997186775190335e-01	 1.169071691061754e+00	 1.071374064993904e+01
 9.882958941031171e-01	 1.178743918769747e+00	 1.059264598306309e+01
 9.767844343428174e-01	 1.188300523332462e+00	 1.046693372842004e+01
 9.651860597372367e-01	 1.197740296815246e+00	 1.033081061597453e+01
 9.535025531382613e-01	 1.207062066756603e+00	 1.018516509982257e+01
 9.417357178539907e-01	 1.216264696634832e+00	 1.003088440921692e+01
 9.298873767404562e-01	 1.225347086307701e+00	 9.868856786678004e+00
 9.179593712825768e-01	 1.234308172424850e+00	 9.699973771078128e+00
 1.039365300356437e+00	 1.145909107113222e+00	 1.113725227782346e+01
 1.028154954512246e+00	 1.155978033592601e+00	 1.100050041660151e+01
 1.016850246556764e+00	 1.165934527291609e+00	 1.086989016557789e+01
 1.005452878388470e+00	 1.175777269398208e+00	 1.074819410257484e+01
 9.939645760062396e-01	 1.185504975210383e+00	 1.062815971202183e+01
 9.823870886485516e-01	 1.195116394684369e+00	 1.049809521150092e+01
 9.707221879181400e-01	 1.204610312956998e+00	 1.035879372833766e+01
 9.589716668929942e-01	 1.213985550841725e+00	 1.021110566711309e+01
 9.471373392246524e-01	 1.223240965297948e+00	 1.005587842408231e+01
 9.352210382247075e-01	 1.232375449873196e+00	 9.893958823741402e+00
 9.232246159404913e-01	 1.241387935117908e+00	 9.726195603240173e+00
 1.045292907245138e+00	 1.152444344255910e+00	 1.115526708505639e+01
 1.034018627649354e+00	 1.162570694855779e+00	 1.102362341515441e+01
 1.022649447785478e+00	 1.172583971459681e+00	 1.090017438225609e+01
 1.011187079258085e+00	 1.182482847734234e+00	 1.078354124353826e+01
 9.996332579095959e-01	 1.192266031650607e+00	 1.065888745206028e+01
 9.879897429545744e-01	 1.201932266035882e+00	 1.052530952257283e+01
 9.762583160993820e-01	 1.211480329098371e+00	 1.038360994801848e+01
 9.644407806481138e-01	 1.220909034926485e+00	 1.023458341276131e+01
 9.525389605957438e-01	 1.230217233960716e+00	 1.007901938080043e+01
 9.405546997094262e-01	 1.239403813438355e+00	 9.917704764078247e+00
 9.284898605989058e-01	 1.248467697810633e+00	 9.751426641993008e+00
 1.051220514133840e+00	 1.158979581398281e+00	 1.117581357116286e+01
 1.039882300786503e+00	 1.169163356118626e+00	 1.105010190682161e+01
 1.028448649014271e+00	 1.179233415627417e+00	 1.093384197600252e+01
 1.016921280127817e+00	 1.189188426069917e+00	 1.081391905372472e+01
 1.005301939813108e+00	 1.199027088090488e+00	 1.068544636905544e+01
 9.935923972607900e-01	 1.208748137387051e+00	 1.054916963860789e+01
 9.817944442808508e-01	 1.218350345239403e+00	 1.040582114136843e+01
 9.699098944034910e-01	 1.227832519010907e+00	 1.025612245111844e+01
 9.579405819671214e-01	 1.237193502623147e+00	 1.010078728433235e+01
 9.458883611944573e-01	 1.246432177003179e+00	 9.940524433456572e+00
 9.337551052576544e-01	 1.255547460503023e+00	 9.776040755243583e+00
 1.057148121022542e+00	 1.165514818540452e+00	 1.119891424162792e+01
 1.045745973923672e+00	 1.175756017381254e+00	 1.107995917126508e+01
 1.034247850243104e+00	 1.185882859794912e+00	 1.096394308435968e+01
 1.022655480997610e+00	 1.195894004405343e+00	 1.083989992102942e+01
 1.010970621716699e+00	 1.205788144530092e+00	 1.070845477466642e+01
 9.991950515671009e-01	 1.215564008737927e+00	 1.057027011994476e+01
 9.873305724624323e-01	 1.225220361380129e+00	 1.042599135838089e+01
 9.753790081589967e-01	 1.234756003095011e+00	 1.027624983567388e+01
 9.633422033386424e-01	 1.244169771285253e+00	 1.012166598189668e+01
 9.512220226796441e-01	 1.253460540567672e+00	 9.962852542933977e+00
 9.390203499165697e-01	 1.262627223195081e+00	 9.800417871309826e+00
 1.063075727911243e+00	 1.172050055682539e+00	 1.122459924837496e+01
 1.051609647060841e+00	 1.182348678643772e+00	 1.110980504520199e+01
 1.040047051471938e+00	 1.192532303962266e+00	 1.098940649217258e+01
 1.028389681867402e+00	 1.202599582740594e+00	 1.086211956150171e+01
 1.016639303620290e+00	 1.212549200969488e+00	 1.072853192872842e+01
 1.004797705873412e+00	 1.222379880088564e+00	 1.058920690766824e+01
 9.928667006440139e-01	 1.232090377520585e+00	 1.044468662098528e+01
 9.808481219145028e-01	 1.241679487178819e+00	 1.029549533436263e+01
 9.687438247101636e-01	 1.251146039947044e+00	 1.014214292156534e+01
 9.565556841648307e-01	 1.260488904131836e+00	 9.985128427188668e+00
 9.442855945754851e-01	 1.269706985886806e+00	 9.824943693618810e+00
 1.069003334799945e+00	 1.178585292824659e+00	 1.125250220853471e+01
 1.057473320197990e+00	 1.188941339906287e+00	 1.113481043901106e+01
 1.045846252700731e+00	 1.199181748129576e+00	 1.101087763263322e+01
 1.034123882737135e+00	 1.209305161075755e+00	 1.088121417098474e+01
 1.022307985523803e+00	 1.219310257408746e+00	 1.074629783709593e+01
 1.010400360179627e+00	 1.229195751439012e+00	 1.060657711680127e+01
 9.984028288254823e-01	 1.238960393660807e+00	 1.046247470765728e+01
 9.863172356698798e-01	 1.248602971262355e+00	 1.031439120183066e+01
 9.741454460815411e-01	 1.258122308608529e+00	 1.016270890858692e+01
 9.618893456498615e-01	 1.267517267695675e+00	 1.000779578147691e+01
 9.495508392342339e-01	 1.276786748578197e+00	 9.850009415041134e+00
 1.074930941688647e+00	 1.185120529966928e+00	 1.127711975073238e+01
 1.063336993335098e+00	 1.195534001168910e+00	 1.115556574614697e+01
 1.051645453929444e+00	 1.205831192296939e+00	 1.102900211113181e+01
 1.039858083606749e+00	 1.216010739410908e+00	 1.089782021893740e+01
 1.027976667427159e+00	 1.226071313847931e+00	 1.076237304511036e+01
 1.016003014485650e+00	 1.236011622789324e+00	 1.062297882546917e+01
 1.003938957006725e+00	 1.245830409800832e+00	 1.047992493448754e+01
 9.917863494249995e-01	 1.255526455345638e+00	 1.033347194877502e+01
 9.795470674526328e-01	 1.265098577269720e+00	 1.018385785952790e+01
 9.672230071345804e-01	 1.274545631259191e+00	 1.003130239726615e+01
 9.548160838926487e-01	 1.283866511269256e+00	 9.876011431878043e+00
 1.080858548577348e+00	 1.191655767109464e+00	 1.129719563767800e+01
 1.069200666472146e+00	 1.202126662431748e+00	 1.117271869736796e+01
 1.057444655158038e+00	 1.212480636464455e+00	 1.104442549087075e+01
 1.045592284476185e+00	 1.222716317746139e+00	 1.091257423785198e+01
 1.033645349330281e+00	 1.232832370287112e+00	 1.077737842686016e+01
 1.021605668791385e+00	 1.242827494139550e+00	 1.063901086019007e+01
 1.009475085187628e+00	 1.252700425940695e+00	 1.049760793284391e+01
 9.972554631797325e-01	 1.262449939428692e+00	 1.035327410847128e+01
 9.849486888232947e-01	 1.272074845930627e+00	 1.020608655431400e+01
 9.725566686188319e-01	 1.281573994822386e+00	 1.005609989659897e+01
 9.600813285505632e-01	 1.290946273959983e+00	 9.903351057512506e+00
 1.086786155466048e+00	 1.198191004252381e+00	 1.131337268809644e+01
 1.075064339609114e+00	 1.208719323694913e+00	 1.118691681643856e+01
 1.063243856386472e+00	 1.219130080632220e+00	 1.105779307418877e+01
 1.051326485345384e+00	 1.229421896081530e+00	 1.092611260843396e+01
 1.039314031233091e+00	 1.239593426726358e+00	 1.079193497039413e+01
 1.027208323096735e+00	 1.249643365489745e+00	 1.065527257744271e+01
 1.015011213368080e+00	 1.259570442080433e+00	 1.051609542375913e+01
 1.002724576933951e+00	 1.269373423511538e+00	 1.037433600059562e+01
 9.903503101933842e-01	 1.279051114591260e+00	 1.022989438625182e+01
 9.778903301024598e-01	 1.288602358385265e+00	 1.008264346523195e+01
 9.653465732078104e-01	 1.298026036650377e+00	 9.932434235738123e+00
 9.126941266253301e-01	 1.227228409731459e+00	 9.672393622937522e+00
 9.007592135149235e-01	 1.236014986072517e+00	 9.500921080848084e+00
 8.887488253361341e-01	 1.244678998212643e+00	 9.332706123061570e+00
 8.766648353614378e-01	 1.253219506267087e+00	 9.167318773374957e+00
 8.645091316774273e-01	 1.261635608237728e+00	 9.004316557064865e+00
 8.522836162359341e-01	 1.269926440281931e+00	 8.843248202181169e+00
 8.399902039001794e-01	 1.278091176953135e+00	 8.683657259346138e+00
 8.276308214869176e-01	 1.286129031413138e+00	 8.525085615929223e+00
 8.152074068055497e-01	 1.294039255616013e+00	 8.367076881652451e+00
 8.027219076951706e-01	 1.301821140463702e+00	 8.209179624017450e+00
 7.901762810605031e-01	 1.309474015933302e+00	 8.050950433403759e+00
 9.179593712825768e-01	 1.234308172424850e+00	 9.699973771078133e+00
 9.059556068060932e-01	 1.243145437679841e+00	 9.530063349300237e+00
 8.938759318527958e-01	 1.251859431672693e+00	 9.363931695640650e+00
 8.817222305018924e-01	 1.260449209096579e+00	 9.201014860091130e+00
 8.694964017321677e-01	 1.268913862749860e+00	 9.040733051287271e+00
 8.572003584676338e-01	 1.277252523806497e+00	 8.882494684378917e+00
 8.448360266181751e-01	 1.285464362058033e+00	 8.725700345853237e+00
 8.324053441161692e-01	 1.293548586127093e+00	 8.569746649828446e+00
 8.199102599500563e-01	 1.301504443652369e+00	 8.414029961560500e+00
 8.073527331958299e-01	 1.309331221445109e+00	 8.257949965297547e+00
 7.947347320474101e-01	 1.317028245617134e+00	 8.100913055131299e+00
 9.232246159404913e-01	 1.241387935117908e+00	 9.726195603240168e+00
 9.111520000979662e-01	 1.250275889286824e+00	 9.558108451398230e+00
 8.990030383701904e-01	 1.259039865132385e+00	 9.394154285677805e+00
 8.867796256431019e-01	 1.267678911925684e+00	 9.233660981934653e+00
 8.744836717876799e-01	 1.276192117261567e+00	 9.075937896202641e+00
 8.621171007001169e-01	 1.284578607330597e+00	 8.920280224536464e+00
 8.496818493369620e-01	 1.292837547162419e+00	 8.765973277523669e+00
 8.371798667462170e-01	 1.300968140840489e+00	 8.612296642659032e+00
 8.246131130953616e-01	 1.308969631688123e+00	 8.458528209056691e+00
 8.119835586972889e-01	 1.316841302425870e+00	 8.303948030411403e+00
 7.992931830351171e-01	 1.324582475300281e+00	 8.147842003707876e+00
 9.284898605989058e-01	 1.248467697810633e+00	 9.751426641993005e+00
 9.163483933903672e-01	 1.257406340893469e+00	 9.585369850883737e+00
 9.041301448881336e-01	 1.266220298591729e+00	 9.423644876250133e+00
 8.918370207848774e-01	 1.274908614754423e+00	 9.265496745825111e+00
 8.794709418437707e-01	 1.283470371772889e+00	 9.110149946646565e+00
 8.670338429331876e-01	 1.291904690854288e+00	 8.956813062858156e+00
 8.545276720563426e-01	 1.300210732266370e+00	 8.804683325157466e+00
 8.419543893768623e-01	 1.308387695553425e+00	 8.652951043802080e+00
 8.293159662412662e-01	 1.316434819723388e+00	 8.500803898410046e+00
 8.166143841993475e-01	 1.324351383406118e+00	 8.347431059292473e+00
 8.038516340234237e-01	 1.332136704982894e+00	 8.192027116694181e+00
 9.337551052576544e-01	 1.255547460503023e+00	 9.776040755243580e+00
 9.215447866831196e-01	 1.264536792499779e+00	 9.612168487677938e+00
 9.092572514064435e-01	 1.273400732050735e+00	 9.452682795936527e+00
 8.968944159270301e-01	 1.282138317582822e+00	 9.296770721379854e+00
 8.844582119002473e-01	 1.290748626283865e+00	 9.143597394780729e+00
 8.719505851666500e-01	 1.299230774377626e+00	 8.992310918644913e+00
 8.593734947761192e-01	 1.307583917369962e+00	 8.842047157426602e+00
 8.467289120079058e-01	 1.315807250265995e+00	 8.691934406293658e+00
 8.340188193875699e-01	 1.323900007758281e+00	 8.541097910482916e+00
 8.212452097018060e-01	 1.331861464385989e+00	 8.388664208835472e+00
 8.084100850121306e-01	 1.339690934665124e+00	 8.233765276817541e+00
 9.390203499165697e-01	 1.262627223195081e+00	 9.800417871309824e+00
 9.267411799760478e-01	 1.271667244105759e+00	 9.638832470467841e+00
 9.143843579249360e-01	 1.280581165509415e+00	 9.481555396473503e+00
 9.019518110693717e-01	 1.289368020410903e+00	 9.327740110898478e+00
 8.894454819569170e-01	 1.298026880794533e+00	 9.176517439352606e+00
 8.768673274003085e-01	 1.306556857900669e+00	 9.027000665465183e+00
 8.642193174960935e-01	 1.314957102473272e+00	 8.878290528273990e+00
 8.515034346391487e-01	 1.323226804978296e+00	 8.729480092454619e+00
 8.387216725340740e-01	 1.331365195792919e+00	 8.579659462264072e+00
 8.258760352044646e-01	 1.339371545365615e+00	 8.427920311685480e+00
 8.129685360010376e-01	 1.347245164347121e+00	 8.273360205035909e+00
 9.442855945754851e-01	 1.269706985886806e+00	 9.824943693618810e+00
 9.319375732689762e-01	 1.278797695711410e+00	 9.665696769899753e+00
 9.195114644434282e-01	 1.287761598967780e+00	 9.510557731757034e+00
 9.070092062117132e-01	 1.296597723238690e+00	 9.358670421188425e+00
 8.944327520135863e-01	 1.305305135304933e+00	 9.209155957064464e+00
 8.817840696339667e-01	 1.313882941423474e+00	 9.061118008484669e+00
 8.690651402160680e-01	 1.322330287576376e+00	 8.913647966316322e+00
 8.562779572703911e-01	 1.330646359690425e+00	 8.765829981162641e+00
 8.434245256805779e-01	 1.338830383827416e+00	 8.616745837500819e+00
 8.305068607071231e-01	 1.346881626345132e+00	 8.465479635400172e+00
 8.175269869899446e-01	 1.354799394029036e+00	 8.311122253085394e+00
 9.495508392342339e-01	 1.276786748578197e+00	 9.850009415041134e+00
 9.371339665617289e-01	 1.285928147316737e+00	 9.693102912357480e+00
 9.246385709617380e-01	 1.294942032425842e+00	 9.539992238137492e+00
 9.120666013538661e-01	 1.303827426066207e+00	 9.389835137163184e+00
 8.994200220700630e-01	 1.312583389815105e+00	 9.241767175974470e+00
 8.867008118674292e-01	 1.321209024946097e+00	 9.094907163874398e+00
 8.739109629358442e-01	 1.329703472679350e+00	 8.948362466167110e+00
 8.610524799014349e-01	 1.338065914402476e+00	 8.801234176705060e+00
 8.481273788268821e-01	 1.346295571861889e+00	 8.652622118385292e+00
 8.351376862095822e-01	 1.354391707324674e+00	 8.501629641971013e+00
 8.220854379786514e-01	 1.362353623711018e+00	 8.347368195528020e+00
 9.548160838926487e-01	 1.283866511269256e+00	 9.876011431878043e+00
 9.423303598541299e-01	 1.293058598921742e+00	 9.721398674303050e+00
 9.297656774796816e-01	 1.302122465883613e+00	 9.570168415954086e+00
 9.171239964956415e-01	 1.311057128893476e+00	 9.421515397141388e+00
 9.044072921261541e-01	 1.319861644325085e+00	 9.274613350844433e+00
 8.916175541005001e-01	 1.328535108468596e+00	 9.128620540213969e+00
 8.787567856552255e-01	 1.337076657782270e+00	 8.982685181613165e+00
 8.658270025320803e-01	 1.345485469114547e+00	 8.835950719149043e+00
 8.528302319727866e-01	 1.353760759896453e+00	 8.687560918254121e+00
 8.397685117116412e-01	 1.361901788304374e+00	 8.536664747688985e+00
 8.266438889669584e-01	 1.369907853393219e+00	 8.382421021320532e+00
 9.600813285505632e-01	 1.290946273959983e+00	 9.903351057512509e+00
 9.475267531460031e-01	 1.300189050526428e+00	 9.750937777156688e+00
 9.348927839970761e-01	 1.309302899341102e+00	 9.601402512268217e+00
 9.221813916368514e-01	 1.318286831720522e+00	 9.453999669783883e+00
 9.093945621816664e-01	 1.327139898834914e+00	 9.307964440368767e+00
 8.965342963329834e-01	 1.335861191991027e+00	 9.162518421816822e+00
 8.836026083740131e-01	 1.344449842885214e+00	 9.016875120566633e+00
 8.706015251621286e-01	 1.352905023826733e+00	 8.870245296174510e+00
 8.575330851180926e-01	 1.361225947931225e+00	 8.721842115264538e+00
 8.443993372131001e-01	 1.369411869284368e+00	 8.570886083340687e+00
 8.312023399546657e-01	 1.377462083075788e+00	 8.416609724921271e+00
 9.653465732078104e-01	 1.298026036650377e+00	 9.932434235738119e+00
 9.527231464371734e-01	 1.307319502130800e+00	 9.782079582697094e+00
 9.400198905137386e-01	 1.316483332798322e+00	 9.634017204742907e+00
 9.272387867773065e-01	 1.325516534547367e+00	 9.487583432605160e+00
 9.143818322364077e-01	 1.334418153344632e+00	 9.342097786202789e+00
 9.014510385646834e-01	 1.343187275513448e+00	 9.196868653901488e+00
 8.884484310920087e-01	 1.351823027988257e+00	 9.051198841729462e+00
 8.753760477913806e-01	 1.360324578539132e+00	 8.904390956309653e+00
 8.622359382625994e-01	 1.368691135966320e+00	 8.755752587006212e+00
 8.490301627137596e-01	 1.376921950264789e+00	 8.604601254725187e+00
 8.357607909415732e-01	 1.385016312758878e+00	 8.450269096955955e+00
 7.901762810605031e-01	 1.309474015933302e+00	 8.050950433403759e+00
 7.775724921538926e-01	 1.316997251493802e+00	 7.892393513258570e+00
 7.649125143346542e-01	 1.324390257134714e+00	 7.733687398087157e+00
 7.521983273406831e-01	 1.331652482463453e+00	 7.574673773264594e+00
 7.394319160785158e-01	 1.338783416402234e+00	 7.415216795228015e+00
 7.266152696671564e-01	 1.345782587173835e+00	 7.255204581570522e+00
 7.137503804864437e-01	 1.352649562260090e+00	 7.094550446385405e+00
 7.008392432308426e-01	 1.359383948333415e+00	 6.933193874391190e+00
 6.878838539695308e-01	 1.365985391161689e+00	 6.771101229381221e+00
 6.748862092136254e-01	 1.372453575486838e+00	 6.608266194573547e+00
 6.618483049913858e-01	 1.378788224877522e+00	 6.444709944450122e+00
 7.947347320474101e-01	 1.317028245617134e+00	 8.100913055131299e+00
 7.820582330944967e-01	 1.324594881999977e+00	 7.942892039290804e+00
 7.693252210805268e-01	 1.332030537179435e+00	 7.784206536835248e+00
 7.565376871643154e-01	 1.339334657587757e+00	 7.624808954051131e+00
 7.436976277031341e-01	 1.346506729198790e+00	 7.464678056127118e+00
 7.308070432910254e-01	 1.353546277513669e+00	 7.303820321568502e+00
 7.178679378016779e-01	 1.360452867519065e+00	 7.142271028642847e+00
 7.048823174367581e-01	 1.367226103618319e+00	 6.980095067401473e+00
 6.918521897805761e-01	 1.373865629535772e+00	 6.817387472928270e+00
 6.787795628619315e-01	 1.380371128194650e+00	 6.654273677576755e+00
 6.656664442239804e-01	 1.386742321568902e+00	 6.490909482043713e+00
 7.992931830351171e-01	 1.324582475300281e+00	 8.147842003707876e+00
 7.865439740359006e-01	 1.332192512505436e+00	 7.990215075021349e+00
 7.737379278271984e-01	 1.339670817223418e+00	 7.831556134292970e+00
 7.608770469887430e-01	 1.347016832711303e+00	 7.671904936526438e+00
 7.479633393285424e-01	 1.354230041994578e+00	 7.511331031605696e+00
 7.349988169156754e-01	 1.361309967852731e+00	 7.349935023323201e+00
 7.219854951176785e-01	 1.368256172777272e+00	 7.187849547031791e+00
 7.089253916434206e-01	 1.375068258902466e+00	 7.025239959419436e+00
 6.958205255923428e-01	 1.381745867909116e+00	 6.862304736081073e+00
 6.826729165109264e-01	 1.388288680901750e+00	 6.699275574767181e+00
 6.694845834572227e-01	 1.394696418259602e+00	 6.536417204350655e+00
 8.038516340234237e-01	 1.332136704982894e+00	 8.192027116694181e+00
 7.910297149779048e-01	 1.339790143010344e+00	 8.034683281112654e+00
 7.781506345744692e-01	 1.347311097266834e+00	 7.876077109028816e+00
 7.652164068137673e-01	 1.354699007834274e+00	 7.716312750284523e+00
 7.522290509545420e-01	 1.361953354789784e+00	 7.555527140885937e+00
 7.391905905409083e-01	 1.369073658191210e+00	 7.393891206672357e+00
 7.261030524342501e-01	 1.376059478034898e+00	 7.231610772013031e+00
 7.129684658506364e-01	 1.382910414186039e+00	 7.068927166900814e+00
 6.997888614046400e-01	 1.389626106281897e+00	 6.906117528075701e+00
 6.865662701604218e-01	 1.396206233608299e+00	 6.743494792098442e+00
 6.733027226909291e-01	 1.402650514949769e+00	 6.581407380546580e+00
 8.084100850121306e-01	 1.339690934665124e+00	 8.233765276817541e+00
 7.955154559203086e-01	 1.347387773514863e+00	 8.076623520590221e+00
 7.825633413221392e-01	 1.354951377309859e+00	 7.918115965492035e+00
 7.695557666391883e-01	 1.362381182956852e+00	 7.758388610335620e+00
 7.564947625809341e-01	 1.369676667584597e+00	 7.597622793769741e+00
 7.433823641665259e-01	 1.376837348529294e+00	 7.436036382366765e+00
 7.302206097511953e-01	 1.383862783292129e+00	 7.273884649940595e+00
 7.170115400582112e-01	 1.390752569469217e+00	 7.111460841253436e+00
 7.037571972172763e-01	 1.397506344654285e+00	 6.949096415628928e+00
 6.904596238102308e-01	 1.404123786314460e+00	 6.787160968364073e+00
 6.771208619249167e-01	 1.410604611639553e+00	 6.626061830180240e+00
 8.129685360010376e-01	 1.347245164347121e+00	 8.273360205035909e+00
 8.000011968629125e-01	 1.354985404019159e+00	 8.116368685246513e+00
 7.869760480700081e-01	 1.362591657352667e+00	 7.958024647254490e+00
 7.738951264648064e-01	 1.370063358079217e+00	 7.798493790937687e+00
 7.607604742075191e-01	 1.377399980379199e+00	 7.637979279069259e+00
 7.475741377923311e-01	 1.384601038867169e+00	 7.476722949370611e+00
 7.343381670683192e-01	 1.391666088549151e+00	 7.315006203772083e+00
 7.210546142659512e-01	 1.398594724752184e+00	 7.153150567762346e+00
 7.077255330300599e-01	 1.405386583026457e+00	 6.991517915152587e+00
 6.943529774601656e-01	 1.412041339020397e+00	 6.830510356053229e+00
 6.809390011590026e-01	 1.418558708329103e+00	 6.670569788298412e+00
 8.175269869899446e-01	 1.354799394029036e+00	 8.311122253085394e+00
 8.044869378055161e-01	 1.362583034523394e+00	 8.154257520668393e+00
 7.913887548178761e-01	 1.370231937395432e+00	 7.996160388232684e+00
 7.782344862904226e-01	 1.377745533201551e+00	 7.836994496969647e+00
 7.650261858340990e-01	 1.385123293173777e+00	 7.676962650344651e+00
 7.517659114181253e-01	 1.392364729205023e+00	 7.516308089426319e+00
 7.384557243854243e-01	 1.399469393806149e+00	 7.355315431176585e+00
 7.250976884736618e-01	 1.406436880035118e+00	 7.194311262217059e+00
 7.116938688428003e-01	 1.413266821398584e+00	 7.033664383141673e+00
 6.982463311100385e-01	 1.419958891726272e+00	 6.873785700999421e+00
 6.847571403930037e-01	 1.426512805018568e+00	 6.715127770124434e+00
 8.220854379786514e-01	 1.362353623711018e+00	 8.347368195528020e+00
 8.089726787479197e-01	 1.370180665027734e+00	 8.190634449938127e+00
 7.958014615655435e-01	 1.377872217438328e+00	 8.032885561963539e+00
 7.825738461158364e-01	 1.385427708324037e+00	 7.874261732946860e+00
 7.692918974604748e-01	 1.392846605968519e+00	 7.714943609055187e+00
 7.559576850437113e-01	 1.400128419543043e+00	 7.555153658986113e+00
 7.425732817023147e-01	 1.407272699063309e+00	 7.395157200138819e+00
 7.291407626811492e-01	 1.414279035318203e+00	 7.235263065332743e+00
 7.156622046553058e-01	 1.421147059770840e+00	 7.075823904803132e+00
 7.021396847596617e-01	 1.427876444432247e+00	 6.917236120870065e+00
 6.885752796267371e-01	 1.434466901708098e+00	 6.759939435313028e+00
 8.266438889669584e-01	 1.369907853393219e+00	 8.382421021320532e+00
 8.134584196899231e-01	 1.377778295532340e+00	 8.225849396060390e+00
 8.002141683128110e-01	 1.385512497481530e+00	 8.068567529013894e+00
 7.869132059408492e-01	 1.393109883446855e+00	 7.910671169762482e+00
 7.735576090864471e-01	 1.400569918763610e+00	 7.752297385221267e+00
 7.601494586688906e-01	 1.407892109881418e+00	 7.593626078614381e+00
 7.466908390187942e-01	 1.415076004320817e+00	 7.434881142161714e+00
 7.331838368882193e-01	 1.422121190601618e+00	 7.276331235049460e+00
 7.196305404673856e-01	 1.429027298143399e+00	 7.118290181000019e+00
 7.060330384088480e-01	 1.435793997138485e+00	 6.961116982540113e+00
 6.923934188600199e-01	 1.442420998397841e+00	 6.805215451794714e+00
 8.312023399546657e-01	 1.377462083075788e+00	 8.416609724921271e+00
 8.179441606313274e-01	 1.385375926037378e+00	 8.260257603163666e+00
 8.046268750594782e-01	 1.393152777525212e+00	 8.103578482592397e+00
 7.912525657652613e-01	 1.400792058570189e+00	 7.946603009248594e+00
 7.778233207118174e-01	 1.408293231559235e+00	 7.789403615694694e+00
 7.643412322934664e-01	 1.415655800220334e+00	 7.632096219956600e+00
 7.508083963346665e-01	 1.422879309578859e+00	 7.474841543153484e+00
 7.372269110946775e-01	 1.429963345885546e+00	 7.317846036791601e+00
 7.235988762788474e-01	 1.436907536516434e+00	 7.161362413567247e+00
 7.099263920574095e-01	 1.443711549845151e+00	 7.005689778393920e+00
 6.962115580926688e-01	 1.450375095087947e+00	 6.851173359226546e+00
 8.357607909415732e-01	 1.385016312758878e+00	 8.450269096955955e+00
 8.224299015719309e-01	 1.392973556543011e+00	 8.294219456522942e+00
 8.090395818053454e-01	 1.400793057569549e+00	 8.138295292433011e+00
 7.955919255888730e-01	 1.408474233694218e+00	 7.982441846635882e+00
 7.820890323363869e-01	 1.416016544355583e+00	 7.826646220126894e+00
 7.685330059172397e-01	 1.423419490559979e+00	 7.670939290369583e+00
 7.549259536497352e-01	 1.430682614837620e+00	 7.515397232090954e+00
 7.412699853003305e-01	 1.437805501170166e+00	 7.360142631763830e+00
 7.275672120895014e-01	 1.444787774890119e+00	 7.205345189067139e+00
 7.138197457051589e-01	 1.451629102552406e+00	 7.051222001595717e+00
 7.000296973245008e-01	 1.458329191778564e+00	 6.898037432065877e+00
 6.618483049913858e-01	 1.378788224877522e+00	 6.444709944450122e+00
 6.487699095967796e-01	 1.384990144222397e+00	 6.283705713530804e+00
 6.356552290236301e-01	 1.391058044979909e+00	 6.127997237999542e+00
 6.225062527617115e-01	 1.396991765020092e+00	 5.976761514767347e+00
 6.093249662367155e-01	 1.402791180224235e+00	 5.829193131329289e+00
 5.961133499364965e-01	 1.408456204215545e+00	 5.684504254216391e+00
 5.828733785497980e-01	 1.413986788066745e+00	 5.541832996446354e+00
 5.696070201181347e-01	 1.419382919985196e+00	 5.399692563861532e+00
 5.563162352014727e-01	 1.424644624976096e+00	 5.257460687003918e+00
 5.430029760583274e-01	 1.429771964484383e+00	 5.114793307622021e+00
 5.296691858408672e-01	 1.434765036015944e+00	 4.971400517304405e+00
 6.656664442239804e-01	 1.386742321568902e+00	 6.490909482043713e+00
 6.525126008240003e-01	 1.392980019190503e+00	 6.330547704120345e+00
 6.393222629197794e-01	 1.399082925084413e+00	 6.175780849663822e+00
 6.260974314782574e-01	 1.405050876185350e+00	 6.025725982684461e+00
 6.128401033788459e-01	 1.410883747658563e+00	 5.879517001302704e+00
 5.995522705346324e-01	 1.416581452628946e+00	 5.736304690213545e+00
 5.862359190261404e-01	 1.422143941886962e+00	 5.595242327373164e+00
 5.728930282483172e-01	 1.427571203571930e+00	 5.454771098401210e+00
 5.595255700714005e-01	 1.432863262833292e+00	 5.313923742133914e+00
 5.461355080162874e-01	 1.438020181470444e+00	 5.172301663794705e+00
 5.327247964449955e-01	 1.443042057551770e+00	 5.029560123259377e+00
 6.694845834572227e-01	 1.394696418259602e+00	 6.536417204350655e+00
 6.562552920518185e-01	 1.400969894157965e+00	 6.376910295983383e+00
 6.429892968164699e-01	 1.407107805188320e+00	 6.223174278918288e+00
 6.296886101952830e-01	 1.413109987350059e+00	 6.074285779308894e+00
 6.163552405213909e-01	 1.418976315092390e+00	 5.929337958889733e+00
 6.029911911331183e-01	 1.424706701041903e+00	 5.787440599360263e+00
 5.895984595027690e-01	 1.430301095706788e+00	 5.647719928489889e+00
 5.761790363787246e-01	 1.435759487158326e+00	 5.508769990526583e+00
 5.627349049414975e-01	 1.441081900690199e+00	 5.369157784488443e+00
 5.492680399743685e-01	 1.446268398456265e+00	 5.228444058632229e+00
 5.357804070492048e-01	 1.451319079087398e+00	 5.086251321482395e+00
 6.733027226909291e-01	 1.402650514949769e+00	 6.581407380546572e+00
 6.599979832800569e-01	 1.408959769124917e+00	 6.422920066355976e+00
 6.466563307135300e-01	 1.415132685291741e+00	 6.270264831120385e+00
 6.332797889126243e-01	 1.421169098514310e+00	 6.122497042135235e+00
 6.198703776641965e-01	 1.427068882525793e+00	 5.978688760220235e+00
 6.064301117318085e-01	 1.432831949454466e+00	 5.837928824217022e+00
 5.929609999795484e-01	 1.438458249526254e+00	 5.699322665610842e+00
 5.794650445092341e-01	 1.443947770744395e+00	 5.561668223802591e+00
 5.659442398116531e-01	 1.449300538546813e+00	 5.423150058323463e+00
 5.524005719324733e-01	 1.454516615441825e+00	 5.283222359568724e+00
 5.388360176534135e-01	 1.459596100622796e+00	 5.141496653268739e+00
 6.771208619249167e-01	 1.410604611639553e+00	 6.626061830180240e+00
 6.637406745085377e-01	 1.416949644091492e+00	 6.468711922437905e+00
 6.503233646107899e-01	 1.423157565394793e+00	 6.317148714666734e+00
 6.368709676301190e-01	 1.429228209678199e+00	 6.170425185489407e+00
 6.233855148071075e-01	 1.435161449958841e+00	 6.027611620139480e+00
 6.098690323305584e-01	 1.440957197866686e+00	 5.887795663545702e+00
 5.963235404563446e-01	 1.446615403345389e+00	 5.750082091418289e+00
 5.827510526397223e-01	 1.452136054330145e+00	 5.613452897634799e+00
 5.691535746817576e-01	 1.457519176403124e+00	 5.475895182485833e+00
 5.555331038905049e-01	 1.462764832427100e+00	 5.336644927674749e+00
 5.418916282575384e-01	 1.467873122157929e+00	 5.195324141493368e+00
 6.809390011590026e-01	 1.418558708329103e+00	 6.670569788298412e+00
 6.674833657370843e-01	 1.424939519057822e+00	 6.514428951436835e+00
 6.539903985080778e-01	 1.431182445497587e+00	 6.363930881325033e+00
 6.404621463476025e-01	 1.437287320841818e+00	 6.218144736290693e+00
 6.269006519499696e-01	 1.443254017391609e+00	 6.076158048319227e+00
 6.133079529292226e-01	 1.449082446278614e+00	 5.937076713469002e+00
 5.996860809330227e-01	 1.454772557164222e+00	 5.800024687628966e+00
 5.860370607700663e-01	 1.460324337915590e+00	 5.664119245164628e+00
 5.723629095516996e-01	 1.465737814259127e+00	 5.527395178043529e+00
 5.586656358483669e-01	 1.471013049412068e+00	 5.388726659006334e+00
 5.449472388614981e-01	 1.476150143692762e+00	 5.247767349438396e+00
 6.847571403930037e-01	 1.426512805018568e+00	 6.715127770124434e+00
 6.712260569655186e-01	 1.432929394024040e+00	 6.560222270912298e+00
 6.576574324052233e-01	 1.439207325600238e+00	 6.410724867415922e+00
 6.440533250649124e-01	 1.445346432005262e+00	 6.265739171039449e+00
 6.304157890926273e-01	 1.451346584824167e+00	 6.124388686805949e+00
 6.167468735276558e-01	 1.457207694690300e+00	 5.985816710114761e+00
 6.030486214094480e-01	 1.462929710982785e+00	 5.849185915632526e+00
 5.893230689001431e-01	 1.468512621500738e+00	 5.713677651467270e+00
 5.755722444213691e-01	 1.473956452114813e+00	 5.577659496639827e+00
 5.617981678059620e-01	 1.479261266396707e+00	 5.439489026146980e+00
 5.480028494652096e-01	 1.484427165227262e+00	 5.298865439156747e+00
 6.885752796267371e-01	 1.434466901708098e+00	 6.759939435313021e+00
 6.749687481936630e-01	 1.440919268990278e+00	 6.606250879399616e+00
 6.613244663020548e-01	 1.447232205702859e+00	 6.457652635811860e+00
 6.476445037818852e-01	 1.453405543168623e+00	 6.313300753987305e+00
 6.339309262349262e-01	 1.459439152256587e+00	 6.172373148949042e+00
 6.201857941257128e-01	 1.465332943101795e+00	 6.034069373682016e+00
 6.064111618854863e-01	 1.471086864801106e+00	 5.897610069867494e+00
 5.926090770298299e-01	 1.476700905085600e+00	 5.762236110748368e+00
 5.787815792906560e-01	 1.482175089970176e+00	 5.626705049539421e+00
 5.649306997631937e-01	 1.487509483380995e+00	 5.488960119932688e+00
 5.510584600685913e-01	 1.492704186761395e+00	 5.348663229392889e+00
 6.923934188600199e-01	 1.442420998397841e+00	 6.805215451794721e+00
 6.787114394213402e-01	 1.448909143956669e+00	 6.652681507307723e+00
 6.649915001984027e-01	 1.455257085805564e+00	 6.504844418719562e+00
 6.512356824983572e-01	 1.461464654331993e+00	 6.360930376437482e+00
 6.374460633767118e-01	 1.467531719688942e+00	 6.220189859654946e+00
 6.236247147232484e-01	 1.473458191513149e+00	 6.081897253880317e+00
 6.097737023610023e-01	 1.479244018619215e+00	 5.945350132469210e+00
 5.958950851590034e-01	 1.484889188670185e+00	 5.809868216620268e+00
 5.819909141594490e-01	 1.490393727825208e+00	 5.674556237340582e+00
 5.680632317199648e-01	 1.495757700364909e+00	 5.537174691357433e+00
 5.541140706715604e-01	 1.500981208295127e+00	 5.397211253077051e+00
 6.962115580926688e-01	 1.450375095087947e+00	 6.851173359226546e+00
 6.824541306483731e-01	 1.456899018923345e+00	 6.699688468078597e+00
 6.686585340940945e-01	 1.463281965908467e+00	 6.552438561219301e+00
 6.548268612141656e-01	 1.469523765495468e+00	 6.408737397140065e+00
 6.409612005178291e-01	 1.475624287121304e+00	 6.267925896918111e+00
 6.270636353201177e-01	 1.481583439924414e+00	 6.129371576682554e+00
 6.131362428358624e-01	 1.487401172437143e+00	 5.992467629137202e+00
 5.991810932875407e-01	 1.493077472254505e+00	 5.856631669348242e+00
 5.852002490276385e-01	 1.498612365679901e+00	 5.721244980327441e+00
 5.711957636761784e-01	 1.504005917348428e+00	 5.584174193645980e+00
 5.571696812740350e-01	 1.509258229828425e+00	 5.444565814407728e+00
 7.000296973245008e-01	 1.458329191778564e+00	 6.898037432065884e+00
 6.861968218745838e-01	 1.464888893890438e+00	 6.747453509599838e+00
 6.723255679889603e-01	 1.471306846011681e+00	 6.600581365528669e+00
 6.584180399291466e-01	 1.477582876659139e+00	 6.456839483733278e+00
 6.444763376581236e-01	 1.483716854553744e+00	 6.315676834579655e+00
 6.305025559161753e-01	 1.489708688335640e+00	 6.176572092348124e+00
 6.164987833099310e-01	 1.495558326254919e+00	 6.039032486176806e+00
 6.024671014153186e-01	 1.501265755838569e+00	 5.902592300521780e+00
 5.884095838951133e-01	 1.506831003534249e+00	 5.766811043389044e+00
 5.743282956317380e-01	 1.512254134331529e+00	 5.630006824491881e+00
 5.602252918759325e-01	 1.517535251361254e+00	 5.490789045540199e+00
 5.296691858408672e-01	 1.434765036015944e+00	 4.971400517304405e+00
 5.163190688308803e-01	 1.439623158038130e+00	 4.829247070343351e+00
 5.029522813283460e-01	 1.444347358201994e+00	 4.690395003753037e+00
 4.895707329421400e-01	 1.448937838646585e+00	 4.554844991831949e+00
 4.761763211503492e-01	 1.453394835841910e+00	 4.422638520314431e+00
 4.627709305788981e-01	 1.457718620117905e+00	 4.293852466239403e+00
 4.493564322980741e-01	 1.461909495176767e+00	 4.168593818376894e+00
 4.359346831373438e-01	 1.465967797589339e+00	 4.046994555674224e+00
 4.225075250188142e-01	 1.469893896276274e+00	 3.929206699780649e+00
 4.090767843096734e-01	 1.473688191974680e+00	 3.815397556292083e+00
 3.956442711939038e-01	 1.477351116691019e+00	 3.705745157909546e+00
 5.327247964449955e-01	 1.443042057551770e+00	 5.029560123259370e+00
 5.192976638934053e-01	 1.447928205612917e+00	 4.887730163229204e+00
 5.058537646787414e-01	 1.452679659233363e+00	 4.749000977934612e+00
 4.923950194262516e-01	 1.457296621718283e+00	 4.613409959857172e+00
 4.789233365604134e-01	 1.461779330901862e+00	 4.481036124216877e+00
 4.654406115793993e-01	 1.466128058673551e+00	 4.351994475679505e+00
 4.519487263475430e-01	 1.470343110487583e+00	 4.226430522394944e+00
 4.384495484062030e-01	 1.474424824856452e+00	 4.104514955366657e+00
 4.249449303033795e-01	 1.478373572829082e+00	 3.986438509694123e+00
 4.114367089424183e-01	 1.482189757454407e+00	 3.872407022769561e+00
 3.979267049501003e-01	 1.485873813231091e+00	 3.762636703017439e+00
 5.357804070492048e-01	 1.451319079087398e+00	 5.086251321482395e+00
 5.222762589559826e-01	 1.456233253187544e+00	 4.944710672209732e+00
 5.087552480291694e-01	 1.461011960264603e+00	 4.806148683421894e+00
 4.952193059103838e-01	 1.465655404789880e+00	 4.670626192553256e+00
 4.816703519704932e-01	 1.470163825961741e+00	 4.538246211631535e+00
 4.681102925799156e-01	 1.474537497229151e+00	 4.409148099687550e+00
 4.545410203970298e-01	 1.478776725798380e+00	 4.283501889373949e+00
 4.409644136750849e-01	 1.482881852123574e+00	 4.161502786295650e+00
 4.273823355879728e-01	 1.486853249381933e+00	 4.043365858063941e+00
 4.137966335751952e-01	 1.490691322934210e+00	 3.929320928568473e+00
 4.002091387063301e-01	 1.494396509771284e+00	 3.819607691413925e+00
 5.388360176534135e-01	 1.459596100622796e+00	 5.141496653268739e+00
 5.252548540185452e-01	 1.464538300761968e+00	 5.000231675460677e+00
 5.116567313795790e-01	 1.469344261295668e+00	 4.861895832555690e+00
 4.980435923945024e-01	 1.474014187861330e+00	 4.726560441776312e+00
 4.844173673805691e-01	 1.478548321021499e+00	 4.594339288389991e+00
 4.707799735804418e-01	 1.482946935784657e+00	 4.465382622373480e+00
 4.571333144465422e-01	 1.487210341109111e+00	 4.339871316262540e+00
 4.434792789440081e-01	 1.491338879390661e+00	 4.218011203181279e+00
 4.298197408726202e-01	 1.495332925934780e+00	 4.100027612505848e+00
 4.161565582080354e-01	 1.499192888414045e+00	 3.986160119038344e+00
 4.024915724626263e-01	 1.502919206311548e+00	 3.876657519989056e+00
 5.418916282575384e-01	 1.467873122157929e+00	 5.195324141493360e+00
 5.282334490810263e-01	 1.472843348336149e+00	 5.054340730772757e+00
 5.145582147299198e-01	 1.477676562326513e+00	 4.916303756876856e+00
 5.008678788785720e-01	 1.482372970932583e+00	 4.781282354238575e+00
 4.871643827906217e-01	 1.486932816081087e+00	 4.649388161369748e+00
 4.734496545809729e-01	 1.491356374340022e+00	 4.520769160015388e+00
 4.597256084960878e-01	 1.495643956419731e+00	 4.395603682580028e+00
 4.459941442129904e-01	 1.499795906657666e+00	 4.274094607294918e+00
 4.322571461573484e-01	 1.503812602487578e+00	 4.156463758991617e+00
 4.185164828409708e-01	 1.507694453893865e+00	 4.042946531728912e+00
 4.047740062190222e-01	 1.511441902851830e+00	 3.933786747885802e+00
 5.449472388614981e-01	 1.476150143692762e+00	 5.247767349438396e+00
 5.312120441433595e-01	 1.481148395910043e+00	 5.107089951678203e+00
 5.174596980801408e-01	 1.486008863357090e+00	 4.969437496708057e+00
 5.036921653625578e-01	 1.490731754003592e+00	 4.834864570874275e+00
 4.899113982006313e-01	 1.495317311140457e+00	 4.703468044143509e+00
 4.761193355815037e-01	 1.499765812895197e+00	 4.575380769668007e+00
 4.623179025456745e-01	 1.504077571730192e+00	 4.450765458835350e+00
 4.485090094820507e-01	 1.508252933924546e+00	 4.329808751713697e+00
 4.346945514421844e-01	 1.512292279040283e+00	 4.212715501150514e+00
 4.208764074740328e-01	 1.516196019373624e+00	 4.099703287118615e+00
 4.070564399755510e-01	 1.519964599392081e+00	 3.990997176213657e+00
 5.480028494652096e-01	 1.484427165227262e+00	 5.298865439156754e+00
 5.341906392054778e-01	 1.489453443483611e+00	 5.158536082467355e+00
 5.203611814301912e-01	 1.494341164387353e+00	 5.021365889107713e+00
 5.065164518464250e-01	 1.499090537074308e+00	 4.887382824182025e+00
 4.926584136105788e-01	 1.503701806199560e+00	 4.756656660328307e+00
 4.787890165820292e-01	 1.508175251450136e+00	 4.629292555308067e+00
 4.649101965953096e-01	 1.512511187040449e+00	 4.505424812426819e+00
 4.510238747512069e-01	 1.516709961191254e+00	 4.385210844105270e+00
 4.371319567271537e-01	 1.520771955592849e+00	 4.268825357234784e+00
 4.232363321072532e-01	 1.524697584853274e+00	 4.156454777231136e+00
 4.093388737322460e-01	 1.528487295932251e+00	 4.048291925962898e+00
 5.510584600685913e-01	 1.492704186761395e+00	 5.348663229392882e+00
 5.371692342673143e-01	 1.497758491056808e+00	 5.208740572141633e+00
 5.232626647800200e-01	 1.502673465417256e+00	 5.072161654260674e+00
 5.093407383301393e-01	 1.507449320144682e+00	 4.938916033626037e+00
 4.954054290204444e-01	 1.512086301258349e+00	 4.809034344729056e+00
 4.814586975825439e-01	 1.516584690004791e+00	 4.682581771615657e+00
 4.675024906450008e-01	 1.520944802350454e+00	 4.559651711121363e+00
 4.535387400204777e-01	 1.525166988457745e+00	 4.440359647130038e+00
 4.395693620122836e-01	 1.529251632145231e+00	 4.324837254836282e+00
 4.255962567406635e-01	 1.533199150332770e+00	 4.213226752224107e+00
 4.116213074891404e-01	 1.537009992472289e+00	 4.105675514187419e+00
 5.541140706715604e-01	 1.500981208295127e+00	 5.397211253077051e+00
 5.401478293288025e-01	 1.506063538629595e+00	 5.257769647336760e+00
 5.261641481295767e-01	 1.511005766446753e+00	 5.121901480365254e+00
 5.121650248136650e-01	 1.515808103214667e+00	 4.989546399165317e+00
 4.981524444302087e-01	 1.520470796316772e+00	 4.860684142356948e+00
 4.841283785830433e-01	 1.524994128559112e+00	 4.735327925480636e+00
 4.700947846947560e-01	 1.529378417660163e+00	 4.613518024206781e+00
 4.560536052898813e-01	 1.533624015723974e+00	 4.495315576556690e+00
 4.420067672976006e-01	 1.537731308697385e+00	 4.380796623444569e+00
 4.279561813742956e-01	 1.541700715812063e+00	 4.270046405029053e+00
 4.139037412462674e-01	 1.545532689012144e+00	 4.163153928525919e+00
 5.571696812740350e-01	 1.509258229828425e+00	 5.444565814407728e+00
 5.431264243898752e-01	 1.514368586201928e+00	 5.305694384264969e+00
 5.290656314788106e-01	 1.519338067475797e+00	 5.170666107074019e+00
 5.149893112969677e-01	 1.524166886284214e+00	 5.039359492992614e+00
 5.008994598398526e-01	 1.528855291374784e+00	 4.911691905406952e+00
 4.867980595835216e-01	 1.533403567113055e+00	 4.787612875319963e+00
 4.726870787445826e-01	 1.537812032969529e+00	 4.667097621403782e+00
 4.585684705594363e-01	 1.542081042989898e+00	 4.550140797177519e+00
 4.444441725831308e-01	 1.546210985249264e+00	 4.436750484927588e+00
 4.303161060081809e-01	 1.550202281291109e+00	 4.326942454115519e+00
 4.161861750036603e-01	 1.554055385551768e+00	 4.220734700121366e+00
 5.602252918759325e-01	 1.517535251361254e+00	 5.490789045540199e+00
 5.461050194504662e-01	 1.522673633773767e+00	 5.352590779706230e+00
 5.319671148276707e-01	 1.527670368504342e+00	 5.218540407542706e+00
 5.178135977800125e-01	 1.532525669353275e+00	 5.088444349540149e+00
 5.036464752493562e-01	 1.537239786432333e+00	 4.962146388271155e+00
 4.894677405839741e-01	 1.541813005666570e+00	 4.839520928293117e+00
 4.752793727944883e-01	 1.546245648278505e+00	 4.720466469626974e+00
 4.610833358291607e-01	 1.550538070255469e+00	 4.604899316608186e+00
 4.468815778689010e-01	 1.554690661800824e+00	 4.492747542015604e+00
 4.326760306423511e-01	 1.558703846769861e+00	 4.383945224450335e+00
 4.184686087613524e-01	 1.562578082091108e+00	 4.278426975005967e+00
 3.956442711939038e-01	 1.477351116691019e+00	 3.705745157909546e+00
 3.822117792468353e-01	 1.480883133461804e+00	 3.599323395431387e+00
 3.687810853789673e-01	 1.484284736740762e+00	 3.495261336379660e+00
 3.553539486873725e-01	 1.487556450846154e+00	 3.393823777896997e+00
 3.419321097195881e-01	 1.490698829042657e+00	 3.295270803148626e+00
 3.285172899454604e-01	 1.493712452934736e+00	 3.199854455352472e+00
 3.151111912495110e-01	 1.496597931850662e+00	 3.107815659510941e+00
 3.017154954439191e-01	 1.499355902217940e+00	 3.019381395109114e+00
 2.883318638021947e-01	 1.501987026930858e+00	 2.934762121753892e+00
 2.749619366135821e-01	 1.504491994710871e+00	 2.854149458484713e+00
 2.616073327582157e-01	 1.506871519460547e+00	 2.777714116292978e+00
 3.979267049501003e-01	 1.485873813231091e+00	 3.762636703017439e+00
 3.844167222487311e-01	 1.489426205866871e+00	 3.656225044704278e+00
 3.709085479996148e-01	 1.492847432667928e+00	 3.552289658023652e+00
 3.574039514478568e-01	 1.496138020977261e+00	 3.451079659820922e+00
 3.439046831820171e-01	 1.499298527251279e+00	 3.352838208805639e+00
 3.304124746029072e-01	 1.502329536449662e+00	 3.257799127591330e+00
 3.169290374130285e-01	 1.505231661415839e+00	 3.166183781156106e+00
 3.034560631267449e-01	 1.508005542248799e+00	 3.078198214952296e+00
 2.899952226012659e-01	 1.510651845667006e+00	 2.994030554579873e+00
 2.765481655884793e-01	 1.513171264365078e+00	 2.913848667645233e+00
 2.631165203076562e-01	 1.515564516364017e+00	 2.837798087211937e+00
 4.002091387063301e-01	 1.494396509771284e+00	 3.819607691413925e+00
 3.866216652506577e-01	 1.497969278272107e+00	 3.713329460331336e+00
 3.730360106202864e-01	 1.501410128595314e+00	 3.609589732072362e+00
 3.594539542083551e-01	 1.504719591108642e+00	 3.508629830999239e+00
 3.458772566444450e-01	 1.507898225460224e+00	 3.410683848272086e+00
 3.323076592603333e-01	 1.510946619964957e+00	 3.315975200335112e+00
 3.187468835765012e-01	 1.513865390981419e+00	 3.224713452982659e+00
 3.051966308094975e-01	 1.516655182280088e+00	 3.137091414220786e+00
 2.916585814002307e-01	 1.519316664403590e+00	 3.053282497773759e+00
 2.781343945632320e-01	 1.521850534019712e+00	 2.973438357766687e+00
 2.646257078569091e-01	 1.524257513267884e+00	 2.897686793848056e+00
 4.024915724626263e-01	 1.502919206311548e+00	 3.876657519989056e+00
 3.888266082526464e-01	 1.506512350677455e+00	 3.770614199108488e+00
 3.751634732410087e-01	 1.509972824522856e+00	 3.667119649535941e+00
 3.615039569688854e-01	 1.513301161240222e+00	 3.566415194986223e+00
 3.478498301068813e-01	 1.516497923669408e+00	 3.468733618319679e+00
 3.342028439177397e-01	 1.519563703480526e+00	 3.374295644960215e+00
 3.205647297399223e-01	 1.522499120547302e+00	 3.283306701504786e+00
 3.069371984921631e-01	 1.525304822311696e+00	 3.195953952735777e+00
 2.933219401990707e-01	 1.527981483140502e+00	 3.112403618828841e+00
 2.797206235378206e-01	 1.530529803674665e+00	 3.032798573197093e+00
 2.661348954059583e-01	 1.532950510172047e+00	 2.957256220104753e+00
 4.047740062190222e-01	 1.511441902851830e+00	 3.933786747885802e+00
 3.910315512547278e-01	 1.515055423082858e+00	 3.828058078984955e+00
 3.772909358618069e-01	 1.518535520450489e+00	 3.724838828966179e+00
 3.635539597294665e-01	 1.521882731371924e+00	 3.624378019883692e+00
 3.498224035693366e-01	 1.525097621878746e+00	 3.526914790997758e+00
 3.360980285751278e-01	 1.528180786996274e+00	 3.432674795657529e+00
 3.223825759032845e-01	 1.531132850113384e+00	 3.341866883449054e+00
 3.086777661747279e-01	 1.533954462343517e+00	 3.254680070815493e+00
 2.949852989977679e-01	 1.536646301877630e+00	 3.171280801896290e+00
 2.813068525122265e-01	 1.539209073329832e+00	 3.091810499939591e+00
 2.676440829547879e-01	 1.541643507076409e+00	 3.016383408295331e+00
 4.070564399755510e-01	 1.519964599392081e+00	 3.990997176213657e+00
 3.932364942569336e-01	 1.523598495488259e+00	 3.885641247225682e+00
 3.794183984827072e-01	 1.527098216378146e+00	 3.782708074260855e+00
 3.656039624901168e-01	 1.530464301503675e+00	 3.682461986908712e+00
 3.517949770318200e-01	 1.533697320088152e+00	 3.585156054008716e+00
 3.379932132324985e-01	 1.536797870512107e+00	 3.491028382584527e+00
 3.242004220665807e-01	 1.539766579679563e+00	 3.400298712575021e+00
 3.104183338571776e-01	 1.542604102375442e+00	 3.313165310578500e+00
 2.966486577963042e-01	 1.545311120614868e+00	 3.229802164313044e+00
 2.828930814864300e-01	 1.547888342985105e+00	 3.150356478070099e+00
 2.691532705033814e-01	 1.550336503980869e+00	 3.074946468040312e+00
 4.093388737322460e-01	 1.528487295932251e+00	 4.048291925962898e+00
 3.954414372592944e-01	 1.532141567893601e+00	 3.943345247102419e+00
 3.815458611037352e-01	 1.535660912305761e+00	 3.840689631291246e+00
 3.676539652508549e-01	 1.539045871635399e+00	 3.740612238038670e+00
 3.537675504943423e-01	 1.542297018297540e+00	 3.643387550383188e+00
 3.398883978898529e-01	 1.545414954027931e+00	 3.549273564506485e+00
 3.260182682298037e-01	 1.548400309245738e+00	 3.458508286148388e+00
 3.121589015394989e-01	 1.551253742407367e+00	 3.371306537040277e+00
 2.983120165946614e-01	 1.553975939352105e+00	 3.287857073040313e+00
 2.844793104604125e-01	 1.556567612640378e+00	 3.208320014160007e+00
 2.706624580517231e-01	 1.559029500885329e+00	 3.132824585248047e+00
 4.116213074891404e-01	 1.537009992472289e+00	 4.105675514187419e+00
 3.976463802618413e-01	 1.540684640298826e+00	 4.001153083172158e+00
 3.836733237249167e-01	 1.544223608233268e+00	 3.898747243395272e+00
 3.697039680116991e-01	 1.547627441767019e+00	 3.798775422770954e+00
 3.557401239569128e-01	 1.550896716506826e+00	 3.701540917482501e+00
 3.417835825471919e-01	 1.554032037543648e+00	 3.607328960952982e+00
 3.278361143929464e-01	 1.557034038811805e+00	 3.516403111085781e+00
 3.138994692216779e-01	 1.559903382439181e+00	 3.429001959013587e+00
 2.999753753928214e-01	 1.562640758089232e+00	 3.345336161014406e+00
 2.860655394341541e-01	 1.565246882295545e+00	 3.265585793705734e+00
 2.721716455997967e-01	 1.567722497789690e+00	 3.189898031175023e+00
 4.139037412462674e-01	 1.545532689012144e+00	 4.163153928525919e+00
 3.998513232646057e-01	 1.549227712703878e+00	 4.059049285198381e+00
 3.858007863462779e-01	 1.552786304160603e+00	 3.956846205782835e+00
 3.717539707726681e-01	 1.556209011898460e+00	 3.856899744027735e+00
 3.577126974195418e-01	 1.559496414715923e+00	 3.759549325354302e+00
 3.436787672045168e-01	 1.562649121059167e+00	 3.665114683900437e+00
 3.296539605560016e-01	 1.565667768377662e+00	 3.573892129779115e+00
 3.156400369037006e-01	 1.568553022470778e+00	 3.486151149817990e+00
 3.016387341907656e-01	 1.571305576826140e+00	 3.402131343414510e+00
 2.876517684076362e-01	 1.573926151950498e+00	 3.322039693560568e+00
 2.736808331475863e-01	 1.576415494693853e+00	 3.246048171562343e+00
 4.161861750036603e-01	 1.554055385551768e+00	 4.220734700121366e+00
 4.020562662676184e-01	 1.557770785108700e+00	 4.117019970763733e+00
 3.879282489678443e-01	 1.561349000087700e+00	 4.014953418893322e+00
 3.738039735337803e-01	 1.564790582029647e+00	 3.914935003243094e+00
 3.596852708822389e-01	 1.568096112924747e+00	 3.817347514465339e+00
 3.455739518618289e-01	 1.571266204574392e+00	 3.722552369006174e+00
 3.314718067189623e-01	 1.574301497943207e+00	 3.630885745616118e+00
 3.173806045855531e-01	 1.577202662502051e+00	 3.542655067803794e+00
 3.033020929884768e-01	 1.579970395562720e+00	 3.458135833850849e+00
 2.892379973808393e-01	 1.582605421605131e+00	 3.377568794372181e+00
 2.751900206950757e-01	 1.585108491597720e+00	 3.301157475845701e+00
 4.184686087613524e-01	 1.562578082091108e+00	 4.278426975005967e+00
 4.042612092709105e-01	 1.566313857513235e+00	 4.175052906628968e+00
 3.900557115896419e-01	 1.569911696014492e+00	 4.073037440745420e+00
 3.758539762950538e-01	 1.573372152160505e+00	 3.972832644659467e+00
 3.616578443450143e-01	 1.576695811133211e+00	 3.874871832837058e+00
 3.474691365191289e-01	 1.579883288089228e+00	 3.779565206407174e+00
 3.332896528818214e-01	 1.582935227508337e+00	 3.687295848203962e+00
 3.191211722672218e-01	 1.585852302532892e+00	 3.598416076705752e+00
 3.049654517859358e-01	 1.588635214298862e+00	 3.513244160474226e+00
 2.908242263537443e-01	 1.591284691259338e+00	 3.432061393024474e+00
 2.766992082422489e-01	 1.593801488501192e+00	 3.355109526435874e+00
 2.616073327582157e-01	 1.506871519460547e+00	 2.777714116292985e+00
 2.482673838752059e-01	 1.509126712206869e+00	 2.704932849474604e+00
 2.349459403107126e-01	 1.511257919523690e+00	 2.635371155239411e+00
 2.216445585885345e-01	 1.513265926228268e+00	 2.569258070127905e+00
 2.083647722423004e-01	 1.515151539716700e+00	 2.506794963256101e+00
 1.951080914932949e-01	 1.516915589294963e+00	 2.448154649078647e+00
 1.818760029487244e-01	 1.518558925507594e+00	 2.393480730308507e+00
 1.686699693202753e-01	 1.520082419464677e+00	 2.342887163808159e+00
 1.554914291627973e-01	 1.521486962167761e+00	 2.296458041561550e+00
 1.423417966329233e-01	 1.522773463835312e+00	 2.254247578202965e+00
 1.292224612674189e-01	 1.523942853228325e+00	 2.216280296003592e+00
 2.631165203076562e-01	 1.515564516364017e+00	 2.837798087211937e+00
 2.496996145421800e-01	 1.517832719100216e+00	 2.765334902828127e+00
 2.363013208505068e-01	 1.519976221146880e+00	 2.696030840339172e+00
 2.229232047359003e-01	 1.521995811848809e+00	 2.630127878752172e+00
 2.095668085788256e-01	 1.523892303259896e+00	 2.567838539872393e+00
 1.962336513129168e-01	 1.525666529470308e+00	 2.509344985383315e+00
 1.829252281215022e-01	 1.527319345931298e+00	 2.454798352639071e+00
 1.696430101545389e-01	 1.528851628778306e+00	 2.404318321679707e+00
 1.563884442657881e-01	 1.530264274152987e+00	 2.357992905261377e+00
 1.431629527700431e-01	 1.531558197524774e+00	 2.315878453030650e+00
 1.299679332201999e-01	 1.532734333012601e+00	 2.277999860392427e+00
 2.646257078569091e-01	 1.524257513267884e+00	 2.897686793848056e+00
 2.511318452089191e-01	 1.526538725993905e+00	 2.825470351919456e+00
 2.376567013900173e-01	 1.528694522770340e+00	 2.756367447967362e+00
 2.242018508829361e-01	 1.530725697469535e+00	 2.690630323674261e+00
 2.107688449149809e-01	 1.532633066803184e+00	 2.628479950870851e+00
 1.973592111321389e-01	 1.534417469645651e+00	 2.570105115933377e+00
 1.839744532938637e-01	 1.536079766354907e+00	 2.515661751548829e+00
 1.706160509883864e-01	 1.537620838091754e+00	 2.465272508052206e+00
 1.572854593683837e-01	 1.539041586137960e+00	 2.419026555793235e+00
 1.439841089068125e-01	 1.540342931213930e+00	 2.376979609310552e+00
 1.307134051727029e-01	 1.541525812796541e+00	 2.339154163498096e+00
 2.661348954059583e-01	 1.532950510172047e+00	 2.957256220104753e+00
 2.525640758754147e-01	 1.535244732887851e+00	 2.885212341591989e+00
 2.390120819292470e-01	 1.537412824394003e+00	 2.816252276805272e+00
 2.254804970296585e-01	 1.539455583090400e+00	 2.750635908625331e+00
 2.119708812507968e-01	 1.541373830346541e+00	 2.688590012120740e+00
 1.984847709510047e-01	 1.543168409820991e+00	 2.630307329252484e+00
 1.850236784658633e-01	 1.544840186778444e+00	 2.575945899714047e+00
 1.715890918218799e-01	 1.546390047405068e+00	 2.525628639790558e+00
 1.581824744706486e-01	 1.547818898122745e+00	 2.479443160351797e+00
 1.448052650432924e-01	 1.549127664902857e+00	 2.437441814394723e+00
 1.314588771249771e-01	 1.550317292580228e+00	 2.399641963940120e+00
 2.676440829547879e-01	 1.541643507076409e+00	 3.016383408295331e+00
 2.539963065416587e-01	 1.543950739781967e+00	 2.944434991743567e+00
 2.403674624681990e-01	 1.546131126017801e+00	 2.875557522699739e+00
 2.267591431760836e-01	 1.548185468711358e+00	 2.810015961092461e+00
 2.131729175863037e-01	 1.550114593889945e+00	 2.748040293317100e+00
 1.996103307695577e-01	 1.551919349996329e+00	 2.689824600234171e+00
 1.860729036375554e-01	 1.553600607201934e+00	 2.635526390186023e+00
 1.725621326550812e-01	 1.555159256718291e+00	 2.585266188583261e+00
 1.590794895726473e-01	 1.556596210107402e+00	 2.539127374819762e+00
 1.456264211795432e-01	 1.557912398591630e+00	 2.497156256571931e+00
 1.322043490770718e-01	 1.559108772363745e+00	 2.459362370876725e+00
 2.691532705033814e-01	 1.550336503980869e+00	 3.074946468040312e+00
 2.554285372076425e-01	 1.552656746676170e+00	 3.003013403069824e+00
 2.417228430068760e-01	 1.554849427641667e+00	 2.934156281470083e+00
 2.280377893222278e-01	 1.556915354332362e+00	 2.868642632434248e+00
 2.143749539215315e-01	 1.558855357433372e+00	 2.806703115685779e+00
 2.007358905878413e-01	 1.560670290171667e+00	 2.748530585747591e+00
 1.871221288089945e-01	 1.562361027625399e+00	 2.694279430238275e+00
 1.735351734880523e-01	 1.563928466031469e+00	 2.644065173395194e+00
 1.599765046744442e-01	 1.565373522091998e+00	 2.597964335228093e+00
 1.464475773156259e-01	 1.566697132280327e+00	 2.556014535963956e+00
 1.329498210290364e-01	 1.567900252147179e+00	 2.518214834791934e+00
 2.706624580517231e-01	 1.559029500885329e+00	 3.132824585248047e+00
 2.568607678733580e-01	 1.561362753570373e+00	 3.060823662959340e+00
 2.430782235452811e-01	 1.563567729265533e+00	 2.991922551925268e+00
 2.293164354681073e-01	 1.565645239953367e+00	 2.926388898266289e+00
 2.155769902565106e-01	 1.567596120976798e+00	 2.864451550006697e+00
 2.018614504058989e-01	 1.569421230347005e+00	 2.806299620598789e+00
 1.881713539802353e-01	 1.571121448048864e+00	 2.752081835595982e+00
 1.745082143208551e-01	 1.572697675344647e+00	 2.701906153332382e+00
 1.608735197761037e-01	 1.574150834076592e+00	 2.655839649636161e+00
 1.472687334516011e-01	 1.575481865969024e+00	 2.613908655838533e+00
 1.336952929809201e-01	 1.576691731930613e+00	 2.576099138680858e+00
 2.721716455997967e-01	 1.567722497789690e+00	 3.189898031175023e+00
 2.582929985387967e-01	 1.570068760464489e+00	 3.117742851531377e+00
 2.444336040834171e-01	 1.572286030889331e+00	 3.048731239088724e+00
 2.305950816137382e-01	 1.574375125574324e+00	 2.983128559102185e+00
 2.167790265912712e-01	 1.576336884520202e+00	 2.921159414941016e+00
 2.029870102237739e-01	 1.578172170522343e+00	 2.863006713837724e+00
 1.892205791513319e-01	 1.579881868472354e+00	 2.808811025044133e+00
 1.754812551535516e-01	 1.581466884657869e+00	 2.758670220894817e+00
 1.617705348776905e-01	 1.582928146061250e+00	 2.712639390412932e+00
 1.480898895875295e-01	 1.584266599657797e+00	 2.670731014319457e+00
 1.344407649327723e-01	 1.585483211714131e+00	 2.632915389618835e+00
 2.736808331475863e-01	 1.576415494693853e+00	 3.246048171562344e+00
 2.597252292039504e-01	 1.578774767358436e+00	 3.173649047813131e+00
 2.457889846212869e-01	 1.581004332512994e+00	 3.104458157614995e+00
 2.318737277591369e-01	 1.583105011195190e+00	 3.038736241244910e+00
 2.179810629258437e-01	 1.585077648063559e+00	 2.976701275650437e+00
 2.041125700415098e-01	 1.586923110697683e+00	 2.918527545391113e+00
 1.902698043223391e-01	 1.588642288895891e+00	 2.864345015389723e+00
 1.764542959862037e-01	 1.590236093971183e+00	 2.814238995610128e+00
 1.626675499792689e-01	 1.591705458046034e+00	 2.768250086905924e+00
 1.489110457234718e-01	 1.593051333346724e+00	 2.726374396481376e+00
 1.351862368846424e-01	 1.594274691497817e+00	 2.688564010700567e+00
 2.751900206950757e-01	 1.585108491597720e+00	 3.301157475845701e+00
 2.611574598688104e-01	 1.587480774252124e+00	 3.228421336049512e+00
 2.471443651588935e-01	 1.589722634136455e+00	 3.158980035397215e+00
 2.331523739043196e-01	 1.591834896815916e+00	 3.093087397914709e+00
 2.191830992602580e-01	 1.593818411606847e+00	 3.030952442697580e+00
 2.052381298591504e-01	 1.595674050873026e+00	 2.972738463016964e+00
 1.913190294933112e-01	 1.597402709319500e+00	 2.918562416772071e+00
 1.774273368188733e-01	 1.599005303284631e+00	 2.868494618029591e+00
 1.635645650809033e-01	 1.600482770031007e+00	 2.822558718478321e+00
 1.497322018594886e-01	 1.601836067035880e+00	 2.780731966812554e+00
 1.359317088365796e-01	 1.603066171281757e+00	 2.742945733332189e+00
 2.766992082422489e-01	 1.593801488501192e+00	 3.355109526435874e+00
 2.625896905333688e-01	 1.596186781145472e+00	 3.281939812143147e+00
 2.484997456962398e-01	 1.598440935759645e+00	 3.212174517356523e+00
 2.344310200493027e-01	 1.600564782436457e+00	 3.146058310605921e+00
 2.203851355945446e-01	 1.602559175150043e+00	 3.083788971219589e+00
 2.063636896767386e-01	 1.604424991048371e+00	 3.025516479560869e+00
 1.923682546643027e-01	 1.606163129743204e+00	 2.971342428301369e+00
 1.784003776516225e-01	 1.607774512598260e+00	 2.921319744072921e+00
 1.644615801826584e-01	 1.609260082016233e+00	 2.875452707906901e+00
 1.505533579956408e-01	 1.610620800725342e+00	 2.833697262033230e+00
 1.366771807886333e-01	 1.611857651066033e+00	 2.795961589864260e+00
 1.292224612674189e-01	 1.523942853228325e+00	 2.216280296003592e+00
 1.161370045432490e-01	 1.524995907719813e+00	 2.181814454962813e+00
 1.030845074523524e-01	 1.525933799106504e+00	 2.150293165294052e+00
 9.006625410705957e-02	 1.526757506934695e+00	 2.121991576980470e+00
 7.708350413538470e-02	 1.527468026584641e+00	 2.097154877754114e+00
 6.413749255031878e-02	 1.528066368615300e+00	 2.075999072405281e+00
 5.122942963663374e-02	 1.528553558112195e+00	 2.058711905505592e+00
 3.836050085490671e-02	 1.528930634038844e+00	 2.045453916434729e+00
 2.553186676246194e-02	 1.529198648592264e+00	 2.036359615519180e+00
 1.274466295091584e-02	 1.529358666562981e+00	 2.031538770087514e+00
 0.000000000000000e+00	 1.529411764700000e+00	 2.031077789522311e+00
 1.299679332201999e-01	 1.532734333012601e+00	 2.277999860392419e+00
 1.168069877544363e-01	 1.533793462474074e+00	 2.243625734983917e+00
 1.036791920629995e-01	 1.534736764465901e+00	 2.212205914166520e+00
 9.058583766610906e-02	 1.535565224185284e+00	 2.184008015774547e+00
 7.752819145842089e-02	 1.536279842754725e+00	 2.159268230475734e+00
 6.450749557756634e-02	 1.536881636562999e+00	 2.138192153675357e+00
 5.152496729030349e-02	 1.537371636609242e+00	 2.120955765534606e+00
 3.858179889598756e-02	 1.537750887850650e+00	 2.107706547581920e+00
 2.567915764705685e-02	 1.538020448554258e+00	 2.098564724328795e+00
 1.281818568621749e-02	 1.538181389653266e+00	 2.093624618279646e+00
 0.000000000000000e+00	 1.538234794108333e+00	 2.092956107021404e+00
 1.307134051727029e-01	 1.541525812796541e+00	 2.339154163498096e+00
 1.174769709654458e-01	 1.542591017227994e+00	 2.304828438742985e+00
 1.042738766735866e-01	 1.543539729824975e+00	 2.273462279186324e+00
 9.110542122522107e-02	 1.544372941435584e+00	 2.245318978204960e+00
 7.797287878163402e-02	 1.545091658924567e+00	 2.220628855307903e+00
 6.487749860508464e-02	 1.545696904510509e+00	 2.199590139054744e+00
 5.182050494430460e-02	 1.546189715106154e+00	 2.182370003033343e+00
 3.880309693741504e-02	 1.546571141662372e+00	 2.169105742963285e+00
 2.582644853195619e-02	 1.546842248516213e+00	 2.159906082917428e+00
 1.289170842171192e-02	 1.547004112743540e+00	 2.154852598634670e+00
 0.000000000000000e+00	 1.547057823516667e+00	 2.154001246202873e+00
 1.314588771249771e-01	 1.550317292580228e+00	 2.399641963940127e+00
 1.181469541763070e-01	 1.551388571981657e+00	 2.365330675467056e+00
 1.048685612841183e-01	 1.552342695183805e+00	 2.333980979940529e+00
 9.162500478437302e-02	 1.553180658685667e+00	 2.305854986484876e+00
 7.841756610497545e-02	 1.553903475094228e+00	 2.281180200829438e+00
 6.524750163280341e-02	 1.554512172457876e+00	 2.260150457747318e+00
 5.211604259855294e-02	 1.555007793602966e+00	 2.242927011745079e+00
 3.902439497910197e-02	 1.555391395474033e+00	 2.229639773648065e+00
 2.597373941708367e-02	 1.555664048478137e+00	 2.220388680642918e+00
 1.296523115735092e-02	 1.555826835833806e+00	 2.215245187333814e+00
 0.000000000000000e+00	 1.555880852925000e+00	 2.214253865655697e+00
 1.322043490770718e-01	 1.559108772363745e+00	 2.459362370876725e+00
 1.188169373870500e-01	 1.560186126735149e+00	 2.425040832406621e+00
 1.054632458945994e-01	 1.561145660542473e+00	 2.393680941459602e+00
 9.214458834354247e-02	 1.561988375935605e+00	 2.365546696877100e+00
 7.886225342839680e-02	 1.562715291263768e+00	 2.340865780690874e+00
 6.561750466065261e-02	 1.563327440405150e+00	 2.319830538667942e+00
 5.241158025296448e-02	 1.563825872099712e+00	 2.302599124551898e+00
 3.924569302096115e-02	 1.564211649285652e+00	 2.289296795203233e+00
 2.612103030236307e-02	 1.564485848440041e+00	 2.280017343771178e+00
 1.303875389308628e-02	 1.564649558924066e+00	 2.274824658013572e+00
 0.000000000000000e+00	 1.564703882333334e+00	 2.273754391171201e+00
 1.329498210290364e-01	 1.567900252147179e+00	 2.518214834791934e+00
 1.194869205977044e-01	 1.568983681488557e+00	 2.483867565953030e+00
 1.060579305050347e-01	 1.569948625901061e+00	 2.452481286037917e+00
 9.266417190270691e-02	 1.570796093185471e+00	 2.424324892561230e+00
 7.930694075184948e-02	 1.571527107433247e+00	 2.399629167830418e+00
 6.598750768856204e-02	 1.572142708352377e+00	 2.378587806270979e+00
 5.270711790745506e-02	 1.572643950596423e+00	 2.361358611139696e+00
 3.946699106290542e-02	 1.573031903097251e+00	 2.348064847386156e+00
 2.626832118771809e-02	 1.573307648401937e+00	 2.338796737343845e+00
 1.311227662886979e-02	 1.573472282014324e+00	 2.333613085924564e+00
 0.000000000000000e+00	 1.573526911741667e+00	 2.332543022269570e+00
 1.336952929809201e-01	 1.576691731930613e+00	 2.576099138680865e+00
 1.201569038083001e-01	 1.577781236241964e+00	 2.541719793121952e+00
 1.066526151154288e-01	 1.578751591259648e+00	 2.510301325387482e+00
 9.318375546184397e-02	 1.579603810435338e+00	 2.482120476785664e+00
 7.975162807528487e-02	 1.580338923602726e+00	 2.457413988917271e+00
 6.635751071646155e-02	 1.580957976299603e+00	 2.436379676538915e+00
 5.300265556194057e-02	 1.581462029093134e+00	 2.419177675755565e+00
 3.968828910484756e-02	 1.581852156908849e+00	 2.405931853853637e+00
 2.641561207307251e-02	 1.582129448363831e+00	 2.396731366988516e+00
 1.318579936465323e-02	 1.582295005104581e+00	 2.391632351952157e+00
 0.000000000000000e+00	 1.582349941150001e+00	 2.390659738507896e+00
 1.344407649327723e-01	 1.585483211714131e+00	 2.632915389618843e+00
 1.208268870188669e-01	 1.586578790995455e+00	 2.598506683396365e+00
 1.072472997257866e-01	 1.587554556618316e+00	 2.567060553109364e+00
 9.370333902093100e-02	 1.588411527685276e+00	 2.538864466289165e+00
 8.019631539865456e-02	 1.589150739772266e+00	 2.514163919009865e+00
 6.672751374428097e-02	 1.589773244246877e+00	 2.493163553128485e+00
 5.329819321633694e-02	 1.590280107589879e+00	 2.476028455055673e+00
 3.990958714670042e-02	 1.590672410720468e+00	 2.462885621888661e+00
 2.656290295835006e-02	 1.590951248325736e+00	 2.453825580669193e+00
 1.325932210038839e-02	 1.591117728194842e+00	 2.448904146504188e+00
 0.000000000000000e+00	 1.591172970558334e+00	 2.448144305579027e+00
 1.351862368846424e-01	 1.594274691497817e+00	 2.688564010700567e+00
 1.214968702294345e-01	 1.595376345749119e+00	 2.654137650910280e+00
 1.078419843361127e-01	 1.596357521977147e+00	 2.622678637469482e+00
 9.422292257994572e-02	 1.597219244935359e+00	 2.594487984982520e+00
 8.064100272190992e-02	 1.597962555941926e+00	 2.569822676420284e+00
 6.709751677195017e-02	 1.598588512194245e+00	 2.548896823664829e+00
 5.359373087056002e-02	 1.599098186086691e+00	 2.531883016034342e+00
 4.013088518837676e-02	 1.599492664532128e+00	 2.518913842144802e+00
 2.671019384347448e-02	 1.599773048287660e+00	 2.510083570385267e+00
 1.333284483602705e-02	 1.599940451285107e+00	 2.505449973270064e+00
 0.000000000000000e+00	 1.599995999966668e+00	 2.505036281207973e+00
 1.359317088365796e-01	 1.603066171281757e+00	 2.742945733332189e+00
 1.221668534400328e-01	 1.604173900503038e+00	 2.708522346960067e+00
 1.084366689464120e-01	 1.605160487336221e+00	 2.677075414470731e+00
 9.474250613886555e-02	 1.606026962185658e+00	 2.648922257884116e+00
 8.108569004500246e-02	 1.606774372111768e+00	 2.624334017784150e+00
 6.746751979939895e-02	 1.607403780141754e+00	 2.603536856177817e+00
 5.388926852452577e-02	 1.607916264583604e+00	 2.586713354038662e+00
 4.035218322978945e-02	 1.608312918343851e+00	 2.574004088405584e+00
 2.685748472836951e-02	 1.608594848249614e+00	 2.565509373817564e+00
 1.340636757152100e-02	 1.608763174375381e+00	 2.561291152858402e+00
 0.000000000000000e+00	 1.608819029375000e+00	 2.561375020854098e+00
 1.366771807886333e-01	 1.611857651066033e+00	 2.795961589864260e+00
 1.228368366506916e-01	 1.612971455257300e+00	 2.761570652836409e+00
 1.090313535566891e-01	 1.613963452695617e+00	 2.730170881206034e+00
 9.526208969766804e-02	 1.614834679436247e+00	 2.702098605292085e+00
 8.153037736788364e-02	 1.615586188281853e+00	 2.677641733318003e+00
 6.783752282655720e-02	 1.616219048089453e+00	 2.657040995679439e+00
 5.418480617815002e-02	 1.616734343080651e+00	 2.640491390859592e+00
 4.057348127085128e-02	 1.617133172155657e+00	 2.628143817359348e+00
 2.700477561295891e-02	 1.617416648211609e+00	 2.620106875920962e+00
 1.347989030682204e-02	 1.617585897465666e+00	 2.616448826316137e+00
 0.000000000000000e+00	 1.617642058783334e+00	 2.617199683228000e+00
 1.617642058783334e+00	 0.000000000000000e+00	 1.440730340375602e+01
 1.617585897465666e+00	 1.347989030682115e-02	 1.440413530396146e+01
 1.617416648211609e+00	 2.700477561295814e-02	 1.440229771655278e+01
 1.617133172155657e+00	 4.057348127085064e-02	 1.440158564786284e+01
 1.616734343080650e+00	 5.418480617814950e-02	 1.440181811748481e+01
 1.616219048089453e+00	 6.783752282655682e-02	 1.440283938284349e+01
 1.615586188281852e+00	 8.153037736788341e-02	 1.440452012178316e+01
 1.614834679436247e+00	 9.526208969766795e-02	 1.440675856997272e+01
 1.613963452695617e+00	 1.090313535566891e-01	 1.440948160967590e+01
 1.612971455257299e+00	 1.228368366506917e-01	 1.441264580627956e+01
 1.611857651066033e+00	 1.366771807886334e-01	 1.441623838879807e+01
 1.626466587363230e+00	 0.000000000000000e+00	 1.433774338430306e+01
 1.626410119675477e+00	 1.355342553456704e-02	 1.433469781132555e+01
 1.626239947136310e+00	 2.715209152423106e-02	 1.433300532292139e+01
 1.625954924667503e+00	 4.079481691352500e-02	 1.433245672550567e+01
 1.625553919908178e+00	 5.448039404787752e-02	 1.433286731012733e+01
 1.625035813890140e+00	 6.820758872271934e-02	 1.433407808209351e+01
 1.624399501718476e+00	 8.197514024990128e-02	 1.433595694874875e+01
 1.623643893256957e+00	 9.578176154176929e-02	 1.433839986229094e+01
 1.622767913817755e+00	 1.096261392132306e-01	 1.434133191425754e+01
 1.621770504854973e+00	 1.235069337021329e-01	 1.434470837815127e+01
 1.620650624661481e+00	 1.374227794082651e-01	 1.434851569649784e+01
 1.635291110942501e+00	 0.000000000000000e+00	 1.426964896935158e+01
 1.635234336884848e+00	 1.362696072045005e-02	 1.426671491406430e+01
 1.635063241061123e+00	 2.729940735172182e-02	 1.426515788667584e+01
 1.634776672180379e+00	 4.101615243043206e-02	 1.426476424895956e+01
 1.634373491738018e+00	 5.477598174977760e-02	 1.426534530814359e+01
 1.633852574694785e+00	 6.857765440890817e-02	 1.426673855095232e+01
 1.633212810161064e+00	 8.241990287970458e-02	 1.426880883600344e+01
 1.632453102085998e+00	 9.630143309131031e-02	 1.427144954153483e+01
 1.631572369950946e+00	 1.102209245327511e-01	 1.427458366518335e+01
 1.630569549466778e+00	 1.241770303739671e-01	 1.427816487237186e+01
 1.629443593274491e+00	 1.381683776055684e-01	 1.428217848967668e+01
 1.644115624520522e+00	 0.000000000000000e+00	 1.420299343978508e+01
 1.644058544093324e+00	 1.370049582284849e-02	 1.420015734025237e+01
 1.643886524986109e+00	 2.744672301203027e-02	 1.419872352228588e+01
 1.643598409695212e+00	 4.123748769624271e-02	 1.419847367157911e+01
 1.643193053572317e+00	 5.507156911644759e-02	 1.419921486896598e+01
 1.642669325507112e+00	 6.894771967551033e-02	 1.420078082819671e+01
 1.642026108615282e+00	 8.286466500533883e-02	 1.420303309233705e+01
 1.641262300931342e+00	 9.682110405187060e-02	 1.420586218586303e+01
 1.640376816105841e+00	 1.108157091782467e-01	 1.420918871927090e+01
 1.639368584106420e+00	 1.248471262864970e-01	 1.421296444285164e+01
 1.638236551922202e+00	 1.389139749580493e-01	 1.421717324609056e+01
 1.652940123096667e+00	 0.000000000000000e+00	 1.413774906012913e+01
 1.652882736300451e+00	 1.377403080014068e-02	 1.413499471968603e+01
 1.652709793911329e+00	 2.759403842175629e-02	 1.413366917599491e+01
 1.652420132212929e+00	 4.145882258562784e-02	 1.413354922063902e+01
 1.652012600413221e+00	 5.536715598048526e-02	 1.413443747828532e+01
 1.651486061330844e+00	 6.931778431291304e-02	 1.413616364746550e+01
 1.650839392086791e+00	 8.330942637484934e-02	 1.413858570031709e+01
 1.650071484800959e+00	 9.734077412902960e-02	 1.414159103846021e+01
 1.649181247293090e+00	 1.114104928127139e-01	 1.414509760193665e+01
 1.648167603787603e+00	 1.255172210600252e-01	 1.414905492796146e+01
 1.647029495621756e+00	 1.396595710432135e-01	 1.415344515604083e+01
 1.661764601670313e+00	 0.000000000000000e+00	 1.407388710575616e+01
 1.661706908505775e+00	 1.384756561070495e-02	 1.407119561093453e+01
 1.661533042836846e+00	 2.774135349749974e-02	 1.406996065281633e+01
 1.661241834734455e+00	 4.168015697325835e-02	 1.406995392437895e+01
 1.660832127262873e+00	 5.566274217448843e-02	 1.407097337725251e+01
 1.660302777169703e+00	 6.968784811150329e-02	 1.407284446473076e+01
 1.659652655581256e+00	 8.375418673628164e-02	 1.407542134414621e+01
 1.658880648702818e+00	 9.786044302836691e-02	 1.407858803590081e+01
 1.657985658523342e+00	 1.120052750991488e-01	 1.408225953619122e+01
 1.656966603524032e+00	 1.261873143148546e-01	 1.408638288028693e+01
 1.655822419390292e+00	 1.404051654385669e-01	 1.409093815301943e+01
 1.670589055240833e+00	 0.000000000000000e+00	 1.401137788924331e+01
 1.670531055708842e+00	 1.392110021291962e-02	 1.400872752755346e+01
 1.670356266762721e+00	 2.788866815586049e-02	 1.400756264270285e+01
 1.670063512260718e+00	 4.190149073380513e-02	 1.400764963823354e+01
 1.669651629123421e+00	 5.595832753105487e-02	 1.400878158887970e+01
 1.669119468027414e+00	 7.005791086166832e-02	 1.401077948498326e+01
 1.668465894104338e+00	 8.419894583768114e-02	 1.401349343675040e+01
 1.667689787644890e+00	 9.838011045546205e-02	 1.401680383576276e+01
 1.666790044807246e+00	 1.126000557005478e-01	 1.402062247090335e+01
 1.665765578329411e+00	 1.268574056712876e-01	 1.402489359567307e+01
 1.664615318244948e+00	 1.411507577216153e-01	 1.402959494366541e+01
 1.679413478807604e+00	 0.000000000000000e+00	 1.395019078591512e+01
 1.679355172909198e+00	 1.399463456516301e-02	 1.394755696349133e+01
 1.679179460689016e+00	 2.803598231343839e-02	 1.394643874591938e+01
 1.678885159792644e+00	 4.212282374193910e-02	 1.394659707027841e+01
 1.678471100997010e+00	 5.625391188278244e-02	 1.394781994366966e+01
 1.677936128907697e+00	 7.042797235379507e-02	 1.394992368816156e+01
 1.677279102661701e+00	 8.464370342709324e-02	 1.395275414612737e+01
 1.676498896635147e+00	 9.889977611589459e-02	 1.395618784351781e+01
 1.675594401155452e+00	 1.131948342799072e-01	 1.396013310836000e+01
 1.674564523217445e+00	 1.275274947496271e-01	 1.396453114158314e+01
 1.673408187202868e+00	 1.418963474698645e-01	 1.396935703705726e+01
 1.688237867370000e+00	 0.000000000000000e+00	 1.389029425860043e+01
 1.688179255106389e+00	 1.406816862581345e-02	 1.388764941771861e+01
 1.688002619615791e+00	 2.818329588683332e-02	 1.388655149764740e+01
 1.687706772331160e+00	 4.234415587233111e-02	 1.388675580591893e+01
 1.687290537885786e+00	 5.654949506226892e-02	 1.388804510450191e+01
 1.686752754814276e+00	 7.079803237827080e-02	 1.389023085435210e+01
 1.686092276259008e+00	 8.508845925256343e-02	 1.389315442098099e+01
 1.685307970681557e+00	 9.941943971524404e-02	 1.389668823872547e+01
 1.684398722578610e+00	 1.137896105002232e-01	 1.390073693114761e+01
 1.683363433201838e+00	 1.281975811701757e-01	 1.390523838479946e+01
 1.682201021281189e+00	 1.426419342608202e-01	 1.391016477336626e+01
 1.697062215927397e+00	 0.000000000000000e+00	 1.383165588163202e+01
 1.697003297299960e+00	 1.414170235324925e-02	 1.382896941810750e+01
 1.696825738543109e+00	 2.833060879264513e-02	 1.382786239185099e+01
 1.696528344877194e+00	 4.256548699965210e-02	 1.382808433185103e+01
 1.696109934791894e+00	 5.684507690211212e-02	 1.382941259080288e+01
 1.695569340750875e+00	 7.116809072548257e-02	 1.383165358828679e+01
 1.694905409901922e+00	 8.553321306213711e-02	 1.383464401566908e+01
 1.694117004792092e+00	 9.993910095908996e-02	 1.383825200055628e+01
 1.693203004087369e+00	 1.143843840244923e-01	 1.384237822837963e+01
 1.692162303296296e+00	 1.288676645532361e-01	 1.384695701848720e+01
 1.690993815497055e+00	 1.433875176719886e-01	 1.385195735189309e+01
 1.705886519479168e+00	 0.000000000000000e+00	 1.377424236411634e+01
 1.705827294489459e+00	 1.421523570584876e-02	 1.377148054458965e+01
 1.705648812471032e+00	 2.847792094747371e-02	 1.377033190442840e+01
 1.705349872431669e+00	 4.278681699857291e-02	 1.377054005931937e+01
 1.704929286717479e+00	 5.714065723490981e-02	 1.377187680202566e+01
 1.704385881721215e+00	 7.153814718581744e-02	 1.377414334316391e+01
 1.703718498596106e+00	 8.597796460385973e-02	 1.377717151448815e+01
 1.702925993974722e+00	 1.004587595530119e-01	 1.378082493266758e+01
 1.702007240692379e+00	 1.149791545157106e-01	 1.378500012129403e+01
 1.700961128514523e+00	 1.295377445191110e-01	 1.378962758864691e+01
 1.699786564867602e+00	 1.441330972808752e-01	 1.379467285851032e+01
 1.611857651066033e+00	 1.366771807886334e-01	 1.441623838879807e+01
 1.610620800725342e+00	 1.505533579956402e-01	 1.441982857654038e+01
 1.609260082016233e+00	 1.644615801826577e-01	 1.442295135247264e+01
 1.607774512598260e+00	 1.784003776516219e-01	 1.442559356937176e+01
 1.606163129743204e+00	 1.923682546643022e-01	 1.442777671102451e+01
 1.604424991048371e+00	 2.063636896767381e-01	 1.442955765259110e+01
 1.602559175150043e+00	 2.203851355945442e-01	 1.443102933945495e+01
 1.600564782436457e+00	 2.344310200493024e-01	 1.443232137903762e+01
 1.598440935759645e+00	 2.484997456962395e-01	 1.443360053978592e+01
 1.596186781145472e+00	 2.625896905333687e-01	 1.443507115126448e+01
 1.593801488501192e+00	 2.766992082422489e-01	 1.443697539900879e+01
 1.620650624661481e+00	 1.374227794082651e-01	 1.434851569649784e+01
 1.619407027079671e+00	 1.513746536593318e-01	 1.435233869175833e+01
 1.618038885405196e+00	 1.653587477015729e-01	 1.435572643899248e+01
 1.616545211938770e+00	 1.793735838194572e-01	 1.435866390236908e+01
 1.614925038700317e+00	 1.934176581152332e-01	 1.436117158939195e+01
 1.613177418146170e+00	 2.074894407446446e-01	 1.436330633351269e+01
 1.611301423886408e+00	 2.215873761736283e-01	 1.436516199572927e+01
 1.609296151401727e+00	 2.357098834562133e-01	 1.436687007962299e+01
 1.607160718759159e+00	 2.498553565338243e-01	 1.436860025400177e+01
 1.604894267325988e+00	 2.640221645561615e-01	 1.437056077702579e+01
 1.602495962481167e+00	 2.782086522238208e-01	 1.437299881539379e+01
 1.629443593274491e+00	 1.381683776055684e-01	 1.428217848967668e+01
 1.628193248455343e+00	 1.521959488578245e-01	 1.428622816739498e+01
 1.626817683819643e+00	 1.662559147122843e-01	 1.428988049160027e+01
 1.625315906309269e+00	 1.803467894359614e-01	 1.429311846864795e+01
 1.623686942692302e+00	 1.944670609715952e-01	 1.429596153835658e+01
 1.621929840284107e+00	 2.086151911746459e-01	 1.429846637865576e+01
 1.620043667668570e+00	 2.227896160713845e-01	 1.430072762984495e+01
 1.618027515418851e+00	 2.369887461383005e-01	 1.430287853289646e+01
 1.615880496816994e+00	 2.512109666030279e-01	 1.430509147593436e+01
 1.613601748571710e+00	 2.654546377669675e-01	 1.430757844271115e+01
 1.611190431533655e+00	 2.797180953497652e-01	 1.431059135659051e+01
 1.638236551922202e+00	 1.389139749580493e-01	 1.421717324609056e+01
 1.636979459873319e+00	 1.530172431257230e-01	 1.422144071292015e+01
 1.635596472284742e+00	 1.671530807064029e-01	 1.422535423687219e+01
 1.634086590739525e+00	 1.813199939496616e-01	 1.422889479761265e+01
 1.632448836753914e+00	 1.955164626387451e-01	 1.423208067537695e+01
 1.630682252502318e+00	 2.097409403288453e-01	 1.423496827742699e+01
 1.628785901542440e+00	 2.239918546065830e-01	 1.423765288487565e+01
 1.626758869539914e+00	 2.382676073709237e-01	 1.424026931429639e+01
 1.624600264991807e+00	 2.525665751357271e-01	 1.424299248821843e+01
 1.622309219948267e+00	 2.668871093541108e-01	 1.424603790828030e+01
 1.619884890731665e+00	 2.812275367647870e-01	 1.424966202448183e+01
 1.647029495621756e+00	 1.396595710432135e-01	 1.415344515604083e+01
 1.645765656354561e+00	 1.538385359976326e-01	 1.415791879325874e+01
 1.644375245825661e+00	 1.680502451755395e-01	 1.416208721721109e+01
 1.642857260259301e+00	 1.822931968090853e-01	 1.416592931228567e+01
 1.641210715919905e+00	 1.965658625220402e-01	 1.416946210666451e+01
 1.639434649840937e+00	 2.108666875693464e-01	 1.417274162035382e+01
 1.637528120553928e+00	 2.251940910979935e-01	 1.417586363447111e+01
 1.635490208817002e+00	 2.395464664294424e-01	 1.417896437619916e+01
 1.633320018342258e+00	 2.539221813637981e-01	 1.418222111348007e+01
 1.631016676521292e+00	 2.683195785059148e-01	 1.418585265317710e+01
 1.628579335148205e+00	 2.827369756135909e-01	 1.419011973607996e+01
 1.655822419390292e+00	 1.404051654385669e-01	 1.409093815301943e+01
 1.654551832920027e+00	 1.546598270081577e-01	 1.409560366039004e+01
 1.653153999467569e+00	 1.689474076113055e-01	 1.410001782339285e+01
 1.651627909898363e+00	 1.832663974627599e-01	 1.410415736279241e+01
 1.649972575225027e+00	 1.976152600268374e-01	 1.410803796159846e+01
 1.648187027340098e+00	 2.119924322582525e-01	 1.411171513441928e+01
 1.646270319748946e+00	 2.263963248643860e-01	 1.411528501910120e+01
 1.644221528302200e+00	 2.408253225892167e-01	 1.411888508506066e+01
 1.642039751927005e+00	 2.552777845191178e-01	 1.412269475236106e+01
 1.639724113356420e+00	 2.697520444107033e-01	 1.412693591522094e+01
 1.637273759856283e+00	 2.842464110408821e-01	 1.413187336326686e+01
 1.664615318244948e+00	 1.411507577216153e-01	 1.402959494366541e+01
 1.663337984590680e+00	 1.554811156919036e-01	 1.403443538428310e+01
 1.661932728235633e+00	 1.698445675053118e-01	 1.403908332647796e+01
 1.660398534686476e+00	 1.842395953592128e-01	 1.404351325924706e+01
 1.658734409704035e+00	 1.986646545584939e-01	 1.404773942658265e+01
 1.656939380039935e+00	 2.131181737576670e-01	 1.405181671788591e+01
 1.655012494173407e+00	 2.275985552245304e-01	 1.405584148184093e+01
 1.652952823047595e+00	 2.421041751256061e-01	 1.405995225815497e+01
 1.650759460804705e+00	 2.566333838335624e-01	 1.406433042120314e+01
 1.648431525519279e+00	 2.711845062568001e-01	 1.406920072922567e+01
 1.645968159928908e+00	 2.857558421913653e-01	 1.407483177233560e+01
 1.673408187202868e+00	 1.418963474698645e-01	 1.396935703705726e+01
 1.672124106387480e+00	 1.563024015834751e-01	 1.397435288319187e+01
 1.670711427155022e+00	 1.707417243491695e-01	 1.397921990911273e+01
 1.669169129653405e+00	 1.852127899469711e-01	 1.398393030406249e+01
 1.667496214391682e+00	 1.997140455223665e-01	 1.398849677836517e+01
 1.665691702980585e+00	 2.142439114296938e-01	 1.399297347462603e+01
 1.663754638873219e+00	 2.288007814971963e-01	 1.399745680371138e+01
 1.661684088105270e+00	 2.433830233139704e-01	 1.400208619992481e+01
 1.659479140034019e+00	 2.579889785390085e-01	 1.400704478940345e+01
 1.657138908075503e+00	 2.726169632325287e-01	 1.401255996535529e+01
 1.654662530439087e+00	 2.872652682097453e-01	 1.401890386333752e+01
 1.682201021281189e+00	 1.426419342608202e-01	 1.391016477336626e+01
 1.680910193331387e+00	 1.571236842174772e-01	 1.391529395333357e+01
 1.679490091250905e+00	 1.716388776344895e-01	 1.392036269624131e+01
 1.677939689828916e+00	 1.861859806745624e-01	 1.392534082370312e+01
 1.676257984322722e+00	 2.007634323238126e-01	 1.393023941684009e+01
 1.674443991202181e+00	 2.153696446364358e-01	 1.393511174797756e+01
 1.672496748894298e+00	 2.300030030011540e-01	 1.394005413859454e+01
 1.670415318527312e+00	 2.446618664296693e-01	 1.394520673795702e+01
 1.668198784673604e+00	 2.593445678673327e-01	 1.395075421645330e+01
 1.665846256090725e+00	 2.740494145262128e-01	 1.395692636722460e+01
 1.663356866459828e+00	 2.887746882407271e-01	 1.396399860924303e+01
 1.690993815497055e+00	 1.433875176719886e-01	 1.385195735189309e+01
 1.689696240443363e+00	 1.579449631285147e-01	 1.385719529797310e+01
 1.688268715548449e+00	 1.725360268528830e-01	 1.386244578525066e+01
 1.686710210242772e+00	 1.871591669905140e-01	 1.386767619990310e+01
 1.685019714531905e+00	 2.018128143681890e-01	 1.387289589734955e+01
 1.683196239744859e+00	 2.164953727399969e-01	 1.387815715414123e+01
 1.681238819282553e+00	 2.312052190551732e-01	 1.388355604773418e+01
 1.679146509365806e+00	 2.459407037480627e-01	 1.388923325859684e+01
 1.676918389782119e+00	 2.607001510504113e-01	 1.389537478867050e+01
 1.674553564630576e+00	 2.754818593261764e-01	 1.390221258975425e+01
 1.672051163064140e+00	 2.902841014290156e-01	 1.391002509492075e+01
 1.699786564867602e+00	 1.441330972808752e-01	 1.379467285851032e+01
 1.698482242744367e+00	 1.587662378511926e-01	 1.379999255593436e+01
 1.697047295072823e+00	 1.734331714959610e-01	 1.380540227556786e+01
 1.695480685924739e+00	 1.881323483433532e-01	 1.381086690036686e+01
 1.693781400053988e+00	 2.028621910608528e-01	 1.381639396250439e+01
 1.691948443648752e+00	 2.176210951024801e-01	 1.382203461513608e+01
 1.689980845083896e+00	 2.324074289780237e-01	 1.382788453384055e+01
 1.687877655672838e+00	 2.472195345445101e-01	 1.383408474221276e+01
 1.685637950418222e+00	 2.620557273201210e-01	 1.384082235563627e+01
 1.683260828760689e+00	 2.769142968207428e-01	 1.384833123678794e+01
 1.680745415325032e+00	 2.917935069193159e-01	 1.385689255594157e+01
 1.593801488501192e+00	 2.766992082422489e-01	 1.443697539900879e+01
 1.591284691259338e+00	 2.908242263537434e-01	 1.443882091015642e+01
 1.588635214298862e+00	 3.049654517859350e-01	 1.444011153564019e+01
 1.585852302532892e+00	 3.191211722672210e-01	 1.444113602918674e+01
 1.582935227508338e+00	 3.332896528818207e-01	 1.444221607176021e+01
 1.579883288089227e+00	 3.474691365191284e-01	 1.444370590597409e+01
 1.576695811133212e+00	 3.616578443450141e-01	 1.444599182768067e+01
 1.573372152160505e+00	 3.758539762950537e-01	 1.444949152679878e+01
 1.569911696014492e+00	 3.900557115896419e-01	 1.445465326924232e+01
 1.566313857513235e+00	 4.042612092709107e-01	 1.446195491163868e+01
 1.562578082091108e+00	 4.184686087613524e-01	 1.447190274038675e+01
 1.602495962481167e+00	 2.782086522238208e-01	 1.437299881539379e+01
 1.599965435657536e+00	 2.924107248516120e-01	 1.437538376160284e+01
 1.597301505323543e+00	 3.066290932139739e-01	 1.437718023295023e+01
 1.594503412273176e+00	 3.208620356985422e-01	 1.437868136515259e+01
 1.591570424079493e+00	 3.351078079252470e-01	 1.438021374027979e+01
 1.588501835781692e+00	 3.493646431981160e-01	 1.438213703770099e+01
 1.585296970565304e+00	 3.636307529791469e-01	 1.438484354234038e+01
 1.581955180434782e+00	 3.779043273842289e-01	 1.438875750211179e+01
 1.578475846877712e+00	 3.921835357010632e-01	 1.439433432617967e+01
 1.574858381519876e+00	 4.064665269290135e-01	 1.440205961549962e+01
 1.571102226770384e+00	 4.207514303407746e-01	 1.441244801692821e+01
 1.611190431533655e+00	 2.797180953497652e-01	 1.431059135659051e+01
 1.608646175135986e+00	 2.939972224501950e-01	 1.431355625612033e+01
 1.605967791436650e+00	 3.082927336990454e-01	 1.431589205994788e+01
 1.603154517110488e+00	 3.226028981431904e-01	 1.431789406311429e+01
 1.600205615756710e+00	 3.369259619382693e-01	 1.431989160829604e+01
 1.597120378589678e+00	 3.512601488029425e-01	 1.432224775903477e+01
 1.593898125122802e+00	 3.656036604953347e-01	 1.432535883051802e+01
 1.590538203844771e+00	 3.799546773116462e-01	 1.432965376957941e+01
 1.587039992887372e+00	 3.943113586068852e-01	 1.433559337533888e+01
 1.583402900684101e+00	 4.086718433376451e-01	 1.434366935168664e+01
 1.579626366618807e+00	 4.230342506268229e-01	 1.435440318262800e+01
 1.619884890731665e+00	 2.812275367647870e-01	 1.424966202448183e+01
 1.617326904775478e+00	 2.955837182505238e-01	 1.425324340668494e+01
 1.614634067727157e+00	 3.099563722984526e-01	 1.425614983733715e+01
 1.611805612142400e+00	 3.243437586146905e-01	 1.425867657752812e+01
 1.608840797646567e+00	 3.387441138905927e-01	 1.426115361769593e+01
 1.605738911629190e+00	 3.531556522594577e-01	 1.426394537888258e+01
 1.602499269931555e+00	 3.675765657755433e-01	 1.426745027189884e+01
 1.599121217526589e+00	 3.820050249153675e-01	 1.427210010585264e+01
 1.595604129190281e+00	 3.964391791012510e-01	 1.427835933722538e+01
 1.591947410163843e+00	 4.108771572470237e-01	 1.428672415043680e+01
 1.588150496805859e+00	 4.253170683257905e-01	 1.429772136062783e+01
 1.628579335148205e+00	 2.827369756135909e-01	 1.419011973607996e+01
 1.626007619656798e+00	 2.971702113536303e-01	 1.419435033126856e+01
 1.623300329284035e+00	 3.116200080694980e-01	 1.419785665246298e+01
 1.620456692466479e+00	 3.260846161265676e-01	 1.420093176171970e+01
 1.617475964855642e+00	 3.405622627519219e-01	 1.420390421083787e+01
 1.614357430016230e+00	 3.550511524935114e-01	 1.420713777637902e+01
 1.611100400117410e+00	 3.695494677017393e-01	 1.421103105307463e+01
 1.607704216616352e+00	 3.840553690334547e-01	 1.421601689685256e+01
 1.604168250933248e+00	 3.985669959783040e-01	 1.422256170841771e+01
 1.600491905117031e+00	 4.130824674073677e-01	 1.423116454805202e+01
 1.596674612501020e+00	 4.275998821439713e-01	 1.424235607206270e+01
 1.637273759856283e+00	 2.842464110408821e-01	 1.413187336326686e+01
 1.634688314860732e+00	 2.987567008605458e-01	 1.413678229398118e+01
 1.631966571196259e+00	 3.132836400694843e-01	 1.414091590299225e+01
 1.629107753180294e+00	 3.278254696923462e-01	 1.414456291525812e+01
 1.626111112490514e+00	 3.423804074919620e-01	 1.414804838279214e+01
 1.622975928866803e+00	 3.569466484309533e-01	 1.415173345918183e+01
 1.619701510806219e+00	 3.715223651558893e-01	 1.415601503310060e+01
 1.616287196250179e+00	 3.861057085039698e-01	 1.416132521180909e+01
 1.612732353263084e+00	 4.006948080321880e-01	 1.416813064532247e+01
 1.609036380701594e+00	 4.152877725688949e-01	 1.417693168161931e+01
 1.605198708873770e+00	 4.298826907876586e-01	 1.418826134300588e+01
 1.645968159928908e+00	 2.857558421913653e-01	 1.407483177233560e+01
 1.643368985468068e+00	 3.003431858723023e-01	 1.408044474607302e+01
 1.640632788552800e+00	 3.149472673557145e-01	 1.408523134048257e+01
 1.637758789381415e+00	 3.295663183255516e-01	 1.408947383121472e+01
 1.634746235657761e+00	 3.441985470804180e-01	 1.409349173342940e+01
 1.631594403296914e+00	 3.588421389976334e-01	 1.409764162154667e+01
 1.628302597123831e+00	 3.734952570199594e-01	 1.410231680872695e+01
 1.624870151564186e+00	 3.881560421649748e-01	 1.410794687683517e+01
 1.621296431326598e+00	 4.028226140570464e-01	 1.411499704729091e+01
 1.617580832075464e+00	 4.174930714818240e-01	 1.412396738288080e+01
 1.613722781093592e+00	 4.321654929631462e-01	 1.413539181031754e+01
 1.654662530439087e+00	 2.872652682097453e-01	 1.401890386333752e+01
 1.652049626559594e+00	 3.019296654899313e-01	 1.402524336680137e+01
 1.649298976442632e+00	 3.166108889854911e-01	 1.403070711384309e+01
 1.646409796167410e+00	 3.313071610397084e-01	 1.403556884331007e+01
 1.643381329463962e+00	 3.460166804869948e-01	 1.404014051936215e+01
 1.640212848422567e+00	 3.607376231194011e-01	 1.404477220218605e+01
 1.636903654196095e+00	 3.754681421759162e-01	 1.404985177931475e+01
 1.633453077694489e+00	 3.902063688545312e-01	 1.405580454805147e+01
 1.629860480270600e+00	 4.049504128470224e-01	 1.406309263911702e+01
 1.626125254396569e+00	 4.196983628963729e-01	 1.407221427128350e+01
 1.622246824329965e+00	 4.344482873767272e-01	 1.408370282643393e+01
 1.663356866459828e+00	 2.887746882407271e-01	 1.396399860924303e+01
 1.660730233216095e+00	 3.035161388144645e-01	 1.397108410416539e+01
 1.657965129954727e+00	 3.182745040161170e-01	 1.397724781268984e+01
 1.655060768635849e+00	 3.330479968483417e-01	 1.398275287295187e+01
 1.652016389015695e+00	 3.478348066813974e-01	 1.398790170574285e+01
 1.648831259359766e+00	 3.626330997221065e-01	 1.399303594192116e+01
 1.645504677148861e+00	 3.774410195057262e-01	 1.399853621144676e+01
 1.642035969777207e+00	 3.922566874107016e-01	 1.400482178427614e+01
 1.638424495241900e+00	 4.070782031962595e-01	 1.401235005293933e+01
 1.634669642822839e+00	 4.219036455627596e-01	 1.402161584623630e+01
 1.630770833752373e+00	 4.367310727346956e-01	 1.403315056313449e+01
 1.672051163064140e+00	 2.902841014290156e-01	 1.391002509492075e+01
 1.669410800518359e+00	 3.051026049469336e-01	 1.391787321551340e+01
 1.666631244178060e+00	 3.199381115048950e-01	 1.392475851059827e+01
 1.663711701884300e+00	 3.347888247649764e-01	 1.393093147616625e+01
 1.660651409419539e+00	 3.496529246333306e-01	 1.393668301792271e+01
 1.657449631224517e+00	 3.645285677315994e-01	 1.394234444112977e+01
 1.654105661107979e+00	 3.794138878913558e-01	 1.394828730324157e+01
 1.650618822948456e+00	 3.943069966715473e-01	 1.395492311929414e+01
 1.646988471387306e+00	 4.092059838989013e-01	 1.396270290956502e+01
 1.643213992512206e+00	 4.241089182312025e-01	 1.397211657860065e+01
 1.639294804530294e+00	 4.390138477433446e-01	 1.398369211432120e+01
 1.680745415325032e+00	 2.917935069193159e-01	 1.385689255594157e+01
 1.678091323547173e+00	 3.066890629883703e-01	 1.386551730802537e+01
 1.675297314201602e+00	 3.216017105091277e-01	 1.387314480825572e+01
 1.672362591010333e+00	 3.365296438031375e-01	 1.388001089042589e+01
 1.669286385782073e+00	 3.514710333124996e-01	 1.388639299297491e+01
 1.666067959132822e+00	 3.664240260737297e-01	 1.389261021699888e+01
 1.662706601199298e+00	 3.813867462147712e-01	 1.389902324838148e+01
 1.659201632344353e+00	 3.963572954751306e-01	 1.390603413371853e+01
 1.655552403853629e+00	 4.113337537490910e-01	 1.391408589923535e+01
 1.651758298622600e+00	 4.263141796519203e-01	 1.392366200144076e+01
 1.647818731833210e+00	 4.412966111089680e-01	 1.393528559784310e+01
 1.562578082091108e+00	 4.184686087613524e-01	 1.447190274038675e+01
 1.558703846769861e+00	 4.326760306423498e-01	 1.448040822010606e+01
 1.554690661800825e+00	 4.468815778688999e-01	 1.448337412923723e+01
 1.550538070255469e+00	 4.610833358291598e-01	 1.448133488581519e+01
 1.546245648278505e+00	 4.752793727944876e-01	 1.447485092815722e+01
 1.541813005666570e+00	 4.894677405839732e-01	 1.446450667853923e+01
 1.537239786432334e+00	 5.036464752493558e-01	 1.445090827880027e+01
 1.532525669353274e+00	 5.178135977800120e-01	 1.443468108951262e+01
 1.527670368504342e+00	 5.319671148276703e-01	 1.441646694462677e+01
 1.522673633773767e+00	 5.461050194504661e-01	 1.439692115384592e+01
 1.517535251361254e+00	 5.602252918759326e-01	 1.437670924540282e+01
 1.571102226770384e+00	 4.207514303407746e-01	 1.441244801692821e+01
 1.567206856798041e+00	 4.350363562651544e-01	 1.442144306530663e+01
 1.563171779182520e+00	 4.493193973084392e-01	 1.442498494854176e+01
 1.558996534502674e+00	 4.635986284142490e-01	 1.442362745753312e+01
 1.554680696591020e+00	 4.778721073160304e-01	 1.441795381808672e+01
 1.550223873115576e+00	 4.921378752052116e-01	 1.440857469682960e+01
 1.545625706147051e+00	 5.063939574198565e-01	 1.439612597320638e+01
 1.540885872710607e+00	 5.206383641534992e-01	 1.438126626868490e+01
 1.536004085321435e+00	 5.348690911838103e-01	 1.436467422456110e+01
 1.530980092503372e+00	 5.490841206207129e-01	 1.434704552008778e+01
 1.525813679289818e+00	 5.632814216735341e-01	 1.432908962306884e+01
 1.579626366618807e+00	 4.230342506268229e-01	 1.435440318262800e+01
 1.575709862007344e+00	 4.373966805506522e-01	 1.436378995489668e+01
 1.571652891757734e+00	 4.517572153667169e-01	 1.436782962693638e+01
 1.567454993956215e+00	 4.661139195741107e-01	 1.436709812593501e+01
 1.563115740123116e+00	 4.804648403683796e-01	 1.436220405885440e+01
 1.558634735797844e+00	 4.948080083133009e-01	 1.435378675631000e+01
 1.554011621109148e+00	 5.091414380332737e-01	 1.434251407686786e+01
 1.549246071329882e+00	 5.234631289260001e-01	 1.432907996237636e+01
 1.544337797415481e+00	 5.377710658951049e-01	 1.431420173519919e+01
 1.539286546525394e+00	 5.520632201023093e-01	 1.429861712854614e+01
 1.534092102526720e+00	 5.663375497387464e-01	 1.428308104150478e+01
 1.588150496805859e+00	 4.253170683257905e-01	 1.429772136062783e+01
 1.584212857579237e+00	 4.397570021612192e-01	 1.430741427721292e+01
 1.580133994720345e+00	 4.541950306622045e-01	 1.431188212458120e+01
 1.575913443822824e+00	 4.686292078833300e-01	 1.431172566473487e+01
 1.571550774094812e+00	 4.830575704822554e-01	 1.430758141631213e+01
 1.567045588947110e+00	 4.974781383951229e-01	 1.430011973230648e+01
 1.562397526566516e+00	 5.118889155326829e-01	 1.429004263272287e+01
 1.557606260473578e+00	 5.262878904968218e-01	 1.427808138227668e+01
 1.552671500063979e+00	 5.406730373171337e-01	 1.426499380347882e+01
 1.547592991132789e+00	 5.550423162071548e-01	 1.425156131577027e+01
 1.542370516380803e+00	 5.693936743398390e-01	 1.423858569176894e+01
 1.596674612501020e+00	 4.275998821439713e-01	 1.424235607206269e+01
 1.592715838695181e+00	 4.421173197592319e-01	 1.425228173155906e+01
 1.588615083264239e+00	 4.566328418133744e-01	 1.425711670687839e+01
 1.584371879309232e+00	 4.711444919164912e-01	 1.425748922888036e+01
 1.579985793726124e+00	 4.856502961883770e-01	 1.425406619560414e+01
 1.575456427797111e+00	 5.001482639375592e-01	 1.424755127984841e+01
 1.570783417767045e+00	 5.146363883611601e-01	 1.423868278639526e+01
 1.565966435404172e+00	 5.291126472652710e-01	 1.422823124847078e+01
 1.561005188544430e+00	 5.435750038054763e-01	 1.421699675326031e+01
 1.555899421618507e+00	 5.580214072471477e-01	 1.420580598660525e+01
 1.550648916160909e+00	 5.724497937450826e-01	 1.419550898740028e+01
 1.605198708873770e+00	 4.298826907876586e-01	 1.418826134300588e+01
 1.601218800536641e+00	 4.444776320070666e-01	 1.419835844704600e+01
 1.597096152583294e+00	 4.590706474386978e-01	 1.420350807325480e+01
 1.592830295622173e+00	 4.736597702481790e-01	 1.420436849129198e+01
 1.588420794237072e+00	 4.882430160174646e-01	 1.420163938384322e+01
 1.583867247581586e+00	 5.028183834274921e-01	 1.419605998022960e+01
 1.579169289958625e+00	 5.173838549617816e-01	 1.418840693455811e+01
 1.574326591384141e+00	 5.319373976306545e-01	 1.417949193749142e+01
 1.569338858134331e+00	 5.464769637157119e-01	 1.417015905092655e+01
 1.564205833275506e+00	 5.610004915341873e-01	 1.416128175516964e+01
 1.558927297175879e+00	 5.755059062227464e-01	 1.415375969857672e+01
 1.613722781093592e+00	 4.321654929631462e-01	 1.413539181031754e+01
 1.609721738285084e+00	 4.468379375670998e-01	 1.414561110010143e+01
 1.605577197871394e+00	 4.615084461566470e-01	 1.415103148444512e+01
 1.601288687968381e+00	 4.761750414529781e-01	 1.415234377799861e+01
 1.596855770847671e+00	 4.908357285002375e-01	 1.415028279114536e+01
 1.592278043534270e+00	 5.054884953518033e-01	 1.414562548595728e+01
 1.587555138389146e+00	 5.201313137776232e-01	 1.413918887178176e+01
 1.582686723675965e+00	 5.347621399922793e-01	 1.413182762902157e+01
 1.577672504111181e+00	 5.493789154034200e-01	 1.412443144986681e+01
 1.572512221396736e+00	 5.639795673801717e-01	 1.411792208502028e+01
 1.567205654734554e+00	 5.785620100411010e-01	 1.411325008583531e+01
 1.622246824329965e+00	 4.344482873767272e-01	 1.408370282643394e+01
 1.618224647121973e+00	 4.491982351017074e-01	 1.409400703069490e+01
 1.614058214322420e+00	 4.639462365856935e-01	 1.409966288832713e+01
 1.609747051554588e+00	 4.786903041054734e-01	 1.410139620172518e+01
 1.605290718777939e+00	 4.934284321674158e-01	 1.409997919007997e+01
 1.600688810888898e+00	 5.081585981973746e-01	 1.409622866414445e+01
 1.595940958306500e+00	 5.228787632517605e-01	 1.409100393591808e+01
 1.591046827542119e+00	 5.375868727494517e-01	 1.408520445129227e+01
 1.586006121752479e+00	 5.522808572241801e-01	 1.407976713388112e+01
 1.580818581275152e+00	 5.669586330970007e-01	 1.407566342853083e+01
 1.575483984145777e+00	 5.816181034684160e-01	 1.407389603336593e+01
 1.630770833752373e+00	 4.367310727346956e-01	 1.403315056313450e+01
 1.626727522228772e+00	 4.515585232732663e-01	 1.404351435732366e+01
 1.622539197130253e+00	 4.663840173443090e-01	 1.404937904436051e+01
 1.618205381587525e+00	 4.812055567802494e-01	 1.405150779398644e+01
 1.613725633247896e+00	 4.960211255497193e-01	 1.405071245359065e+01
 1.609099544879210e+00	 5.108286904510881e-01	 1.404785173839964e+01
 1.604326744958575e+00	 5.256262018272696e-01	 1.404382915207195e+01
 1.599406898245083e+00	 5.404115943014789e-01	 1.403959062521970e+01
 1.594339706335727e+00	 5.551827875335718e-01	 1.403612185954169e+01
 1.589124908203710e+00	 5.699376869965725e-01	 1.403444536550803e+01
 1.583762280718390e+00	 5.846741847729618e-01	 1.403561718188997e+01
 1.639294804530294e+00	 4.390138477433446e-01	 1.398369211432121e+01
 1.635230358786947e+00	 4.539188007441525e-01	 1.399410209080092e+01
 1.631020141488776e+00	 4.688217870509657e-01	 1.400015764667575e+01
 1.626663673273927e+00	 4.837207980518907e-01	 1.400266163573771e+01
 1.622160509477558e+00	 4.986138071778677e-01	 1.400246769143860e+01
 1.617510240738942e+00	 5.134987705998255e-01	 1.400047842926435e+01
 1.612712493593262e+00	 5.283736279472265e-01	 1.399764337520615e+01
 1.607766931047334e+00	 5.432363030476676e-01	 1.399495660732406e+01
 1.602673253138420e+00	 5.580847046871741e-01	 1.399345409754405e+01
 1.597431197475362e+00	 5.729167273907858e-01	 1.399421074107017e+01
 1.592040539761233e+00	 5.877302522230078e-01	 1.399833706113446e+01
 1.647818731833210e+00	 4.412966111089680e-01	 1.393528559784310e+01
 1.643733151977962e+00	 4.562790661767426e-01	 1.394574024688714e+01
 1.639501042591871e+00	 4.712595443241352e-01	 1.395197744585960e+01
 1.635121921820524e+00	 4.862360264949822e-01	 1.395484198663230e+01
 1.630595342686944e+00	 5.012064755825806e-01	 1.395523138521939e+01
 1.625920893701830e+00	 5.161688371304689e-01	 1.395409409324858e+01
 1.621098199458452e+00	 5.311210400547071e-01	 1.395242743142728e+01
 1.616126921211349e+00	 5.460609973873246e-01	 1.395127523147020e+01
 1.611006757438059e+00	 5.609866070405668e-01	 1.395172517308160e+01
 1.605737444383062e+00	 5.758957525915405e-01	 1.395490580280909e+01
 1.600318756583150e+00	 5.907863040868249e-01	 1.396162160839683e+01
 1.517535251361254e+00	 5.602252918759326e-01	 1.437670924540282e+01
 1.512254134331529e+00	 5.743282956317375e-01	 1.436429520932469e+01
 1.506831003534249e+00	 5.884095838951129e-01	 1.436827309829330e+01
 1.501265755838570e+00	 6.024671014153181e-01	 1.437670865823522e+01
 1.495558326254919e+00	 6.164987833099306e-01	 1.437811895482605e+01
 1.489708688335641e+00	 6.305025559161748e-01	 1.437298714331422e+01
 1.483716854553744e+00	 6.444763376581230e-01	 1.436181202308586e+01
 1.477582876659139e+00	 6.584180399291462e-01	 1.434510835382691e+01
 1.471306846011681e+00	 6.723255679889599e-01	 1.432340729717428e+01
 1.464888893890439e+00	 6.861968218745834e-01	 1.429725699051334e+01
 1.458329191778564e+00	 7.000296973245008e-01	 1.426722325891525e+01
 1.525813679289818e+00	 5.632814216735341e-01	 1.432908962306884e+01
 1.520503752816078e+00	 5.774613598530635e-01	 1.431940289902429e+01
 1.515051037864169e+00	 5.916194640783085e-01	 1.432598326393757e+01
 1.509455430740640e+00	 6.057536678867566e-01	 1.433268848288463e+01
 1.503716866101382e+00	 6.198618951316699e-01	 1.433290175992202e+01
 1.497835317354450e+00	 6.339420608380589e-01	 1.432710977977281e+01
 1.491810797040888e+00	 6.479920720746154e-01	 1.431581233465511e+01
 1.485643357192900e+00	 6.620098288409743e-01	 1.429952260199112e+01
 1.479333089668717e+00	 6.759932249696560e-01	 1.427876755480058e+01
 1.472880126463550e+00	 6.899401490419939e-01	 1.425408851191066e+01
 1.466284639996011e+00	 7.038484853173357e-01	 1.422604183443069e+01
 1.534092102526720e+00	 5.663375497387464e-01	 1.428308104150478e+01
 1.528753366625351e+00	 5.805944222983290e-01	 1.427629186111496e+01
 1.523271067535659e+00	 5.948293424418540e-01	 1.428437027551226e+01
 1.517645101001581e+00	 6.090402324950414e-01	 1.428950654203393e+01
 1.511875401324467e+00	 6.232250050468431e-01	 1.428865689803242e+01
 1.505961941768080e+00	 6.373815638100609e-01	 1.428230823659776e+01
 1.499904734941495e+00	 6.515078044980087e-01	 1.427095816739932e+01
 1.493703833159206e+00	 6.656016157165922e-01	 1.425511526058871e+01
 1.487359328777816e+00	 6.796608798711410e-01	 1.423529943055838e+01
 1.480871354508670e+00	 6.936834740873061e-01	 1.421204246716737e+01
 1.474240083705840e+00	 7.076672711453058e-01	 1.418588872134104e+01
 1.542370516380803e+00	 5.693936743398390e-01	 1.423858569176894e+01
 1.537002971084515e+00	 5.837274811922245e-01	 1.423484030463549e+01
 1.531491087890640e+00	 5.980392171669248e-01	 1.424333266067551e+01
 1.525834761980506e+00	 6.123267933779026e-01	 1.424704988763117e+01
 1.520033927300916e+00	 6.265881111498114e-01	 1.424526267748764e+01
 1.514088556971340e+00	 6.408210628832548e-01	 1.423845487873958e+01
 1.507998663668878e+00	 6.550235329361828e-01	 1.422711880920367e+01
 1.501764299990313e+00	 6.691933985207813e-01	 1.421175547061813e+01
 1.495385558790614e+00	 6.833285306152008e-01	 1.419287491024877e+01
 1.488862573497258e+00	 6.974267948894225e-01	 1.417099673759678e+01
 1.482195518399771e+00	 7.114860526445453e-01	 1.414665080357680e+01
 1.550648916160909e+00	 5.724497937450826e-01	 1.419550898740028e+01
 1.545252561518732e+00	 5.868605347594412e-01	 1.419493032616389e+01
 1.539711094271035e+00	 6.012490864346952e-01	 1.420277609977050e+01
 1.534024409036530e+00	 6.156133486730686e-01	 1.420521305221353e+01
 1.528192439407473e+00	 6.299512115349341e-01	 1.420260515047720e+01
 1.522215158359038e+00	 6.442605561087159e-01	 1.419543001295938e+01
 1.516092578636350e+00	 6.585392553970166e-01	 1.418417162174331e+01
 1.509824753118475e+00	 6.727851752183220e-01	 1.416932051225317e+01
 1.503411775158746e+00	 6.869961751236214e-01	 1.415137411704862e+01
 1.496853778900772e+00	 7.011701093272450e-01	 1.413083727234146e+01
 1.490150939569523e+00	 7.153048276511899e-01	 1.410822289507183e+01
 1.558927297175879e+00	 5.755059062227464e-01	 1.415375969857672e+01
 1.553502133253170e+00	 5.899935812246702e-01	 1.415626025282013e+01
 1.547931082018768e+00	 6.044589484263408e-01	 1.416261330976941e+01
 1.542214037528769e+00	 6.188998965182695e-01	 1.416389792012483e+01
 1.536350933020881e+00	 6.333143042965717e-01	 1.416057797325086e+01
 1.530341741325984e+00	 6.477000415375185e-01	 1.415312173876247e+01
 1.524186475257223e+00	 6.620549698883894e-01	 1.414200188393727e+01
 1.517885187975948e+00	 6.763769437739950e-01	 1.412769564264193e+01
 1.511437973333853e+00	 6.906638113181893e-01	 1.411068514551406e+01
 1.504844966190669e+00	 7.049134152796751e-01	 1.409145792047610e+01
 1.498106342706818e+00	 7.191235940013742e-01	 1.407050757189364e+01
 1.567205654734554e+00	 5.785620100411010e-01	 1.411325008583531e+01
 1.561751681612993e+00	 5.931266188126015e-01	 1.411787996145186e+01
 1.556151046475760e+00	 6.076688013230365e-01	 1.412276392847724e+01
 1.550403642816337e+00	 6.221864350512336e-01	 1.412301359927811e+01
 1.544509403517884e+00	 6.366773875290850e-01	 1.411908226709775e+01
 1.538468301266987e+00	 6.511395172207374e-01	 1.411142580028973e+01
 1.532280348944810e+00	 6.655706744181810e-01	 1.410050263648470e+01
 1.525945599994987e+00	 6.799687021525819e-01	 1.408677393485671e+01
 1.519464148767568e+00	 6.943314371206906e-01	 1.407070389674813e+01
 1.512836130838410e+00	 7.086567106256150e-01	 1.405276026423004e+01
 1.506061723303376e+00	 7.229423495312334e-01	 1.403341500539041e+01
 1.575483984145777e+00	 5.816181034684160e-01	 1.407389603336593e+01
 1.570001201923368e+00	 5.962596457479266e-01	 1.407962121816808e+01
 1.564370982983933e+00	 6.108786433059569e-01	 1.408315439898577e+01
 1.558593220258347e+00	 6.254729624096913e-01	 1.408247629344335e+01
 1.552667846275225e+00	 6.400404593268340e-01	 1.407802648007453e+01
 1.546594833576855e+00	 6.545789812094476e-01	 1.407024543913079e+01
 1.540374195112425e+00	 6.690863669942703e-01	 1.405957452744338e+01
 1.534005984607846e+00	 6.835604483188631e-01	 1.404645611795296e+01
 1.527490296911529e+00	 6.979990504529110e-01	 1.403133391468948e+01
 1.520827268315452e+00	 7.123999932439664e-01	 1.401465345328816e+01
 1.514017076850916e+00	 7.267610920769028e-01	 1.399686279631836e+01
 1.583762280718390e+00	 5.846741847729618e-01	 1.403561718188997e+01
 1.578250689509457e+00	 5.993926602553357e-01	 1.404142947532590e+01
 1.572590886885210e+00	 6.140884725562775e-01	 1.404371785436804e+01
 1.566782765213917e+00	 6.287594767313712e-01	 1.404220917504079e+01
 1.560826256669648e+00	 6.434035177841784e-01	 1.403732624945583e+01
 1.554721333650398e+00	 6.580184315547234e-01	 1.402949124802561e+01
 1.548468009173378e+00	 6.726020456245368e-01	 1.401912565881221e+01
 1.542066337246781e+00	 6.871521802376196e-01	 1.400665041809662e+01
 1.535516413217374e+00	 7.016666492366371e-01	 1.399248622348198e+01
 1.528818374093255e+00	 7.161432610136317e-01	 1.397705404013153e+01
 1.521972398841161e+00	 7.305798194745170e-01	 1.396077580991291e+01
 1.592040539761233e+00	 5.877302522230078e-01	 1.399833706113446e+01
 1.586500139696427e+00	 6.025256605595203e-01	 1.400325643710175e+01
 1.580810753521514e+00	 6.172982872551731e-01	 1.400439400260360e+01
 1.574972273042159e+00	 6.320459761540024e-01	 1.400214225842054e+01
 1.568984630077895e+00	 6.467665609954794e-01	 1.399690426487959e+01
 1.562847796882426e+00	 6.614578663076398e-01	 1.398908102542185e+01
 1.556561786540984e+00	 6.761177083168597e-01	 1.397907143408129e+01
 1.550126653344047e+00	 6.907438958736325e-01	 1.396727240072166e+01
 1.543542493136738e+00	 7.053342313936549e-01	 1.395407916588539e+01
 1.536809443643275e+00	 7.198865118135123e-01	 1.393988581637965e+01
 1.529927684765830e+00	 7.343985295602113e-01	 1.392508601187068e+01
 1.600318756583150e+00	 5.907863040868249e-01	 1.396162160839683e+01
 1.594749547809442e+00	 6.056586448851704e-01	 1.396505995746888e+01
 1.589030578234766e+00	 6.205080855838191e-01	 1.396512901172697e+01
 1.583161739102190e+00	 6.353324588153144e-01	 1.396221227361199e+01
 1.577142961876711e+00	 6.501295870550968e-01	 1.395669013216243e+01
 1.570974218667745e+00	 6.648972835192715e-01	 1.394893963085714e+01
 1.564655522628555e+00	 6.796333530791189e-01	 1.393933440671517e+01
 1.558186928331899e+00	 6.943355931916823e-01	 1.392824481367977e+01
 1.551568532121260e+00	 7.090017948457507e-01	 1.391603824269057e+01
 1.544800472436973e+00	 7.236297435225104e-01	 1.390307965009892e+01
 1.537882930116643e+00	 7.382172201701207e-01	 1.388973230520878e+01
 1.458329191778564e+00	 7.000296973245008e-01	 1.426722325891525e+01
 1.451629102552406e+00	 7.138197457051577e-01	 1.423511637697237e+01
 1.444787774890119e+00	 7.275672120895003e-01	 1.420232297652513e+01
 1.437805501170166e+00	 7.412699853003292e-01	 1.416878635229940e+01
 1.430682614837620e+00	 7.549259536497341e-01	 1.413442847727543e+01
 1.423419490559979e+00	 7.685330059172392e-01	 1.409915193002523e+01
 1.416016544355583e+00	 7.820890323363864e-01	 1.406284204238472e+01
 1.408474233694218e+00	 7.955919255888726e-01	 1.402536926659783e+01
 1.400793057569549e+00	 8.090395818053450e-01	 1.398659175969649e+01
 1.392973556543012e+00	 8.224299015719309e-01	 1.394635818145485e+01
 1.385016312758878e+00	 8.357607909415733e-01	 1.390451070078707e+01
 1.466284639996011e+00	 7.038484853173357e-01	 1.422604183443069e+01
 1.459548000577180e+00	 7.177137608940228e-01	 1.419613648610362e+01
 1.452669352241098e+00	 7.315362221819188e-01	 1.416545360073468e+01
 1.445648988961213e+00	 7.453137464869757e-01	 1.413391755087601e+01
 1.438487246001606e+00	 7.590442106016481e-01	 1.410143137476276e+01
 1.431184500073661e+00	 7.727254917883754e-01	 1.406787876959932e+01
 1.423741169465178e+00	 7.863554687715474e-01	 1.403312631231100e+01
 1.416157714141530e+00	 7.999320227370634e-01	 1.399702590701827e+01
 1.408434635818488e+00	 8.134530383385862e-01	 1.395941745707595e+01
 1.400572478006355e+00	 8.269164047095668e-01	 1.392013175804969e+01
 1.392571826025109e+00	 8.403200164800926e-01	 1.387899360648190e+01
 1.474240083705840e+00	 7.076672711453058e-01	 1.418588872134104e+01
 1.467466894115124e+00	 7.216077738753871e-01	 1.415806321949369e+01
 1.460550925126458e+00	 7.355052300243319e-01	 1.412936358088563e+01
 1.453492472308269e+00	 7.493575053812495e-01	 1.409969980303872e+01
 1.446291872743647e+00	 7.631624652189664e-01	 1.406896052141941e+01
 1.438949505187860e+00	 7.769179752828448e-01	 1.403701506205809e+01
 1.431465790198168e+00	 7.906219027881273e-01	 1.400371572890828e+01
 1.423841190235528e+00	 8.042721174249227e-01	 1.396890032534445e+01
 1.416076209737817e+00	 8.178664923699179e-01	 1.393239490773872e+01
 1.408171395164201e+00	 8.314029053038924e-01	 1.389401676753899e+01
 1.400127335010365e+00	 8.448792394340858e-01	 1.385357763670610e+01
 1.482195518399771e+00	 7.114860526445453e-01	 1.414665080357680e+01
 1.475385778678659e+00	 7.255017824427503e-01	 1.412079386654708e+01
 1.468432489079756e+00	 7.394742333677343e-01	 1.409396023551606e+01
 1.461335946766467e+00	 7.534012596917782e-01	 1.406605001589717e+01
 1.454096490640893e+00	 7.672807151680944e-01	 1.403694190713050e+01
 1.446714501502178e+00	 7.811104540249799e-01	 1.400649530801525e+01
 1.439190402177040e+00	 7.948883319685445e-01	 1.397455266420685e+01
 1.431524657622020e+00	 8.086122071931201e-01	 1.394094205743948e+01
 1.423717774997096e+00	 8.222799413984306e-01	 1.390548003453132e+01
 1.415770303710294e+00	 8.358894008125978e-01	 1.386797467266654e+01
 1.407682835433004e+00	 8.494384572200259e-01	 1.382822887583119e+01
 1.490150939569523e+00	 7.153048276511899e-01	 1.410822289507182e+01
 1.483304649780203e+00	 7.293957843896119e-01	 1.408423347759401e+01
 1.476314039634549e+00	 7.434432299631210e-01	 1.405915848238848e+01
 1.469179407890946e+00	 7.574450071271901e-01	 1.403289254342566e+01
 1.461901095270492e+00	 7.713989581154368e-01	 1.400530882757401e+01
 1.454479484616214e+00	 7.853029256391135e-01	 1.397626118601906e+01
 1.446915001024281e+00	 7.991547538952182e-01	 1.394558655542804e+01
 1.439208111946813e+00	 8.129522895823248e-01	 1.391310760860303e+01
 1.431359327265885e+00	 8.266933829232151e-01	 1.387863565281827e+01
 1.423369199338379e+00	 8.403758886933724e-01	 1.384197377242420e+01
 1.415238323011382e+00	 8.539976672543874e-01	 1.380292021063585e+01
 1.498106342706818e+00	 7.191235940013742e-01	 1.407050757189364e+01
 1.491223502932177e+00	 7.332897775094712e-01	 1.404829469701255e+01
 1.484195572324397e+00	 7.474122175614871e-01	 1.402488067256081e+01
 1.477022851236836e+00	 7.614887453961123e-01	 1.400015902140538e+01
 1.469705682209594e+00	 7.755171917273981e-01	 1.397400171992195e+01
 1.462244450129569e+00	 7.894953877495785e-01	 1.394626138886531e+01
 1.454639582362379e+00	 8.034211661505669e-01	 1.391677374172690e+01
 1.446891548855716e+00	 8.172923621332060e-01	 1.388536029052705e+01
 1.439000862213744e+00	 8.311068144433613e-01	 1.385183130739626e+01
 1.430968077742198e+00	 8.448623664039067e-01	 1.381598903863625e+01
 1.422793793463853e+00	 8.585568669536435e-01	 1.377763116623593e+01
 1.506061723303376e+00	 7.229423495312334e-01	 1.403341500539041e+01
 1.499142333646998e+00	 7.371837595958279e-01	 1.401289759723757e+01
 1.492077082682854e+00	 7.513811939138264e-01	 1.399105642521847e+01
 1.484866272359275e+00	 7.655324722071728e-01	 1.396778820300801e+01
 1.477510247035349e+00	 7.796354136703829e-01	 1.394296799907112e+01
 1.470009393641844e+00	 7.936878379807087e-01	 1.391645146033664e+01
 1.462364141813821e+00	 8.076875663170096e-01	 1.388807730126706e+01
 1.454574963994535e+00	 8.216324223864327e-01	 1.385767005849918e+01
 1.446642375510236e+00	 8.355202334579608e-01	 1.382504310958626e+01
 1.438566934615496e+00	 8.493488314018902e-01	 1.379000195266438e+01
 1.430349242508775e+00	 8.631160537342678e-01	 1.375234774209092e+01
 1.514017076850916e+00	 7.267610920769028e-01	 1.399686279631836e+01
 1.507061137437086e+00	 7.410777284421817e-01	 1.397796951362441e+01
 1.499958566243481e+00	 7.553501567711348e-01	 1.395762246324058e+01
 1.492709666813395e+00	 7.695761852689991e-01	 1.393572579499867e+01
 1.485314785324906e+00	 7.837536216107969e-01	 1.391216189438411e+01
 1.477774310752641e+00	 7.978802739568360e-01	 1.388679363235099e+01
 1.470088675001094e+00	 8.119539519769651e-01	 1.385946688861463e+01
 1.462258353009080e+00	 8.259724678826740e-01	 1.383001334884572e+01
 1.454283862824919e+00	 8.399336374661037e-01	 1.379825357449601e+01
 1.446165765652017e+00	 8.538352811450131e-01	 1.376400034222712e+01
 1.437904665864503e+00	 8.676752250127346e-01	 1.372706224808572e+01
 1.521972398841161e+00	 7.305798194745170e-01	 1.396077580991291e+01
 1.514979909814860e+00	 7.449716818420312e-01	 1.394344488013624e+01
 1.507840018539832e+00	 7.593191038844065e-01	 1.392452244947351e+01
 1.500553030154332e+00	 7.736198822902188e-01	 1.390392429453487e+01
 1.493119292655413e+00	 7.878718132150444e-01	 1.388154428692271e+01
 1.485539197061559e+00	 8.020726933022940e-01	 1.385725666250702e+01
 1.477813177546687e+00	 8.162203207128523e-01	 1.383091857244052e+01
 1.469941711545156e+00	 8.303124961625994e-01	 1.380237291660575e+01
 1.461925319827353e+00	 8.443470239668803e-01	 1.377145145844802e+01
 1.453764566545504e+00	 8.583217130909651e-01	 1.373797821833262e+01
 1.445460059249392e+00	 8.722343782055169e-01	 1.370177314068472e+01
 1.529927684765830e+00	 7.343985295602113e-01	 1.392508601187068e+01
 1.522898646292739e+00	 7.488656175888769e-01	 1.390926506582585e+01
 1.515721435105468e+00	 7.632880330046365e-01	 1.389170682368662e+01
 1.508396357937219e+00	 7.776635609794600e-01	 1.387234282654144e+01
 1.500923764604023e+00	 7.919899861495301e-01	 1.385108254715637e+01
 1.493304048168200e+00	 8.062650936414156e-01	 1.382781567201113e+01
 1.485537645073085e+00	 8.204866701070902e-01	 1.380241467352083e+01
 1.477625035248573e+00	 8.346525047668775e-01	 1.377473767342884e+01
 1.469566742187101e+00	 8.487603904593822e-01	 1.374463159656822e+01
 1.461363332989701e+00	 8.628081246974364e-01	 1.371193561231968e+01
 1.453015418381801e+00	 8.767935107290888e-01	 1.367648485915759e+01
 1.537882930116643e+00	 7.382172201701207e-01	 1.388973230520878e+01
 1.530817342383143e+00	 7.527595334762179e-01	 1.387537821208321e+01
 1.523602811473945e+00	 7.672569418828201e-01	 1.385913264018637e+01
 1.516239645717194e+00	 7.817072190453502e-01	 1.384094698164024e+01
 1.508728196747882e+00	 7.961081380806593e-01	 1.382075037312933e+01
 1.501068859672164e+00	 8.104574725985342e-01	 1.379845198397384e+01
 1.493262073202777e+00	 8.247529977420973e-01	 1.377394360302566e+01
 1.485308319765139e+00	 8.389924912361780e-01	 1.374710252568937e+01
 1.477208125573723e+00	 8.531737344426989e-01	 1.371779474052960e+01
 1.468962060678353e+00	 8.672945134221165e-01	 1.368587841300533e+01
 1.460570738980083e+00	 8.813526199999246e-01	 1.365120766187400e+01
 1.385016312758878e+00	 8.357607909415733e-01	 1.390451070078707e+01
 1.376921950264790e+00	 8.490301627137588e-01	 1.385988218121301e+01
 1.368691135966320e+00	 8.622359382625984e-01	 1.381149676591166e+01
 1.360324578539134e+00	 8.753760477913800e-01	 1.375949756803154e+01
 1.351823027988257e+00	 8.884484310920081e-01	 1.370405321632502e+01
 1.343187275513448e+00	 9.014510385646831e-01	 1.364536154646281e+01
 1.334418153344632e+00	 9.143818322364075e-01	 1.358365341130505e+01
 1.325516534547367e+00	 9.272387867773062e-01	 1.351919659437694e+01
 1.316483332798322e+00	 9.400198905137382e-01	 1.345229980936354e+01
 1.307319502130800e+00	 9.527231464371733e-01	 1.338331676705263e+01
 1.298026036650376e+00	 9.653465732078103e-01	 1.331265028982434e+01
 1.392571826025109e+00	 8.403200164800926e-01	 1.387899360648190e+01
 1.384433307326690e+00	 8.536617750635985e-01	 1.383494660530938e+01
 1.376157592454760e+00	 8.669395904949169e-01	 1.378716166354420e+01
 1.367745393950933e+00	 8.801513816862189e-01	 1.373581913295580e+01
 1.359197465911648e+00	 8.932950771906035e-01	 1.368112510404851e+01
 1.350514603852795e+00	 9.063686162273336e-01	 1.362331515286678e+01
 1.341697644544260e+00	 9.193699497059010e-01	 1.356265821331545e+01
 1.332747465814330e+00	 9.322970412478896e-01	 1.349946055899119e+01
 1.323664986323940e+00	 9.451478682056157e-01	 1.343406987703303e+01
 1.314451165310814e+00	 9.579204226765062e-01	 1.336687941505771e+01
 1.305107002303551e+00	 9.706127125121943e-01	 1.329833218086366e+01
 1.400127335010365e+00	 8.448792394340858e-01	 1.385357763670610e+01
 1.391944660132547e+00	 8.582933847878872e-01	 1.381012807229557e+01
 1.383624044712497e+00	 8.716432400608570e-01	 1.376297456437911e+01
 1.375166205157784e+00	 8.849267128740599e-01	 1.371232778405362e+01
 1.366571899656258e+00	 8.981417205417938e-01	 1.365842425852939e+01
 1.357841928039947e+00	 9.112861911023913e-01	 1.360153018386323e+01
 1.348977131618701e+00	 9.243580643478408e-01	 1.354194537021966e+01
 1.339978392983535e+00	 9.373552928511949e-01	 1.348000730338994e+01
 1.330846635779655e+00	 9.502758429907313e-01	 1.341609530475221e+01
 1.321582824449209e+00	 9.631176959698434e-01	 1.335063477035647e+01
 1.312187963943819e+00	 9.758788488316039e-01	 1.328410146837967e+01
 1.407682835433004e+00	 8.494384572200259e-01	 1.382822887583119e+01
 1.399456004425755e+00	 8.629249892620728e-01	 1.378539627588970e+01
 1.391090488508389e+00	 8.763468842950405e-01	 1.373890778215626e+01
 1.382587007954426e+00	 8.897020386488994e-01	 1.368899756918380e+01
 1.373946325043128e+00	 9.029883583991610e-01	 1.363592567899305e+01
 1.365169243922662e+00	 9.162037604032416e-01	 1.357998191009679e+01
 1.356256610442838e+00	 9.293461733356397e-01	 1.352148984652728e+01
 1.347209311957400e+00	 9.424135387208866e-01	 1.346081101031382e+01
 1.338028277095824e+00	 9.554038119632393e-01	 1.339834911925242e+01
 1.328714475504677e+00	 9.683149633720676e-01	 1.333455443024943e+01
 1.319268917558604e+00	 9.811449791818985e-01	 1.326992814702404e+01
 1.415238323011382e+00	 8.539976672543874e-01	 1.380292021063586e+01
 1.406967335949710e+00	 8.675565858616047e-01	 1.376072770301262e+01
 1.398556919611293e+00	 8.810505205320885e-01	 1.371494043887961e+01
 1.390007798135601e+00	 8.944773563047353e-01	 1.366580938164287e+01
 1.381320737893303e+00	 9.078349880162894e-01	 1.361361126718180e+01
 1.372496547348698e+00	 9.211213213432713e-01	 1.355865257945486e+01
 1.363536076891557e+00	 9.343342738427080e-01	 1.350127367405338e+01
 1.354440218638345e+00	 9.474717759906313e-01	 1.344185303284936e+01
 1.345209906202802e+00	 9.605317722172934e-01	 1.338081163122204e+01
 1.335846114435910e+00	 9.735122219380624e-01	 1.331861739772374e+01
 1.326349859135333e+00	 9.864111005789371e-01	 1.325578974448671e+01
 1.422793793463853e+00	 8.585568669536435e-01	 1.377763116623593e+01
 1.414478650447807e+00	 8.721881719619314e-01	 1.373610546868865e+01
 1.406023333790067e+00	 8.857541461066222e-01	 1.369105829833271e+01
 1.397428571496050e+00	 8.992526631355648e-01	 1.364275079200395e+01
 1.388695134027825e+00	 9.126816066467631e-01	 1.359146965728869e+01
 1.379823834165816e+00	 9.260388711358668e-01	 1.353753124493304e+01
 1.370815526839743e+00	 9.393223630424579e-01	 1.348128577761625e+01
 1.361671108928788e+00	 9.525300017940931e-01	 1.342312171792426e+01
 1.352391519030945e+00	 9.656597208470472e-01	 1.336347025662953e+01
 1.342977737201602e+00	 9.787094687227104e-01	 1.330280990069744e+01
 1.333430784661431e+00	 9.916772100385802e-01	 1.324167113881903e+01
 1.430349242508775e+00	 8.631160537342678e-01	 1.375234774209092e+01
 1.421989943663440e+00	 8.768197449385009e-01	 1.371151915099748e+01
 1.413489726813570e+00	 8.904577583532622e-01	 1.366725359963611e+01
 1.404849323830514e+00	 9.040279564353855e-01	 1.361981588000066e+01
 1.396069509267736e+00	 9.175282115441656e-01	 1.356949604595346e+01
 1.387151100221771e+00	 9.309564069944144e-01	 1.351661359258908e+01
 1.378094956162280e+00	 9.443104381083003e-01	 1.346152180085890e+01
 1.368901978731147e+00	 9.575882132649376e-01	 1.340461222996850e+01
 1.359573111510609e+00	 9.707876549466550e-01	 1.334631933825732e+01
 1.350109339760446e+00	 9.839067007808964e-01	 1.328712521152340e+01
 1.340511690124322e+00	 9.969433045766869e-01	 1.322756437606600e+01
 1.437904665864503e+00	 8.676752250127346e-01	 1.372706224808573e+01
 1.429501211340003e+00	 8.814513021667627e-01	 1.368696462607579e+01
 1.420956094450658e+00	 8.951613546066303e-01	 1.364352489084427e+01
 1.412270050933736e+00	 9.088032334981945e-01	 1.359700506645573e+01
 1.403443859434079e+00	 9.223747999620809e-01	 1.354769202231831e+01
 1.394478341364324e+00	 9.358739261323001e-01	 1.349590176958299e+01
 1.385374360734054e+00	 9.492984962136471e-01	 1.344198393219057e+01
 1.376132823947842e+00	 9.626464075368303e-01	 1.338632637473445e+01
 1.366754679572149e+00	 9.759155716102704e-01	 1.332935996743974e+01
 1.357240918071134e+00	 9.891039151675020e-01	 1.327156346674274e+01
 1.347592571511432e+00	 1.002209381209118e+00	 1.321346848819484e+01
 1.445460059249392e+00	 8.722343782055169e-01	 1.370177314068472e+01
 1.437012449220893e+00	 8.860828410221652e-01	 1.366244390316739e+01
 1.428422432470189e+00	 8.998649322013471e-01	 1.361987686258215e+01
 1.419690748600457e+00	 9.135784916179892e-01	 1.357432494525298e+01
 1.410818180347898e+00	 9.272213691540918e-01	 1.352606539814224e+01
 1.401805553441232e+00	 9.407914257629103e-01	 1.347540421230060e+01
 1.392653736429950e+00	 9.542865345319089e-01	 1.342268073084427e+01
 1.383363640481291e+00	 9.677045817434362e-01	 1.336827242327221e+01
 1.373936219145922e+00	 9.810434679320476e-01	 1.331259980599829e+01
 1.364372468092358e+00	 9.943011089374115e-01	 1.325613148708132e+01
 1.354673424810187e+00	 1.007475436951730e+00	 1.319938931131155e+01
 1.453015418381801e+00	 8.767935107290888e-01	 1.367648485915759e+01
 1.444523653049504e+00	 8.907143588801568e-01	 1.363796495972148e+01
 1.435888736641022e+00	 9.045684884720345e-01	 1.359632018172099e+01
 1.427111412625418e+00	 9.183537280887676e-01	 1.355178811535180e+01
 1.418192467830235e+00	 9.320679163737829e-01	 1.350463003797394e+01
 1.409132732300255e+00	 9.457089030996315e-01	 1.345513547455921e+01
 1.399933079124852e+00	 9.592745502364981e-01	 1.340362695304736e+01
 1.390594424233912e+00	 9.727627330184206e-01	 1.335046493605509e+01
 1.381117726162284e+00	 9.861713410061395e-01	 1.329605290836765e+01
 1.371503985782812e+00	 9.994982791455084e-01	 1.324084259767997e+01
 1.361754246008011e+00	 1.012741468820386e+00	 1.318533930415495e+01
 1.460570738980083e+00	 8.813526199999246e-01	 1.365120766187400e+01
 1.452034818569231e+00	 8.953458531161863e-01	 1.361354157653810e+01
 1.443355002732013e+00	 9.092720207533125e-01	 1.357287132509280e+01
 1.434532038803360e+00	 9.231289402045261e-01	 1.352941301284475e+01
 1.425566717702133e+00	 9.369144388747375e-01	 1.348340568938052e+01
 1.416459873789150e+00	 9.506263553558497e-01	 1.343511605589211e+01
 1.407212384693646e+00	 9.642625405008262e-01	 1.338484337830251e+01
 1.397825171108125e+00	 9.778208584954495e-01	 1.333292458725105e+01
 1.388299196551591e+00	 9.912991879267010e-01	 1.327973954390826e+01
 1.378635467101188e+00	 1.004695422846675e+00	 1.322571644855198e+01
 1.368835031092330e+00	 1.018007473830945e+00	 1.317133736685947e+01
 1.298026036650376e+00	 9.653465732078103e-01	 1.331265028982434e+01
 1.288602358385265e+00	 9.778903301024591e-01	 1.323927527645471e+01
 1.279051114591260e+00	 9.903503101933834e-01	 1.316205582712588e+01
 1.269373423511538e+00	 1.002724576933950e+00	 1.308126182637177e+01
 1.259570442080433e+00	 1.015011213368079e+00	 1.299720718848368e+01
 1.249643365489745e+00	 1.027208323096735e+00	 1.291025429586036e+01
 1.239593426726359e+00	 1.039314031233090e+00	 1.282081837393873e+01
 1.229421896081530e+00	 1.051326485345384e+00	 1.272937177529839e+01
 1.219130080632221e+00	 1.063243856386471e+00	 1.263644814498898e+01
 1.208719323694913e+00	 1.075064339609113e+00	 1.254264643872219e+01
 1.198191004252381e+00	 1.086786155466048e+00	 1.244863476532935e+01
 1.305107002303551e+00	 9.706127125121943e-01	 1.329833218086366e+01
 1.295631916177420e+00	 9.832248978583730e-01	 1.322726068043693e+01
 1.286028568629475e+00	 9.957528493832745e-01	 1.315230861146675e+01
 1.276298084003108e+00	 1.008194619976057e+00	 1.307367130438067e+01
 1.266441625543942e+00	 1.020548282223301e+00	 1.299158908813670e+01
 1.256460394963762e+00	 1.032811929380773e+00	 1.290635200237757e+01
 1.246355631975619e+00	 1.044983676333802e+00	 1.281830444859477e+01
 1.236128613800440e+00	 1.057061660545278e+00	 1.272784975186850e+01
 1.225780654645524e+00	 1.069044042990277e+00	 1.263545460416093e+01
 1.215313105155390e+00	 1.080929009076339e+00	 1.254165335970673e+01
 1.204727351835412e+00	 1.092714769548452e+00	 1.244705215276905e+01
 1.312187963943819e+00	 9.758788488316039e-01	 1.328410146837967e+01
 1.302661469985817e+00	 9.885594625905887e-01	 1.321518256333031e+01
 1.293006018713498e+00	 1.001155385511013e+00	 1.314231383343044e+01
 1.283222740570472e+00	 1.013664659917829e+00	 1.306563196356455e+01
 1.273312805113630e+00	 1.026085347940282e+00	 1.298531995500831e+01
 1.263277420574739e+00	 1.038415532488947e+00	 1.290161209463806e+01
 1.253117833393007e+00	 1.050653318221314e+00	 1.281479886520899e+01
 1.242835327719017e+00	 1.062796832494929e+00	 1.272523176725156e+01
 1.232431224890399e+00	 1.074844226307089e+00	 1.263332802250732e+01
 1.221906882879699e+00	 1.086793675220122e+00	 1.253957512835903e+01
 1.211263695714876e+00	 1.098643380271268e+00	 1.244453523240820e+01
 1.319268917558604e+00	 9.811449791818985e-01	 1.326992814702404e+01
 1.309691015827007e+00	 9.938940212761895e-01	 1.320301152119384e+01
 1.299983460889407e+00	 1.006557915515162e+00	 1.313204702680681e+01
 1.290147389289607e+00	 1.019134693659575e+00	 1.305712833958304e+01
 1.280183976895768e+00	 1.031622407381351e+00	 1.297839711405168e+01
 1.270094438459620e+00	 1.044019129245879e+00	 1.289604819334141e+01
 1.259880027146516e+00	 1.056322953682820e+00	 1.281033476173868e+01
 1.249542034036682e+00	 1.068531997944388e+00	 1.272157340955705e+01
 1.239081787598070e+00	 1.080644403050114e+00	 1.263014907919679e+01
 1.228500653131234e+00	 1.092658334717119e+00	 1.253651986077242e+01
 1.217800032186712e+00	 1.104571984274907e+00	 1.244122160535519e+01
 1.326349859135333e+00	 9.864111005789371e-01	 1.325578974448671e+01
 1.316720549717547e+00	 9.992285708922567e-01	 1.319072576494415e+01
 1.306960891203272e+00	 1.011960436334287e+00	 1.312149133057287e+01
 1.297072026236494e+00	 1.024604718101607e+00	 1.304815247748565e+01
 1.287055136996626e+00	 1.037159457408831e+00	 1.297082522309847e+01
 1.276911444755347e+00	 1.049622716476184e+00	 1.288968100029828e+01
 1.266642209404138e+00	 1.061992579505511e+00	 1.280495203572741e+01
 1.256248728952858e+00	 1.074267153643709e+00	 1.271693664073558e+01
 1.245732338999760e+00	 1.086444569932559e+00	 1.262600438284626e+01
 1.235094412173392e+00	 1.098522984243988e+00	 1.253260110504986e+01
 1.224336357546852e+00	 1.110500578199781e+00	 1.243725375987716e+01
 1.333430784661431e+00	 9.916772100385802e-01	 1.324167113881903e+01
 1.323750067673990e+00	 1.004563108415874e+00	 1.317831093727339e+01
 1.313938305701167e+00	 1.017362944906950e+00	 1.311063730813459e+01
 1.303996647487112e+00	 1.030074730144233e+00	 1.303870375586256e+01
 1.293926281522473e+00	 1.042696494885050e+00	 1.296261610435524e+01
 1.283728435598860e+00	 1.055226291004481e+00	 1.288253813955636e+01
 1.273404376333869e+00	 1.067662192476579e+00	 1.279869719719187e+01
 1.262955408666967e+00	 1.080002296342945e+00	 1.271138966320149e+01
 1.252382875326693e+00	 1.092244723667627e+00	 1.262098635369552e+01
 1.241688156269569e+00	 1.104387620477386e+00	 1.252793774069036e+01
 1.230872668091234e+00	 1.116429158686304e+00	 1.243277898949356e+01
 1.340511690124322e+00	 9.969433045766869e-01	 1.322756437606600e+01
 1.330779565712892e+00	 1.009897630824122e+00	 1.316575992988000e+01
 1.320915700429165e+00	 1.022765438171716e+00	 1.309948276680780e+01
 1.310921249117441e+00	 1.035544726687763e+00	 1.302878871108452e+01
 1.300797406579578e+00	 1.048233516672332e+00	 1.295378857576586e+01
 1.290545407127104e+00	 1.060829849655387e+00	 1.287465399810388e+01
 1.280166524103702e+00	 1.073331789383216e+00	 1.279162322073397e+01
 1.269662069378431e+00	 1.085737422792146e+00	 1.270500678527254e+01
 1.259033392810093e+00	 1.098044860968527e+00	 1.261519310414032e+01
 1.248281881683161e+00	 1.110252240093970e+00	 1.252265387582372e+01
 1.237408960115793e+00	 1.122357722374885e+00	 1.242794930836833e+01
 1.347592571511432e+00	 1.002209381209118e+00	 1.321346848819484e+01
 1.337809039850808e+00	 1.015232135094084e+00	 1.315307270100402e+01
 1.327893071433340e+00	 1.028167913067147e+00	 1.308803257753159e+01
 1.317845827203458e+00	 1.041014704632506e+00	 1.301842086162876e+01
 1.307668508274213e+00	 1.053770519633005e+00	 1.294436828224598e+01
 1.297362355477020e+00	 1.066433389253523e+00	 1.286606956616460e+01
 1.286928648881630e+00	 1.079001367012613e+00	 1.278378939690784e+01
 1.276368707286673e+00	 1.091472529741369e+00	 1.269786828547051e+01
 1.265683887681183e+00	 1.103844978548464e+00	 1.260872831768123e+01
 1.254875584677564e+00	 1.116116839770399e+00	 1.251687874237461e+01
 1.243945229916464e+00	 1.128286265905938e+00	 1.242292136409965e+01
 1.354673424810187e+00	 1.007475436951730e+00	 1.319938931131155e+01
 1.344838486104291e+00	 1.020566618202843e+00	 1.314025609325390e+01
 1.334870414759766e+00	 1.033570366531807e+00	 1.307629849480412e+01
 1.324770377821145e+00	 1.046484660878773e+00	 1.300762053248827e+01
 1.314539582712644e+00	 1.059307500629393e+00	 1.293438752679401e+01
 1.304179276785549e+00	 1.072036906623503e+00	 1.285683227710299e+01
 1.293690746835649e+00	 1.084670922151964e+00	 1.277526118286874e+01
 1.283075318591113e+00	 1.097207613940664e+00	 1.269006027572491e+01
 1.272334356171187e+00	 1.109645073120645e+00	 1.260170112634879e+01
 1.261469261516174e+00	 1.121981416183330e+00	 1.251074658922836e+01
 1.250481473789183e+00	 1.134214785919873e+00	 1.241785634800330e+01
 1.361754246008011e+00	 1.012741468820386e+00	 1.318533930415495e+01
 1.351867900489896e+00	 1.025901077127479e+00	 1.312732365171850e+01
 1.341847726454515e+00	 1.038972795504262e+00	 1.306429897683585e+01
 1.331694897046479e+00	 1.051954592326871e+00	 1.299641467966281e+01
 1.321410626001145e+00	 1.064844456523824e+00	 1.292388510148453e+01
 1.310996167189634e+00	 1.077640398589949e+00	 1.284699584695165e+01
 1.300452814133752e+00	 1.090340451588458e+00	 1.276611005233140e+01
 1.289781899491176e+00	 1.102942672140085e+00	 1.268167456352037e+01
 1.278984794511330e+00	 1.115445141398275e+00	 1.259422598665889e+01
 1.268062908462387e+00	 1.127845966009419e+00	 1.250439657347526e+01
 1.257017688029886e+00	 1.140143279057105e+00	 1.241291990298050e+01
 1.368835031092330e+00	 1.018007473830945e+00	 1.317133736685947e+01
 1.358897279024179e+00	 1.031235508845077e+00	 1.311429544235134e+01
 1.348825002563662e+00	 1.044375196923073e+00	 1.305205900591184e+01
 1.338619380955441e+00	 1.057424495877113e+00	 1.298483671472848e+01
 1.328281634245983e+00	 1.070381384178622e+00	 1.291290611834973e+01
 1.317813022826219e+00	 1.083243861977478e+00	 1.283662011357687e+01
 1.307214846943933e+00	 1.096009952109289e+00	 1.275641334486241e+01
 1.296488446186282e+00	 1.108677701089683e+00	 1.267280851302626e+01
 1.285635198932836e+00	 1.121245180094562e+00	 1.258642255415493e+01
 1.274656521779600e+00	 1.133710485925326e+00	 1.249797264980087e+01
 1.263553868934508e+00	 1.146071741958044e+00	 1.240828202905730e+01
 1.198191004252381e+00	 1.086786155466048e+00	 1.244863476532935e+01
 1.187548352346055e+00	 1.098405586862223e+00	 1.235082080835066e+01
 1.176791020270100e+00	 1.109922924874111e+00	 1.224670955374540e+01
 1.165920470588176e+00	 1.121336490598920e+00	 1.213614098576547e+01
 1.154938198955122e+00	 1.132644633743766e+00	 1.201903051570941e+01
 1.143845733426350e+00	 1.143845733426350e+00	 1.189846154191977e+01
 1.132644633743766e+00	 1.154938198955122e+00	 1.177756543504861e+01
 1.121336490598919e+00	 1.165920470588176e+00	 1.165950426027521e+01
 1.109922924874111e+00	 1.176791020270100e+00	 1.154744867318876e+01
 1.098405586862222e+00	 1.187548352346055e+00	 1.143455283283057e+01
 1.086786155466048e+00	 1.198191004252381e+00	 1.131337268809644e+01
 1.204727351835412e+00	 1.092714769548452e+00	 1.244705215276905e+01
 1.194026642347475e+00	 1.104397587034142e+00	 1.234835395425346e+01
 1.183210627088950e+00	 1.115977754197759e+00	 1.224351109136178e+01
 1.172280776602042e+00	 1.127453582977790e+00	 1.213478325608980e+01
 1.161238594700656e+00	 1.138823414078712e+00	 1.202089894718481e+01
 1.150085617776020e+00	 1.150085617776020e+00	 1.190405307462047e+01
 1.138823414078712e+00	 1.161238594700656e+00	 1.178759864787711e+01
 1.127453582977790e+00	 1.172280776602042e+00	 1.167492447618173e+01
 1.115977754197758e+00	 1.183210627088951e+00	 1.156602008251837e+01
 1.104397587034142e+00	 1.194026642347476e+00	 1.144996120360116e+01
 1.092714769548452e+00	 1.204727351835411e+00	 1.132651039683278e+01
 1.211263695714876e+00	 1.098643380271268e+00	 1.244453523240820e+01
 1.200504928678265e+00	 1.110389583810643e+00	 1.234523834075546e+01
 1.189630230270434e+00	 1.122032580090466e+00	 1.224008594285778e+01
 1.178641079012137e+00	 1.133570671890515e+00	 1.213190799681363e+01
 1.167538986876340e+00	 1.145002190912624e+00	 1.202183197137203e+01
 1.156325498590087e+00	 1.156325498590087e+00	 1.190944876861481e+01
 1.145002190912624e+00	 1.167538986876340e+00	 1.179819778787157e+01
 1.133570671890515e+00	 1.178641079012137e+00	 1.169134779114527e+01
 1.122032580090466e+00	 1.189630230270434e+00	 1.158074818119871e+01
 1.110389583810642e+00	 1.200504928678265e+00	 1.146235361220356e+01
 1.098643380271268e+00	 1.211263695714876e+00	 1.133735794046698e+01
 1.217800032186712e+00	 1.104571984274907e+00	 1.244122160535519e+01
 1.206983207667255e+00	 1.116381573796204e+00	 1.234163669997667e+01
 1.196049826176641e+00	 1.128087399121099e+00	 1.223661170577707e+01
 1.185001374214159e+00	 1.139687753870663e+00	 1.212909606965006e+01
 1.173839371911833e+00	 1.151180960744101e+00	 1.202202127524020e+01
 1.162565372332510e+00	 1.162565372332510e+00	 1.191481934143028e+01
 1.151180960744100e+00	 1.173839371911833e+00	 1.180950362204390e+01
 1.139687753870664e+00	 1.185001374214159e+00	 1.170494058886997e+01
 1.128087399121098e+00	 1.196049826176641e+00	 1.159221879132795e+01
 1.116381573796204e+00	 1.206983207667256e+00	 1.147226929585984e+01
 1.104571984274908e+00	 1.217800032186712e+00	 1.134640191228946e+01
 1.224336357546852e+00	 1.110500578199781e+00	 1.243725375987716e+01
 1.213461475643280e+00	 1.122373553595308e+00	 1.233771619486315e+01
 1.202469411169660e+00	 1.134142207858521e+00	 1.223327016604686e+01
 1.191361658603809e+00	 1.145804825451803e+00	 1.212695812690887e+01
 1.180139746236791e+00	 1.157359720071738e+00	 1.202197120697488e+01
 1.168805235467249e+00	 1.168805235467249e+00	 1.192034851190611e+01
 1.157359720071739e+00	 1.180139746236792e+00	 1.182085089510333e+01
 1.145804825451803e+00	 1.191361658603810e+00	 1.171504350692225e+01
 1.134142207858521e+00	 1.202469411169661e+00	 1.160101825992100e+01
 1.122373553595307e+00	 1.213461475643280e+00	 1.148024888797549e+01
 1.110500578199782e+00	 1.224336357546852e+00	 1.135413132058043e+01
 1.230872668091234e+00	 1.116429158686304e+00	 1.243277898949356e+01
 1.219939728935172e+00	 1.128365519812435e+00	 1.233364835386085e+01
 1.208888981611582e+00	 1.140197002871597e+00	 1.223024724375850e+01
 1.197721928576787e+00	 1.151921883167503e+00	 1.212568504366226e+01
 1.186440106280875e+00	 1.163538465394137e+00	 1.202322401384218e+01
 1.175045084458263e+00	 1.175045084458263e+00	 1.192623348083839e+01
 1.163538465394137e+00	 1.186440106280875e+00	 1.182894689205368e+01
 1.151921883167503e+00	 1.197721928576787e+00	 1.172228174626338e+01
 1.140197002871598e+00	 1.208888981611583e+00	 1.160773315176416e+01
 1.128365519812435e+00	 1.219939728935172e+00	 1.148683409272940e+01
 1.116429158686304e+00	 1.230872668091235e+00	 1.136103724171685e+01
 1.237408960115793e+00	 1.122357722374885e+00	 1.242794930836833e+01
 1.226417963871765e+00	 1.134357469052068e+00	 1.232960900240924e+01
 1.215308533864497e+00	 1.146251780729193e+00	 1.222773293546901e+01
 1.204082180528792e+00	 1.158038923551330e+00	 1.212547174449306e+01
 1.192740448473742e+00	 1.169717193209894e+00	 1.202613255477831e+01
 1.181284915769513e+00	 1.181284915769513e+00	 1.193193462058757e+01
 1.169717193209894e+00	 1.192740448473742e+00	 1.183399291645472e+01
 1.158038923551331e+00	 1.204082180528792e+00	 1.172727973297202e+01
 1.146251780729193e+00	 1.215308533864497e+00	 1.161294994034147e+01
 1.134357469052067e+00	 1.226417963871766e+00	 1.149256735845314e+01
 1.122357722374885e+00	 1.237408960115793e+00	 1.136761247289298e+01
 1.243945229916464e+00	 1.128286265905938e+00	 1.242292136409965e+01
 1.232896176781893e+00	 1.140349397918687e+00	 1.232577819137264e+01
 1.221728064290493e+00	 1.152306538000173e+00	 1.222592125314985e+01
 1.210442410855525e+00	 1.164155943136855e+00	 1.212651714807029e+01
 1.199040769245050e+00	 1.175895900017607e+00	 1.203089199537328e+01
 1.187524725864957e+00	 1.187524725864957e+00	 1.193614882841336e+01
 1.175895900017607e+00	 1.199040769245051e+00	 1.183664324637327e+01
 1.164155943136855e+00	 1.210442410855525e+00	 1.173066082092867e+01
 1.152306538000173e+00	 1.221728064290494e+00	 1.161725469691427e+01
 1.140349397918687e+00	 1.232896176781894e+00	 1.149799154985054e+01
 1.128286265905937e+00	 1.243945229916464e+00	 1.137435118447588e+01
 1.250481473789183e+00	 1.134214785919873e+00	 1.241785634800330e+01
 1.239374363994389e+00	 1.146341303016773e+00	 1.232234012252135e+01
 1.228147569251661e+00	 1.158361271253401e+00	 1.222501015990677e+01
 1.216802615952685e+00	 1.170272938457645e+00	 1.212902410837430e+01
 1.205341065024458e+00	 1.182074582315874e+00	 1.203622890704894e+01
 1.193764511208554e+00	 1.193764511208554e+00	 1.193942661194342e+01
 1.182074582315875e+00	 1.205341065024458e+00	 1.183818850477307e+01
 1.170272938457645e+00	 1.216802615952685e+00	 1.173304699217245e+01
 1.158361271253401e+00	 1.228147569251662e+00	 1.162123277782506e+01
 1.146341303016773e+00	 1.239374363994389e+00	 1.150364961910589e+01
 1.134214785919873e+00	 1.250481473789183e+00	 1.138174857201652e+01
 1.257017688029886e+00	 1.140143279057105e+00	 1.241291990298050e+01
 1.245852521838084e+00	 1.152333180950808e+00	 1.231948307116825e+01
 1.234567045110091e+00	 1.164415977057743e+00	 1.222520150258713e+01
 1.223162792215972e+00	 1.176389906047268e+00	 1.213319935269294e+01
 1.211641332241624e+00	 1.188253236603295e+00	 1.204046132607780e+01
 1.200004268264265e+00	 1.200004268264265e+00	 1.194238036558000e+01
 1.188253236603295e+00	 1.211641332241624e+00	 1.184017047515378e+01
 1.176389906047268e+00	 1.223162792215972e+00	 1.173505855502172e+01
 1.164415977057743e+00	 1.234567045110091e+00	 1.162546851009807e+01
 1.152333180950808e+00	 1.245852521838085e+00	 1.151008427592823e+01
 1.140143279057105e+00	 1.257017688029886e+00	 1.139030050793519e+01
 1.263553868934508e+00	 1.146071741958044e+00	 1.240828202905730e+01
 1.252330646641814e+00	 1.158325028325273e+00	 1.231739930606666e+01
 1.240986488227872e+00	 1.170470651982062e+00	 1.222670094138859e+01
 1.229522936041086e+00	 1.182506842439293e+00	 1.213777877935375e+01
 1.217941567326206e+00	 1.194431859378467e+00	 1.204417863878352e+01
 1.206243993496050e+00	 1.206243993496050e+00	 1.194561085053503e+01
 1.194431859378466e+00	 1.217941567326207e+00	 1.184318390189326e+01
 1.182506842439293e+00	 1.229522936041086e+00	 1.173801661128721e+01
 1.170470651982062e+00	 1.240986488227873e+00	 1.163054487540612e+01
 1.158325028325273e+00	 1.252330646641815e+00	 1.151783765657785e+01
 1.146071741958044e+00	 1.263553868934508e+00	 1.140050319290016e+01
 1.086786155466048e+00	 1.198191004252381e+00	 1.131337268809644e+01
 1.075064339609114e+00	 1.208719323694913e+00	 1.118691681643857e+01
 1.063243856386472e+00	 1.219130080632220e+00	 1.105779307418877e+01
 1.051326485345384e+00	 1.229421896081530e+00	 1.092611260843395e+01
 1.039314031233091e+00	 1.239593426726358e+00	 1.079193497039413e+01
 1.027208323096735e+00	 1.249643365489745e+00	 1.065527257744271e+01
 1.015011213368080e+00	 1.259570442080433e+00	 1.051609542375913e+01
 1.002724576933951e+00	 1.269373423511538e+00	 1.037433600059562e+01
 9.903503101933842e-01	 1.279051114591260e+00	 1.022989438625182e+01
 9.778903301024598e-01	 1.288602358385265e+00	 1.008264346523195e+01
 9.653465732078104e-01	 1.298026036650377e+00	 9.932434235738119e+00
 1.092714769548452e+00	 1.204727351835411e+00	 1.132651039683279e+01
 1.080929009076340e+00	 1.215313105155390e+00	 1.119884299412349e+01
 1.069044042990278e+00	 1.225780654645523e+00	 1.106952610575177e+01
 1.057061660545279e+00	 1.236128613800439e+00	 1.093853000779485e+01
 1.044983676333803e+00	 1.246355631975619e+00	 1.080576653497287e+01
 1.032811929380773e+00	 1.256460394963761e+00	 1.067109395933819e+01
 1.020548282223301e+00	 1.266441625543941e+00	 1.053432213234889e+01
 1.008194619976057e+00	 1.276298084003107e+00	 1.039521784938011e+01
 9.957528493832748e-01	 1.286028568629474e+00	 1.025351039478940e+01
 9.832248978583736e-01	 1.295631916177421e+00	 1.010889722501183e+01
 9.706127125121946e-01	 1.305107002303552e+00	 9.961049746819025e+00
 1.098643380271268e+00	 1.211263695714876e+00	 1.133735794046698e+01
 1.086793675220123e+00	 1.221906882879699e+00	 1.120903324416106e+01
 1.074844226307090e+00	 1.232431224890399e+00	 1.107987340589718e+01
 1.062796832494929e+00	 1.242835327719016e+00	 1.094973375607584e+01
 1.050653318221315e+00	 1.253117833393007e+00	 1.081840490289077e+01
 1.038415532488948e+00	 1.263277420574739e+00	 1.068561799667372e+01
 1.026085347940283e+00	 1.273312805113630e+00	 1.055105027197280e+01
 1.013664659917829e+00	 1.283222740570471e+00	 1.041433082450273e+01
 1.001155385511013e+00	 1.293006018713498e+00	 1.027504657912933e+01
 9.885594625905887e-01	 1.302661469985816e+00	 1.013274840437920e+01
 9.758788488316041e-01	 1.312187963943819e+00	 9.986957328605754e+00
 1.104571984274908e+00	 1.217800032186712e+00	 1.134640191228946e+01
 1.092658334717119e+00	 1.228500653131234e+00	 1.121792385067553e+01
 1.080644403050115e+00	 1.239081787598070e+00	 1.108923108391111e+01
 1.068531997944389e+00	 1.249542034036681e+00	 1.096008947654549e+01
 1.056322953682821e+00	 1.259880027146515e+00	 1.083019444615043e+01
 1.044019129245879e+00	 1.270094438459620e+00	 1.069917658287425e+01
 1.031622407381351e+00	 1.280183976895768e+00	 1.056660756068988e+01
 1.019134693659576e+00	 1.290147389289606e+00	 1.043200629557287e+01
 1.006557915515163e+00	 1.299983460889407e+00	 1.029484530483396e+01
 9.938940212761899e-01	 1.309691015827007e+00	 1.015455722112855e+01
 9.811449791818985e-01	 1.319268917558604e+00	 1.001054141428936e+01
 1.110500578199782e+00	 1.224336357546852e+00	 1.135413132058043e+01
 1.098522984243988e+00	 1.235094412173392e+00	 1.122595449883264e+01
 1.086444569932559e+00	 1.245732338999760e+00	 1.109799943585043e+01
 1.074267153643709e+00	 1.256248728952857e+00	 1.096996757307654e+01
 1.061992579505512e+00	 1.266642209404137e+00	 1.084148472781763e+01
 1.049622716476184e+00	 1.276911444755346e+00	 1.071210703812970e+01
 1.037159457408832e+00	 1.287055136996625e+00	 1.058132721297671e+01
 1.024604718101608e+00	 1.297072026236494e+00	 1.044858104101460e+01
 1.011960436334287e+00	 1.306960891203271e+00	 1.031325411029951e+01
 9.992285708922573e-01	 1.316720549717546e+00	 1.017468869048946e+01
 9.864111005789371e-01	 1.326349859135333e+00	 1.003219072870985e+01
 1.116429158686304e+00	 1.230872668091235e+00	 1.136103724171684e+01
 1.104387620477386e+00	 1.241688156269569e+00	 1.123356790799539e+01
 1.092244723667627e+00	 1.252382875326692e+00	 1.110658256370260e+01
 1.080002296342945e+00	 1.262955408666967e+00	 1.097974284100643e+01
 1.067662192476579e+00	 1.273404376333868e+00	 1.085263011002209e+01
 1.055226291004481e+00	 1.283728435598860e+00	 1.072475171971145e+01
 1.042696494885051e+00	 1.293926281522472e+00	 1.059554755726793e+01
 1.030074730144233e+00	 1.303996647487111e+00	 1.046439687747103e+01
 1.017362944906951e+00	 1.313938305701166e+00	 1.033062535239228e+01
 1.004563108415874e+00	 1.323750067673990e+00	 1.019351229108009e+01
 9.916772100385803e-01	 1.333430784661431e+00	 1.005229797844041e+01
 1.122357722374885e+00	 1.237408960115793e+00	 1.136761247289298e+01
 1.110252240093970e+00	 1.248281881683160e+00	 1.124120946528210e+01
 1.098044860968527e+00	 1.259033392810092e+00	 1.111538799555254e+01
 1.085737422792147e+00	 1.269662069378431e+00	 1.098979407943845e+01
 1.073331789383216e+00	 1.280166524103701e+00	 1.086398936366643e+01
 1.060829849655388e+00	 1.290545407127104e+00	 1.073745763410861e+01
 1.048233516672333e+00	 1.300797406579578e+00	 1.060961165528188e+01
 1.035544726687763e+00	 1.310921249117440e+00	 1.047980029081789e+01
 1.022765438171716e+00	 1.320915700429164e+00	 1.034731585338097e+01
 1.009897630824123e+00	 1.330779565712892e+00	 1.021140163172933e+01
 9.969433045766871e-01	 1.340511690124322e+00	 1.007125954219174e+01
 1.128286265905937e+00	 1.243945229916464e+00	 1.137435118447588e+01
 1.116116839770399e+00	 1.254875584677563e+00	 1.124932685951515e+01
 1.103844978548465e+00	 1.265683887681182e+00	 1.112482630672294e+01
 1.091472529741369e+00	 1.276368707286672e+00	 1.100050370493410e+01
 1.079001367012614e+00	 1.286928648881630e+00	 1.087592527978697e+01
 1.066433389253523e+00	 1.297362355477019e+00	 1.075057605092550e+01
 1.053770519633005e+00	 1.307668508274211e+00	 1.062386692307085e+01
 1.041014704632506e+00	 1.317845827203458e+00	 1.049514206873029e+01
 1.028167913067147e+00	 1.327893071433339e+00	 1.036368654912872e+01
 1.015232135094085e+00	 1.337809039850808e+00	 1.022873411913725e+01
 1.002209381209118e+00	 1.347592571511432e+00	 1.008947516152787e+01
 1.134214785919873e+00	 1.250481473789183e+00	 1.138174857201652e+01
 1.121981416183330e+00	 1.261469261516173e+00	 1.125836971555313e+01
 1.109645073120645e+00	 1.272334356171187e+00	 1.113531074186165e+01
 1.097207613940664e+00	 1.283075318591113e+00	 1.101225736655438e+01
 1.084670922151964e+00	 1.293690746835649e+00	 1.088880428251087e+01
 1.072036906623504e+00	 1.304179276785548e+00	 1.076446211847898e+01
 1.059307500629394e+00	 1.314539582712644e+00	 1.063866475373898e+01
 1.046484660878773e+00	 1.324770377821144e+00	 1.051077693475337e+01
 1.033570366531808e+00	 1.334870414759765e+00	 1.038010213850082e+01
 1.020566618202843e+00	 1.344838486104291e+00	 1.024589062635212e+01
 1.007475436951731e+00	 1.354673424810187e+00	 1.010734763188845e+01
 1.140143279057105e+00	 1.257017688029886e+00	 1.139030050793519e+01
 1.127845966009420e+00	 1.268062908462386e+00	 1.126878922900189e+01
 1.115445141398276e+00	 1.278984794511330e+00	 1.114725683794761e+01
 1.102942672140085e+00	 1.289781899491176e+00	 1.102544356220613e+01
 1.090340451588459e+00	 1.300452814133751e+00	 1.090299604356045e+01
 1.077640398589949e+00	 1.310996167189634e+00	 1.077947448104204e+01
 1.064844456523824e+00	 1.321410626001144e+00	 1.065436014177210e+01
 1.051954592326872e+00	 1.331694897046479e+00	 1.052706318382799e+01
 1.038972795504262e+00	 1.341847726454515e+00	 1.039693073394934e+01
 1.025901077127480e+00	 1.351867900489896e+00	 1.026325516203685e+01
 1.012741468820386e+00	 1.361754246008010e+00	 1.012528249391130e+01
 1.146071741958044e+00	 1.263553868934508e+00	 1.140050319290016e+01
 1.133710485925327e+00	 1.274656521779599e+00	 1.128103780129399e+01
 1.121245180094562e+00	 1.285635198932835e+00	 1.116108204818802e+01
 1.108677701089684e+00	 1.296488446186282e+00	 1.104045325625403e+01
 1.096009952109290e+00	 1.307214846943932e+00	 1.091887309825316e+01
 1.083243861977478e+00	 1.317813022826219e+00	 1.079597489768050e+01
 1.070381384178622e+00	 1.328281634245983e+00	 1.067131130893044e+01
 1.057424495877114e+00	 1.338619380955441e+00	 1.054436231922371e+01
 1.044375196923074e+00	 1.348825002563662e+00	 1.041454351324136e+01
 1.031235508845077e+00	 1.358897279024178e+00	 1.028121454050398e+01
 1.018007473830945e+00	 1.368835031092329e+00	 1.014368772504857e+01
 9.653465732078104e-01	 1.298026036650377e+00	 9.932434235738119e+00
 9.527231464371734e-01	 1.307319502130800e+00	 9.782079582697094e+00
 9.400198905137386e-01	 1.316483332798322e+00	 9.634017204742900e+00
 9.272387867773065e-01	 1.325516534547367e+00	 9.487583432605156e+00
 9.143818322364077e-01	 1.334418153344632e+00	 9.342097786202789e+00
 9.014510385646834e-01	 1.343187275513448e+00	 9.196868653901495e+00
 8.884484310920087e-01	 1.351823027988257e+00	 9.051198841729457e+00
 8.753760477913806e-01	 1.360324578539132e+00	 8.904390956309653e+00
 8.622359382625994e-01	 1.368691135966320e+00	 8.755752587006219e+00
 8.490301627137596e-01	 1.376921950264789e+00	 8.604601254725196e+00
 8.357607909415732e-01	 1.385016312758878e+00	 8.450269096955955e+00
 9.706127125121946e-01	 1.305107002303552e+00	 9.961049746819027e+00
 9.579204226765063e-01	 1.314451165310814e+00	 9.812548692071616e+00
 9.451478682056158e-01	 1.323664986323940e+00	 9.665777142423217e+00
 9.322970412478898e-01	 1.332747465814330e+00	 9.520156062220831e+00
 9.193699497059011e-01	 1.341697644544260e+00	 9.375092137800795e+00
 9.063686162273341e-01	 1.350514603852795e+00	 9.229983514157370e+00
 8.932950771906041e-01	 1.359197465911647e+00	 9.084225393091279e+00
 8.801513816862198e-01	 1.367745393950933e+00	 8.937215455478189e+00
 8.669395904949175e-01	 1.376157592454760e+00	 8.788359072106054e+00
 8.536617750635996e-01	 1.384433307326689e+00	 8.637074269543959e+00
 8.403200164800926e-01	 1.392571826025108e+00	 8.482796419732363e+00
 9.758788488316041e-01	 1.312187963943819e+00	 9.986957328605754e+00
 9.631176959698434e-01	 1.321582824449209e+00	 9.840086729099738e+00
 9.502758429907315e-01	 1.330846635779655e+00	 9.694499361200760e+00
 9.373552928511951e-01	 1.339978392983535e+00	 9.549684394962521e+00
 9.243580643478413e-01	 1.348977131618700e+00	 9.405118901052870e+00
 9.112861911023920e-01	 1.357841928039947e+00	 9.260273677590661e+00
 8.981417205417940e-01	 1.366571899656257e+00	 9.114618930072826e+00
 8.849267128740603e-01	 1.375166205157783e+00	 8.967629765826494e+00
 8.716432400608579e-01	 1.383624044712497e+00	 8.818791466298615e+00
 8.582933847878884e-01	 1.391944660132546e+00	 8.667604502584512e+00
 8.448792394340859e-01	 1.400127335010365e+00	 8.513589261908107e+00
 9.811449791818985e-01	 1.319268917558604e+00	 1.001054141428937e+01
 9.683149633720676e-01	 1.328714475504677e+00	 9.865102010128158e+00
 9.554038119632393e-01	 1.338028277095824e+00	 9.720609536639175e+00
 9.424135387208870e-01	 1.347209311957400e+00	 9.576605189859935e+00
 9.293461733356401e-01	 1.356256610442838e+00	 9.432619894885253e+00
 9.162037604032420e-01	 1.365169243922661e+00	 9.288180255627401e+00
 9.029883583991613e-01	 1.373946325043128e+00	 9.142814349353660e+00
 8.897020386489001e-01	 1.382587007954425e+00	 8.996057326149469e+00
 8.763468842950412e-01	 1.391090488508388e+00	 8.847456775392637e+00
 8.629249892620739e-01	 1.399456004425755e+00	 8.696577823497501e+00
 8.494384572200260e-01	 1.407682835433004e+00	 8.543007929576182e+00
 9.864111005789371e-01	 1.326349859135333e+00	 1.003219072870985e+01
 9.735122219380625e-01	 1.335846114435911e+00	 9.888006648414388e+00
 9.605317722172935e-01	 1.345209906202802e+00	 9.744536788105870e+00
 9.474717759906314e-01	 1.354440218638345e+00	 9.601358431296507e+00
 9.343342738427083e-01	 1.363536076891557e+00	 9.458040072736530e+00
 9.211213213432717e-01	 1.372496547348698e+00	 9.314147523850227e+00
 9.078349880162899e-01	 1.381320737893303e+00	 9.169249854716854e+00
 8.944773563047360e-01	 1.390007798135600e+00	 9.022925131360230e+00
 8.810505205320893e-01	 1.398556919611293e+00	 8.874765909121104e+00
 8.675565858616057e-01	 1.406967335949710e+00	 8.724384445142432e+00
 8.539976672543873e-01	 1.415238323011382e+00	 8.571417595470479e+00
 9.916772100385803e-01	 1.333430784661431e+00	 1.005229797844041e+01
 9.787094687227104e-01	 1.342977737201603e+00	 9.909216268357110e+00
 9.656597208470472e-01	 1.352391519030944e+00	 9.766713413651807e+00
 9.525300017940932e-01	 1.361671108928788e+00	 9.624387081189907e+00
 9.393223630424582e-01	 1.370815526839742e+00	 9.481827288827446e+00
 9.260388711358674e-01	 1.379823834165815e+00	 9.338622699294548e+00
 9.126816066467638e-01	 1.388695134027825e+00	 9.194366742455752e+00
 8.992526631355656e-01	 1.397428571496049e+00	 9.048663523239377e+00
 8.857541461066231e-01	 1.406023333790067e+00	 8.901133474615094e+00
 8.721881719619323e-01	 1.414478650447806e+00	 8.751418717324679e+00
 8.585568669536435e-01	 1.422793793463853e+00	 8.599188090649575e+00
 9.969433045766871e-01	 1.340511690124322e+00	 1.007125954219174e+01
 9.839067007808963e-01	 1.350109339760446e+00	 9.929149719500129e+00
 9.707876549466550e-01	 1.359573111510609e+00	 9.787574624239284e+00
 9.575882132649380e-01	 1.368901978731147e+00	 9.646136830197822e+00
 9.443104381083008e-01	 1.378094956162280e+00	 9.504432063243151e+00
 9.309564069944146e-01	 1.387151100221770e+00	 9.362055716442713e+00
 9.175282115441665e-01	 1.396069509267736e+00	 9.218609185456295e+00
 9.040279564353864e-01	 1.404849323830514e+00	 9.073705979929555e+00
 8.904577583532634e-01	 1.413489726813569e+00	 8.926977568776593e+00
 8.768197449385021e-01	 1.421989943663439e+00	 8.778078919656892e+00
 8.631160537342678e-01	 1.430349242508775e+00	 8.626693695615344e+00
 1.002209381209118e+00	 1.347592571511432e+00	 1.008947516152787e+01
 9.891039151675021e-01	 1.357240918071134e+00	 9.948228790326823e+00
 9.759155716102704e-01	 1.366754679572149e+00	 9.807558277343379e+00
 9.626464075368305e-01	 1.376132823947842e+00	 9.667055847991691e+00
 9.492984962136473e-01	 1.385374360734054e+00	 9.526307345874159e+00
 9.358739261323006e-01	 1.394478341364323e+00	 9.384899001964069e+00
 9.223747999620814e-01	 1.403443859434079e+00	 9.242424016007469e+00
 9.088032334981953e-01	 1.412270050933735e+00	 9.098488904220392e+00
 8.951613546066312e-01	 1.420956094450657e+00	 8.952719569588597e+00
 8.814513021667640e-01	 1.429501211340003e+00	 8.804767053586453e+00
 8.676752250127349e-01	 1.437904665864503e+00	 8.654312930885650e+00
 1.007475436951731e+00	 1.354673424810187e+00	 1.010734763188845e+01
 9.943011089374117e-01	 1.364372468092358e+00	 9.966877921853809e+00
 9.810434679320473e-01	 1.373936219145922e+00	 9.827104609955727e+00
 9.677045817434365e-01	 1.383363640481290e+00	 9.687594532634145e+00
 9.542865345319093e-01	 1.392653736429950e+00	 9.547908279261820e+00
 9.407914257629109e-01	 1.401805553441232e+00	 9.407607248252770e+00
 9.272213691540926e-01	 1.410818180347898e+00	 9.266260507387022e+00
 9.135784916179900e-01	 1.419690748600456e+00	 9.123451410675846e+00
 8.998649322013481e-01	 1.428422432470189e+00	 8.978783926407845e+00
 8.860828410221659e-01	 1.437012449220892e+00	 8.831888633616028e+00
 8.722343782055170e-01	 1.445460059249393e+00	 8.682428347047104e+00
 1.012741468820386e+00	 1.361754246008010e+00	 1.012528249391130e+01
 9.994982791455084e-01	 1.371503985782812e+00	 9.985523921037590e+00
 9.861713410061398e-01	 1.381117726162284e+00	 9.846655971016180e+00
 9.727627330184212e-01	 1.390594424233912e+00	 9.708205259098783e+00
 9.592745502364989e-01	 1.399933079124852e+00	 9.569691960392142e+00
 9.457089030996320e-01	 1.409132732300254e+00	 9.430637185810301e+00
 9.320679163737833e-01	 1.418192467830235e+00	 9.290570154274064e+00
 9.183537280887681e-01	 1.427111412625417e+00	 9.149035111645610e+00
 9.045684884720355e-01	 1.435888736641021e+00	 9.005597949279103e+00
 8.907143588801576e-01	 1.444523653049503e+00	 8.859852477753975e+00
 8.767935107290891e-01	 1.453015418381801e+00	 8.711426314307660e+00
 1.018007473830945e+00	 1.368835031092329e+00	 1.014368772504857e+01
 1.004695422846676e+00	 1.378635467101188e+00	 1.000459567400631e+01
 9.912991879267010e-01	 1.388299196551591e+00	 9.866656553298519e+00
 9.778208584954495e-01	 1.397825171108125e+00	 9.729342126966095e+00
 9.642625405008268e-01	 1.407212384693646e+00	 9.592117201482148e+00
 9.506263553558507e-01	 1.416459873789150e+00	 9.454447354519084e+00
 9.369144388747381e-01	 1.425566717702133e+00	 9.315806452032175e+00
 9.231289402045267e-01	 1.434532038803360e+00	 9.175683902207981e+00
 9.092720207533138e-01	 1.443355002732014e+00	 9.033591597309407e+00
 8.953458531161874e-01	 1.452034818569230e+00	 8.889070497223214e+00
 8.813526199999249e-01	 1.460570738980084e+00	 8.741696811572519e+00
 8.357607909415732e-01	 1.385016312758878e+00	 8.450269096955955e+00
 8.224299015719309e-01	 1.392973556543011e+00	 8.294219456522935e+00
 8.090395818053454e-01	 1.400793057569549e+00	 8.138295292433011e+00
 7.955919255888730e-01	 1.408474233694218e+00	 7.982441846635878e+00
 7.820890323363869e-01	 1.416016544355583e+00	 7.826646220126902e+00
 7.685330059172397e-01	 1.423419490559979e+00	 7.670939290369592e+00
 7.549259536497352e-01	 1.430682614837620e+00	 7.515397232090953e+00
 7.412699853003305e-01	 1.437805501170166e+00	 7.360142631763830e+00
 7.275672120895014e-01	 1.444787774890119e+00	 7.205345189067155e+00
 7.138197457051589e-01	 1.451629102552406e+00	 7.051222001595717e+00
 7.000296973245008e-01	 1.458329191778564e+00	 6.898037432065877e+00
 8.403200164800926e-01	 1.392571826025108e+00	 8.482796419732363e+00
 8.269164047095671e-01	 1.400572478006355e+00	 8.327180053016120e+00
 8.134530383385865e-01	 1.408434635818488e+00	 8.172130167428204e+00
 7.999320227370638e-01	 1.416157714141530e+00	 8.017503460222185e+00
 7.863554687715479e-01	 1.423741169465177e+00	 7.863198548888611e+00
 7.727254917883762e-01	 1.431184500073661e+00	 7.709158117648759e+00
 7.590442106016489e-01	 1.438487246001606e+00	 7.555370651513256e+00
 7.453137464869763e-01	 1.445648988961212e+00	 7.401871747527011e+00
 7.315362221819197e-01	 1.452669352241097e+00	 7.248744995911087e+00
 7.177137608940241e-01	 1.459548000577179e+00	 7.096122426910863e+00
 7.038484853173357e-01	 1.466284639996012e+00	 6.944184522245169e+00
 8.448792394340859e-01	 1.400127335010365e+00	 8.513589261908107e+00
 8.314029053038926e-01	 1.408171395164200e+00	 8.358550997498861e+00
 8.178664923699180e-01	 1.416076209737817e+00	 8.204437410703850e+00
 8.042721174249234e-01	 1.423841190235528e+00	 8.051030315751541e+00
 7.906219027881279e-01	 1.431465790198168e+00	 7.898153877431473e+00
 7.769179752828455e-01	 1.438949505187860e+00	 7.745676969593452e+00
 7.631624652189676e-01	 1.446291872743647e+00	 7.593515104710855e+00
 7.493575053812503e-01	 1.453492472308268e+00	 7.441631923452046e+00
 7.355052300243327e-01	 1.460550925126457e+00	 7.290040236409993e+00
 7.216077738753884e-01	 1.467466894115123e+00	 7.138802613364444e+00
 7.076672711453056e-01	 1.474240083705840e+00	 6.988031518645707e+00
 8.494384572200260e-01	 1.407682835433004e+00	 8.543007929576182e+00
 8.358894008125980e-01	 1.415770303710294e+00	 8.388667604515572e+00
 8.222799413984310e-01	 1.423717774997096e+00	 8.235532573085210e+00
 8.086122071931203e-01	 1.431524657622020e+00	 8.083323190694871e+00
 7.948883319685447e-01	 1.439190402177039e+00	 7.931802962101441e+00
 7.811104540249806e-01	 1.446714501502177e+00	 7.780781095190740e+00
 7.672807151680953e-01	 1.454096490640892e+00	 7.630114608612610e+00
 7.534012596917795e-01	 1.461335946766468e+00	 7.479709981552610e+00
 7.394742333677352e-01	 1.468432489079755e+00	 7.329524337261263e+00
 7.255017824427517e-01	 1.475385778678658e+00	 7.179566155286587e+00
 7.114860526445453e-01	 1.482195518399771e+00	 7.029895510697897e+00
 8.539976672543873e-01	 1.415238323011382e+00	 8.571417595470479e+00
 8.403758886933725e-01	 1.423369199338379e+00	 8.417870554703947e+00
 8.266933829232153e-01	 1.431359327265884e+00	 8.265736946315151e+00
 8.129522895823253e-01	 1.439208111946813e+00	 8.114688857574780e+00
 7.991547538952187e-01	 1.446915001024281e+00	 7.964442691786423e+00
 7.853029256391143e-01	 1.454479484616213e+00	 7.814761900961377e+00
 7.713989581154376e-01	 1.461901095270491e+00	 7.665459254416875e+00
 7.574450071271909e-01	 1.469179407890945e+00	 7.516398630940052e+00
 7.434432299631220e-01	 1.476314039634548e+00	 7.367496325617141e+00
 7.293957843896132e-01	 1.483304649780203e+00	 7.218721865886489e+00
 7.153048276511897e-01	 1.490150939569523e+00	 7.070098334830179e+00
 8.585568669536435e-01	 1.422793793463853e+00	 8.599188090649575e+00
 8.448623664039071e-01	 1.430968077742198e+00	 8.446505684947915e+00
 8.311068144433615e-01	 1.439000862213744e+00	 8.295377354828156e+00
 8.172923621332062e-01	 1.446891548855715e+00	 8.145439880378127e+00
 8.034211661505677e-01	 1.454639582362379e+00	 7.996375891838611e+00
 7.894953877495794e-01	 1.462244450129568e+00	 7.847916765121143e+00
 7.755171917273989e-01	 1.469705682209594e+00	 7.699845034583506e+00
 7.614887453961133e-01	 1.477022851236836e+00	 7.551996310084048e+00
 7.474122175614880e-01	 1.484195572324396e+00	 7.404260688915347e+00
 7.332897775094723e-01	 1.491223502932176e+00	 7.256583656802345e+00
 7.191235940013743e-01	 1.498106342706818e+00	 7.108966475740812e+00
 8.631160537342678e-01	 1.430349242508775e+00	 8.626693695615344e+00
 8.493488314018908e-01	 1.438566934615497e+00	 8.474923778252151e+00
 8.355202334579608e-01	 1.446642375510236e+00	 8.324785947437123e+00
 8.216324223864331e-01	 1.454574963994535e+00	 8.175894410971400e+00
 8.076875663170102e-01	 1.462364141813821e+00	 8.027911128002884e+00
 7.936878379807095e-01	 1.470009393641845e+00	 7.880548851665818e+00
 7.796354136703839e-01	 1.477510247035349e+00	 7.733573669574728e+00
 7.655324722071737e-01	 1.484866272359274e+00	 7.586807028577075e+00
 7.513811939138275e-01	 1.492077082682854e+00	 7.440127233885516e+00
 7.371837595958292e-01	 1.499142333646997e+00	 7.293470416432164e+00
 7.229423495312334e-01	 1.506061723303375e+00	 7.146830965992374e+00
 8.676752250127349e-01	 1.437904665864503e+00	 8.654312930885650e+00
 8.538352811450133e-01	 1.446165765652017e+00	 8.503480353351137e+00
 8.399336374661037e-01	 1.454283862824918e+00	 8.354299988935757e+00
 8.259724678826744e-01	 1.462258353009079e+00	 8.206375985525828e+00
 8.119539519769657e-01	 1.470088675001095e+00	 8.059362510353186e+00
 7.978802739568368e-01	 1.477774310752640e+00	 7.912966924378580e+00
 7.837536216107979e-01	 1.485314785324906e+00	 7.766952434359501e+00
 7.695761852690001e-01	 1.492709666813394e+00	 7.621140208418870e+00
 7.553501567711358e-01	 1.499958566243480e+00	 7.475410944767496e+00
 7.410777284421829e-01	 1.507061137437085e+00	 7.329705887094979e+00
 7.267610920769029e-01	 1.514017076850916e+00	 7.184027283990774e+00
 8.722343782055170e-01	 1.445460059249393e+00	 8.682428347047104e+00
 8.583217130909654e-01	 1.453764566545504e+00	 8.532535454064663e+00
 8.443470239668807e-01	 1.461925319827353e+00	 8.384261651624225e+00
 8.303124961625998e-01	 1.469941711545156e+00	 8.237213320946230e+00
 8.162203207128530e-01	 1.477813177546687e+00	 8.091049497237879e+00
 8.020726933022949e-01	 1.485539197061559e+00	 7.945485160766882e+00
 7.878718132150452e-01	 1.493119292655414e+00	 7.800293984686844e+00
 7.736198822902197e-01	 1.500553030154331e+00	 7.655310524842699e+00
 7.593191038844079e-01	 1.507840018539832e+00	 7.510431840765821e+00
 7.449716818420326e-01	 1.514979909814860e+00	 7.365618541065214e+00
 7.305798194745172e-01	 1.521972398841161e+00	 7.220895250409143e+00
 8.767935107290891e-01	 1.453015418381801e+00	 8.711426314307660e+00
 8.628081246974363e-01	 1.461363332989701e+00	 8.562453438412499e+00
 8.487603904593822e-01	 1.469566742187101e+00	 8.415017806759533e+00
 8.346525047668777e-01	 1.477625035248573e+00	 8.268740111314159e+00
 8.204866701070908e-01	 1.485537645073084e+00	 8.123296699236377e+00
 8.062650936414162e-01	 1.493304048168199e+00	 7.978422965933404e+00
 7.919899861495309e-01	 1.500923764604022e+00	 7.833916183141906e+00
 7.776635609794609e-01	 1.508396357937219e+00	 7.689637746697150e+00
 7.632880330046380e-01	 1.515721435105468e+00	 7.545514832774269e+00
 7.488656175888779e-01	 1.522898646292738e+00	 7.401541455518802e+00
 7.343985295602115e-01	 1.529927684765830e+00	 7.257778923112419e+00
 8.813526199999249e-01	 1.460570738980084e+00	 8.741696811572519e+00
 8.672945134221165e-01	 1.468962060678352e+00	 8.593602767497778e+00
 8.531737344426994e-01	 1.477208125573723e+00	 8.446919815941428e+00
 8.389924912361787e-01	 1.485308319765138e+00	 8.301294824339614e+00
 8.247529977420975e-01	 1.493262073202776e+00	 8.156433683127046e+00
 8.104574725985347e-01	 1.501068859672163e+00	 8.012104786383730e+00
 7.961081380806602e-01	 1.508728196747882e+00	 7.868141924991784e+00
 7.817072190453511e-01	 1.516239645717194e+00	 7.724446576404584e+00
 7.672569418828216e-01	 1.523602811473945e+00	 7.580989579395461e+00
 7.527595334762194e-01	 1.530817342383143e+00	 7.437812186437070e+00
 7.382172201701207e-01	 1.537882930116643e+00	 7.295026490638959e+00
 7.000296973245008e-01	 1.458329191778564e+00	 6.898037432065884e+00
 6.861968218745838e-01	 1.464888893890438e+00	 6.747453509599844e+00
 6.723255679889603e-01	 1.471306846011681e+00	 6.600581365528660e+00
 6.584180399291466e-01	 1.477582876659139e+00	 6.456839483733285e+00
 6.444763376581236e-01	 1.483716854553744e+00	 6.315676834579646e+00
 6.305025559161753e-01	 1.489708688335640e+00	 6.176572092348124e+00
 6.164987833099310e-01	 1.495558326254919e+00	 6.039032486176799e+00
 6.024671014153186e-01	 1.501265755838569e+00	 5.902592300521763e+00
 5.884095838951133e-01	 1.506831003534249e+00	 5.766811043389051e+00
 5.743282956317380e-01	 1.512254134331529e+00	 5.630006824491874e+00
 5.602252918759325e-01	 1.517535251361254e+00	 5.490789045540199e+00
 7.038484853173357e-01	 1.466284639996012e+00	 6.944184522245168e+00
 6.899401490419942e-01	 1.472880126463550e+00	 6.794405158623348e+00
 6.759932249696565e-01	 1.479333089668717e+00	 6.647830247114149e+00
 6.620098288409746e-01	 1.485643357192899e+00	 6.503983003089527e+00
 6.479920720746157e-01	 1.491810797040887e+00	 6.362420553052395e+00
 6.339420608380593e-01	 1.497835317354450e+00	 6.222732935532850e+00
 6.198618951316702e-01	 1.503716866101382e+00	 6.084541719367982e+00
 6.057536678867569e-01	 1.509455430740640e+00	 5.947498256189091e+00
 5.916194640783091e-01	 1.515051037864169e+00	 5.811281586274379e+00
 5.774613598530639e-01	 1.520503752816078e+00	 5.674787295810729e+00
 5.632814216735341e-01	 1.525813679289818e+00	 5.536101308765735e+00
 7.076672711453056e-01	 1.474240083705840e+00	 6.988031518645701e+00
 6.936834740873067e-01	 1.480871354508670e+00	 6.839047370791698e+00
 6.796608798711417e-01	 1.487359328777816e+00	 6.692843817785754e+00
 6.656016157165926e-01	 1.493703833159206e+00	 6.549032015375622e+00
 6.515078044980092e-01	 1.499904734941495e+00	 6.407260209714245e+00
 6.373815638100612e-01	 1.505961941768080e+00	 6.267212548422092e+00
 6.232250050468437e-01	 1.511875401324467e+00	 6.128607492352864e+00
 6.090402324950419e-01	 1.517645101001581e+00	 5.991195845676881e+00
 5.948293424418547e-01	 1.523271067535658e+00	 5.854758424309267e+00
 5.805944222983297e-01	 1.528753366625351e+00	 5.718672173544466e+00
 5.663375497387463e-01	 1.534092102526720e+00	 5.580726233001609e+00
 7.114860526445453e-01	 1.482195518399771e+00	 7.029895510697897e+00
 6.974267948894233e-01	 1.488862573497258e+00	 6.881708385972322e+00
 6.833285306152012e-01	 1.495385558790613e+00	 6.735953811019661e+00
 6.691933985207817e-01	 1.501764299990313e+00	 6.592314408877961e+00
 6.550235329361833e-01	 1.507998663668878e+00	 6.450512833128025e+00
 6.408210628832554e-01	 1.514088556971340e+00	 6.310310415554339e+00
 6.265881111498115e-01	 1.520033927300915e+00	 6.171505397265769e+00
 6.123267933779030e-01	 1.525834761980506e+00	 6.033930761640545e+00
 5.980392171669252e-01	 1.531491087890640e+00	 5.897451689977924e+00
 5.837274811922253e-01	 1.537002971084514e+00	 5.761804665246284e+00
 5.693936743398391e-01	 1.542370516380803e+00	 5.624762863391123e+00
 7.153048276511897e-01	 1.490150939569523e+00	 7.070098334830179e+00
 7.011701093272453e-01	 1.496853778900771e+00	 6.922720749633998e+00
 6.869961751236221e-01	 1.503411775158746e+00	 6.777495968211300e+00
 6.727851752183224e-01	 1.509824753118475e+00	 6.634161918905941e+00
 6.585392553970170e-01	 1.516092578636349e+00	 6.492499267833729e+00
 6.442605561087161e-01	 1.522215158359038e+00	 6.352329929315156e+00
 6.299512115349345e-01	 1.528192439407473e+00	 6.213515141935680e+00
 6.156133486730692e-01	 1.534024409036530e+00	 6.075953129332465e+00
 6.012490864346958e-01	 1.539711094271035e+00	 5.939576367411965e+00
 5.868605347594419e-01	 1.545252561518732e+00	 5.804333456929928e+00
 5.724497937450824e-01	 1.550648916160909e+00	 5.668316044546954e+00
 7.191235940013743e-01	 1.498106342706818e+00	 7.108966475740819e+00
 7.049134152796757e-01	 1.504844966190669e+00	 6.962421234619743e+00
 6.906638113181898e-01	 1.511437973333853e+00	 6.817809976694287e+00
 6.763769437739957e-01	 1.517885187975948e+00	 6.674910077968484e+00
 6.620549698883899e-01	 1.524186475257223e+00	 6.533544132761596e+00
 6.477000415375186e-01	 1.530341741325984e+00	 6.393578352826355e+00
 6.333143042965722e-01	 1.536350933020881e+00	 6.254920513667889e+00
 6.188998965182698e-01	 1.542214037528769e+00	 6.117517467864367e+00
 6.044589484263413e-01	 1.547931082018767e+00	 5.981352247891776e+00
 5.899935812246709e-01	 1.553502133253170e+00	 5.846440783463297e+00
 5.755059062227464e-01	 1.558927297175879e+00	 5.711496485614014e+00
 7.229423495312334e-01	 1.506061723303375e+00	 7.146830965992374e+00
 7.086567106256154e-01	 1.512836130838410e+00	 7.001150760815306e+00
 6.943314371206910e-01	 1.519464148767568e+00	 6.857239405362000e+00
 6.799687021525825e-01	 1.525945599994986e+00	 6.714898163383710e+00
 6.655706744181815e-01	 1.532280348944810e+00	 6.573975777022716e+00
 6.511395172207378e-01	 1.538468301266987e+00	 6.434366780279705e+00
 6.366773875290852e-01	 1.544509403517884e+00	 6.296009340644835e+00
 6.221864350512342e-01	 1.550403642816336e+00	 6.158882649363444e+00
 6.076688013230372e-01	 1.556151046475759e+00	 6.023003883615662e+00
 5.931266188126023e-01	 1.561751681612993e+00	 5.888424766492909e+00
 5.785620100411009e-01	 1.567205654734554e+00	 5.754420824611049e+00
 7.267610920769029e-01	 1.514017076850916e+00	 7.184027283990774e+00
 7.123999932439670e-01	 1.520827268315453e+00	 7.039254312793611e+00
 6.979990504529114e-01	 1.527490296911529e+00	 6.896131637978455e+00
 6.835604483188636e-01	 1.534005984607846e+00	 6.754469142413569e+00
 6.690863669942707e-01	 1.540374195112425e+00	 6.614126233181139e+00
 6.545789812094478e-01	 1.546594833576855e+00	 6.475010094814536e+00
 6.400404593268342e-01	 1.552667846275225e+00	 6.337073451034039e+00
 6.254729624096917e-01	 1.558593220258347e+00	 6.200311856099026e+00
 6.108786433059578e-01	 1.564370982983933e+00	 6.064760539799822e+00
 5.962596457479271e-01	 1.570001201923367e+00	 5.930490832831650e+00
 5.816181034684160e-01	 1.575483984145777e+00	 5.797211692075348e+00
 7.305798194745172e-01	 1.521972398841161e+00	 7.220895250409143e+00
 7.161432610136320e-01	 1.528818374093254e+00	 7.077080855506407e+00
 7.016666492366378e-01	 1.535516413217374e+00	 6.934837804264697e+00
 6.871521802376204e-01	 1.542066337246781e+00	 6.793969615016945e+00
 6.726020456245372e-01	 1.548468009173378e+00	 6.654331168094959e+00
 6.580184315547238e-01	 1.554721333650398e+00	 6.515826924019649e+00
 6.434035177841789e-01	 1.560826256669648e+00	 6.378408629883399e+00
 6.287594767313717e-01	 1.566782765213916e+00	 6.242072535655579e+00
 6.140884725562782e-01	 1.572590886885209e+00	 6.106856145167258e+00
 5.993926602553366e-01	 1.578250689509457e+00	 5.972834529342407e+00
 5.846741847729616e-01	 1.583762280718389e+00	 5.839997774028419e+00
 7.343985295602115e-01	 1.529927684765830e+00	 7.257778923112411e+00
 7.198865118135128e-01	 1.536809443643275e+00	 7.114983248096459e+00
 7.053342313936555e-01	 1.543542493136738e+00	 6.973712708839733e+00
 6.907438958736327e-01	 1.550126653344047e+00	 6.833749754304245e+00
 6.761177083168599e-01	 1.556561786540984e+00	 6.694929831414747e+00
 6.614578663076400e-01	 1.562847796882425e+00	 6.557139593154426e+00
 6.467665609954798e-01	 1.568984630077895e+00	 6.420314573886515e+00
 6.320459761540028e-01	 1.574972273042159e+00	 6.284436354220578e+00
 6.172982872551739e-01	 1.580810753521514e+00	 6.149529240886693e+00
 6.025256605595208e-01	 1.586500139696426e+00	 6.015656490000175e+00
 5.877302522230080e-01	 1.592040539761234e+00	 5.882913874286455e+00
 7.382172201701207e-01	 1.537882930116643e+00	 7.295026490638966e+00
 7.236297435225110e-01	 1.544800472436972e+00	 7.153318155899154e+00
 7.090017948457513e-01	 1.551568532121260e+00	 7.013114758096410e+00
 6.943355931916827e-01	 1.558186928331899e+00	 6.874163244779870e+00
 6.796333530791191e-01	 1.564655522628554e+00	 6.736265001825496e+00
 6.648972835192718e-01	 1.570974218667745e+00	 6.599274076164555e+00
 6.501295870550970e-01	 1.577142961876710e+00	 6.463094844094181e+00
 6.353324588153149e-01	 1.583161739102190e+00	 6.327679148054302e+00
 6.205080855838198e-01	 1.589030578234767e+00	 6.193022928016813e+00
 6.056586448851712e-01	 1.594749547809442e+00	 6.059162376665839e+00
 5.907863040868248e-01	 1.600318756583150e+00	 5.926169650344390e+00
 5.602252918759325e-01	 1.517535251361254e+00	 5.490789045540206e+00
 5.461050194504662e-01	 1.522673633773767e+00	 5.352590779706230e+00
 5.319671148276707e-01	 1.527670368504342e+00	 5.218540407542698e+00
 5.178135977800125e-01	 1.532525669353275e+00	 5.088444349540142e+00
 5.036464752493562e-01	 1.537239786432333e+00	 4.962146388271155e+00
 4.894677405839741e-01	 1.541813005666570e+00	 4.839520928293110e+00
 4.752793727944883e-01	 1.546245648278505e+00	 4.720466469626967e+00
 4.610833358291607e-01	 1.550538070255469e+00	 4.604899316608193e+00
 4.468815778689010e-01	 1.554690661800824e+00	 4.492747542015604e+00
 4.326760306423511e-01	 1.558703846769861e+00	 4.383945224450327e+00
 4.184686087613524e-01	 1.562578082091108e+00	 4.278426975005967e+00
 5.632814216735341e-01	 1.525813679289818e+00	 5.536101308765735e+00
 5.490841206207130e-01	 1.530980092503372e+00	 5.398700430671713e+00
 5.348690911838104e-01	 1.536004085321435e+00	 5.265709772557085e+00
 5.206383641534996e-01	 1.540885872710607e+00	 5.136868945766922e+00
 5.063939574198570e-01	 1.545625706147051e+00	 5.011953400600951e+00
 4.921378752052123e-01	 1.550223873115576e+00	 4.890767622472763e+00
 4.778721073160311e-01	 1.554680696591020e+00	 4.773138549896760e+00
 4.635986284142499e-01	 1.558996534502674e+00	 4.658909236457115e+00
 4.493193973084404e-01	 1.563171779182520e+00	 4.547932776958813e+00
 4.350363562651558e-01	 1.567206856798041e+00	 4.440066515984806e+00
 4.207514303407747e-01	 1.571102226770384e+00	 4.335166555088454e+00
 5.663375497387463e-01	 1.534092102526720e+00	 5.580726233001609e+00
 5.520632201023095e-01	 1.539286546525394e+00	 5.444230403969856e+00
 5.377710658951050e-01	 1.544337797415481e+00	 5.312294965522113e+00
 5.234631289260004e-01	 1.549246071329882e+00	 5.184613888857045e+00
 5.091414380332743e-01	 1.554011621109148e+00	 5.060915647949863e+00
 4.948080083133017e-01	 1.558634735797844e+00	 4.940956317339410e+00
 4.804648403683806e-01	 1.563115740123116e+00	 4.824512900526001e+00
 4.661139195741118e-01	 1.567454993956215e+00	 4.711376911540026e+00
 4.517572153667179e-01	 1.571652891757733e+00	 4.601348230224897e+00
 4.373966805506534e-01	 1.575709862007345e+00	 4.494229249758538e+00
 4.230342506268229e-01	 1.579626366618807e+00	 4.389819332870596e+00
 5.693936743398391e-01	 1.542370516380803e+00	 5.624762863391122e+00
 5.550423162071549e-01	 1.547592991132789e+00	 5.489236851197383e+00
 5.406730373171339e-01	 1.552671500063979e+00	 5.358315954492725e+00
 5.262878904968222e-01	 1.557606260473578e+00	 5.231669392193904e+00
 5.118889155326835e-01	 1.562397526566516e+00	 5.108999733774694e+00
 4.974781383951237e-01	 1.567045588947110e+00	 4.990035864221116e+00
 4.830575704822563e-01	 1.571550774094812e+00	 4.874526188910395e+00
 4.686292078833309e-01	 1.575913443822823e+00	 4.762232101429385e+00
 4.541950306622056e-01	 1.580133994720345e+00	 4.652921735280328e+00
 4.397570021612204e-01	 1.584212857579236e+00	 4.546364018325288e+00
 4.253170683257905e-01	 1.588150496805859e+00	 4.442323046713667e+00
 5.724497937450824e-01	 1.550648916160909e+00	 5.668316044546946e+00
 5.580214072471477e-01	 1.555899421618508e+00	 5.533782024648226e+00
 5.435750038054766e-01	 1.561005188544430e+00	 5.403798975012448e+00
 5.291126472652714e-01	 1.565966435404172e+00	 5.278031976634709e+00
 5.146363883611608e-01	 1.570783417767045e+00	 5.156178489841899e+00
 5.001482639375601e-01	 1.575456427797112e+00	 5.037961152111695e+00
 4.856502961883779e-01	 1.579985793726124e+00	 4.923120825664312e+00
 4.711444919164921e-01	 1.584371879309231e+00	 4.811409918352133e+00
 4.566328418133755e-01	 1.588615083264238e+00	 4.702585999238540e+00
 4.421173197592332e-01	 1.592715838695180e+00	 4.596405728102548e+00
 4.275998821439713e-01	 1.596674612501019e+00	 4.492619115937043e+00
 5.755059062227464e-01	 1.558927297175879e+00	 5.711496485614014e+00
 5.610004915341872e-01	 1.564205833275505e+00	 5.577934323607199e+00
 5.464769637157124e-01	 1.569338858134331e+00	 5.448776561321715e+00
 5.319373976306551e-01	 1.574326591384141e+00	 5.323704490136775e+00
 5.173838549617822e-01	 1.579169289958625e+00	 5.202430987587321e+00
 5.028183834274927e-01	 1.583867247581586e+00	 5.084693113895885e+00
 4.882430160174654e-01	 1.588420794237071e+00	 4.970244968662342e+00
 4.736597702481799e-01	 1.592830295622174e+00	 4.858850831803760e+00
 4.590706474386991e-01	 1.597096152583294e+00	 4.750278610622621e+00
 4.444776320070679e-01	 1.601218800536641e+00	 4.644293612672195e+00
 4.298826907876586e-01	 1.605198708873770e+00	 4.540652661850528e+00
 5.785620100411009e-01	 1.567205654734554e+00	 5.754420824611049e+00
 5.639795673801719e-01	 1.572512221396735e+00	 5.621768340459424e+00
 5.493789154034203e-01	 1.577672504111181e+00	 5.493287577801571e+00
 5.347621399922795e-01	 1.582686723675964e+00	 5.368696127925489e+00
 5.201313137776238e-01	 1.587555138389146e+00	 5.247742550223992e+00
 5.054884953518040e-01	 1.592278043534268e+00	 5.130198733430463e+00
 4.908357285002384e-01	 1.596855770847669e+00	 5.015852527947309e+00
 4.761750414529792e-01	 1.601288687968382e+00	 4.904500673961218e+00
 4.615084461566480e-01	 1.605577197871394e+00	 4.795942047775728e+00
 4.468379375671011e-01	 1.609721738285083e+00	 4.689971246497646e+00
 4.321654929631460e-01	 1.613722781093591e+00	 4.586372528914404e+00
 5.816181034684160e-01	 1.575483984145777e+00	 5.797211692075348e+00
 5.669586330970008e-01	 1.580818581275152e+00	 5.665364906614659e+00
 5.522808572241804e-01	 1.586006121752480e+00	 5.537377250636823e+00
 5.375868727494523e-01	 1.591046827542120e+00	 5.413022453181604e+00
 5.228787632517612e-01	 1.595940958306500e+00	 5.292104765563605e+00
 5.081585981973755e-01	 1.600688810888898e+00	 5.174451053443677e+00
 4.934284321674168e-01	 1.605290718777939e+00	 5.059903171471445e+00
 4.786903041054745e-01	 1.609747051554588e+00	 4.948310645857062e+00
 4.639462365856944e-01	 1.614058214322419e+00	 4.839523687886046e+00
 4.491982351017086e-01	 1.618224647121972e+00	 4.733386559041652e+00
 4.344482873767272e-01	 1.622246824329965e+00	 4.629731306015046e+00
 5.846741847729616e-01	 1.583762280718389e+00	 5.839997774028419e+00
 5.699376869965725e-01	 1.589124908203710e+00	 5.708811138252763e+00
 5.551827875335719e-01	 1.594339706335727e+00	 5.581097199687024e+00
 5.404115943014792e-01	 1.599406898245083e+00	 5.456705418222277e+00
 5.256262018272702e-01	 1.604326744958575e+00	 5.335515499527316e+00
 5.108286904510888e-01	 1.609099544879210e+00	 5.217429184220055e+00
 4.960211255497203e-01	 1.613725633247896e+00	 5.102362331640302e+00
 4.812055567802505e-01	 1.618205381587525e+00	 4.990237324291683e+00
 4.663840173443101e-01	 1.622539197130253e+00	 4.880975816608267e+00
 4.515585232732676e-01	 1.626727522228771e+00	 4.774491849272291e+00
 4.367310727346956e-01	 1.630770833752372e+00	 4.670685347854123e+00
 5.877302522230080e-01	 1.592040539761234e+00	 5.882913874286463e+00
 5.729167273907859e-01	 1.597431197475362e+00	 5.752200481890214e+00
 5.580847046871743e-01	 1.602673253138420e+00	 5.624505470556833e+00
 5.432363030476680e-01	 1.607766931047333e+00	 5.499773386158431e+00
 5.283736279472270e-01	 1.612712493593261e+00	 5.377978910311947e+00
 5.134987705998262e-01	 1.617510240738941e+00	 5.259118313040657e+00
 4.986138071778686e-01	 1.622160509477558e+00	 5.143201212621220e+00
 4.837207980518917e-01	 1.626663673273926e+00	 5.030242669448193e+00
 4.688217870509668e-01	 1.631020141488776e+00	 4.920255638255066e+00
 4.539188007441537e-01	 1.635230358786946e+00	 4.813243800532472e+00
 4.390138477433446e-01	 1.639294804530294e+00	 4.709194796440490e+00
 5.907863040868248e-01	 1.600318756583150e+00	 5.926169650344383e+00
 5.758957525915404e-01	 1.605737444383062e+00	 5.795632759774962e+00
 5.609866070405670e-01	 1.611006757438059e+00	 5.667666566854273e+00
 5.460609973873252e-01	 1.616126921211349e+00	 5.542261153008257e+00
 5.311210400547076e-01	 1.621098199458451e+00	 5.419505463193097e+00
 5.161688371304696e-01	 1.625920893701830e+00	 5.299509714349907e+00
 5.012064755825815e-01	 1.630595342686943e+00	 5.182396798394892e+00
 4.862360264949831e-01	 1.635121921820524e+00	 5.068294033185166e+00
 4.712595443241364e-01	 1.639501042591871e+00	 4.957325286533986e+00
 4.562790661767438e-01	 1.643733151977961e+00	 4.849603495765116e+00
 4.412966111089681e-01	 1.647818731833210e+00	 4.745223602685666e+00
 4.184686087613524e-01	 1.562578082091108e+00	 4.278426975005967e+00
 4.042612092709105e-01	 1.566313857513235e+00	 4.175052906628968e+00
 3.900557115896419e-01	 1.569911696014492e+00	 4.073037440745420e+00
 3.758539762950538e-01	 1.573372152160505e+00	 3.972832644659467e+00
 3.616578443450143e-01	 1.576695811133211e+00	 3.874871832837058e+00
 3.474691365191289e-01	 1.579883288089228e+00	 3.779565206407166e+00
 3.332896528818214e-01	 1.582935227508337e+00	 3.687295848203962e+00
 3.191211722672218e-01	 1.585852302532892e+00	 3.598416076705744e+00
 3.049654517859358e-01	 1.588635214298862e+00	 3.513244160474226e+00
 2.908242263537443e-01	 1.591284691259338e+00	 3.432061393024467e+00
 2.766992082422489e-01	 1.593801488501192e+00	 3.355109526435874e+00
 4.207514303407747e-01	 1.571102226770384e+00	 4.335166555088454e+00
 4.064665269290134e-01	 1.574858381519876e+00	 4.232079070646375e+00
 3.921835357010634e-01	 1.578475846877712e+00	 4.130090841314059e+00
 3.779043273842290e-01	 1.581955180434782e+00	 4.029702381721303e+00
 3.636307529791473e-01	 1.585296970565305e+00	 3.931393797217079e+00
 3.493646431981165e-01	 1.588501835781693e+00	 3.835620272412019e+00
 3.351078079252475e-01	 1.591570424079493e+00	 3.742807928375162e+00
 3.208620356985429e-01	 1.594503412273176e+00	 3.653350051866459e+00
 3.066290932139747e-01	 1.597301505323544e+00	 3.567603698202586e+00
 2.924107248516131e-01	 1.599965435657535e+00	 3.485886667606393e+00
 2.782086522238209e-01	 1.602495962481166e+00	 3.408474853237566e+00
 4.230342506268229e-01	 1.579626366618807e+00	 4.389819332870596e+00
 4.086718433376451e-01	 1.583402900684102e+00	 4.286979288726447e+00
 3.943113586068853e-01	 1.587039992887372e+00	 4.185072849169534e+00
 3.799546773116462e-01	 1.590538203844771e+00	 4.084634674939529e+00
 3.656036604953350e-01	 1.593898125122802e+00	 3.986177262917551e+00
 3.512601488029429e-01	 1.597120378589678e+00	 3.890186301634371e+00
 3.369259619382698e-01	 1.600205615756710e+00	 3.797116408457359e+00
 3.226028981431911e-01	 1.603154517110489e+00	 3.707387251856040e+00
 3.082927336990464e-01	 1.605967791436651e+00	 3.621380060298302e+00
 2.939972224501960e-01	 1.608646175135986e+00	 3.539434517537112e+00
 2.797180953497652e-01	 1.611190431533655e+00	 3.461846042344467e+00
 4.253170683257905e-01	 1.588150496805859e+00	 4.442323046713667e+00
 4.108771572470237e-01	 1.591947410163843e+00	 4.339699257288792e+00
 3.964391791012510e-01	 1.595604129190281e+00	 4.237934749630002e+00
 3.820050249153676e-01	 1.599121217526589e+00	 4.137584317524900e+00
 3.675765657755436e-01	 1.602499269931554e+00	 4.039178735846324e+00
 3.531556522594581e-01	 1.605738911629189e+00	 3.943220000729782e+00
 3.387441138905933e-01	 1.608840797646567e+00	 3.850176964382973e+00
 3.243437586146913e-01	 1.611805612142400e+00	 3.760481367918392e+00
 3.099563722984534e-01	 1.614634067727157e+00	 3.674524273701001e+00
 2.955837182505248e-01	 1.617326904775478e+00	 3.592652896847200e+00
 2.812275367647871e-01	 1.619884890731665e+00	 3.515167833777723e+00
 4.275998821439713e-01	 1.596674612501019e+00	 4.492619115937043e+00
 4.130824674073675e-01	 1.600491905117031e+00	 4.390187725206656e+00
 3.985669959783042e-01	 1.604168250933248e+00	 4.288630325369386e+00
 3.840553690334549e-01	 1.607704216616352e+00	 4.188508113172420e+00
 3.695494677017397e-01	 1.611100400117410e+00	 4.090356308558102e+00
 3.550511524935119e-01	 1.614357430016230e+00	 3.994679296994818e+00
 3.405622627519225e-01	 1.617475964855642e+00	 3.901946179336708e+00
 3.260846161265684e-01	 1.620456692466479e+00	 3.812586732565071e+00
 3.116200080694989e-01	 1.623300329284035e+00	 3.726987782815700e+00
 2.971702113536312e-01	 1.626007619656798e+00	 3.645489990200075e+00
 2.827369756135910e-01	 1.628579335148205e+00	 3.568385043120919e+00
 4.298826907876586e-01	 1.605198708873770e+00	 4.540652661850528e+00
 4.152877725688948e-01	 1.609036380701594e+00	 4.438396522733530e+00
 4.006948080321881e-01	 1.612732353263084e+00	 4.337115891568315e+00
 3.861057085039700e-01	 1.616287196250179e+00	 4.237364915921143e+00
 3.715223651558897e-01	 1.619701510806219e+00	 4.139669703453396e+00
 3.569466484309538e-01	 1.622975928866803e+00	 4.044523383683121e+00
 3.423804074919626e-01	 1.626111112490514e+00	 3.952381590116137e+00
 3.278254696923469e-01	 1.629107753180294e+00	 3.863658366044665e+00
 3.132836400694852e-01	 1.631966571196258e+00	 3.778722495311010e+00
 2.987567008605469e-01	 1.634688314860732e+00	 3.697894257375359e+00
 2.842464110408821e-01	 1.637273759856283e+00	 3.621442604189177e+00
 4.321654929631460e-01	 1.613722781093591e+00	 4.586372528914404e+00
 4.174930714818238e-01	 1.617580832075464e+00	 4.484280590253523e+00
 4.028226140570464e-01	 1.621296431326598e+00	 4.383350330648077e+00
 3.881560421649748e-01	 1.624870151564185e+00	 4.284115669401475e+00
 3.734952570199596e-01	 1.628302597123831e+00	 4.187080315216409e+00
 3.588421389976337e-01	 1.631594403296914e+00	 4.092712764449338e+00
 3.441985470804185e-01	 1.634746235657761e+00	 4.001441732538183e+00
 3.295663183255523e-01	 1.637758789381415e+00	 3.913652021820840e+00
 3.149472673557154e-01	 1.640632788552800e+00	 3.829680826904361e+00
 3.003431858723034e-01	 1.643368985468068e+00	 3.749814476747609e+00
 2.857558421913652e-01	 1.645968159928908e+00	 3.674285610720092e+00
 4.344482873767272e-01	 1.622246824329965e+00	 4.629731306015046e+00
 4.196983628963727e-01	 1.626125254396569e+00	 4.527798006865061e+00
 4.049504128470223e-01	 1.629860480270600e+00	 4.427295126598141e+00
 3.902063688545315e-01	 1.633453077694489e+00	 4.328723445491011e+00
 3.754681421759165e-01	 1.636903654196095e+00	 4.232551252515566e+00
 3.607376231194017e-01	 1.640212848422567e+00	 4.139209296951796e+00
 3.460166804869954e-01	 1.643381329463962e+00	 4.049086185940750e+00
 3.313071610397092e-01	 1.646409796167410e+00	 3.962524231096714e+00
 3.166108889854919e-01	 1.649298976442632e+00	 3.879815745180208e+00
 3.019296654899323e-01	 1.652049626559593e+00	 3.801199787796629e+00
 2.872652682097454e-01	 1.654662530439087e+00	 3.726859357113598e+00
 4.367310727346956e-01	 1.630770833752372e+00	 4.670685347854123e+00
 4.219036455627593e-01	 1.634669642822839e+00	 4.568910018796640e+00
 4.070782031962595e-01	 1.638424495241900e+00	 4.468914398916619e+00
 3.922566874107019e-01	 1.642035969777207e+00	 4.371153482399086e+00
 3.774410195057264e-01	 1.645504677148861e+00	 4.276047378993202e+00
 3.626330997221071e-01	 1.648831259359767e+00	 4.183976235642767e+00
 3.478348066813979e-01	 1.652016389015695e+00	 4.095275616797490e+00
 3.330479968483425e-01	 1.655060768635849e+00	 4.010232346415508e+00
 3.182745040161179e-01	 1.657965129954727e+00	 3.929080812468315e+00
 3.035161388144657e-01	 1.660730233216094e+00	 3.851999732685696e+00
 2.887746882407271e-01	 1.663356866459827e+00	 3.779109378264847e+00
 4.390138477433446e-01	 1.639294804530294e+00	 4.709194796440490e+00
 4.241089182312024e-01	 1.643213992512207e+00	 4.607581067665172e+00
 4.092059838989013e-01	 1.646988471387306e+00	 4.508174936168906e+00
 3.943069966715474e-01	 1.650618822948456e+00	 4.411373222199384e+00
 3.794138878913559e-01	 1.654105661107979e+00	 4.317535353572314e+00
 3.645285677315999e-01	 1.657449631224517e+00	 4.226978273773137e+00
 3.496529246333312e-01	 1.660651409419539e+00	 4.139971821482394e+00
 3.347888247649772e-01	 1.663711701884300e+00	 4.056734584375072e+00
 3.199381115048958e-01	 1.666631244178060e+00	 3.977430227817715e+00
 3.051026049469347e-01	 1.669410800518359e+00	 3.902164296940937e+00
 2.902841014290157e-01	 1.672051163064140e+00	 3.830981488513165e+00
 4.412966111089681e-01	 1.647818731833210e+00	 4.745223602685666e+00
 4.263141796519200e-01	 1.651758298622600e+00	 4.643778818576467e+00
 4.113337537490910e-01	 1.655552403853629e+00	 4.545046229180825e+00
 3.963572954751309e-01	 1.659201632344353e+00	 4.449352347827754e+00
 3.813867462147714e-01	 1.662706601199298e+00	 4.356983670094731e+00
 3.664240260737301e-01	 1.666067959132822e+00	 4.268181584643496e+00
 3.514710333125002e-01	 1.669286385782073e+00	 4.183137768217659e+00
 3.365296438031382e-01	 1.672362591010333e+00	 4.101990067481650e+00
 3.216017105091286e-01	 1.675297314201602e+00	 4.024818868099846e+00
 3.066890629883714e-01	 1.678091323547173e+00	 3.951643949260366e+00
 2.917935069193159e-01	 1.680745415325032e+00	 3.882421819743549e+00
 2.766992082422489e-01	 1.593801488501192e+00	 3.355109526435874e+00
 2.625896905333688e-01	 1.596186781145472e+00	 3.281939812143147e+00
 2.484997456962398e-01	 1.598440935759645e+00	 3.212174517356531e+00
 2.344310200493027e-01	 1.600564782436457e+00	 3.146058310605928e+00
 2.203851355945446e-01	 1.602559175150043e+00	 3.083788971219573e+00
 2.063636896767386e-01	 1.604424991048371e+00	 3.025516479560869e+00
 1.923682546643027e-01	 1.606163129743204e+00	 2.971342428301377e+00
 1.784003776516225e-01	 1.607774512598260e+00	 2.921319744072929e+00
 1.644615801826584e-01	 1.609260082016233e+00	 2.875452707906902e+00
 1.505533579956408e-01	 1.610620800725342e+00	 2.833697262033230e+00
 1.366771807886333e-01	 1.611857651066033e+00	 2.795961589864260e+00
 2.782086522238209e-01	 1.602495962481166e+00	 3.408474853237559e+00
 2.640221645561616e-01	 1.604894267325989e+00	 3.334947294669675e+00
 2.498553565338244e-01	 1.607160718759159e+00	 3.264927798108098e+00
 2.357098834562135e-01	 1.609296151401727e+00	 3.198652137659209e+00
 2.215873761736286e-01	 1.611301423886408e+00	 3.136307024407371e+00
 2.074894407446450e-01	 1.613177418146170e+00	 3.078029208749131e+00
 1.934176581152337e-01	 1.614925038700317e+00	 3.023904913715385e+00
 1.793735838194578e-01	 1.616545211938770e+00	 2.973969588218436e+00
 1.653587477015736e-01	 1.618038885405196e+00	 2.928207968197744e+00
 1.513746536593325e-01	 1.619407027079671e+00	 2.886554432780896e+00
 1.374227794082650e-01	 1.620650624661481e+00	 2.848893641812134e+00
 2.797180953497652e-01	 1.611190431533655e+00	 3.461846042344474e+00
 2.654546377669676e-01	 1.613601748571710e+00	 3.388209298614952e+00
 2.512109666030281e-01	 1.615880496816994e+00	 3.318148986759612e+00
 2.369887461383008e-01	 1.618027515418851e+00	 3.251894701469556e+00
 2.227896160713848e-01	 1.620043667668570e+00	 3.189624665672666e+00
 2.086151911746463e-01	 1.621929840284108e+00	 3.131464843946834e+00
 1.944670609715957e-01	 1.623686942692302e+00	 3.077488397248385e+00
 1.803467894359619e-01	 1.625315906309269e+00	 3.027715467469702e+00
 1.662559147122849e-01	 1.626817683819643e+00	 2.982113279361164e+00
 1.521959488578252e-01	 1.628193248455343e+00	 2.940596546454917e+00
 1.381683776055684e-01	 1.629443593274491e+00	 2.903028166863612e+00
 2.812275367647871e-01	 1.619884890731665e+00	 3.515167833777723e+00
 2.668871093541109e-01	 1.622309219948267e+00	 3.441667616357819e+00
 2.525665751357273e-01	 1.624600264991807e+00	 3.371777411980457e+00
 2.382676073709239e-01	 1.626758869539914e+00	 3.305723328199988e+00
 2.239918546065833e-01	 1.628785901542439e+00	 3.243677655778712e+00
 2.097409403288457e-01	 1.630682252502318e+00	 3.185757992193272e+00
 1.955164626387456e-01	 1.632448836753914e+00	 3.132026717160234e+00
 1.813199939496622e-01	 1.634086590739525e+00	 3.082490808265464e+00
 1.671530807064034e-01	 1.635596472284742e+00	 3.037101983765338e+00
 1.530172431257238e-01	 1.636979459873319e+00	 2.995757158727895e+00
 1.389139749580493e-01	 1.638236551922203e+00	 2.958299199871806e+00
 2.827369756135910e-01	 1.628579335148205e+00	 3.568385043120919e+00
 2.683195785059148e-01	 1.631016676521293e+00	 3.495263984237570e+00
 2.539221813637983e-01	 1.633320018342258e+00	 3.425752234082182e+00
 2.395464664294427e-01	 1.635490208817003e+00	 3.360075083457979e+00
 2.251940910979939e-01	 1.637528120553927e+00	 3.298401423657610e+00
 2.108666875693468e-01	 1.639434649840937e+00	 3.240842879106231e+00
 1.965658625220407e-01	 1.641210715919905e+00	 3.187453303110961e+00
 1.822931968090859e-01	 1.642857260259301e+00	 3.138228624357655e+00
 1.680502451755402e-01	 1.644375245825661e+00	 3.093107030746841e+00
 1.538385359976332e-01	 1.645765656354560e+00	 3.051969476244001e+00
 1.396595710432135e-01	 1.647029495621756e+00	 3.014640495586488e+00
 2.842464110408821e-01	 1.637273759856283e+00	 3.621442604189177e+00
 2.697520444107036e-01	 1.639724113356420e+00	 3.548940123141372e+00
 2.552777845191180e-01	 1.642039751927004e+00	 3.480012483362139e+00
 2.408253225892169e-01	 1.644221528302201e+00	 3.414886808221753e+00
 2.263963248643863e-01	 1.646270319748946e+00	 3.353731099728065e+00
 2.119924322582529e-01	 1.648187027340098e+00	 3.296653379381113e+00
 1.976152600268379e-01	 1.649972575225027e+00	 3.243701203609119e+00
 1.832663974627605e-01	 1.651627909898363e+00	 3.194861540968882e+00
 1.689474076113062e-01	 1.653153999467569e+00	 3.150060997212711e+00
 1.546598270081584e-01	 1.654551832920027e+00	 3.109166373390441e+00
 1.404051654385669e-01	 1.655822419390291e+00	 3.071985541296683e+00
 2.857558421913652e-01	 1.645968159928908e+00	 3.674285610720092e+00
 2.711845062568002e-01	 1.648431525519280e+00	 3.602637778139879e+00
 2.566333838335626e-01	 1.650759460804705e+00	 3.534497097536003e+00
 2.421041751256064e-01	 1.652952823047595e+00	 3.470095153902804e+00
 2.275985552245307e-01	 1.655012494173407e+00	 3.409601548402047e+00
 2.131181737576675e-01	 1.656939380039935e+00	 3.353123046538482e+00
 1.986646545584943e-01	 1.658734409704035e+00	 3.300703112783288e+00
 1.842395953592133e-01	 1.660398534686476e+00	 3.252321818349508e+00
 1.698445675053125e-01	 1.661932728235633e+00	 3.207896107734034e+00
 1.554811156919043e-01	 1.663337984590680e+00	 3.167280408657192e+00
 1.411507577216152e-01	 1.664615318244948e+00	 3.130267569177252e+00
 2.872652682097454e-01	 1.654662530439087e+00	 3.726859357113598e+00
 2.726169632325288e-01	 1.657138908075503e+00	 3.656298757206121e+00
 2.579889785390088e-01	 1.659479140034020e+00	 3.589144958293562e+00
 2.433830233139706e-01	 1.661684088105270e+00	 3.525636616573726e+00
 2.288007814971968e-01	 1.663754638873220e+00	 3.465947399806490e+00
 2.142439114296942e-01	 1.665691702980585e+00	 3.410185141948188e+00
 1.997140455223670e-01	 1.667496214391682e+00	 3.358391396496477e+00
 1.852127899469717e-01	 1.669169129653405e+00	 3.310541374758693e+00
 1.707417243491701e-01	 1.670711427155022e+00	 3.266544254148168e+00
 1.563024015834758e-01	 1.672124106387480e+00	 3.226243840605120e+00
 1.418963474698644e-01	 1.673408187202868e+00	 3.189419568347383e+00
 2.887746882407271e-01	 1.663356866459827e+00	 3.779109378264847e+00
 2.740494145262130e-01	 1.665846256090725e+00	 3.709864969055537e+00
 2.593445678673329e-01	 1.668198784673604e+00	 3.643894927005027e+00
 2.446618664296696e-01	 1.670415318527313e+00	 3.581447570391607e+00
 2.300030030011544e-01	 1.672496748894298e+00	 3.522703080753573e+00
 2.153696446364362e-01	 1.674443991202181e+00	 3.467772663158073e+00
 2.007634323238131e-01	 1.676257984322721e+00	 3.416698117833025e+00
 1.861859806745630e-01	 1.677939689828916e+00	 3.369451808887340e+00
 1.716388776344902e-01	 1.679490091250905e+00	 3.325937014690118e+00
 1.571236842174779e-01	 1.680910193331387e+00	 3.285988643453924e+00
 1.426419342608202e-01	 1.682201021281190e+00	 3.249374296653427e+00
 2.902841014290157e-01	 1.672051163064140e+00	 3.830981488513165e+00
 2.754818593261765e-01	 1.674553564630576e+00	 3.763278460132280e+00
 2.607001510504114e-01	 1.676918389782119e+00	 3.698685879615078e+00
 2.459407037480629e-01	 1.679146509365806e+00	 3.637464300247462e+00
 2.312052190551735e-01	 1.681238819282553e+00	 3.579802844984203e+00
 2.164953727399972e-01	 1.683196239744858e+00	 3.525818371550885e+00
 2.018128143681895e-01	 1.685019714531905e+00	 3.475555061974202e+00
 1.871591669905145e-01	 1.686710210242772e+00	 3.428984421746409e+00
 1.725360268528837e-01	 1.688268715548449e+00	 3.386005672663497e+00
 1.579449631285154e-01	 1.689696240443363e+00	 3.346446522302292e+00
 1.433875176719885e-01	 1.690993815497054e+00	 3.310064292184789e+00
 2.917935069193159e-01	 1.680745415325032e+00	 3.882421819743548e+00
 2.769142968207429e-01	 1.683260828760689e+00	 3.816481450774861e+00
 2.620557273201212e-01	 1.685637950418222e+00	 3.753456740745940e+00
 2.472195345445104e-01	 1.687877655672838e+00	 3.693623033668566e+00
 2.324074289780241e-01	 1.689980845083896e+00	 3.637180802707900e+00
 2.176210951024806e-01	 1.691948443648752e+00	 3.584254819353896e+00
 2.028621910608533e-01	 1.693781400053988e+00	 3.534893760488515e+00
 1.881323483433538e-01	 1.695480685924739e+00	 3.489070238037209e+00
 1.734331714959617e-01	 1.697047295072823e+00	 3.446681234677536e+00
 1.587662378511934e-01	 1.698482242744367e+00	 3.407548927997905e+00
 1.441330972808751e-01	 1.699786564867602e+00	 3.371421884534273e+00
 1.366771807886333e-01	 1.611857651066033e+00	 2.795961589864260e+00
 1.228368366506916e-01	 1.612971455257300e+00	 2.761570652836417e+00
 1.090313535566891e-01	 1.613963452695617e+00	 2.730170881206035e+00
 9.526208969766804e-02	 1.614834679436247e+00	 2.702098605292085e+00
 8.153037736788364e-02	 1.615586188281853e+00	 2.677641733317995e+00
 6.783752282655720e-02	 1.616219048089453e+00	 2.657040995679440e+00
 5.418480617815002e-02	 1.616734343080651e+00	 2.640491390859592e+00
 4.057348127085128e-02	 1.617133172155657e+00	 2.628143817359340e+00
 2.700477561295891e-02	 1.617416648211609e+00	 2.620106875920962e+00
 1.347989030682204e-02	 1.617585897465666e+00	 2.616448826316137e+00
 0.000000000000000e+00	 1.617642058783334e+00	 2.617199683228000e+00
 1.374227794082650e-01	 1.620650624661481e+00	 2.848893641812142e+00
 1.235069337021328e-01	 1.621770504854973e+00	 2.814553566697588e+00
 1.096261392132307e-01	 1.622767913817755e+00	 2.783214302808506e+00
 9.578176154176940e-02	 1.623643893256957e+00	 2.755231428279060e+00
 8.197514024990150e-02	 1.624399501718475e+00	 2.730909792003037e+00
 6.820758872271974e-02	 1.625035813890140e+00	 2.710504800845208e+00
 5.448039404787802e-02	 1.625553919908178e+00	 2.694223915630489e+00
 4.079481691352561e-02	 1.625954924667502e+00	 2.682228339763222e+00
 2.715209152423184e-02	 1.626239947136311e+00	 2.674634884238804e+00
 1.355342553456794e-02	 1.626410119675477e+00	 2.671517992799094e+00
 0.000000000000000e+00	 1.626466587363230e+00	 2.672911911243472e+00
 1.381683776055684e-01	 1.629443593274491e+00	 2.903028166863612e+00
 1.241770303739670e-01	 1.630569549466778e+00	 2.868741092869214e+00
 1.102209245327511e-01	 1.631572369950946e+00	 2.837448524144222e+00
 9.630143309131045e-02	 1.632453102085998e+00	 2.809523111269482e+00
 8.241990287970483e-02	 1.633212810161064e+00	 2.785284426642668e+00
 6.857765440890855e-02	 1.633852574694785e+00	 2.765000298568089e+00
 5.477598174977812e-02	 1.634373491738018e+00	 2.748888361330340e+00
 4.101615243043270e-02	 1.634776672180379e+00	 2.737117804577285e+00
 2.729940735172260e-02	 1.635063241061123e+00	 2.729811305241106e+00
 1.362696072045095e-02	 1.635234336884847e+00	 2.727047125217831e+00
 0.000000000000000e+00	 1.635291110942501e+00	 2.728861358287065e+00
 1.389139749580493e-01	 1.638236551922203e+00	 2.958299199871806e+00
 1.248471262864969e-01	 1.639368584106420e+00	 2.924068340163782e+00
 1.108157091782467e-01	 1.640376816105841e+00	 2.892810688289964e+00
 9.682110405187071e-02	 1.641262300931342e+00	 2.864913812750349e+00
 8.286466500533905e-02	 1.642026108615281e+00	 2.840709811172945e+00
 6.894771967551071e-02	 1.642669325507112e+00	 2.820476695258743e+00
 5.507156911644809e-02	 1.643193053572317e+00	 2.804439999001267e+00
 4.123748769624335e-02	 1.643598409695213e+00	 2.792774592953617e+00
 2.744672301203106e-02	 1.643886524986108e+00	 2.785606687232232e+00
 1.370049582284940e-02	 1.644058544093324e+00	 2.783016005934516e+00
 0.000000000000000e+00	 1.644115624520522e+00	 2.785038115897820e+00
 1.396595710432135e-01	 1.647029495621756e+00	 3.014640495586481e+00
 1.255172210600251e-01	 1.648167603787604e+00	 2.980470223926013e+00
 1.114104928127138e-01	 1.649181247293090e+00	 2.949237841184550e+00
 9.734077412902969e-02	 1.650071484800958e+00	 2.921343699364358e+00
 8.330942637484956e-02	 1.650839392086791e+00	 2.897130241199346e+00
 6.931778431291342e-02	 1.651486061330844e+00	 2.876883439981914e+00
 5.536715598048577e-02	 1.652012600413220e+00	 2.860834470030480e+00
 4.145882258562848e-02	 1.652420132212929e+00	 2.849161590013642e+00
 2.759403842175708e-02	 1.652709793911330e+00	 2.841992221264599e+00
 1.377403080014159e-02	 1.652882736300450e+00	 2.839405203201347e+00
 0.000000000000000e+00	 1.652940123096667e+00	 2.841433208218076e+00
 1.404051654385669e-01	 1.655822419390291e+00	 3.071985541296675e+00
 1.261873143148544e-01	 1.656966603524032e+00	 3.037881474447050e+00
 1.120052750991488e-01	 1.657985658523342e+00	 3.006666935916595e+00
 9.786044302836701e-02	 1.658880648702817e+00	 2.978752946191593e+00
 8.375418673628189e-02	 1.659652655581255e+00	 2.954490130414688e+00
 6.968784811150369e-02	 1.660302777169703e+00	 2.934170217162500e+00
 5.566274217448894e-02	 1.660832127262873e+00	 2.918027775312312e+00
 4.168015697325902e-02	 1.661241834734456e+00	 2.906242170652075e+00
 2.774135349750053e-02	 1.661533042836846e+00	 2.898939723780526e+00
 1.384756561070587e-02	 1.661706908505775e+00	 2.896196050854554e+00
 0.000000000000000e+00	 1.661764601670313e+00	 2.898038568964656e+00
 1.411507577216152e-01	 1.664615318244948e+00	 3.130267569177252e+00
 1.268574056712874e-01	 1.665765578329411e+00	 3.096236645194785e+00
 1.126000557005477e-01	 1.666790044807246e+00	 3.065034836944119e+00
 9.838011045546215e-02	 1.667689787644890e+00	 3.037081737079840e+00
 8.419894583768139e-02	 1.668465894104338e+00	 3.012734007172591e+00
 7.005791086166871e-02	 1.669119468027414e+00	 2.992286939551198e+00
 5.595832753105540e-02	 1.669651629123421e+00	 2.975976264774869e+00
 4.190149073380579e-02	 1.670063512260719e+00	 2.963980185800048e+00
 2.788866815586128e-02	 1.670356266762721e+00	 2.956421619806544e+00
 1.392110021292054e-02	 1.670531055708842e+00	 2.953370628649076e+00
 0.000000000000000e+00	 1.670589055240833e+00	 2.954847019124938e+00
 1.418963474698644e-01	 1.673408187202868e+00	 3.189419568347383e+00
 1.275274947496269e-01	 1.674564523217445e+00	 3.155470120869057e+00
 1.131948342799072e-01	 1.675594401155453e+00	 3.124278324249946e+00
 9.889977611589473e-02	 1.676498896635146e+00	 3.096270265016541e+00
 8.464370342709347e-02	 1.677279102661701e+00	 3.071806511208111e+00
 7.042797235379547e-02	 1.677936128907696e+00	 3.051183741443723e+00
 5.625391188278296e-02	 1.678471100997010e+00	 3.034636627252924e+00
 4.212282374193975e-02	 1.678885159792645e+00	 3.022339949131227e+00
 2.803598231343919e-02	 1.679179460689016e+00	 3.014410926681906e+00
 1.399463456516394e-02	 1.679355172909198e+00	 3.010911743209481e+00
 0.000000000000000e+00	 1.679413478807604e+00	 3.011852245347510e+00
 1.426419342608202e-01	 1.682201021281190e+00	 3.249374296653427e+00
 1.281975811701755e-01	 1.683363433201838e+00	 3.215516125290711e+00
 1.137896105002232e-01	 1.684398722578610e+00	 3.184334097435018e+00
 9.941943971524417e-02	 1.685307970681557e+00	 3.156258732542872e+00
 8.508845925256367e-02	 1.686092276259008e+00	 3.131652390502494e+00
 7.079803237827123e-02	 1.686752754814276e+00	 3.110810972137122e+00
 5.654949506226945e-02	 1.687290537885786e+00	 3.093965880698486e+00
 4.234415587233178e-02	 1.687706772331161e+00	 3.081286224195798e+00
 2.818329588683412e-02	 1.688002619615791e+00	 3.072881238299625e+00
 1.406816862581438e-02	 1.688179255106389e+00	 3.068802909576000e+00
 0.000000000000000e+00	 1.688237867370000e+00	 3.069048779004302e+00
 1.433875176719885e-01	 1.690993815497054e+00	 3.310064292184781e+00
 1.288676645532359e-01	 1.692162303296296e+00	 3.276308729125237e+00
 1.143843840244923e-01	 1.693203004087369e+00	 3.245138779751513e+00
 9.993910095909007e-02	 1.694117004792092e+00	 3.216987352208470e+00
 8.553321306213733e-02	 1.694905409901922e+00	 3.192216498286560e+00
 7.116809072548295e-02	 1.695569340750875e+00	 3.171119189623451e+00
 5.684507690211263e-02	 1.696109934791894e+00	 3.153921362717454e+00
 4.256548699965275e-02	 1.696528344877193e+00	 3.140784211966027e+00
 2.833060879264594e-02	 1.696825738543109e+00	 3.131806709843300e+00
 1.414170235325019e-02	 1.697003297299960e+00	 3.127028333325602e+00
 0.000000000000000e+00	 1.697062215927397e+00	 3.126431975898644e+00
 1.441330972808751e-01	 1.699786564867602e+00	 3.371421884534273e+00
 1.295377445191109e-01	 1.700961128514523e+00	 3.337781857452597e+00
 1.149791545157106e-01	 1.702007240692378e+00	 3.306628922078342e+00
 1.004587595530120e-01	 1.702925993974722e+00	 3.278396347063444e+00
 8.597796460385999e-02	 1.703718498596106e+00	 3.253443790176071e+00
 7.153814718581784e-02	 1.704385881721215e+00	 3.232059154506486e+00
 5.714065723491034e-02	 1.704929286717479e+00	 3.214460721415155e+00
 4.278681699857358e-02	 1.705349872431669e+00	 3.200799538778416e+00
 2.847792094747452e-02	 1.705648812471032e+00	 3.191162042998435e+00
 1.421523570584970e-02	 1.705827294489458e+00	 3.185572893243095e+00
 0.000000000000000e+00	 1.705886519479168e+00	 3.183997996596434e+00
 1.705886519479168e+00	 0.000000000000000e+00	 1.377424236411634e+01
 1.705827294489459e+00	 1.421523570584876e-02	 1.377148054458965e+01
 1.705648812471032e+00	 2.847792094747371e-02	 1.377033190442839e+01
 1.705349872431669e+00	 4.278681699857291e-02	 1.377054005931937e+01
 1.704929286717479e+00	 5.714065723490981e-02	 1.377187680202566e+01
 1.704385881721215e+00	 7.153814718581744e-02	 1.377414334316391e+01
 1.703718498596106e+00	 8.597796460385973e-02	 1.377717151448815e+01
 1.702925993974722e+00	 1.004587595530119e-01	 1.378082493266758e+01
 1.702007240692379e+00	 1.149791545157106e-01	 1.378500012129403e+01
 1.700961128514523e+00	 1.295377445191110e-01	 1.378962758864691e+01
 1.699786564867602e+00	 1.441330972808752e-01	 1.379467285851032e+01
 1.714709275570436e+00	 0.000000000000000e+00	 1.371838670926985e+01
 1.714649744272165e+00	 1.428875616361442e-02	 1.371556269120856e+01
 1.714470339154033e+00	 2.862520726952074e-02	 1.371438018209099e+01
 1.714169853012344e+00	 4.300810818478416e-02	 1.371457679109071e+01
 1.713747092050717e+00	 5.743618573424850e-02	 1.371591864874608e+01
 1.713200876592064e+00	 7.190813875230691e-02	 1.371820164444400e+01
 1.712530041796110e+00	 8.642263815292325e-02	 1.372125262727204e+01
 1.711733438381984e+00	 1.009783270182689e-01	 1.372493056839446e+01
 1.710809933355354e+00	 1.155738207063259e-01	 1.372912768285238e+01
 1.709758410739589e+00	 1.302077069777980e-01	 1.373377050847906e+01
 1.708577772310391e+00	 1.448785461426520e-01	 1.373882093937603e+01
 1.723531991670303e+00	 0.000000000000000e+00	 1.366436005561465e+01
 1.723472154064846e+00	 1.436227628832694e-02	 1.366154089828962e+01
 1.723291825851158e+00	 2.877249292428796e-02	 1.366037969673829e+01
 1.722989793614098e+00	 4.322939836835290e-02	 1.366060800140269e+01
 1.722564857414828e+00	 5.773171289448438e-02	 1.366198622614512e+01
 1.722015831506448e+00	 7.227812864217469e-02	 1.366430488167808e+01
 1.721341545055211e+00	 8.686730968682753e-02	 1.366738577330310e+01
 1.720540842866837e+00	 1.014978921288509e-01	 1.367108316128857e+01
 1.719612586117377e+00	 1.161684842018142e-01	 1.367528488196416e+01
 1.718555653088150e+00	 1.308776664000112e-01	 1.367991342739100e+01
 1.717368939904148e+00	 1.456239916257571e-01	 1.368492698121668e+01
 1.732354677776619e+00	 0.000000000000000e+00	 1.361206503881169e+01
 1.732294533865007e+00	 1.443579616324962e-02	 1.360932495170202e+01
 1.732113282558871e+00	 2.891977807859532e-02	 1.360824765974155e+01
 1.731809704231650e+00	 4.345068779993982e-02	 1.360855861908447e+01
 1.731382592802073e+00	 5.802723905039318e-02	 1.361001248820276e+01
 1.730830756453453e+00	 7.264811727457615e-02	 1.361239435644373e+01
 1.730153018358598e+00	 8.731197970936237e-02	 1.361552093791541e+01
 1.729348217409838e+00	 1.020174554734268e-01	 1.361924172921791e+01
 1.728415208953636e+00	 1.167631456759571e-01	 1.362344012928027e+01
 1.727352865529281e+00	 1.315476235448692e-01	 1.362803451934294e+01
 1.726160077611077e+00	 1.463694345748584e-01	 1.363297930086584e+01
 1.741177343887234e+00	 0.000000000000000e+00	 1.356140480059225e+01
 1.741116893670152e+00	 1.450931587164573e-02	 1.355882485093279e+01
 1.740934719273633e+00	 2.906706289926280e-02	 1.355790121218684e+01
 1.740629594859717e+00	 4.367197673020553e-02	 1.355835322745394e+01
 1.740200308204713e+00	 5.832276453675059e-02	 1.355992977694226e+01
 1.739645661422168e+00	 7.301810506866685e-02	 1.356241050077439e+01
 1.738964471691459e+00	 8.775664872431757e-02	 1.356560698822328e+01
 1.738155571991545e+00	 1.025370176406653e-01	 1.356936393209109e+01
 1.737217811839318e+00	 1.173578058025365e-01	 1.357356024668636e+01
 1.736150058032053e+00	 1.322175791714904e-01	 1.357811014762620e+01
 1.734951195393385e+00	 1.471148758346237e-01	 1.358296419142676e+01
 1.750000000000000e+00	 0.000000000000000e+00	 1.351228297538543e+01
 1.749939243477787e+00	 1.458283549677856e-02	 1.350995080093380e+01
 1.749756145991908e+00	 2.921434755311032e-02	 1.350925742216818e+01
 1.749449475493014e+00	 4.389326540981060e-02	 1.350991606728876e+01
 1.749018013615008e+00	 5.861828968833231e-02	 1.351166983131536e+01
 1.748460556401677e+00	 7.338809244360212e-02	 1.351429289220129e+01
 1.747775915038981e+00	 8.820131723548300e-02	 1.351759169456446e+01
 1.746962916592515e+00	 1.030565792192351e-01	 1.352140609995263e+01
 1.746020404749609e+00	 1.179524652553341e-01	 1.352561050230406e+01
 1.744947240565538e+00	 1.328875340389930e-01	 1.353011490702816e+01
 1.743742303213276e+00	 1.478603162497211e-01	 1.353486597186010e+01
 1.758822656112766e+00	 0.000000000000000e+00	 1.346460367732537e+01
 1.758761593285413e+00	 1.465635512191138e-02	 1.346261320419008e+01
 1.758577572710158e+00	 2.936163220695785e-02	 1.346223328214138e+01
 1.758269356126260e+00	 4.411455408941568e-02	 1.346317103969532e+01
 1.757835719025220e+00	 5.891381483991402e-02	 1.346516379582140e+01
 1.757275451381068e+00	 7.375807981853734e-02	 1.346798026836193e+01
 1.756587358386351e+00	 8.864598574664836e-02	 1.347142175134261e+01
 1.755770261193304e+00	 1.035761407978049e-01	 1.347532326030652e+01
 1.754822997659698e+00	 1.185471247081317e-01	 1.347955464454722e+01
 1.753744423098810e+00	 1.335574889064958e-01	 1.348402166487580e+01
 1.752533411032956e+00	 1.486057566648185e-01	 1.348866703527416e+01
 1.767645322223381e+00	 0.000000000000000e+00	 1.341819294228705e+01
 1.767583953090539e+00	 1.472987483030750e-02	 1.341663187259564e+01
 1.767399009424846e+00	 2.950891702762532e-02	 1.341665307502905e+01
 1.767089246754171e+00	 4.433584301968137e-02	 1.341795918712430e+01
 1.766653434427608e+00	 5.920934032627143e-02	 1.342028067895592e+01
 1.766090356349428e+00	 7.412806761262804e-02	 1.342337628454013e+01
 1.765398811718757e+00	 8.909065476160360e-02	 1.342703345266768e+01
 1.764577615774469e+00	 1.040957029650434e-01	 1.343106916469458e+01
 1.763625600544772e+00	 1.191417848347111e-01	 1.343535493526674e+01
 1.762541615600941e+00	 1.342274445331169e-01	 1.343980160099958e+01
 1.761324528814632e+00	 1.493511979245839e-01	 1.344434789596266e+01
 1.776468008329698e+00	 0.000000000000000e+00	 1.337196669913019e+01
 1.776406332890666e+00	 1.480339470523017e-02	 1.337072253118294e+01
 1.776220466132433e+00	 2.965620218193269e-02	 1.337105048952215e+01
 1.775909157371466e+00	 4.455713245126831e-02	 1.337265880848845e+01
 1.775471169814435e+00	 5.950486648218025e-02	 1.337528328409474e+01
 1.774905281295844e+00	 7.449805624502953e-02	 1.337868768548842e+01
 1.774210285021387e+00	 8.953532478413845e-02	 1.338266418667000e+01
 1.773384990316567e+00	 1.046152663096193e-01	 1.338703382063012e+01
 1.772428223380018e+00	 1.197364463088540e-01	 1.339164695802097e+01
 1.771338828041004e+00	 1.348974016779749e-01	 1.339638381247372e+01
 1.770115666520508e+00	 1.500966408736851e-01	 1.340115497465832e+01
 1.785290724429565e+00	 0.000000000000000e+00	 1.332561865163065e+01
 1.785228742683300e+00	 1.487691482994270e-02	 1.332451286150945e+01
 1.785041952829383e+00	 2.980348783669991e-02	 1.332496725489895e+01
 1.784729097972858e+00	 4.477842263483706e-02	 1.332669571244825e+01
 1.784288935177959e+00	 5.980039364241613e-02	 1.332943940082222e+01
 1.783720236209402e+00	 7.486804613489732e-02	 1.333296716421815e+01
 1.783021788279429e+00	 8.997999631804272e-02	 1.333707593698542e+01
 1.782192394800156e+00	 1.051348314202014e-01	 1.334159117959117e+01
 1.781230876140625e+00	 1.203311098043423e-01	 1.334636734013724e+01
 1.780136070388071e+00	 1.355673611001882e-01	 1.335128834362866e+01
 1.778906834112791e+00	 1.508420863567903e-01	 1.335626811117833e+01
 1.794113480520832e+00	 0.000000000000000e+00	 1.327916581241288e+01
 1.794051192465945e+00	 1.495043528770836e-02	 1.327802656981681e+01
 1.793863479512158e+00	 2.995077415874692e-02	 1.327843400431967e+01
 1.793549078553066e+00	 4.499971382104827e-02	 1.328010769865075e+01
 1.793106740510443e+00	 6.009592214175480e-02	 1.328279424096340e+01
 1.792535231079187e+00	 7.523803770138675e-02	 1.328626759639845e+01
 1.791833331478071e+00	 9.042466986710623e-02	 1.329032950061306e+01
 1.790999839205791e+00	 1.056543988854583e-01	 1.329480987760236e+01
 1.790033568801779e+00	 1.209257759949575e-01	 1.329956728410722e+01
 1.788933352611214e+00	 1.362373235588751e-01	 1.330448938289787e+01
 1.787698041553686e+00	 1.515875352185671e-01	 1.330949344720663e+01
 1.699786564867602e+00	 1.441330972808752e-01	 1.379467285851032e+01
 1.698482242744367e+00	 1.587662378511926e-01	 1.379999255593436e+01
 1.697047295072823e+00	 1.734331714959610e-01	 1.380540227556786e+01
 1.695480685924739e+00	 1.881323483433532e-01	 1.381086690036687e+01
 1.693781400053988e+00	 2.028621910608528e-01	 1.381639396250439e+01
 1.691948443648752e+00	 2.176210951024801e-01	 1.382203461513609e+01
 1.689980845083896e+00	 2.324074289780237e-01	 1.382788453384055e+01
 1.687877655672838e+00	 2.472195345445101e-01	 1.383408474221276e+01
 1.685637950418222e+00	 2.620557273201210e-01	 1.384082235563627e+01
 1.683260828760689e+00	 2.769142968207428e-01	 1.384833123678794e+01
 1.680745415325032e+00	 2.917935069193159e-01	 1.385689255594157e+01
 1.708577772310391e+00	 1.448785461426520e-01	 1.373882093937603e+01
 1.707266704300739e+00	 1.595873685525808e-01	 1.374417844102774e+01
 1.705824335154196e+00	 1.743301588129325e-01	 1.374970198043497e+01
 1.704249623584781e+00	 1.891053590360332e-01	 1.375535432488653e+01
 1.702541549095582e+00	 2.039113837314954e-01	 1.376114151599569e+01
 1.700699112734855e+00	 2.187466200547206e-01	 1.376711385995956e+01
 1.698721337852288e+00	 2.336094280775254e-01	 1.377336684945845e+01
 1.696607270854759e+00	 2.484981410811179e-01	 1.378004201170980e+01
 1.694355981960888e+00	 2.634110658716374e-01	 1.378732767671641e+01
 1.691966565953688e+00	 2.783464831184465e-01	 1.379545965925392e+01
 1.689438142930575e+00	 2.933026477153374e-01	 1.380472184762784e+01
 1.717368939904148e+00	 1.456239916257571e-01	 1.368492698121668e+01
 1.716051126038605e+00	 1.604084955322307e-01	 1.369026968034860e+01
 1.714601335450664e+00	 1.752271420643226e-01	 1.369584636196827e+01
 1.713018521496617e+00	 1.900783653185445e-01	 1.370161851033195e+01
 1.711301658428788e+00	 2.049605716466695e-01	 1.370759142967480e+01
 1.709449742155527e+00	 2.198721399055145e-01	 1.371381525053606e+01
 1.707461791001365e+00	 2.348114217289573e-01	 1.372038586987698e+01
 1.705336846466656e+00	 2.497767418224219e-01	 1.372744581955170e+01
 1.703073973986022e+00	 2.647663982800406e-01	 1.373518505719506e+01
 1.700672263684863e+00	 2.797786629246871e-01	 1.374384167307214e+01
 1.698130831133237e+00	 2.948117816710418e-01	 1.375370250589413e+01
 1.726160077611077e+00	 1.463694345748584e-01	 1.363297930086584e+01
 1.724835517912544e+00	 1.612296197205770e-01	 1.363826440886704e+01
 1.723378305908415e+00	 1.761241222665267e-01	 1.364384232638563e+01
 1.721787389597272e+00	 1.910513682934287e-01	 1.364967407334753e+01
 1.720061737980688e+00	 2.060097559952411e-01	 1.365576495517605e+01
 1.718200341827125e+00	 2.209976559302208e-01	 1.366216558275783e+01
 1.716202214435967e+00	 2.360134112943326e-01	 1.366897282854450e+01
 1.714066392401066e+00	 2.510553382172411e-01	 1.367633071340892e+01
 1.711791936373050e+00	 2.661217260810984e-01	 1.368443121835358e+01
 1.709377931819725e+00	 2.812108378623158e-01	 1.369351501462457e+01
 1.706823489783799e+00	 2.963209104964882e-01	 1.370387210521873e+01
 1.734951195393385e+00	 1.471148758346237e-01	 1.358296419142676e+01
 1.733619889877132e+00	 1.620507420480541e-01	 1.358815854794499e+01
 1.732155256473636e+00	 1.770211004359399e-01	 1.359369441424422e+01
 1.730556237823766e+00	 1.920243690632273e-01	 1.359953315091579e+01
 1.728821797678364e+00	 2.070589379660760e-01	 1.360568078870292e+01
 1.726950921666006e+00	 2.221231694041990e-01	 1.361218905968215e+01
 1.724942618060941e+00	 2.372153981356642e-01	 1.361915636712142e+01
 1.722795918550523e+00	 2.523339317143948e-01	 1.362672868870076e+01
 1.720509879001397e+00	 2.674770508105788e-01	 1.363510040723814e+01
 1.718083580223781e+00	 2.826430095541833e-01	 1.364451506249281e+01
 1.715516128733043e+00	 2.978300359017357e-01	 1.365526601702407e+01
 1.743742303213276e+00	 1.478603162497211e-01	 1.353486597186010e+01
 1.742404251886952e+00	 1.628718634450967e-01	 1.353994586224699e+01
 1.740932197092512e+00	 1.779180775889574e-01	 1.354540486420423e+01
 1.739325076113126e+00	 1.929973687304822e-01	 1.355120547049584e+01
 1.737581847448898e+00	 2.081081187480401e-01	 1.355735514705434e+01
 1.735701491588527e+00	 2.232486816028079e-01	 1.356390737295280e+01
 1.733683011781130e+00	 2.384173836149654e-01	 1.357096262179600e+01
 1.731525434807559e+00	 2.536125237627017e-01	 1.357866927929579e+01
 1.729227811750488e+00	 2.688323740042501e-01	 1.358722449122769e+01
 1.726789218762543e+00	 2.840751796231408e-01	 1.359687493536951e+01
 1.724208757831753e+00	 2.993391595968430e-01	 1.360791751039971e+01
 1.752533411032956e+00	 1.486057566648185e-01	 1.348866703527416e+01
 1.751188613896581e+00	 1.636929848421391e-01	 1.349361801518469e+01
 1.749709137711230e+00	 1.788150547419742e-01	 1.349897367517603e+01
 1.748093914402372e+00	 1.939703683977349e-01	 1.350469841841551e+01
 1.746341897219373e+00	 2.091572995299990e-01	 1.351080184179660e+01
 1.744452061511046e+00	 2.243741938014068e-01	 1.351733978227748e+01
 1.742423405501375e+00	 2.396193690942492e-01	 1.352441530758630e+01
 1.740254951064713e+00	 2.548911158109811e-01	 1.353217964615060e+01
 1.737945744499749e+00	 2.701876971978801e-01	 1.354083305051374e+01
 1.735494857301518e+00	 2.855073496920395e-01	 1.355062558787535e+01
 1.732901386930710e+00	 3.008482832918692e-01	 1.356185785074549e+01
 1.761324528814632e+00	 1.493511979245839e-01	 1.344434789596266e+01
 1.759972985860596e+00	 1.645141071696161e-01	 1.344916462294534e+01
 1.758486088275977e+00	 1.797120329113855e-01	 1.345439866690882e+01
 1.756862762628529e+00	 1.949433691675272e-01	 1.346001710657966e+01
 1.755101956916870e+00	 2.102064815008186e-01	 1.346603235164509e+01
 1.753202641349922e+00	 2.254997072753549e-01	 1.347250319302991e+01
 1.751163809126523e+00	 2.408213559355289e-01	 1.347953580070127e+01
 1.748984477214517e+00	 2.561697093080520e-01	 1.348728466396138e+01
 1.746663687128603e+00	 2.715430219272368e-01	 1.349595346856611e+01
 1.744200505706216e+00	 2.869395213837301e-01	 1.350579590435663e+01
 1.741594025880697e+00	 3.023574086968733e-01	 1.351711639640966e+01
 1.770115666520508e+00	 1.500966408736851e-01	 1.340115497465832e+01
 1.768757377733578e+00	 1.653352313579620e-01	 1.340614093167298e+01
 1.767263058732940e+00	 1.806090131135865e-01	 1.341149500733330e+01
 1.765631630728619e+00	 1.959163721424007e-01	 1.341713973677502e+01
 1.763862036468471e+00	 2.112556658493647e-01	 1.342305589312002e+01
 1.761953241021510e+00	 2.266252233000113e-01	 1.342941223204245e+01
 1.759904232561414e+00	 2.420233455008174e-01	 1.343634321902897e+01
 1.757714023149506e+00	 2.574483057027334e-01	 1.344400700589800e+01
 1.755381649516477e+00	 2.728983497280881e-01	 1.345261102065742e+01
 1.752906173842148e+00	 2.883716963210640e-01	 1.346241279073528e+01
 1.750286684532495e+00	 3.038665375219142e-01	 1.347372069339458e+01
 1.778906834112791e+00	 1.508420863567903e-01	 1.335626811117833e+01
 1.777541799470105e+00	 1.661563583376114e-01	 1.336153245443140e+01
 1.776040059028305e+00	 1.815059963649723e-01	 1.336728462022223e+01
 1.774400528639666e+00	 1.968893784248969e-01	 1.337345664599811e+01
 1.772622145801259e+00	 2.123048537645031e-01	 1.338001671022542e+01
 1.770703870442168e+00	 2.277507431507352e-01	 1.338697001654113e+01
 1.768644685710895e+00	 2.432253391521282e-01	 1.339435971859755e+01
 1.766443598762214e+00	 2.587269064438442e-01	 1.340226788698310e+01
 1.764099641542794e+00	 2.742536821362022e-01	 1.341082896051454e+01
 1.761611871574821e+00	 2.898038761268918e-01	 1.342050126448151e+01
 1.758979372736888e+00	 3.053756714770509e-01	 1.343169656819781e+01
 1.787698041553686e+00	 1.515875352185671e-01	 1.330949344720663e+01
 1.786326261024755e+00	 1.669774890389988e-01	 1.331484720076276e+01
 1.784817099108259e+00	 1.824029836819379e-01	 1.332080101846111e+01
 1.783169466298693e+00	 1.978623891175576e-01	 1.332729723676914e+01
 1.781382294842314e+00	 2.133540464350997e-01	 1.333431351360276e+01
 1.779454539528256e+00	 2.288762681028857e-01	 1.334186368683779e+01
 1.777385178479808e+00	 2.444273382514740e-01	 1.334999867532103e+01
 1.775173213945176e+00	 2.600055129802037e-01	 1.335880742388134e+01
 1.772817673086980e+00	 2.756090206873468e-01	 1.336841789371514e+01
 1.770317608769745e+00	 2.912360624240647e-01	 1.337899809938262e+01
 1.767672100344656e+00	 3.068848122723423e-01	 1.339075719349770e+01
 1.680745415325032e+00	 2.917935069193159e-01	 1.385689255594157e+01
 1.678091323547173e+00	 3.066890629883703e-01	 1.386551730802537e+01
 1.675297314201602e+00	 3.216017105091277e-01	 1.387314480825572e+01
 1.672362591010333e+00	 3.365296438031375e-01	 1.388001089042589e+01
 1.669286385782073e+00	 3.514710333124996e-01	 1.388639299297490e+01
 1.666067959132822e+00	 3.664240260737297e-01	 1.389261021699888e+01
 1.662706601199298e+00	 3.813867462147712e-01	 1.389902324838148e+01
 1.659201632344353e+00	 3.963572954751306e-01	 1.390603413371853e+01
 1.655552403853629e+00	 4.113337537490910e-01	 1.391408589923534e+01
 1.651758298622600e+00	 4.263141796519203e-01	 1.392366200144076e+01
 1.647818731833210e+00	 4.412966111089680e-01	 1.393528559784310e+01
 1.689438142930575e+00	 2.933026477153374e-01	 1.380472184762784e+01
 1.686770324328197e+00	 3.082752428232585e-01	 1.381407889338409e+01
 1.683961864511827e+00	 3.232650177790162e-01	 1.382241176033794e+01
 1.681011963085166e+00	 3.382701575652768e-01	 1.382994202928970e+01
 1.677919847883867e+00	 3.532888231617539e-01	 1.383693404119356e+01
 1.674684775699870e+00	 3.683191520215244e-01	 1.384369502380949e+01
 1.671306032998505e+00	 3.833592585706100e-01	 1.385057508398934e+01
 1.667782936627572e+00	 3.984072347308051e-01	 1.385796705498956e+01
 1.664114834517587e+00	 4.134611504656967e-01	 1.386630618768528e+01
 1.660301106372383e+00	 4.285190543498037e-01	 1.387606967407531e+01
 1.656341164349248e+00	 4.435789741607188e-01	 1.388777599101141e+01
 1.698130831133237e+00	 2.948117816710418e-01	 1.375370250589413e+01
 1.695449285768520e+00	 3.098614154685692e-01	 1.376368966029826e+01
 1.692626375546808e+00	 3.249283175096468e-01	 1.377263132117181e+01
 1.689661295953505e+00	 3.400106634381059e-01	 1.378073759093009e+01
 1.686553270851235e+00	 3.551066047713227e-01	 1.378826234261607e+01
 1.683301553207896e+00	 3.702142693789844e-01	 1.379550341048062e+01
 1.679905425817454e+00	 3.853317619852417e-01	 1.380280264794236e+01
 1.676364202012672e+00	 4.004571646942260e-01	 1.381054584203891e+01
 1.672677226368962e+00	 4.155885375388806e-01	 1.381916247293034e+01
 1.668843875398534e+00	 4.307239190530262e-01	 1.382912530649353e+01
 1.664863558234037e+00	 4.458613268665516e-01	 1.384094980755376e+01
 1.706823489783799e+00	 2.963209104964882e-01	 1.370387210521873e+01
 1.704128217703386e+00	 3.114475827216699e-01	 1.371438520364657e+01
 1.701290857125424e+00	 3.265916115857996e-01	 1.372383461557428e+01
 1.698310599417042e+00	 3.417511633939107e-01	 1.373242167293802e+01
 1.695186664467848e+00	 3.569243802010779e-01	 1.374039234373857e+01
 1.691918301421715e+00	 3.721093802936368e-01	 1.374803748193742e+01
 1.688504789401261e+00	 3.873042586939051e-01	 1.375569294671026e+01
 1.684945438224232e+00	 4.025070876883903e-01	 1.376373957989787e+01
 1.681239589110945e+00	 4.177159173794298e-01	 1.377260302990765e+01
 1.677386615382003e+00	 4.329287762601861e-01	 1.378275340975737e+01
 1.673385923145432e+00	 4.481436718128828e-01	 1.379470477642561e+01
 1.715516128733043e+00	 2.978300359017357e-01	 1.365526601702407e+01
 1.712807129968037e+00	 3.130337463799280e-01	 1.366619912071588e+01
 1.709955319066555e+00	 3.282549018922546e-01	 1.367605103999712e+01
 1.706959883277467e+00	 3.434916594049757e-01	 1.368501697819995e+01
 1.703820038517378e+00	 3.587421515108909e-01	 1.369333749506215e+01
 1.700535030106145e+00	 3.740044869130089e-01	 1.370129881142264e+01
 1.697104133495052e+00	 3.892767509318406e-01	 1.370923298549230e+01
 1.693526654986833e+00	 4.045570060362953e-01	 1.371751794927571e+01
 1.689801932446728e+00	 4.198432923981320e-01	 1.372657739309450e+01
 1.685929336003742e+00	 4.351336284698814e-01	 1.373688048556290e+01
 1.681908268741285e+00	 4.504260115861295e-01	 1.374894141580075e+01
 1.724208757831753e+00	 2.993391595968430e-01	 1.360791751039971e+01
 1.721486032397711e+00	 3.146199082407106e-01	 1.361916311387750e+01
 1.718619771189080e+00	 3.299181903137919e-01	 1.362930836595742e+01
 1.715609157336470e+00	 3.452321534435868e-01	 1.363854491785257e+01
 1.712453402783494e+00	 3.605599207606334e-01	 1.364711035230941e+01
 1.709151749026000e+00	 3.758995913846277e-01	 1.365528853868261e+01
 1.705703467843944e+00	 3.912492409342873e-01	 1.366340986205034e+01
 1.702107862025056e+00	 4.066069220609381e-01	 1.367185131468662e+01
 1.698364266079504e+00	 4.219706650057746e-01	 1.368103643754653e+01
 1.694472046944702e+00	 4.373384781807103e-01	 1.369143509877768e+01
 1.690430604679450e+00	 4.527083487727079e-01	 1.370356309566722e+01
 1.732901386930710e+00	 3.008482832918692e-01	 1.356185785074549e+01
 1.730164934827652e+00	 3.162060701013855e-01	 1.357330709122946e+01
 1.727284223311878e+00	 3.315814787351915e-01	 1.358363284152091e+01
 1.724258431395744e+00	 3.469726474820292e-01	 1.359302571241849e+01
 1.721086767049868e+00	 3.623776900101769e-01	 1.360172267599346e+01
 1.717768467946097e+00	 3.777946958560200e-01	 1.361000746672087e+01
 1.714302802193058e+00	 3.932217309364849e-01	 1.361821085936761e+01
 1.710689069063482e+00	 4.086568380853161e-01	 1.362671081170562e+01
 1.706926599712465e+00	 4.240980376131451e-01	 1.363593245941394e+01
 1.703014757885835e+00	 4.395433278912708e-01	 1.364634794985176e+01
 1.698952940617783e+00	 4.549906859590346e-01	 1.365847610073939e+01
 1.741594025880697e+00	 3.023574086968733e-01	 1.351711639640966e+01
 1.738843847093102e+00	 3.177922337593199e-01	 1.352865926527818e+01
 1.735948685253829e+00	 3.332447690412335e-01	 1.353904929090862e+01
 1.732907715256979e+00	 3.487131434925884e-01	 1.354847849118919e+01
 1.729720141100172e+00	 3.641954613193933e-01	 1.355718552939983e+01
 1.726385196631251e+00	 3.796898024747132e-01	 1.356545615717110e+01
 1.722902146287515e+00	 3.951942231736733e-01	 1.357362353717716e+01
 1.719270285826692e+00	 4.107067564324263e-01	 1.358206843338786e+01
 1.715488943048805e+00	 4.262254126310313e-01	 1.359121925595823e+01
 1.711557478508091e+00	 4.417481801001611e-01	 1.360155194711120e+01
 1.707475286214137e+00	 4.572730257315262e-01	 1.361358969367997e+01
 1.750286684532495e+00	 3.038665375219142e-01	 1.347372069339458e+01
 1.747522779029300e+00	 3.193784010118813e-01	 1.348524624973010e+01
 1.744613166833812e+00	 3.349080631166978e-01	 1.349558121229445e+01
 1.741557018721864e+00	 3.504536434475494e-01	 1.350492138991953e+01
 1.738353534718078e+00	 3.660132367481540e-01	 1.351350937503921e+01
 1.735001944846279e+00	 3.815849133882341e-01	 1.352163502434223e+01
 1.731501509872435e+00	 3.971667198810918e-01	 1.352963582240404e+01
 1.727851522039264e+00	 4.127566794252661e-01	 1.353789711588445e+01
 1.724051305791712e+00	 4.283527924702203e-01	 1.354685220509148e+01
 1.720100218492421e+00	 4.439530373059796e-01	 1.355698227894273e+01
 1.715997651126365e+00	 4.595553706765994e-01	 1.356881617862581e+01
 1.758979372736888e+00	 3.053756714770509e-01	 1.343169656819781e+01
 1.756201740471491e+00	 3.209645736564372e-01	 1.344309315446115e+01
 1.753277677870706e+00	 3.365713628463647e-01	 1.345325087385910e+01
 1.750206351592092e+00	 3.521941493191978e-01	 1.346237164689488e+01
 1.746986957687255e+00	 3.678310183563307e-01	 1.347070416962808e+01
 1.743618722355998e+00	 3.834800307441098e-01	 1.347854442798452e+01
 1.740100902692939e+00	 3.991392232939802e-01	 1.348623609856130e+01
 1.736432787425782e+00	 4.148066093868323e-01	 1.349417082328662e+01
 1.732613697644382e+00	 4.304801795414998e-01	 1.350278834445852e+01
 1.728642987519778e+00	 4.461579020073241e-01	 1.351257648587814e+01
 1.724520045012323e+00	 4.618377233806708e-01	 1.352407096501170e+01
 1.767672100344656e+00	 3.068848122723423e-01	 1.339075719349770e+01
 1.764880741254913e+00	 3.225507534903543e-01	 1.340222257349080e+01
 1.761942228183390e+00	 3.382346701150138e-01	 1.341207940816384e+01
 1.758855723669352e+00	 3.539346630798190e-01	 1.342084569742994e+01
 1.755620419791376e+00	 3.696488082037950e-01	 1.342877945765045e+01
 1.752235538925222e+00	 3.853751566898675e-01	 1.343618476482401e+01
 1.748700334494149e+00	 4.011117356475780e-01	 1.344341329414097e+01
 1.745014091710825e+00	 4.168565486401224e-01	 1.345086463172841e+01
 1.741176128310005e+00	 4.326075762556573e-01	 1.345898645008249e+01
 1.737185795271111e+00	 4.483627767027928e-01	 1.346827453258593e+01
 1.733042477529863e+00	 4.641200864301568e-01	 1.347927263168683e+01
 1.647818731833210e+00	 4.412966111089680e-01	 1.393528559784310e+01
 1.643733151977962e+00	 4.562790661767426e-01	 1.394574024688714e+01
 1.639501042591871e+00	 4.712595443241352e-01	 1.395197744585960e+01
 1.635121921820524e+00	 4.862360264949822e-01	 1.395484198663230e+01
 1.630595342686944e+00	 5.012064755825806e-01	 1.395523138521939e+01
 1.625920893701830e+00	 5.161688371304689e-01	 1.395409409324859e+01
 1.621098199458452e+00	 5.311210400547071e-01	 1.395242743142728e+01
 1.616126921211349e+00	 5.460609973873246e-01	 1.395127523147020e+01
 1.611006757438059e+00	 5.609866070405668e-01	 1.395172517308160e+01
 1.605737444383062e+00	 5.758957525915405e-01	 1.395490580280909e+01
 1.600318756583150e+00	 5.907863040868249e-01	 1.396162160839683e+01
 1.656341164349248e+00	 4.435789741607188e-01	 1.388777599101141e+01
 1.652234454088311e+00	 4.586389177044359e-01	 1.389831731065748e+01
 1.647980456453456e+00	 4.736968741032095e-01	 1.390478164263866e+01
 1.643578687098146e+00	 4.887508138584320e-01	 1.390805365978144e+01
 1.639028696733660e+00	 5.037986893275994e-01	 1.390907274951623e+01
 1.634330071742502e+00	 5.188384354287178e-01	 1.390883124032220e+01
 1.629482434776356e+00	 5.338679703663182e-01	 1.390837234615311e+01
 1.624485445337789e+00	 5.488851963787497e-01	 1.390878781476191e+01
 1.619338800344882e+00	 5.638880005063789e-01	 1.391121526594724e+01
 1.614042234677985e+00	 5.788742553802928e-01	 1.391683520595221e+01
 1.608595521707807e+00	 5.938418200310728e-01	 1.392516968406880e+01
 1.664863558234037e+00	 4.458613268665516e-01	 1.384094980755376e+01
 1.660735717663242e+00	 4.609987585349868e-01	 1.385163751626680e+01
 1.656459831878910e+00	 4.761341928339932e-01	 1.385840839001897e+01
 1.652035414042385e+00	 4.912655898225607e-01	 1.386218072035868e+01
 1.647462012553212e+00	 5.063908913224280e-01	 1.386392975131125e+01
 1.642739211665698e+00	 5.215080216261104e-01	 1.386468593553997e+01
 1.637866632089948e+00	 5.366148882266542e-01	 1.386553290444344e+01
 1.632843931576560e+00	 5.517093825687712e-01	 1.386760513752108e+01
 1.627670805484157e+00	 5.667893808209925e-01	 1.387208531642270e+01
 1.622346987328963e+00	 5.818527446684303e-01	 1.388020134928450e+01
 1.616872249315604e+00	 5.968973221257119e-01	 1.388924846879435e+01
 1.673385923145432e+00	 4.481436718128828e-01	 1.379470477642561e+01
 1.669236952336652e+00	 4.633585913426253e-01	 1.380557237749026e+01
 1.664939178477311e+00	 4.785715032785140e-01	 1.381270723105910e+01
 1.660492112236637e+00	 4.937803572371674e-01	 1.381705505779160e+01
 1.655895299702445e+00	 5.089830845045967e-01	 1.381962101332515e+01
 1.651148323000847e+00	 5.241775987478600e-01	 1.382146798889535e+01
 1.646250800900371e+00	 5.393617967485482e-01	 1.382371462182272e+01
 1.641202389399645e+00	 5.545335591577688e-01	 1.382753300057488e+01
 1.636002782297841e+00	 5.696907512722504e-01	 1.383414604917371e+01
 1.630651711747051e+00	 5.848312238311610e-01	 1.384482457588370e+01
 1.625148948785818e+00	 5.999528138332071e-01	 1.385374078001610e+01
 1.681908268741285e+00	 4.504260115861295e-01	 1.374894141580075e+01
 1.677738167742438e+00	 4.657184188015822e-01	 1.375999698964509e+01
 1.673418505857737e+00	 4.810088081988005e-01	 1.376753200079052e+01
 1.668948791264298e+00	 4.962951189520506e-01	 1.377251347942246e+01
 1.664328567738204e+00	 5.115752718116370e-01	 1.377597061507081e+01
 1.659557415277376e+00	 5.268471698191787e-01	 1.377899311643639e+01
 1.654634950708765e+00	 5.421086990448331e-01	 1.378272927699505e+01
 1.649560828279031e+00	 5.573577293461230e-01	 1.378838373042687e+01
 1.644334740227887e+00	 5.725921151479938e-01	 1.379721487995697e+01
 1.638956417343301e+00	 5.878096962436918e-01	 1.381053198583722e+01
 1.633425629497728e+00	 6.030082986160218e-01	 1.381853703547992e+01
 1.690430604679450e+00	 4.527083487727079e-01	 1.370356309566722e+01
 1.686239373514498e+00	 4.680782435860881e-01	 1.371479008264112e+01
 1.681897823629267e+00	 4.834461103568807e-01	 1.372274087200224e+01
 1.677405460708763e+00	 4.988098778170094e-01	 1.372839775134838e+01
 1.672761826217336e+00	 5.141674561810792e-01	 1.373280813111055e+01
 1.667966498024715e+00	 5.295167378652795e-01	 1.373708297834093e+01
 1.663019091016273e+00	 5.448555982283418e-01	 1.374239495217485e+01
 1.657919257686699e+00	 5.601818963342132e-01	 1.374997622431794e+01
 1.652666688716252e+00	 5.754934757360649e-01	 1.376111596792034e+01
 1.647261113528766e+00	 5.907881652812301e-01	 1.377682745874514e+01
 1.641702300830611e+00	 6.060637799366203e-01	 1.378353510885688e+01
 1.698952940617783e+00	 4.549906859590346e-01	 1.365847610073939e+01
 1.694740579286728e+00	 4.704380683703731e-01	 1.366983407478070e+01
 1.690377141400980e+00	 4.858834125147833e-01	 1.367819640214218e+01
 1.685862130153426e+00	 5.013246366818425e-01	 1.368455464067738e+01
 1.681195084696685e+00	 5.167596405504542e-01	 1.368996867095944e+01
 1.676375580772290e+00	 5.321863059113747e-01	 1.369556521879664e+01
 1.671403231324035e+00	 5.476024974119074e-01	 1.370253607531046e+01
 1.666277687094635e+00	 5.630060633224198e-01	 1.371213599719360e+01
 1.660998637204889e+00	 5.783948363243064e-01	 1.372568026974690e+01
 1.655565809714499e+00	 5.937666343189831e-01	 1.374303917111741e+01
 1.649978972163745e+00	 6.091192612574668e-01	 1.374864018688175e+01
 1.707475286214137e+00	 4.572730257315262e-01	 1.361358969367997e+01
 1.703241794693026e+00	 4.727978958286677e-01	 1.362501512728767e+01
 1.698856468781952e+00	 4.883207174345360e-01	 1.363376558130164e+01
 1.694318809181683e+00	 5.038393983963487e-01	 1.364083595915668e+01
 1.689628352733099e+00	 5.193518278572928e-01	 1.364729292058315e+01
 1.684784673049533e+00	 5.348558769826773e-01	 1.365427350763041e+01
 1.679787381133194e+00	 5.503493997083625e-01	 1.366298346414073e+01
 1.674636125974823e+00	 5.658302335111224e-01	 1.367469523051781e+01
 1.669330595135754e+00	 5.812962002005597e-01	 1.369074559558782e+01
 1.663870515311554e+00	 5.967451067321586e-01	 1.370905381837870e+01
 1.658255652876409e+00	 6.121747460410251e-01	 1.371376462795486e+01
 1.715997651126365e+00	 4.595553706765994e-01	 1.356881617862581e+01
 1.711743029367289e+00	 4.751577286352023e-01	 1.358022319954373e+01
 1.707335815381264e+00	 4.907580278781677e-01	 1.358931988125027e+01
 1.702775507376929e+00	 5.063541658103270e-01	 1.359709860813135e+01
 1.698061639883421e+00	 5.219440210391257e-01	 1.360462718544076e+01
 1.693193784385869e+00	 5.375254541043998e-01	 1.361304758363118e+01
 1.688171549944891e+00	 5.530963082305402e-01	 1.362357437202737e+01
 1.682994583799245e+00	 5.686544101007009e-01	 1.363749282287596e+01
 1.677662571950802e+00	 5.841975706526670e-01	 1.365615666672804e+01
 1.672175239730982e+00	 5.997235858959632e-01	 1.367477329928017e+01
 1.666532352347879e+00	 6.152302377497595e-01	 1.367882782215783e+01
 1.724520045012323e+00	 4.618377233806708e-01	 1.352407096501170e+01
 1.720244292943415e+00	 4.775175694642075e-01	 1.353535210501388e+01
 1.715815190807992e+00	 4.931953466077065e-01	 1.354473530549089e+01
 1.711232234322559e+00	 5.088689417735761e-01	 1.355320462479218e+01
 1.706494955704498e+00	 5.245362230334839e-01	 1.356182343502514e+01
 1.701602924310728e+00	 5.401950403017549e-01	 1.357173329951477e+01
 1.696555747260267e+00	 5.558432260912735e-01	 1.358415253550872e+01
 1.691353070039889e+00	 5.714785962915360e-01	 1.360037444231289e+01
 1.685994577091986e+00	 5.870989509684701e-01	 1.362176517493259e+01
 1.680479992383838e+00	 6.027020751856048e-01	 1.364010672201194e+01
 1.674809079957435e+00	 6.182857398461339e-01	 1.364375605263338e+01
 1.733042477529863e+00	 4.641200864301568e-01	 1.347927263168683e+01
 1.728745595055301e+00	 4.798774209899135e-01	 1.349029956784163e+01
 1.724294604671216e+00	 4.956326763851802e-01	 1.349989244030433e+01
 1.719688999601968e+00	 5.113837291358949e-01	 1.350902122967540e+01
 1.714928309753177e+00	 5.271284367778979e-01	 1.351873934885558e+01
 1.710012102353537e+00	 5.428646385999550e-01	 1.353018266848071e+01
 1.704939982580465e+00	 5.585901564033950e-01	 1.354456822352261e+01
 1.699711594168736e+00	 5.743027952840064e-01	 1.356319258035285e+01
 1.694326620001263e+00	 5.900003444358111e-01	 1.358728646777069e+01
 1.688784782681174e+00	 6.056805779762906e-01	 1.360497026437183e+01
 1.683085845084354e+00	 6.213412557926126e-01	 1.360848235828246e+01
 1.600318756583150e+00	 5.907863040868249e-01	 1.396162160839683e+01
 1.594749547809442e+00	 6.056586448851704e-01	 1.396505995746888e+01
 1.589030578234766e+00	 6.205080855838191e-01	 1.396512901172697e+01
 1.583161739102190e+00	 6.353324588153144e-01	 1.396221227361199e+01
 1.577142961876711e+00	 6.501295870550968e-01	 1.395669013216243e+01
 1.570974218667745e+00	 6.648972835192715e-01	 1.394893963085714e+01
 1.564655522628555e+00	 6.796333530791189e-01	 1.393933440671517e+01
 1.558186928331899e+00	 6.943355931916823e-01	 1.392824481367977e+01
 1.551568532121260e+00	 7.090017948457507e-01	 1.391603824269057e+01
 1.544800472436973e+00	 7.236297435225104e-01	 1.390307965009893e+01
 1.537882930116643e+00	 7.382172201701207e-01	 1.388973230520878e+01
 1.608595521707807e+00	 5.938418200310728e-01	 1.392516968406880e+01
 1.602997509277234e+00	 6.087910798001855e-01	 1.392719479796599e+01
 1.597248961490656e+00	 6.237173210315192e-01	 1.392626174239783e+01
 1.591349769028650e+00	 6.386183651480929e-01	 1.392273290923123e+01
 1.585299863001743e+00	 6.534920233632905e-01	 1.391696629124398e+01
 1.579099215375095e+00	 6.683360975832727e-01	 1.390931523296993e+01
 1.572747839369985e+00	 6.831483813262159e-01	 1.390012835884834e+01
 1.566245789841413e+00	 6.979266606577132e-01	 1.388974969228583e+01
 1.559593163631132e+00	 7.126687151416503e-01	 1.387851897860478e+01
 1.552790099895475e+00	 7.273723188058236e-01	 1.386677222408415e+01
 1.545836780407322e+00	 7.420352411215599e-01	 1.385484246240616e+01
 1.616872249315604e+00	 5.968973221257119e-01	 1.388924846879435e+01
 1.611245433358750e+00	 6.119235005170082e-01	 1.388995950234232e+01
 1.605467307494346e+00	 6.269265419329606e-01	 1.388809413329199e+01
 1.599537761840478e+00	 6.419042565871179e-01	 1.388399718411464e+01
 1.593456727153211e+00	 6.568544444308595e-01	 1.387800764818699e+01
 1.587224175253451e+00	 6.717748960604545e-01	 1.387045841488418e+01
 1.580840119430500e+00	 6.866633936410271e-01	 1.386167617820786e+01
 1.574304614821597e+00	 7.015177118467740e-01	 1.385198154317427e+01
 1.567617758766773e+00	 7.163356188167297e-01	 1.384168934353488e+01
 1.560779691138358e+00	 7.311148771253555e-01	 1.383110918362163e+01
 1.553790594644505e+00	 7.458532447671977e-01	 1.382054621619011e+01
 1.625148948785818e+00	 5.999528138332071e-01	 1.385374078001610e+01
 1.619493329400616e+00	 6.150559105852523e-01	 1.385325715128648e+01
 1.613685625558930e+00	 6.301357519247762e-01	 1.385054703083757e+01
 1.607725726816363e+00	 6.451901368558953e-01	 1.384594118171686e+01
 1.601613563574521e+00	 6.602168540680251e-01	 1.383976296469943e+01
 1.595349107510062e+00	 6.752136828475820e-01	 1.383232802881950e+01
 1.588932371980313e+00	 6.901783940066796e-01	 1.382394419185482e+01
 1.582363412404756e+00	 7.051087508281577e-01	 1.381491152563420e+01
 1.575642326621699e+00	 7.200025100262405e-01	 1.380552266037594e+01
 1.568769255219473e+00	 7.348574227220940e-01	 1.379606332146383e+01
 1.561744381841501e+00	 7.496712354335255e-01	 1.378681311112939e+01
 1.633425629497728e+00	 6.030082986160218e-01	 1.381853703547992e+01
 1.627741206749456e+00	 6.181883135545332e-01	 1.381699806171305e+01
 1.621903924997503e+00	 6.333449546435992e-01	 1.381354819636963e+01
 1.615913673234995e+00	 6.484760096779303e-01	 1.380850762343106e+01
 1.609770381509082e+00	 6.635792560850070e-01	 1.380218740937266e+01
 1.603474021352178e+00	 6.786524618414203e-01	 1.379488915026909e+01
 1.597024606189638e+00	 6.936933864063001e-01	 1.378690481545515e+01
 1.590422191723191e+00	 7.086997816711573e-01	 1.377851680329143e+01
 1.583666876289425e+00	 7.236693929254333e-01	 1.376999822390911e+01
 1.576758801192669e+00	 7.385999598370276e-01	 1.376161342299047e+01
 1.569698151011624e+00	 7.534892174470363e-01	 1.375361875967940e+01
 1.641702300830611e+00	 6.060637799366203e-01	 1.378353510885688e+01
 1.635989074751892e+00	 6.213207129744660e-01	 1.378109964669039e+01
 1.630122215123158e+00	 6.365541537260619e-01	 1.377703216924767e+01
 1.624101610375062e+00	 6.517618787767294e-01	 1.377164573376158e+01
 1.617927190200303e+00	 6.669416542920266e-01	 1.376524242375817e+01
 1.611598925987050e+00	 6.820912369387343e-01	 1.375811294381244e+01
 1.605116831228692e+00	 6.972083748230155e-01	 1.375053641764601e+01
 1.598480961909206e+00	 7.122908084450653e-01	 1.374278040582974e+01
 1.591691416863465e+00	 7.273362716695597e-01	 1.373510115866607e+01
 1.584748338111799e+00	 7.423424927111454e-01	 1.372774411898976e+01
 1.577651911168186e+00	 7.573071951342214e-01	 1.372094468864083e+01
 1.649978972163745e+00	 6.091192612574668e-01	 1.374864018688175e+01
 1.644236942754549e+00	 6.244531123946657e-01	 1.374548627664193e+01
 1.638340505248992e+00	 6.397633528087979e-01	 1.374094013103755e+01
 1.632289547515254e+00	 6.550477478757979e-01	 1.373531110638731e+01
 1.626083998891588e+00	 6.703040524993036e-01	 1.372889558919779e+01
 1.619723830621925e+00	 6.855300120362899e-01	 1.372197652958214e+01
 1.613209056267688e+00	 7.007233632399521e-01	 1.371482318499304e+01
 1.606539732095105e+00	 7.158818352191755e-01	 1.370769109127920e+01
 1.599715957437335e+00	 7.310031504138707e-01	 1.370082227737448e+01
 1.592737875030714e+00	 7.460850255854347e-01	 1.369444573907456e+01
 1.585605671324500e+00	 7.611251728215738e-01	 1.368877818634851e+01
 1.658255652876409e+00	 6.121747460410251e-01	 1.371376462795486e+01
 1.652484820104049e+00	 6.275855153647469e-01	 1.371008914177643e+01
 1.646558804688096e+00	 6.429725555284406e-01	 1.370521977072085e+01
 1.640477493934259e+00	 6.583336206986412e-01	 1.369946557108595e+01
 1.634240816826348e+00	 6.736664545170594e-01	 1.369312049438177e+01
 1.627848744464055e+00	 6.889687910308514e-01	 1.368646285036056e+01
 1.621301290476840e+00	 7.042383556402374e-01	 1.367975498751704e+01
 1.614598511413189e+00	 7.194728660627809e-01	 1.367324320885001e+01
 1.607740507104548e+00	 7.346700333136170e-01	 1.366715793996320e+01
 1.600727421003264e+00	 7.498275627008844e-01	 1.366171416571088e+01
 1.593559440493879e+00	 7.649431548355849e-01	 1.365711215056239e+01
 1.666532352347879e+00	 6.152302377497595e-01	 1.367882782215783e+01
 1.660732716147017e+00	 6.307179254343253e-01	 1.367484611570450e+01
 1.654777122753566e+00	 6.461817655216219e-01	 1.366982515089594e+01
 1.648665458910769e+00	 6.616195009687654e-01	 1.366407706148711e+01
 1.642397653247990e+00	 6.770288641555141e-01	 1.365789660360825e+01
 1.635973676720688e+00	 6.924075778191846e-01	 1.365156053928519e+01
 1.629393543026364e+00	 7.077533560069982e-01	 1.364532724477034e+01
 1.622657308995762e+00	 7.230639050451743e-01	 1.363943656229252e+01
 1.615765074958621e+00	 7.383369245240503e-01	 1.363410991310686e+01
 1.608716985083301e+00	 7.535701082984831e-01	 1.362955068883564e+01
 1.601513227689634e+00	 7.687611455027475e-01	 1.362594493703617e+01
 1.674809079957435e+00	 6.182857398461339e-01	 1.364375605263338e+01
 1.668980640230075e+00	 6.338503461530152e-01	 1.363970162020027e+01
 1.662995468758496e+00	 6.493909864249758e-01	 1.363471657493600e+01
 1.656853451723470e+00	 6.649053924096762e-01	 1.362911948362687e+01
 1.650554517399921e+00	 6.803912852248885e-01	 1.362320912571981e+01
 1.644098636599075e+00	 6.958463762980542e-01	 1.361726378813946e+01
 1.637485823086475e+00	 7.112683683233613e-01	 1.361154079244201e+01
 1.630716133975127e+00	 7.266549562356488e-01	 1.360627627376443e+01
 1.623789670093067e+00	 7.420038282004217e-01	 1.360168523028995e+01
 1.616706576324676e+00	 7.573126666192189e-01	 1.359796186104186e+01
 1.609467041925078e+00	 7.725791491495535e-01	 1.359528020873769e+01
 1.683085845084354e+00	 6.213412557926126e-01	 1.360848235828245e+01
 1.677228601699849e+00	 6.369827810704320e-01	 1.360460649106878e+01
 1.671213852015979e+00	 6.526002218751347e-01	 1.359986045507084e+01
 1.665041481651053e+00	 6.681912987448789e-01	 1.359457258527493e+01
 1.658711418525549e+00	 6.837537215354029e-01	 1.358904888369302e+01
 1.652223633306464e+00	 6.992851903642255e-01	 1.358357221620946e+01
 1.645578139827386e+00	 7.147833965724529e-01	 1.357840174947372e+01
 1.638774995483586e+00	 7.302460237034971e-01	 1.357377264818587e+01
 1.631814301601403e+00	 7.456707484979819e-01	 1.356989605237096e+01
 1.624696203781240e+00	 7.610552419040804e-01	 1.356695935331067e+01
 1.617420892213523e+00	 7.763971701024949e-01	 1.356512678569692e+01
 1.537882930116643e+00	 7.382172201701207e-01	 1.388973230520878e+01
 1.530817342383143e+00	 7.527595334762179e-01	 1.387537821208321e+01
 1.523602811473945e+00	 7.672569418828201e-01	 1.385913264018637e+01
 1.516239645717194e+00	 7.817072190453502e-01	 1.384094698164024e+01
 1.508728196747882e+00	 7.961081380806593e-01	 1.382075037312933e+01
 1.501068859672164e+00	 8.104574725985342e-01	 1.379845198397384e+01
 1.493262073202777e+00	 8.247529977420973e-01	 1.377394360302566e+01
 1.485308319765139e+00	 8.389924912361780e-01	 1.374710252568937e+01
 1.477208125573723e+00	 8.531737344426989e-01	 1.371779474052960e+01
 1.468962060678353e+00	 8.672945134221165e-01	 1.368587841300533e+01
 1.460570738980083e+00	 8.813526199999246e-01	 1.365120766187400e+01
 1.545836780407322e+00	 7.420352411215599e-01	 1.385484246240616e+01
 1.538734649822780e+00	 7.566527665132639e-01	 1.384191352190389e+01
 1.531482805736143e+00	 7.712251547596105e-01	 1.382693803770225e+01
 1.524081558070217e+00	 7.857501680014974e-01	 1.380988862270343e+01
 1.516531260278639e+00	 8.002255678384668e-01	 1.379071544832179e+01
 1.508832309511039e+00	 8.146491163655438e-01	 1.376934853571466e+01
 1.500985146749157e+00	 8.290185772190212e-01	 1.374570035467279e+01
 1.492990256913498e+00	 8.433317166302503e-01	 1.371966873180489e+01
 1.484848168940095e+00	 8.575863044864871e-01	 1.369114006775950e+01
 1.476559455827043e+00	 8.717801153978217e-01	 1.365999286125051e+01
 1.468124734650470e+00	 8.859109297691988e-01	 1.362610153559540e+01
 1.553790594644505e+00	 7.458532447671977e-01	 1.382054621619011e+01
 1.546651921374522e+00	 7.605459819035407e-01	 1.380899371272658e+01
 1.539362764279550e+00	 7.751933496497118e-01	 1.379524693549821e+01
 1.531923434877050e+00	 7.897930986321384e-01	 1.377929843299314e+01
 1.524334288439294e+00	 8.043429789331048e-01	 1.376111815167298e+01
 1.516595724159373e+00	 8.188407411329298e-01	 1.374065573128191e+01
 1.508708185288027e+00	 8.332841373611287e-01	 1.371784311686080e+01
 1.500672159240829e+00	 8.476709223556291e-01	 1.369259748944654e+01
 1.492488177675361e+00	 8.619988545290729e-01	 1.366482451549093e+01
 1.484156816537980e+00	 8.762656970412377e-01	 1.363442191300035e+01
 1.475678696079867e+00	 8.904692188765717e-01	 1.360128333027930e+01
 1.561744381841501e+00	 7.496712354335255e-01	 1.378681311112939e+01
 1.554569166010277e+00	 7.644391840587833e-01	 1.377658411206479e+01
 1.547242696033798e+00	 7.791615310498432e-01	 1.376402126061462e+01
 1.539765285024175e+00	 7.938360155187009e-01	 1.374913578752929e+01
 1.532137290072307e+00	 8.084603760304231e-01	 1.373191618480962e+01
 1.524359112414744e+00	 8.230323516506624e-01	 1.371233050591896e+01
 1.516431197571211e+00	 8.375496830021967e-01	 1.369032899196194e+01
 1.508354035452344e+00	 8.520101133295683e-01	 1.366584702616728e+01
 1.500128160437264e+00	 8.664113895708461e-01	 1.363880841701158e+01
 1.491754151420574e+00	 8.807512634355336e-01	 1.360912900822823e+01
 1.483232631828501e+00	 8.950274924876223e-01	 1.357672061176772e+01
 1.569698151011624e+00	 7.534892174470363e-01	 1.375361875967940e+01
 1.562486392701951e+00	 7.683323773907269e-01	 1.374465621044871e+01
 1.555122609928514e+00	 7.831297034567219e-01	 1.373322918270036e+01
 1.547607117398071e+00	 7.978789232426116e-01	 1.371936636808023e+01
 1.539940274020142e+00	 8.125777637962718e-01	 1.370307360486860e+01
 1.532122483074731e+00	 8.272239526687130e-01	 1.368433618382351e+01
 1.524154192350537e+00	 8.418152189760019e-01	 1.366312148947509e+01
 1.516035894253259e+00	 8.563492944693228e-01	 1.363938197957736e+01
 1.507768125883542e+00	 8.708239146121964e-01	 1.361305850336768e+01
 1.499351469084235e+00	 8.852368196638790e-01	 1.358408395713235e+01
 1.490786550456598e+00	 8.995857557679301e-01	 1.355238727333414e+01
 1.577651911168186e+00	 7.573071951342214e-01	 1.372094468864083e+01
 1.570403610421449e+00	 7.722255663111065e-01	 1.371318750121664e+01
 1.563002514893328e+00	 7.870978713670665e-01	 1.370284494770251e+01
 1.555448940885220e+00	 8.019218263852984e-01	 1.368996199133296e+01
 1.547743249125264e+00	 8.166951468964999e-01	 1.367456064774655e+01
 1.539885844936908e+00	 8.314155489370509e-01	 1.365664229709101e+01
 1.531877178377833e+00	 8.460807501163210e-01	 1.363619034129281e+01
 1.523717744348785e+00	 8.606884706921472e-01	 1.361317320957812e+01
 1.515408082671938e+00	 8.752364346535142e-01	 1.358754771322225e+01
 1.506948778138374e+00	 8.897223708094435e-01	 1.355926274828899e+01
 1.498340460524385e+00	 9.041440138830750e-01	 1.352826334281509e+01
 1.585605671324500e+00	 7.611251728215738e-01	 1.368877818634851e+01
 1.578320828140682e+00	 7.761187552316575e-01	 1.368216132114357e+01
 1.570882419857871e+00	 7.910660392775954e-01	 1.367284871248697e+01
 1.563290764372101e+00	 8.059647295281894e-01	 1.366090043807406e+01
 1.555546224230132e+00	 8.208125299969571e-01	 1.364635355242507e+01
 1.547649206798856e+00	 8.356071452056480e-01	 1.362922440578377e+01
 1.539600164404925e+00	 8.503462812569315e-01	 1.360951131812793e+01
 1.531399594444139e+00	 8.650276469152958e-01	 1.358719761177492e+01
 1.523048039460192e+00	 8.796489546951893e-01	 1.356225500389619e+01
 1.514546087192402e+00	 8.942079219553957e-01	 1.353464735797685e+01
 1.505894370592088e+00	 9.087022719986346e-01	 1.350433479088419e+01
 1.593559440493879e+00	 7.649431548355849e-01	 1.365711215056238e+01
 1.586238054831554e+00	 7.800119485641144e-01	 1.365156669187669e+01
 1.578762333751769e+00	 7.950342116850261e-01	 1.364322638035621e+01
 1.571132596745197e+00	 8.100076372527115e-01	 1.363216528334402e+01
 1.563349208177210e+00	 8.249299177634930e-01	 1.361843438633203e+01
 1.555412577458151e+00	 8.397987462244746e-01	 1.360206391908370e+01
 1.547323159183641e+00	 8.546118172316092e-01	 1.358306604705784e+01
 1.539081453244534e+00	 8.693668280560232e-01	 1.356143793202642e+01
 1.530688004906044e+00	 8.840614797376110e-01	 1.353716516354916e+01
 1.522143404855727e+00	 8.986934781849051e-01	 1.351022556062870e+01
 1.513448289219931e+00	 9.132605352801891e-01	 1.348059334042624e+01
 1.601513227689634e+00	 7.687611455027475e-01	 1.362594493703616e+01
 1.594155299465974e+00	 7.839051507202124e-01	 1.362139816214783e+01
 1.586642265504654e+00	 7.990023930860769e-01	 1.361396943743119e+01
 1.578974446890986e+00	 8.140505541402923e-01	 1.360374572752979e+01
 1.571152209808963e+00	 8.290473148619573e-01	 1.359079087170054e+01
 1.563175965712369e+00	 8.439903567435010e-01	 1.357514791748947e+01
 1.555046171465808e+00	 8.588773628741321e-01	 1.355684183014519e+01
 1.546763329455181e+00	 8.737060190315838e-01	 1.353588258208742e+01
 1.538327987667236e+00	 8.884740147811697e-01	 1.351226862445723e+01
 1.529740739737763e+00	 9.031790445811413e-01	 1.348599074036841e+01
 1.521002224968144e+00	 9.178188088933179e-01	 1.345703627697029e+01
 1.609467041925078e+00	 7.725791491495535e-01	 1.359528020873769e+01
 1.602072571015848e+00	 7.877983661116872e-01	 1.359165565073450e+01
 1.594522224046154e+00	 8.029705879774656e-01	 1.358507478986547e+01
 1.586816323695951e+00	 8.180934847723598e-01	 1.357563642835987e+01
 1.578955237967851e+00	 8.331647259582001e-01	 1.356341621288896e+01
 1.570939380359091e+00	 8.481819815126986e-01	 1.354846897601903e+01
 1.562769210003252e+00	 8.631429230182764e-01	 1.353083146409437e+01
 1.554445231781298e+00	 8.780452247592319e-01	 1.351052545630562e+01
 1.545967996401508e+00	 8.928865648262553e-01	 1.348756127734717e+01
 1.537338100447917e+00	 9.076646262272738e-01	 1.346194170359358e+01
 1.528556186396950e+00	 9.223770980035991e-01	 1.343366626014185e+01
 1.617420892213523e+00	 7.763971701024949e-01	 1.356512678569692e+01
 1.609989878453082e+00	 7.916915991502730e-01	 1.356234429014142e+01
 1.602402218305899e+00	 8.069388008559107e-01	 1.355654460186058e+01
 1.594658236046571e+00	 8.221364337303407e-01	 1.354783733376975e+01
 1.586758301496337e+00	 8.372821557180704e-01	 1.353630892462646e+01
 1.578702830195891e+00	 8.523736252820372e-01	 1.352202498838044e+01
 1.570492283547801e+00	 8.674085024978190e-01	 1.350503306090685e+01
 1.562127168928098e+00	 8.823844501562221e-01	 1.348536574933218e+01
 1.553608039766600e+00	 8.972991348732569e-01	 1.346304428674795e+01
 1.544935495595602e+00	 9.121502282064712e-01	 1.343808249256368e+01
 1.536110182066576e+00	 9.269354077766122e-01	 1.341049113609642e+01
 1.460570738980083e+00	 8.813526199999246e-01	 1.365120766187400e+01
 1.452034818569231e+00	 8.953458531161863e-01	 1.361354157653810e+01
 1.443355002732013e+00	 9.092720207533125e-01	 1.357287132509280e+01
 1.434532038803360e+00	 9.231289402045261e-01	 1.352941301284476e+01
 1.425566717702133e+00	 9.369144388747375e-01	 1.348340568938052e+01
 1.416459873789150e+00	 9.506263553558497e-01	 1.343511605589211e+01
 1.407212384693646e+00	 9.642625405008262e-01	 1.338484337830251e+01
 1.397825171108125e+00	 9.778208584954495e-01	 1.333292458725105e+01
 1.388299196551591e+00	 9.912991879267010e-01	 1.327973954390826e+01
 1.378635467101188e+00	 1.004695422846675e+00	 1.322571644855198e+01
 1.368835031092330e+00	 1.018007473830945e+00	 1.317133736685947e+01
 1.468124734650470e+00	 8.859109297691988e-01	 1.362610153559540e+01
 1.459544666904305e+00	 8.999765351569259e-01	 1.358929278586334e+01
 1.450819959512134e+00	 9.139747282064182e-01	 1.354959660234444e+01
 1.441951363674070e+00	 9.279033149220556e-01	 1.350720557092784e+01
 1.432939674399574e+00	 9.417601114722038e-01	 1.346233445229691e+01
 1.423785730364742e+00	 9.555429452700802e-01	 1.341522504083531e+01
 1.414490413737870e+00	 9.692496560533729e-01	 1.336615124058703e+01
 1.405054649973241e+00	 9.828780969615490e-01	 1.331542433893989e+01
 1.395479407573138e+00	 9.964261356097552e-01	 1.326339845653353e+01
 1.385765697818091e+00	 1.009891655158237e+00	 1.321047614977576e+01
 1.375914574465458e+00	 1.023272555376175e+00	 1.315711414029996e+01
 1.475678696079867e+00	 8.904692188765717e-01	 1.360128333027930e+01
 1.467054481198550e+00	 9.046071962076796e-01	 1.356529594535465e+01
 1.458284882454965e+00	 9.186774143430325e-01	 1.352652344847501e+01
 1.449370654914387e+00	 9.326776679982201e-01	 1.348513689578490e+01
 1.440312597676858e+00	 9.466057621051132e-01	 1.344132880346428e+01
 1.431111553733727e+00	 9.604595128982916e-01	 1.339531815784953e+01
 1.421768409792328e+00	 9.742367490002224e-01	 1.334735565408328e+01
 1.412284096068702e+00	 9.879353125041045e-01	 1.329772914357373e+01
 1.402659586048385e+00	 1.001553060053302e+00	 1.324676926829519e+01
 1.392895896215265e+00	 1.015087863916258e+00	 1.319485525776426e+01
 1.382994085748618e+00	 1.028537613055813e+00	 1.314242086239510e+01
 1.483232631828501e+00	 8.950274924876223e-01	 1.357672061176772e+01
 1.474564269962160e+00	 9.092378415160540e-01	 1.354152383257113e+01
 1.465749780019818e+00	 9.233800844923938e-01	 1.350363097307538e+01
 1.456789920931904e+00	 9.374520048434779e-01	 1.346319351574382e+01
 1.447685495889017e+00	 9.514513962647224e-01	 1.342038374053837e+01
 1.438437352197751e+00	 9.653760638121085e-01	 1.337539988590781e+01
 1.429046381104456e+00	 9.792238249929172e-01	 1.332847155001219e+01
 1.419513517586915e+00	 9.929925108541201e-01	 1.327986531207578e+01
 1.409839740113895e+00	 1.006679967067332e+00	 1.322989055143048e+01
 1.400026070372627e+00	 1.020284055009235e+00	 1.317890543953110e+01
 1.390073572964280e+00	 1.033802652836363e+00	 1.312732307801181e+01
 1.490786550456598e+00	 8.995857557679301e-01	 1.355238727333414e+01
 1.482074041705324e+00	 9.138684763296547e-01	 1.351795549337516e+01
 1.473214660666004e+00	 9.280827439837377e-01	 1.348090447807864e+01
 1.464209170134208e+00	 9.422263308682883e-01	 1.344136805949651e+01
 1.455058377391087e+00	 9.562970194422910e-01	 1.339950025433951e+01
 1.445763134058461e+00	 9.702926035831553e-01	 1.335548057550404e+01
 1.436324335921691e+00	 9.842108896830017e-01	 1.330951959578544e+01
 1.426742922720285e+00	 9.980496977425981e-01	 1.326186474328154e+01
 1.417019877906233e+00	 1.011806862461838e+00	 1.321280630557786e+01
 1.407156228370093e+00	 1.025480234325661e+00	 1.316268361744125e+01
 1.397153044134917e+00	 1.039067680684324e+00	 1.311189140445207e+01
 1.498340460524385e+00	 9.041440138830750e-01	 1.352826334281509e+01
 1.489583804938235e+00	 9.184991058960881e-01	 1.349457604876322e+01
 1.480679532852836e+00	 9.327853981463010e-01	 1.345833526503440e+01
 1.471628410928892e+00	 9.470006514831086e-01	 1.341965906454588e+01
 1.462431250538099e+00	 9.611426371290773e-01	 1.337868513918792e+01
 1.453088907617503e+00	 9.752091377830566e-01	 1.333557626157923e+01
 1.443602282491466e+00	 9.891979487220194e-01	 1.329052601120967e+01
 1.433972319661219e+00	 1.003106878900542e+00	 1.324376474409006e+01
 1.424200007561964e+00	 1.016933752046808e+00	 1.319556578252767e+01
 1.414286378287581e+00	 1.030676407754032e+00	 1.314625179919654e+01
 1.404232507283000e+00	 1.044332702566201e+00	 1.309620136728970e+01
 1.505894370592088e+00	 9.087022719986346e-01	 1.350433479088419e+01
 1.497093568171084e+00	 9.231297354629593e-01	 1.347137650279410e+01
 1.488144405039622e+00	 9.374880523093198e-01	 1.343592044341572e+01
 1.479047651723543e+00	 9.517749720983979e-01	 1.339807078660451e+01
 1.469804123685088e+00	 9.659882548163403e-01	 1.335795080409506e+01
 1.460414681176524e+00	 9.801256719834367e-01	 1.331570847719042e+01
 1.450880229061219e+00	 9.941850077615138e-01	 1.327152238530308e+01
 1.441201716602122e+00	 1.008164060058956e+00	 1.322560785008382e+01
 1.431380137217650e+00	 1.022060641632236e+00	 1.317822331128391e+01
 1.421416528205009e+00	 1.035872581182843e+00	 1.312967690795992e+01
 1.411311970431000e+00	 1.049597724448495e+00	 1.308033323615867e+01
 1.513448289219931e+00	 9.132605352801891e-01	 1.348059334042624e+01
 1.504603339914063e+00	 9.277603702778745e-01	 1.344835355157269e+01
 1.495609285685678e+00	 9.421907118020318e-01	 1.341366273992123e+01
 1.486466900925753e+00	 9.565492981246134e-01	 1.337661300991157e+01
 1.477177005187087e+00	 9.708338779953380e-01	 1.333731508477797e+01
 1.467740463037171e+00	 9.850422117559205e-01	 1.329590406789296e+01
 1.458158183878383e+00	 9.991720724530285e-01	 1.325254549370163e+01
 1.448431121735399e+00	 1.013221246948842e+00	 1.320744164659884e+01
 1.438560275009860e+00	 1.027187537028112e+00	 1.316083812342285e+01
 1.428546686202294e+00	 1.041068760500588e+00	 1.311303061260953e+01
 1.418391441601388e+00	 1.054862752297708e+00	 1.306437186049375e+01
 1.521002224968144e+00	 9.178188088933179e-01	 1.345703627697029e+01
 1.512113128677363e+00	 9.323910155884400e-01	 1.342550939325007e+01
 1.503074183250311e+00	 9.468933819536728e-01	 1.339157030873404e+01
 1.493886166943114e+00	 9.613236349722156e-01	 1.335530085843111e+01
 1.484549903399128e+00	 9.756795121573290e-01	 1.331680105646524e+01
 1.475066261501091e+00	 9.899587626721326e-01	 1.327619500680909e+01
 1.465436155190395e+00	 1.004159148448107e+00	 1.323363711663098e+01
 1.455660543253458e+00	 1.018278445301203e+00	 1.318931859022677e+01
 1.445740429075154e+00	 1.032314444044426e+00	 1.314347417873531e+01
 1.435676860359353e+00	 1.046264951595763e+00	 1.309638915811671e+01
 1.425470928816637e+00	 1.060127792080343e+00	 1.304840650522052e+01
 1.528556186396950e+00	 9.223770980035991e-01	 1.343366626014184e+01
 1.519622942971177e+00	 9.370216766422617e-01	 1.340285153900216e+01
 1.510539106192834e+00	 9.515960680934792e-01	 1.336965654270216e+01
 1.501305458183212e+00	 9.660979880516606e-01	 1.333415460789910e+01
 1.491922826676247e+00	 9.805251627935724e-01	 1.329643684746416e+01
 1.482392084869929e+00	 9.948753303036967e-01	 1.325661821035529e+01
 1.472714151244691e+00	 1.009146241398292e+00	 1.321484385742160e+01
 1.462889989348705e+00	 1.023335660847044e+00	 1.317129583073005e+01
 1.452920607550100e+00	 1.037441368491171e+00	 1.312619999114075e+01
 1.442807058756104e+00	 1.051461160356861e+00	 1.307983319603985e+01
 1.432550440099217e+00	 1.065392849762901e+00	 1.303253068639518e+01
 1.536110182066576e+00	 9.269354077766122e-01	 1.341049113609642e+01
 1.527132791305695e+00	 9.416523586869447e-01	 1.338039262494890e+01
 1.518004062972558e+00	 9.562987755506877e-01	 1.334793988540514e+01
 1.508724783053639e+00	 9.708723627734075e-01	 1.331319949868691e+01
 1.499295783373475e+00	 9.853708353953261e-01	 1.327625545345911e+01
 1.489717941445333e+00	 9.997919202222378e-01	 1.323721535460296e+01
 1.479992180288704e+00	 1.014133356955129e+00	 1.319621696154482e+01
 1.470119468213546e+00	 1.028392899317367e+00	 1.315343503335358e+01
 1.460100818571260e+00	 1.042568316178337e+00	 1.310908845485909e+01
 1.449937289472463e+00	 1.056657392672377e+00	 1.306344761512736e+01
 1.439629983471600e+00	 1.070657931311884e+00	 1.301684200679177e+01
 1.368835031092330e+00	 1.018007473830945e+00	 1.317133736685947e+01
 1.358897279024179e+00	 1.031235508845077e+00	 1.311429544235134e+01
 1.348825002563662e+00	 1.044375196923073e+00	 1.305205900591184e+01
 1.338619380955441e+00	 1.057424495877113e+00	 1.298483671472848e+01
 1.328281634245983e+00	 1.070381384178622e+00	 1.291290611834973e+01
 1.317813022826219e+00	 1.083243861977478e+00	 1.283662011357687e+01
 1.307214846943933e+00	 1.096009952109289e+00	 1.275641334486241e+01
 1.296488446186282e+00	 1.108677701089683e+00	 1.267280851302626e+01
 1.285635198932836e+00	 1.121245180094562e+00	 1.258642255415493e+01
 1.274656521779600e+00	 1.133710485925326e+00	 1.249797264980088e+01
 1.263553868934508e+00	 1.146071741958044e+00	 1.240828202905730e+01
 1.375914574465458e+00	 1.023272555376175e+00	 1.315711414029996e+01
 1.365925424862099e+00	 1.036569005097845e+00	 1.310093658730649e+01
 1.355801055113290e+00	 1.049776650957703e+00	 1.303940005672446e+01
 1.345542650562677e+00	 1.062893440205820e+00	 1.297277746440856e+01
 1.335151437566738e+00	 1.075917340858361e+00	 1.290141462805389e+01
 1.324628683035069e+00	 1.088846342722065e+00	 1.282573685185862e+01
 1.313975693940261e+00	 1.101678458406729e+00	 1.274625545630424e+01
 1.303193816797736e+00	 1.114411724324639e+00	 1.266357421492278e+01
 1.292284437115965e+00	 1.127044201675902e+00	 1.257839565892883e+01
 1.281248978817504e+00	 1.139573977418654e+00	 1.249152720980862e+01
 1.270088903631367e+00	 1.151999165223144e+00	 1.240388709938578e+01
 1.382994085748618e+00	 1.028537613055813e+00	 1.314242086239510e+01
 1.372953538843014e+00	 1.041902477174947e+00	 1.308704093245155e+01
 1.362777076042019e+00	 1.055178080508667e+00	 1.302617601806086e+01
 1.352465888788236e+00	 1.068362359744984e+00	 1.296015962567444e+01
 1.342021209748127e+00	 1.081453272444846e+00	 1.288940198034923e+01
 1.331444312349928e+00	 1.094448798071896e+00	 1.281439674896698e+01
 1.320736510291013e+00	 1.107346939010167e+00	 1.273572770870344e+01
 1.309899157015040e+00	 1.120145721568647e+00	 1.265407532164468e+01
 1.298933645159349e+00	 1.132843196971690e+00	 1.257022317541165e+01
 1.287841405973020e+00	 1.145437442334210e+00	 1.248506424882794e+01
 1.276623908706116e+00	 1.157926561620675e+00	 1.239960696105797e+01
 1.390073572964280e+00	 1.033802652836363e+00	 1.312732307801181e+01
 1.379981628931149e+00	 1.047235931120395e+00	 1.307268685650648e+01
 1.369753073255039e+00	 1.060579491696971e+00	 1.301247528364247e+01
 1.359389103477492e+00	 1.073831260692069e+00	 1.294707882263958e+01
 1.348890958574938e+00	 1.086989185211458e+00	 1.287696828028108e+01
 1.338259918494237e+00	 1.100051234375721e+00	 1.280270167753154e+01
 1.327497303657517e+00	 1.113015400343153e+00	 1.272493106606276e+01
 1.316604474436657e+00	 1.125879699319483e+00	 1.264440925058343e+01
 1.305582830597845e+00	 1.138642172553339e+00	 1.256199637578879e+01
 1.294433810716664e+00	 1.151300887316448e+00	 1.247866633587167e+01
 1.283158891564200e+00	 1.163853937867530e+00	 1.239551296389706e+01
 1.397153044134917e+00	 1.039067680684324e+00	 1.311189140445207e+01
 1.387009703090728e+00	 1.052569372978205e+00	 1.305795765348538e+01
 1.376729054657538e+00	 1.065980890643620e+00	 1.299839106662022e+01
 1.366312302475823e+00	 1.079300149244544e+00	 1.293363546305044e+01
 1.355760691831964e+00	 1.092525085431585e+00	 1.286421843951382e+01
 1.345075509191430e+00	 1.105653657982287e+00	 1.279075839720833e+01
 1.334258081701098e+00	 1.118683848829236e+00	 1.271397151580454e+01
 1.323309776661051e+00	 1.131613664074918e+00	 1.263467863342322e+01
 1.312232000966312e+00	 1.144441134992262e+00	 1.255381199031476e+01
 1.301026200518949e+00	 1.157164319009825e+00	 1.247242179305841e+01
 1.289693859611062e+00	 1.169781300680601e+00	 1.239168255541915e+01
 1.404232507283000e+00	 1.044332702566201e+00	 1.309620136728970e+01
 1.394037769285973e+00	 1.057902808792391e+00	 1.304294137407211e+01
 1.383705028154707e+00	 1.071382283469621e+00	 1.298402124527790e+01
 1.373235493628604e+00	 1.084769031599873e+00	 1.291993458713068e+01
 1.362630417303992e+00	 1.098060979378610e+00	 1.285126202715558e+01
 1.351891092164948e+00	 1.111256075240345e+00	 1.277867840635099e+01
 1.341018852083084e+00	 1.124352290891966e+00	 1.270295992018298e+01
 1.330015071286687e+00	 1.137347622332728e+00	 1.262499116621535e+01
 1.318881163799606e+00	 1.150240090859871e+00	 1.254577205499987e+01
 1.307618582850391e+00	 1.163027744058796e+00	 1.246642453988964e+01
 1.296228820252147e+00	 1.175708656776781e+00	 1.238819912071092e+01
 1.411311970431000e+00	 1.049597724448495e+00	 1.308033323615867e+01
 1.401065835481108e+00	 1.063236244606966e+00	 1.302773066677683e+01
 1.390681001651735e+00	 1.076783676295980e+00	 1.296946820838683e+01
 1.380158684781212e+00	 1.090237913955525e+00	 1.290608571598961e+01
 1.369500142775814e+00	 1.103596873325917e+00	 1.283821312010009e+01
 1.358706675138226e+00	 1.116858492498644e+00	 1.276657779319217e+01
 1.347779622464802e+00	 1.130020732954891e+00	 1.269201186723688e+01
 1.336720365912028e+00	 1.143081580590686e+00	 1.261545945906155e+01
 1.325530326632585e+00	 1.156039046727581e+00	 1.253798375901123e+01
 1.314210965181505e+00	 1.168891169107819e+00	 1.246077393738414e+01
 1.302763780892899e+00	 1.181636012872962e+00	 1.238451728831070e+01
 1.418391441601388e+00	 1.054862752297708e+00	 1.306437186049375e+01
 1.408093909640356e+00	 1.068569686465945e+00	 1.301242261887947e+01
 1.397656983053812e+00	 1.082185075243703e+00	 1.295483870022329e+01
 1.387081883779023e+00	 1.095706802508965e+00	 1.289220269960763e+01
 1.376369876032220e+00	 1.109132773546891e+00	 1.282519015289982e+01
 1.365522265834702e+00	 1.122460916105931e+00	 1.275457708654842e+01
 1.354540400507578e+00	 1.135689181441560e+00	 1.268124752129619e+01
 1.343425668135538e+00	 1.148815545346567e+00	 1.260620088541866e+01
 1.332179497000107e+00	 1.161838009166804e+00	 1.253055929179731e+01
 1.320803354982806e+00	 1.174754600801347e+00	 1.245557463207153e+01
 1.309298748938762e+00	 1.187563375686034e+00	 1.237985301134220e+01
 1.425470928816637e+00	 1.060127792080343e+00	 1.304840650522052e+01
 1.415121999727941e+00	 1.073903140413343e+00	 1.299711859716378e+01
 1.404632980266128e+00	 1.087586486433797e+00	 1.294024366525646e+01
 1.394005098467412e+00	 1.101175703457661e+00	 1.287840356441184e+01
 1.383239624857998e+00	 1.114668686314918e+00	 1.281231576718536e+01
 1.372337871977815e+00	 1.128063352410956e+00	 1.274280110606488e+01
 1.361301193872737e+00	 1.141357642775523e+00	 1.267079147305741e+01
 1.350130985555682e+00	 1.154549523098144e+00	 1.259733743103512e+01
 1.338828682437029e+00	 1.167636984748952e+00	 1.252361568994295e+01
 1.327395759724808e+00	 1.180618045783837e+00	 1.245060862061176e+01
 1.315833731795180e+00	 1.193490751932892e+00	 1.237456434313467e+01
 1.432550440099217e+00	 1.065392849762901e+00	 1.303253068639518e+01
 1.422150113708087e+00	 1.079236612493172e+00	 1.298192408844721e+01
 1.411609001193872e+00	 1.092987915987266e+00	 1.292579809251630e+01
 1.400928336691757e+00	 1.106644622999078e+00	 1.286481036045204e+01
 1.390109397037940e+00	 1.120204617903380e+00	 1.279971666064367e+01
 1.379153501291003e+00	 1.133665807762470e+00	 1.273137881201154e+01
 1.368062010221609e+00	 1.147026123380327e+00	 1.266077258923875e+01
 1.356836325770924e+00	 1.160283520343190e+00	 1.258899554253056e+01
 1.345477890478210e+00	 1.173435980045439e+00	 1.251727468376264e+01
 1.333988186878027e+00	 1.186481510699745e+00	 1.244516907672472e+01
 1.322368736867599e+00	 1.199418148330425e+00	 1.236901750176693e+01
 1.439629983471600e+00	 1.070657931311884e+00	 1.301684200679177e+01
 1.429178259545016e+00	 1.084570108749448e+00	 1.296694853991024e+01
 1.418585053742233e+00	 1.098389370025116e+00	 1.291162085964978e+01
 1.407851606297432e+00	 1.112113567330683e+00	 1.285154900818964e+01
 1.396979200356835e+00	 1.125740574585664e+00	 1.278752343556747e+01
 1.385969161497703e+00	 1.139268288509219e+00	 1.272044315464480e+01
 1.374822857215517e+00	 1.152694629679524e+00	 1.265132386182821e+01
 1.363541696379728e+00	 1.166017543579481e+00	 1.258130597562760e+01
 1.352127128658505e+00	 1.179235001627677e+00	 1.251155021855940e+01
 1.340580643912978e+00	 1.192345002193526e+00	 1.243955950471393e+01
 1.328903771561460e+00	 1.205345571595528e+00	 1.236357084135015e+01
 1.263553868934508e+00	 1.146071741958044e+00	 1.240828202905730e+01
 1.252330646641814e+00	 1.158325028325273e+00	 1.231739930606666e+01
 1.240986488227872e+00	 1.170470651982062e+00	 1.222670094138859e+01
 1.229522936041086e+00	 1.182506842439293e+00	 1.213777877935375e+01
 1.217941567326206e+00	 1.194431859378467e+00	 1.204417863878351e+01
 1.206243993496050e+00	 1.206243993496050e+00	 1.194561085053503e+01
 1.194431859378466e+00	 1.217941567326207e+00	 1.184318390189326e+01
 1.182506842439293e+00	 1.229522936041086e+00	 1.173801661128721e+01
 1.170470651982062e+00	 1.240986488227873e+00	 1.163054487540613e+01
 1.158325028325273e+00	 1.252330646641815e+00	 1.151783765657785e+01
 1.146071741958044e+00	 1.263553868934508e+00	 1.140050319290016e+01
 1.270088903631367e+00	 1.151999165223144e+00	 1.240388709938578e+01
 1.258807635418717e+00	 1.164315824948562e+00	 1.231585911787574e+01
 1.247404805609481e+00	 1.176524265137518e+00	 1.222904447999933e+01
 1.235881964529000e+00	 1.188622706144024e+00	 1.214067887970428e+01
 1.224240697579443e+00	 1.200609398648756e+00	 1.204671240581971e+01
 1.212482624507759e+00	 1.212482624507759e+00	 1.194812782540727e+01
 1.200609398648756e+00	 1.224240697579443e+00	 1.184591698174313e+01
 1.188622706144024e+00	 1.235881964529000e+00	 1.174107957935287e+01
 1.176524265137517e+00	 1.247404805609482e+00	 1.163462200858476e+01
 1.164315824948561e+00	 1.258807635418717e+00	 1.152483586857681e+01
 1.151999165223144e+00	 1.270088903631367e+00	 1.141011422878601e+01
 1.276623908706116e+00	 1.157926561620675e+00	 1.239960696105797e+01
 1.265284594836632e+00	 1.170306594417003e+00	 1.231453873503041e+01
 1.253823093898073e+00	 1.182577850853358e+00	 1.223037409132050e+01
 1.242240964192679e+00	 1.194738542126929e+00	 1.214140583611252e+01
 1.230539799279995e+00	 1.206786909917608e+00	 1.204726058383547e+01
 1.218721227241065e+00	 1.218721227241065e+00	 1.194881153459958e+01
 1.206786909917608e+00	 1.230539799279995e+00	 1.184693848105161e+01
 1.194738542126929e+00	 1.242240964192679e+00	 1.174252672630519e+01
 1.182577850853358e+00	 1.253823093898074e+00	 1.163646604618072e+01
 1.170306594417002e+00	 1.265284594836632e+00	 1.152895753314274e+01
 1.157926561620675e+00	 1.276623908706116e+00	 1.141687510496614e+01
 1.283158891564200e+00	 1.163853937867530e+00	 1.239551296389707e+01
 1.271761532235222e+00	 1.176297343519296e+00	 1.231349804326421e+01
 1.260241360366823e+00	 1.188631415989463e+00	 1.222970156995622e+01
 1.248599942238107e+00	 1.200854357318428e+00	 1.214035303962095e+01
 1.236838879565968e+00	 1.212964400185335e+00	 1.204621393352931e+01
 1.224959808765511e+00	 1.224959808765511e+00	 1.194805227652216e+01
 1.212964400185335e+00	 1.236838879565968e+00	 1.184664032623635e+01
 1.200854357318428e+00	 1.248599942238107e+00	 1.174275361736527e+01
 1.188631415989462e+00	 1.260241360366824e+00	 1.163717005484747e+01
 1.176297343519296e+00	 1.271761532235223e+00	 1.153066830537191e+01
 1.163853937867530e+00	 1.283158891564200e+00	 1.142125189621167e+01
 1.289693859611062e+00	 1.169781300680601e+00	 1.239168255541915e+01
 1.278238454954155e+00	 1.182288079044142e+00	 1.231182472622615e+01
 1.266659612288909e+00	 1.194684967405711e+00	 1.222741726460043e+01
 1.254958905871271e+00	 1.206970158648941e+00	 1.213790610860804e+01
 1.243137945575468e+00	 1.219141876452249e+00	 1.204395554606966e+01
 1.231198376150641e+00	 1.231198376150641e+00	 1.194623274381754e+01
 1.219141876452249e+00	 1.243137945575468e+00	 1.184540686393620e+01
 1.206970158648941e+00	 1.254958905871272e+00	 1.174214822782593e+01
 1.194684967405710e+00	 1.266659612288908e+00	 1.163712753365509e+01
 1.182288079044141e+00	 1.278238454954156e+00	 1.153101513254164e+01
 1.169781300680601e+00	 1.289693859611061e+00	 1.142371001109310e+01
 1.296228820252147e+00	 1.175708656776781e+00	 1.238819912071092e+01
 1.284715370333094e+00	 1.188278807780237e+00	 1.230867317108926e+01
 1.273077856937502e+00	 1.200738511961980e+00	 1.222390367523627e+01
 1.261317862298157e+00	 1.213085953048889e+00	 1.213444295291676e+01
 1.249437004446598e+00	 1.225319345718662e+00	 1.204086090434775e+01
 1.237436936465997e+00	 1.237436936465997e+00	 1.194372808271885e+01
 1.225319345718662e+00	 1.249437004446599e+00	 1.184361491942171e+01
 1.213085953048889e+00	 1.261317862298158e+00	 1.174109100141973e+01
 1.200738511961980e+00	 1.273077856937503e+00	 1.163672440631510e+01
 1.188278807780237e+00	 1.284715370333095e+00	 1.153108110043063e+01
 1.175708656776781e+00	 1.296228820252147e+00	 1.142471383600102e+01
 1.302763780892899e+00	 1.181636012872962e+00	 1.238451728831070e+01
 1.291192285711706e+00	 1.194269536516284e+00	 1.230442343317949e+01
 1.279496101585782e+00	 1.206792056518153e+00	 1.221953552117570e+01
 1.267676818724751e+00	 1.219201747448692e+00	 1.213033383810259e+01
 1.255736063317465e+00	 1.231496814984886e+00	 1.203729794441998e+01
 1.243675496781125e+00	 1.243675496781125e+00	 1.194090595263886e+01
 1.231496814984886e+00	 1.255736063317465e+00	 1.184163385524442e+01
 1.219201747448691e+00	 1.267676818724751e+00	 1.173995490890778e+01
 1.206792056518152e+00	 1.279496101585782e+00	 1.163633908054917e+01
 1.194269536516284e+00	 1.291192285711706e+00	 1.153125256056629e+01
 1.181636012872962e+00	 1.302763780892899e+00	 1.142515734825832e+01
 1.309298748938762e+00	 1.187563375686034e+00	 1.237985301134220e+01
 1.297669208429653e+00	 1.200260272040981e+00	 1.229944899481118e+01
 1.285914353506923e+00	 1.212845607934105e+00	 1.221467980910802e+01
 1.274035782357038e+00	 1.225317548778769e+00	 1.212594144979082e+01
 1.262035129326172e+00	 1.237674291251232e+00	 1.203362711713019e+01
 1.249914064165568e+00	 1.249914064165567e+00	 1.193812658597745e+01
 1.237674291251232e+00	 1.262035129326172e+00	 1.183982563011519e+01
 1.225317548778769e+00	 1.274035782357039e+00	 1.173910550687691e+01
 1.212845607934105e+00	 1.285914353506924e+00	 1.163634250761875e+01
 1.200260272040981e+00	 1.297669208429654e+00	 1.153190757937159e+01
 1.187563375686034e+00	 1.309298748938762e+00	 1.142616602270747e+01
 1.315833731795180e+00	 1.193490751932892e+00	 1.237456434313467e+01
 1.304146145826603e+00	 1.206251021143027e+00	 1.229411552619257e+01
 1.292332619974102e+00	 1.218899173069718e+00	 1.220969590115496e+01
 1.280394760401003e+00	 1.231433363969541e+00	 1.212162095813808e+01
 1.268334209610826e+00	 1.243851781518014e+00	 1.203020144990142e+01
 1.256152645688868e+00	 1.256152645688868e+00	 1.193574284813488e+01
 1.243851781518013e+00	 1.268334209610826e+00	 1.183854485799672e+01
 1.231433363969541e+00	 1.280394760401004e+00	 1.173890099673534e+01
 1.218899173069718e+00	 1.292332619974102e+00	 1.163709824201087e+01
 1.206251021143026e+00	 1.304146145826603e+00	 1.153341675527832e+01
 1.193490751932891e+00	 1.315833731795180e+00	 1.142812968528506e+01
 1.322368736867599e+00	 1.199418148330425e+00	 1.236901750176693e+01
 1.310623105242220e+00	 1.212241790611122e+00	 1.228878095791053e+01
 1.298750908260492e+00	 1.224952758784869e+00	 1.220493558292791e+01
 1.286753760062633e+00	 1.237549199951429e+00	 1.211772008238843e+01
 1.274633311309532e+00	 1.250029292785542e+00	 1.202736660868787e+01
 1.262391248420571e+00	 1.262391248420571e+00	 1.193410029772240e+01
 1.250029292785542e+00	 1.274633311309532e+00	 1.183813886740262e+01
 1.237549199951429e+00	 1.286753760062633e+00	 1.173969228389577e+01
 1.224952758784869e+00	 1.298750908260493e+00	 1.163896250126753e+01
 1.212241790611121e+00	 1.310623105242220e+00	 1.153614327993096e+01
 1.199418148330425e+00	 1.322368736867598e+00	 1.143142008899322e+01
 1.328903771561460e+00	 1.205345571595528e+00	 1.236357084135016e+01
 1.317100094016168e+00	 1.218232587233964e+00	 1.228379555329434e+01
 1.305169225639270e+00	 1.231006371939438e+00	 1.220074313158409e+01
 1.293112788547912e+00	 1.243665063654852e+00	 1.211457915552069e+01
 1.280932441560393e+00	 1.256206832054128e+00	 1.202546096007861e+01
 1.268629879430219e+00	 1.268629879430219e+00	 1.193353724695900e+01
 1.256206832054128e+00	 1.280932441560393e+00	 1.183894776089039e+01
 1.243665063654852e+00	 1.293112788547913e+00	 1.174182303713641e+01
 1.231006371939438e+00	 1.305169225639270e+00	 1.164228422595294e+01
 1.218232587233963e+00	 1.317100094016168e+00	 1.154044299946401e+01
 1.205345571595528e+00	 1.328903771561460e+00	 1.143640154610526e+01
 1.146071741958044e+00	 1.263553868934508e+00	 1.140050319290016e+01
 1.133710485925327e+00	 1.274656521779599e+00	 1.128103780129399e+01
 1.121245180094562e+00	 1.285635198932835e+00	 1.116108204818802e+01
 1.108677701089684e+00	 1.296488446186282e+00	 1.104045325625403e+01
 1.096009952109290e+00	 1.307214846943932e+00	 1.091887309825316e+01
 1.083243861977478e+00	 1.317813022826219e+00	 1.079597489768050e+01
 1.070381384178622e+00	 1.328281634245983e+00	 1.067131130893044e+01
 1.057424495877114e+00	 1.338619380955441e+00	 1.054436231922371e+01
 1.044375196923074e+00	 1.348825002563662e+00	 1.041454351324136e+01
 1.031235508845077e+00	 1.358897279024178e+00	 1.028121454050398e+01
 1.018007473830945e+00	 1.368835031092329e+00	 1.014368772504857e+01
 1.151999165223144e+00	 1.270088903631367e+00	 1.141011422878601e+01
 1.139573977418655e+00	 1.281248978817504e+00	 1.129278732030636e+01
 1.127044201675902e+00	 1.292284437115965e+00	 1.117445238858226e+01
 1.114411724324640e+00	 1.303193816797736e+00	 1.105501261423506e+01
 1.101678458406729e+00	 1.313975693940260e+00	 1.093427362208027e+01
 1.088846342722065e+00	 1.324628683035068e+00	 1.081195093423030e+01
 1.075917340858362e+00	 1.335151437566738e+00	 1.068767781437223e+01
 1.062893440205821e+00	 1.345542650562677e+00	 1.056101344359143e+01
 1.049776650957704e+00	 1.355801055113290e+00	 1.043145136677294e+01
 1.036569005097846e+00	 1.365925424862099e+00	 1.029842814767994e+01
 1.023272555376175e+00	 1.375914574465458e+00	 1.016133217030105e+01
 1.157926561620675e+00	 1.276623908706116e+00	 1.141687510496615e+01
 1.145437442334210e+00	 1.287841405973020e+00	 1.130172356377953e+01
 1.132843196971690e+00	 1.298933645159349e+00	 1.118507094819386e+01
 1.120145721568648e+00	 1.309899157015040e+00	 1.106690156039950e+01
 1.107346939010167e+00	 1.320736510291012e+00	 1.094710006260149e+01
 1.094448798071897e+00	 1.331444312349929e+00	 1.082545909837275e+01
 1.081453272444846e+00	 1.342021209748126e+00	 1.070168731729012e+01
 1.068362359744984e+00	 1.352465888788236e+00	 1.057541774128741e+01
 1.055178080508667e+00	 1.362777076042019e+00	 1.044621640976801e+01
 1.041902477174947e+00	 1.372953538843014e+00	 1.031359123956357e+01
 1.028537613055813e+00	 1.382994085748617e+00	 1.017700103530168e+01
 1.163853937867530e+00	 1.283158891564200e+00	 1.142125189621167e+01
 1.151300887316449e+00	 1.294433810716663e+00	 1.130831334508980e+01
 1.138642172553339e+00	 1.305582830597845e+00	 1.119340408436965e+01
 1.125879699319483e+00	 1.316604474436656e+00	 1.107658485051001e+01
 1.113015400343154e+00	 1.327497303657516e+00	 1.095781447596277e+01
 1.100051234375721e+00	 1.338259918494236e+00	 1.083695769476229e+01
 1.086989185211459e+00	 1.348890958574938e+00	 1.071379336396854e+01
 1.073831260692070e+00	 1.359389103477492e+00	 1.058802303739001e+01
 1.060579491696971e+00	 1.369753073255038e+00	 1.045927982656535e+01
 1.047235931120395e+00	 1.379981628931149e+00	 1.032713748300293e+01
 1.033802652836363e+00	 1.390073572964280e+00	 1.019111963513273e+01
 1.169781300680601e+00	 1.289693859611061e+00	 1.142371001109310e+01
 1.157164319009826e+00	 1.301026200518948e+00	 1.131302277396835e+01
 1.144441134992262e+00	 1.312232000966311e+00	 1.119991745961253e+01
 1.131613664074918e+00	 1.323309776661050e+00	 1.108452659811572e+01
 1.118683848829237e+00	 1.334258081701098e+00	 1.096687837007394e+01
 1.105653657982288e+00	 1.345075509191430e+00	 1.084690461259703e+01
 1.092525085431586e+00	 1.355760691831963e+00	 1.072444925421963e+01
 1.079300149244544e+00	 1.366312302475822e+00	 1.059927711304599e+01
 1.065980890643620e+00	 1.376729054657537e+00	 1.047108299097869e+01
 1.052569372978206e+00	 1.387009703090727e+00	 1.033950099586218e+01
 1.039067680684324e+00	 1.397153044134917e+00	 1.020411402281147e+01
 1.175708656776781e+00	 1.296228820252147e+00	 1.142471383600102e+01
 1.163027744058797e+00	 1.307618582850391e+00	 1.131631690866972e+01
 1.150240090859872e+00	 1.318881163799605e+00	 1.120507570142091e+01
 1.137347622332729e+00	 1.330015071286686e+00	 1.109118994161437e+01
 1.124352290891966e+00	 1.341018852083083e+00	 1.097475237846890e+01
 1.111256075240345e+00	 1.351891092164947e+00	 1.085575700588221e+01
 1.098060979378610e+00	 1.362630417303992e+00	 1.073410772767838e+01
 1.084769031599873e+00	 1.373235493628604e+00	 1.060962739745183e+01
 1.071382283469622e+00	 1.383705028154706e+00	 1.048206716364452e+01
 1.057902808792391e+00	 1.394037769285972e+00	 1.035111604944617e+01
 1.044332702566201e+00	 1.404232507283000e+00	 1.021641069652500e+01
 1.181636012872962e+00	 1.302763780892899e+00	 1.142515734825832e+01
 1.168891169107819e+00	 1.314210965181504e+00	 1.131865940820825e+01
 1.156039046727581e+00	 1.325530326632585e+00	 1.120934206212184e+01
 1.143081580590687e+00	 1.336720365912027e+00	 1.109703671125272e+01
 1.130020732954891e+00	 1.347779622464801e+00	 1.098189593407296e+01
 1.116858492498644e+00	 1.358706675138226e+00	 1.086397097358418e+01
 1.103596873325918e+00	 1.369500142775814e+00	 1.074322064999239e+01
 1.090237913955525e+00	 1.380158684781211e+00	 1.061952065975152e+01
 1.076783676295981e+00	 1.390681001651735e+00	 1.049267318932486e+01
 1.063236244606966e+00	 1.401065835481107e+00	 1.036241677092995e+01
 1.049597724448495e+00	 1.411311970431000e+00	 1.022843630693283e+01
 1.187563375686034e+00	 1.309298748938762e+00	 1.142616602270747e+01
 1.174754600801347e+00	 1.320803354982805e+00	 1.132051218464718e+01
 1.161838009166804e+00	 1.332179497000106e+00	 1.121317807868282e+01
 1.148815545346567e+00	 1.343425668135537e+00	 1.110252709605592e+01
 1.135689181441561e+00	 1.354540400507577e+00	 1.098876694286597e+01
 1.122460916105931e+00	 1.365522265834702e+00	 1.087200123966936e+01
 1.109132773546892e+00	 1.376369876032219e+00	 1.075223869889903e+01
 1.095706802508965e+00	 1.387081883779022e+00	 1.062940270084125e+01
 1.082185075243703e+00	 1.397656983053812e+00	 1.050334119415268e+01
 1.068569686465946e+00	 1.408093909640356e+00	 1.037383684577897e+01
 1.054862752297708e+00	 1.418391441601388e+00	 1.024061736452320e+01
 1.193490751932891e+00	 1.315833731795180e+00	 1.142812968528505e+01
 1.180618045783838e+00	 1.327395759724808e+00	 1.132259500816501e+01
 1.167636984748952e+00	 1.338828682437029e+00	 1.121704323248954e+01
 1.154549523098144e+00	 1.350130985555682e+00	 1.110811931067280e+01
 1.141357642775523e+00	 1.361301193872737e+00	 1.099582145743001e+01
 1.128063352410957e+00	 1.372337871977816e+00	 1.088030083301373e+01
 1.114668686314918e+00	 1.383239624857997e+00	 1.076161105018057e+01
 1.101175703457661e+00	 1.394005098467411e+00	 1.063971804507291e+01
 1.087586486433797e+00	 1.404632980266128e+00	 1.051451028280851e+01
 1.073903140413343e+00	 1.415121999727941e+00	 1.038580922015156e+01
 1.060127792080343e+00	 1.425470928816637e+00	 1.025337994701075e+01
 1.199418148330425e+00	 1.322368736867598e+00	 1.143142008899322e+01
 1.186481510699746e+00	 1.333988186878026e+00	 1.132607627219138e+01
 1.173435980045439e+00	 1.345477890478209e+00	 1.122139460907651e+01
 1.160283520343191e+00	 1.356836325770923e+00	 1.111426926212482e+01
 1.147026123380328e+00	 1.368062010221608e+00	 1.100351335037455e+01
 1.133665807762470e+00	 1.379153501291003e+00	 1.088932076717959e+01
 1.120204617903381e+00	 1.390109397037939e+00	 1.077178506348776e+01
 1.106644622999078e+00	 1.400928336691756e+00	 1.065090963184482e+01
 1.092987915987266e+00	 1.411609001193872e+00	 1.052661823562129e+01
 1.079236612493173e+00	 1.422150113708087e+00	 1.039876580326894e+01
 1.065392849762901e+00	 1.432550440099217e+00	 1.026714940676190e+01
 1.205345571595528e+00	 1.328903771561460e+00	 1.143640154610526e+01
 1.192345002193527e+00	 1.340580643912977e+00	 1.133137706142602e+01
 1.179235001627678e+00	 1.352127128658504e+00	 1.122679385083797e+01
 1.166017543579482e+00	 1.363541696379727e+00	 1.112143021644880e+01
 1.152694629679524e+00	 1.374822857215517e+00	 1.101229398762517e+01
 1.139268288509220e+00	 1.385969161497703e+00	 1.089950972004327e+01
 1.125740574585664e+00	 1.396979200356834e+00	 1.078320596802215e+01
 1.112113567330684e+00	 1.407851606297432e+00	 1.066341850707237e+01
 1.098389370025117e+00	 1.418585053742233e+00	 1.054010120558071e+01
 1.084570108749449e+00	 1.429178259545016e+00	 1.041313716974423e+01
 1.070657931311884e+00	 1.439629983471600e+00	 1.028235007823537e+01
 1.018007473830945e+00	 1.368835031092329e+00	 1.014368772504857e+01
 1.004695422846676e+00	 1.378635467101188e+00	 1.000459567400631e+01
 9.912991879267010e-01	 1.388299196551591e+00	 9.866656553298515e+00
 9.778208584954495e-01	 1.397825171108125e+00	 9.729342126966088e+00
 9.642625405008268e-01	 1.407212384693646e+00	 9.592117201482155e+00
 9.506263553558507e-01	 1.416459873789150e+00	 9.454447354519084e+00
 9.369144388747381e-01	 1.425566717702133e+00	 9.315806452032174e+00
 9.231289402045267e-01	 1.434532038803360e+00	 9.175683902207981e+00
 9.092720207533138e-01	 1.443355002732014e+00	 9.033591597309407e+00
 8.953458531161874e-01	 1.452034818569230e+00	 8.889070497223214e+00
 8.813526199999249e-01	 1.460570738980084e+00	 8.741696811572519e+00
 1.023272555376175e+00	 1.375914574465458e+00	 1.016133217030106e+01
 1.009891655158237e+00	 1.385765697818092e+00	 1.002291662355416e+01
 9.964261356097555e-01	 1.395479407573138e+00	 9.885930889726080e+00
 9.828780969615492e-01	 1.405054649973241e+00	 9.749787286034548e+00
 9.692496560533734e-01	 1.414490413737869e+00	 9.613890579469839e+00
 9.555429452700807e-01	 1.423785730364742e+00	 9.477646085513532e+00
 9.417601114722048e-01	 1.432939674399574e+00	 9.340467547058225e+00
 9.279033149220564e-01	 1.441951363674069e+00	 9.201784740073526e+00
 9.139747282064189e-01	 1.450819959512134e+00	 9.061050755129882e+00
 8.999765351569268e-01	 1.459544666904304e+00	 8.917748906768686e+00
 8.859109297691987e-01	 1.468124734650470e+00	 8.771399225864013e+00
 1.028537613055813e+00	 1.382994085748617e+00	 1.017700103530168e+01
 1.015087863916258e+00	 1.392895896215265e+00	 1.003930788179274e+01
 1.001553060053302e+00	 1.402659586048384e+00	 9.903287889089668e+00
 9.879353125041048e-01	 1.412284096068702e+00	 9.768299129982744e+00
 9.742367490002228e-01	 1.421768409792328e+00	 9.633691704888445e+00
 9.604595128982922e-01	 1.431111553733727e+00	 9.498816212136052e+00
 9.466057621051136e-01	 1.440312597676857e+00	 9.363031989938111e+00
 9.326776679982206e-01	 1.449370654914388e+00	 9.225715074544338e+00
 9.186774143430335e-01	 1.458284882454964e+00	 9.086265821736228e+00
 9.046071962076807e-01	 1.467054481198550e+00	 8.944116141793600e+00
 8.904692188765717e-01	 1.475678696079867e+00	 8.798736301332875e+00
 1.033802652836363e+00	 1.390073572964280e+00	 1.019111963513272e+01
 1.020284055009235e+00	 1.400026070372627e+00	 1.005418725208176e+01
 1.006679967067333e+00	 1.409839740113895e+00	 9.919140243666995e+00
 9.929925108541205e-01	 1.419513517586915e+00	 9.785287515767365e+00
 9.792238249929176e-01	 1.429046381104456e+00	 9.651929749009028e+00
 9.653760638121091e-01	 1.438437352197751e+00	 9.518368242591613e+00
 9.514513962647230e-01	 1.447685495889017e+00	 9.383913520870241e+00
 9.374520048434789e-01	 1.456789920931903e+00	 9.247893645112752e+00
 9.233800844923945e-01	 1.465749780019818e+00	 9.109662175592748e+00
 9.092378415160550e-01	 1.474564269962159e+00	 8.968605732256835e+00
 8.950274924876224e-01	 1.483232631828501e+00	 8.824151105582029e+00
 1.039067680684324e+00	 1.397153044134917e+00	 1.020411402281147e+01
 1.025480234325661e+00	 1.407156228370093e+00	 1.006797355211971e+01
 1.011806862461838e+00	 1.417019877906233e+00	 9.933901892369629e+00
 9.980496977425986e-01	 1.426742922720285e+00	 9.801163735699062e+00
 9.842108896830023e-01	 1.436324335921691e+00	 9.669015464169906e+00
 9.702926035831555e-01	 1.445763134058460e+00	 9.536714369456041e+00
 9.562970194422918e-01	 1.455058377391087e+00	 9.403527625952675e+00
 9.422263308682891e-01	 1.464209170134207e+00	 9.268740957599750e+00
 9.280827439837385e-01	 1.473214660666003e+00	 9.131666941538848e+00
 9.138684763296557e-01	 1.482074041705323e+00	 8.991652894916058e+00
 8.995857557679303e-01	 1.490786550456598e+00	 8.848088294624821e+00
 1.044332702566201e+00	 1.404232507283000e+00	 1.021641069652500e+01
 1.030676407754032e+00	 1.414286378287581e+00	 1.008108632658204e+01
 1.016933752046808e+00	 1.424200007561963e+00	 9.947987740179128e+00
 1.003106878900542e+00	 1.433972319661218e+00	 9.816340245017464e+00
 9.891979487220198e-01	 1.443602282491466e+00	 9.685360920765405e+00
 9.752091377830571e-01	 1.453088907617503e+00	 9.554268217293963e+00
 9.611426371290783e-01	 1.462431250538098e+00	 9.422291296585353e+00
 9.470006514831094e-01	 1.471628410928890e+00	 9.288679056431475e+00
 9.327853981463018e-01	 1.480679532852835e+00	 9.152708776966712e+00
 9.184991058960887e-01	 1.489583804938234e+00	 9.013694334372994e+00
 9.041440138830749e-01	 1.498340460524385e+00	 8.870993929700258e+00
 1.049597724448495e+00	 1.411311970431000e+00	 1.022843630693283e+01
 1.035872581182843e+00	 1.421416528205009e+00	 1.009394555987600e+01
 1.022060641632236e+00	 1.431380137217650e+00	 9.961813377715604e+00
 1.008164060058956e+00	 1.441201716602121e+00	 9.831230389570347e+00
 9.941850077615139e-01	 1.450880229061218e+00	 9.701379244278064e+00
 9.801256719834371e-01	 1.460414681176524e+00	 9.571444590226886e+00
 9.659882548163409e-01	 1.469804123685087e+00	 9.440622788693016e+00
 9.517749720983987e-01	 1.479047651723542e+00	 9.308131296578580e+00
 9.374880523093211e-01	 1.488144405039623e+00	 9.173217657475499e+00
 9.231297354629600e-01	 1.497093568171083e+00	 9.035168043378697e+00
 9.087022719986347e-01	 1.505894370592087e+00	 8.893315293102962e+00
 1.054862752297708e+00	 1.418391441601388e+00	 1.024061736452320e+01
 1.041068760500589e+00	 1.428546686202294e+00	 1.010697138899982e+01
 1.027187537028111e+00	 1.438560275009859e+00	 9.975794800920175e+00
 1.013221246948842e+00	 1.448431121735399e+00	 9.846248133585489e+00
 9.991720724530286e-01	 1.458158183878383e+00	 9.717484352346201e+00
 9.850422117559210e-01	 1.467740463037170e+00	 9.588659219443926e+00
 9.708338779953384e-01	 1.477177005187086e+00	 9.458941381769847e+00
 9.565492981246145e-01	 1.486466900925753e+00	 9.327522115163131e+00
 9.421907118020330e-01	 1.495609285685677e+00	 9.193624662010990e+00
 9.277603702778756e-01	 1.504603339914062e+00	 9.056513102415328e+00
 9.132605352801892e-01	 1.513448289219931e+00	 8.915500703055008e+00
 1.060127792080343e+00	 1.425470928816637e+00	 1.025337994701074e+01
 1.046264951595763e+00	 1.435676860359353e+00	 1.012058381649085e+01
 1.032314444044426e+00	 1.445740429075154e+00	 9.990348130838520e+00
 1.018278445301203e+00	 1.455660543253458e+00	 9.861807787520615e+00
 1.004159148448107e+00	 1.465436155190395e+00	 9.734090691854657e+00
 9.899587626721327e-01	 1.475066261501090e+00	 9.606328510649742e+00
 9.756795121573298e-01	 1.484549903399127e+00	 9.477667137742715e+00
 9.613236349722157e-01	 1.493886166943112e+00	 9.347276802738815e+00
 9.468933819536737e-01	 1.503074183250311e+00	 9.214361757503692e+00
 9.323910155884413e-01	 1.512113128677363e+00	 9.078169478573836e+00
 9.178188088933178e-01	 1.521002224968144e+00	 8.937999327647232e+00
 1.065392849762901e+00	 1.432550440099217e+00	 1.026714940676190e+01
 1.051461160356861e+00	 1.442807058756104e+00	 1.013520242344645e+01
 1.037441368491171e+00	 1.452920607550099e+00	 1.000588933349164e+01
 1.023335660847045e+00	 1.462889989348706e+00	 9.878323735979363e+00
 1.009146241398293e+00	 1.472714151244691e+00	 9.751612976037947e+00
 9.948753303036972e-01	 1.482392084869929e+00	 9.624869291441147e+00
 9.805251627935732e-01	 1.491922826676246e+00	 9.497220659650955e+00
 9.660979880516615e-01	 1.501305458183212e+00	 9.367821274245026e+00
 9.515960680934802e-01	 1.510539106192833e+00	 9.235861583012204e+00
 9.370216766422629e-01	 1.519622942971177e+00	 9.100577823745072e+00
 9.223770980035991e-01	 1.528556186396949e+00	 8.961260997875058e+00
 1.070657931311884e+00	 1.439629983471600e+00	 1.028235007823537e+01
 1.056657392672377e+00	 1.449937289472463e+00	 1.015124608260803e+01
 1.042568316178337e+00	 1.460100818571260e+00	 1.002283393981887e+01
 1.028392899317367e+00	 1.470119468213545e+00	 9.896210165680310e+00
 1.014133356955129e+00	 1.479992180288705e+00	 9.770465921585352e+00
 9.997919202222384e-01	 1.489717941445333e+00	 9.644698558604899e+00
 9.853708353953267e-01	 1.499295783373474e+00	 9.518022850138241e+00
 9.708723627734085e-01	 1.508724783053639e+00	 9.389581839638288e+00
 9.562987755506887e-01	 1.518004062972557e+00	 9.258557233383462e+00
 9.416523586869459e-01	 1.527132791305695e+00	 9.124179272138623e+00
 9.269354077766124e-01	 1.536110182066576e+00	 8.985736019794322e+00
 8.813526199999249e-01	 1.460570738980084e+00	 8.741696811572519e+00
 8.672945134221165e-01	 1.468962060678352e+00	 8.593602767497778e+00
 8.531737344426994e-01	 1.477208125573723e+00	 8.446919815941431e+00
 8.389924912361787e-01	 1.485308319765138e+00	 8.301294824339607e+00
 8.247529977420975e-01	 1.493262073202776e+00	 8.156433683127046e+00
 8.104574725985347e-01	 1.501068859672163e+00	 8.012104786383730e+00
 7.961081380806602e-01	 1.508728196747882e+00	 7.868141924991791e+00
 7.817072190453511e-01	 1.516239645717194e+00	 7.724446576404584e+00
 7.672569418828216e-01	 1.523602811473945e+00	 7.580989579395453e+00
 7.527595334762194e-01	 1.530817342383143e+00	 7.437812186437069e+00
 7.382172201701207e-01	 1.537882930116643e+00	 7.295026490638966e+00
 8.859109297691987e-01	 1.468124734650470e+00	 8.771399225864013e+00
 8.717801153978220e-01	 1.476559455827043e+00	 8.624139887028624e+00
 8.575863044864874e-01	 1.484848168940095e+00	 8.478162607031273e+00
 8.433317166302509e-01	 1.492990256913498e+00	 8.333143355593860e+00
 8.290185772190218e-01	 1.500985146749157e+00	 8.188820579363675e+00
 8.146491163655446e-01	 1.508832309511038e+00	 8.044998771389256e+00
 8.002255678384677e-01	 1.516531260278639e+00	 7.901551429986894e+00
 7.857501680014982e-01	 1.524081558070216e+00	 7.758423390522168e+00
 7.712251547596115e-01	 1.531482805736142e+00	 7.615632518049882e+00
 7.566527665132655e-01	 1.538734649822780e+00	 7.473270753185297e+00
 7.420352411215601e-01	 1.545836780407322e+00	 7.331504508009005e+00
 8.904692188765717e-01	 1.475678696079867e+00	 8.798736301332875e+00
 8.762656970412380e-01	 1.484156816537981e+00	 8.652284147682188e+00
 8.619988545290732e-01	 1.492488177675362e+00	 8.507017255869743e+00
 8.476709223556296e-01	 1.500672159240829e+00	 8.362634890119118e+00
 8.332841373611295e-01	 1.508708185288026e+00	 8.218902055966490e+00
 8.188407411329303e-01	 1.516595724159373e+00	 8.075653175275592e+00
 8.043429789331058e-01	 1.524334288439293e+00	 7.932795127100856e+00
 7.897930986321395e-01	 1.531923434877049e+00	 7.790309637312188e+00
 7.751933496497130e-01	 1.539362764279550e+00	 7.648255004447417e+00
 7.605459819035419e-01	 1.546651921374522e+00	 7.506767153866194e+00
 7.458532447671977e-01	 1.553790594644504e+00	 7.366060016832778e+00
 8.950274924876224e-01	 1.483232631828501e+00	 8.824151105582029e+00
 8.807512634355339e-01	 1.491754151420575e+00	 8.678486293845934e+00
 8.664113895708463e-01	 1.500128160437264e+00	 8.533937207443387e+00
 8.520101133295689e-01	 1.508354035452344e+00	 8.390220673304576e+00
 8.375496830021971e-01	 1.516431197571210e+00	 8.247122340013354e+00
 8.230323516506631e-01	 1.524359112414744e+00	 8.104500475140874e+00
 8.084603760304244e-01	 1.532137290072307e+00	 7.962289104453030e+00
 7.938360155187019e-01	 1.539765285024174e+00	 7.820500475242540e+00
 7.791615310498444e-01	 1.547242696033797e+00	 7.679226830744255e+00
 7.644391840587847e-01	 1.554569166010276e+00	 7.538641487356451e+00
 7.496712354335257e-01	 1.561744381841501e+00	 7.398999211104210e+00
 8.995857557679303e-01	 1.490786550456598e+00	 8.848088294624821e+00
 8.852368196638791e-01	 1.499351469084235e+00	 8.703198585261852e+00
 8.708239146121972e-01	 1.507768125883543e+00	 8.559377435971069e+00
 8.563492944693235e-01	 1.516035894253259e+00	 8.416353577607682e+00
 8.418152189760024e-01	 1.524154192350537e+00	 8.273927464453823e+00
 8.272239526687135e-01	 1.532122483074730e+00	 8.131975210729712e+00
 8.125777637962726e-01	 1.539940274020142e+00	 7.990451844555670e+00
 7.978789232426124e-01	 1.547607117398071e+00	 7.849393860899590e+00
 7.831297034567231e-01	 1.555122609928513e+00	 7.708921059929354e+00
 7.683323773907280e-01	 1.562486392701949e+00	 7.569237662096222e+00
 7.534892174470363e-01	 1.569698151011624e+00	 7.430632696168952e+00
 9.041440138830749e-01	 1.498340460524385e+00	 8.870993929700258e+00
 8.897223708094438e-01	 1.506948778138374e+00	 8.726874628853045e+00
 8.752364346535145e-01	 1.515408082671938e+00	 8.583794289391845e+00
 8.606884706921478e-01	 1.523717744348785e+00	 8.441487957387320e+00
 8.460807501163218e-01	 1.531877178377833e+00	 8.299765131012059e+00
 8.314155489370515e-01	 1.539885844936908e+00	 8.158513853172103e+00
 8.166951468965006e-01	 1.547743249125263e+00	 8.017704096697713e+00
 8.019218263852995e-01	 1.555448940885219e+00	 7.877390422867688e+00
 7.870978713670681e-01	 1.563002514893328e+00	 7.737713899099686e+00
 7.722255663111076e-01	 1.570403610421449e+00	 7.598903266706198e+00
 7.573071951342214e-01	 1.577651911168186e+00	 7.461275354679785e+00
 9.087022719986347e-01	 1.505894370592087e+00	 8.893315293102962e+00
 8.942079219553956e-01	 1.514546087192401e+00	 8.749969209343227e+00
 8.796489546951897e-01	 1.523048039460192e+00	 8.607645332491334e+00
 8.650276469152963e-01	 1.531399594444139e+00	 8.466079502294601e+00
 8.503462812569321e-01	 1.539600164404925e+00	 8.325084571635447e+00
 8.356071452056488e-01	 1.547649206798855e+00	 8.184554672319720e+00
 8.208125299969579e-01	 1.555546224230132e+00	 8.044468748042540e+00
 8.059647295281903e-01	 1.563290764372100e+00	 7.904893334503264e+00
 7.910660392775967e-01	 1.570882419857870e+00	 7.765984571870817e+00
 7.761187552316586e-01	 1.578320828140681e+00	 7.627989440038251e+00
 7.611251728215739e-01	 1.585605671324500e+00	 7.491246212338927e+00
 9.132605352801892e-01	 1.513448289219931e+00	 8.915500703055008e+00
 8.986934781849053e-01	 1.522143404855727e+00	 8.772938118704698e+00
 8.840614797376112e-01	 1.530688004906044e+00	 8.631389188716371e+00
 8.693668280560238e-01	 1.539081453244533e+00	 8.490585089272548e+00
 8.546118172316102e-01	 1.547323159183640e+00	 8.350336408536634e+00
 8.397987462244753e-01	 1.555412577458151e+00	 8.210537602727861e+00
 8.249299177634937e-01	 1.563349208177210e+00	 8.071170693483349e+00
 8.100076372527125e-01	 1.571132596745196e+00	 7.932308185638862e+00
 7.950342116850274e-01	 1.578762333751769e+00	 7.794115189946925e+00
 7.800119485641155e-01	 1.586238054831553e+00	 7.656850740675736e+00
 7.649431548355849e-01	 1.593559440493879e+00	 7.520868303435925e+00
 9.178188088933178e-01	 1.521002224968144e+00	 8.937999327647232e+00
 9.031790445811415e-01	 1.529740739737763e+00	 8.796237984470917e+00
 8.884740147811701e-01	 1.538327987667236e+00	 8.655485380710587e+00
 8.737060190315843e-01	 1.546763329455182e+00	 8.515462633203834e+00
 8.588773628741327e-01	 1.555046171465807e+00	 8.375972512875077e+00
 8.439903567435021e-01	 1.563175965712369e+00	 8.236904108324104e+00
 8.290473148619583e-01	 1.571152209808962e+00	 8.098236704294434e+00
 8.140505541402934e-01	 1.578974446890986e+00	 7.960042853251897e+00
 7.990023930860779e-01	 1.586642265504654e+00	 7.822490623881056e+00
 7.839051507202141e-01	 1.594155299465974e+00	 7.685845015899732e+00
 7.687611455027474e-01	 1.601513227689634e+00	 7.550468536183527e+00
 9.223770980035991e-01	 1.528556186396949e+00	 8.961260997875058e+00
 9.076646262272738e-01	 1.537338100447917e+00	 8.820326096947548e+00
 8.928865648262556e-01	 1.545967996401507e+00	 8.680394169616896e+00
 8.780452247592323e-01	 1.554445231781298e+00	 8.541170936252499e+00
 8.631429230182767e-01	 1.562769210003252e+00	 8.402445862116961e+00
 8.481819815126992e-01	 1.570939380359090e+00	 8.264097045806931e+00
 8.331647259582009e-01	 1.578955237967850e+00	 8.126095295617951e+00
 8.180934847723605e-01	 1.586816323695950e+00	 7.988507371129254e+00
 8.029705879774670e-01	 1.594522224046154e+00	 7.851498373047743e+00
 7.877983661116885e-01	 1.602072571015847e+00	 7.715333270141561e+00
 7.725791491495536e-01	 1.609467041925078e+00	 7.580377557859029e+00
 9.269354077766124e-01	 1.536110182066576e+00	 8.985736019794322e+00
 9.121502282064713e-01	 1.544935495595601e+00	 8.845660235350215e+00
 8.972991348732574e-01	 1.553608039766600e+00	 8.706576393178789e+00
 8.823844501562227e-01	 1.562127168928098e+00	 8.568169535935077e+00
 8.674085024978194e-01	 1.570492283547801e+00	 8.430210396119545e+00
 8.523736252820379e-01	 1.578702830195891e+00	 8.292560526811760e+00
 8.372821557180713e-01	 1.586758301496337e+00	 8.155176592823079e+00
 8.221364337303418e-01	 1.594658236046570e+00	 8.018113798561608e+00
 8.069388008559120e-01	 1.602402218305899e+00	 7.881528434853601e+00
 7.916915991502745e-01	 1.609989878453082e+00	 7.745679532930245e+00
 7.763971701024950e-01	 1.617420892213523e+00	 7.610929619752175e+00
 7.382172201701207e-01	 1.537882930116643e+00	 7.295026490638966e+00
 7.236297435225110e-01	 1.544800472436972e+00	 7.153318155899147e+00
 7.090017948457513e-01	 1.551568532121260e+00	 7.013114758096419e+00
 6.943355931916827e-01	 1.558186928331899e+00	 6.874163244779878e+00
 6.796333530791191e-01	 1.564655522628554e+00	 6.736265001825496e+00
 6.648972835192718e-01	 1.570974218667745e+00	 6.599274076164555e+00
 6.501295870550970e-01	 1.577142961876710e+00	 6.463094844094181e+00
 6.353324588153149e-01	 1.583161739102190e+00	 6.327679148054310e+00
 6.205080855838198e-01	 1.589030578234767e+00	 6.193022928016806e+00
 6.056586448851712e-01	 1.594749547809442e+00	 6.059162376665832e+00
 5.907863040868248e-01	 1.600318756583150e+00	 5.926169650344383e+00
 7.420352411215601e-01	 1.545836780407322e+00	 7.331504508009006e+00
 7.273723188058242e-01	 1.552790099895475e+00	 7.190932252722249e+00
 7.126687151416508e-01	 1.559593163631131e+00	 7.051832086961179e+00
 6.979266606577137e-01	 1.566245789841412e+00	 6.913916315700417e+00
 6.831483813262161e-01	 1.572747839369985e+00	 6.776953292642302e+00
 6.683360975832732e-01	 1.579099215375095e+00	 6.640765656234198e+00
 6.534920233632909e-01	 1.585299863001742e+00	 6.505227988837429e+00
 6.386183651480936e-01	 1.591349769028650e+00	 6.370263922519603e+00
 6.237173210315201e-01	 1.597248961490656e+00	 6.235842718311313e+00
 6.087910798001863e-01	 1.602997509277233e+00	 6.101975348936376e+00
 5.938418200310727e-01	 1.608595521707807e+00	 5.968710117909207e+00
 7.458532447671977e-01	 1.553790594644504e+00	 7.366060016832778e+00
 7.311148771253558e-01	 1.560779691138358e+00	 7.226625739658921e+00
 7.163356188167301e-01	 1.567617758766773e+00	 7.088588640089940e+00
 7.015177118467748e-01	 1.574304614821597e+00	 6.951642182404166e+00
 6.866633936410276e-01	 1.580840119430500e+00	 6.815538021760291e+00
 6.717748960604549e-01	 1.587224175253450e+00	 6.680084226400020e+00
 6.568544444308601e-01	 1.593456727153210e+00	 6.545142899673063e+00
 6.419042565871184e-01	 1.599537761840478e+00	 6.410627225992108e+00
 6.269265419329615e-01	 1.605467307494346e+00	 6.276497968335929e+00
 6.119235005170091e-01	 1.611245433358750e+00	 6.142759448182945e+00
 5.968973221257120e-01	 1.616872249315604e+00	 6.009455041779292e+00
 7.496712354335257e-01	 1.561744381841501e+00	 7.398999211104201e+00
 7.348574227220943e-01	 1.568769255219472e+00	 7.260672455800787e+00
 7.200025100262408e-01	 1.575642326621699e+00	 7.123632993699072e+00
 7.051087508281582e-01	 1.582363412404755e+00	 6.987571021887058e+00
 6.901783940066800e-01	 1.588932371980312e+00	 6.852237602006735e+00
 6.752136828475825e-01	 1.595349107510062e+00	 6.717442841768461e+00
 6.602168540680257e-01	 1.601613563574521e+00	 6.583053452035565e+00
 6.451901368558957e-01	 1.607725726816363e+00	 6.448989704294902e+00
 6.301357519247769e-01	 1.613685625558930e+00	 6.315221816952731e+00
 6.150559105852531e-01	 1.619493329400616e+00	 6.181765802298931e+00
 5.999528138332071e-01	 1.625148948785818e+00	 6.048678809105670e+00
 7.534892174470363e-01	 1.569698151011624e+00	 7.430632696168952e+00
 7.385999598370280e-01	 1.576758801192669e+00	 7.293351199135715e+00
 7.236693929254339e-01	 1.583666876289425e+00	 7.157219063432631e+00
 7.086997816711579e-01	 1.590422191723191e+00	 7.021938568380022e+00
 6.936933864063007e-01	 1.597024606189638e+00	 6.887276062959073e+00
 6.786524618414209e-01	 1.603474021352178e+00	 6.753060079986749e+00
 6.635792560850077e-01	 1.609770381509082e+00	 6.619178800678190e+00
 6.484760096779308e-01	 1.615913673234994e+00	 6.485576895166455e+00
 6.333449546435997e-01	 1.621903924997502e+00	 6.352251768324734e+00
 6.181883135545339e-01	 1.627741206749455e+00	 6.219249243739760e+00
 6.030082986160217e-01	 1.633425629497728e+00	 6.086658721946403e+00
 7.573071951342214e-01	 1.577651911168186e+00	 7.461275354679785e+00
 7.423424927111456e-01	 1.584748338111799e+00	 7.324945588771497e+00
 7.273362716695602e-01	 1.591691416863465e+00	 7.189605966605487e+00
 7.122908084450659e-01	 1.598480961909206e+00	 7.054985979230285e+00
 6.972083748230158e-01	 1.605116831228691e+00	 6.920882923949073e+00
 6.820912369387350e-01	 1.611598925987050e+00	 6.787159924727352e+00
 6.669416542920269e-01	 1.617927190200302e+00	 6.653743276849297e+00
 6.517618787767300e-01	 1.624101610375061e+00	 6.520619142219047e+00
 6.365541537260625e-01	 1.630122215123159e+00	 6.387829625601477e+00
 6.213207129744667e-01	 1.635989074751893e+00	 6.255468265746090e+00
 6.060637799366202e-01	 1.641702300830610e+00	 6.123674978698149e+00
 7.611251728215739e-01	 1.585605671324500e+00	 7.491246212338924e+00
 7.460850255854350e-01	 1.592737875030713e+00	 7.355743927272552e+00
 7.310031504138708e-01	 1.599715957437334e+00	 7.221057884763078e+00
 7.158818352191763e-01	 1.606539732095104e+00	 7.086959701188784e+00
 7.007233632399525e-01	 1.613209056267687e+00	 6.953293067456265e+00
 6.855300120362904e-01	 1.619723830621925e+00	 6.819971649430673e+00
 6.703040524993042e-01	 1.626083998891588e+00	 6.686976285507976e+00
 6.550477478757982e-01	 1.632289547515253e+00	 6.554351508605722e+00
 6.397633528087988e-01	 1.638340505248991e+00	 6.422201423891176e+00
 6.244531123946662e-01	 1.644236942754548e+00	 6.290684977339480e+00
 6.091192612574667e-01	 1.649978972163745e+00	 6.160010653700279e+00
 7.649431548355849e-01	 1.593559440493879e+00	 7.520868303435925e+00
 7.498275627008849e-01	 1.600727421003264e+00	 7.386039063101160e+00
 7.346700333136174e-01	 1.607740507104548e+00	 7.251843926547032e+00
 7.194728660627816e-01	 1.614598511413189e+00	 7.118111337094033e+00
 7.042383556402380e-01	 1.621301290476840e+00	 6.984746612878386e+00
 6.889687910308518e-01	 1.627848744464054e+00	 6.851729701309465e+00
 6.736664545170600e-01	 1.634240816826348e+00	 6.719112202573251e+00
 6.583336206986419e-01	 1.640477493934260e+00	 6.587013690407898e+00
 6.429725555284411e-01	 1.646558804688096e+00	 6.455617362545835e+00
 6.275855153647476e-01	 1.652484820104049e+00	 6.325165057137678e+00
 6.121747460410250e-01	 1.658255652876409e+00	 6.195951675081297e+00
 7.687611455027474e-01	 1.601513227689634e+00	 7.550468536183527e+00
 7.535701082984835e-01	 1.608716985083301e+00	 7.416128253162400e+00
 7.383369245240510e-01	 1.615765074958621e+00	 7.282237990854430e+00
 7.230639050451747e-01	 1.622657308995762e+00	 7.148697512934688e+00
 7.077533560069987e-01	 1.629393543026364e+00	 7.015488790665585e+00
 6.924075778191850e-01	 1.635973676720688e+00	 6.882673585595143e+00
 6.770288641555144e-01	 1.642397653247990e+00	 6.750390272208897e+00
 6.616195009687661e-01	 1.648665458910769e+00	 6.618849929753943e+00
 6.461817655216227e-01	 1.654777122753565e+00	 6.488331736784541e+00
 6.307179254343258e-01	 1.660732716147016e+00	 6.359177706028317e+00
 6.152302377497595e-01	 1.666532352347879e+00	 6.231786800904766e+00
 7.725791491495536e-01	 1.609467041925078e+00	 7.580377557859022e+00
 7.573126666192194e-01	 1.616706576324677e+00	 7.446313025443430e+00
 7.420038282004221e-01	 1.623789670093067e+00	 7.312518630278584e+00
 7.266549562356495e-01	 1.630716133975127e+00	 7.178979745277599e+00
 7.112683683233616e-01	 1.637485823086475e+00	 7.045769816800706e+00
 6.958463762980548e-01	 1.644098636599074e+00	 6.913047750023873e+00
 6.803912852248891e-01	 1.650554517399922e+00	 6.781054504139925e+00
 6.649053924096767e-01	 1.656853451723470e+00	 6.650108927674302e+00
 6.493909864249762e-01	 1.662995468758495e+00	 6.520602868678081e+00
 6.338503461530158e-01	 1.668980640230076e+00	 6.392995598746513e+00
 6.182857398461339e-01	 1.674809079957435e+00	 6.267807593678965e+00
 7.763971701024950e-01	 1.617420892213523e+00	 7.610929619752175e+00
 7.610552419040807e-01	 1.624696203781240e+00	 7.476899041743685e+00
 7.456707484979823e-01	 1.631814301601403e+00	 7.342968914821974e+00
 7.302460237034977e-01	 1.638774995483586e+00	 7.209224309047020e+00
 7.147833965724535e-01	 1.645578139827385e+00	 7.075844767619905e+00
 6.992851903642262e-01	 1.652223633306464e+00	 6.943101469550630e+00
 6.837537215354034e-01	 1.658711418525549e+00	 6.811353571002639e+00
 6.681912987448795e-01	 1.665041481651053e+00	 6.681043756710277e+00
 6.526002218751353e-01	 1.671213852015979e+00	 6.552693037516657e+00
 6.369827810704327e-01	 1.677228601699848e+00	 6.426894834388545e+00
 6.213412557926123e-01	 1.683085845084353e+00	 6.304308393287817e+00
 5.907863040868248e-01	 1.600318756583150e+00	 5.926169650344383e+00
 5.758957525915404e-01	 1.605737444383062e+00	 5.795632759774962e+00
 5.609866070405670e-01	 1.611006757438059e+00	 5.667666566854265e+00
 5.460609973873252e-01	 1.616126921211349e+00	 5.542261153008257e+00
 5.311210400547076e-01	 1.621098199458451e+00	 5.419505463193097e+00
 5.161688371304696e-01	 1.625920893701830e+00	 5.299509714349914e+00
 5.012064755825815e-01	 1.630595342686943e+00	 5.182396798394884e+00
 4.862360264949831e-01	 1.635121921820524e+00	 5.068294033185166e+00
 4.712595443241364e-01	 1.639501042591871e+00	 4.957325286533986e+00
 4.562790661767438e-01	 1.643733151977961e+00	 4.849603495765116e+00
 4.412966111089681e-01	 1.647818731833210e+00	 4.745223602685659e+00
 5.938418200310727e-01	 1.608595521707807e+00	 5.968710117909207e+00
 5.788742553802930e-01	 1.614042234677985e+00	 5.838234195844834e+00
 5.638880005063792e-01	 1.619338800344882e+00	 5.710112455511528e+00
 5.488851963787501e-01	 1.624485445337789e+00	 5.584171953731443e+00
 5.338679703663187e-01	 1.629482434776356e+00	 5.460609696462708e+00
 5.188384354287184e-01	 1.634330071742502e+00	 5.339643527235340e+00
 5.037986893276002e-01	 1.639028696733660e+00	 5.221503178718409e+00
 4.887508138584330e-01	 1.643578687098145e+00	 5.106421686437740e+00
 4.736968741032108e-01	 1.647980456453455e+00	 4.994627190453325e+00
 4.586389177044372e-01	 1.652234454088310e+00	 4.886335148137151e+00
 4.435789741607188e-01	 1.656341164349249e+00	 4.781740978491426e+00
 5.968973221257120e-01	 1.616872249315604e+00	 6.009455041779292e+00
 5.818527446684305e-01	 1.622346987328963e+00	 5.879257106420065e+00
 5.667893808209928e-01	 1.627670805484157e+00	 5.751531631834360e+00
 5.517093825687714e-01	 1.632843931576559e+00	 5.625686022686108e+00
 5.366148882266547e-01	 1.637866632089948e+00	 5.501994241983994e+00
 5.215080216261112e-01	 1.642739211665698e+00	 5.380750292065588e+00
 5.063908913224290e-01	 1.647462012553212e+00	 5.262258957967397e+00
 4.912655898225618e-01	 1.652035414042385e+00	 5.146826926966380e+00
 4.761341928339942e-01	 1.656459831878909e+00	 5.034754310781998e+00
 4.609987585349881e-01	 1.660735717663242e+00	 4.926326594161890e+00
 4.458613268665516e-01	 1.664863558234037e+00	 4.821807030825351e+00
 5.999528138332071e-01	 1.625148948785818e+00	 6.048678809105662e+00
 5.848312238311610e-01	 1.630651711747050e+00	 5.918975218215204e+00
 5.696907512722506e-01	 1.636002782297840e+00	 5.792207755465948e+00
 5.545335591577693e-01	 1.641202389399646e+00	 5.667087901382653e+00
 5.393617967485489e-01	 1.646250800900371e+00	 5.543936054161090e+00
 5.241775987478607e-01	 1.651148323000847e+00	 5.423091490012194e+00
 5.089830845045978e-01	 1.655895299702445e+00	 5.304902841034512e+00
 4.937803572371684e-01	 1.660492112236637e+00	 5.189718963132756e+00
 4.785715032785152e-01	 1.664939178477311e+00	 5.077880221091047e+00
 4.633585913426267e-01	 1.669236952336652e+00	 4.969710215070211e+00
 4.481436718128829e-01	 1.673385923145431e+00	 4.865507969962493e+00
 6.030082986160217e-01	 1.633425629497728e+00	 6.086658721946403e+00
 5.878096962436921e-01	 1.638956417343300e+00	 5.957665206362096e+00
 5.725921151479941e-01	 1.644334740227887e+00	 5.832426544207394e+00
 5.573577293461232e-01	 1.649560828279030e+00	 5.708663494033559e+00
 5.421086990448337e-01	 1.654634950708765e+00	 5.586712939510407e+00
 5.268471698191795e-01	 1.659557415277376e+00	 5.466929118637331e+00
 5.115752718116380e-01	 1.664328567738204e+00	 5.349673878294626e+00
 4.962951189520516e-01	 1.668948791264298e+00	 5.235307332579726e+00
 4.810088081988015e-01	 1.673418505857737e+00	 5.124178952600904e+00
 4.657184188015836e-01	 1.677738167742438e+00	 5.016619112497222e+00
 4.504260115861295e-01	 1.681908268741285e+00	 4.912931113519206e+00
 6.060637799366202e-01	 1.641702300830610e+00	 6.123674978698149e+00
 5.907881652812302e-01	 1.647261113528765e+00	 5.995684446038193e+00
 5.754934757360652e-01	 1.652666688716251e+00	 5.872475912586342e+00
 5.601818963342136e-01	 1.657919257686699e+00	 5.750700212614026e+00
 5.448555982283425e-01	 1.663019091016272e+00	 5.630603703717844e+00
 5.295167378652802e-01	 1.667966498024714e+00	 5.512525836726789e+00
 5.141674561810801e-01	 1.672761826217335e+00	 5.396811604271234e+00
 4.988098778170105e-01	 1.677405460708763e+00	 5.283802031068343e+00
 4.834461103568818e-01	 1.681897823629267e+00	 5.173825109797267e+00
 4.680782435860895e-01	 1.686239373514497e+00	 5.067187207768774e+00
 4.527083487727080e-01	 1.690430604679451e+00	 4.964164966581844e+00
 6.091192612574667e-01	 1.649978972163745e+00	 6.160010653700279e+00
 5.937666343189832e-01	 1.655565809714499e+00	 6.033453342712273e+00
 5.783948363243070e-01	 1.660998637204889e+00	 5.912646107639370e+00
 5.630060633224202e-01	 1.666277687094635e+00	 5.793487118864312e+00
 5.476024974119078e-01	 1.671403231324035e+00	 5.675888295503746e+00
 5.321863059113755e-01	 1.676375580772290e+00	 5.560145105928210e+00
 5.167596405504552e-01	 1.681195084696685e+00	 5.446556173222854e+00
 5.013246366818435e-01	 1.685862130153426e+00	 5.335413638460743e+00
 4.858834125147845e-01	 1.690377141400979e+00	 5.226993983529032e+00
 4.704380683703745e-01	 1.694740579286728e+00	 5.121549339102126e+00
 4.549906859590346e-01	 1.698952940617783e+00	 5.019299300264128e+00
 6.121747460410250e-01	 1.658255652876409e+00	 6.195951675081297e+00
 5.967451067321587e-01	 1.663870515311554e+00	 6.071277247330601e+00
 5.812962002005601e-01	 1.669330595135754e+00	 5.953229842007728e+00
 5.658302335111228e-01	 1.674636125974823e+00	 5.837315063346980e+00
 5.503493997083629e-01	 1.679787381133194e+00	 5.722847947413859e+00
 5.348558769826780e-01	 1.684784673049532e+00	 5.610051329307607e+00
 5.193518278572937e-01	 1.689628352733098e+00	 5.499148491764750e+00
 5.038393983963497e-01	 1.694318809181683e+00	 5.390353441961580e+00
 4.883207174345374e-01	 1.698856468781952e+00	 5.283861661685960e+00
 4.727978958286690e-01	 1.703241794693026e+00	 5.179841356799349e+00
 4.572730257315263e-01	 1.707475286214137e+00	 5.078425228758776e+00
 6.152302377497595e-01	 1.666532352347879e+00	 6.231786800904766e+00
 5.997235858959635e-01	 1.672175239730982e+00	 6.109461916410276e+00
 5.841975706526672e-01	 1.677662571950801e+00	 5.994522424450240e+00
 5.686544101007016e-01	 1.682994583799245e+00	 5.882476821666645e+00
 5.530963082305408e-01	 1.688171549944890e+00	 5.771765313649387e+00
 5.375254541044006e-01	 1.693193784385869e+00	 5.662509986946564e+00
 5.219440210391266e-01	 1.698061639883421e+00	 5.554830348635392e+00
 5.063541658103280e-01	 1.702775507376928e+00	 5.448833556716639e+00
 4.907580278781689e-01	 1.707335815381264e+00	 5.344605137544326e+00
 4.751577286352038e-01	 1.711743029367290e+00	 5.242200216508351e+00
 4.595553706765995e-01	 1.715997651126365e+00	 5.141635284936145e+00
 6.182857398461339e-01	 1.674809079957435e+00	 6.267807593678965e+00
 6.027020751856050e-01	 1.680479992383838e+00	 6.148315268482762e+00
 5.870989509684704e-01	 1.685994577091986e+00	 6.036821887870520e+00
 5.714785962915362e-01	 1.691353070039888e+00	 5.929267227960953e+00
 5.558432260912740e-01	 1.696555747260267e+00	 5.822924605047310e+00
 5.401950403017557e-01	 1.701602924310728e+00	 5.717787768679377e+00
 5.245362230334848e-01	 1.706494955704498e+00	 5.613844541711674e+00
 5.088689417735772e-01	 1.711232234322558e+00	 5.511067043864184e+00
 4.931953466077078e-01	 1.715815190807992e+00	 5.409402415865973e+00
 4.775175694642090e-01	 1.720244292943415e+00	 5.308764070623215e+00
 4.618377233806708e-01	 1.724520045012323e+00	 5.209023494546399e+00
 6.213412557926123e-01	 1.683085845084353e+00	 6.304308393287824e+00
 6.056805779762906e-01	 1.688784782681174e+00	 6.188147378177272e+00
 5.900003444358113e-01	 1.694326620001263e+00	 6.080469999969972e+00
 5.743027952840069e-01	 1.699711594168735e+00	 5.977983305761843e+00
 5.585901564033956e-01	 1.704939982580464e+00	 5.876611721312782e+00
 5.428646385999558e-01	 1.710012102353537e+00	 5.776152704082731e+00
 5.271284367778988e-01	 1.714928309753176e+00	 5.676435002371662e+00
 5.113837291358960e-01	 1.719688999601967e+00	 5.577268026136236e+00
 4.956326763851813e-01	 1.724294604671215e+00	 5.478432616832407e+00
 4.798774209899149e-01	 1.728745595055301e+00	 5.379672357890561e+00
 4.641200864301568e-01	 1.733042477529863e+00	 5.280685449076946e+00
 4.412966111089681e-01	 1.647818731833210e+00	 4.745223602685659e+00
 4.263141796519200e-01	 1.651758298622600e+00	 4.643778818576467e+00
 4.113337537490910e-01	 1.655552403853629e+00	 4.545046229180818e+00
 3.963572954751309e-01	 1.659201632344353e+00	 4.449352347827754e+00
 3.813867462147714e-01	 1.662706601199298e+00	 4.356983670094731e+00
 3.664240260737301e-01	 1.666067959132822e+00	 4.268181584643504e+00
 3.514710333125002e-01	 1.669286385782073e+00	 4.183137768217659e+00
 3.365296438031382e-01	 1.672362591010333e+00	 4.101990067481650e+00
 3.216017105091286e-01	 1.675297314201602e+00	 4.024818868099839e+00
 3.066890629883714e-01	 1.678091323547173e+00	 3.951643949260366e+00
 2.917935069193159e-01	 1.680745415325032e+00	 3.882421819743541e+00
 4.435789741607188e-01	 1.656341164349249e+00	 4.781740978491426e+00
 4.285190543498036e-01	 1.660301106372383e+00	 4.680540091180001e+00
 4.134611504656968e-01	 1.664114834517588e+00	 4.582504128287668e+00
 3.984072347308053e-01	 1.667782936627572e+00	 4.487894908388386e+00
 3.833592585706105e-01	 1.671306032998505e+00	 4.396931538595779e+00
 3.683191520215247e-01	 1.674684775699870e+00	 4.309785320409762e+00
 3.532888231617544e-01	 1.677919847883867e+00	 4.226575152927022e+00
 3.382701575652775e-01	 1.681011963085166e+00	 4.147363435929484e+00
 3.232650177790171e-01	 1.683961864511827e+00	 4.072152473028220e+00
 3.082752428232595e-01	 1.686770324328196e+00	 4.000881372790266e+00
 2.933026477153374e-01	 1.689438142930575e+00	 3.933423443621527e+00
 4.458613268665516e-01	 1.664863558234037e+00	 4.821807030825351e+00
 4.307239190530261e-01	 1.668843875398534e+00	 4.720959830338689e+00
 4.155885375388807e-01	 1.672677226368962e+00	 4.623554915182724e+00
 4.004571646942260e-01	 1.676364202012672e+00	 4.529812367633385e+00
 3.853317619852419e-01	 1.679905425817453e+00	 4.439906844777164e+00
 3.702142693789848e-01	 1.683301553207896e+00	 4.353962447918390e+00
 3.551066047713233e-01	 1.686553270851235e+00	 4.272048103491617e+00
 3.400106634381067e-01	 1.689661295953505e+00	 4.194173457850225e+00
 3.249283175096477e-01	 1.692626375546808e+00	 4.120285285910887e+00
 3.098614154685703e-01	 1.695449285768520e+00	 4.050264411325428e+00
 2.948117816710419e-01	 1.698130831133236e+00	 3.983923133648848e+00
 4.481436718128829e-01	 1.673385923145431e+00	 4.865507969962493e+00
 4.329287762601861e-01	 1.677386615382004e+00	 4.765078594491441e+00
 4.177159173794299e-01	 1.681239589110945e+00	 4.668198928004684e+00
 4.025070876883904e-01	 1.684945438224232e+00	 4.575069972673994e+00
 3.873042586939053e-01	 1.688504789401261e+00	 4.485844569749521e+00
 3.721093802936372e-01	 1.691918301421715e+00	 4.400622201281704e+00
 3.569243802010784e-01	 1.695186664467848e+00	 4.319444318420355e+00
 3.417511633939113e-01	 1.698310599417042e+00	 4.242290198556667e+00
 3.265916115858005e-01	 1.701290857125424e+00	 4.169073331108107e+00
 3.114475827216708e-01	 1.704128217703386e+00	 4.099638329388190e+00
 2.963209104964883e-01	 1.706823489783799e+00	 4.033758363731197e+00
 4.504260115861295e-01	 1.681908268741285e+00	 4.912931113519206e+00
 4.351336284698812e-01	 1.685929336003742e+00	 4.812938450517271e+00
 4.198432923981320e-01	 1.689801932446728e+00	 4.716438330129108e+00
 4.045570060362953e-01	 1.693526654986833e+00	 4.623635035462014e+00
 3.892767509318409e-01	 1.697104133495052e+00	 4.534681928957731e+00
 3.740044869130095e-01	 1.700535030106144e+00	 4.449676155367730e+00
 3.587421515108914e-01	 1.703820038517377e+00	 4.368653887326992e+00
 3.434916594049765e-01	 1.706959883277466e+00	 4.291586115697950e+00
 3.282549018922555e-01	 1.709955319066555e+00	 4.218374984339040e+00
 3.130337463799290e-01	 1.712807129968036e+00	 4.148850666519657e+00
 2.978300359017357e-01	 1.715516128733043e+00	 4.082768777888392e+00
 4.527083487727080e-01	 1.690430604679451e+00	 4.964164966581844e+00
 4.373384781807100e-01	 1.694472046944703e+00	 4.864583034662141e+00
 4.219706650057747e-01	 1.698364266079504e+00	 4.768277154354251e+00
 4.066069220609382e-01	 1.702107862025056e+00	 4.675476962524556e+00
 3.912492409342875e-01	 1.705703467843943e+00	 4.586358389572782e+00
 3.758995913846281e-01	 1.709151749026000e+00	 4.501038232795592e+00
 3.605599207606341e-01	 1.712453402783493e+00	 4.419569289305580e+00
 3.452321534435876e-01	 1.715609157336470e+00	 4.341936050624112e+00
 3.299181903137928e-01	 1.718619771189080e+00	 4.268050958467303e+00
 3.146199082407117e-01	 1.721486032397711e+00	 4.197751218760081e+00
 2.993391595968430e-01	 1.724208757831753e+00	 4.130796168520683e+00
 4.549906859590346e-01	 1.698952940617783e+00	 5.019299300264128e+00
 4.395433278912707e-01	 1.703014757885835e+00	 4.920057612422996e+00
 4.240980376131453e-01	 1.706926599712466e+00	 4.823721346490816e+00
 4.086568380853162e-01	 1.710689069063482e+00	 4.730567284474019e+00
 3.932217309364851e-01	 1.714302802193057e+00	 4.640815687982075e+00
 3.777946958560204e-01	 1.717768467946096e+00	 4.554624711292789e+00
 3.623776900101776e-01	 1.721086767049868e+00	 4.472085391879498e+00
 3.469726474820300e-01	 1.724258431395743e+00	 4.393217220482941e+00
 3.315814787351925e-01	 1.727284223311878e+00	 4.317964290146218e+00
 3.162060701013867e-01	 1.730164934827652e+00	 4.246192021066920e+00
 3.008482832918693e-01	 1.732901386930710e+00	 4.177684455677427e+00
 4.572730257315263e-01	 1.707475286214137e+00	 5.078425228758776e+00
 4.417481801001611e-01	 1.711557478508091e+00	 4.979409137421143e+00
 4.262254126310313e-01	 1.715488943048804e+00	 4.882778808373994e+00
 4.107067564324265e-01	 1.719270285826692e+00	 4.788879685314801e+00
 3.951942231736736e-01	 1.722902146287515e+00	 4.697997847379417e+00
 3.796898024747137e-01	 1.726385196631251e+00	 4.610354231404872e+00
 3.641954613193938e-01	 1.729720141100172e+00	 4.526099450502596e+00
 3.487131434925890e-01	 1.732907715256978e+00	 4.445309211031031e+00
 3.332447690412345e-01	 1.735948685253828e+00	 4.367980327290849e+00
 3.177922337593210e-01	 1.738843847093101e+00	 4.294027330651099e+00
 3.023574086968734e-01	 1.741594025880697e+00	 4.223279667290013e+00
 4.595553706765995e-01	 1.715997651126365e+00	 5.141635284936145e+00
 4.439530373059795e-01	 1.720100218492422e+00	 5.042686309310771e+00
 4.283527924702204e-01	 1.724051305791712e+00	 4.945459440326181e+00
 4.127566794252662e-01	 1.727851522039265e+00	 4.850390031549639e+00
 3.971667198810920e-01	 1.731501509872435e+00	 4.757851195455556e+00
 3.815849133882345e-01	 1.735001944846279e+00	 4.668147804547318e+00
 3.660132367481546e-01	 1.738353534718077e+00	 4.581511108601001e+00
 3.504536434475501e-01	 1.741557018721864e+00	 4.498093970133088e+00
 3.349080631166989e-01	 1.744613166833812e+00	 4.417966717354768e+00
 3.193784010118823e-01	 1.747522779029301e+00	 4.341113611191732e+00
 3.038665375219142e-01	 1.750286684532495e+00	 4.267429920337746e+00
 4.618377233806708e-01	 1.724520045012323e+00	 5.209023494546399e+00
 4.461579020073239e-01	 1.728642987519778e+00	 5.109939630757839e+00
 4.304801795414998e-01	 1.732613697644382e+00	 5.011775183091849e+00
 4.148066093868325e-01	 1.736432787425782e+00	 4.915076401102298e+00
 3.991392232939805e-01	 1.740100902692939e+00	 4.820324382183665e+00
 3.834800307441104e-01	 1.743618722355998e+00	 4.727928821388220e+00
 3.678310183563314e-01	 1.746986957687255e+00	 4.638222398131367e+00
 3.521941493191987e-01	 1.750206351592091e+00	 4.551455801927102e+00
 3.365713628463656e-01	 1.753277677870706e+00	 4.467793396382242e+00
 3.209645736564382e-01	 1.756201740471491e+00	 4.387309517905894e+00
 3.053756714770509e-01	 1.758979372736888e+00	 4.309985402916611e+00
 4.641200864301568e-01	 1.733042477529863e+00	 5.280685449076946e+00
 4.483627767027926e-01	 1.737185795271111e+00	 5.181221463521743e+00
 4.326075762556573e-01	 1.741176128310005e+00	 5.081740059263296e+00
 4.168565486401227e-01	 1.745014091710825e+00	 4.982919112058852e+00
 4.011117356475782e-01	 1.748700334494148e+00	 4.885368397706538e+00
 3.853751566898679e-01	 1.752235538925222e+00	 4.789623060558093e+00
 3.696488082037957e-01	 1.755620419791376e+00	 4.696137740647236e+00
 3.539346630798197e-01	 1.758855723669352e+00	 4.605281361638021e+00
 3.382346701150147e-01	 1.761942228183390e+00	 4.517332578811165e+00
 3.225507534903555e-01	 1.764880741254913e+00	 4.432482058188974e+00
 3.068848122723423e-01	 1.767672100344656e+00	 4.352534095580296e+00
 2.917935069193159e-01	 1.680745415325032e+00	 3.882421819743541e+00
 2.769142968207429e-01	 1.683260828760689e+00	 3.816481450774852e+00
 2.620557273201212e-01	 1.685637950418222e+00	 3.753456740745932e+00
 2.472195345445104e-01	 1.687877655672838e+00	 3.693623033668566e+00
 2.324074289780241e-01	 1.689980845083896e+00	 3.637180802707900e+00
 2.176210951024806e-01	 1.691948443648752e+00	 3.584254819353896e+00
 2.028621910608533e-01	 1.693781400053988e+00	 3.534893760488515e+00
 1.881323483433538e-01	 1.695480685924739e+00	 3.489070238037209e+00
 1.734331714959617e-01	 1.697047295072823e+00	 3.446681234677528e+00
 1.587662378511934e-01	 1.698482242744367e+00	 3.407548927997905e+00
 1.441330972808751e-01	 1.699786564867602e+00	 3.371421884534273e+00
 2.933026477153374e-01	 1.689438142930575e+00	 3.933423443621527e+00
 2.783464831184466e-01	 1.691966565953688e+00	 3.869045625251354e+00
 2.634110658716375e-01	 1.694355981960888e+00	 3.807389877659822e+00
 2.484981410811182e-01	 1.696607270854758e+00	 3.748749818709380e+00
 2.336094280775258e-01	 1.698721337852289e+00	 3.693340641442203e+00
 2.187466200547211e-01	 1.700699112734856e+00	 3.641298284479323e+00
 2.039113837314958e-01	 1.702541549095582e+00	 3.592679054201143e+00
 1.891053590360338e-01	 1.704249623584780e+00	 3.547459682859352e+00
 1.743301588129330e-01	 1.705824335154196e+00	 3.505537805526099e+00
 1.595873685525815e-01	 1.707266704300739e+00	 3.466732837678416e+00
 1.448785461426520e-01	 1.708577772310391e+00	 3.430787234222032e+00
 2.948117816710419e-01	 1.698130831133236e+00	 3.983923133648848e+00
 2.797786629246872e-01	 1.700672263684863e+00	 3.920486253495177e+00
 2.647663982800408e-01	 1.703073973986022e+00	 3.859612181424320e+00
 2.497767418224222e-01	 1.705336846466656e+00	 3.801617201409837e+00
 2.348114217289577e-01	 1.707461791001365e+00	 3.746735536895621e+00
 2.198721399055148e-01	 1.709449742155527e+00	 3.695118517535172e+00
 2.049605716466700e-01	 1.711301658428788e+00	 3.646834212017192e+00
 1.900783653185451e-01	 1.713018521496616e+00	 3.601867510592592e+00
 1.752271420643233e-01	 1.714601335450664e+00	 3.560120639622083e+00
 1.604084955322314e-01	 1.716051126038605e+00	 3.521414089342150e+00
 1.456239916257571e-01	 1.717368939904149e+00	 3.485487935020561e+00
 2.963209104964883e-01	 1.706823489783799e+00	 4.033758363731197e+00
 2.812108378623159e-01	 1.709377931819725e+00	 3.970635568105333e+00
 2.661217260810986e-01	 1.711791936373050e+00	 3.909952950273055e+00
 2.510553382172414e-01	 1.714066392401066e+00	 3.852053801381724e+00
 2.360134112943329e-01	 1.716202214435967e+00	 3.797195632097980e+00
 2.209976559302213e-01	 1.718200341827125e+00	 3.745549330869302e+00
 2.060097559952416e-01	 1.720061737980688e+00	 3.697198803009541e+00
 1.910513682934293e-01	 1.721787389597271e+00	 3.652141073666609e+00
 1.761241222665274e-01	 1.723378305908415e+00	 3.610286836416627e+00
 1.612296197205777e-01	 1.724835517912544e+00	 3.571461428052092e+00
 1.463694345748583e-01	 1.726160077611077e+00	 3.535406209103674e+00
 2.978300359017357e-01	 1.715516128733043e+00	 4.082768777888399e+00
 2.826430095541834e-01	 1.718083580223782e+00	 4.019327847204742e+00
 2.674770508105791e-01	 1.720509879001397e+00	 3.958243389056577e+00
 2.523339317143950e-01	 1.722795918550522e+00	 3.899889993008297e+00
 2.372153981356646e-01	 1.724942618060942e+00	 3.844552661427336e+00
 2.221231694041994e-01	 1.726950921666006e+00	 3.792425954517704e+00
 2.070589379660766e-01	 1.728821797678364e+00	 3.743613631349780e+00
 1.920243690632279e-01	 1.730556237823766e+00	 3.698128769383503e+00
 1.770211004359405e-01	 1.732155256473636e+00	 3.655894343630596e+00
 1.620507420480548e-01	 1.733619889877132e+00	 3.616744245402895e+00
 1.471148758346237e-01	 1.734951195393385e+00	 3.580424719517985e+00
 2.993391595968430e-01	 1.724208757831753e+00	 4.130796168520683e+00
 2.840751796231410e-01	 1.726789218762543e+00	 4.066399390377162e+00
 2.688323740042503e-01	 1.729227811750488e+00	 4.004316583593803e+00
 2.536125237627020e-01	 1.731525434807560e+00	 3.944957878929321e+00
 2.384173836149657e-01	 1.733683011781130e+00	 3.888639923913908e+00
 2.232486816028083e-01	 1.735701491588526e+00	 3.835585009973856e+00
 2.081081187480406e-01	 1.737581847448899e+00	 3.785920711167457e+00
 1.929973687304829e-01	 1.739325076113126e+00	 3.739680016451067e+00
 1.779180775889581e-01	 1.740932197092512e+00	 3.696801936022922e+00
 1.628718634450974e-01	 1.742404251886952e+00	 3.657132561043907e+00
 1.478603162497211e-01	 1.743742303213276e+00	 3.620426554951206e+00
 3.008482832918693e-01	 1.732901386930710e+00	 4.177684455677427e+00
 2.855073496920396e-01	 1.735494857301518e+00	 4.111688495635994e+00
 2.701876971978803e-01	 1.737945744499749e+00	 4.048007476066958e+00
 2.548911158109815e-01	 1.740254951064713e+00	 3.987091264557765e+00
 2.396193690942495e-01	 1.742423405501375e+00	 3.929292257544545e+00
 2.243741938014072e-01	 1.744452061511047e+00	 3.874864484920153e+00
 2.091572995299995e-01	 1.746341897219373e+00	 3.823963242308494e+00
 1.939703683977355e-01	 1.748093914402372e+00	 3.776645232344360e+00
 1.788150547419749e-01	 1.749709137711230e+00	 3.732869194889251e+00
 1.636929848421399e-01	 1.751188613896581e+00	 3.692497004832252e+00
 1.486057566648185e-01	 1.752533411032956e+00	 3.655295215014830e+00
 3.023574086968734e-01	 1.741594025880697e+00	 4.223279667290020e+00
 2.869395213837304e-01	 1.744200505706217e+00	 4.155035437383783e+00
 2.715430219272370e-01	 1.746663687128603e+00	 4.089152841420218e+00
 2.561697093080523e-01	 1.748984477214517e+00	 4.026125633594882e+00
 2.408213559355292e-01	 1.751163809126522e+00	 3.966346014542057e+00
 2.254997072753554e-01	 1.753202641349921e+00	 3.910103708887333e+00
 2.102064815008191e-01	 1.755101956916870e+00	 3.857585586965270e+00
 1.949433691675278e-01	 1.756862762628529e+00	 3.808875811462697e+00
 1.797120329113862e-01	 1.758486088275977e+00	 3.763956488277821e+00
 1.645141071696168e-01	 1.759972985860596e+00	 3.722708799597291e+00
 1.493511979245838e-01	 1.761324528814632e+00	 3.684914596026583e+00
 3.038665375219142e-01	 1.750286684532495e+00	 4.267429920337739e+00
 2.883716963210641e-01	 1.752906173842148e+00	 4.196282445338964e+00
 2.728983497280884e-01	 1.755381649516476e+00	 4.127591264731856e+00
 2.574483057027337e-01	 1.757714023149505e+00	 4.061898124507694e+00
 2.420233455008178e-01	 1.759904232561414e+00	 3.999639037580841e+00
 2.266252233000118e-01	 1.761953241021510e+00	 3.941143329810939e+00
 2.112556658493652e-01	 1.763862036468471e+00	 3.886633247147552e+00
 1.959163721424012e-01	 1.765631630728619e+00	 3.836357406370869e+00
 1.806090131135872e-01	 1.767263058732940e+00	 3.790896746640485e+00
 1.653352313579627e-01	 1.768757377733578e+00	 3.749960928127423e+00
 1.500966408736851e-01	 1.770115666520508e+00	 3.713088829834547e+00
 3.053756714770509e-01	 1.758979372736888e+00	 4.309985402916619e+00
 2.898038761268919e-01	 1.761611871574821e+00	 4.235273684389247e+00
 2.742536821362024e-01	 1.764099641542793e+00	 4.163163119523527e+00
 2.587269064438446e-01	 1.766443598762214e+00	 4.094794073100487e+00
 2.432253391521285e-01	 1.768644685710895e+00	 4.031728233071455e+00
 2.277507431507357e-01	 1.770703870442168e+00	 3.973907035855746e+00
 2.123048537645037e-01	 1.772622145801259e+00	 3.921145726458300e+00
 1.968893784248975e-01	 1.774400528639667e+00	 3.873202598581630e+00
 1.815059963649729e-01	 1.776040059028305e+00	 3.829779639452323e+00
 1.661563583376121e-01	 1.777541799470105e+00	 3.790523140710087e+00
 1.508420863567902e-01	 1.778906834112791e+00	 3.755024275125590e+00
 3.068848122723423e-01	 1.767672100344656e+00	 4.352534095580296e+00
 2.912360624240649e-01	 1.770317608769745e+00	 4.277911334967213e+00
 2.756090206873471e-01	 1.772817673086979e+00	 4.208018438064405e+00
 2.600055129802040e-01	 1.775173213945177e+00	 4.142899384076045e+00
 2.444273382514744e-01	 1.777385178479808e+00	 4.082539571678330e+00
 2.288762681028862e-01	 1.779454539528256e+00	 4.026866516986516e+00
 2.133540464351001e-01	 1.781382294842315e+00	 3.975750518509641e+00
 1.978623891175583e-01	 1.783169466298693e+00	 3.929005287070906e+00
 1.824029836819386e-01	 1.784817099108259e+00	 3.886388539340290e+00
 1.669774890389995e-01	 1.786326261024755e+00	 3.847602554271051e+00
 1.515875352185671e-01	 1.787698041553686e+00	 3.812294692338154e+00
 1.441330972808751e-01	 1.699786564867602e+00	 3.371421884534273e+00
 1.295377445191109e-01	 1.700961128514523e+00	 3.337781857452597e+00
 1.149791545157106e-01	 1.702007240692378e+00	 3.306628922078342e+00
 1.004587595530120e-01	 1.702925993974722e+00	 3.278396347063436e+00
 8.597796460385999e-02	 1.703718498596106e+00	 3.253443790176071e+00
 7.153814718581784e-02	 1.704385881721215e+00	 3.232059154506493e+00
 5.714065723491034e-02	 1.704929286717479e+00	 3.214460721415155e+00
 4.278681699857358e-02	 1.705349872431669e+00	 3.200799538778424e+00
 2.847792094747452e-02	 1.705648812471032e+00	 3.191162042998435e+00
 1.421523570584970e-02	 1.705827294489458e+00	 3.185572893243095e+00
 0.000000000000000e+00	 1.705886519479168e+00	 3.183997996596434e+00
 1.448785461426520e-01	 1.708577772310391e+00	 3.430787234222032e+00
 1.302077069777978e-01	 1.709758410739589e+00	 3.397220054660610e+00
 1.155738207063259e-01	 1.710809933355354e+00	 3.366074035465411e+00
 1.009783270182690e-01	 1.711733438381984e+00	 3.337779679822091e+00
 8.642263815292352e-02	 1.712530041796110e+00	 3.312691056928969e+00
 7.190813875230727e-02	 1.713200876592063e+00	 3.291087744038080e+00
 5.743618573424903e-02	 1.713747092050717e+00	 3.273177053228935e+00
 4.300810818478481e-02	 1.714169853012343e+00	 3.259096520812073e+00
 2.862520726952154e-02	 1.714470339154033e+00	 3.248916637161318e+00
 1.428875616361536e-02	 1.714649744272164e+00	 3.242643794773655e+00
 0.000000000000000e+00	 1.714709275570436e+00	 3.240223432570907e+00
 1.456239916257571e-01	 1.717368939904149e+00	 3.485487935020561e+00
 1.308776664000111e-01	 1.718555653088151e+00	 3.451904039122965e+00
 1.161684842018141e-01	 1.719612586117377e+00	 3.420748059820162e+00
 1.014978921288511e-01	 1.720540842866837e+00	 3.392443532760706e+00
 8.686730968682779e-02	 1.721341545055211e+00	 3.367334656095300e+00
 7.227812864217506e-02	 1.722015831506447e+00	 3.345688325704659e+00
 5.773171289448491e-02	 1.722564857414828e+00	 3.327696463200601e+00
 4.322939836835357e-02	 1.722989793614098e+00	 3.313478613911555e+00
 2.877249292428877e-02	 1.723291825851158e+00	 3.303084791967478e+00
 1.436227628832789e-02	 1.723472154064845e+00	 3.296498549600954e+00
 0.000000000000000e+00	 1.723531991670303e+00	 3.293640247994665e+00
 1.463694345748583e-01	 1.726160077611077e+00	 3.535406209103674e+00
 1.315476235448691e-01	 1.727352865529281e+00	 3.501730574369938e+00
 1.167631456759571e-01	 1.728415208953636e+00	 3.470562680368202e+00
 1.020174554734269e-01	 1.729348217409838e+00	 3.442314940652803e+00
 8.731197970936264e-02	 1.730153018358599e+00	 3.417317445203834e+00
 7.264811727457655e-02	 1.730830756453453e+00	 3.395820096228047e+00
 5.802723905039373e-02	 1.731382592802073e+00	 3.377995044825186e+00
 4.345068779994050e-02	 1.731809704231651e+00	 3.363939405015770e+00
 2.891977807859615e-02	 1.732113282558871e+00	 3.353678221555445e+00
 1.443579616325058e-02	 1.732294533865007e+00	 3.347167667942469e+00
 0.000000000000000e+00	 1.732354677776619e+00	 3.344298451248912e+00
 1.471148758346237e-01	 1.734951195393385e+00	 3.580424719517985e+00
 1.322175791714902e-01	 1.736150058032052e+00	 3.546596670553044e+00
 1.173578058025364e-01	 1.737217811839318e+00	 3.515429659750292e+00
 1.025370176406654e-01	 1.738155571991545e+00	 3.487320870276138e+00
 8.775664872431782e-02	 1.738964471691459e+00	 3.462582090909210e+00
 7.301810506866725e-02	 1.739645661422167e+00	 3.441441959838400e+00
 5.832276453675114e-02	 1.740200308204714e+00	 3.424048517458085e+00
 4.367197673020620e-02	 1.740629594859717e+00	 3.410472043952473e+00
 2.906706289926362e-02	 1.740934719273633e+00	 3.400708157348738e+00
 1.450931587164670e-02	 1.741116893670152e+00	 3.394681147749080e+00
 0.000000000000000e+00	 1.741177343887234e+00	 3.392247523633731e+00
 1.478603162497211e-01	 1.743742303213276e+00	 3.620426554951206e+00
 1.328875340389929e-01	 1.744947240565538e+00	 3.586399572560326e+00
 1.179524652553341e-01	 1.746020404749609e+00	 3.555260829235816e+00
 1.030565792192352e-01	 1.746962916592514e+00	 3.527388214508779e+00
 8.820131723548325e-02	 1.747775915038981e+00	 3.503071065786737e+00
 7.338809244360252e-02	 1.748460556401677e+00	 3.482512527600979e+00
 5.861828968833286e-02	 1.749018013615008e+00	 3.465832228046911e+00
 4.389326540981127e-02	 1.749449475493014e+00	 3.453069247464344e+00
 2.921434755311115e-02	 1.749756145991908e+00	 3.444185354300017e+00
 1.458283549677953e-02	 1.749939243477786e+00	 3.439068483118525e+00
 0.000000000000000e+00	 1.750000000000000e+00	 3.437536429921893e+00
 1.486057566648185e-01	 1.752533411032956e+00	 3.655295215014823e+00
 1.335574889064956e-01	 1.753744423098810e+00	 3.621036748527290e+00
 1.185471247081317e-01	 1.754822997659698e+00	 3.589968080230250e+00
 1.035761407978050e-01	 1.755770261193304e+00	 3.562443786625501e+00
 8.864598574664863e-02	 1.756587358386351e+00	 3.538726645231881e+00
 7.375807981853776e-02	 1.757275451381068e+00	 3.518990116771843e+00
 5.891381483991457e-02	 1.757835719025220e+00	 3.503321152809824e+00
 4.411455408941636e-02	 1.758269356126260e+00	 3.491723303116537e+00
 2.936163220695867e-02	 1.758577572710158e+00	 3.484120096949557e+00
 1.465635512191236e-02	 1.758761593285413e+00	 3.480358672457825e+00
 0.000000000000000e+00	 1.758822656112766e+00	 3.480213628604895e+00
 1.493511979245838e-01	 1.761324528814632e+00	 3.684914596026590e+00
 1.342274445331167e-01	 1.762541615600941e+00	 3.650405878739392e+00
 1.191417848347111e-01	 1.763625600544772e+00	 3.619463356068097e+00
 1.040957029650435e-01	 1.764577615774469e+00	 3.592414314781617e+00
 8.909065476160387e-02	 1.765398811718757e+00	 3.569539525147594e+00
 7.412806761262845e-02	 1.766090356349429e+00	 3.551010147585862e+00
 5.920934032627197e-02	 1.766653434427608e+00	 3.536806972048276e+00
 4.433584301968205e-02	 1.767089246754171e+00	 3.526848695407320e+00
 2.950891702762615e-02	 1.767399009424845e+00	 3.520993412262130e+00
 1.472987483030848e-02	 1.767583953090539e+00	 3.519038318735411e+00
 0.000000000000000e+00	 1.767645322223381e+00	 3.520719438012724e+00
 1.500966408736851e-01	 1.770115666520508e+00	 3.713088829834547e+00
 1.348974016779748e-01	 1.771338828041004e+00	 3.679957447542759e+00
 1.197364463088540e-01	 1.772428223380018e+00	 3.650708233849426e+00
 1.046152663096194e-01	 1.773384990316567e+00	 3.625509496883364e+00
 8.953532478413871e-02	 1.774210285021388e+00	 3.604470561521769e+00
 7.449805624502995e-02	 1.774905281295844e+00	 3.587641391367908e+00
 5.950486648218080e-02	 1.775471169814435e+00	 3.575012216229572e+00
 4.455713245126898e-02	 1.775909157371465e+00	 3.566513168295309e+00
 2.965620218193353e-02	 1.776220466132433e+00	 3.562013930405625e+00
 1.480339470523116e-02	 1.776406332890666e+00	 3.561323400009032e+00
 0.000000000000000e+00	 1.776468008329698e+00	 3.564189372552573e+00
 1.508420863567902e-01	 1.778906834112791e+00	 3.755024275125590e+00
 1.355673611001880e-01	 1.780136070388071e+00	 3.723055141476377e+00
 1.203311098043423e-01	 1.781230876140625e+00	 3.694822749068452e+00
 1.051348314202015e-01	 1.782192394800156e+00	 3.670503098809617e+00
 8.997999631804297e-02	 1.783021788279429e+00	 3.650213538022107e+00
 7.486804613489774e-02	 1.783720236209401e+00	 3.634012356874932e+00
 5.980039364241670e-02	 1.784288935177960e+00	 3.621898386916550e+00
 4.477842263483776e-02	 1.784729097972858e+00	 3.613810605103779e+00
 2.980348783670076e-02	 1.785041952829383e+00	 3.609627746951521e+00
 1.487691482994369e-02	 1.785228742683300e+00	 3.609167932617837e+00
 0.000000000000000e+00	 1.785290724429565e+00	 3.612188309897607e+00
 1.515875352185671e-01	 1.787698041553686e+00	 3.812294692338154e+00
 1.362373235588749e-01	 1.788933352611214e+00	 3.780332949132832e+00
 1.209257759949575e-01	 1.790033568801779e+00	 3.751985829610948e+00
 1.056543988854585e-01	 1.790999839205792e+00	 3.727434292471195e+00
 9.042466986710648e-02	 1.791833331478070e+00	 3.706801018113956e+00
 7.523803770138718e-02	 1.792535231079186e+00	 3.690149982369868e+00
 6.009592214175536e-02	 1.793106740510443e+00	 3.677486028690790e+00
 4.499971382104898e-02	 1.793549078553067e+00	 3.668754442405153e+00
 2.995077415874777e-02	 1.793863479512159e+00	 3.663840530889904e+00
 1.495043528770935e-02	 1.794051192465945e+00	 3.662569213705182e+00
 0.000000000000000e+00	 1.794113480520832e+00	 3.664704626891497e+00
 1.794113480520832e+00	 0.000000000000000e+00	 1.327916581241288e+01
 1.794051192465945e+00	 1.495043528770836e-02	 1.327802656981681e+01
 1.793863479512158e+00	 2.995077415874692e-02	 1.327843400431967e+01
 1.793549078553066e+00	 4.499971382104827e-02	 1.328010769865075e+01
 1.793106740510443e+00	 6.009592214175480e-02	 1.328279424096340e+01
 1.792535231079187e+00	 7.523803770138675e-02	 1.328626759639844e+01
 1.791833331478071e+00	 9.042466986710623e-02	 1.329032950061306e+01
 1.790999839205791e+00	 1.056543988854583e-01	 1.329480987760236e+01
 1.790033568801779e+00	 1.209257759949575e-01	 1.329956728410721e+01
 1.788933352611214e+00	 1.362373235588751e-01	 1.330448938289788e+01
 1.787698041553686e+00	 1.515875352185671e-01	 1.330949344720663e+01
 1.802937784072603e+00	 0.000000000000000e+00	 1.323323424842692e+01
 1.802875189655369e+00	 1.502396864030362e-02	 1.323201348236281e+01
 1.802686553439808e+00	 3.009808631356830e-02	 1.323232345818779e+01
 1.802370606106978e+00	 4.522104381996007e-02	 1.323388913499068e+01
 1.801926092435116e+00	 6.039150247454263e-02	 1.323646219998836e+01
 1.801351772048239e+00	 7.560809416171167e-02	 1.323982142067936e+01
 1.800646420170603e+00	 9.086942140881944e-02	 1.324377301984614e+01
 1.799808828386452e+00	 1.061740574793719e-01	 1.324815107581513e+01
 1.798837805404581e+00	 1.215205464861688e-01	 1.325281795035724e+01
 1.797732177827113e+00	 1.369074035247444e-01	 1.325766474660674e+01
 1.796490790921936e+00	 1.523331148274494e-01	 1.326261179936193e+01
 1.811762132630000e+00	 0.000000000000000e+00	 1.318843601785599e+01
 1.811699231848858e+00	 1.509750236770970e-02	 1.318719886435290e+01
 1.811509672366819e+00	 3.024539921932970e-02	 1.318747354980212e+01
 1.811192178652375e+00	 4.544237494721785e-02	 1.318898970544699e+01
 1.810745489340192e+00	 6.068708431431658e-02	 1.319150342486231e+01
 1.810168357983385e+00	 7.597815250885374e-02	 1.319479759779599e+01
 1.809459553811654e+00	 9.131417521832746e-02	 1.319868226776283e+01
 1.808617862494764e+00	 1.066937187231593e-01	 1.320299501588231e+01
 1.807642086910848e+00	 1.221153200103886e-01	 1.320760137343067e+01
 1.806531047918943e+00	 1.375774869077655e-01	 1.321239526557140e+01
 1.805283585135210e+00	 1.530786982385879e-01	 1.321729948871747e+01
 1.820586521192396e+00	 0.000000000000000e+00	 1.314474466102316e+01
 1.820523314045960e+00	 1.517103642827948e-02	 1.314354706840890e+01
 1.820332831293267e+00	 3.039271279258782e-02	 1.314384014978644e+01
 1.820013791190213e+00	 4.566370707743835e-02	 1.314535751775370e+01
 1.819564926227870e+00	 6.098266749361515e-02	 1.314785899262113e+01
 1.818984983888418e+00	 7.634821253314039e-02	 1.315113091902503e+01
 1.818272727406976e+00	 9.175893104361936e-02	 1.315498650721754e+01
 1.817426936538807e+00	 1.072133823223500e-01	 1.315926620160792e+01
 1.816446408331353e+00	 1.227100962305709e-01	 1.316383807911029e+01
 1.815329957900539e+00	 1.382475733282074e-01	 1.316859827984881e+01
 1.814076419210772e+00	 1.538242850294628e-01	 1.317347147276078e+01
 1.829410944759166e+00	 0.000000000000000e+00	 1.310213495026605e+01
 1.829347431246227e+00	 1.524457078036579e-02	 1.310102383746665e+01
 1.829156025219229e+00	 3.054002694989930e-02	 1.310138066646999e+01
 1.828835438721452e+00	 4.588504008523830e-02	 1.310294235356742e+01
 1.828384398100345e+00	 6.127825184497686e-02	 1.310547177900443e+01
 1.827801644767130e+00	 7.671827402489902e-02	 1.310875808743639e+01
 1.827085935962325e+00	 9.220368863268434e-02	 1.311261701400687e+01
 1.826236045526661e+00	 1.077330479824734e-01	 1.311689123870395e+01
 1.825250764676867e+00	 1.233048748096698e-01	 1.312145077163460e+01
 1.824128902785732e+00	 1.389176624063391e-01	 1.312619337185345e+01
 1.822869288165890e+00	 1.545698747775544e-01	 1.313104500237215e+01
 1.838235398329687e+00	 0.000000000000000e+00	 1.306058286028100e+01
 1.838171578449207e+00	 1.531810538232149e-02	 1.305959627183620e+01
 1.837979249144781e+00	 3.068734160782080e-02	 1.306005400990467e+01
 1.837657116247048e+00	 4.610637384523443e-02	 1.306169562968618e+01
 1.837203899959812e+00	 6.157383720094010e-02	 1.306428641712638e+01
 1.836618335623317e+00	 7.708833677445702e-02	 1.306761767427261e+01
 1.835899174483453e+00	 9.264844773351147e-02	 1.307150703121882e+01
 1.835045184466402e+00	 1.082527154090590e-01	 1.307579878737613e+01
 1.834055150958159e+00	 1.238996554106393e-01	 1.308036428479128e+01
 1.832927877588356e+00	 1.395877537624296e-01	 1.308510231623439e+01
 1.831662187017830e+00	 1.553154670603430e-01	 1.308993957076702e+01
 1.847059876903333e+00	 0.000000000000000e+00	 1.302006553930765e+01
 1.846995750654451e+00	 1.539164019249942e-02	 1.301923279719625e+01
 1.846802498070001e+00	 3.083465668290898e-02	 1.301982055690067e+01
 1.846478818767959e+00	 4.632770823204344e-02	 1.302157036036480e+01
 1.846023426808468e+00	 6.186942339404342e-02	 1.302424925731426e+01
 1.845435051460771e+00	 7.745840057214178e-02	 1.302765007655785e+01
 1.844712437976115e+00	 9.309320809408997e-02	 1.303159172486519e+01
 1.843854348366112e+00	 1.087723843076360e-01	 1.303591951623742e+01
 1.842859562186001e+00	 1.244944376964336e-01	 1.304050553437439e+01
 1.841726877322242e+00	 1.402578470167478e-01	 1.304524903114424e+01
 1.840455110783858e+00	 1.560610614553088e-01	 1.305007686384849e+01
 1.855884375479479e+00	 0.000000000000000e+00	 1.298056128112603e+01
 1.855819942861508e+00	 1.546517516925245e-02	 1.297990313349071e+01
 1.855625766994964e+00	 3.098197209172050e-02	 1.298064211704876e+01
 1.855300541285142e+00	 4.654904312028212e-02	 1.298252112069223e+01
 1.854842973648509e+00	 6.216501025682523e-02	 1.298530832807561e+01
 1.854251787283286e+00	 7.782846520828068e-02	 1.298879747589510e+01
 1.853525721446064e+00	 9.353796946240889e-02	 1.299280814075364e+01
 1.852663532233867e+00	 1.092920543837340e-01	 1.299718605750460e+01
 1.851663993371164e+00	 1.250892213300065e-01	 1.300180347196046e+01
 1.850525897001225e+00	 1.409279417895628e-01	 1.300655953085355e+01
 1.849248054481242e+00	 1.568066575399323e-01	 1.301138071192411e+01
 1.864708889057499e+00	 0.000000000000000e+00	 1.294204949783892e+01
 1.864644150069929e+00	 1.553871027093341e-02	 1.294157826469874e+01
 1.864449050919747e+00	 3.112928775081202e-02	 1.294248189969497e+01
 1.864122278799557e+00	 4.677037838456715e-02	 1.294450401099445e+01
 1.863662535482128e+00	 6.246059762182402e-02	 1.294741329815670e+01
 1.863068538094658e+00	 7.819853047320120e-02	 1.295100379841276e+01
 1.862339019899055e+00	 9.398273158645745e-02	 1.295509516255932e+01
 1.861472731077748e+00	 1.098117253428823e-01	 1.295953296343694e+01
 1.860468439524420e+00	 1.256840059743123e-01	 1.296418903996021e+01
 1.859324931639138e+00	 1.415980377011436e-01	 1.296896187966652e+01
 1.858041013127248e+00	 1.575522548916935e-01	 1.297377704274112e+01
 1.873533412636770e+00	 0.000000000000000e+00	 1.290451069341450e+01
 1.873468367279264e+00	 1.561224545589516e-02	 1.290423040944894e+01
 1.873272344844427e+00	 3.127660357674020e-02	 1.290530448183774e+01
 1.872944026312159e+00	 4.699171389951528e-02	 1.290747662222961e+01
 1.872482107311525e+00	 6.275618532157827e-02	 1.291051543965643e+01
 1.871885298898677e+00	 7.856859615723068e-02	 1.291421467582222e+01
 1.871152328340842e+00	 9.442749421422478e-02	 1.291839347105598e+01
 1.870281939905831e+00	 1.103313968906103e-01	 1.292289666397479e+01
 1.869272895656538e+00	 1.262787912923049e-01	 1.292759512790314e+01
 1.868123976249811e+00	 1.422681343717592e-01	 1.293238614709503e+01
 1.866833981739142e+00	 1.582978530880728e-01	 1.293719383579712e+01
 1.882357941216666e+00	 0.000000000000000e+00	 1.286792643796342e+01
 1.882292589489063e+00	 1.568578068249056e-02	 1.286783299244980e+01
 1.882095643769081e+00	 3.142391948606171e-02	 1.286907577691629e+01
 1.881765778823908e+00	 4.721304953974327e-02	 1.287139800234326e+01
 1.881301684138893e+00	 6.305177318862648e-02	 1.287456759216179e+01
 1.880702064699139e+00	 7.893866205069652e-02	 1.287837740755103e+01
 1.879965641777177e+00	 9.487225709369997e-02	 1.288264550446927e+01
 1.879091153726199e+00	 1.108510687324475e-01	 1.288721542553971e+01
 1.878077356778291e+00	 1.268735769469385e-01	 1.289195652991585e+01
 1.876923025847079e+00	 1.429382314216786e-01	 1.289676436425032e+01
 1.875626955334190e+00	 1.590434517065505e-01	 1.290156107788481e+01
 1.787698041553686e+00	 1.515875352185671e-01	 1.330949344720663e+01
 1.786326261024755e+00	 1.669774890389988e-01	 1.331484720076275e+01
 1.784817099108259e+00	 1.824029836819379e-01	 1.332080101846111e+01
 1.783169466298693e+00	 1.978623891175576e-01	 1.332729723676914e+01
 1.781382294842314e+00	 2.133540464350997e-01	 1.333431351360276e+01
 1.779454539528256e+00	 2.288762681028857e-01	 1.334186368683779e+01
 1.777385178479808e+00	 2.444273382514740e-01	 1.334999867532103e+01
 1.775173213945176e+00	 2.600055129802037e-01	 1.335880742388134e+01
 1.772817673086980e+00	 2.756090206873468e-01	 1.336841789371514e+01
 1.770317608769745e+00	 2.912360624240647e-01	 1.337899809938262e+01
 1.767672100344656e+00	 3.068848122723423e-01	 1.339075719349770e+01
 1.796490790921936e+00	 1.523331148274494e-01	 1.326261179936193e+01
 1.795112263323674e+00	 1.677987637616727e-01	 1.326796451090142e+01
 1.793595678630914e+00	 1.833001283250068e-01	 1.327401630088856e+01
 1.791939941979431e+00	 1.988355704703719e-01	 1.328071970305805e+01
 1.790143980363745e+00	 2.144034231277070e-01	 1.328806175410274e+01
 1.788206743432129e+00	 2.300019904652596e-01	 1.329606482677852e+01
 1.786127204281779e+00	 2.456295481741353e-01	 1.330478750733295e+01
 1.783904360253470e+00	 2.612843437763503e-01	 1.331432551887479e+01
 1.781537233724924e+00	 2.769645969566062e-01	 1.332481269217568e+01
 1.779024872902189e+00	 2.926684999179882e-01	 1.333642198525692e+01
 1.776366352608243e+00	 3.083942177617580e-01	 1.334936655295741e+01
 1.805283585135210e+00	 1.530786982385879e-01	 1.321729948871748e+01
 1.803898310433295e+00	 1.686200426726874e-01	 1.322265277973685e+01
 1.802374302926518e+00	 1.841972775433771e-01	 1.322878695441015e+01
 1.800710462391899e+00	 1.998087567862867e-01	 1.323566376063985e+01
 1.798905710572194e+00	 2.154528051720141e-01	 1.324327870558169e+01
 1.796958991974783e+00	 2.311277185686937e-01	 1.325166186624890e+01
 1.794869274670746e+00	 2.468317642279395e-01	 1.326087874624961e+01
 1.792635551093389e+00	 2.625631810944035e-01	 1.327103118038641e+01
 1.790256838835518e+00	 2.783201801391766e-01	 1.328225828872297e+01
 1.787732181444672e+00	 2.941009447172261e-01	 1.329473748157963e+01
 1.785060649215598e+00	 3.099036309490485e-01	 1.330868551676717e+01
 1.814076419210772e+00	 1.538242850294628e-01	 1.317347147276078e+01
 1.812684397374696e+00	 1.694413253066293e-01	 1.317882586040960e+01
 1.811152967020335e+00	 1.850944308286472e-01	 1.318502748788451e+01
 1.809481022565932e+00	 2.007819475138219e-01	 1.319204635317517e+01
 1.807667480502450e+00	 2.165021919733756e-01	 1.319988554366479e+01
 1.805711280196355e+00	 2.322534517752947e-01	 1.320858202711102e+01
 1.803611384692580e+00	 2.480339857316648e-01	 1.321820749055296e+01
 1.801366781516948e+00	 2.638420242097387e-01	 1.322886922898416e+01
 1.798976483477317e+00	 2.796757694669589e-01	 1.324071108550122e+01
 1.796439529462697e+00	 2.955333960101377e-01	 1.325391444450016e+01
 1.793754985239578e+00	 3.114130509789675e-01	 1.326869927933203e+01
 1.822869288165890e+00	 1.545698747775544e-01	 1.313104500237215e+01
 1.821470519168950e+00	 1.702626111980846e-01	 1.313639992844686e+01
 1.819931665937626e+00	 1.859915876724152e-01	 1.314265473020136e+01
 1.818251617531361e+00	 2.017551421014973e-01	 1.314978671027192e+01
 1.816429285189302e+00	 2.175515829371460e-01	 1.315780566375285e+01
 1.814463603136981e+00	 2.333791894471684e-01	 1.316675465240100e+01
 1.812353529393162e+00	 2.492362120040901e-01	 1.317671082854637e+01
 1.810098046576164e+00	 2.651208723977317e-01	 1.318778631065069e+01
 1.807696162708878e+00	 2.810313641718543e-01	 1.320012911232874e+01
 1.805146912021767e+00	 2.969658529850817e-01	 1.321392412650585e+01
 1.802449355753047e+00	 3.129224769962685e-01	 1.322939416622546e+01
 1.831662187017830e+00	 1.553154670603430e-01	 1.308993957076702e+01
 1.830256670837134e+00	 1.710838998816394e-01	 1.309529343027097e+01
 1.828710394703656e+00	 1.868887475662795e-01	 1.310158777908058e+01
 1.827022242318018e+00	 2.027283399978324e-01	 1.310880629730815e+01
 1.825191119667539e+00	 2.186009774686797e-01	 1.311696463260967e+01
 1.823215955836795e+00	 2.345049309464211e-01	 1.312611116043211e+01
 1.821095703818368e+00	 2.504384423639941e-01	 1.313632779573123e+01
 1.818829341323052e+00	 2.663997249337579e-01	 1.314773085820079e+01
 1.816415871588759e+00	 2.823869634857640e-01	 1.316047199292823e+01
 1.813854324187387e+00	 2.983983148304172e-01	 1.317473914824648e+01
 1.811143755828862e+00	 3.144319081457049e-01	 1.319075761239412e+01
 1.840455110783858e+00	 1.560610614553088e-01	 1.305007686384850e+01
 1.839042847400324e+00	 1.719051908918804e-01	 1.305542703312235e+01
 1.837489148343687e+00	 1.877859100018383e-01	 1.306174795126686e+01
 1.835792891955739e+00	 2.037015406513474e-01	 1.306902876661028e+01
 1.833952978971950e+00	 2.196503749733315e-01	 1.307729014124494e+01
 1.831968333335933e+00	 2.356306756351590e-01	 1.308658500010933e+01
 1.829837903014075e+00	 2.516406761301552e-01	 1.309699933328899e+01
 1.827560660809629e+00	 2.676785810931931e-01	 1.310865305367374e+01
 1.825135605175517e+00	 2.837425666405889e-01	 1.312170091198064e+01
 1.822561761025060e+00	 2.998307807345035e-01	 1.313633347100626e+01
 1.819838180539883e+00	 3.159413435720306e-01	 1.315277814081246e+01
 1.849248054481242e+00	 1.568066575399323e-01	 1.301138071192411e+01
 1.847829043879594e+00	 1.727264837633934e-01	 1.301672357634907e+01
 1.846267921882982e+00	 1.886830744706899e-01	 1.302305873407516e+01
 1.844563561474353e+00	 2.046747435105618e-01	 1.303037990994391e+01
 1.842714858137325e+00	 2.206997748564558e-01	 1.303871195904850e+01
 1.840720730674533e+00	 2.367564228754885e-01	 1.304811160741397e+01
 1.838580122026158e+00	 2.528429126213521e-01	 1.305866824763059e+01
 1.836292000087911e+00	 2.689574401514129e-01	 1.307050479166864e+01
 1.833855358527708e+00	 2.850981728682301e-01	 1.308377858297470e+01
 1.831269217600288e+00	 3.012632498856995e-01	 1.309868236980280e+01
 1.828532624958970e+00	 3.174507824199989e-01	 1.311544534157203e+01
 1.858041013127248e+00	 1.575522548916935e-01	 1.297377704274112e+01
 1.856615255296021e+00	 1.735477780307652e-01	 1.297910802401912e+01
 1.855046710346803e+00	 1.895802404644325e-01	 1.298544573824098e+01
 1.853334245903695e+00	 2.056479480239954e-01	 1.299278761227268e+01
 1.851476752198452e+00	 2.217491765234071e-01	 1.300116188913529e+01
 1.849473142892728e+00	 2.378821720295156e-01	 1.301062836302050e+01
 1.847322355900494e+00	 2.540451511563633e-01	 1.302127917097812e+01
 1.845023354209912e+00	 2.702363013837927e-01	 1.303323964359136e+01
 1.842575126703891e+00	 2.864537814005889e-01	 1.304666921682598e+01
 1.839976688978579e+00	 3.026957214723643e-01	 1.306176240709164e+01
 1.837227084158984e+00	 3.189602238343635e-01	 1.307874985139072e+01
 1.866833981739142e+00	 1.582978530880728e-01	 1.293719383579712e+01
 1.865401476670680e+00	 1.743690732285816e-01	 1.294250741881110e+01
 1.863825508760415e+00	 1.904774074746644e-01	 1.294883665203326e+01
 1.862104940273597e+00	 2.066211536401683e-01	 1.295618180674325e+01
 1.860238656190121e+00	 2.227985793795398e-01	 1.296457372486109e+01
 1.858225565030656e+00	 2.390079224593465e-01	 1.297407455100824e+01
 1.856064599682962e+00	 2.552473910539676e-01	 1.298477852294500e+01
 1.853754718227649e+00	 2.715151640657081e-01	 1.299681282278304e+01
 1.851294904762621e+00	 2.878093914695661e-01	 1.301033849124002e+01
 1.848684170225434e+00	 3.041281946828569e-01	 1.302555140705638e+01
 1.845921553212783e+00	 3.204696669598779e-01	 1.304268333352875e+01
 1.875626955334190e+00	 1.590434517065505e-01	 1.290156107788481e+01
 1.874187703024645e+00	 1.751903688914292e-01	 1.290685083714182e+01
 1.872604312149079e+00	 1.913745749929839e-01	 1.291316119658829e+01
 1.870875639613893e+00	 2.075943598076000e-01	 1.292049443085718e+01
 1.869000565147121e+00	 2.238479828302088e-01	 1.292888320747063e+01
 1.866977992128452e+00	 2.401336735270876e-01	 1.293839131863184e+01
 1.864806848419438e+00	 2.564496316329435e-01	 1.294911447308236e+01
 1.862486087193140e+00	 2.727940274725351e-01	 1.296118115050178e+01
 1.860014687762457e+00	 2.891650023070629e-01	 1.297475352079534e+01
 1.857391656406358e+00	 3.055606687055365e-01	 1.299002843046561e+01
 1.854616027193228e+00	 3.219791109412959e-01	 1.300723845809755e+01
 1.767672100344656e+00	 3.068848122723423e-01	 1.339075719349770e+01
 1.764880741254913e+00	 3.225507534903543e-01	 1.340222257349080e+01
 1.761942228183390e+00	 3.382346701150138e-01	 1.341207940816384e+01
 1.758855723669352e+00	 3.539346630798190e-01	 1.342084569742994e+01
 1.755620419791376e+00	 3.696488082037950e-01	 1.342877945765045e+01
 1.752235538925222e+00	 3.853751566898675e-01	 1.343618476482401e+01
 1.748700334494149e+00	 4.011117356475780e-01	 1.344341329414097e+01
 1.745014091710825e+00	 4.168565486401224e-01	 1.345086463172841e+01
 1.741176128310005e+00	 4.326075762556573e-01	 1.345898645008249e+01
 1.737185795271111e+00	 4.483627767027928e-01	 1.346827453258593e+01
 1.733042477529863e+00	 4.641200864301568e-01	 1.347927263168683e+01
 1.776366352608243e+00	 3.083942177617580e-01	 1.334936655295741e+01
 1.773561264286633e+00	 3.241372115306150e-01	 1.336213663106917e+01
 1.770608298209911e+00	 3.398982691177453e-01	 1.337310159516450e+01
 1.767506612798326e+00	 3.556754821161409e-01	 1.338234499145227e+01
 1.764255396156726e+00	 3.714669168807957e-01	 1.338999639188959e+01
 1.760853866836163e+00	 3.872706150295302e-01	 1.339676677072899e+01
 1.757301274587891e+00	 4.030845939682787e-01	 1.340330954053068e+01
 1.753596901108929e+00	 4.189068474408174e-01	 1.341003303087798e+01
 1.749740060778345e+00	 4.347353461028813e-01	 1.341739365051776e+01
 1.745730101383382e+00	 4.505680381205852e-01	 1.342589595713830e+01
 1.741566404834599e+00	 4.664028497930368e-01	 1.343609256361790e+01
 1.785060649215598e+00	 3.099036309490485e-01	 1.330868551676717e+01
 1.782241831592177e+00	 3.257236776617571e-01	 1.332255361156700e+01
 1.779274412436605e+00	 3.415618766048292e-01	 1.333467505282995e+01
 1.776157546050095e+00	 3.574163100307003e-01	 1.334513944705100e+01
 1.772890416563749e+00	 3.732850348302820e-01	 1.335407371263580e+01
 1.769472238703889e+00	 3.891660830362387e-01	 1.336164360802041e+01
 1.765902258549744e+00	 4.050574623508447e-01	 1.336805532964595e+01
 1.762179754282671e+00	 4.209571566984042e-01	 1.337380841417059e+01
 1.758304036926028e+00	 4.368631268021764e-01	 1.338007237975528e+01
 1.754274451074868e+00	 4.527733107857277e-01	 1.338741654932903e+01
 1.750090375614572e+00	 4.686856247985898e-01	 1.339640291339035e+01
 1.793754985239578e+00	 3.114130509789675e-01	 1.326869927933203e+01
 1.790922438252172e+00	 3.273101509848771e-01	 1.328347635754977e+01
 1.787940565952282e+00	 3.432254916336510e-01	 1.329654124051788e+01
 1.784808518522069e+00	 3.591571458371234e-01	 1.330798917128391e+01
 1.781525476118869e+00	 3.751031610220786e-01	 1.331795185253741e+01
 1.778090649644257e+00	 3.910615596359786e-01	 1.332659897162345e+01
 1.774503281505424e+00	 4.070303396773920e-01	 1.333413979822928e+01
 1.770762646368043e+00	 4.230074752511032e-01	 1.334082485464857e+01
 1.766868051899751e+00	 4.389909171478490e-01	 1.334694765821943e+01
 1.762818839503396e+00	 4.549785934485991e-01	 1.335298885733861e+01
 1.758614385039166e+00	 4.709684101532610e-01	 1.336040146732478e+01
 1.802449355753047e+00	 3.129224769962685e-01	 1.322939416622546e+01
 1.799603079347242e+00	 3.288966306010713e-01	 1.324490853551784e+01
 1.796606753845749e+00	 3.448891132615959e-01	 1.325872386029089e+01
 1.793459525311652e+00	 3.608979885490363e-01	 1.327094061181409e+01
 1.790160569928509e+00	 3.769212944260097e-01	 1.328169501945777e+01
 1.786709094773127e+00	 3.929570437547357e-01	 1.329116059648975e+01
 1.783104338580646e+00	 4.090032248300363e-01	 1.329954974126466e+01
 1.779345572501041e+00	 4.250578019371356e-01	 1.330711541379944e+01
 1.775432100846214e+00	 4.411187159342062e-01	 1.331415288741488e+01
 1.771363261826792e+00	 4.571838848595787e-01	 1.332100157478781e+01
 1.767138428277760e+00	 4.732512045634946e-01	 1.332804692740871e+01
 1.811143755828862e+00	 3.144319081457049e-01	 1.319075761239412e+01
 1.808283749958020e+00	 3.304831156114362e-01	 1.320685462147779e+01
 1.805272971205817e+00	 3.465527405460495e-01	 1.322124707457112e+01
 1.802110561516253e+00	 3.626388371800650e-01	 1.323404027793157e+01
 1.798795693099089e+00	 3.787394340118994e-01	 1.324537474345486e+01
 1.795327569206358e+00	 3.948525343184955e-01	 1.325542771910414e+01
 1.791705424901127e+00	 4.109761166908936e-01	 1.326441479735502e+01
 1.787928527817661e+00	 4.271081355947222e-01	 1.327259160173185e+01
 1.783996178912116e+00	 4.432465219555545e-01	 1.328025555118986e+01
 1.779907713202884e+00	 4.593891837690459e-01	 1.328774770176103e+01
 1.775662500499735e+00	 4.755340067357352e-01	 1.329545466452495e+01
 1.819838180539883e+00	 3.159413435720306e-01	 1.315277814081246e+01
 1.816964445165127e+00	 3.320696051170678e-01	 1.316931988673522e+01
 1.813939213121292e+00	 3.482163725443969e-01	 1.318413550022536e+01
 1.810761622233280e+00	 3.643796907438359e-01	 1.319733474409323e+01
 1.807430840737038e+00	 3.805575787495722e-01	 1.320906218178524e+01
 1.803946068059810e+00	 3.967480302532436e-01	 1.321949871625727e+01
 1.800306535592583e+00	 4.129490141420798e-01	 1.322886320939097e+01
 1.796511507453898e+00	 4.291584750620841e-01	 1.323741418210197e+01
 1.792560281244154e+00	 4.453743340062008e-01	 1.324545159496482e+01
 1.788452188789497e+00	 4.615944889273798e-01	 1.325331870883605e+01
 1.784186596874472e+00	 4.778168153764275e-01	 1.326140402459724e+01
 1.828532624958970e+00	 3.174507824199989e-01	 1.311544534157203e+01
 1.825645160049192e+00	 3.336560982190630e-01	 1.313231038390335e+01
 1.822605474680987e+00	 3.498800083140239e-01	 1.314741420261241e+01
 1.819412702560138e+00	 3.661205482539751e-01	 1.316087065313667e+01
 1.816066007948776e+00	 3.823757276088526e-01	 1.317282813242114e+01
 1.812564586449340e+00	 3.986435304849657e-01	 1.318347113000955e+01
 1.808907665780729e+00	 4.149219160657105e-01	 1.319302186211015e+01
 1.805094506545749e+00	 4.312088191774424e-01	 1.320174198885170e+01
 1.801124402989027e+00	 4.475021508804514e-01	 1.320993441461649e+01
 1.796996683744460e+00	 4.637997990849598e-01	 1.321794517098982e+01
 1.792710712571352e+00	 4.800996291920159e-01	 1.322616538150008e+01
 1.837227084158984e+00	 3.189602238343635e-01	 1.307874985139072e+01
 1.834325889690843e+00	 3.352425940185181e-01	 1.309583293311873e+01
 1.831271750973707e+00	 3.515436469123155e-01	 1.311110868959291e+01
 1.828063797594234e+00	 3.678614087241088e-01	 1.312469471918003e+01
 1.824701189840726e+00	 3.841938795595647e-01	 1.313674304694300e+01
 1.821183119490811e+00	 4.005390339396475e-01	 1.314744169168614e+01
 1.817508810591282e+00	 4.168948213439020e-01	 1.315701631831201e+01
 1.813677520229209e+00	 4.332591667790174e-01	 1.316573197576497e+01
 1.809688539293435e+00	 4.496299713726133e-01	 1.317389492050255e+01
 1.805541193225597e+00	 4.660051129921649e-01	 1.318185452508612e+01
 1.801234842759755e+00	 4.823824468889450e-01	 1.319000527110968e+01
 1.845921553212783e+00	 3.204696669598779e-01	 1.304268333352875e+01
 1.843006629170708e+00	 3.368290916165294e-01	 1.305989510845812e+01
 1.839938037088262e+00	 3.532072873966573e-01	 1.307524490550310e+01
 1.836714902432977e+00	 3.696022711678629e-01	 1.308885373021690e+01
 1.833336381519313e+00	 3.860120335715329e-01	 1.310087704282714e+01
 1.829801662300079e+00	 4.024345395432744e-01	 1.311150634493547e+01
 1.826109965149958e+00	 4.188677288587697e-01	 1.312097085377118e+01
 1.822260543640271e+00	 4.353095167050305e-01	 1.312953926432600e+01
 1.818252685304075e+00	 4.517577942769935e-01	 1.313752159935979e+01
 1.814085712390736e+00	 4.682104293993746e-01	 1.314527114691304e+01
 1.809758982609063e+00	 4.846652671736595e-01	 1.315318648458268e+01
 1.854616027193228e+00	 3.219791109412959e-01	 1.300723845809755e+01
 1.851687373569412e+00	 3.384155901141933e-01	 1.302450522454935e+01
 1.848604328113462e+00	 3.548709288244347e-01	 1.303984922509414e+01
 1.845366012173774e+00	 3.713431345988638e-01	 1.305339455041710e+01
 1.841971578090960e+00	 3.878301886145815e-01	 1.306529991514861e+01
 1.838420209993003e+00	 4.043300462218324e-01	 1.307576026788195e+01
 1.834711124582473e+00	 4.208406374924301e-01	 1.308500849089318e+01
 1.830843571914933e+00	 4.373598677937027e-01	 1.309331718993664e+01
 1.826816836167647e+00	 4.538856183878984e-01	 1.310100057414664e+01
 1.822630236397704e+00	 4.704157470569681e-01	 1.310841642571790e+01
 1.818283127288656e+00	 4.869480887526040e-01	 1.311596815865530e+01
 1.733042477529863e+00	 4.641200864301568e-01	 1.347927263168683e+01
 1.728745595055301e+00	 4.798774209899135e-01	 1.349029956784163e+01
 1.724294604671216e+00	 4.956326763851802e-01	 1.349989244030433e+01
 1.719688999601968e+00	 5.113837291358949e-01	 1.350902122967540e+01
 1.714928309753177e+00	 5.271284367778979e-01	 1.351873934885558e+01
 1.710012102353537e+00	 5.428646385999550e-01	 1.353018266848071e+01
 1.704939982580465e+00	 5.585901564033950e-01	 1.354456822352260e+01
 1.699711594168736e+00	 5.743027952840064e-01	 1.356319258035285e+01
 1.694326620001263e+00	 5.900003444358111e-01	 1.358728646777070e+01
 1.688784782681174e+00	 6.056805779762906e-01	 1.360497026437183e+01
 1.683085845084354e+00	 6.213412557926126e-01	 1.360848235828245e+01
 1.741566404834599e+00	 4.664028497930368e-01	 1.343609256361790e+01
 1.737248388248177e+00	 4.822376864200964e-01	 1.344657068120490e+01
 1.732775505776295e+00	 4.980704336564107e-01	 1.345611890608534e+01
 1.728147248150731e+00	 5.138989575776163e-01	 1.346569365016881e+01
 1.723363142964937e+00	 5.297211051818782e-01	 1.347633863340348e+01
 1.718422755319014e+00	 5.455347051305395e-01	 1.348918405641136e+01
 1.713325688448433e+00	 5.613375685114939e-01	 1.350544545059343e+01
 1.708071584335666e+00	 5.771274896249299e-01	 1.352642218410762e+01
 1.702660124303875e+00	 5.929022467910560e-01	 1.355253384537594e+01
 1.697091029591799e+00	 6.086596031793869e-01	 1.356964714114208e+01
 1.691364061909009e+00	 6.243973076591316e-01	 1.357320865402251e+01
 1.750090375614572e+00	 4.686856247985898e-01	 1.339640291339035e+01
 1.745751224808450e+00	 4.845979638882660e-01	 1.340591251574849e+01
 1.741256450137057e+00	 5.005082033608793e-01	 1.341501522397811e+01
 1.736605539839576e+00	 5.164141988477118e-01	 1.342466052045992e+01
 1.731798019197280e+00	 5.323137868091998e-01	 1.343588836453242e+01
 1.726833451181668e+00	 5.482047852792105e-01	 1.344982849605742e+01
 1.721711437086255e+00	 5.640849946321488e-01	 1.346769941350794e+01
 1.716431617141206e+00	 5.799521983725480e-01	 1.349080700411193e+01
 1.710993671109924e+00	 5.958041639467488e-01	 1.351807670444411e+01
 1.705397318866751e+00	 6.116386435762436e-01	 1.353461252735138e+01
 1.699642320954944e+00	 6.274533751122271e-01	 1.353827407909274e+01
 1.758614385039166e+00	 4.709684101532610e-01	 1.336040146732478e+01
 1.754254099917486e+00	 4.869582520569317e-01	 1.336856386425932e+01
 1.749737432947277e+00	 5.029459841171647e-01	 1.337684985196537e+01
 1.745063869875115e+00	 5.189294515208410e-01	 1.338620847254922e+01
 1.740232933670093e+00	 5.349064801906228e-01	 1.339768171321573e+01
 1.735244185175092e+00	 5.508748775328534e-01	 1.341240392478933e+01
 1.730097223741669e+00	 5.668324332084014e-01	 1.343160091256184e+01
 1.724791687847675e+00	 5.827769199260977e-01	 1.345658867615199e+01
 1.719327255696745e+00	 5.987060942583666e-01	 1.348415958417833e+01
 1.713703645798822e+00	 6.146176974786299e-01	 1.350005888460183e+01
 1.707920617530850e+00	 6.305094564200207e-01	 1.350380657856297e+01
 1.767138428277760e+00	 4.732512045634946e-01	 1.332804692740871e+01
 1.762757008756646e+00	 4.893185495886022e-01	 1.333476126168695e+01
 1.758218449400724e+00	 5.053837745438453e-01	 1.334188878060998e+01
 1.753522233463964e+00	 5.214447141716648e-01	 1.335062168824522e+01
 1.748667881603261e+00	 5.374991838569074e-01	 1.336200964567494e+01
 1.743654952532881e+00	 5.535449803783530e-01	 1.337719655011978e+01
 1.738483043662412e+00	 5.695798826832934e-01	 1.339741972361940e+01
 1.733151791717387e+00	 5.856016526848158e-01	 1.342400874845607e+01
 1.727660873341673e+00	 6.016080360813869e-01	 1.345102756493473e+01
 1.722010005680807e+00	 6.175967631983170e-01	 1.346618023531648e+01
 1.716198946945416e+00	 6.335655498506330e-01	 1.346993690789884e+01
 1.775662500499735e+00	 4.755340067357352e-01	 1.329545466452496e+01
 1.771259946507290e+00	 4.916788551457862e-01	 1.330301300913996e+01
 1.766699494691173e+00	 5.078215732594996e-01	 1.331023517416179e+01
 1.761980625812735e+00	 5.239599853748425e-01	 1.331818214053396e+01
 1.757102858216673e+00	 5.400918963388135e-01	 1.332916117075812e+01
 1.752065748488628e+00	 5.562150923025945e-01	 1.334449109774666e+01
 1.746868892096222e+00	 5.723273414998669e-01	 1.336542484142402e+01
 1.741511924012661e+00	 5.884263950479396e-01	 1.339330697272897e+01
 1.735994519322042e+00	 6.045099877712874e-01	 1.341892628356703e+01
 1.730316393805499e+00	 6.205758390470735e-01	 1.343317214800363e+01
 1.724477304507334e+00	 6.366216536721855e-01	 1.343679858255926e+01
 1.784186596874472e+00	 4.778168153764275e-01	 1.326140402459724e+01
 1.779762908350782e+00	 4.940391673909927e-01	 1.326966012220370e+01
 1.775180564012395e+00	 5.102593788827063e-01	 1.327821795114896e+01
 1.770439042128041e+00	 5.264752637050345e-01	 1.328784178182752e+01
 1.765537858730214e+00	 5.426846161671013e-01	 1.329939554097835e+01
 1.760476568275929e+00	 5.588852117924632e-01	 1.331457105522069e+01
 1.755254764290835e+00	 5.750748081011636e-01	 1.333588471880549e+01
 1.749872079995814e+00	 5.912511454147059e-01	 1.336437234963239e+01
 1.744328188915190e+00	 6.074119476835451e-01	 1.338810194568200e+01
 1.738622805465689e+00	 6.235549233366698e-01	 1.340123172018364e+01
 1.732755685525294e+00	 6.396777661527995e-01	 1.340452782616571e+01
 1.792710712571352e+00	 4.800996291920159e-01	 1.322616538150008e+01
 1.788265889468485e+00	 4.963994849867308e-01	 1.323485560019258e+01
 1.783661652558164e+00	 5.126971900320439e-01	 1.324446115455208e+01
 1.778897477616497e+00	 5.289905477369012e-01	 1.325575708318416e+01
 1.773972878363771e+00	 5.452773418725307e-01	 1.326961625540537e+01
 1.768887407128378e+00	 5.615553373348441e-01	 1.328701214910710e+01
 1.763640655493990e+00	 5.778222809302256e-01	 1.330906750191706e+01
 1.758232254929163e+00	 5.940759021843520e-01	 1.333721461433658e+01
 1.752661877398449e+00	 6.103139141736381e-01	 1.335880133490897e+01
 1.746929235954171e+00	 6.265340143788759e-01	 1.337055755905433e+01
 1.741034085307989e+00	 6.427338855605964e-01	 1.337326351729146e+01
 1.801234842759755e+00	 4.823824468889450e-01	 1.319000527110968e+01
 1.796768885041758e+00	 4.987598065955091e-01	 1.319890129690291e+01
 1.792142755522252e+00	 5.151350053260909e-01	 1.320929174336784e+01
 1.787355927484714e+00	 5.315058360451024e-01	 1.322196850901283e+01
 1.782407912337233e+00	 5.478700719858620e-01	 1.323781880530946e+01
 1.777298260279568e+00	 5.642254674166222e-01	 1.325782791294854e+01
 1.772026560953423e+00	 5.805697584300946e-01	 1.328308195953315e+01
 1.766592444075025e+00	 5.969006637561151e-01	 1.331197391693332e+01
 1.760995580049157e+00	 6.132158855970431e-01	 1.333127181928078e+01
 1.755235680563738e+00	 6.295131104854617e-01	 1.334134975997071e+01
 1.749312499164107e+00	 6.457900101636972e-01	 1.334314713491580e+01
 1.809758982609063e+00	 4.846652671736595e-01	 1.315318648458269e+01
 1.805271890251967e+00	 5.011201308798364e-01	 1.316209471128284e+01
 1.800623868098430e+00	 5.175728233834260e-01	 1.317303190631674e+01
 1.795814386939307e+00	 5.340211272042982e-01	 1.318681281047924e+01
 1.790842955870483e+00	 5.504628050378552e-01	 1.320434427354511e+01
 1.785709122963095e+00	 5.668956005246829e-01	 1.322662796992722e+01
 1.780412475916871e+00	 5.833172390438123e-01	 1.325476314145345e+01
 1.774952642695718e+00	 5.997254285292316e-01	 1.328515021043061e+01
 1.769329292144649e+00	 6.161178603092384e-01	 1.330490618876210e+01
 1.763542134587182e+00	 6.324922099681967e-01	 1.331380988280985e+01
 1.757590922402342e+00	 6.488461382302234e-01	 1.331432270258754e+01
 1.818283127288656e+00	 4.869480887526040e-01	 1.311596815865530e+01
 1.813774900280472e+00	 5.034804565022218e-01	 1.312472909176297e+01
 1.809104985480471e+00	 5.200106428226275e-01	 1.313599917563510e+01
 1.804272851186890e+00	 5.365364197891487e-01	 1.315062186848802e+01
 1.799278004183412e+00	 5.530555395592704e-01	 1.316952885306298e+01
 1.794119990412552e+00	 5.695657351459109e-01	 1.319374269284547e+01
 1.788798395632072e+00	 5.860647212144210e-01	 1.322437952170985e+01
 1.783312846053559e+00	 6.025501949029394e-01	 1.325537860807153e+01
 1.777663008962260e+00	 6.190198366657010e-01	 1.327581714218236e+01
 1.771848593317296e+00	 6.354713111388515e-01	 1.328611333931608e+01
 1.765869350331383e+00	 6.519022680282957e-01	 1.328688325425233e+01
 1.683085845084354e+00	 6.213412557926126e-01	 1.360848235828246e+01
 1.677228601699849e+00	 6.369827810704320e-01	 1.360460649106878e+01
 1.671213852015979e+00	 6.526002218751347e-01	 1.359986045507084e+01
 1.665041481651053e+00	 6.681912987448789e-01	 1.359457258527493e+01
 1.658711418525549e+00	 6.837537215354029e-01	 1.358904888369302e+01
 1.652223633306464e+00	 6.992851903642255e-01	 1.358357221620946e+01
 1.645578139827386e+00	 7.147833965724529e-01	 1.357840174947371e+01
 1.638774995483586e+00	 7.302460237034971e-01	 1.357377264818587e+01
 1.631814301601403e+00	 7.456707484979819e-01	 1.356989605237096e+01
 1.624696203781240e+00	 7.610552419040804e-01	 1.356695935331067e+01
 1.617420892213523e+00	 7.763971701024949e-01	 1.356512678569692e+01
 1.691364061909009e+00	 6.243973076591316e-01	 1.357320865402251e+01
 1.685478009815265e+00	 6.401157653989908e-01	 1.356970644053438e+01
 1.679433676731163e+00	 6.558100202067585e-01	 1.356536683561196e+01
 1.673230947712444e+00	 6.714777814091277e-01	 1.356052664940693e+01
 1.666869750325086e+00	 6.871167475978315e-01	 1.355549805591041e+01
 1.660350055091832e+00	 7.027246075784859e-01	 1.355056769316303e+01
 1.653671875914328e+00	 7.182990413371282e-01	 1.354599601102818e+01
 1.646835270470162e+00	 7.338377210237484e-01	 1.354201688777773e+01
 1.639840340584065e+00	 7.493383119520894e-01	 1.353883753597432e+01
 1.632687232572591e+00	 7.647984736149539e-01	 1.353663871719117e+01
 1.625376137561633e+00	 7.802158607142236e-01	 1.353557528398015e+01
 1.699642320954944e+00	 6.274533751122271e-01	 1.353827407909273e+01
 1.693727460004945e+00	 6.432487657064578e-01	 1.353522782099520e+01
 1.687653543369646e+00	 6.590198349090151e-01	 1.353137749632143e+01
 1.681420455542223e+00	 6.747642808350729e-01	 1.352706255409471e+01
 1.675028123734150e+00	 6.904797908123047e-01	 1.352259612076600e+01
 1.668476518323915e+00	 7.061640423343688e-01	 1.351826401563601e+01
 1.661765653281227e+00	 7.218147040321778e-01	 1.351432402079094e+01
 1.654895586565994e+00	 7.374294366622454e-01	 1.351100542769328e+01
 1.647866420501339e+00	 7.530058941113775e-01	 1.350850888179428e+01
 1.640678302119975e+00	 7.685417244169505e-01	 1.350700654557318e+01
 1.633331423483267e+00	 7.840345708019715e-01	 1.350664259925450e+01
 1.707920617530850e+00	 6.305094564200207e-01	 1.350380657856296e+01
 1.701976947593920e+00	 6.463817802173634e-01	 1.350123237890576e+01
 1.695873447273244e+00	 6.622296641629146e-01	 1.349789718698274e+01
 1.689610000499428e+00	 6.780507951602820e-01	 1.349413736753409e+01
 1.683186534129443e+00	 6.938428492730280e-01	 1.349026188672281e+01
 1.676603018397522e+00	 7.096034926828038e-01	 1.348655125435894e+01
 1.669859467341436e+00	 7.253303826653485e-01	 1.348325672702460e+01
 1.662955939203413e+00	 7.410211685836475e-01	 1.348059979512776e+01
 1.655892536804974e+00	 7.566734928975217e-01	 1.347877197612585e+01
 1.648669407894992e+00	 7.722849921888694e-01	 1.347793493518223e+01
 1.641286745470310e+00	 7.878532982017723e-01	 1.347822095334365e+01
 1.716198946945416e+00	 6.335655498506330e-01	 1.346993690789884e+01
 1.710226467907224e+00	 6.495148071562377e-01	 1.346778594420165e+01
 1.704093383783774e+00	 6.654395061494696e-01	 1.346493582859121e+01
 1.697799577943102e+00	 6.813373225223234e-01	 1.346171423046136e+01
 1.691344976887671e+00	 6.972059210742070e-01	 1.345842094878149e+01
 1.684729550707461e+00	 7.130429566747216e-01	 1.345532679245322e+01
 1.677953313508303e+00	 7.288460752443860e-01	 1.345267272739874e+01
 1.671016323814749e+00	 7.446129147526156e-01	 1.345066931428694e+01
 1.663918684946717e+00	 7.603411062321973e-01	 1.344949646000803e+01
 1.656660545369243e+00	 7.760282748095092e-01	 1.344930350501313e+01
 1.649242099014651e+00	 7.916720407496621e-01	 1.345020966743666e+01
 1.724477304507334e+00	 6.366216536721855e-01	 1.343679858255926e+01
 1.718476016269890e+00	 6.526478447476121e-01	 1.343495834361616e+01
 1.712313348243052e+00	 6.686493590496899e-01	 1.343250839481193e+01
 1.705989183232283e+00	 6.846238610587631e-01	 1.342976221022339e+01
 1.699503447385540e+00	 7.005690043100479e-01	 1.342700551967825e+01
 1.692856110648541e+00	 7.164824323610515e-01	 1.342449513831606e+01
 1.686047187195182e+00	 7.323617797770374e-01	 1.342245806815985e+01
 1.679076735832334e+00	 7.482046731338077e-01	 1.342109089647639e+01
 1.671944860378315e+00	 7.640087320370795e-01	 1.342055951490124e+01
 1.664651710014327e+00	 7.797715701576683e-01	 1.342099918229282e+01
 1.657197479608172e+00	 7.954907962816750e-01	 1.342251495306132e+01
 1.732755685525294e+00	 6.396777661527995e-01	 1.340452782616571e+01
 1.726725588006950e+00	 6.557808912160165e-01	 1.340282331349777e+01
 1.720533335992895e+00	 6.718592210445868e-01	 1.340063479374204e+01
 1.714178811726014e+00	 6.879104089071703e-01	 1.339825615582860e+01
 1.707661940999752e+00	 7.039320970747547e-01	 1.339595426261316e+01
 1.700982693615570e+00	 7.199219177927243e-01	 1.339396774045610e+01
 1.694141083815422e+00	 7.358774942710485e-01	 1.339250604554302e+01
 1.687137170688498e+00	 7.517964416918844e-01	 1.339174883259414e+01
 1.679971058551517e+00	 7.676763682338440e-01	 1.339184565079711e+01
 1.672642897301842e+00	 7.835148761121460e-01	 1.339291599077417e+01
 1.665152882742761e+00	 7.993095626338458e-01	 1.339504970515362e+01
 1.741034085307989e+00	 6.427338855605964e-01	 1.337326351729146e+01
 1.734975178443437e+00	 6.589139447859820e-01	 1.337145841214524e+01
 1.728753342375118e+00	 6.750690903151718e-01	 1.336933974996754e+01
 1.722368458783333e+00	 6.911969642051115e-01	 1.336717655394690e+01
 1.715820453107013e+00	 7.072951974625338e-01	 1.336521212545863e+01
 1.709109295003357e+00	 7.233614110206694e-01	 1.336366280421591e+01
 1.702234998782373e+00	 7.393932167341655e-01	 1.336271700935252e+01
 1.695197623815573e+00	 7.553882183915052e-01	 1.336253458794714e+01
 1.687997274918069e+00	 7.713440127441658e-01	 1.336324649668120e+01
 1.680634102703389e+00	 7.872581905517401e-01	 1.336495484128366e+01
 1.673108303910304e+00	 8.031283376422097e-01	 1.336773329715536e+01
 1.749312499164107e+00	 6.457900101636972e-01	 1.334314713491580e+01
 1.743224782904385e+00	 6.620470036820394e-01	 1.334094493167638e+01
 1.736973362731538e+00	 6.782789650424554e-01	 1.333865268690443e+01
 1.730558119763282e+00	 6.944835250901548e-01	 1.333650938582739e+01
 1.723978979084028e+00	 7.106583035675909e-01	 1.333473017639912e+01
 1.717235910206709e+00	 7.268009100958163e-01	 1.333350511031973e+01
 1.710328927509388e+00	 7.429089451741350e-01	 1.333299816863938e+01
 1.703258090645889e+00	 7.589800011973302e-01	 1.333334659931571e+01
 1.696023504929720e+00	 7.750116634897204e-01	 1.333466059327208e+01
 1.688625321690569e+00	 7.910015113552501e-01	 1.333702332445033e+01
 1.681063738602686e+00	 8.069471191428014e-01	 1.334049137807329e+01
 1.757590922402342e+00	 6.488461382302234e-01	 1.331432270258753e+01
 1.751474396714826e+00	 6.651800661287188e-01	 1.331136780944567e+01
 1.745193392403971e+00	 6.814888434074490e-01	 1.330860760941631e+01
 1.738747790024900e+00	 6.977700896998675e-01	 1.330624598510431e+01
 1.732137514307501e+00	 7.140214134841311e-01	 1.330446544095626e+01
 1.725362534620436e+00	 7.302404130690962e-01	 1.330342583518703e+01
 1.718422865409816e+00	 7.464246775987030e-01	 1.330326339940898e+01
 1.711318566611778e+00	 7.625717880740187e-01	 1.330409007419345e+01
 1.704049744038217e+00	 7.786793183921834e-01	 1.330599318796219e+01
 1.696616549734979e+00	 7.947448364014740e-01	 1.330903550554482e+01
 1.689019182311793e+00	 8.107659049716559e-01	 1.331325567143752e+01
 1.765869350331383e+00	 6.519022680282957e-01	 1.328688325425233e+01
 1.759724015199794e+00	 6.683131303505517e-01	 1.328281553902647e+01
 1.753413426734233e+00	 6.846987235911637e-01	 1.327924298669879e+01
 1.746937464927228e+00	 7.010566561718174e-01	 1.327638289646259e+01
 1.740296054154137e+00	 7.173845253063597e-01	 1.327438074035463e+01
 1.733489163639346e+00	 7.336799179914384e-01	 1.327336237295475e+01
 1.726516807897010e+00	 7.499404120156162e-01	 1.327343305429225e+01
 1.719379047145570e+00	 7.661635769862305e-01	 1.327467679213197e+01
 1.712075987695309e+00	 7.823469753732302e-01	 1.327715603189093e+01
 1.704607782308222e+00	 7.984881635692114e-01	 1.328091172136124e+01
 1.696974630529512e+00	 8.145846929648082e-01	 1.328596377609728e+01
 1.617420892213523e+00	 7.763971701024949e-01	 1.356512678569692e+01
 1.609989878453082e+00	 7.916915991502730e-01	 1.356234429014142e+01
 1.602402218305899e+00	 8.069388008559107e-01	 1.355654460186059e+01
 1.594658236046571e+00	 8.221364337303407e-01	 1.354783733376975e+01
 1.586758301496337e+00	 8.372821557180704e-01	 1.353630892462646e+01
 1.578702830195891e+00	 8.523736252820372e-01	 1.352202498838044e+01
 1.570492283547801e+00	 8.674085024978190e-01	 1.350503306090685e+01
 1.562127168928098e+00	 8.823844501562221e-01	 1.348536574933218e+01
 1.553608039766600e+00	 8.972991348732569e-01	 1.346304428674795e+01
 1.544935495595602e+00	 9.121502282064712e-01	 1.343808249256368e+01
 1.536110182066576e+00	 9.269354077766122e-01	 1.341049113609641e+01
 1.625376137561633e+00	 7.802158607142236e-01	 1.353557528398015e+01
 1.617908574540580e+00	 7.955855150394799e-01	 1.353354372174113e+01
 1.610283594671409e+00	 8.109077097360987e-01	 1.352844269773349e+01
 1.602501523823640e+00	 8.261800917984519e-01	 1.352039295520828e+01
 1.594562733637453e+00	 8.414003076516984e-01	 1.350949195144999e+01
 1.586467641697350e+00	 8.565660042419762e-01	 1.349581621244294e+01
 1.578216711675283e+00	 8.716748301359977e-01	 1.347942409626209e+01
 1.569810453442782e+00	 8.867244366290573e-01	 1.346035897087468e+01
 1.561249423151682e+00	 9.017124788604670e-01	 1.343865280955841e+01
 1.552534223283045e+00	 9.166366169353817e-01	 1.341433020452891e+01
 1.543665502663949e+00	 9.314945170519777e-01	 1.338741279663906e+01
 1.633331423483267e+00	 7.840345708019715e-01	 1.350664259925451e+01
 1.625827311015202e+00	 7.994794507884304e-01	 1.350527825792090e+01
 1.618165011233726e+00	 8.148766388585917e-01	 1.350079398428208e+01
 1.610344851603284e+00	 8.302237704901996e-01	 1.349332329272779e+01
 1.602367205583006e+00	 8.455184805890036e-01	 1.348297610322428e+01
 1.594232492801211e+00	 8.607584045842814e-01	 1.346984109603822e+01
 1.585941179199240e+00	 8.759411795338146e-01	 1.345398848703867e+01
 1.577493777144135e+00	 8.910644452373244e-01	 1.343547322976656e+01
 1.568890845509755e+00	 9.061258453573618e-01	 1.341433864791429e+01
 1.560132989725942e+00	 9.211230285466261e-01	 1.339062049917324e+01
 1.551220861795396e+00	 9.360536495806617e-01	 1.336435146859922e+01
 1.641286745470310e+00	 7.878532982017723e-01	 1.347822095334365e+01
 1.633746083389548e+00	 8.033734041905228e-01	 1.347746409160436e+01
 1.626046463526597e+00	 8.188455859742730e-01	 1.347353637358386e+01
 1.618188214940832e+00	 8.342674675140894e-01	 1.346658572638963e+01
 1.610171712910338e+00	 8.496366721962542e-01	 1.345673597775784e+01
 1.601997379107259e+00	 8.649508239331301e-01	 1.344408920550892e+01
 1.593665681742335e+00	 8.802075482735139e-01	 1.342872851994990e+01
 1.585177135678125e+00	 8.954044735214981e-01	 1.341072128594600e+01
 1.576532302510527e+00	 9.105392318628177e-01	 1.339012278876744e+01
 1.567731790618172e+00	 9.256094604976628e-01	 1.336698034505736e+01
 1.558776255179390e+00	 9.406128027788884e-01	 1.334133785738173e+01
 1.649242099014651e+00	 7.916720407496621e-01	 1.345020966743666e+01
 1.641664887176220e+00	 8.072673730391527e-01	 1.345002401980861e+01
 1.633927947083770e+00	 8.228145488340280e-01	 1.344661393274761e+01
 1.626031609391615e+00	 8.383111805786261e-01	 1.344014338929993e+01
 1.617976251196791e+00	 8.537548801397167e-01	 1.343075157180557e+01
 1.609762296215283e+00	 8.691432599127000e-01	 1.341855520068730e+01
 1.601390214927231e+00	 8.844739339373399e-01	 1.340365131907751e+01
 1.592860524690725e+00	 8.997445190220527e-01	 1.338612053056660e+01
 1.584173789823706e+00	 9.149526358757109e-01	 1.336603069466809e+01
 1.575330621653610e+00	 9.300959102459478e-01	 1.334344108176120e+01
 1.566331678534406e+00	 9.451719740628823e-01	 1.331840698630331e+01
 1.657197479608172e+00	 7.954907962816750e-01	 1.342251495306132e+01
 1.649583717887820e+00	 8.111613551277174e-01	 1.342288724154199e+01
 1.641809457438996e+00	 8.267835251887402e-01	 1.341997668782373e+01
 1.633875030510958e+00	 8.423549073923153e-01	 1.341396497662045e+01
 1.625780816019710e+00	 8.578731020856597e-01	 1.340500809426608e+01
 1.617527239725068e+00	 8.733357101471682e-01	 1.339323865136542e+01
 1.609114774376592e+00	 8.887403341075366e-01	 1.337876866470187e+01
 1.600543939827905e+00	 9.040845792794623e-01	 1.336169280627426e+01
 1.591815303119002e+00	 9.193660548949177e-01	 1.334209212457669e+01
 1.582929478526133e+00	 9.345823752489378e-01	 1.332003824032045e+01
 1.573887127578916e+00	 9.497311608488682e-01	 1.329559801574604e+01
 1.665152882742761e+00	 7.993095626338458e-01	 1.339504970515362e+01
 1.657502571036947e+00	 8.150553482496138e-01	 1.339598915751161e+01
 1.649690990126024e+00	 8.307525127892950e-01	 1.339358042926734e+01
 1.641718473854194e+00	 8.463986456636626e-01	 1.338802455590358e+01
 1.633585402956432e+00	 8.619913357003486e-01	 1.337949578050460e+01
 1.625292205236402e+00	 8.775281722607137e-01	 1.336814385472200e+01
 1.616839355713080e+00	 8.930067463663480e-01	 1.335409681294816e+01
 1.608227376735635e+00	 9.084246518342023e-01	 1.333746422819009e+01
 1.599456838066123e+00	 9.237794864193145e-01	 1.331834095530168e+01
 1.590528356929616e+00	 9.390688529640905e-01	 1.329681136423927e+01
 1.581442598031394e+00	 9.542903605530698e-01	 1.327295406286670e+01
 1.673108303910304e+00	 8.031283376422097e-01	 1.336773329715536e+01
 1.665421442136204e+00	 8.189493501982381e-01	 1.336927117158208e+01
 1.657572540678602e+00	 8.347215093865761e-01	 1.336738651890392e+01
 1.649561934976651e+00	 8.504423931011736e-01	 1.336230137870927e+01
 1.641390007584303e+00	 8.661095786500523e-01	 1.335420970776569e+01
 1.633057188349071e+00	 8.817206438775129e-01	 1.334327965367451e+01
 1.624563954559359e+00	 8.972731682960193e-01	 1.332965631622338e+01
 1.615910831059886e+00	 9.127647342267473e-01	 1.331346500557772e+01
 1.607098390334780e+00	 9.281929279477776e-01	 1.329481500354410e+01
 1.598127252557938e+00	 9.435553408488627e-01	 1.327380383106071e+01
 1.588998085610311e+00	 9.588495705917116e-01	 1.325052202184414e+01
 1.681063738602686e+00	 8.069471191428014e-01	 1.334049137807329e+01
 1.673340326698193e+00	 8.228433587669878e-01	 1.334268049392898e+01
 1.665454104630480e+00	 8.386905127314682e-01	 1.334136169834886e+01
 1.657405409433659e+00	 8.544861474133527e-01	 1.333677969346277e+01
 1.649194625480663e+00	 8.702278286010372e-01	 1.332914961164035e+01
 1.640822184662861e+00	 8.859131226217444e-01	 1.331865925612835e+01
 1.632288566538091e+00	 9.015395974787935e-01	 1.330547184441921e+01
 1.623594298446628e+00	 9.171048239975716e-01	 1.328972926417348e+01
 1.614739955594678e+00	 9.326063769791830e-01	 1.327155584853018e+01
 1.605726161104973e+00	 9.480418363607115e-01	 1.325106267447878e+01
 1.596553586034144e+00	 9.634087883810178e-01	 1.322835238464955e+01
 1.689019182311793e+00	 8.107659049716559e-01	 1.331325567143752e+01
 1.681259220235513e+00	 8.267373717492592e-01	 1.331616994583209e+01
 1.673335677515406e+00	 8.426595205748560e-01	 1.331547789883473e+01
 1.665248892780547e+00	 8.585299063087067e-01	 1.331144855951382e+01
 1.656999252222854e+00	 8.743460832195703e-01	 1.330431970355557e+01
 1.648587189777560e+00	 8.901056061175850e-01	 1.329430005509427e+01
 1.640013187271940e+00	 9.058060314969151e-01	 1.328157200685741e+01
 1.631277774541833e+00	 9.214449186871494e-01	 1.326629486916004e+01
 1.622381529515527e+00	 9.370198310124075e-01	 1.324860865521487e+01
 1.613325078264600e+00	 9.525283369570938e-01	 1.322863840697572e+01
 1.604109095021363e+00	 9.679680113372132e-01	 1.320649906232401e+01
 1.696974630529512e+00	 8.145846929648082e-01	 1.328596377609728e+01
 1.689178118260765e+00	 8.306313869384492e-01	 1.328969776605671e+01
 1.681217254867131e+00	 8.466285306676240e-01	 1.328971205240168e+01
 1.673092380572644e+00	 8.625736674957397e-01	 1.328630166235958e+01
 1.664803883388218e+00	 8.784643401719195e-01	 1.327972848925334e+01
 1.656352199292954e+00	 8.942980919892130e-01	 1.327022344964841e+01
 1.647737812383569e+00	 9.100724679326290e-01	 1.325798917495519e+01
 1.638961254991470e+00	 9.257850158359557e-01	 1.324320324876379e+01
 1.630023107767036e+00	 9.414332875463270e-01	 1.322602199803949e+01
 1.620923999730693e+00	 9.570148400954669e-01	 1.320658484296960e+01
 1.611664608290443e+00	 9.725272368765220e-01	 1.318501920674843e+01
 1.536110182066576e+00	 9.269354077766122e-01	 1.341049113609642e+01
 1.527132791305695e+00	 9.416523586869447e-01	 1.338039262494891e+01
 1.518004062972558e+00	 9.562987755506877e-01	 1.334793988540514e+01
 1.508724783053639e+00	 9.708723627734075e-01	 1.331319949868691e+01
 1.499295783373475e+00	 9.853708353953261e-01	 1.327625545345911e+01
 1.489717941445333e+00	 9.997919202222378e-01	 1.323721535460296e+01
 1.479992180288704e+00	 1.014133356955129e+00	 1.319621696154482e+01
 1.470119468213546e+00	 1.028392899317367e+00	 1.315343503335358e+01
 1.460100818571260e+00	 1.042568316178337e+00	 1.310908845485909e+01
 1.449937289472463e+00	 1.056657392672377e+00	 1.306344761512736e+01
 1.439629983471600e+00	 1.070657931311884e+00	 1.301684200679177e+01
 1.543665502663949e+00	 9.314945170519777e-01	 1.338741279663906e+01
 1.534643956824760e+00	 9.462838529277522e-01	 1.335802267834734e+01
 1.525470329063080e+00	 9.610023078369365e-01	 1.332630141284302e+01
 1.516145409231251e+00	 9.756475748942754e-01	 1.329230964151542e+01
 1.506670033245125e+00	 9.902173579014734e-01	 1.325612504393360e+01
 1.497045082934008e+00	 1.004709372483678e+00	 1.321784869634108e+01
 1.487271485857252e+00	 1.019121347224653e+00	 1.317761177370116e+01
 1.477350215087430e+00	 1.033451024799512e+00	 1.313558257212997e+01
 1.467282288960102e+00	 1.047696163103880e+00	 1.309197382549240e+01
 1.457068770790184e+00	 1.061854536378336e+00	 1.304705028692167e+01
 1.446710768555018e+00	 1.075923936326990e+00	 1.300113654308575e+01
 1.551220861795396e+00	 9.360536495806617e-01	 1.336435146859922e+01
 1.542155160652689e+00	 9.509153707911350e-01	 1.333564849016369e+01
 1.532936633233446e+00	 9.657058641132331e-01	 1.330463687239281e+01
 1.523566073255896e+00	 9.804228113708188e-01	 1.327137122419188e+01
 1.514044320727234e+00	 9.950639051270245e-01	 1.323592278878245e+01
 1.504372261792829e+00	 1.009626849826293e+00	 1.319838595373625e+01
 1.494550828551916e+00	 1.024109362935106e+00	 1.315888511898681e+01
 1.484580998839716e+00	 1.038509176080270e+00	 1.311758189927968e+01
 1.474463795975967e+00	 1.052824036183593e+00	 1.307468263435555e+01
 1.464200288479920e+00	 1.067051706591839e+00	 1.303044617704638e+01
 1.453791589751842e+00	 1.081189968200777e+00	 1.298519192642479e+01
 1.558776255179390e+00	 9.406128027788884e-01	 1.334133785738173e+01
 1.549666398532978e+00	 9.555469096522795e-01	 1.331330350142859e+01
 1.540402971252602e+00	 9.704094417139244e-01	 1.328298268252921e+01
 1.530986770922394e+00	 9.851980694967543e-01	 1.325042388261735e+01
 1.521418641640915e+00	 9.999104743252769e-01	 1.321569177737742e+01
 1.511699473869616e+00	 1.014544349463179e+00	 1.317887389962830e+01
 1.501830204247639e+00	 1.029097401259614e+00	 1.314008767555594e+01
 1.491811815372873e+00	 1.043567350293024e+00	 1.309948780987624e+01
 1.481645335549267e+00	 1.057951932511356e+00	 1.305727399274100e+01
 1.471331838500422e+00	 1.072248900367507e+00	 1.301369889798040e+01
 1.460872443049564e+00	 1.086456023948855e+00	 1.296907643912906e+01
 1.566331678534406e+00	 9.451719740628823e-01	 1.331840698630331e+01
 1.557177666209127e+00	 9.601784668863710e-01	 1.329102544582913e+01
 1.547869338889494e+00	 9.751130379733581e-01	 1.326137953329393e+01
 1.538407498025565e+00	 9.899733465657978e-01	 1.322951150759339e+01
 1.528792991807278e+00	 1.004757062749529e+00	 1.319547934196665e+01
 1.519026715012187e+00	 1.019461868607437e+00	 1.315936354253469e+01
 1.509109608819361e+00	 1.034085459371301e+00	 1.312127435501044e+01
 1.499042660589376e+00	 1.048625544571160e+00	 1.308135933528533e+01
 1.488826903610410e+00	 1.063079849181050e+00	 1.303981125621910e+01
 1.478463416810444e+00	 1.077446114759960e+00	 1.299687631963405e+01
 1.467953324435676e+00	 1.091722100586833e+00	 1.295286263926051e+01
 1.573887127578916e+00	 9.497311608488682e-01	 1.329559801574604e+01
 1.564688959424633e+00	 9.648100398685951e-01	 1.326885616724885e+01
 1.555335731913071e+00	 9.798166502258812e-01	 1.323987220247041e+01
 1.545828250360228e+00	 9.947486398716654e-01	 1.320868205988180e+01
 1.536167367047434e+00	 1.009603667653077e+00	 1.317533687187287e+01
 1.526353981068362e+00	 1.024379404472165e+00	 1.313990994024059e+01
 1.516389038142021e+00	 1.039073534443294e+00	 1.310250411563772e+01
 1.506273530391697e+00	 1.053683756048060e+00	 1.306325955630693e+01
 1.496008496089809e+00	 1.068207783286553e+00	 1.302236183794070e+01
 1.485595019368734e+00	 1.082643346823816e+00	 1.298005038306944e+01
 1.475034229897670e+00	 1.096988195130322e+00	 1.293662717501642e+01
 1.581442598031394e+00	 9.542903605530698e-01	 1.327295406286670e+01
 1.572200273922992e+00	 9.694416259741379e-01	 1.324684143785732e+01
 1.562802146092280e+00	 9.845202758058416e-01	 1.321850937229868e+01
 1.553249023721202e+00	 9.995239467080732e-01	 1.318798738579270e+01
 1.543541763182496e+00	 1.014450286289221e+00	 1.315531962820357e+01
 1.533681267885961e+00	 1.029296954270462e+00	 1.312057201388394e+01
 1.523668488090563e+00	 1.044061623648717e+00	 1.308383977612355e+01
 1.513504420682306e+00	 1.058741981857107e+00	 1.304525541676954e+01
 1.503190108917871e+00	 1.073335731921745e+00	 1.300499702236704e+01
 1.492726642134045e+00	 1.087840593613695e+00	 1.296329691461986e+01
 1.482115155423036e+00	 1.102254304594929e+00	 1.292045059949253e+01
 1.588998085610311e+00	 9.588495705917116e-01	 1.325052202184414e+01
 1.579711605447703e+00	 9.740732225781839e-01	 1.322503077673094e+01
 1.570268577196068e+00	 9.892239120475869e-01	 1.319734344671251e+01
 1.560669813903308e+00	 1.004299264368737e+00	 1.316748303328288e+01
 1.550916176033572e+00	 1.019296915911257e+00	 1.313548655905908e+01
 1.541008571312801e+00	 1.034214515215427e+00	 1.310141236252122e+01
 1.530947954539925e+00	 1.049049724160696e+00	 1.306534782972600e+01
 1.520735327363677e+00	 1.063800219131686e+00	 1.302741753756346e+01
 1.510371738025008e+00	 1.078463692180506e+00	 1.298779177941448e+01
 1.499858281065129e+00	 1.093037852184217e+00	 1.294669544039775e+01
 1.489196096999267e+00	 1.107520425996264e+00	 1.290441718580460e+01
 1.596553586034144e+00	 9.634087883810178e-01	 1.322835238464955e+01
 1.587222949742264e+00	 9.787048270559200e-01	 1.320347726899129e+01
 1.577735020993383e+00	 9.939275562854638e-01	 1.317643036908486e+01
 1.568090616701363e+00	 1.009074590147373e+00	 1.314722806855187e+01
 1.558290601421774e+00	 1.024143553772483e+00	 1.311590011522283e+01
 1.548335887196703e+00	 1.039132084520157e+00	 1.308249707815943e+01
 1.538227433365048e+00	 1.054037833152356e+00	 1.304709825889676e+01
 1.527966246338281e+00	 1.068858465005180e+00	 1.300982003110100e+01
 1.517553379341630e+00	 1.083591661156715e+00	 1.297082457900208e+01
 1.506989932120735e+00	 1.098235119590002e+00	 1.293032900117885e+01
 1.496277050613855e+00	 1.112786556349938e+00	 1.288861474255873e+01
 1.604109095021363e+00	 9.679680113372132e-01	 1.320649906232401e+01
 1.594734302550172e+00	 9.833364367825309e-01	 1.318223738544379e+01
 1.585201473253172e+00	 9.986312058538210e-01	 1.315582944046643e+01
 1.575511427910188e+00	 1.013849921337697e+00	 1.312728489311926e+01
 1.565665035168214e+00	 1.028990197126197e+00	 1.309662606632100e+01
 1.555663211385484e+00	 1.044049659397754e+00	 1.306389556124148e+01
 1.545506920440873e+00	 1.059025947796823e+00	 1.302916435033843e+01
 1.535197173508592e+00	 1.073916716610972e+00	 1.299254031619070e+01
 1.524735028798148e+00	 1.088719635944252e+00	 1.295417720599092e+01
 1.514121591259616e+00	 1.103432392885668e+00	 1.291428396765355e+01
 1.503358012254291e+00	 1.118052692671558e+00	 1.287313442966122e+01
 1.611664608290443e+00	 9.725272368765220e-01	 1.318501920674843e+01
 1.602245659614925e+00	 9.879680491332032e-01	 1.316137080270419e+01
 1.592667929744381e+00	 1.003334858087005e+00	 1.313560313830290e+01
 1.582932243324602e+00	 1.018625255233427e+00	 1.310771906137116e+01
 1.573039473094003e+00	 1.033836843225697e+00	 1.307773331743729e+01
 1.562990539726966e+00	 1.048967237061314e+00	 1.304568033657175e+01
 1.552786411642341e+00	 1.064014065267221e+00	 1.301162251048330e+01
 1.542428104777079e+00	 1.078974971082447e+00	 1.297565893331528e+01
 1.531916682324971e+00	 1.093847613636997e+00	 1.293793457550447e+01
 1.521253254440523e+00	 1.108629669125836e+00	 1.289864985603484e+01
 1.510438977908069e+00	 1.123318831976734e+00	 1.285807057445809e+01
 1.439629983471600e+00	 1.070657931311884e+00	 1.301684200679177e+01
 1.429178259545016e+00	 1.084570108749448e+00	 1.296694853991024e+01
 1.418585053742233e+00	 1.098389370025116e+00	 1.291162085964978e+01
 1.407851606297432e+00	 1.112113567330683e+00	 1.285154900818964e+01
 1.396979200356835e+00	 1.125740574585664e+00	 1.278752343556747e+01
 1.385969161497703e+00	 1.139268288509219e+00	 1.272044315464480e+01
 1.374822857215517e+00	 1.152694629679524e+00	 1.265132386182820e+01
 1.363541696379728e+00	 1.166017543579481e+00	 1.258130597562760e+01
 1.352127128658505e+00	 1.179235001627677e+00	 1.251155021855940e+01
 1.340580643912978e+00	 1.192345002193526e+00	 1.243955950471394e+01
 1.328903771561460e+00	 1.205345571595528e+00	 1.236357084135016e+01
 1.446710768555018e+00	 1.075923936326990e+00	 1.300113654308575e+01
 1.436207638078101e+00	 1.089904540471294e+00	 1.295195849397480e+01
 1.425562329849847e+00	 1.103791771447829e+00	 1.289743971539014e+01
 1.414776090204504e+00	 1.117583470884436e+00	 1.283829928168860e+01
 1.403850208599420e+00	 1.131277502243543e+00	 1.277535884653650e+01
 1.392786017131682e+00	 1.144871751899366e+00	 1.270955101826668e+01
 1.381584890022769e+00	 1.158364130202484e+00	 1.264192770600749e+01
 1.370248243071623e+00	 1.171752572530697e+00	 1.257366838742676e+01
 1.358777533076577e+00	 1.185035040325052e+00	 1.250507447577232e+01
 1.347174257226612e+00	 1.198209522109982e+00	 1.243322455604630e+01
 1.335439952462451e+00	 1.211274034496471e+00	 1.235756390365180e+01
 1.453791589751842e+00	 1.081189968200777e+00	 1.298519192642479e+01
 1.443237052462367e+00	 1.095238999400726e+00	 1.293669683334987e+01
 1.432539641542876e+00	 1.109194200424686e+00	 1.288295452303683e+01
 1.421700609427711e+00	 1.123053402336496e+00	 1.282470981893180e+01
 1.410721251885383e+00	 1.136814458141450e+00	 1.276281222154705e+01
 1.399602907532831e+00	 1.150475243868766e+00	 1.269822451369864e+01
 1.388346957317566e+00	 1.164033659641381e+00	 1.263203134196138e+01
 1.376954823968062e+00	 1.177487630731942e+00	 1.256543692584621e+01
 1.365427971412847e+00	 1.190835108603911e+00	 1.249719250794746e+01
 1.353767904168788e+00	 1.204074071936691e+00	 1.242556641244698e+01
 1.341976166699057e+00	 1.217202527633707e+00	 1.235029757878077e+01
 1.460872443049564e+00	 1.086456023948855e+00	 1.296907643912906e+01
 1.450266498714448e+00	 1.100573482514591e+00	 1.292123616957186e+01
 1.439516984867485e+00	 1.114596653894036e+00	 1.286824139769580e+01
 1.428625160043144e+00	 1.128523358586982e+00	 1.281085943328642e+01
 1.417592326321118e+00	 1.142351439141542e+00	 1.274996428636135e+01
 1.406419828838237e+00	 1.156078761241895e+00	 1.268654551184758e+01
 1.395109055268068e+00	 1.169703214783290e+00	 1.262171703635893e+01
 1.383661435268645e+00	 1.183222714933180e+00	 1.255626858953188e+01
 1.372078439898727e+00	 1.196635203177400e+00	 1.248819533596149e+01
 1.360361581003097e+00	 1.209938648350282e+00	 1.241687418887839e+01
 1.348512410567412e+00	 1.223131047647648e+00	 1.234205877347368e+01
 1.467953324435676e+00	 1.091722100586833e+00	 1.295286263926051e+01
 1.457295972850974e+00	 1.105907986789738e+00	 1.290565342282889e+01
 1.446494355869842e+00	 1.119999128794229e+00	 1.285338081949283e+01
 1.435549738126890e+00	 1.133993336536009e+00	 1.279683138201632e+01
 1.424463428013025e+00	 1.147888442105974e+00	 1.273690031102252e+01
 1.413236777184987e+00	 1.161682300843225e+00	 1.267460054873978e+01
 1.401871180042429e+00	 1.175372792415285e+00	 1.261107186117834e+01
 1.390368073172970e+00	 1.188957821884376e+00	 1.254617345673340e+01
 1.378728934765629e+00	 1.202435320758665e+00	 1.247836731461826e+01
 1.366955283993134e+00	 1.215803248027381e+00	 1.240743039773723e+01
 1.355048680363653e+00	 1.229059591178706e+00	 1.233312786508295e+01
 1.475034229897670e+00	 1.096988195130322e+00	 1.293662717501642e+01
 1.464325470888582e+00	 1.111242509203015e+00	 1.289002963705571e+01
 1.453471750596112e+00	 1.125401622063611e+00	 1.283845744918029e+01
 1.442474339755039e+00	 1.139463333083694e+00	 1.278271318222976e+01
 1.431334553067501e+00	 1.153425463896903e+00	 1.272370992598926e+01
 1.420053748710169e+00	 1.167285859497232e+00	 1.266248064170612e+01
 1.408633327808805e+00	 1.181042389324441e+00	 1.260004910686350e+01
 1.397074733880639e+00	 1.194692948335492e+00	 1.253543072544199e+01
 1.385379452244967e+00	 1.208235458060854e+00	 1.246798618497307e+01
 1.373549009402492e+00	 1.221667867644615e+00	 1.239751099944596e+01
 1.361584972383916e+00	 1.234988154867292e+00	 1.232377875015804e+01
 1.482115155423036e+00	 1.102254304594929e+00	 1.292045059949253e+01
 1.471354988843903e+00	 1.116577046731271e+00	 1.287444979537145e+01
 1.460449165092463e+00	 1.130804130640535e+00	 1.282355994407145e+01
 1.449398961003681e+00	 1.144933345130152e+00	 1.276859642714843e+01
 1.438205697590944e+00	 1.158962501376486e+00	 1.271048693859491e+01
 1.426870739550870e+00	 1.172889434028388e+00	 1.265028110590308e+01
 1.415395494735353e+00	 1.186712002297834e+00	 1.258855376023692e+01
 1.403781413591250e+00	 1.200428091036492e+00	 1.252431298255838e+01
 1.392029988568154e+00	 1.214035611797111e+00	 1.245732312721992e+01
 1.380142753494762e+00	 1.227532503878613e+00	 1.238738545365125e+01
 1.368121282924333e+00	 1.240916735353818e+00	 1.231427889368228e+01
 1.489196096999267e+00	 1.107520425996264e+00	 1.290441718580460e+01
 1.478384522733568e+00	 1.121911596351353e+00	 1.285900263585118e+01
 1.467426595405061e+00	 1.136206651463346e+00	 1.280878077429271e+01
 1.456323597948904e+00	 1.150403369575501e+00	 1.275457660268816e+01
 1.445076857689750e+00	 1.164499551406878e+00	 1.269732914982105e+01
 1.433687745844180e+00	 1.178493021261167e+00	 1.263808681768822e+01
 1.422157676990231e+00	 1.192381628122537e+00	 1.257684308143673e+01
 1.410488108504401e+00	 1.206163246737341e+00	 1.251308625868896e+01
 1.398680539966603e+00	 1.219835778680583e+00	 1.244664281412533e+01
 1.386736512533540e+00	 1.233397153406000e+00	 1.237731677100838e+01
 1.374657608281044e+00	 1.246845329278696e+00	 1.230488937894287e+01
 1.496277050613855e+00	 1.112786556349938e+00	 1.288861474255873e+01
 1.485414068574213e+00	 1.127246155040111e+00	 1.284378046762103e+01
 1.474404037580072e+00	 1.141609181470395e+00	 1.279421603934494e+01
 1.463248246666797e+00	 1.155873403319857e+00	 1.274075290434327e+01
 1.451948029470316e+00	 1.170036610850236e+00	 1.268433817137782e+01
 1.440504763727184e+00	 1.184096618020045e+00	 1.262587920380701e+01
 1.428919870741593e+00	 1.198051263585625e+00	 1.256517757751908e+01
 1.417194814819693e+00	 1.211898412188002e+00	 1.250201008343808e+01
 1.405331102671727e+00	 1.225635955424417e+00	 1.243620346499007e+01
 1.393330282782418e+00	 1.239261812903405e+00	 1.236756156553591e+01
 1.381193944750181e+00	 1.252773933282339e+00	 1.229586495801625e+01
 1.503358012254291e+00	 1.118052692671558e+00	 1.287313442966123e+01
 1.492443622382469e+00	 1.132580719774393e+00	 1.282887898726959e+01
 1.481381487663662e+00	 1.147011717600031e+00	 1.277996528496621e+01
 1.470172903233450e+00	 1.161343443263336e+00	 1.272722805436671e+01
 1.458819209039041e+00	 1.175573676568716e+00	 1.267161924308206e+01
 1.447321789336972e+00	 1.189700221129493e+00	 1.261385392933282e+01
 1.435682072157595e+00	 1.203720905474172e+00	 1.255381127376457e+01
 1.423901528736725e+00	 1.217633584138439e+00	 1.249133754118092e+01
 1.411981672914939e+00	 1.231436138741759e+00	 1.242625690012666e+01
 1.399924060504986e+00	 1.245126479047455e+00	 1.235837010752164e+01
 1.387730288627881e+00	 1.258702544005156e+00	 1.228745410284924e+01
 1.510438977908069e+00	 1.123318831976734e+00	 1.285807057445809e+01
 1.499473180174970e+00	 1.137915287531046e+00	 1.281439709556606e+01
 1.488358941701999e+00	 1.152414256790601e+00	 1.276613132028745e+01
 1.477097563724953e+00	 1.166813486306054e+00	 1.271410811923727e+01
 1.465690392502321e+00	 1.181110745424474e+00	 1.265927520595574e+01
 1.454138818810631e+00	 1.195303827413987e+00	 1.260225915054581e+01
 1.442444277406394e+00	 1.209390550575254e+00	 1.254299177089827e+01
 1.430608246455096e+00	 1.223368759338615e+00	 1.248131532730265e+01
 1.418632246927650e+00	 1.237236325345754e+00	 1.241704859583213e+01
 1.406517841964842e+00	 1.250991148514776e+00	 1.234998637696368e+01
 1.394266636210279e+00	 1.264631158087561e+00	 1.227989905691769e+01
 1.328903771561460e+00	 1.205345571595528e+00	 1.236357084135016e+01
 1.317100094016168e+00	 1.218232587233964e+00	 1.228379555329434e+01
 1.305169225639270e+00	 1.231006371939438e+00	 1.220074313158409e+01
 1.293112788547912e+00	 1.243665063654852e+00	 1.211457915552069e+01
 1.280932441560393e+00	 1.256206832054128e+00	 1.202546096007860e+01
 1.268629879430219e+00	 1.268629879430219e+00	 1.193353724695900e+01
 1.256206832054128e+00	 1.280932441560393e+00	 1.183894776089039e+01
 1.243665063654852e+00	 1.293112788547913e+00	 1.174182303713640e+01
 1.231006371939438e+00	 1.305169225639270e+00	 1.164228422595295e+01
 1.218232587233963e+00	 1.317100094016168e+00	 1.154044299946402e+01
 1.205345571595528e+00	 1.328903771561460e+00	 1.143640154610526e+01
 1.335439952462451e+00	 1.211274034496471e+00	 1.235756390365180e+01
 1.323578218816319e+00	 1.224224434607888e+00	 1.227838959166216e+01
 1.311588668753623e+00	 1.237061046862685e+00	 1.219623860094994e+01
 1.299472932369836e+00	 1.249782000045293e+00	 1.211120864852522e+01
 1.287232676642098e+00	 1.262385454827237e+00	 1.202338760983147e+01
 1.274869604659506e+00	 1.274869604659506e+00	 1.193285319589859e+01
 1.262385454827237e+00	 1.287232676642098e+00	 1.183967269901006e+01
 1.249782000045293e+00	 1.299472932369836e+00	 1.174390281294025e+01
 1.237061046862685e+00	 1.311588668753623e+00	 1.164558953359198e+01
 1.224224434607888e+00	 1.323578218816319e+00	 1.154476814558826e+01
 1.211274034496471e+00	 1.335439952462451e+00	 1.144146330004383e+01
 1.341976166699057e+00	 1.217202527633707e+00	 1.235029757878077e+01
 1.330056376655977e+00	 1.230216312541315e+00	 1.227175865414648e+01
 1.318008144608183e+00	 1.243115752665815e+00	 1.219051067510500e+01
 1.305833108629521e+00	 1.255898967633128e+00	 1.210659036028728e+01
 1.293532943856018e+00	 1.268564109112330e+00	 1.202002305364970e+01
 1.281109361712400e+00	 1.281109361712400e+00	 1.193082245716931e+01
 1.268564109112330e+00	 1.293532943856017e+00	 1.183899043522726e+01
 1.255898967633128e+00	 1.305833108629521e+00	 1.174451689685293e+01
 1.243115752665815e+00	 1.318008144608184e+00	 1.164737976177295e+01
 1.230216312541315e+00	 1.330056376655977e+00	 1.154754501592644e+01
 1.217202527633707e+00	 1.341976166699057e+00	 1.144496686177247e+01
 1.348512410567412e+00	 1.223131047647648e+00	 1.234205877347368e+01
 1.336534563864171e+00	 1.236208217638752e+00	 1.226418797991201e+01
 1.324427649565231e+00	 1.249170485917754e+00	 1.218384421071588e+01
 1.312193313722846e+00	 1.262015962952014e+00	 1.210100994498002e+01
 1.299833239631967e+00	 1.274742791408118e+00	 1.201565481722032e+01
 1.287349147052996e+00	 1.287349147052996e+00	 1.192773539511199e+01
 1.274742791408118e+00	 1.299833239631967e+00	 1.183719503199385e+01
 1.262015962952014e+00	 1.312193313722847e+00	 1.174396380045330e+01
 1.249170485917754e+00	 1.324427649565231e+00	 1.164795851307397e+01
 1.236208217638751e+00	 1.336534563864170e+00	 1.154908283613680e+01
 1.223131047647648e+00	 1.348512410567413e+00	 1.144722750172905e+01
 1.355048680363653e+00	 1.229059591178706e+00	 1.233312786508294e+01
 1.343012776769932e+00	 1.242200146504712e+00	 1.225595634537637e+01
 1.330847179987044e+00	 1.255225243187424e+00	 1.217651764751235e+01
 1.318553544045686e+00	 1.268132982535606e+00	 1.209474666693320e+01
 1.306133560399765e+00	 1.280921498213315e+00	 1.201056404689811e+01
 1.293588957145393e+00	 1.293588957145393e+00	 1.192387599081711e+01
 1.280921498213315e+00	 1.306133560399765e+00	 1.183457415233644e+01
 1.268132982535605e+00	 1.318553544045686e+00	 1.174253560965224e+01
 1.255225243187424e+00	 1.330847179987044e+00	 1.164762293029556e+01
 1.242200146504711e+00	 1.343012776769932e+00	 1.154968433233835e+01
 1.229059591178706e+00	 1.355048680363653e+00	 1.144855394762135e+01
 1.361584972383916e+00	 1.234988154867292e+00	 1.232377875015804e+01
 1.349491011702289e+00	 1.248192095743705e+00	 1.224733611089507e+01
 1.337266732235900e+00	 1.261280021043750e+00	 1.216880305353358e+01
 1.324913795993914e+00	 1.274250022917558e+00	 1.208807344485312e+01
 1.312433902589228e+00	 1.287100226026631e+00	 1.200502555326214e+01
 1.299828788453687e+00	 1.299828788453687e+00	 1.191952188533544e+01
 1.287100226026631e+00	 1.312433902589228e+00	 1.183140910299053e+01
 1.274250022917558e+00	 1.324913795993915e+00	 1.174051802796989e+01
 1.261280021043750e+00	 1.337266732235901e+00	 1.164666374005570e+01
 1.248192095743705e+00	 1.349491011702289e+00	 1.154964577514863e+01
 1.234988154867292e+00	 1.361584972383916e+00	 1.144924842898461e+01
 1.368121282924333e+00	 1.240916735353818e+00	 1.231427889368228e+01
 1.355969264990275e+00	 1.254184061960244e+00	 1.223859326814350e+01
 1.343686302674079e+00	 1.267334816055656e+00	 1.216096617110120e+01
 1.331274065963408e+00	 1.280367080631528e+00	 1.208125689678389e+01
 1.318734262630171e+00	 1.293278971346777e+00	 1.199930785541844e+01
 1.306068637441975e+00	 1.306068637441975e+00	 1.191494442362667e+01
 1.293278971346777e+00	 1.318734262630171e+00	 1.182797487825408e+01
 1.280367080631528e+00	 1.331274065963408e+00	 1.173819042050891e+01
 1.267334816055655e+00	 1.343686302674080e+00	 1.164536529704828e+01
 1.254184061960244e+00	 1.355969264990276e+00	 1.154925702434684e+01
 1.240916735353818e+00	 1.368121282924333e+00	 1.144960672232219e+01
 1.374657608281044e+00	 1.246845329278696e+00	 1.230488937894287e+01
 1.362447532962918e+00	 1.260176041758838e+00	 1.222998748817687e+01
 1.350105887663859e+00	 1.273389624792064e+00	 1.215326646349639e+01
 1.337634350350043e+00	 1.286484152211171e+00	 1.207455738578732e+01
 1.325034636952411e+00	 1.299457730672467e+00	 1.199367322602231e+01
 1.312308500574354e+00	 1.312308500574354e+00	 1.191040869922090e+01
 1.299457730672467e+00	 1.325034636952411e+00	 1.182454020453854e+01
 1.286484152211171e+00	 1.337634350350043e+00	 1.173582585859970e+01
 1.273389624792063e+00	 1.350105887663859e+00	 1.164400562894262e+01
 1.260176041758837e+00	 1.362447532962919e+00	 1.154880157414303e+01
 1.246845329278697e+00	 1.374657608281044e+00	 1.144991819681400e+01
 1.381193944750181e+00	 1.252773933282339e+00	 1.229586495801625e+01
 1.368925811949249e+00	 1.266168031743997e+00	 1.222177217014436e+01
 1.356525483567518e+00	 1.279444443821899e+00	 1.214595716231914e+01
 1.343994645549694e+00	 1.292601234190142e+00	 1.206822906631921e+01
 1.331335021985766e+00	 1.305636500502410e+00	 1.198837773700086e+01
 1.318548374314922e+00	 1.318548374314922e+00	 1.190617359957173e+01
 1.305636500502410e+00	 1.331335021985766e+00	 1.182136758559508e+01
 1.292601234190142e+00	 1.343994645549694e+00	 1.173369116509737e+01
 1.279444443821899e+00	 1.356525483567518e+00	 1.164285648190513e+01
 1.266168031743997e+00	 1.368925811949250e+00	 1.154855659903449e+01
 1.252773933282338e+00	 1.381193944750181e+00	 1.145046586057466e+01
 1.387730288627881e+00	 1.258702544005156e+00	 1.228745410284924e+01
 1.375404098278298e+00	 1.272160028520235e+00	 1.221419449063869e+01
 1.362945086747335e+00	 1.285499269714085e+00	 1.213928531550865e+01
 1.350354947958237e+00	 1.298718323102097e+00	 1.206251993128057e+01
 1.337635414160051e+00	 1.311815277335320e+00	 1.198367130595227e+01
 1.324788255127775e+00	 1.324788255127775e+00	 1.190249185208007e+01
 1.311815277335320e+00	 1.337635414160052e+00	 1.181871334839514e+01
 1.298718323102097e+00	 1.350354947958238e+00	 1.173204696030982e+01
 1.285499269714085e+00	 1.362945086747336e+00	 1.164218336672461e+01
 1.272160028520235e+00	 1.375404098278298e+00	 1.154879300023314e+01
 1.258702544005156e+00	 1.387730288627881e+00	 1.145152640744421e+01
 1.394266636210279e+00	 1.264631158087561e+00	 1.227989905691769e+01
 1.381882388279096e+00	 1.278152028692061e+00	 1.220749545366276e+01
 1.369364693565589e+00	 1.291554099037546e+00	 1.213349183600498e+01
 1.356715253971548e+00	 1.304835415480692e+00	 1.205767185972231e+01
 1.343935809905084e+00	 1.317994057669907e+00	 1.197979774320197e+01
 1.331028139477010e+00	 1.331028139477010e+00	 1.189961007076745e+01
 1.317994057669907e+00	 1.343935809905085e+00	 1.181682768964594e+01
 1.304835415480692e+00	 1.356715253971548e+00	 1.173114770854036e+01
 1.291554099037545e+00	 1.369364693565589e+00	 1.164224560552178e+01
 1.278152028692060e+00	 1.381882388279097e+00	 1.154977545264369e+01
 1.264631158087562e+00	 1.394266636210279e+00	 1.145337026429576e+01
 1.205345571595528e+00	 1.328903771561460e+00	 1.143640154610526e+01
 1.192345002193527e+00	 1.340580643912977e+00	 1.133137706142601e+01
 1.179235001627678e+00	 1.352127128658504e+00	 1.122679385083797e+01
 1.166017543579482e+00	 1.363541696379727e+00	 1.112143021644880e+01
 1.152694629679524e+00	 1.374822857215517e+00	 1.101229398762517e+01
 1.139268288509220e+00	 1.385969161497703e+00	 1.089950972004327e+01
 1.125740574585664e+00	 1.396979200356834e+00	 1.078320596802214e+01
 1.112113567330684e+00	 1.407851606297432e+00	 1.066341850707237e+01
 1.098389370025117e+00	 1.418585053742233e+00	 1.054010120558071e+01
 1.084570108749449e+00	 1.429178259545016e+00	 1.041313716974423e+01
 1.070657931311884e+00	 1.439629983471600e+00	 1.028235007823537e+01
 1.211274034496471e+00	 1.335439952462451e+00	 1.144146330004383e+01
 1.198209522109982e+00	 1.347174257226611e+00	 1.133683436565222e+01
 1.185035040325052e+00	 1.358777533076577e+00	 1.123230888364886e+01
 1.171752572530697e+00	 1.370248243071622e+00	 1.112793210005422e+01
 1.158364130202485e+00	 1.381584890022768e+00	 1.102045886173302e+01
 1.144871751899366e+00	 1.392786017131682e+00	 1.090913552746997e+01
 1.131277502243543e+00	 1.403850208599420e+00	 1.079411998828456e+01
 1.117583470884436e+00	 1.414776090204503e+00	 1.067547466314606e+01
 1.103791771447830e+00	 1.425562329849847e+00	 1.055317773308542e+01
 1.089904540471294e+00	 1.436207638078100e+00	 1.042713465694757e+01
 1.075923936326989e+00	 1.446710768555017e+00	 1.029718988250849e+01
 1.217202527633707e+00	 1.341976166699057e+00	 1.144496686177247e+01
 1.204074071936692e+00	 1.353767904168787e+00	 1.134075593013135e+01
 1.190835108603912e+00	 1.365427971412846e+00	 1.123634305288363e+01
 1.177487630731942e+00	 1.376954823968060e+00	 1.113209289994395e+01
 1.164033659641382e+00	 1.388346957317566e+00	 1.102628009179573e+01
 1.150475243868767e+00	 1.399602907532831e+00	 1.091644546912002e+01
 1.136814458141450e+00	 1.410721251885382e+00	 1.080275685083185e+01
 1.123053402336496e+00	 1.421700609427711e+00	 1.068529689603767e+01
 1.109194200424686e+00	 1.432539641542875e+00	 1.056406170899211e+01
 1.095238999400726e+00	 1.443237052462367e+00	 1.043897274673703e+01
 1.081189968200777e+00	 1.453791589751842e+00	 1.030988892772463e+01
 1.223131047647648e+00	 1.348512410567413e+00	 1.144722750172905e+01
 1.209938648350283e+00	 1.360361581003097e+00	 1.134346349016425e+01
 1.196635203177400e+00	 1.372078439898725e+00	 1.123922510587252e+01
 1.183222714933181e+00	 1.383661435268644e+00	 1.113487738824811e+01
 1.169703214783291e+00	 1.395109055268068e+00	 1.103017455936240e+01
 1.156078761241896e+00	 1.406419828838236e+00	 1.092185891406476e+01
 1.142351439141542e+00	 1.417592326321117e+00	 1.080953944812852e+01
 1.128523358586982e+00	 1.428625160043143e+00	 1.069331269802859e+01
 1.114596653894037e+00	 1.439516984867485e+00	 1.057318633985867e+01
 1.100573482514591e+00	 1.450266498714447e+00	 1.044909151018663e+01
 1.086456023948855e+00	 1.460872443049564e+00	 1.032089533351057e+01
 1.229059591178706e+00	 1.355048680363653e+00	 1.144855394762135e+01
 1.215803248027382e+00	 1.366955283993134e+00	 1.134527219183082e+01
 1.202435320758666e+00	 1.378728934765628e+00	 1.124127714852230e+01
 1.188957821884376e+00	 1.390368073172970e+00	 1.113692793893486e+01
 1.175372792415286e+00	 1.401871180042428e+00	 1.103255596060092e+01
 1.161682300843226e+00	 1.413236777184986e+00	 1.092579215858461e+01
 1.147888442105974e+00	 1.424463428013025e+00	 1.081488771309346e+01
 1.133993336536010e+00	 1.435549738126889e+00	 1.069994671286071e+01
 1.119999128794229e+00	 1.446494355869842e+00	 1.058098208955215e+01
 1.105907986789738e+00	 1.457295972850975e+00	 1.045792837344717e+01
 1.091722100586834e+00	 1.467953324435676e+00	 1.033065466132933e+01
 1.234988154867292e+00	 1.361584972383916e+00	 1.144924842898461e+01
 1.221667867644616e+00	 1.373549009402491e+00	 1.134649063714398e+01
 1.208235458060854e+00	 1.385379452244967e+00	 1.124281469121223e+01
 1.194692948335492e+00	 1.397074733880638e+00	 1.113856758827307e+01
 1.181042389324442e+00	 1.408633327808805e+00	 1.103408425438623e+01
 1.167285859497232e+00	 1.420053748710168e+00	 1.092865808734008e+01
 1.153425463896904e+00	 1.431334553067501e+00	 1.081921828929090e+01
 1.139463333083695e+00	 1.442474339755039e+00	 1.070562041553286e+01
 1.125401622063612e+00	 1.453471750596112e+00	 1.058787636927015e+01
 1.111242509203016e+00	 1.464325470888582e+00	 1.046591781863399e+01
 1.096988195130322e+00	 1.475034229897669e+00	 1.033960962689520e+01
 1.240916735353818e+00	 1.368121282924333e+00	 1.144960672232219e+01
 1.227532503878613e+00	 1.380142753494762e+00	 1.134742092974626e+01
 1.214035611797111e+00	 1.392029988568154e+00	 1.124414669517867e+01
 1.200428091036492e+00	 1.403781413591249e+00	 1.114011276567855e+01
 1.186712002297834e+00	 1.415395494735354e+00	 1.103563543165931e+01
 1.172889434028388e+00	 1.426870739550870e+00	 1.093086583477884e+01
 1.158962501376486e+00	 1.438205697590943e+00	 1.082294420126874e+01
 1.144933345130153e+00	 1.449398961003680e+00	 1.071075179215364e+01
 1.130804130640535e+00	 1.460449165092463e+00	 1.059429322750785e+01
 1.116577046731271e+00	 1.471354988843902e+00	 1.047349108453468e+01
 1.102254304594929e+00	 1.482115155423035e+00	 1.034819981227806e+01
 1.246845329278697e+00	 1.374657608281044e+00	 1.144991819681400e+01
 1.233397153406001e+00	 1.386736512533540e+00	 1.134835872112703e+01
 1.219835778680584e+00	 1.398680539966603e+00	 1.124557561937640e+01
 1.206163246737342e+00	 1.410488108504401e+00	 1.114187334138780e+01
 1.192381628122537e+00	 1.422157676990230e+00	 1.103754351158384e+01
 1.178493021261168e+00	 1.433687745844179e+00	 1.093286501911474e+01
 1.164499551406879e+00	 1.445076857689749e+00	 1.082647452505219e+01
 1.150403369575502e+00	 1.456323597948904e+00	 1.071575501985128e+01
 1.136206651463347e+00	 1.467426595405061e+00	 1.060065303997838e+01
 1.121911596351354e+00	 1.478384522733568e+00	 1.048107586715546e+01
 1.107520425996265e+00	 1.489196096999267e+00	 1.035686137770797e+01
 1.252773933282338e+00	 1.381193944750181e+00	 1.145046586057466e+01
 1.239261812903406e+00	 1.393330282782417e+00	 1.134959325735130e+01
 1.225635955424418e+00	 1.405331102671726e+00	 1.124739746780106e+01
 1.211898412188003e+00	 1.417194814819693e+00	 1.114415267454216e+01
 1.198051263585625e+00	 1.428919870741592e+00	 1.104011988200481e+01
 1.184096618020045e+00	 1.440504763727184e+00	 1.093554702452042e+01
 1.170036610850236e+00	 1.451948029470316e+00	 1.083021405879045e+01
 1.155873403319858e+00	 1.463248246666797e+00	 1.072104014674998e+01
 1.141609181470396e+00	 1.474404037580072e+00	 1.060737219949618e+01
 1.127246155040112e+00	 1.485414068574213e+00	 1.048909602011269e+01
 1.112786556349938e+00	 1.496277050613855e+00	 1.036602677310153e+01
 1.258702544005156e+00	 1.387730288627881e+00	 1.145152640744421e+01
 1.245126479047455e+00	 1.399924060504985e+00	 1.135140742627943e+01
 1.231436138741759e+00	 1.411981672914938e+00	 1.124990183725984e+01
 1.217633584138439e+00	 1.423901528736724e+00	 1.114724766166838e+01
 1.203720905474172e+00	 1.435682072157594e+00	 1.104366940490484e+01
 1.189700221129493e+00	 1.447321789336972e+00	 1.093937818958810e+01
 1.175573676568716e+00	 1.458819209039040e+00	 1.083456299356118e+01
 1.161343443263336e+00	 1.470172903233450e+00	 1.072701277201393e+01
 1.147011717600031e+00	 1.481381487663662e+00	 1.061486280583090e+01
 1.132580719774393e+00	 1.492443622382469e+00	 1.049797125488647e+01
 1.118052692671557e+00	 1.503358012254291e+00	 1.037612444932312e+01
 1.264631158087562e+00	 1.394266636210279e+00	 1.145337026429577e+01
 1.250991148514777e+00	 1.406517841964841e+00	 1.135407780526545e+01
 1.237236325345755e+00	 1.418632246927651e+00	 1.125337196557725e+01
 1.223368759338615e+00	 1.430608246455096e+00	 1.115144878554456e+01
 1.209390550575255e+00	 1.442444277406394e+00	 1.104849046612178e+01
 1.195303827413988e+00	 1.454138818810630e+00	 1.094466553398022e+01
 1.181110745424474e+00	 1.465690392502321e+00	 1.084012915924050e+01
 1.166813486306055e+00	 1.477097563724952e+00	 1.073407372596715e+01
 1.152414256790601e+00	 1.488358941701999e+00	 1.062353235554021e+01
 1.137915287531047e+00	 1.499473180174970e+00	 1.050811684094354e+01
 1.123318831976734e+00	 1.510438977908068e+00	 1.038757856919585e+01
 1.070657931311884e+00	 1.439629983471600e+00	 1.028235007823537e+01
 1.056657392672377e+00	 1.449937289472463e+00	 1.015124608260804e+01
 1.042568316178337e+00	 1.460100818571260e+00	 1.002283393981887e+01
 1.028392899317367e+00	 1.470119468213545e+00	 9.896210165680310e+00
 1.014133356955129e+00	 1.479992180288705e+00	 9.770465921585355e+00
 9.997919202222384e-01	 1.489717941445333e+00	 9.644698558604896e+00
 9.853708353953267e-01	 1.499295783373474e+00	 9.518022850138241e+00
 9.708723627734085e-01	 1.508724783053639e+00	 9.389581839638288e+00
 9.562987755506887e-01	 1.518004062972557e+00	 9.258557233383462e+00
 9.416523586869459e-01	 1.527132791305695e+00	 9.124179272138623e+00
 9.269354077766124e-01	 1.536110182066576e+00	 8.985736019794322e+00
 1.075923936326989e+00	 1.446710768555017e+00	 1.029718988250849e+01
 1.061854536378336e+00	 1.457068770790184e+00	 1.016692354720633e+01
 1.047696163103880e+00	 1.467282288960102e+00	 1.003939600716847e+01
 1.033451024799512e+00	 1.477350215087430e+00	 9.913690021968247e+00
 1.019121347224654e+00	 1.487271485857252e+00	 9.788883897546864e+00
 1.004709372483679e+00	 1.497045082934007e+00	 9.664063435128728e+00
 9.902173579014739e-01	 1.506670033245124e+00	 9.538333556562073e+00
 9.756475748942761e-01	 1.516145409231250e+00	 9.410829530122395e+00
 9.610023078369375e-01	 1.525470329063079e+00	 9.280727724388138e+00
 9.462838529277534e-01	 1.534643956824760e+00	 9.147255821782386e+00
 9.314945170519781e-01	 1.543665502663949e+00	 9.009702427768797e+00
 1.081189968200777e+00	 1.453791589751842e+00	 1.030988892772463e+01
 1.067051706591839e+00	 1.464200288479920e+00	 1.018046398333261e+01
 1.052824036183593e+00	 1.474463795975967e+00	 1.005381536742068e+01
 1.038509176080270e+00	 1.484580998839715e+00	 9.929014546737454e+00
 1.024109362935107e+00	 1.494550828551916e+00	 9.805129278087907e+00
 1.009626849826293e+00	 1.504372261792829e+00	 9.681235972011425e+00
 9.950639051270254e-01	 1.514044320727234e+00	 9.556431720715709e+00
 9.804228113708195e-01	 1.523566073255896e+00	 9.429845911759541e+00
 9.657058641132339e-01	 1.532936633233445e+00	 9.300651352656757e+00
 9.509153707911361e-01	 1.542155160652688e+00	 9.168074835698675e+00
 9.360536495806618e-01	 1.551220861795396e+00	 9.031407076808884e+00
 1.086456023948855e+00	 1.460872443049564e+00	 1.032089533351057e+01
 1.072248900367507e+00	 1.471331838500423e+00	 1.019232312221696e+01
 1.057951932511357e+00	 1.481645335549267e+00	 1.006655322352887e+01
 1.043567350293024e+00	 1.491811815372873e+00	 9.942648181252064e+00
 1.029097401259614e+00	 1.501830204247639e+00	 9.819667417877529e+00
 1.014544349463180e+00	 1.511699473869615e+00	 9.696680023319857e+00
 9.999104743252775e-01	 1.521418641640915e+00	 9.572777195689008e+00
 9.851980694967550e-01	 1.530986770922394e+00	 9.447084252984068e+00
 9.704094417139253e-01	 1.540402971252601e+00	 9.318772138377508e+00
 9.555469096522805e-01	 1.549666398532978e+00	 9.187068346021594e+00
 9.406128027788887e-01	 1.558776255179391e+00	 9.051267198965000e+00
 1.091722100586834e+00	 1.467953324435676e+00	 1.033065466132933e+01
 1.077446114759960e+00	 1.478463416810444e+00	 1.020295424160271e+01
 1.063079849181050e+00	 1.488826903610410e+00	 1.007806847815024e+01
 1.048625544571160e+00	 1.499042660589376e+00	 9.955053267677886e+00
 1.034085459371302e+00	 1.509109608819360e+00	 9.832961821155440e+00
 1.019461868607437e+00	 1.519026715012187e+00	 9.710857888259516e+00
 1.004757062749529e+00	 1.528792991807277e+00	 9.587828621581235e+00
 9.899733465657985e-01	 1.538407498025565e+00	 9.462996996797504e+00
 9.751130379733587e-01	 1.547869338889493e+00	 9.335533708913184e+00
 9.601784668863719e-01	 1.557177666209127e+00	 9.204668469070365e+00
 9.451719740628828e-01	 1.566331678534407e+00	 9.069700631232303e+00
 1.096988195130322e+00	 1.475034229897669e+00	 1.033960962689520e+01
 1.082643346823816e+00	 1.485595019368734e+00	 1.021280788961593e+01
 1.068207783286553e+00	 1.496008496089809e+00	 1.008881746811121e+01
 1.053683756048060e+00	 1.506273530391696e+00	 9.966689793258503e+00
 1.039073534443295e+00	 1.516389038142022e+00	 9.845473894692777e+00
 1.024379404472166e+00	 1.526353981068362e+00	 9.724230071966605e+00
 1.009603667653078e+00	 1.536167367047434e+00	 9.602043193138025e+00
 9.947486398716660e-01	 1.545828250360228e+00	 9.478035534230369e+00
 9.798166502258819e-01	 1.555335731913070e+00	 9.351379077040843e+00
 9.648100398685961e-01	 1.564688959424632e+00	 9.221307187292199e+00
 9.497311608488682e-01	 1.573887127578916e+00	 9.087125600088514e+00
 1.102254304594929e+00	 1.482115155423035e+00	 1.034819981227806e+01
 1.087840593613695e+00	 1.492726642134045e+00	 1.022233160818955e+01
 1.073335731921745e+00	 1.503190108917871e+00	 1.009925369832958e+01
 1.058741981857107e+00	 1.513504420682307e+00	 9.978015133870507e+00
 1.044061623648717e+00	 1.523668488090562e+00	 9.857662700090119e+00
 1.029296954270462e+00	 1.533681267885960e+00	 9.737255045621655e+00
 1.014450286289221e+00	 1.543541763182495e+00	 9.615876426723679e+00
 9.995239467080739e-01	 1.553249023721201e+00	 9.492649977186945e+00
 9.845202758058428e-01	 1.562802146092279e+00	 9.366750418653659e+00
 9.694416259741384e-01	 1.572200273922991e+00	 9.237416130772790e+00
 9.542903605530698e-01	 1.581442598031394e+00	 9.103960505744993e+00
 1.107520425996265e+00	 1.489196096999267e+00	 1.035686137770798e+01
 1.093037852184217e+00	 1.499858281065129e+00	 1.023196965606707e+01
 1.078463692180506e+00	 1.510371738025008e+00	 1.010982757521227e+01
 1.063800219131686e+00	 1.520735327363677e+00	 9.989483796985677e+00
 1.049049724160697e+00	 1.530947954539924e+00	 9.869984705437886e+00
 1.034214515215427e+00	 1.541008571312801e+00	 9.750389005911630e+00
 1.019296915911257e+00	 1.550916176033571e+00	 9.629781926657749e+00
 1.004299264368738e+00	 1.560669813903307e+00	 9.507288930699715e+00
 9.892239120475878e-01	 1.570268577196068e+00	 9.382088849944749e+00
 9.740732225781852e-01	 1.579711605447702e+00	 9.253426358337167e+00
 9.588495705917117e-01	 1.588998085610312e+00	 9.120623706120215e+00
 1.112786556349938e+00	 1.496277050613855e+00	 1.036602677310153e+01
 1.098235119590002e+00	 1.506989932120735e+00	 1.024216273140035e+01
 1.083591661156715e+00	 1.517553379341630e+00	 1.012098613955514e+01
 1.068858465005180e+00	 1.527966246338281e+00	 1.000154716406478e+01
 1.054037833152356e+00	 1.538227433365047e+00	 9.882893536365994e+00
 1.039132084520158e+00	 1.548335887196702e+00	 9.764085633867351e+00
 1.024143553772484e+00	 1.558290601421774e+00	 9.644211150941540e+00
 1.009074590147374e+00	 1.568090616701362e+00	 9.522399264613810e+00
 9.939275562854648e-01	 1.577735020993382e+00	 9.397834204095588e+00
 9.787048270559210e-01	 1.587222949742263e+00	 9.269768138256460e+00
 9.634087883810180e-01	 1.596553586034144e+00	 9.137533300554537e+00
 1.118052692671557e+00	 1.503358012254291e+00	 1.037612444932311e+01
 1.103432392885668e+00	 1.514121591259616e+00	 1.025334769396675e+01
 1.088719635944252e+00	 1.524735028798148e+00	 1.013317279896550e+01
 1.073916716610972e+00	 1.535197173508591e+00	 1.001465323240736e+01
 1.059025947796823e+00	 1.545506920440872e+00	 9.896839726509459e+00
 1.044049659397754e+00	 1.555663211385484e+00	 9.778795853102492e+00
 1.028990197126198e+00	 1.565665035168214e+00	 9.659613176398235e+00
 1.013849921337699e+00	 1.575511427910187e+00	 9.538425884730044e+00
 9.986312058538218e-01	 1.585201473253171e+00	 9.414424807489510e+00
 9.833364367825321e-01	 1.594734302550171e+00	 9.286870728576915e+00
 9.679680113372134e-01	 1.604109095021363e+00	 9.155106913272515e+00
 1.123318831976734e+00	 1.510438977908068e+00	 1.038757856919585e+01
 1.108629669125836e+00	 1.521253254440523e+00	 1.026595728702039e+01
 1.093847613636997e+00	 1.531916682324970e+00	 1.014682705983113e+01
 1.078974971082447e+00	 1.542428104777079e+00	 1.002924635648095e+01
 1.064014065267222e+00	 1.552786411642340e+00	 9.912270467413693e+00
 1.048967237061315e+00	 1.562990539726966e+00	 9.794967587478411e+00
 1.033836843225698e+00	 1.573039473094003e+00	 9.676434463251738e+00
 1.018625255233428e+00	 1.582932243324601e+00	 9.555811503423500e+00
 1.003334858087006e+00	 1.592667929744381e+00	 9.432297255471289e+00
 9.879680491332047e-01	 1.602245659614925e+00	 9.305162157090887e+00
 9.725272368765219e-01	 1.611664608290443e+00	 9.173761476610050e+00
 9.269354077766124e-01	 1.536110182066576e+00	 8.985736019794322e+00
 9.121502282064713e-01	 1.544935495595601e+00	 8.845660235350206e+00
 8.972991348732574e-01	 1.553608039766600e+00	 8.706576393178789e+00
 8.823844501562227e-01	 1.562127168928098e+00	 8.568169535935066e+00
 8.674085024978194e-01	 1.570492283547801e+00	 8.430210396119545e+00
 8.523736252820379e-01	 1.578702830195891e+00	 8.292560526811766e+00
 8.372821557180713e-01	 1.586758301496337e+00	 8.155176592823079e+00
 8.221364337303418e-01	 1.594658236046570e+00	 8.018113798561608e+00
 8.069388008559120e-01	 1.602402218305899e+00	 7.881528434853601e+00
 7.916915991502745e-01	 1.609989878453082e+00	 7.745679532930245e+00
 7.763971701024950e-01	 1.617420892213523e+00	 7.610929619752181e+00
 9.314945170519781e-01	 1.543665502663949e+00	 9.009702427768797e+00
 9.166366169353819e-01	 1.552534223283045e+00	 8.870505358994867e+00
 9.017124788604672e-01	 1.561249423151681e+00	 8.732278372675390e+00
 8.867244366290579e-01	 1.569810453442782e+00	 8.594687337906018e+00
 8.716748301359981e-01	 1.578216711675283e+00	 8.457485951088666e+00
 8.565660042419773e-01	 1.586467641697350e+00	 8.320521113466841e+00
 8.414003076516988e-01	 1.594562733637452e+00	 8.183737440674857e+00
 8.261800917984530e-01	 1.602501523823640e+00	 8.047180879582168e+00
 8.109077097360999e-01	 1.610283594671408e+00	 7.911001413848044e+00
 7.955855150394812e-01	 1.617908574540580e+00	 7.775454845771508e+00
 7.802158607142238e-01	 1.625376137561632e+00	 7.640903648174923e+00
 9.360536495806618e-01	 1.551220861795396e+00	 9.031407076808884e+00
 9.211230285466265e-01	 1.560132989725943e+00	 8.893080800561627e+00
 9.061258453573621e-01	 1.568890845509755e+00	 8.755693066204508e+00
 8.910644452373246e-01	 1.577493777144135e+00	 8.618898721276153e+00
 8.759411795338151e-01	 1.585941179199239e+00	 8.482443104119357e+00
 8.607584045842821e-01	 1.594232492801210e+00	 8.346167659850368e+00
 8.455184805890048e-01	 1.602367205583006e+00	 8.210014658723029e+00
 8.302237704902008e-01	 1.610344851603284e+00	 8.074030991149721e+00
 8.148766388585932e-01	 1.618165011233725e+00	 7.938371019985563e+00
 7.994794507884322e-01	 1.625827311015201e+00	 7.803298477037236e+00
 7.840345708019715e-01	 1.633331423483266e+00	 7.669187397122007e+00
 9.406128027788887e-01	 1.558776255179391e+00	 9.051267198965000e+00
 9.256094604976632e-01	 1.567731790618172e+00	 8.913790419349407e+00
 9.105392318628179e-01	 1.576532302510526e+00	 8.777216564694246e+00
 8.954044735214983e-01	 1.585177135678125e+00	 8.641197449666826e+00
 8.802075482735146e-01	 1.593665681742335e+00	 8.505478568507334e+00
 8.649508239331309e-01	 1.601997379107259e+00	 8.369904941403881e+00
 8.496366721962550e-01	 1.610171712910337e+00	 8.234426032412719e+00
 8.342674675140902e-01	 1.618188214940832e+00	 8.099099712169332e+00
 8.188455859742743e-01	 1.626046463526596e+00	 7.964095245189034e+00
 8.033734041905242e-01	 1.633746083389547e+00	 7.829695288110027e+00
 7.878532982017724e-01	 1.641286745470310e+00	 7.696296891802579e+00
 9.451719740628828e-01	 1.566331678534407e+00	 9.069700631232303e+00
 9.300959102459481e-01	 1.575330621653610e+00	 8.933039160346715e+00
 9.149526358757110e-01	 1.584173789823705e+00	 8.797246403030474e+00
 8.997445190220529e-01	 1.592860524690725e+00	 8.661978967836719e+00
 8.844739339373405e-01	 1.601390214927231e+00	 8.526990856281140e+00
 8.691432599127007e-01	 1.609762296215283e+00	 8.392139531940884e+00
 8.537548801397180e-01	 1.617976251196792e+00	 8.257391028997866e+00
 8.383111805786272e-01	 1.626031609391613e+00	 8.122824072465171e+00
 8.228145488340287e-01	 1.633927947083769e+00	 7.988633189085276e+00
 8.072673730391542e-01	 1.641664887176219e+00	 7.855130794658980e+00
 7.916720407496620e-01	 1.649242099014650e+00	 7.722748250340391e+00
 9.497311608488682e-01	 1.573887127578916e+00	 9.087125600088514e+00
 9.345823752489382e-01	 1.582929478526132e+00	 8.951232842227357e+00
 9.193660548949181e-01	 1.591815303119002e+00	 8.816181354313089e+00
 9.040845792794627e-01	 1.600543939827904e+00	 8.681640204921777e+00
 8.887403341075369e-01	 1.609114774376591e+00	 8.547380093078745e+00
 8.733357101471693e-01	 1.617527239725068e+00	 8.413279632737241e+00
 8.578731020856605e-01	 1.625780816019709e+00	 8.279330643343595e+00
 8.423549073923166e-01	 1.633875030510957e+00	 8.145642417714862e+00
 8.267835251887414e-01	 1.641809457438995e+00	 8.012444945411666e+00
 8.111613551277187e-01	 1.649583717887819e+00	 7.880091076779129e+00
 7.954907962816750e-01	 1.657197479608172e+00	 7.749057619826733e+00
 9.542903605530698e-01	 1.581442598031394e+00	 9.103960505744993e+00
 9.390688529640909e-01	 1.590528356929616e+00	 8.968777945178234e+00
 9.237794864193151e-01	 1.599456838066124e+00	 8.834421223977523e+00
 9.084246518342031e-01	 1.608227376735635e+00	 8.700579377501251e+00
 8.930067463663489e-01	 1.616839355713080e+00	 8.567047832731539e+00
 8.775281722607142e-01	 1.625292205236401e+00	 8.433734901134951e+00
 8.619913357003499e-01	 1.633585402956432e+00	 8.300667242976470e+00
 8.463986456636637e-01	 1.641718473854193e+00	 8.167994273296488e+00
 8.307525127892962e-01	 1.649690990126023e+00	 8.035991486929664e+00
 8.150553482496149e-01	 1.657502571036946e+00	 7.905062687166961e+00
 7.993095626338458e-01	 1.665152882742761e+00	 7.775741109869292e+00
 9.588495705917117e-01	 1.588998085610312e+00	 9.120623706120215e+00
 9.435553408488632e-01	 1.598127252557937e+00	 8.986081398562519e+00
 9.281929279477784e-01	 1.607098390334780e+00	 8.852366643789889e+00
 9.127647342267482e-01	 1.615910831059886e+00	 8.719195792496105e+00
 8.972731682960196e-01	 1.624563954559358e+00	 8.586396871568251e+00
 8.817206438775137e-01	 1.633057188349071e+00	 8.453916278679966e+00
 8.661095786500534e-01	 1.641390007584303e+00	 8.321824412411322e+00
 8.504423931011745e-01	 1.649561934976651e+00	 8.190320207084458e+00
 8.347215093865773e-01	 1.657572540678602e+00	 8.059734548898854e+00
 8.189493501982394e-01	 1.665421442136204e+00	 7.930532557397340e+00
 8.031283376422099e-01	 1.673108303910304e+00	 7.803314723725017e+00
 9.634087883810180e-01	 1.596553586034144e+00	 9.137533300554537e+00
 9.480418363607116e-01	 1.605726161104973e+00	 9.003550368431261e+00
 9.326063769791836e-01	 1.614739955594677e+00	 8.870418865723366e+00
 9.171048239975721e-01	 1.623594298446629e+00	 8.737889649908425e+00
 9.015395974787940e-01	 1.632288566538091e+00	 8.605831062448674e+00
 8.859131226217450e-01	 1.640822184662861e+00	 8.474235818810362e+00
 8.702278286010379e-01	 1.649194625480662e+00	 8.343226796780300e+00
 8.544861474133538e-01	 1.657405409433658e+00	 8.213061691234236e+00
 8.386905127314694e-01	 1.665454104630480e+00	 8.084136511156458e+00
 8.228433587669889e-01	 1.673340326698192e+00	 7.956987902365558e+00
 8.069471191428015e-01	 1.681063738602686e+00	 7.832294287095063e+00
 9.679680113372134e-01	 1.604109095021363e+00	 9.155106913272515e+00
 9.525283369570939e-01	 1.613325078264599e+00	 9.021592044889497e+00
 9.370198310124079e-01	 1.622381529515527e+00	 8.888979555722500e+00
 9.214449186871499e-01	 1.631277774541833e+00	 8.757061845414434e+00
 9.058060314969160e-01	 1.640013187271940e+00	 8.625755128542391e+00
 8.901056061175857e-01	 1.648587189777560e+00	 8.495106514112079e+00
 8.743460832195711e-01	 1.656999252222853e+00	 8.365299944787912e+00
 8.585299063087077e-01	 1.665248892780546e+00	 8.236660962990024e+00
 8.426595205748574e-01	 1.673335677515406e+00	 8.109660278853221e+00
 8.267373717492604e-01	 1.681259220235511e+00	 7.984916122958971e+00
 8.107659049716560e-01	 1.689019182311793e+00	 7.863195374661738e+00
 9.725272368765219e-01	 1.611664608290443e+00	 9.173761476610050e+00
 9.570148400954672e-01	 1.620923999730693e+00	 9.040613429328250e+00
 9.414332875463274e-01	 1.630023107767037e+00	 8.908450587364390e+00
 9.257850158359563e-01	 1.638961254991470e+00	 8.777113772811745e+00
 9.100724679326296e-01	 1.647737812383568e+00	 8.646574476860382e+00
 8.942980919892135e-01	 1.656352199292953e+00	 8.516942123160291e+00
 8.784643401719208e-01	 1.664803883388219e+00	 8.388470151022029e+00
 8.625736674957413e-01	 1.673092380572644e+00	 8.261560884547960e+00
 8.466285306676252e-01	 1.681217254867130e+00	 8.136769161892081e+00
 8.306313869384504e-01	 1.689178118260764e+00	 8.014804707014489e+00
 8.145846929648080e-01	 1.696974630529512e+00	 7.896533234441756e+00
 7.763971701024950e-01	 1.617420892213523e+00	 7.610929619752181e+00
 7.610552419040807e-01	 1.624696203781240e+00	 7.476899041743692e+00
 7.456707484979823e-01	 1.631814301601403e+00	 7.342968914821981e+00
 7.302460237034977e-01	 1.638774995483586e+00	 7.209224309047020e+00
 7.147833965724535e-01	 1.645578139827385e+00	 7.075844767619905e+00
 6.992851903642262e-01	 1.652223633306464e+00	 6.943101469550639e+00
 6.837537215354034e-01	 1.658711418525549e+00	 6.811353571002639e+00
 6.681912987448795e-01	 1.665041481651053e+00	 6.681043756710277e+00
 6.526002218751353e-01	 1.671213852015979e+00	 6.552693037516671e+00
 6.369827810704327e-01	 1.677228601699848e+00	 6.426894834388552e+00
 6.213412557926123e-01	 1.683085845084353e+00	 6.304308393287817e+00
 7.802158607142238e-01	 1.625376137561632e+00	 7.640903648174920e+00
 7.647984736149546e-01	 1.632687232572591e+00	 7.506935216579794e+00
 7.493383119520900e-01	 1.639840340584065e+00	 7.372947724373577e+00
 7.338377210237491e-01	 1.646835270470162e+00	 7.239108545901686e+00
 7.182990413371285e-01	 1.653671875914327e+00	 7.105685856701777e+00
 7.027246075784864e-01	 1.660350055091831e+00	 6.973045599952491e+00
 6.871167475978319e-01	 1.666869750325087e+00	 6.841647599420721e+00
 6.714777814091282e-01	 1.673230947712444e+00	 6.712040851413060e+00
 6.558100202067592e-01	 1.679433676731162e+00	 6.584858033021071e+00
 6.401157653989918e-01	 1.685478009815265e+00	 6.460809268440844e+00
 6.243973076591317e-01	 1.691364061909010e+00	 6.340675199276486e+00
 7.840345708019715e-01	 1.633331423483266e+00	 7.669187397122007e+00
 7.685417244169512e-01	 1.640678302119976e+00	 7.535614547474060e+00
 7.530058941113781e-01	 1.647866420501339e+00	 7.401977610620166e+00
 7.374294366622458e-01	 1.654895586565994e+00	 7.268478000614343e+00
 7.218147040321784e-01	 1.661765653281227e+00	 7.135423588569206e+00
 7.061640423343696e-01	 1.668476518323915e+00	 7.003225550722151e+00
 6.904797908123053e-01	 1.675028123734150e+00	 6.872394329849106e+00
 6.747642808350736e-01	 1.681420455542223e+00	 6.743534743517397e+00
 6.590198349090155e-01	 1.687653543369646e+00	 6.617340277636050e+00
 6.432487657064586e-01	 1.693727460004945e+00	 6.494586608389190e+00
 6.274533751122271e-01	 1.699642320954944e+00	 6.376124399924729e+00
 7.878532982017724e-01	 1.641286745470310e+00	 7.696296891802572e+00
 7.722849921888700e-01	 1.648669407894992e+00	 7.563477345276541e+00
 7.566734928975223e-01	 1.655892536804974e+00	 7.430605714720256e+00
 7.410211685836481e-01	 1.662955939203413e+00	 7.297869947301841e+00
 7.253303826653491e-01	 1.669859467341436e+00	 7.165569442512083e+00
 7.096034926828045e-01	 1.676603018397521e+00	 7.034111859052487e+00
 6.938428492730284e-01	 1.683186534129443e+00	 6.904009000918078e+00
 6.780507951602825e-01	 1.689610000499428e+00	 6.775871817057068e+00
 6.622296641629153e-01	 1.695873447273244e+00	 6.650404554123789e+00
 6.463817802173640e-01	 1.701976947593920e+00	 6.528398106635188e+00
 6.305094564200205e-01	 1.707920617530850e+00	 6.410722613281660e+00
 7.916720407496620e-01	 1.649242099014650e+00	 7.722748250340384e+00
 7.760282748095095e-01	 1.656660545369243e+00	 7.591063559231680e+00
 7.603411062321977e-01	 1.663918684946716e+00	 7.459378671893065e+00
 7.446129147526158e-01	 1.671016323814749e+00	 7.327821304752298e+00
 7.288460752443867e-01	 1.677953313508303e+00	 7.196634972736035e+00
 7.130429566747222e-01	 1.684729550707461e+00	 7.066175831561107e+00
 6.972059210742078e-01	 1.691344976887671e+00	 6.936908564049049e+00
 6.813373225223240e-01	 1.697799577943102e+00	 6.809401345634141e+00
 6.654395061494700e-01	 1.704093383783774e+00	 6.684319929543529e+00
 6.495148071562385e-01	 1.710226467907224e+00	 6.562420897096578e+00
 6.335655498506328e-01	 1.716198946945416e+00	 6.444544123164464e+00
 7.954907962816750e-01	 1.657197479608172e+00	 7.749057619826733e+00
 7.797715701576688e-01	 1.664651710014326e+00	 7.618912735944248e+00
 7.640087320370800e-01	 1.671944860378315e+00	 7.488842585388338e+00
 7.482046731338080e-01	 1.679076735832334e+00	 7.358868617833124e+00
 7.323617797770379e-01	 1.686047187195182e+00	 7.229131789986003e+00
 7.164824323610521e-01	 1.692856110648541e+00	 7.099889519254401e+00
 7.005690043100482e-01	 1.699503447385540e+00	 6.971511645227071e+00
 6.846238610587639e-01	 1.705989183232284e+00	 6.844475434826368e+00
 6.686493590496905e-01	 1.712313348243052e+00	 6.719359672479539e+00
 6.526478447476127e-01	 1.718476016269890e+00	 6.596837881795471e+00
 6.366216536721854e-01	 1.724477304507334e+00	 6.477670730007031e+00
 7.993095626338458e-01	 1.665152882742761e+00	 7.775741109869292e+00
 7.835148761121464e-01	 1.672642897301841e+00	 7.647563975387028e+00
 7.676763682338448e-01	 1.679971058551517e+00	 7.519542997269840e+00
 7.517964416918849e-01	 1.687137170688498e+00	 7.391548035694200e+00
 7.358774942710489e-01	 1.694141083815421e+00	 7.263571540145636e+00
 7.199219177927247e-01	 1.700982693615570e+00	 7.135725689836239e+00
 7.039320970747552e-01	 1.707661940999752e+00	 7.008238504676333e+00
 6.879104089071707e-01	 1.714178811726014e+00	 6.881448963231911e+00
 6.718592210445877e-01	 1.720533335992894e+00	 6.755801169794964e+00
 6.557808912160171e-01	 1.726725588006950e+00	 6.631837618011604e+00
 6.396777661527996e-01	 1.732755685525294e+00	 6.510191603456203e+00
 8.031283376422099e-01	 1.673108303910304e+00	 7.803314723725017e+00
 7.872581905517405e-01	 1.680634102703388e+00	 7.677555884051735e+00
 7.713440127441661e-01	 1.687997274918069e+00	 7.552024856114485e+00
 7.553882183915058e-01	 1.695197623815573e+00	 7.426395286865883e+00
 7.393932167341662e-01	 1.702234998782373e+00	 7.300465879907838e+00
 7.233614110206696e-01	 1.709109295003356e+00	 7.174157797455506e+00
 7.072951974625343e-01	 1.715820453107013e+00	 7.047510994515385e+00
 6.911969642051119e-01	 1.722368458783333e+00	 6.920679522191066e+00
 6.750690903151726e-01	 1.728753342375117e+00	 6.793925842923506e+00
 6.589139447859829e-01	 1.734975178443437e+00	 6.667614205983057e+00
 6.427338855605965e-01	 1.741034085307989e+00	 6.542203136657166e+00
 8.069471191428015e-01	 1.681063738602686e+00	 7.832294287095069e+00
 7.910015113552504e-01	 1.688625321690568e+00	 7.709426525337358e+00
 7.750116634897211e-01	 1.696023504929720e+00	 7.586832481731721e+00
 7.589800011973308e-01	 1.703258090645889e+00	 7.463945651359216e+00
 7.429089451741354e-01	 1.710328927509388e+00	 7.340326449620852e+00
 7.268009100958170e-01	 1.717235910206709e+00	 7.215659949975180e+00
 7.106583035675916e-01	 1.723978979084028e+00	 7.089752514450939e+00
 6.944835250901553e-01	 1.730558119763281e+00	 6.962527354233389e+00
 6.782789650424560e-01	 1.736973362731537e+00	 6.834019063717422e+00
 6.620470036820399e-01	 1.743224782904384e+00	 6.704367177135280e+00
 6.457900101636972e-01	 1.749312499164107e+00	 6.573808802174300e+00
 8.107659049716560e-01	 1.689019182311793e+00	 7.863195374661739e+00
 7.947448364014750e-01	 1.696616549734980e+00	 7.743713367268166e+00
 7.786793183921839e-01	 1.704049744038217e+00	 7.624509527003260e+00
 7.625717880740189e-01	 1.711318566611777e+00	 7.504733929867308e+00
 7.464246775987037e-01	 1.718422865409816e+00	 7.383664843396668e+00
 7.302404130690966e-01	 1.725362534620436e+00	 7.260706873844669e+00
 7.140214134841314e-01	 1.732137514307500e+00	 7.135387965580390e+00
 6.977700896998681e-01	 1.738747790024899e+00	 7.007355290289183e+00
 6.814888434074495e-01	 1.745193392403969e+00	 6.876370069867153e+00
 6.651800661287196e-01	 1.751474396714826e+00	 6.742301382821155e+00
 6.488461382302230e-01	 1.757590922402342e+00	 6.605119009488021e+00
 8.145846929648080e-01	 1.696974630529512e+00	 7.896533234441760e+00
 7.984881635692119e-01	 1.704607782308222e+00	 7.780953227630929e+00
 7.823469753732306e-01	 1.712075987695308e+00	 7.665598936937132e+00
 7.661635769862309e-01	 1.719379047145569e+00	 7.549294410163201e+00
 7.499404120156170e-01	 1.726516807897009e+00	 7.430992576576498e+00
 7.336799179914387e-01	 1.733489163639346e+00	 7.309773876655974e+00
 7.173845253063604e-01	 1.740296054154137e+00	 7.184843702363125e+00
 7.010566561718182e-01	 1.746937464927227e+00	 7.055528685706939e+00
 6.846987235911640e-01	 1.753413426734232e+00	 6.921271879902426e+00
 6.683131303505522e-01	 1.759724015199794e+00	 6.781626883556734e+00
 6.519022680282955e-01	 1.765869350331382e+00	 6.636563694183277e+00
 6.213412557926123e-01	 1.683085845084353e+00	 6.304308393287817e+00
 6.056805779762906e-01	 1.688784782681174e+00	 6.188147378177272e+00
 5.900003444358113e-01	 1.694326620001263e+00	 6.080469999969965e+00
 5.743027952840069e-01	 1.699711594168735e+00	 5.977983305761843e+00
 5.585901564033956e-01	 1.704939982580464e+00	 5.876611721312782e+00
 5.428646385999558e-01	 1.710012102353537e+00	 5.776152704082723e+00
 5.271284367778988e-01	 1.714928309753176e+00	 5.676435002371670e+00
 5.113837291358960e-01	 1.719688999601967e+00	 5.577268026136236e+00
 4.956326763851813e-01	 1.724294604671215e+00	 5.478432616832407e+00
 4.798774209899149e-01	 1.728745595055301e+00	 5.379672357890554e+00
 4.641200864301568e-01	 1.733042477529863e+00	 5.280685449076946e+00
 6.243973076591317e-01	 1.691364061909010e+00	 6.340675199276493e+00
 6.086596031793871e-01	 1.697091029591799e+00	 6.227545970137976e+00
 5.929022467910563e-01	 1.702660124303875e+00	 6.123183281006964e+00
 5.771274896249304e-01	 1.708071584335666e+00	 6.024980714208873e+00
 5.613375685114946e-01	 1.713325688448432e+00	 5.927856623348599e+00
 5.455347051305403e-01	 1.718422755319014e+00	 5.831227966605902e+00
 5.297211051818791e-01	 1.723363142964937e+00	 5.734784483506809e+00
 5.138989575776174e-01	 1.728147248150730e+00	 5.638192973755622e+00
 4.980704336564119e-01	 1.732775505776294e+00	 5.541088083121039e+00
 4.822376864200977e-01	 1.737248388248176e+00	 5.443063644312391e+00
 4.664028497930368e-01	 1.741566404834599e+00	 5.343664596241240e+00
 6.274533751122271e-01	 1.699642320954944e+00	 6.376124399924729e+00
 6.116386435762436e-01	 1.705397318866750e+00	 6.264849789848403e+00
 5.958041639467491e-01	 1.710993671109925e+00	 6.162234309952657e+00
 5.799521983725485e-01	 1.716431617141206e+00	 6.066260727603198e+00
 5.640849946321495e-01	 1.721711437086255e+00	 5.971305765023599e+00
 5.482047852792112e-01	 1.726833451181668e+00	 5.876239384276400e+00
 5.323137868092009e-01	 1.731798019197281e+00	 5.780678941847052e+00
 5.164141988477129e-01	 1.736605539839575e+00	 5.684215600265049e+00
 5.005082033608804e-01	 1.741256450137056e+00	 5.586405032449769e+00
 4.845979638882673e-01	 1.745751224808450e+00	 5.486758697048836e+00
 4.686856247985899e-01	 1.750090375614572e+00	 5.384735708432451e+00
 6.305094564200205e-01	 1.707920617530850e+00	 6.410722613281660e+00
 6.146176974786302e-01	 1.713703645798822e+00	 6.300024795331210e+00
 5.987060942583668e-01	 1.719327255696745e+00	 6.197506247321511e+00
 5.827769199260981e-01	 1.724791687847674e+00	 6.101625623257998e+00
 5.668324332084019e-01	 1.730097223741669e+00	 6.006709146795947e+00
 5.508748775328540e-01	 1.735244185175092e+00	 5.910900586826981e+00
 5.349064801906237e-01	 1.740232933670093e+00	 5.813810636988259e+00
 5.189294515208421e-01	 1.745063869875114e+00	 5.715020885702968e+00
 5.029459841171660e-01	 1.749737432947276e+00	 5.614074342053055e+00
 4.869582520569332e-01	 1.754254099917486e+00	 5.510466550280970e+00
 4.709684101532611e-01	 1.758614385039167e+00	 5.403637316977171e+00
 6.335655498506328e-01	 1.716198946945416e+00	 6.444544123164464e+00
 6.175967631983170e-01	 1.722010005680807e+00	 6.333046291452138e+00
 6.016080360813871e-01	 1.727660873341673e+00	 6.228892911413465e+00
 5.856016526848165e-01	 1.733151791717387e+00	 6.130890545208350e+00
 5.695798826832941e-01	 1.738483043662412e+00	 6.033829912291274e+00
 5.535449803783536e-01	 1.743654952532880e+00	 5.934938331997211e+00
 5.374991838569083e-01	 1.748667881603261e+00	 5.833884669037363e+00
 5.214447141716657e-01	 1.753522233463964e+00	 5.730306110099264e+00
 5.053837745438465e-01	 1.758218449400724e+00	 5.623798414933100e+00
 4.893185495886034e-01	 1.762757008756645e+00	 5.513906775341233e+00
 4.732512045634947e-01	 1.767138428277760e+00	 5.401488405043007e+00
 6.366216536721854e-01	 1.724477304507334e+00	 6.477670730007031e+00
 6.205758390470735e-01	 1.730316393805499e+00	 6.363898746884423e+00
 6.045099877712876e-01	 1.735994519322042e+00	 6.256298569660077e+00
 5.884263950479400e-01	 1.741511924012661e+00	 6.153884045289642e+00
 5.723273414998675e-01	 1.746868892096221e+00	 6.052444212919171e+00
 5.562150923025951e-01	 1.752065748488628e+00	 5.948092360070834e+00
 5.400918963388144e-01	 1.757102858216673e+00	 5.840618829794430e+00
 5.239599853748436e-01	 1.761980625812735e+00	 5.729780707574821e+00
 5.078215732595008e-01	 1.766699494691173e+00	 5.616223509213015e+00
 4.916788551457875e-01	 1.771259946507289e+00	 5.506837996608668e+00
 4.755340067357353e-01	 1.775662500499735e+00	 5.401783398623788e+00
 6.396777661527996e-01	 1.732755685525294e+00	 6.510191603456196e+00
 6.235549233366701e-01	 1.738622805465690e+00	 6.392575613945809e+00
 6.074119476835455e-01	 1.744328188915189e+00	 6.279637733722527e+00
 5.912511454147064e-01	 1.749872079995813e+00	 6.170571111663135e+00
 5.750748081011644e-01	 1.755254764290835e+00	 6.062341077328621e+00
 5.588852117924640e-01	 1.760476568275929e+00	 5.950115253495822e+00
 5.426846161671021e-01	 1.765537858730214e+00	 5.833906849838895e+00
 5.264752637050356e-01	 1.770439042128041e+00	 5.720909754763030e+00
 5.102593788827076e-01	 1.775180564012396e+00	 5.614040096843271e+00
 4.940391673909943e-01	 1.779762908350782e+00	 5.511898279905716e+00
 4.778168153764275e-01	 1.784186596874472e+00	 5.412998160215970e+00
 6.427338855605965e-01	 1.741034085307989e+00	 6.542203136657166e+00
 6.265340143788761e-01	 1.746929235954171e+00	 6.419079151211623e+00
 6.103139141736383e-01	 1.752661877398449e+00	 6.298834958221360e+00
 5.940759021843525e-01	 1.758232254929162e+00	 6.180903607246750e+00
 5.778222809302264e-01	 1.763640655493990e+00	 6.063322285543243e+00
 5.615553373348446e-01	 1.768887407128377e+00	 5.944902716565243e+00
 5.452773418725317e-01	 1.773972878363771e+00	 5.833280190778440e+00
 5.289905477369020e-01	 1.778897477616496e+00	 5.727671727293591e+00
 5.126971900320451e-01	 1.783661652558164e+00	 5.626931631839625e+00
 4.963994849867320e-01	 1.788265889468484e+00	 5.529823514795422e+00
 4.800996291920160e-01	 1.792710712571352e+00	 5.435024579415877e+00
 6.457900101636972e-01	 1.749312499164107e+00	 6.573808802174296e+00
 6.295131104854617e-01	 1.755235680563737e+00	 6.443420248811132e+00
 6.132158855970437e-01	 1.760995580049157e+00	 6.313824642974238e+00
 5.969006637561154e-01	 1.766592444075025e+00	 6.185592299483901e+00
 5.805697584300950e-01	 1.772026560953422e+00	 6.067847447769942e+00
 5.642254674166229e-01	 1.777298260279568e+00	 5.957302535537232e+00
 5.478700719858631e-01	 1.782407912337232e+00	 5.852168538610035e+00
 5.315058360451034e-01	 1.787355927484714e+00	 5.751615713145368e+00
 5.151350053260922e-01	 1.792142755522251e+00	 5.654720071665685e+00
 4.987598065955106e-01	 1.796768885041758e+00	 5.560467436407880e+00
 4.823824468889452e-01	 1.801234842759755e+00	 5.467757542605744e+00
 6.488461382302230e-01	 1.757590922402342e+00	 6.605119009488021e+00
 6.324922099681970e-01	 1.763542134587182e+00	 6.465618256320648e+00
 6.161178603092389e-01	 1.769329292144649e+00	 6.329557637765943e+00
 5.997254285292322e-01	 1.774952642695718e+00	 6.206705725154162e+00
 5.833172390438129e-01	 1.780412475916870e+00	 6.096004871426313e+00
 5.668956005246835e-01	 1.785709122963094e+00	 5.991335297053308e+00
 5.504628050378562e-01	 1.790842955870483e+00	 5.890366181962396e+00
 5.340211272042992e-01	 1.795814386939306e+00	 5.792546319913226e+00
 5.175728233834274e-01	 1.800623868098429e+00	 5.697231294633923e+00
 5.011201308798379e-01	 1.805271890251967e+00	 5.603687264692766e+00
 4.846652671736595e-01	 1.809758982609063e+00	 5.511094801573710e+00
 6.519022680282955e-01	 1.765869350331382e+00	 6.636563694183286e+00
 6.354713111388517e-01	 1.771848593317297e+00	 6.497571691810476e+00
 6.190198366657016e-01	 1.777663008962260e+00	 6.370259763070991e+00
 6.025501949029400e-01	 1.783312846053559e+00	 6.253955183932084e+00
 5.860647212144215e-01	 1.788798395632072e+00	 6.147875695257159e+00
 5.695657351459118e-01	 1.794119990412552e+00	 6.046800592654137e+00
 5.530555395592713e-01	 1.799278004183412e+00	 5.947671410847271e+00
 5.365364197891498e-01	 1.804272851186889e+00	 5.850272141134107e+00
 5.200106428226289e-01	 1.809104985480471e+00	 5.754294938545560e+00
 5.034804565022232e-01	 1.813774900280471e+00	 5.659343557557807e+00
 4.869480887526040e-01	 1.818283127288656e+00	 5.564936845398143e+00
 4.641200864301568e-01	 1.733042477529863e+00	 5.280685449076946e+00
 4.483627767027926e-01	 1.737185795271111e+00	 5.181221463521743e+00
 4.326075762556573e-01	 1.741176128310005e+00	 5.081740059263296e+00
 4.168565486401227e-01	 1.745014091710825e+00	 4.982919112058852e+00
 4.011117356475782e-01	 1.748700334494148e+00	 4.885368397706538e+00
 3.853751566898679e-01	 1.752235538925222e+00	 4.789623060558093e+00
 3.696488082037957e-01	 1.755620419791376e+00	 4.696137740647222e+00
 3.539346630798197e-01	 1.758855723669352e+00	 4.605281361638029e+00
 3.382346701150147e-01	 1.761942228183390e+00	 4.517332578811157e+00
 3.225507534903555e-01	 1.764880741254913e+00	 4.432482058188974e+00
 3.068848122723423e-01	 1.767672100344656e+00	 4.352534095580296e+00
 4.664028497930368e-01	 1.741566404834599e+00	 5.343664596241240e+00
 4.505680381205852e-01	 1.745730101383383e+00	 5.242679008469754e+00
 4.347353461028813e-01	 1.749740060778345e+00	 5.140801754954370e+00
 4.189068474408177e-01	 1.753596901108930e+00	 5.038847778905077e+00
 4.030845939682791e-01	 1.757301274587891e+00	 4.937560807501229e+00
 3.872706150295307e-01	 1.760853866836164e+00	 4.837606531425998e+00
 3.714669168807962e-01	 1.764255396156726e+00	 4.739566465370951e+00
 3.556754821161418e-01	 1.767506612798326e+00	 4.645586660220010e+00
 3.398982691177462e-01	 1.770608298209911e+00	 4.558307192776188e+00
 3.241372115306161e-01	 1.773561264286633e+00	 4.477249596772364e+00
 3.083942177617581e-01	 1.776366352608244e+00	 4.401837043891355e+00
 4.686856247985899e-01	 1.750090375614572e+00	 5.384735708432451e+00
 4.527733107857274e-01	 1.754274451074868e+00	 5.280242326560563e+00
 4.368631268021764e-01	 1.758304036926028e+00	 5.174237153785401e+00
 4.209571566984043e-01	 1.762179754282670e+00	 5.067662621706644e+00
 4.050574623508451e-01	 1.765902258549744e+00	 4.961703827020020e+00
 3.891660830362392e-01	 1.769472238703889e+00	 4.861159960030379e+00
 3.732850348302827e-01	 1.772890416563749e+00	 4.767195086871990e+00
 3.574163100307011e-01	 1.776157546050095e+00	 4.679480855237438e+00
 3.415618766048302e-01	 1.779274412436605e+00	 4.597630920302868e+00
 3.257236776617582e-01	 1.782241831592177e+00	 4.521202697956507e+00
 3.099036309490487e-01	 1.785060649215597e+00	 4.449699077297513e+00
 4.709684101532611e-01	 1.758614385039167e+00	 5.403637316977171e+00
 4.549785934485989e-01	 1.762818839503396e+00	 5.293683035538597e+00
 4.389909171478490e-01	 1.766868051899751e+00	 5.182910583414921e+00
 4.230074752511032e-01	 1.770762646368043e+00	 5.077441748598913e+00
 4.070303396773924e-01	 1.774503281505424e+00	 4.978016098189361e+00
 3.910615596359792e-01	 1.778090649644257e+00	 4.884492682803899e+00
 3.751031610220792e-01	 1.781525476118869e+00	 4.796669289476697e+00
 3.591571458371241e-01	 1.784808518522068e+00	 4.714284235102372e+00
 3.432254916336520e-01	 1.787940565952282e+00	 4.637018133416888e+00
 3.273101509848783e-01	 1.790922438252171e+00	 4.564495626330547e+00
 3.114130509789675e-01	 1.793754985239579e+00	 4.496287071322875e+00
 4.732512045634947e-01	 1.767138428277760e+00	 5.401488405043007e+00
 4.571838848595786e-01	 1.771363261826792e+00	 5.292969620394236e+00
 4.411187159342062e-01	 1.775432100846214e+00	 5.189643837086188e+00
 4.250578019371358e-01	 1.779345572501041e+00	 5.091551962312614e+00
 4.090032248300366e-01	 1.783104338580646e+00	 4.998670215108504e+00
 3.929570437547362e-01	 1.786709094773127e+00	 4.910911951157649e+00
 3.769212944260102e-01	 1.790160569928508e+00	 4.828129479224744e+00
 3.608979885490370e-01	 1.793459525311652e+00	 4.750115858058478e+00
 3.448891132615969e-01	 1.796606753845749e+00	 4.676606663488252e+00
 3.288966306010724e-01	 1.799603079347243e+00	 4.607281716371416e+00
 3.129224769962685e-01	 1.802449355753047e+00	 4.541766762966274e+00
 4.755340067357353e-01	 1.775662500499735e+00	 5.401783398623788e+00
 4.593891837690458e-01	 1.779907713202884e+00	 5.300523844833162e+00
 4.432465219555546e-01	 1.783996178912116e+00	 5.203713274796378e+00
 4.271081355947225e-01	 1.787928527817661e+00	 5.111435189187024e+00
 4.109761166908940e-01	 1.791705424901127e+00	 5.023708455573362e+00
 3.948525343184959e-01	 1.795327569206358e+00	 4.940489162643929e+00
 3.787394340118999e-01	 1.798795693099090e+00	 4.861672462815132e+00
 3.626388371800658e-01	 1.802110561516254e+00	 4.787094391804264e+00
 3.465527405460505e-01	 1.805272971205816e+00	 4.716533654673871e+00
 3.304831156114372e-01	 1.808283749958018e+00	 4.649713368815949e+00
 3.144319081457050e-01	 1.811143755828862e+00	 4.586302755282818e+00
 4.778168153764275e-01	 1.784186596874472e+00	 5.412998160215970e+00
 4.615944889273797e-01	 1.788452188789497e+00	 5.317096738226577e+00
 4.453743340062008e-01	 1.792560281244154e+00	 5.225093038855832e+00
 4.291584750620844e-01	 1.796511507453899e+00	 5.137102008568405e+00
 4.129490141420800e-01	 1.800306535592582e+00	 5.053173871760162e+00
 3.967480302532441e-01	 1.803946068059810e+00	 4.973296034226951e+00
 3.805575787495729e-01	 1.807430840737038e+00	 4.897394971435320e+00
 3.643796907438367e-01	 1.810761622233279e+00	 4.825338089895827e+00
 3.482163725443980e-01	 1.813939213121293e+00	 4.756935550904283e+00
 3.320696051170690e-01	 1.816964445165126e+00	 4.691942046889865e+00
 3.159413435720306e-01	 1.819838180539884e+00	 4.630058521609892e+00
 4.800996291920160e-01	 1.792710712571352e+00	 5.435024579415877e+00
 4.637997990849597e-01	 1.796996683744460e+00	 5.342624307334434e+00
 4.475021508804515e-01	 1.801124402989027e+00	 5.253759054134886e+00
 4.312088191774423e-01	 1.805094506545749e+00	 5.168564214003095e+00
 4.149219160657108e-01	 1.808907665780728e+00	 5.087110227550636e+00
 3.986435304849662e-01	 1.812564586449341e+00	 5.009404554270002e+00
 3.823757276088534e-01	 1.816066007948775e+00	 4.935393625877134e+00
 3.661205482539759e-01	 1.819412702560137e+00	 4.864964768539593e+00
 3.498800083140248e-01	 1.822605474680986e+00	 4.797948082971176e+00
 3.336560982190642e-01	 1.825645160049192e+00	 4.734118272402609e+00
 3.174507824199989e-01	 1.828532624958971e+00	 4.673196409447199e+00
 4.823824468889452e-01	 1.801234842759755e+00	 5.467757542605744e+00
 4.660051129921649e-01	 1.805541193225597e+00	 5.377044865610323e+00
 4.496299713726133e-01	 1.809688539293435e+00	 5.289688933504879e+00
 4.332591667790175e-01	 1.813677520229208e+00	 5.205834736159930e+00
 4.168948213439022e-01	 1.817508810591282e+00	 5.125561937290341e+00
 4.005390339396478e-01	 1.821183119490810e+00	 5.048886935561589e+00
 3.841938795595654e-01	 1.824701189840726e+00	 4.975764902342548e+00
 3.678614087241095e-01	 1.828063797594234e+00	 4.906091783758084e+00
 3.515436469123164e-01	 1.831271750973706e+00	 4.839706255725043e+00
 3.352425940185192e-01	 1.834325889690844e+00	 4.776391621709710e+00
 3.189602238343636e-01	 1.837227084158984e+00	 4.715877644003712e+00
 4.846652671736595e-01	 1.809758982609063e+00	 5.511094801573710e+00
 4.682104293993744e-01	 1.814085712390736e+00	 5.420298922246404e+00
 4.517577942769935e-01	 1.818252685304075e+00	 5.332861885562805e+00
 4.353095167050307e-01	 1.822260543640271e+00	 5.248927567563017e+00
 4.188677288587699e-01	 1.826109965149957e+00	 5.168574005930273e+00
 4.024345395432750e-01	 1.829801662300079e+00	 5.091815569345151e+00
 3.860120335715336e-01	 1.833336381519313e+00	 5.018605098909790e+00
 3.696022711678638e-01	 1.836714902432977e+00	 4.948836008923479e+00
 3.532072873966583e-01	 1.839938037088262e+00	 4.882344335368412e+00
 3.368290916165305e-01	 1.843006629170708e+00	 4.818910721547557e+00
 3.204696669598779e-01	 1.845921553212783e+00	 4.758262331424072e+00
 4.869480887526040e-01	 1.818283127288656e+00	 5.564936845398143e+00
 4.704157470569679e-01	 1.822630236397705e+00	 5.472329073931428e+00
 4.538856183878984e-01	 1.826816836167647e+00	 5.383258624565641e+00
 4.373598677937028e-01	 1.830843571914933e+00	 5.297857689077072e+00
 4.208406374924303e-01	 1.834711124582473e+00	 5.216191970512355e+00
 4.043300462218327e-01	 1.838420209993003e+00	 5.138262980322116e+00
 3.878301886145822e-01	 1.841971578090959e+00	 5.064010302646408e+00
 3.713431345988646e-01	 1.845366012173774e+00	 4.993313812641646e+00
 3.548709288244357e-01	 1.848604328113462e+00	 4.925995836851929e+00
 3.384155901141945e-01	 1.851687373569411e+00	 4.861823244747106e+00
 3.219791109412959e-01	 1.854616027193228e+00	 4.800509461701250e+00
 3.068848122723423e-01	 1.767672100344656e+00	 4.352534095580303e+00
 2.912360624240649e-01	 1.770317608769745e+00	 4.277911334967206e+00
 2.756090206873471e-01	 1.772817673086979e+00	 4.208018438064405e+00
 2.600055129802040e-01	 1.775173213945177e+00	 4.142899384076045e+00
 2.444273382514744e-01	 1.777385178479808e+00	 4.082539571678330e+00
 2.288762681028862e-01	 1.779454539528256e+00	 4.026866516986516e+00
 2.133540464351001e-01	 1.781382294842315e+00	 3.975750518509641e+00
 1.978623891175583e-01	 1.783169466298693e+00	 3.929005287070913e+00
 1.824029836819386e-01	 1.784817099108259e+00	 3.886388539340290e+00
 1.669774890389995e-01	 1.786326261024755e+00	 3.847602554271059e+00
 1.515875352185671e-01	 1.787698041553686e+00	 3.812294692338154e+00
 3.083942177617581e-01	 1.776366352608244e+00	 4.401837043891355e+00
 2.926684999179884e-01	 1.779024872902190e+00	 4.331010151000322e+00
 2.769645969566065e-01	 1.781537233724924e+00	 4.264238964094704e+00
 2.612843437763506e-01	 1.783904360253470e+00	 4.201619640815579e+00
 2.456295481741357e-01	 1.786127204281780e+00	 4.143190277100953e+00
 2.300019904652600e-01	 1.788206743432129e+00	 4.088931566498266e+00
 2.144034231277075e-01	 1.790143980363745e+00	 4.038767422820319e+00
 1.988355704703725e-01	 1.791939941979430e+00	 3.992565564197655e+00
 1.833001283250075e-01	 1.793595678630914e+00	 3.950138057274126e+00
 1.677987637616735e-01	 1.795112263323673e+00	 3.911241820950710e+00
 1.523331148274494e-01	 1.796490790921936e+00	 3.875579089715159e+00
 3.099036309490487e-01	 1.785060649215597e+00	 4.449699077297520e+00
 2.941009447172263e-01	 1.787732181444672e+00	 4.382142817620860e+00
 2.783201801391768e-01	 1.790256838835518e+00	 4.318061849149467e+00
 2.625631810944037e-01	 1.792635551093389e+00	 4.257598048536073e+00
 2.468317642279399e-01	 1.794869274670746e+00	 4.200835724776040e+00
 2.311277185686942e-01	 1.796958991974783e+00	 4.147802249639906e+00
 2.154528051720147e-01	 1.798905710572194e+00	 4.098468647487403e+00
 1.998087567862874e-01	 1.800710462391899e+00	 4.052750142589876e+00
 1.841972775433778e-01	 1.802374302926518e+00	 4.010506662787096e+00
 1.686200426726882e-01	 1.803898310433295e+00	 3.971543299002638e+00
 1.530786982385879e-01	 1.805283585135209e+00	 3.935610720787242e+00
 3.114130509789675e-01	 1.793754985239579e+00	 4.496287071322882e+00
 2.955333960101378e-01	 1.796439529462697e+00	 4.431485995705013e+00
 2.796757694669592e-01	 1.798976483477317e+00	 4.369670974588121e+00
 2.638420242097390e-01	 1.801366781516948e+00	 4.311023231973230e+00
 2.480339857316652e-01	 1.803611384692580e+00	 4.255666894736883e+00
 2.322534517752951e-01	 1.805711280196355e+00	 4.203669603909028e+00
 2.165021919733761e-01	 1.807667480502450e+00	 4.155043081053610e+00
 2.007819475138224e-01	 1.809481022565931e+00	 4.109743647932905e+00
 1.850944308286478e-01	 1.811152967020334e+00	 4.067672698373758e+00
 1.694413253066301e-01	 1.812684397374696e+00	 4.028677121958023e+00
 1.538242850294628e-01	 1.814076419210772e+00	 3.992549679837066e+00
 3.129224769962685e-01	 1.802449355753047e+00	 4.541766762966274e+00
 2.969658529850819e-01	 1.805146912021767e+00	 4.479215040065151e+00
 2.810313641718545e-01	 1.807696162708877e+00	 4.419248783528682e+00
 2.651208723977320e-01	 1.810098046576164e+00	 4.362082278669989e+00
 2.492362120040906e-01	 1.812353529393163e+00	 4.307873161975827e+00
 2.333791894471688e-01	 1.814463603136980e+00	 4.256723022905610e+00
 2.175515829371465e-01	 1.816429285189302e+00	 4.208677956191953e+00
 2.017551421014978e-01	 1.818251617531361e+00	 4.163729062872748e+00
 1.859915876724159e-01	 1.819931665937626e+00	 4.121812899051028e+00
 1.702626111980854e-01	 1.821470519168950e+00	 4.082811872107336e+00
 1.545698747775543e-01	 1.822869288165889e+00	 4.046554584785652e+00
 3.144319081457050e-01	 1.811143755828862e+00	 4.586302755282818e+00
 2.983983148304175e-01	 1.813854324187387e+00	 4.525504011105363e+00
 2.823869634857643e-01	 1.816415871588759e+00	 4.466976298568399e+00
 2.663997249337583e-01	 1.818829341323053e+00	 4.410960761796526e+00
 2.504384423639945e-01	 1.821095703818368e+00	 4.357642323439141e+00
 2.345049309464215e-01	 1.823215955836794e+00	 4.307150286618933e+00
 2.186009774686803e-01	 1.825191119667539e+00	 4.259558882454464e+00
 2.027283399978331e-01	 1.827022242318018e+00	 4.214887761431265e+00
 1.868887475662803e-01	 1.828710394703656e+00	 4.173102427689693e+00
 1.710838998816402e-01	 1.830256670837135e+00	 4.134114616045488e+00
 1.553154670603430e-01	 1.831662187017830e+00	 4.097782612289850e+00
 3.159413435720306e-01	 1.819838180539884e+00	 4.630058521609892e+00
 2.998307807345036e-01	 1.822561761025059e+00	 4.570525685942345e+00
 2.837425666405891e-01	 1.825135605175517e+00	 4.513033138813747e+00
 2.676785810931935e-01	 1.827560660809629e+00	 4.457842762148184e+00
 2.516406761301556e-01	 1.829837903014074e+00	 4.405160624096216e+00
 2.356306756351595e-01	 1.831968333335933e+00	 4.355137590712906e+00
 2.196503749733321e-01	 1.833952978971950e+00	 4.307869877957772e+00
 2.037015406513480e-01	 1.835792891955738e+00	 4.263399542325782e+00
 1.877859100018390e-01	 1.837489148343687e+00	 4.221714909240994e+00
 1.719051908918811e-01	 1.839042847400324e+00	 4.182750939120388e+00
 1.560610614553088e-01	 1.840455110783858e+00	 4.146389531769506e+00
 3.174507824199989e-01	 1.828532624958971e+00	 4.673196409447207e+00
 3.012632498856996e-01	 1.831269217600288e+00	 4.614451568998596e+00
 2.850981728682304e-01	 1.833855358527709e+00	 4.557597536233160e+00
 2.689574401514132e-01	 1.836292000087910e+00	 4.502910889345037e+00
 2.528429126213524e-01	 1.838580122026157e+00	 4.450612782111946e+00
 2.367564228754889e-01	 1.840720730674532e+00	 4.400869574839884e+00
 2.206997748564563e-01	 1.842714858137325e+00	 4.353793400049234e+00
 2.046747435105624e-01	 1.844563561474353e+00	 4.309442661235161e+00
 1.886830744706905e-01	 1.846267921882982e+00	 4.267822463895746e+00
 1.727264837633943e-01	 1.847829043879594e+00	 4.228884978818305e+00
 1.568066575399322e-01	 1.849248054481242e+00	 4.192529738397531e+00
 3.189602238343636e-01	 1.837227084158984e+00	 4.715877644003712e+00
 3.026957214723645e-01	 1.839976688978579e+00	 4.657451902093268e+00
 2.864537814005891e-01	 1.842575126703891e+00	 4.600846351363270e+00
 2.702363013837929e-01	 1.845023354209911e+00	 4.546346302263056e+00
 2.540451511563637e-01	 1.847322355900495e+00	 4.494182013153499e+00
 2.378821720295160e-01	 1.849473142892728e+00	 4.444529350015284e+00
 2.217491765234075e-01	 1.851476752198452e+00	 4.397510374979305e+00
 2.056479480239961e-01	 1.853334245903695e+00	 4.353193862043828e+00
 1.895802404644332e-01	 1.855046710346803e+00	 4.311595739211588e+00
 1.735477780307659e-01	 1.856615255296021e+00	 4.272679457126742e+00
 1.575522548916935e-01	 1.858041013127248e+00	 4.236356285088594e+00
 3.204696669598779e-01	 1.845921553212783e+00	 4.758262331424072e+00
 3.041281946828570e-01	 1.848684170225434e+00	 4.699695674044974e+00
 2.878093914695663e-01	 1.851294904762620e+00	 4.642955088384459e+00
 2.715151640657085e-01	 1.853754718227649e+00	 4.588328728718603e+00
 2.552473910539679e-01	 1.856064599682962e+00	 4.536050053861086e+00
 2.390079224593470e-01	 1.858225565030656e+00	 4.486298525084457e+00
 2.227985793795404e-01	 1.860238656190121e+00	 4.439200226619126e+00
 2.066211536401689e-01	 1.862104940273597e+00	 4.394828407099157e+00
 1.904774074746651e-01	 1.863825508760415e+00	 4.353203941240761e+00
 1.743690732285824e-01	 1.865401476670680e+00	 4.314295711903943e+00
 1.582978530880727e-01	 1.866833981739142e+00	 4.278020913517749e+00
 3.219791109412959e-01	 1.854616027193228e+00	 4.800509461701254e+00
 3.055606687055367e-01	 1.857391656406358e+00	 4.741350629801401e+00
 2.891650023070632e-01	 1.860014687762456e+00	 4.684097909589374e+00
 2.727940274725352e-01	 1.862486087193140e+00	 4.629036484436051e+00
 2.564496316329439e-01	 1.864806848419438e+00	 4.576397184506366e+00
 2.401336735270881e-01	 1.866977992128452e+00	 4.526357232311521e+00
 2.238479828302094e-01	 1.869000565147120e+00	 4.479040904249915e+00
 2.075943598076006e-01	 1.870875639613892e+00	 4.434520106515095e+00
 1.913745749929846e-01	 1.872604312149079e+00	 4.392814864695547e+00
 1.751903688914300e-01	 1.874187703024645e+00	 4.353893727287886e+00
 1.590434517065504e-01	 1.875626955334190e+00	 4.317674084202631e+00
 1.515875352185671e-01	 1.787698041553686e+00	 3.812294692338154e+00
 1.362373235588749e-01	 1.788933352611214e+00	 3.780332949132825e+00
 1.209257759949575e-01	 1.790033568801779e+00	 3.751985829610948e+00
 1.056543988854585e-01	 1.790999839205792e+00	 3.727434292471194e+00
 9.042466986710648e-02	 1.791833331478070e+00	 3.706801018113956e+00
 7.523803770138718e-02	 1.792535231079186e+00	 3.690149982369868e+00
 6.009592214175536e-02	 1.793106740510443e+00	 3.677486028690790e+00
 4.499971382104898e-02	 1.793549078553067e+00	 3.668754442405153e+00
 2.995077415874777e-02	 1.793863479512159e+00	 3.663840530889911e+00
 1.495043528770935e-02	 1.794051192465945e+00	 3.662569213705190e+00
 0.000000000000000e+00	 1.794113480520832e+00	 3.664704626891497e+00
 1.523331148274494e-01	 1.796490790921936e+00	 3.875579089715159e+00
 1.369074035247442e-01	 1.797732177827113e+00	 3.843109571563787e+00
 1.215205464861688e-01	 1.798837805404580e+00	 3.814157662456131e+00
 1.061740574793720e-01	 1.799808828386452e+00	 3.788906161295166e+00
 9.086942140881972e-02	 1.800646420170603e+00	 3.767480007641447e+00
 7.560809416171207e-02	 1.801351772048239e+00	 3.749945836004241e+00
 6.039150247454317e-02	 1.801926092435115e+00	 3.736311524702050e+00
 4.522104381996076e-02	 1.802370606106978e+00	 3.726525743118370e+00
 3.009808631356915e-02	 1.802686553439808e+00	 3.720477501429735e+00
 1.502396864030461e-02	 1.802875189655369e+00	 3.717995707089635e+00
 0.000000000000000e+00	 1.802937784072603e+00	 3.718848732501062e+00
 1.530786982385879e-01	 1.805283585135209e+00	 3.935610720787242e+00
 1.375774869077654e-01	 1.806531047918943e+00	 3.902751786270446e+00
 1.221153200103886e-01	 1.807642086910848e+00	 3.873340179713658e+00
 1.066937187231594e-01	 1.808617862494764e+00	 3.847557043011911e+00
 9.131417521832773e-02	 1.809459553811653e+00	 3.825526119330963e+00
 7.597815250885417e-02	 1.810168357983386e+00	 3.807313291644256e+00
 6.068708431431715e-02	 1.810745489340192e+00	 3.792926111694531e+00
 4.544237494721856e-02	 1.811192178652375e+00	 3.782313323428616e+00
 3.024539921933057e-02	 1.811509672366819e+00	 3.775364385211014e+00
 1.509750236771070e-02	 1.811699231848858e+00	 3.771908995342345e+00
 0.000000000000000e+00	 1.811762132630000e+00	 3.771716625562306e+00
 1.538242850294628e-01	 1.814076419210772e+00	 3.992549679837065e+00
 1.382475733282073e-01	 1.815329957900539e+00	 3.959408113393564e+00
 1.227100962305709e-01	 1.816446408331353e+00	 3.929669056879157e+00
 1.072133823223502e-01	 1.817426936538807e+00	 3.903508553900088e+00
 9.175893104361964e-02	 1.818272727406976e+00	 3.881045752518444e+00
 7.634821253314082e-02	 1.818984983888418e+00	 3.862342431673253e+00
 6.098266749361573e-02	 1.819564926227870e+00	 3.847402513625609e+00
 4.566370707743905e-02	 1.820013791190213e+00	 3.836171566698003e+00
 3.039271279258867e-02	 1.820332831293267e+00	 3.828536302854011e+00
 1.517103642828048e-02	 1.820523314045961e+00	 3.824324074887355e+00
 0.000000000000000e+00	 1.820586521192396e+00	 3.823302378145588e+00
 1.545698747775543e-01	 1.822869288165889e+00	 4.046554584785660e+00
 1.389176624063389e-01	 1.824128902785731e+00	 4.013225684401220e+00
 1.233048748096698e-01	 1.825250764676867e+00	 3.983278676041555e+00
 1.077330479824736e-01	 1.826236045526661e+00	 3.956881118517793e+00
 9.220368863268462e-02	 1.827085935962324e+00	 3.934144221788475e+00
 7.671827402489943e-02	 1.827801644767130e+00	 3.915122364856026e+00
 6.127825184497742e-02	 1.828384398100345e+00	 3.899812595028789e+00
 4.588504008523901e-02	 1.828835438721451e+00	 3.888154113046120e+00
 3.054002694990016e-02	 1.829156025219229e+00	 3.880027748848899e+00
 1.524457078036680e-02	 1.829347431246227e+00	 3.875255433020643e+00
 0.000000000000000e+00	 1.829410944759166e+00	 3.873599669075320e+00
 1.553154670603430e-01	 1.831662187017830e+00	 4.097782612289857e+00
 1.395877537624294e-01	 1.832927877588356e+00	 4.064350276216202e+00
 1.238996554106393e-01	 1.834055150958159e+00	 4.034302158637277e+00
 1.082527154090591e-01	 1.835045184466403e+00	 4.007794000706026e+00
 9.264844773351176e-02	 1.835899174483453e+00	 3.984925785870618e+00
 7.708833677445745e-02	 1.836618335623317e+00	 3.965741252796644e+00
 6.157383720094068e-02	 1.837203899959812e+00	 3.950227384732509e+00
 4.610637384523512e-02	 1.837657116247048e+00	 3.938313880047631e+00
 3.068734160782166e-02	 1.837979249144782e+00	 3.929872608971498e+00
 1.531810538232251e-02	 1.838171578449207e+00	 3.924717061816639e+00
 0.000000000000000e+00	 1.838235398329687e+00	 3.922601794115375e+00
 1.560610614553088e-01	 1.840455110783858e+00	 4.146389531769506e+00
 1.402578470167476e-01	 1.841726877322242e+00	 4.112926344310697e+00
 1.244944376964336e-01	 1.842859562186001e+00	 4.082871397221639e+00
 1.087723843076361e-01	 1.843854348366112e+00	 4.056365333665206e+00
 9.309320809409025e-02	 1.844712437976115e+00	 4.033493675678560e+00
 7.745840057214219e-02	 1.845435051460771e+00	 4.014286335622418e+00
 6.186942339404398e-02	 1.846023426808468e+00	 3.998717098887349e+00
 4.632770823204415e-02	 1.846478818767959e+00	 3.986703082828972e+00
 3.083465668290985e-02	 1.846802498070001e+00	 3.978104177201407e+00
 1.539164019250044e-02	 1.846995750654450e+00	 3.972722471637076e+00
 0.000000000000000e+00	 1.847059876903333e+00	 3.970301675867978e+00
 1.568066575399322e-01	 1.849248054481242e+00	 4.192529738397531e+00
 1.409279417895626e-01	 1.850525897001225e+00	 4.159097054803844e+00
 1.250892213300065e-01	 1.851663993371164e+00	 4.129117086288889e+00
 1.092920543837341e-01	 1.852663532233867e+00	 4.102712149143056e+00
 9.353796946240919e-02	 1.853525721446064e+00	 4.079950121529258e+00
 7.782846520828113e-02	 1.854251787283287e+00	 4.060843956916380e+00
 6.216501025682580e-02	 1.854842973648508e+00	 4.045351163325128e+00
 4.654904312028284e-02	 1.855300541285142e+00	 4.033373253587342e+00
 3.098197209172137e-02	 1.855625766994964e+00	 4.024755172154817e+00
 1.546517516925347e-02	 1.855819942861508e+00	 4.019284704258316e+00
 0.000000000000000e+00	 1.855884375479479e+00	 4.016691873395024e+00
 1.575522548916935e-01	 1.858041013127248e+00	 4.236356285088594e+00
 1.415980377011434e-01	 1.859324931639138e+00	 4.203004315591384e+00
 1.256840059743122e-01	 1.860468439524419e+00	 4.173168752175268e+00
 1.098117253428824e-01	 1.861472731077748e+00	 4.146950405758844e+00
 9.398273158645773e-02	 1.862339019899055e+00	 4.124396379558760e+00
 7.819853047320163e-02	 1.863068538094658e+00	 4.105499587925047e+00
 6.246059762182463e-02	 1.863662535482129e+00	 4.090198235271952e+00
 4.677037838456789e-02	 1.864122278799557e+00	 4.078375260550676e+00
 3.112928775081290e-02	 1.864449050919747e+00	 4.069857753052749e+00
 1.553871027093444e-02	 1.864644150069929e+00	 4.064416345630576e+00
 0.000000000000000e+00	 1.864708889057499e+00	 4.061764591573944e+00
 1.582978530880727e-01	 1.866833981739142e+00	 4.278020913517749e+00
 1.422681343717590e-01	 1.868123976249811e+00	 4.244788806545323e+00
 1.262787912923049e-01	 1.869272895656538e+00	 4.215154782073587e+00
 1.103313968906104e-01	 1.870281939905831e+00	 4.189195016491801e+00
 9.442749421422506e-02	 1.871152328340841e+00	 4.166932757369149e+00
 7.856859615723111e-02	 1.871885298898677e+00	 4.148337851063460e+00
 6.275618532157888e-02	 1.872482107311525e+00	 4.133326224440101e+00
 4.699171389951602e-02	 1.872944026312160e+00	 4.121759326394972e+00
 3.127660357674109e-02	 1.873272344844427e+00	 4.113443535235097e+00
 1.561224545589620e-02	 1.873468367279264e+00	 4.108129538277760e+00
 0.000000000000000e+00	 1.873533412636770e+00	 4.105511690192889e+00
 1.590434517065504e-01	 1.875626955334190e+00	 4.317674084202631e+00
 1.429382314216784e-01	 1.876923025847079e+00	 4.284590008807020e+00
 1.268735769469384e-01	 1.878077356778291e+00	 4.255202452186250e+00
 1.108510687324477e-01	 1.879091153726199e+00	 4.229559875364194e+00
 9.487225709370022e-02	 1.879965641777177e+00	 4.207658638928264e+00
 7.893866205069694e-02	 1.880702064699139e+00	 4.189442542741449e+00
 6.305177318862708e-02	 1.881301684138893e+00	 4.174802313508315e+00
 4.721304953974399e-02	 1.881765778823908e+00	 4.163575046140113e+00
 3.142391948606261e-02	 1.882095643769081e+00	 4.155543605239484e+00
 1.568578068249159e-02	 1.882292589489063e+00	 4.150435993351760e+00
 0.000000000000000e+00	 1.882357941216666e+00	 4.147924692797910e+00
 1.882357941216666e+00	 0.000000000000000e+00	 1.286792643796342e+01
 1.882292589489063e+00	 1.568578068249056e-02	 1.286783299244980e+01
 1.882095643769081e+00	 3.142391948606171e-02	 1.286907577691630e+01
 1.881765778823908e+00	 4.721304953974327e-02	 1.287139800234326e+01
 1.881301684138893e+00	 6.305177318862648e-02	 1.287456759216179e+01
 1.880702064699139e+00	 7.893866205069652e-02	 1.287837740755103e+01
 1.879965641777177e+00	 9.487225709369997e-02	 1.288264550446927e+01
 1.879091153726199e+00	 1.108510687324475e-01	 1.288721542553972e+01
 1.878077356778291e+00	 1.268735769469385e-01	 1.289195652991585e+01
 1.876923025847079e+00	 1.429382314216786e-01	 1.289676436425032e+01
 1.875626955334190e+00	 1.590434517065505e-01	 1.290156107788481e+01
 1.891180970624999e+00	 0.000000000000000e+00	 1.283218907030504e+01
 1.891115312579360e+00	 1.575930341640359e-02	 1.283227181962127e+01
 1.890917443731123e+00	 3.157121036829688e-02	 1.283367223046164e+01
 1.890586032635812e+00	 4.743434757785371e-02	 1.283613333946313e+01
 1.890119762636100e+00	 6.334731083901778e-02	 1.283942270996101e+01
 1.889517332647063e+00	 7.930866507460144e-02	 1.284333264695377e+01
 1.888777457947550e+00	 9.531694441351364e-02	 1.284768044487092e+01
 1.887898870977132e+00	 1.113706522885186e-01	 1.285230867133998e+01
 1.886880322138074e+00	 1.274682615549137e-01	 1.285708549015459e+01
 1.885720580601748e+00	 1.436082146305012e-01	 1.286190502664886e+01
 1.884418435118870e+00	 1.597889236572119e-01	 1.286668777867230e+01
 1.900004000033333e+00	 0.000000000000000e+00	 1.279716448429585e+01
 1.899938035669670e+00	 1.583282615033130e-02	 1.279741271293559e+01
 1.899739243693211e+00	 3.171850125053537e-02	 1.279895626609337e+01
 1.899406286447809e+00	 4.765564561593599e-02	 1.280153924511667e+01
 1.898937841133457e+00	 6.364284848933535e-02	 1.280493008162468e+01
 1.898332600595200e+00	 7.967866809837910e-02	 1.280892174047234e+01
 1.897589274118200e+00	 9.576163173314470e-02	 1.281333195656398e+01
 1.896706588228396e+00	 1.118902358443561e-01	 1.281800350879103e+01
 1.895683287498230e+00	 1.280629461626155e-01	 1.282280453437518e+01
 1.894518135356813e+00	 1.442781978390277e-01	 1.282762888690305e+01
 1.893209914903944e+00	 1.605343956075780e-01	 1.283239654132854e+01
 1.908827029441666e+00	 0.000000000000000e+00	 1.276281484261506e+01
 1.908760758759990e+00	 1.590634888430188e-02	 1.276321935947514e+01
 1.908561043655338e+00	 3.186579213283049e-02	 1.276489298576373e+01
 1.908226540259889e+00	 4.787694365406539e-02	 1.276758211204253e+01
 1.907755919630951e+00	 6.393838613967308e-02	 1.277105725192277e+01
 1.907147868543532e+00	 8.004867112213844e-02	 1.277511323136956e+01
 1.906401090289097e+00	 9.620631905271350e-02	 1.277956941288199e+01
 1.905514305479960e+00	 1.124098194000881e-01	 1.278426995790109e+01
 1.904486252858727e+00	 1.286576307701752e-01	 1.278908413081117e+01
 1.903315690112244e+00	 1.449481810473887e-01	 1.279390664790143e+01
 1.902001394689388e+00	 1.612798675577750e-01	 1.279865807464746e+01
 1.917650058849999e+00	 0.000000000000000e+00	 1.272910369519620e+01
 1.917583481850319e+00	 1.597987161834349e-02	 1.272965679188006e+01
 1.917382843617501e+00	 3.201308301523558e-02	 1.273144879963315e+01
 1.917046794072044e+00	 4.809824169231717e-02	 1.273422960843701e+01
 1.916573998128565e+00	 6.423392379012477e-02	 1.273777301318628e+01
 1.915963136492034e+00	 8.041867414598838e-02	 1.274187688768448e+01
 1.915212906460218e+00	 9.665100637234036e-02	 1.274636339452085e+01
 1.914322022731792e+00	 1.129294029558424e-01	 1.275107923426044e+01
 1.913289218219532e+00	 1.292523153777245e-01	 1.275589593739578e+01
 1.912113244868009e+00	 1.456181642557153e-01	 1.276071020251289e+01
 1.910792874475175e+00	 1.620253395079285e-01	 1.276544428411619e+01
 1.926473088258333e+00	 0.000000000000000e+00	 1.269599594745950e+01
 1.926406204940658e+00	 1.605339435248433e-02	 1.269669135799529e+01
 1.926204643579694e+00	 3.216037389780393e-02	 1.269859139700375e+01
 1.925867047884262e+00	 4.831953973076658e-02	 1.270145065004055e+01
 1.925392076626284e+00	 6.452946144078428e-02	 1.270504737840627e+01
 1.924778404440686e+00	 8.078867717003781e-02	 1.270918367619600e+01
 1.924024722631534e+00	 9.709569369214555e-02	 1.271368566421394e+01
 1.923129739983864e+00	 1.134489865117469e-01	 1.271840372426639e+01
 1.922092183580612e+00	 1.298469999853945e-01	 1.272321277736854e+01
 1.920910799624076e+00	 1.462881474641382e-01	 1.272801260940250e+01
 1.919584354261279e+00	 1.627708114581646e-01	 1.273272824775893e+01
 1.935296117666666e+00	 0.000000000000000e+00	 1.266345782941375e+01
 1.935228928031002e+00	 1.612691708675258e-02	 1.266429069134678e+01
 1.935026443541912e+00	 3.230766478058891e-02	 1.266628971804664e+01
 1.934687301696533e+00	 4.854083776948886e-02	 1.266921537298454e+01
 1.934210155124092e+00	 6.482499909174548e-02	 1.267285155506254e+01
 1.933593672389465e+00	 8.115868019439562e-02	 1.267700573708964e+01
 1.932836538803020e+00	 9.754038101224943e-02	 1.268150914208499e+01
 1.931937457236144e+00	 1.139685700679294e-01	 1.268621696100625e+01
 1.930895148941935e+00	 1.304416845933169e-01	 1.269100861552535e+01
 1.929708354380417e+00	 1.469581306727882e-01	 1.269578806947717e+01
 1.928375834047675e+00	 1.635162834086093e-01	 1.270048419260279e+01
 1.944119147074999e+00	 0.000000000000000e+00	 1.263145686559905e+01
 1.944051651121354e+00	 1.620043982117643e-02	 1.263242368242176e+01
 1.943848243504153e+00	 3.245495566364379e-02	 1.263451392629729e+01
 1.943507555508850e+00	 4.876213580855929e-02	 1.263749510737383e+01
 1.943028233621972e+00	 6.512053674310217e-02	 1.264115791965887e+01
 1.942408940338352e+00	 8.152868321917076e-02	 1.264531635930419e+01
 1.941648354974646e+00	 9.798506833277225e-02	 1.264980788165957e+01
 1.940745174488602e+00	 1.144881536245179e-01	 1.265449360077894e+01
 1.939698114303471e+00	 1.310363692016230e-01	 1.265925853508984e+01
 1.938505909136998e+00	 1.476281138817963e-01	 1.266401190294172e+01
 1.937167313834337e+00	 1.642617553593884e-01	 1.266868747174593e+01
 1.952942176483333e+00	 0.000000000000000e+00	 1.259996184584451e+01
 1.952874374211709e+00	 1.627396255578405e-02	 1.260106045072668e+01
 1.952670043466408e+00	 3.260224654702193e-02	 1.260323538189504e+01
 1.952327809321199e+00	 4.898343384805312e-02	 1.260626235158236e+01
 1.951846312119910e+00	 6.541607439494819e-02	 1.260993999294251e+01
 1.951224208287323e+00	 8.189868624447208e-02	 1.261408995653717e+01
 1.950460171146388e+00	 9.842975565383434e-02	 1.261855704651212e+01
 1.949552891741205e+00	 1.150077371816401e-01	 1.262320940023377e+01
 1.948501079665185e+00	 1.316310538104442e-01	 1.262793871518757e+01
 1.947303463893790e+00	 1.482980970912932e-01	 1.263266052694562e+01
 1.945958793621237e+00	 1.650072273106281e-01	 1.263731454200843e+01
 1.961765205891666e+00	 0.000000000000000e+00	 1.256894279681522e+01
 1.961697097302065e+00	 1.634748529060362e-02	 1.257017231759928e+01
 1.961491843428675e+00	 3.274953743077662e-02	 1.257242661554349e+01
 1.961148063133574e+00	 4.920473188804563e-02	 1.257549074723884e+01
 1.960664390617890e+00	 6.571161204737740e-02	 1.257917241578644e+01
 1.960039476236356e+00	 8.226868927040855e-02	 1.258330204388872e+01
 1.959271987318218e+00	 9.887444297555595e-02	 1.258773288753015e+01
 1.958360608993926e+00	 1.155273207394240e-01	 1.259234119410779e+01
 1.957304045027047e+00	 1.322257384199121e-01	 1.259702640890377e+01
 1.956101018650761e+00	 1.489680803014100e-01	 1.260171143380214e+01
 1.954750273408352e+00	 1.657526992624541e-01	 1.260634294214828e+01
 1.970588235300000e+00	 0.000000000000000e+00	 1.253837095432320e+01
 1.970519820392425e+00	 1.642100802566334e-02	 1.253973177975062e+01
 1.970313643390948e+00	 3.289682831496119e-02	 1.254206130316853e+01
 1.969968316945962e+00	 4.942602992861205e-02	 1.254515505488087e+01
 1.969482469115896e+00	 6.600714970048366e-02	 1.254883092571348e+01
 1.968854744185433e+00	 8.263869229708914e-02	 1.255292921512309e+01
 1.968083803490109e+00	 9.931913029805751e-02	 1.255731272077547e+01
 1.967168326246733e+00	 1.160469042979975e-01	 1.256186687354259e+01
 1.966107010389023e+00	 1.328204230301581e-01	 1.256649992190577e+01
 1.964898573407881e+00	 1.496380635122773e-01	 1.257114316976141e+01
 1.963541753195655e+00	 1.664981712149926e-01	 1.257575127162404e+01
 1.875626955334190e+00	 1.590434517065505e-01	 1.290156107788481e+01
 1.874187703024645e+00	 1.751903688914292e-01	 1.290685083714182e+01
 1.872604312149079e+00	 1.913745749929839e-01	 1.291316119658829e+01
 1.870875639613893e+00	 2.075943598076000e-01	 1.292049443085718e+01
 1.869000565147121e+00	 2.238479828302088e-01	 1.292888320747063e+01
 1.866977992128452e+00	 2.401336735270876e-01	 1.293839131863184e+01
 1.864806848419438e+00	 2.564496316329435e-01	 1.294911447308236e+01
 1.862486087193140e+00	 2.727940274725351e-01	 1.296118115050179e+01
 1.860014687762457e+00	 2.891650023070629e-01	 1.297475352079534e+01
 1.857391656406358e+00	 3.055606687055365e-01	 1.299002843046560e+01
 1.854616027193228e+00	 3.219791109412959e-01	 1.300723845809755e+01
 1.884418435118870e+00	 1.597889236572119e-01	 1.286668777867230e+01
 1.882972436714475e+00	 1.760115250265634e-01	 1.287195308094974e+01
 1.881381624134609e+00	 1.922715900940228e-01	 1.287824584692153e+01
 1.879644848927742e+00	 2.085674006398712e-01	 1.288556966257243e+01
 1.877760985570946e+00	 2.248972080009056e-01	 1.289395832695911e+01
 1.875728932303808e+00	 2.412592333445181e-01	 1.290347658469501e+01
 1.873547611962533e+00	 2.576516679671723e-01	 1.291422092022134e+01
 1.871215972813470e+00	 2.740726736175319e-01	 1.292632041641998e+01
 1.868732989385335e+00	 2.905203828444762e-01	 1.293993767999141e+01
 1.866097663299309e+00	 3.069928993702055e-01	 1.295526983586920e+01
 1.863309024096240e+00	 3.234882984886234e-01	 1.297254959277600e+01
 1.893209914903944e+00	 1.605343956075780e-01	 1.283239654132854e+01
 1.891757170404670e+00	 1.768326811614318e-01	 1.283764283174799e+01
 1.890158936120451e+00	 1.931686051948514e-01	 1.284392978837949e+01
 1.888414058241827e+00	 2.095404414720083e-01	 1.285126175898224e+01
 1.886521405994919e+00	 2.259464331715612e-01	 1.285967305344469e+01
 1.884479872479216e+00	 2.423847931620121e-01	 1.286922867622018e+01
 1.882288375505576e+00	 2.588537043015761e-01	 1.288002512234991e+01
 1.879945858433651e+00	 2.753513197628177e-01	 1.289219123971052e+01
 1.877451291007973e+00	 2.918757633822889e-01	 1.290588915998920e+01
 1.874803670191940e+00	 3.084251300353768e-01	 1.292131530073893e+01
 1.872002020998873e+00	 3.249974860365428e-01	 1.293870144069495e+01
 1.902001394689388e+00	 1.612798675577750e-01	 1.279865807464746e+01
 1.900541904095215e+00	 1.776538372961512e-01	 1.280389036350989e+01
 1.898936248106599e+00	 1.940656202955728e-01	 1.281018222103002e+01
 1.897183267556163e+00	 2.105134823040985e-01	 1.281753821262839e+01
 1.895281826419069e+00	 2.269956583422437e-01	 1.282599254420399e+01
 1.893230812654720e+00	 2.435103529796167e-01	 1.283560979378295e+01
 1.891029139048634e+00	 2.600557406361796e-01	 1.284648570863383e+01
 1.888675744053763e+00	 2.766299659083937e-01	 1.285874807057271e+01
 1.886169592630466e+00	 2.932311439204797e-01	 1.287255763204470e+01
 1.883509677084360e+00	 3.098573607010063e-01	 1.288810912541724e+01
 1.880695017901244e+00	 3.265066735849895e-01	 1.290563234774771e+01
 1.910792874475175e+00	 1.620253395079285e-01	 1.276544428411619e+01
 1.909326637786092e+00	 1.784749934308381e-01	 1.277066716393929e+01
 1.907713560093051e+00	 1.949626353962909e-01	 1.277697358967419e+01
 1.905952476870757e+00	 2.114865231362290e-01	 1.278436780564471e+01
 1.904042246843425e+00	 2.280448835130215e-01	 1.279288330470615e+01
 1.901981752830368e+00	 2.446359127973791e-01	 1.280258355837134e+01
 1.899769902591771e+00	 2.612577769710079e-01	 1.281356281436182e+01
 1.897405629673888e+00	 2.779086120542619e-01	 1.282594696439523e+01
 1.894887894252909e+00	 2.945865244590271e-01	 1.283989448488354e+01
 1.892215683976677e+00	 3.112895913670508e-01	 1.285559745306185e+01
 1.889388014803469e+00	 3.280158611338988e-01	 1.287328264089722e+01
 1.919584354261279e+00	 1.627708114581646e-01	 1.273272824775892e+01
 1.918111371477284e+00	 1.792961495656094e-01	 1.273794591007317e+01
 1.916490872079803e+00	 1.958596504971091e-01	 1.274427555885399e+01
 1.914721686185623e+00	 2.124595639684870e-01	 1.275172058381987e+01
 1.912802667268015e+00	 2.290941086839626e-01	 1.276031316138236e+01
 1.910732693006208e+00	 2.457614726153465e-01	 1.277011498251734e+01
 1.908510666135051e+00	 2.624598133060859e-01	 1.278121805009818e+01
 1.906135515294109e+00	 2.791872582004242e-01	 1.279374554859235e+01
 1.903606195875401e+00	 2.959419049979102e-01	 1.280785278888667e+01
 1.900921690869000e+00	 3.127218220334664e-01	 1.282372823085117e+01
 1.898081011705663e+00	 3.295250486832059e-01	 1.284159458607730e+01
 1.928375834047675e+00	 1.635162834086093e-01	 1.270048419260279e+01
 1.926896105168775e+00	 1.801173057005816e-01	 1.270570044450444e+01
 1.925268184066851e+00	 1.967566655981312e-01	 1.271206098848789e+01
 1.923490895500773e+00	 2.134326048009596e-01	 1.271956783130351e+01
 1.921563087692869e+00	 2.301433338551352e-01	 1.272825123506351e+01
 1.919483633182285e+00	 2.468870324335661e-01	 1.273817044213021e+01
 1.917251429678539e+00	 2.636618496414380e-01	 1.274941447157904e+01
 1.914865400914505e+00	 2.804659043468823e-01	 1.276210299023327e+01
 1.912324497498038e+00	 2.972972855371075e-01	 1.277638726112848e+01
 1.909627697761435e+00	 3.141540527002096e-01	 1.279245117210970e+01
 1.906774008607944e+00	 3.310342362328462e-01	 1.281051234708834e+01
 1.937167313834337e+00	 1.642617553593884e-01	 1.266868747174593e+01
 1.935680838860548e+00	 1.809384618358714e-01	 1.267390575220485e+01
 1.934045496054190e+00	 1.976536806994605e-01	 1.268030391011319e+01
 1.932260104816218e+00	 2.144056456337339e-01	 1.268788204593483e+01
 1.930323508118016e+00	 2.311925590266076e-01	 1.269666791506474e+01
 1.928234573358647e+00	 2.480125922520850e-01	 1.270671764900872e+01
 1.925992193222301e+00	 2.648638859770895e-01	 1.271811655032779e+01
 1.923595286535160e+00	 2.817445504936383e-01	 1.273097996444042e+01
 1.921042799120914e+00	 2.986526660765980e-01	 1.274545423123974e+01
 1.918333704654092e+00	 3.155862833672365e-01	 1.276171771932298e+01
 1.915467005510425e+00	 3.325434237827546e-01	 1.277998194545540e+01
 1.945958793621237e+00	 1.650072273106281e-01	 1.263731454200843e+01
 1.944465572552588e+00	 1.817596179715958e-01	 1.264253793793015e+01
 1.942822808041816e+00	 1.985506958012007e-01	 1.264897950371745e+01
 1.941029314131968e+00	 2.153786864668973e-01	 1.265663691517502e+01
 1.939083928543483e+00	 2.322417841984477e-01	 1.266553483389589e+01
 1.936985513535340e+00	 2.491381520709504e-01	 1.267572562401113e+01
 1.934732956766399e+00	 2.660659223130650e-01	 1.268729014496766e+01
 1.932325172156156e+00	 2.830231966406935e-01	 1.270033862353127e+01
 1.929761100744129e+00	 3.000080466163604e-01	 1.271501160806990e+01
 1.927039711547079e+00	 3.170185140345035e-01	 1.273148100801491e+01
 1.924160002413225e+00	 3.340526113328665e-01	 1.274995122121913e+01
 1.954750273408352e+00	 1.657526992624541e-01	 1.260634294214828e+01
 1.953250306244875e+00	 1.825807741078712e-01	 1.261157420418769e+01
 1.951600120029727e+00	 1.994477109034553e-01	 1.261806407513891e+01
 1.949798523448037e+00	 2.163517273005370e-01	 1.262580729262344e+01
 1.947844348969299e+00	 2.332910093707239e-01	 1.263482484257958e+01
 1.945736453712412e+00	 2.502637118902095e-01	 1.264516467086188e+01
 1.943473720310901e+00	 2.672679586493892e-01	 1.265690247320916e+01
 1.941055057777571e+00	 2.843018427880500e-01	 1.267014256688117e+01
 1.938479402367777e+00	 3.013634271563733e-01	 1.268501884712348e+01
 1.935745718440505e+00	 3.184507447019673e-01	 1.270169583145933e+01
 1.932852999316459e+00	 3.355617988831173e-01	 1.272036979462908e+01
 1.963541753195655e+00	 1.664981712149926e-01	 1.257575127162404e+01
 1.962035039937395e+00	 1.834019302448144e-01	 1.258099282975023e+01
 1.960377432017917e+00	 2.003447260063280e-01	 1.258753503401917e+01
 1.958567732764435e+00	 2.173247681347400e-01	 1.259536917510009e+01
 1.956604769395495e+00	 2.343402345435043e-01	 1.260451198655568e+01
 1.954487393889909e+00	 2.513892717099096e-01	 1.261500635057537e+01
 1.952214483855871e+00	 2.684699949860874e-01	 1.262692208449126e+01
 1.949784943399491e+00	 2.855804889357098e-01	 1.264035681148418e+01
 1.947197703991955e+00	 3.027188076966157e-01	 1.265543691874571e+01
 1.944451725334479e+00	 3.198829753695840e-01	 1.267231860620039e+01
 1.941545996220244e+00	 3.370709864334422e-01	 1.269118902871231e+01
 1.854616027193228e+00	 3.219791109412959e-01	 1.300723845809755e+01
 1.851687373569412e+00	 3.384155901141933e-01	 1.302450522454935e+01
 1.848604328113462e+00	 3.548709288244347e-01	 1.303984922509414e+01
 1.845366012173774e+00	 3.713431345988638e-01	 1.305339455041710e+01
 1.841971578090960e+00	 3.878301886145815e-01	 1.306529991514861e+01
 1.838420209993003e+00	 4.043300462218324e-01	 1.307576026788195e+01
 1.834711124582473e+00	 4.208406374924301e-01	 1.308500849089318e+01
 1.830843571914933e+00	 4.373598677937027e-01	 1.309331718993664e+01
 1.826816836167647e+00	 4.538856183878984e-01	 1.310100057414664e+01
 1.822630236397704e+00	 4.704157470569681e-01	 1.310841642571790e+01
 1.818283127288656e+00	 4.869480887526040e-01	 1.311596815865530e+01
 1.863309024096240e+00	 3.234882984886234e-01	 1.297254959277600e+01
 1.860366643223122e+00	 3.400018190873033e-01	 1.298986076271722e+01
 1.857269146849096e+00	 3.565342876221557e-01	 1.300518816620301e+01
 1.854015652204112e+00	 3.730837022808532e-01	 1.301865924032521e+01
 1.850605307655608e+00	 3.896480347778188e-01	 1.303043627493336e+01
 1.847037293507387e+00	 4.062252308795626e-01	 1.304071804703270e+01
 1.843310822790522e+00	 4.228132109556790e-01	 1.304974154698957e+01
 1.839425142045411e+00	 4.394098705554803e-01	 1.305778379695972e+01
 1.835379532094092e+00	 4.560130810102132e-01	 1.306516376161137e+01
 1.831173308801916e+00	 4.726206900607705e-01	 1.307224435084987e+01
 1.826805823827681e+00	 4.892305225107746e-01	 1.307943451386569e+01
 1.872002020998873e+00	 3.249974860365428e-01	 1.293870144069495e+01
 1.869045912876419e+00	 3.415880480610784e-01	 1.295609497742748e+01
 1.865933965584301e+00	 3.581976464205966e-01	 1.297144776719185e+01
 1.862665292234023e+00	 3.748242699636000e-01	 1.298489141813362e+01
 1.859239037219846e+00	 3.914658809418339e-01	 1.299659259874867e+01
 1.855654377021386e+00	 4.081204155380744e-01	 1.300675469516154e+01
 1.851910520998216e+00	 4.247857844196964e-01	 1.301561956232096e+01
 1.848006712175566e+00	 4.414598733179969e-01	 1.302346936957598e+01
 1.843942228020241e+00	 4.581405436332218e-01	 1.303062854074689e+01
 1.839716381205850e+00	 4.748256330652056e-01	 1.303746578843766e+01
 1.835328520366439e+00	 4.915129562695016e-01	 1.304439624194585e+01
 1.880695017901244e+00	 3.265066735849895e-01	 1.290563234774771e+01
 1.877725182529421e+00	 3.431742770354342e-01	 1.292313991987412e+01
 1.874598784319196e+00	 3.598610052196566e-01	 1.293855366790160e+01
 1.871314932263623e+00	 3.765648376469893e-01	 1.295201017799027e+01
 1.867872766783782e+00	 3.932837271065004e-01	 1.296368128291275e+01
 1.864271460535099e+00	 4.100156001972329e-01	 1.297377574071903e+01
 1.860510219205645e+00	 4.267583578843425e-01	 1.298254100943508e+01
 1.856588282305478e+00	 4.435098760811119e-01	 1.299026511830790e+01
 1.852504923946168e+00	 4.602680062567869e-01	 1.299727863575910e+01
 1.848259453609578e+00	 4.770305760701435e-01	 1.300395673383536e+01
 1.843851216904998e+00	 4.937953900286675e-01	 1.301072134855062e+01
 1.889388014803469e+00	 3.280158611338988e-01	 1.287328264089722e+01
 1.886404452182247e+00	 3.447605060102871e-01	 1.289092976900259e+01
 1.883263603053897e+00	 3.615243640192350e-01	 1.290643378692370e+01
 1.879964572293025e+00	 3.783054053309060e-01	 1.291993704843821e+01
 1.876506496347521e+00	 3.951015732716919e-01	 1.293161731875827e+01
 1.872888544048626e+00	 4.119107848569036e-01	 1.294168947309683e+01
 1.869109917412900e+00	 4.287309313494783e-01	 1.295040729338798e+01
 1.865169852435230e+00	 4.455598788446854e-01	 1.295806536373030e+01
 1.861067619871948e+00	 4.623954688807709e-01	 1.296500106476366e+01
 1.856802526013169e+00	 4.792355190754544e-01	 1.297159666681493e+01
 1.852373913443422e+00	 4.960778237881541e-01	 1.297828152124968e+01
 1.898081011705663e+00	 3.295250486832059e-01	 1.284159458607730e+01
 1.895083721835017e+00	 3.463467349855531e-01	 1.285940078588492e+01
 1.891928421788526e+00	 3.631877228192311e-01	 1.287501827232448e+01
 1.888614212322343e+00	 3.800459730152350e-01	 1.288859593935630e+01
 1.885140225911173e+00	 3.969194194372820e-01	 1.290031823565203e+01
 1.881505627562064e+00	 4.138059695169516e-01	 1.291040688158182e+01
 1.877709615620070e+00	 4.307035048149640e-01	 1.291912268648376e+01
 1.873751422564904e+00	 4.476098816085765e-01	 1.292676746683983e+01
 1.869630315797655e+00	 4.645229315050365e-01	 1.293368606562368e+01
 1.865345598416690e+00	 4.814404620810083e-01	 1.294026847270543e+01
 1.860896609981780e+00	 4.983602575478439e-01	 1.294695204579588e+01
 1.906774008607944e+00	 3.310342362328462e-01	 1.281051234708834e+01
 1.903762991487849e+00	 3.479329639611483e-01	 1.282849126917042e+01
 1.900593240523198e+00	 3.648510816195437e-01	 1.284423945352678e+01
 1.897263852351691e+00	 3.817865406998611e-01	 1.285791309014404e+01
 1.893773955474843e+00	 3.987372656031441e-01	 1.286970404534747e+01
 1.890122711075513e+00	 4.157011541772421e-01	 1.287984159573666e+01
 1.886309313827246e+00	 4.326760782806602e-01	 1.288859426453611e+01
 1.882332992694578e+00	 4.496598843726447e-01	 1.289627176104557e+01
 1.878193011723362e+00	 4.666503941294464e-01	 1.290322702351249e+01
 1.873888670820212e+00	 4.836454050866755e-01	 1.290985836536501e+01
 1.869419306520137e+00	 5.006426913076192e-01	 1.291661172433815e+01
 1.915467005510425e+00	 3.325434237827546e-01	 1.277998194545540e+01
 1.912442261140863e+00	 3.495191929369890e-01	 1.279814151157625e+01
 1.909258059258034e+00	 3.665144404200725e-01	 1.281403179431338e+01
 1.905913492381182e+00	 3.835271083846696e-01	 1.282781701911090e+01
 1.902407685038640e+00	 4.005551117691519e-01	 1.283969718762877e+01
 1.898739794589072e+00	 4.175963388376407e-01	 1.284990982716038e+01
 1.894909012034517e+00	 4.346486517464275e-01	 1.285873184460298e+01
 1.890914562824337e+00	 4.517098871367495e-01	 1.286648148572990e+01
 1.886755707649143e+00	 4.687778567538631e-01	 1.287352040014647e+01
 1.882431743223803e+00	 4.858503480923257e-01	 1.288025581192692e+01
 1.877942003058562e+00	 5.029251250673622e-01	 1.288714279551671e+01
 1.924160002413225e+00	 3.340526113328665e-01	 1.274995122121913e+01
 1.921121530794179e+00	 3.511054219129908e-01	 1.276829375738628e+01
 1.917922877993149e+00	 3.681777992207165e-01	 1.278433184691580e+01
 1.914563132410930e+00	 3.852676760695452e-01	 1.279823847403203e+01
 1.911041414602669e+00	 4.023729579351785e-01	 1.281022247720434e+01
 1.907356878102840e+00	 4.194915234980123e-01	 1.282053031258590e+01
 1.903508710241975e+00	 4.366212252121263e-01	 1.282944792414858e+01
 1.899496132954261e+00	 4.537598899007507e-01	 1.283730272132938e+01
 1.895318403575075e+00	 4.709053193781491e-01	 1.284446566463531e+01
 1.890974815627531e+00	 4.880552910978292e-01	 1.285135345926376e+01
 1.886464699597119e+00	 5.052075588269552e-01	 1.285843085638126e+01
 1.932852999316459e+00	 3.355617988831173e-01	 1.272036979462908e+01
 1.929800800447914e+00	 3.526916508890702e-01	 1.273889216092579e+01
 1.926587696728664e+00	 3.698411580213750e-01	 1.275507820715485e+01
 1.923212772441050e+00	 3.870082437543728e-01	 1.276911038383390e+01
 1.919675144167039e+00	 4.041908041010981e-01	 1.278120705181161e+01
 1.915973961616915e+00	 4.213867081582223e-01	 1.279162425827258e+01
 1.912108408449707e+00	 4.385937986776169e-01	 1.280065762158677e+01
 1.908077703084432e+00	 4.558098926645076e-01	 1.280864432588828e+01
 1.903881099501229e+00	 4.730327820021673e-01	 1.281596522589854e+01
 1.899517888031467e+00	 4.902602341030561e-01	 1.282304706211589e+01
 1.894987396135878e+00	 5.074899925862805e-01	 1.283036478607477e+01
 1.941545996220244e+00	 3.370709864334422e-01	 1.269118902871231e+01
 1.938480070102190e+00	 3.542778798651433e-01	 1.270988274598138e+01
 1.935252515464695e+00	 3.715045168219472e-01	 1.272621147059952e+01
 1.931862412471655e+00	 3.887488114390375e-01	 1.274036781137412e+01
 1.928308873731856e+00	 4.060086502667835e-01	 1.275258032149427e+01
 1.924591045131398e+00	 4.232818928181366e-01	 1.276311528565260e+01
 1.920708106657807e+00	 4.405663721427606e-01	 1.277227861816362e+01
 1.916659273214932e+00	 4.578598954278800e-01	 1.278041787303819e+01
 1.912443795427681e+00	 4.751602446257804e-01	 1.278792436659953e+01
 1.908060960435679e+00	 4.924651771078769e-01	 1.279523541283163e+01
 1.903510092674904e+00	 5.097724263452202e-01	 1.280283667122736e+01
 1.818283127288656e+00	 4.869480887526040e-01	 1.311596815865530e+01
 1.813774900280472e+00	 5.034804565022218e-01	 1.312472909176297e+01
 1.809104985480471e+00	 5.200106428226275e-01	 1.313599917563510e+01
 1.804272851186890e+00	 5.365364197891487e-01	 1.315062186848803e+01
 1.799278004183412e+00	 5.530555395592704e-01	 1.316952885306298e+01
 1.794119990412552e+00	 5.695657351459109e-01	 1.319374269284547e+01
 1.788798395632072e+00	 5.860647212144210e-01	 1.322437952170985e+01
 1.783312846053559e+00	 6.025501949029394e-01	 1.325537860807153e+01
 1.777663008962260e+00	 6.190198366657010e-01	 1.327581714218236e+01
 1.771848593317296e+00	 6.354713111388515e-01	 1.328611333931608e+01
 1.765869350331383e+00	 6.519022680282957e-01	 1.328688325425233e+01
 1.826805823827681e+00	 4.892305225107746e-01	 1.307943451386569e+01
 1.822276465758901e+00	 5.058403811368120e-01	 1.308802147346687e+01
 1.817584662031687e+00	 5.224480481087361e-01	 1.309953601540407e+01
 1.812729878452084e+00	 5.390512850591123e-01	 1.311484992584631e+01
 1.807711619491975e+00	 5.556478336093043e-01	 1.313491925405734e+01
 1.802529428965615e+00	 5.722354161463736e-01	 1.316078690849532e+01
 1.797182890689137e+00	 5.888117366238169e-01	 1.319357274799510e+01
 1.791671629122110e+00	 6.053744813857633e-01	 1.322435736582485e+01
 1.785995309990285e+00	 6.219213200142381e-01	 1.324512200650402e+01
 1.780153640888623e+00	 6.384499061990339e-01	 1.325644501356642e+01
 1.774146371863731e+00	 6.549578786297220e-01	 1.325893816901610e+01
 1.835328520366439e+00	 4.915129562695016e-01	 1.304439624194585e+01
 1.830778031237056e+00	 5.082003057718679e-01	 1.305289012232938e+01
 1.826064338582611e+00	 5.248854533952091e-01	 1.306467314249061e+01
 1.821186905716960e+00	 5.415661503293331e-01	 1.308063891259756e+01
 1.816145234800188e+00	 5.582401276594871e-01	 1.310176186238238e+01
 1.810938867518299e+00	 5.749050971468807e-01	 1.312909979437971e+01
 1.805567385745794e+00	 5.915587520331596e-01	 1.316342231931895e+01
 1.800030412190233e+00	 6.081987678684503e-01	 1.319359501828616e+01
 1.794327611017873e+00	 6.248228033625711e-01	 1.321436284085320e+01
 1.788458688459521e+00	 6.414285012589674e-01	 1.322630172413607e+01
 1.782423393395677e+00	 6.580134892308822e-01	 1.323001684965302e+01
 1.843851216904998e+00	 4.937953900286675e-01	 1.301072134855062e+01
 1.839279596715006e+00	 5.105602304072889e-01	 1.301919906273420e+01
 1.834544015133317e+00	 5.273228586819669e-01	 1.303127896033004e+01
 1.829643932981598e+00	 5.440810155997551e-01	 1.304787007343807e+01
 1.824578850108139e+00	 5.608324217097863e-01	 1.306995932305945e+01
 1.819348306070697e+00	 5.775747781474236e-01	 1.309861404658484e+01
 1.813951880802146e+00	 5.943057674424644e-01	 1.313377541587773e+01
 1.808389195258034e+00	 6.110230543510344e-01	 1.316314523245126e+01
 1.802659912045135e+00	 6.277242867107512e-01	 1.318364906852096e+01
 1.796763736030097e+00	 6.444070963187151e-01	 1.319585757539354e+01
 1.790700414927322e+00	 6.610690998318429e-01	 1.320036707401354e+01
 1.852373913443422e+00	 4.960778237881541e-01	 1.297828152124968e+01
 1.847781162192821e+00	 5.129201550429737e-01	 1.298681612689418e+01
 1.843023691683877e+00	 5.297602639689291e-01	 1.299922565442552e+01
 1.838100960246077e+00	 5.465958808703203e-01	 1.301642825581647e+01
 1.833012465415917e+00	 5.634247157601698e-01	 1.303941754920466e+01
 1.827757744622905e+00	 5.802444591479938e-01	 1.306926513759667e+01
 1.822336375858294e+00	 5.970527828517453e-01	 1.310463994310721e+01
 1.816747978325622e+00	 6.138473408335514e-01	 1.313306196811312e+01
 1.810992213072177e+00	 6.306257700588299e-01	 1.315308939248238e+01
 1.805068783600458e+00	 6.473856913783389e-01	 1.316528477408610e+01
 1.798977436458766e+00	 6.641247104326712e-01	 1.317023337961829e+01
 1.860896609981780e+00	 4.983602575478439e-01	 1.294695204579588e+01
 1.856282727670566e+00	 5.152800796788221e-01	 1.295561286787802e+01
 1.851503368234364e+00	 5.321976692560152e-01	 1.296838910559896e+01
 1.846557987510477e+00	 5.491107461409722e-01	 1.298620182692009e+01
 1.841446080723607e+00	 5.660170098106045e-01	 1.301004564630501e+01
 1.836167183175018e+00	 5.829141401485834e-01	 1.304099125146344e+01
 1.830720870914339e+00	 5.997997982610178e-01	 1.307602490607881e+01
 1.825106761393103e+00	 6.166716273160361e-01	 1.310339945285313e+01
 1.819324514099112e+00	 6.335272534068580e-01	 1.312279179247854e+01
 1.813373831170712e+00	 6.503642864379001e-01	 1.313475365224006e+01
 1.807254457990109e+00	 6.671803210334327e-01	 1.313985711613421e+01
 1.869419306520137e+00	 5.006426913076192e-01	 1.291661172433815e+01
 1.864784293148312e+00	 5.176400043147329e-01	 1.292546447464852e+01
 1.859983044784852e+00	 5.346350745431454e-01	 1.293864880522458e+01
 1.855015014774876e+00	 5.516256114116537e-01	 1.295708259251860e+01
 1.849879696031298e+00	 5.686093038610581e-01	 1.298175583812990e+01
 1.844576621727132e+00	 5.855838211491839e-01	 1.301373322027196e+01
 1.839105365970385e+00	 6.025468136702953e-01	 1.304794036698978e+01
 1.833465544460584e+00	 6.194959137985229e-01	 1.307421215740357e+01
 1.827656815126045e+00	 6.364287367548868e-01	 1.309286352184550e+01
 1.821678878740966e+00	 6.533428814974618e-01	 1.310443268908277e+01
 1.815531479521452e+00	 6.702359316341945e-01	 1.310947649604381e+01
 1.877942003058562e+00	 5.029251250673622e-01	 1.288714279551671e+01
 1.873285858626127e+00	 5.199999289506052e-01	 1.289624968904726e+01
 1.868462721335411e+00	 5.370724798302392e-01	 1.290988777238180e+01
 1.863472042039355e+00	 5.541404766823075e-01	 1.292896571760642e+01
 1.858313311339076e+00	 5.712015979114976e-01	 1.295446339422516e+01
 1.852986060279340e+00	 5.882535021497867e-01	 1.298743439279104e+01
 1.847489861026533e+00	 6.052938290795933e-01	 1.302039740351787e+01
 1.841824327528172e+00	 6.223202002810472e-01	 1.304555477136900e+01
 1.835989116153088e+00	 6.393302201029678e-01	 1.306341110409916e+01
 1.829983926311327e+00	 6.563214765570854e-01	 1.307448853201685e+01
 1.823808501052896e+00	 6.732915422350229e-01	 1.307932664356377e+01
 1.886464699597119e+00	 5.052075588269552e-01	 1.285843085638126e+01
 1.881787424104077e+00	 5.223598535863381e-01	 1.286785072466517e+01
 1.876942397886117e+00	 5.395098851172165e-01	 1.288199247286681e+01
 1.871929069303992e+00	 5.566553419528767e-01	 1.290174964878629e+01
 1.866746926647027e+00	 5.737938919618902e-01	 1.292808655894005e+01
 1.861395498831739e+00	 5.909231831503838e-01	 1.296183144318856e+01
 1.855874356082885e+00	 6.080408444889259e-01	 1.299340806801243e+01
 1.850183110595975e+00	 6.251444867636436e-01	 1.301748217929526e+01
 1.844321417180349e+00	 6.422317034511513e-01	 1.303454032928297e+01
 1.838288973881903e+00	 6.593000716168336e-01	 1.304508601667756e+01
 1.832085522584540e+00	 6.763471528359838e-01	 1.304963964186910e+01
 1.894987396135878e+00	 5.074899925862805e-01	 1.283036478607477e+01
 1.890288989582232e+00	 5.247197782218312e-01	 1.284015318753903e+01
 1.885422074437041e+00	 5.419472904039975e-01	 1.285485274000451e+01
 1.880386096568869e+00	 5.591702072233043e-01	 1.287533603834000e+01
 1.875180541955240e+00	 5.763861860122034e-01	 1.290254648193895e+01
 1.869804937384422e+00	 5.935928641509662e-01	 1.293669852714754e+01
 1.864258851139542e+00	 6.107878598983075e-01	 1.296698534749644e+01
 1.858541893664097e+00	 6.279687732463468e-01	 1.299004943707524e+01
 1.852653718207937e+00	 6.451331867994891e-01	 1.300635625008660e+01
 1.846594021452801e+00	 6.622786666767680e-01	 1.301638818610114e+01
 1.840362544116487e+00	 6.794027634371440e-01	 1.302064457867557e+01
 1.903510092674904e+00	 5.097724263452202e-01	 1.280283667122736e+01
 1.898790555060662e+00	 5.270797028569836e-01	 1.281304599861708e+01
 1.893901750988258e+00	 5.443846956905017e-01	 1.282836169720416e+01
 1.888843123834064e+00	 5.616850724935336e-01	 1.284962966993258e+01
 1.883614157263803e+00	 5.789784800624048e-01	 1.287776715015115e+01
 1.878214375937486e+00	 5.962625451515265e-01	 1.291201592231976e+01
 1.872643346196608e+00	 6.135348753077534e-01	 1.294114312445350e+01
 1.866900676732649e+00	 6.307930597291920e-01	 1.296331174868107e+01
 1.860986019235964e+00	 6.480346701480327e-01	 1.297896317774217e+01
 1.854899069024128e+00	 6.652572617369513e-01	 1.298855630903299e+01
 1.848639565648836e+00	 6.824583740385707e-01	 1.299256759023219e+01
 1.765869350331383e+00	 6.519022680282957e-01	 1.328688325425233e+01
 1.759724015199794e+00	 6.683131303505517e-01	 1.328281553902647e+01
 1.753413426734233e+00	 6.846987235911637e-01	 1.327924298669879e+01
 1.746937464927228e+00	 7.010566561718174e-01	 1.327638289646259e+01
 1.740296054154137e+00	 7.173845253063597e-01	 1.327438074035463e+01
 1.733489163639346e+00	 7.336799179914384e-01	 1.327336237295475e+01
 1.726516807897010e+00	 7.499404120156162e-01	 1.327343305429225e+01
 1.719379047145570e+00	 7.661635769862305e-01	 1.327467679213197e+01
 1.712075987695309e+00	 7.823469753732302e-01	 1.327715603189093e+01
 1.704607782308222e+00	 7.984881635692114e-01	 1.328091172136124e+01
 1.696974630529512e+00	 8.145846929648082e-01	 1.328596377609728e+01
 1.774146371863731e+00	 6.549578786297220e-01	 1.325893816901610e+01
 1.767972232182473e+00	 6.714456623056039e-01	 1.325619645863446e+01
 1.761632064588246e+00	 6.879080584581186e-01	 1.325172691115369e+01
 1.755125748511073e+00	 7.043426642990833e-01	 1.324791878709450e+01
 1.748453207971837e+00	 7.207470657799385e-01	 1.324530165372946e+01
 1.741614412050666e+00	 7.371188385870379e-01	 1.324397059816675e+01
 1.734609375329743e+00	 7.534555491554897e-01	 1.324400289070893e+01
 1.727438158309759e+00	 7.697547557008282e-01	 1.324545732268787e+01
 1.720100867799294e+00	 7.860140092677468e-01	 1.324837389660131e+01
 1.712597657276366e+00	 8.022308547950969e-01	 1.325277389661241e+01
 1.704928727221485e+00	 8.184028321963254e-01	 1.325866036613783e+01
 1.782423393395677e+00	 6.580134892308822e-01	 1.323001684965301e+01
 1.776220449164800e+00	 6.745781942604032e-01	 1.322903513348253e+01
 1.769850702441976e+00	 6.911173933248602e-01	 1.322640162199493e+01
 1.763314032094718e+00	 7.076286724261931e-01	 1.322210807358337e+01
 1.756610361789429e+00	 7.241096062534321e-01	 1.321835009656687e+01
 1.749739660461979e+00	 7.405577591826311e-01	 1.321622766083333e+01
 1.742701942762565e+00	 7.569706862954361e-01	 1.321579908932992e+01
 1.735497269474131e+00	 7.733459344155724e-01	 1.321710588322801e+01
 1.728125747903544e+00	 7.896810431624701e-01	 1.322017238268543e+01
 1.720587532244843e+00	 8.059735460212316e-01	 1.322500581488459e+01
 1.712882823913839e+00	 8.222209714281085e-01	 1.323159675702764e+01
 1.790700414927322e+00	 6.610690998318429e-01	 1.320036707401354e+01
 1.784468666146862e+00	 6.777107262150124e-01	 1.320067725203954e+01
 1.778069340295493e+00	 6.943267281914407e-01	 1.319978777946164e+01
 1.771502315678212e+00	 7.109146805531854e-01	 1.319757890113678e+01
 1.764767515606941e+00	 7.274721467268629e-01	 1.319395050733363e+01
 1.757864908873280e+00	 7.439966797782196e-01	 1.319057023416395e+01
 1.750794510195449e+00	 7.604858234354371e-01	 1.318925508366108e+01
 1.743556380638632e+00	 7.769371131304262e-01	 1.319003723885612e+01
 1.736150628007981e+00	 7.933480770573488e-01	 1.319293206944028e+01
 1.728577407213554e+00	 8.097162372475533e-01	 1.319793827291535e+01
 1.720836920606459e+00	 8.260391106600911e-01	 1.320503829624875e+01
 1.798977436458766e+00	 6.641247104326712e-01	 1.317023337961829e+01
 1.792716883128748e+00	 6.808432581694953e-01	 1.317143706672066e+01
 1.786287978148868e+00	 6.975360630579137e-01	 1.317188856118499e+01
 1.779690599261606e+00	 7.142006886800998e-01	 1.317144177162305e+01
 1.772924669424397e+00	 7.308346872002509e-01	 1.316997067593614e+01
 1.765990157284573e+00	 7.474356003738056e-01	 1.316737011584274e+01
 1.758887077628368e+00	 7.640009605754744e-01	 1.316480093596059e+01
 1.751615491803209e+00	 7.805282918453531e-01	 1.316466303608787e+01
 1.744175508112531e+00	 7.970151109523312e-01	 1.316703095587662e+01
 1.736567282182402e+00	 8.134589284739997e-01	 1.317190031377687e+01
 1.728791017299227e+00	 8.298572498922063e-01	 1.317924969502176e+01
 1.807254457990109e+00	 6.671803210334327e-01	 1.313985711613421e+01
 1.800965100110545e+00	 6.839757901239151e-01	 1.314162437698323e+01
 1.794506616002171e+00	 7.007453979243333e-01	 1.314306823743265e+01
 1.787878882844947e+00	 7.174866968069751e-01	 1.314402701062376e+01
 1.781081823241821e+00	 7.341972276736178e-01	 1.314435852359799e+01
 1.774115405695855e+00	 7.508745209693893e-01	 1.314394092448746e+01
 1.766979645061297e+00	 7.675160977155304e-01	 1.314267347471207e+01
 1.759674602967811e+00	 7.841194705603169e-01	 1.314139181853058e+01
 1.752200388217115e+00	 8.006821448473654e-01	 1.314284445796864e+01
 1.744557157151288e+00	 8.172016197005080e-01	 1.314721919924343e+01
 1.736745113992029e+00	 8.336753891243879e-01	 1.315449496930565e+01
 1.815531479521452e+00	 6.702359316341945e-01	 1.310947649604381e+01
 1.809213317092343e+00	 6.871083220783347e-01	 1.311154460761989e+01
 1.802725253855475e+00	 7.039547327907528e-01	 1.311368572137832e+01
 1.796067166428287e+00	 7.207727049338504e-01	 1.311573313823214e+01
 1.789238977059240e+00	 7.375597681469845e-01	 1.311753814728315e+01
 1.782240654107128e+00	 7.543134415649738e-01	 1.311897081879624e+01
 1.775072212494208e+00	 7.710312348555861e-01	 1.311992078299896e+01
 1.767733714132385e+00	 7.877106492752801e-01	 1.312029799405656e+01
 1.760225268321657e+00	 8.043491787423995e-01	 1.312074540250503e+01
 1.752547032120114e+00	 8.209443109270164e-01	 1.312422037935080e+01
 1.744699210684749e+00	 8.374935283565698e-01	 1.313103737875939e+01
 1.823808501052896e+00	 6.732915422350229e-01	 1.307932664356377e+01
 1.817461534074229e+00	 6.902408540328180e-01	 1.308149888452820e+01
 1.810943891708848e+00	 7.071640676572262e-01	 1.308409466590923e+01
 1.804255450011673e+00	 7.240587130607646e-01	 1.308695270502524e+01
 1.797396130876680e+00	 7.409223086203730e-01	 1.308992722014303e+01
 1.790365902518390e+00	 7.577523621605593e-01	 1.309288868255626e+01
 1.783164779927075e+00	 7.745463719956235e-01	 1.309572455622506e+01
 1.775792825296878e+00	 7.913018279902072e-01	 1.309834002445686e+01
 1.768250148426081e+00	 8.080162126373820e-01	 1.310065870337000e+01
 1.760536907088782e+00	 8.246870021534625e-01	 1.310322745923653e+01
 1.752653307377271e+00	 8.413116675886849e-01	 1.310913936373037e+01
 1.832085522584540e+00	 6.763471528359838e-01	 1.304963964186910e+01
 1.825709751056291e+00	 6.933733859874273e-01	 1.305178410803781e+01
 1.819162529562362e+00	 7.103734025238065e-01	 1.305464355739884e+01
 1.812443733595157e+00	 7.273447211877574e-01	 1.305807240056277e+01
 1.805553284694165e+00	 7.442848490938035e-01	 1.306193710896045e+01
 1.798491150929641e+00	 7.611912827561479e-01	 1.306611689954440e+01
 1.791257347359871e+00	 7.780615091356247e-01	 1.307050440969343e+01
 1.783851936461238e+00	 7.948930067050608e-01	 1.307500636199169e+01
 1.776275028530309e+00	 8.116832465322605e-01	 1.307954421882057e+01
 1.768526782057194e+00	 8.284296933797841e-01	 1.308405482697111e+01
 1.760607404069479e+00	 8.451298068206674e-01	 1.308906248033197e+01
 1.840362544116487e+00	 6.794027634371440e-01	 1.302064457867557e+01
 1.833957968038617e+00	 6.965059179422266e-01	 1.302269302387105e+01
 1.827381167416087e+00	 7.135827373905478e-01	 1.302567580654144e+01
 1.820632017178787e+00	 7.306307293148669e-01	 1.302947315852834e+01
 1.813710438511722e+00	 7.476473895672974e-01	 1.303397298797339e+01
 1.806616399340881e+00	 7.646302033517413e-01	 1.303907147035333e+01
 1.799349914792569e+00	 7.815766462755710e-01	 1.304467363326123e+01
 1.791911047625413e+00	 7.984841854198050e-01	 1.305069393485249e+01
 1.784299908634266e+00	 8.153502804269840e-01	 1.305705683614852e+01
 1.776516657025253e+00	 8.321723846059189e-01	 1.306369736766720e+01
 1.768561500761259e+00	 8.489479460524503e-01	 1.307056169112556e+01
 1.848639565648836e+00	 6.824583740385707e-01	 1.299256759023219e+01
 1.842206185021296e+00	 6.996384498972793e-01	 1.299451429181169e+01
 1.835599805270095e+00	 7.167920722575036e-01	 1.299752983633983e+01
 1.828820300762612e+00	 7.339167374421329e-01	 1.300153025861921e+01
 1.821867592329375e+00	 7.510099300408764e-01	 1.300643394919197e+01
 1.814741647752110e+00	 7.680691239473409e-01	 1.301216212560875e+01
 1.807442482225145e+00	 7.850917834154445e-01	 1.301863930187964e+01
 1.799970158789351e+00	 8.020753641344032e-01	 1.302579375632982e+01
 1.792324788737874e+00	 8.190173143215005e-01	 1.303355799836403e+01
 1.784506531992859e+00	 8.359150758318045e-01	 1.304186923492595e+01
 1.776515597452493e+00	 8.527660852839679e-01	 1.305066983772055e+01
 1.696974630529512e+00	 8.145846929648082e-01	 1.328596377609728e+01
 1.689178118260765e+00	 8.306313869384492e-01	 1.328969776605671e+01
 1.681217254867131e+00	 8.466285306676240e-01	 1.328971205240167e+01
 1.673092380572644e+00	 8.625736674957397e-01	 1.328630166235959e+01
 1.664803883388218e+00	 8.784643401719195e-01	 1.327972848925334e+01
 1.656352199292954e+00	 8.942980919892130e-01	 1.327022344964841e+01
 1.647737812383569e+00	 9.100724679326290e-01	 1.325798917495519e+01
 1.638961254991470e+00	 9.257850158359557e-01	 1.324320324876379e+01
 1.630023107767036e+00	 9.414332875463270e-01	 1.322602199803949e+01
 1.620923999730693e+00	 9.570148400954669e-01	 1.320658484296960e+01
 1.611664608290443e+00	 9.725272368765220e-01	 1.318501920674843e+01
 1.704928727221485e+00	 8.184028321963254e-01	 1.325866036613783e+01
 1.697095670969706e+00	 8.345247405858770e-01	 1.326325545655769e+01
 1.689097493242846e+00	 8.505968664779323e-01	 1.326402063221019e+01
 1.680934535859641e+00	 8.666167417010110e-01	 1.326127423650265e+01
 1.672607188649691e+00	 8.825818974865597e-01	 1.325529979896269e+01
 1.664115889635622e+00	 8.984898656125029e-01	 1.324634815095558e+01
 1.655461125183213e+00	 9.143381795566544e-01	 1.323464009209031e+01
 1.646643430119026e+00	 9.301243756589617e-01	 1.322036961934742e+01
 1.637663387815065e+00	 9.458459942915269e-01	 1.320370772772927e+01
 1.628521630240110e+00	 9.615005810353460e-01	 1.318480678780531e+01
 1.619218837977321e+00	 9.770856878626532e-01	 1.316380550192489e+01
 1.712882823913839e+00	 8.222209714281085e-01	 1.323159675702764e+01
 1.705013223679053e+00	 8.384180942335565e-01	 1.323698138958757e+01
 1.696977731618971e+00	 8.545652022884529e-01	 1.323845444424951e+01
 1.688776691147035e+00	 8.706598159064300e-01	 1.323635062715682e+01
 1.680410493911535e+00	 8.866994548012653e-01	 1.323096874292468e+01
 1.671879579978630e+00	 9.026816392357642e-01	 1.322257378119554e+01
 1.663184437983164e+00	 9.186038911805489e-01	 1.321139956975787e+01
 1.654325605246851e+00	 9.344637354817299e-01	 1.319765200701044e+01
 1.645303667863333e+00	 9.502587010363841e-01	 1.318151288323660e+01
 1.636119260749749e+00	 9.659863219747828e-01	 1.316314429663590e+01
 1.626773067664415e+00	 9.816441388482542e-01	 1.314269366636096e+01
 1.720836920606459e+00	 8.260391106600911e-01	 1.320503829624875e+01
 1.712930776388675e+00	 8.423114478814255e-01	 1.321107201854562e+01
 1.704857969995367e+00	 8.585335380991310e-01	 1.321314992263911e+01
 1.696618846434682e+00	 8.747028901119597e-01	 1.321161623950314e+01
 1.688213799173609e+00	 8.908170121160215e-01	 1.320677879557549e+01
 1.679643270321835e+00	 9.068734128590045e-01	 1.319891108218497e+01
 1.670907750783279e+00	 9.228696028043454e-01	 1.318825490707018e+01
 1.662007780374811e+00	 9.388030953043197e-01	 1.317502364151524e+01
 1.652943947911714e+00	 9.546714077809840e-01	 1.315940607322428e+01
 1.643716891259486e+00	 9.704720629138887e-01	 1.314157087144848e+01
 1.634327297351610e+00	 9.862025898334583e-01	 1.312167166707992e+01
 1.728791017299227e+00	 8.298572498922063e-01	 1.317924969502176e+01
 1.720848329098446e+00	 8.462048015294210e-01	 1.318572434497511e+01
 1.712738208371899e+00	 8.625018739099153e-01	 1.318824507538976e+01
 1.704461001722444e+00	 8.787459643175632e-01	 1.318715891860787e+01
 1.696017104435768e+00	 8.949345694308106e-01	 1.318277657646571e+01
 1.687406960665095e+00	 9.110651864822303e-01	 1.317537448439164e+01
 1.678631063583420e+00	 9.271353144280755e-01	 1.316519747279126e+01
 1.669689955502773e+00	 9.431424551267908e-01	 1.315246203998145e+01
 1.660584227960080e+00	 9.590841145254129e-01	 1.313736024744790e+01
 1.651314521769201e+00	 9.749578038527736e-01	 1.312006424449746e+01
 1.641881527038787e+00	 9.907610408183972e-01	 1.310073142548044e+01
 1.736745113992029e+00	 8.336753891243879e-01	 1.315449496930565e+01
 1.728765881808237e+00	 8.500981551774791e-01	 1.316113582685662e+01
 1.720618446748428e+00	 8.664702097207524e-01	 1.316387936383958e+01
 1.712303157010177e+00	 8.827890385232040e-01	 1.316306880389602e+01
 1.703820409697871e+00	 8.990521267456166e-01	 1.315901168370825e+01
 1.695170651008271e+00	 9.152569601054497e-01	 1.315198192333405e+01
 1.686354376383450e+00	 9.314010260517734e-01	 1.314222250870235e+01
 1.677372130630603e+00	 9.474818149492026e-01	 1.312994880126548e+01
 1.668224508008301e+00	 9.634968212697557e-01	 1.311535248622788e+01
 1.658912152278770e+00	 9.794435447915477e-01	 1.309860616697656e+01
 1.649435756725832e+00	 9.953194918032041e-01	 1.307986860933948e+01
 1.744699210684749e+00	 8.374935283565698e-01	 1.313103737875939e+01
 1.736683434517918e+00	 8.539915088255371e-01	 1.313750428567270e+01
 1.728498685124819e+00	 8.704385455315894e-01	 1.314019358156858e+01
 1.720145312297740e+00	 8.868321127288447e-01	 1.313943818370640e+01
 1.711623714959772e+00	 9.031696840604224e-01	 1.313553652800703e+01
 1.702934341351219e+00	 9.194487337286685e-01	 1.312875465695512e+01
 1.694077689183231e+00	 9.356667376754709e-01	 1.311932893422876e+01
 1.685054305758168e+00	 9.518211747716140e-01	 1.310746940178089e+01
 1.675864788056249e+00	 9.679095280140982e-01	 1.309336379143506e+01
 1.666509782788071e+00	 9.839292857303222e-01	 1.307718219916730e+01
 1.656989986412625e+00	 9.998779427880106e-01	 1.305908242614684e+01
 1.752653307377271e+00	 8.413116675886849e-01	 1.310913936373037e+01
 1.744600987227362e+00	 8.578848624735322e-01	 1.311502781228326e+01
 1.736378923500933e+00	 8.744068813423735e-01	 1.311732973280803e+01
 1.727987467584991e+00	 8.908751869344482e-01	 1.311636134992621e+01
 1.719427020221330e+00	 9.072872413752120e-01	 1.311240616724809e+01
 1.710698031693797e+00	 9.236405073518947e-01	 1.310571708393962e+01
 1.701801001982623e+00	 9.399324492992017e-01	 1.309651915228757e+01
 1.692736480885333e+00	 9.561605345940853e-01	 1.308501299271418e+01
 1.683505068103797e+00	 9.723222347585270e-01	 1.307137887894091e+01
 1.674107413296981e+00	 9.884150266692067e-01	 1.305578150201760e+01
 1.664544216099050e+00	 1.004436393772950e+00	 1.303837541772859e+01
 1.760607404069479e+00	 8.451298068206674e-01	 1.308906248033197e+01
 1.752518539936439e+00	 8.617782161214010e-01	 1.309390467164887e+01
 1.744259161876635e+00	 8.783752171530522e-01	 1.309543091036109e+01
 1.735829622871788e+00	 8.949182611399782e-01	 1.309393445270246e+01
 1.727230325482402e+00	 9.114047986899676e-01	 1.308967814163512e+01
 1.718461722035865e+00	 9.278322809751353e-01	 1.308289656294410e+01
 1.709524314781487e+00	 9.441981609229977e-01	 1.307379885631800e+01
 1.700418656011965e+00	 9.604998944166752e-01	 1.306257219859175e+01
 1.691145348150817e+00	 9.767349415031269e-01	 1.304938597248702e+01
 1.681705043805379e+00	 9.929007676083125e-01	 1.303439663010500e+01
 1.672098445784992e+00	 1.008994844758154e+00	 1.301775325611874e+01
 1.768561500761259e+00	 8.489479460524503e-01	 1.307056169112556e+01
 1.760436092645022e+00	 8.656715697690809e-01	 1.307433320643863e+01
 1.752139400251785e+00	 8.823435529635717e-01	 1.307464117304981e+01
 1.743671778157990e+00	 8.989613353453968e-01	 1.307225535522751e+01
 1.735033630742844e+00	 9.155223560046739e-01	 1.306741230935240e+01
 1.726225412377278e+00	 9.320240545983967e-01	 1.306032323271234e+01
 1.717247627579685e+00	 9.484638725468920e-01	 1.305117683845691e+01
 1.708100831137931e+00	 9.648392542394437e-01	 1.304014291715543e+01
 1.698785628197180e+00	 9.811476482479842e-01	 1.302737659892810e+01
 1.689302674313143e+00	 9.973865085477501e-01	 1.301302332594046e+01
 1.679652675470333e+00	 1.013553295743755e+00	 1.299722454063989e+01
 1.776515597452493e+00	 8.527660852839679e-01	 1.305066983772055e+01
 1.768353645352981e+00	 8.695649234165084e-01	 1.305606943452467e+01
 1.760019638626250e+00	 8.863118887738806e-01	 1.305510542270330e+01
 1.751513933443456e+00	 9.030044095506682e-01	 1.305142348859709e+01
 1.742836936002513e+00	 9.196399133193138e-01	 1.304567068273873e+01
 1.733989102717897e+00	 9.362158282216865e-01	 1.303802983304704e+01
 1.724970940377082e+00	 9.527295841709179e-01	 1.302866479882376e+01
 1.715783006263097e+00	 9.691786140624498e-01	 1.301772412050571e+01
 1.706425908242760e+00	 9.855603549931850e-01	 1.300534538480640e+01
 1.696900304820150e+00	 1.001872249487630e+00	 1.299166031557151e+01
 1.687206905154955e+00	 1.018111746729887e+00	 1.297680059615509e+01
 1.611664608290443e+00	 9.725272368765220e-01	 1.318501920674843e+01
 1.602245659614925e+00	 9.879680491332032e-01	 1.316137080270419e+01
 1.592667929744381e+00	 1.003334858087005e+00	 1.313560313830291e+01
 1.582932243324602e+00	 1.018625255233427e+00	 1.310771906137116e+01
 1.573039473094003e+00	 1.033836843225697e+00	 1.307773331743729e+01
 1.562990539726966e+00	 1.048967237061314e+00	 1.304568033657176e+01
 1.552786411642341e+00	 1.064014065267221e+00	 1.301162251048330e+01
 1.542428104777079e+00	 1.078974971082447e+00	 1.297565893331528e+01
 1.531916682324971e+00	 1.093847613636997e+00	 1.293793457550446e+01
 1.521253254440523e+00	 1.108629669125836e+00	 1.289864985603484e+01
 1.510438977908069e+00	 1.123318831976734e+00	 1.285807057445809e+01
 1.619218837977321e+00	 9.770856878626532e-01	 1.316380550192489e+01
 1.609755740599045e+00	 9.925988746330442e-01	 1.314075223901104e+01
 1.600133117783002e+00	 1.008037711230660e+00	 1.311560287942936e+01
 1.590351798040284e+00	 1.023399777861803e+00	 1.308835415115395e+01
 1.580412658200036e+00	 1.038682665942803e+00	 1.305901378800365e+01
 1.570316623252049e+00	 1.053883979292119e+00	 1.302760848249698e+01
 1.560064666154375e+00	 1.069001335321072e+00	 1.299419234787251e+01
 1.549657807605893e+00	 1.084032366222025e+00	 1.295885586234775e+01
 1.539097115783824e+00	 1.098974720152806e+00	 1.292173526448113e+01
 1.528383706046224e+00	 1.113826062416185e+00	 1.288302236434106e+01
 1.517518740599537e+00	 1.128584076633202e+00	 1.284297473110033e+01
 1.626773067664415e+00	 9.816441388482542e-01	 1.314269366636096e+01
 1.617265821583394e+00	 9.972297001322822e-01	 1.312021044239646e+01
 1.607598305821880e+00	 1.012740564373654e+00	 1.309564377029375e+01
 1.597771352756269e+00	 1.028174300489476e+00	 1.306898573978550e+01
 1.587785843306425e+00	 1.043528488659176e+00	 1.304023834299776e+01
 1.577642706777550e+00	 1.058800721522175e+00	 1.300942159211424e+01
 1.567342920666891e+00	 1.073988605374169e+00	 1.297658216586205e+01
 1.556887510435255e+00	 1.089089761360856e+00	 1.294180255752757e+01
 1.546277549243292e+00	 1.104101826667885e+00	 1.290521069287414e+01
 1.535514157652602e+00	 1.119022455705831e+00	 1.286698998203729e+01
 1.524598503291736e+00	 1.133849321289002e+00	 1.282738976525815e+01
 1.634327297351610e+00	 9.862025898334583e-01	 1.312167166707992e+01
 1.624775902567862e+00	 1.001860525631068e+00	 1.309975180115753e+01
 1.615063493860911e+00	 1.017443417516154e+00	 1.307574891636636e+01
 1.605190907472450e+00	 1.032948823116622e+00	 1.304965192826308e+01
 1.595159028413066e+00	 1.048374311375000e+00	 1.302145833870559e+01
 1.584968790303364e+00	 1.063717463751668e+00	 1.299118251712879e+01
 1.574621175179788e+00	 1.078975875426700e+00	 1.295886453105484e+01
 1.564117213265066e+00	 1.094147156499127e+00	 1.292457949819088e+01
 1.553457982703275e+00	 1.109228933182416e+00	 1.288844742799463e+01
 1.542644609259557e+00	 1.124218848994950e+00	 1.285064351615840e+01
 1.531678265984568e+00	 1.139114565944303e+00	 1.281140885111005e+01
 1.641881527038787e+00	 9.907610408183972e-01	 1.310073142548044e+01
 1.632285983552334e+00	 1.006491351129553e+00	 1.307938632082109e+01
 1.622528681899983e+00	 1.022146270658324e+00	 1.305594474650278e+01
 1.612610462188723e+00	 1.037723345743415e+00	 1.303039389104699e+01
 1.602532213519856e+00	 1.053220134090457e+00	 1.300272799942857e+01
 1.592294873829391e+00	 1.068634205980787e+00	 1.297295681677185e+01
 1.581899429692964e+00	 1.083963145478854e+00	 1.294111460246251e+01
 1.571346916095225e+00	 1.099204551637025e+00	 1.290726968667974e+01
 1.560638416163673e+00	 1.114356039696582e+00	 1.287153453674264e+01
 1.549775060866989e+00	 1.129415242283717e+00	 1.283407629609625e+01
 1.538758028677931e+00	 1.144379810599269e+00	 1.279512775427083e+01
 1.649435756725832e+00	 9.953194918032041e-01	 1.307986860933948e+01
 1.639796064536700e+00	 1.011122176627887e+00	 1.305912742124393e+01
 1.629993869938989e+00	 1.026849123800328e+00	 1.303626081452417e+01
 1.620030016904980e+00	 1.042497868370034e+00	 1.301125568149795e+01
 1.609905398626689e+00	 1.058065956805731e+00	 1.298410422615057e+01
 1.599620957355527e+00	 1.073550948209718e+00	 1.295481256906566e+01
 1.589177684206319e+00	 1.088950415530820e+00	 1.292340994473185e+01
 1.578576618925632e+00	 1.104261946774735e+00	 1.288995846288976e+01
 1.567818849624387e+00	 1.119483146210567e+00	 1.285456340083146e+01
 1.556905512474797e+00	 1.134611635572308e+00	 1.281738398885233e+01
 1.545837791371726e+00	 1.149645055254069e+00	 1.277864464642104e+01
 1.656989986412625e+00	 9.998779427880106e-01	 1.305908242614684e+01
 1.647306145520848e+00	 1.015753002126221e+00	 1.303899173485491e+01
 1.637459057977820e+00	 1.031551976942333e+00	 1.301672960177043e+01
 1.627449571621117e+00	 1.047272390996652e+00	 1.299228403814026e+01
 1.617278583733465e+00	 1.062911779521005e+00	 1.296564640590542e+01
 1.606947040881672e+00	 1.078467690438650e+00	 1.293682018268509e+01
 1.596455938719752e+00	 1.093937685582786e+00	 1.290583034188625e+01
 1.585806321756186e+00	 1.109319341912445e+00	 1.287273331927318e+01
 1.574999283085314e+00	 1.124610252724550e+00	 1.283762753243017e+01
 1.564035964082883e+00	 1.139808028860900e+00	 1.280066441469346e+01
 1.552917554065853e+00	 1.154910299908869e+00	 1.276205992034678e+01
 1.664544216099050e+00	 1.004436393772950e+00	 1.303837541772859e+01
 1.654816226504664e+00	 1.020383827624706e+00	 1.301899890600260e+01
 1.644924246016367e+00	 1.036254830084502e+00	 1.299738632059596e+01
 1.634869126337027e+00	 1.052046913623446e+00	 1.297352819172502e+01
 1.624651768840077e+00	 1.067757602236462e+00	 1.294741622182297e+01
 1.614273124407722e+00	 1.083384432667768e+00	 1.291905220939731e+01
 1.603734193233162e+00	 1.098924955634940e+00	 1.288845761156606e+01
 1.593036024586787e+00	 1.114376737050343e+00	 1.285568371628265e+01
 1.582179716546356e+00	 1.129737359238717e+00	 1.282082239021022e+01
 1.571166415691146e+00	 1.145004422149667e+00	 1.278401736319760e+01
 1.559997316760212e+00	 1.160175544563835e+00	 1.274547600537635e+01
 1.672098445784992e+00	 1.008994844758154e+00	 1.301775325611874e+01
 1.662326307488035e+00	 1.025014653123492e+00	 1.299917139137321e+01
 1.652389434054523e+00	 1.040957683227002e+00	 1.297826871877765e+01
 1.642288681052605e+00	 1.056821436250591e+00	 1.295503967306803e+01
 1.632024953946423e+00	 1.072603424952286e+00	 1.292947746383168e+01
 1.621599207933577e+00	 1.088301174897262e+00	 1.290158315706089e+01
 1.611012447746446e+00	 1.103912225687471e+00	 1.287137541975140e+01
 1.600265727417335e+00	 1.119434132188614e+00	 1.283890089824160e+01
 1.589360150007411e+00	 1.134864465753248e+00	 1.280424519578365e+01
 1.578296867299485e+00	 1.150200815438786e+00	 1.276754440967638e+01
 1.567077079454702e+00	 1.165440789219135e+00	 1.272899718320172e+01
 1.679652675470333e+00	 1.013553295743755e+00	 1.299722454063989e+01
 1.669836388470852e+00	 1.029645478622731e+00	 1.297953426144546e+01
 1.659854622092178e+00	 1.045660536369997e+00	 1.295941688480691e+01
 1.649708235767744e+00	 1.061595958878264e+00	 1.293687212163752e+01
 1.639398139052400e+00	 1.077449247668659e+00	 1.291189583999751e+01
 1.628925291459133e+00	 1.093217917127318e+00	 1.288448930316640e+01
 1.618290702259505e+00	 1.108899495740568e+00	 1.285466909595244e+01
 1.607495430247728e+00	 1.124491527327446e+00	 1.282247770962824e+01
 1.596540583468382e+00	 1.139991572268327e+00	 1.278799475052104e+01
 1.585427318907801e+00	 1.155397208728432e+00	 1.275134873196450e+01
 1.574156842149224e+00	 1.170706033874936e+00	 1.271272940407272e+01
 1.687206905154955e+00	 1.018111746729887e+00	 1.297680059615509e+01
 1.677346469453000e+00	 1.034276304122572e+00	 1.296011500294972e+01
 1.667319810129224e+00	 1.050363389513653e+00	 1.294087305403769e+01
 1.657127790482340e+00	 1.066370481506641e+00	 1.291908109486880e+01
 1.646771324157903e+00	 1.082295070385765e+00	 1.289473878847897e+01
 1.636251374984289e+00	 1.098134659358124e+00	 1.286784850890265e+01
 1.625568956772238e+00	 1.113886765794420e+00	 1.283842544885281e+01
 1.614725133077868e+00	 1.129548922467025e+00	 1.280650841175953e+01
 1.603721016929166e+00	 1.145118678784137e+00	 1.277217125273659e+01
 1.592557770515995e+00	 1.160593602018781e+00	 1.273553492756244e+01
 1.581236604843679e+00	 1.175971278531404e+00	 1.269678010335161e+01
 1.510438977908069e+00	 1.123318831976734e+00	 1.285807057445809e+01
 1.499473180174970e+00	 1.137915287531046e+00	 1.281439709556606e+01
 1.488358941701999e+00	 1.152414256790601e+00	 1.276613132028745e+01
 1.477097563724953e+00	 1.166813486306054e+00	 1.271410811923727e+01
 1.465690392502321e+00	 1.181110745424474e+00	 1.265927520595574e+01
 1.454138818810631e+00	 1.195303827413987e+00	 1.260225915054581e+01
 1.442444277406394e+00	 1.209390550575254e+00	 1.254299177089827e+01
 1.430608246455096e+00	 1.223368759338615e+00	 1.248131532730265e+01
 1.418632246927650e+00	 1.237236325345754e+00	 1.241704859583213e+01
 1.406517841964842e+00	 1.250991148514776e+00	 1.234998637696368e+01
 1.394266636210279e+00	 1.264631158087561e+00	 1.227989905691769e+01
 1.517518740599537e+00	 1.128584076633202e+00	 1.284297473110032e+01
 1.506501543738727e+00	 1.143248949013946e+00	 1.279984087862035e+01
 1.495335210363370e+00	 1.157815878160022e+00	 1.275217359975816e+01
 1.484021047808442e+00	 1.172282600059670e+00	 1.270080521558640e+01
 1.472560408642650e+00	 1.186646873604397e+00	 1.264673068958914e+01
 1.460954690161394e+00	 1.200906481718889e+00	 1.259053971110920e+01
 1.449205333846210e+00	 1.215059232477700e+00	 1.253211520139726e+01
 1.437313824791073e+00	 1.229102960207538e+00	 1.247129230601201e+01
 1.425281691096022e+00	 1.243035526574004e+00	 1.240788210678838e+01
 1.413110503228631e+00	 1.256854821651652e+00	 1.234167109921798e+01
 1.400801873353830e+00	 1.270558764976264e+00	 1.227242072279667e+01
 1.524598503291736e+00	 1.133849321289002e+00	 1.282738976525815e+01
 1.513529907303260e+00	 1.148582610496222e+00	 1.278470562676907e+01
 1.502311479025553e+00	 1.163217499528870e+00	 1.273753884695697e+01
 1.490944531892771e+00	 1.177751713812772e+00	 1.268672005531734e+01
 1.479430424783833e+00	 1.192183001783869e+00	 1.263345373193556e+01
 1.467770561513018e+00	 1.206509136023409e+00	 1.257811326852504e+01
 1.455966390286883e+00	 1.220727914379837e+00	 1.252054902821337e+01
 1.444019403127893e+00	 1.234837161076229e+00	 1.246058728599435e+01
 1.431931135265215e+00	 1.248834727802100e+00	 1.239802963111948e+01
 1.419703164493211e+00	 1.262718494788459e+00	 1.233265241433842e+01
 1.407337110498131e+00	 1.276486371864982e+00	 1.226420624835649e+01
 1.531678265984568e+00	 1.139114565944303e+00	 1.281140885111005e+01
 1.520558270868471e+00	 1.153916271978030e+00	 1.276908573306324e+01
 1.509287747688447e+00	 1.168619120897289e+00	 1.272232226565918e+01
 1.497868015977838e+00	 1.183220827565488e+00	 1.267205597794800e+01
 1.486300440925771e+00	 1.197719129963005e+00	 1.261965122573683e+01
 1.474586432865403e+00	 1.212111790327644e+00	 1.256518380197190e+01
 1.462727446728315e+00	 1.226396596281746e+00	 1.250849409813383e+01
 1.450724981465461e+00	 1.240571361944754e+00	 1.244939778254063e+01
 1.438580579435138e+00	 1.254633929030095e+00	 1.238768517367295e+01
 1.426295825758493e+00	 1.268582167925229e+00	 1.232312065833635e+01
 1.413872347643098e+00	 1.282413978753733e+00	 1.225544216329455e+01
 1.538758028677931e+00	 1.144379810599269e+00	 1.279512775427083e+01
 1.527586634434259e+00	 1.159249933459527e+00	 1.275307828366568e+01
 1.516264016351956e+00	 1.174020742265423e+00	 1.270662187289150e+01
 1.504791500063544e+00	 1.188689941317948e+00	 1.265704094133329e+01
 1.493170457068364e+00	 1.203255258141917e+00	 1.260552423062992e+01
 1.481402304218453e+00	 1.217714444631694e+00	 1.255194952161472e+01
 1.469488503170413e+00	 1.232065278183510e+00	 1.249614556006871e+01
 1.457430559803687e+00	 1.246305562813177e+00	 1.243791569091180e+01
 1.445230023605701e+00	 1.260433130258036e+00	 1.237703720349242e+01
 1.432888487024391e+00	 1.274445841061997e+00	 1.231326072169959e+01
 1.420407584788649e+00	 1.288341585642535e+00	 1.224630964779601e+01
 1.545837791371726e+00	 1.149645055254069e+00	 1.277864464642104e+01
 1.534614998000523e+00	 1.164583594940868e+00	 1.273678287151744e+01
 1.523240285015977e+00	 1.179422363633412e+00	 1.269057635800703e+01
 1.511714984149790e+00	 1.194159055070281e+00	 1.264187278737439e+01
 1.500040473211515e+00	 1.208791386320720e+00	 1.259126802521086e+01
 1.488218175572069e+00	 1.223317098935656e+00	 1.253860291919486e+01
 1.476249559613076e+00	 1.237733960085210e+00	 1.248369291394055e+01
 1.464136138142472e+00	 1.252039763681564e+00	 1.242632733330868e+01
 1.451879467776811e+00	 1.266232331485970e+00	 1.236626869865916e+01
 1.439481148290814e+00	 1.280309514198792e+00	 1.230325209190358e+01
 1.426942821934699e+00	 1.294269192531402e+00	 1.223698457252477e+01
 1.552917554065853e+00	 1.154910299908869e+00	 1.276205992034678e+01
 1.541643361567165e+00	 1.169917256422209e+00	 1.272030141043566e+01
 1.530216553680411e+00	 1.184823985001404e+00	 1.267451842095704e+01
 1.518638468236475e+00	 1.199628168822615e+00	 1.262674357525677e+01
 1.506910489355124e+00	 1.214327514499528e+00	 1.257707215962586e+01
 1.495034046926153e+00	 1.228919753239628e+00	 1.252533081918891e+01
 1.483010616056212e+00	 1.243402641986929e+00	 1.247132006018740e+01
 1.470841716481725e+00	 1.257773964549979e+00	 1.241481350650552e+01
 1.458528911948376e+00	 1.272031532713947e+00	 1.235555719184996e+01
 1.446073809557678e+00	 1.286173187335648e+00	 1.229326889669791e+01
 1.433478059081167e+00	 1.300196799420353e+00	 1.222763753945059e+01
 1.559997316760212e+00	 1.160175544563835e+00	 1.274547600537635e+01
 1.548671725134085e+00	 1.175250917903706e+00	 1.270373794962984e+01
 1.537192822345158e+00	 1.190225606369539e+00	 1.265866094616554e+01
 1.525561952323501e+00	 1.205097282575082e+00	 1.261183963571684e+01
 1.513780505499092e+00	 1.219863642678457e+00	 1.256312050867249e+01
 1.501849918280609e+00	 1.234522407543708e+00	 1.251231443051711e+01
 1.489771672499723e+00	 1.249071323888746e+00	 1.245920534986065e+01
 1.477547294821350e+00	 1.263508165418487e+00	 1.240354953012648e+01
 1.465178356120306e+00	 1.277830733942015e+00	 1.234507481659050e+01
 1.452666470824892e+00	 1.292036860472597e+00	 1.228347994814275e+01
 1.440013296227967e+00	 1.306124406309403e+00	 1.221843392348465e+01
 1.567077079454702e+00	 1.165440789219135e+00	 1.272899718320172e+01
 1.555700088701180e+00	 1.180584579385515e+00	 1.268730632584492e+01
 1.544169091010119e+00	 1.195627227737962e+00	 1.264318677403289e+01
 1.532485436410767e+00	 1.210566396327809e+00	 1.259734162576900e+01
 1.520650521643320e+00	 1.225399770857619e+00	 1.254959132539467e+01
 1.508665789635336e+00	 1.240125061847996e+00	 1.249972939878486e+01
 1.496532728943512e+00	 1.254740005790745e+00	 1.244752163529799e+01
 1.484252873161254e+00	 1.269242366287154e+00	 1.239270529554384e+01
 1.471827800292510e+00	 1.283629935170223e+00	 1.233498835418053e+01
 1.459259132092370e+00	 1.297900533609671e+00	 1.227404878737223e+01
 1.446548533375018e+00	 1.312052013198571e+00	 1.220953391489941e+01
 1.574156842149224e+00	 1.170706033874936e+00	 1.271272940407272e+01
 1.562728452268355e+00	 1.185918240867792e+00	 1.267140038992627e+01
 1.551145359675193e+00	 1.201028849106815e+00	 1.262827308209724e+01
 1.539408920498175e+00	 1.216035510080927e+00	 1.258342458387763e+01
 1.527520537787710e+00	 1.230935899037128e+00	 1.253665729515660e+01
 1.515481660990239e+00	 1.245727716152589e+00	 1.248774585904016e+01
 1.503293785387483e+00	 1.260408687693009e+00	 1.243643632135428e+01
 1.490958451501341e+00	 1.274976567156046e+00	 1.238244531537946e+01
 1.478477244464895e+00	 1.289429136398619e+00	 1.232545928127134e+01
 1.465851793360023e+00	 1.303764206746903e+00	 1.226513373006048e+01
 1.453083770522235e+00	 1.317979620087872e+00	 1.220109256250661e+01
 1.581236604843679e+00	 1.175971278531404e+00	 1.269678010335161e+01
 1.569756815835507e+00	 1.191251902350693e+00	 1.265620308768609e+01
 1.558121628340282e+00	 1.206430470476242e+00	 1.261409144148364e+01
 1.546332404585625e+00	 1.221504623834564e+00	 1.257025798556082e+01
 1.534390553932164e+00	 1.236472027217100e+00	 1.252448559017996e+01
 1.522297532345219e+00	 1.251330370457584e+00	 1.247652848903081e+01
 1.510054841831539e+00	 1.266077369595616e+00	 1.242611141717196e+01
 1.497664029841520e+00	 1.280710768025226e+00	 1.237292877358971e+01
 1.485126688637370e+00	 1.295228337627252e+00	 1.231664381807376e+01
 1.472444454627765e+00	 1.309627879884325e+00	 1.225688791257005e+01
 1.459619007669536e+00	 1.323907226977324e+00	 1.219325981757057e+01
 1.394266636210279e+00	 1.264631158087561e+00	 1.227989905691769e+01
 1.381882388279096e+00	 1.278152028692061e+00	 1.220749545366276e+01
 1.369364693565589e+00	 1.291554099037546e+00	 1.213349183600498e+01
 1.356715253971548e+00	 1.304835415480692e+00	 1.205767185972231e+01
 1.343935809905084e+00	 1.317994057669907e+00	 1.197979774320196e+01
 1.331028139477010e+00	 1.331028139477010e+00	 1.189961007076745e+01
 1.317994057669907e+00	 1.343935809905085e+00	 1.181682768964594e+01
 1.304835415480692e+00	 1.356715253971548e+00	 1.173114770854036e+01
 1.291554099037545e+00	 1.369364693565589e+00	 1.164224560552178e+01
 1.278152028692060e+00	 1.381882388279097e+00	 1.154977545264369e+01
 1.264631158087562e+00	 1.394266636210279e+00	 1.145337026429576e+01
 1.400801873353830e+00	 1.270558764976264e+00	 1.227242072279667e+01
 1.388359577704215e+00	 1.284143010901814e+00	 1.220086019054589e+01
 1.375783209777603e+00	 1.297607899725179e+00	 1.212773000536583e+01
 1.363074479452979e+00	 1.310951468645877e+00	 1.205280903037990e+01
 1.350235135296129e+00	 1.324171788311199e+00	 1.197585375047614e+01
 1.337266963752267e+00	 1.337266963752267e+00	 1.189659804000432e+01
 1.324171788311199e+00	 1.350235135296129e+00	 1.181475302634230e+01
 1.310951468645877e+00	 1.363074479452979e+00	 1.173000705762487e+01
 1.297607899725179e+00	 1.375783209777604e+00	 1.164202578268058e+01
 1.284143010901814e+00	 1.388359577704215e+00	 1.155045235090196e+01
 1.270558764976264e+00	 1.400801873353830e+00	 1.145490773938980e+01
 1.407337110498131e+00	 1.276486371864982e+00	 1.226420624835649e+01
 1.394836767130033e+00	 1.290133993111668e+00	 1.219343935946752e+01
 1.382201725990261e+00	 1.303661700412999e+00	 1.212111877821832e+01
 1.369433704934989e+00	 1.317067521811333e+00	 1.204702232576986e+01
 1.356534460687683e+00	 1.330349518952845e+00	 1.197090466731174e+01
 1.343505788027957e+00	 1.343505788027958e+00	 1.189249703711266e+01
 1.330349518952846e+00	 1.356534460687683e+00	 1.181150706141441e+01
 1.317067521811333e+00	 1.369433704934989e+00	 1.172761868781054e+01
 1.303661700412999e+00	 1.382201725990261e+00	 1.164049222950126e+01
 1.290133993111668e+00	 1.394836767130033e+00	 1.154976453250029e+01
 1.276486371864982e+00	 1.407337110498131e+00	 1.145504927347252e+01
 1.413872347643098e+00	 1.282413978753733e+00	 1.225544216329454e+01
 1.401313956556475e+00	 1.296124975321627e+00	 1.218541683170506e+01
 1.388620242203491e+00	 1.309715501100996e+00	 1.211384174887925e+01
 1.375792930417513e+00	 1.323183574977036e+00	 1.204049738883964e+01
 1.362833786079690e+00	 1.336527249594811e+00	 1.196514045329758e+01
 1.349744612304036e+00	 1.349744612304036e+00	 1.188750354705487e+01
 1.336527249594811e+00	 1.362833786079690e+00	 1.180729495296683e+01
 1.323183574977036e+00	 1.375792930417513e+00	 1.172419851547545e+01
 1.309715501100996e+00	 1.388620242203492e+00	 1.163787364147312e+01
 1.296124975321626e+00	 1.401313956556475e+00	 1.154795542693932e+01
 1.282413978753734e+00	 1.413872347643098e+00	 1.145405491739260e+01
 1.420407584788649e+00	 1.288341585642535e+00	 1.224630964779601e+01
 1.407791145983461e+00	 1.302115957531690e+00	 1.217697120717885e+01
 1.395038758417221e+00	 1.315769301789156e+00	 1.210607727799273e+01
 1.382152155900488e+00	 1.329299628142963e+00	 1.203341462719557e+01
 1.369133111472095e+00	 1.342704980237059e+00	 1.195874579281947e+01
 1.355983436580455e+00	 1.355983436580455e+00	 1.188180870273043e+01
 1.342704980237059e+00	 1.369133111472094e+00	 1.180231639441386e+01
 1.329299628142963e+00	 1.382152155900489e+00	 1.171995684518005e+01
 1.315769301789156e+00	 1.395038758417222e+00	 1.163439292193880e+01
 1.302115957531690e+00	 1.407791145983461e+00	 1.154526245937317e+01
 1.288341585642535e+00	 1.420407584788649e+00	 1.145217847494069e+01
 1.426942821934699e+00	 1.294269192531402e+00	 1.223698457252477e+01
 1.414268335410914e+00	 1.308106939741863e+00	 1.216827585227522e+01
 1.401457274631381e+00	 1.321823102477469e+00	 1.209799852905620e+01
 1.388511381383852e+00	 1.335415681309091e+00	 1.202594924918321e+01
 1.375432436864842e+00	 1.348882710879555e+00	 1.195190013152073e+01
 1.362222260857169e+00	 1.362222260857169e+00	 1.187559832261918e+01
 1.348882710879555e+00	 1.375432436864842e+00	 1.179676565408568e+01
 1.335415681309090e+00	 1.388511381383852e+00	 1.171509841198960e+01
 1.321823102477469e+00	 1.401457274631381e+00	 1.163026722786192e+01
 1.308106939741863e+00	 1.414268335410915e+00	 1.154191710052555e+01
 1.294269192531402e+00	 1.426942821934699e+00	 1.144966755759170e+01
 1.433478059081167e+00	 1.300196799420353e+00	 1.222763753945059e+01
 1.420745524838758e+00	 1.314097921952147e+00	 1.215949893855357e+01
 1.407875790845899e+00	 1.327876903165925e+00	 1.208977350585583e+01
 1.394870606867539e+00	 1.341531734475394e+00	 1.201827130087436e+01
 1.381731762257876e+00	 1.355060441522263e+00	 1.194477771364429e+01
 1.368461085134135e+00	 1.368461085134135e+00	 1.186905294925835e+01
 1.355060441522264e+00	 1.381731762257876e+00	 1.179083161559567e+01
 1.341531734475394e+00	 1.394870606867540e+00	 1.170982242446418e+01
 1.327876903165925e+00	 1.407875790845899e+00	 1.162570801614772e+01
 1.314097921952146e+00	 1.420745524838758e+00	 1.153814491702253e+01
 1.300196799420352e+00	 1.433478059081167e+00	 1.144676363950743e+01
 1.440013296227967e+00	 1.306124406309403e+00	 1.221843392348465e+01
 1.427222714266913e+00	 1.320088904162543e+00	 1.215080348231137e+01
 1.414294307060703e+00	 1.333930703854511e+00	 1.208156509078156e+01
 1.401229832351486e+00	 1.347647787641850e+00	 1.201054570393433e+01
 1.388031087651143e+00	 1.361238172165149e+00	 1.193754762023009e+01
 1.374699909411304e+00	 1.374699909411304e+00	 1.186234788852688e+01
 1.361238172165149e+00	 1.388031087651143e+00	 1.178469781894547e+01
 1.347647787641850e+00	 1.401229832351486e+00	 1.170432260829501e+01
 1.333930703854511e+00	 1.414294307060703e+00	 1.162092109049735e+01
 1.320088904162542e+00	 1.427222714266913e+00	 1.153416562212881e+01
 1.306124406309403e+00	 1.440013296227967e+00	 1.144370211279110e+01
 1.446548533375018e+00	 1.312052013198571e+00	 1.220953391489941e+01
 1.433699903695301e+00	 1.326079886373054e+00	 1.214234738497851e+01
 1.420712823275722e+00	 1.339984504543216e+00	 1.207353108399490e+01
 1.407589057835629e+00	 1.353763840808436e+00	 1.200293229433955e+01
 1.394330413044587e+00	 1.367415902808178e+00	 1.193037380813954e+01
 1.380938733688632e+00	 1.380938733688631e+00	 1.185565324971053e+01
 1.367415902808178e+00	 1.394330413044587e+00	 1.177854250234421e+01
 1.353763840808435e+00	 1.407589057835629e+00	 1.169878725056700e+01
 1.339984504543216e+00	 1.420712823275722e+00	 1.161610664878044e+01
 1.326079886373053e+00	 1.433699903695301e+00	 1.153019312687252e+01
 1.312052013198571e+00	 1.446548533375018e+00	 1.144071234298561e+01
 1.453083770522235e+00	 1.317979620087872e+00	 1.220109256250661e+01
 1.440177093123845e+00	 1.332070868583682e+00	 1.213428347431568e+01
 1.427131339490886e+00	 1.346038305232031e+00	 1.206582424342202e+01
 1.413948283319904e+00	 1.359879893975125e+00	 1.199558586192035e+01
 1.400629738438151e+00	 1.373593633451312e+00	 1.192341514988158e+01
 1.387177557966071e+00	 1.387177557966071e+00	 1.184913398632543e+01
 1.373593633451312e+00	 1.400629738438151e+00	 1.177253864471949e+01
 1.359879893975124e+00	 1.413948283319904e+00	 1.169339924462779e+01
 1.346038305232029e+00	 1.427131339490886e+00	 1.161145933090907e+01
 1.332070868583682e+00	 1.440177093123845e+00	 1.152643559154927e+01
 1.317979620087872e+00	 1.453083770522235e+00	 1.143801772480702e+01
 1.459619007669536e+00	 1.323907226977324e+00	 1.219325981757056e+01
 1.446654282552467e+00	 1.338061850794431e+00	 1.212675954639132e+01
 1.433549855706123e+00	 1.352092105920942e+00	 1.205859232554617e+01
 1.420307508804248e+00	 1.365995947141896e+00	 1.198865619070170e+01
 1.406929063831782e+00	 1.379771364094519e+00	 1.191682547421496e+01
 1.393416382243579e+00	 1.393416382243579e+00	 1.184294993767308e+01
 1.379771364094519e+00	 1.406929063831782e+00	 1.176685400889801e+01
 1.365995947141896e+00	 1.420307508804248e+00	 1.168833613554339e+01
 1.352092105920941e+00	 1.433549855706123e+00	 1.160716826719752e+01
 1.338061850794431e+00	 1.446654282552468e+00	 1.152309547759130e+01
 1.323907226977324e+00	 1.459619007669536e+00	 1.143583573810787e+01
 1.264631158087562e+00	 1.394266636210279e+00	 1.145337026429576e+01
 1.250991148514777e+00	 1.406517841964841e+00	 1.135407780526545e+01
 1.237236325345755e+00	 1.418632246927651e+00	 1.125337196557725e+01
 1.223368759338615e+00	 1.430608246455096e+00	 1.115144878554456e+01
 1.209390550575255e+00	 1.442444277406394e+00	 1.104849046612178e+01
 1.195303827413988e+00	 1.454138818810630e+00	 1.094466553398022e+01
 1.181110745424474e+00	 1.465690392502321e+00	 1.084012915924050e+01
 1.166813486306055e+00	 1.477097563724952e+00	 1.073407372596715e+01
 1.152414256790601e+00	 1.488358941701999e+00	 1.062353235554020e+01
 1.137915287531047e+00	 1.499473180174970e+00	 1.050811684094354e+01
 1.123318831976734e+00	 1.510438977908068e+00	 1.038757856919584e+01
 1.270558764976264e+00	 1.400801873353830e+00	 1.145490773938980e+01
 1.256854821651652e+00	 1.413110503228630e+00	 1.135647194916462e+01
 1.243035526574004e+00	 1.425281691096021e+00	 1.125662846491515e+01
 1.229102960207538e+00	 1.437313824791072e+00	 1.115552654634970e+01
 1.215059232477701e+00	 1.449205333846210e+00	 1.105330115945977e+01
 1.200906481718890e+00	 1.460954690161393e+00	 1.095007317973902e+01
 1.186646873604398e+00	 1.472560408642650e+00	 1.084594975216943e+01
 1.172282600059671e+00	 1.484021047808442e+00	 1.074085224228393e+01
 1.157815878160022e+00	 1.495335210363369e+00	 1.063194973175903e+01
 1.143248949013947e+00	 1.506501543738727e+00	 1.051804126680549e+01
 1.128584076633202e+00	 1.517518740599537e+00	 1.039883712203160e+01
 1.276486371864982e+00	 1.407337110498131e+00	 1.145504927347251e+01
 1.262718494788460e+00	 1.419703164493210e+00	 1.135746458229658e+01
 1.248834727802101e+00	 1.431931135265215e+00	 1.125850382293508e+01
 1.234837161076230e+00	 1.444019403127892e+00	 1.115826566373869e+01
 1.220727914379838e+00	 1.455966390286883e+00	 1.105683375068745e+01
 1.206509136023409e+00	 1.467770561513017e+00	 1.095427695415719e+01
 1.192183001783870e+00	 1.479430424783833e+00	 1.085064977697083e+01
 1.177751713812773e+00	 1.490944531892771e+00	 1.074599292812958e+01
 1.163217499528870e+00	 1.502311479025552e+00	 1.063867581555498e+01
 1.148582610496223e+00	 1.513529907303260e+00	 1.052623361112060e+01
 1.133849321289002e+00	 1.524598503291737e+00	 1.040831482593204e+01
 1.282413978753734e+00	 1.413872347643098e+00	 1.145405491739260e+01
 1.268582167925230e+00	 1.426295825758493e+00	 1.135733181414892e+01
 1.254633929030096e+00	 1.438580579435138e+00	 1.125928726668774e+01
 1.240571361944754e+00	 1.450724981465461e+00	 1.115996559034523e+01
 1.226396596281747e+00	 1.462727446728315e+00	 1.105939507693962e+01
 1.212111790327645e+00	 1.474586432865403e+00	 1.095758829040627e+01
 1.197719129963005e+00	 1.486300440925770e+00	 1.085454252864177e+01
 1.183220827565489e+00	 1.497868015977837e+00	 1.075024045611806e+01
 1.168619120897289e+00	 1.509287747688448e+00	 1.064409356961123e+01
 1.153916271978031e+00	 1.520558270868470e+00	 1.053306724274861e+01
 1.139114565944302e+00	 1.531678265984568e+00	 1.041637302324746e+01
 1.288341585642535e+00	 1.420407584788649e+00	 1.145217847494070e+01
 1.274445841061997e+00	 1.432888487024390e+00	 1.135634327914472e+01
 1.260433130258036e+00	 1.445230023605700e+00	 1.125926137873272e+01
 1.246305562813177e+00	 1.457430559803686e+00	 1.116091902266642e+01
 1.232065278183511e+00	 1.469488503170412e+00	 1.106128516451473e+01
 1.217714444631694e+00	 1.481402304218452e+00	 1.096031181219331e+01
 1.203255258141917e+00	 1.493170457068364e+00	 1.085793454924505e+01
 1.188689941317948e+00	 1.504791500063543e+00	 1.075407323238565e+01
 1.174020742265423e+00	 1.516264016351956e+00	 1.064858023822093e+01
 1.159249933459528e+00	 1.527586634434258e+00	 1.053891034095342e+01
 1.144379810599269e+00	 1.538758028677931e+00	 1.042336845561105e+01
 1.294269192531402e+00	 1.426942821934699e+00	 1.144966755759170e+01
 1.280309514198793e+00	 1.439481148290814e+00	 1.135476219585911e+01
 1.266232331485971e+00	 1.451879467776810e+00	 1.125870215947348e+01
 1.252039763681564e+00	 1.464136138142472e+00	 1.116141196518952e+01
 1.237733960085210e+00	 1.476249559613076e+00	 1.106279729348951e+01
 1.223317098935656e+00	 1.488218175572068e+00	 1.096274539758374e+01
 1.208791386320720e+00	 1.500040473211514e+00	 1.086112568968738e+01
 1.194159055070281e+00	 1.511714984149789e+00	 1.075779050945791e+01
 1.179422363633414e+00	 1.523240285015977e+00	 1.065257607848939e+01
 1.164583594940869e+00	 1.534614998000523e+00	 1.054412558642447e+01
 1.149645055254069e+00	 1.545837791371726e+00	 1.042965295627602e+01
 1.300196799420352e+00	 1.433478059081167e+00	 1.144676363950743e+01
 1.286173187335648e+00	 1.446073809557677e+00	 1.135284542634597e+01
 1.272031532713948e+00	 1.458528911948376e+00	 1.125787908949408e+01
 1.257773964549979e+00	 1.470841716481724e+00	 1.116172379444147e+01
 1.243402641986929e+00	 1.483010616056212e+00	 1.106421806221226e+01
 1.228919753239628e+00	 1.495034046926153e+00	 1.096518024269582e+01
 1.214327514499529e+00	 1.506910489355123e+00	 1.086440917139529e+01
 1.199628168822616e+00	 1.518638468236475e+00	 1.076168501463583e+01
 1.184823985001405e+00	 1.530216553680411e+00	 1.065677030725833e+01
 1.169917256422210e+00	 1.541643361567165e+00	 1.054906985246311e+01
 1.154910299908869e+00	 1.552917554065853e+00	 1.043557314276534e+01
 1.306124406309403e+00	 1.440013296227967e+00	 1.144370211279110e+01
 1.292036860472598e+00	 1.452666470824892e+00	 1.135084353557423e+01
 1.277830733942016e+00	 1.465178356120306e+00	 1.125705519189335e+01
 1.263508165418488e+00	 1.477547294821350e+00	 1.116212732296465e+01
 1.249071323888747e+00	 1.489771672499722e+00	 1.106582745168300e+01
 1.234522407543709e+00	 1.501849918280608e+00	 1.096790092527076e+01
 1.219863642678458e+00	 1.513780505499092e+00	 1.086807164789076e+01
 1.205097282575082e+00	 1.525561952323500e+00	 1.076604300841547e+01
 1.190225606369540e+00	 1.537192822345158e+00	 1.066149900751294e+01
 1.175250917903707e+00	 1.548671725134084e+00	 1.055409389632487e+01
 1.160175544563835e+00	 1.559997316760212e+00	 1.044147010982579e+01
 1.312052013198571e+00	 1.446548533375018e+00	 1.144071234298560e+01
 1.297900533609672e+00	 1.459259132092369e+00	 1.134900085096953e+01
 1.283629935170224e+00	 1.471827800292509e+00	 1.125648709462181e+01
 1.269242366287155e+00	 1.484252873161254e+00	 1.116288886322045e+01
 1.254740005790747e+00	 1.496532728943512e+00	 1.106789888981968e+01
 1.240125061847997e+00	 1.508665789635337e+00	 1.097118546812398e+01
 1.225399770857620e+00	 1.520650521643320e+00	 1.087239326626980e+01
 1.210566396327810e+00	 1.532485436410767e+00	 1.077114434286549e+01
 1.195627227737962e+00	 1.544169091010119e+00	 1.066703936957246e+01
 1.180584579385516e+00	 1.555700088701180e+00	 1.055965906339013e+01
 1.165440789219135e+00	 1.567077079454702e+00	 1.044767912267473e+01
 1.317979620087872e+00	 1.453083770522235e+00	 1.143801772480702e+01
 1.303764206746904e+00	 1.465851793360023e+00	 1.134755552205697e+01
 1.289429136398620e+00	 1.478477244464894e+00	 1.125642509281717e+01
 1.274976567156046e+00	 1.490958451501341e+00	 1.116426829142231e+01
 1.260408687693009e+00	 1.503293785387482e+00	 1.107069931561757e+01
 1.245727716152589e+00	 1.515481660990238e+00	 1.097530540247886e+01
 1.230935899037129e+00	 1.527520537787710e+00	 1.087764772858772e+01
 1.216035510080927e+00	 1.539408920498174e+00	 1.077726251996202e+01
 1.201028849106816e+00	 1.551145359675193e+00	 1.067366237615320e+01
 1.185918240867793e+00	 1.562728452268355e+00	 1.056633781176654e+01
 1.170706033874936e+00	 1.574156842149224e+00	 1.045452931053223e+01
 1.323907226977324e+00	 1.459619007669536e+00	 1.143583573810787e+01
 1.309627879884325e+00	 1.472444454627764e+00	 1.134673958020293e+01
 1.295228337627253e+00	 1.485126688637369e+00	 1.125711321113986e+01
 1.280710768025226e+00	 1.497664029841519e+00	 1.116651911130224e+01
 1.266077369595616e+00	 1.510054841831538e+00	 1.107448924320281e+01
 1.251330370457585e+00	 1.522297532345218e+00	 1.098052583119004e+01
 1.236472027217101e+00	 1.534390553932163e+00	 1.088410235315372e+01
 1.221504623834565e+00	 1.546332404585624e+00	 1.078466474988378e+01
 1.206430470476243e+00	 1.558121628340281e+00	 1.068163285661730e+01
 1.191251902350694e+00	 1.569756815835506e+00	 1.057440206012210e+01
 1.175971278531404e+00	 1.581236604843679e+00	 1.046234336042869e+01
 1.123318831976734e+00	 1.510438977908068e+00	 1.038757856919585e+01
 1.108629669125836e+00	 1.521253254440523e+00	 1.026595728702039e+01
 1.093847613636997e+00	 1.531916682324970e+00	 1.014682705983113e+01
 1.078974971082447e+00	 1.542428104777079e+00	 1.002924635648094e+01
 1.064014065267222e+00	 1.552786411642340e+00	 9.912270467413689e+00
 1.048967237061315e+00	 1.562990539726966e+00	 9.794967587478407e+00
 1.033836843225698e+00	 1.573039473094003e+00	 9.676434463251736e+00
 1.018625255233428e+00	 1.582932243324601e+00	 9.555811503423493e+00
 1.003334858087006e+00	 1.592667929744381e+00	 9.432297255471289e+00
 9.879680491332047e-01	 1.602245659614925e+00	 9.305162157090887e+00
 9.725272368765219e-01	 1.611664608290443e+00	 9.173761476610050e+00
 1.128584076633202e+00	 1.517518740599537e+00	 1.039883712203160e+01
 1.113826062416185e+00	 1.528383706046224e+00	 1.027837887794877e+01
 1.098974720152806e+00	 1.539097115783824e+00	 1.016027782643143e+01
 1.084032366222025e+00	 1.549657807605892e+00	 1.004360268914353e+01
 1.069001335321073e+00	 1.560064666154375e+00	 9.927418743414394e+00
 1.053883979292120e+00	 1.570316623252049e+00	 9.810804417962256e+00
 1.038682665942804e+00	 1.580412658200036e+00	 9.692867439854355e+00
 1.023399777861804e+00	 1.590351798040284e+00	 9.572760428060342e+00
 1.008037711230661e+00	 1.600133117783001e+00	 9.449695833765432e+00
 9.925988746330451e-01	 1.609755740599044e+00	 9.322960133005040e+00
 9.770856878626532e-01	 1.619218837977321e+00	 9.191927183112222e+00
 1.133849321289002e+00	 1.524598503291737e+00	 1.040831482593205e+01
 1.119022455705831e+00	 1.535514157652602e+00	 1.028895424805895e+01
 1.104101826667885e+00	 1.546277549243292e+00	 1.017180160723611e+01
 1.089089761360856e+00	 1.556887510435254e+00	 1.005594460885868e+01
 1.073988605374169e+00	 1.567342920666890e+00	 9.940467738928271e+00
 1.058800721522175e+00	 1.577642706777549e+00	 9.824469371225353e+00
 1.043528488659177e+00	 1.587785843306425e+00	 9.707078411554427e+00
 1.028174300489477e+00	 1.597771352756268e+00	 9.587470371173616e+00
 1.012740564373655e+00	 1.607598305821879e+00	 9.464882766467460e+00
 9.972297001322832e-01	 1.617265821583393e+00	 9.338629747481763e+00
 9.816441388482543e-01	 1.626773067664415e+00	 9.208115864031466e+00
 1.139114565944302e+00	 1.531678265984568e+00	 1.041637302324746e+01
 1.124218848994950e+00	 1.542644609259557e+00	 1.029803479588131e+01
 1.109228933182416e+00	 1.553457982703275e+00	 1.018174630972270e+01
 1.094147156499128e+00	 1.564117213265066e+00	 1.006662277351255e+01
 1.078975875426700e+00	 1.574621175179788e+00	 9.951776888378355e+00
 1.063717463751669e+00	 1.584968790303364e+00	 9.836336465513263e+00
 1.048374311375001e+00	 1.595159028413066e+00	 9.719461565870564e+00
 1.032948823116623e+00	 1.605190907472450e+00	 9.600361050687338e+00
 1.017443417516155e+00	 1.615063493860909e+00	 9.478308436745884e+00
 1.001860525631069e+00	 1.624775902567861e+00	 9.352656955994361e+00
 9.862025898334583e-01	 1.634327297351610e+00	 9.222853725432779e+00
 1.144379810599269e+00	 1.538758028677931e+00	 1.042336845561105e+01
 1.129415242283717e+00	 1.549775060866989e+00	 1.030596788238066e+01
 1.114356039696582e+00	 1.560638416163673e+00	 1.019045625819435e+01
 1.099204551637025e+00	 1.571346916095226e+00	 1.007598460465876e+01
 1.083963145478855e+00	 1.581899429692963e+00	 9.961702630437269e+00
 1.068634205980788e+00	 1.592294873829391e+00	 9.846776859012550e+00
 1.053220134090458e+00	 1.602532213519856e+00	 9.730408262515526e+00
 1.037723345743416e+00	 1.612610462188722e+00	 9.611849287075755e+00
 1.022146270658325e+00	 1.622528681899982e+00	 9.490420160402202e+00
 1.006491351129554e+00	 1.632285983552334e+00	 9.365524378180449e+00
 9.907610408183973e-01	 1.641881527038787e+00	 9.236663272336580e+00
 1.149645055254069e+00	 1.545837791371726e+00	 1.042965295627602e+01
 1.134611635572308e+00	 1.556905512474797e+00	 1.031309652557256e+01
 1.119483146210567e+00	 1.567818849624386e+00	 1.019827189349579e+01
 1.104261946774735e+00	 1.578576618925632e+00	 1.008437399508008e+01
 1.088950415530820e+00	 1.589177684206319e+00	 9.970598126099446e+00
 1.073550948209719e+00	 1.599620957355527e+00	 9.856158581020747e+00
 1.058065956805731e+00	 1.609905398626689e+00	 9.740306780169760e+00
 1.042497868370034e+00	 1.620030016904980e+00	 9.622348768158380e+00
 1.026849123800329e+00	 1.629993869938989e+00	 9.501661971028279e+00
 1.011122176627888e+00	 1.639796064536699e+00	 9.377711105611121e+00
 9.953194918032041e-01	 1.649435756725832e+00	 9.250063141262853e+00
 1.154910299908869e+00	 1.552917554065853e+00	 1.043557314276534e+01
 1.139808028860899e+00	 1.564035964082883e+00	 1.031975909558158e+01
 1.124610252724551e+00	 1.574999283085313e+00	 1.020552947322736e+01
 1.109319341912446e+00	 1.585806321756186e+00	 1.009213101682850e+01
 1.093937685582786e+00	 1.596455938719752e+00	 9.978812977145770e+00
 1.078467690438650e+00	 1.606947040881672e+00	 9.864846263352273e+00
 1.062911779521005e+00	 1.617278583733464e+00	 9.749542063265803e+00
 1.047272390996653e+00	 1.627449571621117e+00	 9.632269813622875e+00
 1.031551976942334e+00	 1.637459057977820e+00	 9.512474404539622e+00
 1.015753002126222e+00	 1.647306145520847e+00	 9.389692508525545e+00
 9.998779427880107e-01	 1.656989986412625e+00	 9.263567931272647e+00
 1.160175544563835e+00	 1.559997316760212e+00	 1.044147010982579e+01
 1.145004422149667e+00	 1.571166415691145e+00	 1.032628901012606e+01
 1.129737359238717e+00	 1.582179716546355e+00	 1.021256077243656e+01
 1.114376737050343e+00	 1.593036024586787e+00	 1.009959162972800e+01
 1.098924955634941e+00	 1.603734193233161e+00	 9.986692944984803e+00
 1.083384432667769e+00	 1.614273124407722e+00	 9.873200871970427e+00
 1.067757602236463e+00	 1.624651768840077e+00	 9.758495468785449e+00
 1.052046913623446e+00	 1.634869126337026e+00	 9.642019139281008e+00
 1.036254830084503e+00	 1.644924246016368e+00	 9.523294283103660e+00
 1.020383827624707e+00	 1.654816226504663e+00	 9.401940041563323e+00
 1.004436393772950e+00	 1.664544216099050e+00	 9.277688033552126e+00
 1.165440789219135e+00	 1.567077079454702e+00	 1.044767912267473e+01
 1.150200815438786e+00	 1.578296867299485e+00	 1.033301443041675e+01
 1.134864465753249e+00	 1.589360150007411e+00	 1.021969278477584e+01
 1.119434132188614e+00	 1.600265727417334e+00	 1.010708739032719e+01
 1.103912225687472e+00	 1.611012447746446e+00	 9.994579669861436e+00
 1.088301174897263e+00	 1.621599207933576e+00	 9.881579438840006e+00
 1.072603424952286e+00	 1.632024953946423e+00	 9.767544513068843e+00
 1.056821436250592e+00	 1.642288681052604e+00	 9.651999621066409e+00
 1.040957683227003e+00	 1.652389434054522e+00	 9.534554498483269e+00
 1.025014653123494e+00	 1.662326307488035e+00	 9.414921048526340e+00
 1.008994844758154e+00	 1.672098445784992e+00	 9.292929459587505e+00
 1.170706033874936e+00	 1.574156842149224e+00	 1.045452931053223e+01
 1.155397208728432e+00	 1.585427318907801e+00	 1.034025795745736e+01
 1.139991572268328e+00	 1.596540583468382e+00	 1.022724742411086e+01
 1.124491527327446e+00	 1.607495430247728e+00	 1.011494516128407e+01
 1.108899495740569e+00	 1.618290702259505e+00	 1.000281039041963e+01
 1.093217917127319e+00	 1.628925291459132e+00	 9.890334793994285e+00
 1.077449247668659e+00	 1.639398139052400e+00	 9.777062618634417e+00
 1.061595958878265e+00	 1.649708235767744e+00	 9.662610058784903e+00
 1.045660536369998e+00	 1.659854622092177e+00	 9.546683794812036e+00
 1.029645478622732e+00	 1.669836388470851e+00	 9.429098566202011e+00
 1.013553295743755e+00	 1.679652675470332e+00	 9.309793667973079e+00
 1.175971278531404e+00	 1.581236604843679e+00	 1.046234336042869e+01
 1.160593602018781e+00	 1.592557770515995e+00	 1.034833632873161e+01
 1.145118678784137e+00	 1.603721016929166e+00	 1.023554122656325e+01
 1.129548922467025e+00	 1.614725133077867e+00	 1.012348682117399e+01
 1.113886765794420e+00	 1.625568956772238e+00	 1.001171766360972e+01
 1.098134659358124e+00	 1.636251374984289e+00	 9.899815297806553e+00
 1.082295070385766e+00	 1.646771324157903e+00	 9.787418861009069e+00
 1.066370481506642e+00	 1.657127790482339e+00	 9.674244939620571e+00
 1.050363389513654e+00	 1.667319810129223e+00	 9.560106550821562e+00
 1.034276304122573e+00	 1.677346469452999e+00	 9.444931127274554e+00
 1.018111746729887e+00	 1.687206905154955e+00	 9.328777389897406e+00
 9.725272368765219e-01	 1.611664608290443e+00	 9.173761476610050e+00
 9.570148400954672e-01	 1.620923999730693e+00	 9.040613429328257e+00
 9.414332875463274e-01	 1.630023107767037e+00	 8.908450587364390e+00
 9.257850158359563e-01	 1.638961254991470e+00	 8.777113772811745e+00
 9.100724679326296e-01	 1.647737812383568e+00	 8.646574476860382e+00
 8.942980919892135e-01	 1.656352199292953e+00	 8.516942123160286e+00
 8.784643401719208e-01	 1.664803883388219e+00	 8.388470151022021e+00
 8.625736674957413e-01	 1.673092380572644e+00	 8.261560884547960e+00
 8.466285306676252e-01	 1.681217254867130e+00	 8.136769161892081e+00
 8.306313869384504e-01	 1.689178118260764e+00	 8.014804707014489e+00
 8.145846929648080e-01	 1.696974630529512e+00	 7.896533234441760e+00
 9.770856878626532e-01	 1.619218837977321e+00	 9.191927183112222e+00
 9.615005810353462e-01	 1.628521630240110e+00	 9.059197220302412e+00
 9.458459942915274e-01	 1.637663387815064e+00	 8.927584575604783e+00
 9.301243756589621e-01	 1.646643430119025e+00	 8.796955198910609e+00
 9.143381795566552e-01	 1.655461125183214e+00	 8.667312296049467e+00
 8.984898656125033e-01	 1.664115889635621e+00	 8.538803821261816e+00
 8.825818974865609e-01	 1.672607188649691e+00	 8.411728748772770e+00
 8.666167417010120e-01	 1.680934535859640e+00	 8.286542088423444e+00
 8.505968664779338e-01	 1.689097493242845e+00	 8.163858618676597e+00
 8.345247405858784e-01	 1.697095670969706e+00	 8.044455318727081e+00
 8.184028321963256e-01	 1.704928727221486e+00	 7.929272489849655e+00
 9.816441388482543e-01	 1.626773067664415e+00	 9.208115864031466e+00
 9.659863219747833e-01	 1.636119260749749e+00	 9.076035915713840e+00
 9.502587010363843e-01	 1.645303667863334e+00	 8.945255549962084e+00
 9.344637354817303e-01	 1.654325605246850e+00	 8.815612974960606e+00
 9.186038911805495e-01	 1.663184437983163e+00	 8.687089195617542e+00
 9.026816392357647e-01	 1.671879579978629e+00	 8.559815830772585e+00
 8.866994548012662e-01	 1.680410493911535e+00	 8.434081668413100e+00
 8.706598159064309e-01	 1.688776691147034e+00	 8.310337922532593e+00
 8.545652022884538e-01	 1.696977731618970e+00	 8.189202163890556e+00
 8.384180942335583e-01	 1.705013223679052e+00	 8.071460905597938e+00
 8.222209714281083e-01	 1.712882823913839e+00	 7.958070833120324e+00
 9.862025898334583e-01	 1.634327297351610e+00	 9.222853725432779e+00
 9.704720629138888e-01	 1.643716891259486e+00	 9.091688064199747e+00
 9.546714077809845e-01	 1.652943947911714e+00	 8.962034524773424e+00
 9.388030953043199e-01	 1.662007780374810e+00	 8.833651411882963e+00
 9.228696028043460e-01	 1.670907750783278e+00	 8.706444335809739e+00
 9.068734128590051e-01	 1.679643270321834e+00	 8.580474449535718e+00
 8.908170121160226e-01	 1.688213799173608e+00	 8.455965382420050e+00
 8.747028901119608e-01	 1.696618846434682e+00	 8.333308832543587e+00
 8.585335380991325e-01	 1.704857969995367e+00	 8.213068788737507e+00
 8.423114478814271e-01	 1.712930776388675e+00	 8.095984362245419e+00
 8.260391106600912e-01	 1.720836920606458e+00	 7.982971216907664e+00
 9.907610408183973e-01	 1.641881527038787e+00	 9.236663272336580e+00
 9.749578038527736e-01	 1.651314521769201e+00	 9.106708280727188e+00
 9.590841145254130e-01	 1.660584227960079e+00	 8.978488698718614e+00
 9.431424551267915e-01	 1.669689955502773e+00	 8.851631458456596e+00
 9.271353144280760e-01	 1.678631063583420e+00	 8.725914288467287e+00
 9.110651864822312e-01	 1.687406960665095e+00	 8.601274465538577e+00
 8.949345694308115e-01	 1.696017104435768e+00	 8.477816221251532e+00
 8.787459643175644e-01	 1.704461001722444e+00	 8.355816763613122e+00
 8.625018739099167e-01	 1.712738208371898e+00	 8.235730883388582e+00
 8.462048015294223e-01	 1.720848329098446e+00	 8.118194123940938e+00
 8.298572498922062e-01	 1.728791017299227e+00	 8.004024502598806e+00
 9.953194918032041e-01	 1.649435756725832e+00	 9.250063141262853e+00
 9.794435447915480e-01	 1.658912152278770e+00	 9.121647100780100e+00
 9.634968212697558e-01	 1.668224508008300e+00	 8.995181322481802e+00
 9.474818149492031e-01	 1.677372130630603e+00	 8.870110574590543e+00
 9.314010260517740e-01	 1.686354376383450e+00	 8.746032908350561e+00
 9.152569601054503e-01	 1.695170651008270e+00	 8.622709019046253e+00
 8.990521267456177e-01	 1.703820409697870e+00	 8.500070219367059e+00
 8.827890385232054e-01	 1.712303157010177e+00	 8.378224983690860e+00
 8.664702097207534e-01	 1.720618446748428e+00	 8.257464031293598e+00
 8.500981551774804e-01	 1.728765881808236e+00	 8.138263925979903e+00
 8.336753891243880e-01	 1.736745113992029e+00	 8.021289179126345e+00
 9.998779427880107e-01	 1.656989986412625e+00	 9.263567931272647e+00
 9.839292857303223e-01	 1.666509782788071e+00	 9.137050832660647e+00
 9.679095280140989e-01	 1.675864788056249e+00	 9.012671564365522e+00
 9.518211747716145e-01	 1.685054305758168e+00	 8.889642602600279e+00
 9.356667376754718e-01	 1.694077689183231e+00	 8.767331202729366e+00
 9.194487337286694e-01	 1.702934341351218e+00	 8.645269463460476e+00
 9.031696840604232e-01	 1.711623714959771e+00	 8.523162960617139e+00
 8.868321127288457e-01	 1.720145312297739e+00	 8.400897907015370e+00
 8.704385455315907e-01	 1.728498685124818e+00	 8.278546804675852e+00
 8.539915088255383e-01	 1.736683434517917e+00	 8.156372565387494e+00
 8.374935283565700e-01	 1.744699210684749e+00	 8.034831085421185e+00
 1.004436393772950e+00	 1.664544216099050e+00	 9.277688033552126e+00
 9.884150266692072e-01	 1.674107413296981e+00	 9.153461407961926e+00
 9.723222347585273e-01	 1.683505068103797e+00	 9.031514373923660e+00
 9.561605345940860e-01	 1.692736480885333e+00	 8.910777636555629e+00
 9.399324492992021e-01	 1.701801001982622e+00	 8.790337199296593e+00
 9.236405073518955e-01	 1.710698031693796e+00	 8.669445224941677e+00
 9.072872413752125e-01	 1.719427020221330e+00	 8.547529423020219e+00
 8.908751869344493e-01	 1.727987467584990e+00	 8.424200917795725e+00
 8.744068813423749e-01	 1.736378923500933e+00	 8.299260561174730e+00
 8.578848624735339e-01	 1.744600987227362e+00	 8.172703664887788e+00
 8.413116675886849e-01	 1.752653307377271e+00	 8.044723136389337e+00
 1.008994844758154e+00	 1.672098445784992e+00	 9.292929459587505e+00
 9.929007676083129e-01	 1.681705043805379e+00	 9.171416230271426e+00
 9.767349415031276e-01	 1.691145348150817e+00	 9.052260343671914e+00
 9.604998944166758e-01	 1.700418656011965e+00	 8.934061889759610e+00
 9.441981609229979e-01	 1.709524314781486e+00	 8.815575812454160e+00
 9.278322809751357e-01	 1.718461722035863e+00	 8.695723660834402e+00
 9.114047986899687e-01	 1.727230325482402e+00	 8.573603822947350e+00
 8.949182611399791e-01	 1.735829622871788e+00	 8.448500194071325e+00
 8.783752171530532e-01	 1.744259161876634e+00	 8.319889241596183e+00
 8.617782161214028e-01	 1.752518539936439e+00	 8.187445439063447e+00
 8.451298068206675e-01	 1.760607404069479e+00	 8.051045052302653e+00
 1.013553295743755e+00	 1.679652675470332e+00	 9.309793667973079e+00
 9.973865085477501e-01	 1.689302674313143e+00	 9.191448022160742e+00
 9.811476482479849e-01	 1.698785628197181e+00	 9.075455568940882e+00
 9.648392542394443e-01	 1.708100831137931e+00	 8.960037560416362e+00
 9.484638725468924e-01	 1.717247627579685e+00	 8.843568708026472e+00
 9.320240545983974e-01	 1.726225412377277e+00	 8.724589916933233e+00
 9.155223560046748e-01	 1.735033630742843e+00	 8.601819458733566e+00
 8.989613353453980e-01	 1.743671778157989e+00	 8.474162531747339e+00
 8.823435529635734e-01	 1.752139400251785e+00	 8.340719168740083e+00
 8.656715697690824e-01	 1.760436092645021e+00	 8.200790462637924e+00
 8.489479460524506e-01	 1.768561500761259e+00	 8.056751569415429e+00
 1.018111746729887e+00	 1.687206905154955e+00	 9.328777389897406e+00
 1.001872249487630e+00	 1.696900304820150e+00	 9.214084670514991e+00
 9.855603549931854e-01	 1.706425908242760e+00	 9.101641505927269e+00
 9.691786140624503e-01	 1.715783006263096e+00	 8.989242695546819e+00
 9.527295841709187e-01	 1.724970940377081e+00	 8.874834166450082e+00
 9.362158282216873e-01	 1.733989102717897e+00	 8.756526783626853e+00
 9.196399133193149e-01	 1.742836936002513e+00	 8.632608553732270e+00
 9.030044095506687e-01	 1.751513933443456e+00	 8.501555168795440e+00
 8.863118887738816e-01	 1.760019638626248e+00	 8.362038847268224e+00
 8.695649234165100e-01	 1.768353645352981e+00	 8.215430548232451e+00
 8.527660852839681e-01	 1.776515597452493e+00	 8.080100746753068e+00
 8.145846929648080e-01	 1.696974630529512e+00	 7.896533234441760e+00
 7.984881635692119e-01	 1.704607782308222e+00	 7.780953227630921e+00
 7.823469753732306e-01	 1.712075987695308e+00	 7.665598936937132e+00
 7.661635769862309e-01	 1.719379047145569e+00	 7.549294410163197e+00
 7.499404120156170e-01	 1.726516807897009e+00	 7.430992576576502e+00
 7.336799179914387e-01	 1.733489163639346e+00	 7.309773876655971e+00
 7.173845253063604e-01	 1.740296054154137e+00	 7.184843702363125e+00
 7.010566561718182e-01	 1.746937464927227e+00	 7.055528685706939e+00
 6.846987235911640e-01	 1.753413426734232e+00	 6.921271879902426e+00
 6.683131303505522e-01	 1.759724015199794e+00	 6.781626883556728e+00
 6.519022680282955e-01	 1.765869350331382e+00	 6.636563694183277e+00
 8.184028321963256e-01	 1.704928727221486e+00	 7.929272489849655e+00
 8.022308547950975e-01	 1.712597657276366e+00	 7.817007547627000e+00
 7.860140092677473e-01	 1.720100867799294e+00	 7.704637448677589e+00
 7.697547557008287e-01	 1.727438158309759e+00	 7.590684347462588e+00
 7.534555491554902e-01	 1.734609375329742e+00	 7.473800531866325e+00
 7.371188385870384e-01	 1.741614412050667e+00	 7.352767501166111e+00
 7.207470657799391e-01	 1.748453207971837e+00	 7.226493811771175e+00
 7.043426642990840e-01	 1.755125748511074e+00	 7.094011728755737e+00
 6.879080584581196e-01	 1.761632064588246e+00	 6.954472727978306e+00
 6.714456623056047e-01	 1.767972232182473e+00	 6.809582030938233e+00
 6.549578786297219e-01	 1.774146371863731e+00	 6.671952266450567e+00
 8.222209714281083e-01	 1.712882823913839e+00	 7.958070833120320e+00
 8.059735460212321e-01	 1.720587532244843e+00	 7.847341937392673e+00
 7.896810431624707e-01	 1.728125747903544e+00	 7.735705784414098e+00
 7.733459344155730e-01	 1.735497269474130e+00	 7.621472098112665e+00
 7.569706862954365e-01	 1.742701942762564e+00	 7.503083681367847e+00
 7.405577591826318e-01	 1.749739660461978e+00	 7.379115801682488e+00
 7.241096062534327e-01	 1.756610361789429e+00	 7.248274300867012e+00
 7.076286724261937e-01	 1.763314032094718e+00	 7.109392467265392e+00
 6.911173933248609e-01	 1.769850702441975e+00	 6.967408668082975e+00
 6.745781942604039e-01	 1.776220449164800e+00	 6.833722179655561e+00
 6.580134892308822e-01	 1.782423393395677e+00	 6.706966417650277e+00
 8.260391106600912e-01	 1.720836920606458e+00	 7.982971216907664e+00
 8.097162372475537e-01	 1.728577407213554e+00	 7.871886887770202e+00
 7.933480770573491e-01	 1.736150628007981e+00	 7.758649434929378e+00
 7.769371131304268e-01	 1.743556380638631e+00	 7.641444333354421e+00
 7.604858234354377e-01	 1.750794510195449e+00	 7.518594769537758e+00
 7.439966797782203e-01	 1.757864908873280e+00	 7.388561195469579e+00
 7.274721467268634e-01	 1.764767515606941e+00	 7.249940397707223e+00
 7.109146805531861e-01	 1.771502315678212e+00	 7.111754272203936e+00
 6.943267281914413e-01	 1.778069340295493e+00	 6.982248554728958e+00
 6.777107262150133e-01	 1.784468666146862e+00	 6.859478177569828e+00
 6.610690998318431e-01	 1.790700414927322e+00	 6.741460983590773e+00
 8.298572498922062e-01	 1.728791017299227e+00	 8.004024502598815e+00
 8.134589284740003e-01	 1.736567282182402e+00	 7.890582999366114e+00
 7.970151109523318e-01	 1.744175508112531e+00	 7.773325666159431e+00
 7.805282918453533e-01	 1.751615491803208e+00	 7.650400652252799e+00
 7.640009605754752e-01	 1.758887077628368e+00	 7.520100131817910e+00
 7.474356003738059e-01	 1.765990157284572e+00	 7.381216636892749e+00
 7.308346872002515e-01	 1.772924669424396e+00	 7.246079793555830e+00
 7.142006886801003e-01	 1.779690599261606e+00	 7.119936700853357e+00
 6.975360630579145e-01	 1.786287978148868e+00	 7.000787656383943e+00
 6.808432581694961e-01	 1.792716883128747e+00	 6.886596472033029e+00
 6.641247104326711e-01	 1.798977436458766e+00	 6.775290576620597e+00
 8.336753891243880e-01	 1.736745113992029e+00	 8.021289179126349e+00
 8.172016197005085e-01	 1.744557157151287e+00	 7.903380664174266e+00
 8.006821448473660e-01	 1.752200388217115e+00	 7.779603175409045e+00
 7.841194705603172e-01	 1.759674602967811e+00	 7.648153223732709e+00
 7.675160977155310e-01	 1.766979645061297e+00	 7.508476491053451e+00
 7.508745209693901e-01	 1.774115405695855e+00	 7.374871836847429e+00
 7.341972276736185e-01	 1.781081823241821e+00	 7.250688597252604e+00
 7.174866968069756e-01	 1.787878882844947e+00	 7.133960077571457e+00
 7.007453979243340e-01	 1.794506616002171e+00	 7.022684518478252e+00
 6.839757901239162e-01	 1.800965100110545e+00	 6.914824995356080e+00
 6.671803210334328e-01	 1.807254457990109e+00	 6.808309530614107e+00
 8.374935283565700e-01	 1.744699210684749e+00	 8.034831085421176e+00
 8.209443109270168e-01	 1.752547032120114e+00	 7.910239752047236e+00
 8.043491787424001e-01	 1.760225268321657e+00	 7.777361753295313e+00
 7.877106492752806e-01	 1.767733714132384e+00	 7.636431706668150e+00
 7.710312348555869e-01	 1.775072212494209e+00	 7.502949051185153e+00
 7.543134415649742e-01	 1.782240654107128e+00	 7.379191034875701e+00
 7.375597681469854e-01	 1.789238977059240e+00	 7.263307475220655e+00
 7.207727049338508e-01	 1.796067166428286e+00	 7.153415781912127e+00
 7.039547327907537e-01	 1.802725253855474e+00	 7.047600498907816e+00
 6.871083220783356e-01	 1.809213317092342e+00	 6.943913073794260e+00
 6.702359316341945e-01	 1.815531479521452e+00	 6.840371848824358e+00
 8.413116675886849e-01	 1.752653307377271e+00	 8.044723136389333e+00
 8.246870021534630e-01	 1.760536907088782e+00	 7.911129301862315e+00
 8.080162126373823e-01	 1.768250148426080e+00	 7.769043693682431e+00
 7.913018279902077e-01	 1.775792825296878e+00	 7.634801481923320e+00
 7.745463719956243e-01	 1.783164779927075e+00	 7.510235129148805e+00
 7.577523621605597e-01	 1.790365902518389e+00	 7.393689553207904e+00
 7.409223086203739e-01	 1.797396130876680e+00	 7.283481576058733e+00
 7.240587130607654e-01	 1.804255450011673e+00	 7.177898954334683e+00
 7.071640676572267e-01	 1.810943891708847e+00	 7.075199650381925e+00
 6.902408540328184e-01	 1.817461534074229e+00	 6.973611340448022e+00
 6.732915422350230e-01	 1.823808501052896e+00	 6.871331154506930e+00
 8.451298068206675e-01	 1.760607404069479e+00	 8.051045052302653e+00
 8.284296933797848e-01	 1.768526782057194e+00	 7.908920393853181e+00
 8.116832465322612e-01	 1.776275028530309e+00	 7.773964828968941e+00
 7.948930067050616e-01	 1.783851936461238e+00	 7.648069149763437e+00
 7.780615091356252e-01	 1.791257347359871e+00	 7.529846270639566e+00
 7.611912827561486e-01	 1.798491150929640e+00	 7.417887394972656e+00
 7.442848490938040e-01	 1.805553284694165e+00	 7.310760381311947e+00
 7.273447211877578e-01	 1.812443733595157e+00	 7.207008361114558e+00
 7.103734025238072e-01	 1.819162529562361e+00	 7.105148607479716e+00
 6.933733859874279e-01	 1.825709751056291e+00	 7.003671651958832e+00
 6.763471528359838e-01	 1.832085522584540e+00	 6.901040644232205e+00
 8.489479460524506e-01	 1.768561500761259e+00	 8.056751569415427e+00
 8.321723846059192e-01	 1.776516657025253e+00	 7.922431551381575e+00
 8.153502804269847e-01	 1.784299908634265e+00	 7.795786613977684e+00
 7.984841854198054e-01	 1.791911047625413e+00	 7.675764102525889e+00
 7.815766462755713e-01	 1.799349914792569e+00	 7.561298523279802e+00
 7.646302033517420e-01	 1.806616399340881e+00	 7.451309095316745e+00
 7.476473895672979e-01	 1.813710438511721e+00	 7.344697561965515e+00
 7.306307293148674e-01	 1.820632017178786e+00	 7.240346264501952e+00
 7.135827373905486e-01	 1.827381167416087e+00	 7.137116478268324e+00
 6.965059179422274e-01	 1.833957968038617e+00	 7.033847008879285e+00
 6.794027634371442e-01	 1.840362544116487e+00	 6.929353043796762e+00
 8.527660852839681e-01	 1.776515597452493e+00	 8.080100746753073e+00
 8.359150758318051e-01	 1.784506531992859e+00	 7.954751583873394e+00
 8.190173143215014e-01	 1.792324788737874e+00	 7.834077923850305e+00
 8.020753641344036e-01	 1.799970158789352e+00	 7.717419682796997e+00
 7.850917834154448e-01	 1.807442482225144e+00	 7.604112296933650e+00
 7.680691239473414e-01	 1.814741647752109e+00	 7.493483578305757e+00
 7.510099300408769e-01	 1.821867592329375e+00	 7.384850840483147e+00
 7.339167374421334e-01	 1.828820300762612e+00	 7.277518297966679e+00
 7.167920722575044e-01	 1.835599805270095e+00	 7.170774740338997e+00
 6.996384498972799e-01	 1.842206185021295e+00	 7.063891479601140e+00
 6.824583740385706e-01	 1.848639565648836e+00	 6.956120566657066e+00
 6.519022680282955e-01	 1.765869350331382e+00	 6.636563694183282e+00
 6.354713111388517e-01	 1.771848593317297e+00	 6.497571691810476e+00
 6.190198366657016e-01	 1.777663008962260e+00	 6.370259763070988e+00
 6.025501949029400e-01	 1.783312846053559e+00	 6.253955183932089e+00
 5.860647212144215e-01	 1.788798395632072e+00	 6.147875695257159e+00
 5.695657351459118e-01	 1.794119990412552e+00	 6.046800592654137e+00
 5.530555395592713e-01	 1.799278004183412e+00	 5.947671410847274e+00
 5.365364197891498e-01	 1.804272851186889e+00	 5.850272141134104e+00
 5.200106428226289e-01	 1.809104985480471e+00	 5.754294938545560e+00
 5.034804565022232e-01	 1.813774900280471e+00	 5.659343557557807e+00
 4.869480887526040e-01	 1.818283127288656e+00	 5.564936845398135e+00
 6.549578786297219e-01	 1.774146371863731e+00	 6.671952266450567e+00
 6.384499061990342e-01	 1.780153640888624e+00	 6.543104352471771e+00
 6.219213200142383e-01	 1.785995309990285e+00	 6.423196867083856e+00
 6.053744813857638e-01	 1.791671629122109e+00	 6.311882392766183e+00
 5.888117366238175e-01	 1.797182890689137e+00	 6.208771518234518e+00
 5.722354161463743e-01	 1.802529428965615e+00	 6.109988155743304e+00
 5.556478336093053e-01	 1.807711619491974e+00	 6.011518838589763e+00
 5.390512850591133e-01	 1.812729878452083e+00	 5.913479522276999e+00
 5.224480481087375e-01	 1.817584662031686e+00	 5.815900796062174e+00
 5.058403811368134e-01	 1.822276465758901e+00	 5.718725831979380e+00
 4.892305225107745e-01	 1.826805823827681e+00	 5.621813531835536e+00
 6.580134892308822e-01	 1.782423393395677e+00	 6.706966417650277e+00
 6.414285012589676e-01	 1.788458688459521e+00	 6.586429553143020e+00
 6.248228033625713e-01	 1.794327611017873e+00	 6.472546801973747e+00
 6.081987678684507e-01	 1.800030412190232e+00	 6.365246824916555e+00
 5.915587520331601e-01	 1.805567385745794e+00	 6.264419842495061e+00
 5.749050971468814e-01	 1.810938867518298e+00	 6.167506846640568e+00
 5.582401276594879e-01	 1.816145234800187e+00	 6.069685282574346e+00
 5.415661503293344e-01	 1.821186905716960e+00	 5.971203610113188e+00
 5.248854533952103e-01	 1.826064338582610e+00	 5.872378754158678e+00
 5.082003057718694e-01	 1.830778031237055e+00	 5.773440865989803e+00
 4.915129562695016e-01	 1.835328520366439e+00	 5.674536199498915e+00
 6.610690998318431e-01	 1.790700414927322e+00	 6.741460983590770e+00
 6.444070963187153e-01	 1.796763736030097e+00	 6.627512226490085e+00
 6.277242867107518e-01	 1.802659912045134e+00	 6.518368616087701e+00
 6.110230543510350e-01	 1.808389195258034e+00	 6.414186364972895e+00
 5.943057674424651e-01	 1.813951880802145e+00	 6.315086072827679e+00
 5.775747781474243e-01	 1.819348306070697e+00	 6.219600271451728e+00
 5.608324217097872e-01	 1.824578850108139e+00	 6.122447167060395e+00
 5.440810155997560e-01	 1.829643932981597e+00	 6.023741254444635e+00
 5.273228586819682e-01	 1.834544015133316e+00	 5.924034409763097e+00
 5.105602304072903e-01	 1.839279596715006e+00	 5.823792041688052e+00
 4.937953900286674e-01	 1.843851216904997e+00	 5.723395771939994e+00
 6.641247104326711e-01	 1.798977436458766e+00	 6.775290576620600e+00
 6.473856913783390e-01	 1.805068783600458e+00	 6.666315279337316e+00
 6.306257700588300e-01	 1.810992213072177e+00	 6.560717826781939e+00
 6.138473408335520e-01	 1.816747978325622e+00	 6.458834145269090e+00
 5.970527828517465e-01	 1.822336375858293e+00	 6.360966652975180e+00
 5.802444591479949e-01	 1.827757744622905e+00	 6.266507127576217e+00
 5.634247157601709e-01	 1.833012465415916e+00	 6.170075606758603e+00
 5.465958808703215e-01	 1.838100960246076e+00	 6.071383817897536e+00
 5.297602639689301e-01	 1.843023691683876e+00	 5.971167904239129e+00
 5.129201550429753e-01	 1.847781162192820e+00	 5.870077512450622e+00
 4.960778237881540e-01	 1.852373913443422e+00	 5.768678352026579e+00
 6.671803210334328e-01	 1.807254457990109e+00	 6.808309530614098e+00
 6.503642864379001e-01	 1.813373831170712e+00	 6.702799577900604e+00
 6.335272534068583e-01	 1.819324514099111e+00	 6.599646439320647e+00
 6.166716273160365e-01	 1.825106761393103e+00	 6.499318592167464e+00
 5.997997982610184e-01	 1.830720870914339e+00	 6.402252391272916e+00
 5.829141401485844e-01	 1.836167183175019e+00	 6.308461233168882e+00
 5.660170098106057e-01	 1.841446080723607e+00	 6.212836449992243e+00
 5.491107461409732e-01	 1.846557987510475e+00	 6.114417227647515e+00
 5.321976692560165e-01	 1.851503368234363e+00	 6.014073978846549e+00
 5.152800796788236e-01	 1.856282727670566e+00	 5.912590257606849e+00
 4.983602575478438e-01	 1.860896609981779e+00	 5.810665271627917e+00
 6.702359316341945e-01	 1.815531479521452e+00	 6.840371848824357e+00
 6.533428814974620e-01	 1.821678878740965e+00	 6.736923934701663e+00
 6.364287367548873e-01	 1.827656815126044e+00	 6.635202966450901e+00
 6.194959137985235e-01	 1.833465544460584e+00	 6.535763472194203e+00
 6.025468136702961e-01	 1.839105365970385e+00	 6.439128527541087e+00
 5.855838211491849e-01	 1.844576621727132e+00	 6.345691555287780e+00
 5.686093038610591e-01	 1.849879696031297e+00	 6.250990320191521e+00
 5.516256114116549e-01	 1.855015014774876e+00	 6.153122025262848e+00
 5.346350745431466e-01	 1.859983044784851e+00	 6.053042028238838e+00
 5.176400043147342e-01	 1.864784293148311e+00	 5.951618135196549e+00
 5.006426913076193e-01	 1.869419306520137e+00	 5.849633139540630e+00
 6.732915422350230e-01	 1.823808501052896e+00	 6.871331154506933e+00
 6.563214765570855e-01	 1.829983926311328e+00	 6.768645097108470e+00
 6.393302201029681e-01	 1.835989116153088e+00	 6.667432448636257e+00
 6.223202002810477e-01	 1.841824327528172e+00	 6.568287938032176e+00
 6.052938290795936e-01	 1.847489861026532e+00	 6.471774799192252e+00
 5.882535021497876e-01	 1.852986060279340e+00	 6.378422269996623e+00
 5.712015979114985e-01	 1.858313311339075e+00	 6.284792655774556e+00
 5.541404766823086e-01	 1.863472042039354e+00	 6.187773414729552e+00
 5.370724798302403e-01	 1.868462721335410e+00	 6.088356152063072e+00
 5.199999289506066e-01	 1.873285858626126e+00	 5.987443932870175e+00
 5.029251250673623e-01	 1.877942003058562e+00	 5.885853887707642e+00
 6.763471528359838e-01	 1.832085522584540e+00	 6.901040644232205e+00
 6.593000716168337e-01	 1.838288973881903e+00	 6.797917737451808e+00
 6.422317034511515e-01	 1.844321417180349e+00	 6.696376474927057e+00
 6.251444867636440e-01	 1.850183110595974e+00	 6.597006574373630e+00
 6.080408444889266e-01	 1.855874356082885e+00	 6.500365506580879e+00
 5.909231831503844e-01	 1.861395498831738e+00	 6.406976068987084e+00
 5.737938919618912e-01	 1.866746926647026e+00	 6.314493748466184e+00
 5.566553419528779e-01	 1.871929069303992e+00	 6.218641308711979e+00
 5.395098851172180e-01	 1.876942397886117e+00	 6.120295204718547e+00
 5.223598535863397e-01	 1.881787424104077e+00	 6.020345416989898e+00
 5.052075588269552e-01	 1.886464699597119e+00	 5.919594815787258e+00
 6.794027634371442e-01	 1.840362544116487e+00	 6.929353043796756e+00
 6.622786666767680e-01	 1.846594021452800e+00	 6.824694444667503e+00
 6.451331867994894e-01	 1.852653718207937e+00	 6.722073204446597e+00
 6.279687732463471e-01	 1.858541893664097e+00	 6.622029443638683e+00
 6.107878598983082e-01	 1.864258851139542e+00	 6.525069577618260e+00
 5.935928641509671e-01	 1.869804937384422e+00	 6.431664038893421e+00
 5.763861860122044e-01	 1.875180541955239e+00	 6.340338780102924e+00
 5.591702072233057e-01	 1.880386096568869e+00	 6.245990373107100e+00
 5.419472904039987e-01	 1.885422074437041e+00	 6.149132843338787e+00
 5.247197782218328e-01	 1.890288989582232e+00	 6.050595379987803e+00
 5.074899925862805e-01	 1.894987396135878e+00	 5.951118634121345e+00
 6.824583740385706e-01	 1.848639565648836e+00	 6.956120566657066e+00
 6.652572617369515e-01	 1.854899069024128e+00	 6.848925717416860e+00
 6.480346701480332e-01	 1.860986019235963e+00	 6.744557388474364e+00
 6.307930597291923e-01	 1.866900676732648e+00	 6.643462131563546e+00
 6.135348753077542e-01	 1.872643346196608e+00	 6.546050631674366e+00
 5.962625451515272e-01	 1.878214375937486e+00	 6.452695651680103e+00
 5.789784800624057e-01	 1.883614157263803e+00	 6.362567857971307e+00
 5.616850724935349e-01	 1.888843123834063e+00	 6.270080069944957e+00
 5.443846956905031e-01	 1.893901750988257e+00	 6.175137574043565e+00
 5.270797028569850e-01	 1.898790555060661e+00	 6.078461686036660e+00
 5.097724263452204e-01	 1.903510092674904e+00	 5.980683505156939e+00
 4.869480887526040e-01	 1.818283127288656e+00	 5.564936845398135e+00
 4.704157470569679e-01	 1.822630236397705e+00	 5.472329073931428e+00
 4.538856183878984e-01	 1.826816836167647e+00	 5.383258624565641e+00
 4.373598677937028e-01	 1.830843571914933e+00	 5.297857689077076e+00
 4.208406374924303e-01	 1.834711124582473e+00	 5.216191970512355e+00
 4.043300462218327e-01	 1.838420209993003e+00	 5.138262980322112e+00
 3.878301886145822e-01	 1.841971578090959e+00	 5.064010302646408e+00
 3.713431345988646e-01	 1.845366012173774e+00	 4.993313812641642e+00
 3.548709288244357e-01	 1.848604328113462e+00	 4.925995836851937e+00
 3.384155901141945e-01	 1.851687373569411e+00	 4.861823244747106e+00
 3.219791109412959e-01	 1.854616027193228e+00	 4.800509461701242e+00
 4.892305225107745e-01	 1.826805823827681e+00	 5.621813531835536e+00
 4.726206900607703e-01	 1.831173308801916e+00	 5.526796753813990e+00
 4.560130810102133e-01	 1.835379532094092e+00	 5.435556054702041e+00
 4.394098705554804e-01	 1.839425142045410e+00	 5.348208756408125e+00
 4.228132109556794e-01	 1.843310822790522e+00	 5.264805029689491e+00
 4.062252308795631e-01	 1.847037293507387e+00	 5.185330326372704e+00
 3.896480347778194e-01	 1.850605307655607e+00	 5.109707773591161e+00
 3.730837022808540e-01	 1.854015652204112e+00	 5.037800516521883e+00
 3.565342876221567e-01	 1.857269146849096e+00	 4.969413997251361e+00
 3.400018190873044e-01	 1.860366643223122e+00	 4.904298158568087e+00
 3.234882984886233e-01	 1.863309024096240e+00	 4.842149562671679e+00
 4.915129562695016e-01	 1.835328520366439e+00	 5.674536199498915e+00
 4.748256330652054e-01	 1.839716381205851e+00	 5.577604970221286e+00
 4.581405436332219e-01	 1.843942228020241e+00	 5.484636553336282e+00
 4.414598733179971e-01	 1.848006712175566e+00	 5.395737440523843e+00
 4.247857844196967e-01	 1.851910520998216e+00	 5.310946422842655e+00
 4.081204155380748e-01	 1.855654377021385e+00	 5.230237153304515e+00
 3.914658809418343e-01	 1.859239037219845e+00	 5.153520666220745e+00
 3.748242699636008e-01	 1.862665292234023e+00	 5.080647839400088e+00
 3.581976464205976e-01	 1.865933965584300e+00	 5.011411786456398e+00
 3.415880480610795e-01	 1.869045912876419e+00	 4.945550167707189e+00
 3.249974860365428e-01	 1.872002020998873e+00	 4.882747409361527e+00
 4.937953900286674e-01	 1.843851216904997e+00	 5.723395771939994e+00
 4.770305760701433e-01	 1.848259453609578e+00	 5.625028137658928e+00
 4.602680062567868e-01	 1.852504923946168e+00	 5.530759626796560e+00
 4.435098760811120e-01	 1.856588282305477e+00	 5.440689846968869e+00
 4.267583578843429e-01	 1.860510219205645e+00	 5.354850268806429e+00
 4.100156001972335e-01	 1.864271460535099e+00	 5.273206914268446e+00
 3.932837271065011e-01	 1.867872766783782e+00	 5.195662996375042e+00
 3.765648376469900e-01	 1.871314932263623e+00	 5.122061496030172e+00
 3.598610052196576e-01	 1.874598784319194e+00	 5.052187662833516e+00
 3.431742770354353e-01	 1.877725182529420e+00	 4.985771428035799e+00
 3.265066735849897e-01	 1.880695017901245e+00	 4.922489719060491e+00
 4.960778237881540e-01	 1.852373913443422e+00	 5.768678352026579e+00
 4.792355190754543e-01	 1.856802526013169e+00	 5.669336324410960e+00
 4.623954688807710e-01	 1.861067619871948e+00	 5.574180871287982e+00
 4.455598788446856e-01	 1.865169852435230e+00	 5.483308569860767e+00
 4.287309313494787e-01	 1.869109917412900e+00	 5.396747537259368e+00
 4.119107848569040e-01	 1.872888544048625e+00	 5.314460240101411e+00
 3.951015732716926e-01	 1.876506496347521e+00	 5.236346250005631e+00
 3.783054053309068e-01	 1.879964572293025e+00	 5.162244930321461e+00
 3.615243640192359e-01	 1.883263603053898e+00	 5.091938040610652e+00
 3.447605060102883e-01	 1.886404452182246e+00	 5.025152246721697e+00
 3.280158611338989e-01	 1.889388014803469e+00	 4.961561525600524e+00
 4.983602575478438e-01	 1.860896609981779e+00	 5.810665271627917e+00
 4.814404620810082e-01	 1.865345598416690e+00	 5.710795295646073e+00
 4.645229315050365e-01	 1.869630315797655e+00	 5.615152010219372e+00
 4.476098816085765e-01	 1.873751422564903e+00	 5.523832724204367e+00
 4.307035048149643e-01	 1.877709615620070e+00	 5.436866076758724e+00
 4.138059695169521e-01	 1.881505627562064e+00	 5.354214963783449e+00
 3.969194194372828e-01	 1.885140225911173e+00	 5.275779404727288e+00
 3.800459730152358e-01	 1.888614212322343e+00	 5.201399334617186e+00
 3.631877228192321e-01	 1.891928421788526e+00	 5.130857307489016e+00
 3.463467349855543e-01	 1.895083721835016e+00	 5.063881098744507e+00
 3.295250486832060e-01	 1.898081011705663e+00	 5.000146195309304e+00
 5.006426913076193e-01	 1.869419306520137e+00	 5.849633139540630e+00
 4.836454050866754e-01	 1.873888670820212e+00	 5.749666554962959e+00
 4.666503941294464e-01	 1.878193011723362e+00	 5.653920930147415e+00
 4.496598843726448e-01	 1.882332992694578e+00	 5.562497976978697e+00
 4.326760782806605e-01	 1.886309313827246e+00	 5.475430641687991e+00
 4.157011541772427e-01	 1.890122711075513e+00	 5.392686143928463e+00
 3.987372656031449e-01	 1.893773955474844e+00	 5.314168950500542e+00
 3.817865406998620e-01	 1.897263852351690e+00	 5.239723668189258e+00
 3.648510816195448e-01	 1.900593240523199e+00	 5.169137841534861e+00
 3.479329639611495e-01	 1.903762991487849e+00	 5.102144642740121e+00
 3.310342362328462e-01	 1.906774008607944e+00	 5.038425442329982e+00
 5.029251250673623e-01	 1.877942003058562e+00	 5.885853887707642e+00
 4.858503480923255e-01	 1.882431743223802e+00	 5.786207384426175e+00
 4.687778567538631e-01	 1.886755707649143e+00	 5.690731715383674e+00
 4.517098871367496e-01	 1.890914562824337e+00	 5.599536577042849e+00
 4.346486517464278e-01	 1.894909012034517e+00	 5.512662918154339e+00
 4.175963388376412e-01	 1.898739794589072e+00	 5.430086087337489e+00
 4.005551117691525e-01	 1.902407685038639e+00	 5.351718909473261e+00
 3.835271083846704e-01	 1.905913492381181e+00	 5.277414674971821e+00
 3.665144404200736e-01	 1.909258059258034e+00	 5.206970027374577e+00
 3.495191929369901e-01	 1.912442261140863e+00	 5.140127736193429e+00
 3.325434237827546e-01	 1.915467005510426e+00	 5.076579343321504e+00
 5.052075588269552e-01	 1.886464699597119e+00	 5.919594815787258e+00
 4.880552910978292e-01	 1.890974815627532e+00	 5.820670883138979e+00
 4.709053193781492e-01	 1.895318403575075e+00	 5.725824681307318e+00
 4.537598899007508e-01	 1.899496132954260e+00	 5.635177383894819e+00
 4.366212252121265e-01	 1.903508710241975e+00	 5.548781548869497e+00
 4.194915234980127e-01	 1.907356878102840e+00	 5.466624370646364e+00
 4.023729579351792e-01	 1.911041414602669e+00	 5.388630855012688e+00
 3.852676760695460e-01	 1.914563132410930e+00	 5.314666900557313e+00
 3.681777992207175e-01	 1.917922877993149e+00	 5.244542271713760e+00
 3.511054219129919e-01	 1.921121530794178e+00	 5.178013450003861e+00
 3.340526113328665e-01	 1.924160002413225e+00	 5.114786351561153e+00
 5.074899925862805e-01	 1.894987396135878e+00	 5.951118634121345e+00
 4.902602341030561e-01	 1.899517888031467e+00	 5.853306004399008e+00
 4.730327820021674e-01	 1.903881099501229e+00	 5.759436406424256e+00
 4.558098926645078e-01	 1.908077703084432e+00	 5.669645895318664e+00
 4.385937986776174e-01	 1.912108408449707e+00	 5.584002157043260e+00
 4.213867081582230e-01	 1.915973961616915e+00	 5.502507861095353e+00
 4.041908041010985e-01	 1.919675144167038e+00	 5.425103929946915e+00
 3.870082437543736e-01	 1.923212772441049e+00	 5.351672708483939e+00
 3.698411580213761e-01	 1.926587696728663e+00	 5.282041018202328e+00
 3.526916508890713e-01	 1.929800800447914e+00	 5.215983082440797e+00
 3.355617988831173e-01	 1.932852999316460e+00	 5.153223310469900e+00
 5.097724263452204e-01	 1.903510092674904e+00	 5.980683505156939e+00
 4.924651771078767e-01	 1.908060960435679e+00	 5.884357591482706e+00
 4.751602446257804e-01	 1.912443795427681e+00	 5.791799763210962e+00
 4.578598954278802e-01	 1.916659273214932e+00	 5.703164273958063e+00
 4.405663721427611e-01	 1.920708106657808e+00	 5.618537369325209e+00
 4.232818928181369e-01	 1.924591045131397e+00	 5.537940736447927e+00
 4.060086502667843e-01	 1.928308873731856e+00	 5.461334864045003e+00
 3.887488114390382e-01	 1.931862412471655e+00	 5.388622295826911e+00
 3.715045168219482e-01	 1.935252515464695e+00	 5.319650761666347e+00
 3.542778798651443e-01	 1.938480070102190e+00	 5.254216172508060e+00
 3.370709864334423e-01	 1.941545996220245e+00	 5.192065466575267e+00
 3.219791109412959e-01	 1.854616027193228e+00	 4.800509461701242e+00
 3.055606687055367e-01	 1.857391656406358e+00	 4.741350629801401e+00
 2.891650023070632e-01	 1.860014687762456e+00	 4.684097909589374e+00
 2.727940274725352e-01	 1.862486087193140e+00	 4.629036484436048e+00
 2.564496316329439e-01	 1.864806848419438e+00	 4.576397184506369e+00
 2.401336735270881e-01	 1.866977992128452e+00	 4.526357232311521e+00
 2.238479828302094e-01	 1.869000565147120e+00	 4.479040904249915e+00
 2.075943598076006e-01	 1.870875639613892e+00	 4.434520106515103e+00
 1.913745749929846e-01	 1.872604312149079e+00	 4.392814864695543e+00
 1.751903688914300e-01	 1.874187703024645e+00	 4.353893727287886e+00
 1.590434517065504e-01	 1.875626955334190e+00	 4.317674084202631e+00
 3.234882984886233e-01	 1.863309024096240e+00	 4.842149562671683e+00
 3.069928993702057e-01	 1.866097663299308e+00	 4.782261860107587e+00
 2.905203828444765e-01	 1.868732989385335e+00	 4.724390772370928e+00
 2.740726736175322e-01	 1.871215972813470e+00	 4.668815144261072e+00
 2.576516679671727e-01	 1.873547611962533e+00	 4.615759833360823e+00
 2.412592333445186e-01	 1.875728932303808e+00	 4.565396508796486e+00
 2.248972080009062e-01	 1.877760985570946e+00	 4.517844359111847e+00
 2.085674006398718e-01	 1.879644848927742e+00	 4.473170707640232e+00
 1.922715900940236e-01	 1.881381624134609e+00	 4.431391534731009e+00
 1.760115250265642e-01	 1.882972436714475e+00	 4.392471907124282e+00
 1.597889236572118e-01	 1.884418435118870e+00	 4.356326315657276e+00
 3.249974860365428e-01	 1.872002020998873e+00	 4.882747409361527e+00
 3.084251300353769e-01	 1.874803670191940e+00	 4.822299078442171e+00
 2.918757633822891e-01	 1.877451291007973e+00	 4.763965937537790e+00
 2.753513197628181e-01	 1.879945858433651e+00	 4.708019521036424e+00
 2.588537043015764e-01	 1.882288375505576e+00	 4.654677803828195e+00
 2.423847931620126e-01	 1.884479872479215e+00	 4.604106055073829e+00
 2.259464331715617e-01	 1.886521405994918e+00	 4.556417593973999e+00
 2.095404414720090e-01	 1.888414058241828e+00	 4.511674445920136e+00
 1.931686051948520e-01	 1.890158936120450e+00	 4.469887898428844e+00
 1.768326811614326e-01	 1.891757170404670e+00	 4.431018957221530e+00
 1.605343956075780e-01	 1.893209914903944e+00	 4.394978703738287e+00
 3.265066735849897e-01	 1.880695017901245e+00	 4.922489719060491e+00
 3.098573607010064e-01	 1.883509677084360e+00	 4.861643754166282e+00
 2.932311439204799e-01	 1.886169592630466e+00	 4.802999203379441e+00
 2.766299659083941e-01	 1.888675744053763e+00	 4.746819316928970e+00
 2.600557406361800e-01	 1.891029139048634e+00	 4.693314276026365e+00
 2.435103529796172e-01	 1.893230812654720e+00	 4.642642103465723e+00
 2.269956583422443e-01	 1.895281826419068e+00	 4.594909468862563e+00
 2.105134823040992e-01	 1.897183267556163e+00	 4.550172386916569e+00
 1.940656202955735e-01	 1.898936248106599e+00	 4.508436808141124e+00
 1.776538372961520e-01	 1.900541904095215e+00	 4.469659102495932e+00
 1.612798675577749e-01	 1.902001394689388e+00	 4.433746437319206e+00
 3.280158611338989e-01	 1.889388014803469e+00	 4.961561525600524e+00
 3.112895913670510e-01	 1.892215683976677e+00	 4.900475820091295e+00
 2.945865244590273e-01	 1.894887894252909e+00	 4.841664970985219e+00
 2.779086120542623e-01	 1.897405629673888e+00	 4.785382968256339e+00
 2.612577769710084e-01	 1.899769902591771e+00	 4.731831287154344e+00
 2.446359127973796e-01	 1.901981752830368e+00	 4.681159857479045e+00
 2.280448835130220e-01	 1.904042246843425e+00	 4.633467919880530e+00
 2.114865231362296e-01	 1.905952476870757e+00	 4.588804767578957e+00
 1.949626353962916e-01	 1.907713560093051e+00	 4.547170372986986e+00
 1.784749934308389e-01	 1.909326637786092e+00	 4.508515899748152e+00
 1.620253395079284e-01	 1.910792874475175e+00	 4.472744101702156e+00
 3.295250486832060e-01	 1.898081011705663e+00	 5.000146195309304e+00
 3.127218220334665e-01	 1.900921690869000e+00	 4.938973688133752e+00
 2.959419049979104e-01	 1.903606195875402e+00	 4.880136259600820e+00
 2.791872582004246e-01	 1.906135515294109e+00	 4.823877660550275e+00
 2.624598133060862e-01	 1.908510666135051e+00	 4.770389746270938e+00
 2.457614726153469e-01	 1.910732693006207e+00	 4.719813506311699e+00
 2.290941086839632e-01	 1.912802667268016e+00	 4.672239973454762e+00
 2.124595639684876e-01	 1.914721686185623e+00	 4.627711010250247e+00
 1.958596504971099e-01	 1.916490872079803e+00	 4.586219972636349e+00
 1.792961495656101e-01	 1.918111371477284e+00	 4.547712251247624e+00
 1.627708114581645e-01	 1.919584354261280e+00	 4.512085692025548e+00
 3.310342362328462e-01	 1.906774008607944e+00	 5.038425442329975e+00
 3.141540527002098e-01	 1.909627697761435e+00	 4.977314264358235e+00
 2.972972855371077e-01	 1.912324497498037e+00	 4.918584721398197e+00
 2.804659043468828e-01	 1.914865400914506e+00	 4.862469343059044e+00
 2.636618496414384e-01	 1.917251429678539e+00	 4.809149448536356e+00
 2.468870324335666e-01	 1.919483633182285e+00	 4.758756238844578e+00
 2.301433338551358e-01	 1.921563087692869e+00	 4.711371760091687e+00
 2.134326048009602e-01	 1.923490895500773e+00	 4.667029736198551e+00
 1.967566655981319e-01	 1.925268184066851e+00	 4.625716270638875e+00
 1.801173057005824e-01	 1.926896105168775e+00	 4.587370417877940e+00
 1.635162834086092e-01	 1.928375834047675e+00	 4.551884626250876e+00
 3.325434237827546e-01	 1.915467005510426e+00	 5.076579343321504e+00
 3.155862833672366e-01	 1.918333704654092e+00	 5.015672963427608e+00
 2.986526660765982e-01	 1.921042799120914e+00	 4.957180655677263e+00
 2.817445504936386e-01	 1.923595286535161e+00	 4.901322742705774e+00
 2.648638859770899e-01	 1.925992193222300e+00	 4.848269088934437e+00
 2.480125922520855e-01	 1.928234573358647e+00	 4.798140257135892e+00
 2.311925590266081e-01	 1.930323508118015e+00	 4.751008527653598e+00
 2.144056456337346e-01	 1.932260104816217e+00	 4.706898778694613e+00
 1.976536806994613e-01	 1.934045496054190e+00	 4.665789227314160e+00
 1.809384618358723e-01	 1.935680838860549e+00	 4.627612031860484e+00
 1.642617553593884e-01	 1.937167313834336e+00	 4.592253757740085e+00
 3.340526113328665e-01	 1.924160002413225e+00	 5.114786351561153e+00
 3.170185140345038e-01	 1.927039711547080e+00	 5.054223722480607e+00
 3.000080466163605e-01	 1.929761100744128e+00	 4.996093022520723e+00
 2.830231966406938e-01	 1.932325172156155e+00	 4.940601377520402e+00
 2.660659223130654e-01	 1.934732956766400e+00	 4.887906275488884e+00
 2.491381520709509e-01	 1.936985513535340e+00	 4.838116789429935e+00
 2.322417841984482e-01	 1.939083928543483e+00	 4.791294654173421e+00
 2.153786864668980e-01	 1.941029314131968e+00	 4.747455195641018e+00
 1.985506958012014e-01	 1.942822808041816e+00	 4.706568112215313e+00
 1.817596179715965e-01	 1.944465572552587e+00	 4.668558109068834e+00
 1.650072273106280e-01	 1.945958793621237e+00	 4.633305387442189e+00
 3.355617988831173e-01	 1.932852999316460e+00	 5.153223310469904e+00
 3.184507447019675e-01	 1.935745718440506e+00	 5.093139014455364e+00
 3.013634271563735e-01	 1.938479402367776e+00	 5.035489455913323e+00
 2.843018427880504e-01	 1.941055057777572e+00	 4.980467569562958e+00
 2.672679586493897e-01	 1.943473720310901e+00	 4.928217541993262e+00
 2.502637118902101e-01	 1.945736453712412e+00	 4.878836102701785e+00
 2.332910093707245e-01	 1.947844348969300e+00	 4.832373660221508e+00
 2.163517273005377e-01	 1.949798523448037e+00	 4.788835281775544e+00
 1.994477109034560e-01	 1.951600120029727e+00	 4.748181516179791e+00
 1.825807741078719e-01	 1.953250306244875e+00	 4.710329060945335e+00
 1.657526992624541e-01	 1.954750273408352e+00	 4.675151275693546e+00
 3.370709864334423e-01	 1.941545996220245e+00	 5.192065466575267e+00
 3.198829753695842e-01	 1.944451725334479e+00	 5.132589860872525e+00
 3.027188076966160e-01	 1.947197703991955e+00	 5.075536276349381e+00
 2.855804889357101e-01	 1.949784943399491e+00	 5.021082457352442e+00
 2.684699949860878e-01	 1.952214483855871e+00	 4.969358360267520e+00
 2.513892717099102e-01	 1.954487393889909e+00	 4.920447514747330e+00
 2.343402345435050e-01	 1.956604769395496e+00	 4.874388220838569e+00
 2.173247681347407e-01	 1.958567732764435e+00	 4.831174580456358e+00
 2.003447260063288e-01	 1.960377432017918e+00	 4.790757362982863e+00
 1.834019302448152e-01	 1.962035039937395e+00	 4.753044706034892e+00
 1.664981712149926e-01	 1.963541753195654e+00	 4.717902653650451e+00
 1.590434517065504e-01	 1.875626955334190e+00	 4.317674084202631e+00
 1.429382314216784e-01	 1.876923025847079e+00	 4.284590008807020e+00
 1.268735769469384e-01	 1.878077356778291e+00	 4.255202452186250e+00
 1.108510687324477e-01	 1.879091153726199e+00	 4.229559875364194e+00
 9.487225709370022e-02	 1.879965641777177e+00	 4.207658638928264e+00
 7.893866205069694e-02	 1.880702064699139e+00	 4.189442542741450e+00
 6.305177318862708e-02	 1.881301684138893e+00	 4.174802313508327e+00
 4.721304953974399e-02	 1.881765778823908e+00	 4.163575046140105e+00
 3.142391948606261e-02	 1.882095643769081e+00	 4.155543605239484e+00
 1.568578068249159e-02	 1.882292589489063e+00	 4.150435993351763e+00
 0.000000000000000e+00	 1.882357941216666e+00	 4.147924692797902e+00
 1.597889236572118e-01	 1.884418435118870e+00	 4.356326315657276e+00
 1.436082146305011e-01	 1.885720580601749e+00	 4.323410270879979e+00
 1.274682615549137e-01	 1.886880322138074e+00	 4.294289171437898e+00
 1.113706522885187e-01	 1.887898870977132e+00	 4.268984132832804e+00
 9.531694441351392e-02	 1.888777457947550e+00	 4.247465048359919e+00
 7.930866507460187e-02	 1.889517332647062e+00	 4.229650140128446e+00
 6.334731083901836e-02	 1.890119762636099e+00	 4.215405451515054e+00
 4.743434757785443e-02	 1.890586032635811e+00	 4.204544287250342e+00
 3.157121036829778e-02	 1.890917443731123e+00	 4.196826607743685e+00
 1.575930341640463e-02	 1.891115312579360e+00	 4.191958384576980e+00
 0.000000000000000e+00	 1.891180970624999e+00	 4.189590924285532e+00
 1.605343956075780e-01	 1.893209914903944e+00	 4.394978703738287e+00
 1.442781978390275e-01	 1.894518135356813e+00	 4.362243746403212e+00
 1.280629461626155e-01	 1.895683287498231e+00	 4.333386375088600e+00
 1.118902358443562e-01	 1.896706588228395e+00	 4.308404105443288e+00
 9.576163173314500e-02	 1.897589274118199e+00	 4.287244159807954e+00
 7.967866809837955e-02	 1.898332600595201e+00	 4.269803024668240e+00
 6.364284848933595e-02	 1.898937841133457e+00	 4.255925943056957e+00
 4.765564561593674e-02	 1.899406286447809e+00	 4.245406348378334e+00
 3.171850125053627e-02	 1.899739243693211e+00	 4.237985246541709e+00
 1.583282615033235e-02	 1.899938035669670e+00	 4.233350553644945e+00
 0.000000000000000e+00	 1.900004000033333e+00	 4.231136396626956e+00
 1.612798675577749e-01	 1.902001394689388e+00	 4.433746437319206e+00
 1.449481810473886e-01	 1.903315690112244e+00	 4.401196503033639e+00
 1.286576307701753e-01	 1.904486252858727e+00	 4.372591206951104e+00
 1.124098194000882e-01	 1.905514305479959e+00	 4.347908161362877e+00
 9.620631905271379e-02	 1.906401090289098e+00	 4.327075666166714e+00
 8.004867112213891e-02	 1.907147868543532e+00	 4.309972267895750e+00
 6.393838613967366e-02	 1.907755919630951e+00	 4.296426247149681e+00
 4.787694365406614e-02	 1.908226540259889e+00	 4.286215041180124e+00
 3.186579213283140e-02	 1.908561043655338e+00	 4.279064608816862e+00
 1.590634888430292e-02	 1.908760758759990e+00	 4.274648745287709e+00
 0.000000000000000e+00	 1.908827029441666e+00	 4.272588354667896e+00
 1.620253395079284e-01	 1.910792874475175e+00	 4.472744101702152e+00
 1.456181642557152e-01	 1.912113244868008e+00	 4.440374052725701e+00
 1.292523153777245e-01	 1.913289218219532e+00	 4.412000280986179e+00
 1.129294029558426e-01	 1.914322022731792e+00	 4.387584143551701e+00
 9.665100637234066e-02	 1.915212906460218e+00	 4.367038719390282e+00
 8.041867414598883e-02	 1.915963136492034e+00	 4.350228365137908e+00
 6.423392379012537e-02	 1.916573998128565e+00	 4.336968192651598e+00
 4.809824169231792e-02	 1.917046794072044e+00	 4.327023475393930e+00
 3.201308301523648e-02	 1.917382843617501e+00	 4.320108991140304e+00
 1.597987161834455e-02	 1.917583481850320e+00	 4.315888308885222e+00
 0.000000000000000e+00	 1.917650058849999e+00	 4.313973028017827e+00
 1.627708114581645e-01	 1.919584354261280e+00	 4.512085692025548e+00
 1.462881474641380e-01	 1.920910799624077e+00	 4.479881365124832e+00
 1.298469999853945e-01	 1.922092183580612e+00	 4.451709694958910e+00
 1.134489865117470e-01	 1.923129739983864e+00	 4.427519383939982e+00
 9.709569369214588e-02	 1.924024722631535e+00	 4.407211945428469e+00
 8.078867717003825e-02	 1.924778404440686e+00	 4.390641251421251e+00
 6.452946144078488e-02	 1.925392076626283e+00	 4.377612995338711e+00
 4.831953973076732e-02	 1.925867047884262e+00	 4.367884077252604e+00
 3.216037389780486e-02	 1.926204643579694e+00	 4.361161919370566e+00
 1.605339435248539e-02	 1.926406204940658e+00	 4.357103719985068e+00
 0.000000000000000e+00	 1.926473088258333e+00	 4.355315654298745e+00
 1.635162834086092e-01	 1.928375834047675e+00	 4.551884626250880e+00
 1.469581306727880e-01	 1.929708354380417e+00	 4.519822880548173e+00
 1.304416845933169e-01	 1.930895148941936e+00	 4.491815043687108e+00
 1.139685700679296e-01	 1.931937457236145e+00	 4.467800717193102e+00
 9.754038101224971e-02	 1.932836538803019e+00	 4.447673458734656e+00
 8.115868019439608e-02	 1.933593672389465e+00	 4.431280316933016e+00
 6.482499909174606e-02	 1.934210155124091e+00	 4.418421274503578e+00
 4.854083776948961e-02	 1.934687301696534e+00	 4.408848607386680e+00
 3.230766478058984e-02	 1.935026443541913e+00	 4.402266168008770e+00
 1.612691708675365e-02	 1.935228928031003e+00	 4.398328601232743e+00
 0.000000000000000e+00	 1.935296117666666e+00	 4.396640501756828e+00
 1.642617553593884e-01	 1.937167313834336e+00	 4.592253757740082e+00
 1.476281138817961e-01	 1.938505909136998e+00	 4.560302522570162e+00
 1.310363692016229e-01	 1.939698114303471e+00	 4.532411431893266e+00
 1.144881536245180e-01	 1.940745174488602e+00	 4.508514494071764e+00
 9.798506833277253e-02	 1.941648354974646e+00	 4.488500876358631e+00
 8.152868321917121e-02	 1.942408940338352e+00	 4.472214422044596e+00
 6.512053674310277e-02	 1.943028233621972e+00	 4.459453069092568e+00
 4.876213580856004e-02	 1.943507555508849e+00	 4.449968178235754e+00
 3.245495566364472e-02	 1.943848243504153e+00	 4.443463779023577e+00
 1.620043982117750e-02	 1.944051651121353e+00	 4.439595742732424e+00
 0.000000000000000e+00	 1.944119147074999e+00	 4.437970891259588e+00
 1.650072273106280e-01	 1.945958793621237e+00	 4.633305387442189e+00
 1.482980970912930e-01	 1.947303463893789e+00	 4.601423710220587e+00
 1.316310538104442e-01	 1.948501079665185e+00	 4.573593486673272e+00
 1.150077371816403e-01	 1.949552891741206e+00	 4.549746594406385e+00
 9.842975565383462e-02	 1.950460171146388e+00	 4.529771331637703e+00
 8.189868624447254e-02	 1.951224208287323e+00	 4.513511911916460e+00
 6.541607439494881e-02	 1.951846312119910e+00	 4.500767853397073e+00
 4.898343384805388e-02	 1.952327809321200e+00	 4.491293270982014e+00
 3.260224654702285e-02	 1.952670043466408e+00	 4.484796080163893e+00
 1.627396255578512e-02	 1.952874374211707e+00	 4.480937121854510e+00
 0.000000000000000e+00	 1.952942176483333e+00	 4.479329217696627e+00
 1.657526992624541e-01	 1.954750273408352e+00	 4.675151275693546e+00
 1.489680803014097e-01	 1.956101018650761e+00	 4.643289369812503e+00
 1.322257384199121e-01	 1.957304045027046e+00	 4.615455369594143e+00
 1.155273207394242e-01	 1.958360608993926e+00	 4.591582439691678e+00
 9.887444297555625e-02	 1.959271987318218e+00	 4.571561487499539e+00
 8.226868927040905e-02	 1.960039476236356e+00	 4.555240630694087e+00
 6.571161204737802e-02	 1.960664390617890e+00	 4.542424552313491e+00
 4.920473188804639e-02	 1.961148063133574e+00	 4.532873752023428e+00
 3.274953743077755e-02	 1.961491843428675e+00	 4.526303702774109e+00
 1.634748529060471e-02	 1.961697097302066e+00	 4.522383922507590e+00
 0.000000000000000e+00	 1.961765205891666e+00	 4.520736970801692e+00
 1.664981712149926e-01	 1.963541753195654e+00	 4.717902653650444e+00
 1.496380635122771e-01	 1.964898573407881e+00	 4.686001946407199e+00
 1.328204230301581e-01	 1.966107010389023e+00	 4.658090788433972e+00
 1.160469042979976e-01	 1.967168326246733e+00	 4.634107005320586e+00
 9.931913029805782e-02	 1.968083803490110e+00	 4.613947549385557e+00
 8.263869229708956e-02	 1.968854744185433e+00	 4.597467935308509e+00
 6.600714970048427e-02	 1.969482469115895e+00	 4.584481556181881e+00
 4.942602992861282e-02	 1.969968316945963e+00	 4.574758888997243e+00
 3.289682831496212e-02	 1.970313643390948e+00	 4.568026599131257e+00
 1.642100802566443e-02	 1.970519820392425e+00	 4.563966553893989e+00
 0.000000000000000e+00	 1.970588235300000e+00	 4.562214755417039e+00
 1.970588235300000e+00	 0.000000000000000e+00	 1.253837095432320e+01
 1.970519820392425e+00	 1.642100802566334e-02	 1.253973177975062e+01
 1.970313643390948e+00	 3.289682831496119e-02	 1.254206130316853e+01
 1.969968316945962e+00	 4.942602992861205e-02	 1.254515505488087e+01
 1.969482469115896e+00	 6.600714970048366e-02	 1.254883092571348e+01
 1.968854744185433e+00	 8.263869229708914e-02	 1.255292921512309e+01
 1.968083803490109e+00	 9.931913029805751e-02	 1.255731272077547e+01
 1.967168326246733e+00	 1.160469042979975e-01	 1.256186687354259e+01
 1.966107010389023e+00	 1.328204230301581e-01	 1.256649992190577e+01
 1.964898573407881e+00	 1.496380635122773e-01	 1.257114316976141e+01
 1.963541753195655e+00	 1.664981712149926e-01	 1.257575127162404e+01
 1.979411264708333e+00	 0.000000000000000e+00	 1.250831098755280e+01
 1.979342543482784e+00	 1.649453076097796e-02	 1.250981341398586e+01
 1.979135443353222e+00	 3.304411919960481e-02	 1.251222775019682e+01
 1.978788570758354e+00	 4.964732796979519e-02	 1.251536006980644e+01
 1.978300547613911e+00	 6.630268735432222e-02	 1.251903851818417e+01
 1.977670012134527e+00	 8.300869532457990e-02	 1.252311333546834e+01
 1.976895619662033e+00	 9.976381762141422e-02	 1.252745692193967e+01
 1.975976043499590e+00	 1.165664878574424e-01	 1.253196394978906e+01
 1.974909975751075e+00	 1.334151076412680e-01	 1.253655152535906e+01
 1.973696128165110e+00	 1.503080467239820e-01	 1.254115940595091e+01
 1.972333232983107e+00	 1.672436431683274e-01	 1.254575027528939e+01
 1.988234294116667e+00	 0.000000000000000e+00	 1.247884549892281e+01
 1.988165266573141e+00	 1.656805349650859e-02	 1.248050355094482e+01
 1.987957243315492e+00	 3.319141008463999e-02	 1.248302032161150e+01
 1.987608824570739e+00	 4.986862601150802e-02	 1.248621145672004e+01
 1.987118626111917e+00	 6.659822500879423e-02	 1.248991439097066e+01
 1.986485280083611e+00	 8.337869835277670e-02	 1.249398834725748e+01
 1.985707435833949e+00	 1.002085049455213e-01	 1.249831437922751e+01
 1.984783760752450e+00	 1.170860714176574e-01	 1.250279546123625e+01
 1.983712941113145e+00	 1.340097922531461e-01	 1.250735662987239e+01
 1.982493682922379e+00	 1.509780299364346e-01	 1.251194518123653e+01
 1.981124712770631e+00	 1.679891151223749e-01	 1.251653092816016e+01
 1.997057323525000e+00	 0.000000000000000e+00	 1.244997402519339e+01
 1.996987989663497e+00	 1.664157623220292e-02	 1.245179379426706e+01
 1.996779043277752e+00	 3.333870096997509e-02	 1.245442332945776e+01
 1.996429078383105e+00	 5.008992405363105e-02	 1.245768689311844e+01
 1.995936704609892e+00	 6.689376266376228e-02	 1.246143025937052e+01
 1.995300548032656e+00	 8.374870138153247e-02	 1.246552069101408e+01
 1.994519252005821e+00	 1.006531922702292e-01	 1.246984696064946e+01
 1.993591478005259e+00	 1.176056549784952e-01	 1.247431942022696e+01
 1.992515906475166e+00	 1.346044768656508e-01	 1.247887012328706e+01
 1.991291237679609e+00	 1.516480131495014e-01	 1.248345300416731e+01
 1.989916192558135e+00	 1.687345870770098e-01	 1.248804411845590e+01
 2.005880352933334e+00	 0.000000000000000e+00	 1.242169677178612e+01
 2.005810712753848e+00	 1.671509896800864e-02	 1.242367654718371e+01
 2.005600843239997e+00	 3.348599185551849e-02	 1.242642200694643e+01
 2.005249332195440e+00	 5.031122209604479e-02	 1.242976508958355e+01
 2.004754783107819e+00	 6.718930031908894e-02	 1.243355897373840e+01
 2.004115815981632e+00	 8.411870441070034e-02	 1.243767803405486e+01
 2.003331068177603e+00	 1.010978795953879e-01	 1.244201784222784e+01
 2.002399195257965e+00	 1.181252385398082e-01	 1.244649521754117e+01
 2.001318871837074e+00	 1.351991614786409e-01	 1.245104833124318e+01
 2.000088792436723e+00	 1.523179963630490e-01	 1.245563686912661e+01
 1.998707672345530e+00	 1.694800590321063e-01	 1.246024225668374e+01
 2.014703382341667e+00	 0.000000000000000e+00	 1.239401459814255e+01
 2.014633435844194e+00	 1.678862170387343e-02	 1.239614499544488e+01
 2.014422643202223e+00	 3.363328274117855e-02	 1.239900248912093e+01
 2.014069586007733e+00	 5.053252013862973e-02	 1.240242576836569e+01
 2.013572861605677e+00	 6.748483797463685e-02	 1.240627449616779e+01
 2.012931083930510e+00	 8.448870744013323e-02	 1.241042924545807e+01
 2.012142884349258e+00	 1.015425669208479e-01	 1.241479148144438e+01
 2.011206912510516e+00	 1.186448221014493e-01	 1.241928359452043e+01
 2.010121837198803e+00	 1.357938460919748e-01	 1.242384898818487e+01
 2.008886347193643e+00	 1.529879795769438e-01	 1.242845222642695e+01
 2.007499152132723e+00	 1.702255309875390e-01	 1.243307924503739e+01
 2.023526411750000e+00	 0.000000000000000e+00	 1.236692900346613e+01
 2.023456158934532e+00	 1.686214443974498e-02	 1.236919309069300e+01
 2.023244443164422e+00	 3.378057362686362e-02	 1.237215179402848e+01
 2.022889839819972e+00	 5.075381818126642e-02	 1.237564964252431e+01
 2.022390940103445e+00	 6.778037563026854e-02	 1.237955187777750e+01
 2.021746351879260e+00	 8.485871046968424e-02	 1.238374437167718e+01
 2.020954700520745e+00	 1.019872542464594e-01	 1.238813359136849e+01
 2.020014629762858e+00	 1.191644056632711e-01	 1.239264661590335e+01
 2.018924802560290e+00	 1.363885307055112e-01	 1.239723120910060e+01
 2.017683901950290e+00	 1.536579627910522e-01	 1.240185595315759e+01
 2.016290631919625e+00	 1.709710029431824e-01	 1.240651044755961e+01
 2.032349441158334e+00	 0.000000000000000e+00	 1.234044211283507e+01
 2.032278882024863e+00	 1.693566717557098e-02	 1.234281553426912e+01
 2.032066243126591e+00	 3.392786451248211e-02	 1.234585780438074e+01
 2.031710093632146e+00	 5.097511622383536e-02	 1.234941839560837e+01
 2.031209018601105e+00	 6.807591328584661e-02	 1.235336723658344e+01
 2.030561619827852e+00	 8.522871349920640e-02	 1.235759461278099e+01
 2.029766516692022e+00	 1.024319415720726e-01	 1.236201111544674e+01
 2.028822347014941e+00	 1.196839892251263e-01	 1.236654764335089e+01
 2.027727767921467e+00	 1.369832153191087e-01	 1.237115546197547e+01
 2.026481456706587e+00	 1.543279460052406e-01	 1.237580632476094e+01
 2.025082111706145e+00	 1.717164748989107e-01	 1.238049266104478e+01
 2.041172470566667e+00	 0.000000000000000e+00	 1.231455666367579e+01
 2.041101605115184e+00	 1.700918991129913e-02	 1.231700776143882e+01
 2.040888043088722e+00	 3.407515539794231e-02	 1.232010924968796e+01
 2.040530347444243e+00	 5.119641426621703e-02	 1.232371466186082e+01
 2.040027097098637e+00	 6.837145094123367e-02	 1.232769773593924e+01
 2.039376887776257e+00	 8.559871652855275e-02	 1.233195229930072e+01
 2.038578332863048e+00	 1.028766288975378e-01	 1.233639220293271e+01
 2.037630064266710e+00	 1.202035727868675e-01	 1.234095130964018e+01
 2.036530733282270e+00	 1.375778999326259e-01	 1.234558354093528e+01
 2.035279011462456e+00	 1.549979292193754e-01	 1.235026298731712e+01
 2.033873591492191e+00	 1.724619468545988e-01	 1.235498408665910e+01
 2.049995499975000e+00	 0.000000000000000e+00	 1.228927599258544e+01
 2.049924328205493e+00	 1.708271264687711e-02	 1.229176592602483e+01
 2.049709843050813e+00	 3.422244628315263e-02	 1.229489568885392e+01
 2.049350601256250e+00	 5.141771230829197e-02	 1.229852200693081e+01
 2.048845175596020e+00	 6.866698859629229e-02	 1.230252156352715e+01
 2.048192155724445e+00	 8.596871955757628e-02	 1.230679086966597e+01
 2.047390149033785e+00	 1.033213162227052e-01	 1.231124618493870e+01
 2.046437781518113e+00	 1.207231563483473e-01	 1.231582349350712e+01
 2.045333698642635e+00	 1.381725845459214e-01	 1.232047854005999e+01
 2.044076566217819e+00	 1.556679124333231e-01	 1.232518693051406e+01
 2.042665071277676e+00	 1.732074188101208e-01	 1.232994430225742e+01
 2.058818529383334e+00	 0.000000000000000e+00	 1.226460402249318e+01
 2.058747051295792e+00	 1.715623538225260e-02	 1.226708688543497e+01
 2.058531643012857e+00	 3.436973716802146e-02	 1.227020749321605e+01
 2.058170855068159e+00	 5.163901034994070e-02	 1.227382490907902e+01
 2.057663254093237e+00	 6.896252625088510e-02	 1.227781791088380e+01
 2.057007423672389e+00	 8.633872258613008e-02	 1.228208484821190e+01
 2.056201965204191e+00	 1.037660035474252e-01	 1.228654355108994e+01
 2.055245498769098e+00	 1.212427399094184e-01	 1.229113129511793e+01
 2.054136664002496e+00	 1.387672691588538e-01	 1.229580482784803e+01
 2.052874120972598e+00	 1.563378956469501e-01	 1.230054046128316e+01
 2.051456551062507e+00	 1.739528907653515e-01	 1.230533423537471e+01
 1.963541753195655e+00	 1.664981712149926e-01	 1.257575127162404e+01
 1.962035039937395e+00	 1.834019302448144e-01	 1.258099282975023e+01
 1.960377432017917e+00	 2.003447260063280e-01	 1.258753503401917e+01
 1.958567732764435e+00	 2.173247681347400e-01	 1.259536917510009e+01
 1.956604769395495e+00	 2.343402345435043e-01	 1.260451198655568e+01
 1.954487393889909e+00	 2.513892717099096e-01	 1.261500635057537e+01
 1.952214483855871e+00	 2.684699949860874e-01	 1.262692208449126e+01
 1.949784943399491e+00	 2.855804889357098e-01	 1.264035681148418e+01
 1.947197703991955e+00	 3.027188076966157e-01	 1.265543691874571e+01
 1.944451725334479e+00	 3.198829753695840e-01	 1.267231860620039e+01
 1.941545996220244e+00	 3.370709864334422e-01	 1.269118902871231e+01
 1.972333232983107e+00	 1.672436431683274e-01	 1.254575027528939e+01
 1.970819773630115e+00	 1.842230863825027e-01	 1.255100643395982e+01
 1.969154744006365e+00	 2.012417411098860e-01	 1.255760180737611e+01
 1.967336942081150e+00	 2.182978089695609e-01	 1.256552431977206e+01
 1.965365189822070e+00	 2.353894597168285e-01	 1.257478650584501e+01
 1.963238334067847e+00	 2.525148315300733e-01	 1.258542621004067e+01
 1.960955247401336e+00	 2.696720313231641e-01	 1.259750736906016e+01
 1.958514829021956e+00	 2.868591350836591e-01	 1.261112088110510e+01
 1.955916005616716e+00	 3.040741882370558e-01	 1.262638556523464e+01
 1.953157732229060e+00	 3.213152060373045e-01	 1.264344921404654e+01
 1.950238993124648e+00	 3.385801739837758e-01	 1.266248974271142e+01
 1.981124712770631e+00	 1.679891151223749e-01	 1.251653092816016e+01
 1.979604507322948e+00	 1.850442425208570e-01	 1.252180738634790e+01
 1.977932055994974e+00	 2.021387562140528e-01	 1.252845375615531e+01
 1.976106151398081e+00	 2.192708498049244e-01	 1.253645525636025e+01
 1.974125610248917e+00	 2.364386848906215e-01	 1.254582089722997e+01
 1.971989274246110e+00	 2.536403913506257e-01	 1.255658417290761e+01
 1.969696010947182e+00	 2.708740676605446e-01	 1.256880383943618e+01
 1.967244714644846e+00	 2.881377812318237e-01	 1.258256478204523e+01
 1.964634307241942e+00	 3.054295687776203e-01	 1.259797897518288e+01
 1.961863739124130e+00	 3.227474367050577e-01	 1.261518653861216e+01
 1.958931990029550e+00	 3.400893615340513e-01	 1.263435689270800e+01
 1.989916192558135e+00	 1.687345870770098e-01	 1.248804411845590e+01
 1.988389241015790e+00	 1.858653986597584e-01	 1.249334556692196e+01
 1.986709367983631e+00	 2.030357713187153e-01	 1.250004020337080e+01
 1.984875360715103e+00	 2.202438906407224e-01	 1.250811119366175e+01
 1.982886030675901e+00	 2.374879100647797e-01	 1.251756468928175e+01
 1.980740214424560e+00	 2.547659511714677e-01	 1.252843051238315e+01
 1.978436774493257e+00	 2.720761039981343e-01	 1.254076292885050e+01
 1.975974600268007e+00	 2.894164273801139e-01	 1.255464151313134e+01
 1.973352608867469e+00	 3.067849493182255e-01	 1.257017210842181e+01
 1.970569746019525e+00	 3.241796673727672e-01	 1.258748788563473e+01
 1.967624986934786e+00	 3.415985490842008e-01	 1.260675050439335e+01
 1.998707672345530e+00	 1.694800590321063e-01	 1.246024225668374e+01
 1.997173974708539e+00	 1.866865547990883e-01	 1.246557240542237e+01
 1.995486679972220e+00	 2.039327864237606e-01	 1.247231204302679e+01
 1.993644570032090e+00	 2.212169314768472e-01	 1.248044292667482e+01
 1.991646451102887e+00	 2.385371352391998e-01	 1.248996900608715e+01
 1.989491154603049e+00	 2.558915109925001e-01	 1.250091710076616e+01
 1.987177538039408e+00	 2.732781403358382e-01	 1.251333766763150e+01
 1.984704485891279e+00	 2.906950735284401e-01	 1.252730566289640e+01
 1.982070910493136e+00	 3.081403298587879e-01	 1.254292150188565e+01
 1.979275752915078e+00	 3.256118980403568e-01	 1.256031212033120e+01
 1.976317983840187e+00	 3.431077366341572e-01	 1.257963214049559e+01
 2.007499152132723e+00	 1.702255309875390e-01	 1.243307924503739e+01
 2.005958708401092e+00	 1.875077109387282e-01	 1.243844085018294e+01
 2.004263991960627e+00	 2.048298015290760e-01	 1.244522170853598e+01
 2.002413779348917e+00	 2.221899723131905e-01	 1.245340280466747e+01
 2.000406871529739e+00	 2.395863604137781e-01	 1.246298653505729e+01
 1.998242094781434e+00	 2.570170708136236e-01	 1.247399737708314e+01
 1.995918301585487e+00	 2.744801766735620e-01	 1.248648265075033e+01
 1.993434371514504e+00	 2.919737196767124e-01	 1.250051337711557e+01
 1.990789212118780e+00	 3.094957103992237e-01	 1.251618523721537e+01
 1.987981759810624e+00	 3.270441287077500e-01	 1.253361963514355e+01
 1.985010980745589e+00	 3.446169241838526e-01	 1.255296486873705e+01
 2.016290631919625e+00	 1.709710029431824e-01	 1.240651044755961e+01
 2.014743442093345e+00	 1.883288670785593e-01	 1.241190533776128e+01
 2.013041303948737e+00	 2.057268166345483e-01	 1.241872314190982e+01
 2.011182988665458e+00	 2.231630131496444e-01	 1.242694470001810e+01
 2.009167291956323e+00	 2.406355855884111e-01	 1.243657149550511e+01
 2.006993034959571e+00	 2.581426306347390e-01	 1.244762631548565e+01
 2.004659065131339e+00	 2.756822130112106e-01	 1.246015400611939e+01
 2.002164257137524e+00	 2.932523658248414e-01	 1.247422232708338e+01
 1.999507513744238e+00	 3.108510909394492e-01	 1.248992290908833e+01
 1.996687766705998e+00	 3.284763593748701e-01	 1.250737231819217e+01
 1.993703977650824e+00	 3.461261117332197e-01	 1.252671323047952e+01
 2.025082111706145e+00	 1.717164748989107e-01	 1.238049266104478e+01
 2.023528175785197e+00	 1.891500232184631e-01	 1.238592176331500e+01
 2.021818615936437e+00	 2.066238317400649e-01	 1.239277176369866e+01
 2.019952197981589e+00	 2.241360539861011e-01	 1.240102397780478e+01
 2.017927712382503e+00	 2.416848107629952e-01	 1.241067960796779e+01
 2.015743975137318e+00	 2.592681904557470e-01	 1.242176039438712e+01
 2.013399828676815e+00	 2.768842493486894e-01	 1.243430936362091e+01
 2.010894142760184e+00	 2.945310119727374e-01	 1.244839167860859e+01
 2.008225815369348e+00	 3.122064714793808e-01	 1.246409559425132e+01
 2.005393773601034e+00	 3.299085900416410e-01	 1.248153352241565e+01
 2.002396974555725e+00	 3.476352992821909e-01	 1.250084321003640e+01
 2.033873591492191e+00	 1.724619468545988e-01	 1.235498408665910e+01
 2.032312909476544e+00	 1.899711793583208e-01	 1.236044745170183e+01
 2.030595927923613e+00	 2.075208468455127e-01	 1.236732444365710e+01
 2.028721407297184e+00	 2.251090948224524e-01	 1.237559746612060e+01
 2.026688132808145e+00	 2.427340359374269e-01	 1.238526806425245e+01
 2.024494915314527e+00	 2.603937502765484e-01	 1.239635756631627e+01
 2.022140592221762e+00	 2.780862856859037e-01	 1.240890782484350e+01
 2.019624028382323e+00	 2.958096581203107e-01	 1.242298206170568e+01
 2.016944116993947e+00	 3.135618520189347e-01	 1.243866582123640e+01
 2.014099780495567e+00	 3.313408207079863e-01	 1.245606803537690e+01
 2.011089971460127e+00	 3.491444868306984e-01	 1.247532220463196e+01
 2.042665071277676e+00	 1.732074188101208e-01	 1.232994430225742e+01
 2.041097643167284e+00	 1.907923354980139e-01	 1.233544112928132e+01
 2.039373239910149e+00	 2.084178619507789e-01	 1.234233947211451e+01
 2.037490616612118e+00	 2.260821356585905e-01	 1.235062342709312e+01
 2.035448553233113e+00	 2.437832611116027e-01	 1.236029549818232e+01
 2.033245855491058e+00	 2.615193100970440e-01	 1.237137722846579e+01
 2.030881355766028e+00	 2.792883220227587e-01	 1.238390993350491e+01
 2.028353914003786e+00	 2.970883042674717e-01	 1.239795554096177e+01
 2.025662418617874e+00	 3.149172325580274e-01	 1.241359754073805e+01
 2.022805787389431e+00	 3.327730513738292e-01	 1.243094204971439e+01
 2.019782968363860e+00	 3.506536743786751e-01	 1.245011899498762e+01
 2.051456551062507e+00	 1.739528907653515e-01	 1.230533423537471e+01
 2.049882376857315e+00	 1.916134916374238e-01	 1.231086289639726e+01
 2.048150551895931e+00	 2.093148770557507e-01	 1.231777653202868e+01
 2.046259825926267e+00	 2.270551764944074e-01	 1.232606152858670e+01
 2.044208973657273e+00	 2.448324862854191e-01	 1.233572195702351e+01
 2.041996795666765e+00	 2.626448699171346e-01	 1.234678019391518e+01
 2.039622119309464e+00	 2.804903583591599e-01	 1.235927764654127e+01
 2.037083799624415e+00	 2.983669504141306e-01	 1.237327558655866e+01
 2.034380720240965e+00	 3.162726130965752e-01	 1.238885609663250e+01
 2.031511794282461e+00	 3.342052820390937e-01	 1.240612313422019e+01
 2.028475965266763e+00	 3.521628619260533e-01	 1.242520371651695e+01
 1.941545996220244e+00	 3.370709864334422e-01	 1.269118902871231e+01
 1.938480070102190e+00	 3.542778798651433e-01	 1.270988274598138e+01
 1.935252515464695e+00	 3.715045168219472e-01	 1.272621147059952e+01
 1.931862412471655e+00	 3.887488114390375e-01	 1.274036781137412e+01
 1.928308873731856e+00	 4.060086502667835e-01	 1.275258032149427e+01
 1.924591045131398e+00	 4.232818928181366e-01	 1.276311528565260e+01
 1.920708106657807e+00	 4.405663721427606e-01	 1.277227861816362e+01
 1.916659273214932e+00	 4.578598954278800e-01	 1.278041787303819e+01
 1.912443795427681e+00	 4.751602446257804e-01	 1.278792436659953e+01
 1.908060960435679e+00	 4.924651771078769e-01	 1.279523541283163e+01
 1.903510092674904e+00	 5.097724263452202e-01	 1.280283667122736e+01
 1.950238993124648e+00	 3.385801739837758e-01	 1.266248974271142e+01
 1.947159339757076e+00	 3.558641088411304e-01	 1.268132883840616e+01
 1.943917334201315e+00	 3.731678756223417e-01	 1.269777857262197e+01
 1.940512052502813e+00	 3.904893791234378e-01	 1.271204146819497e+01
 1.936942603297183e+00	 4.078264964321268e-01	 1.272435600958321e+01
 1.933208128646343e+00	 4.251770774776411e-01	 1.273499844107639e+01
 1.929307804866323e+00	 4.425389456074416e-01	 1.274428467818288e+01
 1.925240843345804e+00	 4.599098981907534e-01	 1.275257233322781e+01
 1.921006491354468e+00	 4.772877072488776e-01	 1.276026285582201e+01
 1.916604032840201e+00	 4.946701201121875e-01	 1.276780378846090e+01
 1.912032789214229e+00	 5.120548601036816e-01	 1.277569113708976e+01
 1.958931990029550e+00	 3.400893615340513e-01	 1.263435689270800e+01
 1.955838609412455e+00	 3.574503378169704e-01	 1.265330344558583e+01
 1.952582152938404e+00	 3.748312344225044e-01	 1.266984193787344e+01
 1.949161692534410e+00	 3.922299468075285e-01	 1.268418364543819e+01
 1.945576332862909e+00	 4.096443425970912e-01	 1.269657581141661e+01
 1.941825212161644e+00	 4.270722621367091e-01	 1.270730345689067e+01
 1.937907503075148e+00	 4.445115190716422e-01	 1.271669130697194e+01
 1.933822413476946e+00	 4.619599009531187e-01	 1.272510583340251e+01
 1.929569187281490e+00	 4.794151698714577e-01	 1.273295741440584e+01
 1.925147105244934e+00	 4.968750631159928e-01	 1.274070261211680e+01
 1.920555485753756e+00	 5.143372938616730e-01	 1.274884656749364e+01
 1.967624986934786e+00	 3.415985490842008e-01	 1.260675050439335e+01
 1.964517879068161e+00	 3.590365667926065e-01	 1.262576964412626e+01
 1.961246971675803e+00	 3.764945932223906e-01	 1.264236799939182e+01
 1.957811332566286e+00	 3.939705144912779e-01	 1.265676445189835e+01
 1.954210062428879e+00	 4.114621887616586e-01	 1.266921384458070e+01
 1.950442295677148e+00	 4.289674467953352e-01	 1.268000880610509e+01
 1.946507201284140e+00	 4.464840925353690e-01	 1.268948169306175e+01
 1.942403983608214e+00	 4.640099037149928e-01	 1.269800665103038e+01
 1.938131883208609e+00	 4.815426324935459e-01	 1.270600179532420e+01
 1.933690177649742e+00	 4.990800061193236e-01	 1.271393151181187e+01
 1.929078182293349e+00	 5.166197276192274e-01	 1.272230887778760e+01
 1.976317983840187e+00	 3.431077366341572e-01	 1.257963214049559e+01
 1.973197148724028e+00	 3.606227957679817e-01	 1.259869202117325e+01
 1.969911790413346e+00	 3.781579520219558e-01	 1.261532467066942e+01
 1.966460972598281e+00	 3.957110821746541e-01	 1.262975544292352e+01
 1.962843791994938e+00	 4.132800349258104e-01	 1.264224563527539e+01
 1.959059379192707e+00	 4.308626314535145e-01	 1.265309432814400e+01
 1.955106899493149e+00	 4.484566659986286e-01	 1.266264034472375e+01
 1.950985553739471e+00	 4.660599064763932e-01	 1.267126433195822e+01
 1.946694579135689e+00	 4.836700951151673e-01	 1.267939096367028e+01
 1.942233250054491e+00	 5.012849491222111e-01	 1.268749126631879e+01
 1.937600878832876e+00	 5.189021613763783e-01	 1.269608506741845e+01
 1.985010980745589e+00	 3.446169241838526e-01	 1.255296486873705e+01
 1.981876418379890e+00	 3.622090247430395e-01	 1.257203664263683e+01
 1.978576609150870e+00	 3.798213108211553e-01	 1.258868131419050e+01
 1.975110612630236e+00	 3.974516498576258e-01	 1.260312958931870e+01
 1.971477521560928e+00	 4.150978810895282e-01	 1.261564808764234e+01
 1.967676462708170e+00	 4.327578161112408e-01	 1.262654119866532e+01
 1.963706597702032e+00	 4.504292394614277e-01	 1.263615306035195e+01
 1.959567123870574e+00	 4.681099092373365e-01	 1.264486966143557e+01
 1.955257275062591e+00	 4.857975577363481e-01	 1.265312106840990e+01
 1.950776322459048e+00	 5.034898921246862e-01	 1.266138377774399e+01
 1.946123575372203e+00	 5.211845951331590e-01	 1.267018319342455e+01
 1.993703977650824e+00	 3.461261117332197e-01	 1.252671323047952e+01
 1.990555688035582e+00	 3.637952537177229e-01	 1.254577102208114e+01
 1.987241427888211e+00	 3.814846696199445e-01	 1.256240871061026e+01
 1.983760252661990e+00	 3.991922175401612e-01	 1.257686124686412e+01
 1.980111251126696e+00	 4.169157272527940e-01	 1.258939945368017e+01
 1.976293546223384e+00	 4.346530007685088e-01	 1.260033189993569e+01
 1.972306295910644e+00	 4.524018129237728e-01	 1.261000689936797e+01
 1.968148694001381e+00	 4.701599119978401e-01	 1.261881463562648e+01
 1.963819970989180e+00	 4.879250203571130e-01	 1.262718941458255e+01
 1.959319394863277e+00	 5.056948351267798e-01	 1.263561204450774e+01
 1.954646271911197e+00	 5.234670288896022e-01	 1.264461234429194e+01
 2.002396974555725e+00	 3.476352992821909e-01	 1.250084321003640e+01
 1.999234957690937e+00	 3.653814826919749e-01	 1.251986409026001e+01
 1.995906246625206e+00	 3.831480284182786e-01	 1.253647902855560e+01
 1.992409892693384e+00	 4.009327852222285e-01	 1.255092612643041e+01
 1.988744980692086e+00	 4.187335734155892e-01	 1.256347930372843e+01
 1.984910629738201e+00	 4.365481854253137e-01	 1.257445019174481e+01
 1.980905994118838e+00	 4.543743863856706e-01	 1.258419015363323e+01
 1.976730264131752e+00	 4.722099147579211e-01	 1.259309243359321e+01
 1.972382666915315e+00	 4.900524829774880e-01	 1.260159443593729e+01
 1.967862467267044e+00	 5.078997781285233e-01	 1.261018013471916e+01
 1.963168968449725e+00	 5.257494626457417e-01	 1.261938261416168e+01
 2.011089971460127e+00	 3.491444868306984e-01	 1.247532220463196e+01
 2.007914227345791e+00	 3.669677116657392e-01	 1.249428616527786e+01
 2.004571065361692e+00	 3.848113872161132e-01	 1.251086579502936e+01
 2.001059532724257e+00	 4.026733529037965e-01	 1.252530126467223e+01
 1.997378710256942e+00	 4.205514195778954e-01	 1.253786849750362e+01
 1.993527713252470e+00	 4.384433700816494e-01	 1.254888108284264e+01
 1.989505692326468e+00	 4.563469598471275e-01	 1.255869231935259e+01
 1.985311834261547e+00	 4.742599175175962e-01	 1.256769738973813e+01
 1.980945362840864e+00	 4.921799455974982e-01	 1.257633566799056e+01
 1.976405539670214e+00	 5.101047211299473e-01	 1.258509315993396e+01
 1.971691664987653e+00	 5.280318964016106e-01	 1.259450507737808e+01
 2.019782968363860e+00	 3.506536743786751e-01	 1.245011899498762e+01
 2.016593496999975e+00	 3.685539406389585e-01	 1.246900892335817e+01
 2.013235884097506e+00	 3.864747460134034e-01	 1.248554386639906e+01
 2.009709172754451e+00	 4.044139205848329e-01	 1.249996499528280e+01
 2.006012439821110e+00	 4.223692657396942e-01	 1.251254915567043e+01
 2.002144796766039e+00	 4.403385547375105e-01	 1.252361080288408e+01
 1.998105390533390e+00	 4.583195333081502e-01	 1.253350406945548e+01
 1.993893404390623e+00	 4.763099202768828e-01	 1.254262496668994e+01
 1.989508058765687e+00	 4.943074082171689e-01	 1.255141372149291e+01
 1.984948612072654e+00	 5.123096641310829e-01	 1.256035724928328e+01
 1.980214361524848e+00	 5.303143301572421e-01	 1.256999176336714e+01
 2.028475965266763e+00	 3.521628619260533e-01	 1.242520371651695e+01
 2.025272766653326e+00	 3.701401696115764e-01	 1.244400537020044e+01
 2.021900702832483e+00	 3.881381048101049e-01	 1.246048939995358e+01
 2.018358812783806e+00	 4.061544882653070e-01	 1.247489692079288e+01
 2.014646169384433e+00	 4.241871119009676e-01	 1.248750463193182e+01
 2.010761880278761e+00	 4.422337393928923e-01	 1.249862677486529e+01
 2.006705088739459e+00	 4.602921067687453e-01	 1.250861722643910e+01
 2.002474974518841e+00	 4.783599230357982e-01	 1.251787172862077e+01
 1.998070754689647e+00	 4.964348708365260e-01	 1.252683025629255e+01
 1.993491684474229e+00	 5.145146071319616e-01	 1.253597952396248e+01
 1.988737058061177e+00	 5.325967639126696e-01	 1.254585563183585e+01
 1.903510092674904e+00	 5.097724263452202e-01	 1.280283667122736e+01
 1.898790555060662e+00	 5.270797028569836e-01	 1.281304599861708e+01
 1.893901750988258e+00	 5.443846956905017e-01	 1.282836169720416e+01
 1.888843123834064e+00	 5.616850724935336e-01	 1.284962966993258e+01
 1.883614157263803e+00	 5.789784800624048e-01	 1.287776715015115e+01
 1.878214375937486e+00	 5.962625451515265e-01	 1.291201592231976e+01
 1.872643346196608e+00	 6.135348753077534e-01	 1.294114312445350e+01
 1.866900676732649e+00	 6.307930597291920e-01	 1.296331174868107e+01
 1.860986019235964e+00	 6.480346701480327e-01	 1.297896317774217e+01
 1.854899069024128e+00	 6.652572617369513e-01	 1.298855630903299e+01
 1.848639565648836e+00	 6.824583740385707e-01	 1.299256759023219e+01
 1.912032789214229e+00	 5.120548601036816e-01	 1.277569113708976e+01
 1.907292120539398e+00	 5.294396274917157e-01	 1.278632983316631e+01
 1.902381427539802e+00	 5.468221009766666e-01	 1.280227929148024e+01
 1.897300151099619e+00	 5.641999377635201e-01	 1.282435735038652e+01
 1.892047772572763e+00	 5.815707741124688e-01	 1.285345382353996e+01
 1.886623814490985e+00	 5.989322261520573e-01	 1.288751113365197e+01
 1.881027841254142e+00	 6.162818907172745e-01	 1.291562009746574e+01
 1.875259459801693e+00	 6.336173462122059e-01	 1.293704027639247e+01
 1.869318320264493e+00	 6.509361534968209e-01	 1.295218845642357e+01
 1.863204116595952e+00	 6.682358567974318e-01	 1.296149966091299e+01
 1.856916587181651e+00	 6.855139846403154e-01	 1.296542723659579e+01
 1.920555485753756e+00	 5.143372938616730e-01	 1.274884656749364e+01
 1.915793686018341e+00	 5.317995521260379e-01	 1.275988447605618e+01
 1.910861104091576e+00	 5.492595062625016e-01	 1.277644291152336e+01
 1.905757178365433e+00	 5.667148030332706e-01	 1.279931454677608e+01
 1.900481387882018e+00	 5.841630681623998e-01	 1.282936443692766e+01
 1.895033253044816e+00	 6.016019071525602e-01	 1.286294017438359e+01
 1.889412336312042e+00	 6.190289061268681e-01	 1.289015278880905e+01
 1.883618242871130e+00	 6.364416326953832e-01	 1.291096587050982e+01
 1.877650621293430e+00	 6.538376368458485e-01	 1.292577345859952e+01
 1.871509164168183e+00	 6.712144518582038e-01	 1.293498829339435e+01
 1.865193608714851e+00	 6.885695952423758e-01	 1.293904194608101e+01
 1.929078182293349e+00	 5.166197276192274e-01	 1.272230887778760e+01
 1.924295251497358e+00	 5.341594767599817e-01	 1.273372075178167e+01
 1.919340780643440e+00	 5.516969115480334e-01	 1.275086507796780e+01
 1.914214205631366e+00	 5.692296683028057e-01	 1.277451221022319e+01
 1.908915003191424e+00	 5.867553622122095e-01	 1.280550505534309e+01
 1.903442691598834e+00	 6.042715881530377e-01	 1.283832764870619e+01
 1.897796831370164e+00	 6.217759215365296e-01	 1.286475310571779e+01
 1.891977025940817e+00	 6.392659191787129e-01	 1.288508422453821e+01
 1.885982922322637e+00	 6.567391201950973e-01	 1.289969410657949e+01
 1.879814211740690e+00	 6.741930469192483e-01	 1.290897476185472e+01
 1.873470630248318e+00	 6.916252058447343e-01	 1.291333727560690e+01
 1.937600878832876e+00	 5.189021613763783e-01	 1.269608506741845e+01
 1.932796816976314e+00	 5.365194013935788e-01	 1.270785052849722e+01
 1.927820457195261e+00	 5.541343168332896e-01	 1.272555937319727e+01
 1.922671232897280e+00	 5.717445335721453e-01	 1.274996243116675e+01
 1.917348618500843e+00	 5.893476562619099e-01	 1.278185178435239e+01
 1.911852130152897e+00	 6.069412691534936e-01	 1.281369875980244e+01
 1.906181326428364e+00	 6.245229369462532e-01	 1.283943377942039e+01
 1.900335809010612e+00	 6.420902056621810e-01	 1.285939214251520e+01
 1.894315223351975e+00	 6.596406035445503e-01	 1.287392778202467e+01
 1.888119259313345e+00	 6.771716419805456e-01	 1.288341349283622e+01
 1.881747651781935e+00	 6.946808164473743e-01	 1.288824112874281e+01
 1.946123575372203e+00	 5.211845951331590e-01	 1.267018319342455e+01
 1.941298382455075e+00	 5.388793260268609e-01	 1.268228669184192e+01
 1.936300133746901e+00	 5.565717221182966e-01	 1.270054041420940e+01
 1.931128260163035e+00	 5.742593988413098e-01	 1.272567840995501e+01
 1.925782233810132e+00	 5.919399503115128e-01	 1.275818216294719e+01
 1.920261568706862e+00	 6.096109501539300e-01	 1.278907927859638e+01
 1.914565821486496e+00	 6.272699523560333e-01	 1.281420832779345e+01
 1.908694592080373e+00	 6.449144921457759e-01	 1.283388749418316e+01
 1.902647524381308e+00	 6.625420868941899e-01	 1.284845327223743e+01
 1.896424306886016e+00	 6.801502370420770e-01	 1.285826072003782e+01
 1.890024673315585e+00	 6.977364270502797e-01	 1.286368367997618e+01
 1.954646271911197e+00	 5.234670288896022e-01	 1.264461234429194e+01
 1.949799947933507e+00	 5.412392506598598e-01	 1.265704311909822e+01
 1.944779810298225e+00	 5.590091274030821e-01	 1.267582382581680e+01
 1.939585287428495e+00	 5.767742641103191e-01	 1.270167442781201e+01
 1.934215849119149e+00	 5.945322443610296e-01	 1.273447965191716e+01
 1.928671007260585e+00	 6.122806311543501e-01	 1.276449551305670e+01
 1.922950316544420e+00	 6.300169677658647e-01	 1.278909101871107e+01
 1.917053375149956e+00	 6.477387786294845e-01	 1.280856917103423e+01
 1.910979825410497e+00	 6.654435702439987e-01	 1.282325071753817e+01
 1.904729354458575e+00	 6.831288321038235e-01	 1.283347442164561e+01
 1.898301694849150e+00	 7.007920376534326e-01	 1.283959730060581e+01
 1.963168968449725e+00	 5.257494626457417e-01	 1.261938261416168e+01
 1.958301513411475e+00	 5.435991752926068e-01	 1.263213465367268e+01
 1.953259486849095e+00	 5.614465326876726e-01	 1.265142621417421e+01
 1.948042314693518e+00	 5.792891293791932e-01	 1.267796581816681e+01
 1.942649464427752e+00	 5.971245384104724e-01	 1.271077966031746e+01
 1.937080445813921e+00	 6.149503121547569e-01	 1.273997427803613e+01
 1.931334811601989e+00	 6.327639831757417e-01	 1.276409683406804e+01
 1.925412158219222e+00	 6.505630651132944e-01	 1.278343704320230e+01
 1.919312126439404e+00	 6.683450535939598e-01	 1.279830155969608e+01
 1.913034402030891e+00	 6.861074271657653e-01	 1.280901425896025e+01
 1.906578716382512e+00	 7.038476482568162e-01	 1.281591648621093e+01
 1.971691664987653e+00	 5.280318964016106e-01	 1.259450507737808e+01
 1.966803078888847e+00	 5.459590999251343e-01	 1.260757707988975e+01
 1.961739163399377e+00	 5.638839379720954e-01	 1.262736514062215e+01
 1.956499341957966e+00	 5.818039946479524e-01	 1.265456893833438e+01
 1.951083079735801e+00	 5.997168324598532e-01	 1.268711792847869e+01
 1.945489884366729e+00	 6.176199931551537e-01	 1.271554286563096e+01
 1.939719306659061e+00	 6.355109985856590e-01	 1.273924143445699e+01
 1.933770941288024e+00	 6.533873515971929e-01	 1.275849191717575e+01
 1.927644427467892e+00	 6.712465369440548e-01	 1.277358849138253e+01
 1.921339449602834e+00	 6.890860222278832e-01	 1.278484151628242e+01
 1.914855737915554e+00	 7.069032588604145e-01	 1.279257778564870e+01
 1.980214361524848e+00	 5.303143301572421e-01	 1.256999176336714e+01
 1.975304644365486e+00	 5.483190245574735e-01	 1.258338709808890e+01
 1.970218839948934e+00	 5.663213432563775e-01	 1.260365909583704e+01
 1.964956369221702e+00	 5.843188599166166e-01	 1.263150114153763e+01
 1.959516695043154e+00	 6.023091265091832e-01	 1.266353050318834e+01
 1.953899322918863e+00	 6.202896741555429e-01	 1.269122901604469e+01
 1.948103801715490e+00	 6.382580139956113e-01	 1.271454112447933e+01
 1.942129724356225e+00	 6.562116380811678e-01	 1.273373549430677e+01
 1.935976728495822e+00	 6.741480202942665e-01	 1.274909540661576e+01
 1.929644497174275e+00	 6.920646172901584e-01	 1.276091904201821e+01
 1.923132759448157e+00	 7.099588694642095e-01	 1.276951973153366e+01
 1.988737058061177e+00	 5.325967639126696e-01	 1.254585563183585e+01
 1.983806209841261e+00	 5.506789491896563e-01	 1.255958230001606e+01
 1.978698516497631e+00	 5.687587485405461e-01	 1.258032747427939e+01
 1.973413396484585e+00	 5.868337251852063e-01	 1.260878074926025e+01
 1.967950310349670e+00	 6.049014205584747e-01	 1.264005371326666e+01
 1.962308761470183e+00	 6.229593551559282e-01	 1.266706088894104e+01
 1.956488296771135e+00	 6.410050294055930e-01	 1.269001281867139e+01
 1.950488507423679e+00	 6.590359245652063e-01	 1.270917033009263e+01
 1.944309029523059e+00	 6.770495036445779e-01	 1.272480735216741e+01
 1.937949544745086e+00	 6.950432123525722e-01	 1.273721119096804e+01
 1.931409780980206e+00	 7.130144800681855e-01	 1.274668277215523e+01
 1.848639565648836e+00	 6.824583740385707e-01	 1.299256759023219e+01
 1.842206185021296e+00	 6.996384498972793e-01	 1.299451429181169e+01
 1.835599805270095e+00	 7.167920722575036e-01	 1.299752983633983e+01
 1.828820300762612e+00	 7.339167374421329e-01	 1.300153025861921e+01
 1.821867592329375e+00	 7.510099300408764e-01	 1.300643394919197e+01
 1.814741647752110e+00	 7.680691239473409e-01	 1.301216212560875e+01
 1.807442482225145e+00	 7.850917834154445e-01	 1.301863930187964e+01
 1.799970158789351e+00	 8.020753641344032e-01	 1.302579375632982e+01
 1.792324788737874e+00	 8.190173143215005e-01	 1.303355799836403e+01
 1.784506531992859e+00	 8.359150758318045e-01	 1.304186923492595e+01
 1.776515597452493e+00	 8.527660852839679e-01	 1.305066983772055e+01
 1.856916587181651e+00	 6.855139846403154e-01	 1.296542723659579e+01
 1.850454402004383e+00	 7.027709818526354e-01	 1.296739531963862e+01
 1.843818443124431e+00	 7.200014071247187e-01	 1.297048665090517e+01
 1.837008584346666e+00	 7.372027455695898e-01	 1.297465448163888e+01
 1.830024746147141e+00	 7.543724705145618e-01	 1.297984901752868e+01
 1.822866896163328e+00	 7.715080445429551e-01	 1.298601776663045e+01
 1.815535049657578e+00	 7.886069205552394e-01	 1.299310588993538e+01
 1.808029269953017e+00	 8.056665428488362e-01	 1.300105655511967e+01
 1.800349668841084e+00	 8.226843482157801e-01	 1.300981129429875e+01
 1.792496406959950e+00	 8.396577670574028e-01	 1.301931036689805e+01
 1.784469694143107e+00	 8.565842245151777e-01	 1.302949312903908e+01
 1.865193608714851e+00	 6.885695952423758e-01	 1.293904194608101e+01
 1.858702618987810e+00	 7.059035138082984e-01	 1.294122630945699e+01
 1.852037080979040e+00	 7.232107419922021e-01	 1.294452847661814e+01
 1.845196867930909e+00	 7.404887536972563e-01	 1.294893192720211e+01
 1.838181899965001e+00	 7.577350109883825e-01	 1.295441245862712e+01
 1.830992144574534e+00	 7.749469651386214e-01	 1.296093842937136e+01
 1.823627617089888e+00	 7.921220576950020e-01	 1.296847100853596e+01
 1.816088381116449e+00	 8.092577215631579e-01	 1.297696443249758e+01
 1.808374548943953e+00	 8.263513821098806e-01	 1.298636626975270e+01
 1.800486281926599e+00	 8.434004582827749e-01	 1.299661769535313e+01
 1.792423790833194e+00	 8.604023637461387e-01	 1.300765377662544e+01
 1.873470630248318e+00	 6.916252058447343e-01	 1.291333727560690e+01
 1.866950835971476e+00	 7.090360457642576e-01	 1.291590921255361e+01
 1.860255718833843e+00	 7.264200768599559e-01	 1.291954418163558e+01
 1.853385151515288e+00	 7.437747618251467e-01	 1.292424900738802e+01
 1.846339053782927e+00	 7.610975514623681e-01	 1.293001895351805e+01
 1.839117392985728e+00	 7.783858857343849e-01	 1.293683788008668e+01
 1.831720184522106e+00	 7.956371948347916e-01	 1.294467840978749e+01
 1.824147492279707e+00	 8.128489002774392e-01	 1.295350210435786e+01
 1.816399429046567e+00	 8.300184160038826e-01	 1.296325965246532e+01
 1.808476156892919e+00	 8.471431495080044e-01	 1.297389107071673e+01
 1.800377887522883e+00	 8.642205029769344e-01	 1.298532591974134e+01
 1.881747651781935e+00	 6.946808164473743e-01	 1.288824112874281e+01
 1.875199052955281e+00	 7.121685777205033e-01	 1.289134874249577e+01
 1.868474356688762e+00	 7.296294117279802e-01	 1.289542562679752e+01
 1.861573435099748e+00	 7.470607699532755e-01	 1.290049517037473e+01
 1.854496207600891e+00	 7.644600919365476e-01	 1.290656607412513e+01
 1.847242641396912e+00	 7.818248063302898e-01	 1.291363244058981e+01
 1.839812751954262e+00	 7.991523319746668e-01	 1.292167387451392e+01
 1.832206603442847e+00	 8.164400789917516e-01	 1.293065559572221e+01
 1.824424309149011e+00	 8.336854498978674e-01	 1.294052856585231e+01
 1.816466031859018e+00	 8.508858407331766e-01	 1.295122963080495e+01
 1.808331984212309e+00	 8.680386422076479e-01	 1.296268168108303e+01
 1.890024673315585e+00	 6.977364270502797e-01	 1.286368367997618e+01
 1.883447269939126e+00	 7.153011096770259e-01	 1.286745228895387e+01
 1.876692994543716e+00	 7.328387465962762e-01	 1.287206757303155e+01
 1.869761718684233e+00	 7.503467780816572e-01	 1.287756280549295e+01
 1.862653361418864e+00	 7.678226324109497e-01	 1.288395419007457e+01
 1.855367889808084e+00	 7.852637269263816e-01	 1.289124090096020e+01
 1.847905319386383e+00	 8.026674691146874e-01	 1.289940513503861e+01
 1.840265714605928e+00	 8.200312577061675e-01	 1.290841217780048e+01
 1.832449189251368e+00	 8.373524837919140e-01	 1.291821048457932e+01
 1.824455906825007e+00	 8.546285319583766e-01	 1.292873177916934e+01
 1.816286080901601e+00	 8.718567814383628e-01	 1.293989117217737e+01
 1.898301694849150e+00	 7.007920376534326e-01	 1.283959730060581e+01
 1.891695486922907e+00	 7.184336416338153e-01	 1.284412983340276e+01
 1.884911632398626e+00	 7.360480814648447e-01	 1.284936759078357e+01
 1.877950002268689e+00	 7.536327862103063e-01	 1.285534715034754e+01
 1.870810515236819e+00	 7.711851728856052e-01	 1.286208637750565e+01
 1.863493138219246e+00	 7.887026475227036e-01	 1.286958443407647e+01
 1.855997886818497e+00	 8.061826062549119e-01	 1.287782179950590e+01
 1.848324825769005e+00	 8.236224364207564e-01	 1.288676030619637e+01
 1.840474069353725e+00	 8.410195176861033e-01	 1.289634319077383e+01
 1.832445781790996e+00	 8.583712231836887e-01	 1.290649516346160e+01
 1.824240177590894e+00	 8.756749206691622e-01	 1.291712249806762e+01
 1.906578716382512e+00	 7.038476482568162e-01	 1.281591648621093e+01
 1.899943703906525e+00	 7.215661735908613e-01	 1.282129386664507e+01
 1.893130270253413e+00	 7.392574163336867e-01	 1.282722597141372e+01
 1.886138285853059e+00	 7.569187943392364e-01	 1.283374619994362e+01
 1.878967669054727e+00	 7.745477133605426e-01	 1.284086832982134e+01
 1.871618386630398e+00	 7.921415681193017e-01	 1.284858651191952e+01
 1.864090454250636e+00	 8.096977433953995e-01	 1.285687527769613e+01
 1.856383936932138e+00	 8.272136151355908e-01	 1.286568956022291e+01
 1.848498949456167e+00	 8.446865515805155e-01	 1.287496473085612e+01
 1.840435656757095e+00	 8.621139144091977e-01	 1.288461665381825e+01
 1.832194274280319e+00	 8.794930599001302e-01	 1.289454176131090e+01
 1.914855737915554e+00	 7.069032588604145e-01	 1.279257778564870e+01
 1.908191920889882e+00	 7.246987055481543e-01	 1.279885930810112e+01
 1.901348908107999e+00	 7.424667512028029e-01	 1.280554564049812e+01
 1.894326569437291e+00	 7.602048024684630e-01	 1.281266061775704e+01
 1.887124822872560e+00	 7.779102538357913e-01	 1.282020827032013e+01
 1.879743635041538e+00	 7.955804887162194e-01	 1.282817282359163e+01
 1.872183021682827e+00	 8.132128805362090e-01	 1.283651870828878e+01
 1.864443048095384e+00	 8.308047938507415e-01	 1.284519058329425e+01
 1.856523829558777e+00	 8.483535854752309e-01	 1.285411337297004e+01
 1.848425531723414e+00	 8.658566056349889e-01	 1.286319232126394e+01
 1.840148370970008e+00	 8.833111991313497e-01	 1.287231306530783e+01
 1.923132759448157e+00	 7.099588694642095e-01	 1.276951973153366e+01
 1.916440137872873e+00	 7.278312375056845e-01	 1.277674342681216e+01
 1.909567545962300e+00	 7.456760860721946e-01	 1.278423207297855e+01
 1.902514853021330e+00	 7.634908105979997e-01	 1.279199364869030e+01
 1.895281976690290e+00	 7.812727943113806e-01	 1.280001686665259e+01
 1.887868883452669e+00	 7.990194093135027e-01	 1.280827119500036e+01
 1.880275589115100e+00	 8.167280176773999e-01	 1.281670688753018e+01
 1.872502159258801e+00	 8.343959725662805e-01	 1.282525502436152e+01
 1.864548709661641e+00	 8.520206193703300e-01	 1.283382756499610e+01
 1.856415406690063e+00	 8.695992968611462e-01	 1.284231741613340e+01
 1.848102467660094e+00	 8.871293383629042e-01	 1.285059851698462e+01
 1.931409780980206e+00	 7.130144800681855e-01	 1.274668277215523e+01
 1.924688354855402e+00	 7.309637694634421e-01	 1.275486576410607e+01
 1.917786183816244e+00	 7.488854209418625e-01	 1.276319321010522e+01
 1.910703136605119e+00	 7.667768187278619e-01	 1.277165103385767e+01
 1.903439130507891e+00	 7.846353347873409e-01	 1.278020714704775e+01
 1.895994131863790e+00	 8.024583299111958e-01	 1.278881151015675e+01
 1.888368156547483e+00	 8.202431548190312e-01	 1.279739619926354e+01
 1.880561270422445e+00	 8.379871512822787e-01	 1.280587548036107e+01
 1.872573589764845e+00	 8.556876532658934e-01	 1.281414589312901e+01
 1.864405281657153e+00	 8.733419880877550e-01	 1.282208634651089e+01
 1.856056564350709e+00	 8.909474775948771e-01	 1.282955822884706e+01
 1.776515597452493e+00	 8.527660852839679e-01	 1.305066983772055e+01
 1.768353645352981e+00	 8.695649234165084e-01	 1.305606943452467e+01
 1.760019638626250e+00	 8.863118887738806e-01	 1.305510542270330e+01
 1.751513933443456e+00	 9.030044095506682e-01	 1.305142348859709e+01
 1.742836936002513e+00	 9.196399133193138e-01	 1.304567068273873e+01
 1.733989102717897e+00	 9.362158282216865e-01	 1.303802983304704e+01
 1.724970940377082e+00	 9.527295841709179e-01	 1.302866479882376e+01
 1.715783006263097e+00	 9.691786140624498e-01	 1.301772412050571e+01
 1.706425908242760e+00	 9.855603549931850e-01	 1.300534538480640e+01
 1.696900304820150e+00	 1.001872249487630e+00	 1.299166031557151e+01
 1.687206905154955e+00	 1.018111746729887e+00	 1.297680059615509e+01
 1.784469694143107e+00	 8.565842245151777e-01	 1.302949312903908e+01
 1.776271198060235e+00	 8.734582770636438e-01	 1.303657691852168e+01
 1.767899876999939e+00	 8.902802245839441e-01	 1.303696258912879e+01
 1.759356088728096e+00	 9.070474837557672e-01	 1.303178590623657e+01
 1.750640241261322e+00	 9.237574706338767e-01	 1.302467506907592e+01
 1.741752793057634e+00	 9.404076018450087e-01	 1.301611673849207e+01
 1.732694253173587e+00	 9.569952957950965e-01	 1.300625092953391e+01
 1.723465181387379e+00	 9.735179738857331e-01	 1.299520560881512e+01
 1.714066188287475e+00	 9.899730617387847e-01	 1.298310115694127e+01
 1.704497935326324e+00	 1.006357990428024e+00	 1.297005557286001e+01
 1.694761134838787e+00	 1.022670197716636e+00	 1.295619042640261e+01
 1.792423790833194e+00	 8.604023637461387e-01	 1.300765377662544e+01
 1.784188750766886e+00	 8.773516307105389e-01	 1.301586666273984e+01
 1.775780115372968e+00	 8.942485603938041e-01	 1.301780677601115e+01
 1.767198244012032e+00	 9.110905579607247e-01	 1.301366220559678e+01
 1.758443546519395e+00	 9.278750279483767e-01	 1.300486065421026e+01
 1.749516483396619e+00	 9.445993754683620e-01	 1.299492739423257e+01
 1.740417565969336e+00	 9.612610074194075e-01	 1.298418118661364e+01
 1.731147356510909e+00	 9.778573337092544e-01	 1.297273454695328e+01
 1.721706468331452e+00	 9.943857684847280e-01	 1.296069453208522e+01
 1.712095565831782e+00	 1.010843731368860e+00	 1.294816803897669e+01
 1.702315364521933e+00	 1.027228648703915e+00	 1.293526787052908e+01
 1.800377887522883e+00	 8.642205029769344e-01	 1.298532591974134e+01
 1.792106303473086e+00	 8.812449843572696e-01	 1.299418579936008e+01
 1.783660353745503e+00	 8.982168962035235e-01	 1.299723198761955e+01
 1.775040399295439e+00	 9.151336321655826e-01	 1.299461796220012e+01
 1.766246851776918e+00	 9.319925852628342e-01	 1.298653510301985e+01
 1.757280173735038e+00	 9.487911490917404e-01	 1.297485772715262e+01
 1.748140878764512e+00	 9.655267190438193e-01	 1.296285263734617e+01
 1.738829531633867e+00	 9.821966935329549e-01	 1.295069491225899e+01
 1.729346748374864e+00	 9.987984752309285e-01	 1.293848211445908e+01
 1.719693196336689e+00	 1.015329472310028e+00	 1.292631261684214e+01
 1.709869594204548e+00	 1.031787099691592e+00	 1.291429176482339e+01
 1.808331984212309e+00	 8.680386422076479e-01	 1.296268168108303e+01
 1.800023856178985e+00	 8.851383380039110e-01	 1.297177816377585e+01
 1.791540592117708e+00	 9.021852320131636e-01	 1.297554016891471e+01
 1.782882554578495e+00	 9.191767063703843e-01	 1.297409532140393e+01
 1.774050157034071e+00	 9.361101425772700e-01	 1.296761120643933e+01
 1.765043864073077e+00	 9.529829227151395e-01	 1.295629587879340e+01
 1.755864191559301e+00	 9.697924306682997e-01	 1.294265785782648e+01
 1.746511706756435e+00	 9.865360533567757e-01	 1.292946634049528e+01
 1.736987028417887e+00	 1.003211181977301e+00	 1.291681658037657e+01
 1.727290826841209e+00	 1.019815213251417e+00	 1.290480096072933e+01
 1.717423823886777e+00	 1.036345550679533e+00	 1.289351864308682e+01
 1.816286080901601e+00	 8.718567814383628e-01	 1.293989117217737e+01
 1.807941408884735e+00	 8.890316916505393e-01	 1.294888432652019e+01
 1.799420830489747e+00	 9.061535678227851e-01	 1.295302898567654e+01
 1.790724709861372e+00	 9.232197805751722e-01	 1.295243556610476e+01
 1.781853462291037e+00	 9.402276998917033e-01	 1.294725546044808e+01
 1.772807554410919e+00	 9.571746963385540e-01	 1.293768156029457e+01
 1.763587504353886e+00	 9.740581422928172e-01	 1.292398489283861e+01
 1.754193881878793e+00	 9.908754131806579e-01	 1.290942407799166e+01
 1.744627308460692e+00	 1.007623888723759e+00	 1.289604661721570e+01
 1.734888457345503e+00	 1.024300954192916e+00	 1.288394139661003e+01
 1.724978053568774e+00	 1.040904001667607e+00	 1.287320263288453e+01
 1.824240177590894e+00	 8.756749206691622e-01	 1.291712249806762e+01
 1.815858961590483e+00	 8.929250452972296e-01	 1.292574162376602e+01
 1.807301068861785e+00	 9.101219036324504e-01	 1.292999187560339e+01
 1.798566865144247e+00	 9.272628547799895e-01	 1.292997499370585e+01
 1.789656767547998e+00	 9.443452572061556e-01	 1.292583367723925e+01
 1.780571244748752e+00	 9.613664699619794e-01	 1.291775209859398e+01
 1.771310817148454e+00	 9.783238539173404e-01	 1.290595638164376e+01
 1.761876057001123e+00	 9.952147730045421e-01	 1.289093893103749e+01
 1.752267588503455e+00	 1.012036595470219e+00	 1.287651685992638e+01
 1.742486087849738e+00	 1.028786695134416e+00	 1.286403884046831e+01
 1.732532283250688e+00	 1.045462452655680e+00	 1.285359535034245e+01
 1.832194274280319e+00	 8.794930599001302e-01	 1.289454176131090e+01
 1.823776514296382e+00	 8.968183989440567e-01	 1.290258418644297e+01
 1.815181307233987e+00	 9.140902394422210e-01	 1.290671809746850e+01
 1.806409020427296e+00	 9.313059289848786e-01	 1.290704498019090e+01
 1.797460072805135e+00	 9.484628145206460e-01	 1.290370623823668e+01
 1.788334935086760e+00	 9.655582435854104e-01	 1.289688367674978e+01
 1.779034129943188e+00	 9.825895655418369e-01	 1.288679995066577e+01
 1.769558232123606e+00	 9.995541328283698e-01	 1.287371898088923e+01
 1.759907868546351e+00	 1.016449302216593e+00	 1.285856782514923e+01
 1.750083718354078e+00	 1.033272436075806e+00	 1.284539471464380e+01
 1.740086512932670e+00	 1.050020903643622e+00	 1.283494579353484e+01
 1.840148370970008e+00	 8.833111991313497e-01	 1.287231306530783e+01
 1.831694067002582e+00	 9.007117525910970e-01	 1.287964296801231e+01
 1.823061545606518e+00	 9.180585752521578e-01	 1.288349277839228e+01
 1.814251175710693e+00	 9.353490031898828e-01	 1.288397204190378e+01
 1.805263378062631e+00	 9.525803718351958e-01	 1.288122816535444e+01
 1.796098625425127e+00	 9.697500172088421e-01	 1.287544684832265e+01
 1.786757442738275e+00	 9.868552771662759e-01	 1.286685248083055e+01
 1.777240407246422e+00	 1.003893492652082e+00	 1.285570851087206e+01
 1.767548148589553e+00	 1.020862008962797e+00	 1.284231778572068e+01
 1.757681348858684e+00	 1.037758177016974e+00	 1.282830686226344e+01
 1.747640742614871e+00	 1.054579354631298e+00	 1.281750023450423e+01
 1.848102467660094e+00	 8.871293383629042e-01	 1.285059851698462e+01
 1.839611619709233e+00	 9.046051062384257e-01	 1.285714577094065e+01
 1.830941783979543e+00	 9.220269110623232e-01	 1.286059695928725e+01
 1.822093330994613e+00	 9.393920773950442e-01	 1.286107789510392e+01
 1.813066683320668e+00	 9.566979291498247e-01	 1.285874918976452e+01
 1.803862315764040e+00	 9.739417908322702e-01	 1.285380661042399e+01
 1.794480755533899e+00	 9.911209887906253e-01	 1.284648140659253e+01
 1.784922582369755e+00	 1.008232852475620e+00	 1.283704060972932e+01
 1.775188428633234e+00	 1.025274715708745e+00	 1.282578731011776e+01
 1.765278979363722e+00	 1.042243917957811e+00	 1.281306091558004e+01
 1.755194972297440e+00	 1.059137805618577e+00	 1.280150210995564e+01
 1.856056564350709e+00	 8.909474775948771e-01	 1.282955822884706e+01
 1.847529172416486e+00	 9.084984598861181e-01	 1.283531727191161e+01
 1.838822022353228e+00	 9.259952468727786e-01	 1.283830763853049e+01
 1.829935486279233e+00	 9.434351516004069e-01	 1.283867951336363e+01
 1.820869988579429e+00	 9.608154864645534e-01	 1.283661381824684e+01
 1.811626006103686e+00	 9.781335644556893e-01	 1.283232247421362e+01
 1.802204068330247e+00	 9.953867004148540e-01	 1.282604863658901e+01
 1.792604757493784e+00	 1.012572212298924e+00	 1.281806690747097e+01
 1.782828708677572e+00	 1.029687422454352e+00	 1.280868353025056e+01
 1.772876609869356e+00	 1.046729658898207e+00	 1.279823657112223e+01
 1.762749201980530e+00	 1.063696256605328e+00	 1.278719191066421e+01
 1.687206905154955e+00	 1.018111746729887e+00	 1.297680059615509e+01
 1.677346469453000e+00	 1.034276304122572e+00	 1.296011500294972e+01
 1.667319810129224e+00	 1.050363389513653e+00	 1.294087305403769e+01
 1.657127790482340e+00	 1.066370481506641e+00	 1.291908109486880e+01
 1.646771324157903e+00	 1.082295070385765e+00	 1.289473878847897e+01
 1.636251374984289e+00	 1.098134659358124e+00	 1.286784850890265e+01
 1.625568956772238e+00	 1.113886765794420e+00	 1.283842544885281e+01
 1.614725133077868e+00	 1.129548922467025e+00	 1.280650841175953e+01
 1.603721016929166e+00	 1.145118678784137e+00	 1.277217125273659e+01
 1.592557770515995e+00	 1.160593602018781e+00	 1.273553492756244e+01
 1.581236604843679e+00	 1.175971278531404e+00	 1.269678010335161e+01
 1.694761134838787e+00	 1.022670197716636e+00	 1.295619042640261e+01
 1.684856550434408e+00	 1.038907129623116e+00	 1.294060324563899e+01
 1.674784998165587e+00	 1.055066242658078e+00	 1.292232073992359e+01
 1.664547345196320e+00	 1.071145004135839e+00	 1.290135248390313e+01
 1.654144509262857e+00	 1.087140893103726e+00	 1.287769866629663e+01
 1.643577458508968e+00	 1.103051401589804e+00	 1.285135964570605e+01
 1.632847211284564e+00	 1.118874035849150e+00	 1.282234624711902e+01
 1.621954835907669e+00	 1.134606317607475e+00	 1.279069076888876e+01
 1.610901450389679e+00	 1.150245785300797e+00	 1.275645866429149e+01
 1.599688222123976e+00	 1.165789995309950e+00	 1.271976085611219e+01
 1.588316367537974e+00	 1.181236523188651e+00	 1.268094709508589e+01
 1.702315364521933e+00	 1.027228648703915e+00	 1.293526787052908e+01
 1.692366631415170e+00	 1.043537955124262e+00	 1.292080265047840e+01
 1.682250186201349e+00	 1.059769095803164e+00	 1.290351273412566e+01
 1.671966899909744e+00	 1.075919526765739e+00	 1.288340282966955e+01
 1.661517694367309e+00	 1.091986715822421e+00	 1.286046604548591e+01
 1.650903542033195e+00	 1.107968143822233e+00	 1.283469362355105e+01
 1.640125465796491e+00	 1.123861305904635e+00	 1.280608543993494e+01
 1.629184538737123e+00	 1.139663712748673e+00	 1.277466124182079e+01
 1.618081883849891e+00	 1.155372891818188e+00	 1.274047258465634e+01
 1.606818673731701e+00	 1.170986388601824e+00	 1.270361542722097e+01
 1.595396130232051e+00	 1.186501767846565e+00	 1.266507998639458e+01
 1.709869594204548e+00	 1.031787099691592e+00	 1.291429176482339e+01
 1.699876712395419e+00	 1.048168780625861e+00	 1.290091256119742e+01
 1.689715374236622e+00	 1.064471948948745e+00	 1.288459649021933e+01
 1.679386454622709e+00	 1.080694049396168e+00	 1.286533539421799e+01
 1.668890879471329e+00	 1.096832538541664e+00	 1.284310778339452e+01
 1.658229625557020e+00	 1.112884886055224e+00	 1.281788876194817e+01
 1.647403720308047e+00	 1.128848575960685e+00	 1.278966074762377e+01
 1.636414241566234e+00	 1.144721107890431e+00	 1.275842495378464e+01
 1.625262317309789e+00	 1.160499998336127e+00	 1.272421359709307e+01
 1.613949125339137e+00	 1.176182781894224e+00	 1.268710278789088e+01
 1.602475892925860e+00	 1.191767012504980e+00	 1.264924443269299e+01
 1.717423823886777e+00	 1.036345550679533e+00	 1.289351864308682e+01
 1.707386793375291e+00	 1.052799606127761e+00	 1.288113104019248e+01
 1.697180562271525e+00	 1.069174802094656e+00	 1.286571908303121e+01
 1.686806009335308e+00	 1.085468572026947e+00	 1.284725384354895e+01
 1.676264064574992e+00	 1.101678361261275e+00	 1.282569180286371e+01
 1.665555709080496e+00	 1.117801628288591e+00	 1.280098498506283e+01
 1.654681974819259e+00	 1.133835846017113e+00	 1.277309191076447e+01
 1.643643944395010e+00	 1.149778503032563e+00	 1.274198933917246e+01
 1.632442750769359e+00	 1.165627104854430e+00	 1.270768476115809e+01
 1.621079576946250e+00	 1.181379175186976e+00	 1.267044948118231e+01
 1.609555655619353e+00	 1.197032257163728e+00	 1.263350012841694e+01
 1.724978053568774e+00	 1.040904001667607e+00	 1.287320263288453e+01
 1.714896874354919e+00	 1.057430431629812e+00	 1.286165473942762e+01
 1.704645750306170e+00	 1.073877655240733e+00	 1.284702705718463e+01
 1.694225564047638e+00	 1.090243094657903e+00	 1.282926207683642e+01
 1.683637249678369e+00	 1.106524183981068e+00	 1.280828690519835e+01
 1.672881792603672e+00	 1.122718370522144e+00	 1.278402362153525e+01
 1.661960229330158e+00	 1.138823116073728e+00	 1.275640047999505e+01
 1.650873647223457e+00	 1.154835898174882e+00	 1.272536392649046e+01
 1.639623184228585e+00	 1.170754211372916e+00	 1.269089139198984e+01
 1.628210028553009e+00	 1.186575568479903e+00	 1.265396681351312e+01
 1.616635418312479e+00	 1.202297501822644e+00	 1.261790302101660e+01
 1.732532283250688e+00	 1.045462452655680e+00	 1.285359535034245e+01
 1.722406955334436e+00	 1.062061257131862e+00	 1.284267877049710e+01
 1.712110938340675e+00	 1.078580508386809e+00	 1.282866627534736e+01
 1.701645118759792e+00	 1.095017617288860e+00	 1.281146405581891e+01
 1.691010434781536e+00	 1.111370006700862e+00	 1.279096258369380e+01
 1.680207876126600e+00	 1.127635112755698e+00	 1.276704720516990e+01
 1.669238483840770e+00	 1.143810386130344e+00	 1.273960960692161e+01
 1.658103350051580e+00	 1.159893293317201e+00	 1.270856012257165e+01
 1.646803617687455e+00	 1.175881317891402e+00	 1.267384084093581e+01
 1.635340480159378e+00	 1.191771961772831e+00	 1.263770037077659e+01
 1.623715181005190e+00	 1.207562746481559e+00	 1.260250533472772e+01
 1.740086512932670e+00	 1.050020903643622e+00	 1.283494579353484e+01
 1.729917036313979e+00	 1.066692082633762e+00	 1.282439657387441e+01
 1.719576126375154e+00	 1.083283361532720e+00	 1.281078176619052e+01
 1.709064673471866e+00	 1.099792139919640e+00	 1.279396363435274e+01
 1.698383619884564e+00	 1.116215829420472e+00	 1.277378883770379e+01
 1.687533959649329e+00	 1.132551854989064e+00	 1.275009927646887e+01
 1.676516738351125e+00	 1.148797656186771e+00	 1.272274383609857e+01
 1.665333052879389e+00	 1.164950688459332e+00	 1.269159099801196e+01
 1.653984051145953e+00	 1.181008424409705e+00	 1.265674723703667e+01
 1.642470931765327e+00	 1.196968355065582e+00	 1.262169124343909e+01
 1.630794943697434e+00	 1.212827991140307e+00	 1.258735559556074e+01
 1.747640742614871e+00	 1.054579354631298e+00	 1.281750023450423e+01
 1.737427117293680e+00	 1.071322908135361e+00	 1.280699978737242e+01
 1.727041314409724e+00	 1.087986214678301e+00	 1.279351757206703e+01
 1.716484228183955e+00	 1.104566662550068e+00	 1.277686438812354e+01
 1.705756804987528e+00	 1.121061652139717e+00	 1.275683598723194e+01
 1.694860043171911e+00	 1.137468597222056e+00	 1.273322418498310e+01
 1.683794992861250e+00	 1.153784926242821e+00	 1.270582889804811e+01
 1.672562755706888e+00	 1.170008083601091e+00	 1.267447107379315e+01
 1.661164484604067e+00	 1.186135530927643e+00	 1.263995844742538e+01
 1.649601383370821e+00	 1.202164748357982e+00	 1.260597697771735e+01
 1.637874706389165e+00	 1.218093235798722e+00	 1.257249865747045e+01
 1.755194972297440e+00	 1.059137805618577e+00	 1.280150210995564e+01
 1.744937198273674e+00	 1.075953733636508e+00	 1.279067811383865e+01
 1.734506502444499e+00	 1.092689067823387e+00	 1.277701659641876e+01
 1.723903782896154e+00	 1.109341185179969e+00	 1.276026944451022e+01
 1.713129990090498e+00	 1.125907474858411e+00	 1.274017448803163e+01
 1.702186126694397e+00	 1.142385339454485e+00	 1.271646689245722e+01
 1.691073247371174e+00	 1.158772196298307e+00	 1.268889150328735e+01
 1.679792458534083e+00	 1.175065478742289e+00	 1.265721610905588e+01
 1.668344918061780e+00	 1.191262637445034e+00	 1.262351247523210e+01
 1.656731834975827e+00	 1.207361141649855e+00	 1.259059159970592e+01
 1.644954469080330e+00	 1.223358480456637e+00	 1.255797572967096e+01
 1.762749201980530e+00	 1.063696256605328e+00	 1.278719191066421e+01
 1.752447279254096e+00	 1.080584559137052e+00	 1.277561918810842e+01
 1.741971690479596e+00	 1.097391920967813e+00	 1.276142045091963e+01
 1.731323337608558e+00	 1.114115707809167e+00	 1.274428131259754e+01
 1.720503175193552e+00	 1.130753297576373e+00	 1.272387474719904e+01
 1.709512210216838e+00	 1.147302081686165e+00	 1.269987277674407e+01
 1.698351501880926e+00	 1.163759466353038e+00	 1.267195913733340e+01
 1.687022161360983e+00	 1.180122873882741e+00	 1.263998239786382e+01
 1.675525351519082e+00	 1.196389743961696e+00	 1.260743997950986e+01
 1.663862286580313e+00	 1.212557534941026e+00	 1.257556564068742e+01
 1.652034231770882e+00	 1.228623725113884e+00	 1.254382440506155e+01
 1.581236604843679e+00	 1.175971278531404e+00	 1.269678010335161e+01
 1.569756815835507e+00	 1.191251902350693e+00	 1.265620308768609e+01
 1.558121628340282e+00	 1.206430470476242e+00	 1.261409144148364e+01
 1.546332404585625e+00	 1.221504623834564e+00	 1.257025798556082e+01
 1.534390553932164e+00	 1.236472027217100e+00	 1.252448559017996e+01
 1.522297532345219e+00	 1.251330370457584e+00	 1.247652848903081e+01
 1.510054841831539e+00	 1.266077369595616e+00	 1.242611141717196e+01
 1.497664029841520e+00	 1.280710768025226e+00	 1.237292877358971e+01
 1.485126688637370e+00	 1.295228337627252e+00	 1.231664381807376e+01
 1.472444454627765e+00	 1.309627879884325e+00	 1.225688791257005e+01
 1.459619007669536e+00	 1.323907226977324e+00	 1.219325981757057e+01
 1.588316367537974e+00	 1.181236523188651e+00	 1.268094709508588e+01
 1.576785179402541e+00	 1.196585563834321e+00	 1.264133318556912e+01
 1.565097897005287e+00	 1.211832091846338e+00	 1.260018967044948e+01
 1.553255888673019e+00	 1.226973737588806e+00	 1.255731179926203e+01
 1.541260570076582e+00	 1.242008155397609e+00	 1.251246620399835e+01
 1.529113403700177e+00	 1.256933024763047e+00	 1.246538999542073e+01
 1.516815898275585e+00	 1.271746051498620e+00	 1.241578987386652e+01
 1.504369608181692e+00	 1.286444968894735e+00	 1.236334126395685e+01
 1.491776132809844e+00	 1.301027538856150e+00	 1.230768748316632e+01
 1.479037115895506e+00	 1.315491553021954e+00	 1.224843895469367e+01
 1.466154244816837e+00	 1.329834833866933e+00	 1.218517247549430e+01
 1.595396130232051e+00	 1.186501767846565e+00	 1.266507998639458e+01
 1.583813542969390e+00	 1.201919225318573e+00	 1.262634918751526e+01
 1.572074165670134e+00	 1.217233713217009e+00	 1.258606531551689e+01
 1.560179372760274e+00	 1.232442851343566e+00	 1.254401618496039e+01
 1.548130586220875e+00	 1.247544283578577e+00	 1.249996017747771e+01
 1.535929275055025e+00	 1.262535679068910e+00	 1.245362530011756e+01
 1.523576954719528e+00	 1.277414733401964e+00	 1.240470825703955e+01
 1.511075186521768e+00	 1.292179169764523e+00	 1.235287354422849e+01
 1.498425576982225e+00	 1.306826740085268e+00	 1.229775257746598e+01
 1.485629777163158e+00	 1.321355226159749e+00	 1.223894286430283e+01
 1.472689481964054e+00	 1.335762440756658e+00	 1.217600723121929e+01
 1.602475892925860e+00	 1.191767012504980e+00	 1.264924443269299e+01
 1.590841906535989e+00	 1.207252886803293e+00	 1.261132693936445e+01
 1.579050434334744e+00	 1.222635334588108e+00	 1.257180719230204e+01
 1.567102856847306e+00	 1.237911965098715e+00	 1.253047341319370e+01
 1.555000602364956e+00	 1.253080411759889e+00	 1.248708361835544e+01
 1.542745146409667e+00	 1.268138333375069e+00	 1.244136462739633e+01
 1.530338011163272e+00	 1.283083415305555e+00	 1.239301108389445e+01
 1.517780764861653e+00	 1.297913370634511e+00	 1.234168449803474e+01
 1.505075021154423e+00	 1.312625941314540e+00	 1.228701232174953e+01
 1.492222438430636e+00	 1.327218899297652e+00	 1.222858706743412e+01
 1.479224719111105e+00	 1.341690047646450e+00	 1.216596548177505e+01
 1.609555655619353e+00	 1.197032257163728e+00	 1.263350012841694e+01
 1.597870270102277e+00	 1.212586548288325e+00	 1.259633830092862e+01
 1.586026702999048e+00	 1.228036955959495e+00	 1.255749990572086e+01
 1.574026340934035e+00	 1.243381078854122e+00	 1.251678131275693e+01
 1.561870618508737e+00	 1.258616539941428e+00	 1.247394795700879e+01
 1.549561017764014e+00	 1.273740987681423e+00	 1.242873328579407e+01
 1.537099067606728e+00	 1.288752097209307e+00	 1.238083771658922e+01
 1.524486343201255e+00	 1.303647571504623e+00	 1.232992761556923e+01
 1.511724465326346e+00	 1.318425142543899e+00	 1.227563430774291e+01
 1.498815099697849e+00	 1.333082572435607e+00	 1.221755313010840e+01
 1.485759956257906e+00	 1.347617654536259e+00	 1.215524253974222e+01
 1.616635418312479e+00	 1.202297501822644e+00	 1.261790302101661e+01
 1.604898633668189e+00	 1.217920209773513e+00	 1.258145117357580e+01
 1.593002971662969e+00	 1.233438577331024e+00	 1.254322388273943e+01
 1.580949825020376e+00	 1.248850192609657e+00	 1.250303330867773e+01
 1.568740634652129e+00	 1.264152668123079e+00	 1.246065998967417e+01
 1.556376889117973e+00	 1.279343641987868e+00	 1.241585171655203e+01
 1.543860124049799e+00	 1.294420779113129e+00	 1.236832241584106e+01
 1.531191921540481e+00	 1.309381772374784e+00	 1.231775105225715e+01
 1.518373909497903e+00	 1.324224343773282e+00	 1.226378056171414e+01
 1.505407760964712e+00	 1.338946245573559e+00	 1.220601682666986e+01
 1.492295193404373e+00	 1.353545261426035e+00	 1.214402770612051e+01
 1.623715181005190e+00	 1.207562746481559e+00	 1.260250533472772e+01
 1.611926997233663e+00	 1.223253871258701e+00	 1.256672952894518e+01
 1.599979240326434e+00	 1.238840198702553e+00	 1.252905540612643e+01
 1.587873309106248e+00	 1.254319306365189e+00	 1.248931846106126e+01
 1.575610650795045e+00	 1.269688796304723e+00	 1.244732192240133e+01
 1.563192760471453e+00	 1.284946296294302e+00	 1.240283554265732e+01
 1.550621180492393e+00	 1.300089461016934e+00	 1.235559439499550e+01
 1.537897499879237e+00	 1.315115973244915e+00	 1.230529768775249e+01
 1.525023353669004e+00	 1.330023545002623e+00	 1.225160760826122e+01
 1.512000422231134e+00	 1.344809918711451e+00	 1.219414820818970e+01
 1.498830430550423e+00	 1.359472868315728e+00	 1.213250434313501e+01
 1.630794943697434e+00	 1.212827991140307e+00	 1.258735559556074e+01
 1.618955360798635e+00	 1.228587532743732e+00	 1.255223343875871e+01
 1.606955508989369e+00	 1.244241820073938e+00	 1.251506664917729e+01
 1.594796793191571e+00	 1.259788420120589e+00	 1.247572150477863e+01
 1.582480666937397e+00	 1.275224924486247e+00	 1.243403141572074e+01
 1.570008631824363e+00	 1.290548950600624e+00	 1.238979561846618e+01
 1.557382236934418e+00	 1.305758142920632e+00	 1.234277787454438e+01
 1.544603078217432e+00	 1.320850174114942e+00	 1.229270518525352e+01
 1.531672797839558e+00	 1.335822746231854e+00	 1.223926653428990e+01
 1.518593083497030e+00	 1.350673591849224e+00	 1.218211167093380e+01
 1.505365667695974e+00	 1.365400475205287e+00	 1.212084994698452e+01
 1.637874706389165e+00	 1.218093235798722e+00	 1.257249865747045e+01
 1.625983724363042e+00	 1.233921194228452e+00	 1.253801910569663e+01
 1.613931777651700e+00	 1.249643441445034e+00	 1.250132571138051e+01
 1.601720277276259e+00	 1.265257533875727e+00	 1.246232288997365e+01
 1.589350683079096e+00	 1.280761052667533e+00	 1.242088163000248e+01
 1.576824503176610e+00	 1.296151604906731e+00	 1.237683807989069e+01
 1.564143293375780e+00	 1.311426824824133e+00	 1.232999213708065e+01
 1.551308656554971e+00	 1.326584374984788e+00	 1.228010605112763e+01
 1.538322242009472e+00	 1.341621947460913e+00	 1.222690305317544e+01
 1.525185744762312e+00	 1.356537264986825e+00	 1.217006602489150e+01
 1.511900904840941e+00	 1.371328082094663e+00	 1.210923622053122e+01
 1.644954469080330e+00	 1.223358480456637e+00	 1.255797572967096e+01
 1.633012087926821e+00	 1.239254855712704e+00	 1.252413889530405e+01
 1.620908046313353e+00	 1.255045062815700e+00	 1.248789665499798e+01
 1.608643761360232e+00	 1.270726647630473e+00	 1.244919882336213e+01
 1.596220699220055e+00	 1.286297180848464e+00	 1.240796127148534e+01
 1.583640374528104e+00	 1.301754259212521e+00	 1.236406439513278e+01
 1.570904349816387e+00	 1.317095506727351e+00	 1.231735158267540e+01
 1.558014234891763e+00	 1.332318575854376e+00	 1.226762769483570e+01
 1.544971686178657e+00	 1.347421148689733e+00	 1.221465756910229e+01
 1.531778406026890e+00	 1.362400938124194e+00	 1.215816456236409e+01
 1.518436141985242e+00	 1.377255688983805e+00	 1.209782914593638e+01
 1.652034231770882e+00	 1.228623725113884e+00	 1.254382440506155e+01
 1.640040451489909e+00	 1.244588517196332e+00	 1.251064136889858e+01
 1.627884314974253e+00	 1.260446684185791e+00	 1.247483954253183e+01
 1.615567245443407e+00	 1.276195761384695e+00	 1.243642131030126e+01
 1.603090715360185e+00	 1.291833309028926e+00	 1.239535463895689e+01
 1.590456245878753e+00	 1.307356913517891e+00	 1.235157141594828e+01
 1.577665406256145e+00	 1.322764188630196e+00	 1.230496578466543e+01
 1.564719813227715e+00	 1.338052776723630e+00	 1.225539248914752e+01
 1.551621130347021e+00	 1.353220349918248e+00	 1.220266524157742e+01
 1.538371067290680e+00	 1.368264611261278e+00	 1.214655512661102e+01
 1.524971379128793e+00	 1.383183295872664e+00	 1.208678905724099e+01
 1.459619007669536e+00	 1.323907226977324e+00	 1.219325981757056e+01
 1.446654282552467e+00	 1.338061850794431e+00	 1.212675954639132e+01
 1.433549855706123e+00	 1.352092105920942e+00	 1.205859232554617e+01
 1.420307508804248e+00	 1.365995947141896e+00	 1.198865619070170e+01
 1.406929063831782e+00	 1.379771364094519e+00	 1.191682547421496e+01
 1.393416382243579e+00	 1.393416382243579e+00	 1.184294993767308e+01
 1.379771364094519e+00	 1.406929063831782e+00	 1.176685400889801e+01
 1.365995947141896e+00	 1.420307508804248e+00	 1.168833613554339e+01
 1.352092105920941e+00	 1.433549855706123e+00	 1.160716826719752e+01
 1.338061850794431e+00	 1.446654282552468e+00	 1.152309547759130e+01
 1.323907226977324e+00	 1.459619007669536e+00	 1.143583573810787e+01
 1.466154244816837e+00	 1.329834833866933e+00	 1.218517247549430e+01
 1.453131471981090e+00	 1.344052833005293e+00	 1.211895196932496e+01
 1.439968371921361e+00	 1.358145906609932e+00	 1.205107653978266e+01
 1.426666734288595e+00	 1.372112000308721e+00	 1.198146657915355e+01
 1.413228389225423e+00	 1.385949094737759e+00	 1.191001910017750e+01
 1.399655206521105e+00	 1.399655206521105e+00	 1.183660677472868e+01
 1.385949094737759e+00	 1.413228389225422e+00	 1.176107707706031e+01
 1.372112000308721e+00	 1.426666734288596e+00	 1.168325154424564e+01
 1.358145906609932e+00	 1.439968371921361e+00	 1.160292516624198e+01
 1.344052833005293e+00	 1.453131471981090e+00	 1.151986591769409e+01
 1.329834833866932e+00	 1.466154244816837e+00	 1.143381444318833e+01
 1.472689481964054e+00	 1.335762440756658e+00	 1.217600723121929e+01
 1.459608661409634e+00	 1.350043815216231e+00	 1.211008607272421e+01
 1.446386888136528e+00	 1.364199707298964e+00	 1.204257146646588e+01
 1.433025959772882e+00	 1.378228053475556e+00	 1.197339359706836e+01
 1.419527714619014e+00	 1.392126825380985e+00	 1.190245915649422e+01
 1.405894030798598e+00	 1.405894030798598e+00	 1.182965030485312e+01
 1.392126825380985e+00	 1.419527714619015e+00	 1.175482373644177e+01
 1.378228053475556e+00	 1.433025959772882e+00	 1.167780986413863e+01
 1.364199707298963e+00	 1.446386888136529e+00	 1.159841213506994e+01
 1.350043815216230e+00	 1.459608661409634e+00	 1.151640649016229e+01
 1.335762440756657e+00	 1.472689481964054e+00	 1.143154097978591e+01
 1.479224719111105e+00	 1.341690047646450e+00	 1.216596548177506e+01
 1.466085850838023e+00	 1.356034797427197e+00	 1.210037460562045e+01
 1.452805404351552e+00	 1.370253507987989e+00	 1.203329638401156e+01
 1.439385185257041e+00	 1.384344106642355e+00	 1.196465839498064e+01
 1.425827040012498e+00	 1.398304556024148e+00	 1.189436417768704e+01
 1.412132855076003e+00	 1.412132855076003e+00	 1.182229213116801e+01
 1.398304556024148e+00	 1.425827040012498e+00	 1.174829451955623e+01
 1.384344106642355e+00	 1.439385185257041e+00	 1.167219659735548e+01
 1.370253507987989e+00	 1.452805404351553e+00	 1.159379586816592e+01
 1.356034797427197e+00	 1.466085850838023e+00	 1.151286148994832e+01
 1.341690047646450e+00	 1.479224719111105e+00	 1.142913383950728e+01
 1.485759956257906e+00	 1.347617654536259e+00	 1.215524253974222e+01
 1.472563040266178e+00	 1.362025779638146e+00	 1.209002405674328e+01
 1.459223920566363e+00	 1.376307308676963e+00	 1.202346422214163e+01
 1.445744410741009e+00	 1.390460159809072e+00	 1.195547577101066e+01
 1.432126365405813e+00	 1.404482286667198e+00	 1.188594642396650e+01
 1.418371679353267e+00	 1.418371679353267e+00	 1.181473773950855e+01
 1.404482286667198e+00	 1.432126365405813e+00	 1.174168407462294e+01
 1.390460159809072e+00	 1.445744410741010e+00	 1.166659166768886e+01
 1.376307308676963e+00	 1.459223920566363e+00	 1.158923785753482e+01
 1.362025779638146e+00	 1.472563040266179e+00	 1.150937045219047e+01
 1.347617654536259e+00	 1.485759956257906e+00	 1.142670726046801e+01
 1.492295193404373e+00	 1.353545261426035e+00	 1.214402770612051e+01
 1.479040229694022e+00	 1.368016761849031e+00	 1.207923473078124e+01
 1.465642436780887e+00	 1.382361109365842e+00	 1.201328163955525e+01
 1.452103636224718e+00	 1.396576212975658e+00	 1.194605424802566e+01
 1.438425690798901e+00	 1.410660017310085e+00	 1.187741195602973e+01
 1.424610503630336e+00	 1.424610503630336e+00	 1.180718656907217e+01
 1.410660017310085e+00	 1.438425690798901e+00	 1.173518123034980e+01
 1.396576212975658e+00	 1.452103636224718e+00	 1.166116947786104e+01
 1.382361109365842e+00	 1.465642436780888e+00	 1.158489444088412e+01
 1.368016761849031e+00	 1.479040229694022e+00	 1.150606818980545e+01
 1.353545261426034e+00	 1.492295193404373e+00	 1.142437125286682e+01
 1.498830430550423e+00	 1.359472868315728e+00	 1.213250434313501e+01
 1.485517419121476e+00	 1.374007744059806e+00	 1.206820082448441e+01
 1.472060952995053e+00	 1.388414910054578e+00	 1.200294910139319e+01
 1.458462861708104e+00	 1.402692266142069e+00	 1.193659615059476e+01
 1.444725016191701e+00	 1.416837747952759e+00	 1.186896070970029e+01
 1.430849327907154e+00	 1.430849327907154e+00	 1.179983208300212e+01
 1.416837747952760e+00	 1.444725016191701e+00	 1.172896906078607e+01
 1.402692266142068e+00	 1.458462861708104e+00	 1.165609896704146e+01
 1.388414910054578e+00	 1.472060952995054e+00	 1.158091685027094e+01
 1.374007744059805e+00	 1.485517419121477e+00	 1.150308483180034e+01
 1.359472868315728e+00	 1.498830430550423e+00	 1.142223162557091e+01
 1.505365667695974e+00	 1.365400475205287e+00	 1.212084994698452e+01
 1.491994608548464e+00	 1.379998726270423e+00	 1.205711050261199e+01
 1.478479469208790e+00	 1.394468710743127e+00	 1.199266095650059e+01
 1.464822087191101e+00	 1.408808319308257e+00	 1.192729768174380e+01
 1.451024341584154e+00	 1.423015478595172e+00	 1.186078657041294e+01
 1.437088152183668e+00	 1.437088152183668e+00	 1.179286183890567e+01
 1.423015478595172e+00	 1.451024341584154e+00	 1.172322495024314e+01
 1.408808319308256e+00	 1.464822087191101e+00	 1.165154366860448e+01
 1.394468710743127e+00	 1.478479469208790e+00	 1.157745126120001e+01
 1.379998726270422e+00	 1.491994608548465e+00	 1.150054586228363e+01
 1.365400475205287e+00	 1.505365667695974e+00	 1.142039001368326e+01
 1.511900904840941e+00	 1.371328082094663e+00	 1.210923622053122e+01
 1.498471797974906e+00	 1.385989708480836e+00	 1.204614597373072e+01
 1.484897985422025e+00	 1.400522511431443e+00	 1.198260551449581e+01
 1.471181312673642e+00	 1.414924372474174e+00	 1.191834899951619e+01
 1.457323666976201e+00	 1.429193209237272e+00	 1.185307744754998e+01
 1.443326976459824e+00	 1.443326976459824e+00	 1.178645755931075e+01
 1.429193209237272e+00	 1.457323666976200e+00	 1.171812065828057e+01
 1.414924372474174e+00	 1.471181312673642e+00	 1.164766176811971e+01
 1.400522511431443e+00	 1.484897985422025e+00	 1.157463884215862e+01
 1.385989708480836e+00	 1.498471797974906e+00	 1.149857216015310e+01
 1.371328082094663e+00	 1.511900904840942e+00	 1.141894390705964e+01
 1.518436141985242e+00	 1.377255688983805e+00	 1.209782914593638e+01
 1.504948987400725e+00	 1.391980690691000e+00	 1.203548356586818e+01
 1.491316501634686e+00	 1.406576312119480e+00	 1.197296512264996e+01
 1.477540538155662e+00	 1.421040425639775e+00	 1.190993429334516e+01
 1.463622992367781e+00	 1.435370939879010e+00	 1.184601534863194e+01
 1.449565800735567e+00	 1.449565800735567e+00	 1.178079520206224e+01
 1.435370939879009e+00	 1.463622992367781e+00	 1.171382238475622e+01
 1.421040425639776e+00	 1.477540538155663e+00	 1.164460616156817e+01
 1.406576312119480e+00	 1.491316501634687e+00	 1.157261580457612e+01
 1.391980690690999e+00	 1.504948987400726e+00	 1.149728003944095e+01
 1.377255688983805e+00	 1.518436141985242e+00	 1.141798667974990e+01
 1.524971379128793e+00	 1.383183295872664e+00	 1.208678905724099e+01
 1.511426176825844e+00	 1.397971672900867e+00	 1.202529380202512e+01
 1.497735017846702e+00	 1.412630112807195e+00	 1.196391624258360e+01
 1.483899763637098e+00	 1.427156478805014e+00	 1.190223186024394e+01
 1.469922317758837e+00	 1.441548670520337e+00	 1.183977645336818e+01
 1.455804625010844e+00	 1.455804625010844e+00	 1.177604503065916e+01
 1.441548670520337e+00	 1.469922317758837e+00	 1.171049083493786e+01
 1.427156478805014e+00	 1.483899763637098e+00	 1.164252451377694e+01
 1.412630112807194e+00	 1.497735017846702e+00	 1.157151345319395e+01
 1.397971672900867e+00	 1.511426176825845e+00	 1.149678129029582e+01
 1.383183295872664e+00	 1.524971379128793e+00	 1.141760762033289e+01
 1.323907226977324e+00	 1.459619007669536e+00	 1.143583573810787e+01
 1.309627879884325e+00	 1.472444454627764e+00	 1.134673958020293e+01
 1.295228337627253e+00	 1.485126688637369e+00	 1.125711321113986e+01
 1.280710768025226e+00	 1.497664029841519e+00	 1.116651911130224e+01
 1.266077369595616e+00	 1.510054841831538e+00	 1.107448924320281e+01
 1.251330370457585e+00	 1.522297532345218e+00	 1.098052583119004e+01
 1.236472027217101e+00	 1.534390553932163e+00	 1.088410235315372e+01
 1.221504623834565e+00	 1.546332404585624e+00	 1.078466474988378e+01
 1.206430470476243e+00	 1.558121628340281e+00	 1.068163285661730e+01
 1.191251902350694e+00	 1.569756815835506e+00	 1.057440206012210e+01
 1.175971278531404e+00	 1.581236604843679e+00	 1.046234336042869e+01
 1.329834833866932e+00	 1.466154244816837e+00	 1.143381444318833e+01
 1.315491553021954e+00	 1.479037115895505e+00	 1.134610272810594e+01
 1.301027538856151e+00	 1.491776132809843e+00	 1.125795802011266e+01
 1.286444968894736e+00	 1.504369608181692e+00	 1.116887332273173e+01
 1.271746051498621e+00	 1.516815898275585e+00	 1.107830853442620e+01
 1.256933024763049e+00	 1.529113403700177e+00	 1.098569129551444e+01
 1.242008155397609e+00	 1.541260570076581e+00	 1.089041805457128e+01
 1.226973737588806e+00	 1.553255888673018e+00	 1.079185536015976e+01
 1.211832091846339e+00	 1.565097897005287e+00	 1.068934138259217e+01
 1.196585563834322e+00	 1.576785179402540e+00	 1.058218766919795e+01
 1.181236523188651e+00	 1.588316367537974e+00	 1.046968113530081e+01
 1.335762440756657e+00	 1.472689481964054e+00	 1.143154097978591e+01
 1.321355226159749e+00	 1.485629777163158e+00	 1.134510922443669e+01
 1.306826740085268e+00	 1.498425576982224e+00	 1.125826495937210e+01
 1.292179169764524e+00	 1.511075186521768e+00	 1.117045469909692e+01
 1.277414733401964e+00	 1.523576954719527e+00	 1.108109006882596e+01
 1.262535679068911e+00	 1.535929275055025e+00	 1.098954868092305e+01
 1.247544283578578e+00	 1.548130586220875e+00	 1.089517523740485e+01
 1.232442851343567e+00	 1.560179372760274e+00	 1.079728286462086e+01
 1.217233713217009e+00	 1.572074165670134e+00	 1.069515468504682e+01
 1.201919225318574e+00	 1.583813542969390e+00	 1.058804562988029e+01
 1.186501767846565e+00	 1.595396130232050e+00	 1.047518449481763e+01
 1.341690047646450e+00	 1.479224719111105e+00	 1.142913383950728e+01
 1.327218899297653e+00	 1.492222438430635e+00	 1.134385551648793e+01
 1.312625941314540e+00	 1.505075021154422e+00	 1.125811902694770e+01
 1.297913370634512e+00	 1.517780764861653e+00	 1.117134706412260e+01
 1.283083415305556e+00	 1.530338011163272e+00	 1.108292644309950e+01
 1.268138333375069e+00	 1.542745146409667e+00	 1.099220896932173e+01
 1.253080411759890e+00	 1.555000602364956e+00	 1.089851253883666e+01
 1.237911965098716e+00	 1.567102856847306e+00	 1.080112247673971e+01
 1.222635334588109e+00	 1.579050434334744e+00	 1.069929311906851e+01
 1.207252886803294e+00	 1.590841906535989e+00	 1.059224964212543e+01
 1.191767012504980e+00	 1.602475892925860e+00	 1.047919014186106e+01
 1.347617654536259e+00	 1.485759956257906e+00	 1.142670726046801e+01
 1.333082572435608e+00	 1.498815099697849e+00	 1.134243424218725e+01
 1.318425142543900e+00	 1.511724465326345e+00	 1.125760167331000e+01
 1.303647571504624e+00	 1.524486343201255e+00	 1.117163077924891e+01
 1.288752097209308e+00	 1.537099067606727e+00	 1.108390670632029e+01
 1.273740987681423e+00	 1.549561017764014e+00	 1.099377934508071e+01
 1.258616539941429e+00	 1.561870618508737e+00	 1.090056439018736e+01
 1.243381078854123e+00	 1.574026340934034e+00	 1.080354464365763e+01
 1.228036955959496e+00	 1.586026702999048e+00	 1.070197156717562e+01
 1.212586548288326e+00	 1.597870270102276e+00	 1.059506708778844e+01
 1.197032257163729e+00	 1.609555655619353e+00	 1.048202565996254e+01
 1.353545261426034e+00	 1.492295193404373e+00	 1.142437125286682e+01
 1.338946245573560e+00	 1.505407760964711e+00	 1.134093424498690e+01
 1.324224343773282e+00	 1.518373909497903e+00	 1.125679080954371e+01
 1.309381772374785e+00	 1.531191921540480e+00	 1.117138274893668e+01
 1.294420779113130e+00	 1.543860124049798e+00	 1.108411636610070e+01
 1.279343641987868e+00	 1.556376889117973e+00	 1.099436320565269e+01
 1.264152668123079e+00	 1.568740634652129e+00	 1.090146103545880e+01
 1.248850192609658e+00	 1.580949825020375e+00	 1.080471507599037e+01
 1.233438577331025e+00	 1.593002971662969e+00	 1.070339948359009e+01
 1.217920209773513e+00	 1.604898633668188e+00	 1.059675909243403e+01
 1.202297501822644e+00	 1.616635418312479e+00	 1.048401141857418e+01
 1.359472868315728e+00	 1.498830430550423e+00	 1.142223162557091e+01
 1.344809918711451e+00	 1.512000422231134e+00	 1.133944059001868e+01
 1.330023545002623e+00	 1.525023353669003e+00	 1.125576081693792e+01
 1.315115973244917e+00	 1.537897499879237e+00	 1.117067642743927e+01
 1.300089461016935e+00	 1.550621180492393e+00	 1.108363739616941e+01
 1.284946296294302e+00	 1.563192760471453e+00	 1.099406017345995e+01
 1.269688796304724e+00	 1.575610650795045e+00	 1.090132855090890e+01
 1.254319306365190e+00	 1.587873309106248e+00	 1.080479477834032e+01
 1.238840198702554e+00	 1.599979240326434e+00	 1.070378093880764e+01
 1.223253871258701e+00	 1.611926997233662e+00	 1.059758058695111e+01
 1.207562746481559e+00	 1.623715181005190e+00	 1.048546065458416e+01
 1.365400475205287e+00	 1.505365667695974e+00	 1.142039001368326e+01
 1.350673591849225e+00	 1.518593083497030e+00	 1.133803458147939e+01
 1.335822746231855e+00	 1.531672797839557e+00	 1.125458255795092e+01
 1.320850174114943e+00	 1.544603078217431e+00	 1.116958182699352e+01
 1.305758142920632e+00	 1.557382236934418e+00	 1.108254824532180e+01
 1.290548950600625e+00	 1.570008631824362e+00	 1.099296610901311e+01
 1.275224924486247e+00	 1.582480666937396e+00	 1.090028886562764e+01
 1.259788420120590e+00	 1.594796793191570e+00	 1.080394008049408e+01
 1.244241820073938e+00	 1.606955508989369e+00	 1.070331466445495e+01
 1.228587532743733e+00	 1.618955360798634e+00	 1.059778036897968e+01
 1.212827991140307e+00	 1.630794943697435e+00	 1.048667955309121e+01
 1.371328082094663e+00	 1.511900904840942e+00	 1.141894390705964e+01
 1.356537264986826e+00	 1.525185744762312e+00	 1.133679378120572e+01
 1.341621947460914e+00	 1.538322242009472e+00	 1.125332338850609e+01
 1.326584374984789e+00	 1.551308656554971e+00	 1.116816552739018e+01
 1.311426824824134e+00	 1.564143293375780e+00	 1.108092384769965e+01
 1.296151604906731e+00	 1.576824503176609e+00	 1.099117312522345e+01
 1.280761052667533e+00	 1.589350683079095e+00	 1.089845978308347e+01
 1.265257533875728e+00	 1.601720277276258e+00	 1.080230266928498e+01
 1.249643441445035e+00	 1.613931777651700e+00	 1.070219409842658e+01
 1.233921194228453e+00	 1.625983724363042e+00	 1.059760116415518e+01
 1.218093235798723e+00	 1.637874706389165e+00	 1.048796732746224e+01
 1.377255688983805e+00	 1.518436141985242e+00	 1.141798667974990e+01
 1.362400938124195e+00	 1.531778406026890e+00	 1.133579202840552e+01
 1.347421148689733e+00	 1.544971686178656e+00	 1.125204717158181e+01
 1.332318575854376e+00	 1.558014234891763e+00	 1.116649068687953e+01
 1.317095506727351e+00	 1.570904349816386e+00	 1.107883563436259e+01
 1.301754259212522e+00	 1.583640374528103e+00	 1.098876960287274e+01
 1.286297180848465e+00	 1.596220699220054e+00	 1.089595500361187e+01
 1.270726647630473e+00	 1.608643761360231e+00	 1.080002962110099e+01
 1.255045062815701e+00	 1.620908046313352e+00	 1.070060743029239e+01
 1.239254855712705e+00	 1.633012087926821e+00	 1.059727968717475e+01
 1.223358480456637e+00	 1.644954469080331e+00	 1.048961629869396e+01
 1.383183295872664e+00	 1.524971379128793e+00	 1.141760762033290e+01
 1.368264611261278e+00	 1.538371067290679e+00	 1.133509946050902e+01
 1.353220349918248e+00	 1.551621130347021e+00	 1.125081429205306e+01
 1.338052776723630e+00	 1.564719813227714e+00	 1.116461705437368e+01
 1.322764188630196e+00	 1.577665406256143e+00	 1.107635154611010e+01
 1.307356913517892e+00	 1.590456245878752e+00	 1.098584020720700e+01
 1.291833309028926e+00	 1.603090715360185e+00	 1.089288414781669e+01
 1.276195761384695e+00	 1.615567245443407e+00	 1.079726343501621e+01
 1.260446684185792e+00	 1.627884314974253e+00	 1.069873764696698e+01
 1.244588517196333e+00	 1.640040451489909e+00	 1.059704670269242e+01
 1.228623725113884e+00	 1.652034231770882e+00	 1.049191197409964e+01
 1.175971278531404e+00	 1.581236604843679e+00	 1.046234336042869e+01
 1.160593602018781e+00	 1.592557770515995e+00	 1.034833632873161e+01
 1.145118678784137e+00	 1.603721016929166e+00	 1.023554122656325e+01
 1.129548922467025e+00	 1.614725133077867e+00	 1.012348682117399e+01
 1.113886765794420e+00	 1.625568956772238e+00	 1.001171766360972e+01
 1.098134659358124e+00	 1.636251374984289e+00	 9.899815297806553e+00
 1.082295070385766e+00	 1.646771324157903e+00	 9.787418861009069e+00
 1.066370481506642e+00	 1.657127790482339e+00	 9.674244939620571e+00
 1.050363389513654e+00	 1.667319810129223e+00	 9.560106550821562e+00
 1.034276304122573e+00	 1.677346469452999e+00	 9.444931127274554e+00
 1.018111746729887e+00	 1.687206905154955e+00	 9.328777389897406e+00
 1.181236523188651e+00	 1.588316367537974e+00	 1.046968113530081e+01
 1.165789995309951e+00	 1.599688222123976e+00	 1.035578026836348e+01
 1.150245785300797e+00	 1.610901450389679e+00	 1.024327395608718e+01
 1.134606317607475e+00	 1.621954835907669e+00	 1.013161258042155e+01
 1.118874035849151e+00	 1.632847211284564e+00	 1.002040065502263e+01
 1.103051401589804e+00	 1.643577458508968e+00	 9.909283729789117e+00
 1.087140893103727e+00	 1.654144509262857e+00	 9.797969544355800e+00
 1.071145004135839e+00	 1.664547345196320e+00	 9.686248411794464e+00
 1.055066242658079e+00	 1.674784998165586e+00	 9.574012699162713e+00
 1.038907129623117e+00	 1.684856550434408e+00	 9.461275278710991e+00
 1.022670197716636e+00	 1.694761134838787e+00	 9.348186831454012e+00
 1.186501767846565e+00	 1.595396130232050e+00	 1.047518449481763e+01
 1.170986388601823e+00	 1.606818673731701e+00	 1.036122003431834e+01
 1.155372891818188e+00	 1.618081883849891e+00	 1.024926699456696e+01
 1.139663712748673e+00	 1.629184538737122e+00	 1.013834890098717e+01
 1.123861305904635e+00	 1.640125465796491e+00	 1.002807256099592e+01
 1.107968143822234e+00	 1.650903542033194e+00	 9.918088432046549e+00
 1.091986715822421e+00	 1.661517694367308e+00	 9.808112437350289e+00
 1.075919526765740e+00	 1.671966899909743e+00	 9.697946987360529e+00
 1.059769095803165e+00	 1.682250186201348e+00	 9.587501069699201e+00
 1.043537955124264e+00	 1.692366631415169e+00	 9.476809277588689e+00
 1.027228648703915e+00	 1.702315364521934e+00	 9.366049654957511e+00
 1.191767012504980e+00	 1.602475892925860e+00	 1.047919014186106e+01
 1.176182781894224e+00	 1.613949125339137e+00	 1.036510985420219e+01
 1.160499998336127e+00	 1.625262317309789e+00	 1.025400781017901e+01
 1.144721107890431e+00	 1.636414241566234e+00	 1.014419607362081e+01
 1.128848575960686e+00	 1.647403720308046e+00	 1.003522675232451e+01
 1.112884886055225e+00	 1.658229625557020e+00	 9.926696801672193e+00
 1.096832538541665e+00	 1.668890879471328e+00	 9.818270611500637e+00
 1.080694049396169e+00	 1.679386454622708e+00	 9.709701775045360e+00
 1.064471948948746e+00	 1.689715374236622e+00	 9.600853898427765e+00
 1.048168780625862e+00	 1.699876712395418e+00	 9.491720316738142e+00
 1.031787099691592e+00	 1.709869594204547e+00	 9.382442591105074e+00
 1.197032257163729e+00	 1.609555655619353e+00	 1.048202565996254e+01
 1.181379175186976e+00	 1.621079576946250e+00	 1.036801527210931e+01
 1.165627104854430e+00	 1.632442750769358e+00	 1.025797398295549e+01
 1.149778503032564e+00	 1.643643944395009e+00	 1.014964481548311e+01
 1.133835846017113e+00	 1.654681974819259e+00	 1.004234769492460e+01
 1.117801628288591e+00	 1.665555709080496e+00	 9.935568338603979e+00
 1.101678361261276e+00	 1.676264064574992e+00	 9.828860572549367e+00
 1.085468572026949e+00	 1.686806009335308e+00	 9.721868957342066e+00
 1.069174802094657e+00	 1.697180562271523e+00	 9.614350427090550e+00
 1.052799606127762e+00	 1.707386793375290e+00	 9.506194803322174e+00
 1.036345550679533e+00	 1.717423823886777e+00	 9.397444054152819e+00
 1.202297501822644e+00	 1.616635418312479e+00	 1.048401141857418e+01
 1.186575568479903e+00	 1.628210028553008e+00	 1.037048610571857e+01
 1.170754211372916e+00	 1.639623184228585e+00	 1.026163298156798e+01
 1.154835898174882e+00	 1.650873647223456e+00	 1.015517605703146e+01
 1.138823116073729e+00	 1.661960229330158e+00	 1.004991073931708e+01
 1.122718370522145e+00	 1.672881792603671e+00	 9.945154430480169e+00
 1.106524183981069e+00	 1.683637249678369e+00	 9.840292033765630e+00
 1.090243094657904e+00	 1.694225564047637e+00	 9.734799545589320e+00
 1.073877655240733e+00	 1.704645750306169e+00	 9.628266633690309e+00
 1.057430431629813e+00	 1.714896874354918e+00	 9.520418058733977e+00
 1.040904001667607e+00	 1.724978053568774e+00	 9.411133805440775e+00
 1.207562746481559e+00	 1.623715181005190e+00	 1.048546065458416e+01
 1.191771961772830e+00	 1.635340480159378e+00	 1.037288783101788e+01
 1.175881317891401e+00	 1.646803617687454e+00	 1.026544193856962e+01
 1.159893293317201e+00	 1.658103350051580e+00	 1.016126072728822e+01
 1.143810386130344e+00	 1.669238483840769e+00	 1.005838190861508e+01
 1.127635112755698e+00	 1.680207876126599e+00	 9.955898136314994e+00
 1.111370006700863e+00	 1.691010434781535e+00	 9.852967688554493e+00
 1.095017617288860e+00	 1.701645118759792e+00	 9.748839135042651e+00
 1.078580508386809e+00	 1.712110938340675e+00	 9.642874963838072e+00
 1.062061257131863e+00	 1.722406955334436e+00	 9.534574020324234e+00
 1.045462452655680e+00	 1.732532283250688e+00	 9.423592619902209e+00
 1.212827991140307e+00	 1.630794943697435e+00	 1.048667955309121e+01
 1.196968355065582e+00	 1.642470931765327e+00	 1.037557750891699e+01
 1.181008424409705e+00	 1.653984051145953e+00	 1.026993378294760e+01
 1.164950688459333e+00	 1.665333052879389e+00	 1.016835953753979e+01
 1.148797656186772e+00	 1.676516738351124e+00	 1.006821768506382e+01
 1.132551854989065e+00	 1.687533959649328e+00	 9.968233969031390e+00
 1.116215829420473e+00	 1.698383619884563e+00	 9.867282982404690e+00
 1.099792139919641e+00	 1.709064673471866e+00	 9.764327659937365e+00
 1.083283361532721e+00	 1.719576126375154e+00	 9.658444062907034e+00
 1.066692082633763e+00	 1.729917036313978e+00	 9.548844944907408e+00
 1.050020903643622e+00	 1.740086512932670e+00	 9.434901955465191e+00
 1.218093235798723e+00	 1.637874706389165e+00	 1.048796732746224e+01
 1.202164748357982e+00	 1.649601383370821e+00	 1.037890444666850e+01
 1.186135530927644e+00	 1.661164484604067e+00	 1.027564780434218e+01
 1.170008083601092e+00	 1.672562755706888e+00	 1.017692276351514e+01
 1.153784926242822e+00	 1.683794992861249e+00	 1.007986479517405e+01
 1.137468597222056e+00	 1.694860043171911e+00	 9.982587676882323e+00
 1.121061652139717e+00	 1.705756804987527e+00	 9.883625884196178e+00
 1.104566662550069e+00	 1.716484228183955e+00	 9.781599148543009e+00
 1.087986214678302e+00	 1.727041314409724e+00	 9.675238508969626e+00
 1.071322908135362e+00	 1.737427117293679e+00	 9.563411113989044e+00
 1.054579354631298e+00	 1.747640742614871e+00	 9.445143625259309e+00
 1.223358480456637e+00	 1.644954469080331e+00	 1.048961629869396e+01
 1.207361141649855e+00	 1.656731834975827e+00	 1.038321029301810e+01
 1.191262637445034e+00	 1.668344918061780e+00	 1.028295780810309e+01
 1.175065478742290e+00	 1.679792458534084e+00	 1.018739002608824e+01
 1.158772196298307e+00	 1.691073247371174e+00	 1.009375999349260e+01
 1.142385339454486e+00	 1.702186126694397e+00	 9.999376023797792e+00
 1.125907474858412e+00	 1.713129990090498e+00	 9.902376656884327e+00
 1.109341185179970e+00	 1.723903782896154e+00	 9.800981478210359e+00
 1.092689067823388e+00	 1.734506502444499e+00	 9.693518546493234e+00
 1.075953733636509e+00	 1.744937198273673e+00	 9.578450540665211e+00
 1.059137805618578e+00	 1.755194972297440e+00	 9.454399472542754e+00
 1.228623725113884e+00	 1.652034231770882e+00	 1.049191197409964e+01
 1.212557534941026e+00	 1.663862286580313e+00	 1.038882913223947e+01
 1.196389743961696e+00	 1.675525351519081e+00	 1.029222782663482e+01
 1.180122873882741e+00	 1.687022161360984e+00	 1.020023591016643e+01
 1.163759466353039e+00	 1.698351501880926e+00	 1.011032984505103e+01
 1.147302081686166e+00	 1.709512210216838e+00	 1.001900656868632e+01
 1.130753297576374e+00	 1.720503175193551e+00	 9.923907627582338e+00
 1.114115707809168e+00	 1.731323337608557e+00	 9.822796130410365e+00
 1.097391920967814e+00	 1.741971690479595e+00	 9.713539820772011e+00
 1.080584559137054e+00	 1.752447279254095e+00	 9.594138678142492e+00
 1.063696256605328e+00	 1.762749201980530e+00	 9.462751048268204e+00
 1.018111746729887e+00	 1.687206905154955e+00	 9.328777389897406e+00
 1.001872249487630e+00	 1.696900304820150e+00	 9.214084670514991e+00
 9.855603549931854e-01	 1.706425908242760e+00	 9.101641505927269e+00
 9.691786140624503e-01	 1.715783006263096e+00	 8.989242695546819e+00
 9.527295841709187e-01	 1.724970940377081e+00	 8.874834166450082e+00
 9.362158282216873e-01	 1.733989102717897e+00	 8.756526783626853e+00
 9.196399133193149e-01	 1.742836936002513e+00	 8.632608553732270e+00
 9.030044095506687e-01	 1.751513933443456e+00	 8.501555168795440e+00
 8.863118887738816e-01	 1.760019638626248e+00	 8.362038847268224e+00
 8.695649234165100e-01	 1.768353645352981e+00	 8.215430548232451e+00
 8.527660852839681e-01	 1.776515597452493e+00	 8.080100746753068e+00
 1.022670197716636e+00	 1.694761134838787e+00	 9.348186831454012e+00
 1.006357990428024e+00	 1.704497935326324e+00	 9.236838412071208e+00
 9.899730617387850e-01	 1.714066188287475e+00	 9.127334021273231e+00
 9.735179738857336e-01	 1.723465181387379e+00	 9.017059211525511e+00
 9.569952957950972e-01	 1.732694253173586e+00	 8.903548943494208e+00
 9.404076018450096e-01	 1.741752793057634e+00	 8.784502457793185e+00
 9.237574706338777e-01	 1.750640241261321e+00	 8.657796493964426e+00
 9.070474837557683e-01	 1.759356088728095e+00	 8.521496800353010e+00
 8.902802245839454e-01	 1.767899876999938e+00	 8.375723208673868e+00
 8.734582770636449e-01	 1.776271198060234e+00	 8.238319663814856e+00
 8.565842245151780e-01	 1.784469694143108e+00	 8.113299701187918e+00
 1.027228648703915e+00	 1.702315364521934e+00	 9.366049654957511e+00
 1.010843731368860e+00	 1.712095565831782e+00	 9.256852393309678e+00
 9.943857684847284e-01	 1.721706468331452e+00	 9.148620590882938e+00
 9.778573337092549e-01	 1.731147356510909e+00	 9.038411372440253e+00
 9.612610074194082e-01	 1.740417565969336e+00	 8.923431696240307e+00
 9.445993754683630e-01	 1.749516483396619e+00	 8.801054166938176e+00
 9.278750279483776e-01	 1.758443546519395e+00	 8.668831147118812e+00
 9.110905579607256e-01	 1.767198244012031e+00	 8.525600606840204e+00
 8.942485603938056e-01	 1.775780115372968e+00	 8.388195495234058e+00
 8.773516307105402e-01	 1.784188750766886e+00	 8.261920646169662e+00
 8.604023637461388e-01	 1.792423790833194e+00	 8.145365858355806e+00
 1.031787099691592e+00	 1.709869594204547e+00	 9.382442591105074e+00
 1.015329472310029e+00	 1.719693196336689e+00	 9.274100375034653e+00
 9.987984752309287e-01	 1.729346748374865e+00	 9.165401109771905e+00
 9.821966935329554e-01	 1.738829531633867e+00	 9.053153113261523e+00
 9.655267190438198e-01	 1.748140878764512e+00	 8.934317095264106e+00
 9.487911490917418e-01	 1.757280173735038e+00	 8.806022792362619e+00
 9.319925852628353e-01	 1.766246851776917e+00	 8.665987637019443e+00
 9.151336321655836e-01	 1.775040399295439e+00	 8.529186731844923e+00
 8.982168962035247e-01	 1.783660353745502e+00	 8.403054608434537e+00
 8.812449843572712e-01	 1.792106303473086e+00	 8.285920485268226e+00
 8.642205029769344e-01	 1.800377887522883e+00	 8.176112908896648e+00
 1.036345550679533e+00	 1.717423823886777e+00	 9.397444054152819e+00
 1.019815213251417e+00	 1.727290826841209e+00	 9.288560125708077e+00
 1.003211181977301e+00	 1.736987028417887e+00	 9.177581276785524e+00
 9.865360533567764e-01	 1.746511706756435e+00	 9.061145459681960e+00
 9.697924306683005e-01	 1.755864191559300e+00	 8.936047698447460e+00
 9.529829227151404e-01	 1.765043864073076e+00	 8.799276153601030e+00
 9.361101425772709e-01	 1.774050157034071e+00	 8.662675464122902e+00
 9.191767063703854e-01	 1.782882554578494e+00	 8.536825653854356e+00
 9.021852320131646e-01	 1.791540592117707e+00	 8.419883219414549e+00
 8.851383380039127e-01	 1.800023856178985e+00	 8.310006588621464e+00
 8.680386422076478e-01	 1.808331984212308e+00	 8.205352865131758e+00
 1.040904001667607e+00	 1.724978053568774e+00	 9.411133805440775e+00
 1.024300954192917e+00	 1.734888457345504e+00	 9.300213051690935e+00
 1.007623888723760e+00	 1.744627308460692e+00	 9.185072202981695e+00
 9.908754131806581e-01	 1.754193881878792e+00	 9.062256125608265e+00
 9.740581422928178e-01	 1.763587504353885e+00	 8.928473548095187e+00
 9.571746963385549e-01	 1.772807554410919e+00	 8.791292082586095e+00
 9.402276998917043e-01	 1.781853462291037e+00	 8.665052772104508e+00
 9.232197805751732e-01	 1.790724709861371e+00	 8.548019839040279e+00
 9.061535678227867e-01	 1.799420830489746e+00	 8.438266108958311e+00
 8.890316916505411e-01	 1.807941408884734e+00	 8.333866761922669e+00
 8.718567814383629e-01	 1.816286080901601e+00	 8.232896083519361e+00
 1.045462452655680e+00	 1.732532283250688e+00	 9.423592619902209e+00
 1.028786695134416e+00	 1.742486087849739e+00	 9.309043831539396e+00
 1.012036595470219e+00	 1.752267588503456e+00	 9.187790024836065e+00
 9.952147730045425e-01	 1.761876057001122e+00	 9.056359115961531e+00
 9.783238539173406e-01	 1.771310817148453e+00	 8.918275074941185e+00
 9.613664699619803e-01	 1.780571244748752e+00	 8.790588144649584e+00
 9.443452572061566e-01	 1.789656767547997e+00	 8.672565924513231e+00
 9.272628547799905e-01	 1.798566865144247e+00	 8.562275136130111e+00
 9.101219036324519e-01	 1.807301068861784e+00	 8.457790117972770e+00
 8.929250452972309e-01	 1.815858961590483e+00	 8.357189192522558e+00
 8.756749206691625e-01	 1.824240177590894e+00	 8.258551288746077e+00
 1.050020903643622e+00	 1.740086512932670e+00	 9.434901955465191e+00
 1.033272436075806e+00	 1.750083718354078e+00	 9.315040054229335e+00
 1.016449302216594e+00	 1.759907868546351e+00	 9.185655522125964e+00
 9.995541328283705e-01	 1.769558232123605e+00	 9.046867860448431e+00
 9.825895655418375e-01	 1.779034129943188e+00	 8.916690872925958e+00
 9.655582435854111e-01	 1.788334935086759e+00	 8.796578649141994e+00
 9.484628145206473e-01	 1.797460072805134e+00	 8.684665527076831e+00
 9.313059289848798e-01	 1.806409020427295e+00	 8.579100706426214e+00
 9.140902394422225e-01	 1.815181307233987e+00	 8.478044101673698e+00
 8.968183989440586e-01	 1.823776514296382e+00	 8.379662435648426e+00
 8.794930599001300e-01	 1.832194274280319e+00	 8.282125599402381e+00
 1.054579354631298e+00	 1.747640742614871e+00	 9.445143625259309e+00
 1.037758177016974e+00	 1.757681348858684e+00	 9.318191861194952e+00
 1.020862008962798e+00	 1.767548148589553e+00	 9.179754575080342e+00
 1.003893492652083e+00	 1.777240407246422e+00	 9.046438104947358e+00
 9.868552771662767e-01	 1.786757442738276e+00	 8.923324396181350e+00
 9.697500172088429e-01	 1.796098625425127e+00	 8.808682600355256e+00
 9.525803718351967e-01	 1.805263378062631e+00	 8.700806346699581e+00
 9.353490031898837e-01	 1.814251175710692e+00	 8.598008958149000e+00
 9.180585752521593e-01	 1.823061545606518e+00	 8.498618887366701e+00
 9.007117525910985e-01	 1.831694067002581e+00	 8.400975403286809e+00
 8.833111991313498e-01	 1.840148370970008e+00	 8.303424555196649e+00
 1.059137805618578e+00	 1.755194972297440e+00	 9.454399472542754e+00
 1.042243917957811e+00	 1.765278979363722e+00	 9.318536686791788e+00
 1.025274715708746e+00	 1.775188428633234e+00	 9.182175470269788e+00
 1.008232852475620e+00	 1.784922582369755e+00	 9.055704137831576e+00
 9.911209887906262e-01	 1.794480755533900e+00	 8.937586601689778e+00
 9.739417908322711e-01	 1.803862315764040e+00	 8.826323614666549e+00
 9.566979291498261e-01	 1.813066683320668e+00	 8.720447235156392e+00
 9.393920773950454e-01	 1.822093330994612e+00	 8.618515484977664e+00
 9.220269110623245e-01	 1.830941783979543e+00	 8.519107235716472e+00
 9.046051062384273e-01	 1.839611619709232e+00	 8.420817355646086e+00
 8.871293383629040e-01	 1.848102467660094e+00	 8.322252145660476e+00
 1.063696256605328e+00	 1.762749201980530e+00	 9.462751048268204e+00
 1.046729658898207e+00	 1.772876609869357e+00	 9.325008697588466e+00
 1.029687422454353e+00	 1.782828708677572e+00	 9.195718482354538e+00
 1.012572212298925e+00	 1.792604757493784e+00	 9.074092297385677e+00
 9.953867004148546e-01	 1.802204068330247e+00	 8.958893118360740e+00
 9.781335644556902e-01	 1.811626006103685e+00	 8.848929842511549e+00
 9.608154864645549e-01	 1.820869988579429e+00	 8.743051057343004e+00
 9.434351516004084e-01	 1.829935486279232e+00	 8.640139008659759e+00
 9.259952468727801e-01	 1.838822022353227e+00	 8.539103805397986e+00
 9.084984598861195e-01	 1.847529172416485e+00	 8.438877895126037e+00
 8.909474775948772e-01	 1.856056564350709e+00	 8.338410840299073e+00
 8.527660852839681e-01	 1.776515597452493e+00	 8.080100746753073e+00
 8.359150758318051e-01	 1.784506531992859e+00	 7.954751583873394e+00
 8.190173143215014e-01	 1.792324788737874e+00	 7.834077923850305e+00
 8.020753641344036e-01	 1.799970158789352e+00	 7.717419682796997e+00
 7.850917834154448e-01	 1.807442482225144e+00	 7.604112296933650e+00
 7.680691239473414e-01	 1.814741647752109e+00	 7.493483578305757e+00
 7.510099300408769e-01	 1.821867592329375e+00	 7.384850840483147e+00
 7.339167374421334e-01	 1.828820300762612e+00	 7.277518297966679e+00
 7.167920722575044e-01	 1.835599805270095e+00	 7.170774740338997e+00
 6.996384498972799e-01	 1.842206185021295e+00	 7.063891479601140e+00
 6.824583740385706e-01	 1.848639565648836e+00	 6.956120566657066e+00
 8.565842245151780e-01	 1.784469694143108e+00	 8.113299701187918e+00
 8.396577670574036e-01	 1.792496406959950e+00	 7.995093095446492e+00
 8.226843482157804e-01	 1.800349668841083e+00	 7.878699205271696e+00
 8.056665428488365e-01	 1.808029269953017e+00	 7.763859662689912e+00
 7.886069205552402e-01	 1.815535049657577e+00	 7.650320002375105e+00
 7.715080445429554e-01	 1.822866896163327e+00	 7.537825803138348e+00
 7.543724705145624e-01	 1.830024746147141e+00	 7.426119110420732e+00
 7.372027455695904e-01	 1.837008584346666e+00	 7.314935144527903e+00
 7.200014071247192e-01	 1.843818443124430e+00	 7.203999296544104e+00
 7.027709818526362e-01	 1.850454402004382e+00	 7.093024411165295e+00
 6.855139846403153e-01	 1.856916587181651e+00	 6.981708353100732e+00
 8.604023637461388e-01	 1.792423790833194e+00	 8.145365858355806e+00
 8.434004582827754e-01	 1.800486281926599e+00	 8.032876918427700e+00
 8.263513821098809e-01	 1.808374548943953e+00	 7.919828014233166e+00
 8.092577215631587e-01	 1.816088381116450e+00	 7.806304114053049e+00
 7.921220576950027e-01	 1.823627617089888e+00	 7.692401160764728e+00
 7.749469651386222e-01	 1.830992144574534e+00	 7.578221593318023e+00
 7.577350109883830e-01	 1.838181899965001e+00	 7.463870160889244e+00
 7.404887536972570e-01	 1.845196867930910e+00	 7.349450035300725e+00
 7.232107419922029e-01	 1.852037080979040e+00	 7.235059224395297e+00
 7.059035138082992e-01	 1.858702618987810e+00	 7.120787286242383e+00
 6.885695952423757e-01	 1.865193608714851e+00	 7.006712341357165e+00
 8.642205029769344e-01	 1.800377887522883e+00	 8.176112908896652e+00
 8.471431495080048e-01	 1.808476156892918e+00	 8.068042071160797e+00
 8.300184160038834e-01	 1.816399429046566e+00	 7.957507051966109e+00
 8.128489002774396e-01	 1.824147492279707e+00	 7.844878596619155e+00
 7.956371948347921e-01	 1.831720184522107e+00	 7.730544194557234e+00
 7.783858857343856e-01	 1.839117392985728e+00	 7.614903074266323e+00
 7.610975514623687e-01	 1.846339053782927e+00	 7.498361503208486e+00
 7.437747618251471e-01	 1.853385151515288e+00	 7.381328399047052e+00
 7.264200768599567e-01	 1.860255718833843e+00	 7.264211255448744e+00
 7.090360457642585e-01	 1.866950835971476e+00	 7.147412382820326e+00
 6.916252058447343e-01	 1.873470630248318e+00	 7.031325461540245e+00
 8.680386422076478e-01	 1.808331984212308e+00	 8.205352865131758e+00
 8.508858407331772e-01	 1.816466031859018e+00	 8.100523827654701e+00
 8.336854498978677e-01	 1.824424309149010e+00	 7.991773596112258e+00
 8.164400789917521e-01	 1.832206603442847e+00	 7.879701939818228e+00
 7.991523319746678e-01	 1.839812751954262e+00	 7.764929847307687e+00
 7.818248063302906e-01	 1.847242641396911e+00	 7.648094087403718e+00
 7.644600919365478e-01	 1.854496207600891e+00	 7.529842088293885e+00
 7.470607699532762e-01	 1.861573435099747e+00	 7.410827141453193e+00
 7.296294117279808e-01	 1.868474356688762e+00	 7.291703934121877e+00
 7.121685777205041e-01	 1.875199052955282e+00	 7.173124411026993e+00
 6.946808164473743e-01	 1.881747651781935e+00	 7.055733963131634e+00
 8.718567814383629e-01	 1.816286080901601e+00	 8.232896083519361e+00
 8.546285319583773e-01	 1.824455906825007e+00	 8.130253781360480e+00
 8.373524837919145e-01	 1.832449189251368e+00	 8.022659597530190e+00
 8.200312577061676e-01	 1.840265714605927e+00	 7.910886364642668e+00
 8.026674691146880e-01	 1.847905319386382e+00	 7.795731322949758e+00
 7.852637269263818e-01	 1.855367889808084e+00	 7.678010339527103e+00
 7.678226324109505e-01	 1.862653361418864e+00	 7.558552459150548e+00
 7.503467780816581e-01	 1.869761718684233e+00	 7.438194794089355e+00
 7.328387465962768e-01	 1.876692994543716e+00	 7.317777756806871e+00
 7.153011096770268e-01	 1.883447269939126e+00	 7.198140636427704e+00
 6.977364270502795e-01	 1.890024673315585e+00	 7.080117516827697e+00
 8.756749206691625e-01	 1.824240177590894e+00	 8.258551288746077e+00
 8.583712231836894e-01	 1.832445781790996e+00	 8.157159909403159e+00
 8.410195176861038e-01	 1.840474069353725e+00	 8.050191776592859e+00
 8.236224364207566e-01	 1.848324825769005e+00	 7.938537604249379e+00
 8.061826062549124e-01	 1.855997886818497e+00	 7.823114423259996e+00
 7.887026475227042e-01	 1.863493138219246e+00	 7.704859550015241e+00
 7.711851728856056e-01	 1.870810515236819e+00	 7.584724901019491e+00
 7.536327862103069e-01	 1.877950002268689e+00	 7.463671661026341e+00
 7.360480814648452e-01	 1.884911632398625e+00	 7.342665308814185e+00
 7.184336416338161e-01	 1.891695486922907e+00	 7.222671001479728e+00
 7.007920376534325e-01	 1.898301694849150e+00	 7.104649315025394e+00
 8.794930599001300e-01	 1.832194274280319e+00	 8.282125599402384e+00
 8.621139144091986e-01	 1.840435656757095e+00	 8.181166637251332e+00
 8.446865515805162e-01	 1.848498949456167e+00	 8.074391718988309e+00
 8.272136151355911e-01	 1.856383936932139e+00	 7.962755023336604e+00
 8.096977433954000e-01	 1.864090454250636e+00	 7.847237683563907e+00
 7.921415681193020e-01	 1.871618386630397e+00	 7.728841595927486e+00
 7.745477133605432e-01	 1.878967669054727e+00	 7.608583589251419e+00
 7.569187943392373e-01	 1.886138285853060e+00	 7.487489963182144e+00
 7.392574163336874e-01	 1.893130270253413e+00	 7.366591399209433e+00
 7.215661735908618e-01	 1.899943703906525e+00	 7.246918245200687e+00
 7.038476482568163e-01	 1.906578716382512e+00	 7.129496170984186e+00
 8.833111991313498e-01	 1.840148370970008e+00	 8.303424555196649e+00
 8.658566056349893e-01	 1.848425531723414e+00	 8.202194903814341e+00
 8.483535854752317e-01	 1.856523829558777e+00	 8.095275971043129e+00
 8.308047938507421e-01	 1.864443048095384e+00	 7.983631736334327e+00
 8.132128805362095e-01	 1.872183021682827e+00	 7.868252506735385e+00
 7.955804887162202e-01	 1.879743635041538e+00	 7.750148655060766e+00
 7.779102538357916e-01	 1.887124822872560e+00	 7.630344734975161e+00
 7.602048024684636e-01	 1.894326569437291e+00	 7.509873980465160e+00
 7.424667512028035e-01	 1.901348908107998e+00	 7.389773193608189e+00
 7.246987055481553e-01	 1.908191920889881e+00	 7.271078021102571e+00
 7.069032588604145e-01	 1.914855737915554e+00	 7.154818616705259e+00
 8.871293383629040e-01	 1.848102467660094e+00	 8.322252145660482e+00
 8.695992968611470e-01	 1.856415406690063e+00	 8.220162226951942e+00
 8.520206193703309e-01	 1.864548709661641e+00	 8.112856134579101e+00
 8.343959725662811e-01	 1.872502159258800e+00	 8.001254724440230e+00
 8.167280176774003e-01	 1.880275589115099e+00	 7.886303295540237e+00
 7.990194093135032e-01	 1.887868883452669e+00	 7.768965347024711e+00
 7.812727943113812e-01	 1.895281976690290e+00	 7.650216728626903e+00
 7.634908105980003e-01	 1.902514853021329e+00	 7.531040191782424e+00
 7.456760860721953e-01	 1.909567545962300e+00	 7.412420344990385e+00
 7.278312375056852e-01	 1.916440137872873e+00	 7.295339013448139e+00
 7.099588694642096e-01	 1.923132759448157e+00	 7.180770999568264e+00
 8.909474775948772e-01	 1.856056564350709e+00	 8.338410840299073e+00
 8.733419880877556e-01	 1.864405281657153e+00	 8.234982769384938e+00
 8.556876532658938e-01	 1.872573589764845e+00	 8.127138961319069e+00
 8.379871512822794e-01	 1.880561270422445e+00	 8.015704951541165e+00
 8.202431548190318e-01	 1.888368156547483e+00	 7.901527583377462e+00
 8.024583299111965e-01	 1.895994131863790e+00	 7.785468872395953e+00
 7.846353347873413e-01	 1.903439130507890e+00	 7.668400281404530e+00
 7.667768187278625e-01	 1.910703136605119e+00	 7.551197412974618e+00
 7.488854209418633e-01	 1.917786183816243e+00	 7.434735122592721e+00
 7.309637694634429e-01	 1.924688354855402e+00	 7.319883051873594e+00
 7.130144800681852e-01	 1.931409780980207e+00	 7.207501577759276e+00
 6.824583740385706e-01	 1.848639565648836e+00	 6.956120566657066e+00
 6.652572617369515e-01	 1.854899069024128e+00	 6.848925717416860e+00
 6.480346701480332e-01	 1.860986019235963e+00	 6.744557388474364e+00
 6.307930597291923e-01	 1.866900676732648e+00	 6.643462131563546e+00
 6.135348753077542e-01	 1.872643346196608e+00	 6.546050631674366e+00
 5.962625451515272e-01	 1.878214375937486e+00	 6.452695651680103e+00
 5.789784800624057e-01	 1.883614157263803e+00	 6.362567857971307e+00
 5.616850724935349e-01	 1.888843123834063e+00	 6.270080069944957e+00
 5.443846956905031e-01	 1.893901750988257e+00	 6.175137574043565e+00
 5.270797028569850e-01	 1.898790555060661e+00	 6.078461686036660e+00
 5.097724263452204e-01	 1.903510092674904e+00	 5.980683505156939e+00
 6.855139846403153e-01	 1.856916587181651e+00	 6.981708353100728e+00
 6.682358567974321e-01	 1.863204116595952e+00	 6.871856132196902e+00
 6.509361534968212e-01	 1.869318320264493e+00	 6.765689521939819e+00
 6.336173462122061e-01	 1.875259459801692e+00	 6.663548488100560e+00
 6.162818907172751e-01	 1.881027841254142e+00	 6.565734846899003e+00
 5.989322261520581e-01	 1.886623814490985e+00	 6.472510454082285e+00
 5.815707741124698e-01	 1.892047772572763e+00	 6.383495009768670e+00
 5.641999377635212e-01	 1.897300151099619e+00	 6.292994007428936e+00
 5.468221009766679e-01	 1.902381427539802e+00	 6.200092492962249e+00
 5.294396274917170e-01	 1.907292120539397e+00	 6.105390505240268e+00
 5.120548601036816e-01	 1.912032789214229e+00	 6.009396216436357e+00
 6.885695952423757e-01	 1.865193608714851e+00	 7.006712341357165e+00
 6.712144518582039e-01	 1.871509164168183e+00	 6.894867668854237e+00
 6.538376368458487e-01	 1.877650621293430e+00	 6.787388949880885e+00
 6.364416326953839e-01	 1.883618242871130e+00	 6.684526904623146e+00
 6.190289061268688e-01	 1.889412336312042e+00	 6.586492276693432e+00
 6.016019071525610e-01	 1.895033253044815e+00	 6.493454237671864e+00
 5.841630681624008e-01	 1.900481387882017e+00	 6.405316435222201e+00
 5.667148030332719e-01	 1.905757178365433e+00	 6.316684639654088e+00
 5.492595062625030e-01	 1.910861104091575e+00	 6.225647401042746e+00
 5.317995521260396e-01	 1.915793686018341e+00	 6.132703135774547e+00
 5.143372938616730e-01	 1.920555485753755e+00	 6.038257048234129e+00
 6.916252058447343e-01	 1.873470630248318e+00	 7.031325461540245e+00
 6.741930469192484e-01	 1.879814211740690e+00	 6.918111009273441e+00
 6.567391201950976e-01	 1.885982922322636e+00	 6.809772419499293e+00
 6.392659191787133e-01	 1.891977025940817e+00	 6.706488221379862e+00
 6.217759215365304e-01	 1.897796831370164e+00	 6.608395591260103e+00
 6.042715881530389e-01	 1.903442691598834e+00	 6.515588943990479e+00
 5.867553622122104e-01	 1.908915003191423e+00	 6.428090229176163e+00
 5.692296683028069e-01	 1.914214205631365e+00	 6.341209517384976e+00
 5.516969115480349e-01	 1.919340780643440e+00	 6.251865814245278e+00
 5.341594767599832e-01	 1.924295251497357e+00	 6.160475256052395e+00
 5.166197276192274e-01	 1.929078182293349e+00	 6.067359725038015e+00
 6.946808164473743e-01	 1.881747651781935e+00	 7.055733963131634e+00
 6.771716419805458e-01	 1.888119259313344e+00	 6.941731098529448e+00
 6.596406035445508e-01	 1.894315223351976e+00	 6.832951743985401e+00
 6.420902056621818e-01	 1.900335809010613e+00	 6.729519010994703e+00
 6.245229369462538e-01	 1.906181326428363e+00	 6.631513727796257e+00
 6.069412691534942e-01	 1.911852130152897e+00	 6.538973189095199e+00
 5.893476562619110e-01	 1.917348618500842e+00	 6.451890179108396e+00
 5.717445335721467e-01	 1.922671232897279e+00	 6.366624425654368e+00
 5.541343168332908e-01	 1.927820457195260e+00	 6.278809605701572e+00
 5.365194013935801e-01	 1.932796816976313e+00	 6.188780908845240e+00
 5.189021613763785e-01	 1.937600878832876e+00	 6.096796231805984e+00
 6.977364270502795e-01	 1.890024673315585e+00	 7.080117516827695e+00
 6.801502370420770e-01	 1.896424306886015e+00	 6.965867224286546e+00
 6.625420868941903e-01	 1.902647524381308e+00	 6.857033862794560e+00
 6.449144921457762e-01	 1.908694592080372e+00	 6.753701622849823e+00
 6.272699523560339e-01	 1.914565821486497e+00	 6.655911922106667e+00
 6.096109501539307e-01	 1.920261568706861e+00	 6.563662285421739e+00
 5.919399503115138e-01	 1.925782233810131e+00	 6.476905506599010e+00
 5.742593988413109e-01	 1.931128260163035e+00	 6.392983347268957e+00
 5.565717221182981e-01	 1.936300133746901e+00	 6.306538970992407e+00
 5.388793260268625e-01	 1.941298382455074e+00	 6.217692470826033e+00
 5.211845951331590e-01	 1.946123575372203e+00	 6.126656790148362e+00
 7.007920376534325e-01	 1.898301694849150e+00	 7.104649315025399e+00
 6.831288321038235e-01	 1.904729354458575e+00	 6.990653095340873e+00
 6.654435702439991e-01	 1.910979825410497e+00	 6.882120901491343e+00
 6.477387786294851e-01	 1.917053375149957e+00	 6.779114227374530e+00
 6.300169677658654e-01	 1.922950316544420e+00	 6.681651740386291e+00
 6.122806311543508e-01	 1.928671007260584e+00	 6.589708264005168e+00
 5.945322443610307e-01	 1.934215849119148e+00	 6.503214050735737e+00
 5.767742641103203e-01	 1.939585287428494e+00	 6.420338426821782e+00
 5.590091274030835e-01	 1.944779810298224e+00	 6.335112393909714e+00
 5.412392506598613e-01	 1.949799947933506e+00	 6.247280622501520e+00
 5.234670288896022e-01	 1.954646271911197e+00	 6.157029834748542e+00
 7.038476482568163e-01	 1.906578716382512e+00	 7.129496170984186e+00
 6.861074271657656e-01	 1.913034402030891e+00	 7.016216919332386e+00
 6.683450535939601e-01	 1.919312126439404e+00	 6.908310231172607e+00
 6.505630651132948e-01	 1.925412158219221e+00	 6.805830860247688e+00
 6.327639831757422e-01	 1.931334811601990e+00	 6.708791111167908e+00
 6.149503121547579e-01	 1.937080445813921e+00	 6.617159897043761e+00
 5.971245384104735e-01	 1.942649464427751e+00	 6.530862096425990e+00
 5.792891293791944e-01	 1.948042314693518e+00	 6.448739935202362e+00
 5.614465326876741e-01	 1.953259486849095e+00	 6.364586612687009e+00
 5.435991752926084e-01	 1.958301513411475e+00	 6.277614318527251e+00
 5.257494626457417e-01	 1.963168968449725e+00	 6.188001990014522e+00
 7.069032588604145e-01	 1.914855737915554e+00	 7.154818616705255e+00
 6.890860222278834e-01	 1.921339449602834e+00	 7.042681479652250e+00
 6.712465369440550e-01	 1.927644427467893e+00	 6.935694527483969e+00
 6.533873515971935e-01	 1.933770941288025e+00	 6.833921466511061e+00
 6.355109985856596e-01	 1.939719306659061e+00	 6.737384357428468e+00
 6.176199931551547e-01	 1.945489884366728e+00	 6.646062720798090e+00
 5.997168324598541e-01	 1.951083079735801e+00	 6.559892951078421e+00
 5.818039946479535e-01	 1.956499341957966e+00	 6.478236234584056e+00
 5.638839379720969e-01	 1.961739163399377e+00	 6.395016586685097e+00
 5.459590999251359e-01	 1.966803078888846e+00	 6.308760758389768e+00
 5.280318964016106e-01	 1.971691664987653e+00	 6.219658046956062e+00
 7.099588694642096e-01	 1.923132759448157e+00	 7.180770999568264e+00
 6.920646172901587e-01	 1.929644497174276e+00	 7.070164211568642e+00
 6.741480202942667e-01	 1.935976728495822e+00	 6.964361829240712e+00
 6.562116380811681e-01	 1.942129724356224e+00	 6.863451944599745e+00
 6.382580139956119e-01	 1.948103801715490e+00	 6.767482228852972e+00
 6.202896741555440e-01	 1.953899322918863e+00	 6.676459058815905e+00
 6.023091265091846e-01	 1.959516695043154e+00	 6.590346961423610e+00
 5.843188599166177e-01	 1.964956369221701e+00	 6.508873743877128e+00
 5.663213432563791e-01	 1.970218839948934e+00	 6.426455463518113e+00
 5.483190245574751e-01	 1.975304644365486e+00	 6.340785357447576e+00
 5.303143301572421e-01	 1.980214361524848e+00	 6.252080940278088e+00
 7.130144800681852e-01	 1.931409780980207e+00	 7.207501577759279e+00
 6.950432123525723e-01	 1.937949544745086e+00	 7.098777277594944e+00
 6.770495036445784e-01	 1.944309029523059e+00	 6.994395596665294e+00
 6.590359245652068e-01	 1.950488507423679e+00	 6.894484190291776e+00
 6.410050294055939e-01	 1.956488296771135e+00	 6.799131934245904e+00
 6.229593551559293e-01	 1.962308761470184e+00	 6.708388045469951e+00
 6.049014205584760e-01	 1.967950310349670e+00	 6.622261530747187e+00
 5.868337251852073e-01	 1.973413396484584e+00	 6.540696904633716e+00
 5.687587485405474e-01	 1.978698516497631e+00	 6.458954546608197e+00
 5.506789491896580e-01	 1.983806209841261e+00	 6.373751718318211e+00
 5.325967639126695e-01	 1.988737058061177e+00	 6.285351725686677e+00
 5.097724263452204e-01	 1.903510092674904e+00	 5.980683505156939e+00
 4.924651771078767e-01	 1.908060960435679e+00	 5.884357591482706e+00
 4.751602446257804e-01	 1.912443795427681e+00	 5.791799763210962e+00
 4.578598954278802e-01	 1.916659273214932e+00	 5.703164273958063e+00
 4.405663721427611e-01	 1.920708106657808e+00	 5.618537369325209e+00
 4.232818928181369e-01	 1.924591045131397e+00	 5.537940736447927e+00
 4.060086502667843e-01	 1.928308873731856e+00	 5.461334864045003e+00
 3.887488114390382e-01	 1.931862412471655e+00	 5.388622295826911e+00
 3.715045168219482e-01	 1.935252515464695e+00	 5.319650761666347e+00
 3.542778798651443e-01	 1.938480070102190e+00	 5.254216172508060e+00
 3.370709864334423e-01	 1.941545996220245e+00	 5.192065466575267e+00
 5.120548601036816e-01	 1.912032789214229e+00	 6.009396216436357e+00
 4.946701201121874e-01	 1.916604032840201e+00	 5.914621996014832e+00
 4.772877072488776e-01	 1.921006491354468e+00	 5.823436536816799e+00
 4.599098981907536e-01	 1.925240843345804e+00	 5.736012933412980e+00
 4.425389456074418e-01	 1.929307804866323e+00	 5.652456631841394e+00
 4.251770774776416e-01	 1.933208128646343e+00	 5.572808978262947e+00
 4.078264964321275e-01	 1.936942603297183e+00	 5.497050671751497e+00
 3.904893791234387e-01	 1.940512052502813e+00	 5.425105103669011e+00
 3.731678756223426e-01	 1.943917334201314e+00	 5.356841567667544e+00
 3.558641088411316e-01	 1.947159339757076e+00	 5.292078325981226e+00
 3.385801739837758e-01	 1.950238993124647e+00	 5.230585519304899e+00
 5.143372938616730e-01	 1.920555485753755e+00	 6.038257048234129e+00
 4.968750631159927e-01	 1.925147105244934e+00	 5.944810873585959e+00
 4.794151698714576e-01	 1.929569187281490e+00	 5.854803033711703e+00
 4.619599009531188e-01	 1.933822413476946e+00	 5.768423490280473e+00
 4.445115190716425e-01	 1.937907503075149e+00	 5.685794799054223e+00
 4.270722621367097e-01	 1.941825212161644e+00	 5.606975765861709e+00
 4.096443425970919e-01	 1.945576332862909e+00	 5.531965000235200e+00
 3.922299468075293e-01	 1.949161692534409e+00	 5.460704348727538e+00
 3.748312344225054e-01	 1.952582152938404e+00	 5.393082191575983e+00
 3.574503378169717e-01	 1.955838609412455e+00	 5.328936588048400e+00
 3.400893615340512e-01	 1.958931990029550e+00	 5.268058257483516e+00
 5.166197276192274e-01	 1.929078182293349e+00	 6.067359725038015e+00
 4.990800061193236e-01	 1.933690177649742e+00	 5.975037562050904e+00
 4.815426324935459e-01	 1.938131883208610e+00	 5.886029664757626e+00
 4.640099037149931e-01	 1.942403983608215e+00	 5.800540887909976e+00
 4.464840925353693e-01	 1.946507201284139e+00	 5.718708808111431e+00
 4.289674467953358e-01	 1.950442295677148e+00	 5.640607495357984e+00
 4.114621887616591e-01	 1.954210062428879e+00	 5.566251175651844e+00
 3.939705144912787e-01	 1.957811332566286e+00	 5.495597766264267e+00
 3.764945932223915e-01	 1.961246971675802e+00	 5.428552266912868e+00
 3.590365667926076e-01	 1.964517879068161e+00	 5.364969991846455e+00
 3.415985490842010e-01	 1.967624986934785e+00	 5.304659629551749e+00
 5.189021613763785e-01	 1.937600878832876e+00	 6.096796231805984e+00
 5.012849491222109e-01	 1.942233250054491e+00	 6.005413519846520e+00
 4.836700951151674e-01	 1.946694579135689e+00	 5.917244856934559e+00
 4.660599064763934e-01	 1.950985553739471e+00	 5.832508015903400e+00
 4.484566659986289e-01	 1.955106899493149e+00	 5.751353506309409e+00
 4.308626314535149e-01	 1.959059379192707e+00	 5.673868469820562e+00
 4.132800349258109e-01	 1.962843791994937e+00	 5.600080459972394e+00
 3.957110821746551e-01	 1.966460972598282e+00	 5.529961087401976e+00
 3.781579520219569e-01	 1.969911790413346e+00	 5.463429513415117e+00
 3.606227957679829e-01	 1.973197148724028e+00	 5.400355776512111e+00
 3.431077366341572e-01	 1.976317983840187e+00	 5.340563938279381e+00
 5.211845951331590e-01	 1.946123575372203e+00	 6.126656790148362e+00
 5.034898921246862e-01	 1.950776322459048e+00	 6.036048309536245e+00
 4.857975577363481e-01	 1.955257275062592e+00	 5.948575043395906e+00
 4.681099092373366e-01	 1.959567123870573e+00	 5.864465705837407e+00
 4.504292394614280e-01	 1.963706597702032e+00	 5.783881651645578e+00
 4.327578161112414e-01	 1.967676462708169e+00	 5.706920903831040e+00
 4.150978810895289e-01	 1.971477521560928e+00	 5.633622058725094e+00
 3.974516498576267e-01	 1.975110612630235e+00	 5.563968049241710e+00
 3.798213108211564e-01	 1.978576609150870e+00	 5.497889748730842e+00
 3.622090247430407e-01	 1.981876418379890e+00	 5.435269399667564e+00
 3.446169241838526e-01	 1.985010980745589e+00	 5.375943853264013e+00
 5.234670288896022e-01	 1.954646271911197e+00	 6.157029834748542e+00
 5.056948351267798e-01	 1.959319394863277e+00	 6.067049581421818e+00
 4.879250203571132e-01	 1.963819970989180e+00	 5.980144653440010e+00
 4.701599119978404e-01	 1.968148694001381e+00	 5.896552726773899e+00
 4.524018129237732e-01	 1.972306295910643e+00	 5.816443913052996e+00
 4.346530007685095e-01	 1.976293546223384e+00	 5.739924927635019e+00
 4.169157272527949e-01	 1.980111251126696e+00	 5.667043128269023e+00
 3.991922175401620e-01	 1.983760252661990e+00	 5.597790404470226e+00
 3.814846696199455e-01	 1.987241427888211e+00	 5.532106899581503e+00
 3.637952537177240e-01	 1.990555688035582e+00	 5.469884549370718e+00
 3.461261117332197e-01	 1.993703977650823e+00	 5.410970422909595e+00
 5.257494626457417e-01	 1.963168968449725e+00	 6.188001990014522e+00
 5.078997781285232e-01	 1.967862467267044e+00	 6.098523057218209e+00
 4.900524829774880e-01	 1.972382666915316e+00	 6.012076102401197e+00
 4.722099147579212e-01	 1.976730264131752e+00	 5.928905780564215e+00
 4.543743863856709e-01	 1.980905994118837e+00	 5.849188870325510e+00
 4.365481854253142e-01	 1.984910629738201e+00	 5.773038590903921e+00
 4.187335734155900e-01	 1.988744980692086e+00	 5.700508782613966e+00
 4.009327852222294e-01	 1.992409892693384e+00	 5.631597930470500e+00
 3.831480284182797e-01	 1.995906246625206e+00	 5.566253012406316e+00
 3.653814826919763e-01	 1.999234957690937e+00	 5.504373155543222e+00
 3.476352992821909e-01	 2.002396974555725e+00	 5.445813085902254e+00
 5.280318964016106e-01	 1.971691664987653e+00	 6.219658046956062e+00
 5.101047211299472e-01	 1.976405539670215e+00	 6.130572513790602e+00
 4.921799455974982e-01	 1.980945362840864e+00	 6.044489781460652e+00
 4.742599175175964e-01	 1.985311834261547e+00	 5.961659496954058e+00
 4.563469598471280e-01	 1.989505692326468e+00	 5.882263013743098e+00
 4.384433700816499e-01	 1.993527713252470e+00	 5.806417866115074e+00
 4.205514195778962e-01	 1.997378710256942e+00	 5.734182099799957e+00
 4.026733529037974e-01	 2.001059532724258e+00	 5.665558437952639e+00
 3.848113872161142e-01	 2.004571065361692e+00	 5.600498263504543e+00
 3.669677116657404e-01	 2.007914227345791e+00	 5.538905400894680e+00
 3.491444868306985e-01	 2.011089971460127e+00	 5.480639682198188e+00
 5.303143301572421e-01	 1.980214361524848e+00	 6.252080940278088e+00
 5.123096641310828e-01	 1.984948612072654e+00	 6.163299766953473e+00
 4.943074082171690e-01	 1.989508058765687e+00	 6.077504047381080e+00
 4.763099202768831e-01	 1.993893404390623e+00	 5.994946428494317e+00
 4.583195333081506e-01	 1.998105390533390e+00	 5.915810743406477e+00
 4.403385547375112e-01	 2.002144796766040e+00	 5.840216651564393e+00
 4.223692657396950e-01	 2.006012439821109e+00	 5.768224127849556e+00
 4.044139205848339e-01	 2.009709172754451e+00	 5.699837779117940e+00
 3.864747460134044e-01	 2.013235884097506e+00	 5.635010968690392e+00
 3.685539406389596e-01	 2.016593496999975e+00	 5.573649731359173e+00
 3.506536743786751e-01	 2.019782968363861e+00	 5.515616463536579e+00
 5.325967639126695e-01	 1.988737058061177e+00	 6.285351725686677e+00
 5.145146071319613e-01	 1.993491684474228e+00	 6.196804655326432e+00
 4.964348708365260e-01	 1.998070754689647e+00	 6.111235212167277e+00
 4.783599230357983e-01	 2.002474974518841e+00	 6.028897045265134e+00
 4.602921067687459e-01	 2.006705088739458e+00	 5.949974368289458e+00
 4.422337393928928e-01	 2.010761880278762e+00	 5.874586774021964e+00
 4.241871119009684e-01	 2.014646169384433e+00	 5.802793890307715e+00
 4.061544882653080e-01	 2.018358812783806e+00	 5.734599855369920e+00
 3.881381048101060e-01	 2.021900702832483e+00	 5.669957592475740e+00
 3.701401696115776e-01	 2.025272766653326e+00	 5.608772866054544e+00
 3.521628619260533e-01	 2.028475965266763e+00	 5.550908103494508e+00
 3.370709864334423e-01	 1.941545996220245e+00	 5.192065466575267e+00
 3.198829753695842e-01	 1.944451725334479e+00	 5.132589860872525e+00
 3.027188076966160e-01	 1.947197703991955e+00	 5.075536276349381e+00
 2.855804889357101e-01	 1.949784943399491e+00	 5.021082457352442e+00
 2.684699949860878e-01	 1.952214483855871e+00	 4.969358360267520e+00
 2.513892717099102e-01	 1.954487393889909e+00	 4.920447514747330e+00
 2.343402345435050e-01	 1.956604769395496e+00	 4.874388220838569e+00
 2.173247681347407e-01	 1.958567732764435e+00	 4.831174580456358e+00
 2.003447260063288e-01	 1.960377432017918e+00	 4.790757362982863e+00
 1.834019302448152e-01	 1.962035039937395e+00	 4.753044706034892e+00
 1.664981712149926e-01	 1.963541753195654e+00	 4.717902653650451e+00
 3.385801739837758e-01	 1.950238993124647e+00	 5.230585519304904e+00
 3.213152060373046e-01	 1.953157732229060e+00	 5.171764671855314e+00
 3.040741882370560e-01	 1.955916005616716e+00	 5.115346193062280e+00
 2.868591350836596e-01	 1.958514829021956e+00	 5.061492541480250e+00
 2.696720313231646e-01	 1.960955247401336e+00	 5.010319425363649e+00
 2.525148315300738e-01	 1.963238334067846e+00	 4.961897234749268e+00
 2.353894597168291e-01	 1.965365189822070e+00	 4.916252299995602e+00
 2.182978089695616e-01	 1.967336942081151e+00	 4.873367975237298e+00
 2.012417411098868e-01	 1.969154744006365e+00	 4.833185546593743e+00
 1.842230863825036e-01	 1.970819773630115e+00	 4.795604966271277e+00
 1.672436431683273e-01	 1.972333232983107e+00	 4.760485414951867e+00
 3.400893615340512e-01	 1.958931990029550e+00	 5.268058257483520e+00
 3.227474367050578e-01	 1.961863739124130e+00	 5.209853746006176e+00
 3.054295687776205e-01	 1.964634307241942e+00	 5.154033945010109e+00
 2.881377812318240e-01	 1.967244714644846e+00	 5.100746817476697e+00
 2.708740676605449e-01	 1.969696010947181e+00	 5.050094698222860e+00
 2.536403913506262e-01	 1.971989274246110e+00	 5.002135796207925e+00
 2.364386848906221e-01	 1.974125610248917e+00	 4.956885513616952e+00
 2.192708498049250e-01	 1.976106151398081e+00	 4.914317580201802e+00
 2.021387562140536e-01	 1.977932055994974e+00	 4.874365002774358e+00
 1.850442425208578e-01	 1.979604507322948e+00	 4.836920831104139e+00
 1.679891151223749e-01	 1.981124712770631e+00	 4.801838742752208e+00
 3.415985490842010e-01	 1.967624986934785e+00	 5.304659629551752e+00
 3.241796673727674e-01	 1.970569746019525e+00	 5.247028730062087e+00
 3.067849493182258e-01	 1.973352608867469e+00	 5.191766896167622e+00
 2.894164273801143e-01	 1.975974600268006e+00	 5.139008352999331e+00
 2.720761039981348e-01	 1.978436774493256e+00	 5.088842905255084e+00
 2.547659511714682e-01	 1.980740214424560e+00	 5.041317509142863e+00
 2.374879100647804e-01	 1.982886030675900e+00	 4.996437651183120e+00
 2.202438906407231e-01	 1.984875360715103e+00	 4.954168532373631e+00
 2.030357713187161e-01	 1.986709367983631e+00	 4.914436057681092e+00
 1.858653986597592e-01	 1.988389241015790e+00	 4.877127632215370e+00
 1.687345870770097e-01	 1.989916192558135e+00	 4.842092766776857e+00
 3.431077366341572e-01	 1.976317983840187e+00	 5.340563938279377e+00
 3.256118980403570e-01	 1.979275752915078e+00	 5.283459779079786e+00
 3.081403298587881e-01	 1.982070910493136e+00	 5.228711056155346e+00
 2.906950735284403e-01	 1.984704485891279e+00	 5.176438982060222e+00
 2.732781403358386e-01	 1.987177538039408e+00	 5.126721643380215e+00
 2.558915109925006e-01	 1.989491154603049e+00	 5.079595641768556e+00
 2.385371352392004e-01	 1.991646451102887e+00	 5.035057531683746e+00
 2.212169314768480e-01	 1.993644570032091e+00	 4.993065053354523e+00
 2.039327864237614e-01	 1.995486679972220e+00	 4.953538161006981e+00
 1.866865547990892e-01	 1.997173974708539e+00	 4.916359847831134e+00
 1.694800590321062e-01	 1.998707672345530e+00	 4.881376770527831e+00
 3.446169241838526e-01	 1.985010980745589e+00	 5.375943853264016e+00
 3.270441287077501e-01	 1.987981759810624e+00	 5.319315568663373e+00
 3.094957103992240e-01	 1.990789212118780e+00	 5.265031092392840e+00
 2.919737196767128e-01	 1.993434371514504e+00	 5.213199317292344e+00
 2.744801766735623e-01	 1.995918301585487e+00	 5.163887392585918e+00
 2.570170708136242e-01	 1.998242094781434e+00	 5.117122433515400e+00
 2.395863604137787e-01	 2.000406871529739e+00	 5.072893017268353e+00
 2.221899723131911e-01	 2.002413779348917e+00	 5.031150463753149e+00
 2.048298015290768e-01	 2.004263991960626e+00	 4.991809901337573e+00
 1.875077109387290e-01	 2.005958708401091e+00	 4.954751119141090e+00
 1.702255309875389e-01	 2.007499152132723e+00	 4.919819208896614e+00
 3.461261117332197e-01	 1.993703977650823e+00	 5.410970422909595e+00
 3.284763593748703e-01	 1.996687766705998e+00	 5.354763306695362e+00
 3.108510909394495e-01	 1.999507513744238e+00	 5.300890341773656e+00
 2.932523658248417e-01	 2.002164257137524e+00	 5.249448761750283e+00
 2.756822130112110e-01	 2.004659065131339e+00	 5.200495528030139e+00
 2.581426306347395e-01	 2.006993034959572e+00	 5.154049107599429e+00
 2.406355855884116e-01	 2.009167291956322e+00	 5.110091026437578e+00
 2.231630131496452e-01	 2.011182988665458e+00	 5.068567197152694e+00
 2.057268166345491e-01	 2.013041303948738e+00	 5.029389021031763e+00
 1.883288670785601e-01	 2.014743442093345e+00	 4.992434266227841e+00
 1.709710029431823e-01	 2.016290631919625e+00	 4.957547725264960e+00
 3.476352992821909e-01	 2.002396974555725e+00	 5.445813085902254e+00
 3.299085900416411e-01	 2.005393773601034e+00	 5.389968744588849e+00
 3.122064714793811e-01	 2.008225815369348e+00	 5.336450821878917e+00
 2.945310119727377e-01	 2.010894142760184e+00	 5.285345520262378e+00
 2.768842493486897e-01	 2.013399828676814e+00	 5.236700331701075e+00
 2.592681904557474e-01	 2.015743975137317e+00	 5.190525883150410e+00
 2.416848107629957e-01	 2.017927712382503e+00	 5.146797546794733e+00
 2.241360539861018e-01	 2.019952197981589e+00	 5.105456813626662e+00
 2.066238317400656e-01	 2.021818615936437e+00	 5.066412430642874e+00
 1.891500232184639e-01	 2.023528175785197e+00	 5.029541303517318e+00
 1.717164748989107e-01	 2.025082111706145e+00	 4.994689168107569e+00
 3.491444868306985e-01	 2.011089971460127e+00	 5.480639682198181e+00
 3.313408207079864e-01	 2.014099780495567e+00	 5.425096188073915e+00
 3.135618520189350e-01	 2.016944116993947e+00	 5.371873241742152e+00
 2.958096581203110e-01	 2.019624028382323e+00	 5.321046610348072e+00
 2.780862856859040e-01	 2.022140592221762e+00	 5.272655003648885e+00
 2.603937502765490e-01	 2.024494915314528e+00	 5.226701986914708e+00
 2.427340359374274e-01	 2.026688132808145e+00	 5.183157647367684e+00
 2.251090948224531e-01	 2.028721407297184e+00	 5.141960012820786e+00
 2.075208468455135e-01	 2.030595927923613e+00	 5.103016222889707e+00
 1.899711793583216e-01	 2.032312909476545e+00	 5.066203454768564e+00
 1.724619468545988e-01	 2.033873591492191e+00	 5.031369607114076e+00
 3.506536743786751e-01	 2.019782968363861e+00	 5.515616463536575e+00
 3.327730513738294e-01	 2.022805787389431e+00	 5.460308507532966e+00
 3.149172325580277e-01	 2.025662418617873e+00	 5.407317012181158e+00
 2.970883042674720e-01	 2.028353914003787e+00	 5.356707872710972e+00
 2.792883220227592e-01	 2.030881355766028e+00	 5.308511672800612e+00
 2.615193100970445e-01	 2.033245855491057e+00	 5.262725664545099e+00
 2.437832611116033e-01	 2.035448553233113e+00	 5.219315490513972e+00
 2.260821356585912e-01	 2.037490616612119e+00	 5.178216646611405e+00
 2.084178619507796e-01	 2.039373239910148e+00	 5.139335686197711e+00
 1.907923354980147e-01	 2.041097643167284e+00	 5.102551167613615e+00
 1.732074188101208e-01	 2.042665071277676e+00	 5.067714348842849e+00
 3.521628619260533e-01	 2.028475965266763e+00	 5.550908103494512e+00
 3.342052820390940e-01	 2.031511794282461e+00	 5.495767147897014e+00
 3.162726130965756e-01	 2.034380720240966e+00	 5.442940255706038e+00
 2.983669504141310e-01	 2.037083799624414e+00	 5.392483981322162e+00
 2.804903583591603e-01	 2.039622119309464e+00	 5.344421407373639e+00
 2.626448699171351e-01	 2.041996795666766e+00	 5.298744191486865e+00
 2.448324862854198e-01	 2.044208973657273e+00	 5.255414343424057e+00
 2.270551764944082e-01	 2.046259825926268e+00	 5.214365731354381e+00
 2.093148770557514e-01	 2.048150551895931e+00	 5.175505317816001e+00
 1.916134916374246e-01	 2.049882376857315e+00	 5.138714127662936e+00
 1.739528907653514e-01	 2.051456551062507e+00	 5.103847951921377e+00
 1.664981712149926e-01	 1.963541753195654e+00	 4.717902653650444e+00
 1.496380635122771e-01	 1.964898573407881e+00	 4.686001946407199e+00
 1.328204230301581e-01	 1.966107010389023e+00	 4.658090788433972e+00
 1.160469042979976e-01	 1.967168326246733e+00	 4.634107005320586e+00
 9.931913029805782e-02	 1.968083803490110e+00	 4.613947549385557e+00
 8.263869229708956e-02	 1.968854744185433e+00	 4.597467935308509e+00
 6.600714970048427e-02	 1.969482469115895e+00	 4.584481556181881e+00
 4.942602992861282e-02	 1.969968316945963e+00	 4.574758888997243e+00
 3.289682831496212e-02	 1.970313643390948e+00	 4.568026599131257e+00
 1.642100802566443e-02	 1.970519820392425e+00	 4.563966553893989e+00
 0.000000000000000e+00	 1.970588235300000e+00	 4.562214755417039e+00
 1.672436431683273e-01	 1.972333232983107e+00	 4.760485414951870e+00
 1.503080467239818e-01	 1.973696128165110e+00	 4.728529667591618e+00
 1.334151076412680e-01	 1.974909975751075e+00	 4.700524779437099e+00
 1.165664878574426e-01	 1.975976043499590e+00	 4.676414032996674e+00
 9.976381762141452e-02	 1.976895619662033e+00	 4.656101251212366e+00
 8.300869532458036e-02	 1.977670012134527e+00	 4.639450200349377e+00
 6.630268735432285e-02	 1.978300547613911e+00	 4.626283866038326e+00
 4.964732796979596e-02	 1.978788570758354e+00	 4.616383611835233e+00
 3.304411919960574e-02	 1.979135443353222e+00	 4.609488230258972e+00
 1.649453076097905e-02	 1.979342543482784e+00	 4.605292896758901e+00
 0.000000000000000e+00	 1.979411264708333e+00	 4.603448037302643e+00
 1.679891151223749e-01	 1.981124712770631e+00	 4.801838742752204e+00
 1.509780299364344e-01	 1.982493682922379e+00	 4.769855655240814e+00
 1.340097922531461e-01	 1.983712941113145e+00	 4.741797492294899e+00
 1.170860714176576e-01	 1.984783760752450e+00	 4.717611260003199e+00
 1.002085049455216e-01	 1.985707435833949e+00	 4.697205916445252e+00
 8.337869835277716e-02	 1.986485280083611e+00	 4.680451744879130e+00
 6.659822500879485e-02	 1.987118626111916e+00	 4.667179592580653e+00
 4.986862601150879e-02	 1.987608824570739e+00	 4.657179985074939e+00
 3.319141008464092e-02	 1.987957243315492e+00	 4.650202126099124e+00
 1.656805349650968e-02	 1.988165266573141e+00	 4.645952794155437e+00
 0.000000000000000e+00	 1.988234294116667e+00	 4.644095146762707e+00
 1.687345870770097e-01	 1.989916192558135e+00	 4.842092766776861e+00
 1.516480131495013e-01	 1.991291237679609e+00	 4.810103701236158e+00
 1.346044768656508e-01	 1.992515906475166e+00	 4.782024348563660e+00
 1.176056549784953e-01	 1.993591478005259e+00	 4.757803734083925e+00
 1.006531922702295e-01	 1.994519252005821e+00	 4.737354246416637e+00
 8.374870138153295e-02	 1.995300548032656e+00	 4.720550983953331e+00
 6.689376266376290e-02	 1.995936704609892e+00	 4.707230959263371e+00
 5.008992405363184e-02	 1.996429078383105e+00	 4.697192171537204e+00
 3.333870096997602e-02	 1.996779043277751e+00	 4.690192557800231e+00
 1.664157623220401e-02	 1.996987989663497e+00	 4.685948834165425e+00
 0.000000000000000e+00	 1.997057323525000e+00	 4.684135238648148e+00
 1.694800590321062e-01	 1.998707672345530e+00	 4.881376770527835e+00
 1.523179963630489e-01	 2.000088792436724e+00	 4.849396758846083e+00
 1.351991614786409e-01	 2.001318871837074e+00	 4.821319954777863e+00
 1.181252385398084e-01	 2.002399195257965e+00	 4.797095726905326e+00
 1.010978795953882e-01	 2.003331068177603e+00	 4.776638220057000e+00
 8.411870441070078e-02	 2.004115815981633e+00	 4.759825678025043e+00
 6.718930031908958e-02	 2.004754783107819e+00	 4.746499616257502e+00
 5.031122209604558e-02	 2.005249332195440e+00	 4.736463855007927e+00
 3.348599185551944e-02	 2.005600843239997e+00	 4.729483424075147e+00
 1.671509896800975e-02	 2.005810712753848e+00	 4.725283350809292e+00
 0.000000000000000e+00	 2.005880352933334e+00	 4.723547343340415e+00
 1.702255309875389e-01	 2.007499152132723e+00	 4.919819208896614e+00
 1.529879795769437e-01	 2.008886347193643e+00	 4.887856961303271e+00
 1.357938460919748e-01	 2.010121837198804e+00	 4.859798121415911e+00
 1.186448221014495e-01	 2.011206912510516e+00	 4.835590752846524e+00
 1.015425669208482e-01	 2.012142884349258e+00	 4.815149111959864e+00
 8.448870744013372e-02	 2.012931083930511e+00	 4.798352949740013e+00
 6.748483797463746e-02	 2.013572861605677e+00	 4.785046655446274e+00
 5.053252013863051e-02	 2.014069586007733e+00	 4.775038252916385e+00
 3.363328274117951e-02	 2.014422643202223e+00	 4.768098261050413e+00
 1.678862170387454e-02	 2.014633435844194e+00	 4.763958430575842e+00
 0.000000000000000e+00	 2.014703382341667e+00	 4.762310369477222e+00
 1.709710029431823e-01	 2.016290631919625e+00	 4.957547725264964e+00
 1.536579627910520e-01	 2.017683901950290e+00	 4.925605639852133e+00
 1.363885307055112e-01	 2.018924802560289e+00	 4.897571881336868e+00
 1.191644056632713e-01	 2.020014629762859e+00	 4.873391587274553e+00
 1.019872542464597e-01	 2.020954700520745e+00	 4.852977509952842e+00
 8.485871046968470e-02	 2.021746351879260e+00	 4.836209300277300e+00
 6.778037563026917e-02	 2.022390940103445e+00	 4.822932625020105e+00
 5.075381818126721e-02	 2.022889839819972e+00	 4.812958128675172e+00
 3.378057362686460e-02	 2.023244443164422e+00	 4.806060251858968e+00
 1.686214443974610e-02	 2.023456158934532e+00	 4.801975918780697e+00
 0.000000000000000e+00	 2.023526411750000e+00	 4.800403106605997e+00
 1.717164748989107e-01	 2.025082111706145e+00	 4.994689168107569e+00
 1.543279460052404e-01	 2.026481456706588e+00	 4.962763341285772e+00
 1.369832153191087e-01	 2.027727767921467e+00	 4.934753507702378e+00
 1.196839892251265e-01	 2.028822347014941e+00	 4.910600284315897e+00
 1.024319415720729e-01	 2.029766516692021e+00	 4.890213332195869e+00
 8.522871349920687e-02	 2.030561619827852e+00	 4.873470625255642e+00
 6.807591328584725e-02	 2.031209018601106e+00	 4.860217543682402e+00
 5.097511622383614e-02	 2.031710093632146e+00	 4.850265803695231e+00
 3.392786451248306e-02	 2.032066243126590e+00	 4.843392235978950e+00
 1.693566717557211e-02	 2.032278882024863e+00	 4.839337425758750e+00
 0.000000000000000e+00	 2.032349441158334e+00	 4.837804227769746e+00
 1.724619468545988e-01	 2.033873591492191e+00	 5.031369607114076e+00
 1.549979292193752e-01	 2.035279011462456e+00	 4.999449844984637e+00
 1.375778999326259e-01	 2.036530733282270e+00	 4.971454531402101e+00
 1.202035727868676e-01	 2.037630064266709e+00	 4.947318194143405e+00
 1.028766288975381e-01	 2.038578332863048e+00	 4.926945843812993e+00
 8.559871652855321e-02	 2.039376887776258e+00	 4.910212230209629e+00
 6.837145094123431e-02	 2.040027097098637e+00	 4.896960914479791e+00
 5.119641426621782e-02	 2.040530347444243e+00	 4.887003169082734e+00
 3.407515539794327e-02	 2.040888043088722e+00	 4.880116718329250e+00
 1.700918991130026e-02	 2.041101605115184e+00	 4.876044332895157e+00
 0.000000000000000e+00	 2.041172470566667e+00	 4.874492292024376e+00
 1.732074188101208e-01	 2.042665071277676e+00	 5.067714348842849e+00
 1.556679124333229e-01	 2.044076566217819e+00	 5.035784179475219e+00
 1.381725845459214e-01	 2.045333698642635e+00	 5.007785757993457e+00
 1.207231563483474e-01	 2.046437781518113e+00	 4.983645979788994e+00
 1.033213162227055e-01	 2.047390149033785e+00	 4.963263673078868e+00
 8.596871955757676e-02	 2.048192155724446e+00	 4.946508845655467e+00
 6.866698859629294e-02	 2.048845175596020e+00	 4.933221738264439e+00
 5.141771230829277e-02	 2.049350601256251e+00	 4.923211697031567e+00
 3.422244628315362e-02	 2.049709843050813e+00	 4.916255878126020e+00
 1.708271264687824e-02	 2.049924328205494e+00	 4.912097798501184e+00
 0.000000000000000e+00	 2.049995499975000e+00	 4.910445746891625e+00
 1.739528907653514e-01	 2.051456551062507e+00	 5.103847951921377e+00
 1.563378956469499e-01	 2.052874120972599e+00	 5.071884638520333e+00
 1.387672691588538e-01	 2.054136664002496e+00	 5.043857284176658e+00
 1.212427399094186e-01	 2.055245498769098e+00	 5.019683633501558e+00
 1.037660035474255e-01	 2.056201965204191e+00	 4.999254827168942e+00
 8.633872258613057e-02	 2.057007423672388e+00	 4.982434641756485e+00
 6.896252625088575e-02	 2.057663254093237e+00	 4.969058526804292e+00
 5.163901034994151e-02	 2.058170855068159e+00	 4.958932451915885e+00
 3.436973716802243e-02	 2.058531643012857e+00	 4.951831577512095e+00
 1.715623538225374e-02	 2.058747051295792e+00	 4.947498763536276e+00
 0.000000000000000e+00	 2.058818529383334e+00	 4.945642930749490e+00
 2.058818529383334e+00	 0.000000000000000e+00	 1.226460402249318e+01
 2.058747051295792e+00	 1.715623538225260e-02	 1.226708688543497e+01
 2.058531643012857e+00	 3.436973716802146e-02	 1.227020749321605e+01
 2.058170855068159e+00	 5.163901034994070e-02	 1.227382490907902e+01
 2.057663254093237e+00	 6.896252625088510e-02	 1.227781791088380e+01
 2.057007423672389e+00	 8.633872258613008e-02	 1.228208484821190e+01
 2.056201965204191e+00	 1.037660035474252e-01	 1.228654355108994e+01
 2.055245498769098e+00	 1.212427399094184e-01	 1.229113129511793e+01
 2.054136664002496e+00	 1.387672691588538e-01	 1.229580482784803e+01
 2.052874120972598e+00	 1.563378956469501e-01	 1.230054046128316e+01
 2.051456551062507e+00	 1.739528907653515e-01	 1.230533423537471e+01
 2.067643058796667e+00	 0.000000000000000e+00	 1.224048689861908e+01
 2.067571274338999e+00	 1.722977061700544e-02	 1.224293297790138e+01
 2.067354942770832e+00	 3.451705309343959e-02	 1.224601910075744e+01
 2.066992608413081e+00	 5.186034601400614e-02	 1.224960661578950e+01
 2.066482831753568e+00	 6.925811414933346e-02	 1.225357631767051e+01
 2.065824190305540e+00	 8.670878851840116e-02	 1.225782829061982e+01
 2.065015279472878e+00	 1.042107664729740e-01	 1.226228180466407e+01
 2.064054713421412e+00	 1.217624118044820e-01	 1.226687526954485e+01
 2.062941125955724e+00	 1.393620548737723e-01	 1.227156625119879e+01
 2.061673171400800e+00	 1.570079927641407e-01	 1.227633155575911e+01
 2.060249525487874e+00	 1.746984894580363e-01	 1.228116738603790e+01
 2.076467588210001e+00	 0.000000000000000e+00	 1.221685105210456e+01
 2.076395497382196e+00	 1.730330585155438e-02	 1.221925429163248e+01
 2.076178242528763e+00	 3.466436901851108e-02	 1.222229933655832e+01
 2.075814361757913e+00	 5.208168167763481e-02	 1.222585055626810e+01
 2.075302409413750e+00	 6.955370204729899e-02	 1.222979144224778e+01
 2.074640956938473e+00	 8.707885445017870e-02	 1.223402443588526e+01
 2.073828593741268e+00	 1.046555293980448e-01	 1.223847081024266e+01
 2.072863928073350e+00	 1.222820836991005e-01	 1.224307061074087e+01
 2.071745587908495e+00	 1.399568405882870e-01	 1.224778265976392e+01
 2.070472221828470e+00	 1.576780898809677e-01	 1.225258463021497e+01
 2.069042499912646e+00	 1.754440881503876e-01	 1.225747319306769e+01
 2.085292117623334e+00	 0.000000000000000e+00	 1.219365979422246e+01
 2.085219720425382e+00	 1.737684108595038e-02	 1.219601828197119e+01
 2.085001542286666e+00	 3.481168494332260e-02	 1.219901914366540e+01
 2.084636115102676e+00	 5.230301734093597e-02	 1.220253049596421e+01
 2.084121987073818e+00	 6.984928994490247e-02	 1.220643919854728e+01
 2.083457723571238e+00	 8.744892038158603e-02	 1.221065066421389e+01
 2.082641908009435e+00	 1.051002923227571e-01	 1.221508872415749e+01
 2.081673142725004e+00	 1.228017555933854e-01	 1.221969555344019e+01
 2.080550049860926e+00	 1.405516263024989e-01	 1.222443166175973e+01
 2.079271272255744e+00	 1.583481869975220e-01	 1.222927595462686e+01
 2.077835474336971e+00	 1.761896868424884e-01	 1.223422587008470e+01
 2.094116647036667e+00	 0.000000000000000e+00	 1.217087768777738e+01
 2.094043943468564e+00	 1.745037632024442e-02	 1.217319358182845e+01
 2.093824842044546e+00	 3.495900086796078e-02	 1.217615058128832e+01
 2.093457868447397e+00	 5.252435300401877e-02	 1.217962126776011e+01
 2.092941564733811e+00	 7.014487784226459e-02	 1.218349653199048e+01
 2.092274490203895e+00	 8.781898631274664e-02	 1.218768536425445e+01
 2.091455222277453e+00	 1.055450552472305e-01	 1.219211470113862e+01
 2.090482357376469e+00	 1.233214274874477e-01	 1.219672933383448e+01
 2.089354511813128e+00	 1.411464120165089e-01	 1.220149188312202e+01
 2.088070322682753e+00	 1.590182841138945e-01	 1.220638284625058e+01
 2.086628448760997e+00	 1.769352855344224e-01	 1.221140072093903e+01
 2.102941176450000e+00	 0.000000000000000e+00	 1.214847052084668e+01
 2.102868166511744e+00	 1.752391155448750e-02	 1.215074997738971e+01
 2.102648141802415e+00	 3.510631679251230e-02	 1.215366680217009e+01
 2.102279621792095e+00	 5.274568866699238e-02	 1.215709875069824e+01
 2.101761142393767e+00	 7.044046573950599e-02	 1.216094139926350e+01
 2.101091256836495e+00	 8.818905224378382e-02	 1.216510791360785e+01
 2.100268536545397e+00	 1.059898181715844e-01	 1.216952887524160e+01
 2.099291572027842e+00	 1.238410993813988e-01	 1.217415217059962e+01
 2.098158973765217e+00	 1.417411977304180e-01	 1.217894294831105e+01
 2.096869373109628e+00	 1.596883812301762e-01	 1.218388364988059e+01
 2.095421423184876e+00	 1.776808842262730e-01	 1.218897411909712e+01
 2.111765705863333e+00	 0.000000000000000e+00	 1.212640528117999e+01
 2.111692389554924e+00	 1.759744678873057e-02	 1.212865838443128e+01
 2.111471441560285e+00	 3.525363271706382e-02	 1.213154203052321e+01
 2.111101375136792e+00	 5.296702432996599e-02	 1.213493984923868e+01
 2.110580720053723e+00	 7.073605363674738e-02	 1.213875274859265e+01
 2.109908023469095e+00	 8.855911817482100e-02	 1.214289865981558e+01
 2.109081850813340e+00	 1.064345810959382e-01	 1.214731234123999e+01
 2.108100786679215e+00	 1.243607712753499e-01	 1.215194524638066e+01
 2.106963435717304e+00	 1.423359834443270e-01	 1.215676546157464e+01
 2.105668423536505e+00	 1.603584783464578e-01	 1.216175771857501e+01
 2.104214397608754e+00	 1.784264829181235e-01	 1.216692348750985e+01
 2.120590235276666e+00	 0.000000000000000e+00	 1.210465013123768e+01
 2.120516612598105e+00	 1.767098202302463e-02	 1.210689082522674e+01
 2.120294741318165e+00	 3.540094864170201e-02	 1.210975154051555e+01
 2.119923128481511e+00	 5.318835999304879e-02	 1.211312247303143e+01
 2.119400297713716e+00	 7.103164153410949e-02	 1.211691050050782e+01
 2.118724790101751e+00	 8.892918410598157e-02	 1.212103890181455e+01
 2.117895165081359e+00	 1.068793440204116e-01	 1.212544713647009e+01
 2.116910001330680e+00	 1.248804431694123e-01	 1.213009068972197e+01
 2.115767897669507e+00	 1.429307691583371e-01	 1.213494098865685e+01
 2.114467473963513e+00	 1.610285754628304e-01	 1.213998539483333e+01
 2.113007372032781e+00	 1.791720816100575e-01	 1.214522727894770e+01
 2.129414764689999e+00	 0.000000000000000e+00	 1.208317438385029e+01
 2.129340835641293e+00	 1.774451725742063e-02	 1.208542040602761e+01
 2.129118041076065e+00	 3.554826456651351e-02	 1.208827163528964e+01
 2.128744881826276e+00	 5.340969565634995e-02	 1.209162551718831e+01
 2.128219875373785e+00	 7.132722943171296e-02	 1.209539552907777e+01
 2.127541556734517e+00	 8.929925003738894e-02	 1.209951087184401e+01
 2.126708479349526e+00	 1.073241069451239e-01	 1.210391622311442e+01
 2.125719215982335e+00	 1.254001150636971e-01	 1.210857155742954e+01
 2.124572359621937e+00	 1.435255548725490e-01	 1.211345203893871e+01
 2.123266524390786e+00	 1.616986725793848e-01	 1.211854799221330e+01
 2.121800346457106e+00	 1.799176803021584e-01	 1.212386495678970e+01
 2.138239294103332e+00	 0.000000000000000e+00	 1.206194847848056e+01
 2.138165058684489e+00	 1.781805249196956e-02	 1.206422129510147e+01
 2.137941340833998e+00	 3.569558049158501e-02	 1.206707962650029e+01
 2.137566635171108e+00	 5.363103131997866e-02	 1.207042884304075e+01
 2.137039453033966e+00	 7.162281732967855e-02	 1.207418964360508e+01
 2.136358323367448e+00	 8.966931596916647e-02	 1.207829771779226e+01
 2.135521793617915e+00	 1.077688698701947e-01	 1.208270347091138e+01
 2.134528430634272e+00	 1.259197869583157e-01	 1.208737181735275e+01
 2.133376821574709e+00	 1.441203405870637e-01	 1.209228204799907e+01
 2.132065574818457e+00	 1.623687696962117e-01	 1.209742777737496e+01
 2.130593320881878e+00	 1.806632789945096e-01	 1.210281697625253e+01
 2.147063823516666e+00	 0.000000000000000e+00	 1.204094395807072e+01
 2.146989281727697e+00	 1.789158772672240e-02	 1.204326870131097e+01
 2.146764640591973e+00	 3.584289641700315e-02	 1.204615381435512e+01
 2.146388388516029e+00	 5.385236698404408e-02	 1.204951325936848e+01
 2.145859030694298e+00	 7.191840522812687e-02	 1.205327557076687e+01
 2.145175090000602e+00	 9.003938190143755e-02	 1.205738348596945e+01
 2.144335107886603e+00	 1.082136327957435e-01	 1.206179364027883e+01
 2.143337645286588e+00	 1.264394588533793e-01	 1.206647633157398e+01
 2.142181283527938e+00	 1.447151263019822e-01	 1.207141536058285e+01
 2.140864625246658e+00	 1.630388668134023e-01	 1.207660795253896e+01
 2.139386295307245e+00	 1.814088776871945e-01	 1.208206476604783e+01
 2.051456551062507e+00	 1.739528907653515e-01	 1.230533423537471e+01
 2.049882376857315e+00	 1.916134916374238e-01	 1.231086289639726e+01
 2.048150551895931e+00	 2.093148770557507e-01	 1.231777653202868e+01
 2.046259825926267e+00	 2.270551764944074e-01	 1.232606152858670e+01
 2.044208973657273e+00	 2.448324862854191e-01	 1.233572195702351e+01
 2.041996795666765e+00	 2.626448699171346e-01	 1.234678019391518e+01
 2.039622119309464e+00	 2.804903583591599e-01	 1.235927764654127e+01
 2.037083799624415e+00	 2.983669504141306e-01	 1.237327558655866e+01
 2.034380720240965e+00	 3.162726130965752e-01	 1.238885609663250e+01
 2.031511794282461e+00	 3.342052820390937e-01	 1.240612313422019e+01
 2.028475965266763e+00	 3.521628619260533e-01	 1.242520371651695e+01
 2.060249525487874e+00	 1.746984894580363e-01	 1.228116738603790e+01
 2.058668604040913e+00	 1.924347873813847e-01	 1.228673351376057e+01
 2.056929356113464e+00	 2.102120446620651e-01	 1.229366509419535e+01
 2.055030526094590e+00	 2.280283827566950e-01	 1.230195098068858e+01
 2.052970883441376e+00	 2.458818898377876e-01	 1.231159699234881e+01
 2.050749223590655e+00	 2.637706210934052e-01	 1.232262652446063e+01
 2.048364368870937e+00	 2.816925990534855e-01	 1.233508126519997e+01
 2.045815169413713e+00	 2.996458139431212e-01	 1.234902202326620e+01
 2.043100504063327e+00	 3.176282240630477e-01	 1.236452967090432e+01
 2.040219281284530e+00	 3.356377561975623e-01	 1.238170620662465e+01
 2.037170440066873e+00	 3.536723060500791e-01	 1.240067594174017e+01
 2.069042499912646e+00	 1.754440881503876e-01	 1.225747319306768e+01
 2.067454831223859e+00	 1.932560831250240e-01	 1.226308869068542e+01
 2.065708160330302e+00	 2.111092122680537e-01	 1.227004856084857e+01
 2.063801226262183e+00	 2.290015890186395e-01	 1.227834388667962e+01
 2.061732793224723e+00	 2.469312933897866e-01	 1.228798199582960e+01
 2.059501651513772e+00	 2.648963722692743e-01	 1.229898706061426e+01
 2.057106618431624e+00	 2.828948397473754e-01	 1.231140080667067e+01
 2.054546539202219e+00	 3.009246774716440e-01	 1.232528333486093e+01
 2.051820287884890e+00	 3.189838350290254e-01	 1.234071406100593e+01
 2.048926768285800e+00	 3.370702303555184e-01	 1.235779277786908e+01
 2.045864914866182e+00	 3.551817501735879e-01	 1.237664084362042e+01
 2.077835474336971e+00	 1.761896868424884e-01	 1.223422587008470e+01
 2.076241058406319e+00	 1.940773788684221e-01	 1.223990039806318e+01
 2.074486964546619e+00	 2.120063798737980e-01	 1.224689701226149e+01
 2.072571926429228e+00	 2.299747952803273e-01	 1.225520879102783e+01
 2.070494703007504e+00	 2.479806969415096e-01	 1.226484433350369e+01
 2.068254079436308e+00	 2.660221234448447e-01	 1.227582834977526e+01
 2.065848867991720e+00	 2.840970804409430e-01	 1.228820236177275e+01
 2.063277908990127e+00	 3.022035409998225e-01	 1.230202551975285e+01
 2.060540071705855e+00	 3.203394459946423e-01	 1.231737553905902e+01
 2.057634255286470e+00	 3.385027045131051e-01	 1.233434976169022e+01
 2.054559389664892e+00	 3.566911942967295e-01	 1.235306634702037e+01
 2.086628448760997e+00	 1.769352855344224e-01	 1.221140072093903e+01
 2.085027285588453e+00	 1.948986746116594e-01	 1.221714174437970e+01
 2.083265768762588e+00	 2.129035474793797e-01	 1.222418170899491e+01
 2.081342626595910e+00	 2.309480015418445e-01	 1.223251545645883e+01
 2.079256612789907e+00	 2.490301004930505e-01	 1.224215262286736e+01
 2.077006507358456e+00	 2.671478746202191e-01	 1.225311821919439e+01
 2.074591117551423e+00	 2.852993211343013e-01	 1.226545332472928e+01
 2.072009278777640e+00	 3.034824045277809e-01	 1.227921589844049e+01
 2.069259855526420e+00	 3.216950569600323e-01	 1.229448171307110e+01
 2.066341742286739e+00	 3.399351786704650e-01	 1.231134541660717e+01
 2.063253864463201e+00	 3.582006384196532e-01	 1.232992172557392e+01
 2.095421423184876e+00	 1.776808842262730e-01	 1.218897411909712e+01
 2.093813512770422e+00	 1.957199703548164e-01	 1.219478695409233e+01
 2.092044572978384e+00	 2.138007150848803e-01	 1.220187506931682e+01
 2.090113326762409e+00	 2.319212078032777e-01	 1.221023484047135e+01
 2.088018522572121e+00	 2.500795040445029e-01	 1.221987670854240e+01
 2.085758935280412e+00	 2.682736257955009e-01	 1.223082575084848e+01
 2.083333367110929e+00	 2.865015618275639e-01	 1.224312236730653e+01
 2.080740648564953e+00	 3.047612680556430e-01	 1.225682308697410e+01
 2.077979639346784e+00	 3.230506679253297e-01	 1.227200149978246e+01
 2.075049229286808e+00	 3.413676528277410e-01	 1.228874931821344e+01
 2.071948339261310e+00	 3.597100825425086e-01	 1.230717757348570e+01
 2.104214397608754e+00	 1.784264829181235e-01	 1.216692348750985e+01
 2.102599739952394e+00	 1.965412660979735e-01	 1.217281134650563e+01
 2.100823377194180e+00	 2.146978826903816e-01	 1.217995064713630e+01
 2.098884026928908e+00	 2.328944140647129e-01	 1.218833907238124e+01
 2.096780432354335e+00	 2.511289075959603e-01	 1.219798763848295e+01
 2.094511363202366e+00	 2.693993769707924e-01	 1.220892125686407e+01
 2.092075616670435e+00	 2.877038025208437e-01	 1.222117941350982e+01
 2.089472018352266e+00	 3.060401315835327e-01	 1.223481697098008e+01
 2.086699423167150e+00	 3.244062788906682e-01	 1.224990509807721e+01
 2.083756716286878e+00	 3.428001269850761e-01	 1.226653233203319e+01
 2.080642814059420e+00	 3.612195266654452e-01	 1.228480577789338e+01
 2.113007372032781e+00	 1.791720816100575e-01	 1.214522727894770e+01
 2.111385967134528e+00	 1.973625618412110e-01	 1.215119131513154e+01
 2.109602181410150e+00	 2.155950502959652e-01	 1.215838311043726e+01
 2.107654727095589e+00	 2.338676203262365e-01	 1.216680143087834e+01
 2.105542342136737e+00	 2.521783111475165e-01	 1.217645764070597e+01
 2.103263791124515e+00	 2.705251281461971e-01	 1.218737625547398e+01
 2.100817866230138e+00	 2.889060432142541e-01	 1.219959561481916e+01
 2.098203388139777e+00	 3.073189951115737e-01	 1.221316868023016e+01
 2.095419206987715e+00	 3.257618898561822e-01	 1.222816396294139e+01
 2.092464203287147e+00	 3.442326011426128e-01	 1.224466658692591e+01
 2.089337288857729e+00	 3.627289707886123e-01	 1.226277949177661e+01
 2.121800346457106e+00	 1.799176803021584e-01	 1.212386495678970e+01
 2.120172194316986e+00	 1.981838575846094e-01	 1.212990430751977e+01
 2.118380985626466e+00	 2.164922179017126e-01	 1.213714822019702e+01
 2.116425427262635e+00	 2.348408265879351e-01	 1.214559632208096e+01
 2.114304251919518e+00	 2.532277146992651e-01	 1.215526010053076e+01
 2.112016219047050e+00	 2.716508793218174e-01	 1.216616344749137e+01
 2.109560115790234e+00	 2.901082839079083e-01	 1.217834332594914e+01
 2.106934757927686e+00	 3.085978586398903e-01	 1.219185056373974e+01
 2.104138990808679e+00	 3.271175008220056e-01	 1.220675077995334e+01
 2.101171690287817e+00	 3.456650753004945e-01	 1.222312544902296e+01
 2.098031763656439e+00	 3.642384149121597e-01	 1.224107310739607e+01
 2.130593320881878e+00	 1.806632789945096e-01	 1.210281697625253e+01
 2.128958421499933e+00	 1.990051533282493e-01	 1.210892880554502e+01
 2.127159789843305e+00	 2.173893855077057e-01	 1.211622280977595e+01
 2.125196127430228e+00	 2.358140328498946e-01	 1.212469925807383e+01
 2.123066161702865e+00	 2.542771182512998e-01	 1.213436953831214e+01
 2.120768646970167e+00	 2.727766304977565e-01	 1.214525669328621e+01
 2.118302365350920e+00	 2.913105246019196e-01	 1.215739608111805e+01
 2.115666127716191e+00	 3.098767221686060e-01	 1.217083616537957e+01
 2.112858774630242e+00	 3.284731117882725e-01	 1.218563944028971e+01
 2.109879177289086e+00	 3.470975494588635e-01	 1.220188349618100e+01
 2.106726238455749e+00	 3.657478590362366e-01	 1.221966223024832e+01
 2.139386295307245e+00	 1.814088776871945e-01	 1.208206476604783e+01
 2.137744648683532e+00	 1.998264490722111e-01	 1.208824430613765e+01
 2.135938594060838e+00	 2.182865531140259e-01	 1.209558476476481e+01
 2.133966827598551e+00	 2.367872391122015e-01	 1.210408683591593e+01
 2.131828071486969e+00	 2.553265218037142e-01	 1.211376158765358e+01
 2.129521074894057e+00	 2.739023816741171e-01	 1.212463099025029e+01
 2.127044614912394e+00	 2.925127652964011e-01	 1.213672857081147e+01
 2.124397497505491e+00	 3.111555856978451e-01	 1.215010019998681e+01
 2.121578558452605e+00	 3.298287227551169e-01	 1.216480501623322e+01
 2.118586664291155e+00	 3.485300236178631e-01	 1.218091649293745e+01
 2.115420713255859e+00	 3.672573031609928e-01	 1.219852365352070e+01
 2.028475965266763e+00	 3.521628619260533e-01	 1.242520371651695e+01
 2.025272766653326e+00	 3.701401696115764e-01	 1.244400537020044e+01
 2.021900702832483e+00	 3.881381048101049e-01	 1.246048939995358e+01
 2.018358812783806e+00	 4.061544882653070e-01	 1.247489692079288e+01
 2.014646169384433e+00	 4.241871119009676e-01	 1.248750463193182e+01
 2.010761880278761e+00	 4.422337393928923e-01	 1.249862677486528e+01
 2.006705088739459e+00	 4.602921067687453e-01	 1.250861722643910e+01
 2.002474974518841e+00	 4.783599230357982e-01	 1.251787172862077e+01
 1.998070754689647e+00	 4.964348708365260e-01	 1.252683025629255e+01
 1.993491684474229e+00	 5.145146071319616e-01	 1.253597952396248e+01
 1.988737058061177e+00	 5.325967639126696e-01	 1.254585563183585e+01
 2.037170440066873e+00	 3.536723060500791e-01	 1.240067594174017e+01
 2.033953511870113e+00	 3.717266682586763e-01	 1.241937729852623e+01
 2.030566994674092e+00	 3.898017463941682e-01	 1.243580436430583e+01
 2.027009923339256e+00	 4.078953518594775e-01	 1.245019778162284e+01
 2.023281366768910e+00	 4.260052671141150e-01	 1.246283365847102e+01
 2.019380428782637e+00	 4.441292462485367e-01	 1.247402554934861e+01
 2.015306248981001e+00	 4.622650155865509e-01	 1.248412657394810e+01
 2.011058003600574e+00	 4.804102743157578e-01	 1.249353167527638e+01
 2.006634906358315e+00	 4.985626951459567e-01	 1.250268001860210e+01
 2.002036209284311e+00	 5.167199249954290e-01	 1.251205753220012e+01
 1.997261203541910e+00	 5.348795857049577e-01	 1.252219959040589e+01
 2.045864914866182e+00	 3.551817501735879e-01	 1.237664084362042e+01
 2.042634257086100e+00	 3.733131669052712e-01	 1.239523092376637e+01
 2.039233286514900e+00	 3.914653879777524e-01	 1.241159355923930e+01
 2.035661033893906e+00	 4.096362154532062e-01	 1.242596913152491e+01
 2.031916564152587e+00	 4.278234223268679e-01	 1.243863332436108e+01
 2.027998977285713e+00	 4.460247531038403e-01	 1.244989912663204e+01
 2.023907409221743e+00	 4.642379244040728e-01	 1.246011897558506e+01
 2.019641032681508e+00	 4.824606255954923e-01	 1.246968704224676e+01
 2.015199058026183e+00	 5.006905194552196e-01	 1.247904166051654e+01
 2.010580734093593e+00	 5.189252428587805e-01	 1.248866790098424e+01
 2.005785349021840e+00	 5.371624074971756e-01	 1.249910029006044e+01
 2.054559389664892e+00	 3.566911942967295e-01	 1.235306634702037e+01
 2.051315002301486e+00	 3.748996655515140e-01	 1.237153521142757e+01
 2.047899578355109e+00	 3.931290295610114e-01	 1.238782667529226e+01
 2.044312144447956e+00	 4.113770790466464e-01	 1.240218106373685e+01
 2.040551761535664e+00	 4.296415775393758e-01	 1.241487379665684e+01
 2.036617525788189e+00	 4.479202599589470e-01	 1.242621741232571e+01
 2.032508569461885e+00	 4.662108332214486e-01	 1.243656373404523e+01
 2.028224061761841e+00	 4.845109768751312e-01	 1.244630618180535e+01
 2.023763209693450e+00	 5.028183437644346e-01	 1.245588223051394e+01
 2.019125258902276e+00	 5.211305607221275e-01	 1.246577601592675e+01
 2.014309494501172e+00	 5.394452292894243e-01	 1.247652108894369e+01
 2.063253864463201e+00	 3.582006384196532e-01	 1.232992172557392e+01
 2.059995747516472e+00	 3.764861641975579e-01	 1.234826048061965e+01
 2.056565870194917e+00	 3.947926711441001e-01	 1.236447476812933e+01
 2.052963255001605e+00	 4.131179426399513e-01	 1.237880505498116e+01
 2.049186958918340e+00	 4.314597327517884e-01	 1.239152665123565e+01
 2.045236074290263e+00	 4.498157668140014e-01	 1.240295175332323e+01
 2.041109729701627e+00	 4.681837420388157e-01	 1.241343163303584e+01
 2.036807090841774e+00	 4.865613281548041e-01	 1.242335897437671e+01
 2.032327361360318e+00	 5.049461680737224e-01	 1.243317035991633e+01
 2.027669783710558e+00	 5.233358785855805e-01	 1.244334890787118e+01
 2.022833639980103e+00	 5.417280510818046e-01	 1.245442706065475e+01
 2.071948339261310e+00	 3.597100825425086e-01	 1.230717757348570e+01
 2.068676492731258e+00	 3.780726628435567e-01	 1.232537837530610e+01
 2.065232162034526e+00	 3.964563127271726e-01	 1.234151022906500e+01
 2.061614365555055e+00	 4.148588062332741e-01	 1.235581393508217e+01
 2.057822156300817e+00	 4.332778879642556e-01	 1.236856484132733e+01
 2.053854622792139e+00	 4.517112736691478e-01	 1.238007490506320e+01
 2.049710889941170e+00	 4.701566508563120e-01	 1.239069490308625e+01
 2.045390119921507e+00	 4.886116794346401e-01	 1.240081679271200e+01
 2.040891513026985e+00	 5.070739923832034e-01	 1.241087622524597e+01
 2.036214308518640e+00	 5.255411964492500e-01	 1.242135521324583e+01
 2.031357785458835e+00	 5.440108728744170e-01	 1.243278495241218e+01
 2.080642814059420e+00	 3.612195266654452e-01	 1.228480577789338e+01
 2.077357237946044e+00	 3.796591614896633e-01	 1.230286183611631e+01
 2.073898453874134e+00	 3.981199543103834e-01	 1.231890675615174e+01
 2.070265476108505e+00	 4.165996698267676e-01	 1.233318185715474e+01
 2.066457353683294e+00	 4.350960431769266e-01	 1.234596266662665e+01
 2.062473171294014e+00	 4.536067805245310e-01	 1.235756099938756e+01
 2.058312050180712e+00	 4.721295596740745e-01	 1.236832718797348e+01
 2.053973149001240e+00	 4.906620307147687e-01	 1.237865246670252e+01
 2.049455664693653e+00	 5.092018166929979e-01	 1.238897151124727e+01
 2.044758833326722e+00	 5.277465143132476e-01	 1.239976513511285e+01
 2.039881930937567e+00	 5.462936946673629e-01	 1.241156314395000e+01
 2.089337288857729e+00	 3.627289707886123e-01	 1.226277949177661e+01
 2.086037983161030e+00	 3.812456601360313e-01	 1.228068507270354e+01
 2.082564745713942e+00	 3.997835958938872e-01	 1.229663932581679e+01
 2.078916586662154e+00	 4.183405334205854e-01	 1.231088426834779e+01
 2.075092551065970e+00	 4.369141983899517e-01	 1.232369574297102e+01
 2.071091719796090e+00	 4.555022873802948e-01	 1.233538551297960e+01
 2.066913210420454e+00	 4.741024684922414e-01	 1.234630351174599e+01
 2.062556178081173e+00	 4.927123819953196e-01	 1.235684024881341e+01
 2.058019816360520e+00	 5.113296410032265e-01	 1.236742937455417e+01
 2.053303358135004e+00	 5.299518321776834e-01	 1.237855040489348e+01
 2.048406076416498e+00	 5.485765164607425e-01	 1.239073160712361e+01
 2.098031763656439e+00	 3.642384149121597e-01	 1.224107310739607e+01
 2.094718728376417e+00	 3.828321587828140e-01	 1.225882353663250e+01
 2.091231037554151e+00	 4.014472374778383e-01	 1.227468416503095e+01
 2.087567697216205e+00	 4.200813970148803e-01	 1.228889788112675e+01
 2.083727748449047e+00	 4.387323536034800e-01	 1.230174097256716e+01
 2.079710268298565e+00	 4.573977942365838e-01	 1.231352523636457e+01
 2.075514370660597e+00	 4.760753773109498e-01	 1.232460024632738e+01
 2.071139207161506e+00	 4.947627332764222e-01	 1.233535578011900e+01
 2.066583968027788e+00	 5.134574653140096e-01	 1.234622440798504e+01
 2.061847882943687e+00	 5.321571500426682e-01	 1.235768424474951e+01
 2.056930221895829e+00	 5.508593382546569e-01	 1.237026186620537e+01
 2.106726238455749e+00	 3.657478590362366e-01	 1.221966223024832e+01
 2.103399473592404e+00	 3.844186574301646e-01	 1.223725389478138e+01
 2.099897329394959e+00	 4.031108790623909e-01	 1.225301872399492e+01
 2.096218807770854e+00	 4.218222606098053e-01	 1.226720064507921e+01
 2.092362945832724e+00	 4.405505088176614e-01	 1.228007651475070e+01
 2.088328816801641e+00	 4.592933010935424e-01	 1.229195824345702e+01
 2.084115530901338e+00	 4.780482861303370e-01	 1.230319507968387e+01
 2.079722236242440e+00	 4.968130845582060e-01	 1.231417605692252e+01
 2.075148119695656e+00	 5.155852896254678e-01	 1.232533260544621e+01
 2.070392407752969e+00	 5.343624679083132e-01	 1.233714133060211e+01
 2.065454367375761e+00	 5.531421600492069e-01	 1.235012695884948e+01
 2.115420713255859e+00	 3.672573031609928e-01	 1.219852365352070e+01
 2.112080218809191e+00	 3.860051560782366e-01	 1.221595400324345e+01
 2.108563621236568e+00	 4.047745206476998e-01	 1.223162164932748e+01
 2.104869918326306e+00	 4.235631242055140e-01	 1.224577171922892e+01
 2.100998143217202e+00	 4.423686640326460e-01	 1.225868175726371e+01
 2.096947365305518e+00	 4.611888079513150e-01	 1.227066386163870e+01
 2.092716691142881e+00	 4.800211949505413e-01	 1.228206698453906e+01
 2.088305265324173e+00	 4.988634358408002e-01	 1.229327939794353e+01
 2.083712271364325e+00	 5.177131139377213e-01	 1.230473132742728e+01
 2.078936932563052e+00	 5.365677857747292e-01	 1.231689775576980e+01
 2.073978512856493e+00	 5.554249818444937e-01	 1.233030139770744e+01
 1.988737058061177e+00	 5.325967639126696e-01	 1.254585563183585e+01
 1.983806209841261e+00	 5.506789491896563e-01	 1.255958230001606e+01
 1.978698516497631e+00	 5.687587485405461e-01	 1.258032747427939e+01
 1.973413396484585e+00	 5.868337251852063e-01	 1.260878074926025e+01
 1.967950310349670e+00	 6.049014205584747e-01	 1.264005371326666e+01
 1.962308761470183e+00	 6.229593551559282e-01	 1.266706088894104e+01
 1.956488296771135e+00	 6.410050294055930e-01	 1.269001281867139e+01
 1.950488507423679e+00	 6.590359245652063e-01	 1.270917033009263e+01
 1.944309029523059e+00	 6.770495036445779e-01	 1.272480735216741e+01
 1.937949544745086e+00	 6.950432123525722e-01	 1.273721119096804e+01
 1.931409780980206e+00	 7.130144800681855e-01	 1.274668277215523e+01
 1.997261203541910e+00	 5.348795857049577e-01	 1.252219959040589e+01
 1.992309220668944e+00	 5.530392750329843e-01	 1.253627243140200e+01
 1.987179634676896e+00	 5.711965682083980e-01	 1.255748562315100e+01
 1.981871861527434e+00	 5.893490180064977e-01	 1.258650024322903e+01
 1.976385359455892e+00	 6.074941553241785e-01	 1.261682401828132e+01
 1.970719629710934e+00	 6.256294900293221e-01	 1.264316480538287e+01
 1.964874217275590e+00	 6.437525118362468e-01	 1.266576492660033e+01
 1.958848711568684e+00	 6.618606912068137e-01	 1.268487793381218e+01
 1.952642747125680e+00	 6.799514802767427e-01	 1.270076890514466e+01
 1.946256004257984e+00	 6.980223138066511e-01	 1.271371471027184e+01
 1.939688209689715e+00	 7.160706101572964e-01	 1.272400424246167e+01
 2.005785349021840e+00	 5.371624074971756e-01	 1.249910029006044e+01
 2.000812231495826e+00	 5.553996008762783e-01	 1.251353678211026e+01
 1.995660752855364e+00	 5.736343878762442e-01	 1.253521704886558e+01
 1.990330326569490e+00	 5.918643108278056e-01	 1.256457121206619e+01
 1.984820408561330e+00	 6.100868900899152e-01	 1.259395162118149e+01
 1.979130497950917e+00	 6.282996249027633e-01	 1.261964859822196e+01
 1.973260137779301e+00	 6.464999942669614e-01	 1.264189802621263e+01
 1.967208915712976e+00	 6.646854578484974e-01	 1.266094556116189e+01
 1.960976464727635e+00	 6.828534569090018e-01	 1.267704692052766e+01
 1.954562463770272e+00	 7.010014152608478e-01	 1.269046814044557e+01
 1.947966638398685e+00	 7.191267402465555e-01	 1.270148579958074e+01
 2.014309494501172e+00	 5.394452292894243e-01	 1.247652108894369e+01
 2.009315242322110e+00	 5.577599267196292e-01	 1.249133723448242e+01
 2.004141871033233e+00	 5.760722075441648e-01	 1.251348363730554e+01
 1.998788791610951e+00	 5.943796036491991e-01	 1.254294041922847e+01
 1.993255457666181e+00	 6.126796248557445e-01	 1.257142253463052e+01
 1.987541366190324e+00	 6.309697597763001e-01	 1.259650147143606e+01
 1.981646058282454e+00	 6.492474766977745e-01	 1.261840595522829e+01
 1.975569119856737e+00	 6.675102244902823e-01	 1.263737313485666e+01
 1.969310182329090e+00	 6.857554335413676e-01	 1.265364886549044e+01
 1.962868923282101e+00	 7.039805167151612e-01	 1.266748796016719e+01
 1.956245067107252e+00	 7.221828703359467e-01	 1.267915440766989e+01
 2.022833639980103e+00	 5.417280510818046e-01	 1.245442706065475e+01
 2.017818253147993e+00	 5.601202525631275e-01	 1.246963744897718e+01
 2.012622989210703e+00	 5.785100272122409e-01	 1.249224909198404e+01
 2.007247256652015e+00	 5.968948964707489e-01	 1.252159320612984e+01
 2.001690506770640e+00	 6.152723596217257e-01	 1.254922381976047e+01
 1.995952234429347e+00	 6.336398946499822e-01	 1.257371361395944e+01
 1.990031978785235e+00	 6.519949591287233e-01	 1.259528344774977e+01
 1.983929324000143e+00	 6.703349911321941e-01	 1.261416136024031e+01
 1.977643899930212e+00	 6.886574101738524e-01	 1.263058285080758e+01
 1.971175382793627e+00	 7.069596181695894e-01	 1.264479112733935e+01
 1.964523495815548e+00	 7.252390004254544e-01	 1.265703732033775e+01
 2.031357785458835e+00	 5.440108728744170e-01	 1.243278495241218e+01
 2.026321263973674e+00	 5.624805784068644e-01	 1.244840282028750e+01
 2.021104107387973e+00	 5.809478468805528e-01	 1.247147888858462e+01
 2.015705721692882e+00	 5.994101892925254e-01	 1.250051596094373e+01
 2.010125555874903e+00	 6.178650943879190e-01	 1.252734354548278e+01
 2.004363102668178e+00	 6.363100295238575e-01	 1.255127615908174e+01
 1.998417899287829e+00	 6.547424415598448e-01	 1.257252609423152e+01
 1.992289528143369e+00	 6.731597577742570e-01	 1.259131168631230e+01
 1.985977617531167e+00	 6.915593868064690e-01	 1.260785759342841e+01
 1.979481842305000e+00	 7.099387196241318e-01	 1.262239504370429e+01
 1.972801924523711e+00	 7.282951305150630e-01	 1.263516204779651e+01
 2.039881930937567e+00	 5.462936946673629e-01	 1.241156314395000e+01
 2.034824274799357e+00	 5.648409042509300e-01	 1.242760043421996e+01
 2.029585225565243e+00	 5.833856665491816e-01	 1.245114023028287e+01
 2.024164186733747e+00	 6.019254821145991e-01	 1.247969607909261e+01
 2.018560604979166e+00	 6.204578291543844e-01	 1.250577074858164e+01
 2.012773970907009e+00	 6.389801643979751e-01	 1.252918114461103e+01
 2.006803819790424e+00	 6.574899239911769e-01	 1.255013030218298e+01
 2.000649732286595e+00	 6.759845244164968e-01	 1.256882626744446e+01
 1.994311335132122e+00	 6.944613634392292e-01	 1.258548237968455e+01
 1.987788301816373e+00	 7.129178210787869e-01	 1.260031752002321e+01
 1.981080353231873e+00	 7.313512606047566e-01	 1.261355632449642e+01
 2.048406076416498e+00	 5.485765164607425e-01	 1.239073160712361e+01
 2.043327285625239e+00	 5.672012300954161e-01	 1.240719902531442e+01
 2.038066343742712e+00	 5.858234862182075e-01	 1.243120200382650e+01
 2.032622651774812e+00	 6.044407749370398e-01	 1.245912192450279e+01
 2.026995654083625e+00	 6.230505639211810e-01	 1.248449539456682e+01
 2.021184839146032e+00	 6.416502992723842e-01	 1.250742147377887e+01
 2.015189740293205e+00	 6.602374064227561e-01	 1.252809325758337e+01
 2.009009936430000e+00	 6.788092910589392e-01	 1.254670792576717e+01
 2.002645052733243e+00	 6.973633400721456e-01	 1.256346702911264e+01
 1.996094761327899e+00	 7.158969225335539e-01	 1.257857674180338e+01
 1.989358781940170e+00	 7.344073906945200e-01	 1.259224807722845e+01
 2.056930221895829e+00	 5.508593382546569e-01	 1.237026186620537e+01
 2.051830296451523e+00	 5.695615559404130e-01	 1.238716893518303e+01
 2.046547461920581e+00	 5.882613058877115e-01	 1.241163468699766e+01
 2.041081116816273e+00	 6.069560677599187e-01	 1.243878279160249e+01
 2.035430703188476e+00	 6.256432986883688e-01	 1.246350833926455e+01
 2.029595707385439e+00	 6.443204341471325e-01	 1.248599087686574e+01
 2.023575660796358e+00	 6.629848888546198e-01	 1.250641288698798e+01
 2.017370140573761e+00	 6.816340577016080e-01	 1.252496011420588e+01
 2.010978770334698e+00	 7.002653167052311e-01	 1.254182185887409e+01
 2.004401220839730e+00	 7.188760239884309e-01	 1.255719123555710e+01
 1.997637210648736e+00	 7.374635207843371e-01	 1.257126539368150e+01
 2.065454367375761e+00	 5.531421600492069e-01	 1.235012695884948e+01
 2.060333307278406e+00	 5.719218817860114e-01	 1.236748207154677e+01
 2.055028580099048e+00	 5.906991255577745e-01	 1.239231760575950e+01
 2.049539581858329e+00	 6.094713605833055e-01	 1.241866886804128e+01
 2.043865752293914e+00	 6.282360334560075e-01	 1.244280129112439e+01
 2.038006575625422e+00	 6.469905690222695e-01	 1.246488387352615e+01
 2.031961581300069e+00	 6.657323712868055e-01	 1.248508782030578e+01
 2.025730344718055e+00	 6.844588243445296e-01	 1.250358688014926e+01
 2.019312487936653e+00	 7.031672933384970e-01	 1.252055764875470e+01
 2.012707680352018e+00	 7.218551254434172e-01	 1.253617983557736e+01
 2.005915639357706e+00	 7.405196508741925e-01	 1.255063649144098e+01
 2.073978512856493e+00	 5.554249818444937e-01	 1.233030139770744e+01
 2.068836318106088e+00	 5.742822076323024e-01	 1.234811186795042e+01
 2.063509698278315e+00	 5.931369452284766e-01	 1.237315131435935e+01
 2.057998046901178e+00	 6.119866534072709e-01	 1.239877119811062e+01
 2.052300801400137e+00	 6.308287682241573e-01	 1.242236677422202e+01
 2.046417443866173e+00	 6.496607038978439e-01	 1.244409573579329e+01
 2.040347501804525e+00	 6.684798537193505e-01	 1.246411735422900e+01
 2.034090548863060e+00	 6.872835909877286e-01	 1.248259282973038e+01
 2.027646205539275e+00	 7.060692699719570e-01	 1.249968560672754e+01
 2.021014139864915e+00	 7.248342268985118e-01	 1.251556165121510e+01
 2.014194068067215e+00	 7.435757809640704e-01	 1.253038968741629e+01
 1.931409780980206e+00	 7.130144800681855e-01	 1.274668277215523e+01
 1.924688354855402e+00	 7.309637694634421e-01	 1.275486576410607e+01
 1.917786183816244e+00	 7.488854209418625e-01	 1.276319321010523e+01
 1.910703136605119e+00	 7.667768187278619e-01	 1.277165103385767e+01
 1.903439130507891e+00	 7.846353347873409e-01	 1.278020714704775e+01
 1.895994131863790e+00	 8.024583299111958e-01	 1.278881151015675e+01
 1.888368156547483e+00	 8.202431548190312e-01	 1.279739619926354e+01
 1.880561270422445e+00	 8.379871512822787e-01	 1.280587548036107e+01
 1.872573589764845e+00	 8.556876532658934e-01	 1.281414589312901e+01
 1.864405281657153e+00	 8.733419880877550e-01	 1.282208634651089e+01
 1.856056564350709e+00	 8.909474775948771e-01	 1.282955822884706e+01
 1.939688209689715e+00	 7.160706101572964e-01	 1.272400424246167e+01
 1.932937974118424e+00	 7.340968339837993e-01	 1.273309781428869e+01
 1.926006218922043e+00	 7.520953014314645e-01	 1.274223700899582e+01
 1.918892812280358e+00	 7.700633855129514e-01	 1.275138396294830e+01
 1.911597671124698e+00	 7.879984469298634e-01	 1.276048433115395e+01
 1.904120761650013e+00	 8.058978351609011e-01	 1.276946739321310e+01
 1.896462099799011e+00	 8.237588895703063e-01	 1.277824616201773e+01
 1.888621751717463e+00	 8.415789405357922e-01	 1.278671749667252e+01
 1.880599834179923e+00	 8.593553105951374e-01	 1.279476222153790e+01
 1.872396514985003e+00	 8.770853156105536e-01	 1.280224525372094e+01
 1.864012013319517e+00	 8.947662659499382e-01	 1.280901574176533e+01
 1.947966638398685e+00	 7.191267402465555e-01	 1.270148579958074e+01
 1.941187593380994e+00	 7.372298985043433e-01	 1.271139566918218e+01
 1.934226254027490e+00	 7.553051819212971e-01	 1.272126869881015e+01
 1.927082487955355e+00	 7.733499522983185e-01	 1.273104589419334e+01
 1.919756211741378e+00	 7.913615590727094e-01	 1.274065315275758e+01
 1.912247391436232e+00	 8.093373404109726e-01	 1.275000140871194e+01
 1.904556043050652e+00	 8.272746243219816e-01	 1.275898677771594e+01
 1.896682233012715e+00	 8.451707297897306e-01	 1.276749070255291e+01
 1.888626078595345e+00	 8.630229679248169e-01	 1.277538010168100e+01
 1.880387748313307e+00	 8.808286431337822e-01	 1.278250752298005e+01
 1.871967462288870e+00	 8.985850543054005e-01	 1.278871130545659e+01
 1.956245067107252e+00	 7.221828703359467e-01	 1.267915440766989e+01
 1.949437212643225e+00	 7.403629630250422e-01	 1.268979641161160e+01
 1.942446289132673e+00	 7.585150624113133e-01	 1.270033324041835e+01
 1.935272163630169e+00	 7.766365190839003e-01	 1.271068738972166e+01
 1.927914752357967e+00	 7.947246712158029e-01	 1.272076746394353e+01
 1.920374021222447e+00	 8.127768456613205e-01	 1.273046835455464e+01
 1.912649986302385e+00	 8.307903590739587e-01	 1.273967141480862e+01
 1.904742714308149e+00	 8.487625190439885e-01	 1.274824463234155e+01
 1.896652323011041e+00	 8.666906252548237e-01	 1.275604280149291e+01
 1.888378981641965e+00	 8.845719706573315e-01	 1.276290769767062e+01
 1.879922911258653e+00	 9.024038426611642e-01	 1.276866825654754e+01
 1.964523495815548e+00	 7.252390004254544e-01	 1.265703732033775e+01
 1.957686831905231e+00	 7.434960275458661e-01	 1.266833722978642e+01
 1.950666324237679e+00	 7.617249429014670e-01	 1.267947555339164e+01
 1.943461839304864e+00	 7.799230858696361e-01	 1.269035886177418e+01
 1.936073292974493e+00	 7.980877833590673e-01	 1.270088089710801e+01
 1.928500651008666e+00	 8.162163509118574e-01	 1.271092277861780e+01
 1.920743929554185e+00	 8.343060938261391e-01	 1.272035320150729e+01
 1.912803195603715e+00	 8.523543082984602e-01	 1.272902863068491e+01
 1.904678567426931e+00	 8.703582825850483e-01	 1.273679349113880e+01
 1.896370214970877e+00	 8.883152981810956e-01	 1.274348035730237e+01
 1.887878360228749e+00	 9.062226310171286e-01	 1.274891014423568e+01
 1.972801924523711e+00	 7.282951305150630e-01	 1.263516204779651e+01
 1.965936451167123e+00	 7.466290920667822e-01	 1.264705538683600e+01
 1.958886359342599e+00	 7.649348233917110e-01	 1.265874048710482e+01
 1.951651514979499e+00	 7.832096526554629e-01	 1.267011054454490e+01
 1.944231833590993e+00	 8.014508955024265e-01	 1.268104683669790e+01
 1.936627280794890e+00	 8.196558561624929e-01	 1.269141894953918e+01
 1.928837872806026e+00	 8.378218285784241e-01	 1.270108499475525e+01
 1.920863676899359e+00	 8.559460975530399e-01	 1.270989181881953e+01
 1.912704811842940e+00	 8.740259399153826e-01	 1.271767520572805e+01
 1.904361448299948e+00	 8.920586257049669e-01	 1.272426007576623e+01
 1.895833809199044e+00	 9.100414193731937e-01	 1.272946068318460e+01
 1.981080353231873e+00	 7.313512606047566e-01	 1.261355632449642e+01
 1.974186070429016e+00	 7.497621565877612e-01	 1.262598819074865e+01
 1.967106394447519e+00	 7.681447038819986e-01	 1.263817279218364e+01
 1.959841190654136e+00	 7.864962194413193e-01	 1.264999246632855e+01
 1.952390374207497e+00	 8.048140076458040e-01	 1.266131839123906e+01
 1.944753910581124e+00	 8.230953614131398e-01	 1.267201082779640e+01
 1.936931816057885e+00	 8.413375633307143e-01	 1.268191934951552e+01
 1.928924158195032e+00	 8.595378868076216e-01	 1.269088306121896e+01
 1.920731056258989e+00	 8.776935972457170e-01	 1.269873080846015e+01
 1.912352681629079e+00	 8.958019532288382e-01	 1.270528138011076e+01
 1.903789258169420e+00	 9.138602077292585e-01	 1.271034370705455e+01
 1.989358781940170e+00	 7.344073906945200e-01	 1.259224807722845e+01
 1.982435689691021e+00	 7.528952211087712e-01	 1.260517296470235e+01
 1.975326429552528e+00	 7.713545843722834e-01	 1.261781709228710e+01
 1.968030866328837e+00	 7.897827862271430e-01	 1.263005442196614e+01
 1.960548914824040e+00	 8.081771197891241e-01	 1.264174836564553e+01
 1.952880540367373e+00	 8.265348666637086e-01	 1.265275203706974e+01
 1.945025759309738e+00	 8.448532980829113e-01	 1.266290848836734e+01
 1.936984639490681e+00	 8.631296760621002e-01	 1.267205093259396e+01
 1.928757300675005e+00	 8.813612545759445e-01	 1.268000295419033e+01
 1.920343914958172e+00	 8.995452807526023e-01	 1.268657870982597e+01
 1.911744707139762e+00	 9.176789960852230e-01	 1.269158312264979e+01
 1.997637210648736e+00	 7.374635207843371e-01	 1.257126539368150e+01
 1.990685308953253e+00	 7.560282856297815e-01	 1.258464701777601e+01
 1.983546464657714e+00	 7.745644648625190e-01	 1.259771785621499e+01
 1.976220542003663e+00	 7.930693530128724e-01	 1.261034594557952e+01
 1.968707455440654e+00	 8.115402319323102e-01	 1.262238923380155e+01
 1.961007170153640e+00	 8.299743719141104e-01	 1.263369583588116e+01
 1.953119702561558e+00	 8.483690328349164e-01	 1.264410427140198e+01
 1.945045120786256e+00	 8.667214653163697e-01	 1.265344368523603e+01
 1.936783545090910e+00	 8.850289119059541e-01	 1.266153405340243e+01
 1.928335148287128e+00	 9.032886082761525e-01	 1.266818637661982e+01
 1.919700156109956e+00	 9.214977844409867e-01	 1.267320286466501e+01
 2.005915639357706e+00	 7.405196508741925e-01	 1.255063649144098e+01
 1.998934928215824e+00	 7.591613501507609e-01	 1.256444761603008e+01
 1.991766499763166e+00	 7.777743453526579e-01	 1.257791937033109e+01
 1.984410217678675e+00	 7.963559197984450e-01	 1.259091628358697e+01
 1.976865996057371e+00	 8.149033440752861e-01	 1.260329311140814e+01
 1.969133799939929e+00	 8.334138771642571e-01	 1.261489508950109e+01
 1.961213645813324e+00	 8.518847675866305e-01	 1.262555816640925e+01
 1.953105602081704e+00	 8.703132545703245e-01	 1.263510921669390e+01
 1.944809789506627e+00	 8.886965692356383e-01	 1.264336623657772e+01
 1.936326381615850e+00	 9.070319357993809e-01	 1.265013852467317e+01
 1.927655605079885e+00	 9.253165727964493e-01	 1.265522685101297e+01
 2.014194068067215e+00	 7.435757809640704e-01	 1.253038968741629e+01
 2.007184547478847e+00	 7.622944146716788e-01	 1.254461195394598e+01
 1.999986534868971e+00	 7.809842258426540e-01	 1.255846571129307e+01
 1.992599893353933e+00	 7.996424865837992e-01	 1.257181436799128e+01
 1.985024536674227e+00	 8.182664562179760e-01	 1.258451172908705e+01
 1.977260429726245e+00	 8.368533824140595e-01	 1.259640224211557e+01
 1.969307589065010e+00	 8.554005023379549e-01	 1.260732121934635e+01
 1.961166083376974e+00	 8.739050438238590e-01	 1.261709503777387e+01
 1.952836033922081e+00	 8.923642265648891e-01	 1.262554131894788e+01
 1.944317614944240e+00	 9.107752633221808e-01	 1.263246909135924e+01
 1.935611054049432e+00	 9.291353611515104e-01	 1.263767893871747e+01
 1.856056564350709e+00	 8.909474775948771e-01	 1.282955822884706e+01
 1.847529172416486e+00	 9.084984598861181e-01	 1.283531727191161e+01
 1.838822022353228e+00	 9.259952468727786e-01	 1.283830763853049e+01
 1.829935486279233e+00	 9.434351516004069e-01	 1.283867951336363e+01
 1.820869988579429e+00	 9.608154864645534e-01	 1.283661381824684e+01
 1.811626006103686e+00	 9.781335644556893e-01	 1.283232247421362e+01
 1.802204068330247e+00	 9.953867004148540e-01	 1.282604863658901e+01
 1.792604757493784e+00	 1.012572212298924e+00	 1.281806690747097e+01
 1.782828708677572e+00	 1.029687422454352e+00	 1.280868353025056e+01
 1.772876609869356e+00	 1.046729658898207e+00	 1.279823657112223e+01
 1.762749201980530e+00	 1.063696256605328e+00	 1.278719191066421e+01
 1.864012013319517e+00	 8.947662659499382e-01	 1.280901574176533e+01
 1.855448071189168e+00	 9.123924754440570e-01	 1.281407444791982e+01
 1.846703600448590e+00	 9.299642573411303e-01	 1.281663679931251e+01
 1.837778974811067e+00	 9.474789131698542e-01	 1.281687862429490e+01
 1.828674620480534e+00	 9.649337438061401e-01	 1.281500211339509e+01
 1.819391016350745e+00	 9.823260507233702e-01	 1.281123598005635e+01
 1.809928694169406e+00	 9.996531372534282e-01	 1.280583559879170e+01
 1.800288238666776e+00	 1.016912309857390e+00	 1.279908312547074e+01
 1.790470287648234e+00	 1.034100879404719e+00	 1.279128760479827e+01
 1.780475532050395e+00	 1.051216162459804e+00	 1.278278507034696e+01
 1.770304715960357e+00	 1.068255482574626e+00	 1.277393864276580e+01
 1.871967462288870e+00	 8.985850543054005e-01	 1.278871130545659e+01
 1.863366969962474e+00	 9.162864910023476e-01	 1.279320197648016e+01
 1.854585178544640e+00	 9.339332678097632e-01	 1.279542634672836e+01
 1.845622463343635e+00	 9.515226747394960e-01	 1.279558043763030e+01
 1.836479252382404e+00	 9.690520011478224e-01	 1.279388262193361e+01
 1.827156026598584e+00	 9.865185369910400e-01	 1.279057369293820e+01
 1.817653320009345e+00	 1.003919574091880e+00	 1.278591691506125e+01
 1.807971719840529e+00	 1.021252407415621e+00	 1.278019806083554e+01
 1.798111866619622e+00	 1.038514336354744e+00	 1.277372543979307e+01
 1.788074454232105e+00	 1.055702666020960e+00	 1.276682992499407e+01
 1.777860229940787e+00	 1.072814708543394e+00	 1.275986498322385e+01
 1.879922911258653e+00	 9.024038426611642e-01	 1.276866825654754e+01
 1.871285868736274e+00	 9.201805065609013e-01	 1.277271313983797e+01
 1.862466756641240e+00	 9.379022782786074e-01	 1.277468435786089e+01
 1.853465951876797e+00	 9.555664363092834e-01	 1.277479274930283e+01
 1.844283884284900e+00	 9.731702584895766e-01	 1.277326785435264e+01
 1.834921036847070e+00	 9.907110232587019e-01	 1.277035790210007e+01
 1.825377945849936e+00	 1.008186010930241e+00	 1.276632978275375e+01
 1.815655201014926e+00	 1.025592504973677e+00	 1.276146901015101e+01
 1.805753445591633e+00	 1.042927793304513e+00	 1.275607968038960e+01
 1.795673376414403e+00	 1.060189169581784e+00	 1.275048443272542e+01
 1.785415743921752e+00	 1.077373934511765e+00	 1.274502441914583e+01
 1.887878360228749e+00	 9.062226310171286e-01	 1.274891014423568e+01
 1.879204767510441e+00	 9.240745221196309e-01	 1.275262159071274e+01
 1.870348334738253e+00	 9.418712887475919e-01	 1.275441935749573e+01
 1.861309440410412e+00	 9.596101978791686e-01	 1.275452379842856e+01
 1.852088516187881e+00	 9.772885158313785e-01	 1.275317067704045e+01
 1.842686047096064e+00	 9.949035095263580e-01	 1.275061108167135e+01
 1.833102571691050e+00	 1.012452447768540e+00	 1.274711132847909e+01
 1.823338682189851e+00	 1.029932602531615e+00	 1.274295285815603e+01
 1.813395024564165e+00	 1.047341250254110e+00	 1.273843213254868e+01
 1.803272298597203e+00	 1.064675673142387e+00	 1.273386053769507e+01
 1.792971257903185e+00	 1.081933160479871e+00	 1.272956430006515e+01
 1.895833809199044e+00	 9.100414193731937e-01	 1.272946068318460e+01
 1.887123666284845e+00	 9.279685376784483e-01	 1.273294130022172e+01
 1.878229912835541e+00	 9.458402992166461e-01	 1.273464026276826e+01
 1.869152928944340e+00	 9.636539594491023e-01	 1.273478221039803e+01
 1.859893148091208e+00	 9.814067731732050e-01	 1.273360425556585e+01
 1.850451057345432e+00	 9.990959957940110e-01	 1.273135583591484e+01
 1.840827197532559e+00	 1.016718884606808e+00	 1.272829855710331e+01
 1.831022163365186e+00	 1.034272700089496e+00	 1.272470603231923e+01
 1.821036603537113e+00	 1.051754707203622e+00	 1.272086372502536e+01
 1.810871220780415e+00	 1.069162176702880e+00	 1.271706880180711e+01
 1.800526771885018e+00	 1.086492386447844e+00	 1.271363000247165e+01
 1.903789258169420e+00	 9.138602077292585e-01	 1.271034370705455e+01
 1.895042565059360e+00	 9.318625532372659e-01	 1.271368650654214e+01
 1.886111490932971e+00	 9.498093096857011e-01	 1.271535632860886e+01
 1.876996417478440e+00	 9.676977210190363e-01	 1.271557694078269e+01
 1.867697779994740e+00	 9.855250305150310e-01	 1.271458199874908e+01
 1.858216067595038e+00	 1.003288482061664e+00	 1.271261484518906e+01
 1.848551823374337e+00	 1.020985321445077e+00	 1.270992830135177e+01
 1.838705644540815e+00	 1.038612797647376e+00	 1.270678445785440e+01
 1.828678182510376e+00	 1.056168164153135e+00	 1.270345447158871e+01
 1.818470142963956e+00	 1.073648680263372e+00	 1.270021837595022e+01
 1.808082285867186e+00	 1.091051612415817e+00	 1.269736491189073e+01
 1.911744707139762e+00	 9.176789960852230e-01	 1.269158312264979e+01
 1.902961463833854e+00	 9.357565687959954e-01	 1.269487166428961e+01
 1.893993069030402e+00	 9.537783201546851e-01	 1.269657709396326e+01
 1.884839906012572e+00	 9.717414825889213e-01	 1.269691722003326e+01
 1.875502411898339e+00	 9.896432878568331e-01	 1.269611750349840e+01
 1.865981077844747e+00	 1.007480968329320e+00	 1.269441081260677e+01
 1.856276449216255e+00	 1.025251758283376e+00	 1.269203717199573e+01
 1.846389125716622e+00	 1.042952895205315e+00	 1.268924351316234e+01
 1.836319761483851e+00	 1.060581621102732e+00	 1.268628343346589e+01
 1.826069065147739e+00	 1.078135183823976e+00	 1.268341697121043e+01
 1.815637799849618e+00	 1.095610838383923e+00	 1.268091040464766e+01
 1.919700156109956e+00	 9.214977844409867e-01	 1.267320286466501e+01
 1.910880362608200e+00	 9.396505843545492e-01	 1.267651139459270e+01
 1.901874647127701e+00	 9.577473306235291e-01	 1.267831232876576e+01
 1.892683394546596e+00	 9.757852441587090e-01	 1.267881249894664e+01
 1.883307043801862e+00	 9.937615451985873e-01	 1.267822450038985e+01
 1.873746088094421e+00	 1.011673454596982e+00	 1.267676641136962e+01
 1.864001075058185e+00	 1.029518195121736e+00	 1.267466150860552e+01
 1.854072606892488e+00	 1.047292992763371e+00	 1.267213798568675e+01
 1.843961340457435e+00	 1.064995078052501e+00	 1.266942868200467e+01
 1.833667987331677e+00	 1.082621687384800e+00	 1.266677083006196e+01
 1.823193313832248e+00	 1.100170064352294e+00	 1.266440582932673e+01
 1.927655605079885e+00	 9.253165727964493e-01	 1.265522685101297e+01
 1.918799261382271e+00	 9.435445999128399e-01	 1.265862043584313e+01
 1.909756225224729e+00	 9.617163410921622e-01	 1.266057198164298e+01
 1.900526883080371e+00	 9.798290057283510e-01	 1.266127239487911e+01
 1.891111675705172e+00	 9.978798025402695e-01	 1.266091679996892e+01
 1.881511098343927e+00	 1.015865940864652e+00	 1.265970423275925e+01
 1.871725700899998e+00	 1.033784631960188e+00	 1.265783733085365e+01
 1.861756088068298e+00	 1.051633090321602e+00	 1.265552202817192e+01
 1.851602919431023e+00	 1.069408535002526e+00	 1.265296726154735e+01
 1.841266909515684e+00	 1.087108190945955e+00	 1.265038469753745e+01
 1.830748827815011e+00	 1.104729290321062e+00	 1.264798848793371e+01
 1.935611054049432e+00	 9.291353611515104e-01	 1.263767893871747e+01
 1.926718160155936e+00	 9.474386154707789e-01	 1.264121359510223e+01
 1.917637803321350e+00	 9.656853515605142e-01	 1.264336612832785e+01
 1.908370371613757e+00	 9.838727672977978e-01	 1.264430663868473e+01
 1.898916307608127e+00	 1.001998059881856e+00	 1.264420823975323e+01
 1.889276108593128e+00	 1.020058427132333e+00	 1.264324673476624e+01
 1.879450326741568e+00	 1.038051068798763e+00	 1.264160029035225e+01
 1.869439569243934e+00	 1.055973187880068e+00	 1.263944911531099e+01
 1.859244498404515e+00	 1.073821991952893e+00	 1.263697515251070e+01
 1.848865831699675e+00	 1.091594694507553e+00	 1.263436179237754e+01
 1.838304341797836e+00	 1.109288516290360e+00	 1.263179361677044e+01
 1.762749201980530e+00	 1.063696256605328e+00	 1.278719191066421e+01
 1.752447279254096e+00	 1.080584559137052e+00	 1.277561918810842e+01
 1.741971690479596e+00	 1.097391920967813e+00	 1.276142045091963e+01
 1.731323337608558e+00	 1.114115707809167e+00	 1.274428131259754e+01
 1.720503175193552e+00	 1.130753297576373e+00	 1.272387474719904e+01
 1.709512210216838e+00	 1.147302081686165e+00	 1.269987277674408e+01
 1.698351501880926e+00	 1.163759466353038e+00	 1.267195913733340e+01
 1.687022161360983e+00	 1.180122873882741e+00	 1.263998239786383e+01
 1.675525351519082e+00	 1.196389743961696e+00	 1.260743997950986e+01
 1.663862286580313e+00	 1.212557534941026e+00	 1.257556564068742e+01
 1.652034231770882e+00	 1.228623725113884e+00	 1.254382440506155e+01
 1.770304715960357e+00	 1.068255482574626e+00	 1.277393864276580e+01
 1.759958637025422e+00	 1.085216171924466e+00	 1.276186978547051e+01
 1.749438147673221e+00	 1.102095573644475e+00	 1.274665764054730e+01
 1.738744153721231e+00	 1.118891042155094e+00	 1.272870608661711e+01
 1.727877613813429e+00	 1.135599944132772e+00	 1.270762343634670e+01
 1.716839539248212e+00	 1.152219659813304e+00	 1.268301865282843e+01
 1.705630993768050e+00	 1.168747584293672e+00	 1.265451433904568e+01
 1.694253093310836e+00	 1.185181128831082e+00	 1.262257011959649e+01
 1.682707005722908e+00	 1.201517722137913e+00	 1.259111623709161e+01
 1.670993950433781e+00	 1.217754811671241e+00	 1.256025346730684e+01
 1.659115198092679e+00	 1.233889864915653e+00	 1.252941179650486e+01
 1.777860229940787e+00	 1.072814708543394e+00	 1.275986498322385e+01
 1.767469994797264e+00	 1.089847784711276e+00	 1.274929576436977e+01
 1.756904604867259e+00	 1.106799226320477e+00	 1.273270900394716e+01
 1.746164969834201e+00	 1.123666376500318e+00	 1.271344314623110e+01
 1.735252052433484e+00	 1.140446590688437e+00	 1.269123260727029e+01
 1.724166868279639e+00	 1.157137237939693e+00	 1.266562986902252e+01
 1.712910485655099e+00	 1.173735702233551e+00	 1.263620231303342e+01
 1.701484025260491e+00	 1.190239383778676e+00	 1.260459066385298e+01
 1.689888659926420e+00	 1.206645700313400e+00	 1.257407516949185e+01
 1.678125614286827e+00	 1.222952088400753e+00	 1.254415406783733e+01
 1.666196164413961e+00	 1.239156004716755e+00	 1.251422628715585e+01
 1.785415743921752e+00	 1.077373934511765e+00	 1.274502441914583e+01
 1.774981352569573e+00	 1.094479397497635e+00	 1.273609342859088e+01
 1.764371062061685e+00	 1.111502878995983e+00	 1.271978362650126e+01
 1.753585785947471e+00	 1.128441710845013e+00	 1.269872381636881e+01
 1.742626491053740e+00	 1.145293237243554e+00	 1.267494961331233e+01
 1.731494197311164e+00	 1.162054816065520e+00	 1.264796350790298e+01
 1.720189977542146e+00	 1.178723820172865e+00	 1.261733744547295e+01
 1.708714957210041e+00	 1.195297638725709e+00	 1.258630995986001e+01
 1.697070314129733e+00	 1.211773678488339e+00	 1.255656915518238e+01
 1.685257278139585e+00	 1.228149365129737e+00	 1.252749945353279e+01
 1.673277130734878e+00	 1.244422144517355e+00	 1.249847263672721e+01
 1.792971257903185e+00	 1.081933160479871e+00	 1.272956430006515e+01
 1.782492710342305e+00	 1.099111010283692e+00	 1.272190348446734e+01
 1.771837519256474e+00	 1.116206531671159e+00	 1.270691724867183e+01
 1.761006602061037e+00	 1.133217045189357e+00	 1.268477590528613e+01
 1.750000929674220e+00	 1.150139883798303e+00	 1.265901802255560e+01
 1.738821526342836e+00	 1.166972394190972e+00	 1.263027272400582e+01
 1.727469469429260e+00	 1.183711938111802e+00	 1.259858558633525e+01
 1.715945889159581e+00	 1.200355893672370e+00	 1.256798640787068e+01
 1.704251968332960e+00	 1.216901656662912e+00	 1.253884327262721e+01
 1.692388941992190e+00	 1.233346641858371e+00	 1.251051468099872e+01
 1.680358097055581e+00	 1.249688284317622e+00	 1.248234911307952e+01
 1.800526771885018e+00	 1.086492386447844e+00	 1.271363000247165e+01
 1.790004068115412e+00	 1.103742623069598e+00	 1.270690571691253e+01
 1.779303976451604e+00	 1.120910184346170e+00	 1.269292350428027e+01
 1.768427418174900e+00	 1.137992379533524e+00	 1.267151871223291e+01
 1.757375368294947e+00	 1.154986530352869e+00	 1.264367749852269e+01
 1.746148855374703e+00	 1.171889972316237e+00	 1.261280662593103e+01
 1.734748961316511e+00	 1.188700056050550e+00	 1.258028777867155e+01
 1.723176821109203e+00	 1.205414148618842e+00	 1.254987099562834e+01
 1.711433622536215e+00	 1.222029634837304e+00	 1.252113541260478e+01
 1.699520605844772e+00	 1.238543918586828e+00	 1.249341795784171e+01
 1.687439063376218e+00	 1.254954424117722e+00	 1.246604758864256e+01
 1.808082285867186e+00	 1.091051612415817e+00	 1.269736491189073e+01
 1.797515425888848e+00	 1.108374235855505e+00	 1.269127734960712e+01
 1.786770433647050e+00	 1.125613837021181e+00	 1.267800489021435e+01
 1.775848234289060e+00	 1.142767713877692e+00	 1.265735686360044e+01
 1.764749806915944e+00	 1.159833176907435e+00	 1.262916363913974e+01
 1.753476184406809e+00	 1.176807550441501e+00	 1.259581117521324e+01
 1.742028453203972e+00	 1.193688173989298e+00	 1.256269418439758e+01
 1.730407753059001e+00	 1.210472403565315e+00	 1.253220741364719e+01
 1.718615276739613e+00	 1.227157613011695e+00	 1.250367638946293e+01
 1.706652269697467e+00	 1.243741195315285e+00	 1.247642074742992e+01
 1.694520029696938e+00	 1.260220563917822e+00	 1.244975363618901e+01
 1.815637799849618e+00	 1.095610838383923e+00	 1.268091040464766e+01
 1.805026783662566e+00	 1.113005848641562e+00	 1.267519303715606e+01
 1.794236890842787e+00	 1.130317489696357e+00	 1.266236345828911e+01
 1.783269050403514e+00	 1.147543048222036e+00	 1.264221233767316e+01
 1.772124245537235e+00	 1.164679823462184e+00	 1.261455223692774e+01
 1.760803513439203e+00	 1.181725128566953e+00	 1.257982505955355e+01
 1.749307945091712e+00	 1.198676291928235e+00	 1.254604767339165e+01
 1.737638685009065e+00	 1.215530658511974e+00	 1.251523216934421e+01
 1.725796930943267e+00	 1.232285591186268e+00	 1.248669005133861e+01
 1.713783933550406e+00	 1.248938472043919e+00	 1.245972787279128e+01
 1.701600996017893e+00	 1.265486703718089e+00	 1.243364662397910e+01
 1.823193313832248e+00	 1.100170064352294e+00	 1.266440582932673e+01
 1.812538141436519e+00	 1.117637461427920e+00	 1.265882485666048e+01
 1.801703348038793e+00	 1.135021142371863e+00	 1.264619823370077e+01
 1.790689866518263e+00	 1.152318382566732e+00	 1.262630523993998e+01
 1.779498684158843e+00	 1.169526470017301e+00	 1.259894739590165e+01
 1.768130842471933e+00	 1.186642706692780e+00	 1.256508398331534e+01
 1.756587436979800e+00	 1.203664409867549e+00	 1.253058393798727e+01
 1.744869616959493e+00	 1.220588913459008e+00	 1.249917470005584e+01
 1.732978585147292e+00	 1.237413569361207e+00	 1.247039338937160e+01
 1.720915597403722e+00	 1.254135748772903e+00	 1.244353761967341e+01
 1.708681962339231e+00	 1.270752843518689e+00	 1.241789981029399e+01
 1.830748827815011e+00	 1.104729290321062e+00	 1.264798848793371e+01
 1.820049499210662e+00	 1.122269074214731e+00	 1.264234229872162e+01
 1.809169805235041e+00	 1.139724795047865e+00	 1.262970521384179e+01
 1.798110682633305e+00	 1.157093716911955e+00	 1.260985230705022e+01
 1.786873122780791e+00	 1.174373116572966e+00	 1.258258074250247e+01
 1.775458171505045e+00	 1.191560284819168e+00	 1.255020925496715e+01
 1.763866928868310e+00	 1.208652527807428e+00	 1.251653160633213e+01
 1.752100548910374e+00	 1.225647168406602e+00	 1.248425748497147e+01
 1.740160239351801e+00	 1.242541547536694e+00	 1.245499664594184e+01
 1.728047261257549e+00	 1.259333025502415e+00	 1.242804183879069e+01
 1.715762928661102e+00	 1.276018983319791e+00	 1.240268043737632e+01
 1.838304341797836e+00	 1.109288516290360e+00	 1.263179361677044e+01
 1.827560856984948e+00	 1.126900687002145e+00	 1.262591225789273e+01
 1.816636262431510e+00	 1.144428447724527e+00	 1.261307736635085e+01
 1.805531498748641e+00	 1.161869051257882e+00	 1.259306691045232e+01
 1.794247561403101e+00	 1.179219763129365e+00	 1.256576102494528e+01
 1.782785500538586e+00	 1.196477862946308e+00	 1.253512686636547e+01
 1.771146420757310e+00	 1.213640645748062e+00	 1.250332237666429e+01
 1.759331480861803e+00	 1.230705423354943e+00	 1.247069615601494e+01
 1.747341893556909e+00	 1.247669525712911e+00	 1.244070342195817e+01
 1.735178925112020e+00	 1.264530302232631e+00	 1.241342604728092e+01
 1.722843894983654e+00	 1.281285123121560e+00	 1.238814982479460e+01
 1.652034231770882e+00	 1.228623725113884e+00	 1.254382440506155e+01
 1.640040451489909e+00	 1.244588517196332e+00	 1.251064136889858e+01
 1.627884314974253e+00	 1.260446684185791e+00	 1.247483954253183e+01
 1.615567245443407e+00	 1.276195761384695e+00	 1.243642131030127e+01
 1.603090715360185e+00	 1.291833309028926e+00	 1.239535463895689e+01
 1.590456245878753e+00	 1.307356913517891e+00	 1.235157141594829e+01
 1.577665406256145e+00	 1.322764188630196e+00	 1.230496578466543e+01
 1.564719813227715e+00	 1.338052776723630e+00	 1.225539248914752e+01
 1.551621130347021e+00	 1.353220349918248e+00	 1.220266524157742e+01
 1.538371067290680e+00	 1.368264611261278e+00	 1.214655512661102e+01
 1.524971379128793e+00	 1.383183295872664e+00	 1.208678905724099e+01
 1.659115198092679e+00	 1.233889864915653e+00	 1.252941179650486e+01
 1.647070009945780e+00	 1.249923085456091e+00	 1.249693928605353e+01
 1.634861769671204e+00	 1.265849223885944e+00	 1.246163706325549e+01
 1.622491906588665e+00	 1.281665804943434e+00	 1.242355872232138e+01
 1.609961899472268e+00	 1.297370378407102e+00	 1.238272307053635e+01
 1.597273275996167e+00	 1.312960520331156e+00	 1.233911233703714e+01
 1.584427612143568e+00	 1.328433834266354e+00	 1.229267037548823e+01
 1.571426531579497e+00	 1.343787952465138e+00	 1.224330087360686e+01
 1.558271704987856e+00	 1.359020537069780e+00	 1.219086558332575e+01
 1.544964849373297e+00	 1.374129281282284e+00	 1.213518258614577e+01
 1.531507727328530e+00	 1.389111910514845e+00	 1.207602460891071e+01
 1.666196164413961e+00	 1.239156004716755e+00	 1.251422628715585e+01
 1.654099568401059e+00	 1.255257653715226e+00	 1.248253920493788e+01
 1.641839224367501e+00	 1.271251763585521e+00	 1.244783944685856e+01
 1.629416567733224e+00	 1.287135848501651e+00	 1.241022204266426e+01
 1.616833083583618e+00	 1.302907447784808e+00	 1.236974703224549e+01
 1.604090306112832e+00	 1.318564127144003e+00	 1.232643755691269e+01
 1.591189818030238e+00	 1.334103479902143e+00	 1.228027794118930e+01
 1.578133249930532e+00	 1.349523128206319e+00	 1.223121177849046e+01
 1.564922279627960e+00	 1.364820724221016e+00	 1.217914003493126e+01
 1.551558631455213e+00	 1.379993951303016e+00	 1.212391918630531e+01
 1.538044075527599e+00	 1.395040525156758e+00	 1.206535940398819e+01
 1.673277130734878e+00	 1.244422144517355e+00	 1.249847263672721e+01
 1.661129126855909e+00	 1.260592221973893e+00	 1.246761623067932e+01
 1.648816679063320e+00	 1.276654303284669e+00	 1.243359434960152e+01
 1.636341228877267e+00	 1.292605892059475e+00	 1.239653379559398e+01
 1.623704267694428e+00	 1.308444517162163e+00	 1.235652634338453e+01
 1.610907336228940e+00	 1.324167733956537e+00	 1.231362672600949e+01
 1.597952023916344e+00	 1.339773125537655e+00	 1.226785060729892e+01
 1.584839968281008e+00	 1.355258303947252e+00	 1.221917255493729e+01
 1.571572854267518e+00	 1.370620911372030e+00	 1.216752402878327e+01
 1.558152413536601e+00	 1.385858621323542e+00	 1.211279139996462e+01
 1.544580423726169e+00	 1.400969139798472e+00	 1.205481401701291e+01
 1.680358097055581e+00	 1.249688284317622e+00	 1.248234911307952e+01
 1.668158685310495e+00	 1.265926790232248e+00	 1.245233948117118e+01
 1.655794133758834e+00	 1.282056842983528e+00	 1.241904390920632e+01
 1.643265890020974e+00	 1.298075935617038e+00	 1.238261141769879e+01
 1.630575451804882e+00	 1.313981586539283e+00	 1.234315612673387e+01
 1.617724366344679e+00	 1.329771340768862e+00	 1.230075514785750e+01
 1.604714229802077e+00	 1.345442771172981e+00	 1.225544645872361e+01
 1.591546686631111e+00	 1.360993479688022e+00	 1.220722677465732e+01
 1.578223428906711e+00	 1.376421098522895e+00	 1.215604943224241e+01
 1.564746195617638e+00	 1.391723291343930e+00	 1.210182230091154e+01
 1.551116771924405e+00	 1.406897754440051e+00	 1.204440573930118e+01
 1.687439063376218e+00	 1.254954424117722e+00	 1.246604758864256e+01
 1.675188243764978e+00	 1.271261358490446e+00	 1.243687217329629e+01
 1.662771588454217e+00	 1.287459382682243e+00	 1.240432482154248e+01
 1.650190551164529e+00	 1.303545979174471e+00	 1.236856732573878e+01
 1.637446635915166e+00	 1.319518655916285e+00	 1.232972686830176e+01
 1.624541396460240e+00	 1.335374947581082e+00	 1.228789383150670e+01
 1.611476435687626e+00	 1.351112416808215e+00	 1.224311958566261e+01
 1.598253404981029e+00	 1.366728655428708e+00	 1.219541427019261e+01
 1.584874003545722e+00	 1.382221285673687e+00	 1.214474458313640e+01
 1.571339977698499e+00	 1.397587961364249e+00	 1.209103159550413e+01
 1.557653120122475e+00	 1.412826369081563e+00	 1.203414860772894e+01
 1.694520029696938e+00	 1.260220563917822e+00	 1.244975363618901e+01
 1.682217802219523e+00	 1.276595926748645e+00	 1.242137170876615e+01
 1.669749043149644e+00	 1.292861922380958e+00	 1.238956841717369e+01
 1.657115212308113e+00	 1.309016022731904e+00	 1.235450898457986e+01
 1.644317820025469e+00	 1.325055725293288e+00	 1.231632447736385e+01
 1.631358426575810e+00	 1.340978554393303e+00	 1.227510954442760e+01
 1.618238641573180e+00	 1.356782062443449e+00	 1.223092013016269e+01
 1.604960123330950e+00	 1.372463831169396e+00	 1.218377117595621e+01
 1.591524578184734e+00	 1.388021472824479e+00	 1.213363432614909e+01
 1.577933759779361e+00	 1.403452631384569e+00	 1.208043565531229e+01
 1.564189468320544e+00	 1.418754983723077e+00	 1.202405343456212e+01
 1.701600996017893e+00	 1.265486703718089e+00	 1.243364662397910e+01
 1.689247360674293e+00	 1.281930495006999e+00	 1.240598975958669e+01
 1.676726497845287e+00	 1.298264462079817e+00	 1.237490073776886e+01
 1.664039873451907e+00	 1.314486066289466e+00	 1.234053897521166e+01
 1.651189004135976e+00	 1.330592794670409e+00	 1.230303034678597e+01
 1.638175456691582e+00	 1.346582161205628e+00	 1.226246486587456e+01
 1.625000847458929e+00	 1.362451708078776e+00	 1.221889433329322e+01
 1.611666841681061e+00	 1.378199006910165e+00	 1.217232997002668e+01
 1.598175152823929e+00	 1.393821659975345e+00	 1.212274005007735e+01
 1.584527541860397e+00	 1.409317301404957e+00	 1.207004755071402e+01
 1.570725816518780e+00	 1.424683598364656e+00	 1.201412783830590e+01
 1.708681962339231e+00	 1.270752843518689e+00	 1.241789981029399e+01
 1.696276919129450e+00	 1.287265063265666e+00	 1.239087235316149e+01
 1.683703952541321e+00	 1.303667001778964e+00	 1.236044261238146e+01
 1.670964534596094e+00	 1.319956109847291e+00	 1.232675506284612e+01
 1.658060188246877e+00	 1.336129864047763e+00	 1.228992141362190e+01
 1.644992486807742e+00	 1.352185768018162e+00	 1.225001824069805e+01
 1.631763053345063e+00	 1.368121353714287e+00	 1.220708458292337e+01
 1.618373560031548e+00	 1.383934182651099e+00	 1.216111951667570e+01
 1.604825727463490e+00	 1.399621847126358e+00	 1.211207972592930e+01
 1.591121323941786e+00	 1.415181971425482e+00	 1.205987708541961e+01
 1.577262164717349e+00	 1.430612213006369e+00	 1.200437627554170e+01
 1.715762928661102e+00	 1.276018983319791e+00	 1.240268043737632e+01
 1.703306477585158e+00	 1.292599631524800e+00	 1.237615995704250e+01
 1.690681407237921e+00	 1.309069541478542e+00	 1.234630973360095e+01
 1.677889195740855e+00	 1.325426153405507e+00	 1.231325026509562e+01
 1.664931372358356e+00	 1.341666933425470e+00	 1.227707021997898e+01
 1.651809516924482e+00	 1.357789374831009e+00	 1.223782403359286e+01
 1.638525259231771e+00	 1.373790999350076e+00	 1.219552946208406e+01
 1.625080278382599e+00	 1.389669358392279e+00	 1.215016510960823e+01
 1.611476302103599e+00	 1.405422034277594e+00	 1.210166794584122e+01
 1.597715106023702e+00	 1.421046641446214e+00	 1.204993083189609e+01
 1.583798512916420e+00	 1.436540827648282e+00	 1.199480007372437e+01
 1.722843894983654e+00	 1.281285123121560e+00	 1.238814982479460e+01
 1.710336036041581e+00	 1.297934199784559e+00	 1.236198756333877e+01
 1.697658861935259e+00	 1.314472081178694e+00	 1.233261273358018e+01
 1.684813856886373e+00	 1.330896196964246e+00	 1.230011292022731e+01
 1.671802556470602e+00	 1.347204002803646e+00	 1.226454497414242e+01
 1.658626547041991e+00	 1.363392981644274e+00	 1.222593258377012e+01
 1.645287465119243e+00	 1.379460644986235e+00	 1.218426379789786e+01
 1.631786996734402e+00	 1.395404534133789e+00	 1.213948851589463e+01
 1.618126876744440e+00	 1.411222221429127e+00	 1.209151596278824e+01
 1.604308888106322e+00	 1.426911311467221e+00	 1.204021216766660e+01
 1.590334861116157e+00	 1.442469442290463e+00	 1.198539746491143e+01
 1.524971379128793e+00	 1.383183295872664e+00	 1.208678905724099e+01
 1.511426176825844e+00	 1.397971672900867e+00	 1.202529380202512e+01
 1.497735017846702e+00	 1.412630112807195e+00	 1.196391624258359e+01
 1.483899763637098e+00	 1.427156478805014e+00	 1.190223186024394e+01
 1.469922317758837e+00	 1.441548670520337e+00	 1.183977645336818e+01
 1.455804625010844e+00	 1.455804625010844e+00	 1.177604503065916e+01
 1.441548670520337e+00	 1.469922317758837e+00	 1.171049083493786e+01
 1.427156478805014e+00	 1.483899763637098e+00	 1.164252451377695e+01
 1.412630112807194e+00	 1.497735017846702e+00	 1.157151345319395e+01
 1.397971672900867e+00	 1.511426176825845e+00	 1.149678129029582e+01
 1.383183295872664e+00	 1.524971379128793e+00	 1.141760762033290e+01
 1.531507727328530e+00	 1.389111910514845e+00	 1.207602460891071e+01
 1.517904467438496e+00	 1.403963673638498e+00	 1.201540170862833e+01
 1.504154625271265e+00	 1.418684942702428e+00	 1.195516055741481e+01
 1.490260070251113e+00	 1.433273571761289e+00	 1.189479324892728e+01
 1.476222714098909e+00	 1.447727451438451e+00	 1.183374873077324e+01
 1.462044509949393e+00	 1.462044509949392e+00	 1.177143173803888e+01
 1.447727451438451e+00	 1.476222714098909e+00	 1.170720186225408e+01
 1.433273571761289e+00	 1.490260070251114e+00	 1.164037277254718e+01
 1.418684942702428e+00	 1.504154625271265e+00	 1.157021160555930e+01
 1.403963673638497e+00	 1.517904467438496e+00	 1.149593854037438e+01
 1.389111910514845e+00	 1.531507727328529e+00	 1.141672657428097e+01
 1.538044075527599e+00	 1.395040525156758e+00	 1.206535940398819e+01
 1.524382758050524e+00	 1.409955674375853e+00	 1.200553913527603e+01
 1.510574232695254e+00	 1.424739772597365e+00	 1.194630472984448e+01
 1.496620376864607e+00	 1.439390664717236e+00	 1.188707923760328e+01
 1.482523110438513e+00	 1.453906232356196e+00	 1.182723953093091e+01
 1.468284394887525e+00	 1.468284394887524e+00	 1.176611525625346e+01
 1.453906232356197e+00	 1.482523110438513e+00	 1.170298792536871e+01
 1.439390664717236e+00	 1.496620376864607e+00	 1.163709016368034e+01
 1.424739772597364e+00	 1.510574232695254e+00	 1.156760513232962e+01
 1.409955674375853e+00	 1.524382758050525e+00	 1.149366614089583e+01
 1.395040525156758e+00	 1.538044075527600e+00	 1.141435646689128e+01
 1.544580423726169e+00	 1.400969139798472e+00	 1.205481401701290e+01
 1.530861048662085e+00	 1.415947675113002e+00	 1.199572503865760e+01
 1.516993840118813e+00	 1.430794602492080e+00	 1.193737141121884e+01
 1.502980683477710e+00	 1.445507757672938e+00	 1.187912130385635e+01
 1.488823506777766e+00	 1.460085013273664e+00	 1.182029410460559e+01
 1.474524279825343e+00	 1.474524279825343e+00	 1.176015936794063e+01
 1.460085013273664e+00	 1.488823506777766e+00	 1.169793590573128e+01
 1.445507757672938e+00	 1.502980683477709e+00	 1.163279103922293e+01
 1.430794602492080e+00	 1.516993840118813e+00	 1.156384002949050e+01
 1.415947675113002e+00	 1.530861048662086e+00	 1.149014570350455e+01
 1.400969139798471e+00	 1.544580423726169e+00	 1.141071829249764e+01
 1.551116771924405e+00	 1.406897754440051e+00	 1.204440573930117e+01
 1.537339339273335e+00	 1.421939675850015e+00	 1.198597513758677e+01
 1.523413447542084e+00	 1.436849432386648e+00	 1.192837997257836e+01
 1.509340990090551e+00	 1.451624850628474e+00	 1.187094751795280e+01
 1.495123903116784e+00	 1.466263794190947e+00	 1.181295408692181e+01
 1.480764164762955e+00	 1.480764164762955e+00	 1.175362395381013e+01
 1.466263794190948e+00	 1.495123903116784e+00	 1.169212842202345e+01
 1.451624850628474e+00	 1.509340990090551e+00	 1.162758505654198e+01
 1.436849432386648e+00	 1.523413447542084e+00	 1.155905709890715e+01
 1.421939675850014e+00	 1.537339339273335e+00	 1.148555308235602e+01
 1.406897754440051e+00	 1.551116771924405e+00	 1.140602666430714e+01
 1.557653120122475e+00	 1.412826369081563e+00	 1.203414860772893e+01
 1.543817629884428e+00	 1.427931676586959e+00	 1.197630194030385e+01
 1.529833054965211e+00	 1.442904262281142e+00	 1.191934653223901e+01
 1.515701296703261e+00	 1.457741943583929e+00	 1.186258257239823e+01
 1.501424299455686e+00	 1.472442575108139e+00	 1.180525753052791e+01
 1.487004049700462e+00	 1.487004049700461e+00	 1.174656503098024e+01
 1.472442575108139e+00	 1.501424299455685e+00	 1.168564387516613e+01
 1.457741943583929e+00	 1.515701296703262e+00	 1.162157723143227e+01
 1.442904262281142e+00	 1.529833054965211e+00	 1.155339201089218e+01
 1.427931676586958e+00	 1.543817629884429e+00	 1.148005844743627e+01
 1.412826369081564e+00	 1.557653120122475e+00	 1.140048989968918e+01
 1.564189468320544e+00	 1.418754983723077e+00	 1.202405343456212e+01
 1.550295920495522e+00	 1.433923677323902e+00	 1.196671477285394e+01
 1.536252662388339e+00	 1.448959092175636e+00	 1.191028398443284e+01
 1.522061603315973e+00	 1.463859036539385e+00	 1.185404781249180e+01
 1.507724695794586e+00	 1.478621356025330e+00	 1.179723893965378e+01
 1.493243934637968e+00	 1.493243934637968e+00	 1.173903479206246e+01
 1.478621356025330e+00	 1.507724695794586e+00	 1.167855649389068e+01
 1.463859036539384e+00	 1.522061603315973e+00	 1.161486799156652e+01
 1.448959092175635e+00	 1.536252662388339e+00	 1.154697536686043e+01
 1.433923677323901e+00	 1.550295920495522e+00	 1.147382635767645e+01
 1.418754983723076e+00	 1.564189468320544e+00	 1.139431010493814e+01
 1.570725816518780e+00	 1.424683598364656e+00	 1.201412783830590e+01
 1.556774211106772e+00	 1.439915678060915e+00	 1.195721980851104e+01
 1.542672269811611e+00	 1.455013922070203e+00	 1.190120202897627e+01
 1.528421909928814e+00	 1.469976129494921e+00	 1.184536126784872e+01
 1.514025092133605e+00	 1.484800136942613e+00	 1.178892930503497e+01
 1.499483819575579e+00	 1.499483819575579e+00	 1.173108164497270e+01
 1.484800136942613e+00	 1.514025092133605e+00	 1.167093638085799e+01
 1.469976129494921e+00	 1.528421909928815e+00	 1.160755323027916e+01
 1.455013922070203e+00	 1.542672269811610e+00	 1.153993276206668e+01
 1.439915678060914e+00	 1.556774211106772e+00	 1.146701583387010e+01
 1.424683598364656e+00	 1.570725816518780e+00	 1.138768325952533e+01
 1.577262164717349e+00	 1.430612213006369e+00	 1.200437627554170e+01
 1.563252501718332e+00	 1.445907678798064e+00	 1.194782009821653e+01
 1.549091877235168e+00	 1.461068751964919e+00	 1.189210720193711e+01
 1.534782216541917e+00	 1.476093222450622e+00	 1.183653768486300e+01
 1.520325488472857e+00	 1.490978917860081e+00	 1.178035613967873e+01
 1.505723704513398e+00	 1.505723704513398e+00	 1.172275025344762e+01
 1.490978917860081e+00	 1.520325488472857e+00	 1.166284955930924e+01
 1.476093222450622e+00	 1.534782216541917e+00	 1.159972436067249e+01
 1.461068751964918e+00	 1.549091877235169e+00	 1.153238484842581e+01
 1.445907678798064e+00	 1.563252501718333e+00	 1.145978043139756e+01
 1.430612213006369e+00	 1.577262164717350e+00	 1.138079929985473e+01
 1.583798512916420e+00	 1.436540827648282e+00	 1.199480007372437e+01
 1.569730792330361e+00	 1.451899679535419e+00	 1.193851560200334e+01
 1.555511484659158e+00	 1.467123581859856e+00	 1.188300290727031e+01
 1.541142523155410e+00	 1.482210315406569e+00	 1.182758856008275e+01
 1.526625884812461e+00	 1.497157698777827e+00	 1.177154351544788e+01
 1.511963589451530e+00	 1.511963589451530e+00	 1.171408157824549e+01
 1.497157698777826e+00	 1.526625884812461e+00	 1.165435802023339e+01
 1.482210315406569e+00	 1.541142523155411e+00	 1.159146837003768e+01
 1.467123581859856e+00	 1.555511484659158e+00	 1.152444739741074e+01
 1.451899679535419e+00	 1.569730792330361e+00	 1.145226831276366e+01
 1.436540827648282e+00	 1.583798512916420e+00	 1.137384220253700e+01
 1.590334861116157e+00	 1.442469442290463e+00	 1.198539746491143e+01
 1.576209082943013e+00	 1.457891680273050e+00	 1.192930322137754e+01
 1.561931092083721e+00	 1.473178411755090e+00	 1.187388944939610e+01
 1.547502829769426e+00	 1.488327408362844e+00	 1.181852217447250e+01
 1.532926281152534e+00	 1.503336479695941e+00	 1.176251210043872e+01
 1.518203474390078e+00	 1.518203474390078e+00	 1.170511291901306e+01
 1.503336479695941e+00	 1.532926281152534e+00	 1.164551977003619e+01
 1.488327408362844e+00	 1.547502829769426e+00	 1.158286787458019e+01
 1.473178411755089e+00	 1.561931092083721e+00	 1.151623136302838e+01
 1.457891680273049e+00	 1.576209082943013e+00	 1.144462231995423e+01
 1.442469442290463e+00	 1.590334861116157e+00	 1.136699006719538e+01
 1.383183295872664e+00	 1.524971379128793e+00	 1.141760762033290e+01
 1.368264611261278e+00	 1.538371067290679e+00	 1.133509946050902e+01
 1.353220349918248e+00	 1.551621130347021e+00	 1.125081429205306e+01
 1.338052776723630e+00	 1.564719813227714e+00	 1.116461705437368e+01
 1.322764188630196e+00	 1.577665406256143e+00	 1.107635154611010e+01
 1.307356913517892e+00	 1.590456245878752e+00	 1.098584020720699e+01
 1.291833309028926e+00	 1.603090715360185e+00	 1.089288414781669e+01
 1.276195761384695e+00	 1.615567245443407e+00	 1.079726343501620e+01
 1.260446684185792e+00	 1.627884314974253e+00	 1.069873764696698e+01
 1.244588517196333e+00	 1.640040451489909e+00	 1.059704670269242e+01
 1.228623725113884e+00	 1.652034231770882e+00	 1.049191197409964e+01
 1.389111910514845e+00	 1.531507727328529e+00	 1.141672657428097e+01
 1.374129281282285e+00	 1.544964849373297e+00	 1.133378005859234e+01
 1.359020537069781e+00	 1.558271704987856e+00	 1.124890444175412e+01
 1.343787952465139e+00	 1.571426531579496e+00	 1.116208480419402e+01
 1.328433834266355e+00	 1.584427612143567e+00	 1.107328923228794e+01
 1.312960520331156e+00	 1.597273275996165e+00	 1.098246834214874e+01
 1.297370378407103e+00	 1.609961899472267e+00	 1.088955505013890e+01
 1.281665804943435e+00	 1.622491906588665e+00	 1.079446460196812e+01
 1.265849223885945e+00	 1.634861769671203e+00	 1.069709487086111e+01
 1.249923085456091e+00	 1.647070009945780e+00	 1.059732693379991e+01
 1.233889864915654e+00	 1.659115198092679e+00	 1.049502593327317e+01
 1.395040525156758e+00	 1.538044075527600e+00	 1.141435646689128e+01
 1.379993951303018e+00	 1.551558631455213e+00	 1.133102663674391e+01
 1.364820724221017e+00	 1.564922279627959e+00	 1.124574640958550e+01
 1.349523128206319e+00	 1.578133249930531e+00	 1.115858840486917e+01
 1.334103479902144e+00	 1.591189818030237e+00	 1.106961119807610e+01
 1.318564127144004e+00	 1.604090306112832e+00	 1.097885863384396e+01
 1.302907447784809e+00	 1.616833083583618e+00	 1.088635938722767e+01
 1.287135848501651e+00	 1.629416567733224e+00	 1.079212678575635e+01
 1.271251763585522e+00	 1.641839224367500e+00	 1.069615890354817e+01
 1.255257653715227e+00	 1.654099568401058e+00	 1.059843893724222e+01
 1.239156004716755e+00	 1.666196164413961e+00	 1.049893587190022e+01
 1.400969139798471e+00	 1.544580423726169e+00	 1.141071829249764e+01
 1.385858621323543e+00	 1.558152413536601e+00	 1.132709431361025e+01
 1.370620911372031e+00	 1.571572854267517e+00	 1.124161555346922e+01
 1.355258303947253e+00	 1.584839968281007e+00	 1.115440998807225e+01
 1.339773125537656e+00	 1.597952023916344e+00	 1.106559331229568e+01
 1.324167733956538e+00	 1.610907336228940e+00	 1.097526808957800e+01
 1.308444517162163e+00	 1.623704267694428e+00	 1.088352315264954e+01
 1.292605892059476e+00	 1.636341228877266e+00	 1.079043326869901e+01
 1.276654303284669e+00	 1.648816679063319e+00	 1.069605908094317e+01
 1.260592221973893e+00	 1.661129126855908e+00	 1.060044733703247e+01
 1.244422144517355e+00	 1.673277130734878e+00	 1.050363141308721e+01
 1.406897754440051e+00	 1.551116771924405e+00	 1.140602666430714e+01
 1.391723291343931e+00	 1.564746195617638e+00	 1.132223129515137e+01
 1.376421098522896e+00	 1.578223428906710e+00	 1.123678002477346e+01
 1.360993479688022e+00	 1.591546686631110e+00	 1.114982441588410e+01
 1.345442771172981e+00	 1.604714229802077e+00	 1.106150433494150e+01
 1.329771340768863e+00	 1.617724366344680e+00	 1.097194698520036e+01
 1.313981586539284e+00	 1.630575451804881e+00	 1.088126619521704e+01
 1.298075935617039e+00	 1.643265890020974e+00	 1.078956197685504e+01
 1.282056842983527e+00	 1.655794133758833e+00	 1.069692036539031e+01
 1.265926790232248e+00	 1.668158685310494e+00	 1.060341355274059e+01
 1.249688284317622e+00	 1.680358097055581e+00	 1.050910032318156e+01
 1.412826369081564e+00	 1.557653120122475e+00	 1.140048989968918e+01
 1.397587961364249e+00	 1.571339977698499e+00	 1.131667896992835e+01
 1.382221285673688e+00	 1.584874003545722e+00	 1.123150086857646e+01
 1.366728655428709e+00	 1.598253404981029e+00	 1.114509938116283e+01
 1.351112416808216e+00	 1.611476435687625e+00	 1.105760601294085e+01
 1.335374947581083e+00	 1.624541396460239e+00	 1.096913895171215e+01
 1.319518655916286e+00	 1.637446635915165e+00	 1.087980229200411e+01
 1.303545979174471e+00	 1.650190551164529e+00	 1.078968553523122e+01
 1.287459382682243e+00	 1.662771588454217e+00	 1.069886337899082e+01
 1.271261358490447e+00	 1.675188243764978e+00	 1.060739580704239e+01
 1.254954424117723e+00	 1.687439063376218e+00	 1.051532848981134e+01
 1.418754983723076e+00	 1.564189468320544e+00	 1.139431010493814e+01
 1.403452631384569e+00	 1.577933759779360e+00	 1.131067200358954e+01
 1.388021472824480e+00	 1.591524578184733e+00	 1.122603212298067e+01
 1.372463831169396e+00	 1.604960123330949e+00	 1.114049550693651e+01
 1.356782062443449e+00	 1.618238641573180e+00	 1.105415317502372e+01
 1.340978554393303e+00	 1.631358426575810e+00	 1.096708106116565e+01
 1.325055725293289e+00	 1.644317820025468e+00	 1.087933922098620e+01
 1.309016022731904e+00	 1.657115212308112e+00	 1.079097132303061e+01
 1.292861922380959e+00	 1.669749043149643e+00	 1.070200443749236e+01
 1.276595926748645e+00	 1.682217802219523e+00	 1.061244913444282e+01
 1.260220563917822e+00	 1.694520029696938e+00	 1.052229990180848e+01
 1.424683598364656e+00	 1.570725816518780e+00	 1.138768325952533e+01
 1.409317301404957e+00	 1.584527541860397e+00	 1.130443843258095e+01
 1.393821659975345e+00	 1.598175152823928e+00	 1.122062091750593e+01
 1.378199006910166e+00	 1.611666841681060e+00	 1.113626644484546e+01
 1.362451708078776e+00	 1.625000847458929e+00	 1.105139382572919e+01
 1.346582161205629e+00	 1.638175456691581e+00	 1.096600391189890e+01
 1.330592794670409e+00	 1.651189004135976e+00	 1.088007883331692e+01
 1.314486066289467e+00	 1.664039873451907e+00	 1.079358152894260e+01
 1.298264462079818e+00	 1.676726497845286e+00	 1.070645558471993e+01
 1.281930495007000e+00	 1.689247360674292e+00	 1.061862539114137e+01
 1.265486703718089e+00	 1.701600996017893e+00	 1.052999663095972e+01
 1.430612213006369e+00	 1.577262164717350e+00	 1.138079929985473e+01
 1.415181971425483e+00	 1.591121323941786e+00	 1.129819975710110e+01
 1.399621847126359e+00	 1.604825727463489e+00	 1.121550757058628e+01
 1.383934182651099e+00	 1.618373560031547e+00	 1.113265897266401e+01
 1.368121353714287e+00	 1.631763053345062e+00	 1.104956923857398e+01
 1.352185768018162e+00	 1.644992486807741e+00	 1.096613171312163e+01
 1.336129864047763e+00	 1.658060188246876e+00	 1.088221712524997e+01
 1.319956109847291e+00	 1.670964534596094e+00	 1.079767320647142e+01
 1.303667001778964e+00	 1.683703952541321e+00	 1.071232462753688e+01
 1.287265063265667e+00	 1.696276919129449e+00	 1.062597326600478e+01
 1.270752843518689e+00	 1.708681962339230e+00	 1.053839881553379e+01
 1.436540827648282e+00	 1.583798512916420e+00	 1.137384220253700e+01
 1.421046641446214e+00	 1.597715106023701e+00	 1.129217103332438e+01
 1.405422034277595e+00	 1.611476302103599e+00	 1.121092568619833e+01
 1.389669358392280e+00	 1.625080278382598e+00	 1.112991309092512e+01
 1.373790999350076e+00	 1.638525259231769e+00	 1.104891404840798e+01
 1.357789374831010e+00	 1.651809516924482e+00	 1.096768236887287e+01
 1.341666933425470e+00	 1.664931372358356e+00	 1.088594430971859e+01
 1.325426153405508e+00	 1.677889195740855e+00	 1.080339832930385e+01
 1.309069541478542e+00	 1.690681407237920e+00	 1.071971517131710e+01
 1.292599631524802e+00	 1.703306477585158e+00	 1.063453829261555e+01
 1.276018983319791e+00	 1.715762928661101e+00	 1.054748464553245e+01
 1.442469442290463e+00	 1.590334861116157e+00	 1.136699006719538e+01
 1.426911311467222e+00	 1.604308888106321e+00	 1.128656096491171e+01
 1.411222221429127e+00	 1.618126876744440e+00	 1.120710224964503e+01
 1.395404534133789e+00	 1.631786996734401e+00	 1.112826211867805e+01
 1.379460644986235e+00	 1.645287465119242e+00	 1.104965634297813e+01
 1.363392981644275e+00	 1.658626547041991e+00	 1.097086756136812e+01
 1.347204002803646e+00	 1.671802556470602e+00	 1.089144488758137e+01
 1.330896196964247e+00	 1.684813856886373e+00	 1.081090384671358e+01
 1.314472081178695e+00	 1.697658861935258e+00	 1.072872665591607e+01
 1.297934199784560e+00	 1.710336036041580e+00	 1.064436286236620e+01
 1.281285123121559e+00	 1.722843894983654e+00	 1.055723034961567e+01
 1.228623725113884e+00	 1.652034231770882e+00	 1.049191197409964e+01
 1.212557534941026e+00	 1.663862286580313e+00	 1.038882913223947e+01
 1.196389743961696e+00	 1.675525351519081e+00	 1.029222782663482e+01
 1.180122873882741e+00	 1.687022161360984e+00	 1.020023591016643e+01
 1.163759466353039e+00	 1.698351501880926e+00	 1.011032984505103e+01
 1.147302081686166e+00	 1.709512210216838e+00	 1.001900656868632e+01
 1.130753297576374e+00	 1.720503175193551e+00	 9.923907627582338e+00
 1.114115707809168e+00	 1.731323337608557e+00	 9.822796130410369e+00
 1.097391920967814e+00	 1.741971690479595e+00	 9.713539820772015e+00
 1.080584559137054e+00	 1.752447279254095e+00	 9.594138678142494e+00
 1.063696256605328e+00	 1.762749201980530e+00	 9.462751048268203e+00
 1.233889864915654e+00	 1.659115198092679e+00	 1.049502593327317e+01
 1.217754811671241e+00	 1.670993950433781e+00	 1.039548357167593e+01
 1.201517722137913e+00	 1.682707005722907e+00	 1.030256081150437e+01
 1.185181128831082e+00	 1.694253093310836e+00	 1.021397287450698e+01
 1.168747584293673e+00	 1.705630993768050e+00	 1.012717263716949e+01
 1.152219659813305e+00	 1.716839539248212e+00	 1.003824318910177e+01
 1.135599944132772e+00	 1.727877613813429e+00	 9.944177845518240e+00
 1.118891042155095e+00	 1.738744153721230e+00	 9.842280269037618e+00
 1.102095573644476e+00	 1.749438147673221e+00	 9.729955083104832e+00
 1.085216171924467e+00	 1.759958637025421e+00	 9.604736952476062e+00
 1.068255482574626e+00	 1.770304715960357e+00	 9.468378966295518e+00
 1.239156004716755e+00	 1.666196164413961e+00	 1.049893587190022e+01
 1.222952088400753e+00	 1.678125614286827e+00	 1.040262186215362e+01
 1.206645700313399e+00	 1.689888659926420e+00	 1.031273042750455e+01
 1.190239383778677e+00	 1.701484025260491e+00	 1.022661003693160e+01
 1.173735702233552e+00	 1.712910485655100e+00	 1.014151819877381e+01
 1.157137237939694e+00	 1.724166868279638e+00	 1.005349892088230e+01
 1.140446590688438e+00	 1.735252052433483e+00	 9.958835709922162e+00
 1.123666376500318e+00	 1.746164969834201e+00	 9.854422423774027e+00
 1.106799226320477e+00	 1.756904604867258e+00	 9.737251527979030e+00
 1.089847784711278e+00	 1.767469994797263e+00	 9.605385888211043e+00
 1.072814708543394e+00	 1.777860229940787e+00	 9.475460106715845e+00
 1.244422144517355e+00	 1.673277130734878e+00	 1.050363141308721e+01
 1.228149365129738e+00	 1.685257278139586e+00	 1.041016378026196e+01
 1.211773678488339e+00	 1.697070314129733e+00	 1.032260644119321e+01
 1.195297638725710e+00	 1.708714957210041e+00	 1.023798636044023e+01
 1.178723820172866e+00	 1.720189977542146e+00	 1.015325429612236e+01
 1.162054816065520e+00	 1.731494197311164e+00	 1.006465774791925e+01
 1.145293237243554e+00	 1.742626491053740e+00	 9.967792333374872e+00
 1.128441710845014e+00	 1.753585785947470e+00	 9.859177048364963e+00
 1.111502878995984e+00	 1.764371062061683e+00	 9.735442390211286e+00
 1.094479397497636e+00	 1.774981352569573e+00	 9.606211558338535e+00
 1.077373934511765e+00	 1.785415743921752e+00	 9.484201955653900e+00
 1.249688284317622e+00	 1.680358097055581e+00	 1.050910032318156e+01
 1.233346641858371e+00	 1.692388941992189e+00	 1.041802851187680e+01
 1.216901656662912e+00	 1.704251968332960e+00	 1.033205896547163e+01
 1.200355893672370e+00	 1.715945889159581e+00	 1.024794177315949e+01
 1.183711938111802e+00	 1.727469469429259e+00	 1.016234310732296e+01
 1.166972394190973e+00	 1.738821526342836e+00	 1.007160189007137e+01
 1.150139883798304e+00	 1.750000929674219e+00	 9.970957313621655e+00
 1.133217045189358e+00	 1.761006602061036e+00	 9.856497056586727e+00
 1.116206531671160e+00	 1.771837519256473e+00	 9.730416955318450e+00
 1.099111010283693e+00	 1.782492710342304e+00	 9.609642792530586e+00
 1.081933160479871e+00	 1.792971257903185e+00	 9.494310312492422e+00
 1.254954424117723e+00	 1.687439063376218e+00	 1.051532848981135e+01
 1.238543918586828e+00	 1.699520605844772e+00	 1.042613460242808e+01
 1.222029634837303e+00	 1.711433622536215e+00	 1.034095838901265e+01
 1.205414148618842e+00	 1.723176821109202e+00	 1.025631708364630e+01
 1.188700056050550e+00	 1.734748961316512e+00	 1.016863771461241e+01
 1.171889972316237e+00	 1.746148855374703e+00	 1.007421140250625e+01
 1.154986530352870e+00	 1.757375368294946e+00	 9.968238346431606e+00
 1.137992379533525e+00	 1.768427418174900e+00	 9.847849016845981e+00
 1.120910184346171e+00	 1.779303976451603e+00	 9.728889257475497e+00
 1.103742623069600e+00	 1.790004068115411e+00	 9.615301894689075e+00
 1.086492386447844e+00	 1.800526771885019e+00	 9.505490591516267e+00
 1.260220563917822e+00	 1.694520029696938e+00	 1.052229990180848e+01
 1.243741195315285e+00	 1.706652269697467e+00	 1.043439990971458e+01
 1.227157613011695e+00	 1.718615276739613e+00	 1.034917530872485e+01
 1.210472403565315e+00	 1.730407753059001e+00	 1.026295389954695e+01
 1.193688173989298e+00	 1.742028453203972e+00	 1.017196839688117e+01
 1.176807550441501e+00	 1.753476184406809e+00	 1.007236398458088e+01
 1.159833176907436e+00	 1.764749806915944e+00	 9.959541041387965e+00
 1.142767713877693e+00	 1.775848234289059e+00	 9.842053637017367e+00
 1.125613837021182e+00	 1.786770433647050e+00	 9.730427611340918e+00
 1.108374235855506e+00	 1.797515425888847e+00	 9.622812210065751e+00
 1.091051612415817e+00	 1.808082285867185e+00	 9.517447894628646e+00
 1.265486703718089e+00	 1.701600996017893e+00	 1.052999663095972e+01
 1.248938472043919e+00	 1.713783933550405e+00	 1.044274155919123e+01
 1.232285591186269e+00	 1.725796930943267e+00	 1.035658046516557e+01
 1.215530658511975e+00	 1.737638685009066e+00	 1.026769454951661e+01
 1.198676291928235e+00	 1.749307945091711e+00	 1.017216644302209e+01
 1.181725128566953e+00	 1.760803513439203e+00	 1.006598799397801e+01
 1.164679823462185e+00	 1.772124245537235e+00	 9.950387058570289e+00
 1.147543048222037e+00	 1.783269050403514e+00	 9.840131331008967e+00
 1.130317489696358e+00	 1.794236890842786e+00	 9.734589419535371e+00
 1.113005848641563e+00	 1.805026783662565e+00	 9.631798176995396e+00
 1.095610838383923e+00	 1.815637799849618e+00	 9.529887085389202e+00
 1.270752843518689e+00	 1.708681962339230e+00	 1.053839881553378e+01
 1.254135748772903e+00	 1.720915597403722e+00	 1.045107590165835e+01
 1.237413569361207e+00	 1.732978585147291e+00	 1.036304468081655e+01
 1.220588913459008e+00	 1.744869616959493e+00	 1.027038200830311e+01
 1.203664409867549e+00	 1.756587436979800e+00	 1.016906406983892e+01
 1.186642706692780e+00	 1.768130842471933e+00	 1.005610435012177e+01
 1.169526470017301e+00	 1.779498684158842e+00	 9.945876098175328e+00
 1.152318382566733e+00	 1.790689866518262e+00	 9.841589577223360e+00
 1.135021142371864e+00	 1.801703348038791e+00	 9.740934318450284e+00
 1.117637461427922e+00	 1.812538141436519e+00	 9.641885380569246e+00
 1.100170064352294e+00	 1.823193313832249e+00	 9.542512864336738e+00
 1.276018983319791e+00	 1.715762928661101e+00	 1.054748464553245e+01
 1.259333025502415e+00	 1.728047261257548e+00	 1.045931847328213e+01
 1.242541547536694e+00	 1.740160239351801e+00	 1.036843880113893e+01
 1.225647168406602e+00	 1.752100548910374e+00	 1.027085982490555e+01
 1.208652527807429e+00	 1.763866928868309e+00	 1.016249434317282e+01
 1.191560284819169e+00	 1.775458171505045e+00	 1.005015091265843e+01
 1.174373116572967e+00	 1.786873122780790e+00	 9.945481601058377e+00
 1.157093716911956e+00	 1.798110682633304e+00	 9.845938968018919e+00
 1.139724795047866e+00	 1.809169805235040e+00	 9.749024217367660e+00
 1.122269074214732e+00	 1.820049499210662e+00	 9.652700608195579e+00
 1.104729290321062e+00	 1.830748827815010e+00	 9.555029845558913e+00
 1.281285123121559e+00	 1.722843894983654e+00	 1.055723034961567e+01
 1.264530302232631e+00	 1.735178925112020e+00	 1.046738395788024e+01
 1.247669525712911e+00	 1.747341893556909e+00	 1.037263363832932e+01
 1.230705423354944e+00	 1.759331480861804e+00	 1.026897205371656e+01
 1.213640645748062e+00	 1.771146420757310e+00	 1.015600399261146e+01
 1.196477862946308e+00	 1.782785500538586e+00	 1.004904489885025e+01
 1.179219763129366e+00	 1.794247561403101e+00	 9.948691947951426e+00
 1.161869051257883e+00	 1.805531498748640e+00	 9.852693239902070e+00
 1.144428447724528e+00	 1.816636262431509e+00	 9.758423339918306e+00
 1.126900687002146e+00	 1.827560856984948e+00	 9.663871906990082e+00
 1.109288516290361e+00	 1.838304341797836e+00	 9.567142634472969e+00
 1.063696256605328e+00	 1.762749201980530e+00	 9.462751048268203e+00
 1.046729658898207e+00	 1.772876609869357e+00	 9.325008697588466e+00
 1.029687422454353e+00	 1.782828708677572e+00	 9.195718482354533e+00
 1.012572212298925e+00	 1.792604757493784e+00	 9.074092297385677e+00
 9.953867004148546e-01	 1.802204068330247e+00	 8.958893118360741e+00
 9.781335644556902e-01	 1.811626006103685e+00	 8.848929842511541e+00
 9.608154864645549e-01	 1.820869988579429e+00	 8.743051057343004e+00
 9.434351516004084e-01	 1.829935486279232e+00	 8.640139008659759e+00
 9.259952468727801e-01	 1.838822022353227e+00	 8.539103805397986e+00
 9.084984598861195e-01	 1.847529172416485e+00	 8.438877895126033e+00
 8.909474775948772e-01	 1.856056564350709e+00	 8.338410840299073e+00
 1.068255482574626e+00	 1.770304715960357e+00	 9.468378966295518e+00
 1.051216162459804e+00	 1.780475532050394e+00	 9.338265033661813e+00
 1.034100879404719e+00	 1.790470287648233e+00	 9.214647389320223e+00
 1.016912309857390e+00	 1.800288238666776e+00	 9.096545697786414e+00
 9.996531372534292e-01	 1.809928694169406e+00	 8.983042110096441e+00
 9.823260507233711e-01	 1.819391016350745e+00	 8.873274133087300e+00
 9.649337438061413e-01	 1.828674620480534e+00	 8.766427661604087e+00
 9.474789131698553e-01	 1.837778974811066e+00	 8.661730216721441e+00
 9.299642573411318e-01	 1.846703600448590e+00	 8.558444429465650e+00
 9.123924754440587e-01	 1.855448071189167e+00	 8.455861805750951e+00
 8.947662659499381e-01	 1.864012013319517e+00	 8.353296804345389e+00
 1.072814708543394e+00	 1.777860229940787e+00	 9.475460106715845e+00
 1.055702666020960e+00	 1.788074454232105e+00	 9.352296089103344e+00
 1.038514336354744e+00	 1.798111866619622e+00	 9.233487104810575e+00
 1.021252407415621e+00	 1.807971719840528e+00	 9.118329074009530e+00
 1.003919574091881e+00	 1.817653320009344e+00	 9.006189558789901e+00
 9.865185369910409e-01	 1.827156026598584e+00	 8.896499940260677e+00
 9.690520011478235e-01	 1.836479252382404e+00	 8.788747764273387e+00
 9.515226747394969e-01	 1.845622463343634e+00	 8.682469300890833e+00
 9.339332678097648e-01	 1.854585178544640e+00	 8.577242358995564e+00
 9.162864910023489e-01	 1.863366969962473e+00	 8.472679393534433e+00
 8.985850543054007e-01	 1.871967462288870e+00	 8.368420938861416e+00
 1.077373934511765e+00	 1.785415743921752e+00	 9.484201955653900e+00
 1.060189169581784e+00	 1.795673376414403e+00	 9.366893666935690e+00
 1.042927793304513e+00	 1.805753445591633e+00	 9.252100734922662e+00
 1.025592504973677e+00	 1.815655201014926e+00	 9.139363053862127e+00
 1.008186010930241e+00	 1.825377945849935e+00	 9.028300302362297e+00
 9.907110232587029e-01	 1.834921036847070e+00	 8.918603476702808e+00
 9.731702584895774e-01	 1.844283884284899e+00	 8.810026599557556e+00
 9.555664363092848e-01	 1.853465951876796e+00	 8.702378651217483e+00
 9.379022782786087e-01	 1.862466756641239e+00	 8.595515766548727e+00
 9.201805065609027e-01	 1.871285868736273e+00	 8.489333736887485e+00
 9.024038426611642e-01	 1.879922911258652e+00	 8.383760851906674e+00
 1.081933160479871e+00	 1.792971257903185e+00	 9.494310312492422e+00
 1.064675673142387e+00	 1.803272298597202e+00	 9.381847719255642e+00
 1.047341250254111e+00	 1.813395024564164e+00	 9.270348381514470e+00
 1.029932602531616e+00	 1.823338682189851e+00	 9.159564341809718e+00
 1.012452447768540e+00	 1.833102571691049e+00	 9.049334563396110e+00
 9.949035095263590e-01	 1.842686047096064e+00	 8.939575867601304e+00
 9.772885158313799e-01	 1.852088516187880e+00	 8.830274054486985e+00
 9.596101978791698e-01	 1.861309440410411e+00	 8.721475255796850e+00
 9.418712887475928e-01	 1.870348334738252e+00	 8.613277565195382e+00
 9.240745221196324e-01	 1.879204767510440e+00	 8.505822986633795e+00
 9.062226310171289e-01	 1.887878360228749e+00	 8.399289737372214e+00
 1.086492386447844e+00	 1.800526771885019e+00	 9.505490591516267e+00
 1.069162176702880e+00	 1.810871220780415e+00	 9.396946442139184e+00
 1.051754707203623e+00	 1.821036603537113e+00	 9.288087255616809e+00
 1.034272700089496e+00	 1.831022163365186e+00	 9.178845846017680e+00
 1.016718884606809e+00	 1.840827197532559e+00	 9.069248085097284e+00
 9.990959957940119e-01	 1.850451057345432e+00	 8.959403291003527e+00
 9.814067731732061e-01	 1.859893148091208e+00	 8.849494809276093e+00
 9.636539594491035e-01	 1.869152928944339e+00	 8.739770836957280e+00
 9.458402992166475e-01	 1.878229912835541e+00	 8.630535536517202e+00
 9.279685376784500e-01	 1.887123666284845e+00	 8.522140481994162e+00
 9.100414193731938e-01	 1.895833809199044e+00	 8.414976475295965e+00
 1.091051612415817e+00	 1.808082285867185e+00	 9.517447894628646e+00
 1.073648680263373e+00	 1.818470142963956e+00	 9.411976371214172e+00
 1.056168164153135e+00	 1.828678182510376e+00	 9.305171790946577e+00
 1.038612797647377e+00	 1.838705644540815e+00	 9.197116805048033e+00
 1.020985321445077e+00	 1.848551823374337e+00	 9.087992266584603e+00
 1.003288482061665e+00	 1.858216067595038e+00	 8.978067117275101e+00
 9.855250305150323e-01	 1.867697779994740e+00	 8.867688476695456e+00
 9.676977210190376e-01	 1.876996417478440e+00	 8.757271986461777e+00
 9.498093096857024e-01	 1.886111490932969e+00	 8.647292457728685e+00
 9.318625532372673e-01	 1.895042565059359e+00	 8.538274865892394e+00
 9.138602077292586e-01	 1.903789258169420e+00	 8.430785731794213e+00
 1.095610838383923e+00	 1.815637799849618e+00	 9.529887085389202e+00
 1.078135183823976e+00	 1.826069065147739e+00	 9.426722477882080e+00
 1.060581621102733e+00	 1.836319761483851e+00	 9.321453757515760e+00
 1.042952895205316e+00	 1.846389125716622e+00	 9.214282914220535e+00
 1.025251758283376e+00	 1.856276449216254e+00	 9.105514297526341e+00
 1.007480968329322e+00	 1.865981077844747e+00	 8.995544047698582e+00
 9.896432878568346e-01	 1.875502411898338e+00	 8.884849740484379e+00
 9.717414825889225e-01	 1.884839906012572e+00	 8.773980299754673e+00
 9.537783201546869e-01	 1.893993069030402e+00	 8.663546227944462e+00
 9.357565687959974e-01	 1.902961463833853e+00	 8.554210199603178e+00
 9.176789960852232e-01	 1.911744707139762e+00	 8.446678058621350e+00
 1.100170064352294e+00	 1.823193313832249e+00	 9.542512864336738e+00
 1.082621687384800e+00	 1.833667987331677e+00	 9.440968266168136e+00
 1.064995078052501e+00	 1.843961340457434e+00	 9.336782375335705e+00
 1.047292992763372e+00	 1.854072606892489e+00	 9.230246451648625e+00
 1.029518195121736e+00	 1.864001075058184e+00	 9.121757292143103e+00
 1.011673454596983e+00	 1.873746088094420e+00	 9.011806252238170e+00
 9.937615451985884e-01	 1.883307043801862e+00	 8.900968492833190e+00
 9.757852441587102e-01	 1.892683394546595e+00	 8.789892509278992e+00
 9.577473306235308e-01	 1.901874647127700e+00	 8.679289993617626e+00
 9.396505843545510e-01	 1.910880362608200e+00	 8.569926076760236e+00
 9.214977844409867e-01	 1.919700156109956e+00	 8.462609992367774e+00
 1.104729290321062e+00	 1.830748827815010e+00	 9.555029845558913e+00
 1.087108190945956e+00	 1.841266909515684e+00	 9.454495870184790e+00
 1.069408535002526e+00	 1.851602919431023e+00	 9.351004428212743e+00
 1.051633090321603e+00	 1.861756088068297e+00	 9.244906403958725e+00
 1.033784631960189e+00	 1.871725700899998e+00	 9.136660422595501e+00
 1.015865940864653e+00	 1.881511098343927e+00	 9.026821506493045e+00
 9.978798025402706e-01	 1.891111675705171e+00	 8.916029970959876e+00
 9.798290057283521e-01	 1.900526883080370e+00	 8.805000616892841e+00
 9.617163410921636e-01	 1.909756225224728e+00	 8.694512273171494e+00
 9.435445999128415e-01	 1.918799261382270e+00	 8.585397736744651e+00
 9.253165727964494e-01	 1.927655605079884e+00	 8.478534153307722e+00
 1.109288516290361e+00	 1.838304341797836e+00	 9.567142634472969e+00
 1.091594694507553e+00	 1.848865831699674e+00	 9.467086152187862e+00
 1.073821991952893e+00	 1.859244498404515e+00	 9.363964377632730e+00
 1.055973187880068e+00	 1.869439569243934e+00	 9.258158591702735e+00
 1.038051068798763e+00	 1.879450326741568e+00	 9.150159051772855e+00
 1.020058427132334e+00	 1.889276108593128e+00	 9.040553327865869e+00
 1.001998059881857e+00	 1.898916307608127e+00	 8.930014892809506e+00
 9.838727672977994e-01	 1.908370371613757e+00	 8.819292025410183e+00
 9.656853515605157e-01	 1.917637803321349e+00	 8.709197080849492e+00
 9.474386154707806e-01	 1.926718160155935e+00	 8.600596177469416e+00
 9.291353611515103e-01	 1.935611054049432e+00	 8.494399343905430e+00
 8.909474775948772e-01	 1.856056564350709e+00	 8.338410840299073e+00
 8.733419880877556e-01	 1.864405281657153e+00	 8.234982769384942e+00
 8.556876532658938e-01	 1.872573589764845e+00	 8.127138961319069e+00
 8.379871512822794e-01	 1.880561270422445e+00	 8.015704951541167e+00
 8.202431548190318e-01	 1.888368156547483e+00	 7.901527583377467e+00
 8.024583299111965e-01	 1.895994131863790e+00	 7.785468872395947e+00
 7.846353347873413e-01	 1.903439130507890e+00	 7.668400281404530e+00
 7.667768187278625e-01	 1.910703136605119e+00	 7.551197412974622e+00
 7.488854209418633e-01	 1.917786183816243e+00	 7.434735122592722e+00
 7.309637694634429e-01	 1.924688354855402e+00	 7.319883051873594e+00
 7.130144800681852e-01	 1.931409780980207e+00	 7.207501577759279e+00
 8.947662659499381e-01	 1.864012013319517e+00	 8.353296804345389e+00
 8.770853156105543e-01	 1.872396514985003e+00	 8.248506550376952e+00
 8.593553105951380e-01	 1.880599834179922e+00	 8.140193324965894e+00
 8.415789405357927e-01	 1.888621751717463e+00	 8.029067859706378e+00
 8.237588895703066e-01	 1.896462099799010e+00	 7.915858648459302e+00
 8.058978351609019e-01	 1.904120761650014e+00	 7.801305950441771e+00
 7.879984469298640e-01	 1.911597671124698e+00	 7.686156221680019e+00
 7.700633855129519e-01	 1.918892812280358e+00	 7.571156981287773e+00
 7.520953014314652e-01	 1.926006218922042e+00	 7.457052115130352e+00
 7.340968339838003e-01	 1.932937974118424e+00	 7.344577615663377e+00
 7.160706101572966e-01	 1.939688209689715e+00	 7.234457753119897e+00
 8.985850543054007e-01	 1.871967462288870e+00	 8.368420938861419e+00
 8.808286431337827e-01	 1.880387748313307e+00	 8.262607067388025e+00
 8.630229679248178e-01	 1.888626078595345e+00	 8.154037312637620e+00
 8.451707297897312e-01	 1.896682233012714e+00	 8.043320269256117e+00
 8.272746243219822e-01	 1.904556043050652e+00	 7.931079171535369e+00
 8.093373404109732e-01	 1.912247391436232e+00	 7.817946010098580e+00
 7.913615590727103e-01	 1.919756211741379e+00	 7.704556094924312e+00
 7.733499522983188e-01	 1.927082487955355e+00	 7.591543070783493e+00
 7.553051819212977e-01	 1.934226254027489e+00	 7.479534387149402e+00
 7.372298985043443e-01	 1.941187593380994e+00	 7.369147220750865e+00
 7.191267402465555e-01	 1.947966638398685e+00	 7.260984845227088e+00
 9.024038426611642e-01	 1.879922911258652e+00	 8.383760851906674e+00
 8.845719706573320e-01	 1.888378981641964e+00	 8.277235012748662e+00
 8.666906252548241e-01	 1.896652323011041e+00	 8.168601740419419e+00
 8.487625190439888e-01	 1.904742714308148e+00	 8.058379973719189e+00
 8.307903590739594e-01	 1.912649986302385e+00	 7.947100585851627e+00
 8.127768456613212e-01	 1.920374021222447e+00	 7.835300589712093e+00
 7.947246712158034e-01	 1.927914752357966e+00	 7.723517807753757e+00
 7.766365190839010e-01	 1.935272163630169e+00	 7.612286012160347e+00
 7.585150624113142e-01	 1.942446289132672e+00	 7.502130536913038e+00
 7.403629630250433e-01	 1.949437212643225e+00	 7.393564359344468e+00
 7.221828703359465e-01	 1.956245067107251e+00	 7.287084644940048e+00
 9.062226310171289e-01	 1.887878360228749e+00	 8.399289737372216e+00
 8.883152981810960e-01	 1.896370214970877e+00	 8.292337209483946e+00
 8.703582825850489e-01	 1.904678567426931e+00	 8.183813988748950e+00
 8.523543082984606e-01	 1.912803195603714e+00	 8.074161656879719e+00
 8.343060938261400e-01	 1.920743929554184e+00	 7.963831436533019e+00
 8.162163509118578e-01	 1.928500651008666e+00	 7.853278460349054e+00
 7.980877833590678e-01	 1.936073292974493e+00	 7.742956523085146e+00
 7.799230858696367e-01	 1.943461839304863e+00	 7.633313322264080e+00
 7.617249429014677e-01	 1.950666324237680e+00	 7.524786188491204e+00
 7.434960275458669e-01	 1.957686831905231e+00	 7.417798302481387e+00
 7.252390004254544e-01	 1.964523495815548e+00	 7.312755391891715e+00
 9.100414193731938e-01	 1.895833809199044e+00	 8.414976475295965e+00
 8.920586257049673e-01	 1.904361448299948e+00	 8.307856695469217e+00
 8.740259399153831e-01	 1.912704811842939e+00	 8.199598072930954e+00
 8.559460975530405e-01	 1.920863676899360e+00	 8.090576952106719e+00
 8.378218285784246e-01	 1.928837872806025e+00	 7.981177431122935e+00
 8.196558561624937e-01	 1.936627280794890e+00	 7.871785669878692e+00
 8.014508955024269e-01	 1.944231833590993e+00	 7.762784700023245e+00
 7.832096526554635e-01	 1.951651514979499e+00	 7.654549741982633e+00
 7.649348233917118e-01	 1.958886359342598e+00	 7.547444029793813e+00
 7.466290920667832e-01	 1.965936451167123e+00	 7.441815140263822e+00
 7.282951305150627e-01	 1.972801924523710e+00	 7.337991818917518e+00
 9.138602077292586e-01	 1.903789258169420e+00	 8.430785731794213e+00
 8.958019532288388e-01	 1.912352681629080e+00	 8.323732807512195e+00
 8.776935972457179e-01	 1.920731056258989e+00	 8.215874713823755e+00
 8.595378868076224e-01	 1.928924158195032e+00	 8.107534502043151e+00
 8.413375633307147e-01	 1.936931816057884e+00	 7.999041490610446e+00
 8.230953614131402e-01	 1.944753910581124e+00	 7.890725587612966e+00
 8.048140076458048e-01	 1.952390374207497e+00	 7.782912134326294e+00
 7.864962194413198e-01	 1.959841190654135e+00	 7.675917274682384e+00
 7.681447038819993e-01	 1.967106394447518e+00	 7.570043851057969e+00
 7.497621565877620e-01	 1.974186070429015e+00	 7.465577822410964e+00
 7.313512606047566e-01	 1.981080353231873e+00	 7.362785196618165e+00
 9.176789960852232e-01	 1.911744707139762e+00	 8.446678058621350e+00
 8.995452807526031e-01	 1.920343914958172e+00	 8.339901265361583e+00
 8.813612545759445e-01	 1.928757300675005e+00	 8.232561408693162e+00
 8.631296760621006e-01	 1.936984639490681e+00	 8.124940018643052e+00
 8.448532980829121e-01	 1.945025759309737e+00	 8.017323800931338e+00
 8.265348666637092e-01	 1.952880540367373e+00	 7.909998949490276e+00
 8.081771197891249e-01	 1.960548914824041e+00	 7.803245999430452e+00
 7.897827862271437e-01	 1.968030866328837e+00	 7.697335225169024e+00
 7.713545843722842e-01	 1.975326429552527e+00	 7.592522583777348e+00
 7.528952211087722e-01	 1.982435689691021e+00	 7.489046199120020e+00
 7.344073906945200e-01	 1.989358781940170e+00	 7.387123378051848e+00
 9.214977844409867e-01	 1.919700156109956e+00	 8.462609992367774e+00
 9.032886082761531e-01	 1.928335148287128e+00	 8.356294255644814e+00
 8.850289119059546e-01	 1.936783545090909e+00	 8.249572502228602e+00
 8.667214653163703e-01	 1.945045120786256e+00	 8.142696343546952e+00
 8.483690328349168e-01	 1.953119702561557e+00	 8.035921864928227e+00
 8.299743719141109e-01	 1.961007170153640e+00	 7.929503903787173e+00
 8.115402319323108e-01	 1.968707455440654e+00	 7.823690888019456e+00
 7.930693530128730e-01	 1.976220542003663e+00	 7.718720239159156e+00
 7.745644648625198e-01	 1.983546464657714e+00	 7.614814340058047e+00
 7.560282856297825e-01	 1.990685308953253e+00	 7.512177062227167e+00
 7.374635207843369e-01	 1.997637210648736e+00	 7.410990843552159e+00
 9.253165727964494e-01	 1.927655605079884e+00	 8.478534153307725e+00
 9.070319357993816e-01	 1.936326381615849e+00	 8.372840515738147e+00
 8.886965692356391e-01	 1.944809789506627e+00	 8.266819257715536e+00
 8.703132545703250e-01	 1.953105602081704e+00	 8.160703508786115e+00
 8.518847675866309e-01	 1.961213645813324e+00	 8.054730554756905e+00
 8.334138771642573e-01	 1.969133799939929e+00	 7.949136057341223e+00
 8.149033440752865e-01	 1.976865996057371e+00	 7.844148854120315e+00
 7.963559197984457e-01	 1.984410217678674e+00	 7.739986343247255e+00
 7.777743453526587e-01	 1.991766499763165e+00	 7.636850452391392e+00
 7.591613501507617e-01	 1.998934928215824e+00	 7.534924186658399e+00
 7.405196508741924e-01	 2.005915639357707e+00	 7.434368745668488e+00
 9.291353611515103e-01	 1.935611054049432e+00	 8.494399343905430e+00
 9.107752633221814e-01	 1.944317614944239e+00	 8.389465417569065e+00
 8.923642265648896e-01	 1.952836033922081e+00	 8.284209928362248e+00
 8.739050438238596e-01	 1.961166083376974e+00	 8.178858797805827e+00
 8.554005023379557e-01	 1.969307589065009e+00	 8.073642164726499e+00
 8.368533824140600e-01	 1.977260429726245e+00	 7.968788522273327e+00
 8.182664562179768e-01	 1.985024536674226e+00	 7.864519455714351e+00
 7.996424865837999e-01	 1.992599893353934e+00	 7.761044985353490e+00
 7.809842258426549e-01	 1.999986534868971e+00	 7.658559513829506e+00
 7.622944146716795e-01	 2.007184547478847e+00	 7.557238372162717e+00
 7.435757809640703e-01	 2.014194068067215e+00	 7.457234954225525e+00
 7.130144800681852e-01	 1.931409780980207e+00	 7.207501577759276e+00
 6.950432123525723e-01	 1.937949544745086e+00	 7.098777277594946e+00
 6.770495036445784e-01	 1.944309029523059e+00	 6.994395596665294e+00
 6.590359245652068e-01	 1.950488507423679e+00	 6.894484190291777e+00
 6.410050294055939e-01	 1.956488296771135e+00	 6.799131934245906e+00
 6.229593551559293e-01	 1.962308761470184e+00	 6.708388045469952e+00
 6.049014205584760e-01	 1.967950310349670e+00	 6.622261530747188e+00
 5.868337251852073e-01	 1.973413396484584e+00	 6.540696904633718e+00
 5.687587485405474e-01	 1.978698516497631e+00	 6.458954546608194e+00
 5.506789491896580e-01	 1.983806209841261e+00	 6.373751718318209e+00
 5.325967639126695e-01	 1.988737058061177e+00	 6.285351725686677e+00
 7.160706101572966e-01	 1.939688209689715e+00	 7.234457753119897e+00
 6.980223138066514e-01	 1.946256004257983e+00	 7.127632472978773e+00
 6.799514802767430e-01	 1.952642747125680e+00	 7.024662360976457e+00
 6.618606912068142e-01	 1.958848711568683e+00	 6.925720111849191e+00
 6.437525118362473e-01	 1.964874217275590e+00	 6.830941343864237e+00
 6.256294900293229e-01	 1.970719629710934e+00	 6.740423706526245e+00
 6.074941553241796e-01	 1.976385359455892e+00	 6.654226326517163e+00
 5.893490180064991e-01	 1.981871861527434e+00	 6.572369566107477e+00
 5.711965682083997e-01	 1.987179634676896e+00	 6.491239427816989e+00
 5.530392750329859e-01	 1.992309220668944e+00	 6.406479344024541e+00
 5.348795857049577e-01	 1.997261203541909e+00	 6.318387613122281e+00
 7.191267402465555e-01	 1.947966638398685e+00	 7.260984845227088e+00
 7.010014152608480e-01	 1.954562463770271e+00	 7.155782739319823e+00
 6.828534569090022e-01	 1.960976464727635e+00	 7.054005936030931e+00
 6.646854578484978e-01	 1.967208915712976e+00	 6.955868117441330e+00
 6.464999942669621e-01	 1.973260137779301e+00	 6.861547302202252e+00
 6.282996249027640e-01	 1.979130497950916e+00	 6.771184952043530e+00
 6.100868900899165e-01	 1.984820408561330e+00	 6.684885427333853e+00
 5.918643108278066e-01	 1.990330326569490e+00	 6.602715765059640e+00
 5.736343878762455e-01	 1.995660752855363e+00	 6.522091153422378e+00
 5.553996008762799e-01	 2.000812231495826e+00	 6.437834392198736e+00
 5.371624074971756e-01	 2.005785349021840e+00	 6.350138040370540e+00
 7.221828703359465e-01	 1.956245067107251e+00	 7.287084644940048e+00
 7.039805167151613e-01	 1.962868923282101e+00	 7.183260003959427e+00
 6.857554335413678e-01	 1.969310182329089e+00	 7.082484837829702e+00
 6.675102244902829e-01	 1.975569119856737e+00	 6.985009794644710e+00
 6.492474766977752e-01	 1.981646058282454e+00	 6.891050982270802e+00
 6.309697597763010e-01	 1.987541366190324e+00	 6.800789085479145e+00
 6.126796248557453e-01	 1.993255457666180e+00	 6.714368843490991e+00
 5.943796036492004e-01	 1.998788791610951e+00	 6.631898860385595e+00
 5.760722075441662e-01	 2.004141871033232e+00	 6.551656894443969e+00
 5.577599267196307e-01	 2.009315242322109e+00	 6.467963567565082e+00
 5.394452292894243e-01	 2.014309494501172e+00	 6.380745849108940e+00
 7.252390004254544e-01	 1.964523495815548e+00	 7.312755391891717e+00
 7.069596181695899e-01	 1.971175382793628e+00	 7.210092306575532e+00
 6.886574101738531e-01	 1.977643899930212e+00	 7.110153425523430e+00
 6.703349911321946e-01	 1.983929324000142e+00	 7.013222371339467e+00
 6.519949591287238e-01	 1.990031978785234e+00	 6.919549059901279e+00
 6.336398946499827e-01	 1.995952234429347e+00	 6.829348839942799e+00
 6.152723596217269e-01	 2.001690506770640e+00	 6.742802004963392e+00
 5.968948964707501e-01	 2.007247256652015e+00	 6.660053648950690e+00
 5.785100272122423e-01	 2.012622989210702e+00	 6.580080138592099e+00
 5.601202525631289e-01	 2.017818253147991e+00	 6.497010154839401e+00
 5.417280510818046e-01	 2.022833639980103e+00	 6.410350773788293e+00
 7.282951305150627e-01	 1.972801924523710e+00	 7.337991818917519e+00
 7.099387196241320e-01	 1.979481842305000e+00	 7.236303848193037e+00
 6.915593868064692e-01	 1.985977617531167e+00	 7.137061953846894e+00
 6.731597577742576e-01	 1.992289528143369e+00	 7.040578770432508e+00
 6.547424415598457e-01	 1.998417899287829e+00	 6.947133769640261e+00
 6.363100295238585e-01	 2.004363102668178e+00	 6.856972434167111e+00
 6.178650943879204e-01	 2.010125555874903e+00	 6.770305816382686e+00
 5.994101892925267e-01	 2.015705721692881e+00	 6.687310452275088e+00
 5.809478468805542e-01	 2.021104107387972e+00	 6.607500695672675e+00
 5.624805784068659e-01	 2.026321263973674e+00	 6.525114023042109e+00
 5.440108728744172e-01	 2.031357785458835e+00	 6.439089443763608e+00
 7.313512606047566e-01	 1.981080353231873e+00	 7.362785196618165e+00
 7.129178210787871e-01	 1.987788301816374e+00	 7.261915040135767e+00
 6.944613634392295e-01	 1.994311335132122e+00	 7.163256625335626e+00
 6.759845244164977e-01	 2.000649732286595e+00	 7.067147664233218e+00
 6.574899239911773e-01	 2.006803819790424e+00	 6.973892960200388e+00
 6.389801643979762e-01	 2.012773970907008e+00	 6.883763627968090e+00
 6.204578291543853e-01	 2.018560604979166e+00	 6.796996711460553e+00
 6.019254821146002e-01	 2.024164186733747e+00	 6.713795168898514e+00
 5.833856665491830e-01	 2.029585225565243e+00	 6.634054702449236e+00
 5.648409042509318e-01	 2.034824274799356e+00	 6.552411629315579e+00
 5.462936946673629e-01	 2.039881930937566e+00	 6.467095385003113e+00
 7.344073906945200e-01	 1.989358781940170e+00	 7.387123378051848e+00
 7.158969225335540e-01	 1.996094761327899e+00	 7.286942552922289e+00
 6.973633400721461e-01	 2.002645052733242e+00	 7.188779642331538e+00
 6.788092910589397e-01	 2.009009936430000e+00	 7.092993528492998e+00
 6.602374064227566e-01	 2.015189740293205e+00	 6.999910149477481e+00
 6.416502992723850e-01	 2.021184839146032e+00	 6.909821777204350e+00
 6.230505639211821e-01	 2.026995654083625e+00	 6.822986706876194e+00
 6.044407749370410e-01	 2.032622651774811e+00	 6.739629326198802e+00
 5.858234862182089e-01	 2.038066343742712e+00	 6.659874626978116e+00
 5.672012300954179e-01	 2.043327285625240e+00	 6.579036022259358e+00
 5.485765164607425e-01	 2.048406076416498e+00	 6.494499021387329e+00
 7.374635207843369e-01	 1.997637210648736e+00	 7.410990843552159e+00
 7.188760239884310e-01	 2.004401220839729e+00	 7.311399365107652e+00
 7.002653167052314e-01	 2.010978770334698e+00	 7.213669258782478e+00
 6.816340577016087e-01	 2.017370140573761e+00	 7.118176696117989e+00
 6.629848888546206e-01	 2.023575660796358e+00	 7.025264579149316e+00
 6.443204341471334e-01	 2.029595707385439e+00	 6.935241888254827e+00
 6.256432986883700e-01	 2.035430703188476e+00	 6.848383455643461e+00
 6.069560677599199e-01	 2.041081116816272e+00	 6.764930131682032e+00
 5.882613058877131e-01	 2.046547461920581e+00	 6.685089309105482e+00
 5.695615559404148e-01	 2.051830296451522e+00	 6.605116844797703e+00
 5.508593382546569e-01	 2.056930221895830e+00	 6.521427675610054e+00
 7.405196508741924e-01	 2.005915639357707e+00	 7.434368745668491e+00
 7.218551254434173e-01	 2.012707680352017e+00	 7.335294812071615e+00
 7.031672933384974e-01	 2.019312487936653e+00	 7.237959831843357e+00
 6.844588243445301e-01	 2.025730344718054e+00	 7.142753410564506e+00
 6.657323712868063e-01	 2.031961581300068e+00	 7.050031268866615e+00
 6.469905690222701e-01	 2.038006575625421e+00	 6.960114672024648e+00
 6.282360334560089e-01	 2.043865752293914e+00	 6.873290299971784e+00
 6.094713605833069e-01	 2.049539581858328e+00	 6.789810523756977e+00
 5.906991255577758e-01	 2.055028580099048e+00	 6.709894052231151e+00
 5.719218817860132e-01	 2.060333307278405e+00	 6.630780336592905e+00
 5.531421600492071e-01	 2.065454367375761e+00	 6.548005569693384e+00
 7.435757809640703e-01	 2.014194068067215e+00	 7.457234954225525e+00
 7.248342268985118e-01	 2.021014139864915e+00	 7.358634634755870e+00
 7.060692699719573e-01	 2.027646205539275e+00	 7.261681873283175e+00
 6.872835909877293e-01	 2.034090548863059e+00	 7.166775878925931e+00
 6.684798537193514e-01	 2.040347501804524e+00	 7.074281070048364e+00
 6.496607038978447e-01	 2.046417443866173e+00	 6.984526597495432e+00
 6.308287682241586e-01	 2.052300801400137e+00	 6.897806323637787e+00
 6.119866534072722e-01	 2.057998046901178e+00	 6.814379222011450e+00
 5.931369452284784e-01	 2.063509698278315e+00	 6.734470160041840e+00
 5.742822076323040e-01	 2.068836318106088e+00	 6.656149336017186e+00
 5.554249818444938e-01	 2.073978512856493e+00	 6.574353825126593e+00
 5.325967639126695e-01	 1.988737058061177e+00	 6.285351725686677e+00
 5.145146071319613e-01	 1.993491684474228e+00	 6.196804655326432e+00
 4.964348708365260e-01	 1.998070754689647e+00	 6.111235212167277e+00
 4.783599230357983e-01	 2.002474974518841e+00	 6.028897045265130e+00
 4.602921067687459e-01	 2.006705088739458e+00	 5.949974368289458e+00
 4.422337393928928e-01	 2.010761880278762e+00	 5.874586774021962e+00
 4.241871119009684e-01	 2.014646169384433e+00	 5.802793890307717e+00
 4.061544882653080e-01	 2.018358812783806e+00	 5.734599855369923e+00
 3.881381048101060e-01	 2.021900702832483e+00	 5.669957592475741e+00
 3.701401696115776e-01	 2.025272766653326e+00	 5.608772866054538e+00
 3.521628619260533e-01	 2.028475965266763e+00	 5.550908103494506e+00
 5.348795857049577e-01	 1.997261203541909e+00	 6.318387613122281e+00
 5.167199249954286e-01	 2.002036209284311e+00	 6.230093542105323e+00
 4.985626951459570e-01	 2.006634906358315e+00	 6.144766575298767e+00
 4.804102743157581e-01	 2.011058003600574e+00	 6.062660546625016e+00
 4.622650155865514e-01	 2.015306248981001e+00	 5.983959253216430e+00
 4.441292462485375e-01	 2.019380428782637e+00	 5.908781448722375e+00
 4.260052671141157e-01	 2.023281366768909e+00	 5.837185670362073e+00
 4.078953518594782e-01	 2.027009923339256e+00	 5.769174877040980e+00
 3.898017463941693e-01	 2.030566994674091e+00	 5.704700877984977e+00
 3.717266682586777e-01	 2.033953511870113e+00	 5.643668533516574e+00
 3.536723060500792e-01	 2.037170440066873e+00	 5.585939711793086e+00
 5.371624074971756e-01	 2.005785349021840e+00	 6.350138040370540e+00
 5.189252428587804e-01	 2.010580734093594e+00	 6.262189008849852e+00
 5.006905194552195e-01	 2.015199058026183e+00	 6.177183958489774e+00
 4.824606255954924e-01	 2.019641032681508e+00	 6.095377240211033e+00
 4.642379244040731e-01	 2.023907409221744e+00	 6.016952707319380e+00
 4.460247531038409e-01	 2.027998977285713e+00	 5.942028888008586e+00
 4.278234223268686e-01	 2.031916564152587e+00	 5.870663983626194e+00
 4.096362154532071e-01	 2.035661033893906e+00	 5.802860669417026e+00
 3.914653879777533e-01	 2.039233286514900e+00	 5.738570676662613e+00
 3.733131669052723e-01	 2.042634257086099e+00	 5.677699137368264e+00
 3.551817501735882e-01	 2.045864914866183e+00	 5.620108674900310e+00
 5.394452292894243e-01	 2.014309494501172e+00	 6.380745849108940e+00
 5.211305607221273e-01	 2.019125258902276e+00	 6.293228944148256e+00
 5.028183437644348e-01	 2.023763209693450e+00	 6.208621456124056e+00
 4.845109768751313e-01	 2.028224061761840e+00	 6.127178531958976e+00
 4.662108332214490e-01	 2.032508569461885e+00	 6.049084500781073e+00
 4.479202599589476e-01	 2.036617525788188e+00	 5.974458226119484e+00
 4.296415775393765e-01	 2.040551761535664e+00	 5.903358275597045e+00
 4.113770790466473e-01	 2.044312144447956e+00	 5.835787884227761e+00
 3.931290295610125e-01	 2.047899578355109e+00	 5.771699689697997e+00
 3.748996655515152e-01	 2.051315002301485e+00	 5.711000220304805e+00
 3.566911942967296e-01	 2.054559389664892e+00	 5.653554118542308e+00
 5.417280510818046e-01	 2.022833639980103e+00	 6.410350773788293e+00
 5.233358785855803e-01	 2.027669783710558e+00	 6.323348451808783e+00
 5.049461680737224e-01	 2.032327361360318e+00	 6.239210671092875e+00
 4.865613281548043e-01	 2.036807090841774e+00	 6.158193600441640e+00
 4.681837420388162e-01	 2.041109729701628e+00	 6.080482411414115e+00
 4.498157668140020e-01	 2.045236074290263e+00	 6.006196810824166e+00
 4.314597327517893e-01	 2.049186958918340e+00	 5.935396382177177e+00
 4.131179426399521e-01	 2.052963255001604e+00	 5.868085711550702e+00
 3.947926711441010e-01	 2.056565870194917e+00	 5.804219275749177e+00
 3.764861641975592e-01	 2.059995747516472e+00	 5.743706072929006e+00
 3.582006384196533e-01	 2.063253864463201e+00	 5.686413978269679e+00
 5.440108728744172e-01	 2.031357785458835e+00	 6.439089443763608e+00
 5.255411964492500e-01	 2.036214308518641e+00	 6.352679850542296e+00
 5.070739923832034e-01	 2.040891513026985e+00	 6.269080712568031e+00
 4.886116794346402e-01	 2.045390119921506e+00	 6.188549393258128e+00
 4.701566508563123e-01	 2.049710889941169e+00	 6.111272220184703e+00
 4.517112736691485e-01	 2.053854622792138e+00	 6.037370198585759e+00
 4.332778879642563e-01	 2.057822156300817e+00	 5.966904524973899e+00
 4.148588062332750e-01	 2.061614365555055e+00	 5.899881875727496e+00
 3.964563127271736e-01	 2.065232162034525e+00	 5.836259447949435e+00
 3.780726628435581e-01	 2.068676492731258e+00	 5.775949732306652e+00
 3.597100825425086e-01	 2.071948339261310e+00	 5.718825000009408e+00
 5.462936946673629e-01	 2.039881930937566e+00	 6.467095385003113e+00
 5.277465143132475e-01	 2.044758833326723e+00	 6.381352673303589e+00
 5.092018166929980e-01	 2.049455664693653e+00	 6.298358193499759e+00
 4.906620307147689e-01	 2.053973149001240e+00	 6.218370623204120e+00
 4.721295596740751e-01	 2.058312050180712e+00	 6.141577706556076e+00
 4.536067805245315e-01	 2.062473171294014e+00	 6.068102149573084e+00
 4.350960431769275e-01	 2.066457353683294e+00	 5.998007306460632e+00
 4.165996698267688e-01	 2.070265476108505e+00	 5.931302631146179e+00
 3.981199543103845e-01	 2.073898453874133e+00	 5.867948870769146e+00
 3.796591614896646e-01	 2.077357237946044e+00	 5.807862980355708e+00
 3.612195266654453e-01	 2.080642814059420e+00	 5.750922740418679e+00
 5.485765164607425e-01	 2.048406076416498e+00	 6.494499021387329e+00
 5.299518321776832e-01	 2.053303358135004e+00	 6.409493666301937e+00
 5.113296410032266e-01	 2.058019816360521e+00	 6.327167227849127e+00
 4.927123819953200e-01	 2.062556178081173e+00	 6.247779764226715e+00
 4.741024684922417e-01	 2.066913210420454e+00	 6.171520643659373e+00
 4.555022873802952e-01	 2.071091719796089e+00	 6.098514622525636e+00
 4.369141983899525e-01	 2.075092551065971e+00	 6.028827705006045e+00
 4.183405334205864e-01	 2.078916586662154e+00	 5.962472757893229e+00
 3.997835958938883e-01	 2.082564745713942e+00	 5.899414856738790e+00
 3.812456601360327e-01	 2.086037983161031e+00	 5.839576342076750e+00
 3.627289707886124e-01	 2.089337288857729e+00	 5.782841567046282e+00
 5.508593382546569e-01	 2.056930221895830e+00	 6.521427675610054e+00
 5.321571500426681e-01	 2.061847882943687e+00	 6.437226787688481e+00
 5.134574653140097e-01	 2.066583968027788e+00	 6.355629427561559e+00
 4.947627332764225e-01	 2.071139207161506e+00	 6.276897047172118e+00
 4.760753773109500e-01	 2.075514370660596e+00	 6.201220793292975e+00
 4.573977942365843e-01	 2.079710268298565e+00	 6.128727769474088e+00
 4.387323536034809e-01	 2.083727748449047e+00	 6.059487069773438e+00
 4.200813970148811e-01	 2.087567697216204e+00	 5.993515557278895e+00
 4.014472374778394e-01	 2.091231037554150e+00	 5.930783363035822e+00
 3.828321587828153e-01	 2.094718728376416e+00	 5.871219083626666e+00
 3.642384149121597e-01	 2.098031763656439e+00	 5.814714658307245e+00
 5.531421600492071e-01	 2.065454367375761e+00	 6.548005569693384e+00
 5.343624679083131e-01	 2.070392407752969e+00	 6.464673205932229e+00
 5.155852896254677e-01	 2.075148119695656e+00	 6.383863899288712e+00
 4.968130845582062e-01	 2.079722236242439e+00	 6.305840455331669e+00
 4.780482861303374e-01	 2.084115530901338e+00	 6.230795900758914e+00
 4.592933010935429e-01	 2.088328816801641e+00	 6.158859930323252e+00
 4.405505088176623e-01	 2.092362945832725e+00	 6.090105115495947e+00
 4.218222606098063e-01	 2.096218807770854e+00	 6.024552847240456e+00
 4.031108790623920e-01	 2.099897329394959e+00	 5.962178987940693e+00
 3.844186574301659e-01	 2.103399473592404e+00	 5.902919210241357e+00
 3.657478590362367e-01	 2.106726238455749e+00	 5.846674003275506e+00
 5.554249818444938e-01	 2.073978512856493e+00	 6.574353825126593e+00
 5.365677857747290e-01	 2.078936932563052e+00	 6.491951297891834e+00
 5.177131139377212e-01	 2.083712271364324e+00	 6.411987240868217e+00
 4.988634358408005e-01	 2.088305265324173e+00	 6.334725719791502e+00
 4.800211949505416e-01	 2.092716691142881e+00	 6.260361689538229e+00
 4.611888079513155e-01	 2.096947365305516e+00	 6.189027627298152e+00
 4.423686640326468e-01	 2.100998143217203e+00	 6.120799917129148e+00
 4.235631242055150e-01	 2.104869918326305e+00	 6.055704957624579e+00
 4.047745206477009e-01	 2.108563621236568e+00	 5.993724967164899e+00
 3.860051560782379e-01	 2.112080218809191e+00	 5.934803464012377e+00
 3.672573031609927e-01	 2.115420713255858e+00	 5.878850401300854e+00
 3.521628619260533e-01	 2.028475965266763e+00	 5.550908103494510e+00
 3.342052820390940e-01	 2.031511794282461e+00	 5.495767147897014e+00
 3.162726130965756e-01	 2.034380720240966e+00	 5.442940255706038e+00
 2.983669504141310e-01	 2.037083799624414e+00	 5.392483981322158e+00
 2.804903583591603e-01	 2.039622119309464e+00	 5.344421407373635e+00
 2.626448699171351e-01	 2.041996795666766e+00	 5.298744191486865e+00
 2.448324862854198e-01	 2.044208973657273e+00	 5.255414343424054e+00
 2.270551764944082e-01	 2.046259825926268e+00	 5.214365731354381e+00
 2.093148770557514e-01	 2.048150551895931e+00	 5.175505317816001e+00
 1.916134916374246e-01	 2.049882376857315e+00	 5.138714127662933e+00
 1.739528907653514e-01	 2.051456551062507e+00	 5.103847951921377e+00
 3.536723060500792e-01	 2.037170440066873e+00	 5.585939711793086e+00
 3.356377561975625e-01	 2.040219281284530e+00	 5.530931338558140e+00
 3.176282240630479e-01	 2.043100504063327e+00	 5.478239657034313e+00
 2.996458139431216e-01	 2.045815169413713e+00	 5.427911794833167e+00
 2.816925990534858e-01	 2.048364368870937e+00	 5.379963305718906e+00
 2.637706210934058e-01	 2.050749223590655e+00	 5.334380284582839e+00
 2.458818898377882e-01	 2.052970883441376e+00	 5.291121200797767e+00
 2.280283827566957e-01	 2.055030526094590e+00	 5.250118448764215e+00
 2.102120446620659e-01	 2.056929356113464e+00	 5.211279616310602e+00
 1.924347873813856e-01	 2.058668604040913e+00	 5.174488473392349e+00
 1.746984894580363e-01	 2.060249525487874e+00	 5.139605685219196e+00
 3.551817501735882e-01	 2.045864914866183e+00	 5.620108674900305e+00
 3.370702303555186e-01	 2.048926768285800e+00	 5.565236773597270e+00
 3.189838350290257e-01	 2.051820287884890e+00	 5.512691726673392e+00
 3.009246774716443e-01	 2.054546539202218e+00	 5.462510548055837e+00
 2.828948397473759e-01	 2.057106618431624e+00	 5.414700597840707e+00
 2.648963722692748e-01	 2.059501651513772e+00	 5.369241768514537e+00
 2.469312933897871e-01	 2.061732793224723e+00	 5.326088377299288e+00
 2.290015890186401e-01	 2.063801226262182e+00	 5.285170763480724e+00
 2.111092122680545e-01	 2.065708160330302e+00	 5.246396591484038e+00
 1.932560831250248e-01	 2.067454831223859e+00	 5.209651862297588e+00
 1.754440881503875e-01	 2.069042499912646e+00	 5.174801637573102e+00
 3.566911942967296e-01	 2.054559389664892e+00	 5.653554118542312e+00
 3.385027045131052e-01	 2.057634255286469e+00	 5.598825850239730e+00
 3.203394459946425e-01	 2.060540071705855e+00	 5.546440791093502e+00
 3.022035409998227e-01	 2.063277908990127e+00	 5.496425141358290e+00
 2.840970804409434e-01	 2.065848867991720e+00	 5.448777391422353e+00
 2.660221234448452e-01	 2.068254079436308e+00	 5.403470582341668e+00
 2.479806969415102e-01	 2.070494703007503e+00	 5.360454259968783e+00
 2.299747952803279e-01	 2.072571926429228e+00	 5.319656121582594e+00
 2.120063798737988e-01	 2.074486964546619e+00	 5.280983355888531e+00
 1.940773788684229e-01	 2.076241058406318e+00	 5.244323679136937e+00
 1.761896868424884e-01	 2.077835474336970e+00	 5.209546071905459e+00
 3.582006384196533e-01	 2.063253864463201e+00	 5.686413978269679e+00
 3.399351786704651e-01	 2.066341742286739e+00	 5.631839826042535e+00
 3.216950569600325e-01	 2.069259855526419e+00	 5.579630092930110e+00
 3.034824045277811e-01	 2.072009278777640e+00	 5.529799452076528e+00
 2.852993211343018e-01	 2.074591117551423e+00	 5.482336836539452e+00
 2.671478746202196e-01	 2.077006507358456e+00	 5.437207777223773e+00
 2.490301004930512e-01	 2.079256612789907e+00	 5.394356421608300e+00
 2.309480015418452e-01	 2.081342626595910e+00	 5.353707232212015e+00
 2.129035474793806e-01	 2.083265768762590e+00	 5.315166365771541e+00
 1.948986746116602e-01	 2.085027285588452e+00	 5.278622736036226e+00
 1.769352855344224e-01	 2.086628448760998e+00	 5.243948764931808e+00
 3.597100825425086e-01	 2.071948339261310e+00	 5.718825000009405e+00
 3.413676528277411e-01	 2.075049229286808e+00	 5.664418821524960e+00
 3.230506679253299e-01	 2.077979639346785e+00	 5.612401795413265e+00
 3.047612680556432e-01	 2.080740648564952e+00	 5.562776340465019e+00
 2.865015618275644e-01	 2.083333367110929e+00	 5.515521132851499e+00
 2.682736257955012e-01	 2.085758935280411e+00	 5.470593524575097e+00
 2.500795040445034e-01	 2.088018522572120e+00	 5.427931629624444e+00
 2.319212078032784e-01	 2.090113326762409e+00	 5.387456076824849e+00
 2.138007150848811e-01	 2.092044572978385e+00	 5.349071430460507e+00
 1.957199703548173e-01	 2.093813512770423e+00	 5.312667281728118e+00
 1.776808842262729e-01	 2.095421423184876e+00	 5.278119015984311e+00
 3.612195266654453e-01	 2.080642814059420e+00	 5.750922740418681e+00
 3.428001269850763e-01	 2.083756716286878e+00	 5.696701822564150e+00
 3.244062788906685e-01	 2.086699423167150e+00	 5.644896986534155e+00
 3.060401315835329e-01	 2.089472018352266e+00	 5.595497655359498e+00
 2.877038025208442e-01	 2.092075616670436e+00	 5.548471536491651e+00
 2.693993769707930e-01	 2.094511363202366e+00	 5.503767123908603e+00
 2.511289075959609e-01	 2.096780432354334e+00	 5.461315854551884e+00
 2.328944140647136e-01	 2.098884026928908e+00	 5.421033918126009e+00
 2.146978826903825e-01	 2.100823377194181e+00	 5.382823721438760e+00
 1.965412660979743e-01	 2.102599739952393e+00	 5.346575010502034e+00
 1.784264829181235e-01	 2.104214397608754e+00	 5.312165655564918e+00
 3.627289707886124e-01	 2.089337288857729e+00	 5.782841567046278e+00
 3.442326011426131e-01	 2.092464203287147e+00	 5.728826682564552e+00
 3.257618898561826e-01	 2.095419206987716e+00	 5.677255682955745e+00
 3.073189951115741e-01	 2.098203388139777e+00	 5.628104239564767e+00
 2.889060432142544e-01	 2.100817866230138e+00	 5.581328366662465e+00
 2.705251281461976e-01	 2.103263791124514e+00	 5.536867010374483e+00
 2.521783111475171e-01	 2.105542342136737e+00	 5.494644278272181e+00
 2.338676203262373e-01	 2.107654727095588e+00	 5.454571308701210e+00
 2.155950502959660e-01	 2.109602181410150e+00	 5.416547781125600e+00
 1.973625618412119e-01	 2.111385967134527e+00	 5.380463070868474e+00
 1.791720816100575e-01	 2.113007372032781e+00	 5.346197053634510e+00
 3.642384149121597e-01	 2.098031763656439e+00	 5.814714658307241e+00
 3.456650753004947e-01	 2.101171690287817e+00	 5.760930124406413e+00
 3.271175008220060e-01	 2.104138990808680e+00	 5.709616833675742e+00
 3.085978586398906e-01	 2.106934757927686e+00	 5.660735934970369e+00
 2.901082839079087e-01	 2.109560115790234e+00	 5.614231011946659e+00
 2.716508793218180e-01	 2.112016219047050e+00	 5.570030762005320e+00
 2.532277146992657e-01	 2.114304251919518e+00	 5.528051301932183e+00
 2.348408265879358e-01	 2.116425427262635e+00	 5.488198099350700e+00
 2.164922179017134e-01	 2.118380985626467e+00	 5.450367531367701e+00
 1.981838575846104e-01	 2.120172194316987e+00	 5.414448073951502e+00
 1.799176803021584e-01	 2.121800346457106e+00	 5.380321127647480e+00
 3.657478590362367e-01	 2.106726238455749e+00	 5.846674003275506e+00
 3.470975494588637e-01	 2.109879177289086e+00	 5.793147742179925e+00
 3.284731117882728e-01	 2.112858774630243e+00	 5.742118323447595e+00
 3.098767221686065e-01	 2.115666127716192e+00	 5.693531587405873e+00
 2.913105246019199e-01	 2.118302365350920e+00	 5.647317936340572e+00
 2.727766304977570e-01	 2.120768646970166e+00	 5.603395106674068e+00
 2.542771182513003e-01	 2.123066161702865e+00	 5.561670553572645e+00
 2.358140328498953e-01	 2.125196127430227e+00	 5.522043447135774e+00
 2.173893855077065e-01	 2.127159789843305e+00	 5.484406281649992e+00
 1.990051533282502e-01	 2.128958421499934e+00	 5.448646101611514e+00
 1.806632789945095e-01	 2.130593320881877e+00	 5.414645350338602e+00
 3.672573031609927e-01	 2.115420713255858e+00	 5.878850401300857e+00
 3.485300236178633e-01	 2.118586664291156e+00	 5.825614002711585e+00
 3.298287227551172e-01	 2.121578558452605e+00	 5.774896975968870e+00
 3.111555856978455e-01	 2.124397497505492e+00	 5.726629051241287e+00
 2.925127652964016e-01	 2.127044614912394e+00	 5.680726685018961e+00
 2.739023816741177e-01	 2.129521074894057e+00	 5.637095928774635e+00
 2.553265218037148e-01	 2.131828071486968e+00	 5.595634895476964e+00
 2.367872391122023e-01	 2.133966827598550e+00	 5.556235823145807e+00
 2.182865531140267e-01	 2.135938594060838e+00	 5.518786737035582e+00
 1.998264490722119e-01	 2.137744648683531e+00	 5.483172714311660e+00
 1.814088776871944e-01	 2.139386295307245e+00	 5.449276757266921e+00
 1.739528907653514e-01	 2.051456551062507e+00	 5.103847951921377e+00
 1.563378956469499e-01	 2.052874120972599e+00	 5.071884638520333e+00
 1.387672691588538e-01	 2.054136664002496e+00	 5.043857284176662e+00
 1.212427399094186e-01	 2.055245498769098e+00	 5.019683633501558e+00
 1.037660035474255e-01	 2.056201965204191e+00	 4.999254827168946e+00
 8.633872258613057e-02	 2.057007423672388e+00	 4.982434641756488e+00
 6.896252625088575e-02	 2.057663254093237e+00	 4.969058526804292e+00
 5.163901034994151e-02	 2.058170855068159e+00	 4.958932451915892e+00
 3.436973716802243e-02	 2.058531643012857e+00	 4.951831577512099e+00
 1.715623538225374e-02	 2.058747051295792e+00	 4.947498763536283e+00
 0.000000000000000e+00	 2.058818529383334e+00	 4.945642930749495e+00
 1.746984894580363e-01	 2.060249525487874e+00	 5.139605685219196e+00
 1.570079927641405e-01	 2.061673171400800e+00	 5.107622195933283e+00
 1.393620548737723e-01	 2.062941125955724e+00	 5.079573280613930e+00
 1.217624118044821e-01	 2.064054713421412e+00	 5.055367938687199e+00
 1.042107664729743e-01	 2.065015279472879e+00	 5.034890098010231e+00
 8.670878851840166e-02	 2.065824190305541e+00	 5.017997846779327e+00
 6.925811414933408e-02	 2.066482831753568e+00	 5.004522453014797e+00
 5.186034601400691e-02	 2.066992608413080e+00	 4.994267184863581e+00
 3.451705309344057e-02	 2.067354942770832e+00	 4.987005945768608e+00
 1.722977061700658e-02	 2.067571274338999e+00	 4.982481739260903e+00
 0.000000000000000e+00	 2.067643058796667e+00	 4.980404978496757e+00
 1.754440881503875e-01	 2.069042499912646e+00	 5.174801637573102e+00
 1.576780898809675e-01	 2.070472221828471e+00	 5.142844394086991e+00
 1.399568405882869e-01	 2.071745587908495e+00	 5.114813804649250e+00
 1.222820836991007e-01	 2.072863928073350e+00	 5.090612418338178e+00
 1.046555293980451e-01	 2.073828593741268e+00	 5.070119369043180e+00
 8.707885445017917e-02	 2.074640956938473e+00	 5.053189594715398e+00
 6.955370204729965e-02	 2.075302409413749e+00	 5.039652834359078e+00
 5.208168167763563e-02	 2.075814361757912e+00	 5.029312416426153e+00
 3.466436901851208e-02	 2.076178242528764e+00	 5.021943853120602e+00
 1.730330585155552e-02	 2.076395497382195e+00	 5.017293255844316e+00
 0.000000000000000e+00	 2.076467588210001e+00	 5.015075587400138e+00
 1.761896868424884e-01	 2.077835474336970e+00	 5.209546071905455e+00
 1.583481869975218e-01	 2.079271272255743e+00	 5.177651895938844e+00
 1.405516263024989e-01	 2.080550049860926e+00	 5.149670330368330e+00
 1.228017555933855e-01	 2.081673142725004e+00	 5.125499736289012e+00
 1.051002923227574e-01	 2.082641908009435e+00	 5.105016841208919e+00
 8.744892038158651e-02	 2.083457723571238e+00	 5.088075940935317e+00
 6.984928994490312e-02	 2.084121987073818e+00	 5.074507869159097e+00
 5.230301734093679e-02	 2.084636115102677e+00	 5.064118748840811e+00
 3.481168494332357e-02	 2.085001542286665e+00	 5.056688540374720e+00
 1.737684108595153e-02	 2.085219720425383e+00	 5.051969402252054e+00
 0.000000000000000e+00	 2.085292117623334e+00	 5.049683880348046e+00
 1.769352855344224e-01	 2.086628448760998e+00	 5.243948764931808e+00
 1.590182841138943e-01	 2.088070322682753e+00	 5.212144951764950e+00
 1.411464120165089e-01	 2.089354511813128e+00	 5.184233964612305e+00
 1.233214274874479e-01	 2.090482357376469e+00	 5.160112206880938e+00
 1.055450552472308e-01	 2.091455222277454e+00	 5.139656356447954e+00
 8.781898631274709e-02	 2.092274490203895e+00	 5.122722545490783e+00
 7.014487784226525e-02	 2.092941564733812e+00	 5.109145297761672e+00
 5.252435300401959e-02	 2.093457868447397e+00	 5.098736237873394e+00
 3.495900086796176e-02	 2.093824842044545e+00	 5.091282588045695e+00
 1.745037632024558e-02	 2.094043943468565e+00	 5.086545468548770e+00
 0.000000000000000e+00	 2.094116647036667e+00	 5.084258018490322e+00
 1.776808842262729e-01	 2.095421423184876e+00	 5.278119015984311e+00
 1.596883812301760e-01	 2.096869373109628e+00	 5.246423407616717e+00
 1.417411977304180e-01	 2.098158973765217e+00	 5.218595455433957e+00
 1.238410993813990e-01	 2.099291572027842e+00	 5.194531803770635e+00
 1.059898181715847e-01	 2.100268536545396e+00	 5.174111407202464e+00
 8.818905224378430e-02	 2.101091256836494e+00	 5.157194683640614e+00
 7.044046573950664e-02	 2.101761142393767e+00	 5.143622414409158e+00
 5.274568866699318e-02	 2.102279621792094e+00	 5.133214406336712e+00
 3.510631679251330e-02	 2.102648141802415e+00	 5.125767931814886e+00
 1.752391155448866e-02	 2.102868166511744e+00	 5.121055963581950e+00
 0.000000000000000e+00	 2.102941176450000e+00	 5.118825221417293e+00
 1.784264829181235e-01	 2.104214397608754e+00	 5.312165655564918e+00
 1.603584783464577e-01	 2.105668423536505e+00	 5.280586713526541e+00
 1.423359834443270e-01	 2.106963435717304e+00	 5.252845200310607e+00
 1.243607712753501e-01	 2.108100786679214e+00	 5.228840168494305e+00
 1.064345810959385e-01	 2.109081850813341e+00	 5.208455145662405e+00
 8.855911817482148e-02	 2.109908023469094e+00	 5.191557256103023e+00
 7.073605363674806e-02	 2.110580720053723e+00	 5.177996078802892e+00
 5.296702432996681e-02	 2.111101375136791e+00	 5.167602257263953e+00
 3.525363271706484e-02	 2.111471441560285e+00	 5.160185877601386e+00
 1.759744678873173e-02	 2.111692389554924e+00	 5.155534632222699e+00
 0.000000000000000e+00	 2.111765705863333e+00	 5.153411786832154e+00
 1.791720816100575e-01	 2.113007372032781e+00	 5.346197053634514e+00
 1.610285754628302e-01	 2.114467473963513e+00	 5.314733931466908e+00
 1.429307691583371e-01	 2.115767897669508e+00	 5.287073254118234e+00
 1.248804431694124e-01	 2.116910001330680e+00	 5.263118618791562e+00
 1.068793440204119e-01	 2.117895165081359e+00	 5.242760392764266e+00
 8.892918410598209e-02	 2.118724790101751e+00	 5.225874799035883e+00
 7.103164153411014e-02	 2.119400297713716e+00	 5.212322727369097e+00
 5.318835999304961e-02	 2.119923128481511e+00	 5.201948286749113e+00
 3.540094864170301e-02	 2.120294741318164e+00	 5.194577116252772e+00
 1.767098202302579e-02	 2.120516612598105e+00	 5.190014472173638e+00
 0.000000000000000e+00	 2.120590235276666e+00	 5.188043109732487e+00
 1.799176803021584e-01	 2.121800346457106e+00	 5.380321127647480e+00
 1.616986725793845e-01	 2.123266524390786e+00	 5.348963743072319e+00
 1.435255548725490e-01	 2.124572359621937e+00	 5.321369336877416e+00
 1.254001150636973e-01	 2.125719215982335e+00	 5.297448156698813e+00
 1.073241069451242e-01	 2.126708479349526e+00	 5.277099646945501e+00
 8.929925003738945e-02	 2.127541556734517e+00	 5.260211493758984e+00
 7.132722943171366e-02	 2.128219875373785e+00	 5.246658384237795e+00
 5.340969565635077e-02	 2.128744881826276e+00	 5.236300496464123e+00
 3.554826456651451e-02	 2.129118041076065e+00	 5.228981737870296e+00
 1.774451725742180e-02	 2.129340835641293e+00	 5.224527750361810e+00
 0.000000000000000e+00	 2.129414764689999e+00	 5.222743701115313e+00
 1.806632789945095e-01	 2.130593320881877e+00	 5.414645350338605e+00
 1.623687696962115e-01	 2.132065574818457e+00	 5.383374457129474e+00
 1.441203405870637e-01	 2.133376821574709e+00	 5.355822841273700e+00
 1.259197869583158e-01	 2.134528430634272e+00	 5.331909476418592e+00
 1.077688698701950e-01	 2.135521793617915e+00	 5.311545092666389e+00
 8.966931596916697e-02	 2.136358323367449e+00	 5.294631176221333e+00
 7.162281732967921e-02	 2.137039453033965e+00	 5.281058671941556e+00
 5.363103131997948e-02	 2.137566635171108e+00	 5.270706405859816e+00
 3.569558049158602e-02	 2.137941340833998e+00	 5.263439245775481e+00
 1.781805249197074e-02	 2.138165058684489e+00	 5.259106018919998e+00
 0.000000000000000e+00	 2.138239294103332e+00	 5.257537206217582e+00
 1.814088776871944e-01	 2.139386295307245e+00	 5.449276757266921e+00
 1.630388668134021e-01	 2.140864625246658e+00	 5.418064016842985e+00
 1.447151263019822e-01	 2.142181283527937e+00	 5.390522839962682e+00
 1.264394588533794e-01	 2.143337645286587e+00	 5.366582971968679e+00
 1.082136327957438e-01	 2.144335107886604e+00	 5.346168608701968e+00
 9.003938190143806e-02	 2.145175090000602e+00	 5.329197346223228e+00
 7.191840522812755e-02	 2.145859030694298e+00	 5.315578821841941e+00
 5.385236698404491e-02	 2.146388388516030e+00	 5.305213064063557e+00
 3.584289641700417e-02	 2.146764640591973e+00	 5.297988570132920e+00
 1.789158772672358e-02	 2.146989281727696e+00	 5.293780130779362e+00
 0.000000000000000e+00	 2.147063823516666e+00	 5.292446422308609e+00
 2.147063823516666e+00	 0.000000000000000e+00	 1.204094395807072e+01
 2.146989281727697e+00	 1.789158772672240e-02	 1.204326870131097e+01
 2.146764640591973e+00	 3.584289641700315e-02	 1.204615381435512e+01
 2.146388388516029e+00	 5.385236698404408e-02	 1.204951325936848e+01
 2.145859030694298e+00	 7.191840522812687e-02	 1.205327557076687e+01
 2.145175090000602e+00	 9.003938190143755e-02	 1.205738348596945e+01
 2.144335107886603e+00	 1.082136327957435e-01	 1.206179364027883e+01
 2.143337645286588e+00	 1.264394588533793e-01	 1.206647633157398e+01
 2.142181283527938e+00	 1.447151263019822e-01	 1.207141536058285e+01
 2.140864625246658e+00	 1.630388668134023e-01	 1.207660795253896e+01
 2.139386295307245e+00	 1.814088776871945e-01	 1.208206476604783e+01
 2.155886852925016e+00	 0.000000000000000e+00	 1.202025812060756e+01
 2.155812004818010e+00	 1.796511046209789e-02	 1.202266197927143e+01
 2.155586440554033e+00	 3.599018730187193e-02	 1.202559596437612e+01
 2.155208642327952e+00	 5.407366502569269e-02	 1.202898303018346e+01
 2.154677109191528e+00	 7.221394288271948e-02	 1.203275992594318e+01
 2.153990357948555e+00	 9.040938492999101e-02	 1.203687679433468e+01
 2.153146924057020e+00	 1.086583201204628e-01	 1.204129683537186e+01
 2.152145362537581e+00	 1.269590424144494e-01	 1.204599604155707e+01
 2.150984248887804e+00	 1.453098109149132e-01	 1.205096301015893e+01
 2.149662180001442e+00	 1.637088500270273e-01	 1.205619883852338e+01
 2.148177775092080e+00	 1.821543496424223e-01	 1.206171710835345e+01
 2.164709882333466e+00	 0.000000000000000e+00	 1.200000503361822e+01
 2.164634727908435e+00	 1.803863319767585e-02	 1.200251083148948e+01
 2.164408240516233e+00	 3.613747818708211e-02	 1.200551244863088e+01
 2.164028896140064e+00	 5.429496306776715e-02	 1.200894197293951e+01
 2.163495187689004e+00	 7.250948053777691e-02	 1.201274452041881e+01
 2.162805625896828e+00	 9.077938795901222e-02	 1.201687780147289e+01
 2.161958740227829e+00	 1.091030074456263e-01	 1.202131175398599e+01
 2.160953079789044e+00	 1.274786259759229e-01	 1.202602824907586e+01
 2.159787214248219e+00	 1.459044955281991e-01	 1.203102087549823e+01
 2.158459734756845e+00	 1.643788332409613e-01	 1.203629480871847e+01
 2.156969254877593e+00	 1.828998215979255e-01	 1.204186677069265e+01
 2.173532911742116e+00	 0.000000000000000e+00	 1.198019322540968e+01
 2.173457450999069e+00	 1.811215593340394e-02	 1.198281781348427e+01
 2.173230040478665e+00	 3.628476907254193e-02	 1.198590031310994e+01
 2.172849149952441e+00	 5.451626111014748e-02	 1.198938208656382e+01
 2.172313266186794e+00	 7.280501819316076e-02	 1.199321676750720e+01
 2.171620893845463e+00	 9.114939098835227e-02	 1.199736979529706e+01
 2.170770556399055e+00	 1.095476947710806e-01	 1.200181801739259e+01
 2.169760797040980e+00	 1.279982095376466e-01	 1.200654936584608e+01
 2.168590179609160e+00	 1.464991801416903e-01	 1.201156261395753e+01
 2.167257289512821e+00	 1.650488164550589e-01	 1.201686721921297e+01
 2.165760734663721e+00	 1.836452935535623e-01	 1.202248325865518e+01
 2.182355941151066e+00	 0.000000000000000e+00	 1.196083169347251e+01
 2.182280174090007e+00	 1.818567866922985e-02	 1.196358604657715e+01
 2.182051840441417e+00	 3.643205995815960e-02	 1.196675725975941e+01
 2.181669403765162e+00	 5.473755915271377e-02	 1.197029610959493e+01
 2.181131344684955e+00	 7.310055584873260e-02	 1.197416489726552e+01
 2.180436161794501e+00	 9.151939401786215e-02	 1.197833695105457e+01
 2.179582372570720e+00	 1.099923820966725e-01	 1.198279619823426e+01
 2.178568514293389e+00	 1.285177930994679e-01	 1.198753681243382e+01
 2.177393144970602e+00	 1.470938647552370e-01	 1.199256294266825e+01
 2.176054844269327e+00	 1.657187996691748e-01	 1.199788853025065e+01
 2.174552214450399e+00	 1.843907655091912e-01	 1.200353721984141e+01
 2.191178970560415e+00	 0.000000000000000e+00	 1.194192989503472e+01
 2.191102897181349e+00	 1.825920140510125e-02	 1.194481920689421e+01
 2.190873640404581e+00	 3.657935084384342e-02	 1.194808163401789e+01
 2.190489657578304e+00	 5.495885719534612e-02	 1.195167750633914e+01
 2.189949423183549e+00	 7.339609350435398e-02	 1.195557794135570e+01
 2.189251429743987e+00	 9.188939704739298e-02	 1.195976431497672e+01
 2.188394188742844e+00	 1.104370694222489e-01	 1.196422780304674e+01
 2.187376231546269e+00	 1.290373766612339e-01	 1.196896899973236e+01
 2.186196110332526e+00	 1.476885493686899e-01	 1.197399761905066e+01
 2.184852399026318e+00	 1.663887828831639e-01	 1.197933228586359e+01
 2.183343694237561e+00	 1.851362374646702e-01	 1.198500042269530e+01
 2.200001999970266e+00	 0.000000000000000e+00	 1.192349773784313e+01
 2.199925620273190e+00	 1.833272414096580e-02	 1.192652151463311e+01
 2.199695440368243e+00	 3.672664172950156e-02	 1.192987241265185e+01
 2.199309911391945e+00	 5.518015523792461e-02	 1.193352045335754e+01
 2.198767501682639e+00	 7.369163115988650e-02	 1.193744571826462e+01
 2.198066697693963e+00	 9.225940007679573e-02	 1.194163778831363e+01
 2.197206004915452e+00	 1.108817567476566e-01	 1.194609525518919e+01
 2.196183948799623e+00	 1.295569602227918e-01	 1.195082531086830e+01
 2.194999075694908e+00	 1.482832339818991e-01	 1.195584342177519e+01
 2.193649953783748e+00	 1.670587660968804e-01	 1.196117309396774e+01
 2.192135174025141e+00	 1.858817094198578e-01	 1.196684573581258e+01
 2.208825029380716e+00	 0.000000000000000e+00	 1.190554557116539e+01
 2.208748343365628e+00	 1.840624687677118e-02	 1.190869772358669e+01
 2.208517240332494e+00	 3.687393261504230e-02	 1.191212919188141e+01
 2.208130165206160e+00	 5.540145328032932e-02	 1.191581982627325e+01
 2.207585580182284e+00	 7.398716881519168e-02	 1.191975881887279e+01
 2.206881965644471e+00	 9.262940310592145e-02	 1.192394411174303e+01
 2.206017821088564e+00	 1.113264440727425e-01	 1.192838187817141e+01
 2.204991666053448e+00	 1.300765437839886e-01	 1.193308608352446e+01
 2.203802041057728e+00	 1.488779185947151e-01	 1.193807813215849e+01
 2.202447508541579e+00	 1.677287493101794e-01	 1.194338660690808e+01
 2.200926653813076e+00	 1.866271813746121e-01	 1.194904710771070e+01
 2.217648058791865e+00	 0.000000000000000e+00	 1.188808417700710e+01
 2.217571066458761e+00	 1.847976961246507e-02	 1.189135311091648e+01
 2.217339040297423e+00	 3.702122350037385e-02	 1.189485217578807e+01
 2.216950419021027e+00	 5.562275132244034e-02	 1.189857118689119e+01
 2.216403658682547e+00	 7.428270647013119e-02	 1.190250859236262e+01
 2.215697233595557e+00	 9.299940613462128e-02	 1.190667085014337e+01
 2.214829637262203e+00	 1.117711313973532e-01	 1.191107187936709e+01
 2.213799383307747e+00	 1.305961273446716e-01	 1.191573259266897e+01
 2.212605006420962e+00	 1.494726032069882e-01	 1.192068051598207e+01
 2.211245063299760e+00	 1.683987325229155e-01	 1.192594950244075e+01
 2.209718133601300e+00	 1.873726533287918e-01	 1.193157954704778e+01
 2.226471088203815e+00	 0.000000000000000e+00	 1.187112476153753e+01
 2.226393789552685e+00	 1.855329234799514e-02	 1.187449346716895e+01
 2.226160840263118e+00	 3.716851438540449e-02	 1.187804216499685e+01
 2.225770672836623e+00	 5.584404936413773e-02	 1.188177077062089e+01
 2.225221737183490e+00	 7.457824412456648e-02	 1.188568713245605e+01
 2.224512501547259e+00	 9.336940916274614e-02	 1.188980637771991e+01
 2.223641453436392e+00	 1.122158187213357e-01	 1.189415033410231e+01
 2.222607100562519e+00	 1.311157109046881e-01	 1.189874703367779e+01
 2.221407971784588e+00	 1.500672878185689e-01	 1.190363030572125e+01
 2.220042618058251e+00	 1.690687157349433e-01	 1.190883946514024e+01
 2.218509613389748e+00	 1.881181252822547e-01	 1.191441910327807e+01
 2.235294117616666e+00	 0.000000000000000e+00	 1.185467894671852e+01
 2.235216512647500e+00	 1.862681508330905e-02	 1.185812508652790e+01
 2.234982640229673e+00	 3.731580527004243e-02	 1.186170054562522e+01
 2.234590926653027e+00	 5.606534740530161e-02	 1.186541547419400e+01
 2.234039815685173e+00	 7.487378177835924e-02	 1.186928726397315e+01
 2.233327769499625e+00	 9.373941219014720e-02	 1.187333986347583e+01
 2.232453269611153e+00	 1.126605060445367e-01	 1.187760317010877e+01
 2.231414817817765e+00	 1.316352944638850e-01	 1.188211250584123e+01
 2.230210937148586e+00	 1.506619724293075e-01	 1.188690818317448e+01
 2.228840172817007e+00	 1.697386989461175e-01	 1.189203516821955e+01
 2.227301093178355e+00	 1.888635972348596e-01	 1.189754284773211e+01
 2.139386295307245e+00	 1.814088776871945e-01	 1.208206476604783e+01
 2.137744648683532e+00	 1.998264490722111e-01	 1.208824430613765e+01
 2.135938594060838e+00	 2.182865531140259e-01	 1.209558476476480e+01
 2.133966827598551e+00	 2.367872391122015e-01	 1.210408683591593e+01
 2.131828071486969e+00	 2.553265218037142e-01	 1.211376158765358e+01
 2.129521074894057e+00	 2.739023816741171e-01	 1.212463099025029e+01
 2.127044614912394e+00	 2.925127652964011e-01	 1.213672857081147e+01
 2.124397497505491e+00	 3.111555856978451e-01	 1.215010019998681e+01
 2.121578558452605e+00	 3.298287227551169e-01	 1.216480501623322e+01
 2.118586664291155e+00	 3.485300236178631e-01	 1.218091649293744e+01
 2.115420713255859e+00	 3.672573031609928e-01	 1.219852365352070e+01
 2.148177775092080e+00	 1.821543496424223e-01	 1.206171710835345e+01
 2.146529382373564e+00	 2.006476052116181e-01	 1.206795760650581e+01
 2.144715906046622e+00	 2.191835682189999e-01	 1.207533878968330e+01
 2.142736036912700e+00	 2.377602799480361e-01	 1.208386150316868e+01
 2.140588491911129e+00	 2.563757469775795e-01	 1.209353621605750e+01
 2.138272015069765e+00	 2.750279414943086e-01	 1.210438354163726e+01
 2.135785378455829e+00	 2.937148016329822e-01	 1.211643488652262e+01
 2.133127383126119e+00	 3.124342318447950e-01	 1.212973323425335e+01
 2.130296860075697e+00	 3.311841032941044e-01	 1.214433406892842e+01
 2.127292671184186e+00	 3.499622542837595e-01	 1.216030644429313e+01
 2.124113710158760e+00	 3.687664907092441e-01	 1.217773420351473e+01
 2.156969254877593e+00	 1.828998215979255e-01	 1.204186677069265e+01
 2.155314116064326e+00	 2.014687613512871e-01	 1.204815976409437e+01
 2.153493218033174e+00	 2.200805833242418e-01	 1.205557408177106e+01
 2.151505246227645e+00	 2.387333207841608e-01	 1.206411039113368e+01
 2.149348912336104e+00	 2.574249721517705e-01	 1.207377822504962e+01
 2.147022955246299e+00	 2.761535013148723e-01	 1.208459649477388e+01
 2.144526142000099e+00	 2.949168379699883e-01	 1.209659413391276e+01
 2.141857268747582e+00	 3.137128779922271e-01	 1.210981087923391e+01
 2.139015161699622e+00	 3.325394838336319e-01	 1.212429819400462e+01
 2.135998678078050e+00	 3.513944849502514e-01	 1.214012033938605e+01
 2.132806707062495e+00	 3.702756782581408e-01	 1.215735559922986e+01
 2.165760734663721e+00	 1.836452935535623e-01	 1.202248325865518e+01
 2.164098849755733e+00	 2.022899174910777e-01	 1.202881878780208e+01
 2.162270530020391e+00	 2.209775984296105e-01	 1.203625741467078e+01
 2.160274455543268e+00	 2.397063616204323e-01	 1.204479930317518e+01
 2.158109332761763e+00	 2.584741973261401e-01	 1.205445271619771e+01
 2.155773895423520e+00	 2.772790611356551e-01	 1.206523452137734e+01
 2.153266905545051e+00	 2.961188743072610e-01	 1.207717083021360e+01
 2.150587154369724e+00	 3.149915241399767e-01	 1.209029777640899e+01
 2.147733463324223e+00	 3.338948643735286e-01	 1.210466243923971e+01
 2.144704684972583e+00	 3.528267156171619e-01	 1.212032391759254e+01
 2.141499703966895e+00	 3.717848658075003e-01	 1.213735456012627e+01
 2.174552214450399e+00	 1.843907655091912e-01	 1.200353721984141e+01
 2.172883583447700e+00	 2.031110736308498e-01	 1.200990386142448e+01
 2.171047842008173e+00	 2.218746135349653e-01	 1.201735676632203e+01
 2.169043664859453e+00	 2.406794024567073e-01	 1.202589527280580e+01
 2.166869753187978e+00	 2.595234225005410e-01	 1.203552604346572e+01
 2.164524835601286e+00	 2.784046209565050e-01	 1.204626356415432e+01
 2.162007669090537e+00	 2.973209106446422e-01	 1.205813077854047e+01
 2.159317039992388e+00	 3.162701702878790e-01	 1.207115986429921e+01
 2.156451764949334e+00	 3.352502449136231e-01	 1.208539315683783e+01
 2.153410691867619e+00	 3.542589462843135e-01	 1.210088422630489e+01
 2.150192700871797e+00	 3.732940533571398e-01	 1.211769911345289e+01
 2.183343694237561e+00	 1.851362374646702e-01	 1.198500042269530e+01
 2.181668317140144e+00	 2.039322297704632e-01	 1.199138532173604e+01
 2.179825153996416e+00	 2.227716286401655e-01	 1.199884129631167e+01
 2.177812874176083e+00	 2.416524432928424e-01	 1.200736654032729e+01
 2.175630173614619e+00	 2.605726476748258e-01	 1.201696578916613e+01
 2.173275775779456e+00	 2.795301807772695e-01	 1.202765081208890e+01
 2.170748432636405e+00	 2.985229469819732e-01	 1.203944104254101e+01
 2.168046925615416e+00	 3.175488164357696e-01	 1.205236435250162e+01
 2.165170066574794e+00	 3.366056254537444e-01	 1.206645797688186e+01
 2.162116698762993e+00	 3.556911769515287e-01	 1.208176959382978e+01
 2.158885697777032e+00	 3.748032409068762e-01	 1.209835856662341e+01
 2.192135174025141e+00	 1.858817094198578e-01	 1.196684573581258e+01
 2.190453050832980e+00	 2.047533859097776e-01	 1.197323463705823e+01
 2.188602465985023e+00	 2.236686437450699e-01	 1.198068132372054e+01
 2.186582083493046e+00	 2.426254841286944e-01	 1.198918252997457e+01
 2.184390594041556e+00	 2.616218728488473e-01	 1.199874074042343e+01
 2.182026715957890e+00	 2.806557405977962e-01	 1.200936467624738e+01
 2.179489196182510e+00	 2.997249833190961e-01	 1.202106992156560e+01
 2.176776811238651e+00	 3.188274625834834e-01	 1.203387969625089e+01
 2.173888368200441e+00	 3.379610059937213e-01	 1.204782578131243e+01
 2.170822705658540e+00	 3.571234076186305e-01	 1.206294960281373e+01
 2.167578694682434e+00	 3.763124284565266e-01	 1.207930348011851e+01
 2.200926653813076e+00	 1.866271813746121e-01	 1.194904710771070e+01
 2.199237784526123e+00	 2.055745420486529e-01	 1.195542438629995e+01
 2.197379777973891e+00	 2.245656588495380e-01	 1.196284830545137e+01
 2.195351292810220e+00	 2.435985249641197e-01	 1.197131382754998e+01
 2.193151014468660e+00	 2.626710980224581e-01	 1.198082086613406e+01
 2.190777656136448e+00	 2.817813004179327e-01	 1.199137476608563e+01
 2.188229959728697e+00	 3.009270196558522e-01	 1.200298692634443e+01
 2.185506696861939e+00	 3.201061087308563e-01	 1.201567557149068e+01
 2.182606669826112e+00	 3.393163865333828e-01	 1.202946667841913e+01
 2.179528712554093e+00	 3.585556382854416e-01	 1.204439506418132e+01
 2.176271691587835e+00	 3.778216160059086e-01	 1.206050564090012e+01
 2.209718133601300e+00	 1.873726533287918e-01	 1.193157954704778e+01
 2.208022518219492e+00	 2.063956981869490e-01	 1.193792823845718e+01
 2.206157089962917e+00	 2.254626739534285e-01	 1.194531481502512e+01
 2.204120502127490e+00	 2.445715657989752e-01	 1.195373215853385e+01
 2.201911434895801e+00	 2.637203231955108e-01	 1.196317729440973e+01
 2.199528596314987e+00	 2.829068602375265e-01	 1.197365186624499e+01
 2.196970723274818e+00	 3.021290559920834e-01	 1.198516275515776e+01
 2.194236582485118e+00	 3.213847548777231e-01	 1.199772285044091e+01
 2.191324971451645e+00	 3.406717670725576e-01	 1.201135197782934e+01
 2.188234719449488e+00	 3.599878689517844e-01	 1.202607799157173e+01
 2.184964688493071e+00	 3.793308035548390e-01	 1.204193803632264e+01
 2.218509613389748e+00	 1.881181252822547e-01	 1.191441910327807e+01
 2.216807251912999e+00	 2.072168543245254e-01	 1.192072093255894e+01
 2.214934401952002e+00	 2.263596890566009e-01	 1.192805452183259e+01
 2.212889711444741e+00	 2.455446066331173e-01	 1.193641036665752e+01
 2.210671855322850e+00	 2.647695483678583e-01	 1.194578229048986e+01
 2.208279536493369e+00	 2.840324200564252e-01	 1.195616791382309e+01
 2.205711486820725e+00	 3.033310923276313e-01	 1.196756927048521e+01
 2.202966468108035e+00	 3.226634010239193e-01	 1.197999357764730e+01
 2.200043273076878e+00	 3.420271476110746e-01	 1.199345416598100e+01
 2.196940726344561e+00	 3.614200996174821e-01	 1.200797157625939e+01
 2.193657685397974e+00	 3.808399911031352e-01	 1.202357482852827e+01
 2.227301093178355e+00	 1.888635972348596e-01	 1.189754284773211e+01
 2.225591985606564e+00	 2.080380104612422e-01	 1.190377825804758e+01
 2.223711713941045e+00	 2.272567041589144e-01	 1.191104217082865e+01
 2.221658920761857e+00	 2.465176474664031e-01	 1.191932239292711e+01
 2.219432275749678e+00	 2.658187735393531e-01	 1.192860923511085e+01
 2.217030476671453e+00	 2.851579798744763e-01	 1.193889597610657e+01
 2.214452250366266e+00	 3.045331286623377e-01	 1.195017947612096e+01
 2.211696353730532e+00	 3.239420471692804e-01	 1.196246094649957e+01
 2.208761574701650e+00	 3.433825281487632e-01	 1.197574688206610e+01
 2.205646733239143e+00	 3.628523302823570e-01	 1.199005016254598e+01
 2.202350682302377e+00	 3.823491786506144e-01	 1.200539132931225e+01
 2.115420713255859e+00	 3.672573031609928e-01	 1.219852365352070e+01
 2.112080218809191e+00	 3.860051560782366e-01	 1.221595400324345e+01
 2.108563621236568e+00	 4.047745206476998e-01	 1.223162164932748e+01
 2.104869918326306e+00	 4.235631242055140e-01	 1.224577171922892e+01
 2.100998143217202e+00	 4.423686640326460e-01	 1.225868175726371e+01
 2.096947365305518e+00	 4.611888079513150e-01	 1.227066386163870e+01
 2.092716691142881e+00	 4.800211949505413e-01	 1.228206698453906e+01
 2.088305265324173e+00	 4.988634358408002e-01	 1.229327939794353e+01
 2.083712271364325e+00	 5.177131139377213e-01	 1.230473132742728e+01
 2.078936932563052e+00	 5.365677857747292e-01	 1.231689775576980e+01
 2.073978512856493e+00	 5.554249818444937e-01	 1.233030139770744e+01
 2.124113710158760e+00	 3.687664907092441e-01	 1.217773420351473e+01
 2.120759488462541e+00	 3.875913850520200e-01	 1.219499456533470e+01
 2.117228439971545e+00	 4.064378794458986e-01	 1.221055630774385e+01
 2.113519558355659e+00	 4.253036918878404e-01	 1.222466594329446e+01
 2.109631872780525e+00	 4.441865101961342e-01	 1.223760186638906e+01
 2.105564448818238e+00	 4.630839926092652e-01	 1.224967650237547e+01
 2.101316389348949e+00	 4.819937684140336e-01	 1.226123862266336e+01
 2.096886835452392e+00	 5.009134386028998e-01	 1.227267582864806e+01
 2.092274967288285e+00	 5.198405765604910e-01	 1.228441720681681e+01
 2.087480004964628e+00	 5.387727287791740e-01	 1.229693615696864e+01
 2.082501209392824e+00	 5.577074156035491e-01	 1.231075339499916e+01
 2.132806707062495e+00	 3.702756782581408e-01	 1.215735559922986e+01
 2.129438758116726e+00	 3.891776140264905e-01	 1.217443124765140e+01
 2.125893258707358e+00	 4.081012382448166e-01	 1.218987146639795e+01
 2.122169198385853e+00	 4.270442595709091e-01	 1.220392436230322e+01
 2.118265602344693e+00	 4.460043563603793e-01	 1.221686938704143e+01
 2.114181532331809e+00	 4.649791772679778e-01	 1.222901949788898e+01
 2.109916087555876e+00	 4.839663418782847e-01	 1.224072348746306e+01
 2.105468405581475e+00	 5.029634413657451e-01	 1.225236848533984e+01
 2.100837663213118e+00	 5.219680391839848e-01	 1.226438263404430e+01
 2.096023077367081e+00	 5.409776717843123e-01	 1.227723794145870e+01
 2.091023905930038e+00	 5.599898493632576e-01	 1.229145331121602e+01
 2.141499703966895e+00	 3.717848658075003e-01	 1.213735456012627e+01
 2.138118027771579e+00	 3.907638430014604e-01	 1.215423201949079e+01
 2.134558077443845e+00	 4.097645970442629e-01	 1.216953659081038e+01
 2.130818838416728e+00	 4.287848272545272e-01	 1.218351817988744e+01
 2.126899331909553e+00	 4.478222025251862e-01	 1.219645749821613e+01
 2.122798615846085e+00	 4.668743619272565e-01	 1.220866823500708e+01
 2.118515785763518e+00	 4.859389153430989e-01	 1.222049940113422e+01
 2.114049975711286e+00	 5.050134441291420e-01	 1.223233784802551e+01
 2.109400359138693e+00	 5.240955018080113e-01	 1.224461096410803e+01
 2.104566149770289e+00	 5.431826147899551e-01	 1.225778955097303e+01
 2.099546602468018e+00	 5.622722831234357e-01	 1.227239088094450e+01
 2.150192700871797e+00	 3.732940533571398e-01	 1.211769911345289e+01
 2.146797297426935e+00	 3.923500719767423e-01	 1.213436615423100e+01
 2.143222896180841e+00	 4.114279558440463e-01	 1.214952244381593e+01
 2.139468478448125e+00	 4.305253949385006e-01	 1.216341988728618e+01
 2.135533061474949e+00	 4.496400486903596e-01	 1.217634065399246e+01
 2.131415699360915e+00	 4.687695465869062e-01	 1.218859936043532e+01
 2.127115483971732e+00	 4.879114888082806e-01	 1.220054542799926e+01
 2.122631545841692e+00	 5.070634468928968e-01	 1.221256561868607e+01
 2.117963055064880e+00	 5.262229644323784e-01	 1.222508675157879e+01
 2.113109222174130e+00	 5.453875577959153e-01	 1.223857860232192e+01
 2.108069299006646e+00	 5.645547168838998e-01	 1.225355698742213e+01
 2.158885697777032e+00	 3.748032409068762e-01	 1.209835856662341e+01
 2.155476567082626e+00	 3.939363009521487e-01	 1.211480420121113e+01
 2.151887714918184e+00	 4.130913146439760e-01	 1.212980105696679e+01
 2.148118118479883e+00	 4.322659626226354e-01	 1.214360323429057e+01
 2.144166791040727e+00	 4.514578948557044e-01	 1.215649455403935e+01
 2.140032782876149e+00	 4.706647312467305e-01	 1.216879075084039e+01
 2.135715182180379e+00	 4.898840622736348e-01	 1.218084184418480e+01
 2.131213115972556e+00	 5.091134496568155e-01	 1.219303469056564e+01
 2.126525750991552e+00	 5.283504270568947e-01	 1.220579571951518e+01
 2.121652294578479e+00	 5.475925008020039e-01	 1.221959385595020e+01
 2.116591995545806e+00	 5.668371506444664e-01	 1.223494363075130e+01
 2.167578694682434e+00	 3.763124284565266e-01	 1.207930348011851e+01
 2.164155836738488e+00	 3.955225299274924e-01	 1.209551795813541e+01
 2.160552533655710e+00	 4.147546734438609e-01	 1.211034570245708e+01
 2.156767758511844e+00	 4.340065303067386e-01	 1.212404320070622e+01
 2.152800520606734e+00	 4.532757410210251e-01	 1.213689611463247e+01
 2.148649866391642e+00	 4.725599159065340e-01	 1.214922148343854e+01
 2.144314880389316e+00	 4.918566357389660e-01	 1.216137010779756e+01
 2.139794686103742e+00	 5.111634524207040e-01	 1.217372911794990e+01
 2.135088446918580e+00	 5.304778896813689e-01	 1.218672472885987e+01
 2.130195366983215e+00	 5.497974438080335e-01	 1.220082518496548e+01
 2.125114692085380e+00	 5.691195844049511e-01	 1.221654389657346e+01
 2.176271691587835e+00	 3.778216160059086e-01	 1.206050564090012e+01
 2.172835106394356e+00	 3.971087589025857e-01	 1.207648044398706e+01
 2.169217352393255e+00	 4.164180322435097e-01	 1.209113086555349e+01
 2.165417398543849e+00	 4.357470979906162e-01	 1.210471596831758e+01
 2.161434250172814e+00	 4.550935871861269e-01	 1.211752344016849e+01
 2.157266949907243e+00	 4.744551005661207e-01	 1.212987180707517e+01
 2.152914578598399e+00	 4.938292092040787e-01	 1.214211282958415e+01
 2.148376256235115e+00	 5.132134551843685e-01	 1.215463408642105e+01
 2.143651142845835e+00	 5.326053523056093e-01	 1.216786174830315e+01
 2.138738439388215e+00	 5.520023868138155e-01	 1.218226354462418e+01
 2.133637388625251e+00	 5.714020181651709e-01	 1.219835192519088e+01
 2.184964688493071e+00	 3.793308035548390e-01	 1.204193803632264e+01
 2.181514376050063e+00	 3.986949878772416e-01	 1.205766587243748e+01
 2.177882171130657e+00	 4.180813910427317e-01	 1.207213221751874e+01
 2.174067038575738e+00	 4.374876656740749e-01	 1.208559889334090e+01
 2.170067979738813e+00	 4.569114333508142e-01	 1.209835579516277e+01
 2.165884033422805e+00	 4.763502852252949e-01	 1.211072311378186e+01
 2.161514276807488e+00	 4.958017826687776e-01	 1.212305374406169e+01
 2.156957826366540e+00	 5.152634579476147e-01	 1.213573588357527e+01
 2.152213838773188e+00	 5.347328149294246e-01	 1.214919582460100e+01
 2.147281511793357e+00	 5.542073298191619e-01	 1.216390094226271e+01
 2.142160085165303e+00	 5.736844519249417e-01	 1.218036288112323e+01
 2.193657685397974e+00	 3.808399911031352e-01	 1.202357482852827e+01
 2.190193645705442e+00	 4.002812168512723e-01	 1.203904962573725e+01
 2.186546989867752e+00	 4.197447498413360e-01	 1.205332658901334e+01
 2.182716678607350e+00	 4.392282333569208e-01	 1.206667047935174e+01
 2.178701709304576e+00	 4.587292795148922e-01	 1.207937357671677e+01
 2.174501116938178e+00	 4.782454698838605e-01	 1.209175791079743e+01
 2.170113975016439e+00	 4.977743561328674e-01	 1.210417768110570e+01
 2.165539396497882e+00	 5.173134607102490e-01	 1.211702187019044e+01
 2.160776534700510e+00	 5.368602775526229e-01	 1.213071705333484e+01
 2.155824584198518e+00	 5.564122728238846e-01	 1.214573040766149e+01
 2.150682781705418e+00	 5.759668856840802e-01	 1.216257292308750e+01
 2.202350682302377e+00	 3.823491786506144e-01	 1.200539132931225e+01
 2.198872915360330e+00	 4.018674458244905e-01	 1.202060822907526e+01
 2.195211808604378e+00	 4.214081086391313e-01	 1.203469194396298e+01
 2.191366318638528e+00	 4.409688010389605e-01	 1.204791035067439e+01
 2.187335438869950e+00	 4.605471256781652e-01	 1.206055828744261e+01
 2.183118200453215e+00	 4.801406545416224e-01	 1.207295979304049e+01
 2.178713673225113e+00	 4.997469295961529e-01	 1.208547053798301e+01
 2.174120966629006e+00	 5.193634634720777e-01	 1.209848045183153e+01
 2.169339230627674e+00	 5.389877401750129e-01	 1.211241655010095e+01
 2.164367656603575e+00	 5.586172158277958e-01	 1.212774596382952e+01
 2.159205478245480e+00	 5.782493194424025e-01	 1.214497917438891e+01
 2.073978512856493e+00	 5.554249818444937e-01	 1.233030139770744e+01
 2.068836318106088e+00	 5.742822076323024e-01	 1.234811186795042e+01
 2.063509698278315e+00	 5.931369452284766e-01	 1.237315131435935e+01
 2.057998046901178e+00	 6.119866534072709e-01	 1.239877119811062e+01
 2.052300801400137e+00	 6.308287682241573e-01	 1.242236677422202e+01
 2.046417443866173e+00	 6.496607038978439e-01	 1.244409573579329e+01
 2.040347501804525e+00	 6.684798537193505e-01	 1.246411735422900e+01
 2.034090548863060e+00	 6.872835909877286e-01	 1.248259282973038e+01
 2.027646205539275e+00	 7.060692699719570e-01	 1.249968560672754e+01
 2.021014139864915e+00	 7.248342268985118e-01	 1.251556165121510e+01
 2.014194068067215e+00	 7.435757809640704e-01	 1.253038968741629e+01
 2.082501209392824e+00	 5.577074156035491e-01	 1.231075339499916e+01
 2.077337883581865e+00	 5.766421322680707e-01	 1.232901255449581e+01
 2.071989374827014e+00	 5.955743505160948e-01	 1.235409402484421e+01
 2.066455074164067e+00	 6.145015186790967e-01	 1.237903593594889e+01
 2.060734416706659e+00	 6.334210622764097e-01	 1.240214072425169e+01
 2.054826882417499e+00	 6.523303849008688e-01	 1.242355420823782e+01
 2.048731996860177e+00	 6.712268691316222e-01	 1.244342319832873e+01
 2.042449331930523e+00	 6.901078774736942e-01	 1.246189586220290e+01
 2.035978506566521e+00	 7.089707533238360e-01	 1.247912205359020e+01
 2.029319187435735e+00	 7.278128219621544e-01	 1.249525360140070e+01
 2.022471089599275e+00	 7.466313915689744e-01	 1.251044455652734e+01
 2.091023905930038e+00	 5.599898493632576e-01	 1.229145331121602e+01
 2.085839449058531e+00	 5.790020569044437e-01	 1.231014358948507e+01
 2.080469051376604e+00	 5.980117558042611e-01	 1.233511050266218e+01
 2.074912101427842e+00	 6.170163839514069e-01	 1.235941650551477e+01
 2.069168032014060e+00	 6.360133563290774e-01	 1.238206614641800e+01
 2.063236320969690e+00	 6.550000659042351e-01	 1.240319297879159e+01
 2.057116491916669e+00	 6.739738845441572e-01	 1.242293094488209e+01
 2.050808114998790e+00	 6.929321639598428e-01	 1.244141475615916e+01
 2.044310807594524e+00	 7.118722366758172e-01	 1.245878023566893e+01
 2.037624235007253e+00	 7.307914170258170e-01	 1.247516461910114e+01
 2.030748111131956e+00	 7.496870021738173e-01	 1.249070681182148e+01
 2.099546602468018e+00	 5.622722831234357e-01	 1.227239088094450e+01
 2.094341014535971e+00	 5.813619815412434e-01	 1.229149803251243e+01
 2.088948727926975e+00	 6.004491610928040e-01	 1.231621212422135e+01
 2.083369128692399e+00	 6.195312492240379e-01	 1.233992588601527e+01
 2.077601647322239e+00	 6.386056503820055e-01	 1.236215739536157e+01
 2.071645759522648e+00	 6.576697469077983e-01	 1.238302755131647e+01
 2.065500986973908e+00	 6.767208999568233e-01	 1.240265702245624e+01
 2.059166898067780e+00	 6.957564504460559e-01	 1.242116664259997e+01
 2.052643108623211e+00	 7.147737200277960e-01	 1.243867776692148e+01
 2.045929282579404e+00	 7.337700120894125e-01	 1.245531258510025e+01
 2.039025132665209e+00	 7.527426127785313e-01	 1.247119438867283e+01
 2.108069299006646e+00	 5.645547168838998e-01	 1.225355698742213e+01
 2.102842580014074e+00	 5.837219061782911e-01	 1.227307006635263e+01
 2.097428404478017e+00	 6.028865663815512e-01	 1.229741071137718e+01
 2.091826155957633e+00	 6.220461144968252e-01	 1.232057745657089e+01
 2.086035262631094e+00	 6.411979444350389e-01	 1.234242918257629e+01
 2.080055198076276e+00	 6.603394279114135e-01	 1.236307374593971e+01
 2.073885482031808e+00	 6.794679153694878e-01	 1.238261813777095e+01
 2.067525681137406e+00	 6.985807369322143e-01	 1.240116889504871e+01
 2.060975409652505e+00	 7.176752033796687e-01	 1.241883247069295e+01
 2.054234330152124e+00	 7.367486071528544e-01	 1.243571555894550e+01
 2.047302154198982e+00	 7.557982233830479e-01	 1.245192537312792e+01
 2.116591995545806e+00	 5.668371506444664e-01	 1.223494363075130e+01
 2.111344145492725e+00	 5.860818308154090e-01	 1.225485496479087e+01
 2.105908081029622e+00	 6.053239716703315e-01	 1.227871850480524e+01
 2.100283183223440e+00	 6.245609797696056e-01	 1.230138496925314e+01
 2.094468877940526e+00	 6.437902384880226e-01	 1.232289654901338e+01
 2.088464636630480e+00	 6.630091089149367e-01	 1.234334767112698e+01
 2.082269977090273e+00	 6.822149307820182e-01	 1.236283124714467e+01
 2.075884464207586e+00	 7.014050234181988e-01	 1.238143910027560e+01
 2.069307710682332e+00	 7.205766867313318e-01	 1.239926234962487e+01
 2.062539377725350e+00	 7.397272022160553e-01	 1.241639174794992e+01
 2.055579175733224e+00	 7.588538339872994e-01	 1.243291796991029e+01
 2.125114692085380e+00	 5.691195844049511e-01	 1.221654389657346e+01
 2.119845710971815e+00	 5.884417554524179e-01	 1.223684840840974e+01
 2.114387757581683e+00	 6.077613769589731e-01	 1.226014813781599e+01
 2.108740210489716e+00	 6.270758450422144e-01	 1.228236252255777e+01
 2.102902493250435e+00	 6.463825325408021e-01	 1.230357483811651e+01
 2.096874075185164e+00	 6.656787899182228e-01	 1.232386569618408e+01
 2.090654472149216e+00	 6.849619461942816e-01	 1.234331352836838e+01
 2.084243247278234e+00	 7.042293099038901e-01	 1.236199502945072e+01
 2.077640011712617e+00	 7.234781700826811e-01	 1.237998555599581e+01
 2.070844425299015e+00	 7.427057972789289e-01	 1.239735947663028e+01
 2.063856197267884e+00	 7.619094445912181e-01	 1.241419047086783e+01
 2.133637388625251e+00	 5.714020181651709e-01	 1.219835192519088e+01
 2.128347276451229e+00	 5.908016800891406e-01	 1.221897412311510e+01
 2.122867434134091e+00	 6.101987822473041e-01	 1.224171261059941e+01
 2.117197237756355e+00	 6.295907103144880e-01	 1.226352453530165e+01
 2.111336108560720e+00	 6.489748265932219e-01	 1.228447966927634e+01
 2.105283513740229e+00	 6.683484709211277e-01	 1.230464442417539e+01
 2.099038967208545e+00	 6.877089616061454e-01	 1.232408235299549e+01
 2.092602030349270e+00	 7.070535963891693e-01	 1.234285460971412e+01
 2.085972312743283e+00	 7.263796534336128e-01	 1.236102036248177e+01
 2.079149472873056e+00	 7.456843923413875e-01	 1.237863715656935e+01
 2.072133218802911e+00	 7.649650551947358e-01	 1.239576122385014e+01
 2.142160085165303e+00	 5.736844519249417e-01	 1.218036288112323e+01
 2.136848841930855e+00	 5.931616047253985e-01	 1.220118964472210e+01
 2.131347110686737e+00	 6.126361875351529e-01	 1.222342526488729e+01
 2.125654265023253e+00	 6.321055755862620e-01	 1.224488572093153e+01
 2.119769723871279e+00	 6.515671206451272e-01	 1.226562691169253e+01
 2.113692952295582e+00	 6.710181519235066e-01	 1.228570066524738e+01
 2.107423462268170e+00	 6.904559770174771e-01	 1.230515525903606e+01
 2.100960813420607e+00	 7.098778828739175e-01	 1.232403589615109e+01
 2.094304613774258e+00	 7.292811367840228e-01	 1.234238513332437e+01
 2.087454520447409e+00	 7.486629874033446e-01	 1.236024325669035e+01
 2.080410240338255e+00	 7.680206657977842e-01	 1.237764860200404e+01
 2.150682781705418e+00	 5.759668856840802e-01	 1.216257292308750e+01
 2.145350407410583e+00	 5.955215293610134e-01	 1.218350709257332e+01
 2.139826787239514e+00	 6.150735928223476e-01	 1.220529975902178e+01
 2.134111292290306e+00	 6.346204408573730e-01	 1.222646106223300e+01
 2.128203339182012e+00	 6.541594146963634e-01	 1.224703265863215e+01
 2.122102390851126e+00	 6.736878329252148e-01	 1.226705141034603e+01
 2.115807957328000e+00	 6.932029924281443e-01	 1.228654992404407e+01
 2.109319596492164e+00	 7.127021693580154e-01	 1.230555704416153e+01
 2.102636914805465e+00	 7.321826201338077e-01	 1.232409829589572e+01
 2.095759568022010e+00	 7.516415824647141e-01	 1.234219627393217e+01
 2.088687261873863e+00	 7.710762764002955e-01	 1.235987097347579e+01
 2.159205478245480e+00	 5.782493194424025e-01	 1.214497917438891e+01
 2.153851972890299e+00	 5.978814539958068e-01	 1.216593892763273e+01
 2.148306463792314e+00	 6.175109981087173e-01	 1.218735004341886e+01
 2.142568319557409e+00	 6.371353061276571e-01	 1.220826578642889e+01
 2.136636954492820e+00	 6.567517087467752e-01	 1.222871320207333e+01
 2.130511829406764e+00	 6.763575139261084e-01	 1.224871380531717e+01
 2.124192452387945e+00	 6.959500078380145e-01	 1.226828413858704e+01
 2.117678379563856e+00	 7.155264558413442e-01	 1.228743628221245e+01
 2.110969215836830e+00	 7.350841034828632e-01	 1.230617831264889e+01
 2.104064615596794e+00	 7.546201775254083e-01	 1.232451470431437e+01
 2.096964283409688e+00	 7.741318870022024e-01	 1.234244667150845e+01
 2.014194068067215e+00	 7.435757809640704e-01	 1.253038968741629e+01
 2.007184547478847e+00	 7.622944146716788e-01	 1.254461195394598e+01
 1.999986534868971e+00	 7.809842258426540e-01	 1.255846571129307e+01
 1.992599893353933e+00	 7.996424865837992e-01	 1.257181436799128e+01
 1.985024536674227e+00	 8.182664562179760e-01	 1.258451172908705e+01
 1.977260429726245e+00	 8.368533824140595e-01	 1.259640224211558e+01
 1.969307589065010e+00	 8.554005023379549e-01	 1.260732121934635e+01
 1.961166083376974e+00	 8.739050438238590e-01	 1.261709503777387e+01
 1.952836033922081e+00	 8.923642265648891e-01	 1.262554131894788e+01
 1.944317614944240e+00	 9.107752633221808e-01	 1.263246909135924e+01
 1.935611054049432e+00	 9.291353611515104e-01	 1.263767893871747e+01
 2.022471089599275e+00	 7.466313915689744e-01	 1.251044455652734e+01
 2.015432764461386e+00	 7.654269466301140e-01	 1.252506275974907e+01
 2.008205172722931e+00	 7.841935607127992e-01	 1.253928135405804e+01
 2.000788176937756e+00	 8.029284947139812e-01	 1.255296440055622e+01
 1.993181690491892e+00	 8.216289966941377e-01	 1.256596647271521e+01
 1.985385678137485e+00	 8.402923030118693e-01	 1.257813289078571e+01
 1.977400156497592e+00	 8.589156394796459e-01	 1.258929992967904e+01
 1.969225194540931e+00	 8.774962225398828e-01	 1.259929500185119e+01
 1.960860914025747e+00	 8.960312604604593e-01	 1.260793681736282e+01
 1.952307489911985e+00	 9.145179545487901e-01	 1.261503552393437e+01
 1.943565150740947e+00	 9.329535003834831e-01	 1.262039283045975e+01
 2.030748111131956e+00	 7.496870021738173e-01	 1.249070681182148e+01
 2.023680981444456e+00	 7.685594785884093e-01	 1.250570326678750e+01
 2.016423810577315e+00	 7.874028955827291e-01	 1.252026711035869e+01
 2.008976460521891e+00	 8.062145028438797e-01	 1.253426422750086e+01
 2.001338844309751e+00	 8.249915371699555e-01	 1.254755116676863e+01
 1.993510926548799e+00	 8.437312236092845e-01	 1.255997536126272e+01
 1.985492723930135e+00	 8.624307766209049e-01	 1.257137532010792e+01
 1.977284305704739e+00	 8.810874012554500e-01	 1.258158079203999e+01
 1.968885794129171e+00	 8.996982943555670e-01	 1.259041290335747e+01
 1.960297364879411e+00	 9.182606457749486e-01	 1.259768427316476e+01
 1.951519247432082e+00	 9.367716396150376e-01	 1.260319910950194e+01
 2.039025132665209e+00	 7.527426127785313e-01	 1.247119438867283e+01
 2.031929198428021e+00	 7.716920105465177e-01	 1.248655148374021e+01
 2.024642448432109e+00	 7.906122304524191e-01	 1.250144129982606e+01
 2.017164744106341e+00	 8.095005109734911e-01	 1.251573270337778e+01
 2.009495998127826e+00	 8.283540776454471e-01	 1.252928541110431e+01
 2.001636174960232e+00	 8.471701442063436e-01	 1.254195019559194e+01
 1.993585291362701e+00	 8.659459137617870e-01	 1.255356905833401e+01
 1.985343416868482e+00	 8.846785799706316e-01	 1.256397537182331e+01
 1.976910674232447e+00	 9.033653282502914e-01	 1.257299399304882e+01
 1.968287239846621e+00	 9.220033370007406e-01	 1.258044135143493e+01
 1.959473344122953e+00	 9.405897788462569e-01	 1.258612551495544e+01
 2.047302154198982e+00	 7.557982233830479e-01	 1.245192537312792e+01
 2.040177415412047e+00	 7.748245425043910e-01	 1.246762554075739e+01
 2.032861086287296e+00	 7.938215653218436e-01	 1.248282232982595e+01
 2.025353027691110e+00	 8.127865191028123e-01	 1.249738873254665e+01
 2.017653151946145e+00	 8.317166181206312e-01	 1.251118881362255e+01
 2.009761423371831e+00	 8.506090648030845e-01	 1.252407789862776e+01
 2.001677858795353e+00	 8.694610509023473e-01	 1.253590272653863e+01
 1.993402528032240e+00	 8.882697586854972e-01	 1.254650156812675e+01
 1.984935554335675e+00	 9.070323621447128e-01	 1.255570431264457e+01
 1.976277114813727e+00	 9.257460282262511e-01	 1.256333252595782e+01
 1.967427440813676e+00	 9.444079180772248e-01	 1.256919948399918e+01
 2.055579175733224e+00	 7.588538339872994e-01	 1.243291796991029e+01
 2.048425632396499e+00	 7.779570744619830e-01	 1.244894365645321e+01
 2.041079724142859e+00	 7.970309001909767e-01	 1.246442866149629e+01
 2.033541311276201e+00	 8.160725272318403e-01	 1.247925123430901e+01
 2.025810305764729e+00	 8.350791585955256e-01	 1.249328095454756e+01
 2.017886671783635e+00	 8.540479853995451e-01	 1.250637890150426e+01
 2.009770426228157e+00	 8.729761880426430e-01	 1.251839778408391e+01
 2.001461639196094e+00	 8.918609374001163e-01	 1.252918203328433e+01
 1.992960434438949e+00	 9.106993960389111e-01	 1.253856785970547e+01
 1.984266989780838e+00	 9.294887194515642e-01	 1.254638327936048e+01
 1.975381537504368e+00	 9.482260573080245e-01	 1.255244811181122e+01
 2.063856197267884e+00	 7.619094445912181e-01	 1.241419047086783e+01
 2.056673849381341e+00	 7.810896064192457e-01	 1.243052410534704e+01
 2.049298361998782e+00	 8.002402350597938e-01	 1.244627877623792e+01
 2.041729594861618e+00	 8.193585353605715e-01	 1.246133910849927e+01
 2.033967459583602e+00	 8.384416990701486e-01	 1.247558135116562e+01
 2.026011920195694e+00	 8.574869059957645e-01	 1.248887352556332e+01
 2.017862993661176e+00	 8.764913251827290e-01	 1.250107553066916e+01
 2.009520750360128e+00	 8.954521161145592e-01	 1.251203920745770e+01
 2.000985314542367e+00	 9.143664299329661e-01	 1.252160836485761e+01
 1.992256864748060e+00	 9.332314106767650e-01	 1.252961877071542e+01
 1.983335634195144e+00	 9.520441965387395e-01	 1.253589811194085e+01
 2.072133218802911e+00	 7.649650551947358e-01	 1.239576122385014e+01
 2.064922066366541e+00	 7.842221383761329e-01	 1.241238518574117e+01
 2.057516999855050e+00	 8.034495699282691e-01	 1.242839114264570e+01
 2.049917878447365e+00	 8.226445434890033e-01	 1.244367120151891e+01
 2.042124613402789e+00	 8.418042395445188e-01	 1.245810942300776e+01
 2.034137168608048e+00	 8.609258265917804e-01	 1.247158194672704e+01
 2.025955561094475e+00	 8.800064623226614e-01	 1.248395706993077e+01
 2.017579861524422e+00	 8.990432948288959e-01	 1.249509528149651e+01
 2.009010194646027e+00	 9.180334638269577e-01	 1.250484925394261e+01
 2.000246739715504e+00	 9.369741019019382e-01	 1.251306379700552e+01
 1.991289730886122e+00	 9.558623357694527e-01	 1.251957577710947e+01
 2.080410240338255e+00	 7.680206657977842e-01	 1.237764860200404e+01
 2.073170283352062e+00	 7.873546703325958e-01	 1.239454518802241e+01
 2.065735637711644e+00	 8.066589047963771e-01	 1.241078418386797e+01
 2.058106162033445e+00	 8.259305516171316e-01	 1.242626627280170e+01
 2.050281767222315e+00	 8.451667800186544e-01	 1.244088445746473e+01
 2.042262417020745e+00	 8.643647471876307e-01	 1.245452416030259e+01
 2.034048128528116e+00	 8.835215994624956e-01	 1.246706327347284e+01
 2.025638972689056e+00	 9.026344735431960e-01	 1.247837216022733e+01
 2.017035074750024e+00	 9.217004977209656e-01	 1.248831361059279e+01
 2.008236614683276e+00	 9.407167931271685e-01	 1.249674275501027e+01
 1.999243827577417e+00	 9.596804750002486e-01	 1.250350694042789e+01
 2.088687261873863e+00	 7.710762764002955e-01	 1.235987097347579e+01
 2.081418500337869e+00	 7.904872022885883e-01	 1.237702236337602e+01
 2.073954275568549e+00	 8.098682396640930e-01	 1.239347624538254e+01
 2.066294445619862e+00	 8.292165597449541e-01	 1.240914296169800e+01
 2.058438921042203e+00	 8.485293204925737e-01	 1.242392557582212e+01
 2.050387665433826e+00	 8.678036677833542e-01	 1.243771994620706e+01
 2.042140695962164e+00	 8.870367366022874e-01	 1.245041474531685e+01
 2.033698083854115e+00	 9.062256522575299e-01	 1.246189142615913e+01
 2.025059954854456e+00	 9.253675316150700e-01	 1.247202413922028e+01
 2.016226489651488e+00	 9.444594843525407e-01	 1.248067960360147e+01
 2.007197924269145e+00	 9.634986142312094e-01	 1.248771693701878e+01
 2.096964283409688e+00	 7.741318870022024e-01	 1.234244667150845e+01
 2.089666717323930e+00	 7.936197342440635e-01	 1.235983489290065e+01
 2.082172913425751e+00	 8.130775745313916e-01	 1.237648556317748e+01
 2.074482729206619e+00	 8.325025678724669e-01	 1.239231975476631e+01
 2.066596074862476e+00	 8.518918609662948e-01	 1.240725169970419e+01
 2.058512913847339e+00	 8.712425883789894e-01	 1.242118883460102e+01
 2.050233263396684e+00	 8.905518737420933e-01	 1.243403178675873e+01
 2.041757195019681e+00	 9.098168309719679e-01	 1.244567430359427e+01
 2.033084834959419e+00	 9.290345655093508e-01	 1.245600312840801e+01
 2.024216364620247e+00	 9.482021755781400e-01	 1.246489782643745e+01
 2.015152020961425e+00	 9.673167534624195e-01	 1.247223056603281e+01
 1.935611054049432e+00	 9.291353611515104e-01	 1.263767893871747e+01
 1.926718160155936e+00	 9.474386154707789e-01	 1.264121359510223e+01
 1.917637803321350e+00	 9.656853515605142e-01	 1.264336612832785e+01
 1.908370371613757e+00	 9.838727672977978e-01	 1.264430663868473e+01
 1.898916307608127e+00	 1.001998059881856e+00	 1.264420823975323e+01
 1.889276108593128e+00	 1.020058427132333e+00	 1.264324673476624e+01
 1.879450326741568e+00	 1.038051068798763e+00	 1.264160029035225e+01
 1.869439569243934e+00	 1.055973187880068e+00	 1.263944911531099e+01
 1.859244498404515e+00	 1.073821991952893e+00	 1.263697515251070e+01
 1.848865831699675e+00	 1.091594694507553e+00	 1.263436179237754e+01
 1.838304341797836e+00	 1.109288516290360e+00	 1.263179361677044e+01
 1.943565150740947e+00	 9.329535003834831e-01	 1.262039283045975e+01
 1.934635712864383e+00	 9.513319691184711e-01	 1.262410020086186e+01
 1.925518041696562e+00	 9.696536873709692e-01	 1.262648294285816e+01
 1.916212526900262e+00	 9.879158415031603e-01	 1.262768670664271e+01
 1.906719612869136e+00	 1.006115617196585e+00	 1.262785913395043e+01
 1.897039798935374e+00	 1.024250200755752e+00	 1.262714952301302e+01
 1.887173639540842e+00	 1.042316780422991e+00	 1.262570849119319e+01
 1.877121744371174e+00	 1.060312547703372e+00	 1.262368764321131e+01
 1.866884778452287e+00	 1.078234698698499e+00	 1.262123925333110e+01
 1.856463462208891e+00	 1.096080435447949e+00	 1.261851597026620e+01
 1.845858571484564e+00	 1.113846967277110e+00	 1.261567055390176e+01
 1.951519247432082e+00	 9.367716396150376e-01	 1.260319910950194e+01
 1.942553265572416e+00	 9.552253227657993e-01	 1.260709387987282e+01
 1.933398280071349e+00	 9.736220231811342e-01	 1.260971984837869e+01
 1.924054682186348e+00	 9.919589157083222e-01	 1.261119577860858e+01
 1.914522918129753e+00	 1.010233174511214e+00	 1.261164143024764e+01
 1.904803489277268e+00	 1.028441974379180e+00	 1.261117721513769e+01
 1.894896952339819e+00	 1.046582492047340e+00	 1.260992385126324e+01
 1.884803919498182e+00	 1.064651907526910e+00	 1.260800202284120e+01
 1.874525058499899e+00	 1.082647405444447e+00	 1.260553205515955e+01
 1.864061092718026e+00	 1.100566176388786e+00	 1.260263361321895e+01
 1.853412801171289e+00	 1.118405418264389e+00	 1.259942543357662e+01
 1.959473344122953e+00	 9.405897788462569e-01	 1.258612551495543e+01
 1.950470818280154e+00	 9.591186764128397e-01	 1.259022441219894e+01
 1.941278518445825e+00	 9.775903589910715e-01	 1.259310919623815e+01
 1.931896837472129e+00	 9.960019899133258e-01	 1.259486934194808e+01
 1.922326223390080e+00	 1.014350731825763e+00	 1.259559435104859e+01
 1.912567179618903e+00	 1.032633748002612e+00	 1.259537340172337e+01
 1.902620265138577e+00	 1.050848203671779e+00	 1.259429499636053e+01
 1.892486094625017e+00	 1.068991267350622e+00	 1.259244661585736e+01
 1.882165338547392e+00	 1.087060112190651e+00	 1.258991438941542e+01
 1.871658723227099e+00	 1.105051917329954e+00	 1.258678278917410e+01
 1.860967030858012e+00	 1.122963869252066e+00	 1.258313435938926e+01
 1.967427440813676e+00	 9.444079180772248e-01	 1.256919948399917e+01
 1.958388370987716e+00	 9.630120300596674e-01	 1.257352121495224e+01
 1.949158756820112e+00	 9.815586948008418e-01	 1.257668290626988e+01
 1.939738992757716e+00	 1.000045064118215e+00	 1.257874237606847e+01
 1.930129528650220e+00	 1.018468289140254e+00	 1.257975652614747e+01
 1.920330869960368e+00	 1.036825521626043e+00	 1.257978098756393e+01
 1.910343577937188e+00	 1.055113915296276e+00	 1.257886976447153e+01
 1.900168269751738e+00	 1.073330627174449e+00	 1.257707488493291e+01
 1.889805618594804e+00	 1.091472818937026e+00	 1.257444606791342e+01
 1.879256353736129e+00	 1.109537658271343e+00	 1.257103041610169e+01
 1.868521260544733e+00	 1.127522320240007e+00	 1.256687214457300e+01
 1.975381537504368e+00	 9.482260573080245e-01	 1.255244811181122e+01
 1.966305923695221e+00	 9.669053837063573e-01	 1.255701330165258e+01
 1.957038995194323e+00	 9.855270306105074e-01	 1.256047242573225e+01
 1.947581148043220e+00	 1.004088138323032e+00	 1.256284931110319e+01
 1.937932833910279e+00	 1.022585846454706e+00	 1.256416595133260e+01
 1.928094560301754e+00	 1.041017295249468e+00	 1.256444215037205e+01
 1.918066890735730e+00	 1.059379626920799e+00	 1.256369516478022e+01
 1.907850444878401e+00	 1.077669986998334e+00	 1.256193935327507e+01
 1.897445898642177e+00	 1.095885525683485e+00	 1.255918584310776e+01
 1.886853984245140e+00	 1.114023399212843e+00	 1.255544222320313e+01
 1.876075490231453e+00	 1.132080771228081e+00	 1.255071227439490e+01
 1.983335634195144e+00	 9.520441965387395e-01	 1.253589811194085e+01
 1.974223476402787e+00	 9.707987373529852e-01	 1.254072924202097e+01
 1.964919233568579e+00	 9.894953664201290e-01	 1.254450868867187e+01
 1.955423303328753e+00	 1.008131212527820e+00	 1.254722398700437e+01
 1.945736139170353e+00	 1.026703403769140e+00	 1.254885994737861e+01
 1.935858250643150e+00	 1.045209068872882e+00	 1.254939829985229e+01
 1.925790203534276e+00	 1.063645338545317e+00	 1.254881733701369e+01
 1.915532620005068e+00	 1.082009346822216e+00	 1.254709156444586e+01
 1.905086178689550e+00	 1.100298232429944e+00	 1.254419136860104e+01
 1.894451614754149e+00	 1.118509140154342e+00	 1.254008271233167e+01
 1.883629719918174e+00	 1.136639222216155e+00	 1.253472686872155e+01
 1.991289730886122e+00	 9.558623357694527e-01	 1.251957577710947e+01
 1.982141029110534e+00	 9.746920909996273e-01	 1.252469712219461e+01
 1.972799471942996e+00	 9.934637022297690e-01	 1.252882207569761e+01
 1.963265458614427e+00	 1.012174286732622e+00	 1.253189961303168e+01
 1.953539444430550e+00	 1.030820961083575e+00	 1.253387511941631e+01
 1.943621940984647e+00	 1.049400842496282e+00	 1.253469003712867e+01
 1.933513516332905e+00	 1.067911050169797e+00	 1.253428151111469e+01
 1.923214795131795e+00	 1.086348706646036e+00	 1.253258204247735e+01
 1.912726458736965e+00	 1.104710939176316e+00	 1.252951915991020e+01
 1.902049245263181e+00	 1.122994881095731e+00	 1.252501511962723e+01
 1.891183949604895e+00	 1.141197673204096e+00	 1.251898664475128e+01
 1.999243827577417e+00	 9.596804750002486e-01	 1.250350694042789e+01
 1.990058581818582e+00	 9.785854446463579e-01	 1.250894450535155e+01
 1.980679710317691e+00	 9.974320380394882e-01	 1.251344237415417e+01
 1.971107613900354e+00	 1.016217360937480e+00	 1.251690872762658e+01
 1.961342749690970e+00	 1.034938518398033e+00	 1.251924731666973e+01
 1.951385631326335e+00	 1.053592616119660e+00	 1.252035711451709e+01
 1.941236829131689e+00	 1.072176761794209e+00	 1.252013196723235e+01
 1.930896970258641e+00	 1.090688066469737e+00	 1.251846025227348e+01
 1.920366738784460e+00	 1.109123645922516e+00	 1.251522455548248e+01
 1.909646875772254e+00	 1.127480622036900e+00	 1.251030137735988e+01
 1.898738179291617e+00	 1.145756124191772e+00	 1.250356087990802e+01
 2.007197924269145e+00	 9.634986142312094e-01	 1.248771693701878e+01
 1.997976134527049e+00	 9.824787982932531e-01	 1.249349839273390e+01
 1.988559948692782e+00	 1.001400373849349e+00	 1.249839873868405e+01
 1.978949769186645e+00	 1.020260435142437e+00	 1.250228315866111e+01
 1.969146054951716e+00	 1.039056075712533e+00	 1.250501159255016e+01
 1.959149321668304e+00	 1.057784389743013e+00	 1.250643839563297e+01
 1.948960141930705e+00	 1.076442473418519e+00	 1.250641199602177e+01
 1.938579145385666e+00	 1.095027426293259e+00	 1.250477456029013e+01
 1.928007018832077e+00	 1.113536352668460e+00	 1.250136167795446e+01
 1.917244506281389e+00	 1.131966362977736e+00	 1.249600207597585e+01
 1.906292408978343e+00	 1.150314575179052e+00	 1.248851737489240e+01
 2.015152020961425e+00	 9.673167534624195e-01	 1.247223056603281e+01
 2.005893687236054e+00	 9.863721519403884e-01	 1.247838518505851e+01
 1.996440187068388e+00	 1.005368709659412e+00	 1.248371965216720e+01
 1.986791924473414e+00	 1.024303509347537e+00	 1.248805398405112e+01
 1.976949360212890e+00	 1.043173633027096e+00	 1.249120216509736e+01
 1.966913012010647e+00	 1.061976163366336e+00	 1.249297181582482e+01
 1.956683454730029e+00	 1.080708185042699e+00	 1.249316385924424e+01
 1.946261320512928e+00	 1.099366786116542e+00	 1.249157219548613e+01
 1.935647298879856e+00	 1.117949059414060e+00	 1.248798339564743e+01
 1.924842136790607e+00	 1.136452103918131e+00	 1.248217642634078e+01
 1.913846638665072e+00	 1.154873026165801e+00	 1.247392241688596e+01
 1.838304341797836e+00	 1.109288516290360e+00	 1.263179361677044e+01
 1.827560856984948e+00	 1.126900687002145e+00	 1.262591225789273e+01
 1.816636262431510e+00	 1.144428447724527e+00	 1.261307736635085e+01
 1.805531498748641e+00	 1.161869051257882e+00	 1.259306691045232e+01
 1.794247561403101e+00	 1.179219763129365e+00	 1.256576102494528e+01
 1.782785500538586e+00	 1.196477862946308e+00	 1.253512686636547e+01
 1.771146420757310e+00	 1.213640645748062e+00	 1.250332237666429e+01
 1.759331480861803e+00	 1.230705423354943e+00	 1.247069615601494e+01
 1.747341893556909e+00	 1.247669525712911e+00	 1.244070342195817e+01
 1.735178925112020e+00	 1.264530302232631e+00	 1.241342604728092e+01
 1.722843894983654e+00	 1.281285123121560e+00	 1.238814982479460e+01
 1.845858571484564e+00	 1.113846967277110e+00	 1.261567055390176e+01
 1.835070937968959e+00	 1.131531512502689e+00	 1.260942325458156e+01
 1.824101450470054e+00	 1.149131300868953e+00	 1.259623972312038e+01
 1.812951053464272e+00	 1.166643573887080e+00	 1.257590571396334e+01
 1.801620746509102e+00	 1.184065585847327e+00	 1.254885095826209e+01
 1.790111584063650e+00	 1.201394605177988e+00	 1.251982620873132e+01
 1.778424675269332e+00	 1.218627915802793e+00	 1.248972922039876e+01
 1.766561183690609e+00	 1.235762818495394e+00	 1.245840146444859e+01
 1.754522327015755e+00	 1.252796632229572e+00	 1.242746642173675e+01
 1.742309376717713e+00	 1.269726695523801e+00	 1.239960942939150e+01
 1.729923657675115e+00	 1.286550367778807e+00	 1.237417999606935e+01
 1.853412801171289e+00	 1.118405418264389e+00	 1.259942543357662e+01
 1.842581018953048e+00	 1.136162338003836e+00	 1.259270529751141e+01
 1.831566638508754e+00	 1.153834154014039e+00	 1.257904704346778e+01
 1.820370608180139e+00	 1.171418096516981e+00	 1.255824693241184e+01
 1.808993931615413e+00	 1.188911408566021e+00	 1.253179183203726e+01
 1.797437667589097e+00	 1.206311347410417e+00	 1.250421123849951e+01
 1.785702929781807e+00	 1.223615185858278e+00	 1.247564874985169e+01
 1.773790886519932e+00	 1.240820213636592e+00	 1.244596570683536e+01
 1.761702760475180e+00	 1.257923738746963e+00	 1.241517228666138e+01
 1.749439828324040e+00	 1.274923088815674e+00	 1.238645892848451e+01
 1.737003420367256e+00	 1.291815612436721e+00	 1.236060844194634e+01
 1.860967030858012e+00	 1.122963869252066e+00	 1.258313435938926e+01
 1.850091099937194e+00	 1.140793163505434e+00	 1.257584284491758e+01
 1.839031826547572e+00	 1.158537007159620e+00	 1.256159193822822e+01
 1.827790162896181e+00	 1.176192619147409e+00	 1.254019109778889e+01
 1.816367116721958e+00	 1.193757231285266e+00	 1.251468270962657e+01
 1.804763751114833e+00	 1.211228089643409e+00	 1.248838532786193e+01
 1.792981184294625e+00	 1.228602455914329e+00	 1.246118830352235e+01
 1.781020589349650e+00	 1.245877608778351e+00	 1.243297571261436e+01
 1.768883193935048e+00	 1.263050845264901e+00	 1.240362443155312e+01
 1.756570279930857e+00	 1.280119482108074e+00	 1.237408045493850e+01
 1.744083183059930e+00	 1.297080857095136e+00	 1.234754372356561e+01
 1.868521260544733e+00	 1.127522320240007e+00	 1.256687214457300e+01
 1.857601180921378e+00	 1.145423989007335e+00	 1.255891892225254e+01
 1.846497014586467e+00	 1.163239860305531e+00	 1.254396544965999e+01
 1.835209717612342e+00	 1.180967141778190e+00	 1.252204908736993e+01
 1.823740301828660e+00	 1.198603054004876e+00	 1.249761874514949e+01
 1.812089834640766e+00	 1.216144831876776e+00	 1.247244785258865e+01
 1.800259438807678e+00	 1.233589725970756e+00	 1.244645114188387e+01
 1.788250292179642e+00	 1.250935003920483e+00	 1.241953825826452e+01
 1.776063627395229e+00	 1.268177951783206e+00	 1.239161068350910e+01
 1.763700731538021e+00	 1.285315875400826e+00	 1.236257497638820e+01
 1.751162945752986e+00	 1.302346101753885e+00	 1.233508942481031e+01
 1.876075490231453e+00	 1.132080771228081e+00	 1.255071227439490e+01
 1.865111261905582e+00	 1.150054814509385e+00	 1.254201508585878e+01
 1.853962202625403e+00	 1.167942713451607e+00	 1.252625701630918e+01
 1.842629272328563e+00	 1.185741664409146e+00	 1.250418350015809e+01
 1.831113486935444e+00	 1.203448876724669e+00	 1.248069124290191e+01
 1.819415918166803e+00	 1.221061574110329e+00	 1.245649425376637e+01
 1.807537693320858e+00	 1.238576996027372e+00	 1.243153651125602e+01
 1.795479995009785e+00	 1.255992399062802e+00	 1.240575603248220e+01
 1.783244060855584e+00	 1.273305058301691e+00	 1.237908167832354e+01
 1.770831183145389e+00	 1.290512268693754e+00	 1.235142983633110e+01
 1.758242708446275e+00	 1.307611346412800e+00	 1.232334423140109e+01
 1.883629719918174e+00	 1.136639222216155e+00	 1.253472686872155e+01
 1.872621342889786e+00	 1.154685640011436e+00	 1.252521138676124e+01
 1.861427390664340e+00	 1.172645566597684e+00	 1.250855443794502e+01
 1.850048827044785e+00	 1.190516187040101e+00	 1.248667853949443e+01
 1.838486672042233e+00	 1.208294699444463e+00	 1.246398771674995e+01
 1.826742001692850e+00	 1.225978316343882e+00	 1.244061609947721e+01
 1.814815947834057e+00	 1.243564266083988e+00	 1.241653970758128e+01
 1.802709697839955e+00	 1.261049794205120e+00	 1.239172770185500e+01
 1.790424494315982e+00	 1.278432164820177e+00	 1.236613906586778e+01
 1.777961634752816e+00	 1.295708661986680e+00	 1.233971916143843e+01
 1.765322471139646e+00	 1.312876591071715e+00	 1.231239617225295e+01
 1.891183949604895e+00	 1.141197673204096e+00	 1.251898664475128e+01
 1.880131423873971e+00	 1.159316465513336e+00	 1.250858633457646e+01
 1.868892578703238e+00	 1.177348419743595e+00	 1.249095116770135e+01
 1.857468381760953e+00	 1.195290709670882e+00	 1.246961372408737e+01
 1.845859857148952e+00	 1.213140522164074e+00	 1.244759194950503e+01
 1.834068085218814e+00	 1.230895058577249e+00	 1.242490114641982e+01
 1.822094202347163e+00	 1.248551536140415e+00	 1.240155214010701e+01
 1.809939400670032e+00	 1.266107189347253e+00	 1.237754797640891e+01
 1.797604927776289e+00	 1.283559271338480e+00	 1.235288047546670e+01
 1.785092086360161e+00	 1.300905055279432e+00	 1.232752665473927e+01
 1.772402233832950e+00	 1.318141835730464e+00	 1.230144503617231e+01
 1.898738179291617e+00	 1.145756124191772e+00	 1.250356087990802e+01
 1.887641504858117e+00	 1.163947291014934e+00	 1.249221686153495e+01
 1.876357766742059e+00	 1.182051272889176e+00	 1.247382254011934e+01
 1.864887936477006e+00	 1.200065232301310e+00	 1.245306498349652e+01
 1.853233042255522e+00	 1.217986344883317e+00	 1.243158405228112e+01
 1.841394168744601e+00	 1.235811800810240e+00	 1.240943340147419e+01
 1.829372456860071e+00	 1.253538806196465e+00	 1.238666139497627e+01
 1.817169103499892e+00	 1.271164584489011e+00	 1.236330767503263e+01
 1.804785361236369e+00	 1.288686377856418e+00	 1.233939958295274e+01
 1.792222537967280e+00	 1.306101448571833e+00	 1.231494844468098e+01
 1.779481996526039e+00	 1.323407080388878e+00	 1.228994573638949e+01
 1.906292408978343e+00	 1.150314575179052e+00	 1.248851737489240e+01
 1.895151585842206e+00	 1.168578116516081e+00	 1.247617828661365e+01
 1.883822954780765e+00	 1.186754126034262e+00	 1.245739103011989e+01
 1.872307491192888e+00	 1.204839754931210e+00	 1.243710471513449e+01
 1.860606227361870e+00	 1.222832167602012e+00	 1.241604052383444e+01
 1.848720252270120e+00	 1.240728543042670e+00	 1.239429318321169e+01
 1.836650711372670e+00	 1.258526076251949e+00	 1.237195129872997e+01
 1.824398806329413e+00	 1.276221979630209e+00	 1.234909379078220e+01
 1.811965794696090e+00	 1.293813484373809e+00	 1.232578617757334e+01
 1.799352989574029e+00	 1.311297841863705e+00	 1.230207671827496e+01
 1.786561759218760e+00	 1.328672325046793e+00	 1.227799243193751e+01
 1.913846638665072e+00	 1.154873026165801e+00	 1.247392241688596e+01
 1.902661666826218e+00	 1.173208942016625e+00	 1.246054427977533e+01
 1.891288142819316e+00	 1.191456979178688e+00	 1.244172128974219e+01
 1.879727045908540e+00	 1.209614277560408e+00	 1.242180184129055e+01
 1.867979412467919e+00	 1.227677990319973e+00	 1.240103430988605e+01
 1.856046335795278e+00	 1.245645285274350e+00	 1.237955718335208e+01
 1.843928965884853e+00	 1.263513346306681e+00	 1.235750198172252e+01
 1.831628509158474e+00	 1.281279374770660e+00	 1.233498955606953e+01
 1.819146228155318e+00	 1.298940590890470e+00	 1.231212622875558e+01
 1.806483441180266e+00	 1.316494235154875e+00	 1.228899978923059e+01
 1.793641521910966e+00	 1.333937569704040e+00	 1.226567536118229e+01
 1.722843894983654e+00	 1.281285123121560e+00	 1.238814982479460e+01
 1.710336036041581e+00	 1.297934199784559e+00	 1.236198756333877e+01
 1.697658861935259e+00	 1.314472081178694e+00	 1.233261273358018e+01
 1.684813856886373e+00	 1.330896196964246e+00	 1.230011292022731e+01
 1.671802556470602e+00	 1.347204002803646e+00	 1.226454497414242e+01
 1.658626547041991e+00	 1.363392981644274e+00	 1.222593258377012e+01
 1.645287465119243e+00	 1.379460644986235e+00	 1.218426379789786e+01
 1.631786996734402e+00	 1.395404534133789e+00	 1.213948851589463e+01
 1.618126876744440e+00	 1.411222221429127e+00	 1.209151596278824e+01
 1.604308888106322e+00	 1.426911311467221e+00	 1.204021216766660e+01
 1.590334861116157e+00	 1.442469442290463e+00	 1.198539746491143e+01
 1.729923657675115e+00	 1.286550367778807e+00	 1.237417999606935e+01
 1.717364399605329e+00	 1.303267861268188e+00	 1.234817010498642e+01
 1.704635130596620e+00	 1.319873702548785e+00	 1.231910608783909e+01
 1.691737340969855e+00	 1.336365310718468e+00	 1.228703753253967e+01
 1.678672572610923e+00	 1.352740130984107e+00	 1.225198442997198e+01
 1.665442418392746e+00	 1.368995635949644e+00	 1.221393472616977e+01
 1.652048521559052e+00	 1.385129326889079e+00	 1.217284181952152e+01
 1.638492575070372e+00	 1.401138735003042e+00	 1.212862201943627e+01
 1.624776320912806e+00	 1.417021422657641e+00	 1.208115198416652e+01
 1.610901549370107e+00	 1.432774984604303e+00	 1.203026615665697e+01
 1.596870098259705e+00	 1.448397049179322e+00	 1.197575421835777e+01
 1.737003420367256e+00	 1.291815612436721e+00	 1.236060844194634e+01
 1.724392763169800e+00	 1.308601522752440e+00	 1.233450678640395e+01
 1.711611399258739e+00	 1.325275323919451e+00	 1.230554559044013e+01
 1.698660825054121e+00	 1.341834424473213e+00	 1.227373514520853e+01
 1.685542588752047e+00	 1.358276259165039e+00	 1.223905720598202e+01
 1.672258289744316e+00	 1.374598290255434e+00	 1.220146252550955e+01
 1.658809577999677e+00	 1.390798008792296e+00	 1.216086832603766e+01
 1.645198153407151e+00	 1.406872935872629e+00	 1.211715572672087e+01
 1.631425765081967e+00	 1.422820623886461e+00	 1.207016714445840e+01
 1.617494210634661e+00	 1.438638657741673e+00	 1.201970368741546e+01
 1.603405335403986e+00	 1.454324656068464e+00	 1.196552256160209e+01
 1.744083183059930e+00	 1.297080857095136e+00	 1.234754372356561e+01
 1.731421126734840e+00	 1.313935184237158e+00	 1.232110821855578e+01
 1.718587667921462e+00	 1.330676945290548e+00	 1.229204314811857e+01
 1.705584309139019e+00	 1.347303538228351e+00	 1.226031821858271e+01
 1.692412604893825e+00	 1.363812387346324e+00	 1.222587558711174e+01
 1.679074161096556e+00	 1.380200944561541e+00	 1.218862737664814e+01
 1.665570634440982e+00	 1.396466690695798e+00	 1.214845312309599e+01
 1.651903731744612e+00	 1.412607136742474e+00	 1.210519717176267e+01
 1.638075209251801e+00	 1.428619825115519e+00	 1.205866604144154e+01
 1.624086871899873e+00	 1.444502330879274e+00	 1.200862577578875e+01
 1.609940572548900e+00	 1.460252262957840e+00	 1.195479930280955e+01
 1.751162945752986e+00	 1.302346101753885e+00	 1.233508942481031e+01
 1.738449490300299e+00	 1.319268845722191e+00	 1.230808001065421e+01
 1.725563936584634e+00	 1.336078566661932e+00	 1.227870565378699e+01
 1.712507793224396e+00	 1.352772651983751e+00	 1.224689419930569e+01
 1.699282621036108e+00	 1.369348515527848e+00	 1.221254685666979e+01
 1.685890032449323e+00	 1.385803598867863e+00	 1.217553569661821e+01
 1.672331690882829e+00	 1.402135372599496e+00	 1.213570107383275e+01
 1.658609310082624e+00	 1.418341337612502e+00	 1.209284899266533e+01
 1.644724653422189e+00	 1.434419026344752e+00	 1.204674843466273e+01
 1.630679533165634e+00	 1.450366004017048e+00	 1.199712866794110e+01
 1.616475809694347e+00	 1.466179869847399e+00	 1.194367655967508e+01
 1.758242708446275e+00	 1.307611346412800e+00	 1.232334423140109e+01
 1.745477853866021e+00	 1.324602507207378e+00	 1.229552285019391e+01
 1.732540205248102e+00	 1.341480188033461e+00	 1.226563506715348e+01
 1.719431277310100e+00	 1.358241765739284e+00	 1.223356560116625e+01
 1.706152637178747e+00	 1.374884643709492e+00	 1.219917337706863e+01
 1.692705903802472e+00	 1.391406253174298e+00	 1.216228900490197e+01
 1.679092747325082e+00	 1.407804054503300e+00	 1.212271217834895e+01
 1.665314888421059e+00	 1.424075538482633e+00	 1.208020900997007e+01
 1.651374097593011e+00	 1.440218227574093e+00	 1.203450932232939e+01
 1.637272194431832e+00	 1.456229677154939e+00	 1.198530391546782e+01
 1.623011046840228e+00	 1.472107476737092e+00	 1.193224183244482e+01
 1.765322471139646e+00	 1.312876591071715e+00	 1.231239617225295e+01
 1.752506217431852e+00	 1.329936168692566e+00	 1.228353258276493e+01
 1.739516473911709e+00	 1.346881809404990e+00	 1.225292849511054e+01
 1.726354761395976e+00	 1.363710879494819e+00	 1.222043008571745e+01
 1.713022653321593e+00	 1.380420771891143e+00	 1.218585267033298e+01
 1.699521775155861e+00	 1.397008907480743e+00	 1.214898400349221e+01
 1.685853803767603e+00	 1.413472736407122e+00	 1.210958165299279e+01
 1.672020466759789e+00	 1.429809739352794e+00	 1.206737030483301e+01
 1.658023541764149e+00	 1.446017428803475e+00	 1.202203901806085e+01
 1.643864855698359e+00	 1.462093350292891e+00	 1.197323845040621e+01
 1.629546283986442e+00	 1.478035083626868e+00	 1.192057807687809e+01
 1.772402233832950e+00	 1.318141835730464e+00	 1.230144503617231e+01
 1.759534580997640e+00	 1.335269830177598e+00	 1.227220029164972e+01
 1.746492742575304e+00	 1.352283430776377e+00	 1.224067827189969e+01
 1.733278245481874e+00	 1.369179993250225e+00	 1.220758054267025e+01
 1.719892669464497e+00	 1.385956900072682e+00	 1.217267749838804e+01
 1.706337646509344e+00	 1.402611561787096e+00	 1.213571265674493e+01
 1.692614860210256e+00	 1.419141418310874e+00	 1.209640000945131e+01
 1.678726045098686e+00	 1.435543940222906e+00	 1.205442129703572e+01
 1.664672985935481e+00	 1.451816630032835e+00	 1.200942322750364e+01
 1.650457516965104e+00	 1.467957023430847e+00	 1.196101466014633e+01
 1.636081521132888e+00	 1.483962690516677e+00	 1.190876377715112e+01
 1.779481996526039e+00	 1.323407080388878e+00	 1.228994573638949e+01
 1.766562944563231e+00	 1.340603491662318e+00	 1.226156250482075e+01
 1.753469011238729e+00	 1.357685052147477e+00	 1.222897203905897e+01
 1.740201729567638e+00	 1.374649107005374e+00	 1.219510517006866e+01
 1.726762685607308e+00	 1.391493028253994e+00	 1.215973594313365e+01
 1.713153517862779e+00	 1.408214216093255e+00	 1.212256227102918e+01
 1.699375916652905e+00	 1.424810100214466e+00	 1.208325313365676e+01
 1.685431623437618e+00	 1.441278141092894e+00	 1.204144582283422e+01
 1.671322430106890e+00	 1.457615831262106e+00	 1.199674312481394e+01
 1.657050178231957e+00	 1.473820696568750e+00	 1.194871046224441e+01
 1.642616758279468e+00	 1.489890297406469e+00	 1.189687301870451e+01
 1.786561759218760e+00	 1.328672325046793e+00	 1.227799243193751e+01
 1.773591308128472e+00	 1.345937153146570e+00	 1.225071266068588e+01
 1.760445279901834e+00	 1.363086673518147e+00	 1.221789282515895e+01
 1.747125213653118e+00	 1.380118220760135e+00	 1.218308755425170e+01
 1.733632701749878e+00	 1.397029156434963e+00	 1.214711148631087e+01
 1.719969389216021e+00	 1.413816870399117e+00	 1.210961557418010e+01
 1.706136973095411e+00	 1.430478782117809e+00	 1.207022236451296e+01
 1.692137201776460e+00	 1.447012341962681e+00	 1.202852321265053e+01
 1.677971874278255e+00	 1.463415032491225e+00	 1.198407542901163e+01
 1.663642839498809e+00	 1.479684369706544e+00	 1.193639937914197e+01
 1.649151995426080e+00	 1.495817904296194e+00	 1.188497556103586e+01
 1.793641521910966e+00	 1.333937569704040e+00	 1.226567536118229e+01
 1.780619671693210e+00	 1.351270814630199e+00	 1.223935436818005e+01
 1.767421548564461e+00	 1.368488294888244e+00	 1.220741891016639e+01
 1.754048697738162e+00	 1.385587334514377e+00	 1.217160674960877e+01
 1.740502717892060e+00	 1.402565284615472e+00	 1.213488308916595e+01
 1.726785260568927e+00	 1.419419524704581e+00	 1.209695079476005e+01
 1.712898029537639e+00	 1.436147464020815e+00	 1.205738457244646e+01
 1.698842780115081e+00	 1.452746542832192e+00	 1.201572836861125e+01
 1.684621318449455e+00	 1.469214233720123e+00	 1.197149248020909e+01
 1.670235500765549e+00	 1.485548042844174e+00	 1.192415061279263e+01
 1.655687232572625e+00	 1.501745511185803e+00	 1.187313691043887e+01
 1.590334861116157e+00	 1.442469442290463e+00	 1.198539746491143e+01
 1.576209082943013e+00	 1.457891680273050e+00	 1.192930322137754e+01
 1.561931092083721e+00	 1.473178411755090e+00	 1.187388944939610e+01
 1.547502829769426e+00	 1.488327408362844e+00	 1.181852217447250e+01
 1.532926281152534e+00	 1.503336479695941e+00	 1.176251210043872e+01
 1.518203474390078e+00	 1.518203474390078e+00	 1.170511291901306e+01
 1.503336479695941e+00	 1.532926281152534e+00	 1.164551977003619e+01
 1.488327408362844e+00	 1.547502829769426e+00	 1.158286787458019e+01
 1.473178411755089e+00	 1.561931092083721e+00	 1.151623136302837e+01
 1.457891680273049e+00	 1.576209082943013e+00	 1.144462231995423e+01
 1.442469442290463e+00	 1.590334861116157e+00	 1.136699006719538e+01
 1.596870098259705e+00	 1.448397049179322e+00	 1.197575421835777e+01
 1.582686272368129e+00	 1.463882662482917e+00	 1.191983509670186e+01
 1.568349608295735e+00	 1.479232212442803e+00	 1.186450550989773e+01
 1.553862055250860e+00	 1.494443461528082e+00	 1.180917554140747e+01
 1.539225606543589e+00	 1.509514210337267e+00	 1.175320041335865e+01
 1.524442298665355e+00	 1.524442298665355e+00	 1.169587863053131e+01
 1.509514210337267e+00	 1.539225606543589e+00	 1.163645027379758e+01
 1.494443461528083e+00	 1.553862055250861e+00	 1.157409546603731e+01
 1.479232212442803e+00	 1.568349608295735e+00	 1.150793303346744e+01
 1.463882662482917e+00	 1.582686272368130e+00	 1.143701938506855e+01
 1.448397049179321e+00	 1.596870098259705e+00	 1.136034763236537e+01
 1.603405335403986e+00	 1.454324656068464e+00	 1.196552256160209e+01
 1.589163461793934e+00	 1.469873644693080e+00	 1.190982750801614e+01
 1.574768124508386e+00	 1.485286013130841e+00	 1.185464808550730e+01
 1.560221280732874e+00	 1.500559514693683e+00	 1.179943480804620e+01
 1.545524931935164e+00	 1.515691940979004e+00	 1.174358372036715e+01
 1.530681122941096e+00	 1.530681122941096e+00	 1.168643437822911e+01
 1.515691940979004e+00	 1.545524931935164e+00	 1.162726797691922e+01
 1.500559514693683e+00	 1.560221280732874e+00	 1.156530565185484e+01
 1.485286013130840e+00	 1.574768124508386e+00	 1.149970697507406e+01
 1.469873644693080e+00	 1.589163461793934e+00	 1.142956867116120e+01
 1.454324656068464e+00	 1.603405335403986e+00	 1.135392357573501e+01
 1.609940572548900e+00	 1.460252262957840e+00	 1.195479930280955e+01
 1.595640651220338e+00	 1.475864626903494e+00	 1.189937247430285e+01
 1.581186640721594e+00	 1.491339813819156e+00	 1.184440388108890e+01
 1.566580506215397e+00	 1.506675567859600e+00	 1.178938088229295e+01
 1.551824257327200e+00	 1.521869671621101e+00	 1.173373669243596e+01
 1.536919947217245e+00	 1.536919947217245e+00	 1.167684819973531e+01
 1.521869671621100e+00	 1.551824257327200e+00	 1.161803393144716e+01
 1.506675567859599e+00	 1.566580506215397e+00	 1.155655219094861e+01
 1.491339813819156e+00	 1.581186640721594e+00	 1.149159939121066e+01
 1.475864626903493e+00	 1.595640651220339e+00	 1.142230860908206e+01
 1.460252262957839e+00	 1.609940572548900e+00	 1.134774838439234e+01
 1.616475809694347e+00	 1.466179869847399e+00	 1.194367655967508e+01
 1.602117840647250e+00	 1.481855609114111e+00	 1.188855741337081e+01
 1.587605156935277e+00	 1.497393614507704e+00	 1.183385509895779e+01
 1.572939731698358e+00	 1.512791621025784e+00	 1.177909027695009e+01
 1.558123582719631e+00	 1.528047402263506e+00	 1.172372972120114e+01
 1.543158771493746e+00	 1.543158771493746e+00	 1.166718397692907e+01
 1.528047402263506e+00	 1.558123582719632e+00	 1.160880516458796e+01
 1.512791621025784e+00	 1.572939731698359e+00	 1.154788495513659e+01
 1.497393614507703e+00	 1.587605156935277e+00	 1.148365274222518e+01
 1.481855609114111e+00	 1.602117840647250e+00	 1.141527403660386e+01
 1.466179869847399e+00	 1.616475809694348e+00	 1.134184910765475e+01
 1.623011046840228e+00	 1.472107476737092e+00	 1.193224183244482e+01
 1.608595030074581e+00	 1.487846591324885e+00	 1.187746521248471e+01
 1.594023673149356e+00	 1.503447415196439e+00	 1.182307950683639e+01
 1.579298957181686e+00	 1.518907674192191e+00	 1.176863517473234e+01
 1.564422908112395e+00	 1.534225132906170e+00	 1.171362898078194e+01
 1.549397595770543e+00	 1.549397595770543e+00	 1.165750149432387e+01
 1.534225132906170e+00	 1.564422908112395e+00	 1.159963473343308e+01
 1.518907674192191e+00	 1.579298957181686e+00	 1.153934997999369e+01
 1.503447415196439e+00	 1.594023673149357e+00	 1.147590579224059e+01
 1.487846591324885e+00	 1.608595030074581e+00	 1.140849624096742e+01
 1.472107476737092e+00	 1.623011046840228e+00	 1.133624939520556e+01
 1.629546283986442e+00	 1.478035083626868e+00	 1.192057807687809e+01
 1.615072219502239e+00	 1.493837573535769e+00	 1.186617429898387e+01
 1.600442189363751e+00	 1.509501215885315e+00	 1.181215050585345e+01
 1.585658182665308e+00	 1.525023727358770e+00	 1.175808349338380e+01
 1.570722233505427e+00	 1.540402863549040e+00	 1.170349648976585e+01
 1.555636420047579e+00	 1.555636420047579e+00	 1.164785649768610e+01
 1.540402863549040e+00	 1.570722233505427e+00	 1.159057177998963e+01
 1.525023727358770e+00	 1.585658182665308e+00	 1.153098951608814e+01
 1.509501215885314e+00	 1.600442189363750e+00	 1.146839365640628e+01
 1.493837573535769e+00	 1.615072219502240e+00	 1.140200300197048e+01
 1.478035083626868e+00	 1.629546283986441e+00	 1.133096953585903e+01
 1.636081521132888e+00	 1.483962690516677e+00	 1.190876377715112e+01
 1.621549408930136e+00	 1.499828555746719e+00	 1.185475871089027e+01
 1.606860705578380e+00	 1.515555016574287e+00	 1.180113719858538e+01
 1.592017408149153e+00	 1.531139780525477e+00	 1.174749895089403e+01
 1.577021558898665e+00	 1.546580594192068e+00	 1.169339017335535e+01
 1.561875244324799e+00	 1.561875244324799e+00	 1.163830075288081e+01
 1.546580594192068e+00	 1.577021558898666e+00	 1.158166158650874e+01
 1.531139780525477e+00	 1.592017408149154e+00	 1.152284208058971e+01
 1.515555016574287e+00	 1.606860705578380e+00	 1.146114784859693e+01
 1.499828555746718e+00	 1.621549408930137e+00	 1.139581863558462e+01
 1.483962690516677e+00	 1.636081521132888e+00	 1.132602649693622e+01
 1.642616758279468e+00	 1.489890297406469e+00	 1.189687301870451e+01
 1.628026598358182e+00	 1.505819537957685e+00	 1.184328816750657e+01
 1.613279221793163e+00	 1.521608817263309e+00	 1.179010445713845e+01
 1.598376633633152e+00	 1.537255833692263e+00	 1.173694113081124e+01
 1.583320884292047e+00	 1.552758324835201e+00	 1.168336392567172e+01
 1.568114068602146e+00	 1.568114068602146e+00	 1.162888210493940e+01
 1.552758324835201e+00	 1.583320884292047e+00	 1.157294563110342e+01
 1.537255833692263e+00	 1.598376633633152e+00	 1.151494250923852e+01
 1.521608817263308e+00	 1.613279221793163e+00	 1.145419632954810e+01
 1.505819537957684e+00	 1.628026598358182e+00	 1.138996403808543e+01
 1.489890297406469e+00	 1.642616758279468e+00	 1.132143396423424e+01
 1.649151995426080e+00	 1.495817904296194e+00	 1.188497556103586e+01
 1.634503787786285e+00	 1.511810520168621e+00	 1.183182814000437e+01
 1.619697738008020e+00	 1.527662617952335e+00	 1.177911299127091e+01
 1.604735859117230e+00	 1.543371886859082e+00	 1.172646554764965e+01
 1.589620209685509e+00	 1.558936055478388e+00	 1.167346767221119e+01
 1.574352892879563e+00	 1.574352892879563e+00	 1.161964453734203e+01
 1.558936055478388e+00	 1.589620209685508e+00	 1.156446164364790e+01
 1.543371886859082e+00	 1.604735859117230e+00	 1.150732200866543e+01
 1.527662617952335e+00	 1.619697738008020e+00	 1.144756355541436e+01
 1.511810520168621e+00	 1.634503787786285e+00	 1.138445673068215e+01
 1.495817904296194e+00	 1.649151995426080e+00	 1.131720238257291e+01
 1.655687232572625e+00	 1.501745511185803e+00	 1.187313691043887e+01
 1.640980977214357e+00	 1.517801502379484e+00	 1.182043992200216e+01
 1.626116254222871e+00	 1.533716418641320e+00	 1.176821941655377e+01
 1.611095084601319e+00	 1.549487940025887e+00	 1.171612371238802e+01
 1.595919535078986e+00	 1.565113786121580e+00	 1.166374743244996e+01
 1.580591717156995e+00	 1.580591717156995e+00	 1.161062823150942e+01
 1.565113786121580e+00	 1.595919535078986e+00	 1.155624366195027e+01
 1.549487940025886e+00	 1.611095084601319e+00	 1.150000820905304e+01
 1.533716418641319e+00	 1.626116254222872e+00	 1.144127052674070e+01
 1.517801502379483e+00	 1.640980977214357e+00	 1.137931090463266e+01
 1.501745511185803e+00	 1.655687232572625e+00	 1.131333899690243e+01
 1.442469442290463e+00	 1.590334861116157e+00	 1.136699006719538e+01
 1.426911311467222e+00	 1.604308888106321e+00	 1.128656096491171e+01
 1.411222221429127e+00	 1.618126876744440e+00	 1.120710224964503e+01
 1.395404534133789e+00	 1.631786996734401e+00	 1.112826211867805e+01
 1.379460644986235e+00	 1.645287465119242e+00	 1.104965634297813e+01
 1.363392981644275e+00	 1.658626547041991e+00	 1.097086756136812e+01
 1.347204002803646e+00	 1.671802556470602e+00	 1.089144488758137e+01
 1.330896196964247e+00	 1.684813856886373e+00	 1.081090384671358e+01
 1.314472081178695e+00	 1.697658861935258e+00	 1.072872665591607e+01
 1.297934199784560e+00	 1.710336036041580e+00	 1.064436286236620e+01
 1.281285123121559e+00	 1.722843894983654e+00	 1.055723034961567e+01
 1.448397049179321e+00	 1.596870098259705e+00	 1.136034763236537e+01
 1.432774984604304e+00	 1.610901549370106e+00	 1.128133696959530e+01
 1.417021422657642e+00	 1.624776320912806e+00	 1.120380648352453e+01
 1.401138735003042e+00	 1.638492575070372e+00	 1.112723152937055e+01
 1.385129326889079e+00	 1.652048521559052e+00	 1.105104820358293e+01
 1.368995635949644e+00	 1.665442418392745e+00	 1.097465281431831e+01
 1.352740130984108e+00	 1.678672572610922e+00	 1.089740167874757e+01
 1.336365310718469e+00	 1.691737340969854e+00	 1.081861126392443e+01
 1.319873702548785e+00	 1.704635130596619e+00	 1.073755868623270e+01
 1.303267861268188e+00	 1.717364399605328e+00	 1.065348258257245e+01
 1.286550367778807e+00	 1.729923657675114e+00	 1.056558436445814e+01
 1.454324656068464e+00	 1.603405335403986e+00	 1.135392357573501e+01
 1.438638657741674e+00	 1.617494210634660e+00	 1.127634574274689e+01
 1.422820623886462e+00	 1.631425765081967e+00	 1.120067142408264e+01
 1.406872935872630e+00	 1.645198153407151e+00	 1.112620402683634e+01
 1.390798008792297e+00	 1.658809577999677e+00	 1.105220091401025e+01
 1.374598290255435e+00	 1.672258289744316e+00	 1.097787304773415e+01
 1.358276259165040e+00	 1.685542588752046e+00	 1.090238497328160e+01
 1.341834424473214e+00	 1.698660825054120e+00	 1.082485516085112e+01
 1.325275323919451e+00	 1.711611399258738e+00	 1.074435672031840e+01
 1.308601522752441e+00	 1.724392763169799e+00	 1.065991850226468e+01
 1.291815612436721e+00	 1.737003420367256e+00	 1.057052659654599e+01
 1.460252262957839e+00	 1.609940572548900e+00	 1.134774838439234e+01
 1.444502330879274e+00	 1.624086871899872e+00	 1.127161042716454e+01
 1.428619825115520e+00	 1.638075209251800e+00	 1.119771420183069e+01
 1.412607136742475e+00	 1.651903731744611e+00	 1.112519204496636e+01
 1.396466690695799e+00	 1.665570634440981e+00	 1.105312350975093e+01
 1.380200944561542e+00	 1.679074161096556e+00	 1.098053517832581e+01
 1.363812387346325e+00	 1.692412604893824e+00	 1.090640082893412e+01
 1.347303538228352e+00	 1.705584309139018e+00	 1.082964197506509e+01
 1.330676945290548e+00	 1.718587667921462e+00	 1.074912879202268e+01
 1.313935184237159e+00	 1.731421126734840e+00	 1.066368144438442e+01
 1.297080857095136e+00	 1.744083183059930e+00	 1.057207182572551e+01
 1.466179869847399e+00	 1.616475809694348e+00	 1.134184910765475e+01
 1.450366004017048e+00	 1.630679533165633e+00	 1.126715087635067e+01
 1.434419026344753e+00	 1.644724653422189e+00	 1.119494878803901e+01
 1.418341337612502e+00	 1.658609310082623e+00	 1.112420497056933e+01
 1.402135372599496e+00	 1.672331690882828e+00	 1.105382207401849e+01
 1.385803598867864e+00	 1.685890032449323e+00	 1.098264324853474e+01
 1.369348515527848e+00	 1.699282621036107e+00	 1.090945249096823e+01
 1.352772651983752e+00	 1.712507793224395e+00	 1.083297537778739e+01
 1.336078566661932e+00	 1.725563936584634e+00	 1.075188019993228e+01
 1.319268845722192e+00	 1.738449490300298e+00	 1.066477951325122e+01
 1.302346101753885e+00	 1.751162945752986e+00	 1.057023211602713e+01
 1.472107476737092e+00	 1.623011046840228e+00	 1.133624939520556e+01
 1.456229677154939e+00	 1.637272194431832e+00	 1.126298368832763e+01
 1.440218227574093e+00	 1.651374097593011e+00	 1.119238602455776e+01
 1.424075538482634e+00	 1.665314888421059e+00	 1.112324916952147e+01
 1.407804054503300e+00	 1.679092747325081e+00	 1.105429976054615e+01
 1.391406253174298e+00	 1.692705903802472e+00	 1.098419844629024e+01
 1.374884643709493e+00	 1.706152637178747e+00	 1.091154040918582e+01
 1.358241765739285e+00	 1.719431277310099e+00	 1.083485628848946e+01
 1.341480188033461e+00	 1.732540205248101e+00	 1.075261351984435e+01
 1.324602507207379e+00	 1.745477853866019e+00	 1.066321810520261e+01
 1.307611346412800e+00	 1.758242708446275e+00	 1.056501682476085e+01
 1.478035083626868e+00	 1.629546283986441e+00	 1.133096953585903e+01
 1.462093350292891e+00	 1.643864855698358e+00	 1.125912224016302e+01
 1.446017428803476e+00	 1.658023541764148e+00	 1.119003365442078e+01
 1.429809739352794e+00	 1.672020466759789e+00	 1.112232801376210e+01
 1.413472736407123e+00	 1.685853803767603e+00	 1.105455681728371e+01
 1.397008907480743e+00	 1.699521775155860e+00	 1.098519912571435e+01
 1.380420771891143e+00	 1.713022653321593e+00	 1.091266225594077e+01
 1.363710879494819e+00	 1.726354761395975e+00	 1.083528289050962e+01
 1.346881809404991e+00	 1.739516473911709e+00	 1.075132861827841e+01
 1.329936168692567e+00	 1.752506217431851e+00	 1.065899992028697e+01
 1.312876591071716e+00	 1.765322471139646e+00	 1.055645815054722e+01
 1.483962690516677e+00	 1.636081521132888e+00	 1.132602649693622e+01
 1.467957023430847e+00	 1.650457516965103e+00	 1.125557672318491e+01
 1.451816630032835e+00	 1.664672985935481e+00	 1.118789635320944e+01
 1.435543940222906e+00	 1.678726045098685e+00	 1.112144190911163e+01
 1.419141418310875e+00	 1.692614860210256e+00	 1.105459061097171e+01
 1.402611561787097e+00	 1.706337646509344e+00	 1.098564082874786e+01
 1.385956900072683e+00	 1.719892669464496e+00	 1.091281294510946e+01
 1.369179993250226e+00	 1.733278245481873e+00	 1.083425064765719e+01
 1.352283430776377e+00	 1.746492742575303e+00	 1.074802266699675e+01
 1.335269830177598e+00	 1.759534580997639e+00	 1.065212497497914e+01
 1.318141835730464e+00	 1.772402233832951e+00	 1.054839858801656e+01
 1.489890297406469e+00	 1.642616758279468e+00	 1.132143396423424e+01
 1.473820696568751e+00	 1.657050178231957e+00	 1.125235417886792e+01
 1.457615831262107e+00	 1.671322430106890e+00	 1.118597576115627e+01
 1.441278141092895e+00	 1.685431623437618e+00	 1.112058832388983e+01
 1.424810100214467e+00	 1.699375916652904e+00	 1.105439565256631e+01
 1.408214216093256e+00	 1.713153517862778e+00	 1.098551630767207e+01
 1.391493028253995e+00	 1.726762685607307e+00	 1.091198465199409e+01
 1.374649107005375e+00	 1.740201729567638e+00	 1.083175232177726e+01
 1.357685052147477e+00	 1.753469011238729e+00	 1.074269015850639e+01
 1.340603491662319e+00	 1.766562944563231e+00	 1.064280325347199e+01
 1.323407080388879e+00	 1.779481996526039e+00	 1.054336920273221e+01
 1.495817904296194e+00	 1.649151995426080e+00	 1.131720238257291e+01
 1.479684369706545e+00	 1.663642839498807e+00	 1.124945853537156e+01
 1.463415032491225e+00	 1.677971874278254e+00	 1.118427051596724e+01
 1.447012341962682e+00	 1.692137201776459e+00	 1.111976181831086e+01
 1.430478782117809e+00	 1.706136973095410e+00	 1.105396362349310e+01
 1.413816870399118e+00	 1.719969389216020e+00	 1.098481554850153e+01
 1.397029156434963e+00	 1.733632701749877e+00	 1.091016683413163e+01
 1.380118220760136e+00	 1.747125213653118e+00	 1.082777799124841e+01
 1.363086673518147e+00	 1.760445279901833e+00	 1.073532292251459e+01
 1.345937153146571e+00	 1.773591308128471e+00	 1.063517815814007e+01
 1.328672325046793e+00	 1.786561759218760e+00	 1.054105401942889e+01
 1.501745511185803e+00	 1.655687232572625e+00	 1.131333899690243e+01
 1.485548042844174e+00	 1.670235500765547e+00	 1.124689064471256e+01
 1.469214233720123e+00	 1.684621318449455e+00	 1.118277628634331e+01
 1.452746542832192e+00	 1.698842780115080e+00	 1.111895407463497e+01
 1.436147464020815e+00	 1.712898029537638e+00	 1.105328340270550e+01
 1.419419524704582e+00	 1.726785260568927e+00	 1.098352579522336e+01
 1.402565284615473e+00	 1.740502717892059e+00	 1.090734625298337e+01
 1.385587334514378e+00	 1.754048697738161e+00	 1.082231507038883e+01
 1.368488294888244e+00	 1.767421548564461e+00	 1.072632621567292e+01
 1.351270814630200e+00	 1.780619671693210e+00	 1.063061592785105e+01
 1.333937569704040e+00	 1.793641521910966e+00	 1.054114142181526e+01
 1.281285123121559e+00	 1.722843894983654e+00	 1.055723034961567e+01
 1.264530302232631e+00	 1.735178925112020e+00	 1.046738395788024e+01
 1.247669525712911e+00	 1.747341893556909e+00	 1.037263363832931e+01
 1.230705423354944e+00	 1.759331480861804e+00	 1.026897205371656e+01
 1.213640645748062e+00	 1.771146420757310e+00	 1.015600399261146e+01
 1.196477862946308e+00	 1.782785500538586e+00	 1.004904489885025e+01
 1.179219763129366e+00	 1.794247561403101e+00	 9.948691947951428e+00
 1.161869051257883e+00	 1.805531498748640e+00	 9.852693239902070e+00
 1.144428447724528e+00	 1.816636262431509e+00	 9.758423339918306e+00
 1.126900687002146e+00	 1.827560856984948e+00	 9.663871906990082e+00
 1.109288516290361e+00	 1.838304341797836e+00	 9.567142634472967e+00
 1.286550367778807e+00	 1.729923657675114e+00	 1.056558436445814e+01
 1.269726695523801e+00	 1.742309376717713e+00	 1.047323515889705e+01
 1.252796632229572e+00	 1.754522327015755e+00	 1.037370920613685e+01
 1.235762818495395e+00	 1.766561183690609e+00	 1.026329215501152e+01
 1.218627915802794e+00	 1.778424675269332e+00	 1.015362474213333e+01
 1.201394605177988e+00	 1.790111584063650e+00	 1.005126126459404e+01
 1.184065585847327e+00	 1.801620746509102e+00	 9.954402415235837e+00
 1.166643573887081e+00	 1.812951053464272e+00	 9.861076502387116e+00
 1.149131300868954e+00	 1.824101450470053e+00	 9.768722979173107e+00
 1.131531512502690e+00	 1.835070937968958e+00	 9.675333646880604e+00
 1.113846967277110e+00	 1.845858571484564e+00	 9.579084478668390e+00
 1.291815612436721e+00	 1.737003420367256e+00	 1.057052659654599e+01
 1.274923088815674e+00	 1.749439828324040e+00	 1.047490994099869e+01
 1.257923738746963e+00	 1.761702760475180e+00	 1.036985331203261e+01
 1.240820213636592e+00	 1.773790886519932e+00	 1.025821258223341e+01
 1.223615185858279e+00	 1.785702929781807e+00	 1.015373127309936e+01
 1.206311347410418e+00	 1.797437667589096e+00	 1.005543457341082e+01
 1.188911408566022e+00	 1.808993931615413e+00	 9.961603297295461e+00
 1.171418096516982e+00	 1.820370608180138e+00	 9.870455612191748e+00
 1.153834154014040e+00	 1.831566638508753e+00	 9.779637719764875e+00
 1.136162338003837e+00	 1.842581018953047e+00	 9.687115802898205e+00
 1.118405418264389e+00	 1.853412801171289e+00	 9.591148662574376e+00
 1.297080857095136e+00	 1.744083183059930e+00	 1.057207182572551e+01
 1.280119482108074e+00	 1.756570279930858e+00	 1.047242880930671e+01
 1.263050845264901e+00	 1.768883193935049e+00	 1.036245325230693e+01
 1.245877608778351e+00	 1.781020589349650e+00	 1.025586388488500e+01
 1.228602455914329e+00	 1.792981184294625e+00	 1.015599419134918e+01
 1.211228089643410e+00	 1.804763751114833e+00	 1.006124353262664e+01
 1.193757231285266e+00	 1.816367116721957e+00	 9.969983021292389e+00
 1.176192619147410e+00	 1.827790162896181e+00	 9.880556773352124e+00
 1.158537007159621e+00	 1.839031826547572e+00	 9.790913132465491e+00
 1.140793163505436e+00	 1.850091099937193e+00	 9.698984526733289e+00
 1.122963869252066e+00	 1.860967030858012e+00	 9.603123031086758e+00
 1.302346101753885e+00	 1.751162945752986e+00	 1.057023211602713e+01
 1.285315875400826e+00	 1.763700731538021e+00	 1.046580953256587e+01
 1.268177951783205e+00	 1.776063627395229e+00	 1.035735379265710e+01
 1.250935003920484e+00	 1.788250292179642e+00	 1.025591479352220e+01
 1.233589725970756e+00	 1.800259438807678e+00	 1.016008846117553e+01
 1.216144831876776e+00	 1.812089834640766e+00	 1.006837104777895e+01
 1.198603054004877e+00	 1.823740301828660e+00	 9.979234025175842e+00
 1.180967141778191e+00	 1.835209717612342e+00	 9.891125252564528e+00
 1.163239860305532e+00	 1.846497014586467e+00	 9.802294476097938e+00
 1.145423989007336e+00	 1.857601180921378e+00	 9.710705312210838e+00
 1.127522320240007e+00	 1.868521260544733e+00	 9.614794406376920e+00
 1.307611346412800e+00	 1.758242708446275e+00	 1.056501682476085e+01
 1.290512268693754e+00	 1.770831183145389e+00	 1.045776259593636e+01
 1.273305058301691e+00	 1.783244060855584e+00	 1.035493658609649e+01
 1.255992399062802e+00	 1.795479995009785e+00	 1.025803847404021e+01
 1.238576996027372e+00	 1.807537693320858e+00	 1.016569335350296e+01
 1.221061574110330e+00	 1.819415918166802e+00	 1.007650417374274e+01
 1.203448876724670e+00	 1.831113486935444e+00	 9.989052712295576e+00
 1.185741664409146e+00	 1.842629272328562e+00	 9.901900535747819e+00
 1.167942713451609e+00	 1.853962202625403e+00	 9.813526806301166e+00
 1.150054814509386e+00	 1.865111261905581e+00	 9.722043104582973e+00
 1.132080771228081e+00	 1.876075490231453e+00	 9.625948698064384e+00
 1.312876591071716e+00	 1.765322471139646e+00	 1.055645815054722e+01
 1.295708661986680e+00	 1.777961634752817e+00	 1.045264234701022e+01
 1.278432164820176e+00	 1.790424494315982e+00	 1.035487496459628e+01
 1.261049794205121e+00	 1.802709697839955e+00	 1.026191247447855e+01
 1.243564266083988e+00	 1.814815947834057e+00	 1.017249239500783e+01
 1.225978316343883e+00	 1.826742001692850e+00	 1.008533406673109e+01
 1.208294699444464e+00	 1.838486672042232e+00	 9.999139406810853e+00
 1.190516187040102e+00	 1.850048827044785e+00	 9.912593646967167e+00
 1.172645566597685e+00	 1.861427390664339e+00	 9.824355084897991e+00
 1.154685640011437e+00	 1.872621342889786e+00	 9.732762410312104e+00
 1.136639222216155e+00	 1.883629719918174e+00	 9.636371013760572e+00
 1.318141835730464e+00	 1.772402233832951e+00	 1.054839858801656e+01
 1.300905055279432e+00	 1.785092086360161e+00	 1.045019798165808e+01
 1.283559271338480e+00	 1.797604927776289e+00	 1.035684668485181e+01
 1.266107189347253e+00	 1.809939400670031e+00	 1.026721867279172e+01
 1.248551536140415e+00	 1.822094202347163e+00	 1.018017331815241e+01
 1.230895058577249e+00	 1.834068085218813e+00	 1.009455593714625e+01
 1.213140522164075e+00	 1.845859857148951e+00	 1.000919830987223e+01
 1.195290709670882e+00	 1.857468381760951e+00	 9.922919179586811e+00
 1.177348419743596e+00	 1.868892578703237e+00	 9.834524735605711e+00
 1.159316465513337e+00	 1.880131423873970e+00	 9.742627407332446e+00
 1.141197673204096e+00	 1.891183949604895e+00	 9.645845769972459e+00
 1.323407080388879e+00	 1.779481996526039e+00	 1.054336920273221e+01
 1.306101448571832e+00	 1.792222537967280e+00	 1.045010941191137e+01
 1.288686377856418e+00	 1.804785361236369e+00	 1.036053387535483e+01
 1.271164584489011e+00	 1.817169103499892e+00	 1.027364322555868e+01
 1.253538806196465e+00	 1.829372456860070e+00	 1.018842801210816e+01
 1.235811800810241e+00	 1.841394168744602e+00	 1.010386900325663e+01
 1.217986344883318e+00	 1.853233042255522e+00	 1.001893745655576e+01
 1.200065232301311e+00	 1.864887936477005e+00	 9.932595363700504e+00
 1.182051272889177e+00	 1.876357766742058e+00	 9.843795674838827e+00
 1.163947291014936e+00	 1.887641504858116e+00	 9.751402055774843e+00
 1.145756124191772e+00	 1.898738179291618e+00	 9.654156803356852e+00
 1.328672325046793e+00	 1.786561759218760e+00	 1.054105401942889e+01
 1.311297841863705e+00	 1.799352989574029e+00	 1.045206093124419e+01
 1.293813484373809e+00	 1.811965794696090e+00	 1.036562298441314e+01
 1.276221979630209e+00	 1.824398806329413e+00	 1.028087651760503e+01
 1.258526076251950e+00	 1.836650711372670e+00	 1.019695247454356e+01
 1.240728543042670e+00	 1.848720252270120e+00	 1.011297644567764e+01
 1.222832167602012e+00	 1.860606227361869e+00	 1.002806867352770e+01
 1.204839754931211e+00	 1.872307491192887e+00	 9.941344027434280e+00
 1.186754126034263e+00	 1.883822954780764e+00	 9.851911953529084e+00
 1.168578116516082e+00	 1.895151585842205e+00	 9.758850209143516e+00
 1.150314575179052e+00	 1.906292408978342e+00	 9.661087482315422e+00
 1.333937569704040e+00	 1.793641521910966e+00	 1.054114142181526e+01
 1.316494235154875e+00	 1.806483441180266e+00	 1.045574116253141e+01
 1.298940590890470e+00	 1.819146228155318e+00	 1.037180472909234e+01
 1.281279374770660e+00	 1.831628509158474e+00	 1.028861311251229e+01
 1.263513346306681e+00	 1.843928965884853e+00	 1.020544676425229e+01
 1.245645285274350e+00	 1.856046335795278e+00	 1.012158536263365e+01
 1.227677990319974e+00	 1.867979412467918e+00	 1.003630753741927e+01
 1.209614277560409e+00	 1.879727045908540e+00	 9.948890558878979e+00
 1.191456979178689e+00	 1.891288142819314e+00	 9.858609997756716e+00
 1.173208942016627e+00	 1.902661666826218e+00	 9.764735725931743e+00
 1.154873026165801e+00	 1.913846638665072e+00	 9.666420818920589e+00
 1.109288516290361e+00	 1.838304341797836e+00	 9.567142634472967e+00
 1.091594694507553e+00	 1.848865831699674e+00	 9.467086152187862e+00
 1.073821991952893e+00	 1.859244498404515e+00	 9.363964377632730e+00
 1.055973187880068e+00	 1.869439569243934e+00	 9.258158591702735e+00
 1.038051068798763e+00	 1.879450326741568e+00	 9.150159051772858e+00
 1.020058427132334e+00	 1.889276108593128e+00	 9.040553327865869e+00
 1.001998059881857e+00	 1.898916307608127e+00	 8.930014892809508e+00
 9.838727672977994e-01	 1.908370371613757e+00	 8.819292025410183e+00
 9.656853515605157e-01	 1.917637803321349e+00	 8.709197080849496e+00
 9.474386154707806e-01	 1.926718160155935e+00	 8.600596177469418e+00
 9.291353611515103e-01	 1.935611054049432e+00	 8.494399343905432e+00
 1.113846967277110e+00	 1.845858571484564e+00	 9.579084478668390e+00
 1.096080435447949e+00	 1.856463462208892e+00	 9.479200719754157e+00
 1.078234698698499e+00	 1.866884778452287e+00	 9.376274752232405e+00
 1.060312547703372e+00	 1.877121744371174e+00	 9.270698026400973e+00
 1.042316780422992e+00	 1.887173639540842e+00	 9.162971645521292e+00
 1.024250200755753e+00	 1.897039798935372e+00	 9.053694409203020e+00
 1.006115617196586e+00	 1.906719612869135e+00	 8.943551126148673e+00
 9.879158415031618e-01	 1.916212526900261e+00	 8.833301256777748e+00
 9.696536873709707e-01	 1.925518041696562e+00	 8.723767941274952e+00
 9.513319691184728e-01	 1.934635712864383e+00	 8.615827463414085e+00
 9.329535003834832e-01	 1.943565150740947e+00	 8.510399195137644e+00
 1.118405418264389e+00	 1.853412801171289e+00	 9.591148662574376e+00
 1.100566176388786e+00	 1.864061092718026e+00	 9.491325316592818e+00
 1.082647405444448e+00	 1.874525058499898e+00	 9.388543193592827e+00
 1.064651907526910e+00	 1.884803919498182e+00	 9.283192528402575e+00
 1.046582492047341e+00	 1.894896952339820e+00	 9.175773731123300e+00
 1.028441974379181e+00	 1.904803489277268e+00	 9.066885147926445e+00
 1.010233174511215e+00	 1.914522918129752e+00	 8.957211107022292e+00
 9.919589157083232e-01	 1.924054682186347e+00	 8.847510311816292e+00
 9.736220231811357e-01	 1.933398280071347e+00	 8.738604638142538e+00
 9.552253227658015e-01	 1.942553265572416e+00	 8.631368387106436e+00
 9.367716396150375e-01	 1.951519247432082e+00	 8.526718039535957e+00
 1.122963869252066e+00	 1.860967030858012e+00	 9.603123031086758e+00
 1.105051917329954e+00	 1.871658723227098e+00	 9.503268870869119e+00
 1.087060112190651e+00	 1.882165338547391e+00	 9.400597560164083e+00
 1.068991267350623e+00	 1.892486094625017e+00	 9.295486899402139e+00
 1.050848203671780e+00	 1.902620265138577e+00	 9.188425232051543e+00
 1.032633748002613e+00	 1.912567179618902e+00	 9.079998932739704e+00
 1.014350731825765e+00	 1.922326223390080e+00	 8.970880196810072e+00
 9.960019899133274e-01	 1.931896837472129e+00	 8.861815194834545e+00
 9.775903589910730e-01	 1.941278518445825e+00	 8.753612650314405e+00
 9.591186764128414e-01	 1.950470818280153e+00	 8.647132893285537e+00
 9.405897788462569e-01	 1.959473344122953e+00	 8.543277436843310e+00
 1.127522320240007e+00	 1.868521260544733e+00	 9.614794406376920e+00
 1.109537658271344e+00	 1.879256353736129e+00	 9.514838933152449e+00
 1.091472818937026e+00	 1.889805618594803e+00	 9.412264013918620e+00
 1.073330627174450e+00	 1.900168269751737e+00	 9.307423960058005e+00
 1.055113915296277e+00	 1.910343577937188e+00	 9.200783838803082e+00
 1.036825521626044e+00	 1.920330869960368e+00	 9.092906698313259e+00
 1.018468289140255e+00	 1.930129528650220e+00	 8.984441110912618e+00
 1.000045064118216e+00	 1.939738992757714e+00	 8.876109099519105e+00
 9.815586948008433e-01	 1.949158756820110e+00	 8.768694506847869e+00
 9.630120300596692e-01	 1.958388370987716e+00	 8.663031861286292e+00
 9.444079180772249e-01	 1.967427440813676e+00	 8.559995787469830e+00
 1.132080771228081e+00	 1.876075490231453e+00	 9.625948698064384e+00
 1.114023399212843e+00	 1.886853984245140e+00	 9.525841787261152e+00
 1.095885525683485e+00	 1.897445898642176e+00	 9.423367131160532e+00
 1.077669986998335e+00	 1.907850444878401e+00	 9.318844660109226e+00
 1.059379626920800e+00	 1.918066890735729e+00	 9.212705117724051e+00
 1.041017295249469e+00	 1.928094560301753e+00	 9.105477032271841e+00
 1.022585846454707e+00	 1.937932833910278e+00	 8.997774023408464e+00
 1.004088138323034e+00	 1.947581148043218e+00	 8.890282510825163e+00
 9.855270306105088e-01	 1.957038995194323e+00	 8.783749885738384e+00
 9.669053837063589e-01	 1.966305923695220e+00	 8.678973200306729e+00
 9.482260573080243e-01	 1.975381537504368e+00	 8.576788424010804e+00
 1.136639222216155e+00	 1.883629719918174e+00	 9.636371013760572e+00
 1.118509140154343e+00	 1.894451614754150e+00	 9.536082561363799e+00
 1.100298232429944e+00	 1.905086178689550e+00	 9.433730013490820e+00
 1.082009346822217e+00	 1.915532620005067e+00	 9.329588188566255e+00
 1.063645338545318e+00	 1.925790203534276e+00	 9.224042619839565e+00
 1.045209068872883e+00	 1.935858250643149e+00	 9.117576282131241e+00
 1.026703403769141e+00	 1.945736139170353e+00	 9.010756671620047e+00
 1.008131212527822e+00	 1.955423303328752e+00	 8.904223306745276e+00
 9.894953664201306e-01	 1.964919233568579e+00	 8.798675712519701e+00
 9.707987373529871e-01	 1.974223476402786e+00	 8.694861944520648e+00
 9.520441965387395e-01	 1.983335634195144e+00	 8.593567702605970e+00
 1.141197673204096e+00	 1.891183949604895e+00	 9.645845769972459e+00
 1.122994881095732e+00	 1.902049245263181e+00	 9.545365339327558e+00
 1.104710939176317e+00	 1.912726458736964e+00	 9.443174398924267e+00
 1.086348706646037e+00	 1.923214795131794e+00	 9.339492083972939e+00
 1.067911050169798e+00	 1.933513516332904e+00	 9.234647989689520e+00
 1.049400842496282e+00	 1.943621940984646e+00	 9.129068662188315e+00
 1.030820961083577e+00	 1.953539444430550e+00	 9.023264460590740e+00
 1.012174286732623e+00	 1.963265458614426e+00	 8.917816859960752e+00
 9.934637022297703e-01	 1.972799471942995e+00	 8.813366258725894e+00
 9.746920909996287e-01	 1.982141029110534e+00	 8.710600348040771e+00
 9.558623357694527e-01	 1.991289730886122e+00	 8.610243094145932e+00
 1.145756124191772e+00	 1.898738179291618e+00	 9.654156803356852e+00
 1.127480622036900e+00	 1.909646875772254e+00	 9.553493272307872e+00
 1.109123645922517e+00	 1.920366738784460e+00	 9.451520773154812e+00
 1.090688066469738e+00	 1.930896970258641e+00	 9.348392344737883e+00
 1.072176761794210e+00	 1.941236829131688e+00	 9.244371074168608e+00
 1.053592616119660e+00	 1.951385631326334e+00	 9.139816360364087e+00
 1.034938518398034e+00	 1.961342749690969e+00	 9.035170567476575e+00
 1.016217360937481e+00	 1.971107613900353e+00	 8.930946139376646e+00
 9.974320380394895e-01	 1.980679710317690e+00	 8.827713240218646e+00
 9.785854446463594e-01	 1.990058581818581e+00	 8.726087979736546e+00
 9.596804750002484e-01	 1.999243827577417e+00	 8.626721275329263e+00
 1.150314575179052e+00	 1.906292408978342e+00	 9.661087482315422e+00
 1.131966362977736e+00	 1.917244506281389e+00	 9.560268690572212e+00
 1.113536352668460e+00	 1.928007018832077e+00	 9.458588480963819e+00
 1.095027426293259e+00	 1.938579145385666e+00	 9.356123539533714e+00
 1.076442473418520e+00	 1.948960141930704e+00	 9.253060031372506e+00
 1.057784389743014e+00	 1.959149321668304e+00	 9.149679645002360e+00
 1.039056075712534e+00	 1.969146054951715e+00	 9.046346045853593e+00
 1.020260435142439e+00	 1.978949769186645e+00	 8.943491811545732e+00
 1.001400373849350e+00	 1.988559948692782e+00	 8.841605915384047e+00
 9.824787982932547e-01	 1.997976134527048e+00	 8.741221817910006e+00
 9.634986142312095e-01	 2.007197924269145e+00	 8.642906219573813e+00
 1.154873026165801e+00	 1.913846638665072e+00	 9.666420818920589e+00
 1.136452103918131e+00	 1.924842136790607e+00	 9.565493215551925e+00
 1.117949059414061e+00	 1.935647298879856e+00	 9.464195837768404e+00
 1.099366786116543e+00	 1.946261320512928e+00	 9.362518917761598e+00
 1.080708185042699e+00	 1.956683454730028e+00	 9.260561439447516e+00
 1.061976163366337e+00	 1.966913012010647e+00	 9.158516971624236e+00
 1.043173633027097e+00	 1.976949360212890e+00	 9.056659929944322e+00
 1.024303509347539e+00	 1.986791924473413e+00	 8.955332341983631e+00
 1.005368709659413e+00	 1.996440187068386e+00	 8.854931183201737e+00
 9.863721519403903e-01	 2.005893687236055e+00	 8.755896344834044e+00
 9.673167534624196e-01	 2.015152020961425e+00	 8.658699287788163e+00
 9.291353611515103e-01	 1.935611054049432e+00	 8.494399343905430e+00
 9.107752633221814e-01	 1.944317614944239e+00	 8.389465417569065e+00
 8.923642265648896e-01	 1.952836033922081e+00	 8.284209928362248e+00
 8.739050438238596e-01	 1.961166083376974e+00	 8.178858797805827e+00
 8.554005023379557e-01	 1.969307589065009e+00	 8.073642164726499e+00
 8.368533824140600e-01	 1.977260429726245e+00	 7.968788522273327e+00
 8.182664562179768e-01	 1.985024536674226e+00	 7.864519455714349e+00
 7.996424865837999e-01	 1.992599893353934e+00	 7.761044985353490e+00
 7.809842258426549e-01	 1.999986534868971e+00	 7.658559513829506e+00
 7.622944146716795e-01	 2.007184547478847e+00	 7.557238372162717e+00
 7.435757809640703e-01	 2.014194068067215e+00	 7.457234954225525e+00
 9.329535003834832e-01	 1.943565150740947e+00	 8.510399195137644e+00
 9.145179545487909e-01	 1.952307489911985e+00	 8.406270865279119e+00
 8.960312604604603e-01	 1.960860914025748e+00	 8.301781620110397e+00
 8.774962225398832e-01	 1.969225194540931e+00	 8.197158713816357e+00
 8.589156394796467e-01	 1.977400156497592e+00	 8.092633802366720e+00
 8.402923030118700e-01	 1.985385678137485e+00	 7.988436981229174e+00
 8.216289966941384e-01	 1.993181690491892e+00	 7.884791444921667e+00
 8.029284947139819e-01	 2.000788176937756e+00	 7.781908772677514e+00
 7.841935607128003e-01	 2.008205172722930e+00	 7.679984839268389e+00
 7.654269466301148e-01	 2.015432764461386e+00	 7.579196344992523e+00
 7.466313915689743e-01	 2.022471089599275e+00	 7.479697954005038e+00
 9.367716396150375e-01	 1.951519247432082e+00	 8.526718039535959e+00
 9.182606457749493e-01	 1.960297364879410e+00	 8.423370014282838e+00
 8.996982943555677e-01	 1.968885794129170e+00	 8.319599041117264e+00
 8.810874012554506e-01	 1.977284305704739e+00	 8.215639571257679e+00
 8.624307766209054e-01	 1.985492723930135e+00	 8.111730513024556e+00
 8.437312236092854e-01	 1.993510926548799e+00	 8.008109160883393e+00
 8.249915371699561e-01	 2.001338844309750e+00	 7.905005768225443e+00
 8.062145028438803e-01	 2.008976460521890e+00	 7.802638768095225e+00
 7.874028955827300e-01	 2.016423810577315e+00	 7.701210640697237e+00
 7.685594785884102e-01	 2.023680981444456e+00	 7.600904421323198e+00
 7.496870021738175e-01	 2.030748111131957e+00	 7.501880837376065e+00
 9.405897788462569e-01	 1.959473344122953e+00	 8.543277436843310e+00
 9.220033370007412e-01	 1.968287239846621e+00	 8.440691673056399e+00
 9.033653282502921e-01	 1.976910674232447e+00	 8.337598212285448e+00
 8.846785799706322e-01	 1.985343416868481e+00	 8.234244493913959e+00
 8.659459137617872e-01	 1.993585291362700e+00	 8.130882338941777e+00
 8.471701442063441e-01	 2.001636174960232e+00	 8.027761760997915e+00
 8.283540776454476e-01	 2.009495998127826e+00	 7.925125443839176e+00
 8.095005109734916e-01	 2.017164744106341e+00	 7.823203889484907e+00
 7.906122304524200e-01	 2.024642448432109e+00	 7.722211235605398e+00
 7.716920105465183e-01	 2.031929198428021e+00	 7.622341735439329e+00
 7.527426127785311e-01	 2.039025132665209e+00	 7.523766888407026e+00
 9.444079180772249e-01	 1.967427440813676e+00	 8.559995787469829e+00
 9.257460282262515e-01	 1.976277114813727e+00	 8.458161411226001e+00
 9.070323621447138e-01	 1.984935554335675e+00	 8.355711845720931e+00
 8.882697586854974e-01	 1.993402528032239e+00	 8.252913238006204e+00
 8.694610509023480e-01	 2.001677858795353e+00	 8.150035908771054e+00
 8.506090648030851e-01	 2.009761423371830e+00	 8.047348035969415e+00
 8.317166181206317e-01	 2.017653151946145e+00	 7.945110028541704e+00
 8.127865191028130e-01	 2.025353027691109e+00	 7.843569594329384e+00
 7.938215653218446e-01	 2.032861086287296e+00	 7.742957500582548e+00
 7.748245425043920e-01	 2.040177415412047e+00	 7.643484019970277e+00
 7.557982233830478e-01	 2.047302154198982e+00	 7.545336049737219e+00
 9.482260573080243e-01	 1.975381537504368e+00	 8.576788424010804e+00
 9.294887194515647e-01	 1.984266989780837e+00	 8.475701647222825e+00
 9.106993960389117e-01	 1.992960434438949e+00	 8.373869428523356e+00
 8.918609374001168e-01	 2.001461639196095e+00	 8.271582272096829e+00
 8.729761880426438e-01	 2.009770426228158e+00	 8.169134513553777e+00
 8.540479853995462e-01	 2.017886671783635e+00	 8.066817866819257e+00
 8.350791585955262e-01	 2.025810305764729e+00	 7.964915685598422e+00
 8.160725272318409e-01	 2.033541311276201e+00	 7.863697943468047e+00
 7.970309001909780e-01	 2.041079724142859e+00	 7.763416930781478e+00
 7.779570744619838e-01	 2.048425632396498e+00	 7.664303660920913e+00
 7.588538339872994e-01	 2.055579175733224e+00	 7.566564973017071e+00
 9.520441965387395e-01	 1.983335634195144e+00	 8.593567702605970e+00
 9.332314106767655e-01	 1.992256864748059e+00	 8.493231735779517e+00
 9.143664299329669e-01	 2.000985314542367e+00	 8.391997306420123e+00
 8.954521161145595e-01	 2.009520750360127e+00	 8.290184856841861e+00
 8.764913251827298e-01	 2.017862993661176e+00	 8.188118182552001e+00
 8.574869059957652e-01	 2.026011920195693e+00	 8.086117833048075e+00
 8.384416990701492e-01	 2.033967459583602e+00	 7.984495252560610e+00
 8.193585353605723e-01	 2.041729594861619e+00	 7.883547664745423e+00
 8.002402350597947e-01	 2.049298361998782e+00	 7.783553699298499e+00
 7.810896064192467e-01	 2.056673849381341e+00	 7.684769752651242e+00
 7.619094445912177e-01	 2.063856197267883e+00	 7.587427069330266e+00
 9.558623357694527e-01	 1.991289730886122e+00	 8.610243094145932e+00
 9.369741019019390e-01	 2.000246739715503e+00	 8.510668055274209e+00
 9.180334638269583e-01	 2.009010194646027e+00	 8.410018767248841e+00
 8.990432948288964e-01	 2.017579861524421e+00	 8.308651124595283e+00
 8.800064623226619e-01	 2.025955561094475e+00	 8.206923758938686e+00
 8.609258265917812e-01	 2.034137168608049e+00	 8.105191284357115e+00
 8.418042395445197e-01	 2.042124613402790e+00	 8.003798308946033e+00
 8.226445434890037e-01	 2.049917878447365e+00	 7.903074216557547e+00
 8.034495699282699e-01	 2.057516999855049e+00	 7.803328716476508e+00
 7.842221383761333e-01	 2.064922066366540e+00	 7.704848152804963e+00
 7.649650551947357e-01	 2.072133218802911e+00	 7.607892559599545e+00
 9.596804750002484e-01	 1.999243827577417e+00	 8.626721275329263e+00
 9.407167931271693e-01	 2.008236614683276e+00	 8.527924094924899e+00
 9.217004977209663e-01	 2.017035074750023e+00	 8.427854124292452e+00
 9.026344735431970e-01	 2.025638972689057e+00	 8.326908158869276e+00
 8.835215994624964e-01	 2.034048128528116e+00	 8.225484975350671e+00
 8.643647471876317e-01	 2.042262417020744e+00	 8.123978412242833e+00
 8.451667800186552e-01	 2.050281767222315e+00	 8.022771243803840e+00
 8.259305516171324e-01	 2.058106162033445e+00	 7.922229851301105e+00
 8.066589047963781e-01	 2.065735637711644e+00	 7.822699689130833e+00
 7.873546703325968e-01	 2.073170283352061e+00	 7.724501537187781e+00
 7.680206657977842e-01	 2.080410240338255e+00	 7.627928524975621e+00
 9.634986142312095e-01	 2.007197924269145e+00	 8.642906219573813e+00
 9.444594843525417e-01	 2.016226489651488e+00	 8.544910541839048e+00
 9.253675316150708e-01	 2.025059954854455e+00	 8.445420799470993e+00
 9.062256522575305e-01	 2.033698083854115e+00	 8.344880073655533e+00
 8.870367366022883e-01	 2.042140695962163e+00	 8.243732529307655e+00
 8.678036677833550e-01	 2.050387665433826e+00	 8.142416321464779e+00
 8.485293204925743e-01	 2.058438921042202e+00	 8.041357323167599e+00
 8.292165597449546e-01	 2.066294445619862e+00	 7.940963678726101e+00
 8.098682396640938e-01	 2.073954275568549e+00	 7.841621179701027e+00
 7.904872022885893e-01	 2.081418500337870e+00	 7.743689454598861e+00
 7.710762764002956e-01	 2.088687261873864e+00	 7.647498957209763e+00
 9.673167534624196e-01	 2.015152020961425e+00	 8.658699287788163e+00
 9.482021755781406e-01	 2.024216364620247e+00	 8.561535367922403e+00
 9.290345655093517e-01	 2.033084834959419e+00	 8.462633406393842e+00
 9.098168309719685e-01	 2.041757195019680e+00	 8.362488092609174e+00
 8.905518737420935e-01	 2.050233263396683e+00	 8.261594158500595e+00
 8.712425883789897e-01	 2.058512913847339e+00	 8.160439101393674e+00
 8.518918609662952e-01	 2.066596074862476e+00	 8.059496757398744e+00
 8.325025678724677e-01	 2.074482729206619e+00	 7.959221729195862e+00
 8.130775745313923e-01	 2.082172913425751e+00	 7.860044665329582e+00
 7.936197342440642e-01	 2.089666717323930e+00	 7.762368381614481e+00
 7.741318870022023e-01	 2.096964283409688e+00	 7.666564809011119e+00
 7.435757809640703e-01	 2.014194068067215e+00	 7.457234954225525e+00
 7.248342268985118e-01	 2.021014139864915e+00	 7.358634634755870e+00
 7.060692699719573e-01	 2.027646205539275e+00	 7.261681873283175e+00
 6.872835909877293e-01	 2.034090548863059e+00	 7.166775878925932e+00
 6.684798537193514e-01	 2.040347501804524e+00	 7.074281070048364e+00
 6.496607038978447e-01	 2.046417443866173e+00	 6.984526597495432e+00
 6.308287682241586e-01	 2.052300801400137e+00	 6.897806323637789e+00
 6.119866534072722e-01	 2.057998046901178e+00	 6.814379222011450e+00
 5.931369452284784e-01	 2.063509698278315e+00	 6.734470160041840e+00
 5.742822076323040e-01	 2.068836318106088e+00	 6.656149336017182e+00
 5.554249818444938e-01	 2.073978512856493e+00	 6.574353825126590e+00
 7.466313915689743e-01	 2.022471089599275e+00	 7.479697954005038e+00
 7.278128219621546e-01	 2.029319187435735e+00	 7.381550654462959e+00
 7.089707533238362e-01	 2.035978506566521e+00	 7.284978638453771e+00
 6.901078774736948e-01	 2.042449331930523e+00	 7.190387421931653e+00
 6.712268691316229e-01	 2.048731996860176e+00	 7.098146694740304e+00
 6.523303849008698e-01	 2.054826882417499e+00	 7.008589945760948e+00
 6.334210622764110e-01	 2.060734416706659e+00	 6.922014559719083e+00
 6.145015186790980e-01	 2.066455074164066e+00	 6.838682349159245e+00
 5.955743505160963e-01	 2.071989374827015e+00	 6.758820482742586e+00
 5.766421322680724e-01	 2.077337883581866e+00	 6.681182619025122e+00
 5.577074156035490e-01	 2.082501209392824e+00	 6.600377054057491e+00
 7.496870021738175e-01	 2.030748111131957e+00	 7.501880837376065e+00
 7.307914170258173e-01	 2.037624235007253e+00	 7.404173838638417e+00
 7.118722366758174e-01	 2.044310807594524e+00	 7.307979718830680e+00
 6.929321639598434e-01	 2.050808114998791e+00	 7.213707521469686e+00
 6.739738845441580e-01	 2.057116491916668e+00	 7.121729457784357e+00
 6.550000659042363e-01	 2.063236320969690e+00	 7.032380638489713e+00
 6.360133563290785e-01	 2.069168032014058e+00	 6.945959293391800e+00
 6.170163839514079e-01	 2.074912101427841e+00	 6.862727441035481e+00
 5.980117558042625e-01	 2.080469051376603e+00	 6.782911968174801e+00
 5.790020569044455e-01	 2.085839449058531e+00	 6.705808985283229e+00
 5.599898493632576e-01	 2.091023905930038e+00	 6.625957998861625e+00
 7.527426127785311e-01	 2.039025132665209e+00	 7.523766888407028e+00
 7.337700120894128e-01	 2.045929282579404e+00	 7.426491737569991e+00
 7.147737200277963e-01	 2.052643108623211e+00	 7.330677887406607e+00
 6.957564504460566e-01	 2.059166898067780e+00	 7.236735125224884e+00
 6.767208999568241e-01	 2.065500986973908e+00	 7.145035426104422e+00
 6.576697469077992e-01	 2.071645759522647e+00	 7.055912796080752e+00
 6.386056503820067e-01	 2.077601647322238e+00	 6.969663619672788e+00
 6.195312492240390e-01	 2.083369128692399e+00	 6.886547472632094e+00
 6.004491610928053e-01	 2.088948727926974e+00	 6.806788358291259e+00
 5.813619815412450e-01	 2.094341014535971e+00	 6.730088971659613e+00
 5.622722831234357e-01	 2.099546602468017e+00	 6.651167433119285e+00
 7.557982233830478e-01	 2.047302154198982e+00	 7.545336049737218e+00
 7.367486071528546e-01	 2.054234330152124e+00	 7.448488628424944e+00
 7.176752033796692e-01	 2.060975409652505e+00	 7.353062706596040e+00
 6.985807369322148e-01	 2.067525681137406e+00	 7.259466026790101e+00
 6.794679153694884e-01	 2.073885482031807e+00	 7.168067562644132e+00
 6.603394279114148e-01	 2.080055198076276e+00	 7.079197478347098e+00
 6.411979444350400e-01	 2.086035262631093e+00	 6.993147609297124e+00
 6.220461144968267e-01	 2.091826155957634e+00	 6.910172423477329e+00
 6.028865663815528e-01	 2.097428404478016e+00	 6.830490420491155e+00
 5.837219061782924e-01	 2.102842580014072e+00	 6.754080561470710e+00
 5.645547168838998e-01	 2.108069299006645e+00	 6.676073691828715e+00
 7.588538339872994e-01	 2.055579175733224e+00	 7.566564973017073e+00
 7.397272022160557e-01	 2.062539377725350e+00	 7.470145561201996e+00
 7.205766867313325e-01	 2.069307710682332e+00	 7.375120570082808e+00
 7.014050234181992e-01	 2.075884464207585e+00	 7.281892903800581e+00
 6.822149307820189e-01	 2.082269977090273e+00	 7.190825761187163e+00
 6.630091089149375e-01	 2.088464636630480e+00	 7.102242716424927e+00
 6.437902384880239e-01	 2.094468877940526e+00	 7.016428338126202e+00
 6.245609797696066e-01	 2.100283183223440e+00	 6.933629304956995e+00
 6.053239716703330e-01	 2.105908081029622e+00	 6.854055973273676e+00
 5.860818308154102e-01	 2.111344145492724e+00	 6.777839167483084e+00
 5.668371506444664e-01	 2.116591995545806e+00	 6.700742656479177e+00
 7.619094445912177e-01	 2.063856197267883e+00	 7.587427069330266e+00
 7.427057972789288e-01	 2.070844425299015e+00	 7.491440404700521e+00
 7.234781700826816e-01	 2.077640011712617e+00	 7.396834744712892e+00
 7.042293099038908e-01	 2.084243247278234e+00	 7.304005356134082e+00
 6.849619461942821e-01	 2.090654472149216e+00	 7.213306881256020e+00
 6.656787899182237e-01	 2.096874075185163e+00	 7.125053544767958e+00
 6.463825325408030e-01	 2.102902493250435e+00	 7.039519916640083e+00
 6.270758450422157e-01	 2.108740210489715e+00	 6.956942187712140e+00
 6.077613769589745e-01	 2.114387757581683e+00	 6.877519911953367e+00
 5.884417554524196e-01	 2.119845710971814e+00	 6.801418167053887e+00
 5.691195844049511e-01	 2.125114692085379e+00	 6.725237740131579e+00
 7.649650551947357e-01	 2.072133218802911e+00	 7.607892559599545e+00
 7.456843923413877e-01	 2.079149472873056e+00	 7.512347892505614e+00
 7.263796534336132e-01	 2.085972312743284e+00	 7.418185412429653e+00
 7.070535963891698e-01	 2.092602030349270e+00	 7.325789944175243e+00
 6.877089616061461e-01	 2.099038967208545e+00	 7.235504783087535e+00
 6.683484709211283e-01	 2.105283513740229e+00	 7.147632033224957e+00
 6.489748265932230e-01	 2.111336108560719e+00	 7.062433519512148e+00
 6.295907103144891e-01	 2.117197237756355e+00	 6.980132229110898e+00
 6.101987822473055e-01	 2.122867434134090e+00	 6.900914234432765e+00
 5.908016800891424e-01	 2.128347276451228e+00	 6.824931047850243e+00
 5.714020181651709e-01	 2.133637388625251e+00	 6.749619872502415e+00
 7.680206657977842e-01	 2.080410240338255e+00	 7.627928524975623e+00
 7.486629874033452e-01	 2.087454520447410e+00	 7.532839668990299e+00
 7.292811367840235e-01	 2.094304613774259e+00	 7.439149712253066e+00
 7.098778828739182e-01	 2.100960813420608e+00	 7.347230227141033e+00
 6.904559770174782e-01	 2.107423462268170e+00	 7.257410362684350e+00
 6.710181519235073e-01	 2.113692952295582e+00	 7.169977319198364e+00
 6.515671206451283e-01	 2.119769723871279e+00	 7.085177415263884e+00
 6.321055755862635e-01	 2.125654265023253e+00	 7.003217700792540e+00
 6.126361875351543e-01	 2.131347110686737e+00	 6.924268067032649e+00
 5.931616047254004e-01	 2.136848841930856e+00	 6.848463801926259e+00
 5.736844519249419e-01	 2.142160085165303e+00	 6.773947485054704e+00
 7.710762764002956e-01	 2.088687261873864e+00	 7.647498957209763e+00
 7.516415824647140e-01	 2.095759568022009e+00	 7.552884335332491e+00
 7.321826201338077e-01	 2.102636914805464e+00	 7.459701782299003e+00
 7.127021693580159e-01	 2.109319596492163e+00	 7.368306801467943e+00
 6.932029924281451e-01	 2.115807957328000e+00	 7.279011586938060e+00
 6.736878329252156e-01	 2.122102390851125e+00	 7.192085639882271e+00
 6.541594146963646e-01	 2.128203339182012e+00	 7.107756995997257e+00
 6.346204408573745e-01	 2.134111292290305e+00	 7.026214016280908e+00
 6.150735928223491e-01	 2.139826787239513e+00	 6.947607690378209e+00
 5.955215293610149e-01	 2.145350407410582e+00	 6.872054399230244e+00
 5.759668856840803e-01	 2.150682781705418e+00	 6.798276496093358e+00
 7.741318870022023e-01	 2.096964283409688e+00	 7.666564809011119e+00
 7.546201775254084e-01	 2.104064615596794e+00	 7.572447495547813e+00
 7.350841034828635e-01	 2.110969215836829e+00	 7.479812801838772e+00
 7.155264558413447e-01	 2.117678379563855e+00	 7.388997339255687e+00
 6.959500078380153e-01	 2.124192452387945e+00	 7.300293528823751e+00
 6.763575139261093e-01	 2.130511829406764e+00	 7.213950364574977e+00
 6.567517087467765e-01	 2.136636954492820e+00	 7.130174807203119e+00
 6.371353061276586e-01	 2.142568319557409e+00	 7.049133758667010e+00
 6.175109981087186e-01	 2.148306463792312e+00	 6.970956565338216e+00
 5.978814539958085e-01	 2.153851972890297e+00	 6.895737994707639e+00
 5.782493194424027e-01	 2.159205478245480e+00	 6.822660295865466e+00
 5.554249818444938e-01	 2.073978512856493e+00	 6.574353825126590e+00
 5.365677857747290e-01	 2.078936932563052e+00	 6.491951297891832e+00
 5.177131139377212e-01	 2.083712271364324e+00	 6.411987240868220e+00
 4.988634358408005e-01	 2.088305265324173e+00	 6.334725719791502e+00
 4.800211949505416e-01	 2.092716691142881e+00	 6.260361689538231e+00
 4.611888079513155e-01	 2.096947365305516e+00	 6.189027627298152e+00
 4.423686640326468e-01	 2.100998143217203e+00	 6.120799917129148e+00
 4.235631242055150e-01	 2.104869918326305e+00	 6.055704957624577e+00
 4.047745206477009e-01	 2.108563621236568e+00	 5.993724967164902e+00
 3.860051560782379e-01	 2.112080218809191e+00	 5.934803464012376e+00
 3.672573031609927e-01	 2.115420713255858e+00	 5.878850401300854e+00
 5.577074156035490e-01	 2.082501209392824e+00	 6.600377054057491e+00
 5.387727287791739e-01	 2.087480004964628e+00	 6.518911096463017e+00
 5.198405765604912e-01	 2.092274967288285e+00	 6.439796921985639e+00
 5.009134386029001e-01	 2.096886835452392e+00	 6.363300380699930e+00
 4.819937684140340e-01	 2.101316389348949e+00	 6.289618953065022e+00
 4.630839926092659e-01	 2.105564448818237e+00	 6.218888571301346e+00
 4.441865101961348e-01	 2.109631872780525e+00	 6.151190181558494e+00
 4.253036918878415e-01	 2.113519558355659e+00	 6.086556017949759e+00
 4.064378794458997e-01	 2.117228439971545e+00	 6.024975562347982e+00
 3.875913850520212e-01	 2.120759488462540e+00	 5.966401166694411e+00
 3.687664907092441e-01	 2.124113710158760e+00	 5.910753317444053e+00
 5.599898493632576e-01	 2.091023905930038e+00	 6.625957998861625e+00
 5.409776717843121e-01	 2.096023077367081e+00	 6.545389561198888e+00
 5.219680391839850e-01	 2.100837663213118e+00	 6.467085067514565e+00
 5.029634413657452e-01	 2.105468405581474e+00	 6.391313288653571e+00
 4.839663418782852e-01	 2.109916087555875e+00	 6.318275372834709e+00
 4.649791772679783e-01	 2.114181532331809e+00	 6.248111857936707e+00
 4.460043563603800e-01	 2.118265602344693e+00	 6.180909413813900e+00
 4.270442595709101e-01	 2.122169198385853e+00	 6.116707285054074e+00
 4.081012382448178e-01	 2.125893258707358e+00	 6.055503407481512e+00
 3.891776140264916e-01	 2.129438758116725e+00	 5.997260174643154e+00
 3.702756782581408e-01	 2.132806707062494e+00	 5.941909833461681e+00
 5.622722831234357e-01	 2.099546602468017e+00	 6.651167433119285e+00
 5.431826147899550e-01	 2.104566149770289e+00	 6.571467734587111e+00
 5.240955018080113e-01	 2.109400359138693e+00	 6.493942377320139e+00
 5.050134441291421e-01	 2.114049975711286e+00	 6.418864127347773e+00
 4.859389153430992e-01	 2.118515785763518e+00	 6.346438882154719e+00
 4.668743619272572e-01	 2.122798615846085e+00	 6.276812876681941e+00
 4.478222025251871e-01	 2.126899331909553e+00	 6.210079608424978e+00
 4.287848272545282e-01	 2.130818838416728e+00	 6.146286451362485e+00
 4.097645970442639e-01	 2.134558077443845e+00	 6.085440931417400e+00
 3.907638430014616e-01	 2.138118027771578e+00	 6.027516639163925e+00
 3.717848658075005e-01	 2.141499703966896e+00	 5.972458758518203e+00
 5.645547168838998e-01	 2.108069299006645e+00	 6.676073691828715e+00
 5.453875577959152e-01	 2.113109222174130e+00	 6.597224326021855e+00
 5.262229644323784e-01	 2.117963055064880e+00	 6.520457323608579e+00
 5.070634468928970e-01	 2.122631545841692e+00	 6.446050458241689e+00
 4.879114888082811e-01	 2.127115483971733e+00	 6.374215397550070e+00
 4.687695465869067e-01	 2.131415699360915e+00	 6.305105105765239e+00
 4.496400486903603e-01	 2.135533061474950e+00	 6.238820954333820e+00
 4.305253949385014e-01	 2.139468478448124e+00	 6.175419509558428e+00
 4.114279558440475e-01	 2.143222896180841e+00	 6.114918969355314e+00
 3.923500719767436e-01	 2.146797297426934e+00	 6.057305224309269e+00
 3.732940533571398e-01	 2.150192700871797e+00	 6.002537521306008e+00
 5.668371506444664e-01	 2.116591995545806e+00	 6.700742656479177e+00
 5.475925008020039e-01	 2.121652294578479e+00	 6.622735699079425e+00
 5.283504270568947e-01	 2.126525750991552e+00	 6.546716140334697e+00
 5.091134496568157e-01	 2.131213115972555e+00	 6.472967712015651e+00
 4.898840622736351e-01	 2.135715182180379e+00	 6.401708812178716e+00
 4.706647312467312e-01	 2.140032782876150e+00	 6.333100107433398e+00
 4.514578948557051e-01	 2.144166791040728e+00	 6.267251831901337e+00
 4.322659626226364e-01	 2.148118118479883e+00	 6.204230751202917e+00
 4.130913146439771e-01	 2.151887714918184e+00	 6.144066762939885e+00
 3.939363009521499e-01	 2.155476567082625e+00	 6.086759108306238e+00
 3.748032409068762e-01	 2.158885697777032e+00	 6.032282172646073e+00
 5.691195844049511e-01	 2.125114692085379e+00	 6.725237740131579e+00
 5.497974438080334e-01	 2.130195366983215e+00	 6.648075858765484e+00
 5.304778896813690e-01	 2.135088446918580e+00	 6.572802812548776e+00
 5.111634524207040e-01	 2.139794686103742e+00	 6.499709179937119e+00
 4.918566357389663e-01	 2.144314880389316e+00	 6.429020989124989e+00
 4.725599159065345e-01	 2.148649866391642e+00	 6.360907523072783e+00
 4.532757410210260e-01	 2.152800520606734e+00	 6.295488809742602e+00
 4.340065303067395e-01	 2.156767758511844e+00	 6.232842765161568e+00
 4.147546734438620e-01	 2.160552533655709e+00	 6.173011960145040e+00
 3.955225299274938e-01	 2.164155836738488e+00	 6.116009984756294e+00
 3.763124284565266e-01	 2.167578694682433e+00	 6.061827387849839e+00
 5.714020181651709e-01	 2.133637388625251e+00	 6.749619872502415e+00
 5.520023868138153e-01	 2.138738439388215e+00	 6.673316438734786e+00
 5.326053523056095e-01	 2.143651142845835e+00	 6.598799065682183e+00
 5.132134551843687e-01	 2.148376256235116e+00	 6.526366005135698e+00
 4.938292092040790e-01	 2.152914578598399e+00	 6.456251754575787e+00
 4.744551005661213e-01	 2.157266949907243e+00	 6.388635068185444e+00
 4.550935871861274e-01	 2.161434250172813e+00	 6.323646641394017e+00
 4.357470979906173e-01	 2.165417398543849e+00	 6.261376435842354e+00
 4.164180322435109e-01	 2.169217352393255e+00	 6.201880614952628e+00
 3.971087589025871e-01	 2.172835106394356e+00	 6.145188063613600e+00
 3.778216160059087e-01	 2.176271691587835e+00	 6.091306468847828e+00
 5.736844519249419e-01	 2.142160085165303e+00	 6.773947485054704e+00
 5.542073298191618e-01	 2.147281511793357e+00	 6.698526688482362e+00
 5.347328149294247e-01	 2.152213838773188e+00	 6.624784354775959e+00
 5.152634579476149e-01	 2.156957826366540e+00	 6.553027173791192e+00
 4.958017826687779e-01	 2.161514276807488e+00	 6.483498890880981e+00
 4.763502852252953e-01	 2.165884033422805e+00	 6.416388527225464e+00
 4.569114333508149e-01	 2.170067979738812e+00	 6.351838261817582e+00
 4.374876656740759e-01	 2.174067038575736e+00	 6.289950941250719e+00
 4.180813910427328e-01	 2.177882171130657e+00	 6.230797186830578e+00
 3.986949878772429e-01	 2.181514376050062e+00	 6.174422071949387e+00
 3.793308035548391e-01	 2.184964688493071e+00	 6.120851346092299e+00
 5.759668856840803e-01	 2.150682781705418e+00	 6.798276496093358e+00
 5.564122728238846e-01	 2.155824584198517e+00	 6.723773460509832e+00
 5.368602775526230e-01	 2.160776534700510e+00	 6.650835853651978e+00
 5.173134607102493e-01	 2.165539396497882e+00	 6.579779506236353e+00
 4.977743561328677e-01	 2.170113975016440e+00	 6.510858129502578e+00
 4.782454698838611e-01	 2.174501116938178e+00	 6.444271748299876e+00
 4.587292795148928e-01	 2.178701709304576e+00	 6.380174783748288e+00
 4.392282333569216e-01	 2.182716678607349e+00	 6.318683750866956e+00
 4.197447498413371e-01	 2.186546989867752e+00	 6.259884540016165e+00
 4.002812168512736e-01	 2.190193645705442e+00	 6.203839254505985e+00
 3.808399911031353e-01	 2.193657685397974e+00	 6.150592580239849e+00
 5.782493194424027e-01	 2.159205478245480e+00	 6.822660295865466e+00
 5.586172158277957e-01	 2.164367656603575e+00	 6.749121197464770e+00
 5.389877401750129e-01	 2.169339230627673e+00	 6.677028444029700e+00
 5.193634634720780e-01	 2.174120966629006e+00	 6.606707647977016e+00
 4.997469295961534e-01	 2.178713673225113e+00	 6.538423143855917e+00
 4.801406545416229e-01	 2.183118200453216e+00	 6.472386637736404e+00
 4.605471256781661e-01	 2.187335438869950e+00	 6.408765493885748e+00
 4.409688010389614e-01	 2.191366318638528e+00	 6.347690623350710e+00
 4.214081086391326e-01	 2.195211808604377e+00	 6.289263942609988e+00
 4.018674458244917e-01	 2.198872915360329e+00	 6.233565374049535e+00
 3.823491786506145e-01	 2.202350682302378e+00	 6.180659363620052e+00
 3.672573031609927e-01	 2.115420713255858e+00	 5.878850401300854e+00
 3.485300236178633e-01	 2.118586664291156e+00	 5.825614002711585e+00
 3.298287227551172e-01	 2.121578558452605e+00	 5.774896975968872e+00
 3.111555856978455e-01	 2.124397497505492e+00	 5.726629051241287e+00
 2.925127652964016e-01	 2.127044614912394e+00	 5.680726685018961e+00
 2.739023816741177e-01	 2.129521074894057e+00	 5.637095928774635e+00
 2.553265218037148e-01	 2.131828071486968e+00	 5.595634895476964e+00
 2.367872391122023e-01	 2.133966827598550e+00	 5.556235823145803e+00
 2.182865531140267e-01	 2.135938594060838e+00	 5.518786737035587e+00
 1.998264490722119e-01	 2.137744648683531e+00	 5.483172714311664e+00
 1.814088776871944e-01	 2.139386295307245e+00	 5.449276757266921e+00
 3.687664907092441e-01	 2.124113710158760e+00	 5.910753317444051e+00
 3.499622542837598e-01	 2.127292671184187e+00	 5.857822877273338e+00
 3.311841032941045e-01	 2.130296860075696e+00	 5.807434545792212e+00
 3.124342318447953e-01	 2.133127383126118e+00	 5.759500708010531e+00
 2.937148016329827e-01	 2.135785378455830e+00	 5.713922697450954e+00
 2.750279414943093e-01	 2.138272015069765e+00	 5.670593764619667e+00
 2.563757469775800e-01	 2.140588491911129e+00	 5.629401628412039e+00
 2.377602799480368e-01	 2.142736036912699e+00	 5.590230609684831e+00
 2.191835682190007e-01	 2.144715906046622e+00	 5.552963348679631e+00
 2.006476052116190e-01	 2.146529382373564e+00	 5.517482110332027e+00
 1.821543496424223e-01	 2.148177775092080e+00	 5.483669683735906e+00
 3.702756782581408e-01	 2.132806707062494e+00	 5.941909833461684e+00
 3.513944849502517e-01	 2.135998678078050e+00	 5.889284628300961e+00
 3.325394838336322e-01	 2.139015161699623e+00	 5.839228015447802e+00
 3.137128779922275e-01	 2.141857268747582e+00	 5.791633365780394e+00
 2.949168379699886e-01	 2.144526142000098e+00	 5.746385299866212e+00
 2.761535013148728e-01	 2.147022955246298e+00	 5.703362759676937e+00
 2.574249721517711e-01	 2.149348912336103e+00	 5.662441647953426e+00
 2.387333207841614e-01	 2.151505246227644e+00	 5.623497034487380e+00
 2.200805833242426e-01	 2.153493218033174e+00	 5.586404931110533e+00
 2.014687613512880e-01	 2.155314116064326e+00	 5.551043639591953e+00
 1.828998215979255e-01	 2.156969254877594e+00	 5.517294678946778e+00
 3.717848658075005e-01	 2.141499703966896e+00	 5.972458758518205e+00
 3.528267156171620e-01	 2.144704684972582e+00	 5.920139714161766e+00
 3.338948643735288e-01	 2.147733463324223e+00	 5.870418565240332e+00
 3.149915241399771e-01	 2.150587154369724e+00	 5.823167990818105e+00
 2.961188743072615e-01	 2.153266905545051e+00	 5.778254301437293e+00
 2.772790611356556e-01	 2.155773895423519e+00	 5.735540617543732e+00
 2.584741973261407e-01	 2.158109332761764e+00	 5.694889599900355e+00
 2.397063616204330e-01	 2.160274455543267e+00	 5.656165731292522e+00
 2.209775984296113e-01	 2.162270530020390e+00	 5.619237151419603e+00
 2.022899174910786e-01	 2.164098849755733e+00	 5.583977049349398e+00
 1.836452935535623e-01	 2.165760734663722e+00	 5.550264620268583e+00
 3.732940533571398e-01	 2.150192700871797e+00	 6.002537521306009e+00
 3.542589462843137e-01	 2.153410691867619e+00	 5.950527318319873e+00
 3.352502449136233e-01	 2.156451764949333e+00	 5.901146202916266e+00
 3.162701702878793e-01	 2.159317039992388e+00	 5.854244475465929e+00
 2.973209106446425e-01	 2.162007669090537e+00	 5.809668531862632e+00
 2.784046209565056e-01	 2.164524835601285e+00	 5.767264152155892e+00
 2.595234225005417e-01	 2.166869753187978e+00	 5.726879325128405e+00
 2.406794024567081e-01	 2.169043664859453e+00	 5.688366608157018e+00
 2.218746135349662e-01	 2.171047842008172e+00	 5.651585024361809e+00
 2.031110736308507e-01	 2.172883583447700e+00	 5.616401501592296e+00
 1.843907655091911e-01	 2.174552214450399e+00	 5.582691860222497e+00
 3.748032409068762e-01	 2.158885697777032e+00	 6.032282172646073e+00
 3.556911769515290e-01	 2.162116698762993e+00	 5.980585352978720e+00
 3.366056254537447e-01	 2.165170066574794e+00	 5.931549768247027e+00
 3.175488164357699e-01	 2.168046925615417e+00	 5.885001643567279e+00
 2.985229469819736e-01	 2.170748432636406e+00	 5.840765847538750e+00
 2.795301807772702e-01	 2.173275775779456e+00	 5.798669294613134e+00
 2.605726476748265e-01	 2.175630173614619e+00	 5.758543866975333e+00
 2.416524432928432e-01	 2.177812874176085e+00	 5.720228855315038e+00
 2.227716286401662e-01	 2.179825153996416e+00	 5.683572920600921e+00
 2.039322297704642e-01	 2.181668317140143e+00	 5.648435581584552e+00
 1.851362374646701e-01	 2.183343694237561e+00	 5.614688235248876e+00
 3.763124284565266e-01	 2.167578694682433e+00	 6.061827387849839e+00
 3.571234076186307e-01	 2.170822705658540e+00	 6.010450462474457e+00
 3.379610059937216e-01	 2.173888368200441e+00	 5.961766937356904e+00
 3.188274625834839e-01	 2.176776811238652e+00	 5.915577255631564e+00
 2.997249833190964e-01	 2.179489196182509e+00	 5.871683137468165e+00
 2.806557405977968e-01	 2.182026715957890e+00	 5.829891099736829e+00
 2.616218728488479e-01	 2.184390594041556e+00	 5.790015478360235e+00
 2.426254841286951e-01	 2.186582083493045e+00	 5.751880952769730e+00
 2.236686437450708e-01	 2.188602465985022e+00	 5.715324574688852e+00
 2.047533859097785e-01	 2.190453050832980e+00	 5.680197306151256e+00
 1.858817094198578e-01	 2.192135174025141e+00	 5.646365074215808e+00
 3.778216160059087e-01	 2.176271691587835e+00	 6.091306468847828e+00
 3.585556382854418e-01	 2.179528712554094e+00	 6.040258026428389e+00
 3.393163865333830e-01	 2.182606669826111e+00	 5.991934226800891e+00
 3.201061087308567e-01	 2.185506696861939e+00	 5.946108013743719e+00
 3.009270196558527e-01	 2.188229959728696e+00	 5.902556328907481e+00
 2.817813004179333e-01	 2.190777656136448e+00	 5.861063752367230e+00
 2.626710980224587e-01	 2.193151014468659e+00	 5.821425628640576e+00
 2.435985249641205e-01	 2.195351292810219e+00	 5.783450677623890e+00
 2.245656588495387e-01	 2.197379777973890e+00	 5.746963092785806e+00
 2.055745420486539e-01	 2.199237784526123e+00	 5.711804131706272e+00
 1.866271813746121e-01	 2.200926653813077e+00	 5.677833206675551e+00
 3.793308035548391e-01	 2.184964688493071e+00	 6.120851346092299e+00
 3.599878689517845e-01	 2.188234719449488e+00	 6.070142162663322e+00
 3.406717670725579e-01	 2.191324971451645e+00	 6.022186997400778e+00
 3.213847548777234e-01	 2.194236582485119e+00	 5.976729566226858e+00
 3.021290559920838e-01	 2.196970723274818e+00	 5.933520392765433e+00
 2.829068602375269e-01	 2.199528596314987e+00	 5.892320573407446e+00
 2.637203231955114e-01	 2.201911434895801e+00	 5.852905010214667e+00
 2.445715657989760e-01	 2.204120502127490e+00	 5.815065111156626e+00
 2.254626739534294e-01	 2.206157089962917e+00	 5.778610960129073e+00
 2.063956981869499e-01	 2.208022518219492e+00	 5.743372962031891e+00
 1.873726533287917e-01	 2.209718133601299e+00	 5.709202970878071e+00
 3.808399911031353e-01	 2.193657685397974e+00	 6.150592580239850e+00
 3.614200996174822e-01	 2.196940726344560e+00	 6.100235729892145e+00
 3.420271476110751e-01	 2.200043273076879e+00	 6.052659457846467e+00
 3.226634010239198e-01	 2.202966468108035e+00	 6.007576512064489e+00
 3.033310923276318e-01	 2.205711486820724e+00	 5.964709348757081e+00
 2.840324200564257e-01	 2.208279536493369e+00	 5.923794025620753e+00
 2.647695483678589e-01	 2.210671855322849e+00	 5.884583544878252e+00
 2.455446066331181e-01	 2.212889711444741e+00	 5.846850645654984e+00
 2.263596890566018e-01	 2.214934401952002e+00	 5.810390048256953e+00
 2.072168543245263e-01	 2.216807251913000e+00	 5.775020155817451e+00
 1.881181252822547e-01	 2.218509613389748e+00	 5.740584221545272e+00
 3.823491786506145e-01	 2.202350682302378e+00	 6.180659363620054e+00
 3.628523302823573e-01	 2.205646733239143e+00	 6.130670330184124e+00
 3.433825281487635e-01	 2.208761574701650e+00	 6.083484668067813e+00
 3.239420471692807e-01	 2.211696353730531e+00	 6.038782405088464e+00
 3.045331286623382e-01	 2.214452250366265e+00	 5.996256270319096e+00
 2.851579798744769e-01	 2.217030476671454e+00	 5.955615719189145e+00
 2.658187735393538e-01	 2.219432275749678e+00	 5.916590389939853e+00
 2.465176474664039e-01	 2.221658920761856e+00	 5.878932991004294e+00
 2.272567041589152e-01	 2.223711713941045e+00	 5.842421621995146e+00
 2.080380104612432e-01	 2.225591985606564e+00	 5.806861533962036e+00
 1.888635972348596e-01	 2.227301093178355e+00	 5.772086337415290e+00
 1.814088776871944e-01	 2.139386295307245e+00	 5.449276757266921e+00
 1.630388668134021e-01	 2.140864625246658e+00	 5.418064016842985e+00
 1.447151263019822e-01	 2.142181283527937e+00	 5.390522839962686e+00
 1.264394588533794e-01	 2.143337645286587e+00	 5.366582971968679e+00
 1.082136327957438e-01	 2.144335107886604e+00	 5.346168608701973e+00
 9.003938190143806e-02	 2.145175090000602e+00	 5.329197346223228e+00
 7.191840522812755e-02	 2.145859030694298e+00	 5.315578821841937e+00
 5.385236698404491e-02	 2.146388388516030e+00	 5.305213064063553e+00
 3.584289641700417e-02	 2.146764640591973e+00	 5.297988570132920e+00
 1.789158772672358e-02	 2.146989281727696e+00	 5.293780130779358e+00
 0.000000000000000e+00	 2.147063823516666e+00	 5.292446422308602e+00
 1.821543496424223e-01	 2.148177775092080e+00	 5.483669683735910e+00
 1.637088500270271e-01	 2.149662180001442e+00	 5.452487638733093e+00
 1.453098109149132e-01	 2.150984248887804e+00	 5.424926400462768e+00
 1.269590424144496e-01	 2.152145362537580e+00	 5.400928034636584e+00
 1.086583201204632e-01	 2.153146924057020e+00	 5.380431845938865e+00
 9.040938492999151e-02	 2.153990357948556e+00	 5.363373274811334e+00
 7.221394288272016e-02	 2.154677109191527e+00	 5.349682473718986e+00
 5.407366502569354e-02	 2.155208642327952e+00	 5.339282581067371e+00
 3.599018730187295e-02	 2.155586440554033e+00	 5.332087712038756e+00
 1.796511046209908e-02	 2.155812004818010e+00	 5.328000686569522e+00
 0.000000000000000e+00	 2.155886852925016e+00	 5.326910515252161e+00
 1.828998215979255e-01	 2.156969254877594e+00	 5.517294678946782e+00
 1.643788332409611e-01	 2.158459734756845e+00	 5.486117485339960e+00
 1.459044955281991e-01	 2.159787214248219e+00	 5.458507340804033e+00
 1.274786259759230e-01	 2.160953079789044e+00	 5.434419697643865e+00
 1.091030074456266e-01	 2.161958740227829e+00	 5.413810091495166e+00
 9.077938795901273e-02	 2.162805625896829e+00	 5.396632983730525e+00
 7.250948053777760e-02	 2.163495187689005e+00	 5.382840271291533e+00
 5.429496306776798e-02	 2.164028896140064e+00	 5.372379482692244e+00
 3.613747818708313e-02	 2.164408240516233e+00	 5.365191680059944e+00
 1.803863319767704e-02	 2.164634727908436e+00	 5.361209088062187e+00
 0.000000000000000e+00	 2.164709882333466e+00	 5.360352471159222e+00
 1.836452935535623e-01	 2.165760734663722e+00	 5.550264620268585e+00
 1.650488164550587e-01	 2.167257289512821e+00	 5.519058513804451e+00
 1.464991801416902e-01	 2.168590179609160e+00	 5.491361531607250e+00
 1.279982095376468e-01	 2.169760797040981e+00	 5.467143565024188e+00
 1.095476947710809e-01	 2.170770556399055e+00	 5.446377491047113e+00
 9.114939098835277e-02	 2.171620893845462e+00	 5.429037958883331e+00
 7.280501819316147e-02	 2.172313266186795e+00	 5.415099831669137e+00
 5.451626111014831e-02	 2.172849149952441e+00	 5.404536302653472e+00
 3.628476907254295e-02	 2.173230040478665e+00	 5.397316706328160e+00
 1.811215593340515e-02	 2.173457450999069e+00	 5.393404045995576e+00
 0.000000000000000e+00	 2.173532911742116e+00	 5.392752259874666e+00
 1.843907655091911e-01	 2.174552214450399e+00	 5.582691860222496e+00
 1.657187996691746e-01	 2.176054844269327e+00	 5.551415211568150e+00
 1.470938647552370e-01	 2.177393144970603e+00	 5.523584425317177e+00
 1.285177930994681e-01	 2.178568514293390e+00	 5.499184870584931e+00
 1.099923820966728e-01	 2.179582372570720e+00	 5.478207864484209e+00
 9.151939401786265e-02	 2.180436161794501e+00	 5.460649401392904e+00
 7.310055584873329e-02	 2.181131344684955e+00	 5.446508524848195e+00
 5.473755915271462e-02	 2.181669403765163e+00	 5.435785361981396e+00
 3.643205995816066e-02	 2.182051840441418e+00	 5.428478841599643e+00
 1.818567866923106e-02	 2.182280174090007e+00	 5.424584118051369e+00
 0.000000000000000e+00	 2.182355941151066e+00	 5.424089723658192e+00
 1.851362374646701e-01	 2.183343694237561e+00	 5.614688235248879e+00
 1.663887828831636e-01	 2.184852399026318e+00	 5.583291605246556e+00
 1.476885493686899e-01	 2.186196110332526e+00	 5.555271065031961e+00
 1.290373766612340e-01	 2.187376231546269e+00	 5.530628486537633e+00
 1.104370694222492e-01	 2.188394188742845e+00	 5.509374714181685e+00
 9.188939704739348e-02	 2.189251429743987e+00	 5.491528235355076e+00
 7.339609350435468e-02	 2.189949423183549e+00	 5.477113480775151e+00
 5.495885719534697e-02	 2.190489657578305e+00	 5.466158775227072e+00
 3.657935084384444e-02	 2.190873640404580e+00	 5.458693960426313e+00
 1.825920140510245e-02	 2.191102897181349e+00	 5.454747712814973e+00
 0.000000000000000e+00	 2.191178970560415e+00	 5.454344579753266e+00
 1.858817094198578e-01	 2.192135174025141e+00	 5.646365074215807e+00
 1.670587660968802e-01	 2.193649953783749e+00	 5.614791269250372e+00
 1.482832339818991e-01	 2.194999075694908e+00	 5.586516093090065e+00
 1.295569602227919e-01	 2.196183948799623e+00	 5.561558931898043e+00
 1.108817567476570e-01	 2.197206004915452e+00	 5.539951233058140e+00
 9.225940007679623e-02	 2.198066697693962e+00	 5.521735115391173e+00
 7.369163115988717e-02	 2.198767501682638e+00	 5.506961596233774e+00
 5.518015523792547e-02	 2.199309911391945e+00	 5.495688456512839e+00
 3.672664172950261e-02	 2.199695440368243e+00	 5.487977766201590e+00
 1.833272414096701e-02	 2.199925620273190e+00	 5.483893093640600e+00
 0.000000000000000e+00	 2.200001999970266e+00	 5.483496422893459e+00
 1.866271813746121e-01	 2.200926653813077e+00	 5.677833206675553e+00
 1.677287493101792e-01	 2.202447508541578e+00	 5.646017334160872e+00
 1.488779185947151e-01	 2.203802041057728e+00	 5.617413759419639e+00
 1.300765437839888e-01	 2.204991666053447e+00	 5.592060380660265e+00
 1.113264440727428e-01	 2.206017821088564e+00	 5.570010312420319e+00
 9.262940310592198e-02	 2.206881965644472e+00	 5.551330434008721e+00
 7.398716881519238e-02	 2.207585580182284e+00	 5.536099541556411e+00
 5.540145328033015e-02	 2.208130165206159e+00	 5.524406125434091e+00
 3.687393261504335e-02	 2.208517240332494e+00	 5.516345796081234e+00
 1.840624687677240e-02	 2.208748343365628e+00	 5.512018382422145e+00
 0.000000000000000e+00	 2.208825029380716e+00	 5.511524727750203e+00
 1.873726533287917e-01	 2.209718133601299e+00	 5.709202970878071e+00
 1.683987325229153e-01	 2.211245063299761e+00	 5.677072494868602e+00
 1.494726032069882e-01	 2.212605006420961e+00	 5.648057929658677e+00
 1.305961273446718e-01	 2.213799383307746e+00	 5.622216669752833e+00
 1.117711313973535e-01	 2.214829637262203e+00	 5.599624549605013e+00
 9.299940613462176e-02	 2.215697233595556e+00	 5.580374328772803e+00
 7.428270647013184e-02	 2.216403658682547e+00	 5.564573767170538e+00
 5.562275132244118e-02	 2.216950419021026e+00	 5.552343312815530e+00
 3.702122350037491e-02	 2.217339040297422e+00	 5.543813425787958e+00
 1.847976961246629e-02	 2.217571066458761e+00	 5.539121563275430e+00
 0.000000000000000e+00	 2.217648058791865e+00	 5.538408851320161e+00
 1.881181252822547e-01	 2.218509613389748e+00	 5.740584221545272e+00
 1.690687157349431e-01	 2.220042618058251e+00	 5.708059018478393e+00
 1.500672878185688e-01	 2.221407971784588e+00	 5.678542093051384e+00
 1.311157109046882e-01	 2.222607100562518e+00	 5.652111306781562e+00
 1.122158187213360e-01	 2.223641453436392e+00	 5.628866255420771e+00
 9.336940916274668e-02	 2.224512501547260e+00	 5.608926689296510e+00
 7.457824412456718e-02	 2.225221737183489e+00	 5.592430509979705e+00
 5.584404936413859e-02	 2.225770672836623e+00	 5.579531366326702e+00
 3.716851438540554e-02	 2.226160840263118e+00	 5.570395874296262e+00
 1.855329234799637e-02	 2.226393789552686e+00	 5.565200486129806e+00
 0.000000000000000e+00	 2.226471088203815e+00	 5.564128035257502e+00
 1.888635972348596e-01	 2.227301093178355e+00	 5.772086337415288e+00
 1.697386989461173e-01	 2.228840172817007e+00	 5.739078751988586e+00
 1.506619724293075e-01	 2.230210937148586e+00	 5.708959370127253e+00
 1.316352944638852e-01	 2.231414817817765e+00	 5.681827477566847e+00
 1.126605060445370e-01	 2.232453269611154e+00	 5.657807461397486e+00
 9.373941219014767e-02	 2.233327769499624e+00	 5.637047164051951e+00
 7.487378177835993e-02	 2.234039815685173e+00	 5.619715799586631e+00
 5.606534740530249e-02	 2.234590926653027e+00	 5.606001455959593e+00
 3.731580527004347e-02	 2.234982640229672e+00	 5.596108208407626e+00
 1.862681508331029e-02	 2.235216512647499e+00	 5.590252870237213e+00
 0.000000000000000e+00	 2.235294117616666e+00	 5.588661408149675e+00
 2.235294117616666e+00	 0.000000000000000e+00	 1.185467894671852e+01
 2.235216512647500e+00	 1.862681508330905e-02	 1.185812508652790e+01
 2.234982640229673e+00	 3.731580527004243e-02	 1.186170054562522e+01
 2.234590926653027e+00	 5.606534740530161e-02	 1.186541547419400e+01
 2.234039815685173e+00	 7.487378177835924e-02	 1.186928726397315e+01
 2.233327769499625e+00	 9.373941219014720e-02	 1.187333986347583e+01
 2.232453269611153e+00	 1.126605060445367e-01	 1.187760317010877e+01
 2.231414817817765e+00	 1.316352944638850e-01	 1.188211250584123e+01
 2.230210937148586e+00	 1.506619724293075e-01	 1.188690818317448e+01
 2.228840172817007e+00	 1.697386989461175e-01	 1.189203516821955e+01
 2.227301093178355e+00	 1.888635972348596e-01	 1.189754284773211e+01
 2.244117147030466e+00	 0.000000000000000e+00	 1.183854729610231e+01
 2.244039235743250e+00	 1.870033781837215e-02	 1.184207118047063e+01
 2.243804440197124e+00	 3.746309615422733e-02	 1.184567415452710e+01
 2.243411180470269e+00	 5.628664544585382e-02	 1.184937644486951e+01
 2.242857894187618e+00	 7.516931943142009e-02	 1.185320479391699e+01
 2.242143037452658e+00	 9.410941521672932e-02	 1.185719174392256e+01
 2.241265085786478e+00	 1.131051933668598e-01	 1.186137499912835e+01
 2.240222535073461e+00	 1.321548780221675e-01	 1.186579687280303e+01
 2.239013902512914e+00	 1.512566570391123e-01	 1.187050382600353e+01
 2.237637727575971e+00	 1.704086821563503e-01	 1.187554610496210e+01
 2.236092572967051e+00	 1.896090691865214e-01	 1.188097748404343e+01
 2.252940176445066e+00	 0.000000000000000e+00	 1.182249820014614e+01
 2.252861958839785e+00	 1.877386055322048e-02	 1.182612925028659e+01
 2.252626240165328e+00	 3.761038703802465e-02	 1.182978984077777e+01
 2.252231434288208e+00	 5.650794348588324e-02	 1.183350982780082e+01
 2.251675972690686e+00	 7.546485708385607e-02	 1.183732478036145e+01
 2.250958305406227e+00	 9.447941824261315e-02	 1.184127523204290e+01
 2.250076901962240e+00	 1.135498806884351e-01	 1.184540601220869e+01
 2.249030252329490e+00	 1.326744615796722e-01	 1.184976566348619e+01
 2.247816867877463e+00	 1.518513416481237e-01	 1.185440595246692e+01
 2.246435282335047e+00	 1.710786653657839e-01	 1.185938148062005e+01
 2.244884052755747e+00	 1.903545411373832e-01	 1.186474940246193e+01
 2.261763205860265e+00	 0.000000000000000e+00	 1.180649619260277e+01
 2.261684681936913e+00	 1.884738328790770e-02	 1.181026821216673e+01
 2.261448040134089e+00	 3.775767792153130e-02	 1.181402021608788e+01
 2.261051688106653e+00	 5.672924152552061e-02	 1.181779124779188e+01
 2.260494051194197e+00	 7.576039473582347e-02	 1.182162518380852e+01
 2.259773573360162e+00	 9.484942126797326e-02	 1.182556995222581e+01
 2.258888718138284e+00	 1.139945680094496e-01	 1.182967683196446e+01
 2.257837969585706e+00	 1.331940451365935e-01	 1.183399983979705e+01
 2.256619833242108e+00	 1.524460262565401e-01	 1.183859521214442e+01
 2.255232837094122e+00	 1.717486485746182e-01	 1.184352098874270e+01
 2.253675532544351e+00	 1.911000130876450e-01	 1.184883670532449e+01
 2.270586235275865e+00	 0.000000000000000e+00	 1.179050694199213e+01
 2.270507405034428e+00	 1.892090602248753e-02	 1.179445805276573e+01
 2.270269840103212e+00	 3.790496880484414e-02	 1.179833890953553e+01
 2.269871941925419e+00	 5.695053956489655e-02	 1.180219730499911e+01
 2.269312129697973e+00	 7.605593238747844e-02	 1.180608490904963e+01
 2.268588841314298e+00	 9.521942429298426e-02	 1.181005645290522e+01
 2.267700534314453e+00	 1.144392553300903e-01	 1.181416899549142e+01
 2.266645686841974e+00	 1.337136286931258e-01	 1.181848127909803e+01
 2.265422798606722e+00	 1.530407108645598e-01	 1.182305318143973e+01
 2.264030391853086e+00	 1.724186317830529e-01	 1.182794527131420e+01
 2.262467012332769e+00	 1.918454850375069e-01	 1.183321847510340e+01
 2.279409264691664e+00	 0.000000000000000e+00	 1.177449722963915e+01
 2.279330128132136e+00	 1.899442875701364e-02	 1.177866980886011e+01
 2.279091640072504e+00	 3.805225968806008e-02	 1.178272054857782e+01
 2.278692195744318e+00	 5.717183760414182e-02	 1.178670555703202e+01
 2.278130208201834e+00	 7.635147003897721e-02	 1.179068378809249e+01
 2.277404109268463e+00	 9.558942731782064e-02	 1.179471619005098e+01
 2.276512350490592e+00	 1.148839426505439e-01	 1.179886493816163e+01
 2.275453404098145e+00	 1.342332122494636e-01	 1.180319275804884e+01
 2.274225763971176e+00	 1.536353954723810e-01	 1.180776234721193e+01
 2.272827946611831e+00	 1.730886149912878e-01	 1.181263590192215e+01
 2.271258492120908e+00	 1.925909569871686e-01	 1.181787475686149e+01
 2.288232294107464e+00	 0.000000000000000e+00	 1.175843492821988e+01
 2.288152851229837e+00	 1.906795149153976e-02	 1.176287554747612e+01
 2.287913440041769e+00	 3.819955057127600e-02	 1.176714074050063e+01
 2.287512449563160e+00	 5.739313564338704e-02	 1.177129450146557e+01
 2.286948286705601e+00	 7.664700769047590e-02	 1.177540256347759e+01
 2.286219377222491e+00	 9.595943034265697e-02	 1.177953151103352e+01
 2.285324166666547e+00	 1.153286299709976e-01	 1.178374797778149e+01
 2.284261121354082e+00	 1.347527958058014e-01	 1.178811793680545e+01
 2.283028729335348e+00	 1.542300800802023e-01	 1.179270609076501e+01
 2.281625501370243e+00	 1.737585981995226e-01	 1.179757536928924e+01
 2.280049971908674e+00	 1.933364289368304e-01	 1.180278654108034e+01
 2.297055323523064e+00	 0.000000000000000e+00	 1.174228898080184e+01
 2.296975574327333e+00	 1.914147422611955e-02	 1.174704834647545e+01
 2.296735240010814e+00	 3.834684145458878e-02	 1.175157605429458e+01
 2.296332703381759e+00	 5.761443368276292e-02	 1.175594355875236e+01
 2.295766365209095e+00	 7.694254534213078e-02	 1.176022287197417e+01
 2.295034645176212e+00	 9.632943336766780e-02	 1.176448563885241e+01
 2.294135982842159e+00	 1.157733172916381e-01	 1.176880229910341e+01
 2.293068838609642e+00	 1.352723793623336e-01	 1.177324134356732e+01
 2.291831694699106e+00	 1.548247646882218e-01	 1.177786867218504e+01
 2.290423056128215e+00	 1.744285814079572e-01	 1.178274706115766e+01
 2.288841451695976e+00	 1.940819008866921e-01	 1.178793574685129e+01
 2.305878352938263e+00	 0.000000000000000e+00	 1.172602938036585e+01
 2.305798297424424e+00	 1.921499696080672e-02	 1.173116227558656e+01
 2.305557039979444e+00	 3.849413233809533e-02	 1.173600400294589e+01
 2.305152957199925e+00	 5.783573172240011e-02	 1.174063305552435e+01
 2.304584443712138e+00	 7.723808299409803e-02	 1.174512722864553e+01
 2.303849913129459e+00	 9.669943639302774e-02	 1.174956265671890e+01
 2.302947799017274e+00	 1.162180046126525e-01	 1.175401293868160e+01
 2.301876555864682e+00	 1.357919629192546e-01	 1.175854835946366e+01
 2.300634660062327e+00	 1.554194492966379e-01	 1.176323521501666e+01
 2.299220610885634e+00	 1.750985646167913e-01	 1.176813524851726e+01
 2.297632931482718e+00	 1.948273728369538e-01	 1.177330520541983e+01
 2.314701382352864e+00	 0.000000000000000e+00	 1.170962714979591e+01
 2.314621020520913e+00	 1.928851969565496e-02	 1.171519237786916e+01
 2.314378839947464e+00	 3.864142322189251e-02	 1.172040302613093e+01
 2.313973211017472e+00	 5.805702976242937e-02	 1.172534420827364e+01
 2.313402522214548e+00	 7.753362064653381e-02	 1.173009901127331e+01
 2.312665181082062e+00	 9.706943941891133e-02	 1.173474749298312e+01
 2.311759615191734e+00	 1.166626919342275e-01	 1.173936577006219e+01
 2.310684273119061e+00	 1.363115464767589e-01	 1.174402520376945e+01
 2.309437625424885e+00	 1.560141339056490e-01	 1.174879169126904e+01
 2.308018165642393e+00	 1.757685478262246e-01	 1.175372507016842e+01
 2.306424411268809e+00	 1.955728447878152e-01	 1.175887864407393e+01
 2.323524411766664e+00	 0.000000000000000e+00	 1.169305432232517e+01
 2.323443743616602e+00	 1.936204243071796e-02	 1.169911465160093e+01
 2.323200639914680e+00	 3.878871410607723e-02	 1.170475247330371e+01
 2.322793464834211e+00	 5.827832780298133e-02	 1.171005910740224e+01
 2.322220600716149e+00	 7.782915829959436e-02	 1.171512244513199e+01
 2.321480449033855e+00	 9.743944244549314e-02	 1.172002590639676e+01
 2.320571431365386e+00	 1.171073792565502e-01	 1.172484748929995e+01
 2.319491990372638e+00	 1.368311300350412e-01	 1.172965891944256e+01
 2.318240590786651e+00	 1.566088185154535e-01	 1.173452490674297e+01
 2.316815720398378e+00	 1.764385310364570e-01	 1.173950251760988e+01
 2.315215891054155e+00	 1.963183167394767e-01	 1.174464067036688e+01
 2.227301093178355e+00	 1.888635972348596e-01	 1.189754284773211e+01
 2.225591985606564e+00	 2.080380104612422e-01	 1.190377825804758e+01
 2.223711713941045e+00	 2.272567041589144e-01	 1.191104217082865e+01
 2.221658920761857e+00	 2.465176474664031e-01	 1.191932239292711e+01
 2.219432275749678e+00	 2.658187735393531e-01	 1.192860923511085e+01
 2.217030476671453e+00	 2.851579798744763e-01	 1.193889597610657e+01
 2.214452250366266e+00	 3.045331286623377e-01	 1.195017947612096e+01
 2.211696353730532e+00	 3.239420471692804e-01	 1.196246094649957e+01
 2.208761574701650e+00	 3.433825281487632e-01	 1.197574688206610e+01
 2.205646733239143e+00	 3.628523302823570e-01	 1.199005016254598e+01
 2.202350682302377e+00	 3.823491786506144e-01	 1.200539132931225e+01
 2.236092572967051e+00	 1.896090691865214e-01	 1.188097748404343e+01
 2.234376719300101e+00	 2.088591665970157e-01	 1.188714105240166e+01
 2.232489025929950e+00	 2.281537192602845e-01	 1.189432977655458e+01
 2.230428130078733e+00	 2.474906882987458e-01	 1.190252873470151e+01
 2.228192696176172e+00	 2.668679987099058e-01	 1.191172468999138e+01
 2.225781416849120e+00	 2.862835396915860e-01	 1.192190654969234e+01
 2.223193013911316e+00	 3.057351649961033e-01	 1.193306597614552e+01
 2.220426239352480e+00	 3.252206933137013e-01	 1.194519815626519e+01
 2.217479876325830e+00	 3.447379086855121e-01	 1.195830273623374e+01
 2.214352740133107e+00	 3.642845609462930e-01	 1.197238492790299e+01
 2.211043679206151e+00	 3.838583661971546e-01	 1.198745679325149e+01
 2.244884052755747e+00	 1.903545411373832e-01	 1.186474940246193e+01
 2.243161452993536e+00	 2.096803227319892e-01	 1.187084955413688e+01
 2.241266337918653e+00	 2.290507343608546e-01	 1.187796863779378e+01
 2.239197339395315e+00	 2.484637291302883e-01	 1.188608922166005e+01
 2.236953116602291e+00	 2.679172238796573e-01	 1.189519475807883e+01
 2.234532357026340e+00	 2.874090995078937e-01	 1.190527003796969e+01
 2.231933777455860e+00	 3.069372013290654e-01	 1.191630179934457e+01
 2.229156124973871e+00	 3.264993394573168e-01	 1.192827949674252e+01
 2.226198177949418e+00	 3.460932892214528e-01	 1.194119623833628e+01
 2.223058747026457e+00	 3.657167916094170e-01	 1.195504989732972e+01
 2.219736676109307e+00	 3.853675537428786e-01	 1.196984440410504e+01
 2.253675532544351e+00	 1.911000130876450e-01	 1.184883670532449e+01
 2.251946186686788e+00	 2.105014788663626e-01	 1.185488020157966e+01
 2.250043649907096e+00	 2.299477494608246e-01	 1.186193401137445e+01
 2.247966548711565e+00	 2.494367699612299e-01	 1.186997840890663e+01
 2.245713537028012e+00	 2.689664490488068e-01	 1.187899376960422e+01
 2.243283297203106e+00	 2.885346593235973e-01	 1.188896102003986e+01
 2.240674540999906e+00	 3.081392376614207e-01	 1.189986224413619e+01
 2.237886010594730e+00	 3.277779856003211e-01	 1.191168145262578e+01
 2.234916479572447e+00	 3.474486697567768e-01	 1.192440552262190e+01
 2.231764753919240e+00	 3.671490222719178e-01	 1.193802531402569e+01
 2.228429673011896e+00	 3.868767412879703e-01	 1.195253696933724e+01
 2.262467012332769e+00	 1.918454850375069e-01	 1.183321847510340e+01
 2.260730920379786e+00	 2.113226350003361e-01	 1.183921044622709e+01
 2.258820961895221e+00	 2.308447645603939e-01	 1.184620219302339e+01
 2.256735758027442e+00	 2.504098107917702e-01	 1.185417190890444e+01
 2.254473957453314e+00	 2.700156742175535e-01	 1.186309712340004e+01
 2.252034237379414e+00	 2.896602191388949e-01	 1.187295514768729e+01
 2.249415304543460e+00	 3.093412739933654e-01	 1.188372367861075e+01
 2.246615896215076e+00	 3.290566317429090e-01	 1.189538156825519e+01
 2.243634781194953e+00	 3.488040502916763e-01	 1.190790976602985e+01
 2.240470760811494e+00	 3.685812529339828e-01	 1.192129244009452e+01
 2.237122669913967e+00	 3.883859288326131e-01	 1.193551828480353e+01
 2.271258492120908e+00	 1.925909569871686e-01	 1.181787475686149e+01
 2.269515654072454e+00	 2.121437911341094e-01	 1.182381873440688e+01
 2.267598273882971e+00	 2.317417796597629e-01	 1.183075049831713e+01
 2.265504967342906e+00	 2.513828516221088e-01	 1.183864637180314e+01
 2.263234377878171e+00	 2.710648993860958e-01	 1.184748126668801e+01
 2.260785177555253e+00	 2.907857789539846e-01	 1.185722912471221e+01
 2.258156068086532e+00	 3.105433103250964e-01	 1.186786351949159e+01
 2.255345781834930e+00	 3.303352778852747e-01	 1.187935842628835e+01
 2.252353082816967e+00	 3.501594308263425e-01	 1.189168916665444e+01
 2.249176767703267e+00	 3.700134835958008e-01	 1.190483353488158e+01
 2.245815666815571e+00	 3.898951163769912e-01	 1.191877311304223e+01
 2.280049971908674e+00	 1.933364289368304e-01	 1.180278654108034e+01
 2.278300387764714e+00	 2.129649472678827e-01	 1.180868448932210e+01
 2.276375585870287e+00	 2.326387947591311e-01	 1.181555724402600e+01
 2.274274176657915e+00	 2.523558924524452e-01	 1.182337946616522e+01
 2.271994798302561e+00	 2.721141245546330e-01	 1.183212367526987e+01
 2.269536117730619e+00	 2.919113387690642e-01	 1.184176068666687e+01
 2.266896831629128e+00	 3.117453466568098e-01	 1.185226021149745e+01
 2.264075667454317e+00	 3.316139240276127e-01	 1.186359162676892e+01
 2.261071384438525e+00	 3.515148113609675e-01	 1.187572492259931e+01
 2.257882774594597e+00	 3.714457142575597e-01	 1.188863183369269e+01
 2.254508663716754e+00	 3.914043039212879e-01	 1.190228716193570e+01
 2.288841451695976e+00	 1.940819008866921e-01	 1.178793574685129e+01
 2.287085121456494e+00	 2.137861034018557e-01	 1.179378809346976e+01
 2.285152897857111e+00	 2.335358098586986e-01	 1.180060172984108e+01
 2.283043385972432e+00	 2.533289332829788e-01	 1.180834986008100e+01
 2.280755218726461e+00	 2.731633497233641e-01	 1.181700283410968e+01
 2.278287057905504e+00	 2.930368985843319e-01	 1.182652858098425e+01
 2.275637595171260e+00	 3.129473829887026e-01	 1.183689320709578e+01
 2.272805553073255e+00	 3.328925701701175e-01	 1.184806176658191e+01
 2.269789686059659e+00	 3.528701918957428e-01	 1.185999921121185e+01
 2.266588781485531e+00	 3.728779449194479e-01	 1.187267152688370e+01
 2.263201660617569e+00	 3.929134914656874e-01	 1.188604706373061e+01
 2.297632931482718e+00	 1.948273728369538e-01	 1.177330520541983e+01
 2.295869855147715e+00	 2.146072595362286e-01	 1.177911087142339e+01
 2.293930209843388e+00	 2.344328249586651e-01	 1.178586422047300e+01
 2.291812595286414e+00	 2.543019741139095e-01	 1.179353720266140e+01
 2.289515639149849e+00	 2.742125748924880e-01	 1.180209821829752e+01
 2.287037998079901e+00	 2.941624583999852e-01	 1.181151254748882e+01
 2.284378358712933e+00	 3.141494193209708e-01	 1.182174294663633e+01
 2.281535438691769e+00	 3.341712163129840e-01	 1.183275041928542e+01
 2.278507987680400e+00	 3.542255724308603e-01	 1.184449516868726e+01
 2.275294788376108e+00	 3.743101755816535e-01	 1.185693773931093e+01
 2.271894657518064e+00	 3.944226790103731e-01	 1.187004035440805e+01
 2.306424411268809e+00	 1.955728447878152e-01	 1.175887864407393e+01
 2.304654588838302e+00	 2.154284156712012e-01	 1.176463507297028e+01
 2.302707521829056e+00	 2.353298400592305e-01	 1.177132592811357e+01
 2.300581804599821e+00	 2.552750149454366e-01	 1.177892210589897e+01
 2.298276059572699e+00	 2.752618000622036e-01	 1.178739027438436e+01
 2.295788938253805e+00	 2.952880182162226e-01	 1.179669329927948e+01
 2.293119122254157e+00	 3.153514556538114e-01	 1.180679083885522e+01
 2.290265324309880e+00	 3.354498624564059e-01	 1.181764011530855e+01
 2.287226289300784e+00	 3.555809529665117e-01	 1.182919687003274e+01
 2.284000795266373e+00	 3.757424062443644e-01	 1.184141651013308e+01
 2.280587654418288e+00	 3.959318665555291e-01	 1.185425545339396e+01
 2.315215891054155e+00	 1.963183167394767e-01	 1.174464067036688e+01
 2.313439322528182e+00	 2.162495718069737e-01	 1.175034385659325e+01
 2.311484833814060e+00	 2.362268551605946e-01	 1.175696899524988e+01
 2.309351013912615e+00	 2.562480557777598e-01	 1.176448612688688e+01
 2.307036479994991e+00	 2.763110252327098e-01	 1.177286040207832e+01
 2.304539878427208e+00	 2.964135780332421e-01	 1.178205250397409e+01
 2.301859885794940e+00	 3.165534919874207e-01	 1.179201924173927e+01
 2.298995209927609e+00	 3.367285086005783e-01	 1.180271432250595e+01
 2.295944590920845e+00	 3.569363335028883e-01	 1.181408930938192e+01
 2.292706802156369e+00	 3.771746369077693e-01	 1.182609477295488e+01
 2.289280651318292e+00	 3.974410541013390e-01	 1.183868164360086e+01
 2.202350682302377e+00	 3.823491786506144e-01	 1.200539132931225e+01
 2.198872915360330e+00	 4.018674458244905e-01	 1.202060822907526e+01
 2.195211808604378e+00	 4.214081086391313e-01	 1.203469194396298e+01
 2.191366318638528e+00	 4.409688010389605e-01	 1.204791035067439e+01
 2.187335438869950e+00	 4.605471256781652e-01	 1.206055828744261e+01
 2.183118200453215e+00	 4.801406545416224e-01	 1.207295979304049e+01
 2.178713673225113e+00	 4.997469295961529e-01	 1.208547053798301e+01
 2.174120966629006e+00	 5.193634634720777e-01	 1.209848045183153e+01
 2.169339230627674e+00	 5.389877401750129e-01	 1.211241655010095e+01
 2.164367656603575e+00	 5.586172158277958e-01	 1.212774596382952e+01
 2.159205478245480e+00	 5.782493194424025e-01	 1.214497917438891e+01
 2.211043679206151e+00	 3.838583661971546e-01	 1.198745679325149e+01
 2.207552185014594e+00	 4.034536747967697e-01	 1.200240872552176e+01
 2.203876627340406e+00	 4.230714674359873e-01	 1.201629269966987e+01
 2.200015958669147e+00	 4.427093687200601e-01	 1.202937973899334e+01
 2.195969168434814e+00	 4.623649718404974e-01	 1.204196724313540e+01
 2.191735283967799e+00	 4.820358391984421e-01	 1.205438123459213e+01
 2.187313371433395e+00	 5.017195030584951e-01	 1.206697880028125e+01
 2.182702536759802e+00	 5.214134662329620e-01	 1.208015073221224e+01
 2.177901926554573e+00	 5.411152027964576e-01	 1.209432437089583e+01
 2.172910729008428e+00	 5.608221588307604e-01	 1.210996665469106e+01
 2.167728174785390e+00	 5.805317531997775e-01	 1.212758737780691e+01
 2.219736676109307e+00	 3.853675537428786e-01	 1.196984440410504e+01
 2.216231454668255e+00	 4.050399037682275e-01	 1.198452304117678e+01
 2.212541446075853e+00	 4.247348262320155e-01	 1.199819872538085e+01
 2.208665598699224e+00	 4.444499364003254e-01	 1.201114551338167e+01
 2.204602897999183e+00	 4.641828180019889e-01	 1.202366320068017e+01
 2.200352367481941e+00	 4.839310238544147e-01	 1.203607957457991e+01
 2.195913069641293e+00	 5.036920765199840e-01	 1.204875286511600e+01
 2.191284106890273e+00	 5.234634689929881e-01	 1.206207439812491e+01
 2.186464622481203e+00	 5.432426654170399e-01	 1.207647145423513e+01
 2.181453801413066e+00	 5.630271018328600e-01	 1.209241033711901e+01
 2.176250871325130e+00	 5.828141869562861e-01	 1.211039965386742e+01
 2.228429673011896e+00	 3.868767412879703e-01	 1.195253696933724e+01
 2.224910724321362e+00	 4.066261327390417e-01	 1.196693659918948e+01
 2.221206264810777e+00	 4.263981850273884e-01	 1.198039771017961e+01
 2.217315238728812e+00	 4.461905040799224e-01	 1.199319727776626e+01
 2.213236627563108e+00	 4.660006641627988e-01	 1.200563732672915e+01
 2.208969450995687e+00	 4.858262085096929e-01	 1.201804718954859e+01
 2.204512767848845e+00	 5.056646499807667e-01	 1.203078596568366e+01
 2.199865677020447e+00	 5.255134717522968e-01	 1.204424518607055e+01
 2.195027318407586e+00	 5.453701280368966e-01	 1.205885168676582e+01
 2.189996873817498e+00	 5.652320448342281e-01	 1.207507069522297e+01
 2.184773567864700e+00	 5.850966207120616e-01	 1.209340913221241e+01
 2.237122669913967e+00	 3.883859288326131e-01	 1.193551828480353e+01
 2.233589993973972e+00	 4.082123617093915e-01	 1.194963578018617e+01
 2.229871083545230e+00	 4.280615438222784e-01	 1.196287827560461e+01
 2.225964878757964e+00	 4.479310717590170e-01	 1.197552554948000e+01
 2.221870357126637e+00	 4.678185103230863e-01	 1.198788168834879e+01
 2.217586534509080e+00	 4.877213931644289e-01	 1.200027734960630e+01
 2.213112466056088e+00	 5.076372234409893e-01	 1.201307222811912e+01
 2.208447247150357e+00	 5.275634745110300e-01	 1.202665773117437e+01
 2.203590014333742e+00	 5.474975906561652e-01	 1.204145986584070e+01
 2.198539946221737e+00	 5.674369878349999e-01	 1.205794234238092e+01
 2.193296264404102e+00	 5.873790544672368e-01	 1.207660989688023e+01
 2.245815666815571e+00	 3.898951163769912e-01	 1.191877311304223e+01
 2.242269263626135e+00	 4.097985906794548e-01	 1.193260790047614e+01
 2.238535902279266e+00	 4.297249026168576e-01	 1.194562995360807e+01
 2.234614518786735e+00	 4.496716394377748e-01	 1.195812173681387e+01
 2.230504086689820e+00	 4.696363564830106e-01	 1.197038923000493e+01
 2.226203618022165e+00	 4.896165778187760e-01	 1.198276419468359e+01
 2.221712164263061e+00	 5.096097969007987e-01	 1.199560664686949e+01
 2.217028817280029e+00	 5.296134772693292e-01	 1.200930754151659e+01
 2.212152710259690e+00	 5.496250532749829e-01	 1.202429167264935e+01
 2.207083018625792e+00	 5.696419308353097e-01	 1.204102079301447e+01
 2.201818960943336e+00	 5.896614882219459e-01	 1.205997967514631e+01
 2.254508663716754e+00	 3.914043039212879e-01	 1.190228716193570e+01
 2.250948533277908e+00	 4.113848196494101e-01	 1.191584119061488e+01
 2.247200721012941e+00	 4.313882614112983e-01	 1.192864316486432e+01
 2.243264158815177e+00	 4.514122071163618e-01	 1.194097811691292e+01
 2.239137816252706e+00	 4.714542026427306e-01	 1.195315375088981e+01
 2.234820701534987e+00	 4.915117624728866e-01	 1.196550271113503e+01
 2.230311862469800e+00	 5.115823703603417e-01	 1.197838506041499e+01
 2.225610387409495e+00	 5.316634800273357e-01	 1.199219097281771e+01
 2.220715406185453e+00	 5.517525158934872e-01	 1.200734364571398e+01
 2.215626091029675e+00	 5.718468738352920e-01	 1.202430243474257e+01
 2.210341657482404e+00	 5.919439219763216e-01	 1.204345687156680e+01
 2.263201660617569e+00	 3.929134914656874e-01	 1.188604706373061e+01
 2.259627802929341e+00	 4.129710486194358e-01	 1.189932477431577e+01
 2.255865539746309e+00	 4.330516202057732e-01	 1.191190919741809e+01
 2.251913798843343e+00	 4.531527747949438e-01	 1.192408781400724e+01
 2.247771545815349e+00	 4.732720488024059e-01	 1.193616988258175e+01
 2.243437785047590e+00	 4.934069471269135e-01	 1.194848870867452e+01
 2.238911560676343e+00	 5.135549438197650e-01	 1.196140412732746e+01
 2.234191957538781e+00	 5.337134827851908e-01	 1.197530520346841e+01
 2.229278102111049e+00	 5.538799785118151e-01	 1.199061315474004e+01
 2.224169163433396e+00	 5.740518168350810e-01	 1.200778450090340e+01
 2.218864354021304e+00	 5.942263557304976e-01	 1.202704226859692e+01
 2.271894657518064e+00	 3.944226790103731e-01	 1.187004035440805e+01
 2.268307072580489e+00	 4.145572775897104e-01	 1.188304864770027e+01
 2.264530358479425e+00	 4.347149790004542e-01	 1.189542018566341e+01
 2.260563438871286e+00	 4.548933424736864e-01	 1.190744477796845e+01
 2.256405275377793e+00	 4.750898949621955e-01	 1.191943306702856e+01
 2.252054868560017e+00	 4.953021317810093e-01	 1.193171879763548e+01
 2.247511258882727e+00	 5.155275172792153e-01	 1.194466130265742e+01
 2.242773527667920e+00	 5.357634855430364e-01	 1.195864820989515e+01
 2.237840798036501e+00	 5.560074411301041e-01	 1.197409837481255e+01
 2.232712235836968e+00	 5.762567598348117e-01	 1.199146504343469e+01
 2.227387050560041e+00	 5.965087894846076e-01	 1.201074273701817e+01
 2.280587654418288e+00	 3.959318665555291e-01	 1.185425545339396e+01
 2.276986342231405e+00	 4.161435065604120e-01	 1.186700365887783e+01
 2.273195177212341e+00	 4.363783377955139e-01	 1.187916908964469e+01
 2.269213078899060e+00	 4.566339101527555e-01	 1.189104376318340e+01
 2.265039004940091e+00	 4.769077411222584e-01	 1.190293953484611e+01
 2.260671952072315e+00	 4.971973164353271e-01	 1.191519036654679e+01
 2.256110957088990e+00	 5.175000907388390e-01	 1.192815481464116e+01
 2.251355097796940e+00	 5.378134883010134e-01	 1.194221874225227e+01
 2.246403493961826e+00	 5.581349037484913e-01	 1.195779826092857e+01
 2.241255308240398e+00	 5.784617028346182e-01	 1.197534290610279e+01
 2.235909747098612e+00	 5.987912232387845e-01	 1.199456543545285e+01
 2.289280651318292e+00	 3.974410541013390e-01	 1.183868164360086e+01
 2.285665611882141e+00	 4.177297355317194e-01	 1.185118148784689e+01
 2.281859995945115e+00	 4.380416965911244e-01	 1.186314967467101e+01
 2.277862718926717e+00	 4.583744778323171e-01	 1.187488030773656e+01
 2.273672734502291e+00	 4.787255872827543e-01	 1.188668628392362e+01
 2.269289035584527e+00	 4.990925010900192e-01	 1.189890156001654e+01
 2.264710655295170e+00	 5.194726641987831e-01	 1.191188364171906e+01
 2.259936667925870e+00	 5.398634910592639e-01	 1.192601630043208e+01
 2.254966189887047e+00	 5.602623663671141e-01	 1.194171252285693e+01
 2.249798380643699e+00	 5.806666458346353e-01	 1.195941769807147e+01
 2.244432443637021e+00	 6.010736569931620e-01	 1.197851778803254e+01
 2.159205478245480e+00	 5.782493194424025e-01	 1.214497917438891e+01
 2.153851972890299e+00	 5.978814539958068e-01	 1.216593892763273e+01
 2.148306463792314e+00	 6.175109981087173e-01	 1.218735004341886e+01
 2.142568319557409e+00	 6.371353061276571e-01	 1.220826578642889e+01
 2.136636954492820e+00	 6.567517087467752e-01	 1.222871320207333e+01
 2.130511829406764e+00	 6.763575139261084e-01	 1.224871380531717e+01
 2.124192452387945e+00	 6.959500078380145e-01	 1.226828413858704e+01
 2.117678379563856e+00	 7.155264558413442e-01	 1.228743628221245e+01
 2.110969215836830e+00	 7.350841034828632e-01	 1.230617831264889e+01
 2.104064615596794e+00	 7.546201775254083e-01	 1.232451470431437e+01
 2.096964283409688e+00	 7.741318870022024e-01	 1.234244667150845e+01
 2.167728174785390e+00	 5.805317531997775e-01	 1.212758737780691e+01
 2.162353538369905e+00	 6.002413786296527e-01	 1.214848671425809e+01
 2.156786140345039e+00	 6.199484033941401e-01	 1.216955833793288e+01
 2.151025346824470e+00	 6.396501713970000e-01	 1.219026139806575e+01
 2.145070569803611e+00	 6.593440027962573e-01	 1.221060873488605e+01
 2.138921267962409e+00	 6.790271949260904e-01	 1.223060695793074e+01
 2.132576947447920e+00	 6.986970232470009e-01	 1.225025702308893e+01
 2.126037162635602e+00	 7.183507423238277e-01	 1.226955476019680e+01
 2.119301516868275e+00	 7.379855868311253e-01	 1.228849134628297e+01
 2.112369663171695e+00	 7.575987725853763e-01	 1.230705372016674e+01
 2.105241304945670e+00	 7.771874976034668e-01	 1.232522493476965e+01
 2.176250871325130e+00	 5.828141869562861e-01	 1.211039965386742e+01
 2.170855103849378e+00	 6.026013032626328e-01	 1.213114552462403e+01
 2.165265816897661e+00	 6.223858086787024e-01	 1.215189871348468e+01
 2.159482374091446e+00	 6.421650366654905e-01	 1.217240023823480e+01
 2.153504185114336e+00	 6.619362968449013e-01	 1.219264990317365e+01
 2.147330706518005e+00	 6.816968759252564e-01	 1.221264066556334e+01
 2.140961442507862e+00	 7.014440386552008e-01	 1.223235923160698e+01
 2.134395945707334e+00	 7.211750288055653e-01	 1.225178660078578e+01
 2.127633817899733e+00	 7.408870701786925e-01	 1.227089855350269e+01
 2.120674710746636e+00	 7.605773676447120e-01	 1.228966607760134e+01
 2.113518326481731e+00	 7.802431082041758e-01	 1.230805573000847e+01
 2.184773567864700e+00	 5.850966207120616e-01	 1.209340913221241e+01
 2.179356669328708e+00	 6.049612278948818e-01	 1.211391864231175e+01
 2.173745493450157e+00	 6.248232139625390e-01	 1.213437341100143e+01
 2.167939401358311e+00	 6.446799019332675e-01	 1.215468424726730e+01
 2.161937800424958e+00	 6.645285908928492e-01	 1.217483907299115e+01
 2.155740145073506e+00	 6.843665569237496e-01	 1.219481843040124e+01
 2.149345937567717e+00	 7.041910540627589e-01	 1.221459609678977e+01
 2.142754728778989e+00	 7.239993152866984e-01	 1.223413964518923e+01
 2.135966118931131e+00	 7.437885535257021e-01	 1.225341094579682e+01
 2.128979758321541e+00	 7.635559627035452e-01	 1.227236660357829e+01
 2.121795348017791e+00	 7.832987188044471e-01	 1.229095832818265e+01
 2.193296264404102e+00	 5.873790544672368e-01	 1.207660989688023e+01
 2.187858234807885e+00	 6.073211525265333e-01	 1.209680975565546e+01
 2.182225170002508e+00	 6.272606192457870e-01	 1.211698506246765e+01
 2.176396428625035e+00	 6.471947672004699e-01	 1.213711572966304e+01
 2.170371415735438e+00	 6.671208849402420e-01	 1.215717893473681e+01
 2.164149583628863e+00	 6.870362379217134e-01	 1.217714402648617e+01
 2.157730432627428e+00	 7.069380694698192e-01	 1.219697315828290e+01
 2.151113511850506e+00	 7.268236017673706e-01	 1.221662186469382e+01
 2.144298419962396e+00	 7.466900368722920e-01	 1.223603957607544e+01
 2.137284805896334e+00	 7.665345577620064e-01	 1.225517006643166e+01
 2.130072369553765e+00	 7.863543294043980e-01	 1.227395183054549e+01
 2.201818960943336e+00	 5.896614882219459e-01	 1.205997967514631e+01
 2.196359800286902e+00	 6.096810771577217e-01	 1.207982293230618e+01
 2.190704846554698e+00	 6.296980245285821e-01	 1.209973666446425e+01
 2.184853455891589e+00	 6.497096324672363e-01	 1.211969732680739e+01
 2.178805031045740e+00	 6.697131789872224e-01	 1.213967247524587e+01
 2.172559022184031e+00	 6.897059189192922e-01	 1.215962147138055e+01
 2.166114927686940e+00	 7.096850848765250e-01	 1.217949613415574e+01
 2.159472294921818e+00	 7.296478882477234e-01	 1.219924133203707e+01
 2.152630720993461e+00	 7.495915202186001e-01	 1.221879551017235e+01
 2.145589853470935e+00	 7.695131528202246e-01	 1.223809114767680e+01
 2.138349391089572e+00	 7.894099400041462e-01	 1.225705514092981e+01
 2.210341657482404e+00	 5.919439219763216e-01	 1.204345687156680e+01
 2.204861365765748e+00	 6.120410017885809e-01	 1.206296259420645e+01
 2.199184523106704e+00	 6.321354298110605e-01	 1.208263155212872e+01
 2.193310483157944e+00	 6.522244977337061e-01	 1.210243199011474e+01
 2.187238646355822e+00	 6.723054730339305e-01	 1.212232295031097e+01
 2.180968460738960e+00	 6.923755999166283e-01	 1.214225499825426e+01
 2.174499422746198e+00	 7.124321002830208e-01	 1.216217089273994e+01
 2.167831077992863e+00	 7.324721747278994e-01	 1.218200619317868e+01
 2.160963022024254e+00	 7.524930035647647e-01	 1.220168979872571e+01
 2.153894901045267e+00	 7.724917478783297e-01	 1.222114441417231e+01
 2.146626412625126e+00	 7.924655506038091e-01	 1.224028693835843e+01
 2.218864354021304e+00	 5.942263557304976e-01	 1.202704226859692e+01
 2.213362931244413e+00	 6.144009264192449e-01	 1.204623349296483e+01
 2.207664199658510e+00	 6.345728350933587e-01	 1.206567337352535e+01
 2.201767510424072e+00	 6.547393630000171e-01	 1.208532295458687e+01
 2.195672261665650e+00	 6.748977670805086e-01	 1.210513385761746e+01
 2.189377899293605e+00	 6.950452809138656e-01	 1.212504902838165e+01
 2.182883917805144e+00	 7.151791156894508e-01	 1.214500342486885e+01
 2.176189861063577e+00	 7.352964612080412e-01	 1.216492463945850e+01
 2.169295323054702e+00	 7.553944869109229e-01	 1.218473344942667e+01
 2.162199948619255e+00	 7.754703429364523e-01	 1.220434429062684e+01
 2.154903434160346e+00	 7.955211612035042e-01	 1.222366564997218e+01
 2.227387050560041e+00	 5.965087894846076e-01	 1.201074273701817e+01
 2.221864496722889e+00	 6.167608510498479e-01	 1.202964068561951e+01
 2.216143876210095e+00	 6.370102403756125e-01	 1.204886606441419e+01
 2.210224537689943e+00	 6.572542282663094e-01	 1.206837371277519e+01
 2.204105876975182e+00	 6.774900611270980e-01	 1.208810891008267e+01
 2.197787337847918e+00	 6.977149619111476e-01	 1.210800814403796e+01
 2.191268412863725e+00	 7.179261310959584e-01	 1.212799981650682e+01
 2.184548644133896e+00	 7.381207476882907e-01	 1.214800488013079e+01
 2.177627624084736e+00	 7.582959702572132e-01	 1.216793739962612e+01
 2.170504996192819e+00	 7.784489379947216e-01	 1.218770503244172e+01
 2.163180455695149e+00	 7.985767718033497e-01	 1.220720942426721e+01
 2.235909747098612e+00	 5.987912232387845e-01	 1.199456543545285e+01
 2.230366062201168e+00	 6.191207756805243e-01	 1.201318951078061e+01
 2.224623552761442e+00	 6.394476456579581e-01	 1.203221382340842e+01
 2.218681564955530e+00	 6.597690935327210e-01	 1.205158798913596e+01
 2.212539492284381e+00	 6.800823551738397e-01	 1.207125200958832e+01
 2.206196776401852e+00	 7.003846429086179e-01	 1.209113706178413e+01
 2.199652907921884e+00	 7.206731465026877e-01	 1.211116622175818e+01
 2.192907427203757e+00	 7.409450341687903e-01	 1.213125511526473e+01
 2.185959925114283e+00	 7.611974536037730e-01	 1.215131248929017e+01
 2.178810043765883e+00	 7.814275330532678e-01	 1.217124069888033e+01
 2.171457477229453e+00	 8.016323824034624e-01	 1.219093610463320e+01
 2.244432443637021e+00	 6.010736569931620e-01	 1.197851778803254e+01
 2.238867627679239e+00	 6.214807003114081e-01	 1.199688556514107e+01
 2.233103229312530e+00	 6.418850509405317e-01	 1.201572108750958e+01
 2.227138592220802e+00	 6.622839587993911e-01	 1.203496971476810e+01
 2.220973107593212e+00	 6.826746492208766e-01	 1.205456722109555e+01
 2.214606214955360e+00	 7.030543239064198e-01	 1.207444060613011e+01
 2.208037402979564e+00	 7.234201619097830e-01	 1.209450883624580e+01
 2.201266210273095e+00	 7.437693206496828e-01	 1.211468350900141e+01
 2.194292226143276e+00	 7.640989369507408e-01	 1.213486943429471e+01
 2.187115091338370e+00	 7.844061281122209e-01	 1.215496512655552e+01
 2.179734498763173e+00	 8.046879930039602e-01	 1.217486320318445e+01
 2.096964283409688e+00	 7.741318870022024e-01	 1.234244667150845e+01
 2.089666717323930e+00	 7.936197342440635e-01	 1.235983489290065e+01
 2.082172913425751e+00	 8.130775745313916e-01	 1.237648556317748e+01
 2.074482729206619e+00	 8.325025678724669e-01	 1.239231975476631e+01
 2.066596074862476e+00	 8.518918609662948e-01	 1.240725169970419e+01
 2.058512913847339e+00	 8.712425883789894e-01	 1.242118883460102e+01
 2.050233263396684e+00	 8.905518737420933e-01	 1.243403178675873e+01
 2.041757195019681e+00	 9.098168309719679e-01	 1.244567430359427e+01
 2.033084834959419e+00	 9.290345655093508e-01	 1.245600312840801e+01
 2.024216364620247e+00	 9.482021755781400e-01	 1.246489782643745e+01
 2.015152020961425e+00	 9.673167534624195e-01	 1.247223056603281e+01
 2.105241304945670e+00	 7.771874976034668e-01	 1.232522493476965e+01
 2.097914934310198e+00	 7.967522661989974e-01	 1.234283189584538e+01
 2.090391551283217e+00	 8.162869093982641e-01	 1.235966605217650e+01
 2.082671012793703e+00	 8.357885759996773e-01	 1.237565885272128e+01
 2.074753228683139e+00	 8.552544014398380e-01	 1.239073533826067e+01
 2.066638162261302e+00	 8.746815089745683e-01	 1.240481415718362e+01
 2.058325830831710e+00	 8.940670108819563e-01	 1.241780751808805e+01
 2.049816306185801e+00	 9.134080096865614e-01	 1.242962108142705e+01
 2.041109715064977e+00	 9.327015994038659e-01	 1.244015379335465e+01
 2.032206239589626e+00	 9.519448668040253e-01	 1.244929766585633e+01
 2.023106117654333e+00	 9.711348926939367e-01	 1.245693750817792e+01
 2.113518326481731e+00	 7.802431082041758e-01	 1.230805573000847e+01
 2.106163151296597e+00	 7.998847981534668e-01	 1.232586638253139e+01
 2.098610189140870e+00	 8.194962442647727e-01	 1.234287818761243e+01
 2.090859296381036e+00	 8.390745841266308e-01	 1.235903121486418e+01
 2.082910382504116e+00	 8.586169419132337e-01	 1.237425950981960e+01
 2.074763410675642e+00	 8.781204295701044e-01	 1.238849108147820e+01
 2.066418398267171e+00	 8.975821480218732e-01	 1.240164782231257e+01
 2.057875417352409e+00	 9.169991884012930e-01	 1.241364536304612e+01
 2.049134595171063e+00	 9.363686332985853e-01	 1.242439286547081e+01
 2.040196114559561e+00	 9.556875580301594e-01	 1.243379275753663e+01
 2.031060214347808e+00	 9.749530319257198e-01	 1.244174041590606e+01
 2.121795348017791e+00	 7.832987188044471e-01	 1.229095832818265e+01
 2.114411368283038e+00	 8.030173301075727e-01	 1.230896210438834e+01
 2.106828826998620e+00	 8.227055791309988e-01	 1.232614967019350e+01
 2.099047579968525e+00	 8.423605922533854e-01	 1.234246798290273e+01
 2.091067536325311e+00	 8.619794823865142e-01	 1.235785831261714e+01
 2.082888659090261e+00	 8.815593501656063e-01	 1.237225620245578e+01
 2.074510965702970e+00	 9.010972851618294e-01	 1.238559135686284e+01
 2.065934528519404e+00	 9.205903671161279e-01	 1.239778746039458e+01
 2.057159475277577e+00	 9.400356671934588e-01	 1.240876193036934e+01
 2.048185989529951e+00	 9.594302492564801e-01	 1.241842560776145e+01
 2.039014311041749e+00	 9.787711711577023e-01	 1.242668239171304e+01
 2.130072369553765e+00	 7.863543294043980e-01	 1.227395183054549e+01
 2.122659585269433e+00	 8.061498620614146e-01	 1.229214253034332e+01
 2.115047464856373e+00	 8.259149139970212e-01	 1.230950781256910e+01
 2.107235863556076e+00	 8.456466003799971e-01	 1.232599981196023e+01
 2.099224690146626e+00	 8.653420228597112e-01	 1.234156526659943e+01
 2.091013907505060e+00	 8.849982707610811e-01	 1.235614545170031e+01
 2.082603533139006e+00	 9.046124223018099e-01	 1.236967603708278e+01
 2.073993639686687e+00	 9.241815458310307e-01	 1.238208687081521e+01
 2.065184355384421e+00	 9.437027010884341e-01	 1.239330169252328e+01
 2.056175864500698e+00	 9.631729404829252e-01	 1.240323778089587e+01
 2.046968407736055e+00	 9.825893103898174e-01	 1.241180554094665e+01
 2.138349391089572e+00	 7.894099400041462e-01	 1.225705514092981e+01
 2.130907802255696e+00	 8.092823940150938e-01	 1.227543081957512e+01
 2.123266102714041e+00	 8.291242488629199e-01	 1.229297951237701e+01
 2.115424147143592e+00	 8.489326085065225e-01	 1.230965684374578e+01
 2.107381843967966e+00	 8.687045633328575e-01	 1.232541328655252e+01
 2.099139155919944e+00	 8.884371913565374e-01	 1.234019407034280e+01
 2.090696100575181e+00	 9.081275594418005e-01	 1.235393900881965e+01
 2.082052750854160e+00	 9.277727245459665e-01	 1.236658224915583e+01
 2.073209235491492e+00	 9.473697349834601e-01	 1.237805194675334e+01
 2.064165739471699e+00	 9.669156317094326e-01	 1.238826987013218e+01
 2.054922504430628e+00	 9.864074496219990e-01	 1.239715094169316e+01
 2.146626412625126e+00	 7.924655506038091e-01	 1.224028693835843e+01
 2.139156019241738e+00	 8.124149259687111e-01	 1.225884979456633e+01
 2.131484740571531e+00	 8.323335837287748e-01	 1.227659122556410e+01
 2.123612430730982e+00	 8.522186166330189e-01	 1.229346867997696e+01
 2.115538997789235e+00	 8.720671038059853e-01	 1.230943465546740e+01
 2.107264404334813e+00	 8.918761119519827e-01	 1.232443658221620e+01
 2.098788668011396e+00	 9.116426965817848e-01	 1.233841662122367e+01
 2.090111862021722e+00	 9.313639032609002e-01	 1.235131138007581e+01
 2.081234115598693e+00	 9.510367688784852e-01	 1.236305154991179e+01
 2.072155614442857e+00	 9.706583229359402e-01	 1.237356146842884e+01
 2.062876601125368e+00	 9.902255888541810e-01	 1.238275861485730e+01
 2.154903434160346e+00	 7.955211612035042e-01	 1.222366564997218e+01
 2.147404236227473e+00	 8.155474579223665e-01	 1.224242191444575e+01
 2.139703378428752e+00	 8.355429185946655e-01	 1.226036893997335e+01
 2.131800714318151e+00	 8.555046247595425e-01	 1.227746435604829e+01
 2.123696151610336e+00	 8.754296442791267e-01	 1.229366099813380e+01
 2.115389652749569e+00	 8.953150325474253e-01	 1.230890676722510e+01
 2.106881235447553e+00	 9.151578337217492e-01	 1.232314439975161e+01
 2.098170973189272e+00	 9.349550819757962e-01	 1.233631115054894e+01
 2.089258995705922e+00	 9.547038027734583e-01	 1.234833839275733e+01
 2.080145489414070e+00	 9.744010141623854e-01	 1.235915113963783e+01
 2.070830697820173e+00	 9.940437280862964e-01	 1.236866749443052e+01
 2.163180455695149e+00	 7.985767718033497e-01	 1.220720942426721e+01
 2.155652453212812e+00	 8.186799898761611e-01	 1.222616924861316e+01
 2.147922016285612e+00	 8.387522534606721e-01	 1.224433814918989e+01
 2.139988997905005e+00	 8.587906328861497e-01	 1.226167231493898e+01
 2.131853305431173e+00	 8.787921847523142e-01	 1.227812325495647e+01
 2.123514901164115e+00	 8.987539531428733e-01	 1.229363763492458e+01
 2.114973802883553e+00	 9.186729708616779e-01	 1.230815701936899e+01
 2.106230084356713e+00	 9.385462606906195e-01	 1.232161752255714e+01
 2.097283875813081e+00	 9.583708366683281e-01	 1.233394937201561e+01
 2.088135364385238e+00	 9.781437053887059e-01	 1.234507638981534e+01
 2.078784794514945e+00	 9.978618673182788e-01	 1.235491539794262e+01
 2.171457477229453e+00	 8.016323824034624e-01	 1.219093610463320e+01
 2.163900670197668e+00	 8.218125218301948e-01	 1.221011345063893e+01
 2.156140654142022e+00	 8.419615883268748e-01	 1.222852382663927e+01
 2.148177281491449e+00	 8.620766410128976e-01	 1.224612038135339e+01
 2.140010459251650e+00	 8.821547252255802e-01	 1.226285165598816e+01
 2.131640149578353e+00	 9.021928737383342e-01	 1.227866139830247e+01
 2.123066370319295e+00	 9.221881080015564e-01	 1.229348827794546e+01
 2.114289195523944e+00	 9.421374394053350e-01	 1.230726550596971e+01
 2.105308755920068e+00	 9.620378705630429e-01	 1.231992036262076e+01
 2.096125239356263e+00	 9.818863966148395e-01	 1.233137363871093e+01
 2.086738891209582e+00	 1.001680006550062e+00	 1.234153899709172e+01
 2.179734498763173e+00	 8.046879930039602e-01	 1.217486320318445e+01
 2.172148887181955e+00	 8.249450537845692e-01	 1.219427573243106e+01
 2.164359291997888e+00	 8.451709231933534e-01	 1.221295039993114e+01
 2.156365565077391e+00	 8.653626491398434e-01	 1.223083573608832e+01
 2.148167613071671e+00	 8.855172656989569e-01	 1.224787569517346e+01
 2.139765397992186e+00	 9.056317943338167e-01	 1.226400944775970e+01
 2.131158937754682e+00	 9.257032451413696e-01	 1.227917106983828e+01
 2.122348306690867e+00	 9.457286181199076e-01	 1.229328913160363e+01
 2.113333636026786e+00	 9.657049044575522e-01	 1.230628619013302e+01
 2.104115114327044e+00	 9.856290878407244e-01	 1.231807819143044e+01
 2.094692987903987e+00	 1.005498145781579e+00	 1.232857378854783e+01
 2.015152020961425e+00	 9.673167534624195e-01	 1.247223056603281e+01
 2.005893687236054e+00	 9.863721519403884e-01	 1.247838518505851e+01
 1.996440187068388e+00	 1.005368709659412e+00	 1.248371965216720e+01
 1.986791924473414e+00	 1.024303509347537e+00	 1.248805398405112e+01
 1.976949360212890e+00	 1.043173633027096e+00	 1.249120216509736e+01
 1.966913012010647e+00	 1.061976163366336e+00	 1.249297181582482e+01
 1.956683454730029e+00	 1.080708185042699e+00	 1.249316385924424e+01
 1.946261320512928e+00	 1.099366786116542e+00	 1.249157219548613e+01
 1.935647298879856e+00	 1.117949059414060e+00	 1.248798339564743e+01
 1.924842136790607e+00	 1.136452103918131e+00	 1.248217642634078e+01
 1.913846638665072e+00	 1.154873026165801e+00	 1.247392241688596e+01
 2.023106117654333e+00	 9.711348926939367e-01	 1.245693750817792e+01
 2.013811239945681e+00	 9.902655055878161e-01	 1.246347558983580e+01
 2.004320425444586e+00	 1.009337045469721e+00	 1.246925047371639e+01
 1.994634079760735e+00	 1.028346583552808e+00	 1.247403742090044e+01
 1.984752665474563e+00	 1.047291190341735e+00	 1.247760489212939e+01
 1.974676702353419e+00	 1.066167936989625e+00	 1.247971422371594e+01
 1.964406767529707e+00	 1.084973896666724e+00	 1.248011930107518e+01
 1.953943495640461e+00	 1.103706145939547e+00	 1.247856624050781e+01
 1.943287578927816e+00	 1.122361766159259e+00	 1.247479309049191e+01
 1.932439767299915e+00	 1.140937844858008e+00	 1.246852956429138e+01
 1.921400868351795e+00	 1.159431477151930e+00	 1.245949681615947e+01
 2.031060214347808e+00	 9.749530319257198e-01	 1.244174041590606e+01
 2.021728792655865e+00	 9.941588592354959e-01	 1.244865260273111e+01
 2.012200663821316e+00	 1.013305381280240e+00	 1.245484789668772e+01
 2.002476235048544e+00	 1.032389657758226e+00	 1.246005975516803e+01
 1.992555970736670e+00	 1.051408747656441e+00	 1.246401408232943e+01
 1.982440392696559e+00	 1.070359710612884e+00	 1.246642890713801e+01
 1.972130080329678e+00	 1.089239608290614e+00	 1.246701405860245e+01
 1.961625670768205e+00	 1.108045505762309e+00	 1.246547084913060e+01
 1.950927858975904e+00	 1.126774472904106e+00	 1.246149177758554e+01
 1.940037397809262e+00	 1.145423585797430e+00	 1.245476026418869e+01
 1.928955098038472e+00	 1.163989928137512e+00	 1.244495042990427e+01
 2.039014311041749e+00	 9.787711711577023e-01	 1.242668239171304e+01
 2.029646345366507e+00	 9.980522128833647e-01	 1.243395981458754e+01
 2.020080902198479e+00	 1.017273717090919e+00	 1.244055607037710e+01
 2.010318390336745e+00	 1.036432731963755e+00	 1.244616573559124e+01
 2.000359275999113e+00	 1.055526304971193e+00	 1.245047509574062e+01
 1.990204083039975e+00	 1.074551484236118e+00	 1.245316182016162e+01
 1.979853393129854e+00	 1.093505319914399e+00	 1.245389463347256e+01
 1.969307845896078e+00	 1.112384865584881e+00	 1.245233299490804e+01
 1.958568139024043e+00	 1.131187179648680e+00	 1.244812679744413e+01
 1.947635028318585e+00	 1.149909326736499e+00	 1.244091609921660e+01
 1.936509327725052e+00	 1.168548379122663e+00	 1.243033090023872e+01
 2.046968407736055e+00	 9.825893103898174e-01	 1.241180554094665e+01
 2.037563898077505e+00	 1.001945566531359e+00	 1.241943976629934e+01
 2.027961140575972e+00	 1.021242052901702e+00	 1.242641804123362e+01
 2.018160545625237e+00	 1.040475806169355e+00	 1.243239895577353e+01
 2.008162581261798e+00	 1.059643862285976e+00	 1.243703208631056e+01
 1.997967773383570e+00	 1.078743257859332e+00	 1.243995766184569e+01
 1.987576705930144e+00	 1.097771031538108e+00	 1.244080622617424e+01
 1.976990021023997e+00	 1.116724225407317e+00	 1.243919830758830e+01
 1.966208419072159e+00	 1.135599886393057e+00	 1.243474410836030e+01
 1.955232658827821e+00	 1.154395067675310e+00	 1.242704322688043e+01
 1.944063557411484e+00	 1.173106830107501e+00	 1.241568442584330e+01
 2.054922504430628e+00	 9.864074496219990e-01	 1.239715094169316e+01
 2.045481450788762e+00	 1.005838920179418e+00	 1.240513391778779e+01
 2.035841378953698e+00	 1.025210388712538e+00	 1.241247572092630e+01
 2.026002700913923e+00	 1.044518880374991e+00	 1.241880182133419e+01
 2.015965886524625e+00	 1.063761419600771e+00	 1.242372796810667e+01
 2.005731463727252e+00	 1.082935031482530e+00	 1.242685984149193e+01
 1.995300018730459e+00	 1.102036743161770e+00	 1.242779270029662e+01
 1.984672196151880e+00	 1.121063585229672e+00	 1.242611103633124e+01
 1.973848699120177e+00	 1.140012593137313e+00	 1.242138824852505e+01
 1.962830289336903e+00	 1.158880808613961e+00	 1.241318634996963e+01
 1.951617787097718e+00	 1.177665281092140e+00	 1.240106778536171e+01
 2.062876601125368e+00	 9.902255888541810e-01	 1.238275861485730e+01
 2.053399003500176e+00	 1.009732273827475e+00	 1.239108261717178e+01
 2.043721617331558e+00	 1.029178724523373e+00	 1.239876985460622e+01
 2.033844856202704e+00	 1.048561954580625e+00	 1.240541551725415e+01
 2.023769191787500e+00	 1.067878976915561e+00	 1.241060438172907e+01
 2.013495154070926e+00	 1.087126805105718e+00	 1.241391044409901e+01
 2.003023331530710e+00	 1.106302454785413e+00	 1.241489654698958e+01
 1.992354371279641e+00	 1.125402945051998e+00	 1.241311401313106e+01
 1.981488979168024e+00	 1.144425299881529e+00	 1.240810229836011e+01
 1.970427919845770e+00	 1.163366549552554e+00	 1.239938867773802e+01
 1.959172016783703e+00	 1.182223732076696e+00	 1.238677537232912e+01
 2.070830697820173e+00	 9.940437280862964e-01	 1.236866749443052e+01
 2.061316556211649e+00	 1.013625627475470e+00	 1.237732507012741e+01
 2.051601855709449e+00	 1.033147060334154e+00	 1.238533998935866e+01
 2.041687011491481e+00	 1.052605028786220e+00	 1.239227997541280e+01
 2.031572497050323e+00	 1.071996534230328e+00	 1.239770166091549e+01
 2.021258844414498e+00	 1.091318578728901e+00	 1.240115019601032e+01
 2.010746644330807e+00	 1.110568166409069e+00	 1.240215884962053e+01
 2.000036546407199e+00	 1.129742304874350e+00	 1.240024861643935e+01
 1.989129259215624e+00	 1.148838006625779e+00	 1.239492784305554e+01
 1.978025550354356e+00	 1.167852290491185e+00	 1.238569188729571e+01
 1.966726246469390e+00	 1.186782183061286e+00	 1.237293349668235e+01
 2.078784794514945e+00	 9.978618673182788e-01	 1.235491539794262e+01
 2.069234108923079e+00	 1.017518981123339e+00	 1.236389930943205e+01
 2.059482094087275e+00	 1.037115396144829e+00	 1.237222444284013e+01
 2.049529166780155e+00	 1.056648102991737e+00	 1.237943384231068e+01
 2.039375802313002e+00	 1.076114091545055e+00	 1.238505879933338e+01
 2.029022534757877e+00	 1.095510352352083e+00	 1.238861843075073e+01
 2.018469957130661e+00	 1.114833878032765e+00	 1.238961924862263e+01
 2.007718721534471e+00	 1.134081664696781e+00	 1.238755473498296e+01
 1.996769539262902e+00	 1.153250713370142e+00	 1.238190493530715e+01
 1.985623180862599e+00	 1.172338031429952e+00	 1.237213608520719e+01
 1.974280476154727e+00	 1.191340634046026e+00	 1.235956083388033e+01
 2.086738891209582e+00	 1.001680006550062e+00	 1.234153899709172e+01
 2.077151661634368e+00	 1.021412334771018e+00	 1.235084216468740e+01
 2.067362332464935e+00	 1.041083731955344e+00	 1.235946027209556e+01
 2.057371322068627e+00	 1.060691177197140e+00	 1.236691444697290e+01
 2.047179107575436e+00	 1.080231648859723e+00	 1.237271341755384e+01
 2.036786225100966e+00	 1.099702125975270e+00	 1.237635305504701e+01
 2.026193269930182e+00	 1.119099589656531e+00	 1.237731590652907e+01
 2.015400896661373e+00	 1.138421024519345e+00	 1.237507073177157e+01
 2.004409819309784e+00	 1.157663420114694e+00	 1.236907205824820e+01
 1.993220811370433e+00	 1.176823772368955e+00	 1.235876059874331e+01
 1.981834705839663e+00	 1.195899085031030e+00	 1.234667348418634e+01
 2.094692987903987e+00	 1.005498145781579e+00	 1.232857378854783e+01
 2.085069214345415e+00	 1.025305688418445e+00	 1.233818923221718e+01
 2.075242570842331e+00	 1.045052067765647e+00	 1.234708324255057e+01
 2.065213477356800e+00	 1.064734251402391e+00	 1.235475776902870e+01
 2.054982412837529e+00	 1.084349206174316e+00	 1.236070173020282e+01
 2.044549915443673e+00	 1.103893899598468e+00	 1.236439051502706e+01
 2.033916582729284e+00	 1.123365301280397e+00	 1.236528547318873e+01
 2.023083071787823e+00	 1.142760384342097e+00	 1.236283340828988e+01
 2.012050099356196e+00	 1.162076126859514e+00	 1.235646608857039e+01
 2.000818441877797e+00	 1.181309513308291e+00	 1.234578288732831e+01
 1.989388935524150e+00	 1.200457536016417e+00	 1.233428501951676e+01
 1.913846638665072e+00	 1.154873026165801e+00	 1.247392241688596e+01
 1.902661666826218e+00	 1.173208942016625e+00	 1.246054427977533e+01
 1.891288142819316e+00	 1.191456979178688e+00	 1.244172128974219e+01
 1.879727045908540e+00	 1.209614277560408e+00	 1.242180184129055e+01
 1.867979412467919e+00	 1.227677990319973e+00	 1.240103430988605e+01
 1.856046335795278e+00	 1.245645285274350e+00	 1.237955718335208e+01
 1.843928965884853e+00	 1.263513346306681e+00	 1.235750198172252e+01
 1.831628509158474e+00	 1.281279374770660e+00	 1.233498955606953e+01
 1.819146228155318e+00	 1.298940590890470e+00	 1.231212622875558e+01
 1.806483441180266e+00	 1.316494235154875e+00	 1.228899978923059e+01
 1.793641521910966e+00	 1.333937569704040e+00	 1.226567536118229e+01
 1.921400868351795e+00	 1.159431477151930e+00	 1.245949681615947e+01
 1.910171747810132e+00	 1.177839767516462e+00	 1.244508364464512e+01
 1.898753330857676e+00	 1.196159832322338e+00	 1.242658999403654e+01
 1.887146600623915e+00	 1.214388800188779e+00	 1.240698182964409e+01
 1.875352597573609e+00	 1.232523813037072e+00	 1.238644471213505e+01
 1.863372419320002e+00	 1.250562027505147e+00	 1.236516007077046e+01
 1.851207220396538e+00	 1.268500616360523e+00	 1.234330154147165e+01
 1.838858211986984e+00	 1.286336769910229e+00	 1.232103112849103e+01
 1.826326661613955e+00	 1.304067697406268e+00	 1.229849520233049e+01
 1.813613892785886e+00	 1.321690628445213e+00	 1.227582034829958e+01
 1.800721284602547e+00	 1.339202814360497e+00	 1.225310908184125e+01
 1.928955098038472e+00	 1.163989928137512e+00	 1.244495042990427e+01
 1.917681828793916e+00	 1.182470593015675e+00	 1.242982013689142e+01
 1.906218518895826e+00	 1.200862685465300e+00	 1.241175266426093e+01
 1.894566155339006e+00	 1.219163322816412e+00	 1.239244552076517e+01
 1.882725782678945e+00	 1.237369635753398e+00	 1.237212357781849e+01
 1.870698502844313e+00	 1.255478769735147e+00	 1.235100693282493e+01
 1.858485474907758e+00	 1.273487886413557e+00	 1.232930712121823e+01
 1.846087914814986e+00	 1.291394165048992e+00	 1.230722314651916e+01
 1.833507095072052e+00	 1.309194803921275e+00	 1.228493734126481e+01
 1.820744344390948e+00	 1.326887021734783e+00	 1.226261107346165e+01
 1.807801047293561e+00	 1.344468059016220e+00	 1.224038031499970e+01
 1.936509327725052e+00	 1.168548379122663e+00	 1.243033090023872e+01
 1.925191909777535e+00	 1.187101418514392e+00	 1.241489017652945e+01
 1.913683706933751e+00	 1.205565538607712e+00	 1.239723760925943e+01
 1.901985710053817e+00	 1.223937845443448e+00	 1.237822022809060e+01
 1.890098967783955e+00	 1.242215458469090e+00	 1.235809794094366e+01
 1.878024586368254e+00	 1.260395511964490e+00	 1.233712529054317e+01
 1.865763729418575e+00	 1.278475156465919e+00	 1.231554754613266e+01
 1.853317617642557e+00	 1.296451560187076e+00	 1.229359660743049e+01
 1.840687528529700e+00	 1.314321910435607e+00	 1.227148673387951e+01
 1.827874795995547e+00	 1.332083415023695e+00	 1.224941011409060e+01
 1.814880809984109e+00	 1.349733303671310e+00	 1.222753229221605e+01
 1.944063557411484e+00	 1.173106830107501e+00	 1.241568442584330e+01
 1.932701990760956e+00	 1.191732244012742e+00	 1.240032095387972e+01
 1.921148894971435e+00	 1.210268391749708e+00	 1.238307037501530e+01
 1.909405264768351e+00	 1.228712368070029e+00	 1.236433050824624e+01
 1.897472152888661e+00	 1.247061281184294e+00	 1.234439207307834e+01
 1.885350669891869e+00	 1.265312254193315e+00	 1.232353988429853e+01
 1.873041983929049e+00	 1.283462426517742e+00	 1.230204882903940e+01
 1.860547320469775e+00	 1.301508955324611e+00	 1.228017965011546e+01
 1.847867961986985e+00	 1.319449016949386e+00	 1.225817454886869e+01
 1.835005247599781e+00	 1.337279808312057e+00	 1.223625262266046e+01
 1.821960572674290e+00	 1.354998548325865e+00	 1.221460515403369e+01
 1.951617787097718e+00	 1.177665281092140e+00	 1.240106778536171e+01
 1.940212071744144e+00	 1.196363069510854e+00	 1.238613692587578e+01
 1.928614083008861e+00	 1.214971244891428e+00	 1.236927379154516e+01
 1.916824819482612e+00	 1.233486890696295e+00	 1.235079820868813e+01
 1.904845337993084e+00	 1.251907103899148e+00	 1.233102753188368e+01
 1.892676753415201e+00	 1.270228996421762e+00	 1.231027272339306e+01
 1.880320238439241e+00	 1.288449696569163e+00	 1.228883422122314e+01
 1.867777023296715e+00	 1.306566350461724e+00	 1.226699760729482e+01
 1.855048395443998e+00	 1.324576123462730e+00	 1.224502908912742e+01
 1.842135699203746e+00	 1.342476201599982e+00	 1.222317081040007e+01
 1.829040335364204e+00	 1.360263792979988e+00	 1.220163600769198e+01
 1.959172016783703e+00	 1.182223732076696e+00	 1.238677537232912e+01
 1.947722152727065e+00	 1.200993895008855e+00	 1.237235986257544e+01
 1.936079271046015e+00	 1.219674098033007e+00	 1.235586802003096e+01
 1.924244374196605e+00	 1.238261413322389e+00	 1.233764251558165e+01
 1.912218523097251e+00	 1.256752926613798e+00	 1.231802320988020e+01
 1.900002836938293e+00	 1.275145738649970e+00	 1.229734313586466e+01
 1.887598492949212e+00	 1.293436966620314e+00	 1.227592426344449e+01
 1.875006726123453e+00	 1.311623745598542e+00	 1.225407305792543e+01
 1.862228828900827e+00	 1.329703229975759e+00	 1.223207584574289e+01
 1.849266150807539e+00	 1.347672594887578e+00	 1.221019400307868e+01
 1.836120098053952e+00	 1.365529037633778e+00	 1.218865898492900e+01
 1.966726246469390e+00	 1.186782183061286e+00	 1.237293349668235e+01
 1.955232233709683e+00	 1.205624720506876e+00	 1.235900889389985e+01
 1.943544459082879e+00	 1.224376951174583e+00	 1.234287060018379e+01
 1.931663928910332e+00	 1.243035935948451e+00	 1.232488000191210e+01
 1.919591708201184e+00	 1.261598749328382e+00	 1.230539538344120e+01
 1.907328920461187e+00	 1.280062480878080e+00	 1.228476781851198e+01
 1.894876747459023e+00	 1.298424236671334e+00	 1.226333683715941e+01
 1.882236428950067e+00	 1.316681140735194e+00	 1.224142587979001e+01
 1.869409262357561e+00	 1.334830336488594e+00	 1.221933755214423e+01
 1.856396602411258e+00	 1.352868988174956e+00	 1.219734869691885e+01
 1.843199860743632e+00	 1.370794282287334e+00	 1.217570529987372e+01
 1.974280476154727e+00	 1.191340634046026e+00	 1.235956083388033e+01
 1.962742314691966e+00	 1.210255546005045e+00	 1.234610055659402e+01
 1.951009647119439e+00	 1.229079804316292e+00	 1.233029649783303e+01
 1.939083483623798e+00	 1.247810458574623e+00	 1.231252467582089e+01
 1.926964893304907e+00	 1.266444572043045e+00	 1.229315776200704e+01
 1.914655003983927e+00	 1.284979223106230e+00	 1.227256088713174e+01
 1.902155001968735e+00	 1.303411506722354e+00	 1.225108721593682e+01
 1.889466131776633e+00	 1.321738535871809e+00	 1.222907330226630e+01
 1.876589695814288e+00	 1.339957443001354e+00	 1.220683423840693e+01
 1.863527054014999e+00	 1.358065381462227e+00	 1.218465861463309e+01
 1.850279623433346e+00	 1.376059526940758e+00	 1.216280330702557e+01
 1.981834705839663e+00	 1.195899085031030e+00	 1.234667348418634e+01
 1.970252395673880e+00	 1.214886371503490e+00	 1.233364884140326e+01
 1.958474835155678e+00	 1.233782657458274e+00	 1.231815815273492e+01
 1.946503038337006e+00	 1.252584981201045e+00	 1.230058802916069e+01
 1.934338078408444e+00	 1.271290394757927e+00	 1.228132153751456e+01
 1.921981087506555e+00	 1.289895965334562e+00	 1.226073392696220e+01
 1.909433256478409e+00	 1.308398776773510e+00	 1.223918811706938e+01
 1.896695834603225e+00	 1.326795931008512e+00	 1.221702995927050e+01
 1.883770129271097e+00	 1.345084549514157e+00	 1.219458328570762e+01
 1.870657505618858e+00	 1.363261774749500e+00	 1.217214476158148e+01
 1.857359386123191e+00	 1.381324771594149e+00	 1.214997855931840e+01
 1.989388935524150e+00	 1.200457536016417e+00	 1.233428501951676e+01
 1.977762476655390e+00	 1.219517197002342e+00	 1.232166524045940e+01
 1.965940023191580e+00	 1.238485510600662e+00	 1.230646552659467e+01
 1.953922593049960e+00	 1.257359503827861e+00	 1.228907908626446e+01
 1.941711263511819e+00	 1.276136217473172e+00	 1.226989543403598e+01
 1.929307171029115e+00	 1.294812707563214e+00	 1.224929604332787e+01
 1.916711510988107e+00	 1.313386046824939e+00	 1.222764975337204e+01
 1.903925537429925e+00	 1.331853326145434e+00	 1.220530794237055e+01
 1.890950562728077e+00	 1.350211656027125e+00	 1.218259948092528e+01
 1.877787957222933e+00	 1.368458168036886e+00	 1.215982548204635e+01
 1.864439148813270e+00	 1.386590016247609e+00	 1.213725386626719e+01
 1.793641521910966e+00	 1.333937569704040e+00	 1.226567536118229e+01
 1.780619671693210e+00	 1.351270814630199e+00	 1.223935436818005e+01
 1.767421548564461e+00	 1.368488294888244e+00	 1.220741891016639e+01
 1.754048697738162e+00	 1.385587334514377e+00	 1.217160674960877e+01
 1.740502717892060e+00	 1.402565284615472e+00	 1.213488308916595e+01
 1.726785260568927e+00	 1.419419524704581e+00	 1.209695079476005e+01
 1.712898029537639e+00	 1.436147464020815e+00	 1.205738457244646e+01
 1.698842780115081e+00	 1.452746542832192e+00	 1.201572836861125e+01
 1.684621318449455e+00	 1.469214233720123e+00	 1.197149248020909e+01
 1.670235500765549e+00	 1.485548042844174e+00	 1.192415061279263e+01
 1.655687232572625e+00	 1.501745511185803e+00	 1.187313691043887e+01
 1.800721284602547e+00	 1.339202814360497e+00	 1.225310908184125e+01
 1.787648035257332e+00	 1.356604476113089e+00	 1.222759636213010e+01
 1.774397817226498e+00	 1.373889916257660e+00	 1.219665226403112e+01
 1.760972181822651e+00	 1.391056448268004e+00	 1.216070301240118e+01
 1.747372734033735e+00	 1.408101412795434e+00	 1.212304964146768e+01
 1.733601131921385e+00	 1.425022179009569e+00	 1.208452045495345e+01
 1.719659085979478e+00	 1.441816145923415e+00	 1.204464446866923e+01
 1.705548358453376e+00	 1.458480743701365e+00	 1.200292032144810e+01
 1.691270762620391e+00	 1.475013434948751e+00	 1.195881334425571e+01
 1.676828162032080e+00	 1.491411715981592e+00	 1.191175257110378e+01
 1.662222469719014e+00	 1.507673118075252e+00	 1.186112771638165e+01
 1.807801047293561e+00	 1.344468059016220e+00	 1.224038031499970e+01
 1.794676398820894e+00	 1.361938137595289e+00	 1.221552240268104e+01
 1.781374085887994e+00	 1.379291537626440e+00	 1.218541089451815e+01
 1.767895665906628e+00	 1.396525562021053e+00	 1.215026818039667e+01
 1.754242750174934e+00	 1.413637540974881e+00	 1.211159494858831e+01
 1.740417003273408e+00	 1.430624833314105e+00	 1.207226589156434e+01
 1.726420142420930e+00	 1.447484827825629e+00	 1.203189959820408e+01
 1.712253936791332e+00	 1.464214944570216e+00	 1.198995502100842e+01
 1.697920206791036e+00	 1.480812636177113e+00	 1.194585810335345e+01
 1.683420823298369e+00	 1.497275389118798e+00	 1.189899873324645e+01
 1.668757706865203e+00	 1.513600724964534e+00	 1.184872765788813e+01
 1.814880809984109e+00	 1.349733303671310e+00	 1.222753229221605e+01
 1.801704762383994e+00	 1.367271799076890e+00	 1.220318125430153e+01
 1.788350354549037e+00	 1.384693158994662e+00	 1.217374890036328e+01
 1.774819149990168e+00	 1.401994675773593e+00	 1.213943805618421e+01
 1.761112766315720e+00	 1.419173669153872e+00	 1.210056899059632e+01
 1.747232874625044e+00	 1.436227487618241e+00	 1.206024216309628e+01
 1.733181198862023e+00	 1.453153509727497e+00	 1.201920966431752e+01
 1.718959515128960e+00	 1.469949145438773e+00	 1.197689631652366e+01
 1.704569650961385e+00	 1.486611837405231e+00	 1.193269418977121e+01
 1.690013484564393e+00	 1.503139062255801e+00	 1.188595948848664e+01
 1.675292944011158e+00	 1.519528331853648e+00	 1.183600939310038e+01
 1.821960572674290e+00	 1.354998548325865e+00	 1.221460515403369e+01
 1.808733125946728e+00	 1.372605460557982e+00	 1.219061848835793e+01
 1.795326623209718e+00	 1.390094780362409e+00	 1.216171708726514e+01
 1.781742634073352e+00	 1.407463789525695e+00	 1.212809013117302e+01
 1.767982782456155e+00	 1.424709797332467e+00	 1.208988988694494e+01
 1.754048745976337e+00	 1.441830141922026e+00	 1.204850030171445e+01
 1.739942255302785e+00	 1.458822191629058e+00	 1.200663028011659e+01
 1.725665093466270e+00	 1.475683346307066e+00	 1.196380391015442e+01
 1.711219095131432e+00	 1.492411038633125e+00	 1.191938483978928e+01
 1.696606145830132e+00	 1.509002735392614e+00	 1.187270099027087e+01
 1.681828181156845e+00	 1.525455938742596e+00	 1.182304131469810e+01
 1.829040335364204e+00	 1.360263792979988e+00	 1.220163600769199e+01
 1.815761489509192e+00	 1.377939122038655e+00	 1.217787654293786e+01
 1.802302891870125e+00	 1.395496401729758e+00	 1.214936302968154e+01
 1.788666118156256e+00	 1.412932903277429e+00	 1.211627685981682e+01
 1.774852798596301e+00	 1.430245925510728e+00	 1.207876260278353e+01
 1.760864617327334e+00	 1.447432796225509e+00	 1.203708738857270e+01
 1.746703311743244e+00	 1.464490873530353e+00	 1.199421304502046e+01
 1.732370671803273e+00	 1.481417547175127e+00	 1.195073343435667e+01
 1.717868539301168e+00	 1.498210239860813e+00	 1.190598917168999e+01
 1.703198807095564e+00	 1.514866408529244e+00	 1.185928523455158e+01
 1.688363418302234e+00	 1.531383545631376e+00	 1.180988762825121e+01
 1.836120098053952e+00	 1.365529037633778e+00	 1.218865898492900e+01
 1.822789853071486e+00	 1.383272783518999e+00	 1.216499478272418e+01
 1.809279160530349e+00	 1.400898023096792e+00	 1.213673113263640e+01
 1.795589602238957e+00	 1.418402017028866e+00	 1.210404743398522e+01
 1.781722814736224e+00	 1.435782053688712e+00	 1.206708634459056e+01
 1.767680488678083e+00	 1.453035450528743e+00	 1.202594833611250e+01
 1.753464368183430e+00	 1.470159555431423e+00	 1.198200562111357e+01
 1.739076250139979e+00	 1.487151748042984e+00	 1.193773652910593e+01
 1.724517983470590e+00	 1.504009441088318e+00	 1.189256226358756e+01
 1.709791468360668e+00	 1.520730081665703e+00	 1.184577013793914e+01
 1.694898655447289e+00	 1.537311152519990e+00	 1.179660843039129e+01
 1.843199860743632e+00	 1.370794282287334e+00	 1.217570529987372e+01
 1.829818216633706e+00	 1.388606444999106e+00	 1.215200955891820e+01
 1.816255429190478e+00	 1.406299644463590e+00	 1.212386269353719e+01
 1.802513086321534e+00	 1.423871130780076e+00	 1.209144784651964e+01
 1.788592830875984e+00	 1.441318181866483e+00	 1.205491149067930e+01
 1.774496360028629e+00	 1.458638104831776e+00	 1.201435785335944e+01
 1.760225424623369e+00	 1.475828237332307e+00	 1.197005180938274e+01
 1.745781828476398e+00	 1.492885948910667e+00	 1.192486091898348e+01
 1.731167427639690e+00	 1.509808642315658e+00	 1.187915523110290e+01
 1.716384129625421e+00	 1.526593754802000e+00	 1.183220961568574e+01
 1.701433892591978e+00	 1.543238759408437e+00	 1.178325978680731e+01
 1.850279623433346e+00	 1.376059526940758e+00	 1.216280330702557e+01
 1.836846580195948e+00	 1.393940106479063e+00	 1.213895426921060e+01
 1.823231697850602e+00	 1.411701265830231e+00	 1.211079596400285e+01
 1.809436570404062e+00	 1.429340244531128e+00	 1.207852095476411e+01
 1.795462847015646e+00	 1.446854310044099e+00	 1.204228519770394e+01
 1.781312231379016e+00	 1.464240759134659e+00	 1.200220232566477e+01
 1.766986481063092e+00	 1.481496919233046e+00	 1.195833788853211e+01
 1.752487406812542e+00	 1.498620149778209e+00	 1.191215049012806e+01
 1.737816871808461e+00	 1.515607843542854e+00	 1.186581530488604e+01
 1.722976790889804e+00	 1.532457427938146e+00	 1.181865365950461e+01
 1.707969129736268e+00	 1.549166366296717e+00	 1.176989381006999e+01
 1.857359386123191e+00	 1.381324771594149e+00	 1.214997855931840e+01
 1.843874943758311e+00	 1.399273767958964e+00	 1.212585941779859e+01
 1.830207966510811e+00	 1.417102887196798e+00	 1.209756621170141e+01
 1.816360054486623e+00	 1.434809358282093e+00	 1.206530654407153e+01
 1.802332863155270e+00	 1.452390438221620e+00	 1.202925146566436e+01
 1.788128102729292e+00	 1.469843413437442e+00	 1.198952960815417e+01
 1.773747537502624e+00	 1.487165601133679e+00	 1.194622126815228e+01
 1.759192985148420e+00	 1.504354350645638e+00	 1.189964536705686e+01
 1.744466315976898e+00	 1.521407044769926e+00	 1.185258590799128e+01
 1.729569452153795e+00	 1.538321101074150e+00	 1.180514841522985e+01
 1.714504366880125e+00	 1.555093973184831e+00	 1.175655873728992e+01
 1.864439148813270e+00	 1.386590016247609e+00	 1.213725386626719e+01
 1.850903307320891e+00	 1.404607429438896e+00	 1.211275267544882e+01
 1.837184235171193e+00	 1.422504508563369e+00	 1.208420578219761e+01
 1.823283538569292e+00	 1.440278472033041e+00	 1.205184139128679e+01
 1.809202879294923e+00	 1.457926566399106e+00	 1.201585120285645e+01
 1.794943974079505e+00	 1.475446067740176e+00	 1.197638438521543e+01
 1.780508593941997e+00	 1.492834283034248e+00	 1.193354149244499e+01
 1.765898563484045e+00	 1.510088551512984e+00	 1.188736835935120e+01
 1.751115760144993e+00	 1.527206245996894e+00	 1.183950673310854e+01
 1.736162113417373e+00	 1.544184774210023e+00	 1.179173626032079e+01
 1.721039604023517e+00	 1.561021580072778e+00	 1.174329900761326e+01
 1.655687232572625e+00	 1.501745511185803e+00	 1.187313691043887e+01
 1.640980977214357e+00	 1.517801502379484e+00	 1.182043992200216e+01
 1.626116254222871e+00	 1.533716418641320e+00	 1.176821941655377e+01
 1.611095084601319e+00	 1.549487940025887e+00	 1.171612371238802e+01
 1.595919535078986e+00	 1.565113786121580e+00	 1.166374743244996e+01
 1.580591717156995e+00	 1.580591717156995e+00	 1.161062823150942e+01
 1.565113786121580e+00	 1.595919535078986e+00	 1.155624366195027e+01
 1.549487940025886e+00	 1.611095084601319e+00	 1.150000820905304e+01
 1.533716418641319e+00	 1.626116254222872e+00	 1.144127052674070e+01
 1.517801502379483e+00	 1.640980977214357e+00	 1.137931090463266e+01
 1.501745511185803e+00	 1.655687232572625e+00	 1.131333899690243e+01
 1.662222469719014e+00	 1.507673118075252e+00	 1.186112771638165e+01
 1.647458166642315e+00	 1.523792484590229e+00	 1.180889152209973e+01
 1.632534770437641e+00	 1.539770219330222e+00	 1.175720159303570e+01
 1.617454310085350e+00	 1.555603993192633e+00	 1.170571207093366e+01
 1.602218860472419e+00	 1.571291516764728e+00	 1.165402310080756e+01
 1.586830541434388e+00	 1.586830541434388e+00	 1.160167741281359e+01
 1.571291516764728e+00	 1.602218860472420e+00	 1.154815704165162e+01
 1.555603993192633e+00	 1.617454310085350e+00	 1.149288021529013e+01
 1.539770219330221e+00	 1.632534770437640e+00	 1.143519844492449e+01
 1.523792484590228e+00	 1.647458166642315e+00	 1.137439384796949e+01
 1.507673118075252e+00	 1.662222469719015e+00	 1.130967673554818e+01
 1.668757706865203e+00	 1.513600724964534e+00	 1.184872765788813e+01
 1.653935356070108e+00	 1.529783466800842e+00	 1.179696305822080e+01
 1.638953286652277e+00	 1.545824020019018e+00	 1.174585098594069e+01
 1.623813535569272e+00	 1.561720046359288e+00	 1.169504064571560e+01
 1.608518185865760e+00	 1.577469247407792e+00	 1.164412665566835e+01
 1.593069365711697e+00	 1.593069365711697e+00	 1.159264549587451e+01
 1.577469247407792e+00	 1.608518185865761e+00	 1.154007209360014e+01
 1.561720046359288e+00	 1.623813535569272e+00	 1.148581657798520e+01
 1.545824020019018e+00	 1.638953286652278e+00	 1.142922123701585e+01
 1.529783466800841e+00	 1.653935356070109e+00	 1.136955770953496e+01
 1.513600724964534e+00	 1.668757706865203e+00	 1.130602444471342e+01
 1.675292944011158e+00	 1.519528331853648e+00	 1.183600939310038e+01
 1.660412545497697e+00	 1.535774449011314e+00	 1.178472764989881e+01
 1.645371802866735e+00	 1.551877820707688e+00	 1.173423837370375e+01
 1.630172761053036e+00	 1.567836099525825e+00	 1.168417519786849e+01
 1.614817511258964e+00	 1.583646978050739e+00	 1.163411629353279e+01
 1.599308189988881e+00	 1.599308189988881e+00	 1.158358069651716e+01
 1.583646978050739e+00	 1.614817511258964e+00	 1.153202477046176e+01
 1.567836099525824e+00	 1.630172761053037e+00	 1.147883883982001e+01
 1.551877820707688e+00	 1.645371802866736e+00	 1.142334402647647e+01
 1.535774449011313e+00	 1.660412545497698e+00	 1.136478932368140e+01
 1.519528331853649e+00	 1.675292944011158e+00	 1.130234894067855e+01
 1.681828181156845e+00	 1.525455938742596e+00	 1.182304131469810e+01
 1.666889734925040e+00	 1.541765431221634e+00	 1.177225414930867e+01
 1.651790319080969e+00	 1.557931621396212e+00	 1.172243030889917e+01
 1.636531986536599e+00	 1.573952152692216e+00	 1.167317734579922e+01
 1.621116836651983e+00	 1.589824708693531e+00	 1.162404619116029e+01
 1.605547014265897e+00	 1.605547014265897e+00	 1.157452737186515e+01
 1.589824708693531e+00	 1.621116836651983e+00	 1.152404736347412e+01
 1.573952152692216e+00	 1.636531986536599e+00	 1.147196511371589e+01
 1.557931621396211e+00	 1.651790319080969e+00	 1.141756877121441e+01
 1.541765431221633e+00	 1.666889734925041e+00	 1.136007265408075e+01
 1.525455938742596e+00	 1.681828181156845e+00	 1.129861449269479e+01
 1.688363418302234e+00	 1.531383545631376e+00	 1.180988762825121e+01
 1.673366924352097e+00	 1.547756413431792e+00	 1.175960721900042e+01
 1.658208835294932e+00	 1.563985422084572e+00	 1.171048919441189e+01
 1.642891212019911e+00	 1.580068205858431e+00	 1.166210463888829e+01
 1.627416162044774e+00	 1.596002439336134e+00	 1.161396657593201e+01
 1.611785838542706e+00	 1.611785838542706e+00	 1.156552608653612e+01
 1.596002439336134e+00	 1.627416162044774e+00	 1.151616856368482e+01
 1.580068205858431e+00	 1.642891212019911e+00	 1.146521013836656e+01
 1.563985422084572e+00	 1.658208835294933e+00	 1.141189431270451e+01
 1.547756413431791e+00	 1.673366924352097e+00	 1.135538883576732e+01
 1.531383545631376e+00	 1.688363418302234e+00	 1.129478285732606e+01
 1.694898655447289e+00	 1.537311152519990e+00	 1.179660843039129e+01
 1.679844113778824e+00	 1.553747395641779e+00	 1.174684740945895e+01
 1.664627351508581e+00	 1.570039222772748e+00	 1.169847335946019e+01
 1.649250437502926e+00	 1.586184259024445e+00	 1.165101063108830e+01
 1.633715487437289e+00	 1.602180169978511e+00	 1.160392379617591e+01
 1.618024662819265e+00	 1.618024662819265e+00	 1.155661367888118e+01
 1.602180169978511e+00	 1.633715487437289e+00	 1.150841352333374e+01
 1.586184259024445e+00	 1.649250437502926e+00	 1.145858533403048e+01
 1.570039222772747e+00	 1.664627351508581e+00	 1.140631642549854e+01
 1.553747395641777e+00	 1.679844113778824e+00	 1.135071621771437e+01
 1.537311152519990e+00	 1.694898655447289e+00	 1.129081331348278e+01
 1.701433892591978e+00	 1.543238759408437e+00	 1.178325978680731e+01
 1.686321303205182e+00	 1.559738377851583e+00	 1.173403123649304e+01
 1.671045867721866e+00	 1.576093023460720e+00	 1.168643713547420e+01
 1.655609662985597e+00	 1.592300312190228e+00	 1.163994495442326e+01
 1.640014812829485e+00	 1.608357900620628e+00	 1.159396039145456e+01
 1.624263487095532e+00	 1.624263487095532e+00	 1.154782332726826e+01
 1.608357900620628e+00	 1.640014812829485e+00	 1.150080391737499e+01
 1.592300312190227e+00	 1.655609662985597e+00	 1.145209885857481e+01
 1.576093023460720e+00	 1.671045867721867e+00	 1.140082786711376e+01
 1.559738377851583e+00	 1.686321303205183e+00	 1.134603040593031e+01
 1.543238759408437e+00	 1.701433892591978e+00	 1.128666269812925e+01
 1.707969129736268e+00	 1.549166366296717e+00	 1.176989381006999e+01
 1.692798492631129e+00	 1.565729360061197e+00	 1.172121125845919e+01
 1.677464383934746e+00	 1.582146824148469e+00	 1.167443093183332e+01
 1.661968888467875e+00	 1.598416365355750e+00	 1.162895339239035e+01
 1.646314138221316e+00	 1.614535631262448e+00	 1.158411516281761e+01
 1.630502311371466e+00	 1.630502311371466e+00	 1.153918461640692e+01
 1.614535631262447e+00	 1.646314138221315e+00	 1.149335800513522e+01
 1.598416365355751e+00	 1.661968888467876e+00	 1.144575566376515e+01
 1.582146824148469e+00	 1.677464383934746e+00	 1.139541842829088e+01
 1.565729360061197e+00	 1.692798492631130e+00	 1.134130430706105e+01
 1.549166366296717e+00	 1.707969129736268e+00	 1.128228544264559e+01
 1.714504366880125e+00	 1.555093973184831e+00	 1.175655873728992e+01
 1.699275682056624e+00	 1.571720342270610e+00	 1.170843615332426e+01
 1.683882900147171e+00	 1.588200624835976e+00	 1.166250131146786e+01
 1.668328113949717e+00	 1.604532418520987e+00	 1.161807795326750e+01
 1.652613463612735e+00	 1.620713361903935e+00	 1.157442324301879e+01
 1.636741135647025e+00	 1.636741135647025e+00	 1.153072360371462e+01
 1.620713361903935e+00	 1.652613463612734e+00	 1.148609069210434e+01
 1.604532418520987e+00	 1.668328113949717e+00	 1.143955755179376e+01
 1.588200624835976e+00	 1.683882900147172e+00	 1.139007498361076e+01
 1.571720342270609e+00	 1.699275682056624e+00	 1.133650817248401e+01
 1.555093973184831e+00	 1.714504366880125e+00	 1.127763360982797e+01
 1.721039604023517e+00	 1.561021580072778e+00	 1.174329900761326e+01
 1.705752871481626e+00	 1.577711324479812e+00	 1.169575079557140e+01
 1.690301416359099e+00	 1.594254425523221e+00	 1.165069106632644e+01
 1.674687339431072e+00	 1.610648471685908e+00	 1.160735694332889e+01
 1.658912789003697e+00	 1.626891092545054e+00	 1.156491616669915e+01
 1.642979959922168e+00	 1.642979959922168e+00	 1.152246288572270e+01
 1.626891092545055e+00	 1.658912789003697e+00	 1.147901359185529e+01
 1.610648471685908e+00	 1.674687339431073e+00	 1.143350323204053e+01
 1.594254425523221e+00	 1.690301416359099e+00	 1.138478154246069e+01
 1.577711324479812e+00	 1.705752871481626e+00	 1.133160964288180e+01
 1.561021580072778e+00	 1.721039604023517e+00	 1.127265693150916e+01
 1.501745511185803e+00	 1.655687232572625e+00	 1.131333899690243e+01
 1.485548042844174e+00	 1.670235500765547e+00	 1.124689064471256e+01
 1.469214233720123e+00	 1.684621318449455e+00	 1.118277628634331e+01
 1.452746542832192e+00	 1.698842780115080e+00	 1.111895407463497e+01
 1.436147464020815e+00	 1.712898029537638e+00	 1.105328340270550e+01
 1.419419524704582e+00	 1.726785260568927e+00	 1.098352579522336e+01
 1.402565284615473e+00	 1.740502717892059e+00	 1.090734625298337e+01
 1.385587334514378e+00	 1.754048697738161e+00	 1.082231507038883e+01
 1.368488294888244e+00	 1.767421548564461e+00	 1.072632621567292e+01
 1.351270814630200e+00	 1.780619671693210e+00	 1.063061592785105e+01
 1.333937569704040e+00	 1.793641521910966e+00	 1.054114142181526e+01
 1.507673118075252e+00	 1.662222469719015e+00	 1.130967673554818e+01
 1.491411715981593e+00	 1.676828162032079e+00	 1.124442724754184e+01
 1.475013434948752e+00	 1.691270762620391e+00	 1.118119813734703e+01
 1.458480743701366e+00	 1.705548358453375e+00	 1.111779024158919e+01
 1.441816145923415e+00	 1.719659085979478e+00	 1.105189946068294e+01
 1.425022179009569e+00	 1.733601131921384e+00	 1.098111777730276e+01
 1.408101412795435e+00	 1.747372734033735e+00	 1.090293474205701e+01
 1.391056448268004e+00	 1.760972181822650e+00	 1.081473944641652e+01
 1.373889916257661e+00	 1.774397817226498e+00	 1.071903022006965e+01
 1.356604476113090e+00	 1.787648035257331e+00	 1.062822713409121e+01
 1.339202814360497e+00	 1.800721284602547e+00	 1.054282022399158e+01
 1.513600724964534e+00	 1.668757706865203e+00	 1.130602444471342e+01
 1.497275389118799e+00	 1.683420823298369e+00	 1.124181328946813e+01
 1.480812636177114e+00	 1.697920206791036e+00	 1.117920504643812e+01
 1.464214944570217e+00	 1.712253936791332e+00	 1.111585839214620e+01
 1.447484827825630e+00	 1.726420142420929e+00	 1.104932139011565e+01
 1.430624833314105e+00	 1.740417003273407e+00	 1.097703260996137e+01
 1.413637540974881e+00	 1.754242750174934e+00	 1.089632272706139e+01
 1.396525562021053e+00	 1.767895665906627e+00	 1.080494011949028e+01
 1.379291537626440e+00	 1.781374085887994e+00	 1.071356772053833e+01
 1.361938137595290e+00	 1.794676398820894e+00	 1.062714882936226e+01
 1.344468059016220e+00	 1.807801047293561e+00	 1.054532443591666e+01
 1.519528331853649e+00	 1.675292944011158e+00	 1.130234894067855e+01
 1.503139062255803e+00	 1.690013484564393e+00	 1.123899793605746e+01
 1.486611837405232e+00	 1.704569650961384e+00	 1.117673478422895e+01
 1.469949145438773e+00	 1.718959515128959e+00	 1.111309097384512e+01
 1.453153509727497e+00	 1.733181198862022e+00	 1.104548219902253e+01
 1.436227487618241e+00	 1.747232874625042e+00	 1.097120955256528e+01
 1.419173669153873e+00	 1.761112766315720e+00	 1.088746121262350e+01
 1.401994675773594e+00	 1.774819149990168e+00	 1.079648124007786e+01
 1.384693158994663e+00	 1.788350354549037e+00	 1.070965176241577e+01
 1.367271799076891e+00	 1.801704762383993e+00	 1.062711625444576e+01
 1.349733303671310e+00	 1.814880809984109e+00	 1.054841590265410e+01
 1.525455938742596e+00	 1.681828181156845e+00	 1.129861449269479e+01
 1.509002735392615e+00	 1.696606145830132e+00	 1.123592809491598e+01
 1.492411038633126e+00	 1.711219095131431e+00	 1.117372305773336e+01
 1.475683346307067e+00	 1.725665093466269e+00	 1.110941847345164e+01
 1.458822191629058e+00	 1.739942255302784e+00	 1.104031294918067e+01
 1.441830141922026e+00	 1.754048745976336e+00	 1.096358584778384e+01
 1.424709797332469e+00	 1.767982782456154e+00	 1.087680107555374e+01
 1.407463789525696e+00	 1.781742634073352e+00	 1.078979304861753e+01
 1.390094780362410e+00	 1.795326623209717e+00	 1.070699941202908e+01
 1.372605460557983e+00	 1.808733125946727e+00	 1.062786830308614e+01
 1.354998548325865e+00	 1.821960572674290e+00	 1.055185968426578e+01
 1.531383545631376e+00	 1.688363418302234e+00	 1.129478285732606e+01
 1.514866408529244e+00	 1.703198807095564e+00	 1.123254844294149e+01
 1.498210239860814e+00	 1.717868539301168e+00	 1.117010353230643e+01
 1.481417547175128e+00	 1.732370671803272e+00	 1.110476943531189e+01
 1.464490873530355e+00	 1.746703311743244e+00	 1.103374277256191e+01
 1.447432796225509e+00	 1.760864617327333e+00	 1.095409673772155e+01
 1.430245925510728e+00	 1.774852798596301e+00	 1.086750513024383e+01
 1.412932903277430e+00	 1.788666118156255e+00	 1.078457959674899e+01
 1.395496401729759e+00	 1.802302891870124e+00	 1.070533171170399e+01
 1.377939122038655e+00	 1.815761489509192e+00	 1.062914748392434e+01
 1.360263792979988e+00	 1.829040335364205e+00	 1.055542402601936e+01
 1.537311152519990e+00	 1.694898655447289e+00	 1.129081331348278e+01
 1.520730081665703e+00	 1.709791468360667e+00	 1.122880145440830e+01
 1.504009441088319e+00	 1.724517983470590e+00	 1.116580785451876e+01
 1.487151748042984e+00	 1.739076250139977e+00	 1.109907048069998e+01
 1.470159555431424e+00	 1.753464368183429e+00	 1.102569888878346e+01
 1.453035450528744e+00	 1.767680488678082e+00	 1.094304996196303e+01
 1.435782053688713e+00	 1.781722814736223e+00	 1.085988476909144e+01
 1.418402017028867e+00	 1.795589602238956e+00	 1.078054915168436e+01
 1.400898023096792e+00	 1.809279160530348e+00	 1.070437363549682e+01
 1.383272783519000e+00	 1.822789853071486e+00	 1.063069988299752e+01
 1.365529037633777e+00	 1.836120098053952e+00	 1.055888032897574e+01
 1.543238759408437e+00	 1.701433892591978e+00	 1.128666269812925e+01
 1.526593754802001e+00	 1.716384129625421e+00	 1.122462742986488e+01
 1.509808642315658e+00	 1.731167427639690e+00	 1.116076567594073e+01
 1.492885948910669e+00	 1.745781828476398e+00	 1.109224632813289e+01
 1.475828237332308e+00	 1.760225424623369e+00	 1.101610662354454e+01
 1.458638104831776e+00	 1.774496360028628e+00	 1.093322947886924e+01
 1.441318181866484e+00	 1.788592830875984e+00	 1.085364052990686e+01
 1.423871130780076e+00	 1.802513086321532e+00	 1.077741414738106e+01
 1.406299644463590e+00	 1.816255429190478e+00	 1.070385404563206e+01
 1.388606444999106e+00	 1.829818216633705e+00	 1.063227512679215e+01
 1.370794282287334e+00	 1.843199860743632e+00	 1.056200312094505e+01
 1.549166366296717e+00	 1.707969129736268e+00	 1.128228544264559e+01
 1.532457427938147e+00	 1.722976790889803e+00	 1.121996452582123e+01
 1.515607843542855e+00	 1.737816871808461e+00	 1.115490467781129e+01
 1.498620149778210e+00	 1.752487406812541e+00	 1.108421981462683e+01
 1.481496919233046e+00	 1.766986481063090e+00	 1.100508787256959e+01
 1.464240759134660e+00	 1.781312231379015e+00	 1.092497017007393e+01
 1.446854310044099e+00	 1.795462847015645e+00	 1.084847727177478e+01
 1.429340244531129e+00	 1.809436570404062e+00	 1.077489113651828e+01
 1.411701265830233e+00	 1.823231697850602e+00	 1.070350564962549e+01
 1.393940106479064e+00	 1.836846580195948e+00	 1.063362634583333e+01
 1.376059526940758e+00	 1.850279623433346e+00	 1.056457002780185e+01
 1.555093973184831e+00	 1.714504366880125e+00	 1.127763360982797e+01
 1.538321101074151e+00	 1.729569452153795e+00	 1.121474878520534e+01
 1.521407044769926e+00	 1.744466315976897e+00	 1.114815059656870e+01
 1.504354350645638e+00	 1.759192985148420e+00	 1.107491191786939e+01
 1.487165601133680e+00	 1.773747537502623e+00	 1.099502310778397e+01
 1.469843413437443e+00	 1.788128102729292e+00	 1.091797424919554e+01
 1.452390438221620e+00	 1.802332863155270e+00	 1.084410412413032e+01
 1.434809358282094e+00	 1.816360054486623e+00	 1.077270074325668e+01
 1.417102887196799e+00	 1.830207966510810e+00	 1.070306495807571e+01
 1.399273767958964e+00	 1.843874943758311e+00	 1.063451013879794e+01
 1.381324771594150e+00	 1.857359386123191e+00	 1.056636174515036e+01
 1.561021580072778e+00	 1.721039604023517e+00	 1.127265693150916e+01
 1.544184774210024e+00	 1.736162113417373e+00	 1.120891416856843e+01
 1.527206245996895e+00	 1.751115760144993e+00	 1.114042725021963e+01
 1.510088551512984e+00	 1.765898563484043e+00	 1.106429049117827e+01
 1.492834283034248e+00	 1.780508593941995e+00	 1.098639888644155e+01
 1.475446067740177e+00	 1.794943974079505e+00	 1.091194827428124e+01
 1.457926566399107e+00	 1.809202879294922e+00	 1.084023443667802e+01
 1.440278472033042e+00	 1.823283538569291e+00	 1.077056761675984e+01
 1.422504508563371e+00	 1.837184235171193e+00	 1.070227224310511e+01
 1.404607429438897e+00	 1.850903307320891e+00	 1.063468653713611e+01
 1.386590016247609e+00	 1.864439148813270e+00	 1.056716201032928e+01
 1.333937569704040e+00	 1.793641521910966e+00	 1.054114142181526e+01
 1.316494235154875e+00	 1.806483441180266e+00	 1.045574116253141e+01
 1.298940590890470e+00	 1.819146228155318e+00	 1.037180472909234e+01
 1.281279374770660e+00	 1.831628509158474e+00	 1.028861311251229e+01
 1.263513346306681e+00	 1.843928965884853e+00	 1.020544676425229e+01
 1.245645285274350e+00	 1.856046335795278e+00	 1.012158536263365e+01
 1.227677990319974e+00	 1.867979412467918e+00	 1.003630753741927e+01
 1.209614277560409e+00	 1.879727045908540e+00	 9.948890558878979e+00
 1.191456979178689e+00	 1.891288142819314e+00	 9.858609997756716e+00
 1.173208942016627e+00	 1.902661666826218e+00	 9.764735725931743e+00
 1.154873026165801e+00	 1.913846638665072e+00	 9.666420818920589e+00
 1.339202814360497e+00	 1.800721284602547e+00	 1.054282022399158e+01
 1.321690628445213e+00	 1.813613892785887e+00	 1.046047037456248e+01
 1.304067697406269e+00	 1.826326661613954e+00	 1.037857610277283e+01
 1.286336769910229e+00	 1.838858211986983e+00	 1.029656083047534e+01
 1.268500616360523e+00	 1.851207220396538e+00	 1.021385217871058e+01
 1.250562027505148e+00	 1.863372419320001e+00	 1.012988146150534e+01
 1.232523813037073e+00	 1.875352597573608e+00	 1.004408313244680e+01
 1.214388800188781e+00	 1.887146600623915e+00	 9.955894190936437e+00
 1.196159832322339e+00	 1.898753330857675e+00	 9.864753555131099e+00
 1.177839767516464e+00	 1.910171747810131e+00	 9.770101408646040e+00
 1.159431477151930e+00	 1.921400868351795e+00	 9.671320290117507e+00
 1.344468059016220e+00	 1.807801047293561e+00	 1.054532443591666e+01
 1.326887021734783e+00	 1.820744344390948e+00	 1.046563155416739e+01
 1.309194803921275e+00	 1.833507095072052e+00	 1.038550973838182e+01
 1.291394165048992e+00	 1.846087914814986e+00	 1.030451163489341e+01
 1.273487886413557e+00	 1.858485474907758e+00	 1.022219842999565e+01
 1.255478769735148e+00	 1.870698502844312e+00	 1.013813909160080e+01
 1.237369635753399e+00	 1.882725782678946e+00	 1.005190955864571e+01
 1.219163322816413e+00	 1.894566155339006e+00	 9.963091885699786e+00
 1.200862685465302e+00	 1.906218518895826e+00	 9.871273350336974e+00
 1.182470593015676e+00	 1.917681828793916e+00	 9.776045530905872e+00
 1.163989928137511e+00	 1.928955098038471e+00	 9.676982282997511e+00
 1.349733303671310e+00	 1.814880809984109e+00	 1.054841590265411e+01
 1.332083415023695e+00	 1.827874795995548e+00	 1.047101271745648e+01
 1.314321910435607e+00	 1.840687528529700e+00	 1.039241481250095e+01
 1.296451560187077e+00	 1.853317617642557e+00	 1.031229102307304e+01
 1.278475156465919e+00	 1.865763729418575e+00	 1.023032267040975e+01
 1.260395511964490e+00	 1.878024586368254e+00	 1.014620257153932e+01
 1.242215458469091e+00	 1.890098967783955e+00	 1.005963399220009e+01
 1.223937845443449e+00	 1.901985710053816e+00	 9.970329550809907e+00
 1.205565538607713e+00	 1.913683706933750e+00	 9.878010081565925e+00
 1.187101418514393e+00	 1.925191909777534e+00	 9.782403464830876e+00
 1.168548379122664e+00	 1.936509327725052e+00	 9.683238397856258e+00
 1.354998548325865e+00	 1.821960572674290e+00	 1.055185968426578e+01
 1.337279808312057e+00	 1.835005247599780e+00	 1.047640466295999e+01
 1.319449016949385e+00	 1.847867961986985e+00	 1.039910292814295e+01
 1.301508955324611e+00	 1.860547320469775e+00	 1.031972663675964e+01
 1.283462426517742e+00	 1.873041983929048e+00	 1.023806398605739e+01
 1.265312254193315e+00	 1.885350669891869e+00	 1.015391801177377e+01
 1.247061281184295e+00	 1.897472152888660e+00	 1.006710532509729e+01
 1.228712368070030e+00	 1.909405264768351e+00	 9.977454796848487e+00
 1.210268391749709e+00	 1.921148894971434e+00	 9.884806197445812e+00
 1.191732244012743e+00	 1.932701990760955e+00	 9.789008801298380e+00
 1.173106830107502e+00	 1.944063557411484e+00	 9.689919568157894e+00
 1.360263792979988e+00	 1.829040335364205e+00	 1.055542402601936e+01
 1.342476201599982e+00	 1.842135699203746e+00	 1.048160095000259e+01
 1.324576123462730e+00	 1.855048395443998e+00	 1.040538809980644e+01
 1.306566350461724e+00	 1.867777023296715e+00	 1.032664825243610e+01
 1.288449696569163e+00	 1.880320238439240e+00	 1.024526339100116e+01
 1.270228996421762e+00	 1.892676753415200e+00	 1.016113331127096e+01
 1.251907103899149e+00	 1.904845337993083e+00	 1.007417416305187e+01
 1.233486890696297e+00	 1.916824819482612e+00	 9.984316935277118e+00
 1.214971244891429e+00	 1.928614083008861e+00	 9.891505893821986e+00
 1.196363069510855e+00	 1.940212071744143e+00	 9.795696981135293e+00
 1.177665281092140e+00	 1.951617787097718e+00	 9.696856186821703e+00
 1.365529037633777e+00	 1.836120098053952e+00	 1.055888032897574e+01
 1.347672594887578e+00	 1.849266150807540e+00	 1.048639787727146e+01
 1.329703229975759e+00	 1.862228828900827e+00	 1.041108673857345e+01
 1.311623745598542e+00	 1.875006726123453e+00	 1.033288777154631e+01
 1.293436966620315e+00	 1.887598492949212e+00	 1.025176382125910e+01
 1.275145738649971e+00	 1.900002836938292e+00	 1.016769815397926e+01
 1.256752926613798e+00	 1.912218523097250e+00	 1.008069282319183e+01
 1.238261413322390e+00	 1.924244374196604e+00	 9.990766976143783e+00
 1.219674098033008e+00	 1.936079271046014e+00	 9.897955110337247e+00
 1.200993895008857e+00	 1.947722152727063e+00	 9.802305289478367e+00
 1.182223732076697e+00	 1.959172016783703e+00	 9.703877328429749e+00
 1.370794282287334e+00	 1.843199860743632e+00	 1.056200312094505e+01
 1.352868988174956e+00	 1.856396602411258e+00	 1.049059446157356e+01
 1.334830336488594e+00	 1.869409262357560e+00	 1.041601763724916e+01
 1.316681140735195e+00	 1.882236428950067e+00	 1.033827921064717e+01
 1.298424236671334e+00	 1.894876747459023e+00	 1.025741012864679e+01
 1.280062480878080e+00	 1.907328920461187e+00	 1.017346400508869e+01
 1.261598749328383e+00	 1.919591708201184e+00	 1.008651533151488e+01
 1.243035935948452e+00	 1.931663928910331e+00	 9.996657625563069e+00
 1.224376951174584e+00	 1.943544459082879e+00	 9.904001526816749e+00
 1.205624720506878e+00	 1.955232233709682e+00	 9.808672849996245e+00
 1.186782183061287e+00	 1.966726246469390e+00	 9.710810605418654e+00
 1.376059526940758e+00	 1.850279623433346e+00	 1.056457002780185e+01
 1.358065381462228e+00	 1.863527054014999e+00	 1.049399241677595e+01
 1.339957443001354e+00	 1.876589695814287e+00	 1.042000195554218e+01
 1.321738535871809e+00	 1.889466131776632e+00	 1.034265869149028e+01
 1.303411506722355e+00	 1.902155001968735e+00	 1.026204907446873e+01
 1.284979223106231e+00	 1.914655003983926e+00	 1.017828410708920e+01
 1.266444572043045e+00	 1.926964893304907e+00	 1.009149742011918e+01
 1.247810458574623e+00	 1.939083483623797e+00	 1.000184328297590e+01
 1.229079804316294e+00	 1.951009647119438e+00	 9.909494559462443e+00
 1.210255546005046e+00	 1.962742314691965e+00	 9.814640618976458e+00
 1.191340634046026e+00	 1.974280476154726e+00	 9.717485213462059e+00
 1.381324771594150e+00	 1.857359386123191e+00	 1.056636174515036e+01
 1.363261774749500e+00	 1.870657505618858e+00	 1.049639613292526e+01
 1.345084549514157e+00	 1.883770129271097e+00	 1.042286320528500e+01
 1.326795931008512e+00	 1.896695834603226e+00	 1.034586443103506e+01
 1.308398776773511e+00	 1.909433256478410e+00	 1.026552932306334e+01
 1.289895965334563e+00	 1.921981087506554e+00	 1.018201347563258e+01
 1.271290394757928e+00	 1.934338078408444e+00	 1.009549652421618e+01
 1.252584981201046e+00	 1.946503038337005e+00	 1.000618003819493e+01
 1.233782657458275e+00	 1.958474835155677e+00	 9.914285356862852e+00
 1.214886371503492e+00	 1.970252395673879e+00	 9.820051379279882e+00
 1.195899085031030e+00	 1.981834705839663e+00	 9.723732318552912e+00
 1.386590016247609e+00	 1.864439148813270e+00	 1.056716201032928e+01
 1.368458168036886e+00	 1.877787957222933e+00	 1.049761265554090e+01
 1.350211656027125e+00	 1.890950562728077e+00	 1.042442723569290e+01
 1.331853326145434e+00	 1.903925537429925e+00	 1.034773673139567e+01
 1.313386046824939e+00	 1.916711510988107e+00	 1.026770143520471e+01
 1.294812707563215e+00	 1.929307171029115e+00	 1.018450889520328e+01
 1.276136217473172e+00	 1.941711263511818e+00	 1.009837177893033e+01
 1.257359503827862e+00	 1.953922593049959e+00	 1.000952566824121e+01
 1.238485510600663e+00	 1.965940023191579e+00	 9.918226795821983e+00
 1.219517197002343e+00	 1.977762476655389e+00	 9.824749734167611e+00
 1.200457536016417e+00	 1.989388935524150e+00	 9.729385047880992e+00
 1.154873026165801e+00	 1.913846638665072e+00	 9.666420818920589e+00
 1.136452103918131e+00	 1.924842136790607e+00	 9.565493215551925e+00
 1.117949059414061e+00	 1.935647298879856e+00	 9.464195837768404e+00
 1.099366786116543e+00	 1.946261320512928e+00	 9.362518917761598e+00
 1.080708185042699e+00	 1.956683454730028e+00	 9.260561439447516e+00
 1.061976163366337e+00	 1.966913012010647e+00	 9.158516971624236e+00
 1.043173633027097e+00	 1.976949360212890e+00	 9.056659929944322e+00
 1.024303509347539e+00	 1.986791924473413e+00	 8.955332341983631e+00
 1.005368709659413e+00	 1.996440187068386e+00	 8.854931183201737e+00
 9.863721519403903e-01	 2.005893687236055e+00	 8.755896344834044e+00
 9.673167534624196e-01	 2.015152020961425e+00	 8.658699287788163e+00
 1.159431477151930e+00	 1.921400868351795e+00	 9.671320290117507e+00
 1.140937844858008e+00	 1.932439767299915e+00	 9.570390494599383e+00
 1.122361766159259e+00	 1.943287578927815e+00	 9.469570459539993e+00
 1.103706145939548e+00	 1.953943495640461e+00	 9.368763192406535e+00
 1.084973896666725e+00	 1.964406767529707e+00	 9.267979708839727e+00
 1.066167936989626e+00	 1.974676702353418e+00	 9.167324647688275e+00
 1.047291190341737e+00	 1.984752665474563e+00	 9.066982335100626e+00
 1.028346583552809e+00	 1.994634079760735e+00	 8.967203373559917e+00
 1.009337045469723e+00	 2.004320425444586e+00	 8.868291825076433e+00
 9.902655055878178e-01	 2.013811239945681e+00	 8.770593050801683e+00
 9.711348926939367e-01	 2.023106117654333e+00	 8.674482262171178e+00
 1.163989928137511e+00	 1.928955098038471e+00	 9.676982282997511e+00
 1.145423585797431e+00	 1.940037397809262e+00	 9.576199852767274e+00
 1.126774472904106e+00	 1.950927858975903e+00	 9.475941205523135e+00
 1.108045505762309e+00	 1.961625670768204e+00	 9.376030530737030e+00
 1.089239608290615e+00	 1.972130080329677e+00	 9.276399406904549e+00
 1.070359710612885e+00	 1.982440392696559e+00	 9.177072176868897e+00
 1.051408747656442e+00	 1.992555970736669e+00	 9.078151792955250e+00
 1.032389657758227e+00	 2.002476235048544e+00	 8.979806209467551e+00
 1.013305381280242e+00	 2.012200663821316e+00	 8.882255393236218e+00
 9.941588592354975e-01	 2.021728792655865e+00	 8.785759015760743e+00
 9.749530319257198e-01	 2.031060214347808e+00	 8.690604883128715e+00
 1.168548379122664e+00	 1.936509327725052e+00	 9.683238397856258e+00
 1.149909326736499e+00	 1.947635028318585e+00	 9.582745418428079e+00
 1.131187179648680e+00	 1.958568139024042e+00	 9.483127011407031e+00
 1.112384865584882e+00	 1.969307845896078e+00	 9.384136882257552e+00
 1.093505319914400e+00	 1.979853393129853e+00	 9.285635628224032e+00
 1.074551484236119e+00	 1.990204083039974e+00	 9.187575852254080e+00
 1.055526304971194e+00	 2.000359275999112e+00	 9.089987768009596e+00
 1.036432731963756e+00	 2.010318390336744e+00	 8.992965375244026e+00
 1.017273717090920e+00	 2.020080902198478e+00	 8.896653277765109e+00
 9.980522128833663e-01	 2.029646345366506e+00	 8.801234208857714e+00
 9.787711711577025e-01	 2.039014311041749e+00	 8.706917321473126e+00
 1.173106830107502e+00	 1.944063557411484e+00	 9.689919568157894e+00
 1.154395067675310e+00	 1.955232658827819e+00	 9.589850689084532e+00
 1.135599886393057e+00	 1.966208419072158e+00	 9.490946183815769e+00
 1.116724225407318e+00	 1.976990021023997e+00	 9.392897537371983e+00
 1.097771031538109e+00	 1.987576705930144e+00	 9.295502748713286e+00
 1.078743257859333e+00	 1.997967773383569e+00	 9.198651161468401e+00
 1.059643862285977e+00	 2.008162581261797e+00	 9.102308807563153e+00
 1.040475806169357e+00	 2.018160545625237e+00	 9.006504344815678e+00
 1.021242052901703e+00	 2.027961140575972e+00	 8.911315662305309e+00
 1.001945566531361e+00	 2.037563898077505e+00	 8.816857219773205e+00
 9.825893103898176e-01	 2.046968407736056e+00	 8.723268179533035e+00
 1.177665281092140e+00	 1.951617787097718e+00	 9.696856186821703e+00
 1.158880808613962e+00	 1.962830289336903e+00	 9.597338651676786e+00
 1.140012593137314e+00	 1.973848699120177e+00	 9.499216513413263e+00
 1.121063585229672e+00	 1.984672196151879e+00	 9.402127233937284e+00
 1.102036743161770e+00	 1.995300018730458e+00	 9.305814526251533e+00
 1.082935031482531e+00	 2.005731463727250e+00	 9.210112881986205e+00
 1.063761419600772e+00	 2.015965886524625e+00	 9.114932632288514e+00
 1.044518880374993e+00	 2.026002700913923e+00	 9.020245626888808e+00
 1.025210388712539e+00	 2.035841378953698e+00	 8.926071606795031e+00
 1.005838920179419e+00	 2.045481450788762e+00	 8.832465338309891e+00
 9.864074496219992e-01	 2.054922504430628e+00	 8.739504568069339e+00
 1.182223732076697e+00	 1.959172016783703e+00	 9.703877328429749e+00
 1.163366549552554e+00	 1.970427919845770e+00	 9.605031902916682e+00
 1.144425299881529e+00	 1.981488979168023e+00	 9.507755388105419e+00
 1.125402945051999e+00	 1.992354371279641e+00	 9.411640263970430e+00
 1.106302454785414e+00	 2.003023331530709e+00	 9.316384201508114e+00
 1.087126805105719e+00	 2.013495154070926e+00	 9.221775176667396e+00
 1.067878976915562e+00	 2.023769191787499e+00	 9.127676227044329e+00
 1.048561954580627e+00	 2.033844856202704e+00	 9.034010851582963e+00
 1.029178724523375e+00	 2.043721617331557e+00	 8.940749130440103e+00
 1.009732273827477e+00	 2.053399003500176e+00	 8.847894634195971e+00
 9.902255888541812e-01	 2.062876601125368e+00	 8.755472183378044e+00
 1.186782183061287e+00	 1.966726246469390e+00	 9.710810605418654e+00
 1.167852290491185e+00	 1.978025550354356e+00	 9.612752769647816e+00
 1.148838006625779e+00	 1.989129259215624e+00	 9.516379906336482e+00
 1.129742304874350e+00	 2.000036546407199e+00	 9.421250580504505e+00
 1.110568166409069e+00	 2.010746644330806e+00	 9.327024598958090e+00
 1.091318578728902e+00	 2.021258844414498e+00	 9.233451689510519e+00
 1.071996534230329e+00	 2.031572497050323e+00	 9.140355931920059e+00
 1.052605028786221e+00	 2.041687011491480e+00	 9.047620857298730e+00
 1.033147060334156e+00	 2.051601855709450e+00	 8.955175294912301e+00
 1.013625627475472e+00	 2.061316556211648e+00	 8.862980037096591e+00
 9.940437280862963e-01	 2.070830697820173e+00	 8.771015384573593e+00
 1.191340634046026e+00	 1.974280476154726e+00	 9.717485213462059e+00
 1.172338031429952e+00	 1.985623180862599e+00	 9.620323429229453e+00
 1.153250713370142e+00	 1.996769539262902e+00	 9.524906990478016e+00
 1.134081664696782e+00	 2.007718721534471e+00	 9.430771904589593e+00
 1.114833878032766e+00	 2.018469957130660e+00	 9.337548228082408e+00
 1.095510352352085e+00	 2.029022534757877e+00	 9.244955641616759e+00
 1.076114091545056e+00	 2.039375802313002e+00	 9.152787533506881e+00
 1.056648102991739e+00	 2.049529166780154e+00	 9.060895777814796e+00
 1.037115396144830e+00	 2.059482094087275e+00	 8.969176287768974e+00
 1.017518981123340e+00	 2.069234108923078e+00	 8.877555416829201e+00
 9.978618673182789e-01	 2.078784794514945e+00	 8.785977271048139e+00
 1.195899085031030e+00	 1.981834705839663e+00	 9.723732318552912e+00
 1.176823772368955e+00	 1.993220811370433e+00	 9.627566010713725e+00
 1.157663420114694e+00	 2.004409819309784e+00	 9.533153500306938e+00
 1.138421024519346e+00	 2.015400896661373e+00	 9.440017832434858e+00
 1.119099589656532e+00	 2.026193269930182e+00	 9.347767384747440e+00
 1.099702125975272e+00	 2.036786225100966e+00	 9.256099927359459e+00
 1.080231648859724e+00	 2.047179107575435e+00	 9.164786356387541e+00
 1.060691177197142e+00	 2.057371322068627e+00	 9.073655129607117e+00
 1.041083731955346e+00	 2.067362332464934e+00	 8.982577506087374e+00
 1.021412334771020e+00	 2.077151661634367e+00	 8.891453663776236e+00
 1.001680006550062e+00	 2.086738891209582e+00	 8.800199760102625e+00
 1.200457536016417e+00	 1.989388935524150e+00	 9.729385047880992e+00
 1.181309513308292e+00	 2.000818441877797e+00	 9.634298523431962e+00
 1.162076126859514e+00	 2.012050099356196e+00	 9.540936346571094e+00
 1.142760384342097e+00	 2.023083071787823e+00	 9.448801942688300e+00
 1.123365301280397e+00	 2.033916582729283e+00	 9.357494252759473e+00
 1.103893899598469e+00	 2.044549915443672e+00	 9.266697210753758e+00
 1.084349206174317e+00	 2.054982412837529e+00	 9.176167354840455e+00
 1.064734251402393e+00	 2.065213477356799e+00	 9.085717899385060e+00
 1.045052067765649e+00	 2.075242570842330e+00	 8.995203640308759e+00
 1.025305688418447e+00	 2.085069214345414e+00	 8.904506769490723e+00
 1.005498145781580e+00	 2.094692987903986e+00	 8.813523664744315e+00
 9.673167534624196e-01	 2.015152020961425e+00	 8.658699287788163e+00
 9.482021755781406e-01	 2.024216364620247e+00	 8.561535367922403e+00
 9.290345655093517e-01	 2.033084834959419e+00	 8.462633406393842e+00
 9.098168309719685e-01	 2.041757195019680e+00	 8.362488092609174e+00
 8.905518737420935e-01	 2.050233263396683e+00	 8.261594158500595e+00
 8.712425883789897e-01	 2.058512913847339e+00	 8.160439101393674e+00
 8.518918609662952e-01	 2.066596074862476e+00	 8.059496757398744e+00
 8.325025678724677e-01	 2.074482729206619e+00	 7.959221729195862e+00
 8.130775745313923e-01	 2.082172913425751e+00	 7.860044665329582e+00
 7.936197342440642e-01	 2.089666717323930e+00	 7.762368381614481e+00
 7.741318870022023e-01	 2.096964283409688e+00	 7.666564809011119e+00
 9.711348926939367e-01	 2.023106117654333e+00	 8.674482262171178e+00
 9.519448668040258e-01	 2.032206239589626e+00	 8.578109868719698e+00
 9.327015994038663e-01	 2.041109715064976e+00	 8.479759644946576e+00
 9.134080096865619e-01	 2.049816306185801e+00	 8.379978264320799e+00
 8.940670108819566e-01	 2.058325830831709e+00	 8.279311271687760e+00
 8.746815089745689e-01	 2.066638162261302e+00	 8.178295619711879e+00
 8.552544014398387e-01	 2.074753228683138e+00	 8.077453085705592e+00
 8.357885759996779e-01	 2.082671012793702e+00	 7.977284572681620e+00
 8.162869093982649e-01	 2.090391551283217e+00	 7.878265291522712e+00
 7.967522661989983e-01	 2.097914934310198e+00	 7.780840814459983e+00
 7.771874976034669e-01	 2.105241304945670e+00	 7.685423983634109e+00
 9.749530319257198e-01	 2.031060214347808e+00	 8.690604883128715e+00
 9.556875580301600e-01	 2.040196114559561e+00	 8.594916217643668e+00
 9.363686332985863e-01	 2.049134595171063e+00	 8.497040722485915e+00
 9.169991884012939e-01	 2.057875417352409e+00	 8.397572562999727e+00
 8.975821480218735e-01	 2.066418398267170e+00	 8.297103488172084e+00
 8.781204295701049e-01	 2.074763410675641e+00	 8.196215184161304e+00
 8.586169419132345e-01	 2.082910382504116e+00	 8.095472538789837e+00
 8.390745841266316e-01	 2.090859296381037e+00	 7.995417820796675e+00
 8.194962442647739e-01	 2.098610189140870e+00	 7.896565770500769e+00
 7.998847981534678e-01	 2.106163151296597e+00	 7.799399591640801e+00
 7.802431082041756e-01	 2.113518326481731e+00	 7.704367827552836e+00
 9.787711711577025e-01	 2.039014311041749e+00	 8.706917321473126e+00
 9.594302492564809e-01	 2.048185989529952e+00	 8.611815357181156e+00
 9.400356671934595e-01	 2.057159475277577e+00	 8.514347968452698e+00
 9.205903671161286e-01	 2.065934528519404e+00	 8.415152376706073e+00
 9.010972851618301e-01	 2.074510965702969e+00	 8.314861980076497e+00
 8.815593501656065e-01	 2.082888659090260e+00	 8.214098527447394e+00
 8.619794823865147e-01	 2.091067536325310e+00	 8.113465234757289e+00
 8.423605922533861e-01	 2.099047579968526e+00	 8.013540847320394e+00
 8.227055791309997e-01	 2.106828826998619e+00	 7.914874644557340e+00
 8.030173301075735e-01	 2.114411368283037e+00	 7.817982376449937e+00
 7.832987188044471e-01	 2.121795348017791e+00	 7.723343114249582e+00
 9.825893103898176e-01	 2.046968407736056e+00	 8.723268179533035e+00
 9.631729404829260e-01	 2.056175864500697e+00	 8.628666473378049e+00
 9.437027010884343e-01	 2.065184355384420e+00	 8.531550784412353e+00
 9.241815458310317e-01	 2.073993639686688e+00	 8.432597010374060e+00
 9.046124223018104e-01	 2.082603533139005e+00	 8.332475696947823e+00
 8.849982707610817e-01	 2.091013907505061e+00	 8.231844035623595e+00
 8.653420228597120e-01	 2.099224690146626e+00	 8.131338835889398e+00
 8.456466003799976e-01	 2.107235863556074e+00	 8.031570475427069e+00
 8.259149139970219e-01	 2.115047464856373e+00	 7.933117824433713e+00
 8.061498620614156e-01	 2.122659585269433e+00	 7.836524132914935e+00
 7.863543294043980e-01	 2.130072369553765e+00	 7.742293862819823e+00
 9.864074496219992e-01	 2.054922504430628e+00	 8.739504568069339e+00
 9.669156317094336e-01	 2.064165739471699e+00	 8.645327070244916e+00
 9.473697349834607e-01	 2.073209235491492e+00	 8.548516715829900e+00
 9.277727245459672e-01	 2.082052750854160e+00	 8.449783754853517e+00
 9.081275594418009e-01	 2.090696100575181e+00	 8.349831431982498e+00
 8.884371913565380e-01	 2.099139155919944e+00	 8.249347811438270e+00
 8.687045633328584e-01	 2.107381843967966e+00	 8.148998609069043e+00
 8.489326085065232e-01	 2.115424147143592e+00	 8.049421035163977e+00
 8.291242488629210e-01	 2.123266102714041e+00	 7.951218643843707e+00
 8.092823940150953e-01	 2.130907802255696e+00	 7.854957177381498e+00
 7.894099400041461e-01	 2.138349391089572e+00	 7.761161386643368e+00
 9.902255888541812e-01	 2.062876601125368e+00	 8.755472183378043e+00
 9.706583229359409e-01	 2.072155614442857e+00	 8.661653044319365e+00
 9.510367688784858e-01	 2.081234115598693e+00	 8.565111523972757e+00
 9.313639032609008e-01	 2.090111862021721e+00	 8.466587956055980e+00
 9.116426965817855e-01	 2.098788668011396e+00	 8.366813888337763e+00
 8.918761119519836e-01	 2.107264404334813e+00	 8.266503737751490e+00
 8.720671038059857e-01	 2.115538997789235e+00	 8.166347486260930e+00
 8.522186166330196e-01	 2.123612430730982e+00	 8.067004420974619e+00
 8.323335837287754e-01	 2.131484740571530e+00	 7.969097914035094e+00
 8.124149259687123e-01	 2.139156019241738e+00	 7.873211230126095e+00
 7.924655506038089e-01	 2.146626412625126e+00	 7.779884342079976e+00
 9.940437280862963e-01	 2.070830697820173e+00	 8.771015384573593e+00
 9.744010141623860e-01	 2.080145489414070e+00	 8.677498759377304e+00
 9.547038027734588e-01	 2.089258995705922e+00	 8.581199257938128e+00
 9.349550819757968e-01	 2.098170973189272e+00	 8.482883084203122e+00
 9.151578337217495e-01	 2.106881235447553e+00	 8.383305745526167e+00
 8.953150325474258e-01	 2.115389652749569e+00	 8.283203541018656e+00
 8.754296442791274e-01	 2.123696151610336e+00	 8.183286125047291e+00
 8.555046247595429e-01	 2.131800714318151e+00	 8.084230149265739e+00
 8.355429185946665e-01	 2.139703378428751e+00	 7.986673978385821e+00
 8.155474579223673e-01	 2.147404236227472e+00	 7.891213466997371e+00
 7.955211612035042e-01	 2.154903434160346e+00	 7.798398777188106e+00
 9.978618673182789e-01	 2.078784794514945e+00	 8.785977271048139e+00
 9.781437053887063e-01	 2.088135364385238e+00	 8.692717121292256e+00
 9.583708366683288e-01	 2.097283875813081e+00	 8.596642326801202e+00
 9.385462606906200e-01	 2.106230084356712e+00	 8.498540803174986e+00
 9.186729708616787e-01	 2.114973802883553e+00	 8.399187725890796e+00
 8.987539531428741e-01	 2.123514901164115e+00	 8.299336854840369e+00
 8.787921847523151e-01	 2.131853305431174e+00	 8.199712969216330e+00
 8.587906328861503e-01	 2.139988997905005e+00	 8.101005416017200e+00
 8.387522534606728e-01	 2.147922016285611e+00	 8.003862767035361e+00
 8.186799898761620e-01	 2.155652453212812e+00	 7.908888571085660e+00
 7.985767718033495e-01	 2.163180455695149e+00	 7.816638180466700e+00
 1.001680006550062e+00	 2.086738891209582e+00	 8.800199760102625e+00
 9.818863966148403e-01	 2.096125239356263e+00	 8.707159653036211e+00
 9.620378705630438e-01	 2.105308755920068e+00	 8.611301571882130e+00
 9.421374394053353e-01	 2.114289195523944e+00	 8.513431039954176e+00
 9.221881080015569e-01	 2.123066370319294e+00	 8.414338661159794e+00
 9.021928737383350e-01	 2.131640149578353e+00	 8.314791283575723e+00
 8.821547252255810e-01	 2.140010459251651e+00	 8.215524309402124e+00
 8.620766410128983e-01	 2.148177281491450e+00	 8.117235154432766e+00
 8.419615883268757e-01	 2.156140654142021e+00	 8.020577851548847e+00
 8.218125218301959e-01	 2.163900670197667e+00	 7.926158784419504e+00
 8.016323824034624e-01	 2.171457477229453e+00	 7.834533529619028e+00
 1.005498145781580e+00	 2.094692987903986e+00	 8.813523664744315e+00
 9.856290878407250e-01	 2.104115114327044e+00	 8.720676569820517e+00
 9.657049044575525e-01	 2.113333636026786e+00	 8.625036339127028e+00
 9.457286181199082e-01	 2.122348306690866e+00	 8.527422054165083e+00
 9.257032451413704e-01	 2.131158937754683e+00	 8.428635559077138e+00
 9.056317943338176e-01	 2.139765397992186e+00	 8.329452466017766e+00
 8.855172656989574e-01	 2.148167613071671e+00	 8.230614343774599e+00
 8.653626491398443e-01	 2.156365565077391e+00	 8.132822092632306e+00
 8.451709231933541e-01	 2.164359291997887e+00	 8.036730499614359e+00
 8.249450537845703e-01	 2.172148887181954e+00	 7.942943959688494e+00
 8.046879930039602e-01	 2.179734498763173e+00	 7.852013340338068e+00
 7.741318870022023e-01	 2.096964283409688e+00	 7.666564809011119e+00
 7.546201775254084e-01	 2.104064615596794e+00	 7.572447495547813e+00
 7.350841034828635e-01	 2.110969215836829e+00	 7.479812801838772e+00
 7.155264558413447e-01	 2.117678379563855e+00	 7.388997339255687e+00
 6.959500078380153e-01	 2.124192452387945e+00	 7.300293528823751e+00
 6.763575139261093e-01	 2.130511829406764e+00	 7.213950364574977e+00
 6.567517087467765e-01	 2.136636954492820e+00	 7.130174807203119e+00
 6.371353061276586e-01	 2.142568319557409e+00	 7.049133758667010e+00
 6.175109981087186e-01	 2.148306463792312e+00	 6.970956565338216e+00
 5.978814539958085e-01	 2.153851972890297e+00	 6.895737994707639e+00
 5.782493194424027e-01	 2.159205478245480e+00	 6.822660295865466e+00
 7.771874976034669e-01	 2.105241304945670e+00	 7.685423983634111e+00
 7.575987725853764e-01	 2.112369663171694e+00	 7.591807645622096e+00
 7.379855868311260e-01	 2.119301516868275e+00	 7.499728765709055e+00
 7.183507423238283e-01	 2.126037162635601e+00	 7.409504414623833e+00
 6.986970232470018e-01	 2.132576947447920e+00	 7.321406540274496e+00
 6.790271949260915e-01	 2.138921267962409e+00	 7.235662881594255e+00
 6.593440027962585e-01	 2.145070569803611e+00	 7.152458532410867e+00
 6.396501713970013e-01	 2.151025346824469e+00	 7.071938104386157e+00
 6.199484033941417e-01	 2.156786140345039e+00	 6.994208434938953e+00
 6.002413786296545e-01	 2.162353538369905e+00	 6.919341783408938e+00
 5.805317531997776e-01	 2.167728174785390e+00	 6.846868164506083e+00
 7.802431082041756e-01	 2.113518326481731e+00	 7.704367827552836e+00
 7.605773676447123e-01	 2.120674710746636e+00	 7.611239765691600e+00
 7.408870701786928e-01	 2.127633817899733e+00	 7.519694678691151e+00
 7.211750288055655e-01	 2.134395945707333e+00	 7.430031590762312e+00
 7.014440386552016e-01	 2.140961442507862e+00	 7.342503363803745e+00
 6.816968759252573e-01	 2.147330706518005e+00	 7.257317763386887e+00
 6.619362968449025e-01	 2.153504185114335e+00	 7.174639195138519e+00
 6.421650366654920e-01	 2.159482374091446e+00	 7.094591058935234e+00
 6.223858086787040e-01	 2.165265816897660e+00	 7.017258665102521e+00
 6.026013032626345e-01	 2.170855103849377e+00	 6.942692654080898e+00
 5.828141869562861e-01	 2.176250871325130e+00	 6.870666608015304e+00
 7.832987188044471e-01	 2.121795348017791e+00	 7.723343114249582e+00
 7.635559627035454e-01	 2.128979758321541e+00	 7.630699839154637e+00
 7.437885535257025e-01	 2.135966118931131e+00	 7.539675890015223e+00
 7.239993152866990e-01	 2.142754728778989e+00	 7.450553685171005e+00
 7.041910540627595e-01	 2.149345937567716e+00	 7.363568331811207e+00
 6.843665569237507e-01	 2.155740145073506e+00	 7.278908845845966e+00
 6.645285908928505e-01	 2.161937800424958e+00	 7.196720063215298e+00
 6.446799019332691e-01	 2.167939401358312e+00	 7.117105188381147e+00
 6.248232139625406e-01	 2.173745493450156e+00	 7.040128922436598e+00
 6.049612278948836e-01	 2.179356669328708e+00	 6.965821110460951e+00
 5.850966207120616e-01	 2.184773567864700e+00	 6.894101022478386e+00
 7.863543294043980e-01	 2.130072369553765e+00	 7.742293862819823e+00
 7.665345577620063e-01	 2.137284805896333e+00	 7.650141050596445e+00
 7.466900368722924e-01	 2.144298419962397e+00	 7.559634915261363e+00
 7.268236017673713e-01	 2.151113511850506e+00	 7.471042656951806e+00
 7.069380694698197e-01	 2.157730432627428e+00	 7.384582904090301e+00
 6.870362379217146e-01	 2.164149583628863e+00	 7.300427088993890e+00
 6.671208849402435e-01	 2.170371415735439e+00	 7.218701536637008e+00
 6.471947672004714e-01	 2.176396428625035e+00	 7.139490210607436e+00
 6.272606192457887e-01	 2.182225170002508e+00	 7.062838056894737e+00
 6.073211525265351e-01	 2.187858234807885e+00	 6.988754883263183e+00
 5.873790544672369e-01	 2.193296264404102e+00	 6.917214221359006e+00
 7.894099400041461e-01	 2.138349391089572e+00	 7.761161386643368e+00
 7.695131528202245e-01	 2.145589853470934e+00	 7.669513831619614e+00
 7.495915202186005e-01	 2.152630720993461e+00	 7.579531479444505e+00
 7.296478882477241e-01	 2.159472294921819e+00	 7.491467647234147e+00
 7.096850848765260e-01	 2.166114927686940e+00	 7.405525705673228e+00
 6.897059189192931e-01	 2.172559022184030e+00	 7.321860612318091e+00
 6.697131789872235e-01	 2.178805031045739e+00	 7.240581180454248e+00
 6.497096324672377e-01	 2.184853455891588e+00	 7.161753025809140e+00
 6.296980245285837e-01	 2.190704846554697e+00	 7.085402129922421e+00
 6.096810771577232e-01	 2.196359800286902e+00	 7.011518956010368e+00
 5.896614882219460e-01	 2.201818960943336e+00	 6.940063050734350e+00
 7.924655506038089e-01	 2.146626412625126e+00	 7.779884342079976e+00
 7.724917478783301e-01	 2.153894901045267e+00	 7.688765906694423e+00
 7.524930035647649e-01	 2.160963022024253e+00	 7.599322560113563e+00
 7.324721747279002e-01	 2.167831077992863e+00	 7.511795019610364e+00
 7.124321002830218e-01	 2.174499422746198e+00	 7.426372564682835e+00
 6.923755999166294e-01	 2.180968460738960e+00	 7.343194730110074e+00
 6.723054730339317e-01	 2.187238646355822e+00	 7.262353757662328e+00
 6.522244977337072e-01	 2.193310483157944e+00	 7.183897746987672e+00
 6.321354298110623e-01	 2.199184523106704e+00	 7.107834442603135e+00
 6.120410017885825e-01	 2.204861365765747e+00	 7.034135590868992e+00
 5.919439219763216e-01	 2.210341657482403e+00	 6.962741798328766e+00
 7.955211612035042e-01	 2.154903434160346e+00	 7.798398777188106e+00
 7.754703429364526e-01	 2.162199948619255e+00	 7.707842339026813e+00
 7.553944869109233e-01	 2.169295323054702e+00	 7.618962430464272e+00
 7.352964612080417e-01	 2.176189861063577e+00	 7.531988400581041e+00
 7.151791156894516e-01	 2.182883917805145e+00	 7.447096550189642e+00
 6.950452809138665e-01	 2.189377899293604e+00	 7.364411986807408e+00
 6.748977670805096e-01	 2.195672261665649e+00	 7.284011262091736e+00
 6.547393630000186e-01	 2.201767510424071e+00	 7.205925730445749e+00
 6.345728350933605e-01	 2.207664199658510e+00	 7.130145563805218e+00
 6.144009264192466e-01	 2.213362931244411e+00	 7.056624354486379e+00
 5.942263557304979e-01	 2.218864354021305e+00	 6.985284235406040e+00
 7.985767718033495e-01	 2.163180455695149e+00	 7.816638180466700e+00
 7.784489379947221e-01	 2.170504996192819e+00	 7.726685576445472e+00
 7.582959702572135e-01	 2.177627624084735e+00	 7.638402702466291e+00
 7.381207476882913e-01	 2.184548644133895e+00	 7.552008720010061e+00
 7.179261310959593e-01	 2.191268412863725e+00	 7.467668010075648e+00
 6.977149619111488e-01	 2.197787337847918e+00	 7.385492192338162e+00
 6.774900611270990e-01	 2.204105876975182e+00	 7.305542951299127e+00
 6.572542282663105e-01	 2.210224537689943e+00	 7.227835606282000e+00
 6.370102403756142e-01	 2.216143876210095e+00	 7.152343358328468e+00
 6.167608510498497e-01	 2.221864496722888e+00	 7.079002143830079e+00
 5.965087894846076e-01	 2.227387050560041e+00	 7.007716022092271e+00
 8.016323824034624e-01	 2.171457477229453e+00	 7.834533529619028e+00
 7.814275330532683e-01	 2.178810043765883e+00	 7.745235497306320e+00
 7.611974536037734e-01	 2.185959925114283e+00	 7.657592370003375e+00
 7.409450341687908e-01	 2.192907427203756e+00	 7.571814251588659e+00
 7.206731465026885e-01	 2.199652907921883e+00	 7.488054608903346e+00
 7.003846429086187e-01	 2.206196776401851e+00	 7.406412457469088e+00
 6.800823551738414e-01	 2.212539492284382e+00	 7.326935379459449e+00
 6.597690935327222e-01	 2.218681564955529e+00	 7.249623308885552e+00
 6.394476456579596e-01	 2.224623552761442e+00	 7.174433015051667e+00
 6.191207756805260e-01	 2.230366062201167e+00	 7.101283212029981e+00
 5.987912232387845e-01	 2.235909747098613e+00	 7.030060219188313e+00
 8.046879930039602e-01	 2.179734498763173e+00	 7.852013340338068e+00
 7.844061281122209e-01	 2.187115091338370e+00	 7.763429456413988e+00
 7.640989369507413e-01	 2.194292226143276e+00	 7.676477852026469e+00
 7.437693206496833e-01	 2.201266210273095e+00	 7.591360653308605e+00
 7.234201619097839e-01	 2.208037402979565e+00	 7.508221365790153e+00
 7.030543239064208e-01	 2.214606214955360e+00	 7.427147229155256e+00
 6.826746492208779e-01	 2.220973107593211e+00	 7.348172430258934e+00
 6.622839587993923e-01	 2.227138592220802e+00	 7.271282107430647e+00
 6.418850509405333e-01	 2.233103229312530e+00	 7.196417075080170e+00
 6.214807003114096e-01	 2.238867627679239e+00	 7.123479194222181e+00
 6.010736569931618e-01	 2.244432443637021e+00	 7.052337311745595e+00
 5.782493194424027e-01	 2.159205478245480e+00	 6.822660295865466e+00
 5.586172158277957e-01	 2.164367656603575e+00	 6.749121197464770e+00
 5.389877401750129e-01	 2.169339230627673e+00	 6.677028444029700e+00
 5.193634634720780e-01	 2.174120966629006e+00	 6.606707647977016e+00
 4.997469295961534e-01	 2.178713673225113e+00	 6.538423143855917e+00
 4.801406545416229e-01	 2.183118200453216e+00	 6.472386637736404e+00
 4.605471256781661e-01	 2.187335438869950e+00	 6.408765493885748e+00
 4.409688010389614e-01	 2.191366318638528e+00	 6.347690623350710e+00
 4.214081086391326e-01	 2.195211808604377e+00	 6.289263942609988e+00
 4.018674458244917e-01	 2.198872915360329e+00	 6.233565374049535e+00
 3.823491786506145e-01	 2.202350682302378e+00	 6.180659363620052e+00
 5.805317531997776e-01	 2.167728174785390e+00	 6.846868164506083e+00
 5.608221588307604e-01	 2.172910729008428e+00	 6.774277450179270e+00
 5.411152027964579e-01	 2.177901926554573e+00	 6.703011573331222e+00
 5.214134662329624e-01	 2.182702536759802e+00	 6.633406894867669e+00
 5.017195030584956e-01	 2.187313371433394e+00	 6.565739381576068e+00
 4.820358391984427e-01	 2.191735283967799e+00	 6.500233474424243e+00
 4.623649718404984e-01	 2.195969168434815e+00	 6.437070581634512e+00
 4.427093687200609e-01	 2.200015958669146e+00	 6.376397160368525e+00
 4.230714674359884e-01	 2.203876627340405e+00	 6.318332354489623e+00
 4.034536747967711e-01	 2.207552185014595e+00	 6.262975159549773e+00
 3.838583661971548e-01	 2.211043679206151e+00	 6.210411089841476e+00
 5.828141869562861e-01	 2.176250871325130e+00	 6.870666608015304e+00
 5.630271018328598e-01	 2.181453801413066e+00	 6.798944294774687e+00
 5.432426654170399e-01	 2.186464622481203e+00	 6.728426975643877e+00
 5.234634689929882e-01	 2.191284106890273e+00	 6.659463044456158e+00
 5.036920765199844e-01	 2.195913069641293e+00	 6.592341452137878e+00
 4.839310238544153e-01	 2.200352367481941e+00	 6.527300795594102e+00
 4.641828180019897e-01	 2.204602897999183e+00	 6.464538018620562e+00
 4.444499364003264e-01	 2.208665598699223e+00	 6.404216687881391e+00
 4.247348262320168e-01	 2.212541446075854e+00	 6.346474810715286e+00
 4.050399037682288e-01	 2.216231454668254e+00	 6.291432165299315e+00
 3.853675537428787e-01	 2.219736676109307e+00	 6.239197117488775e+00
 5.850966207120616e-01	 2.184773567864700e+00	 6.894101022478386e+00
 5.652320448342278e-01	 2.189996873817498e+00	 6.823174361686464e+00
 5.453701280368968e-01	 2.195027318407586e+00	 6.753334586372988e+00
 5.255134717522970e-01	 2.199865677020448e+00	 6.684943333414641e+00
 5.056646499807671e-01	 2.204512767848845e+00	 6.618303816471028e+00
 4.858262085096931e-01	 2.208969450995686e+00	 6.553670137261156e+00
 4.660006641627995e-01	 2.213236627563107e+00	 6.491256195872228e+00
 4.461905040799235e-01	 2.217315238728811e+00	 6.431244162335558e+00
 4.263981850273895e-01	 2.221206264810776e+00	 6.373792475515953e+00
 4.066261327390430e-01	 2.224910724321361e+00	 6.319043339222896e+00
 3.868767412879703e-01	 2.228429673011896e+00	 6.267129689327992e+00
 5.873790544672369e-01	 2.193296264404102e+00	 6.917214221359006e+00
 5.674369878349996e-01	 2.198539946221737e+00	 6.847017889839639e+00
 5.474975906561652e-01	 2.203590014333742e+00	 6.777792129179182e+00
 5.275634745110304e-01	 2.208447247150357e+00	 6.709912955216152e+00
 5.076372234409896e-01	 2.213112466056087e+00	 6.643699049769814e+00
 4.877213931644295e-01	 2.217586534509080e+00	 6.579421296233495e+00
 4.678185103230870e-01	 2.221870357126636e+00	 6.517311900960872e+00
 4.479310717590181e-01	 2.225964878757965e+00	 6.457573061858104e+00
 4.280615438222796e-01	 2.229871083545230e+00	 6.400385149507710e+00
 4.082123617093930e-01	 2.233589993973973e+00	 6.345914370097247e+00
 3.883859288326132e-01	 2.237122669913967e+00	 6.294319883402394e+00
 5.896614882219460e-01	 2.201818960943336e+00	 6.940063050734350e+00
 5.696419308353097e-01	 2.207083018625792e+00	 6.870522712316023e+00
 5.496250532749830e-01	 2.212152710259691e+00	 6.801855102433255e+00
 5.296134772693294e-01	 2.217028817280029e+00	 6.734435047516637e+00
 5.096097969007990e-01	 2.221712164263061e+00	 6.668597829925629e+00
 4.896165778187765e-01	 2.226203618022165e+00	 6.604632319706611e+00
 4.696363564830114e-01	 2.230504086689820e+00	 6.542790308854347e+00
 4.496716394377758e-01	 2.234614518786735e+00	 6.483295378456839e+00
 4.297249026168588e-01	 2.238535902279266e+00	 6.426351263310992e+00
 4.097985906794562e-01	 2.242269263626135e+00	 6.372149682645176e+00
 3.898951163769912e-01	 2.245815666815570e+00	 6.320877609651212e+00
 5.919439219763216e-01	 2.210341657482403e+00	 6.962741798328766e+00
 5.718468738352918e-01	 2.215626091029676e+00	 6.893734242029326e+00
 5.517525158934872e-01	 2.220715406185453e+00	 6.825576765680935e+00
 5.316634800273360e-01	 2.225610387409493e+00	 6.758570679541477e+00
 5.115823703603422e-01	 2.230311862469800e+00	 6.693068925957935e+00
 4.915117624728872e-01	 2.234820701534987e+00	 6.629379494845799e+00
 4.714542026427314e-01	 2.239137816252708e+00	 6.567774972747898e+00
 4.514122071163629e-01	 2.243264158815177e+00	 6.508501610180970e+00
 4.313882614112995e-01	 2.247200721012941e+00	 6.451787871112893e+00
 4.113848196494116e-01	 2.250948533277908e+00	 6.397852432557039e+00
 3.914043039212879e-01	 2.254508663716754e+00	 6.346911606435636e+00
 5.942263557304979e-01	 2.218864354021305e+00	 6.985284235406040e+00
 5.740518168350808e-01	 2.224169163433397e+00	 6.916695457410803e+00
 5.538799785118151e-01	 2.229278102111049e+00	 6.849008126115720e+00
 5.337134827851910e-01	 2.234191957538781e+00	 6.782378839477965e+00
 5.135549438197654e-01	 2.238911560676342e+00	 6.717179186443055e+00
 4.934069471269141e-01	 2.243437785047590e+00	 6.653737338358519e+00
 4.732720488024067e-01	 2.247771545815349e+00	 6.592347814872171e+00
 4.531527747949448e-01	 2.251913798843344e+00	 6.533280753246935e+00
 4.330516202057744e-01	 2.255865539746309e+00	 6.476790644178004e+00
 4.129710486194372e-01	 2.259627802929341e+00	 6.423124501443054e+00
 3.929134914656874e-01	 2.263201660617569e+00	 6.372529436976279e+00
 5.965087894846076e-01	 2.227387050560041e+00	 7.007716022092271e+00
 5.762567598348114e-01	 2.232712235836967e+00	 6.939446888103285e+00
 5.560074411301041e-01	 2.237840798036500e+00	 6.872197925061413e+00
 5.357634855430367e-01	 2.242773527667920e+00	 6.805916421872316e+00
 5.155275172792155e-01	 2.247511258882727e+00	 6.740993527942248e+00
 4.953021317810100e-01	 2.252054868560018e+00	 6.677778586055886e+00
 4.750898949621962e-01	 2.256405275377793e+00	 6.616589117279750e+00
 4.548933424736874e-01	 2.260563438871286e+00	 6.557720294127343e+00
 4.347149790004553e-01	 2.264530358479424e+00	 6.501453864307340e+00
 4.145572775897117e-01	 2.268307072580489e+00	 6.448066491716438e+00
 3.944226790103732e-01	 2.271894657518064e+00	 6.397837485702997e+00
 5.987912232387845e-01	 2.235909747098613e+00	 7.030060219188313e+00
 5.784617028346182e-01	 2.241255308240398e+00	 6.962026600664229e+00
 5.581349037484914e-01	 2.246403493961826e+00	 6.895192624461665e+00
 5.378134883010135e-01	 2.251355097796938e+00	 6.829238215031785e+00
 5.175000907388394e-01	 2.256110957088990e+00	 6.764574923428018e+00
 4.971973164353277e-01	 2.260671952072315e+00	 6.701574182404000e+00
 4.769077411222592e-01	 2.265039004940090e+00	 6.640577512609324e+00
 4.566339101527566e-01	 2.269213078899059e+00	 6.581906201605976e+00
 4.363783377955150e-01	 2.273195177212341e+00	 6.525870417247891e+00
 4.161435065604135e-01	 2.276986342231405e+00	 6.472777721410448e+00
 3.959318665555291e-01	 2.280587654418289e+00	 6.422940954520508e+00
 6.010736569931618e-01	 2.244432443637021e+00	 7.052337311745595e+00
 5.806666458346349e-01	 2.249798380643699e+00	 6.984470184277788e+00
 5.602623663671141e-01	 2.254966189887047e+00	 6.918036393378857e+00
 5.398634910592640e-01	 2.259936667925870e+00	 6.852396888431316e+00
 5.194726641987837e-01	 2.264710655295170e+00	 6.787984390709349e+00
 4.990925010900198e-01	 2.269289035584527e+00	 6.725193270065319e+00
 4.787255872827550e-01	 2.273672734502291e+00	 6.664389974830248e+00
 4.583744778323183e-01	 2.277862718926716e+00	 6.605922918798806e+00
 4.380416965911256e-01	 2.281859995945114e+00	 6.550131786053822e+00
 4.177297355317209e-01	 2.285665611882142e+00	 6.497356218930813e+00
 3.974410541013390e-01	 2.289280651318292e+00	 6.447943858991860e+00
 3.823491786506145e-01	 2.202350682302378e+00	 6.180659363620054e+00
 3.628523302823573e-01	 2.205646733239143e+00	 6.130670330184124e+00
 3.433825281487635e-01	 2.208761574701650e+00	 6.083484668067813e+00
 3.239420471692807e-01	 2.211696353730531e+00	 6.038782405088464e+00
 3.045331286623382e-01	 2.214452250366265e+00	 5.996256270319096e+00
 2.851579798744769e-01	 2.217030476671454e+00	 5.955615719189145e+00
 2.658187735393538e-01	 2.219432275749678e+00	 5.916590389939853e+00
 2.465176474664039e-01	 2.221658920761856e+00	 5.878932991004294e+00
 2.272567041589152e-01	 2.223711713941045e+00	 5.842421621995146e+00
 2.080380104612432e-01	 2.225591985606564e+00	 5.806861533962036e+00
 1.888635972348596e-01	 2.227301093178355e+00	 5.772086337415290e+00
 3.838583661971548e-01	 2.211043679206151e+00	 6.210411089841478e+00
 3.642845609462932e-01	 2.214352740133107e+00	 6.160797510530069e+00
 3.447379086855124e-01	 2.217479876325829e+00	 6.114014679730308e+00
 3.252206933137017e-01	 2.220426239352480e+00	 6.069709037341267e+00
 3.057351649961038e-01	 2.223193013911316e+00	 6.027542792720800e+00
 2.862835396915866e-01	 2.225781416849120e+00	 5.987198084627407e+00
 2.668679987099064e-01	 2.228192696176171e+00	 5.948380553688852e+00
 2.474906882987467e-01	 2.230428130078733e+00	 5.910822327005360e+00
 2.281537192602854e-01	 2.232489025929950e+00	 5.874284417689289e+00
 2.088591665970166e-01	 2.234376719300101e+00	 5.838558545200801e+00
 1.896090691865213e-01	 2.236092572967051e+00	 5.803468385246083e+00
 3.853675537428787e-01	 2.219736676109307e+00	 6.239197117488775e+00
 3.657167916094172e-01	 2.223058747026457e+00	 6.189960059657654e+00
 3.460932892214530e-01	 2.226198177949418e+00	 6.143593944029372e+00
 3.264993394573170e-01	 2.229156124973871e+00	 6.099711624696706e+00
 3.069372013290657e-01	 2.231933777455859e+00	 6.057944851561187e+00
 2.874090995078942e-01	 2.234532357026339e+00	 6.017948567387565e+00
 2.679172238796579e-01	 2.236953116602290e+00	 5.979404598210864e+00
 2.484637291302891e-01	 2.239197339395315e+00	 5.942024736742852e+00
 2.290507343608555e-01	 2.241266337918653e+00	 5.905553221703592e+00
 2.096803227319902e-01	 2.243161452993535e+00	 5.869768619134653e+00
 1.903545411373831e-01	 2.244884052755747e+00	 5.834485114737547e+00
 3.868767412879703e-01	 2.228429673011896e+00	 6.267129689327992e+00
 3.671490222719179e-01	 2.231764753919240e+00	 6.218274695268165e+00
 3.474486697567771e-01	 2.234916479572446e+00	 6.172342519327049e+00
 3.277779856003216e-01	 2.237886010594730e+00	 6.128912397570625e+00
 3.081392376614210e-01	 2.240674540999905e+00	 6.087585648459067e+00
 2.885346593235978e-01	 2.243283297203106e+00	 6.047990109327954e+00
 2.689664490488076e-01	 2.245713537028013e+00	 6.009783946697001e+00
 2.494367699612307e-01	 2.247966548711565e+00	 5.972658840096328e+00
 2.299477494608254e-01	 2.250043649907096e+00	 5.936342542453956e+00
 2.105014788663636e-01	 2.251946186686789e+00	 5.900600823308096e+00
 1.911000130876450e-01	 2.253675532544351e+00	 5.865238804164899e+00
 3.883859288326132e-01	 2.237122669913967e+00	 6.294319883402395e+00
 3.685812529339829e-01	 2.240470760811494e+00	 6.245857059134674e+00
 3.488040502916766e-01	 2.243634781194952e+00	 6.200379475349990e+00
 3.290566317429092e-01	 2.246615896215075e+00	 6.157432683391809e+00
 3.093412739933658e-01	 2.249415304543459e+00	 6.116587565914870e+00
 2.896602191388955e-01	 2.252034237379413e+00	 6.077444915154644e+00
 2.700156742175540e-01	 2.254473957453314e+00	 6.039639365143729e+00
 2.504098107917710e-01	 2.256735758027442e+00	 6.002842677603551e+00
 2.308447645603949e-01	 2.258820961895221e+00	 5.966766384681628e+00
 2.113226350003370e-01	 2.260730920379785e+00	 5.931163795004273e+00
 1.918454850375068e-01	 2.262467012332769e+00	 5.895831372648400e+00
 3.898951163769912e-01	 2.245815666815570e+00	 6.320877609651213e+00
 3.700134835958010e-01	 2.249176767703266e+00	 6.272821715196830e+00
 3.501594308263428e-01	 2.252353082816968e+00	 6.227822892628779e+00
 3.303352778852750e-01	 2.255345781834930e+00	 6.185392907243410e+00
 3.105433103250967e-01	 2.258156068086532e+00	 6.145072169008984e+00
 2.907857789539853e-01	 2.260785177555253e+00	 6.106434455030058e+00
 2.710648993860964e-01	 2.263234377878171e+00	 6.069090965716030e+00
 2.513828516221095e-01	 2.265504967342905e+00	 6.032693714420184e+00
 2.317417796597639e-01	 2.267598273882971e+00	 5.996938253847113e+00
 2.121437911341104e-01	 2.269515654072454e+00	 5.961565745907622e+00
 1.925909569871686e-01	 2.271258492120908e+00	 5.926364384915030e+00
 3.914043039212879e-01	 2.254508663716754e+00	 6.346911606435636e+00
 3.714457142575599e-01	 2.257882774594598e+00	 6.299282147547147e+00
 3.515148113609678e-01	 2.261071384438524e+00	 6.254789861809078e+00
 3.316139240276131e-01	 2.264075667454317e+00	 6.212912592363582e+00
 3.117453466568103e-01	 2.266896831629129e+00	 6.173160206950058e+00
 2.919113387690648e-01	 2.269536117730618e+00	 6.135079467020640e+00
 2.721141245546337e-01	 2.271994798302562e+00	 6.098258209945091e+00
 2.523558924524459e-01	 2.274274176657915e+00	 6.062328844112790e+00
 2.326387947591321e-01	 2.276375585870287e+00	 6.026971160358414e+00
 2.129649472678835e-01	 2.278300387764714e+00	 5.991914466603971e+00
 1.933364289368304e-01	 2.280049971908675e+00	 5.956939055903476e+00
 3.929134914656874e-01	 2.263201660617569e+00	 6.372529436976279e+00
 3.728779449194480e-01	 2.266588781485531e+00	 6.325350758307374e+00
 3.528701918957430e-01	 2.269789686059657e+00	 6.281396482839155e+00
 3.328925701701180e-01	 2.272805553073256e+00	 6.240110360508167e+00
 3.129473829887030e-01	 2.275637595171260e+00	 6.200971614474388e+00
 2.930368985843323e-01	 2.278287057905504e+00	 6.163499959389786e+00
 2.731633497233648e-01	 2.280755218726461e+00	 6.127259911765607e+00
 2.533289332829796e-01	 2.283043385972431e+00	 6.091864392287477e+00
 2.335358098586995e-01	 2.285152897857111e+00	 6.056977623636250e+00
 2.137861034018567e-01	 2.287085121456493e+00	 6.022317330921851e+00
 1.940819008866921e-01	 2.288841451695976e+00	 5.987656255217528e+00
 3.944226790103732e-01	 2.271894657518064e+00	 6.397837485702997e+00
 3.743101755816536e-01	 2.275294788376108e+00	 6.351138865401282e+00
 3.542255724308606e-01	 2.278507987680400e+00	 6.307757864037113e+00
 3.341712163129843e-01	 2.281535438691769e+00	 6.267103932181103e+00
 3.141494193209712e-01	 2.284378358712934e+00	 6.228625513101893e+00
 2.941624583999858e-01	 2.287037998079902e+00	 6.191815212738128e+00
 2.742125748924886e-01	 2.289515639149848e+00	 6.156214240395636e+00
 2.543019741139103e-01	 2.291812595286413e+00	 6.121416120060941e+00
 2.344328249586660e-01	 2.293930209843388e+00	 6.087069676021406e+00
 2.146072595362296e-01	 2.295869855147714e+00	 6.052881300119335e+00
 1.948273728369537e-01	 2.297632931482718e+00	 6.018616511431901e+00
 3.959318665555291e-01	 2.280587654418289e+00	 6.422940954520508e+00
 3.757424062443647e-01	 2.284000795266373e+00	 6.376756700224399e+00
 3.555809529665118e-01	 2.287226289300784e+00	 6.333988121040412e+00
 3.354498624564063e-01	 2.290265324309880e+00	 6.294010126733540e+00
 3.153514556538118e-01	 2.293119122254156e+00	 6.256240212251384e+00
 2.952880182162232e-01	 2.295788938253804e+00	 6.220143781996713e+00
 2.752618000622042e-01	 2.298276059572699e+00	 6.185238723064885e+00
 2.552750149454373e-01	 2.300581804599820e+00	 6.151099227376221e+00
 2.353298400592313e-01	 2.302707521829055e+00	 6.117358866528233e+00
 2.154284156712022e-01	 2.304654588838302e+00	 6.083712926920889e+00
 1.955728447878152e-01	 2.306424411268809e+00	 6.049920016253816e+00
 3.974410541013390e-01	 2.289280651318292e+00	 6.447943858991859e+00
 3.771746369077695e-01	 2.292706802156369e+00	 6.402313405215141e+00
 3.569363335028887e-01	 2.295944590920846e+00	 6.360200375641371e+00
 3.367285086005786e-01	 2.298995209927609e+00	 6.320944862337682e+00
 3.165534919874212e-01	 2.301859885794940e+00	 6.283933210219958e+00
 2.964135780332426e-01	 2.304539878427208e+00	 6.248603498276287e+00
 2.763110252327106e-01	 2.307036479994991e+00	 6.214450247594123e+00
 2.562480557777606e-01	 2.309351013912615e+00	 6.181028356168306e+00
 2.362268551605955e-01	 2.311484833814059e+00	 6.147956264448299e+00
 2.162495718069747e-01	 2.313439322528182e+00	 6.114918359407564e+00
 1.963183167394766e-01	 2.315215891054156e+00	 6.081666628545590e+00
 1.888635972348596e-01	 2.227301093178355e+00	 5.772086337415288e+00
 1.697386989461173e-01	 2.228840172817007e+00	 5.739078751988586e+00
 1.506619724293075e-01	 2.230210937148586e+00	 5.708959370127253e+00
 1.316352944638852e-01	 2.231414817817765e+00	 5.681827477566847e+00
 1.126605060445370e-01	 2.232453269611154e+00	 5.657807461397486e+00
 9.373941219014767e-02	 2.233327769499624e+00	 5.637047164051951e+00
 7.487378177835993e-02	 2.234039815685173e+00	 5.619715799586631e+00
 5.606534740530249e-02	 2.234590926653027e+00	 5.606001455959593e+00
 3.731580527004347e-02	 2.234982640229672e+00	 5.596108208407626e+00
 1.862681508331029e-02	 2.235216512647499e+00	 5.590252870237213e+00
 0.000000000000000e+00	 2.235294117616666e+00	 5.588661408149675e+00
 1.896090691865213e-01	 2.236092572967051e+00	 5.803468385246083e+00
 1.704086821563501e-01	 2.237637727575971e+00	 5.770003445428306e+00
 1.512566570391123e-01	 2.239013902512914e+00	 5.739307156113471e+00
 1.321548780221677e-01	 2.240222535073460e+00	 5.711498528316823e+00
 1.131051933668601e-01	 2.241265085786478e+00	 5.686725193144190e+00
 9.410941521672982e-02	 2.242143037452657e+00	 5.665161689170006e+00
 7.516931943142079e-02	 2.242857894187619e+00	 5.647007297670041e+00
 5.628664544585469e-02	 2.243411180470268e+00	 5.632483450091393e+00
 3.746309615422838e-02	 2.243804440197124e+00	 5.621830733569143e+00
 1.870033781837339e-02	 2.244039235743249e+00	 5.615305521553102e+00
 0.000000000000000e+00	 2.244117147030466e+00	 5.613176257437350e+00
 1.903545411373831e-01	 2.244884052755747e+00	 5.834485114737549e+00
 1.710786653657838e-01	 2.246435282335047e+00	 5.800700477806203e+00
 1.518513416481237e-01	 2.247816867877463e+00	 5.769579171947034e+00
 1.326744615796724e-01	 2.249030252329490e+00	 5.741255616233326e+00
 1.135498806884355e-01	 2.250076901962240e+00	 5.715896598078102e+00
 9.447941824261366e-02	 2.250958305406227e+00	 5.693699495013959e+00
 7.546485708385678e-02	 2.251675972690686e+00	 5.674890029356070e+00
 5.650794348588412e-02	 2.252231434288208e+00	 5.659719580818375e+00
 3.761038703802571e-02	 2.252626240165328e+00	 5.648462083627045e+00
 1.877386055322171e-02	 2.252861958839786e+00	 5.641410535951509e+00
 0.000000000000000e+00	 2.252940176445066e+00	 5.638873150342739e+00
 1.911000130876450e-01	 2.253675532544351e+00	 5.865238804164899e+00
 1.717486485746180e-01	 2.255232837094122e+00	 5.831264600903553e+00
 1.524460262565400e-01	 2.256619833242108e+00	 5.799862553831240e+00
 1.331940451365936e-01	 2.257837969585706e+00	 5.771178215504071e+00
 1.139945680094499e-01	 2.258888718138283e+00	 5.745393485456167e+00
 9.484942126797379e-02	 2.259773573360162e+00	 5.722724767369488e+00
 7.576039473582419e-02	 2.260494051194198e+00	 5.703420643614276e+00
 5.672924152552148e-02	 2.261051688106654e+00	 5.687759092938199e+00
 3.775767792153237e-02	 2.261448040134089e+00	 5.676044278591786e+00
 1.884738328790895e-02	 2.261684681936912e+00	 5.668602935497250e+00
 0.000000000000000e+00	 2.261763205860265e+00	 5.665780385957743e+00
 1.918454850375068e-01	 2.262467012332769e+00	 5.895831372648400e+00
 1.724186317830527e-01	 2.264030391853086e+00	 5.861790266360586e+00
 1.530407108645597e-01	 2.265422798606721e+00	 5.830244174422701e+00
 1.337136286931259e-01	 2.266645686841974e+00	 5.801345550081333e+00
 1.144392553300906e-01	 2.267700534314453e+00	 5.775287403502230e+00
 9.521942429298476e-02	 2.268588841314297e+00	 5.752301395292274e+00
 7.605593238747917e-02	 2.269312129697973e+00	 5.732655431336645e+00
 5.695053956489744e-02	 2.269871941925420e+00	 5.716650785450938e+00
 3.790496880484522e-02	 2.270269840103212e+00	 5.704618777905067e+00
 1.892090602248878e-02	 2.270507405034428e+00	 5.696917039217902e+00
 0.000000000000000e+00	 2.270586235275865e+00	 5.693925389560612e+00
 1.925909569871686e-01	 2.271258492120908e+00	 5.926364384915030e+00
 1.730886149912876e-01	 2.272827946611831e+00	 5.892371630550620e+00
 1.536353954723810e-01	 2.274225763971177e+00	 5.860810648027960e+00
 1.342332122494638e-01	 2.275453404098145e+00	 5.831836599426874e+00
 1.148839426505443e-01	 2.276512350490592e+00	 5.805649645937962e+00
 9.558942731782116e-02	 2.277404109268463e+00	 5.782492978675062e+00
 7.635147003897792e-02	 2.278130208201834e+00	 5.762650334199316e+00
 5.717183760414270e-02	 2.278692195744318e+00	 5.746443021993652e+00
 3.805225968806117e-02	 2.279091640072504e+00	 5.734226492731114e+00
 1.899442875701491e-02	 2.279330128132136e+00	 5.726386477550218e+00
 0.000000000000000e+00	 2.279409264691664e+00	 5.723334729527783e+00
 1.933364289368304e-01	 2.280049971908675e+00	 5.956939055903476e+00
 1.737585981995224e-01	 2.281625501370243e+00	 5.923102559304627e+00
 1.542300800802022e-01	 2.283028729335347e+00	 5.891648335653437e+00
 1.347527958058015e-01	 2.284261121354082e+00	 5.862730104103168e+00
 1.153286299709979e-01	 2.285324166666546e+00	 5.836551258345623e+00
 9.595943034265751e-02	 2.286219377222491e+00	 5.813362835625943e+00
 7.664700769047661e-02	 2.286948286705600e+00	 5.793460953313075e+00
 5.739313564338794e-02	 2.287512449563160e+00	 5.777183741027766e+00
 3.819955057127708e-02	 2.287913440041769e+00	 5.764907797962531e+00
 1.906795149154102e-02	 2.288152851229837e+00	 5.757044206452282e+00
 0.000000000000000e+00	 2.288232294107464e+00	 5.754034133854205e+00
 1.940819008866921e-01	 2.288841451695976e+00	 5.987656255217528e+00
 1.744285814079569e-01	 2.290423056128214e+00	 5.954076632488576e+00
 1.548247646882218e-01	 2.291831694699106e+00	 5.922843349905632e+00
 1.352723793623337e-01	 2.293068838609642e+00	 5.894104571211462e+00
 1.157733172916385e-01	 2.294135982842159e+00	 5.868063044368574e+00
 9.632943336766836e-02	 2.295034645176212e+00	 5.844974009665474e+00
 7.694254534213150e-02	 2.295766365209097e+00	 5.825142557667052e+00
 5.761443368276380e-02	 2.296332703381759e+00	 5.808920465788988e+00
 3.834684145458987e-02	 2.296735240010814e+00	 5.796702543945718e+00
 1.914147422612082e-02	 2.296975574327333e+00	 5.788922521190144e+00
 0.000000000000000e+00	 2.297055323523064e+00	 5.786048506292994e+00
 1.948273728369537e-01	 2.297632931482718e+00	 6.018616511431903e+00
 1.750985646167911e-01	 2.299220610885635e+00	 5.985387148439646e+00
 1.554194492966379e-01	 2.300634660062328e+00	 5.954481559753275e+00
 1.357919629192548e-01	 2.301876555864683e+00	 5.926038279683231e+00
 1.162180046126528e-01	 2.302947799017273e+00	 5.900255571750935e+00
 9.669943639302830e-02	 2.303849913129458e+00	 5.877389276747346e+00
 7.723808299409873e-02	 2.304584443712136e+00	 5.857750092369756e+00
 5.783573172240101e-02	 2.305152957199925e+00	 5.841700314003030e+00
 3.849413233809643e-02	 2.305557039979444e+00	 5.829650067937033e+00
 1.921499696080799e-02	 2.305798297424425e+00	 5.822053069807010e+00
 0.000000000000000e+00	 2.305878352938263e+00	 5.819401942124223e+00
 1.955728447878152e-01	 2.306424411268809e+00	 6.049920016253816e+00
 1.757685478262243e-01	 2.308018165642391e+00	 6.017127128263807e+00
 1.560141339056490e-01	 2.309437625424884e+00	 5.986648595148160e+00
 1.363115464767591e-01	 2.310684273119061e+00	 5.958609285428065e+00
 1.166626919342278e-01	 2.311759615191734e+00	 5.933199178223788e+00
 9.706943941891187e-02	 2.312665181082062e+00	 5.910671152106538e+00
 7.753362064653452e-02	 2.313402522214548e+00	 5.891338186695036e+00
 5.805702976243027e-02	 2.313973211017472e+00	 5.875570007376979e+00
 3.864142322189361e-02	 2.314378839947464e+00	 5.863789205294516e+00
 1.928851969565624e-02	 2.314621020520913e+00	 5.856466866284027e+00
 0.000000000000000e+00	 2.314701382352864e+00	 5.854117743563742e+00
 1.963183167394766e-01	 2.315215891054156e+00	 6.081666628545592e+00
 1.764385310364568e-01	 2.316815720398379e+00	 6.049389319998467e+00
 1.566088185154535e-01	 2.318240590786652e+00	 6.019429851513381e+00
 1.368311300350413e-01	 2.319491990372638e+00	 5.991895426341132e+00
 1.171073792565506e-01	 2.320571431365386e+00	 5.966963977240832e+00
 9.743944244549368e-02	 2.321480449033855e+00	 5.944881896939594e+00
 7.782915829959509e-02	 2.322220600716149e+00	 5.925961161938174e+00
 5.827832780298224e-02	 2.322793464834211e+00	 5.910575880867528e+00
 3.878871410607834e-02	 2.323200639914681e+00	 5.899158300411928e+00
 1.936204243071925e-02	 2.323443743616602e+00	 5.892194303400908e+00
 0.000000000000000e+00	 2.323524411766664e+00	 5.890218434820469e+00
 2.323524411766664e+00	 0.000000000000000e+00	 1.169305432232517e+01
 2.323443743616602e+00	 1.936204243071796e-02	 1.169911465160093e+01
 2.323200639914680e+00	 3.878871410607723e-02	 1.170475247330371e+01
 2.322793464834211e+00	 5.827832780298133e-02	 1.171005910740225e+01
 2.322220600716149e+00	 7.782915829959436e-02	 1.171512244513199e+01
 2.321480449033855e+00	 9.743944244549314e-02	 1.172002590639676e+01
 2.320571431365386e+00	 1.171073792565502e-01	 1.172484748929995e+01
 2.319491990372638e+00	 1.368311300350412e-01	 1.172965891944256e+01
 2.318240590786651e+00	 1.566088185154535e-01	 1.173452490674297e+01
 2.316815720398378e+00	 1.764385310364570e-01	 1.173950251760988e+01
 2.315215891054155e+00	 1.963183167394767e-01	 1.174464067036688e+01
 2.332348940767776e+00	 0.000000000000000e+00	 1.167751316962775e+01
 2.332267966247539e+00	 1.943557766217617e-02	 1.168396917288091e+01
 2.332023939260249e+00	 3.893603002471444e-02	 1.168994830990750e+01
 2.331615217766517e+00	 5.849966345662133e-02	 1.169554640927138e+01
 2.331040177963597e+00	 7.812474618384858e-02	 1.170085433711552e+01
 2.330297215253816e+00	 9.780950835971168e-02	 1.170595691367328e+01
 2.329384745220547e+00	 1.175521421601332e-01	 1.171093192384079e+01
 2.328301204611078e+00	 1.373508019042064e-01	 1.171584922955796e+01
 2.327045052325661e+00	 1.572036042005578e-01	 1.172076999186459e+01
 2.325614770412040e+00	 1.771086281199704e-01	 1.172574601057727e+01
 2.324008865064697e+00	 1.970639153947111e-01	 1.173081918960122e+01
 2.341173467267554e+00	 0.000000000000000e+00	 1.166425366663442e+01
 2.341092186377230e+00	 1.950911287302710e-02	 1.167084229960133e+01
 2.340847236104838e+00	 3.908334590202416e-02	 1.167693067992454e+01
 2.340436968198291e+00	 5.872099904810694e-02	 1.168261617978111e+01
 2.339859752711145e+00	 7.842033398502124e-02	 1.168798948603673e+01
 2.339113978974688e+00	 9.817957416982777e-02	 1.169313347542579e+01
 2.338198056577620e+00	 1.179969049385057e-01	 1.169812218593771e+01
 2.337110416352620e+00	 1.378704736269727e-01	 1.170301989227307e+01
 2.335849511369155e+00	 1.577983897180010e-01	 1.170788029335202e+01
 2.334413817931758e+00	 1.777787250144939e-01	 1.171274581993985e+01
 2.332801836583068e+00	 1.978095138395674e-01	 1.171764707052378e+01
 2.349997988765666e+00	 0.000000000000000e+00	 1.165331166594179e+01
 2.349916401505432e+00	 1.958264804239493e-02	 1.165977192801593e+01
 2.349670527948471e+00	 3.923066169619430e-02	 1.166573787677424e+01
 2.349258713629998e+00	 5.894233451463022e-02	 1.167130549330569e+01
 2.348679322459877e+00	 7.871592161924970e-02	 1.167656216268169e+01
 2.347930737698365e+00	 9.854963977086598e-02	 1.168158550737633e+01
 2.347011362939482e+00	 1.184416674655224e-01	 1.168644231925106e+01
 2.345919623101312e+00	 1.383901450559685e-01	 1.169118759808694e+01
 2.344653965422533e+00	 1.583931748991300e-01	 1.169586370476927e+01
 2.343212860464476e+00	 1.784488215300385e-01	 1.170049963731164e+01
 2.341594803117931e+00	 1.985551118626670e-01	 1.170511043797927e+01
 2.358822502761778e+00	 0.000000000000000e+00	 1.164411098072225e+01
 2.358740609131898e+00	 1.965618314940383e-02	 1.165025587246975e+01
 2.358493812291163e+00	 3.937797736541278e-02	 1.165596206449718e+01
 2.358080451562100e+00	 5.916366979338318e-02	 1.166130992550924e+01
 2.357498884710881e+00	 7.901150900267125e-02	 1.166636904927706e+01
 2.356747488926737e+00	 9.891970505785086e-02	 1.167119813091762e+01
 2.355824661809015e+00	 1.188864296150379e-01	 1.167584487409008e+01
 2.354728822361202e+00	 1.389098160438223e-01	 1.168034593028061e+01
 2.353458411991198e+00	 1.589879595752919e-01	 1.168472687142297e+01
 2.352011895517132e+00	 1.791189174766153e-01	 1.168900581348346e+01
 2.350387762177955e+00	 1.993007092526315e-01	 1.169319625486077e+01
 2.367647006755555e+00	 0.000000000000000e+00	 1.163470925736508e+01
 2.367564806756384e+00	 1.972971817317799e-02	 1.164052919530238e+01
 2.367317086632938e+00	 3.952529286786756e-02	 1.164599967712069e+01
 2.366902179495063e+00	 5.938500482155783e-02	 1.165118088247956e+01
 2.366318436965246e+00	 7.930709605142312e-02	 1.165612053199844e+01
 2.365564230161695e+00	 9.928976992580693e-02	 1.166085375281356e+01
 2.364637950689095e+00	 1.193311912609068e-01	 1.166540297663223e+01
 2.363538011636338e+00	 1.394294864431625e-01	 1.166977787149203e+01
 2.362262848580552e+00	 1.595827435778335e-01	 1.167397530850946e+01
 2.360810920596668e+00	 1.797890126642353e-01	 1.167797936495932e+01
 2.359180711271804e+00	 2.000463057980825e-01	 1.168176136509079e+01
 2.376471498246666e+00	 0.000000000000000e+00	 1.162496561988072e+01
 2.376388991878643e+00	 1.980325309284157e-02	 1.163046058072202e+01
 2.376140348473815e+00	 3.967260816174652e-02	 1.163571347442908e+01
 2.375723894929350e+00	 5.960633953634623e-02	 1.164076126512844e+01
 2.375137976724059e+00	 7.960268268164264e-02	 1.164562660264541e+01
 2.374380958905133e+00	 9.965983426975876e-02	 1.165031767723043e+01
 2.373451227082600e+00	 1.197759522769838e-01	 1.165482810856126e+01
 2.372347188430767e+00	 1.399491561066176e-01	 1.165913687027018e+01
 2.371067272695995e+00	 1.601775267381020e-01	 1.166320825132154e+01
 2.369609933210024e+00	 1.804591069029094e-01	 1.166699185562255e+01
 2.367973647908145e+00	 2.007919012876414e-01	 1.167042264131530e+01
 2.385295974734777e+00	 0.000000000000000e+00	 1.161488683239917e+01
 2.385213161998431e+00	 1.987678788751876e-02	 1.162006022940956e+01
 2.384963595313815e+00	 3.981992320523760e-02	 1.162511543963171e+01
 2.384545595365426e+00	 5.982767387494037e-02	 1.163006321388071e+01
 2.383957501488406e+00	 7.989826880946704e-02	 1.163489796362471e+01
 2.383197672658942e+00	 1.000298979847308e-01	 1.163959760478170e+01
 2.382264488492409e+00	 1.202207125371235e-01	 1.164412343776749e+01
 2.381156350248538e+00	 1.404688248868162e-01	 1.164842006509008e+01
 2.379871681842928e+00	 1.607723088874440e-01	 1.165241534786174e+01
 2.378408930864142e+00	 1.811292000026486e-01	 1.165602040265704e+01
 2.376766569595645e+00	 2.015374955099300e-01	 1.165912964021158e+01
 2.394120433719554e+00	 0.000000000000000e+00	 1.160447968527240e+01
 2.394037314615504e+00	 1.995032253633372e-02	 1.160933832859259e+01
 2.393786824652957e+00	 3.996723795652874e-02	 1.161421752601181e+01
 2.393367278303754e+00	 6.004900777453227e-02	 1.161909884550666e+01
 2.392777008759376e+00	 8.019385435103364e-02	 1.162394532223012e+01
 2.392014368925014e+00	 1.003999609657477e-01	 1.162870129128875e+01
 2.391077732421400e+00	 1.206654719151807e-01	 1.163329225894168e+01
 2.389965494593699e+00	 1.409884926363867e-01	 1.163762481356791e+01
 2.388676073526756e+00	 1.613670898572067e-01	 1.164158657782254e+01
 2.387207911065962e+00	 1.817992917734640e-01	 1.164504620346129e+01
 2.385559473842969e+00	 2.022830882535698e-01	 1.164785341037741e+01
 2.402944872700665e+00	 0.000000000000000e+00	 1.159375099464471e+01
 2.402861447229616e+00	 2.002385701841063e-02	 1.159830505234594e+01
 2.402610033991262e+00	 4.011455237380784e-02	 1.160303165750278e+01
 2.402188941244798e+00	 6.027034117231397e-02	 1.160788025352773e+01
 2.401596496038056e+00	 8.048943922247974e-02	 1.161277939043942e+01
 2.400831045205240e+00	 1.007700231078340e-01	 1.161763654653921e+01
 2.399890956372451e+00	 1.211102302850098e-01	 1.162233799087443e+01
 2.398774618970295e+00	 1.415081592079575e-01	 1.162674868788986e+01
 2.397480445252878e+00	 1.619618694787370e-01	 1.163071224574328e+01
 2.396006871322424e+00	 1.824693820253664e-01	 1.163405090981783e+01
 2.394352358158783e+00	 2.030286793071823e-01	 1.163656560303045e+01
 2.411769289177776e+00	 0.000000000000000e+00	 1.158270760203224e+01
 2.411685557340520e+00	 2.009739131287368e-02	 1.158697056188512e+01
 2.411433220828751e+00	 4.026186641526282e-02	 1.159156972925100e+01
 2.411010581689024e+00	 6.049167400547752e-02	 1.159641950861183e+01
 2.410415960825535e+00	 8.078502333994263e-02	 1.160141088471327e+01
 2.409647699001513e+00	 1.011400843060141e-01	 1.160641123306920e+01
 2.408704157848441e+00	 1.215549875204656e-01	 1.161126417380963e+01
 2.407583720882377e+00	 1.420278244541572e-01	 1.161578947033475e+01
 2.406284794526695e+00	 1.625566475833819e-01	 1.161978297430856e+01
 2.404805809140468e+00	 1.831394705683671e-01	 1.162301661858431e+01
 2.403145220051753e+00	 2.037742684593891e-01	 1.162523845971895e+01
 2.315215891054155e+00	 1.963183167394767e-01	 1.174464067036688e+01
 2.313439322528182e+00	 2.162495718069737e-01	 1.175034385659325e+01
 2.311484833814060e+00	 2.362268551605946e-01	 1.175696899524988e+01
 2.309351013912615e+00	 2.562480557777598e-01	 1.176448612688688e+01
 2.307036479994991e+00	 2.763110252327098e-01	 1.177286040207832e+01
 2.304539878427208e+00	 2.964135780332421e-01	 1.178205250397409e+01
 2.301859885794940e+00	 3.165534919874207e-01	 1.179201924173927e+01
 2.298995209927609e+00	 3.367285086005783e-01	 1.180271432250595e+01
 2.295944590920845e+00	 3.569363335028883e-01	 1.181408930938192e+01
 2.292706802156369e+00	 3.771746369077693e-01	 1.182609477295488e+01
 2.289280651318292e+00	 3.974410541013390e-01	 1.183868164360086e+01
 2.324008865064697e+00	 1.970639153947111e-01	 1.173081918960122e+01
 2.322225549296722e+00	 2.170708675098281e-01	 1.173641995933562e+01
 2.320263637616369e+00	 2.371240227222551e-01	 1.174293636781223e+01
 2.318121713665623e+00	 2.572212619919357e-01	 1.175033740303981e+01
 2.315798389363781e+00	 2.773604287335799e-01	 1.175858656697287e+01
 2.313292305935888e+00	 2.975393291546790e-01	 1.176764229629674e+01
 2.310602134941420e+00	 3.177557326236096e-01	 1.177745855599798e+01
 2.307726579302260e+00	 3.380073720681416e-01	 1.178798561343025e+01
 2.304664374329044e+00	 3.582919444046357e-01	 1.179917100050969e+01
 2.301414288744912e+00	 3.786071109981869e-01	 1.181096067157288e+01
 2.297975125705680e+00	 3.989504981539398e-01	 1.182330036430537e+01
 2.332801836583068e+00	 1.978095138395674e-01	 1.171764707052378e+01
 2.331011773575056e+00	 2.178921629808588e-01	 1.172304438748166e+01
 2.329042438930636e+00	 2.380211900305954e-01	 1.172936346730198e+01
 2.326892410932952e+00	 2.581944679312457e-01	 1.173657166161853e+01
 2.324560296249448e+00	 2.784098319379906e-01	 1.174463035388378e+01
 2.322044730964200e+00	 2.986650799580174e-01	 1.175349538156068e+01
 2.319344381610483e+00	 3.189579729200166e-01	 1.176311763289793e+01
 2.316457946202639e+00	 3.392862351741970e-01	 1.177344382607751e+01
 2.313384155266309e+00	 3.596475549231081e-01	 1.178441747845015e+01
 2.310121772866059e+00	 3.800395846835241e-01	 1.179598007347906e+01
 2.306669597629398e+00	 4.004599417796175e-01	 1.180807243289189e+01
 2.341594803117931e+00	 1.985551118626670e-01	 1.170511043797927e+01
 2.339797992873766e+00	 2.187134579872421e-01	 1.171019190168273e+01
 2.337821235269544e+00	 2.389183568312966e-01	 1.171621544265049e+01
 2.335663103229576e+00	 2.591676733198283e-01	 1.172314620049681e+01
 2.333322198169454e+00	 2.794592345484933e-01	 1.173094297766565e+01
 2.330797151032284e+00	 2.997908301241789e-01	 1.173955866618187e+01
 2.328086623325142e+00	 3.201602125358942e-01	 1.174894085068521e+01
 2.325189308154834e+00	 3.405650975562916e-01	 1.175903259560570e+01
 2.322103931262002e+00	 3.610031646741135e-01	 1.176977342427075e+01
 2.318829252052637e+00	 3.814720575578183e-01	 1.178110049764430e+01
 2.315364064625950e+00	 4.019693845506116e-01	 1.179295000028266e+01
 2.350387762177955e+00	 1.993007092526315e-01	 1.169319625486077e+01
 2.348584204703428e+00	 2.195347522961541e-01	 1.169783827609503e+01
 2.346600024145775e+00	 2.398155228700398e-01	 1.170345860513028e+01
 2.344433788070470e+00	 2.601408778818218e-01	 1.171001960198093e+01
 2.342084092641259e+00	 2.805086362676384e-01	 1.171747703284671e+01
 2.339549563660281e+00	 3.009165793340846e-01	 1.172578050455679e+01
 2.336828857608416e+00	 3.213624511304948e-01	 1.173487407689584e+01
 2.333920662684929e+00	 3.418439588519719e-01	 1.174469706073269e+01
 2.330823699845481e+00	 3.623587732734598e-01	 1.175518500980936e+01
 2.327536723837478e+00	 3.829045292151071e-01	 1.176627091396291e+01
 2.324058524231837e+00	 4.034788260391605e-01	 1.177788660144313e+01
 2.359180711271804e+00	 2.000463057980825e-01	 1.168176136509079e+01
 2.357370406574623e+00	 2.203560456747713e-01	 1.168591737006969e+01
 2.355378803072010e+00	 2.407126878925058e-01	 1.169105412975302e+01
 2.353204462970608e+00	 2.611140813413643e-01	 1.169715171362675e+01
 2.350845977182324e+00	 2.815580367979773e-01	 1.170418646771823e+01
 2.348301966368331e+00	 3.020423272686564e-01	 1.171211067142494e+01
 2.345571081983317e+00	 3.225646883630709e-01	 1.172086463943560e+01
 2.342652007319017e+00	 3.431228186987856e-01	 1.173038383397953e+01
 2.339543458546102e+00	 3.637143803369544e-01	 1.174059986752821e+01
 2.336244185753410e+00	 3.843369992494279e-01	 1.175144171316584e+01
 2.332752973983562e+00	 4.049882658175036e-01	 1.176283712580396e+01
 2.367973647908145e+00	 2.007919012876414e-01	 1.167042264131530e+01
 2.366156595997930e+00	 2.211773378902697e-01	 1.167415047322732e+01
 2.364157569560931e+00	 2.416098516443755e-01	 1.167885436893576e+01
 2.361975125444967e+00	 2.620872834225944e-01	 1.168450469622633e+01
 2.359607849310109e+00	 2.826074358420603e-01	 1.169107354491269e+01
 2.357054356676573e+00	 3.031680736088151e-01	 1.169853528602562e+01
 2.354313293972862e+00	 3.237669238928752e-01	 1.170686716773880e+01
 2.351383339583185e+00	 3.444016767342794e-01	 1.171604097247930e+01
 2.348263204893227e+00	 3.650699854804051e-01	 1.172596706093099e+01
 2.344951635333265e+00	 3.857694672548180e-01	 1.173656467728385e+01
 2.341447411417628e+00	 4.064977034578798e-01	 1.174775778820915e+01
 2.376766569595645e+00	 2.015374955099300e-01	 1.165912964021158e+01
 2.374942770483929e+00	 2.219986287098258e-01	 1.166245826877653e+01
 2.372936321125219e+00	 2.425070138713300e-01	 1.166677152492822e+01
 2.370745773008521e+00	 2.630604838496503e-01	 1.167202948904349e+01
 2.368369706542075e+00	 2.836568331024389e-01	 1.167819492187706e+01
 2.365806732105149e+00	 3.042938180354824e-01	 1.168523385669308e+01
 2.363055491100067e+00	 3.249691573791602e-01	 1.169311622721814e+01
 2.360114657003518e+00	 3.456805325960001e-01	 1.170181653263335e+01
 2.356982936416214e+00	 3.664255883196198e-01	 1.171131454093677e+01
 2.353659070109870e+00	 3.872019328253149e-01	 1.172159603212712e+01
 2.350141834070536e+00	 4.080071385325283e-01	 1.173260610037710e+01
 2.385559473842969e+00	 2.022830882535698e-01	 1.164785341037741e+01
 2.383728927543198e+00	 2.228199179006156e-01	 1.165080174510136e+01
 2.381715055277557e+00	 2.434041743190502e-01	 1.165475805323577e+01
 2.379516403176245e+00	 2.640336823466701e-01	 1.165967155038769e+01
 2.377131546395682e+00	 2.847062282816638e-01	 1.166549521536473e+01
 2.374559090174199e+00	 3.054195602295796e-01	 1.167218641849881e+01
 2.371797670887946e+00	 3.261713884811782e-01	 1.167970758476528e+01
 2.368845957106104e+00	 3.469593859214951e-01	 1.168802689284384e+01
 2.365702650644420e+00	 3.677811884704060e-01	 1.169711901138676e+01
 2.362366487616057e+00	 3.886343955549560e-01	 1.170696587388449e+01
 2.358836239478789e+00	 4.095165706136882e-01	 1.171755749364635e+01
 2.394352358158783e+00	 2.030286793071823e-01	 1.163656560303045e+01
 2.392515064686318e+00	 2.236412052298155e-01	 1.163914263876685e+01
 2.390493769530627e+00	 2.443013327332173e-01	 1.164276727930839e+01
 2.388287013463114e+00	 2.650068786377924e-01	 1.164737730637364e+01
 2.385893366388392e+00	 2.857556210822857e-01	 1.165291547148730e+01
 2.383311428403863e+00	 3.065452998720281e-01	 1.165933016372664e+01
 2.380539830859514e+00	 3.273736168581818e-01	 1.166657611112596e+01
 2.377577237417034e+00	 3.482382363483113e-01	 1.167461511680626e+01
 2.374422345107206e+00	 3.691367855485713e-01	 1.168341683102195e+01
 2.371073885384655e+00	 3.900668550377789e-01	 1.169295956044650e+01
 2.367530625178890e+00	 4.110259992735984e-01	 1.170323111615245e+01
 2.403145220051753e+00	 2.037742684593891e-01	 1.162523845971895e+01
 2.401301179423868e+00	 2.244624904646018e-01	 1.162744341926750e+01
 2.399272461397111e+00	 2.451984888595121e-01	 1.163075338073184e+01
 2.397057601384104e+00	 2.659800724471556e-01	 1.163509413096248e+01
 2.394655164037665e+00	 2.868050112068558e-01	 1.164039775633018e+01
 2.392063744314279e+00	 3.076710366437493e-01	 1.164660335310682e+01
 2.389281968537789e+00	 3.285758421694235e-01	 1.165365777025508e+01
 2.386308495462393e+00	 3.495170835139956e-01	 1.166151638560726e+01
 2.383142017333930e+00	 3.704923791699238e-01	 1.167014391654365e+01
 2.379781260948493e+00	 3.914993108678208e-01	 1.167951526641616e+01
 2.376224988707342e+00	 4.125354240844981e-01	 1.168961640810302e+01
 2.289280651318292e+00	 3.974410541013390e-01	 1.183868164360086e+01
 2.285665611882141e+00	 4.177297355317194e-01	 1.185118148784689e+01
 2.281859995945115e+00	 4.380416965911244e-01	 1.186314967467101e+01
 2.277862718926717e+00	 4.583744778323171e-01	 1.187488030773656e+01
 2.273672734502291e+00	 4.787255872827543e-01	 1.188668628392362e+01
 2.269289035584527e+00	 4.990925010900192e-01	 1.189890156001654e+01
 2.264710655295170e+00	 5.194726641987831e-01	 1.191188364171906e+01
 2.259936667925870e+00	 5.398634910592639e-01	 1.192601630043208e+01
 2.254966189887047e+00	 5.602623663671141e-01	 1.194171252285693e+01
 2.249798380643699e+00	 5.806666458346353e-01	 1.195941769807147e+01
 2.244432443637021e+00	 6.010736569931620e-01	 1.197851778803254e+01
 2.297975125705680e+00	 3.989504981539398e-01	 1.182330036430537e+01
 2.294346356687181e+00	 4.193162341039567e-01	 1.183556000905941e+01
 2.290526287376104e+00	 4.397053380968214e-01	 1.184733847882911e+01
 2.286513829072793e+00	 4.601153413445548e-01	 1.185893128631220e+01
 2.282307931478736e+00	 4.805437424103435e-01	 1.187065164344126e+01
 2.277907583681775e+00	 5.009880078564237e-01	 1.188283272577189e+01
 2.273311815131525e+00	 5.214455729236140e-01	 1.189583016238572e+01
 2.268519696603858e+00	 5.419138422424646e-01	 1.191002475691825e+01
 2.263530341153386e+00	 5.623901905759559e-01	 1.192582544495261e+01
 2.258342905052813e+00	 5.828719635936400e-01	 1.194367249261014e+01
 2.252956588718057e+00	 6.033564786770743e-01	 1.196258714887326e+01
 2.306669597629398e+00	 4.004599417796175e-01	 1.180807243289189e+01
 2.303027099032474e+00	 4.209027322273973e-01	 1.182009864291352e+01
 2.299192576351457e+00	 4.413689791318174e-01	 1.183169583198222e+01
 2.295164936767550e+00	 4.618562043641621e-01	 1.184315969816523e+01
 2.290943126008370e+00	 4.823618970233515e-01	 1.185480249626292e+01
 2.286526129336921e+00	 5.028835140862803e-01	 1.186695530038785e+01
 2.281912972530687e+00	 5.234184810899195e-01	 1.187997049530158e+01
 2.277102722849768e+00	 5.439641928451562e-01	 1.189422450229573e+01
 2.272094489992965e+00	 5.645180141823033e-01	 1.191012074504014e+01
 2.266887427040690e+00	 5.850772807281696e-01	 1.192809286041466e+01
 2.261480731383585e+00	 6.056392997145411e-01	 1.194676620690543e+01
 2.315364064625950e+00	 4.019693845506116e-01	 1.179295000028266e+01
 2.311707836458393e+00	 4.224892294524600e-01	 1.180475498233989e+01
 2.307858860415636e+00	 4.430326192246884e-01	 1.181618460507254e+01
 2.303816039559728e+00	 4.635970663978493e-01	 1.182753354194700e+01
 2.299578315644430e+00	 4.841800506066048e-01	 1.183911183249835e+01
 2.295144670107906e+00	 5.047790192425134e-01	 1.185124714357533e+01
 2.290514125055513e+00	 5.253913881387063e-01	 1.186428726264017e+01
 2.285685744231581e+00	 5.460145422864141e-01	 1.187860282908818e+01
 2.280658633979106e+00	 5.666458365832896e-01	 1.189459030919434e+01
 2.275431944186209e+00	 5.872825966134051e-01	 1.191267521989137e+01
 2.270004869218262e+00	 6.079221194587818e-01	 1.193106258017457e+01
 2.324058524231837e+00	 4.034788260391605e-01	 1.177788660144313e+01
 2.320388566505321e+00	 4.240757253295643e-01	 1.178948792518617e+01
 2.316525137113097e+00	 4.446962579040100e-01	 1.180076889723247e+01
 2.312467134998071e+00	 4.653379269523279e-01	 1.181202197004314e+01
 2.308213497940153e+00	 4.859982026449298e-01	 1.182355372367942e+01
 2.303763203552670e+00	 5.066745227880483e-01	 1.183568712617403e+01
 2.299115270268857e+00	 5.273642935109814e-01	 1.184876402930641e+01
 2.294268758317280e+00	 5.480648899853142e-01	 1.186314790592797e+01
 2.289222770685134e+00	 5.687736571760474e-01	 1.187922683463099e+01
 2.283976454068253e+00	 5.894879106245265e-01	 1.189740777365045e+01
 2.278528999806741e+00	 6.102049372630166e-01	 1.191548407802197e+01
 2.332752973983562e+00	 4.049882658175036e-01	 1.176283712580396e+01
 2.329069286713632e+00	 4.256622194091289e-01	 1.177425764532327e+01
 2.325191403988295e+00	 4.463598946983577e-01	 1.178541400747947e+01
 2.321118220631321e+00	 4.670787855343085e-01	 1.179659526076519e+01
 2.316848670448773e+00	 4.878163526231535e-01	 1.180810329536152e+01
 2.312381727229153e+00	 5.085700241858092e-01	 1.182025510308114e+01
 2.307716405733574e+00	 5.293371966477524e-01	 1.183338527611468e+01
 2.302851762674848e+00	 5.501152353609325e-01	 1.184784875091029e+01
 2.297786897684372e+00	 5.709014753577101e-01	 1.186402380316900e+01
 2.292520954265702e+00	 5.916932221367140e-01	 1.188225203536533e+01
 2.287053120733681e+00	 6.124877524804658e-01	 1.190003868009990e+01
 2.341447411417628e+00	 4.064977034578798e-01	 1.174775778820915e+01
 2.337749994623704e+00	 4.272487112415729e-01	 1.175902556424970e+01
 2.333857658585689e+00	 4.480235291363075e-01	 1.177008640688227e+01
 2.329769294008222e+00	 4.688196416505025e-01	 1.178122479098862e+01
 2.325483830723528e+00	 4.896345000261021e-01	 1.179273670014762e+01
 2.321000238695292e+00	 5.104655228987205e-01	 1.180493188658014e+01
 2.316317529012518e+00	 5.313100969900261e-01	 1.181813637334562e+01
 2.311434754872265e+00	 5.521655778323449e-01	 1.183269520530624e+01
 2.306351012550143e+00	 5.730292905254102e-01	 1.184897545503274e+01
 2.301065442357438e+00	 5.938985305251482e-01	 1.186720865051275e+01
 2.295577229583733e+00	 6.147705644643494e-01	 1.188473451569427e+01
 2.350141834070536e+00	 4.080071385325283e-01	 1.173260610037710e+01
 2.346430687775914e+00	 4.288352003773154e-01	 1.174375432318132e+01
 2.342523898449734e+00	 4.496871607464351e-01	 1.175475371118639e+01
 2.338420352677514e+00	 4.705604948076199e-01	 1.176588300922571e+01
 2.334118976317655e+00	 4.914526443386029e-01	 1.177743109112408e+01
 2.329618735509030e+00	 5.123610183897077e-01	 1.178969922005955e+01
 2.324918637668544e+00	 5.332829939788098e-01	 1.180300355467247e+01
 2.320017732477515e+00	 5.542159168186270e-01	 1.181767790762580e+01
 2.314915112855773e+00	 5.751571020762805e-01	 1.183407676298546e+01
 2.309609915922340e+00	 5.961038351650093e-01	 1.185228331854226e+01
 2.304101323941556e+00	 6.170533725678875e-01	 1.186957984334706e+01
 2.358836239478789e+00	 4.095165706136882e-01	 1.171755749364635e+01
 2.355111363710641e+00	 4.304216863667755e-01	 1.172844106541449e+01
 2.351190121124888e+00	 4.513507890573158e-01	 1.173938465388744e+01
 2.347071394187944e+00	 4.723013445123727e-01	 1.175054340912220e+01
 2.342754104784390e+00	 4.932707850454817e-01	 1.176216459569771e+01
 2.338237215228305e+00	 5.142565101216949e-01	 1.177453975211178e+01
 2.333519729264506e+00	 5.352558870551105e-01	 1.178797389144723e+01
 2.328600693058578e+00	 5.562662517388549e-01	 1.180278826802168e+01
 2.323479196174583e+00	 5.772849094074546e-01	 1.181932340678587e+01
 2.318154372539290e+00	 5.983091354314773e-01	 1.183748192802940e+01
 2.312625401391804e+00	 6.193361761443000e-01	 1.185458303077089e+01
 2.367530625178890e+00	 4.110259992735984e-01	 1.170323111615245e+01
 2.363792019968259e+00	 4.320081687603721e-01	 1.171375840918718e+01
 2.359856324155606e+00	 4.530144135975258e-01	 1.172430934290046e+01
 2.355722416088251e+00	 4.740421902714712e-01	 1.173524433908748e+01
 2.351389213676971e+00	 4.950889216315657e-01	 1.174691628982395e+01
 2.346855675411061e+00	 5.161519975576072e-01	 1.175943701100214e+01
 2.342120801363259e+00	 5.372287756599352e-01	 1.177303526733759e+01
 2.337183634183438e+00	 5.583165820121047e-01	 1.178801844302545e+01
 2.332043260079898e+00	 5.794127119160645e-01	 1.180471174795936e+01
 2.326698809787171e+00	 6.005144306997326e-01	 1.182281053669581e+01
 2.321149459519132e+00	 6.216189745468074e-01	 1.183975253504844e+01
 2.376224988707342e+00	 4.125354240844981e-01	 1.168961640810302e+01
 2.372472654089149e+00	 4.335946471085245e-01	 1.169994235709947e+01
 2.368522505086349e+00	 4.546780338956407e-01	 1.171022618224864e+01
 2.364373415927180e+00	 4.757830315916268e-01	 1.172082294165963e+01
 2.360024300548634e+00	 4.969070535816814e-01	 1.173209947011095e+01
 2.355474113615235e+00	 5.180474801603691e-01	 1.174443498357352e+01
 2.350721851527660e+00	 5.392016592342913e-01	 1.175817635330598e+01
 2.345766553420076e+00	 5.603669070574515e-01	 1.177336131060766e+01
 2.340607302145042e+00	 5.815405089992439e-01	 1.179023880487614e+01
 2.335243225244861e+00	 6.027197203449562e-01	 1.180827535172216e+01
 2.329673495908198e+00	 6.239017671286294e-01	 1.182509688310962e+01
 2.244432443637021e+00	 6.010736569931620e-01	 1.197851778803254e+01
 2.238867627679239e+00	 6.214807003114081e-01	 1.199688556514107e+01
 2.233103229312530e+00	 6.418850509405317e-01	 1.201572108750958e+01
 2.227138592220802e+00	 6.622839587993911e-01	 1.203496971476810e+01
 2.220973107593212e+00	 6.826746492208766e-01	 1.205456722109555e+01
 2.214606214955360e+00	 7.030543239064198e-01	 1.207444060613011e+01
 2.208037402979564e+00	 7.234201619097830e-01	 1.209450883624580e+01
 2.201266210273095e+00	 7.437693206496828e-01	 1.211468350900141e+01
 2.194292226143276e+00	 7.640989369507408e-01	 1.213486943429471e+01
 2.187115091338370e+00	 7.844061281122209e-01	 1.215496512655552e+01
 2.179734498763173e+00	 8.046879930039602e-01	 1.217486320318445e+01
 2.252956588718057e+00	 6.033564786770743e-01	 1.196258714887326e+01
 2.247370638108388e+00	 6.238410260424130e-01	 1.198070900030852e+01
 2.241584347094333e+00	 6.443228704920893e-01	 1.199935929517980e+01
 2.235597056867188e+00	 6.647992515004044e-01	 1.201848045264754e+01
 2.229408156303924e+00	 6.852673838623174e-01	 1.203800538568403e+01
 2.223017082801537e+00	 7.057244586515778e-01	 1.205785833244884e+01
 2.216423323090388e+00	 7.261676442082519e-01	 1.207795561415237e+01
 2.209626414025442e+00	 7.465940871551929e-01	 1.209820631199017e+01
 2.202625943354270e+00	 7.670009134429437e-01	 1.211851285648066e+01
 2.195421550460755e+00	 7.873852294225351e-01	 1.213877152336556e+01
 2.188012927083394e+00	 8.077441229455768e-01	 1.215887283113327e+01
 2.261480731383585e+00	 6.056392997145411e-01	 1.194676620690543e+01
 2.255873646127970e+00	 6.262013511050141e-01	 1.196464847268180e+01
 2.250065462472716e+00	 6.467606893532984e-01	 1.198311099119210e+01
 2.244055519116518e+00	 6.673145434891383e-01	 1.200209490074687e+01
 2.237843202624165e+00	 6.878601177695596e-01	 1.202153193121943e+01
 2.231427948264040e+00	 7.083945926406287e-01	 1.204134525404430e+01
 2.224809240824560e+00	 7.289151257287159e-01	 1.206145025466240e+01
 2.217986615408383e+00	 7.494188528608096e-01	 1.208175521976946e+01
 2.210959658203332e+00	 7.699028891133737e-01	 1.210216193249838e+01
 2.203728007228910e+00	 7.903643298892038e-01	 1.212256616951946e+01
 2.196291353057320e+00	 8.108002520216828e-01	 1.214285809497206e+01
 2.270004869218262e+00	 6.079221194587818e-01	 1.193106258017457e+01
 2.264376649328631e+00	 6.285616748304660e-01	 1.194871433431829e+01
 2.258546573044541e+00	 6.491985068334476e-01	 1.196698910099655e+01
 2.252513976572083e+00	 6.698298340529159e-01	 1.198582837525723e+01
 2.246278244163864e+00	 6.904528502079680e-01	 1.200516436041015e+01
 2.239838808959671e+00	 7.110647251169906e-01	 1.202492083483076e+01
 2.233195153805962e+00	 7.316626056926607e-01	 1.204501393700375e+01
 2.226346812053099e+00	 7.522436169661046e-01	 1.206535286093445e+01
 2.219293368329158e+00	 7.728048631397116e-01	 1.208584045485473e+01
 2.212034459289262e+00	 7.933434286680453e-01	 1.210637371703086e+01
 2.204569774339321e+00	 8.138563793662641e-01	 1.212684418343982e+01
 2.278528999806741e+00	 6.102049372630166e-01	 1.191548407802197e+01
 2.272879645301021e+00	 6.309219965500236e-01	 1.193291704778836e+01
 2.267027676406665e+00	 6.516363222418236e-01	 1.195100658001980e+01
 2.260972426837172e+00	 6.723451224790604e-01	 1.196969614239422e+01
 2.254713278532966e+00	 6.930455804429082e-01	 1.198892004696819e+01
 2.248249662505230e+00	 7.137348553240817e-01	 1.200860433199241e+01
 2.241581059658478e+00	 7.344100833215709e-01	 1.202866755759274e+01
 2.234707001590772e+00	 7.550683786706500e-01	 1.204902150721317e+01
 2.227627071370443e+00	 7.757068346996387e-01	 1.206957178754172e+01
 2.220340904288235e+00	 7.963225249148774e-01	 1.209021832054907e+01
 2.212848188583769e+00	 8.169125041133077e-01	 1.211085572225831e+01
 2.287053120733681e+00	 6.124877524804658e-01	 1.190003868009990e+01
 2.281382631635785e+00	 6.332823155949410e-01	 1.191726716537742e+01
 2.275508770155950e+00	 6.540741348877150e-01	 1.193517639299315e+01
 2.269430867515072e+00	 6.748604080548951e-01	 1.195371339778526e+01
 2.263148303341400e+00	 6.956383077397452e-01	 1.197281621498367e+01
 2.256660506517515e+00	 7.164049825053189e-01	 1.199241477526764e+01
 2.249966956005988e+00	 7.371575578369325e-01	 1.201243170914521e+01
 2.243067181652582e+00	 7.578931371740172e-01	 1.203278305231610e+01
 2.235960764965883e+00	 7.786088029708361e-01	 1.205337884453136e+01
 2.228647339872258e+00	 7.993016177855189e-01	 1.207412361540048e+01
 2.221126593445035e+00	 8.199686253968002e-01	 1.209491675161622e+01
 2.295577229583733e+00	 6.147705644643494e-01	 1.188473451569427e+01
 2.289885605923573e+00	 6.356426312964735e-01	 1.190177530857943e+01
 2.283989851889253e+00	 6.565119440804092e-01	 1.191951149355643e+01
 2.277889296209072e+00	 6.773756900677430e-01	 1.193789524611849e+01
 2.271583316199104e+00	 6.982310313638446e-01	 1.195686991854775e+01
 2.265071338613330e+00	 7.190751059041209e-01	 1.197637094646970e+01
 2.258352840472378e+00	 7.399050284602304e-01	 1.199632666001355e+01
 2.251427349869710e+00	 7.607178916757774e-01	 1.201665899100294e+01
 2.244294446754171e+00	 7.815107671309854e-01	 1.203728406848013e+01
 2.236953763687752e+00	 8.022807064357864e-01	 1.205811269583404e+01
 2.229404986577490e+00	 8.230247423507278e-01	 1.207905070385362e+01
 2.304101323941556e+00	 6.170533725678875e-01	 1.186957984334706e+01
 2.298388565755036e+00	 6.380029429858750e-01	 1.188645214787408e+01
 2.292470919203435e+00	 6.589497491291934e-01	 1.190402480413096e+01
 2.286347710522461e+00	 6.798909678049279e-01	 1.192225668104664e+01
 2.280018314716012e+00	 7.008237505805707e-01	 1.194109802161771e+01
 2.273482156409474e+00	 7.217452247639053e-01	 1.196049135923799e+01
 2.266738710681527e+00	 7.426524944129502e-01	 1.198037233374403e+01
 2.259787503873337e+00	 7.635426413755030e-01	 1.200067039836073e+01
 2.252628114374006e+00	 7.844127263577670e-01	 1.202130940963783e+01
 2.245260173381147e+00	 8.052597900214989e-01	 1.204220809346566e+01
 2.237683365635504e+00	 8.260808541090771e-01	 1.206328038134219e+01
 2.312625401391804e+00	 6.193361761443000e-01	 1.185458303077089e+01
 2.306891508720819e+00	 6.403632499944010e-01	 1.187130838278106e+01
 2.300951969695355e+00	 6.613875493433560e-01	 1.188872919605472e+01
 2.294806108058528e+00	 6.824062405537721e-01	 1.190681256533966e+01
 2.288453296502063e+00	 7.034164646552896e-01	 1.192551717811824e+01
 2.281892957522748e+00	 7.244153383280898e-01	 1.194479423901423e+01
 2.275124564257317e+00	 7.453999549165763e-01	 1.196458828884903e+01
 2.268147641294644e+00	 7.663673854727651e-01	 1.198483790928850e+01
 2.260961765464081e+00	 7.873146798288625e-01	 1.200547630495608e+01
 2.253566566598867e+00	 8.082388676984741e-01	 1.202643175591705e+01
 2.245961728273450e+00	 8.291369598058346e-01	 1.204762793455601e+01
 2.321149459519132e+00	 6.216189745468074e-01	 1.183975253504844e+01
 2.315394432411569e+00	 6.427235516533060e-01	 1.185635472218392e+01
 2.309433000961870e+00	 6.638253440321840e-01	 1.187363746997314e+01
 2.303264486420560e+00	 6.849215076015991e-01	 1.189157761127968e+01
 2.296888259167190e+00	 7.060091728533664e-01	 1.191014381227298e+01
 2.290303739569949e+00	 7.270854458400926e-01	 1.192929750323789e+01
 2.283510398823632e+00	 7.481474091925951e-01	 1.194899369878895e+01
 2.276507759764810e+00	 7.691921231671358e-01	 1.196918169818328e+01
 2.269295397663093e+00	 7.902166267219531e-01	 1.198980565739120e+01
 2.261872940987338e+00	 8.112179386225301e-01	 1.201080502564388e+01
 2.254240072145697e+00	 8.321930585749869e-01	 1.203211484032879e+01
 2.329673495908198e+00	 6.239017671286294e-01	 1.182509688310962e+01
 2.323897334417938e+00	 6.450838472938442e-01	 1.184160186491724e+01
 2.317914010599845e+00	 6.662631325049658e-01	 1.185876233647941e+01
 2.311722843211848e+00	 6.874367682357324e-01	 1.187656636129270e+01
 2.305323200321330e+00	 7.086018744401660e-01	 1.189499409916072e+01
 2.298714500167883e+00	 7.297555465433316e-01	 1.191401874175567e+01
 2.291896212004354e+00	 7.508948564624919e-01	 1.193360733215856e+01
 2.284867856915019e+00	 7.720168536581867e-01	 1.195372145882241e+01
 2.277629008609737e+00	 7.931185662147199e-01	 1.197431781539721e+01
 2.270179294192987e+00	 8.141970019494853e-01	 1.199534861894909e+01
 2.262518394906619e+00	 8.352491495505205e-01	 1.201676188029274e+01
 2.179734498763173e+00	 8.046879930039602e-01	 1.217486320318445e+01
 2.172148887181955e+00	 8.249450537845692e-01	 1.219427573243106e+01
 2.164359291997888e+00	 8.451709231933534e-01	 1.221295039993114e+01
 2.156365565077391e+00	 8.653626491398434e-01	 1.223083573608832e+01
 2.148167613071671e+00	 8.855172656989569e-01	 1.224787569517346e+01
 2.139765397992186e+00	 9.056317943338167e-01	 1.226400944775970e+01
 2.131158937754682e+00	 9.257032451413696e-01	 1.227917106983828e+01
 2.122348306690867e+00	 9.457286181199076e-01	 1.229328913160363e+01
 2.113333636026786e+00	 9.657049044575522e-01	 1.230628619013302e+01
 2.104115114327044e+00	 9.856290878407244e-01	 1.231807819143044e+01
 2.094692987903987e+00	 1.005498145781579e+00	 1.232857378854783e+01
 2.188012927083394e+00	 8.077441229455768e-01	 1.215887283113327e+01
 2.180398506057042e+00	 8.280781181537844e-01	 1.217852713675849e+01
 2.172579326717225e+00	 8.483808035282425e-01	 1.219747772298974e+01
 2.164555240367735e+00	 8.686492157667182e-01	 1.221566722632305e+01
 2.156326153305231e+00	 8.888803776798218e-01	 1.223303372943400e+01
 2.147892027396868e+00	 9.090712994184721e-01	 1.224951053269209e+01
 2.139252880626412e+00	 9.292189797242424e-01	 1.226502581767460e+01
 2.130408787607849e+00	 9.493204072016984e-01	 1.227950220575621e+01
 2.121359880065587e+00	 9.693725616117750e-01	 1.229285621612450e+01
 2.112106347280358e+00	 9.893724151852169e-01	 1.230499762885431e+01
 2.102648436499953e+00	 1.009316933955051e+00	 1.231582875995521e+01
 2.196291353057320e+00	 8.108002520216828e-01	 1.214285809497206e+01
 2.188648122594005e+00	 8.312111816356275e-01	 1.216274753395213e+01
 2.180799359106836e+00	 8.515906829539126e-01	 1.218197272340764e+01
 2.172744913336986e+00	 8.719357814625505e-01	 1.220046943052715e+01
 2.164484691226553e+00	 8.922434887078539e-01	 1.221816891349000e+01
 2.156018654498391e+00	 9.125108035285455e-01	 1.223499767274566e+01
 2.147346821204283e+00	 9.327347133108352e-01	 1.225087708947865e+01
 2.138469266240492e+00	 9.529121952655715e-01	 1.226572295442143e+01
 2.129386121829784e+00	 9.730402177265116e-01	 1.227944489149158e+01
 2.120097577969012e+00	 9.931157414687324e-01	 1.229194568205000e+01
 2.110603882841414e+00	 1.013135721046144e+00	 1.230312049689802e+01
 2.204569774339321e+00	 8.138563793662641e-01	 1.212684418343982e+01
 2.196897734455373e+00	 8.343442433422844e-01	 1.214696255449064e+01
 2.189019386837630e+00	 8.548005605607883e-01	 1.216646162794731e+01
 2.180934581664643e+00	 8.752223452960440e-01	 1.218526934147809e+01
 2.172643224523951e+00	 8.956065978300775e-01	 1.220330919148231e+01
 2.164145276994103e+00	 9.159503056894265e-01	 1.222049996479473e+01
 2.155440757194895e+00	 9.362504449049491e-01	 1.223675535262486e+01
 2.146529740304868e+00	 9.565039812937876e-01	 1.225198344998073e+01
 2.137412359045143e+00	 9.767078717625338e-01	 1.226608614517847e+01
 2.128088804128694e+00	 9.968590656306067e-01	 1.227895840540064e+01
 2.118559324674199e+00	 1.016954505972811e+00	 1.229048746562653e+01
 2.212848188583769e+00	 8.169125041133077e-01	 1.211085572225831e+01
 2.205147339303680e+00	 8.374773023859429e-01	 1.213119720009864e+01
 2.197239407580518e+00	 8.580104354392952e-01	 1.215096996522382e+01
 2.189124243030212e+00	 8.785089063359020e-01	 1.217009318069504e+01
 2.180801750885739e+00	 8.989697040935158e-01	 1.218848165941336e+01
 2.172271892581347e+00	 9.193898049265036e-01	 1.220604557688246e+01
 2.163534686304845e+00	 9.397661735103845e-01	 1.222269006111720e+01
 2.154590207517046e+00	 9.600957642686071e-01	 1.223831466303307e+01
 2.145438589437429e+00	 9.803755226806119e-01	 1.225281271204477e+01
 2.136080023495087e+00	 1.000602386610174e+00	 1.226607056300331e+01
 2.126514759744138e+00	 1.020773287653006e+00	 1.227796674200255e+01
 2.221126593445035e+00	 8.199686253968002e-01	 1.209491675161622e+01
 2.213396934801456e+00	 8.406103578787893e-01	 1.211547582063322e+01
 2.205459419006409e+00	 8.612203066798584e-01	 1.213552254202267e+01
 2.197313895113193e+00	 8.817954636508282e-01	 1.215496637422131e+01
 2.188960268000233e+00	 9.023328065451943e-01	 1.217371254043117e+01
 2.180398498957471e+00	 9.228293002651670e-01	 1.219166172304807e+01
 2.171628606240729e+00	 9.432818981309415e-01	 1.220870963000445e+01
 2.162650665593098e+00	 9.636875431722913e-01	 1.222474643644791e+01
 2.153464810732409e+00	 9.840431694415176e-01	 1.223965610660981e+01
 2.144071233803876e+00	 1.004345703346769e+00	 1.225331560216227e+01
 2.134470185797058e+00	 1.024592065004682e+00	 1.226559398480376e+01
 2.229404986577490e+00	 8.230247423507278e-01	 1.207905070385362e+01
 2.221646518611236e+00	 8.437434089330106e-01	 1.209982209116767e+01
 2.213679418786210e+00	 8.644301733729022e-01	 1.212014341981100e+01
 2.205503535593090e+00	 8.850820163095255e-01	 1.213991352859489e+01
 2.197118773555748e+00	 9.056959042321361e-01	 1.215902716029540e+01
 2.188525093819819e+00	 9.262687907308047e-01	 1.217737463832801e+01
 2.179722514709145e+00	 9.467976177704217e-01	 1.219484140996100e+01
 2.170711112249095e+00	 9.672793169871000e-01	 1.221130745957349e+01
 2.161491020655851e+00	 9.877108110060228e-01	 1.222664659694063e+01
 2.152062432790749e+00	 1.008089014779728e+00	 1.224072562701305e+01
 2.142425600578789e+00	 1.028410836945792e+00	 1.225340340914406e+01
 2.237683365635504e+00	 8.260808541090771e-01	 1.206328038134219e+01
 2.229896088395551e+00	 8.468764546607934e-01	 1.208425898926785e+01
 2.221899404590832e+00	 8.676400346088523e-01	 1.210485589143715e+01
 2.213693162149406e+00	 8.883685633806987e-01	 1.212495840700253e+01
 2.205277265240596e+00	 9.090589962013659e-01	 1.214444992302056e+01
 2.196651674865739e+00	 9.297082753488071e-01	 1.216320955392746e+01
 2.187816409416692e+00	 9.503133314326252e-01	 1.218111166202904e+01
 2.178771545201104e+00	 9.708710846952945e-01	 1.219802524259684e+01
 2.169517216933517e+00	 9.913784463348977e-01	 1.221381317868032e+01
 2.160053618191390e+00	 1.011832319848384e+00	 1.222833137227406e+01
 2.150381001835161e+00	 1.032229602394291e+00	 1.224142776000746e+01
 2.245961728273450e+00	 8.291369598058346e-01	 1.204762793455601e+01
 2.238145641816934e+00	 8.500094941743244e-01	 1.206880877245629e+01
 2.230119374091181e+00	 8.708498894781340e-01	 1.208968245801446e+01
 2.221882772461643e+00	 8.916551039330501e-01	 1.211012390561276e+01
 2.213435740743093e+00	 9.124220814999077e-01	 1.213000428669250e+01
 2.204778239792574e+00	 9.331477531445621e-01	 1.214919067255771e+01
 2.195910288069967e+00	 9.538290381213524e-01	 1.216754553251870e+01
 2.186831962165200e+00	 9.744628452791348e-01	 1.218492609105173e+01
 2.177543397291178e+00	 9.950460743889147e-01	 1.220118354921367e+01
 2.168044787741484e+00	 1.015575617492073e+00	 1.221616217712320e+01
 2.158336387312002e+00	 1.036048360268131e+00	 1.222969828589306e+01
 2.254240072145697e+00	 8.321930585749869e-01	 1.203211484032879e+01
 2.246395176537915e+00	 8.531425265857909e-01	 1.205349295585991e+01
 2.238339324958170e+00	 8.740597370711721e-01	 1.207464480598457e+01
 2.230072364209305e+00	 8.949416370352841e-01	 1.209543203008418e+01
 2.221594197751555e+00	 9.157851591747860e-01	 1.211571273945401e+01
 2.212904786297673e+00	 9.365872231434597e-01	 1.213534114393586e+01
 2.204004148375565e+00	 9.573447368404041e-01	 1.215416702806204e+01
 2.194892360857451e+00	 9.780545977208817e-01	 1.217203508047164e+01
 2.185569559454597e+00	 9.987136941288444e-01	 1.218878408196696e+01
 2.176035939176717e+00	 1.019318906650129e+00	 1.220424595919652e+01
 2.166291754755141e+00	 1.039867109485265e+00	 1.221824471256855e+01
 2.262518394906619e+00	 8.352491495505205e-01	 1.201676188029274e+01
 2.254644690221028e+00	 8.562755510073792e-01	 1.203833229003656e+01
 2.246559254862706e+00	 8.772695764783921e-01	 1.205976378435609e+01
 2.238261935071895e+00	 8.982281617561039e-01	 1.208090387224415e+01
 2.229752633954296e+00	 9.191482282730243e-01	 1.210159677565555e+01
 2.221031312078379e+00	 9.400266843708884e-01	 1.212168304044287e+01
 2.212097988040086e+00	 9.608604265935810e-01	 1.214099899081784e+01
 2.202952738993927e+00	 9.816463410027958e-01	 1.215937603118405e+01
 2.193595701149540e+00	 1.002381304515459e+00	 1.217663980083877e+01
 2.184027070232773e+00	 1.023062186261888e+00	 1.219260918870646e+01
 2.174247101910407e+00	 1.043685848963648e+00	 1.220709521693046e+01
 2.094692987903987e+00	 1.005498145781579e+00	 1.232857378854783e+01
 2.085069214345415e+00	 1.025305688418445e+00	 1.233818923221718e+01
 2.075242570842331e+00	 1.045052067765647e+00	 1.234708324255057e+01
 2.065213477356800e+00	 1.064734251402391e+00	 1.235475776902870e+01
 2.054982412837529e+00	 1.084349206174316e+00	 1.236070173020282e+01
 2.044549915443673e+00	 1.103893899598468e+00	 1.236439051502706e+01
 2.033916582729284e+00	 1.123365301280397e+00	 1.236528547318873e+01
 2.023083071787823e+00	 1.142760384342097e+00	 1.236283340828989e+01
 2.012050099356196e+00	 1.162076126859514e+00	 1.235646608857039e+01
 2.000818441877797e+00	 1.181309513308291e+00	 1.234578288732831e+01
 1.989388935524150e+00	 1.200457536016417e+00	 1.233428501951676e+01
 2.102648436499953e+00	 1.009316933955051e+00	 1.231582875995521e+01
 2.092988112746893e+00	 1.029199703791507e+00	 1.232575453206523e+01
 2.083124148568081e+00	 1.049021078045822e+00	 1.233491565943925e+01
 2.073056965520585e+00	 1.068778012780347e+00	 1.234279696216651e+01
 2.062787044372133e+00	 1.088467463321072e+00	 1.234886958990379e+01
 2.052314925325784e+00	 1.108086385667955e+00	 1.235259047739368e+01
 2.041641208205069e+00	 1.127631737917381e+00	 1.235340178738202e+01
 2.030766552599056e+00	 1.147100481695540e+00	 1.235073035521814e+01
 2.019691677966768e+00	 1.166489583601383e+00	 1.234398715028750e+01
 2.008417363700488e+00	 1.185796016657869e+00	 1.233323557335373e+01
 1.996944449147465e+00	 1.205016761770121e+00	 1.232229012185231e+01
 2.110603882841414e+00	 1.013135721046144e+00	 1.230312049689802e+01
 2.100907008904224e+00	 1.033093718060886e+00	 1.231336118686325e+01
 2.091005724060252e+00	 1.052990087201106e+00	 1.232279017677479e+01
 2.080900451461565e+00	 1.072821773012292e+00	 1.233087653353033e+01
 2.070591673694926e+00	 1.092585719300793e+00	 1.233707498329516e+01
 2.060079933007296e+00	 1.112278870549466e+00	 1.234082531716966e+01
 2.049365831491686e+00	 1.131898173345535e+00	 1.234155178259439e+01
 2.038450031232771e+00	 1.151440577819378e+00	 1.233866247522203e+01
 2.027333254411702e+00	 1.170903039092953e+00	 1.233154874687879e+01
 2.016016283369649e+00	 1.190282518736530e+00	 1.232101997012958e+01
 2.004499960629588e+00	 1.209575986232364e+00	 1.231059536734602e+01
 2.118559324674199e+00	 1.016954505972811e+00	 1.229048746562653e+01
 2.108825900573605e+00	 1.036987730123215e+00	 1.230105005848318e+01
 2.098887295085629e+00	 1.056959094106872e+00	 1.231074971716582e+01
 2.088743932957343e+00	 1.076865530952411e+00	 1.231904112434946e+01
 2.078396298594540e+00	 1.096703972946536e+00	 1.232536392128966e+01
 2.067844936288086e+00	 1.116471353055012e+00	 1.232914205957293e+01
 2.057090450400474e+00	 1.136164606355898e+00	 1.232978313688000e+01
 2.046133505511988e+00	 1.155780671483765e+00	 1.232667773194947e+01
 2.034974826525907e+00	 1.175316492083581e+00	 1.231919875485271e+01
 2.023615198732285e+00	 1.194769018272925e+00	 1.230916020613321e+01
 2.012055467829828e+00	 1.214135208111189e+00	 1.229922215384753e+01
 2.126514759744138e+00	 1.020773287653006e+00	 1.227796674200255e+01
 2.116744785511231e+00	 1.040881738875128e+00	 1.228886051921752e+01
 2.106768859410999e+00	 1.060928097638494e+00	 1.229883562040297e+01
 2.096587407785516e+00	 1.080909285454883e+00	 1.230733370615010e+01
 2.086200916859602e+00	 1.100822223091359e+00	 1.231378066496690e+01
 2.075609932968031e+00	 1.120663831996600e+00	 1.231758590701615e+01
 2.064815062742778e+00	 1.140431035739509e+00	 1.231814164007524e+01
 2.053816973259728e+00	 1.160120761458857e+00	 1.231482214337841e+01
 2.042616392144289e+00	 1.179729941322622e+00	 1.230705587640852e+01
 2.031214107635401e+00	 1.199255513995705e+00	 1.229767779699147e+01
 2.019610968607495e+00	 1.218694426114637e+00	 1.228818931006966e+01
 2.134470185797058e+00	 1.024592065004682e+00	 1.226559398480376e+01
 2.124663661473299e+00	 1.044775743213258e+00	 1.227683042487149e+01
 2.114650414803146e+00	 1.064897096671347e+00	 1.228708761622601e+01
 2.104430873723678e+00	 1.084953035373888e+00	 1.229579555308152e+01
 2.094005526278741e+00	 1.104940468568320e+00	 1.230236769734050e+01
 2.083374920847009e+00	 1.124856306186241e+00	 1.230620021019338e+01
 2.072539666329936e+00	 1.144697460287411e+00	 1.230667116408125e+01
 2.061500432299009e+00	 1.164460846514808e+00	 1.230313975116899e+01
 2.050257949101757e+00	 1.184143385559435e+00	 1.229534244147367e+01
 2.038813007926001e+00	 1.203742004633522e+00	 1.228659169702978e+01
 2.027166460821896e+00	 1.223253638950750e+00	 1.227751314756500e+01
 2.142425600578789e+00	 1.028410836945792e+00	 1.225340340914406e+01
 2.132582526216002e+00	 1.048669742034235e+00	 1.226499608795711e+01
 2.122531959028857e+00	 1.068866090080803e+00	 1.227554379718097e+01
 2.112274328549429e+00	 1.088996779563608e+00	 1.228446621432316e+01
 2.101810124640586e+00	 1.109058708210477e+00	 1.229116569519905e+01
 2.091139897724899e+00	 1.129048774435946e+00	 1.229502643923653e+01
 2.080264258973291e+00	 1.148963878790642e+00	 1.229541363321479e+01
 2.069183880452850e+00	 1.168800925421771e+00	 1.229167259008585e+01
 2.057899495233219e+00	 1.188556823543375e+00	 1.228408721845140e+01
 2.046411897451093e+00	 1.208228488915024e+00	 1.227591835090464e+01
 2.034721942332342e+00	 1.227812845327571e+00	 1.226720751279594e+01
 2.150381001835161e+00	 1.032229602394291e+00	 1.224142776000746e+01
 2.140501377495537e+00	 1.052563734234695e+00	 1.225339225098683e+01
 2.130413489854918e+00	 1.072835076742238e+00	 1.226424059156555e+01
 2.120117770040366e+00	 1.093040516878224e+00	 1.227338348657074e+01
 2.109614709733765e+00	 1.113176940850887e+00	 1.228021350101953e+01
 2.098904861401575e+00	 1.133241235557722e+00	 1.228410415494028e+01
 2.087988838484186e+00	 1.153230290040244e+00	 1.228440899462657e+01
 2.076867315544271e+00	 1.173140996949903e+00	 1.228046065748896e+01
 2.065541028373582e+00	 1.192970254023798e+00	 1.227330633934018e+01
 2.054010774057679e+00	 1.212714965568865e+00	 1.226567174531736e+01
 2.042277410998140e+00	 1.232372043953140e+00	 1.225728383929580e+01
 2.158336387312002e+00	 1.036048360268131e+00	 1.222969828589306e+01
 2.148420213068101e+00	 1.056457718711270e+00	 1.224205205986493e+01
 2.138295005048113e+00	 1.076804055531025e+00	 1.225321273646084e+01
 2.127961195974085e+00	 1.097084246171915e+00	 1.226258338659992e+01
 2.117419279346907e+00	 1.117295165322609e+00	 1.226954809495209e+01
 2.106669809676916e+00	 1.137433688363579e+00	 1.227347098005443e+01
 2.095713402673961e+00	 1.157496692827257e+00	 1.227369518878545e+01
 2.084550735396291e+00	 1.177481059869356e+00	 1.226954762752735e+01
 2.073182546357754e+00	 1.197383675750061e+00	 1.226301348969882e+01
 2.061609635592767e+00	 1.217201433323694e+00	 1.225586346080668e+01
 2.049832864678601e+00	 1.236931233535500e+00	 1.224775119991823e+01
 2.166291754755141e+00	 1.039867109485265e+00	 1.221824471256856e+01
 2.156339030689888e+00	 1.060351694360594e+00	 1.223100703737435e+01
 2.146176502375230e+00	 1.080773025322537e+00	 1.224249325084772e+01
 2.135804604128185e+00	 1.101127966298864e+00	 1.225210012390620e+01
 2.125223831268640e+00	 1.121413380458700e+00	 1.225920456687452e+01
 2.114434740350801e+00	 1.141626131665528e+00	 1.226316257064230e+01
 2.103437949353958e+00	 1.161763085942720e+00	 1.226330812002770e+01
 2.092234137831928e+00	 1.181821112950286e+00	 1.225911643994356e+01
 2.080824047020644e+00	 1.201797087471521e+00	 1.225321995987935e+01
 2.069208479903361e+00	 1.221687890908163e+00	 1.224650272361818e+01
 2.057388301233035e+00	 1.241490412782693e+00	 1.223861635917285e+01
 2.174247101910407e+00	 1.043685848963648e+00	 1.220709521693046e+01
 2.164257828117094e+00	 1.064245660079298e+00	 1.222028705675732e+01
 2.154057979603053e+00	 1.084741984992150e+00	 1.223211340880653e+01
 2.143647992280264e+00	 1.105171676113251e+00	 1.224196607341935e+01
 2.133028363287593e+00	 1.125531585092218e+00	 1.224921608851563e+01
 2.122199651223107e+00	 1.145818564275578e+00	 1.225321258750439e+01
 2.111162476335520e+00	 1.166029468177674e+00	 1.225328162717024e+01
 2.099917520674204e+00	 1.186161154962848e+00	 1.224924802453902e+01
 2.088465528197159e+00	 1.206210487937535e+00	 1.224393469632855e+01
 2.076807304836467e+00	 1.226174337050922e+00	 1.223759645764825e+01
 2.064943718520748e+00	 1.246049580402761e+00	 1.222988382564410e+01
 1.989388935524150e+00	 1.200457536016417e+00	 1.233428501951676e+01
 1.977762476655390e+00	 1.219517197002342e+00	 1.232166524045940e+01
 1.965940023191580e+00	 1.238485510600662e+00	 1.230646552659467e+01
 1.953922593049960e+00	 1.257359503827861e+00	 1.228907908626446e+01
 1.941711263511819e+00	 1.276136217473172e+00	 1.226989543403598e+01
 1.929307171029115e+00	 1.294812707563214e+00	 1.224929604332787e+01
 1.916711510988107e+00	 1.313386046824939e+00	 1.222764975337204e+01
 1.903925537429925e+00	 1.331853326145434e+00	 1.220530794237055e+01
 1.890950562728077e+00	 1.350211656027125e+00	 1.218259948092528e+01
 1.877787957222933e+00	 1.368458168036886e+00	 1.215982548204635e+01
 1.864439148813270e+00	 1.386590016247609e+00	 1.213725386626719e+01
 1.996944449147465e+00	 1.205016761770121e+00	 1.232229012185231e+01
 1.985273834072144e+00	 1.224148809570533e+00	 1.231004719153519e+01
 1.973406480032670e+00	 1.243189163054434e+00	 1.229511700445400e+01
 1.961343408812223e+00	 1.262134837947207e+00	 1.227789660172247e+01
 1.949085701783490e+00	 1.280982863799295e+00	 1.225877922574299e+01
 1.936634499714556e+00	 1.299730285456395e+00	 1.223814990296755e+01
 1.923991002531625e+00	 1.318374164527963e+00	 1.221638077352599e+01
 1.911156469038548e+00	 1.336911580852564e+00	 1.219382617961953e+01
 1.898132216593087e+00	 1.355339633958594e+00	 1.217081752685407e+01
 1.884919620740023e+00	 1.373655444518904e+00	 1.214765793497462e+01
 1.871520114801142e+00	 1.391856155797832e+00	 1.212461669674484e+01
 2.004499960629588e+00	 1.209575986232364e+00	 1.231059536734602e+01
 1.992785189360277e+00	 1.228780420826792e+00	 1.229870339907255e+01
 1.980872934757937e+00	 1.247892814175880e+00	 1.228402154101054e+01
 1.968764222471682e+00	 1.266910170713916e+00	 1.226694911252905e+01
 1.956460137965593e+00	 1.285829508752559e+00	 1.224788157107345e+01
 1.943961826323868e+00	 1.304647861956592e+00	 1.222720602733631e+01
 1.931270492012660e+00	 1.323362280817980e+00	 1.220529649960425e+01
 1.918387398598522e+00	 1.341969834126770e+00	 1.218250891920887e+01
 1.905313868423473e+00	 1.360467610437339e+00	 1.215917590134475e+01
 1.892051282236691e+00	 1.378852719528515e+00	 1.213560129786543e+01
 1.878601078782971e+00	 1.397122293856093e+00	 1.211205455101137e+01
 2.012055467829828e+00	 1.214135208111189e+00	 1.229922215384753e+01
 2.000296540391606e+00	 1.233412029458653e+00	 1.228765249322587e+01
 1.988339385251911e+00	 1.252596462632128e+00	 1.227319537613771e+01
 1.976185031925786e+00	 1.271685500774818e+00	 1.225625085969979e+01
 1.963834569968696e+00	 1.290676150959604e+00	 1.223721511805950e+01
 1.951289148780951e+00	 1.309565435670361e+00	 1.221647589225856e+01
 1.938549977368639e+00	 1.328350394281576e+00	 1.219440767135485e+01
 1.925618324061019e+00	 1.347028084534785e+00	 1.217136661675162e+01
 1.912495516184350e+00	 1.365595584010351e+00	 1.214768524407770e+01
 1.899182939692204e+00	 1.384049991593090e+00	 1.212366687937220e+01
 1.885682038752376e+00	 1.402388428930264e+00	 1.209957990873320e+01
 2.019610968607495e+00	 1.218694426114637e+00	 1.228818931006966e+01
 2.007807885037947e+00	 1.238043634153649e+00	 1.227691057851855e+01
 1.995805829399123e+00	 1.257300107090308e+00	 1.226265226095316e+01
 1.983605835071982e+00	 1.276460826776742e+00	 1.224581362532927e+01
 1.971208995703370e+00	 1.295522789047066e+00	 1.222679007821181e+01
 1.958616465009702e+00	 1.314483005204259e+00	 1.220596855162265e+01
 1.945829456536996e+00	 1.333338503505338e+00	 1.218372261299891e+01
 1.932849243377207e+00	 1.352086330643339e+00	 1.216040731022198e+01
 1.919677157840830e+00	 1.370723553224621e+00	 1.213635376613420e+01
 1.906314591085828e+00	 1.389247259240002e+00	 1.211186353943212e+01
 1.892762992702984e+00	 1.407654559528214e+00	 1.208720277129663e+01
 2.027166460821896e+00	 1.223253638950750e+00	 1.227751314756500e+01
 2.015319221171121e+00	 1.242675233599315e+00	 1.226649128617414e+01
 2.003272265084102e+00	 1.262003746217548e+00	 1.225240351054689e+01
 1.991026629807716e+00	 1.281236147366518e+00	 1.223564678576168e+01
 1.978583413080184e+00	 1.300369421641584e+00	 1.221661428018149e+01
 1.965943772934017e+00	 1.319400569164842e+00	 1.219569069158671e+01
 1.953108927455161e+00	 1.338326607075852e+00	 1.217324728803632e+01
 1.940080154498257e+00	 1.357144571019162e+00	 1.214963667542017e+01
 1.926858791358031e+00	 1.375851516627142e+00	 1.212518730618347e+01
 1.913446234396830e+00	 1.394444520996620e+00	 1.210019774624207e+01
 1.899843938628414e+00	 1.412920684157815e+00	 1.207493071964288e+01
 2.034721942332342e+00	 1.227812845327571e+00	 1.226720751279594e+01
 2.022830546662941e+00	 1.247306826483184e+00	 1.225640582655184e+01
 2.010738690191378e+00	 1.266707378680977e+00	 1.224245805682224e+01
 1.998447414030436e+00	 1.286011461190974e+00	 1.222575736488086e+01
 1.985957820009707e+00	 1.305216047369794e+00	 1.220669322354636e+01
 1.973271070477796e+00	 1.324318126158666e+00	 1.218564668491094e+01
 1.960388388060565e+00	 1.343314703579704e+00	 1.216298535417757e+01
 1.947311055375339e+00	 1.362202804228986e+00	 1.213905808156073e+01
 1.934040414701069e+00	 1.380979472764906e+00	 1.211418938678821e+01
 1.920577867604473e+00	 1.399641775390316e+00	 1.208867363334499e+01
 1.906924874522291e+00	 1.418186801326936e+00	 1.206276897220277e+01
 2.042277410998140e+00	 1.232372043953140e+00	 1.225728383929580e+01
 2.030341859385229e+00	 1.251938411492789e+00	 1.224666304168321e+01
 2.018205102605480e+00	 1.271411003147725e+00	 1.223282250144678e+01
 2.005868185637590e+00	 1.290786766896941e+00	 1.221615008751693e+01
 1.993332214402511e+00	 1.310062664858336e+00	 1.219703013271756e+01
 1.980598355564936e+00	 1.329235674792287e+00	 1.217583864541251e+01
 1.967667836290638e+00	 1.348302791603481e+00	 1.215293821839822e+01
 1.954541943959624e+00	 1.367261028839541e+00	 1.212867264698113e+01
 1.941222025835057e+00	 1.386107420184904e+00	 1.210336127082482e+01
 1.927709488688025e+00	 1.404839020948460e+00	 1.207729305682335e+01
 1.914005798378236e+00	 1.423452909543449e+00	 1.205072044292820e+01
 2.049832864678601e+00	 1.236931233535500e+00	 1.224775119991823e+01
 2.037853157209798e+00	 1.256569987315664e+00	 1.223726945790755e+01
 2.025671500210940e+00	 1.276114618284919e+00	 1.222350116891004e+01
 2.013288942526624e+00	 1.295562063131247e+00	 1.220682743296573e+01
 2.000706594169164e+00	 1.314909272733847e+00	 1.218762601096387e+01
 1.987925626119334e+00	 1.334153213672261e+00	 1.216626648254018e+01
 1.974947270082814e+00	 1.353290869733770e+00	 1.214310509211271e+01
 1.961772818202281e+00	 1.372319243417560e+00	 1.211847929496694e+01
 1.948403622725112e+00	 1.391235357434127e+00	 1.209270201801561e+01
 1.934841095626754e+00	 1.410036256198424e+00	 1.206605565259693e+01
 1.921086708189874e+00	 1.428719007315223e+00	 1.203878579941769e+01
 2.057388301233035e+00	 1.241490412782693e+00	 1.223861635917285e+01
 2.045364438008468e+00	 1.261201552639344e+00	 1.222822933860293e+01
 2.033137880892288e+00	 1.280818222759688e+00	 1.221449615968494e+01
 2.020709682594987e+00	 1.300337348540723e+00	 1.219778968861857e+01
 2.008080957220236e+00	 1.319755869622965e+00	 1.217847969454992e+01
 1.995252880064886e+00	 1.339070741405143e+00	 1.215692795606496e+01
 1.982226687374521e+00	 1.358278936557156e+00	 1.213348304646408e+01
 1.969003676054482e+00	 1.377377446529773e+00	 1.210847480969054e+01
 1.955585203336348e+00	 1.396363283059569e+00	 1.208220854156949e+01
 1.941972686399922e+00	 1.415233479667579e+00	 1.205495889382202e+01
 1.928167601950828e+00	 1.433985093150131e+00	 1.202696352113338e+01
 2.064943718520748e+00	 1.246049580402761e+00	 1.222988382564410e+01
 2.052875699653055e+00	 1.265833106151361e+00	 1.221954473701070e+01
 2.040604242534051e+00	 1.285521815239163e+00	 1.220580740349040e+01
 2.028130403740126e+00	 1.305112621772199e+00	 1.218903500369867e+01
 2.015455301466299e+00	 1.324602454152327e+00	 1.216958790698539e+01
 2.002580115325494e+00	 1.343988256597492e+00	 1.214781873088350e+01
 1.989506086103193e+00	 1.363266990660227e+00	 1.212406706772646e+01
 1.976234515467395e+00	 1.382435636742910e+00	 1.209865389226023e+01
 1.962766765633880e+00	 1.401491195608219e+00	 1.207187566492840e+01
 1.949104258986799e+00	 1.420430689883295e+00	 1.204399814838875e+01
 1.935248477654718e+00	 1.439251165556041e+00	 1.201524995770669e+01
 1.864439148813270e+00	 1.386590016247609e+00	 1.213725386626719e+01
 1.850903307320891e+00	 1.404607429438896e+00	 1.211275267544882e+01
 1.837184235171193e+00	 1.422504508563369e+00	 1.208420578219761e+01
 1.823283538569292e+00	 1.440278472033041e+00	 1.205184139128680e+01
 1.809202879294923e+00	 1.457926566399106e+00	 1.201585120285645e+01
 1.794943974079505e+00	 1.475446067740176e+00	 1.197638438521543e+01
 1.780508593941997e+00	 1.492834283034248e+00	 1.193354149244499e+01
 1.765898563484045e+00	 1.510088551512984e+00	 1.188736835935120e+01
 1.751115760144993e+00	 1.527206245996894e+00	 1.183950673310854e+01
 1.736162113417373e+00	 1.544184774210023e+00	 1.179173626032079e+01
 1.721039604023517e+00	 1.561021580072778e+00	 1.174329900761326e+01
 1.871520114801142e+00	 1.391856155797832e+00	 1.212461669674484e+01
 1.857932865445300e+00	 1.409941997443875e+00	 1.209965961787512e+01
 1.844161689539152e+00	 1.427907048005617e+00	 1.207078330151738e+01
 1.830208199388038e+00	 1.445748515330842e+00	 1.203823907651580e+01
 1.816074063082990e+00	 1.463463635513391e+00	 1.200224177940737e+01
 1.801761003875421e+00	 1.481049674286660e+00	 1.196296356107089e+01
 1.787270799510458e+00	 1.498503928400789e+00	 1.192052763202508e+01
 1.772605281519428e+00	 1.515823726982075e+00	 1.187500197960265e+01
 1.757766334472023e+00	 1.533006432873232e+00	 1.182682242522550e+01
 1.742755895188810e+00	 1.550049443953068e+00	 1.177865370578468e+01
 1.727575951914733e+00	 1.566950194434223e+00	 1.173032309968839e+01
 1.878601078782971e+00	 1.397122293856093e+00	 1.211205455101137e+01
 1.864962421578210e+00	 1.415276563937467e+00	 1.208660354679228e+01
 1.851139141930328e+00	 1.433309585917184e+00	 1.205736244814300e+01
 1.837132858244895e+00	 1.451218557078806e+00	 1.202460522724902e+01
 1.822945244924235e+00	 1.469000703058818e+00	 1.198856931315895e+01
 1.808578031739763e+00	 1.486653279245410e+00	 1.194944923063828e+01
 1.794033003162784e+00	 1.504173572160856e+00	 1.190739017142583e+01
 1.779311997654301e+00	 1.521558900826096e+00	 1.186248153180676e+01
 1.764416906914359e+00	 1.538806618106047e+00	 1.181475119197419e+01
 1.749349675091570e+00	 1.555914112034282e+00	 1.176610716684988e+01
 1.734112297953490e+00	 1.572878807115677e+00	 1.171780560329314e+01
 1.885682038752376e+00	 1.402388428930264e+00	 1.209957990873320e+01
 1.871991973727809e+00	 1.420611127408160e+00	 1.207359803287462e+01
 1.858116590367678e+00	 1.438712120767305e+00	 1.204395721589589e+01
 1.844057513177781e+00	 1.456688595727043e+00	 1.201095360299434e+01
 1.829816422871745e+00	 1.474537767466510e+00	 1.197484668348205e+01
 1.815395055740979e+00	 1.492256881028687e+00	 1.193585276017750e+01
 1.800795202982969e+00	 1.509843212707999e+00	 1.189413834485388e+01
 1.786018709988396e+00	 1.527294071420026e+00	 1.184981351435379e+01
 1.771067475587658e+00	 1.544606800051898e+00	 1.180292526376123e+01
 1.755943451257415e+00	 1.561778776791955e+00	 1.175408216467671e+01
 1.740648640287829e+00	 1.578807416437315e+00	 1.170572850336380e+01
 1.892762992702984e+00	 1.407654559528214e+00	 1.208720277129663e+01
 1.879021519902285e+00	 1.425945686344444e+00	 1.206065413820587e+01
 1.865094032874155e+00	 1.444114651025215e+00	 1.203057906776809e+01
 1.850982162224622e+00	 1.462158629725662e+00	 1.199729541815232e+01
 1.836687594978606e+00	 1.480074827167581e+00	 1.196108421821855e+01
 1.822212073947515e+00	 1.497860478048757e+00	 1.192218296575604e+01
 1.807557397055009e+00	 1.515512848435769e+00	 1.188077884532688e+01
 1.792725416621447e+00	 1.533029237138850e+00	 1.183700190103012e+01
 1.777718038607577e+00	 1.550406977067346e+00	 1.179091820134131e+01
 1.762537221818100e+00	 1.567643436564377e+00	 1.174256144132343e+01
 1.747184977065789e+00	 1.584736020719312e+00	 1.169407105827052e+01
 1.899843938628414e+00	 1.412920684157815e+00	 1.207493071964288e+01
 1.886051058109825e+00	 1.431280239234809e+00	 1.204778047488012e+01
 1.872071467472716e+00	 1.449517175160149e+00	 1.201723699503076e+01
 1.857906803423340e+00	 1.467628657524773e+00	 1.198363940137504e+01
 1.843558759297907e+00	 1.485611880593152e+00	 1.194728975303563e+01
 1.829029084427817e+00	 1.503464068717884e+00	 1.190844617234567e+01
 1.814319583462900e+00	 1.521182477737717e+00	 1.186731588326202e+01
 1.799432115653187e+00	 1.538764396357546e+00	 1.182404819885059e+01
 1.784368594089770e+00	 1.556207147508950e+00	 1.177872749577458e+01
 1.769130984905386e+00	 1.573508089689840e+00	 1.173136621544324e+01
 1.753721306435410e+00	 1.590664618281842e+00	 1.168280986223437e+01
 1.906924874522291e+00	 1.418186801326936e+00	 1.206276897220277e+01
 1.893080586358616e+00	 1.436614784567744e+00	 1.203498326369253e+01
 1.879048892186315e+00	 1.454919691641342e+00	 1.200393757642685e+01
 1.864831434811856e+00	 1.473098677574487e+00	 1.196999185500862e+01
 1.850429913882734e+00	 1.491148926174340e+00	 1.193346869086687e+01
 1.835846085250330e+00	 1.509067651448332e+00	 1.189464627301378e+01
 1.821081760290637e+00	 1.526852099007392e+00	 1.185375124517104e+01
 1.806138805183349e+00	 1.544499547451097e+00	 1.181095150601376e+01
 1.791019140149892e+00	 1.562007309733271e+00	 1.176634899124763e+01
 1.775724738651032e+00	 1.579372734506631e+00	 1.171997247802141e+01
 1.760257626544733e+00	 1.596593207445081e+00	 1.167191890794245e+01
 1.914005798378236e+00	 1.423452909543449e+00	 1.205072044292820e+01
 1.900110102656846e+00	 1.441949320831738e+00	 1.202226639291722e+01
 1.886026305037907e+00	 1.460322198938027e+00	 1.199068503744588e+01
 1.871756054428095e+00	 1.478568688324913e+00	 1.195635671461636e+01
 1.857301056786175e+00	 1.496685962342265e+00	 1.191962406143789e+01
 1.842663074483502e+00	 1.514671224652364e+00	 1.188078478820677e+01
 1.827843925622218e+00	 1.532521710638346e+00	 1.184008435245941e+01
 1.812845483311668e+00	 1.550234688794485e+00	 1.179770856997694e+01
 1.797669674903600e+00	 1.567807462096869e+00	 1.175377620235103e+01
 1.782318481186795e+00	 1.585237369353043e+00	 1.170833156246934e+01
 1.766793935541797e+00	 1.602521786529205e+00	 1.166133718092780e+01
 1.921086708189874e+00	 1.428719007315223e+00	 1.203878579941769e+01
 1.907139605012702e+00	 1.447283846515282e+00	 1.200963147716991e+01
 1.893003704050447e+00	 1.465724695519441e+00	 1.197748130967815e+01
 1.878680660309978e+00	 1.484038688226160e+00	 1.194273560858084e+01
 1.864172186061317e+00	 1.502222987528044e+00	 1.190575658087387e+01
 1.849480050195777e+00	 1.520274786742246e+00	 1.186686092512268e+01
 1.834606077541637e+00	 1.538191311024130e+00	 1.182631232032596e+01
 1.819552148137876e+00	 1.555969818762690e+00	 1.178431384564737e+01
 1.804320196466549e+00	 1.573607602956306e+00	 1.174100037132929e+01
 1.788912210644436e+00	 1.591101992567367e+00	 1.169643096301474e+01
 1.773330231574643e+00	 1.608450353854388e+00	 1.165058134341123e+01
 1.928167601950828e+00	 1.433985093150131e+00	 1.202696352113338e+01
 1.914169091434372e+00	 1.452618360106865e+00	 1.199707791635270e+01
 1.899981087246890e+00	 1.471127179854817e+00	 1.196432609024628e+01
 1.885605250495428e+00	 1.489508675728339e+00	 1.192912791778239e+01
 1.871043299761248e+00	 1.507760000162794e+00	 1.189186471138655e+01
 1.856297010455603e+00	 1.525878336130241e+00	 1.185287163717060e+01
 1.841368214132891e+00	 1.543860898558293e+00	 1.181243001676067e+01
 1.826258797761706e+00	 1.561704935730695e+00	 1.177075955368664e+01
 1.810970702954395e+00	 1.579407730668139e+00	 1.172801052546275e+01
 1.795505925155712e+00	 1.596966602487890e+00	 1.168425598446381e+01
 1.779866512791311e+00	 1.614378907740806e+00	 1.163948401246945e+01
 1.935248477654718e+00	 1.439251165556041e+00	 1.201524995770669e+01
 1.921198559930043e+00	 1.457952860094976e+00	 1.198460295467879e+01
 1.906958452650192e+00	 1.476529650413391e+00	 1.195121690131178e+01
 1.892529823022367e+00	 1.494978649281559e+00	 1.191553083535146e+01
 1.877914395939055e+00	 1.513296998677638e+00	 1.187794472103849e+01
 1.863113953331427e+00	 1.531481871228614e+00	 1.183881168351457e+01
 1.848130333479975e+00	 1.549530471634388e+00	 1.179843012163757e+01
 1.832965430282894e+00	 1.567440038073481e+00	 1.175703573892479e+01
 1.817621192482792e+00	 1.585207843588931e+00	 1.171479353457798e+01
 1.802099622852384e+00	 1.602831197452905e+00	 1.167178979858524e+01
 1.786402777339841e+00	 1.620307446508633e+00	 1.162802415672440e+01
 1.721039604023517e+00	 1.561021580072778e+00	 1.174329900761326e+01
 1.705752871481626e+00	 1.577711324479812e+00	 1.169575079557140e+01
 1.690301416359099e+00	 1.594254425523221e+00	 1.165069106632644e+01
 1.674687339431072e+00	 1.610648471685908e+00	 1.160735694332889e+01
 1.658912789003697e+00	 1.626891092545054e+00	 1.156491616669915e+01
 1.642979959922168e+00	 1.642979959922168e+00	 1.152246288572270e+01
 1.626891092545055e+00	 1.658912789003697e+00	 1.147901359185529e+01
 1.610648471685908e+00	 1.674687339431073e+00	 1.143350323204053e+01
 1.594254425523221e+00	 1.690301416359099e+00	 1.138478154246069e+01
 1.577711324479812e+00	 1.705752871481626e+00	 1.133160964288180e+01
 1.561021580072778e+00	 1.721039604023517e+00	 1.127265693150916e+01
 1.727575951914733e+00	 1.566950194434223e+00	 1.173032309968839e+01
 1.712231161788455e+00	 1.583703324933919e+00	 1.168331336245249e+01
 1.696721023480571e+00	 1.600309255132129e+00	 1.163908932545708e+01
 1.681047645744755e+00	 1.616765564353048e+00	 1.159679753389382e+01
 1.665213185046218e+00	 1.633069873171222e+00	 1.155551224576262e+01
 1.649219844565963e+00	 1.649219844565963e+00	 1.151423118325231e+01
 1.633069873171222e+00	 1.665213185046219e+00	 1.147187142604147e+01
 1.616765564353048e+00	 1.681047645744757e+00	 1.142726548720655e+01
 1.600309255132129e+00	 1.696721023480571e+00	 1.137915761276686e+01
 1.583703324933918e+00	 1.712231161788455e+00	 1.132620034595213e+01
 1.566950194434223e+00	 1.727575951914733e+00	 1.126695139704697e+01
 1.734112297953490e+00	 1.572878807115677e+00	 1.171780560329314e+01
 1.718709450259242e+00	 1.589695323690025e+00	 1.167124540969061e+01
 1.703140628782617e+00	 1.606364083025182e+00	 1.162774805097137e+01
 1.687407950255825e+00	 1.622882655286639e+00	 1.158637131462098e+01
 1.671513579303124e+00	 1.639248652046312e+00	 1.154609786914586e+01
 1.655459727441323e+00	 1.655459727441322e+00	 1.150583096838449e+01
 1.639248652046312e+00	 1.671513579303124e+00	 1.146439029892031e+01
 1.622882655286639e+00	 1.687407950255825e+00	 1.142050801219366e+01
 1.606364083025182e+00	 1.703140628782617e+00	 1.137282498327707e+01
 1.589695323690025e+00	 1.718709450259243e+00	 1.131988733835340e+01
 1.572878807115678e+00	 1.734112297953491e+00	 1.126014329271731e+01
 1.740648640287829e+00	 1.578807416437315e+00	 1.170572850336380e+01
 1.725187735058482e+00	 1.595687319050353e+00	 1.165952558779539e+01
 1.709560230446359e+00	 1.612418907486808e+00	 1.161664349526271e+01
 1.693768251162196e+00	 1.628999742753476e+00	 1.157605305855804e+01
 1.677813969989298e+00	 1.645427427419650e+00	 1.153664723168858e+01
 1.661699606780268e+00	 1.661699606780268e+00	 1.149723674111890e+01
 1.645427427419649e+00	 1.677813969989298e+00	 1.145654588106409e+01
 1.628999742753476e+00	 1.693768251162197e+00	 1.141320849536761e+01
 1.612418907486807e+00	 1.709560230446359e+00	 1.136576418889013e+01
 1.595687319050353e+00	 1.725187735058483e+00	 1.131265481143125e+01
 1.578807416437315e+00	 1.740648640287829e+00	 1.125222125699828e+01
 1.747184977065789e+00	 1.584736020719312e+00	 1.169407105827052e+01
 1.731666014350667e+00	 1.601679309317123e+00	 1.164812986875926e+01
 1.715979826652915e+00	 1.618473726801433e+00	 1.160574926498660e+01
 1.700128546661788e+00	 1.635116825020353e+00	 1.156581491102037e+01
 1.684114355319626e+00	 1.651606197540560e+00	 1.152713190425067e+01
 1.667939480814823e+00	 1.667939480814823e+00	 1.148842036751758e+01
 1.651606197540561e+00	 1.684114355319627e+00	 1.144831118600435e+01
 1.635116825020352e+00	 1.700128546661788e+00	 1.140534193239101e+01
 1.618473726801432e+00	 1.715979826652915e+00	 1.135795302418566e+01
 1.601679309317123e+00	 1.731666014350667e+00	 1.130448415726565e+01
 1.584736020719312e+00	 1.747184977065789e+00	 1.124317105946660e+01
 1.753721306435410e+00	 1.590664618281842e+00	 1.168280986223437e+01
 1.738144286300291e+00	 1.607671292792556e+00	 1.163703160685844e+01
 1.722399415583405e+00	 1.624528539253485e+00	 1.159503638041405e+01
 1.706488834952518e+00	 1.641233900354063e+00	 1.155562644766018e+01
 1.690414733508997e+00	 1.657784960658371e+00	 1.151752089065400e+01
 1.674179347777009e+00	 1.674179347777009e+00	 1.147935113567186e+01
 1.657784960658371e+00	 1.690414733508997e+00	 1.143965662537058e+01
 1.641233900354063e+00	 1.706488834952518e+00	 1.139688068067465e+01
 1.624528539253484e+00	 1.722399415583405e+00	 1.134936659732285e+01
 1.607671292792556e+00	 1.738144286300292e+00	 1.129535402214713e+01
 1.590664618281842e+00	 1.753721306435410e+00	 1.123297565397490e+01
 1.760257626544733e+00	 1.596593207445081e+00	 1.167191890794245e+01
 1.744622549071847e+00	 1.613663267778873e+00	 1.162620159968015e+01
 1.728818995418950e+00	 1.630583343127389e+00	 1.158447333503400e+01
 1.712849114232304e+00	 1.647350967021405e+00	 1.154545473280202e+01
 1.696715102772293e+00	 1.663963715022407e+00	 1.150778068490458e+01
 1.680419205898848e+00	 1.680419205898847e+00	 1.146999581195769e+01
 1.663963715022407e+00	 1.696715102772293e+00	 1.143055006432066e+01
 1.647350967021405e+00	 1.712849114232305e+00	 1.138779451411944e+01
 1.630583343127389e+00	 1.728818995418950e+00	 1.133997738422527e+01
 1.613663267778873e+00	 1.744622549071847e+00	 1.128524036032983e+01
 1.596593207445081e+00	 1.760257626544733e+00	 1.122161523209294e+01
 1.766793935541797e+00	 1.602521786529205e+00	 1.166133718092780e+01
 1.751100800829827e+00	 1.619655232578295e+00	 1.161560814936988e+01
 1.735238564340668e+00	 1.636638136707574e+00	 1.157402615539814e+01
 1.719209382699064e+00	 1.653468023289169e+00	 1.153526437803851e+01
 1.703015461324401e+00	 1.670142458881994e+00	 1.149787532868628e+01
 1.686659053412363e+00	 1.686659053412363e+00	 1.146031869757087e+01
 1.670142458881994e+00	 1.703015461324401e+00	 1.142095687725513e+01
 1.653468023289169e+00	 1.719209382699064e+00	 1.137805067814218e+01
 1.636638136707574e+00	 1.735238564340668e+00	 1.132975528304455e+01
 1.619655232578294e+00	 1.751100800829828e+00	 1.127411648805454e+01
 1.602521786529205e+00	 1.766793935541797e+00	 1.120916931851148e+01
 1.773330231574643e+00	 1.608450353854388e+00	 1.165058134341123e+01
 1.757579039738728e+00	 1.625647185493043e+00	 1.160521712409301e+01
 1.741658120529679e+00	 1.642692918278465e+00	 1.156365846120151e+01
 1.725569638550716e+00	 1.659585067424153e+00	 1.152501760107820e+01
 1.709315807380207e+00	 1.676321190486458e+00	 1.148776646912006e+01
 1.692898888549577e+00	 1.692898888549577e+00	 1.145028168533566e+01
 1.676321190486458e+00	 1.709315807380207e+00	 1.141084000380806e+01
 1.659585067424152e+00	 1.725569638550716e+00	 1.136761394497651e+01
 1.642692918278465e+00	 1.741658120529680e+00	 1.131866766889493e+01
 1.625647185493043e+00	 1.757579039738728e+00	 1.126195313783439e+01
 1.608450353854388e+00	 1.773330231574643e+00	 1.119700275273858e+01
 1.779866512791311e+00	 1.614378907740806e+00	 1.163948401246945e+01
 1.764057263963040e+00	 1.631639124825339e+00	 1.159499201970463e+01
 1.748077662167105e+00	 1.648747686124491e+00	 1.155333152559258e+01
 1.731929879985176e+00	 1.665702097693149e+00	 1.151467428483993e+01
 1.715616139154597e+00	 1.682499908085125e+00	 1.147741341678105e+01
 1.699138709542511e+00	 1.699138709542511e+00	 1.143984431677850e+01
 1.682499908085125e+00	 1.715616139154597e+00	 1.140016000510688e+01
 1.665702097693149e+00	 1.731929879985177e+00	 1.135644666924295e+01
 1.648747686124491e+00	 1.748077662167105e+00	 1.130667944885198e+01
 1.631639124825338e+00	 1.764057263963040e+00	 1.124871851299655e+01
 1.614378907740805e+00	 1.779866512791310e+00	 1.118541124089307e+01
 1.786402777339841e+00	 1.620307446508633e+00	 1.162802415672440e+01
 1.770535471667258e+00	 1.637631048877402e+00	 1.158466430741736e+01
 1.754497187434063e+00	 1.654802438530077e+00	 1.154300433570666e+01
 1.738290105200364e+00	 1.671819112362954e+00	 1.150419203678616e+01
 1.721916454862457e+00	 1.688678609927321e+00	 1.146677320396664e+01
 1.705378514623189e+00	 1.705378514623189e+00	 1.142896383946065e+01
 1.688678609927321e+00	 1.721916454862457e+00	 1.138887512029427e+01
 1.671819112362954e+00	 1.738290105200364e+00	 1.134450884377998e+01
 1.654802438530077e+00	 1.754497187434064e+00	 1.129375311720818e+01
 1.637631048877402e+00	 1.770535471667259e+00	 1.123505685860789e+01
 1.620307446508632e+00	 1.786402777339840e+00	 1.117421810309312e+01
 1.561021580072778e+00	 1.721039604023517e+00	 1.127265693150916e+01
 1.544184774210024e+00	 1.736162113417373e+00	 1.120891416856843e+01
 1.527206245996895e+00	 1.751115760144993e+00	 1.114042725021963e+01
 1.510088551512984e+00	 1.765898563484043e+00	 1.106429049117827e+01
 1.492834283034248e+00	 1.780508593941995e+00	 1.098639888644155e+01
 1.475446067740177e+00	 1.794943974079505e+00	 1.091194827428124e+01
 1.457926566399107e+00	 1.809202879294922e+00	 1.084023443667802e+01
 1.440278472033042e+00	 1.823283538569291e+00	 1.077056761675984e+01
 1.422504508563371e+00	 1.837184235171193e+00	 1.070227224310511e+01
 1.404607429438897e+00	 1.850903307320891e+00	 1.063468653713611e+01
 1.386590016247609e+00	 1.864439148813270e+00	 1.056716201032928e+01
 1.566950194434223e+00	 1.727575951914733e+00	 1.126695139704697e+01
 1.550049443953068e+00	 1.742755895188809e+00	 1.120210088715765e+01
 1.533006432873233e+00	 1.757766334472022e+00	 1.113145753486207e+01
 1.515823726982076e+00	 1.772605281519428e+00	 1.105413684823850e+01
 1.498503928400790e+00	 1.787270799510458e+00	 1.097898417916718e+01
 1.481049674286661e+00	 1.801761003875420e+00	 1.090681540057934e+01
 1.463463635513391e+00	 1.816074063082990e+00	 1.083695538507705e+01
 1.445748515330843e+00	 1.830208199388039e+00	 1.076874512601554e+01
 1.427907048005618e+00	 1.844161689539151e+00	 1.070154138121552e+01
 1.409941997443876e+00	 1.857932865445300e+00	 1.063471619613876e+01
 1.391856155797832e+00	 1.871520114801143e+00	 1.056765631349928e+01
 1.572878807115678e+00	 1.734112297953491e+00	 1.126014329271731e+01
 1.555914112034282e+00	 1.749349675091570e+00	 1.119399360061511e+01
 1.538806618106048e+00	 1.764416906914358e+00	 1.112101990299353e+01
 1.521558900826097e+00	 1.779311997654300e+00	 1.104521642129724e+01
 1.504173572160857e+00	 1.794033003162784e+00	 1.097262047517238e+01
 1.486653279245410e+00	 1.808578031739762e+00	 1.090257137031790e+01
 1.469000703058819e+00	 1.822945244924235e+00	 1.083442398844246e+01
 1.451218557078806e+00	 1.837132858244894e+00	 1.076755103361313e+01
 1.433309585917184e+00	 1.851139141930327e+00	 1.070134259332321e+01
 1.415276563937468e+00	 1.864962421578209e+00	 1.063520557533122e+01
 1.397122293856093e+00	 1.878601078782971e+00	 1.056856302749154e+01
 1.578807416437315e+00	 1.740648640287829e+00	 1.125222125699828e+01
 1.561778776791956e+00	 1.755943451257414e+00	 1.118458601288579e+01
 1.544606800051898e+00	 1.771067475587658e+00	 1.111032305652659e+01
 1.527294071420028e+00	 1.786018709988396e+00	 1.103734055713233e+01
 1.509843212708000e+00	 1.800795202982968e+00	 1.096712224814489e+01
 1.492256881028687e+00	 1.815395055740978e+00	 1.089903397904405e+01
 1.474537767466510e+00	 1.829816422871744e+00	 1.083246155385982e+01
 1.456688595727043e+00	 1.844057513177781e+00	 1.076681034255219e+01
 1.438712120767306e+00	 1.858116590367677e+00	 1.070150475738268e+01
 1.420611127408160e+00	 1.871991973727808e+00	 1.063598760129827e+01
 1.402388428930264e+00	 1.885682038752377e+00	 1.056971929580238e+01
 1.584736020719312e+00	 1.747184977065789e+00	 1.124317105946660e+01
 1.567643436564378e+00	 1.762537221818100e+00	 1.117386888162844e+01
 1.550406977067346e+00	 1.777718038607577e+00	 1.110067795002181e+01
 1.533029237138851e+00	 1.792725416621446e+00	 1.103032339087038e+01
 1.515512848435770e+00	 1.807557397055008e+00	 1.096230669675802e+01
 1.497860478048758e+00	 1.822212073947514e+00	 1.089602367937623e+01
 1.480074827167582e+00	 1.836687594978606e+00	 1.083089197314849e+01
 1.462158629725662e+00	 1.850982162224621e+00	 1.076635056393655e+01
 1.444114651025216e+00	 1.865094032874154e+00	 1.070185917866397e+01
 1.425945686344444e+00	 1.879021519902285e+00	 1.063689754312756e+01
 1.407654559528214e+00	 1.892762992702983e+00	 1.057096451573080e+01
 1.590664618281842e+00	 1.753721306435410e+00	 1.123297565397490e+01
 1.573508089689840e+00	 1.769130984905385e+00	 1.116234944553816e+01
 1.556207147508951e+00	 1.784368594089769e+00	 1.109190122848074e+01
 1.538764396357547e+00	 1.799432115653187e+00	 1.102398182352275e+01
 1.521182477737718e+00	 1.814319583462899e+00	 1.095799372322701e+01
 1.503464068717884e+00	 1.829029084427815e+00	 1.089336356066405e+01
 1.485611880593152e+00	 1.843558759297906e+00	 1.082954170370728e+01
 1.467628657524774e+00	 1.857906803423339e+00	 1.076600169908511e+01
 1.449517175160149e+00	 1.872071467472715e+00	 1.070223957320545e+01
 1.431280239234810e+00	 1.886051058109825e+00	 1.063777299727866e+01
 1.412920684157815e+00	 1.899843938628414e+00	 1.057214032473596e+01
 1.596593207445081e+00	 1.760257626544733e+00	 1.122161523209294e+01
 1.579372734506632e+00	 1.775724738651031e+00	 1.115159663198026e+01
 1.562007309733271e+00	 1.791019140149892e+00	 1.108380978306775e+01
 1.544499547451098e+00	 1.806138805183349e+00	 1.101813549970211e+01
 1.526852099007393e+00	 1.821081760290637e+00	 1.095400591202392e+01
 1.509067651448332e+00	 1.835846085250330e+00	 1.089087932878481e+01
 1.491148926174341e+00	 1.850429913882733e+00	 1.082823974947279e+01
 1.473098677574488e+00	 1.864831434811856e+00	 1.076559622172979e+01
 1.454919691641342e+00	 1.879048892186314e+00	 1.070248205132713e+01
 1.436614784567744e+00	 1.893080586358616e+00	 1.063845387248445e+01
 1.418186801326936e+00	 1.906924874522291e+00	 1.057309058679661e+01
 1.602521786529205e+00	 1.766793935541797e+00	 1.120916931851148e+01
 1.585237369353044e+00	 1.782318481186795e+00	 1.114155542782234e+01
 1.567807462096870e+00	 1.797669674903600e+00	 1.107622328238260e+01
 1.550234688794486e+00	 1.812845483311668e+00	 1.101260678551416e+01
 1.532521710638347e+00	 1.827843925622217e+00	 1.095016850874810e+01
 1.514671224652365e+00	 1.842663074483501e+00	 1.088839928607360e+01
 1.496685962342265e+00	 1.857301056786174e+00	 1.082681764198780e+01
 1.478568688324913e+00	 1.871756054428095e+00	 1.076496906029885e+01
 1.460322198938028e+00	 1.886026305037906e+00	 1.070242510120269e+01
 1.441949320831739e+00	 1.900110102656845e+00	 1.063878237468331e+01
 1.423452909543449e+00	 1.914005798378236e+00	 1.057366137877279e+01
 1.608450353854388e+00	 1.773330231574643e+00	 1.119700275273858e+01
 1.591101992567368e+00	 1.788912210644435e+00	 1.113204579609602e+01
 1.573607602956306e+00	 1.804320196466549e+00	 1.106896414964602e+01
 1.555969818762691e+00	 1.819552148137875e+00	 1.100722074662023e+01
 1.538191311024130e+00	 1.834606077541636e+00	 1.094630939914737e+01
 1.520274786742247e+00	 1.849480050195777e+00	 1.088575431138262e+01
 1.502222987528044e+00	 1.864172186061316e+00	 1.082510942157622e+01
 1.484038688226160e+00	 1.878680660309977e+00	 1.076395758028229e+01
 1.465724695519442e+00	 1.893003704050447e+00	 1.070190957248814e+01
 1.447283846515282e+00	 1.907139605012702e+00	 1.063860299198147e+01
 1.428719007315224e+00	 1.921086708189874e+00	 1.057370097676933e+01
 1.614378907740805e+00	 1.779866512791310e+00	 1.118541124089307e+01
 1.596966602487891e+00	 1.795505925155712e+00	 1.112289048165447e+01
 1.579407730668140e+00	 1.810970702954394e+00	 1.106185754006920e+01
 1.561704935730695e+00	 1.826258797761706e+00	 1.100180512646585e+01
 1.543860898558294e+00	 1.841368214132890e+00	 1.094225908828605e+01
 1.525878336130242e+00	 1.856297010455603e+00	 1.088277784026681e+01
 1.507760000162796e+00	 1.871043299761247e+00	 1.082295161862198e+01
 1.489508675728339e+00	 1.885605250495427e+00	 1.076240156667793e+01
 1.471127179854818e+00	 1.899981087246890e+00	 1.070077866000619e+01
 1.452618360106865e+00	 1.914169091434371e+00	 1.063776247964453e+01
 1.433985093150131e+00	 1.928167601950828e+00	 1.057305984250094e+01
 1.620307446508632e+00	 1.786402777339840e+00	 1.117421810309312e+01
 1.602831197452906e+00	 1.802099622852383e+00	 1.111391498795974e+01
 1.585207843588931e+00	 1.817621192482791e+00	 1.105473131840216e+01
 1.567440038073481e+00	 1.832965430282893e+00	 1.099619032467113e+01
 1.549530471634388e+00	 1.848130333479974e+00	 1.093785067985599e+01
 1.531481871228615e+00	 1.863113953331426e+00	 1.087930584529188e+01
 1.513296998677638e+00	 1.877914395939054e+00	 1.082018323494894e+01
 1.494978649281560e+00	 1.892529823022367e+00	 1.076014320651502e+01
 1.476529650413391e+00	 1.906958452650191e+00	 1.069887788748390e+01
 1.457952860094977e+00	 1.921198559930042e+00	 1.063610984511676e+01
 1.439251165556041e+00	 1.935248477654719e+00	 1.057159060965858e+01
 1.386590016247609e+00	 1.864439148813270e+00	 1.056716201032928e+01
 1.368458168036886e+00	 1.877787957222933e+00	 1.049761265554090e+01
 1.350211656027125e+00	 1.890950562728077e+00	 1.042442723569290e+01
 1.331853326145434e+00	 1.903925537429925e+00	 1.034773673139567e+01
 1.313386046824939e+00	 1.916711510988107e+00	 1.026770143520471e+01
 1.294812707563215e+00	 1.929307171029115e+00	 1.018450889520328e+01
 1.276136217473172e+00	 1.941711263511818e+00	 1.009837177893033e+01
 1.257359503827862e+00	 1.953922593049959e+00	 1.000952566824121e+01
 1.238485510600663e+00	 1.965940023191579e+00	 9.918226795821983e+00
 1.219517197002343e+00	 1.977762476655389e+00	 9.824749734167611e+00
 1.200457536016417e+00	 1.989388935524150e+00	 9.729385047880992e+00
 1.391856155797832e+00	 1.871520114801143e+00	 1.056765631349928e+01
 1.373655444518903e+00	 1.884919620740023e+00	 1.049842050276929e+01
 1.355339633958595e+00	 1.898132216593088e+00	 1.042553227403655e+01
 1.336911580852564e+00	 1.911156469038548e+00	 1.034914445230238e+01
 1.318374164527964e+00	 1.923991002531626e+00	 1.026944020904748e+01
 1.299730285456395e+00	 1.936634499714555e+00	 1.018663092426177e+01
 1.280982863799295e+00	 1.949085701783490e+00	 1.010095396683305e+01
 1.262134837947208e+00	 1.961343408812223e+00	 1.001267040413166e+01
 1.243189163054435e+00	 1.973406480032670e+00	 9.922062651761848e+00
 1.224148809570534e+00	 1.985273834072143e+00	 9.829432074542821e+00
 1.205016761770121e+00	 1.996944449147465e+00	 9.735096549827690e+00
 1.397122293856093e+00	 1.878601078782971e+00	 1.056856302749154e+01
 1.378852719528515e+00	 1.892051282236691e+00	 1.049961809022716e+01
 1.360467610437339e+00	 1.905313868423473e+00	 1.042702558476541e+01
 1.341969834126771e+00	 1.918387398598522e+00	 1.035095667786848e+01
 1.323362280817981e+00	 1.931270492012660e+00	 1.027161382274643e+01
 1.304647861956593e+00	 1.943961826323868e+00	 1.018922854463469e+01
 1.285829508752560e+00	 1.956460137965592e+00	 1.010405914282437e+01
 1.266910170713917e+00	 1.968764222471682e+00	 1.001638832022228e+01
 1.247892814175880e+00	 1.980872934757936e+00	 9.926520751653790e+00
 1.228780420826794e+00	 1.992785189360276e+00	 9.834780602214192e+00
 1.209575986232365e+00	 2.004499960629588e+00	 9.741509007020756e+00
 1.402388428930264e+00	 1.885682038752377e+00	 1.056971929580238e+01
 1.384049991593091e+00	 1.899182939692204e+00	 1.050104621072655e+01
 1.365595584010351e+00	 1.912495516184349e+00	 1.042875034275400e+01
 1.347028084534786e+00	 1.925618324061018e+00	 1.035301774518089e+01
 1.328350394281577e+00	 1.938549977368639e+00	 1.027406660402841e+01
 1.309565435670362e+00	 1.951289148780951e+00	 1.019214495222471e+01
 1.290676150959605e+00	 1.963834569968696e+00	 1.010752829841263e+01
 1.271685500774819e+00	 1.976185031925785e+00	 1.002051718169103e+01
 1.252596462632129e+00	 1.988339385251911e+00	 9.931434663737328e+00
 1.233412029458654e+00	 2.000296540391605e+00	 9.840623769850893e+00
 1.214135208111189e+00	 2.012055467829829e+00	 9.748444890504562e+00
 1.407654559528214e+00	 1.892762992702983e+00	 1.057096451573081e+01
 1.389247259240002e+00	 1.906314591085828e+00	 1.050254782936854e+01
 1.370723553224621e+00	 1.919677157840829e+00	 1.043055183135642e+01
 1.352086330643339e+00	 1.932849243377207e+00	 1.035517405304291e+01
 1.333338503505339e+00	 1.945829456536996e+00	 1.027664491195065e+01
 1.314483005204260e+00	 1.958616465009701e+00	 1.019522535957523e+01
 1.295522789047067e+00	 1.971208995703369e+00	 1.011120444206152e+01
 1.276460826776743e+00	 1.983605835071981e+00	 1.002489678528813e+01
 1.257300107090309e+00	 1.995805829399122e+00	 9.936640016032547e+00
 1.238043634153651e+00	 2.007807885037947e+00	 9.846792130982436e+00
 1.218694426114638e+00	 2.019610968607495e+00	 9.755728825407127e+00
 1.412920684157815e+00	 1.899843938628414e+00	 1.057214032473596e+01
 1.394444520996620e+00	 1.913446234396830e+00	 1.050396807125354e+01
 1.375851516627142e+00	 1.926858791358031e+00	 1.043227743113826e+01
 1.357144571019162e+00	 1.940080154498256e+00	 1.035727405140920e+01
 1.338326607075852e+00	 1.953108927455161e+00	 1.027919712673113e+01
 1.319400569164843e+00	 1.965943772934017e+00	 1.019831698580056e+01
 1.300369421641584e+00	 1.978583413080182e+00	 1.011493258893767e+01
 1.281236147366518e+00	 1.991026629807715e+00	 1.002936894863146e+01
 1.262003746217550e+00	 2.003272265084101e+00	 9.941974484925863e+00
 1.242675233599317e+00	 2.015319221171120e+00	 9.853118327630463e+00
 1.223253638950750e+00	 2.027166460821896e+00	 9.763187577386741e+00
 1.418186801326936e+00	 1.906924874522291e+00	 1.057309058679661e+01
 1.399641775390316e+00	 1.920577867604473e+00	 1.050515420916762e+01
 1.380979472764906e+00	 1.934040414701068e+00	 1.043377660856612e+01
 1.362202804228986e+00	 1.947311055375339e+00	 1.035916823076552e+01
 1.343314703579704e+00	 1.960388388060564e+00	 1.028157363951898e+01
 1.324318126158667e+00	 1.973271070477796e+00	 1.020126904645890e+01
 1.305216047369795e+00	 1.985957820009707e+00	 1.011855975061004e+01
 1.286011461190975e+00	 1.998447414030435e+00	 1.003377749946838e+01
 1.266707378680979e+00	 2.010738690191377e+00	 9.947277783743363e+00
 1.247306826483185e+00	 2.022830546662941e+00	 9.859437077954679e+00
 1.227812845327571e+00	 2.034721942332341e+00	 9.770650039124396e+00
 1.423452909543449e+00	 1.914005798378236e+00	 1.057366137877279e+01
 1.404839020948460e+00	 1.927709488688025e+00	 1.050595565124479e+01
 1.386107420184904e+00	 1.941222025835056e+00	 1.043490090465431e+01
 1.367261028839542e+00	 1.954541943959623e+00	 1.036070911145577e+01
 1.348302791603482e+00	 1.967667836290638e+00	 1.028362684210743e+01
 1.329235674792287e+00	 1.980598355564935e+00	 1.020393274336998e+01
 1.310062664858337e+00	 1.993332214402511e+00	 1.012193492470215e+01
 1.290786766896941e+00	 2.005868185637589e+00	 1.003796826490506e+01
 1.271411003147726e+00	 2.018205102605481e+00	 9.952391651311300e+00
 1.251938411492790e+00	 2.030341859385227e+00	 9.865585163911781e+00
 1.232372043953140e+00	 2.042277410998140e+00	 9.777947216860417e+00
 1.428719007315224e+00	 1.921086708189874e+00	 1.057370097676933e+01
 1.410036256198424e+00	 1.934841095626753e+00	 1.050622392860648e+01
 1.391235357434127e+00	 1.948403622725111e+00	 1.043550392357093e+01
 1.372319243417560e+00	 1.961772818202281e+00	 1.036175123295602e+01
 1.353290869733770e+00	 1.974947270082814e+00	 1.028521111659018e+01
 1.334153213672261e+00	 1.987925626119333e+00	 1.020616125437787e+01
 1.314909272733848e+00	 2.000706594169163e+00	 1.012490908449829e+01
 1.295562063131248e+00	 2.013288942526623e+00	 1.004178906060380e+01
 1.276114618284920e+00	 2.025671500210940e+00	 9.957159840504858e+00
 1.256569987315666e+00	 2.037853157209798e+00	 9.871401418927286e+00
 1.236931233535500e+00	 2.049832864678602e+00	 9.784912216973572e+00
 1.433985093150131e+00	 1.928167601950828e+00	 1.057305984250094e+01
 1.415233479667579e+00	 1.941972686399922e+00	 1.050581268297766e+01
 1.396363283059568e+00	 1.955585203336347e+00	 1.043544132120313e+01
 1.377377446529773e+00	 1.969003676054482e+00	 1.036215114309825e+01
 1.358278936557157e+00	 1.982226687374522e+00	 1.028618282496271e+01
 1.339070741405144e+00	 1.995252880064886e+00	 1.020780972306111e+01
 1.319755869622966e+00	 2.008080957220236e+00	 1.012733516850439e+01
 1.300337348540725e+00	 2.020709682594986e+00	 1.004508967994887e+01
 1.280818222759690e+00	 2.033137880892287e+00	 9.961428106784416e+00
 1.261201552639345e+00	 2.045364438008467e+00	 9.876726715579860e+00
 1.241490412782693e+00	 2.057388301233035e+00	 9.791380232602288e+00
 1.439251165556041e+00	 1.935248477654719e+00	 1.057159060965858e+01
 1.420430689883295e+00	 1.949104258986799e+00	 1.050457765428068e+01
 1.401491195608220e+00	 1.962766765633880e+00	 1.043457079368325e+01
 1.382435636742910e+00	 1.976234515467395e+00	 1.036176738724371e+01
 1.363266990660228e+00	 1.989506086103192e+00	 1.028640029866909e+01
 1.343988256597493e+00	 2.002580115325494e+00	 1.020873524839041e+01
 1.324602454152328e+00	 2.015455301466298e+00	 1.012906806996489e+01
 1.305112621772200e+00	 2.028130403740125e+00	 1.004772188318198e+01
 1.285521815239164e+00	 2.040604242534051e+00	 9.965044196720019e+00
 1.265833106151362e+00	 2.052875699653055e+00	 9.881403953296729e+00
 1.246049580402761e+00	 2.064943718520748e+00	 9.797188530305737e+00
 1.200457536016417e+00	 1.989388935524150e+00	 9.729385047880992e+00
 1.181309513308292e+00	 2.000818441877797e+00	 9.634298523431962e+00
 1.162076126859514e+00	 2.012050099356196e+00	 9.540936346571094e+00
 1.142760384342097e+00	 2.023083071787823e+00	 9.448801942688300e+00
 1.123365301280397e+00	 2.033916582729283e+00	 9.357494252759473e+00
 1.103893899598469e+00	 2.044549915443672e+00	 9.266697210753755e+00
 1.084349206174317e+00	 2.054982412837529e+00	 9.176167354840455e+00
 1.064734251402393e+00	 2.065213477356799e+00	 9.085717899385060e+00
 1.045052067765649e+00	 2.075242570842330e+00	 8.995203640308757e+00
 1.025305688418447e+00	 2.085069214345414e+00	 8.904506769490723e+00
 1.005498145781580e+00	 2.094692987903986e+00	 8.813523664744315e+00
 1.205016761770121e+00	 1.996944449147465e+00	 9.735096549827690e+00
 1.185796016657869e+00	 2.008417363700488e+00	 9.641138099770235e+00
 1.166489583601383e+00	 2.019691677966768e+00	 9.548858685968039e+00
 1.147100481695540e+00	 2.030766552599055e+00	 9.457721307543361e+00
 1.127631737917382e+00	 2.041641208205070e+00	 9.367328271775742e+00
 1.108086385667956e+00	 2.052314925325784e+00	 9.277355901202768e+00
 1.088467463321074e+00	 2.062787044372132e+00	 9.187552631651956e+00
 1.068778012780347e+00	 2.073056965520583e+00	 9.097722702002084e+00
 1.049021078045824e+00	 2.083124148568080e+00	 9.007710707445293e+00
 1.029199703791509e+00	 2.092988112746892e+00	 8.917387093687783e+00
 1.009316933955051e+00	 2.102648436499953e+00	 8.826634660131354e+00
 1.209575986232365e+00	 2.004499960629588e+00	 9.741509007020756e+00
 1.190282518736530e+00	 2.016016283369649e+00	 9.648697689023557e+00
 1.170903039092954e+00	 2.027333254411703e+00	 9.557517439337861e+00
 1.151440577819378e+00	 2.038450031232771e+00	 9.467369088132585e+00
 1.131898173345536e+00	 2.049365831491685e+00	 9.377866783132159e+00
 1.112278870549467e+00	 2.060079933007295e+00	 9.288683644273235e+00
 1.092585719300795e+00	 2.070591673694925e+00	 9.199564416173137e+00
 1.072821773012294e+00	 2.080900451461565e+00	 9.110308759832630e+00
 1.052990087201108e+00	 2.091005724060251e+00	 9.020755438738803e+00
 1.033093718060888e+00	 2.100907008904224e+00	 8.930767478609885e+00
 1.013135721046144e+00	 2.110603882841414e+00	 8.840218370377780e+00
 1.214135208111189e+00	 2.012055467829829e+00	 9.748444890504562e+00
 1.194769018272925e+00	 2.023615198732285e+00	 9.656793920538828e+00
 1.175316492083581e+00	 2.034974826525907e+00	 9.566724454256139e+00
 1.155780671483765e+00	 2.046133505511987e+00	 9.477557629485199e+00
 1.136164606355898e+00	 2.057090450400474e+00	 9.388923732035154e+00
 1.116471353055013e+00	 2.067844936288084e+00	 9.300497074277738e+00
 1.096703972946537e+00	 2.078396298594539e+00	 9.212023104441535e+00
 1.076865530952413e+00	 2.088743932957343e+00	 9.123301284284567e+00
 1.056959094106874e+00	 2.098887295085629e+00	 9.034168892841219e+00
 1.036987730123218e+00	 2.108825900573605e+00	 8.944485837337258e+00
 1.016954505972811e+00	 2.118559324674199e+00	 8.854120542463647e+00
 1.218694426114638e+00	 2.019610968607495e+00	 9.755728825407127e+00
 1.199255513995706e+00	 2.031214107635401e+00	 9.665245628120736e+00
 1.179729941322623e+00	 2.042616392144289e+00	 9.576289184527756e+00
 1.160120761458858e+00	 2.053816973259729e+00	 9.488099697559244e+00
 1.140431035739510e+00	 2.064815062742776e+00	 9.400313317412571e+00
 1.120663831996601e+00	 2.075609932968030e+00	 9.312612901013216e+00
 1.100822223091361e+00	 2.086200916859602e+00	 9.224748980158951e+00
 1.080909285454884e+00	 2.096587407785515e+00	 9.136525178448020e+00
 1.060928097638496e+00	 2.106768859410998e+00	 9.047781617335708e+00
 1.040881738875130e+00	 2.116744785511231e+00	 8.958379363723060e+00
 1.020773287653006e+00	 2.126514759744138e+00	 8.868185991905598e+00
 1.223253638950750e+00	 2.027166460821896e+00	 9.763187577386741e+00
 1.203742004633522e+00	 2.038813007926001e+00	 9.673873835341224e+00
 1.184143385559436e+00	 2.050257949101757e+00	 9.586018888541535e+00
 1.164460846514808e+00	 2.061500432299009e+00	 9.498808587178610e+00
 1.144697460287412e+00	 2.072539666329935e+00	 9.411850095209301e+00
 1.124856306186243e+00	 2.083374920847009e+00	 9.324848008699488e+00
 1.104940468568322e+00	 2.094005526278740e+00	 9.237562309550313e+00
 1.084953035373889e+00	 2.104430873723677e+00	 9.149805128144880e+00
 1.064897096671348e+00	 2.114650414803145e+00	 9.061423736240339e+00
 1.044775743213259e+00	 2.124663661473298e+00	 8.972284616608315e+00
 1.024592065004682e+00	 2.134470185797058e+00	 8.882258683931735e+00
 1.227812845327571e+00	 2.034721942332341e+00	 9.770650039124396e+00
 1.208228488915025e+00	 2.046411897451092e+00	 9.682501740925140e+00
 1.188556823543375e+00	 2.057899495233218e+00	 9.595731665885779e+00
 1.168800925421772e+00	 2.069183880452850e+00	 9.509498230095428e+00
 1.148963878790643e+00	 2.080264258973291e+00	 9.423349081821673e+00
 1.129048774435947e+00	 2.091139897724898e+00	 9.337019555062941e+00
 1.109058708210478e+00	 2.101810124640585e+00	 9.250283436368075e+00
 1.088996779563609e+00	 2.112274328549428e+00	 9.162965693119782e+00
 1.068866090080805e+00	 2.122531959028856e+00	 9.074925037644661e+00
 1.048669742034237e+00	 2.132582526216001e+00	 8.986037604155090e+00
 1.028410836945792e+00	 2.142425600578789e+00	 8.896181814755579e+00
 1.232372043953140e+00	 2.042277410998140e+00	 9.777947216860417e+00
 1.212714965568865e+00	 2.054010774057679e+00	 9.690954704210068e+00
 1.192970254023798e+00	 2.065541028373581e+00	 9.605248247084100e+00
 1.173140996949904e+00	 2.076867315544271e+00	 9.519983303174826e+00
 1.153230290040245e+00	 2.087988838484186e+00	 9.434625857665555e+00
 1.133241235557723e+00	 2.098904861401575e+00	 9.348945070560386e+00
 1.113176940850888e+00	 2.109614709733764e+00	 9.262732877038440e+00
 1.093040516878225e+00	 2.120117770040364e+00	 9.175831398368523e+00
 1.072835076742239e+00	 2.130413489854916e+00	 9.088115061473584e+00
 1.052563734234697e+00	 2.140501377495537e+00	 8.999473868293423e+00
 1.032229602394291e+00	 2.150381001835161e+00	 8.909797892946520e+00
 1.236931233535500e+00	 2.049832864678602e+00	 9.784912216973572e+00
 1.217201433323694e+00	 2.061609635592766e+00	 9.699060230678320e+00
 1.197383675750061e+00	 2.073182546357753e+00	 9.614391539104755e+00
 1.177481059869357e+00	 2.084550735396290e+00	 9.530079011899669e+00
 1.157496692827257e+00	 2.095713402673961e+00	 9.445496670873618e+00
 1.137433688363580e+00	 2.106669809676916e+00	 9.360442557738576e+00
 1.117295165322610e+00	 2.117419279346906e+00	 9.274731415943783e+00
 1.097084246171917e+00	 2.127961195974085e+00	 9.188226825598598e+00
 1.076804055531026e+00	 2.138295005048112e+00	 9.100823187375404e+00
 1.056457718711272e+00	 2.148420213068100e+00	 9.012428569279153e+00
 1.036048360268131e+00	 2.158336387312002e+00	 8.922948820892735e+00
 1.241490412782693e+00	 2.057388301233035e+00	 9.791380232602288e+00
 1.221687890908163e+00	 2.069208479903361e+00	 9.706647957558708e+00
 1.201797087471522e+00	 2.080824047020644e+00	 9.622986610226761e+00
 1.181821112950287e+00	 2.092234137831928e+00	 9.539594625932509e+00
 1.161763085942720e+00	 2.103437949353958e+00	 9.455778541117532e+00
 1.141626131665529e+00	 2.114434740350801e+00	 9.371330590724597e+00
 1.121413380458701e+00	 2.125223831268639e+00	 9.286100200837289e+00
 1.101127966298866e+00	 2.135804604128185e+00	 9.199976704818191e+00
 1.080773025322539e+00	 2.146176502375229e+00	 9.112878722729405e+00
 1.060351694360596e+00	 2.156339030689887e+00	 9.024736570358119e+00
 1.039867109485265e+00	 2.166291754755141e+00	 8.935475976353933e+00
 1.246049580402761e+00	 2.064943718520748e+00	 9.797188530305737e+00
 1.226174337050922e+00	 2.076807304836466e+00	 9.713549639496895e+00
 1.206210487937536e+00	 2.088465528197159e+00	 9.630860674996132e+00
 1.186161154962849e+00	 2.099917520674204e+00	 9.548349395295556e+00
 1.166029468177675e+00	 2.111162476335520e+00	 9.465289363550209e+00
 1.145818564275578e+00	 2.122199651223106e+00	 9.381428414843059e+00
 1.125531585092219e+00	 2.133028363287593e+00	 9.296660838385268e+00
 1.105171676113252e+00	 2.143647992280263e+00	 9.210906006049155e+00
 1.084741984992152e+00	 2.154057979603053e+00	 9.124110990769127e+00
 1.064245660079300e+00	 2.164257828117093e+00	 9.036232522533762e+00
 1.043685848963648e+00	 2.174247101910407e+00	 8.947220294100923e+00
 1.005498145781580e+00	 2.094692987903986e+00	 8.813523664744315e+00
 9.856290878407250e-01	 2.104115114327044e+00	 8.720676569820517e+00
 9.657049044575525e-01	 2.113333636026786e+00	 8.625036339127028e+00
 9.457286181199082e-01	 2.122348306690866e+00	 8.527422054165083e+00
 9.257032451413704e-01	 2.131158937754683e+00	 8.428635559077138e+00
 9.056317943338176e-01	 2.139765397992186e+00	 8.329452466017766e+00
 8.855172656989574e-01	 2.148167613071671e+00	 8.230614343774599e+00
 8.653626491398443e-01	 2.156365565077391e+00	 8.132822092632306e+00
 8.451709231933541e-01	 2.164359291997887e+00	 8.036730499614359e+00
 8.249450537845703e-01	 2.172148887181954e+00	 7.942943959688494e+00
 8.046879930039602e-01	 2.179734498763173e+00	 7.852013340338068e+00
 1.009316933955051e+00	 2.102648436499953e+00	 8.826634660131354e+00
 9.893724151852175e-01	 2.112106347280357e+00	 8.733961264628110e+00
 9.693725616117758e-01	 2.121359880065587e+00	 8.638540637986313e+00
 9.493204072016990e-01	 2.130408787607848e+00	 8.541200978024447e+00
 9.292189797242429e-01	 2.139252880626412e+00	 8.442750765072280e+00
 9.090712994184728e-01	 2.147892027396868e+00	 8.343969612669746e+00
 8.888803776798223e-01	 2.156326153305230e+00	 8.245600339268526e+00
 8.686492157667185e-01	 2.164555240367735e+00	 8.148342263770179e+00
 8.483808035282435e-01	 2.172579326717224e+00	 8.052845718642644e+00
 8.280781181537853e-01	 2.180398506057042e+00	 7.959707765582333e+00
 8.077441229455766e-01	 2.188012927083394e+00	 7.869469090287253e+00
 1.013135721046144e+00	 2.110603882841414e+00	 8.840218370377780e+00
 9.931157414687330e-01	 2.120097577969012e+00	 8.747706234751844e+00
 9.730402177265126e-01	 2.129386121829784e+00	 8.652506394430723e+00
 9.529121952655721e-01	 2.138469266240492e+00	 8.555451332509380e+00
 9.327347133108357e-01	 2.147346821204282e+00	 8.457351149757027e+00
 9.125108035285460e-01	 2.156018654498391e+00	 8.358984264998652e+00
 8.922434887078549e-01	 2.164484691226552e+00	 8.261089375157376e+00
 8.719357814625512e-01	 2.172744913336986e+00	 8.164358677617948e+00
 8.515906829539134e-01	 2.180799359106835e+00	 8.069432348238468e+00
 8.312111816356282e-01	 2.188648122594004e+00	 7.976894259333852e+00
 8.108002520216825e-01	 2.196291353057319e+00	 7.887268913331161e+00
 1.016954505972811e+00	 2.118559324674199e+00	 8.854120542463647e+00
 9.968590656306071e-01	 2.128088804128693e+00	 8.761765151488564e+00
 9.767078717625344e-01	 2.137412359045142e+00	 8.666794467051213e+00
 9.565039812937882e-01	 2.146529740304868e+00	 8.570040491132712e+00
 9.362504449049498e-01	 2.155440757194894e+00	 8.472309991110283e+00
 9.159503056894269e-01	 2.164145276994102e+00	 8.374375054066405e+00
 8.956065978300778e-01	 2.172643224523950e+00	 8.276964940340847e+00
 8.752223452960447e-01	 2.180934581664643e+00	 8.180759238794028e+00
 8.548005605607892e-01	 2.189019386837630e+00	 8.086382316676001e+00
 8.343442433422853e-01	 2.196897734455372e+00	 7.994399047753561e+00
 8.138563793662640e-01	 2.204569774339321e+00	 7.905311793501039e+00
 1.020773287653006e+00	 2.126514759744138e+00	 8.868185991905598e+00
 1.000602386610175e+00	 2.136080023495087e+00	 8.775990552478021e+00
 9.803755226806125e-01	 2.145438589437429e+00	 8.681264401764711e+00
 9.600957642686079e-01	 2.154590207517046e+00	 8.584834358569621e+00
 9.397661735103849e-01	 2.163534686304844e+00	 8.487498964588607e+00
 9.193898049265045e-01	 2.172271892581347e+00	 8.390018896782959e+00
 8.989697040935165e-01	 2.180801750885739e+00	 8.293108719516043e+00
 8.785089063359024e-01	 2.189124243030211e+00	 8.197429978717178e+00
 8.580104354392961e-01	 2.197239407580518e+00	 8.103585630509563e+00
 8.374773023859436e-01	 2.205147339303678e+00	 8.012115787261717e+00
 8.169125041133076e-01	 2.212848188583769e+00	 7.923494754941341e+00
 1.024592065004682e+00	 2.134470185797058e+00	 8.882258683931735e+00
 1.004345703346770e+00	 2.144071233803876e+00	 8.790233919838055e+00
 9.840431694415184e-01	 2.153464810732409e+00	 8.695774506681845e+00
 9.636875431722922e-01	 2.162650665593099e+00	 8.599697442049354e+00
 9.432818981309424e-01	 2.171628606240728e+00	 8.502788210854058e+00
 9.228293002651674e-01	 2.180398498957471e+00	 8.405791059800427e+00
 9.023328065451947e-01	 2.188960268000232e+00	 8.309400653089071e+00
 8.817954636508285e-01	 2.197313895113192e+00	 8.214255111404437e+00
 8.612203066798590e-01	 2.205459419006409e+00	 8.120930426146261e+00
 8.406103578787902e-01	 2.213396934801456e+00	 8.029936231142782e+00
 8.199686253967999e-01	 2.221126593445035e+00	 7.941712904770656e+00
 1.028410836945792e+00	 2.142425600578789e+00	 8.896181814755579e+00
 1.008089014779728e+00	 2.152062432790749e+00	 8.804345758381594e+00
 9.877108110060231e-01	 2.161491020655850e+00	 8.710181927045145e+00
 9.672793169871007e-01	 2.170711112249093e+00	 8.614492922812829e+00
 9.467976177704225e-01	 2.179722514709145e+00	 8.518046403567682e+00
 9.262687907308054e-01	 2.188525093819819e+00	 8.421565223479629e+00
 9.056959042321368e-01	 2.197118773555747e+00	 8.325718997169236e+00
 8.850820163095264e-01	 2.205503535593090e+00	 8.231117089367775e+00
 8.644301733729030e-01	 2.213679418786210e+00	 8.138303021537304e+00
 8.437434089330116e-01	 2.221646518611236e+00	 8.047750276942441e+00
 8.230247423507278e-01	 2.229404986577490e+00	 7.959859476113371e+00
 1.032229602394291e+00	 2.150381001835161e+00	 8.909797892946520e+00
 1.011832319848384e+00	 2.160053618191390e+00	 8.818175673913029e+00
 9.913784463348982e-01	 2.169517216933517e+00	 8.724342720235885e+00
 9.708710846952949e-01	 2.178771545201104e+00	 8.629082727633424e+00
 9.503133314326258e-01	 2.187816409416692e+00	 8.533140817247567e+00
 9.297082753488076e-01	 2.196651674865739e+00	 8.437213545926465e+00
 9.090589962013669e-01	 2.205277265240595e+00	 8.341940383644495e+00
 8.883685633806990e-01	 2.213693162149405e+00	 8.247896659606800e+00
 8.676400346088532e-01	 2.221899404590831e+00	 8.155587967985101e+00
 8.468764546607941e-01	 2.229896088395551e+00	 8.065446014003461e+00
 8.260808541090766e-01	 2.237683365635505e+00	 7.977825871297137e+00
 1.036048360268131e+00	 2.158336387312002e+00	 8.922948820892735e+00
 1.015575617492074e+00	 2.168044787741483e+00	 8.831572451600469e+00
 9.950460743889153e-01	 2.177543397291178e+00	 8.738111930846369e+00
 9.744628452791351e-01	 2.186831962165200e+00	 8.643327600399015e+00
 9.538290381213530e-01	 2.195910288069966e+00	 8.547937395188383e+00
 9.331477531445627e-01	 2.204778239792574e+00	 8.452606727096043e+00
 9.124220814999083e-01	 2.213435740743093e+00	 8.357939880334676e+00
 8.916551039330509e-01	 2.221882772461643e+00	 8.264472919694278e+00
 8.708498894781350e-01	 2.230119374091181e+00	 8.172668102062197e+00
 8.500094941743254e-01	 2.238145641816933e+00	 8.082909771136826e+00
 8.291369598058347e-01	 2.245961728273450e+00	 7.995501705211702e+00
 1.039867109485265e+00	 2.166291754755141e+00	 8.935475976353933e+00
 1.019318906650130e+00	 2.176035939176716e+00	 8.844384134422207e+00
 9.987136941288448e-01	 2.185569559454596e+00	 8.751343665816485e+00
 9.780545977208820e-01	 2.194892360857450e+00	 8.657087173753188e+00
 9.573447368404047e-01	 2.204004148375564e+00	 8.562300817441045e+00
 9.365872231434600e-01	 2.212904786297672e+00	 8.467614072962004e+00
 9.157851591747862e-01	 2.221594197751554e+00	 8.373591051220599e+00
 8.949416370352846e-01	 2.230072364209305e+00	 8.280723373952572e+00
 8.740597370711732e-01	 2.238339324958170e+00	 8.189424597639510e+00
 8.531425265857919e-01	 2.246395176537915e+00	 8.100026164424039e+00
 8.321930585749867e-01	 2.254240072145698e+00	 8.012774848824767e+00
 1.043685848963648e+00	 2.174247101910407e+00	 8.947220294100923e+00
 1.023062186261889e+00	 2.184027070232773e+00	 8.856458101684034e+00
 1.002381304515459e+00	 2.193595701149540e+00	 8.763891169630865e+00
 9.816463410027967e-01	 2.202952738993927e+00	 8.670220040793186e+00
 9.608604265935818e-01	 2.212097988040085e+00	 8.576094568849740e+00
 9.400266843708891e-01	 2.221031312078378e+00	 8.482103559749415e+00
 9.191482282730248e-01	 2.229752633954294e+00	 8.388766016746604e+00
 8.982281617561046e-01	 2.238261935071894e+00	 8.296523989717331e+00
 8.772695764783929e-01	 2.246559254862706e+00	 8.205737018020351e+00
 8.562755510073803e-01	 2.254644690221029e+00	 8.116678145147324e+00
 8.352491495505203e-01	 2.262518394906619e+00	 8.029531472850868e+00
 8.046879930039602e-01	 2.179734498763173e+00	 7.852013340338068e+00
 7.844061281122209e-01	 2.187115091338370e+00	 7.763429456413988e+00
 7.640989369507413e-01	 2.194292226143276e+00	 7.676477852026469e+00
 7.437693206496833e-01	 2.201266210273095e+00	 7.591360653308604e+00
 7.234201619097839e-01	 2.208037402979565e+00	 7.508221365790153e+00
 7.030543239064208e-01	 2.214606214955360e+00	 7.427147229155256e+00
 6.826746492208779e-01	 2.220973107593211e+00	 7.348172430258936e+00
 6.622839587993923e-01	 2.227138592220802e+00	 7.271282107430647e+00
 6.418850509405333e-01	 2.233103229312530e+00	 7.196417075080170e+00
 6.214807003114096e-01	 2.238867627679239e+00	 7.123479194222183e+00
 6.010736569931618e-01	 2.244432443637021e+00	 7.052337311745595e+00
 8.077441229455766e-01	 2.188012927083394e+00	 7.869469090287253e+00
 7.873852294225351e-01	 2.195421550460754e+00	 7.781576285148653e+00
 7.670009134429442e-01	 2.202625943354270e+00	 7.695278047435398e+00
 7.465940871551935e-01	 2.209626414025442e+00	 7.610773274699215e+00
 7.261676442082527e-01	 2.216423323090388e+00	 7.528200161069455e+00
 7.057244586515787e-01	 2.223017082801537e+00	 7.447638718131507e+00
 6.852673838623187e-01	 2.229408156303923e+00	 7.369114180892291e+00
 6.647992515004058e-01	 2.235597056867187e+00	 7.292601229892290e+00
 6.443228704920908e-01	 2.241584347094332e+00	 7.218028956404490e+00
 6.238410260424149e-01	 2.247370638108388e+00	 7.145286494164819e+00
 6.033564786770745e-01	 2.252956588718058e+00	 7.074229238209417e+00
 8.108002520216825e-01	 2.196291353057319e+00	 7.887268913331161e+00
 7.903643298892039e-01	 2.203728007228910e+00	 7.799958110087100e+00
 7.699028891133740e-01	 2.210959658203332e+00	 7.714182774693553e+00
 7.494188528608102e-01	 2.217986615408382e+00	 7.630146939219621e+00
 7.289151257287166e-01	 2.224809240824560e+00	 7.547991778434416e+00
 7.083945926406297e-01	 2.231427948264039e+00	 7.467798288477969e+00
 6.878601177695608e-01	 2.237843202624164e+00	 7.389590878336441e+00
 6.673145434891398e-01	 2.244055519116518e+00	 7.313341803187887e+00
 6.467606893533000e-01	 2.250065462472715e+00	 7.238976364451943e+00
 6.262013511050160e-01	 2.255873646127969e+00	 7.166378797784809e+00
 6.056392997145412e-01	 2.261480731383585e+00	 7.095398767309900e+00
 8.138563793662640e-01	 2.204569774339321e+00	 7.905311793501039e+00
 7.933434286680455e-01	 2.212034459289262e+00	 7.818478043779018e+00
 7.728048631397120e-01	 2.219293368329157e+00	 7.733100963659987e+00
 7.522436169661052e-01	 2.226346812053099e+00	 7.649397947493820e+00
 7.316626056926614e-01	 2.233195153805963e+00	 7.567521304265747e+00
 7.110647251169916e-01	 2.239838808959671e+00	 7.487561085906670e+00
 6.904528502079692e-01	 2.246278244163864e+00	 7.409548857026659e+00
 6.698298340529172e-01	 2.252513976572083e+00	 7.333462333116151e+00
 6.491985068334492e-01	 2.258546573044541e+00	 7.259230809912796e+00
 6.285616748304678e-01	 2.264376649328631e+00	 7.186741302936289e+00
 6.079221194587819e-01	 2.270004869218262e+00	 7.115845313161999e+00
 8.169125041133076e-01	 2.212848188583769e+00	 7.923494754941341e+00
 7.963225249148778e-01	 2.220340904288236e+00	 7.837037232688760e+00
 7.757068346996393e-01	 2.227627071370443e+00	 7.751939560994561e+00
 7.550683786706507e-01	 2.234707001590772e+00	 7.668440590662964e+00
 7.344100833215719e-01	 2.241581059658479e+00	 7.586711781707739e+00
 7.137348553240825e-01	 2.248249662505229e+00	 7.506860173324494e+00
 6.930455804429094e-01	 2.254713278532965e+00	 7.428932324816629e+00
 6.723451224790620e-01	 2.260972426837172e+00	 7.352919152472451e+00
 6.516363222418253e-01	 2.267027676406665e+00	 7.278761582921653e+00
 6.309219965500253e-01	 2.272879645301019e+00	 7.206356939703079e+00
 6.102049372630167e-01	 2.278528999806742e+00	 7.135565976656125e+00
 8.199686253967999e-01	 2.221126593445035e+00	 7.941712904770656e+00
 7.993016177855189e-01	 2.228647339872257e+00	 7.855534895889804e+00
 7.786088029708366e-01	 2.235960764965882e+00	 7.770603565180377e+00
 7.578931371740175e-01	 2.243067181652582e+00	 7.687187182199752e+00
 7.371575578369334e-01	 2.249966956005989e+00	 7.605484239709236e+00
 7.164049825053198e-01	 2.256660506517516e+00	 7.525626557503966e+00
 6.956383077397468e-01	 2.263148303341400e+00	 7.447683387652852e+00
 6.748604080548967e-01	 2.269430867515071e+00	 7.371666444068126e+00
 6.540741348877166e-01	 2.275508770155950e+00	 7.297535774732377e+00
 6.332823155949427e-01	 2.281382631635784e+00	 7.225206391008918e+00
 6.124877524804658e-01	 2.287053120733680e+00	 7.154555565250826e+00
 8.230247423507278e-01	 2.229404986577490e+00	 7.959859476113371e+00
 8.022807064357865e-01	 2.236953763687752e+00	 7.873868363954339e+00
 7.815107671309854e-01	 2.244294446754171e+00	 7.788996061756537e+00
 7.607178916757781e-01	 2.251427349869710e+00	 7.705548089941292e+00
 7.399050284602311e-01	 2.258352840472378e+00	 7.623757722282973e+00
 7.190751059041217e-01	 2.265071338613330e+00	 7.543789215966597e+00
 6.982310313638458e-01	 2.271583316199103e+00	 7.465742074448335e+00
 6.773756900677448e-01	 2.277889296209072e+00	 7.389656263931581e+00
 6.565119440804107e-01	 2.283989851889253e+00	 7.315518299552803e+00
 6.356426312964751e-01	 2.289885605923574e+00	 7.243268113360747e+00
 6.147705644643494e-01	 2.295577229583733e+00	 7.172806612869446e+00
 8.260808541090766e-01	 2.237683365635505e+00	 7.977825871297137e+00
 8.052597900214988e-01	 2.245260173381146e+00	 7.891933118032858e+00
 7.844127263577675e-01	 2.252628114374005e+00	 7.807018258756933e+00
 7.635426413755035e-01	 2.259787503873336e+00	 7.723431768335029e+00
 7.426524944129507e-01	 2.266738710681526e+00	 7.641449317978434e+00
 7.217452247639062e-01	 2.273482156409474e+00	 7.561275124072753e+00
 7.008237505805720e-01	 2.280018314716012e+00	 7.483046362150955e+00
 6.798909678049291e-01	 2.286347710522461e+00	 7.406838564686560e+00
 6.589497491291951e-01	 2.292470919203435e+00	 7.332671916534232e+00
 6.380029429858770e-01	 2.298388565755035e+00	 7.260518357721386e+00
 6.170533725678875e-01	 2.304101323941556e+00	 7.190309399897069e+00
 8.291369598058347e-01	 2.245961728273450e+00	 7.995501705211702e+00
 8.082388676984743e-01	 2.253566566598867e+00	 7.909622829118574e+00
 7.873146798288629e-01	 2.260961765464082e+00	 7.824569522348579e+00
 7.663673854727657e-01	 2.268147641294643e+00	 7.740744790891709e+00
 7.453999549165772e-01	 2.275124564257317e+00	 7.658474189562096e+00
 7.244153383280907e-01	 2.281892957522746e+00	 7.578009282313352e+00
 7.034164646552908e-01	 2.288453296502062e+00	 7.499532201001536e+00
 6.824062405537734e-01	 2.294806108058527e+00	 7.423161219102956e+00
 6.613875493433575e-01	 2.300951969695354e+00	 7.348957251912513e+00
 6.403632499944026e-01	 2.306891508720817e+00	 7.276931190508445e+00
 6.193361761443001e-01	 2.312625401391804e+00	 7.207051973275740e+00
 8.321930585749867e-01	 2.254240072145698e+00	 8.012774848824767e+00
 8.112179386225303e-01	 2.261872940987338e+00	 7.926829397491998e+00
 7.902166267219535e-01	 2.269295397663093e+00	 7.841547412665001e+00
 7.691921231671363e-01	 2.276507759764810e+00	 7.757391882840661e+00
 7.481474091925959e-01	 2.283510398823632e+00	 7.674745603899840e+00
 7.270854458400936e-01	 2.290303739569949e+00	 7.593914743797240e+00
 7.060091728533677e-01	 2.296888259167190e+00	 7.515133539976331e+00
 6.849215076016004e-01	 2.303264486420560e+00	 7.438570043815909e+00
 6.638253440321856e-01	 2.309433000961871e+00	 7.364332821296340e+00
 6.427235516533077e-01	 2.315394432411569e+00	 7.292478514716343e+00
 6.216189745468071e-01	 2.321149459519132e+00	 7.223020166695493e+00
 8.352491495505203e-01	 2.262518394906619e+00	 8.029531472850868e+00
 8.141970019494854e-01	 2.270179294192986e+00	 7.943442992340576e+00
 7.931185662147202e-01	 2.277629008609738e+00	 7.857847719828964e+00
 7.720168536581871e-01	 2.284867856915018e+00	 7.773275953981417e+00
 7.508948564624924e-01	 2.291896212004354e+00	 7.690174962036451e+00
 7.297555465433327e-01	 2.298714500167882e+00	 7.608912641930214e+00
 7.086018744401672e-01	 2.305323200321329e+00	 7.529782352409817e+00
 6.874367682357337e-01	 2.311722843211848e+00	 7.453008823208766e+00
 6.662631325049674e-01	 2.317914010599844e+00	 7.378755052099587e+00
 6.450838472938460e-01	 2.323897334417937e+00	 7.307130091158413e+00
 6.239017671286295e-01	 2.329673495908198e+00	 7.238197620878651e+00
 6.010736569931618e-01	 2.244432443637021e+00	 7.052337311745595e+00
 5.806666458346349e-01	 2.249798380643699e+00	 6.984470184277788e+00
 5.602623663671141e-01	 2.254966189887047e+00	 6.918036393378857e+00
 5.398634910592640e-01	 2.259936667925870e+00	 6.852396888431316e+00
 5.194726641987837e-01	 2.264710655295170e+00	 6.787984390709347e+00
 4.990925010900198e-01	 2.269289035584527e+00	 6.725193270065319e+00
 4.787255872827550e-01	 2.273672734502291e+00	 6.664389974830248e+00
 4.583744778323183e-01	 2.277862718926716e+00	 6.605922918798808e+00
 4.380416965911256e-01	 2.281859995945114e+00	 6.550131786053822e+00
 4.177297355317209e-01	 2.285665611882142e+00	 6.497356218930815e+00
 3.974410541013390e-01	 2.289280651318292e+00	 6.447943858991860e+00
 6.033564786770745e-01	 2.252956588718058e+00	 7.074229238209417e+00
 5.828719635936395e-01	 2.258342905052813e+00	 7.006476447592481e+00
 5.623901905759557e-01	 2.263530341153386e+00	 6.940460147053705e+00
 5.419138422424650e-01	 2.268519696603859e+00	 6.875172159150141e+00
 5.214455729236145e-01	 2.273311815131524e+00	 6.811062313299217e+00
 5.009880078564244e-01	 2.277907583681776e+00	 6.748543963823948e+00
 4.805437424103443e-01	 2.282307931478736e+00	 6.688004651754892e+00
 4.601153413445558e-01	 2.286513829072792e+00	 6.629816207516381e+00
 4.397053380968226e-01	 2.290526287376103e+00	 6.574344254448185e+00
 4.193162341039582e-01	 2.294346356687182e+00	 6.521957077762869e+00
 3.989504981539398e-01	 2.297975125705680e+00	 6.473033828213558e+00
 6.056392997145412e-01	 2.261480731383585e+00	 7.095398767309900e+00
 5.850772807281693e-01	 2.266887427040690e+00	 7.027728544886101e+00
 5.645180141823034e-01	 2.272094489992964e+00	 6.962182317296395e+00
 5.439641928451564e-01	 2.277102722849767e+00	 6.897334105480241e+00
 5.234184810899200e-01	 2.281912972530687e+00	 6.833642019622522e+00
 5.028835140862811e-01	 2.286526129336922e+00	 6.771529710425267e+00
 4.823618970233524e-01	 2.290943126008371e+00	 6.711397276671546e+00
 4.618562043641630e-01	 2.295164936767550e+00	 6.653631596846239e+00
 4.413689791318187e-01	 2.299192576351458e+00	 6.598616043937547e+00
 4.209027322273986e-01	 2.303027099032473e+00	 6.546739547302782e+00
 4.004599417796176e-01	 2.306669597629399e+00	 6.498404970263005e+00
 6.079221194587819e-01	 2.270004869218262e+00	 7.115845313161999e+00
 5.872825966134051e-01	 2.275431944186209e+00	 7.048246311644895e+00
 5.666458365832896e-01	 2.280658633979106e+00	 6.983236504395898e+00
 5.460145422864142e-01	 2.285685744231581e+00	 6.918929471368132e+00
 5.253913881387067e-01	 2.290514125055513e+00	 6.855782811361614e+00
 5.047790192425142e-01	 2.295144670107906e+00	 6.794221819156558e+00
 4.841800506066055e-01	 2.299578315644430e+00	 6.734650652759015e+00
 4.635970663978504e-01	 2.303816039559728e+00	 6.677462907242671e+00
 4.430326192246895e-01	 2.307858860415636e+00	 6.623051553464014e+00
 4.224892294524614e-01	 2.311707836458393e+00	 6.571818204797433e+00
 4.019693845506116e-01	 2.315364064625950e+00	 6.524181679930406e+00
 6.102049372630167e-01	 2.278528999806742e+00	 7.135565976656125e+00
 5.894879106245263e-01	 2.283976454068253e+00	 7.068056815130830e+00
 5.687736571760474e-01	 2.289222770685133e+00	 7.003653982756757e+00
 5.480648899853144e-01	 2.294268758317280e+00	 6.940002791480469e+00
 5.273642935109819e-01	 2.299115270268856e+00	 6.877541893721667e+00
 5.066745227880489e-01	 2.303763203552670e+00	 6.816689610246710e+00
 4.859982026449307e-01	 2.308213497940151e+00	 6.757845694611463e+00
 4.653379269523288e-01	 2.312467134998071e+00	 6.701402162566803e+00
 4.446962579040113e-01	 2.316525137113097e+00	 6.647753467372494e+00
 4.240757253295657e-01	 2.320388566505321e+00	 6.597305983410495e+00
 4.034788260391606e-01	 2.324058524231837e+00	 6.550486765496526e+00
 6.124877524804658e-01	 2.287053120733680e+00	 7.154555565250826e+00
 5.916932221367138e-01	 2.292520954265703e+00	 7.087215040393750e+00
 5.709014753577101e-01	 2.297786897684371e+00	 7.023463686275273e+00
 5.501152353609329e-01	 2.302851762674848e+00	 6.960596378593381e+00
 5.293371966477528e-01	 2.307716405733574e+00	 6.898974364820747e+00
 5.085700241858097e-01	 2.312381727229153e+00	 6.839000406262366e+00
 4.878163526231543e-01	 2.316848670448772e+00	 6.781061421665162e+00
 4.670787855343096e-01	 2.321118220631321e+00	 6.725539585587022e+00
 4.463598946983590e-01	 2.325191403988296e+00	 6.672822753047091e+00
 4.256622194091302e-01	 2.329069286713631e+00	 6.623314172075291e+00
 4.049882658175036e-01	 2.332752973983562e+00	 6.577441450900245e+00
 6.147705644643494e-01	 2.295577229583733e+00	 7.172806612869446e+00
 5.938985305251478e-01	 2.301065442357437e+00	 7.105732869303440e+00
 5.730292905254101e-01	 2.306351012550143e+00	 7.042692193759820e+00
 5.521655778323450e-01	 2.311434754872265e+00	 6.980750310997661e+00
 5.313100969900266e-01	 2.316317529012518e+00	 6.920133205065391e+00
 5.104655228987212e-01	 2.321000238695292e+00	 6.861219523459719e+00
 4.896345000261031e-01	 2.325483830723527e+00	 6.804374951550563e+00
 4.688196416505032e-01	 2.329769294008221e+00	 6.749963593373302e+00
 4.480235291363087e-01	 2.333857658585688e+00	 6.698358658408259e+00
 4.272487112415743e-01	 2.337749994623703e+00	 6.649952415173338e+00
 4.064977034578799e-01	 2.341447411417628e+00	 6.605165377695219e+00
 6.170533725678875e-01	 2.304101323941556e+00	 7.190309399897069e+00
 5.961038351650089e-01	 2.309609915922340e+00	 7.123614720427925e+00
 5.751571020762805e-01	 2.314915112855772e+00	 7.061363714394577e+00
 5.542159168186273e-01	 2.320017732477514e+00	 7.000502419917900e+00
 5.332829939788103e-01	 2.324918637668543e+00	 6.941069266512842e+00
 5.123610183897084e-01	 2.329618735509029e+00	 6.883410263094071e+00
 4.914526443386036e-01	 2.334118976317654e+00	 6.827861493372550e+00
 4.705604948076211e-01	 2.338420352677515e+00	 6.774760792589755e+00
 4.496871607464362e-01	 2.342523898449734e+00	 6.724458709275877e+00
 4.288352003773169e-01	 2.346430687775914e+00	 6.677328712044769e+00
 4.080071385325283e-01	 2.350141834070536e+00	 6.633776606800730e+00
 6.193361761443001e-01	 2.312625401391804e+00	 7.207051973275740e+00
 5.983091354314772e-01	 2.318154372539291e+00	 7.140862738092347e+00
 5.772849094074545e-01	 2.323479196174583e+00	 7.079500073246237e+00
 5.562662517388552e-01	 2.328600693058579e+00	 7.019888276946975e+00
 5.352558870551107e-01	 2.333519729264506e+00	 6.961831262219759e+00
 5.142565101216956e-01	 2.338237215228306e+00	 6.905633902688647e+00
 4.932707850454824e-01	 2.342754104784390e+00	 6.851594340921324e+00
 4.723013445123737e-01	 2.347071394187943e+00	 6.800015974687420e+00
 4.513507890573169e-01	 2.351190121124886e+00	 6.751218706601912e+00
 4.304216863667768e-01	 2.355111363710639e+00	 6.705336063365951e+00
 4.095165706136882e-01	 2.358836239478789e+00	 6.661978847374826e+00
 6.216189745468071e-01	 2.321149459519132e+00	 7.223020166695493e+00
 6.005144306997326e-01	 2.326698809787171e+00	 7.157476811769652e+00
 5.794127119160645e-01	 2.332043260079898e+00	 7.097120696812944e+00
 5.583165820121045e-01	 2.337183634183437e+00	 7.038941181495472e+00
 5.372287756599355e-01	 2.342120801363259e+00	 6.982465755579590e+00
 5.161519975576078e-01	 2.346855675411061e+00	 6.927949687263704e+00
 4.950889216315665e-01	 2.351389213676971e+00	 6.875644865815662e+00
 4.740421902714724e-01	 2.355722416088251e+00	 6.825409395882444e+00
 4.530144135975269e-01	 2.359856324155606e+00	 6.776430504526157e+00
 4.320081687603736e-01	 2.363792019968260e+00	 6.729478292196543e+00
 4.110259992735985e-01	 2.367530625178890e+00	 6.685464302189521e+00
 6.239017671286295e-01	 2.329673495908198e+00	 7.238197620878651e+00
 6.027197203449561e-01	 2.335243225244862e+00	 7.173454595537312e+00
 5.815405089992440e-01	 2.340607302145042e+00	 7.114242598614824e+00
 5.603669070574516e-01	 2.345766553420075e+00	 7.057692148255776e+00
 5.392016592342920e-01	 2.350721851527660e+00	 7.003017149647704e+00
 5.180474801603698e-01	 2.355474113615235e+00	 6.950042575585508e+00
 4.969070535816822e-01	 2.360024300548634e+00	 6.897349713552712e+00
 4.757830315916279e-01	 2.364373415927180e+00	 6.845511297334301e+00
 4.546780338956418e-01	 2.368522505086348e+00	 6.795396881829959e+00
 4.335946471085258e-01	 2.372472654089150e+00	 6.747892692641813e+00
 4.125354240844981e-01	 2.376224988707342e+00	 6.703902419659563e+00
 3.974410541013390e-01	 2.289280651318292e+00	 6.447943858991860e+00
 3.771746369077695e-01	 2.292706802156369e+00	 6.402313405215142e+00
 3.569363335028887e-01	 2.295944590920846e+00	 6.360200375641371e+00
 3.367285086005786e-01	 2.298995209927609e+00	 6.320944862337681e+00
 3.165534919874212e-01	 2.301859885794940e+00	 6.283933210219957e+00
 2.964135780332426e-01	 2.304539878427208e+00	 6.248603498276287e+00
 2.763110252327106e-01	 2.307036479994991e+00	 6.214450247594124e+00
 2.562480557777606e-01	 2.309351013912615e+00	 6.181028356168309e+00
 2.362268551605955e-01	 2.311484833814059e+00	 6.147956264448300e+00
 2.162495718069747e-01	 2.313439322528182e+00	 6.114918359407564e+00
 1.963183167394766e-01	 2.315215891054156e+00	 6.081666628545590e+00
 3.989504981539398e-01	 2.297975125705680e+00	 6.473033828213558e+00
 3.786071109981872e-01	 2.301414288744914e+00	 6.428008488248847e+00
 3.582919444046360e-01	 2.304664374329043e+00	 6.386582992743605e+00
 3.380073720681420e-01	 2.307726579302260e+00	 6.348060838171818e+00
 3.177557326236101e-01	 2.310602134941421e+00	 6.311795487205986e+00
 2.975393291546795e-01	 2.313292305935888e+00	 6.277196012340790e+00
 2.773604287335805e-01	 2.315798389363781e+00	 6.243731943733984e+00
 2.572212619919365e-01	 2.318121713665623e+00	 6.210937321278096e+00
 2.371240227222559e-01	 2.320263637616369e+00	 6.178413954999811e+00
 2.170708675098290e-01	 2.322225549296722e+00	 6.145833901794626e+00
 1.970639153947111e-01	 2.324008865064697e+00	 6.112941170226908e+00
 4.004599417796176e-01	 2.306669597629399e+00	 6.498404970263004e+00
 3.800395846835243e-01	 2.310121772866058e+00	 6.454049868861186e+00
 3.596475549231084e-01	 2.313384155266310e+00	 6.413333783536284e+00
 3.392862351741974e-01	 2.316457946202639e+00	 6.375520374415604e+00
 3.189579729200171e-01	 2.319344381610483e+00	 6.339926996417387e+00
 2.986650799580179e-01	 2.322044730964200e+00	 6.305930513453575e+00
 2.784098319379913e-01	 2.324560296249448e+00	 6.272972293806426e+00
 2.581944679312465e-01	 2.326892410932952e+00	 6.240562386726161e+00
 2.380211900305964e-01	 2.329042438930637e+00	 6.208282884475988e+00
 2.178921629808598e-01	 2.331011773575057e+00	 6.175790478060010e+00
 1.978095138395674e-01	 2.332801836583068e+00	 6.142818218676579e+00
 4.019693845506116e-01	 2.315364064625950e+00	 6.524181679930406e+00
 3.814720575578184e-01	 2.318829252052637e+00	 6.480570378027950e+00
 3.610031646741138e-01	 2.322103931262002e+00	 6.440591584049325e+00
 3.405650975562919e-01	 2.325189308154833e+00	 6.403465884223781e+00
 3.201602125358946e-01	 2.328086623325142e+00	 6.368471306076225e+00
 2.997908301241795e-01	 2.330797151032284e+00	 6.334949311401751e+00
 2.794592345484939e-01	 2.333322198169453e+00	 6.302309946910170e+00
 2.591676733198291e-01	 2.335663103229576e+00	 6.270036152611459e+00
 2.389183568312976e-01	 2.337821235269544e+00	 6.237687232298931e+00
 2.187134579872431e-01	 2.339797992873766e+00	 6.204901494584421e+00
 1.985551118626669e-01	 2.341594803117931e+00	 6.171398076846788e+00
 4.034788260391606e-01	 2.324058524231837e+00	 6.550486765496526e+00
 3.829045292151072e-01	 2.327536723837477e+00	 6.507701319324815e+00
 3.623587732734601e-01	 2.330823699845481e+00	 6.468493778449560e+00
 3.418439588519724e-01	 2.333920662684930e+00	 6.432038420070604e+00
 3.213624511304951e-01	 2.336828857608415e+00	 6.397570729775906e+00
 3.009165793340853e-01	 2.339549563660281e+00	 6.364393581496809e+00
 2.805086362676391e-01	 2.342084092641259e+00	 6.331882551160507e+00
 2.601408778818226e-01	 2.344433788070469e+00	 6.299490364131324e+00
 2.398155228700407e-01	 2.346600024145774e+00	 6.266750480918015e+00
 2.195347522961551e-01	 2.348584204703427e+00	 6.233279829823053e+00
 1.993007092526315e-01	 2.350387762177955e+00	 6.198780699210185e+00
 4.049882658175036e-01	 2.332752973983562e+00	 6.577441450900245e+00
 3.843369992494279e-01	 2.336244185753409e+00	 6.535572473230614e+00
 3.637143803369547e-01	 2.339543458546102e+00	 6.497176305014223e+00
 3.431228186987860e-01	 2.342652007319017e+00	 6.461377680934991e+00
 3.225646883630715e-01	 2.345571081983316e+00	 6.427366334426396e+00
 3.020423272686569e-01	 2.348301966368331e+00	 6.394403372834045e+00
 2.815580367979779e-01	 2.350845977182324e+00	 6.361826761827791e+00
 2.611140813413651e-01	 2.353204462970607e+00	 6.329055490480835e+00
 2.407126878925066e-01	 2.355378803072008e+00	 6.295602740375752e+00
 2.203560456747723e-01	 2.357370406574623e+00	 6.261188389694070e+00
 2.000463057980824e-01	 2.359180711271805e+00	 6.225624893330800e+00
 4.064977034578799e-01	 2.341447411417628e+00	 6.605165377695219e+00
 3.857694672548181e-01	 2.344951635333264e+00	 6.564312101185724e+00
 3.650699854804054e-01	 2.348263204893226e+00	 6.526773661836094e+00
 3.444016767342797e-01	 2.351383339583184e+00	 6.491622019202814e+00
 3.237669238928758e-01	 2.354313293972862e+00	 6.457955161887449e+00
 3.031680736088157e-01	 2.357054356676572e+00	 6.424834699605549e+00
 2.826074358420612e-01	 2.359607849310108e+00	 6.391786399389689e+00
 2.620872834225951e-01	 2.361975125444967e+00	 6.358438143655365e+00
 2.416098516443764e-01	 2.364157569560930e+00	 6.324460279537816e+00
 2.211773378902707e-01	 2.366156595997930e+00	 6.289567668711820e+00
 2.007919012876414e-01	 2.367973647908145e+00	 6.253521675331824e+00
 4.080071385325283e-01	 2.350141834070536e+00	 6.633776606800728e+00
 3.872019328253151e-01	 2.353659070109870e+00	 6.594026719018701e+00
 3.664255883196201e-01	 2.356982936416213e+00	 6.556895538621130e+00
 3.456805325960006e-01	 2.360114657003518e+00	 6.521511676471846e+00
 3.249691573791607e-01	 2.363055491100066e+00	 6.487341162009264e+00
 3.042938180354829e-01	 2.365806732105149e+00	 6.453884653546488e+00
 2.836568331024397e-01	 2.368369706542075e+00	 6.420679761417962e+00
 2.630604838496510e-01	 2.370745773008522e+00	 6.387303308113558e+00
 2.425070138713309e-01	 2.372936321125219e+00	 6.353373526621040e+00
 2.219986287098268e-01	 2.374942770483929e+00	 6.318552197807151e+00
 2.015374955099299e-01	 2.376766569595645e+00	 6.282546727286945e+00
 4.095165706136882e-01	 2.358836239478789e+00	 6.661978847374826e+00
 3.886343955549562e-01	 2.362366487616057e+00	 6.621666983834753e+00
 3.677811884704062e-01	 2.365702650644420e+00	 6.584032340231401e+00
 3.469593859214955e-01	 2.368845957106105e+00	 6.548460623238971e+00
 3.261713884811787e-01	 2.371797670887945e+00	 6.514368269612845e+00
 3.054195602295801e-01	 2.374559090174198e+00	 6.481204920139684e+00
 2.847062282816644e-01	 2.377131546395682e+00	 6.448455830622823e+00
 2.640336823466709e-01	 2.379516403176245e+00	 6.415644221478034e+00
 2.434041743190512e-01	 2.381715055277557e+00	 6.382333567106569e+00
 2.228199179006166e-01	 2.383728927543198e+00	 6.348129825812738e+00
 2.022830882535697e-01	 2.385559473842969e+00	 6.312683610633825e+00
 4.110259992735985e-01	 2.367530625178890e+00	 6.685464302189521e+00
 3.900668550377791e-01	 2.371073885384655e+00	 6.644964799820751e+00
 3.691367855485716e-01	 2.374422345107205e+00	 6.607497151161851e+00
 3.482382363483116e-01	 2.377577237417034e+00	 6.572396928948071e+00
 3.273736168581822e-01	 2.380539830859515e+00	 6.539028803760186e+00
 3.065452998720287e-01	 2.383311428403861e+00	 6.506789108793154e+00
 2.857556210822865e-01	 2.385893366388392e+00	 6.475108343402033e+00
 2.650068786377933e-01	 2.388287013463113e+00	 6.443453616956394e+00
 2.443013327332182e-01	 2.390493769530626e+00	 6.411331034113100e+00
 2.236412052298165e-01	 2.392515064686318e+00	 6.378288022202828e+00
 2.030286793071822e-01	 2.394352358158783e+00	 6.343915601012542e+00
 4.125354240844981e-01	 2.376224988707342e+00	 6.703902419659563e+00
 3.914993108678211e-01	 2.379781260948494e+00	 6.663900961278665e+00
 3.704923791699241e-01	 2.383142017333930e+00	 6.627275662991672e+00
 3.495170835139961e-01	 2.386308495462393e+00	 6.593309943320337e+00
 3.285758421694240e-01	 2.389281968537790e+00	 6.561314565460286e+00
 3.076710366437497e-01	 2.392063744314279e+00	 6.530630297459041e+00
 2.868050112068564e-01	 2.394655164037665e+00	 6.500630512995947e+00
 2.659800724471563e-01	 2.397057601384103e+00	 6.470723734248249e+00
 2.451984888595130e-01	 2.399272461397111e+00	 6.440356117889113e+00
 2.244624904646028e-01	 2.401301179423868e+00	 6.409013884834142e+00
 2.037742684593891e-01	 2.403145220051754e+00	 6.376225693925858e+00
 1.963183167394766e-01	 2.315215891054156e+00	 6.081666628545591e+00
 1.764385310364568e-01	 2.316815720398379e+00	 6.049389319998463e+00
 1.566088185154535e-01	 2.318240590786652e+00	 6.019429851513378e+00
 1.368311300350413e-01	 2.319491990372638e+00	 5.991895426341132e+00
 1.171073792565506e-01	 2.320571431365386e+00	 5.966963977240832e+00
 9.743944244549368e-02	 2.321480449033855e+00	 5.944881896939592e+00
 7.782915829959509e-02	 2.322220600716149e+00	 5.925961161938174e+00
 5.827832780298224e-02	 2.322793464834211e+00	 5.910575880867526e+00
 3.878871410607834e-02	 2.323200639914681e+00	 5.899158300411926e+00
 1.936204243071925e-02	 2.323443743616602e+00	 5.892194303400911e+00
 0.000000000000000e+00	 2.323524411766664e+00	 5.890218434820471e+00
 1.970639153947111e-01	 2.324008865064697e+00	 6.112941170226907e+00
 1.771086281199702e-01	 2.325614770412040e+00	 6.080969399350712e+00
 1.572036042005577e-01	 2.327045052325662e+00	 6.051288557169544e+00
 1.373508019042066e-01	 2.328301204611078e+00	 6.023977197460226e+00
 1.175521421601336e-01	 2.329384745220547e+00	 5.999190529723316e+00
 9.780950835971221e-02	 2.330297215253816e+00	 5.977158099219582e+00
 7.812474618384929e-02	 2.331040177963597e+00	 5.958180840110235e+00
 5.849966345662223e-02	 2.331615217766517e+00	 5.942627533746660e+00
 3.893603002471555e-02	 2.332023939260249e+00	 5.930930706018091e+00
 1.943557766217746e-02	 2.332267966247539e+00	 5.923581999288033e+00
 0.000000000000000e+00	 2.332348940767776e+00	 5.921127055647939e+00
 1.978095138395674e-01	 2.332801836583068e+00	 6.142818218676579e+00
 1.777787250144937e-01	 2.334413817931758e+00	 6.110647288899897e+00
 1.577983897180009e-01	 2.335849511369154e+00	 6.080666070355084e+00
 1.378704736269728e-01	 2.337110416352620e+00	 6.052906614085549e+00
 1.179969049385061e-01	 2.338198056577620e+00	 6.027483927440240e+00
 9.817957416982828e-02	 2.339113978974688e+00	 6.004593618770354e+00
 7.842033398502198e-02	 2.339859752711145e+00	 5.984508893876439e+00
 5.872099904810785e-02	 2.340436968198292e+00	 5.967576937106411e+00
 3.908334590202525e-02	 2.340847236104838e+00	 5.954214711917336e+00
 1.950911287302839e-02	 2.341092186377230e+00	 5.944904217380029e+00
 0.000000000000000e+00	 2.341173467267554e+00	 5.940187238350846e+00
 1.985551118626669e-01	 2.341594803117931e+00	 6.171398076846787e+00
 1.784488215300383e-01	 2.343212860464476e+00	 6.138508382250228e+00
 1.583931748991300e-01	 2.344653965422534e+00	 6.107631704541686e+00
 1.383901450559686e-01	 2.345919623101312e+00	 6.078735936094143e+00
 1.184416674655227e-01	 2.347011362939483e+00	 6.051878600564780e+00
 9.854963977086653e-02	 2.347930737698364e+00	 6.027204477221166e+00
 7.871592161925042e-02	 2.348679322459877e+00	 6.004942554553159e+00
 5.894233451463112e-02	 2.349258713629998e+00	 5.985402346937452e+00
 3.923066169619540e-02	 2.349670527948470e+00	 5.968969610087357e+00
 1.958264804239622e-02	 2.349916401505431e+00	 5.956101492733016e+00
 0.000000000000000e+00	 2.349997988765666e+00	 5.947321163267968e+00
 1.993007092526315e-01	 2.350387762177955e+00	 6.198780699210185e+00
 1.791189174766151e-01	 2.352011895517132e+00	 6.164637906191107e+00
 1.589879595752919e-01	 2.353458411991199e+00	 6.132263445390468e+00
 1.389098160438224e-01	 2.354728822361202e+00	 6.101637224744878e+00
 1.188864296150382e-01	 2.355824661809015e+00	 6.072782402291439e+00
 9.891970505785140e-02	 2.356747488926737e+00	 6.045772520362622e+00
 7.901150900267198e-02	 2.357498884710880e+00	 6.020749710195295e+00
 5.916366979338409e-02	 2.358080451562100e+00	 5.997925665201880e+00
 3.937797736541390e-02	 2.358493812291163e+00	 5.977582543386704e+00
 1.965618314940513e-02	 2.358740609131897e+00	 5.960073797743522e+00
 0.000000000000000e+00	 2.358822502761778e+00	 5.945824933130901e+00
 2.000463057980824e-01	 2.359180711271805e+00	 6.225624893330800e+00
 1.797890126642351e-01	 2.360810920596668e+00	 6.190442004655436e+00
 1.595827435778335e-01	 2.362262848580552e+00	 6.157088375246476e+00
 1.394294864431627e-01	 2.363538011636339e+00	 6.125360679544020e+00
 1.193311912609072e-01	 2.364637950689095e+00	 6.095124422255425e+00
 9.928976992580749e-02	 2.365564230161696e+00	 6.066315180182739e+00
 7.930709605142384e-02	 2.366318436965246e+00	 6.038939770914194e+00
 5.938500482155876e-02	 2.366902179495063e+00	 6.013077347578124e+00
 3.952529286786867e-02	 2.367317086632938e+00	 5.988880418622713e+00
 1.972971817317929e-02	 2.367564806756383e+00	 5.966575791393623e+00
 0.000000000000000e+00	 2.367647006755555e+00	 5.946465437930051e+00
 2.007919012876414e-01	 2.367973647908145e+00	 6.253521675331824e+00
 1.804591069029091e-01	 2.369609933210024e+00	 6.217879159424724e+00
 1.601775267381020e-01	 2.371067272695995e+00	 6.184041910192096e+00
 1.399491561066178e-01	 2.372347188430768e+00	 6.151646146354185e+00
 1.197759522769842e-01	 2.373451227082600e+00	 6.120399531133160e+00
 9.965983426975930e-02	 2.374380958905133e+00	 6.090082560089099e+00
 7.960268268164336e-02	 2.375137976724058e+00	 6.060549871199994e+00
 5.960633953634716e-02	 2.375723894929350e+00	 6.031731476305335e+00
 3.967260816174764e-02	 2.376140348473814e+00	 6.003633912806457e+00
 1.980325309284289e-02	 2.376388991878643e+00	 5.976341314311960e+00
 0.000000000000000e+00	 2.376471498246666e+00	 5.950016398587213e+00
 2.015374955099299e-01	 2.376766569595645e+00	 6.282546727286945e+00
 1.811292000026484e-01	 2.378408930864142e+00	 6.246945433498018e+00
 1.607723088874440e-01	 2.379871681842929e+00	 6.213098039811241e+00
 1.404688248868164e-01	 2.381156350248540e+00	 6.180462934020603e+00
 1.202207125371239e-01	 2.382264488492409e+00	 6.148572777578136e+00
 1.000298979847314e-01	 2.383197672658942e+00	 6.117036055855808e+00
 7.989826880946778e-02	 2.383957501488406e+00	 6.085538545385489e+00
 5.982767387494128e-02	 2.384545595365426e+00	 6.053844697118743e+00
 3.981992320523873e-02	 2.384963595313814e+00	 6.021798934517742e+00
 1.987678788752008e-02	 2.385213161998432e+00	 5.989326865087154e+00
 0.000000000000000e+00	 2.385295974734777e+00	 5.956436403636895e+00
 2.022830882535697e-01	 2.385559473842969e+00	 6.312683610633825e+00
 1.817992917734637e-01	 2.387207911065961e+00	 6.277619546099221e+00
 1.613670898572067e-01	 2.388676073526756e+00	 6.244230685235806e+00
 1.409884926363869e-01	 2.389965494593699e+00	 6.211780398674295e+00
 1.206654719151811e-01	 2.391077732421400e+00	 6.179609372356944e+00
 1.003999609657483e-01	 2.392014368925014e+00	 6.147137336545777e+00
 8.019385435103442e-02	 2.392777008759376e+00	 6.113864705906031e+00
 6.004900777453322e-02	 2.393367278303754e+00	 6.079374129621613e+00
 3.996723795652986e-02	 2.393786824652957e+00	 6.043331950269336e+00
 1.995032253633504e-02	 2.394037314615505e+00	 6.005489569981721e+00
 0.000000000000000e+00	 2.394120433719554e+00	 5.965684722112437e+00
 2.030286793071822e-01	 2.394352358158783e+00	 6.343915601012543e+00
 1.824693820253662e-01	 2.396006871322423e+00	 6.309880037566580e+00
 1.619618694787370e-01	 2.397480445252878e+00	 6.277413700235146e+00
 1.415081592079577e-01	 2.398774618970295e+00	 6.245567942480152e+00
 1.211102302850102e-01	 2.399890956372451e+00	 6.213474684824985e+00
 1.007700231078345e-01	 2.400831045205240e+00	 6.180348338835653e+00
 8.048943922248050e-02	 2.401596496038056e+00	 6.145487635643205e+00
 6.027034117231492e-02	 2.402188941244799e+00	 6.108277357869703e+00
 4.011455237380896e-02	 2.402610033991262e+00	 6.068189973602162e+00
 2.002385701841196e-02	 2.402861447229616e+00	 6.024787170855980e+00
 0.000000000000000e+00	 2.402944872700665e+00	 5.977721290668250e+00
 2.037742684593891e-01	 2.403145220051754e+00	 6.376225693925857e+00
 1.831394705683669e-01	 2.404805809140469e+00	 6.343705272736803e+00
 1.625566475833818e-01	 2.406284794526695e+00	 6.312620872291427e+00
 1.420278244541574e-01	 2.407583720882376e+00	 6.281795012420308e+00
 1.215549875204660e-01	 2.408704157848441e+00	 6.250134239485489e+00
 1.011400843060147e-01	 2.409647699001514e+00	 6.216631261469314e+00
 8.078502333994339e-02	 2.410415960825535e+00	 6.180366980439971e+00
 6.049167400547847e-02	 2.411010581689024e+00	 6.140512421165067e+00
 4.026186641526397e-02	 2.411433220828751e+00	 6.096330554421656e+00
 2.009739131287501e-02	 2.411685557340521e+00	 6.047178013360378e+00
 0.000000000000000e+00	 2.411769289177776e+00	 5.992506700983293e+00
 2.411769289177776e+00	 0.000000000000000e+00	 1.158270760203224e+01
 2.411685557340520e+00	 2.009739131287368e-02	 1.158697056188512e+01
 2.411433220828751e+00	 4.026186641526282e-02	 1.159156972925100e+01
 2.411010581689024e+00	 6.049167400547752e-02	 1.159641950861183e+01
 2.410415960825535e+00	 8.078502333994263e-02	 1.160141088471327e+01
 2.409647699001513e+00	 1.011400843060141e-01	 1.160641123306920e+01
 2.408704157848441e+00	 1.215549875204656e-01	 1.161126417380963e+01
 2.407583720882377e+00	 1.420278244541572e-01	 1.161578947033475e+01
 2.406284794526695e+00	 1.625566475833819e-01	 1.161978297430856e+01
 2.404805809140468e+00	 1.831394705683671e-01	 1.162301661858431e+01
 2.403145220051753e+00	 2.037742684593891e-01	 1.162523845971895e+01
 2.420592184004311e+00	 0.000000000000000e+00	 1.157214790413384e+01
 2.420508145853693e+00	 2.017091292721681e-02	 1.157595690675186e+01
 2.420254886227749e+00	 4.040915505419339e-02	 1.158033095232981e+01
 2.419830700961471e+00	 6.071296867252746e-02	 1.158513404619046e+01
 2.419233904816472e+00	 8.108055648764277e-02	 1.159020525555682e+01
 2.418462832486047e+00	 1.015100816918718e-01	 1.159535855148669e+01
 2.417515839608091e+00	 1.219996680633029e-01	 1.160038269648273e+01
 2.416391303785128e+00	 1.425474000909046e-01	 1.160504117922981e+01
 2.415087625610806e+00	 1.631513231264263e-01	 1.160907219798031e+01
 2.413603229702029e+00	 1.838094435635525e-01	 1.161218869416348e+01
 2.411936565736030e+00	 2.045197290447714e-01	 1.161407843786004e+01
 2.429415071334221e+00	 0.000000000000000e+00	 1.156333025637319e+01
 2.429330726870513e+00	 2.024443447889918e-02	 1.156618474202456e+01
 2.429076544131215e+00	 4.055644356765203e-02	 1.156997491674452e+01
 2.428650812739752e+00	 6.093426315114193e-02	 1.157448678962074e+01
 2.428051841315157e+00	 8.137608938378982e-02	 1.157948208294658e+01
 2.427277958480798e+00	 1.018800787629030e-01	 1.158469819049103e+01
 2.426327513880976e+00	 1.224443482278824e-01	 1.158984818313654e+01
 2.425198879204688e+00	 1.430669752858037e-01	 1.159462086318048e+01
 2.423890449215851e+00	 1.637459981638709e-01	 1.159868086865922e+01
 2.422400642789204e+00	 1.844794159892236e-01	 1.160166882910466e+01
 2.420727903951157e+00	 2.052651889965601e-01	 1.160320157420365e+01
 2.438237968666715e+00	 0.000000000000000e+00	 1.155694960640840e+01
 2.438153317889580e+00	 2.031795611367892e-02	 1.155811302342431e+01
 2.437898212035911e+00	 4.070373224766095e-02	 1.156075725985022e+01
 2.437470934517559e+00	 6.115555788009839e-02	 1.156456308695628e+01
 2.436869787810966e+00	 8.167162261439190e-02	 1.156918979489316e+01
 2.436093094469554e+00	 1.022500762528061e-01	 1.157427535166646e+01
 2.435139198144029e+00	 1.228890288960369e-01	 1.157943661053357e+01
 2.434006464609849e+00	 1.435865510692486e-01	 1.158426956681835e+01
 2.432693282801188e+00	 1.643406738750812e-01	 1.158834966519382e+01
 2.431198065850612e+00	 1.851493891741113e-01	 1.159123215852566e+01
 2.429519252133696e+00	 2.060106497932278e-01	 1.159245251942287e+01
 2.447060893501001e+00	 0.000000000000000e+00	 1.155369096494742e+01
 2.446975936409492e+00	 2.039147797731409e-02	 1.155219418906816e+01
 2.446719907438604e+00	 4.085102138624248e-02	 1.155293004651998e+01
 2.446291083788585e+00	 6.137685329817418e-02	 1.155544717985159e+01
 2.445687761793263e+00	 8.196715676545709e-02	 1.155927769543638e+01
 2.444908257936103e+00	 1.026200748952796e-01	 1.156393760699065e+01
 2.443950909874183e+00	 1.233337109495989e-01	 1.156892732793287e+01
 2.442814077469403e+00	 1.441061284716330e-01	 1.157373221313668e+01
 2.441496143826175e+00	 1.649353514394233e-01	 1.157782315067086e+01
 2.439995516334869e+00	 1.858193644469466e-01	 1.158065720415298e+01
 2.438310627720206e+00	 2.067561129132469e-01	 1.158167830638665e+01
 2.455883863336285e+00	 0.000000000000000e+00	 1.155422958341691e+01
 2.455798599928851e+00	 2.046500021556279e-02	 1.154887427588083e+01
 2.455541647836058e+00	 4.099831127541885e-02	 1.154674183275268e+01
 2.455111278046521e+00	 6.159814984414676e-02	 1.154722222291166e+01
 2.454505780751423e+00	 8.226269242299340e-02	 1.154969594837018e+01
 2.453723466364230e+00	 1.029900754240222e-01	 1.155353485565178e+01
 2.452762666548367e+00	 1.237783952704008e-01	 1.155810299579636e+01
 2.451621735252139e+00	 1.446257085233509e-01	 1.156275753295801e+01
 2.450299049750167e+00	 1.655300320362625e-01	 1.156684970158693e+01
 2.448793011690591e+00	 1.864893431364605e-01	 1.156972581220641e+01
 2.447102048147246e+00	 2.075015798350896e-01	 1.157072830582687e+01
 2.464706895671778e+00	 0.000000000000000e+00	 1.155923112772587e+01
 2.464621325946256e+00	 2.053852297418312e-02	 1.154859303344882e+01
 2.464363450725036e+00	 4.114560220721233e-02	 1.154243772788528e+01
 2.463931534785059e+00	 6.181944795679352e-02	 1.153997030261963e+01
 2.463323862174812e+00	 8.255823017300901e-02	 1.154039556132840e+01
 2.462538737237723e+00	 1.033600785727321e-01	 1.154291928181808e+01
 2.461574485643514e+00	 1.242230827402754e-01	 1.154674952584497e+01
 2.460429455426854e+00	 1.451452922547962e-01	 1.155109799595337e+01
 2.459102018032526e+00	 1.661247168449647e-01	 1.155518143857633e+01
 2.457590569366397e+00	 1.871593265713841e-01	 1.155822309264556e+01
 2.455893530851377e+00	 2.082470520372284e-01	 1.155945418297403e+01
 2.473530008006687e+00	 0.000000000000000e+00	 1.156935184822335e+01
 2.473444131960304e+00	 2.061204639893316e-02	 1.155178403538287e+01
 2.473185333602305e+00	 4.129289447364520e-02	 1.154025945544543e+01
 2.472751871497893e+00	 6.204074807489190e-02	 1.153377245585297e+01
 2.472142023552804e+00	 8.285377060151190e-02	 1.153132837022284e+01
 2.471354088040368e+00	 1.037300850751079e-01	 1.153194531333539e+01
 2.470386384636555e+00	 1.246677742410551e-01	 1.153465602242976e+01
 2.469237255462335e+00	 1.456648806963626e-01	 1.153850974317301e+01
 2.467905066132604e+00	 1.667194070448957e-01	 1.154257415865506e+01
 2.466388206810903e+00	 1.878293160804483e-01	 1.154593735974395e+01
 2.464685093269159e+00	 2.089925309981359e-01	 1.154770985513640e+01
 2.482353217840222e+00	 0.000000000000000e+00	 1.158523874594780e+01
 2.482267035469597e+00	 2.068557063557098e-02	 1.155887478825154e+01
 2.482007313964629e+00	 4.144018836673971e-02	 1.154044541267844e+01
 2.481572305678712e+00	 6.226205063721928e-02	 1.152870868799907e+01
 2.480960282374767e+00	 8.314931429451024e-02	 1.152244702402425e+01
 2.480169536255953e+00	 1.041000956648482e-01	 1.152046958132921e+01
 2.479198381004420e+00	 1.251124706545726e-01	 1.152161472518498e+01
 2.478045152827377e+00	 1.461844748784441e-01	 1.152475252105074e+01
 2.476708211509762e+00	 1.673141038154211e-01	 1.152878726894273e+01
 2.475185941472726e+00	 1.884993129923843e-01	 1.153266007395659e+01
 2.473476752837151e+00	 2.097380181962843e-01	 1.153535145019881e+01
 2.491176542671590e+00	 0.000000000000000e+00	 1.160752973526169e+01
 2.491090053972734e+00	 2.075909582985468e-02	 1.157028683814819e+01
 2.490829409308772e+00	 4.158748417851815e-02	 1.154323072878307e+01
 2.490392854821212e+00	 6.248335608255309e-02	 1.152485799068018e+01
 2.489778656130071e+00	 8.344486183801204e-02	 1.151370496987765e+01
 2.488985099368266e+00	 1.044701110756514e-01	 1.150835088068802e+01
 2.488010492224041e+00	 1.255571728626603e-01	 1.150742095293007e+01
 2.486853164990770e+00	 1.467040758314346e-01	 1.150958961684376e+01
 2.485511471623356e+00	 1.679088083359065e-01	 1.151358372182438e+01
 2.483983790800481e+00	 1.891693186359228e-01	 1.151818578504808e+01
 2.482268526991912e+00	 2.104835151101462e-01	 1.152223726601746e+01
 2.500000000000000e+00	 0.000000000000000e+00	 1.163685380296323e+01
 2.499913204968313e+00	 2.083262212754237e-02	 1.158643587495080e+01
 2.499651637131500e+00	 4.173478220100279e-02	 1.154884732188826e+01
 2.499213536419082e+00	 6.270466484967074e-02	 1.152229835909778e+01
 2.498597162308088e+00	 8.374041381802545e-02	 1.150505643854360e+01
 2.497800794861094e+00	 1.048401320412160e-01	 1.149545013140603e+01
 2.496822735772351e+00	 1.260018817471509e-01	 1.149187304878930e+01
 2.495661309421307e+00	 1.472236845857280e-01	 1.149278779547235e+01
 2.494314863932743e+00	 1.685035217857179e-01	 1.149672995151606e+01
 2.492781772242788e+00	 1.898393343397951e-01	 1.150231207644961e+01
 2.491060433170003e+00	 2.112290232181939e-01	 1.150822773068816e+01
 2.403145220051753e+00	 2.037742684593891e-01	 1.162523845971895e+01
 2.401301179423868e+00	 2.244624904646018e-01	 1.162744341926750e+01
 2.399272461397111e+00	 2.451984888595121e-01	 1.163075338073184e+01
 2.397057601384104e+00	 2.659800724471556e-01	 1.163509413096248e+01
 2.394655164037665e+00	 2.868050112068558e-01	 1.164039775633018e+01
 2.392063744314279e+00	 3.076710366437493e-01	 1.164660335310682e+01
 2.389281968537789e+00	 3.285758421694235e-01	 1.165365777025508e+01
 2.386308495462393e+00	 3.495170835139956e-01	 1.166151638560725e+01
 2.383142017333930e+00	 3.704923791699238e-01	 1.167014391654365e+01
 2.379781260948493e+00	 3.914993108678208e-01	 1.167951526641616e+01
 2.376224988707342e+00	 4.125354240844981e-01	 1.168961640810302e+01
 2.411936565736030e+00	 2.045197290447714e-01	 1.161407843786004e+01
 2.410085779116245e+00	 2.252836340798409e-01	 1.161585701282299e+01
 2.408049639498448e+00	 2.460954902833876e-01	 1.161880251039441e+01
 2.405826676937398e+00	 2.669530984424627e-01	 1.162283323924279e+01
 2.403415450835028e+00	 2.878542203783776e-01	 1.162787472259742e+01
 2.400814551007787e+00	 3.087965792975076e-01	 1.163386043688242e+01
 2.398022598754243e+00	 3.297778601733234e-01	 1.164073258168320e+01
 2.395038247921946e+00	 3.507957101599751e-01	 1.164844288196499e+01
 2.391860185972615e+00	 3.718477390377299e-01	 1.165695342359795e+01
 2.388487135044622e+00	 3.929315196905244e-01	 1.166623752338576e+01
 2.384917853011747e+00	 4.140445886158671e-01	 1.167628063494066e+01
 2.420727903951157e+00	 2.052651889965601e-01	 1.160320157420365e+01
 2.418870371345269e+00	 2.261047769972317e-01	 1.160450666264978e+01
 2.416826810142783e+00	 2.469924909450028e-01	 1.160702225207480e+01
 2.414595745040610e+00	 2.679261236109486e-01	 1.161066867644118e+01
 2.412175730189792e+00	 2.889034286583775e-01	 1.161537345236312e+01
 2.409565350266758e+00	 3.099221209949132e-01	 1.162107201418180e+01
 2.406763221544790e+00	 3.309798771559180e-01	 1.162770847975246e+01
 2.403767992964807e+00	 3.520743357195856e-01	 1.163523644786087e+01
 2.400578347204410e+00	 3.732030977540010e-01	 1.164361982832831e+01
 2.397193001744243e+00	 3.943637272964342e-01	 1.165283370601268e+01
 2.393610709930618e+00	 4.155537518651016e-01	 1.166286524006832e+01
 2.429519252133696e+00	 2.060106497932278e-01	 1.159245251942287e+01
 2.427654973534109e+00	 2.269259208453727e-01	 1.159331776243937e+01
 2.425603990738564e+00	 2.478894926234245e-01	 1.159540587596240e+01
 2.423364823086110e+00	 2.688991498824757e-01	 1.159864860198673e+01
 2.420936019476900e+00	 2.899526381278242e-01	 1.160298389312470e+01
 2.418316159447325e+00	 3.110476639683347e-01	 1.160835661251170e+01
 2.415503854245390e+00	 3.321818955012538e-01	 1.161471926425568e+01
 2.412497747905362e+00	 3.533529627288108e-01	 1.162203275540464e+01
 2.409296518320724e+00	 3.745584580069012e-01	 1.163026719055500e+01
 2.405898878314389e+00	 3.957959365261204e-01	 1.163940270038032e+01
 2.402303576705195e+00	 4.170629168253849e-01	 1.164943030552253e+01
 2.438310627720206e+00	 2.067561129132469e-01	 1.158167830638665e+01
 2.436439603105941e+00	 2.277470672528620e-01	 1.158221692066305e+01
 2.434381198694239e+00	 2.487864970977196e-01	 1.158394688401595e+01
 2.432133928466276e+00	 2.698721791869063e-01	 1.158682061012003e+01
 2.429696336071292e+00	 2.910018508676860e-01	 1.159079481785120e+01
 2.427066995905628e+00	 3.121732104501406e-01	 1.159583116460999e+01
 2.424244514191992e+00	 3.333839175933769e-01	 1.160189691047072e+01
 2.421227530057993e+00	 3.546315937236350e-01	 1.160896561424519e+01
 2.418014716612970e+00	 3.759138224845953e-01	 1.161701786270669e+01
 2.414604782022097e+00	 3.972281502201535e-01	 1.162604203438574e+01
 2.410996470576720e+00	 4.185720864898998e-01	 1.163603509951994e+01
 2.447102048147246e+00	 2.075015798350896e-01	 1.157072830582687e+01
 2.445224277483935e+00	 2.285682178482976e-01	 1.157113193692227e+01
 2.443158451418256e+00	 2.496835061469548e-01	 1.157263900366065e+01
 2.440903078573478e+00	 2.708452134541026e-01	 1.157523173756895e+01
 2.438456697347905e+00	 2.920510689589316e-01	 1.157889384324025e+01
 2.435817876997804e+00	 3.132987626727000e-01	 1.158361103385858e+01
 2.432985218720554e+00	 3.345859458163336e-01	 1.158937159827805e+01
 2.429957356737081e+00	 3.559102312400417e-01	 1.159616700091768e+01
 2.426732959372563e+00	 3.772691938752474e-01	 1.160399251589972e+01
 2.423310730134402e+00	 3.986603712191036e-01	 1.161284789703383e+01
 2.419689408786432e+00	 4.200812638518300e-01	 1.162273808543085e+01
 2.455893530851377e+00	 2.082470520372284e-01	 1.155945418297403e+01
 2.454009014091267e+00	 2.293893742602779e-01	 1.155999177880959e+01
 2.451935766319064e+00	 2.505805215501969e-01	 1.156147618161078e+01
 2.449672290800092e+00	 2.718182546139270e-01	 1.156392847103902e+01
 2.447217120681682e+00	 2.931002944825294e-01	 1.156736744755321e+01
 2.444568820079989e+00	 3.144243228683814e-01	 1.157181003911298e+01
 2.441725985167030e+00	 3.357879825541701e-01	 1.157727174060905e+01
 2.438687245257011e+00	 3.571888778140149e-01	 1.158376708751170e+01
 2.435451263890913e+00	 3.786245748670222e-01	 1.159131016540546e+01
 2.432016739918337e+00	 4.000926023635405e-01	 1.159991515726365e+01
 2.428382408575571e+00	 4.215904519043582e-01	 1.160959693050665e+01
 2.464685093269159e+00	 2.089925309981359e-01	 1.154770985513640e+01
 2.462793830351111e+00	 2.302105381174011e-01	 1.154872655926696e+01
 2.460713160805109e+00	 2.514775450865129e-01	 1.155045257781485e+01
 2.458441582538490e+00	 2.727913045962421e-01	 1.155295675452318e+01
 2.455977623447563e+00	 2.941495295194478e-01	 1.155630098803879e+01
 2.453319842508320e+00	 3.155498932695536e-01	 1.156054047896290e+01
 2.450466830867374e+00	 3.369900301909327e-01	 1.156572401124203e+01
 2.447417212932166e+00	 3.584675359815389e-01	 1.157189426967758e+01
 2.444169647459435e+00	 3.799799681480838e-01	 1.157908819552124e+01
 2.440722828640938e+00	 4.015248464940345e-01	 1.158733738231874e+01
 2.437075487185377e+00	 4.230996536406678e-01	 1.159666851436738e+01
 2.473476752837151e+00	 2.097380181962843e-01	 1.153535145019881e+01
 2.471578743686635e+00	 2.310317110482652e-01	 1.153726751442853e+01
 2.469490652284840e+00	 2.523745785349696e-01	 1.153956255951975e+01
 2.467210971181047e+00	 2.737643653309100e-01	 1.154236199643496e+01
 2.464738223020486e+00	 2.951987761506554e-01	 1.154577871795581e+01
 2.462070961638934e+00	 3.166754761085852e-01	 1.154991315543875e+01
 2.459207773157542e+00	 3.381920911106676e-01	 1.155485337196215e+01
 2.456147277076928e+00	 3.597462082785973e-01	 1.156067519398769e+01
 2.452888127369539e+00	 3.813353764065971e-01	 1.156744238385957e+01
 2.449429013569240e+00	 4.029571064511562e-01	 1.157520685567270e+01
 2.445768661857091e+00	 4.246088720539421e-01	 1.158400893725485e+01
 2.482268526991912e+00	 2.104835151101462e-01	 1.152223726601746e+01
 2.480363771521017e+00	 2.318528946814686e-01	 1.152554698193586e+01
 2.478268258166706e+00	 2.532716236746337e-01	 1.152880069545091e+01
 2.475980474120135e+00	 2.747374387477931e-01	 1.153218907657000e+01
 2.473498936775393e+00	 2.962480364571207e-01	 1.153588380320500e+01
 2.470822194827969e+00	 3.178010736178452e-01	 1.154003739717741e+01
 2.467948829373485e+00	 3.393941676974210e-01	 1.154478309910142e+01
 2.464877455005680e+00	 3.610248972411741e-01	 1.155023478466841e+01
 2.461606720912640e+00	 3.826908023307264e-01	 1.155648692507041e+01
 2.458135311970276e+00	 4.043893850754751e-01	 1.156361459452101e+01
 2.454461949831952e+00	 4.261181101373641e-01	 1.157167352805716e+01
 2.491060433170003e+00	 2.112290232181939e-01	 1.150822773068816e+01
 2.489148931277429e+00	 2.326740906456094e-01	 1.151349837971305e+01
 2.487045995859153e+00	 2.541686822845721e-01	 1.151816175010537e+01
 2.484750108748132e+00	 2.757105267767539e-01	 1.152248235289968e+01
 2.482259782087225e+00	 2.972973125198122e-01	 1.152669833857942e+01
 2.479573559431561e+00	 3.189266880297021e-01	 1.153102108206102e+01
 2.476690016851162e+00	 3.405962623352393e-01	 1.153563480947411e+01
 2.473607764032804e+00	 3.623036054052532e-01	 1.154069626971896e+01
 2.470325445380151e+00	 3.840462486086361e-01	 1.154633445401024e+01
 2.466841741111083e+00	 4.058216852075619e-01	 1.155265036684967e+01
 2.463155368351200e+00	 4.276273708841171e-01	 1.155971685210995e+01
 2.376224988707342e+00	 4.125354240844981e-01	 1.168961640810302e+01
 2.372472654089149e+00	 4.335946471085245e-01	 1.169994235709947e+01
 2.368522505086349e+00	 4.546780338956407e-01	 1.171022618224864e+01
 2.364373415927180e+00	 4.757830315916268e-01	 1.172082294165963e+01
 2.360024300548634e+00	 4.969070535816814e-01	 1.173209947011095e+01
 2.355474113615235e+00	 5.180474801603691e-01	 1.174443498357352e+01
 2.350721851527660e+00	 5.392016592342913e-01	 1.175817635330598e+01
 2.345766553420076e+00	 5.603669070574515e-01	 1.177336131060766e+01
 2.340607302145042e+00	 5.815405089992439e-01	 1.179023880487614e+01
 2.335243225244861e+00	 6.027197203449562e-01	 1.180827535172216e+01
 2.329673495908198e+00	 6.239017671286294e-01	 1.182509688310962e+01
 2.384917853011747e+00	 4.140445886158671e-01	 1.167628063494066e+01
 2.381151791353338e+00	 4.351808518903860e-01	 1.168653513371307e+01
 2.377187191652528e+00	 4.563413673254687e-01	 1.169668591087408e+01
 2.373022924019193e+00	 4.775235727278697e-01	 1.170707978014336e+01
 2.368657898417226e+00	 4.987248720202559e-01	 1.171807499158405e+01
 2.364091065687044e+00	 5.199426359136076e-01	 1.173004183412183e+01
 2.359321418557904e+00	 5.411742026124564e-01	 1.174336328101174e+01
 2.354347992648878e+00	 5.624168785529432e-01	 1.175843568133835e+01
 2.349169867457369e+00	 5.836679391736147e-01	 1.177552733845348e+01
 2.343786167334006e+00	 6.049246297188565e-01	 1.179353145653692e+01
 2.338196062442770e+00	 6.261841660747979e-01	 1.181030017190619e+01
 2.393610709930618e+00	 4.155537518651016e-01	 1.166286524006832e+01
 2.389830921243562e+00	 4.367670553247101e-01	 1.167312123981918e+01
 2.385851870856911e+00	 4.580046993422883e-01	 1.168323124302324e+01
 2.381672424762188e+00	 4.792641123855698e-01	 1.169352908232058e+01
 2.377291488950196e+00	 5.005426889146960e-01	 1.170436010882787e+01
 2.372708010437258e+00	 5.218377900570660e-01	 1.171608180590542e+01
 2.367920978281215e+00	 5.431467443151478e-01	 1.172906444575896e+01
 2.362929424586053e+00	 5.644668483072237e-01	 1.174369179201363e+01
 2.357732425494026e+00	 5.857953675409996e-01	 1.176036185156136e+01
 2.352329102164099e+00	 6.071295372199625e-01	 1.177815879424460e+01
 2.346718621735574e+00	 6.284665630823352e-01	 1.179497425579340e+01
 2.402303576705195e+00	 4.170629168253849e-01	 1.164943030552253e+01
 2.398510060973844e+00	 4.383532605574560e-01	 1.165971778979333e+01
 2.394516559884871e+00	 4.596680332450079e-01	 1.166984169339706e+01
 2.390321935311451e+00	 4.810046540167408e-01	 1.168011818696778e+01
 2.385925089271292e+00	 5.023605078702577e-01	 1.169087546133929e+01
 2.381324964956625e+00	 5.237329463493646e-01	 1.170245436572046e+01
 2.376520547753875e+00	 5.451192882544532e-01	 1.171520908827518e+01
 2.371510866251946e+00	 5.665168203859349e-01	 1.172950788227028e+01
 2.366294993237942e+00	 5.879227983206606e-01	 1.174573384112700e+01
 2.360872046679166e+00	 6.093344472212072e-01	 1.176271535499130e+01
 2.355241190690244e+00	 6.307489626778779e-01	 1.177908542615917e+01
 2.410996470576720e+00	 4.185720864898998e-01	 1.163603509951994e+01
 2.407189227758209e+00	 4.399394707345836e-01	 1.164634168725583e+01
 2.403181275921789e+00	 4.613313723325360e-01	 1.165649709035765e+01
 2.398971472822265e+00	 4.827452010733954e-01	 1.166679519161949e+01
 2.394558716504258e+00	 5.041783324921966e-01	 1.167754281252108e+01
 2.389941946335890e+00	 5.256281085491237e-01	 1.168906038888064e+01
 2.385120144032165e+00	 5.470918383424604e-01	 1.170168268816600e+01
 2.380092334666901e+00	 5.685667988547181e-01	 1.171575957162734e+01
 2.374857587672045e+00	 5.900502357318614e-01	 1.173164564140511e+01
 2.369415017823233e+00	 6.115393640955250e-01	 1.174793755715361e+01
 2.363763786210413e+00	 6.330313693880619e-01	 1.176360960115795e+01
 2.419689408786432e+00	 4.200812638518300e-01	 1.162273808543085e+01
 2.415868438810683e+00	 4.415256890020526e-01	 1.163300962264008e+01
 2.411846036153035e+00	 4.629947199037815e-01	 1.164317756347419e+01
 2.407621054449918e+00	 4.844857570075466e-01	 1.165350893148888e+01
 2.403192387772838e+00	 5.059961663857694e-01	 1.166428502138750e+01
 2.398558971665798e+00	 5.275232804149631e-01	 1.167580212513075e+01
 2.393719784172369e+00	 5.490643984912575e-01	 1.168837229864273e+01
 2.388673846851264e+00	 5.706167877792142e-01	 1.170232417225073e+01
 2.383420225779265e+00	 5.921776839938636e-01	 1.171795470487253e+01
 2.377958032540327e+00	 6.137442922158496e-01	 1.173370630312598e+01
 2.372286425199708e+00	 6.353137877395229e-01	 1.174883707295698e+01
 2.428382408575571e+00	 4.215904519043582e-01	 1.160959693050665e+01
 2.424547711345289e+00	 4.431119185058226e-01	 1.161973807076026e+01
 2.420510857763988e+00	 4.646580792576526e-01	 1.162986353128287e+01
 2.416270697349693e+00	 4.862263252712080e-01	 1.164020895878595e+01
 2.411826120200776e+00	 5.078140131562318e-01	 1.165102601481990e+01
 2.407176058037094e+00	 5.294184657055032e-01	 1.166258316523125e+01
 2.402319485230767e+00	 5.510369726129323e-01	 1.167516650883901e+01
 2.397255419825381e+00	 5.726667912250649e-01	 1.168908064841577e+01
 2.391982924542530e+00	 5.943051473259304e-01	 1.170453977901305e+01
 2.386501107774475e+00	 6.159492359551141e-01	 1.171990029303375e+01
 2.380809124561764e+00	 6.375962222588970e-01	 1.173465169347840e+01
 2.437075487185377e+00	 4.230996536406678e-01	 1.159666851436738e+01
 2.433227062576054e+00	 4.446981623918532e-01	 1.160654328837794e+01
 2.429175757940025e+00	 4.663214536930586e-01	 1.161653568925493e+01
 2.424920418676879e+00	 4.879669093163925e-01	 1.162684552242273e+01
 2.420459930911816e+00	 5.096318764088399e-01	 1.163769076035779e+01
 2.415793222540528e+00	 5.313136681793640e-01	 1.164930840819601e+01
 2.410919264263641e+00	 5.530095646195722e-01	 1.166195540686715e+01
 2.405837070609595e+00	 5.747168132579111e-01	 1.167590957676504e+01
 2.400545700944769e+00	 5.964326299473243e-01	 1.169128116069528e+01
 2.395044260469703e+00	 6.181541996862523e-01	 1.170639948083765e+01
 2.389331901200212e+00	 6.398786774728203e-01	 1.172093847060853e+01
 2.445768661857091e+00	 4.246088720539421e-01	 1.158400893725485e+01
 2.441906509717001e+00	 4.462844238061043e-01	 1.159344131176724e+01
 2.437840753866521e+00	 4.679848465089073e-01	 1.160317499796701e+01
 2.433570235586758e+00	 4.897075125951131e-01	 1.161336954809520e+01
 2.429093837029705e+00	 5.114497597488500e-01	 1.162420523951128e+01
 2.424410482266842e+00	 5.332088915951659e-01	 1.163588402916599e+01
 2.419519138327274e+00	 5.549821784232656e-01	 1.164863054359529e+01
 2.414418816224253e+00	 5.767668579433947e-01	 1.166269310734102e+01
 2.409108571968911e+00	 5.985601360773081e-01	 1.167806039362896e+01
 2.403587507570036e+00	 6.203591877821977e-01	 1.169308504696923e+01
 2.397854772018683e+00	 6.421611579079286e-01	 1.170758354304731e+01
 2.454461949831952e+00	 4.261181101373641e-01	 1.157167352805716e+01
 2.450586069982156e+00	 4.478707058945353e-01	 1.158044795427840e+01
 2.446505862728852e+00	 4.696482610041077e-01	 1.158976267146829e+01
 2.442220165234617e+00	 4.914481385593829e-01	 1.159973261873186e+01
 2.437727855678187e+00	 5.132676667815177e-01	 1.161049642158103e+01
 2.433027854306784e+00	 5.351041397115290e-01	 1.162221744790240e+01
 2.428119124477946e+00	 5.569548179360997e-01	 1.163508489712590e+01
 2.423000673689698e+00	 5.788169293471567e-01	 1.164931492537285e+01
 2.417671554597885e+00	 6.006876699351440e-01	 1.166476024095173e+01
 2.412130866019502e+00	 6.225642046158842e-01	 1.167983937172455e+01
 2.406377753920809e+00	 6.444436680908577e-01	 1.169447415587936e+01
 2.463155368351200e+00	 4.276273708841171e-01	 1.155971685210995e+01
 2.459265760585544e+00	 4.494570118031062e-01	 1.156757880389908e+01
 2.455171101712394e+00	 4.713117004775685e-01	 1.157628016583910e+01
 2.450870224775741e+00	 4.931887906612153e-01	 1.158588695529924e+01
 2.446362003981006e+00	 5.150856011120998e-01	 1.159649223797258e+01
 2.441645355751100e+00	 5.369994162870736e-01	 1.160821729788274e+01
 2.436719239771942e+00	 5.589274870701633e-01	 1.162121283795779e+01
 2.431582660026279e+00	 5.808670315348383e-01	 1.163566021379768e+01
 2.426234665814621e+00	 6.028152357400953e-01	 1.165126465856075e+01
 2.420674352762128e+00	 6.247692545602455e-01	 1.166654600939666e+01
 2.414900863810222e+00	 6.467262125482436e-01	 1.168149863684887e+01
 2.329673495908198e+00	 6.239017671286294e-01	 1.182509688310962e+01
 2.323897334417938e+00	 6.450838472938442e-01	 1.184160186491724e+01
 2.317914010599845e+00	 6.662631325049658e-01	 1.185876233647941e+01
 2.311722843211848e+00	 6.874367682357324e-01	 1.187656636129270e+01
 2.305323200321330e+00	 7.086018744401660e-01	 1.189499409916072e+01
 2.298714500167883e+00	 7.297555465433316e-01	 1.191401874175567e+01
 2.291896212004354e+00	 7.508948564624919e-01	 1.193360733215856e+01
 2.284867856915019e+00	 7.720168536581867e-01	 1.195372145882241e+01
 2.277629008609737e+00	 7.931185662147199e-01	 1.197431781539721e+01
 2.270179294192987e+00	 8.141970019494853e-01	 1.199534861894909e+01
 2.262518394906619e+00	 8.352491495505205e-01	 1.201676188029274e+01
 2.338196062442770e+00	 6.261841660747979e-01	 1.181030017190619e+01
 2.332398770214142e+00	 6.474437359343465e-01	 1.182676528328456e+01
 2.326393557802711e+00	 6.687005006150659e-01	 1.184385172597212e+01
 2.320179741474245e+00	 6.899515951480814e-01	 1.186155929933892e+01
 2.313756686984342e+00	 7.111941289514443e-01	 1.187988017539877e+01
 2.307123810444363e+00	 7.324251868245162e-01	 1.189879983874391e+01
 2.300280579165536e+00	 7.536418299728570e-01	 1.191829790488613e+01
 2.293226512480131e+00	 7.748410970631522e-01	 1.193834880719327e+01
 2.285961182538526e+00	 7.960200053076523e-01	 1.195892234363655e+01
 2.278484215081045e+00	 8.171755515775548e-01	 1.197998407569035e+01
 2.270795290183433e+00	 8.383047135447205e-01	 1.200149557294901e+01
 2.346718621735574e+00	 6.284665630823352e-01	 1.179497425579340e+01
 2.340900198786538e+00	 6.498036225703604e-01	 1.181149306268505e+01
 2.334873097800403e+00	 6.711378666548100e-01	 1.182859099851013e+01
 2.328636632550767e+00	 6.924664199242102e-01	 1.184627913649909e+01
 2.322190166481446e+00	 7.137863812606550e-01	 1.186456120333461e+01
 2.315533113575553e+00	 7.350948248378139e-01	 1.188343452434442e+01
 2.308664939202700e+00	 7.563888011495592e-01	 1.190289084141327e+01
 2.301585160943147e+00	 7.776653380687356e-01	 1.192291699354281e+01
 2.294293349387783e+00	 7.989214419355525e-01	 1.194349545104415e+01
 2.286789128912769e+00	 8.201540986750240e-01	 1.196460469551022e+01
 2.279072178427747e+00	 8.413602749428494e-01	 1.198621943897312e+01
 2.355241190690244e+00	 6.307489626778779e-01	 1.177908542615917e+01
 2.349401636996866e+00	 6.521635118822361e-01	 1.179570321552297e+01
 2.343352647411264e+00	 6.735752354582543e-01	 1.181290726137734e+01
 2.337093533214851e+00	 6.949812475518479e-01	 1.183066187611512e+01
 2.330623655539652e+00	 7.163786365091444e-01	 1.184898188862584e+01
 2.323942426240530e+00	 7.377644658781127e-01	 1.186787601862010e+01
 2.317049308745463e+00	 7.591357754409273e-01	 1.188734769488890e+01
 2.309943818882697e+00	 7.804895822765816e-01	 1.190739573013859e+01
 2.302625525683621e+00	 8.018228818532340e-01	 1.192801484315210e+01
 2.295094052160227e+00	 8.231326491497069e-01	 1.194919602022206e+01
 2.287349076056038e+00	 8.444158398055267e-01	 1.197092670909840e+01
 2.363763786210413e+00	 6.330313693880619e-01	 1.176360960115795e+01
 2.357903101706866e+00	 6.545234085503246e-01	 1.177958183706411e+01
 2.351832223453632e+00	 6.760126118594533e-01	 1.179672866086394e+01
 2.345550460239932e+00	 6.974960830187225e-01	 1.181464437615435e+01
 2.339057170885978e+00	 7.189708998382592e-01	 1.183308760753718e+01
 2.332351765118369e+00	 7.404341152403006e-01	 1.185207802854470e+01
 2.325433704423443e+00	 7.618827582952892e-01	 1.187163032196445e+01
 2.318302502877411e+00	 7.833138352883350e-01	 1.189175484960488e+01
 2.310957727952152e+00	 8.047243308155118e-01	 1.191245816294750e+01
 2.303399001295480e+00	 8.261112089094171e-01	 1.193374334642603e+01
 2.295625999484788e+00	 8.474714141933701e-01	 1.195561018640710e+01
 2.372286425199708e+00	 6.353137877395229e-01	 1.174883707295698e+01
 2.366404609778275e+00	 6.568833172549762e-01	 1.176418438598165e+01
 2.360311842745852e+00	 6.784500006924630e-01	 1.178057436259546e+01
 2.354007430399444e+00	 7.000109313125620e-01	 1.179817743829884e+01
 2.347490729247438e+00	 7.215631763893470e-01	 1.181682437128874e+01
 2.340761146888150e+00	 7.431037782192651e-01	 1.183599471403579e+01
 2.333818142866254e+00	 7.646297551609732e-01	 1.185570085045419e+01
 2.326661229505918e+00	 7.861381027056406e-01	 1.187596427415420e+01
 2.319289972719490e+00	 8.076257945772006e-01	 1.189680296162169e+01
 2.311703992790594e+00	 8.290897838619680e-01	 1.191823169772479e+01
 2.303902965130477e+00	 8.505270041669979e-01	 1.194026221996406e+01
 2.380809124561764e+00	 6.375962222588970e-01	 1.173465169347840e+01
 2.374906178072832e+00	 6.592432426765410e-01	 1.174953484921956e+01
 2.368791522106264e+00	 6.808874067913385e-01	 1.176530179797873e+01
 2.362464460466825e+00	 7.025257974210954e-01	 1.178214491119954e+01
 2.355924347351050e+00	 7.241554713037538e-01	 1.180023735439178e+01
 2.349170588228949e+00	 7.457734601098945e-01	 1.181958065449820e+01
 2.342202640703515e+00	 7.673767714863076e-01	 1.183952164745259e+01
 2.335020015346847e+00	 7.889623901301437e-01	 1.185999398522378e+01
 2.327622276511749e+00	 8.105272788931156e-01	 1.188102666967289e+01
 2.320009043117633e+00	 8.320683799151728e-01	 1.190264579724183e+01
 2.312179989409584e+00	 8.535826157870279e-01	 1.192487467870253e+01
 2.389331901200212e+00	 6.398786774728203e-01	 1.172093847060853e+01
 2.383407823452274e+00	 6.616031894953696e-01	 1.173552591574870e+01
 2.377271278353209e+00	 6.833248349901350e-01	 1.175082371487643e+01
 2.370921567215508e+00	 7.050406863320510e-01	 1.176704604645965e+01
 2.364358041923826e+00	 7.267477897228267e-01	 1.178438824978718e+01
 2.357580105819843e+00	 7.484431662070755e-01	 1.180302578124389e+01
 2.350587214564840e+00	 7.701238127196205e-01	 1.182305528789560e+01
 2.343378876978828e+00	 7.917867031634892e-01	 1.184381399350489e+01
 2.335954655855042e+00	 8.134287895180705e-01	 1.186510656835135e+01
 2.328314168748661e+00	 8.350470029768464e-01	 1.188697004043240e+01
 2.320457088738592e+00	 8.566382551140787e-01	 1.190943892555335e+01
 2.397854772018683e+00	 6.421611579079286e-01	 1.170758354304731e+01
 2.391909562778341e+00	 6.639631623918123e-01	 1.172205127375315e+01
 2.385751128305029e+00	 6.857622901229081e-01	 1.173704119739830e+01
 2.379378767418929e+00	 7.075556030331569e-01	 1.175278917512361e+01
 2.372791829692784e+00	 7.293401367879123e-01	 1.176951258488751e+01
 2.365989716339909e+00	 7.511129018056970e-01	 1.178740924846062e+01
 2.358971881079847e+00	 7.728708843092401e-01	 1.180665627221905e+01
 2.351737830980490e+00	 7.946110474073220e-01	 1.182739430935312e+01
 2.344287127275481e+00	 8.163303322068803e-01	 1.184901976143613e+01
 2.336619386155741e+00	 8.380256589548013e-01	 1.187118846817756e+01
 2.328734279533980e+00	 8.596939282087687e-01	 1.189394579180935e+01
 2.406377753920809e+00	 6.444436680908577e-01	 1.169447415587936e+01
 2.400411412912772e+00	 6.663231660462197e-01	 1.170900558905352e+01
 2.394231088780065e+00	 6.881997770237134e-01	 1.172385618210674e+01
 2.387836077850523e+00	 7.100705525121414e-01	 1.173928335893395e+01
 2.381225727384938e+00	 7.319325176403579e-01	 1.175552640543794e+01
 2.374399436468224e+00	 7.537826722006462e-01	 1.177280536770275e+01
 2.367356656878152e+00	 7.756179917034952e-01	 1.179131986309430e+01
 2.360096893930464e+00	 7.974354284632876e-01	 1.181124780111350e+01
 2.352619707299179e+00	 8.192319127143596e-01	 1.183274314733343e+01
 2.344924711810938e+00	 8.410043537568513e-01	 1.185528474015229e+01
 2.337011578212228e+00	 8.627496411317159e-01	 1.187838555171671e+01
 2.414900863810222e+00	 6.467262125482436e-01	 1.168149863684887e+01
 2.408913390717305e+00	 6.686832051389422e-01	 1.169628448418440e+01
 2.402711176596659e+00	 6.906373005266060e-01	 1.171117143987268e+01
 2.396293515283728e+00	 7.125855397567337e-01	 1.172643837494190e+01
 2.389659751727306e+00	 7.345249374215101e-01	 1.174234635675692e+01
 2.382809282883867e+00	 7.564524826868108e-01	 1.175913751883967e+01
 2.375741558589372e+00	 7.783651403507136e-01	 1.177703384280967e+01
 2.368456082407380e+00	 8.002598519330307e-01	 1.179623584920007e+01
 2.360952412452252e+00	 8.221335367953236e-01	 1.181692119380921e+01
 2.353230162186319e+00	 8.439830932908107e-01	 1.183924316617737e+01
 2.345289001189816e+00	 8.658053999435387e-01	 1.186274789728524e+01
 2.262518394906619e+00	 8.352491495505205e-01	 1.201676188029274e+01
 2.254644690221028e+00	 8.562755510073792e-01	 1.203833229003656e+01
 2.246559254862706e+00	 8.772695764783921e-01	 1.205976378435609e+01
 2.238261935071895e+00	 8.982281617561039e-01	 1.208090387224415e+01
 2.229752633954296e+00	 9.191482282730243e-01	 1.210159677565555e+01
 2.221031312078379e+00	 9.400266843708884e-01	 1.212168304044287e+01
 2.212097988040086e+00	 9.608604265935810e-01	 1.214099899081784e+01
 2.202952738993927e+00	 9.816463410027958e-01	 1.215937603118405e+01
 2.193595701149540e+00	 1.002381304515459e+00	 1.217663980083877e+01
 2.184027070232773e+00	 1.023062186261888e+00	 1.219260918870646e+01
 2.174247101910407e+00	 1.043685848963648e+00	 1.220709521693046e+01
 2.270795290183433e+00	 8.383047135447205e-01	 1.200149557294901e+01
 2.262892781387759e+00	 8.594080351814513e-01	 1.202325083740477e+01
 2.254777767352143e+00	 8.804788623923592e-01	 1.204495488476310e+01
 2.246450093754339e+00	 9.015141197603106e-01	 1.206644184010470e+01
 2.237909663345580e+00	 9.225107174556043e-01	 1.208754278937225e+01
 2.229156436550089e+00	 9.434655525098746e-01	 1.210808537270073e+01
 2.220190432031832e+00	 9.643755101137453e-01	 1.212789321512404e+01
 2.211011727227574e+00	 9.852374649373047e-01	 1.214678519859180e+01
 2.201620458845245e+00	 1.006048282472418e+00	 1.216457458092868e+01
 2.192016823326705e+00	 1.026804820395856e+00	 1.218106796908069e+01
 2.182201077274037e+00	 1.047503929952193e+00	 1.219606415570382e+01
 2.279072178427747e+00	 8.413602749428494e-01	 1.198621943897312e+01
 2.271140865546448e+00	 8.625405166940810e-01	 1.200815478187592e+01
 2.262996272858634e+00	 8.836881455796276e-01	 1.203012043221061e+01
 2.254638245479569e+00	 9.048000749726840e-01	 1.205193945223581e+01
 2.246066685806030e+00	 9.258732037813431e-01	 1.207343210075896e+01
 2.237281554117995e+00	 9.469044177271441e-01	 1.209441540458346e+01
 2.228282869147467e+00	 9.678905906474560e-01	 1.211470256101054e+01
 2.219070708613470e+00	 9.888285858207663e-01	 1.213410217542478e+01
 2.209645209722230e+00	 1.009715257313883e+00	 1.215241733973915e+01
 2.200006569631635e+00	 1.030547451350040e+00	 1.216944455923478e+01
 2.190155045879068e+00	 1.051322007696823e+00	 1.218497253709089e+01
 2.287349076056038e+00	 8.444158398055267e-01	 1.197092670909840e+01
 2.279388959056444e+00	 8.656730017584985e-01	 1.199304471747454e+01
 2.271214787682855e+00	 8.868974324058002e-01	 1.201526785813819e+01
 2.262826406488048e+00	 9.080860339109358e-01	 1.203741043330135e+01
 2.254223717514355e+00	 9.292356939197759e-01	 1.205928416598842e+01
 2.245406680897510e+00	 9.503432868437472e-01	 1.208069774532331e+01
 2.236375315437564e+00	 9.714056751669474e-01	 1.210145619637387e+01
 2.227129699135804e+00	 9.924197107762448e-01	 1.212136007868557e+01
 2.217669969696763e+00	 1.013382236313375e+00	 1.214020451943144e+01
 2.207996324994358e+00	 1.034290086548014e+00	 1.215777808891440e+01
 2.198109023501284e+00	 1.055140089770742e+00	 1.217386152796792e+01
 2.295625999484788e+00	 8.474714141933701e-01	 1.195561018640710e+01
 2.287637078277101e+00	 8.688054965879354e-01	 1.197792063107435e+01
 2.279433328125484e+00	 8.901067292364798e-01	 1.200040381332226e+01
 2.271014593020246e+00	 9.113720030927777e-01	 1.202286756020431e+01
 2.262380774649266e+00	 9.325981945404379e-01	 1.204511733322275e+01
 2.253531833004051e+00	 9.537821666807349e-01	 1.206695574317880e+01
 2.244467786952697e+00	 9.749207706444541e-01	 1.208818188290435e+01
 2.235188714778766e+00	 9.960108469268052e-01	 1.210859048211664e+01
 2.225694754685102e+00	 1.017049226744411e+00	 1.212797089048326e+01
 2.215986105261665e+00	 1.038032733413349e+00	 1.214610589684385e+01
 2.206063025916469e+00	 1.058958183747155e+00	 1.216277039439511e+01
 2.303902965130477e+00	 8.505270041669979e-01	 1.194026221996406e+01
 2.295885239567763e+00	 8.719380073956221e-01	 1.196278187735454e+01
 2.287651910487201e+00	 8.933160424372689e-01	 1.198553414400769e+01
 2.279202821316628e+00	 9.146579890359218e-01	 1.200832263924147e+01
 2.270537873389478e+00	 9.359607123128643e-01	 1.203094882063376e+01
 2.261657026553031e+00	 9.572210640591571e-01	 1.205321146415873e+01
 2.252560299743440e+00	 9.784358840522107e-01	 1.207490595534663e+01
 2.243247771526545e+00	 9.996020013955126e-01	 1.209582339582605e+01
 2.233719580603510e+00	 1.020716235880510e+00	 1.211574953150404e+01
 2.223975926280349e+00	 1.041775399369618e+00	 1.213446351055072e+01
 2.214017068900405e+00	 1.062776297199268e+00	 1.215173648126648e+01
 2.312179989409584e+00	 8.535826157870279e-01	 1.192487467870253e+01
 2.304133459287780e+00	 8.750705403947892e-01	 1.194762715395951e+01
 2.295870551068684e+00	 8.965253783737703e-01	 1.197066386819699e+01
 2.287391107617659e+00	 9.179439982580789e-01	 1.199378648337256e+01
 2.278695029913700e+00	 9.393232539065900e-01	 1.201679469449800e+01
 2.269782277659865e+00	 9.606599858000637e-01	 1.203948567078395e+01
 2.260652869860363e+00	 9.819510223624504e-01	 1.206165330076502e+01
 2.251306885363327e+00	 1.003193181305431e+00	 1.208308724588844e+01
 2.241744463368251e+00	 1.024383270995191e+00	 1.210357180899915e+01
 2.231965803897203e+00	 1.045518091840396e+00	 1.212288462611711e+01
 2.221971168228874e+00	 1.066594437700284e+00	 1.214079519186776e+01
 2.320457088738592e+00	 8.566382551140787e-01	 1.190943892555335e+01
 2.312381753796503e+00	 8.782031017986682e-01	 1.193245447685443e+01
 2.304089266170612e+00	 8.997347434115873e-01	 1.195579715209056e+01
 2.295579468163808e+00	 9.212300372769618e-01	 1.197926888959863e+01
 2.286852260400646e+00	 9.426858259911503e-01	 1.200266984736183e+01
 2.277907602439966e+00	 9.640989387245048e-01	 1.202579780088369e+01
 2.268745513354044e+00	 9.854661925474093e-01	 1.204844733781055e+01
 2.259366072273304e+00	 1.006784393779626e+00	 1.207040885391839e+01
 2.249769418895582e+00	 1.028050339361972e+00	 1.209146735708105e+01
 2.239955753959019e+00	 1.049260818249255e+00	 1.211140108785598e+01
 2.229925339677661e+00	 1.070412612823410e+00	 1.212997996734121e+01
 2.328734279533980e+00	 8.596939282087687e-01	 1.189394579180935e+01
 2.320630139453281e+00	 8.813356978204894e-01	 1.191726115586951e+01
 2.312308072093663e+00	 9.029441439163223e-01	 1.194093728667166e+01
 2.303767919195540e+00	 9.245161126102819e-01	 1.196477861644400e+01
 2.295009581029028e+00	 9.460484352360796e-01	 1.198858797627230e+01
 2.286033017008748e+00	 9.675379296535310e-01	 1.201216594642221e+01
 2.276838246275052e+00	 9.889814015793197e-01	 1.203530999598687e+01
 2.267425348240664e+00	 1.010375645941163e+00	 1.205781341661422e+01
 2.257794463101769e+00	 1.031717448254372e+00	 1.207946405712575e+01
 2.247945792312591e+00	 1.053003586019767e+00	 1.210004286791100e+01
 2.237879599022548e+00	 1.074230830141849e+00	 1.211932226605633e+01
 2.337011578212228e+00	 8.627496411317159e-01	 1.187838555171671e+01
 2.328878632617463e+00	 8.844683346734837e-01	 1.190204377042573e+01
 2.320526985138517e+00	 9.061535862535784e-01	 1.192608666443005e+01
 2.311956476953323e+00	 9.278022307757506e-01	 1.195032336153690e+01
 2.303167007977557e+00	 9.494110883109137e-01	 1.197456156106910e+01
 2.294158537481629e+00	 9.709769654081926e-01	 1.199860683235278e+01
 2.284931084673964e+00	 9.924966564304178e-01	 1.202226169491176e+01
 2.275484729249596e+00	 1.013966944913105e+00	 1.204532448526945e+01
 2.265819611903070e+00	 1.035384604945910e+00	 1.206758801737239e+01
 2.255935934804709e+00	 1.056746402575507e+00	 1.208883804577874e+01
 2.245833962039317e+00	 1.078049097228806e+00	 1.210885154288520e+01
 2.345289001189816e+00	 8.658053999435387e-01	 1.186274789728524e+01
 2.337127249648398e+00	 8.876010185708825e-01	 1.188679814543513e+01
 2.328746021605851e+00	 9.093630767889582e-01	 1.191124675621845e+01
 2.320145157677621e+00	 9.310883982910803e-01	 1.193590973928352e+01
 2.311324557424947e+00	 9.527737918851877e-01	 1.196060184273370e+01
 2.302284179974021e+00	 9.744160528095396e-01	 1.198513579549484e+01
 2.293024044601351e+00	 9.960119640729374e-01	 1.200932132357191e+01
 2.283544231284290e+00	 1.017558297818519e+00	 1.203296394525000e+01
 2.273844881215751e+00	 1.039051816710104e+00	 1.205586355246435e+01
 2.263926197282168e+00	 1.060489275340046e+00	 1.207781278775155e+01
 2.253788444503754e+00	 1.081867421657487e+00	 1.209859522838145e+01
 2.174247101910407e+00	 1.043685848963648e+00	 1.220709521693046e+01
 2.164257828117094e+00	 1.064245660079298e+00	 1.222028705675732e+01
 2.154057979603053e+00	 1.084741984992150e+00	 1.223211340880653e+01
 2.143647992280264e+00	 1.105171676113251e+00	 1.224196607341935e+01
 2.133028363287593e+00	 1.125531585092218e+00	 1.224921608851563e+01
 2.122199651223107e+00	 1.145818564275578e+00	 1.225321258750439e+01
 2.111162476335520e+00	 1.166029468177674e+00	 1.225328162717024e+01
 2.099917520674204e+00	 1.186161154962848e+00	 1.224924802453902e+01
 2.088465528197159e+00	 1.206210487937535e+00	 1.224393469632855e+01
 2.076807304836467e+00	 1.226174337050922e+00	 1.223759645764825e+01
 2.064943718520748e+00	 1.246049580402761e+00	 1.222988382564410e+01
 2.182201077274037e+00	 1.047503929952193e+00	 1.219606415570382e+01
 2.172175260055250e+00	 1.068138954336390e+00	 1.220971152896390e+01
 2.161938097777304e+00	 1.088710260268420e+00	 1.222190361651091e+01
 2.151490027946855e+00	 1.109214688644599e+00	 1.223202750638660e+01
 2.140831549521430e+00	 1.129649079597028e+00	 1.223944858786962e+01
 2.129963223142588e+00	 1.150010273957264e+00	 1.224350932326509e+01
 2.118885671328078e+00	 1.170295114732615e+00	 1.224352798738424e+01
 2.107599578622378e+00	 1.190500448593737e+00	 1.223985578854527e+01
 2.096105691705081e+00	 1.210623127372194e+00	 1.223509381511048e+01
 2.084404819456578e+00	 1.230660009566597e+00	 1.222910178561726e+01
 2.072497832980598e+00	 1.250607961855945e+00	 1.222152891802850e+01
 2.190155045879068e+00	 1.051322007696823e+00	 1.218497253709089e+01
 2.180092685265895e+00	 1.072032245285613e+00	 1.219910666596715e+01
 2.169818209255819e+00	 1.092678532173049e+00	 1.221170118140071e+01
 2.159332056950160e+00	 1.113257697740727e+00	 1.222213766089668e+01
 2.148634729125098e+00	 1.133766570603249e+00	 1.222977500508510e+01
 2.137726788465682e+00	 1.154201980077221e+00	 1.223394812188816e+01
 2.126608859758675e+00	 1.174560757662926e+00	 1.223396657605886e+01
 2.115281630043663e+00	 1.194839738537354e+00	 1.223086037762554e+01
 2.103745848721818e+00	 1.215035763057208e+00	 1.222664117232517e+01
 2.092002327621830e+00	 1.235145678270544e+00	 1.222098409542477e+01
 2.080051941022524e+00	 1.255166339435620e+00	 1.221353578469245e+01
 2.198109023501284e+00	 1.055140089770742e+00	 1.217386152796792e+01
 2.188010119452279e+00	 1.075925540649333e+00	 1.218851517850517e+01
 2.177698329667777e+00	 1.096646808577094e+00	 1.220155004382631e+01
 2.167174094843762e+00	 1.117300711420900e+00	 1.221234141265221e+01
 2.156437917575068e+00	 1.137884066277843e+00	 1.222024087749008e+01
 2.145490362590222e+00	 1.158393690949569e+00	 1.222457492962362e+01
 2.134332056945008e+00	 1.178826405429338e+00	 1.222466944274291e+01
 2.122963690174114e+00	 1.199179033400459e+00	 1.222228451932485e+01
 2.111386014400291e+00	 1.219448403744773e+00	 1.221859836991747e+01
 2.099599844400525e+00	 1.239631352059772e+00	 1.221326363386557e+01
 2.087606057628739e+00	 1.259724722182968e+00	 1.220592309295365e+01
 2.206063025916469e+00	 1.058958183747155e+00	 1.216277039439511e+01
 2.195927578317650e+00	 1.079818848149917e+00	 1.217797777428559e+01
 2.185578474642357e+00	 1.100615097351617e+00	 1.219149204420114e+01
 2.175016157181246e+00	 1.121343737704382e+00	 1.220268144586923e+01
 2.164241130347803e+00	 1.142001574787767e+00	 1.221088946478337e+01
 2.153253960914043e+00	 1.162585414888432e+00	 1.221543333440730e+01
 2.142055278204773e+00	 1.183092066492578e+00	 1.221580216118016e+01
 2.130645774249785e+00	 1.203518341789813e+00	 1.221414850970164e+01
 2.119026203893421e+00	 1.223861058187083e+00	 1.221098461311889e+01
 2.107197384860967e+00	 1.244117039831291e+00	 1.220595828811330e+01
 2.095160197781454e+00	 1.264283119139172e+00	 1.219870718955991e+01
 2.214017068900405e+00	 1.062776297199268e+00	 1.215173648126648e+01
 2.203845077565253e+00	 1.083712175509728e+00	 1.216753313731666e+01
 2.193458659808739e+00	 1.104583406367678e+00	 1.218156690191534e+01
 2.182858259516197e+00	 1.125386784610440e+00	 1.219319823167957e+01
 2.172044382919772e+00	 1.146119104299983e+00	 1.220176172683595e+01
 2.161017598834980e+00	 1.166777160207931e+00	 1.220656454297593e+01
 2.149778538855663e+00	 1.187357749313377e+00	 1.220740240647509e+01
 2.138327897506732e+00	 1.207857672312177e+00	 1.220647026903865e+01
 2.126666432354129e+00	 1.228273735136334e+00	 1.220381676706956e+01
 2.114794964071461e+00	 1.248602750482109e+00	 1.219908364314028e+01
 2.102714376462878e+00	 1.268841539345415e+00	 1.219190215879419e+01
 2.221971168228874e+00	 1.066594437700284e+00	 1.214079519186776e+01
 2.211762632898338e+00	 1.087605530451136e+00	 1.215721790713088e+01
 2.201338900796104e+00	 1.108551743496337e+00	 1.217181219412903e+01
 2.190700417402197e+00	 1.129429860158338e+00	 1.218393000640130e+01
 2.179847690767442e+00	 1.150236662981450e+00	 1.219289630135091e+01
 2.168781291750868e+00	 1.170968935222187e+00	 1.219800735783333e+01
 2.157501854215372e+00	 1.191623462352464e+00	 1.219948657106504e+01
 2.146010075181009e+00	 1.212197033574312e+00	 1.219926539740569e+01
 2.134306714935337e+00	 1.232686443344719e+00	 1.219710941329460e+01
 2.122392597100310e+00	 1.253088492909236e+00	 1.219265303899498e+01
 2.110268608655223e+00	 1.273399991842879e+00	 1.218551988044236e+01
 2.229925339677661e+00	 1.070412612823410e+00	 1.212997996734121e+01
 2.219680260020152e+00	 1.091498920696504e+00	 1.214706665790036e+01
 2.209219213233630e+00	 1.112520116608654e+00	 1.216226333444389e+01
 2.198542646392831e+00	 1.133472972367343e+00	 1.217491274967667e+01
 2.187651069367277e+00	 1.154354258999129e+00	 1.218432948138183e+01
 2.176545055059542e+00	 1.175160748245323e+00	 1.218979815406780e+01
 2.165225239601598e+00	 1.195889214070569e+00	 1.219206874742856e+01
 2.153692322508668e+00	 1.216536434182978e+00	 1.219254723007955e+01
 2.141947066789965e+00	 1.237099191564434e+00	 1.219087490603951e+01
 2.129990299015817e+00	 1.257574276009681e+00	 1.218667762794259e+01
 2.117822909340700e+00	 1.277958485672748e+00	 1.217957008762915e+01
 2.237879599022548e+00	 1.074230830141849e+00	 1.211932226605633e+01
 2.227597974633942e+00	 1.095392353968200e+00	 1.213711187744320e+01
 2.217099612750497e+00	 1.116488533575690e+00	 1.215295355145289e+01
 2.206384962041681e+00	 1.137516129256720e+00	 1.216618016247707e+01
 2.195454534195748e+00	 1.158471900519979e+00	 1.217609519270894e+01
 2.184308904158836e+00	 1.179352607591460e+00	 1.218200011557311e+01
 2.172948710332034e+00	 1.200155012928420e+00	 1.218516078233981e+01
 2.161374654725767e+00	 1.220875882744937e+00	 1.218632689282614e+01
 2.149587503070937e+00	 1.241511988547674e+00	 1.218512342847028e+01
 2.137588084886287e+00	 1.262060108680452e+00	 1.218116643147374e+01
 2.125377293501519e+00	 1.282517029876202e+00	 1.217406042452745e+01
 2.245833962039317e+00	 1.078049097228806e+00	 1.210885154288520e+01
 2.235515792442957e+00	 1.099285837988589e+00	 1.212738394611991e+01
 2.224980114975884e+00	 1.120457002268505e+00	 1.214391386716741e+01
 2.214227379902334e+00	 1.141559338845734e+00	 1.215776364497425e+01
 2.203258100729319e+00	 1.162589595710960e+00	 1.216822497107260e+01
 2.192072854446586e+00	 1.183544521574720e+00	 1.217472566760274e+01
 2.180672281724375e+00	 1.204420867386748e+00	 1.217877233098954e+01
 2.169057087068358e+00	 1.225215387866951e+00	 1.218061335705016e+01
 2.157228038931172e+00	 1.245924843046632e+00	 1.217986304874313e+01
 2.145185969780024e+00	 1.266545999818560e+00	 1.217612639718662e+01
 2.132931776119892e+00	 1.287075633494425e+00	 1.216899650394606e+01
 2.253788444503754e+00	 1.081867421657487e+00	 1.209859522838145e+01
 2.243433729150446e+00	 1.103179380480039e+00	 1.211791111561878e+01
 2.232860735538972e+00	 1.124425530558159e+00	 1.213517307532058e+01
 2.222069915528371e+00	 1.145602609153650e+00	 1.214969227427754e+01
 2.211061784444457e+00	 1.166707352739031e+00	 1.216074793926392e+01
 2.199836921320626e+00	 1.187736498509225e+00	 1.216798962557194e+01
 2.188395969096317e+00	 1.208686785906282e+00	 1.217291091097788e+01
 2.176739634772497e+00	 1.229554958155779e+00	 1.217541349481728e+01
 2.164868689523592e+00	 1.250337763813504e+00	 1.217509977594912e+01
 2.152783968765333e+00	 1.271031958321013e+00	 1.217156245554783e+01
 2.140486372178029e+00	 1.291634305568600e+00	 1.216438196480097e+01
 2.064943718520748e+00	 1.246049580402761e+00	 1.222988382564410e+01
 2.052875699653055e+00	 1.265833106151361e+00	 1.221954473701070e+01
 2.040604242534051e+00	 1.285521815239163e+00	 1.220580740349040e+01
 2.028130403740126e+00	 1.305112621772199e+00	 1.218903500369867e+01
 2.015455301466299e+00	 1.324602454152327e+00	 1.216958790698539e+01
 2.002580115325494e+00	 1.343988256597492e+00	 1.214781873088350e+01
 1.989506086103193e+00	 1.363266990660227e+00	 1.212406706772646e+01
 1.976234515467395e+00	 1.382435636742910e+00	 1.209865389226023e+01
 1.962766765633880e+00	 1.401491195608219e+00	 1.207187566492840e+01
 1.949104258986799e+00	 1.420430689883295e+00	 1.204399814838876e+01
 1.935248477654718e+00	 1.439251165556041e+00	 1.201524995770669e+01
 2.072497832980598e+00	 1.250607961855945e+00	 1.222152891802850e+01
 2.060385666083847e+00	 1.270463861014588e+00	 1.221120584125475e+01
 2.048069316704406e+00	 1.290224596647789e+00	 1.219743734991025e+01
 2.035549845283896e+00	 1.309887071572553e+00	 1.218057620571592e+01
 2.022828374107993e+00	 1.329448202954017e+00	 1.216097266513584e+01
 2.009906087104954e+00	 1.348904923831257e+00	 1.213896948893924e+01
 1.996784229599385e+00	 1.368254184641358e+00	 1.211489661109673e+01
 1.983464108021130e+00	 1.387492954740201e+00	 1.208906547878123e+01
 1.969947089569313e+00	 1.406618223918459e+00	 1.206176307816744e+01
 1.956234601831544e+00	 1.425627003911244e+00	 1.203324566367656e+01
 1.942328132358409e+00	 1.444516329899898e+00	 1.200373221127463e+01
 2.080051941022524e+00	 1.255166339435620e+00	 1.221353578469245e+01
 2.067895626134259e+00	 1.275094611942842e+00	 1.220321204140209e+01
 2.055534384532526e+00	 1.294927374060297e+00	 1.218939757838726e+01
 2.042969280524187e+00	 1.314661517315974e+00	 1.217243472078851e+01
 2.030201440485569e+00	 1.334293947638285e+00	 1.215266357965637e+01
 2.017232052660271e+00	 1.353821586887445e+00	 1.213041701357890e+01
 2.004062366912016e+00	 1.373241374385090e+00	 1.210601523961493e+01
 1.990693694432500e+00	 1.392550268440615e+00	 1.207976010524152e+01
 1.977127407404193e+00	 1.411745247872681e+00	 1.205192903602086e+01
 1.963364938618164e+00	 1.430823313524385e+00	 1.202276867671791e+01
 1.949407781047018e+00	 1.449781489770505e+00	 1.199248824663862e+01
 2.087606057628739e+00	 1.259724722182968e+00	 1.220592309295365e+01
 2.075405594698942e+00	 1.279725368120815e+00	 1.219558016098003e+01
 2.062999460824043e+00	 1.299630156804208e+00	 1.218170275586141e+01
 2.050388724176149e+00	 1.319435968472097e+00	 1.216462274037498e+01
 2.037574515222249e+00	 1.339139697816155e+00	 1.214467004255463e+01
 2.024558026521288e+00	 1.358738255517717e+00	 1.212216756936677e+01
 2.011340512476121e+00	 1.378228569782951e+00	 1.209742575946347e+01
 1.997923289040297e+00	 1.397607587874744e+00	 1.207073678665529e+01
 1.984307733379644e+00	 1.416872277639734e+00	 1.204236842881358e+01
 1.970495283488694e+00	 1.436019629028974e+00	 1.201255762001644e+01
 1.956487437762086e+00	 1.455046655610667e+00	 1.198150370686669e+01
 2.095160197781454e+00	 1.264283119139172e+00	 1.219870718955991e+01
 2.082915586672545e+00	 1.284356138733201e+00	 1.218832474426464e+01
 2.070464560384584e+00	 1.304332954207039e+00	 1.217436531405137e+01
 2.057808190954932e+00	 1.324210434510561e+00	 1.215715026731059e+01
 2.044947612941255e+00	 1.343985463098655e+00	 1.213699930624854e+01
 2.031884023217855e+00	 1.363654939473736e+00	 1.211422533262389e+01
 2.018618680726733e+00	 1.383215780726467e+00	 1.208912894213047e+01
 2.005152906183309e+00	 1.402664923073183e+00	 1.206199255899405e+01
 1.991488081736781e+00	 1.421999323388458e+00	 1.203307422549488e+01
 1.977625650585169e+00	 1.441215960731266e+00	 1.200260106430751e+01
 1.963567116545152e+00	 1.460311837863190e+00	 1.197076243474392e+01
 2.102714376462878e+00	 1.268841539345415e+00	 1.219190215879419e+01
 2.090425616949721e+00	 1.288986932964692e+00	 1.218145811494751e+01
 2.077929698019778e+00	 1.309035775596313e+00	 1.216739550854675e+01
 2.065227695575687e+00	 1.328984924901003e+00	 1.215002517518699e+01
 2.052320748265806e+00	 1.348831253096813e+00	 1.212965654309300e+01
 2.039210057279817e+00	 1.368571648507169e+00	 1.210659245096063e+01
 2.025896886098886e+00	 1.388203017107166e+00	 1.208112358380451e+01
 2.012382560200324e+00	 1.407722284066526e+00	 1.205352253829969e+01
 1.998668466716727e+00	 1.427126395287697e+00	 1.202403753232450e+01
 1.984756054049619e+00	 1.446412318937514e+00	 1.199288577667127e+01
 1.970646831437752e+00	 1.465577046970878e+00	 1.196024653016561e+01
 2.110268608655223e+00	 1.273399991842879e+00	 1.218551988044236e+01
 2.097935700425119e+00	 1.293617759999984e+00	 1.217499043467232e+01
 2.085394888535255e+00	 1.313738630299545e+00	 1.216080147777901e+01
 2.072647252753565e+00	 1.333759449113062e+00	 1.214325326762100e+01
 2.059693935819126e+00	 1.353677077421653e+00	 1.212264490480849e+01
 2.046536143237021e+00	 1.373488392369676e+00	 1.209926910272497e+01
 2.033175143027613e+00	 1.393190288816571e+00	 1.207340656470208e+01
 2.019612265430133e+00	 1.412779680885367e+00	 1.204531997974828e+01
 2.005848902560600e+00	 1.432253503506297e+00	 1.201524765152947e+01
 1.991886508024080e+00	 1.451608713953973e+00	 1.198339677863846e+01
 1.977726596481428e+00	 1.470842293376535e+00	 1.194993640754731e+01
 2.117822909340700e+00	 1.277958485672748e+00	 1.217957008762915e+01
 2.105445851993391e+00	 1.298248629023768e+00	 1.216892976144623e+01
 2.092860146736643e+00	 1.318441527644255e+00	 1.215458930187572e+01
 2.080066877203716e+00	 1.338534016616374e+00	 1.213683833741714e+01
 2.067067190224434e+00	 1.358522945684203e+00	 1.211596558181571e+01
 2.053862295619314e+00	 1.378405180812922e+00	 1.209225355637147e+01
 2.040453465947949e+00	 1.398177605746212e+00	 1.206597290833105e+01
 2.026842036211525e+00	 1.417837123560299e+00	 1.203737633666791e+01
 2.013029403509521e+00	 1.437380658213101e+00	 1.200669213993471e+01
 1.999017026650585e+00	 1.456805156086900e+00	 1.197411740429133e+01
 1.984806425717717e+00	 1.476107587522967e+00	 1.193981085325314e+01
 2.125377293501519e+00	 1.282517029876202e+00	 1.217406042452745e+01
 2.112956086549185e+00	 1.302879549220738e+00	 1.216328210793130e+01
 2.100325487429571e+00	 1.323144476957964e+00	 1.214876306140322e+01
 2.087486583641290e+00	 1.343308636880577e+00	 1.213078222562908e+01
 2.074440526104950e+00	 1.363368867495487e+00	 1.210961786248093e+01
 2.061188528956544e+00	 1.383322023588570e+00	 1.208554222975445e+01
 2.047731869294926e+00	 1.403164977787615e+00	 1.205881584069448e+01
 2.034071886883286e+00	 1.422894622121917e+00	 1.202968131951414e+01
 2.020209983804609e+00	 1.442507869576952e+00	 1.199835686757041e+01
 2.006147624071167e+00	 1.462001655642545e+00	 1.196502935836234e+01
 1.991886333188158e+00	 1.481372939852978e+00	 1.192984708304459e+01
 2.132931776119892e+00	 1.287075633494425e+00	 1.216899650394606e+01
 2.120466418987154e+00	 1.307510529775587e+00	 1.215805149962086e+01
 2.107790925419667e+00	 1.327847487568190e+00	 1.214332489600288e+01
 2.094906386781438e+00	 1.348083319375308e+00	 1.212508488052425e+01
 2.081813958083897e+00	 1.368214852466534e+00	 1.210359919227667e+01
 2.068514857778556e+00	 1.388238930448284e+00	 1.207912974935025e+01
 2.055010367503581e+00	 1.408152414832305e+00	 1.205192684943847e+01
 2.041301831784208e+00	 1.427952186600814e+00	 1.202222295480653e+01
 2.027390657686984e+00	 1.447635147766694e+00	 1.199022607625914e+01
 2.013278314427861e+00	 1.467198222927167e+00	 1.195611277433306e+01
 1.998966332934291e+00	 1.486638360809374e+00	 1.192002079955174e+01
 2.140486372178029e+00	 1.291634305568600e+00	 1.216438196480097e+01
 2.127976864201949e+00	 1.312141579873010e+00	 1.215324003290608e+01
 2.115256475512560e+00	 1.332550568802452e+00	 1.213827506292528e+01
 2.102326301339311e+00	 1.352858073570206e+00	 1.211974441645691e+01
 2.089187500784497e+00	 1.373060910208370e+00	 1.209790523286211e+01
 2.075841296615198e+00	 1.393155911143726e+00	 1.207300900941232e+01
 2.062288975008945e+00	 1.413139926771810e+00	 1.204529574294799e+01
 2.048531885253080e+00	 1.433009827027587e+00	 1.201498764402972e+01
 2.034571439397766e+00	 1.452762502951173e+00	 1.198228243818595e+01
 2.020409111862701e+00	 1.472394868247019e+00	 1.194734627253605e+01
 2.006046438997654e+00	 1.491903860834959e+00	 1.191030624976916e+01
 1.935248477654718e+00	 1.439251165556041e+00	 1.201524995770669e+01
 1.921198559930043e+00	 1.457952860094976e+00	 1.198460295467879e+01
 1.906958452650192e+00	 1.476529650413391e+00	 1.195121690131178e+01
 1.892529823022367e+00	 1.494978649281559e+00	 1.191553083535146e+01
 1.877914395939055e+00	 1.513296998677638e+00	 1.187794472103849e+01
 1.863113953331427e+00	 1.531481871228614e+00	 1.183881168351457e+01
 1.848130333479975e+00	 1.549530471634388e+00	 1.179843012163757e+01
 1.832965430282894e+00	 1.567440038073481e+00	 1.175703573892479e+01
 1.817621192482792e+00	 1.585207843588931e+00	 1.171479353457798e+01
 1.802099622852384e+00	 1.602831197452905e+00	 1.167178979858524e+01
 1.786402777339841e+00	 1.620307446508633e+00	 1.162802415672440e+01
 1.942328132358409e+00	 1.444516329899898e+00	 1.200373221127463e+01
 1.928226816289955e+00	 1.463286440221663e+00	 1.197231063086533e+01
 1.913934614902197e+00	 1.481931189389951e+00	 1.193827557044998e+01
 1.899453201501433e+00	 1.500447679612784e+00	 1.190208381182359e+01
 1.884784307290280e+00	 1.518833042412918e+00	 1.186415253787065e+01
 1.869929720718701e+00	 1.537084440074063e+00	 1.182485138480465e+01
 1.854891286792119e+00	 1.555199067070170e+00	 1.178449436543786e+01
 1.839670906337125e+00	 1.573174151476286e+00	 1.174333170396272e+01
 1.824270535225360e+00	 1.591006956359518e+00	 1.170154162503066e+01
 1.808692183556227e+00	 1.608694781148640e+00	 1.165922214202289e+01
 1.792937914799115e+00	 1.626234962980931e+00	 1.161638289130062e+01
 1.949407781047018e+00	 1.449781489770505e+00	 1.199248824663862e+01
 1.935255066678454e+00	 1.468620015817002e+00	 1.196029170489244e+01
 1.920910771227061e+00	 1.487332723777429e+00	 1.192560705129861e+01
 1.906376574098234e+00	 1.505916705297574e+00	 1.188890639478188e+01
 1.891654212804704e+00	 1.524369081444804e+00	 1.185062174359443e+01
 1.876745482315218e+00	 1.542687004159561e+00	 1.181113687646713e+01
 1.861652234360123e+00	 1.560867657689864e+00	 1.177077907716930e+01
 1.846376376694392e+00	 1.578908260007298e+00	 1.172981077372360e+01
 1.830919872318692e+00	 1.596806064203054e+00	 1.168842112589997e+01
 1.815284738659103e+00	 1.614558359862522e+00	 1.164671760678909e+01
 1.799473046706223e+00	 1.632162474417046e+00	 1.160471762621443e+01
 1.956487437762086e+00	 1.455046655610667e+00	 1.198150370686669e+01
 1.942283325035166e+00	 1.473953597459489e+00	 1.194852692470755e+01
 1.927886935461115e+00	 1.492734264289111e+00	 1.191318733637091e+01
 1.913299954544422e+00	 1.511385737183076e+00	 1.187596999060215e+01
 1.898524126107944e+00	 1.529905126753355e+00	 1.183731935813655e+01
 1.883561251639214e+00	 1.548289574597118e+00	 1.179763102279899e+01
 1.868413189593504e+00	 1.566536254736439e+00	 1.175724322814121e+01
 1.853081854654183e+00	 1.584642375039440e+00	 1.171642832163356e+01
 1.837569216950940e+00	 1.602605178621381e+00	 1.167538414087753e+01
 1.821877301236541e+00	 1.620421945224268e+00	 1.163422538855400e+01
 1.806008186022798e+00	 1.638089992573499e+00	 1.159297504484545e+01
 1.963567116545152e+00	 1.460311837863190e+00	 1.197076243474392e+01
 1.949311605299716e+00	 1.479287195727619e+00	 1.193699529806608e+01
 1.934863121440683e+00	 1.498135821638279e+00	 1.190099073317867e+01
 1.920223356571651e+00	 1.516854786116435e+00	 1.186324437058863e+01
 1.905394060825618e+00	 1.535441189318633e+00	 1.182421081067848e+01
 1.890377042208922e+00	 1.553892162498743e+00	 1.178429513574859e+01
 1.875174165901784e+00	 1.572204869452869e+00	 1.174384426947271e+01
 1.859787353515981e+00	 1.590376507945632e+00	 1.170313822655697e+01
 1.844218582310253e+00	 1.608404311116346e+00	 1.166238129791787e+01
 1.828469884364069e+00	 1.626285548863596e+00	 1.162169321901477e+01
 1.812543345710476e+00	 1.644017529206810e+00	 1.158110037106388e+01
 1.970646831437752e+00	 1.465577046970878e+00	 1.196024653016561e+01
 1.956339921411735e+00	 1.484620821199891e+00	 1.192567414911592e+01
 1.941839343002093e+00	 1.503537406538217e+00	 1.188898991998098e+01
 1.927146793911572e+00	 1.522323862944796e+00	 1.185069772586701e+01
 1.912264030583343e+00	 1.540977280120702e+00	 1.181125999367999e+01
 1.897192867542578e+00	 1.559494778976449e+00	 1.177108902806306e+01
 1.881935176694481e+00	 1.577873513082121e+00	 1.173053818436367e+01
 1.866492886579275e+00	 1.596110670098798e+00	 1.168989292419836e+01
 1.850867981584783e+00	 1.614203473189790e+00	 1.164936179978540e+01
 1.835062501117215e+00	 1.632149182410221e+00	 1.160906741560878e+01
 1.819078538730894e+00	 1.649945096073502e+00	 1.156903741813893e+01
 1.977726596481428e+00	 1.470842293376535e+00	 1.194993640754731e+01
 1.963368287310847e+00	 1.489954484454799e+00	 1.191453917502291e+01
 1.948815613981673e+00	 1.508939029702209e+00	 1.187715600159787e+01
 1.934070280295840e+00	 1.527792978515308e+00	 1.183829672236492e+01
 1.919134049006735e+00	 1.546513410139621e+00	 1.179842931701186e+01
 1.904008741158417e+00	 1.565097435142242e+00	 1.175797106656495e+01
 1.888696235381115e+00	 1.583542196867167e+00	 1.171727954051421e+01
 1.873198467143551e+00	 1.601844872871857e+00	 1.167664345867015e+01
 1.857517427962681e+00	 1.620002676343558e+00	 1.163627347478279e+01
 1.841655164571509e+00	 1.638012857493862e+00	 1.159629293142247e+01
 1.825613778045685e+00	 1.655872704930096e+00	 1.155672863785485e+01
 1.984806425717717e+00	 1.476107587522967e+00	 1.193981085325314e+01
 1.970396716936679e+00	 1.495288196070839e+00	 1.190356450263870e+01
 1.955791948215750e+00	 1.514340701843537e+00	 1.186545856528925e+01
 1.940993829456107e+00	 1.533262143675113e+00	 1.182600655587981e+01
 1.926004129721413e+00	 1.552049590355453e+00	 1.178567976219690e+01
 1.910824676574673e+00	 1.570700142108135e+00	 1.174489822555733e+01
 1.895457355371207e+00	 1.589210932050975e+00	 1.170402154269111e+01
 1.879904108508296e+00	 1.607579127637732e+00	 1.166333953422426e+01
 1.864166934632097e+00	 1.625801932079493e+00	 1.162306282765876e+01
 1.848247887802479e+00	 1.643876585744234e+00	 1.158331340529286e+01
 1.832149076616485e+00	 1.661800367533113e+00	 1.154411516983086e+01
 1.991886333188158e+00	 1.481372939852978e+00	 1.192984708304459e+01
 1.977425224228859e+00	 1.500621966626507e+00	 1.189272274521226e+01
 1.962768359540652e+00	 1.519742433675487e+00	 1.185386573670006e+01
 1.947917455124025e+00	 1.538731369271359e+00	 1.181379100723480e+01
 1.932874286352993e+00	 1.557585831748260e+00	 1.177297093675970e+01
 1.917640687309581e+00	 1.576302910986138e+00	 1.173182614035663e+01
 1.902218550074274e+00	 1.594879729876518e+00	 1.169071608543967e+01
 1.886609823972995e+00	 1.613313445769345e+00	 1.164992956714577e+01
 1.870816514781184e+00	 1.631601251899441e+00	 1.160967509069267e+01
 1.854840683885653e+00	 1.649740378791056e+00	 1.157007121209913e+01
 1.838684447404929e+00	 1.667728095639074e+00	 1.153113689104256e+01
 1.998966332934291e+00	 1.486638360809374e+00	 1.192002079955174e+01
 1.984453823127015e+00	 1.505955806700301e+00	 1.188198505914654e+01
 1.969744861792705e+00	 1.525144235911340e+00	 1.184234423587251e+01
 1.954841171031248e+00	 1.544200666151192e+00	 1.180161249752251e+01
 1.939744532527093e+00	 1.563122145298102e+00	 1.176026112868408e+01
 1.924456786881375e+00	 1.581905752888260e+00	 1.171870916095237e+01
 1.908979832899837e+00	 1.600548601586764e+00	 1.167731380594034e+01
 1.893315626837136e+00	 1.619047838639616e+00	 1.163636073780721e+01
 1.877466181598091e+00	 1.637400647305243e+00	 1.159605427495410e+01
 1.861433565896559e+00	 1.655604248264044e+00	 1.155650751324182e+01
 1.845219903372652e+00	 1.673655901004500e+00	 1.151773246554194e+01
 2.006046438997654e+00	 1.491903860834959e+00	 1.191030624976916e+01
 1.991482527570772e+00	 1.511289726870715e+00	 1.187132120080186e+01
 1.976721468808238e+00	 1.530546119264382e+00	 1.183085943332645e+01
 1.961764990909429e+00	 1.549670045161758e+00	 1.178943214343752e+01
 1.946614881869332e+00	 1.568658541985043e+00	 1.174750736097893e+01
 1.931272988808291e+00	 1.587508678926512e+00	 1.170550040579328e+01
 1.915741217257416e+00	 1.606217558424685e+00	 1.166376413700851e+01
 1.900021530400206e+00	 1.624782317621468e+00	 1.162257904288185e+01
 1.884115948270970e+00	 1.643200129798745e+00	 1.158214322173567e+01
 1.868026546910727e+00	 1.661468205792915e+00	 1.154256230730770e+01
 1.851755457481291e+00	 1.679583795385915e+00	 1.150383939437345e+01
 1.786402777339841e+00	 1.620307446508633e+00	 1.162802415672440e+01
 1.770535471667258e+00	 1.637631048877402e+00	 1.158466430741736e+01
 1.754497187434063e+00	 1.654802438530077e+00	 1.154300433570666e+01
 1.738290105200364e+00	 1.671819112362954e+00	 1.150419203678616e+01
 1.721916454862457e+00	 1.688678609927321e+00	 1.146677320396664e+01
 1.705378514623189e+00	 1.705378514623189e+00	 1.142896383946065e+01
 1.688678609927321e+00	 1.721916454862457e+00	 1.138887512029427e+01
 1.671819112362954e+00	 1.738290105200364e+00	 1.134450884377998e+01
 1.654802438530077e+00	 1.754497187434064e+00	 1.129375311720818e+01
 1.637631048877402e+00	 1.770535471667259e+00	 1.123505685860789e+01
 1.620307446508632e+00	 1.786402777339840e+00	 1.117421810309312e+01
 1.792937914799115e+00	 1.626234962980931e+00	 1.161638289130062e+01
 1.777012562293325e+00	 1.643621939704016e+00	 1.157406047589978e+01
 1.760915605741834e+00	 1.660856146876343e+00	 1.153281302377093e+01
 1.744649233681815e+00	 1.677935072237191e+00	 1.149368904835944e+01
 1.728215684167117e+00	 1.694856246336879e+00	 1.145594674940528e+01
 1.711617243734853e+00	 1.711617243734853e+00	 1.141772670243249e+01
 1.694856246336879e+00	 1.728215684167117e+00	 1.137706230369144e+01
 1.677935072237191e+00	 1.744649233681815e+00	 1.133187510895895e+01
 1.660856146876342e+00	 1.760915605741834e+00	 1.127997041782926e+01
 1.643621939704015e+00	 1.777012562293325e+00	 1.122197438430640e+01
 1.626234962980931e+00	 1.792937914799115e+00	 1.116341429133498e+01
 1.799473046706223e+00	 1.632162474417046e+00	 1.160471762621443e+01
 1.783489647416537e+00	 1.649612825440606e+00	 1.156332282953599e+01
 1.767334018596579e+00	 1.666909850079233e+00	 1.152283162837239e+01
 1.751008356760585e+00	 1.684051026915193e+00	 1.148326663189586e+01
 1.734514908119950e+00	 1.701033877497837e+00	 1.144502123373865e+01
 1.717855967546052e+00	 1.717855967546052e+00	 1.140620917770514e+01
 1.701033877497837e+00	 1.734514908119950e+00	 1.136479225688276e+01
 1.684051026915193e+00	 1.751008356760586e+00	 1.131861808202229e+01
 1.666909850079233e+00	 1.767334018596580e+00	 1.126553543643247e+01
 1.649612825440606e+00	 1.783489647416538e+00	 1.120945354428103e+01
 1.632162474417046e+00	 1.799473046706223e+00	 1.115300990492295e+01
 1.806008186022798e+00	 1.638089992573499e+00	 1.159297504484545e+01
 1.789966739883403e+00	 1.655603717969389e+00	 1.155239657779503e+01
 1.773752438728440e+00	 1.672963560145552e+00	 1.151262007725324e+01
 1.757367487049223e+00	 1.690166988527229e+00	 1.147285945276088e+01
 1.740814139214706e+00	 1.707211515662789e+00	 1.143393551954924e+01
 1.724094698430546e+00	 1.724094698430546e+00	 1.139435576297493e+01
 1.707211515662789e+00	 1.740814139214707e+00	 1.135201649377968e+01
 1.690166988527229e+00	 1.757367487049224e+00	 1.130469761686653e+01
 1.672963560145552e+00	 1.773752438728441e+00	 1.125143736348834e+01
 1.655603717969389e+00	 1.789966739883403e+00	 1.119734590374188e+01
 1.638089992573499e+00	 1.806008186022798e+00	 1.114286648992197e+01
 1.812543345710476e+00	 1.644017529206810e+00	 1.158110037106388e+01
 1.796443852540426e+00	 1.661594629172582e+00	 1.154122545880058e+01
 1.780170878867555e+00	 1.679017289082106e+00	 1.150203294298904e+01
 1.763726637160278e+00	 1.696282969203571e+00	 1.146240043302186e+01
 1.747113389945136e+00	 1.713389173084329e+00	 1.142262665322253e+01
 1.730333448762094e+00	 1.730333448762094e+00	 1.138210904467415e+01
 1.713389173084329e+00	 1.747113389945137e+00	 1.133868450087768e+01
 1.696282969203571e+00	 1.763726637160278e+00	 1.129007140384530e+01
 1.679017289082106e+00	 1.780170878867556e+00	 1.123777808050771e+01
 1.661594629172582e+00	 1.796443852540427e+00	 1.118550554057421e+01
 1.644017529206810e+00	 1.812543345710476e+00	 1.113284795247425e+01
 1.819078538730894e+00	 1.649945096073502e+00	 1.156903741813893e+01
 1.802920998234117e+00	 1.667585570932400e+00	 1.152975178762848e+01
 1.786589351744064e+00	 1.685071048895701e+00	 1.149101261636649e+01
 1.770085819706298e+00	 1.702398981074488e+00	 1.145166044284453e+01
 1.753412672804990e+00	 1.719566862015051e+00	 1.141102992097819e+01
 1.736572230914457e+00	 1.736572230914456e+00	 1.136940975455789e+01
 1.719566862015051e+00	 1.753412672804990e+00	 1.132474379467326e+01
 1.702398981074488e+00	 1.770085819706299e+00	 1.127511505136527e+01
 1.685071048895701e+00	 1.786589351744065e+00	 1.122440537146102e+01
 1.667585570932400e+00	 1.802920998234117e+00	 1.117378902490867e+01
 1.649945096073502e+00	 1.819078538730894e+00	 1.112282054100913e+01
 1.825613778045685e+00	 1.655872704930096e+00	 1.155672863785485e+01
 1.809398189810981e+00	 1.673576555131060e+00	 1.151791650481754e+01
 1.793007870088108e+00	 1.691124851593142e+00	 1.147950007675960e+01
 1.776445047299832e+00	 1.708515036270250e+00	 1.144029401532453e+01
 1.759712000288018e+00	 1.725744594707550e+00	 1.139907890507570e+01
 1.742811057261392e+00	 1.742811057261392e+00	 1.135619682643920e+01
 1.725744594707550e+00	 1.759712000288017e+00	 1.131013997919504e+01
 1.708515036270250e+00	 1.776445047299833e+00	 1.126045975849123e+01
 1.691124851593141e+00	 1.793007870088108e+00	 1.121116962482374e+01
 1.673576555131060e+00	 1.809398189810981e+00	 1.116205539885506e+01
 1.655872704930096e+00	 1.825613778045685e+00	 1.111265282855846e+01
 1.832149076616485e+00	 1.661800367533113e+00	 1.154411516983086e+01
 1.815875440117524e+00	 1.679567593650777e+00	 1.150565922509110e+01
 1.799426446629824e+00	 1.697178709181232e+00	 1.146743494057847e+01
 1.782804332553428e+00	 1.714631146921127e+00	 1.142823688232786e+01
 1.766011384887967e+00	 1.731922383414419e+00	 1.138669700277053e+01
 1.749049940176661e+00	 1.749049940176661e+00	 1.134240745307086e+01
 1.731922383414419e+00	 1.766011384887968e+00	 1.129483790946310e+01
 1.714631146921127e+00	 1.782804332553428e+00	 1.124596525644034e+01
 1.697178709181232e+00	 1.799426446629825e+00	 1.119792381120438e+01
 1.679567593650777e+00	 1.815875440117524e+00	 1.115016615639664e+01
 1.661800367533113e+00	 1.832149076616485e+00	 1.110221569517609e+01
 1.838684447404929e+00	 1.667728095639074e+00	 1.153113689104256e+01
 1.822352762000254e+00	 1.685558698373769e+00	 1.149291828628554e+01
 1.805845094099354e+00	 1.703232633666778e+00	 1.145475550992234e+01
 1.789163688079636e+00	 1.720747325157391e+00	 1.141542876566441e+01
 1.772310839098592e+00	 1.738100240388253e+00	 1.137355344759534e+01
 1.755288892034023e+00	 1.755288892034023e+00	 1.132797714317270e+01
 1.738100240388253e+00	 1.772310839098592e+00	 1.127940873866507e+01
 1.720747325157391e+00	 1.789163688079636e+00	 1.123147959221506e+01
 1.703232633666778e+00	 1.805845094099354e+00	 1.118452346117931e+01
 1.685558698373769e+00	 1.822352762000255e+00	 1.113798522344172e+01
 1.667728095639074e+00	 1.838684447404929e+00	 1.109138231045953e+01
 1.845219903372652e+00	 1.673655901004500e+00	 1.151773246554194e+01
 1.828830168305679e+00	 1.691549881182252e+00	 1.147963079848308e+01
 1.812263825226835e+00	 1.709286637056585e+00	 1.144139882143473e+01
 1.795523126491003e+00	 1.726863583109311e+00	 1.140180806203206e+01
 1.778610375413639e+00	 1.744278177881645e+00	 1.135946317582551e+01
 1.761527925207237e+00	 1.761527925207236e+00	 1.131283977860286e+01
 1.744278177881645e+00	 1.778610375413639e+00	 1.126401603227800e+01
 1.726863583109311e+00	 1.795523126491003e+00	 1.121685346174982e+01
 1.709286637056585e+00	 1.812263825226835e+00	 1.117082664333086e+01
 1.691549881182251e+00	 1.828830168305679e+00	 1.112537893803018e+01
 1.673655901004501e+00	 1.845219903372653e+00	 1.108002811617318e+01
 1.851755457481291e+00	 1.679583795385915e+00	 1.150383939437345e+01
 1.835307671880304e+00	 1.697541153958441e+00	 1.146573269334610e+01
 1.818682652742408e+00	 1.715340731357458e+00	 1.142730069535740e+01
 1.801882660400078e+00	 1.732979932907158e+00	 1.138731189207814e+01
 1.784910006326859e+00	 1.750456208147191e+00	 1.134436597365566e+01
 1.767767052070063e+00	 1.767767052070063e+00	 1.129698043527923e+01
 1.750456208147191e+00	 1.784910006326859e+00	 1.124850679121907e+01
 1.732979932907157e+00	 1.801882660400079e+00	 1.120194018628555e+01
 1.715340731357458e+00	 1.818682652742409e+00	 1.115669394248417e+01
 1.697541153958441e+00	 1.835307671880305e+00	 1.111221603069160e+01
 1.679583795385915e+00	 1.851755457481291e+00	 1.106803080897047e+01
 1.620307446508632e+00	 1.786402777339840e+00	 1.117421810309312e+01
 1.602831197452906e+00	 1.802099622852383e+00	 1.111391498795974e+01
 1.585207843588931e+00	 1.817621192482791e+00	 1.105473131840217e+01
 1.567440038073481e+00	 1.832965430282893e+00	 1.099619032467113e+01
 1.549530471634388e+00	 1.848130333479974e+00	 1.093785067985599e+01
 1.531481871228615e+00	 1.863113953331426e+00	 1.087930584529188e+01
 1.513296998677638e+00	 1.877914395939054e+00	 1.082018323494894e+01
 1.494978649281560e+00	 1.892529823022367e+00	 1.076014320651502e+01
 1.476529650413391e+00	 1.906958452650191e+00	 1.069887788748390e+01
 1.457952860094977e+00	 1.921198559930042e+00	 1.063610984511676e+01
 1.439251165556041e+00	 1.935248477654719e+00	 1.057159060965858e+01
 1.626234962980931e+00	 1.792937914799115e+00	 1.116341429133498e+01
 1.608694781148641e+00	 1.808692183556226e+00	 1.110515500094155e+01
 1.591006956359519e+00	 1.824270535225360e+00	 1.104767830548039e+01
 1.573174151476286e+00	 1.839670906337124e+00	 1.099053571686159e+01
 1.555199067070170e+00	 1.854891286792119e+00	 1.093331643432358e+01
 1.537084440074064e+00	 1.869929720718700e+00	 1.087564660796942e+01
 1.518833042412919e+00	 1.884784307290279e+00	 1.081718841632096e+01
 1.500447679612785e+00	 1.899453201501433e+00	 1.075763896585630e+01
 1.481931189389951e+00	 1.913934614902196e+00	 1.069672902110623e+01
 1.463286440221664e+00	 1.928226816289955e+00	 1.063422157445010e+01
 1.444516329899898e+00	 1.942328132358409e+00	 1.056991026527468e+01
 1.632162474417046e+00	 1.799473046706223e+00	 1.115300990492295e+01
 1.614558359862523e+00	 1.815284738659102e+00	 1.109667097627350e+01
 1.596806064203055e+00	 1.830919872318692e+00	 1.104082012412973e+01
 1.578908260007299e+00	 1.846376376694392e+00	 1.098503197810296e+01
 1.560867657689864e+00	 1.861652234360122e+00	 1.092892093143757e+01
 1.542687004159562e+00	 1.876745482315218e+00	 1.087214033024468e+01
 1.524369081444804e+00	 1.891654212804703e+00	 1.081438147197223e+01
 1.505916705297575e+00	 1.906376574098233e+00	 1.075537242131928e+01
 1.487332723777430e+00	 1.920910771227060e+00	 1.069487665241931e+01
 1.468620015817002e+00	 1.935255066678453e+00	 1.063269152669480e+01
 1.449781489770505e+00	 1.949407781047018e+00	 1.056864661631328e+01
 1.638089992573499e+00	 1.806008186022798e+00	 1.114286648992197e+01
 1.620421945224269e+00	 1.821877301236541e+00	 1.108833385716148e+01
 1.602605178621382e+00	 1.837569216950939e+00	 1.103403510754756e+01
 1.584642375039440e+00	 1.853081854654181e+00	 1.097956288687942e+01
 1.566536254736441e+00	 1.868413189593503e+00	 1.092455151418459e+01
 1.548289574597119e+00	 1.883561251639213e+00	 1.086867610416101e+01
 1.529905126753356e+00	 1.898524126107945e+00	 1.081165149425655e+01
 1.511385737183076e+00	 1.913299954544421e+00	 1.075323098482202e+01
 1.492734264289112e+00	 1.927886935461114e+00	 1.069320490140077e+01
 1.473953597459490e+00	 1.942283325035165e+00	 1.063139898880433e+01
 1.455046655610668e+00	 1.956487437762086e+00	 1.056767264715913e+01
 1.644017529206810e+00	 1.812543345710476e+00	 1.113284795247425e+01
 1.626285548863596e+00	 1.828469884364069e+00	 1.108001680061779e+01
 1.608404311116347e+00	 1.844218582310253e+00	 1.102720368340039e+01
 1.590376507945633e+00	 1.859787353515980e+00	 1.097401422293855e+01
 1.572204869452870e+00	 1.875174165901783e+00	 1.092009745892082e+01
 1.553892162498744e+00	 1.890377042208922e+00	 1.086514491171308e+01
 1.535441189318634e+00	 1.905394060825617e+00	 1.080888944568322e+01
 1.516854786116435e+00	 1.920223356571650e+00	 1.075110394139640e+01
 1.498135821638280e+00	 1.934863121440682e+00	 1.069159978597117e+01
 1.479287195727621e+00	 1.949311605299715e+00	 1.063022519147787e+01
 1.460311837863190e+00	 1.963567116545151e+00	 1.056686335180790e+01
 1.649945096073502e+00	 1.819078538730894e+00	 1.112282054100913e+01
 1.632149182410222e+00	 1.835062501117215e+00	 1.107159516218971e+01
 1.614203473189791e+00	 1.850867981584783e+00	 1.102020836058071e+01
 1.596110670098798e+00	 1.866492886579275e+00	 1.096827375560178e+01
 1.577873513082122e+00	 1.881935176694480e+00	 1.091544996477719e+01
 1.559494778976449e+00	 1.897192867542578e+00	 1.086143961490390e+01
 1.540977280120702e+00	 1.912264030583342e+00	 1.080598814919977e+01
 1.522323862944797e+00	 1.927146793911572e+00	 1.074888243928777e+01
 1.503537406538218e+00	 1.941839343002092e+00	 1.068994921151837e+01
 1.484620821199892e+00	 1.956339921411734e+00	 1.062905329773413e+01
 1.465577046970878e+00	 1.970646831437753e+00	 1.056609572113257e+01
 1.655872704930096e+00	 1.825613778045685e+00	 1.111265282855846e+01
 1.638012857493863e+00	 1.841655164571509e+00	 1.106294648073842e+01
 1.620002676343559e+00	 1.857517427962680e+00	 1.101293371597026e+01
 1.601844872871858e+00	 1.873198467143551e+00	 1.096223123204767e+01
 1.583542196867167e+00	 1.888696235381115e+00	 1.091050214301429e+01
 1.565097435142243e+00	 1.904008741158417e+00	 1.085745494573866e+01
 1.546513410139622e+00	 1.919134049006734e+00	 1.080284227840882e+01
 1.527792978515308e+00	 1.934070280295839e+00	 1.074645947999378e+01
 1.508939029702210e+00	 1.948815613981673e+00	 1.068814296037538e+01
 1.489954484454800e+00	 1.963368287310846e+00	 1.062776839146221e+01
 1.470842293376535e+00	 1.977726596481428e+00	 1.056524873015768e+01
 1.661800367533113e+00	 1.832149076616485e+00	 1.110221569517609e+01
 1.643876585744235e+00	 1.848247887802478e+00	 1.105395046326854e+01
 1.625801932079494e+00	 1.864166934632097e+00	 1.100526638121078e+01
 1.607579127637734e+00	 1.879904108508296e+00	 1.095577836557031e+01
 1.589210932050976e+00	 1.895457355371206e+00	 1.090514900632980e+01
 1.570700142108137e+00	 1.910824676574673e+00	 1.085308749615855e+01
 1.552049590355453e+00	 1.926004129721411e+00	 1.079934834772048e+01
 1.533262143675114e+00	 1.940993829456106e+00	 1.074372990824518e+01
 1.514340701843538e+00	 1.955791948215751e+00	 1.068607268125443e+01
 1.495288196070840e+00	 1.970396716936678e+00	 1.062625746595048e+01
 1.476107587522967e+00	 1.984806425717717e+00	 1.056420332534180e+01
 1.667728095639074e+00	 1.838684447404929e+00	 1.109138231045953e+01
 1.649740378791057e+00	 1.854840683885652e+00	 1.104448896980763e+01
 1.631601251899442e+00	 1.870816514781183e+00	 1.099709502948313e+01
 1.613313445769345e+00	 1.886609823972994e+00	 1.094880882381445e+01
 1.594879729876519e+00	 1.902218550074273e+00	 1.089928745812088e+01
 1.576302910986139e+00	 1.917640687309579e+00	 1.084823570791664e+01
 1.557585831748260e+00	 1.932874286352992e+00	 1.079540470244405e+01
 1.538731369271360e+00	 1.947917455124025e+00	 1.074059040193080e+01
 1.519742433675487e+00	 1.962768359540651e+00	 1.068363187863894e+01
 1.500621966626508e+00	 1.977425224228858e+00	 1.062440941239547e+01
 1.481372939852978e+00	 1.991886333188159e+00	 1.056284241186979e+01
 1.673655901004501e+00	 1.845219903372653e+00	 1.108002811617318e+01
 1.655604248264045e+00	 1.861433565896558e+00	 1.103444599833592e+01
 1.637400647305244e+00	 1.877466181598091e+00	 1.098831036229562e+01
 1.619047838639617e+00	 1.893315626837136e+00	 1.094121821698868e+01
 1.600548601586765e+00	 1.908979832899837e+00	 1.089281628170333e+01
 1.581905752888261e+00	 1.924456786881373e+00	 1.084279986239880e+01
 1.563122145298103e+00	 1.939744532527093e+00	 1.079091150882148e+01
 1.544200666151193e+00	 1.954841171031247e+00	 1.073693946196945e+01
 1.525144235911341e+00	 1.969744861792704e+00	 1.068071590213580e+01
 1.505955806700301e+00	 1.984453823127014e+00	 1.062211500839237e+01
 1.486638360809374e+00	 1.998966332934291e+00	 1.056105084095485e+01
 1.679583795385915e+00	 1.851755457481291e+00	 1.106803080897047e+01
 1.661468205792916e+00	 1.868026546910726e+00	 1.102370766976570e+01
 1.643200129798746e+00	 1.884115948270970e+00	 1.097880509628251e+01
 1.624782317621469e+00	 1.900021530400205e+00	 1.093290408605893e+01
 1.606217558424685e+00	 1.915741217257415e+00	 1.088563612948993e+01
 1.587508678926513e+00	 1.931272988808290e+00	 1.083668207039163e+01
 1.568658541985044e+00	 1.946614881869331e+00	 1.078577074400444e+01
 1.549670045161758e+00	 1.961764990909427e+00	 1.073267740213088e+01
 1.530546119264383e+00	 1.976721468808237e+00	 1.067722193579006e+01
 1.511289726870716e+00	 1.991482527570771e+00	 1.061926690640840e+01
 1.491903860834959e+00	 2.006046438997654e+00	 1.055871539715180e+01
 1.439251165556041e+00	 1.935248477654719e+00	 1.057159060965858e+01
 1.420430689883295e+00	 1.949104258986799e+00	 1.050457765428068e+01
 1.401491195608220e+00	 1.962766765633880e+00	 1.043457079368325e+01
 1.382435636742910e+00	 1.976234515467395e+00	 1.036176738724371e+01
 1.363266990660228e+00	 1.989506086103192e+00	 1.028640029866909e+01
 1.343988256597493e+00	 2.002580115325494e+00	 1.020873524839041e+01
 1.324602454152328e+00	 2.015455301466298e+00	 1.012906806996489e+01
 1.305112621772200e+00	 2.028130403740125e+00	 1.004772188318198e+01
 1.285521815239164e+00	 2.040604242534051e+00	 9.965044196720019e+00
 1.265833106151362e+00	 2.052875699653055e+00	 9.881403953296729e+00
 1.246049580402761e+00	 2.064943718520748e+00	 9.797188530305737e+00
 1.444516329899898e+00	 1.942328132358409e+00	 1.056991026527468e+01
 1.425627003911244e+00	 1.956234601831544e+00	 1.050315915900671e+01
 1.406618223918459e+00	 1.969947089569313e+00	 1.043354035218545e+01
 1.387492954740202e+00	 1.983464108021129e+00	 1.036124313287056e+01
 1.368254184641359e+00	 1.996784229599385e+00	 1.028649251286185e+01
 1.348904923831258e+00	 2.009906087104953e+00	 1.020954654253861e+01
 1.329448202954018e+00	 2.022828374107992e+00	 1.013069352840733e+01
 1.309887071572554e+00	 2.035549845283895e+00	 1.005024916622993e+01
 1.290224596647790e+00	 2.048069316704405e+00	 9.968553602753456e+00
 1.270463861014590e+00	 2.060385666083846e+00	 9.885968439162509e+00
 1.250607961855945e+00	 2.072497832980598e+00	 9.802873689422107e+00
 1.449781489770505e+00	 1.949407781047018e+00	 1.056864661631328e+01
 1.430823313524385e+00	 1.963364938618164e+00	 1.050220197848528e+01
 1.411745247872682e+00	 1.977127407404194e+00	 1.043299753331910e+01
 1.392550268440615e+00	 1.990693694432500e+00	 1.036121749817675e+01
 1.373241374385091e+00	 2.004062366912016e+00	 1.028708213160049e+01
 1.353821586887445e+00	 2.017232052660270e+00	 1.021084500513814e+01
 1.334293947638286e+00	 2.030201440485568e+00	 1.013279017647832e+01
 1.314661517315975e+00	 2.042969280524185e+00	 1.005322927695405e+01
 1.294927374060298e+00	 2.055534384532526e+00	 9.972498526621157e+00
 1.275094611942843e+00	 2.067895626134259e+00	 9.890955690220050e+00
 1.255166339435620e+00	 2.080051941022524e+00	 9.808976987375269e+00
 1.455046655610668e+00	 1.956487437762086e+00	 1.056767264715913e+01
 1.436019629028974e+00	 1.970495283488694e+00	 1.050157254716725e+01
 1.416872277639734e+00	 1.984307733379644e+00	 1.043280312692898e+01
 1.397607587874744e+00	 1.997923289040297e+00	 1.036154650504981e+01
 1.378228569782952e+00	 2.011340512476121e+00	 1.028802125631715e+01
 1.358738255517717e+00	 2.024558026521287e+00	 1.021247963507457e+01
 1.339139697816155e+00	 2.037574515222249e+00	 1.013520469841067e+01
 1.319435968472098e+00	 2.050388724176148e+00	 1.005650734241494e+01
 1.299630156804209e+00	 2.062999460824042e+00	 9.976723264904862e+00
 1.279725368120817e+00	 2.075405594698941e+00	 9.896209868128995e+00
 1.259724722182968e+00	 2.087606057628739e+00	 9.815343114998182e+00
 1.460311837863190e+00	 1.963567116545151e+00	 1.056686335180790e+01
 1.441215960731266e+00	 1.977625650585169e+00	 1.050113937752545e+01
 1.421999323388458e+00	 1.991488081736780e+00	 1.043282005524999e+01
 1.402664923073184e+00	 2.005152906183309e+00	 1.036208834853181e+01
 1.383215780726468e+00	 2.018618680726732e+00	 1.028916418920420e+01
 1.363654939473737e+00	 2.031884023217855e+00	 1.021430164689318e+01
 1.343985463098657e+00	 2.044947612941254e+00	 1.013778599674821e+01
 1.324210434510562e+00	 2.057808190954932e+00	 1.005993069885167e+01
 1.304332954207041e+00	 2.070464560384583e+00	 9.981074302918078e+00
 1.284356138733202e+00	 2.082915586672545e+00	 9.901577291994924e+00
 1.264283119139172e+00	 2.095160197781454e+00	 9.821818878924958e+00
 1.465577046970878e+00	 1.970646831437753e+00	 1.056609572113257e+01
 1.446412318937514e+00	 1.984756054049619e+00	 1.050077304597203e+01
 1.427126395287697e+00	 1.998668466716727e+00	 1.043291335773184e+01
 1.407722284066526e+00	 2.012382560200324e+00	 1.036270338079866e+01
 1.388203017107165e+00	 2.025896886098884e+00	 1.029036741658753e+01
 1.368571648507170e+00	 2.039210057279816e+00	 1.021616445379569e+01
 1.348831253096814e+00	 2.052320748265806e+00	 1.014038517518695e+01
 1.328984924901005e+00	 2.065227695575687e+00	 1.006334887457883e+01
 1.309035775596313e+00	 2.077929698019778e+00	 9.985400297861100e+00
 1.288986932964694e+00	 2.090425616949720e+00	 9.906906421974988e+00
 1.268841539345415e+00	 2.102714376462878e+00	 9.828253185830182e+00
 1.470842293376535e+00	 1.977726596481428e+00	 1.056524873015768e+01
 1.451608713953973e+00	 1.991886508024080e+00	 1.050034617881563e+01
 1.432253503506297e+00	 2.005848902560599e+00	 1.043295017593012e+01
 1.412779680885367e+00	 2.019612265430133e+00	 1.036325409522760e+01
 1.393190288816572e+00	 2.033175143027612e+00	 1.029148959240364e+01
 1.373488392369677e+00	 2.046536143237021e+00	 1.021792365075248e+01
 1.353677077421653e+00	 2.059693935819125e+00	 1.014285552153827e+01
 1.333759449113063e+00	 2.072647252753565e+00	 1.006661357300762e+01
 1.313738630299546e+00	 2.085394888535254e+00	 9.989552062098083e+00
 1.293617759999985e+00	 2.097935700425118e+00	 9.912047842999513e+00
 1.273399991842879e+00	 2.110268608655223e+00	 9.834497026773827e+00
 1.476107587522967e+00	 1.984806425717717e+00	 1.056420332534180e+01
 1.456805156086899e+00	 1.999017026650585e+00	 1.049973343825836e+01
 1.437380658213101e+00	 2.013029403509521e+00	 1.043279973846311e+01
 1.417837123560299e+00	 2.026842036211524e+00	 1.036360511055076e+01
 1.398177605746213e+00	 2.040453465947948e+00	 1.029239152177945e+01
 1.378405180812923e+00	 2.053862295619314e+00	 1.021943699772820e+01
 1.358522945684203e+00	 2.067067190224433e+00	 1.014505249081195e+01
 1.338534016616374e+00	 2.080066877203715e+00	 1.006957865578924e+01
 1.318441527644256e+00	 2.092860146736642e+00	 9.993382546553995e+00
 1.298248629023769e+00	 2.105445851993389e+00	 9.916854248607251e+00
 1.277958485672748e+00	 2.117822909340700e+00	 9.840403461650380e+00
 1.481372939852978e+00	 1.991886333188159e+00	 1.056284241186979e+01
 1.462001655642545e+00	 2.006147624071168e+00	 1.049881150843276e+01
 1.442507869576952e+00	 2.020209983804609e+00	 1.043233334603373e+01
 1.422894622121917e+00	 2.034071886883286e+00	 1.036362315509465e+01
 1.403164977787615e+00	 2.047731869294926e+00	 1.029293614471261e+01
 1.383322023588571e+00	 2.061188528956543e+00	 1.022056440301914e+01
 1.363368867495488e+00	 2.074440526104949e+00	 1.014683368841758e+01
 1.343308636880578e+00	 2.087486583641289e+00	 1.007210012607808e+01
 1.323144476957965e+00	 2.100325487429569e+00	 9.996746824229882e+00
 1.302879549220739e+00	 2.112956086549184e+00	 9.921180424892903e+00
 1.282517029876202e+00	 2.125377293501519e+00	 9.845827603740245e+00
 1.486638360809374e+00	 1.998966332934291e+00	 1.056105084095485e+01
 1.467198222927167e+00	 2.013278314427861e+00	 1.049745908147841e+01
 1.447635147766694e+00	 2.027390657686983e+00	 1.043142435651593e+01
 1.427952186600815e+00	 2.041301831784208e+00	 1.036317705110362e+01
 1.408152414832305e+00	 2.055010367503580e+00	 1.029298851985144e+01
 1.388238930448284e+00	 2.068514857778556e+00	 1.022116790670031e+01
 1.368214852466535e+00	 2.081813958083897e+00	 1.014805885348137e+01
 1.348083319375309e+00	 2.094906386781437e+00	 1.007403611191337e+01
 1.327847487568191e+00	 2.107790925419665e+00	 9.999502073833824e+00
 1.307510529775588e+00	 2.120466418987153e+00	 9.924883234564831e+00
 1.287075633494425e+00	 2.132931776119891e+00	 9.850626604362018e+00
 1.491903860834959e+00	 2.006046438997654e+00	 1.055871539715180e+01
 1.472394868247019e+00	 2.020409111862701e+00	 1.049555684365864e+01
 1.452762502951173e+00	 2.034571439397765e+00	 1.042994817010519e+01
 1.433009827027587e+00	 2.048531885253080e+00	 1.036213769914646e+01
 1.413139926771811e+00	 2.062288975008945e+00	 1.029241580837260e+01
 1.393155911143727e+00	 2.075841296615197e+00	 1.022111166418071e+01
 1.373060910208370e+00	 2.089187500784497e+00	 1.014858984227765e+01
 1.352858073570207e+00	 2.102326301339310e+00	 1.007524684971606e+01
 1.332550568802453e+00	 2.115256475512560e+00	 1.000150756352611e+01
 1.312141579873011e+00	 2.127976864201947e+00	 9.927821601111091e+00
 1.291634305568600e+00	 2.140486372178028e+00	 9.854659637623936e+00
 1.246049580402761e+00	 2.064943718520748e+00	 9.797188530305737e+00
 1.226174337050922e+00	 2.076807304836466e+00	 9.713549639496895e+00
 1.206210487937536e+00	 2.088465528197159e+00	 9.630860674996134e+00
 1.186161154962849e+00	 2.099917520674204e+00	 9.548349395295556e+00
 1.166029468177675e+00	 2.111162476335520e+00	 9.465289363550211e+00
 1.145818564275578e+00	 2.122199651223106e+00	 9.381428414843059e+00
 1.125531585092219e+00	 2.133028363287593e+00	 9.296660838385268e+00
 1.105171676113252e+00	 2.143647992280263e+00	 9.210906006049155e+00
 1.084741984992152e+00	 2.154057979603053e+00	 9.124110990769127e+00
 1.064245660079300e+00	 2.164257828117093e+00	 9.036232522533762e+00
 1.043685848963648e+00	 2.174247101910407e+00	 8.947220294100923e+00
 1.250607961855945e+00	 2.072497832980598e+00	 9.802873689422107e+00
 1.230660009566597e+00	 2.084404819456578e+00	 9.720317591855622e+00
 1.210623127372194e+00	 2.096105691705081e+00	 9.638594089115477e+00
 1.190500448593738e+00	 2.107599578622377e+00	 9.556959900226037e+00
 1.170295114732616e+00	 2.118885671328077e+00	 9.474681768127198e+00
 1.150010273957265e+00	 2.129963223142588e+00	 9.391431656548772e+00
 1.129649079597029e+00	 2.140831549521430e+00	 9.307147613008196e+00
 1.109214688644601e+00	 2.151490027946855e+00	 9.221779013882216e+00
 1.088710260268422e+00	 2.161938097777303e+00	 9.135301255974666e+00
 1.068138954336392e+00	 2.172175260055249e+00	 9.047697250563681e+00
 1.047503929952193e+00	 2.182201077274037e+00	 8.958940309741090e+00
 1.255166339435620e+00	 2.080051941022524e+00	 9.808976987375269e+00
 1.235145678270545e+00	 2.092002327621830e+00	 9.727513140159665e+00
 1.215035763057208e+00	 2.103745848721818e+00	 9.646779276514932e+00
 1.194839738537355e+00	 2.115281630043663e+00	 9.566056665885680e+00
 1.174560757662927e+00	 2.126608859758675e+00	 9.484622037619676e+00
 1.154201980077221e+00	 2.137726788465682e+00	 9.402049064214438e+00
 1.133766570603250e+00	 2.148634729125098e+00	 9.318306402536468e+00
 1.113257697740729e+00	 2.159332056950159e+00	 9.233369155898064e+00
 1.092678532173051e+00	 2.169818209255818e+00	 9.147236628955483e+00
 1.072032245285615e+00	 2.180092685265895e+00	 9.059913357065767e+00
 1.051322007696823e+00	 2.190155045879068e+00	 8.971391571460117e+00
 1.259724722182968e+00	 2.087606057628739e+00	 9.815343114998182e+00
 1.239631352059773e+00	 2.099599844400525e+00	 9.734981383091753e+00
 1.219448403744773e+00	 2.111386014400290e+00	 9.655260895897586e+00
 1.199179033400460e+00	 2.122963690174114e+00	 9.575483120192214e+00
 1.178826405429338e+00	 2.134332056945007e+00	 9.494943884140218e+00
 1.158393690949570e+00	 2.145490362590221e+00	 9.413115906883153e+00
 1.137884066277844e+00	 2.156437917575067e+00	 9.329972008839784e+00
 1.117300711420901e+00	 2.167174094843761e+00	 9.245510437781691e+00
 1.096646808577096e+00	 2.177698329667776e+00	 9.159750076681640e+00
 1.075925540649335e+00	 2.188010119452279e+00	 9.072712611448715e+00
 1.055140089770742e+00	 2.198109023501284e+00	 8.984404572937557e+00
 1.264283119139172e+00	 2.095160197781454e+00	 9.821818878924958e+00
 1.244117039831291e+00	 2.107197384860966e+00	 9.742569494503554e+00
 1.223861058187084e+00	 2.119026203893420e+00	 9.663885652098935e+00
 1.203518341789813e+00	 2.130645774249785e+00	 9.585084719050780e+00
 1.183092066492579e+00	 2.142055278204773e+00	 9.505478638489144e+00
 1.162585414888433e+00	 2.153253960914042e+00	 9.424468460249262e+00
 1.142001574787768e+00	 2.164241130347803e+00	 9.341980047033294e+00
 1.121343737704383e+00	 2.175016157181246e+00	 9.258037498595089e+00
 1.100615097351618e+00	 2.185578474642356e+00	 9.172675033193803e+00
 1.079818848149918e+00	 2.195927578317649e+00	 9.085927097430595e+00
 1.058958183747156e+00	 2.206063025916469e+00	 8.997809982886141e+00
 1.268841539345415e+00	 2.102714376462878e+00	 9.828253185830182e+00
 1.248602750482110e+00	 2.114794964071461e+00	 9.750126708266569e+00
 1.228273735136334e+00	 2.126666432354128e+00	 9.672502281337010e+00
 1.207857672312177e+00	 2.138327897506732e+00	 9.594708931805025e+00
 1.187357749313378e+00	 2.149778538855662e+00	 9.516070425349474e+00
 1.166777160207932e+00	 2.161017598834980e+00	 9.435944106985342e+00
 1.146119104299984e+00	 2.172044382919772e+00	 9.354167041194483e+00
 1.125386784610441e+00	 2.182858259516197e+00	 9.270785701772375e+00
 1.104583406367679e+00	 2.193458659808738e+00	 9.185845485785634e+00
 1.083712175509730e+00	 2.203845077565252e+00	 9.099389294338447e+00
 1.062776297199268e+00	 2.214017068900405e+00	 9.011438721419186e+00
 1.273399991842879e+00	 2.110268608655223e+00	 9.834497026773827e+00
 1.253088492909236e+00	 2.122392597100309e+00	 9.757504303219116e+00
 1.232686443344719e+00	 2.134306714935336e+00	 9.680961536554200e+00
 1.212197033574312e+00	 2.146010075181008e+00	 9.604205226779268e+00
 1.191623462352465e+00	 2.157501854215372e+00	 9.526566725061974e+00
 1.170968935222188e+00	 2.168781291750868e+00	 9.447381437141839e+00
 1.150236662981452e+00	 2.179847690767441e+00	 9.366370520155455e+00
 1.129429860158340e+00	 2.190700417402196e+00	 9.283591226196524e+00
 1.108551743496338e+00	 2.201338900796103e+00	 9.199096061277524e+00
 1.087605530451137e+00	 2.211762632898337e+00	 9.112932158511667e+00
 1.066594437700285e+00	 2.221971168228874e+00	 9.025122036536445e+00
 1.277958485672748e+00	 2.117822909340700e+00	 9.840403461650380e+00
 1.257574276009680e+00	 2.129990299015816e+00	 9.764555588208051e+00
 1.237099191564434e+00	 2.141947066789965e+00	 9.689116172849072e+00
 1.216536434182979e+00	 2.153692322508668e+00	 9.613425056910565e+00
 1.195889214070570e+00	 2.165225239601598e+00	 9.536816994676620e+00
 1.175160748245324e+00	 2.176545055059541e+00	 9.458620348625328e+00
 1.154354258999130e+00	 2.187651069367277e+00	 9.378429113376356e+00
 1.133472972367345e+00	 2.198542646392831e+00	 9.296291157362900e+00
 1.112520116608656e+00	 2.209219213233629e+00	 9.212262112385751e+00
 1.091498920696506e+00	 2.219680260020150e+00	 9.126389204812652e+00
 1.070412612823410e+00	 2.229925339677661e+00	 9.038691580731589e+00
 1.282517029876202e+00	 2.125377293501519e+00	 9.845827603740245e+00
 1.262060108680452e+00	 2.137588084886287e+00	 9.771135887223842e+00
 1.241511988547674e+00	 2.149587503070936e+00	 9.696820932997088e+00
 1.220875882744938e+00	 2.161374654725766e+00	 9.622221845469316e+00
 1.200155012928422e+00	 2.172948710332034e+00	 9.546672653699879e+00
 1.179352607591461e+00	 2.184308904158836e+00	 9.469500442333336e+00
 1.158471900519980e+00	 2.195454534195747e+00	 9.390182646905808e+00
 1.137516129256721e+00	 2.206384962041680e+00	 9.308723578634917e+00
 1.116488533575692e+00	 2.217099612750496e+00	 9.225179804191910e+00
 1.095392353968202e+00	 2.227597974633942e+00	 9.139594588248109e+00
 1.074230830141849e+00	 2.237879599022548e+00	 9.051979487723703e+00
 1.287075633494425e+00	 2.132931776119891e+00	 9.850626604362018e+00
 1.266545999818560e+00	 2.145185969780024e+00	 9.777102524627679e+00
 1.245924843046632e+00	 2.157228038931172e+00	 9.703932533058833e+00
 1.225215387866951e+00	 2.169057087068357e+00	 9.630450971867207e+00
 1.204420867386749e+00	 2.180672281724375e+00	 9.555987069933048e+00
 1.183544521574721e+00	 2.192072854446585e+00	 9.479863029493233e+00
 1.162589595710960e+00	 2.203258100729318e+00	 9.401472239434009e+00
 1.141559338845735e+00	 2.214227379902332e+00	 9.320727662596575e+00
 1.120457002268507e+00	 2.224980114975883e+00	 9.237686200716446e+00
 1.099285837988591e+00	 2.235515792442956e+00	 9.152383185705059e+00
 1.078049097228806e+00	 2.245833962039317e+00	 9.064818449316002e+00
 1.291634305568600e+00	 2.140486372178028e+00	 9.854659637623936e+00
 1.271031958321013e+00	 2.152783968765333e+00	 9.782314810469128e+00
 1.250337763813505e+00	 2.164868689523592e+00	 9.710309648074675e+00
 1.229554958155780e+00	 2.176739634772497e+00	 9.637969757551069e+00
 1.208686785906283e+00	 2.188395969096317e+00	 9.564615545399766e+00
 1.187736498509226e+00	 2.199836921320626e+00	 9.489560265676925e+00
 1.166707352739033e+00	 2.211061784444457e+00	 9.412140398444841e+00
 1.145602609153652e+00	 2.222069915528370e+00	 9.332143762507650e+00
 1.124425530558161e+00	 2.232860735538971e+00	 9.249619351601469e+00
 1.103179380480040e+00	 2.243433729150444e+00	 9.164590677804956e+00
 1.081867421657487e+00	 2.253788444503754e+00	 9.077041792384277e+00
 1.043685848963648e+00	 2.174247101910407e+00	 8.947220294100923e+00
 1.023062186261889e+00	 2.184027070232773e+00	 8.856458101684034e+00
 1.002381304515459e+00	 2.193595701149540e+00	 8.763891169630865e+00
 9.816463410027967e-01	 2.202952738993927e+00	 8.670220040793186e+00
 9.608604265935818e-01	 2.212097988040085e+00	 8.576094568849740e+00
 9.400266843708891e-01	 2.221031312078378e+00	 8.482103559749415e+00
 9.191482282730248e-01	 2.229752633954294e+00	 8.388766016746604e+00
 8.982281617561046e-01	 2.238261935071894e+00	 8.296523989717331e+00
 8.772695764783929e-01	 2.246559254862706e+00	 8.205737018020351e+00
 8.562755510073803e-01	 2.254644690221029e+00	 8.116678145147324e+00
 8.352491495505203e-01	 2.262518394906619e+00	 8.029531472850868e+00
 1.047503929952193e+00	 2.182201077274037e+00	 8.958940309741090e+00
 1.026804820395857e+00	 2.192016823326705e+00	 8.868505811744701e+00
 1.006048282472418e+00	 2.201620458845244e+00	 8.776399283162267e+00
 9.852374649373056e-01	 2.211011727227574e+00	 8.683292737120670e+00
 9.643755101137459e-01	 2.220190432031832e+00	 8.589803087509015e+00
 9.434655525098751e-01	 2.229156436550089e+00	 8.496481663037592e+00
 9.225107174556050e-01	 2.237909663345580e+00	 8.403805372578525e+00
 9.015141197603114e-01	 2.246450093754339e+00	 8.312169522173871e+00
 8.804788623923600e-01	 2.254777767352143e+00	 8.221882272388775e+00
 8.594080351814524e-01	 2.262892781387759e+00	 8.133160713389868e+00
 8.383047135447202e-01	 2.270795290183433e+00	 8.046128524312701e+00
 1.051322007696823e+00	 2.190155045879068e+00	 8.971391571460117e+00
 1.030547451350041e+00	 2.200006569631635e+00	 8.881231441916501e+00
 1.009715257313884e+00	 2.209645209722230e+00	 8.789502781445474e+00
 9.888285858207667e-01	 2.219070708613470e+00	 8.696860329136749e+00
 9.678905906474565e-01	 2.228282869147467e+00	 8.603899191170559e+00
 9.469044177271446e-01	 2.237281554117994e+00	 8.511144208177658e+00
 9.258732037813436e-01	 2.246066685806030e+00	 8.419041022872277e+00
 9.048000749726843e-01	 2.254638245479567e+00	 8.327948848057979e+00
 8.836881455796285e-01	 2.262996272858633e+00	 8.238134923105481e+00
 8.625405166940820e-01	 2.271140865546448e+00	 8.149770635424161e+00
 8.413602749428495e-01	 2.279072178427747e+00	 8.062929272360929e+00
 1.055140089770742e+00	 2.198109023501284e+00	 8.984404572937557e+00
 1.034290086548014e+00	 2.207996324994357e+00	 8.894465041302061e+00
 1.013382236313376e+00	 2.217669969696762e+00	 8.803032886640501e+00
 9.924197107762452e-01	 2.227129699135804e+00	 8.710756720344488e+00
 9.714056751669483e-01	 2.236375315437564e+00	 8.618220859965410e+00
 9.503432868437480e-01	 2.245406680897510e+00	 8.525934530581983e+00
 9.292356939197770e-01	 2.254223717514355e+00	 8.434322816750612e+00
 9.080860339109362e-01	 2.262826406488048e+00	 8.343719364869717e+00
 8.868974324058010e-01	 2.271214787682854e+00	 8.254360823487623e+00
 8.656730017584998e-01	 2.279388959056444e+00	 8.166382997219925e+00
 8.444158398055267e-01	 2.287349076056038e+00	 8.079818678577510e+00
 1.058958183747156e+00	 2.206063025916469e+00	 8.997809982886141e+00
 1.038032733413349e+00	 2.215986105261665e+00	 8.908036696088454e+00
 1.017049226744412e+00	 2.225694754685102e+00	 8.816820710815527e+00
 9.960108469268057e-01	 2.235188714778765e+00	 8.724815549960367e+00
 9.749207706444551e-01	 2.244467786952697e+00	 8.632605650686919e+00
 9.537821666807358e-01	 2.253531833004051e+00	 8.540695380529089e+00
 9.325981945404387e-01	 2.262380774649266e+00	 8.449499855720358e+00
 9.113720030927787e-01	 2.271014593020246e+00	 8.359337561330250e+00
 8.901067292364803e-01	 2.279433328125483e+00	 8.270424760178351e+00
 8.688054965879365e-01	 2.287637078277100e+00	 8.182871665337498e+00
 8.474714141933698e-01	 2.295625999484788e+00	 8.096680339392151e+00
 1.062776297199268e+00	 2.214017068900405e+00	 9.011438721419186e+00
 1.041775399369619e+00	 2.223975926280349e+00	 8.921776601167405e+00
 1.020716235880511e+00	 2.233719580603511e+00	 8.830697323210190e+00
 9.996020013955130e-01	 2.243247771526543e+00	 8.738870256184828e+00
 9.784358840522113e-01	 2.252560299743439e+00	 8.646890756404005e+00
 9.572210640591579e-01	 2.261657026553031e+00	 8.555268979427581e+00
 9.359607123128652e-01	 2.270537873389477e+00	 8.464420546866656e+00
 9.146579890359224e-01	 2.279202821316628e+00	 8.374659067757467e+00
 8.933160424372695e-01	 2.287651910487200e+00	 8.286190500926184e+00
 8.719380073956230e-01	 2.295885239567761e+00	 8.199109332303911e+00
 8.505270041669976e-01	 2.303902965130477e+00	 8.113396529218729e+00
 1.066594437700285e+00	 2.221971168228874e+00	 9.025122036536445e+00
 1.045518091840397e+00	 2.231965803897202e+00	 8.935515131886680e+00
 1.024383270995192e+00	 2.241744463368251e+00	 8.844493817636867e+00
 1.003193181305432e+00	 2.251306885363327e+00	 8.752754139610035e+00
 9.819510223624514e-01	 2.260652869860364e+00	 8.660913066206350e+00
 9.606599858000642e-01	 2.269782277659863e+00	 8.569497076202232e+00
 9.393232539065905e-01	 2.278695029913699e+00	 8.478932656155763e+00
 9.179439982580797e-01	 2.287391107617658e+00	 8.389538706533477e+00
 8.965253783737714e-01	 2.295870551068683e+00	 8.301520842437045e+00
 8.750705403947902e-01	 2.304133459287779e+00	 8.214967562040894e+00
 8.535826157870279e-01	 2.312179989409584e+00	 8.129848243622169e+00
 1.070412612823410e+00	 2.229925339677661e+00	 9.038691580731589e+00
 1.049260818249256e+00	 2.239955753959018e+00	 8.949082915934985e+00
 1.028050339361973e+00	 2.249769418895582e+00	 8.858041380020023e+00
 1.006784393779627e+00	 2.259366072273303e+00	 8.766300426765742e+00
 9.854661925474095e-01	 2.268745513354043e+00	 8.674509225082069e+00
 9.640989387245058e-01	 2.277907602439965e+00	 8.583221003802217e+00
 9.426858259911510e-01	 2.286852260400646e+00	 8.492883361846427e+00
 9.212300372769628e-01	 2.295579468163807e+00	 8.403830542663936e+00
 8.997347434115883e-01	 2.304089266170612e+00	 8.316277658299310e+00
 8.782031017986689e-01	 2.312381753796502e+00	 8.230316835345485e+00
 8.566382551140788e-01	 2.320457088738593e+00	 8.145915242516310e+00
 1.074230830141849e+00	 2.237879599022548e+00	 9.051979487723703e+00
 1.053003586019768e+00	 2.247945792312590e+00	 8.962310905362129e+00
 1.031717448254373e+00	 2.257794463101769e+00	 8.871171356075791e+00
 1.010375645941163e+00	 2.267425348240664e+00	 8.779342333804118e+00
 9.889814015793206e-01	 2.276838246275052e+00	 8.687515693928315e+00
 9.675379296535319e-01	 2.286033017008749e+00	 8.596281735832548e+00
 9.460484352360803e-01	 2.295009581029028e+00	 8.506119308010165e+00
 9.245161126102827e-01	 2.303767919195540e+00	 8.417387934429888e+00
 9.029441439163232e-01	 2.312308072093663e+00	 8.330321946982398e+00
 8.813356978204905e-01	 2.320630139453281e+00	 8.245026595423878e+00
 8.596939282087687e-01	 2.328734279533981e+00	 8.161476093394285e+00
 1.078049097228806e+00	 2.245833962039317e+00	 9.064818449316002e+00
 1.056746402575507e+00	 2.255935934804708e+00	 8.975030448736284e+00
 1.035384604945910e+00	 2.265819611903070e+00	 8.883715319132904e+00
 1.013966944913106e+00	 2.275484729249596e+00	 8.791713130324657e+00
 9.924966564304187e-01	 2.284931084673963e+00	 8.699768809695865e+00
 9.709769654081932e-01	 2.294158537481629e+00	 8.608519943308574e+00
 9.494110883109145e-01	 2.303167007977557e+00	 8.518486658161422e+00
 9.278022307757513e-01	 2.311956476953322e+00	 8.430063584132489e+00
 9.061535862535792e-01	 2.320526985138516e+00	 8.343513879909629e+00
 8.844683346734850e-01	 2.328878632617462e+00	 8.258965293479335e+00
 8.627496411317157e-01	 2.337011578212227e+00	 8.176408214591699e+00
 1.081867421657487e+00	 2.253788444503754e+00	 9.077041792384277e+00
 1.060489275340047e+00	 2.263926197282168e+00	 8.987073363441059e+00
 1.039051816710104e+00	 2.273844881215751e+00	 8.895505138096754e+00
 1.017558297818519e+00	 2.283544231284289e+00	 8.803246203340256e+00
 9.960119640729381e-01	 2.293024044601351e+00	 8.711104845668077e+00
 9.744160528095400e-01	 2.302284179974021e+00	 8.619776051534744e+00
 9.527737918851885e-01	 2.311324557424947e+00	 8.529831148997587e+00
 9.310883982910807e-01	 2.320145157677620e+00	 8.441709588931307e+00
 9.093630767889591e-01	 2.328746021605850e+00	 8.355712849605990e+00
 8.876010185708836e-01	 2.337127249648398e+00	 8.272000434355041e+00
 8.658053999435384e-01	 2.345289001189816e+00	 8.190587918584221e+00
 8.352491495505203e-01	 2.262518394906619e+00	 8.029531472850868e+00
 8.141970019494854e-01	 2.270179294192986e+00	 7.943442992340576e+00
 7.931185662147202e-01	 2.277629008609738e+00	 7.857847719828964e+00
 7.720168536581871e-01	 2.284867856915018e+00	 7.773275953981417e+00
 7.508948564624924e-01	 2.291896212004354e+00	 7.690174962036451e+00
 7.297555465433327e-01	 2.298714500167882e+00	 7.608912641930214e+00
 7.086018744401672e-01	 2.305323200321329e+00	 7.529782352409817e+00
 6.874367682357337e-01	 2.311722843211848e+00	 7.453008823208766e+00
 6.662631325049674e-01	 2.317914010599844e+00	 7.378755052099587e+00
 6.450838472938460e-01	 2.323897334417937e+00	 7.307130091158413e+00
 6.239017671286295e-01	 2.329673495908198e+00	 7.238197620878651e+00
 8.383047135447202e-01	 2.270795290183433e+00	 8.046128524312701e+00
 8.171755515775549e-01	 2.278484215081044e+00	 7.959932690130610e+00
 7.960200053076527e-01	 2.285961182538526e+00	 7.874098550522717e+00
 7.748410970631530e-01	 2.293226512480131e+00	 7.789224523364528e+00
 7.536418299728579e-01	 2.300280579165536e+00	 7.705823121642201e+00
 7.324251868245170e-01	 2.307123810444363e+00	 7.624324713614262e+00
 7.111941289514456e-01	 2.313756686984343e+00	 7.545082486989905e+00
 6.899515951480827e-01	 2.320179741474244e+00	 7.468378526923281e+00
 6.687005006150676e-01	 2.326393557802710e+00	 7.394430912222812e+00
 6.474437359343483e-01	 2.332398770214141e+00	 7.323401729569329e+00
 6.261841660747978e-01	 2.338196062442769e+00	 7.255405901734021e+00
 8.413602749428495e-01	 2.279072178427747e+00	 8.062929272360929e+00
 8.201540986750241e-01	 2.286789128912769e+00	 7.976778614339978e+00
 7.989214419355528e-01	 2.294293349387783e+00	 7.890943851610111e+00
 7.776653380687363e-01	 2.301585160943147e+00	 7.806085928505873e+00
 7.563888011495602e-01	 2.308664939202700e+00	 7.722777037174886e+00
 7.350948248378150e-01	 2.315533113575554e+00	 7.641504483898897e+00
 7.137863812606564e-01	 2.322190166481445e+00	 7.562675796013065e+00
 6.924664199242117e-01	 2.328636632550767e+00	 7.486624976902107e+00
 6.711378666548118e-01	 2.334873097800403e+00	 7.413619811005207e+00
 6.498036225703621e-01	 2.340900198786537e+00	 7.343870116030754e+00
 6.284665630823351e-01	 2.346718621735575e+00	 7.277536835671039e+00
 8.444158398055267e-01	 2.287349076056038e+00	 8.079818678577510e+00
 8.231326491497071e-01	 2.295094052160227e+00	 7.993876769827895e+00
 8.018228818532342e-01	 2.302625525683620e+00	 7.908292471121994e+00
 7.804895822765822e-01	 2.309943818882697e+00	 7.823783676638779e+00
 7.591357754409280e-01	 2.317049308745463e+00	 7.740976702346314e+00
 7.377644658781138e-01	 2.323942426240529e+00	 7.660410266691855e+00
 7.163786365091456e-01	 2.330623655539652e+00	 7.582540749042375e+00
 6.949812475518492e-01	 2.337093533214851e+00	 7.507748630984334e+00
 6.735752354582557e-01	 2.343352647411264e+00	 7.436346019896766e+00
 6.521635118822380e-01	 2.349401636996865e+00	 7.368585149352395e+00
 6.307489626778779e-01	 2.355241190690244e+00	 7.304311280181842e+00
 8.474714141933698e-01	 2.295625999484788e+00	 8.096680339392151e+00
 8.261112089094171e-01	 2.303399001295480e+00	 8.011121649800671e+00
 8.047243308155120e-01	 2.310957727952152e+00	 7.926051588874468e+00
 7.833138352883354e-01	 2.318302502877411e+00	 7.842239439665012e+00
 7.618827582952897e-01	 2.325433704423442e+00	 7.760360097337567e+00
 7.404341152403017e-01	 2.332351765118369e+00	 7.680998172528993e+00
 7.189708998382606e-01	 2.339057170885977e+00	 7.604653410194709e+00
 6.974960830187238e-01	 2.345550460239932e+00	 7.531747326634144e+00
 6.760126118594550e-01	 2.351832223453634e+00	 7.462630961539388e+00
 6.545234085503264e-01	 2.357903101706865e+00	 7.395937060660416e+00
 6.330313693880619e-01	 2.363763786210413e+00	 7.329143615291768e+00
 8.505270041669976e-01	 2.303902965130477e+00	 8.113396529218729e+00
 8.290897838619679e-01	 2.311703992790594e+00	 8.028406277013623e+00
 8.076257945772014e-01	 2.319289972719491e+00	 7.944126756210389e+00
 7.861381027056413e-01	 2.326661229505917e+00	 7.861373092921228e+00
 7.646297551609739e-01	 2.333818142866254e+00	 7.780863227086499e+00
 7.431037782192662e-01	 2.340761146888149e+00	 7.703222146888788e+00
 7.215631763893482e-01	 2.347490729247438e+00	 7.628987476997417e+00
 7.000109313125639e-01	 2.354007430399445e+00	 7.558534950921382e+00
 6.784500006924646e-01	 2.360311842745852e+00	 7.488820352469096e+00
 6.568833172549781e-01	 2.366404609778274e+00	 7.418831393229346e+00
 6.353137877395229e-01	 2.372286425199707e+00	 7.349554045295543e+00
 8.535826157870279e-01	 2.312179989409584e+00	 8.129848243622169e+00
 8.320683799151731e-01	 2.320009043117632e+00	 8.045622244978034e+00
 8.105272788931159e-01	 2.327622276511749e+00	 7.962421935712745e+00
 7.889623901301442e-01	 2.335020015346847e+00	 7.881102753876297e+00
 7.673767714863083e-01	 2.342202640703515e+00	 7.802420159457064e+00
 7.457734601098953e-01	 2.349170588228948e+00	 7.727034008331430e+00
 7.241554713037550e-01	 2.355924347351049e+00	 7.654901331199215e+00
 7.025257974210970e-01	 2.362464460466825e+00	 7.582200237361548e+00
 6.808874067913400e-01	 2.368791522106264e+00	 7.509033170625761e+00
 6.592432426765429e-01	 2.374906178072831e+00	 7.436461072305533e+00
 6.375962222588971e-01	 2.380809124561765e+00	 7.365566226821131e+00
 8.566382551140788e-01	 2.320457088738593e+00	 8.145915242516310e+00
 8.350470029768466e-01	 2.328314168748660e+00	 8.062659759174197e+00
 8.134287895180706e-01	 2.335954655855041e+00	 7.980839540891658e+00
 7.917867031634899e-01	 2.343378876978828e+00	 7.901344820762185e+00
 7.701238127196210e-01	 2.350587214564839e+00	 7.824963063294294e+00
 7.484431662070767e-01	 2.357580105819843e+00	 7.750917246823013e+00
 7.267477897228278e-01	 2.364358041923825e+00	 7.675372319262177e+00
 7.050406863320523e-01	 2.370921567215507e+00	 7.599083983032218e+00
 6.833248349901367e-01	 2.377271278353210e+00	 7.523186432814962e+00
 6.616031894953714e-01	 2.383407823452274e+00	 7.448834219827237e+00
 6.398786774728203e-01	 2.389331901200212e+00	 7.377203602003028e+00
 8.596939282087687e-01	 2.328734279533981e+00	 8.161476093394285e+00
 8.380256589548014e-01	 2.336619386155741e+00	 8.079407678271776e+00
 8.163303322068804e-01	 2.344287127275481e+00	 7.999280475846676e+00
 7.946110474073228e-01	 2.351737830980490e+00	 7.922014011140736e+00
 7.728708843092411e-01	 2.358971881079847e+00	 7.845969120445024e+00
 7.511129018056980e-01	 2.365989716339908e+00	 7.767731076501587e+00
 7.293401367879138e-01	 2.372791829692784e+00	 7.688396118253026e+00
 7.075556030331583e-01	 2.379378767418929e+00	 7.609169187249307e+00
 6.857622901229100e-01	 2.385751128305029e+00	 7.531274927119473e+00
 6.639631623918143e-01	 2.391909562778341e+00	 7.455959027115531e+00
 6.421611579079285e-01	 2.397854772018683e+00	 7.384489412844650e+00
 8.627496411317157e-01	 2.337011578212227e+00	 8.176408214591699e+00
 8.410043537568516e-01	 2.344924711810939e+00	 8.095753555358833e+00
 8.192319127143599e-01	 2.352619707299180e+00	 8.017644174906234e+00
 7.974354284632884e-01	 2.360096893930465e+00	 7.939611608192234e+00
 7.756179917034960e-01	 2.367356656878152e+00	 7.858814450127650e+00
 7.537826722006470e-01	 2.374399436468223e+00	 7.776501859746874e+00
 7.319325176403594e-01	 2.381225727384938e+00	 7.693946246911389e+00
 7.100705525121429e-01	 2.387836077850523e+00	 7.612439384542217e+00
 6.881997770237152e-01	 2.394231088780064e+00	 7.533293760606971e+00
 6.663231660462215e-01	 2.400411412912772e+00	 7.457843764097593e+00
 6.444436680908576e-01	 2.406377753920808e+00	 7.387446715148280e+00
 8.658053999435384e-01	 2.345289001189816e+00	 8.190587918584221e+00
 8.439830932908110e-01	 2.353230162186319e+00	 8.111577018059567e+00
 8.221335367953240e-01	 2.360952412452252e+00	 8.031616195847359e+00
 8.002598519330313e-01	 2.368456082407380e+00	 7.948350646844678e+00
 7.783651403507144e-01	 2.375741558589372e+00	 7.863098468573703e+00
 7.564524826868121e-01	 2.382809282883866e+00	 7.777195512327834e+00
 7.345249374215115e-01	 2.389659751727305e+00	 7.691996948793734e+00
 7.125855397567351e-01	 2.396293515283727e+00	 7.608878645411359e+00
 6.906373005266077e-01	 2.402711176596659e+00	 7.529238363976143e+00
 6.686832051389440e-01	 2.408913390717305e+00	 7.454496788200855e+00
 6.467262125482437e-01	 2.414900863810222e+00	 7.386098392023746e+00
 6.239017671286295e-01	 2.329673495908198e+00	 7.238197620878651e+00
 6.027197203449561e-01	 2.335243225244862e+00	 7.173454595537312e+00
 5.815405089992440e-01	 2.340607302145042e+00	 7.114242598614824e+00
 5.603669070574516e-01	 2.345766553420075e+00	 7.057692148255776e+00
 5.392016592342920e-01	 2.350721851527660e+00	 7.003017149647704e+00
 5.180474801603698e-01	 2.355474113615235e+00	 6.950042575585508e+00
 4.969070535816822e-01	 2.360024300548634e+00	 6.897349713552714e+00
 4.757830315916279e-01	 2.364373415927180e+00	 6.845511297334303e+00
 4.546780338956418e-01	 2.368522505086348e+00	 6.795396881829959e+00
 4.335946471085258e-01	 2.372472654089150e+00	 6.747892692641813e+00
 4.125354240844981e-01	 2.376224988707342e+00	 6.703902419659563e+00
 6.261841660747978e-01	 2.338196062442769e+00	 7.255405901734021e+00
 6.049246297188564e-01	 2.343786167334006e+00	 7.191912826831738e+00
 5.836679391736149e-01	 2.349169867457370e+00	 7.134262466991514e+00
 5.624168785529433e-01	 2.354347992648878e+00	 7.079656108477483e+00
 5.411742026124571e-01	 2.359321418557904e+00	 7.024903170633912e+00
 5.199426359136082e-01	 2.364091065687044e+00	 6.969928824702106e+00
 4.987248720202569e-01	 2.368657898417226e+00	 6.915547925866433e+00
 4.775235727278708e-01	 2.373022924019193e+00	 6.862590094642489e+00
 4.563413673254701e-01	 2.377187191652527e+00	 6.811900588922552e+00
 4.351808518903875e-01	 2.381151791353338e+00	 6.764341137022900e+00
 4.140445886158672e-01	 2.384917853011747e+00	 6.720790738534734e+00
 6.284665630823351e-01	 2.346718621735575e+00	 7.277536835671039e+00
 6.071295372199624e-01	 2.352329102164099e+00	 7.216045802492721e+00
 5.857953675409997e-01	 2.357732425494026e+00	 7.159193572197232e+00
 5.644668483072240e-01	 2.362929424586053e+00	 7.102786037603096e+00
 5.431467443151482e-01	 2.367920978281215e+00	 7.045970676537920e+00
 5.218377900570667e-01	 2.372708010437259e+00	 6.989498552117327e+00
 5.005426889146970e-01	 2.377291488950197e+00	 6.934134004587677e+00
 4.792641123855708e-01	 2.381672424762187e+00	 6.880655614777838e+00
 4.580046993422895e-01	 2.385851870856911e+00	 6.829857121474832e+00
 4.367670553247116e-01	 2.389830921243562e+00	 6.782548300139019e+00
 4.155537518651018e-01	 2.393610709930618e+00	 6.739555809922011e+00
 6.307489626778779e-01	 2.355241190690244e+00	 7.304311280181842e+00
 6.093344472212071e-01	 2.360872046679166e+00	 7.241871577307531e+00
 5.879227983206611e-01	 2.366294993237942e+00	 7.182253826482397e+00
 5.665168203859353e-01	 2.371510866251946e+00	 7.124029191708918e+00
 5.451192882544537e-01	 2.376520547753874e+00	 7.065978534009596e+00
 5.237329463493655e-01	 2.381324964956626e+00	 7.008776998340847e+00
 5.023605078702587e-01	 2.385925089271292e+00	 6.953112085716311e+00
 4.810046540167416e-01	 2.390321935311449e+00	 6.899684701811747e+00
 4.596680332450091e-01	 2.394516559884872e+00	 6.849210159251336e+00
 4.383532605574575e-01	 2.398510060973844e+00	 6.802419141120359e+00
 4.170629168253849e-01	 2.402303576705196e+00	 6.760058632785197e+00
 6.330313693880619e-01	 2.363763786210413e+00	 7.329143615291768e+00
 6.115393640955251e-01	 2.369415017823233e+00	 7.264158786326776e+00
 5.900502357318614e-01	 2.374857587672046e+00	 7.202628402420613e+00
 5.685667988547182e-01	 2.380092334666901e+00	 7.143432239070783e+00
 5.470918383424609e-01	 2.385120144032165e+00	 7.084965689727105e+00
 5.256281085491243e-01	 2.389941946335889e+00	 7.027788676468996e+00
 5.041783324921976e-01	 2.394558716504258e+00	 6.972485845034702e+00
 4.827452010733964e-01	 2.398971472822264e+00	 6.919654100266267e+00
 4.613313723325373e-01	 2.403181275921788e+00	 6.869903732614191e+00
 4.399394707345851e-01	 2.407189227758209e+00	 6.823859505309678e+00
 4.185720864898999e-01	 2.410996470576721e+00	 6.782161709357631e+00
 6.353137877395229e-01	 2.372286425199707e+00	 7.349554045295543e+00
 6.137442922158493e-01	 2.377958032540327e+00	 7.282922690254715e+00
 5.921776839938637e-01	 2.383420225779265e+00	 7.220383605980667e+00
 5.706167877792144e-01	 2.388673846851264e+00	 7.161040912106754e+00
 5.490643984912580e-01	 2.393719784172369e+00	 7.102970220674769e+00
 5.275232804149638e-01	 2.398558971665798e+00	 7.046557395668753e+00
 5.059961663857703e-01	 2.403192387772837e+00	 6.992258515890752e+00
 4.844857570075478e-01	 2.407621054449918e+00	 6.940540465560563e+00
 4.629947199037828e-01	 2.411846036153035e+00	 6.891882224078330e+00
 4.415256890020541e-01	 2.415868438810683e+00	 6.846776115451840e+00
 4.200812638518300e-01	 2.419689408786432e+00	 6.805729024573044e+00
 6.375962222588971e-01	 2.380809124561765e+00	 7.365566226821131e+00
 6.159492359551137e-01	 2.386501107774475e+00	 7.298199600187181e+00
 5.943051473259304e-01	 2.391982924542530e+00	 7.235561329538164e+00
 5.726667912250650e-01	 2.397255419825381e+00	 7.176900036437023e+00
 5.510369726129325e-01	 2.402319485230767e+00	 7.120029361056261e+00
 5.294184657055038e-01	 2.407176058037094e+00	 7.065106284189091e+00
 5.078140131562326e-01	 2.411826120200775e+00	 7.012432906629032e+00
 4.862263252712091e-01	 2.416270697349693e+00	 6.962320374262870e+00
 4.646580792576541e-01	 2.420510857763989e+00	 6.915090369863257e+00
 4.431119185058240e-01	 2.424547711345288e+00	 6.871076563104237e+00
 4.215904519043582e-01	 2.428382408575571e+00	 6.830626025972585e+00
 6.398786774728203e-01	 2.389331901200212e+00	 7.377203602003028e+00
 6.181541996862522e-01	 2.395044260469702e+00	 7.310025379648756e+00
 5.964326299473244e-01	 2.400545700944769e+00	 7.248202559149855e+00
 5.747168132579117e-01	 2.405837070609595e+00	 7.191053559358780e+00
 5.530095646195727e-01	 2.410919264263641e+00	 7.136179528665974e+00
 5.313136681793647e-01	 2.415793222540528e+00	 7.083457811911373e+00
 5.096318764088407e-01	 2.420459930911815e+00	 7.033011417679720e+00
 4.879669093163936e-01	 2.424920418676879e+00	 6.984970334153491e+00
 4.663214536930597e-01	 2.429175757940024e+00	 6.939473261443116e+00
 4.446981623918547e-01	 2.433227062576053e+00	 6.896669300263545e+00
 4.230996536406679e-01	 2.437075487185377e+00	 6.856719604075945e+00
 6.421611579079285e-01	 2.397854772018683e+00	 7.384489412844650e+00
 6.203591877821976e-01	 2.403587507570036e+00	 7.318435462966299e+00
 5.985601360773081e-01	 2.409108571968912e+00	 7.258347726099085e+00
 5.767668579433949e-01	 2.414418816224252e+00	 7.203544577752256e+00
 5.549821784232659e-01	 2.419519138327273e+00	 7.151456350733179e+00
 5.332088915951666e-01	 2.424410482266842e+00	 7.101633812451960e+00
 5.114497597488508e-01	 2.429093837029705e+00	 7.053996058314443e+00
 4.897075125951141e-01	 2.433570235586758e+00	 7.008466794103691e+00
 4.679848465089086e-01	 2.437840753866520e+00	 6.964976347093942e+00
 4.462844238061057e-01	 2.441906509717000e+00	 6.923463631202748e+00
 4.246088720539422e-01	 2.445768661857091e+00	 6.883878073204482e+00
 6.444436680908576e-01	 2.406377753920808e+00	 7.387446715148280e+00
 6.225642046158841e-01	 2.412130866019502e+00	 7.323464873131755e+00
 6.006876699351441e-01	 2.417671554597886e+00	 7.266036726812057e+00
 5.788169293471569e-01	 2.423000673689698e+00	 7.214415365432813e+00
 5.569548179361002e-01	 2.428119124477946e+00	 7.165894689252742e+00
 5.351041397115297e-01	 2.433027854306784e+00	 7.119655504828554e+00
 5.132676667815187e-01	 2.437727855678187e+00	 7.075388463077991e+00
 4.914481385593841e-01	 2.442220165234616e+00	 7.032786153776321e+00
 4.696482610041089e-01	 2.446505862728852e+00	 6.991545433439962e+00
 4.478707058945368e-01	 2.450586069982156e+00	 6.951369704513934e+00
 4.261181101373641e-01	 2.454461949831952e+00	 6.911971152746475e+00
 6.467262125482437e-01	 2.414900863810222e+00	 7.386098392023746e+00
 6.247692545602453e-01	 2.420674352762128e+00	 7.325148239168102e+00
 6.028152357400953e-01	 2.426234665814622e+00	 7.271308942241069e+00
 5.808670315348385e-01	 2.431582660026279e+00	 7.223707399963784e+00
 5.589274870701637e-01	 2.436719239771942e+00	 7.179528665816091e+00
 5.369994162870741e-01	 2.441645355751099e+00	 7.137543514701667e+00
 5.150856011121007e-01	 2.446362003981005e+00	 7.097189907904596e+00
 4.931887906612165e-01	 2.450870224775741e+00	 7.057904773152417e+00
 4.713117004775699e-01	 2.455171101712394e+00	 7.019126686998805e+00
 4.494570118031077e-01	 2.459265760585544e+00	 6.980298505352069e+00
 4.276273708841172e-01	 2.463155368351200e+00	 6.940869948852376e+00
 4.125354240844981e-01	 2.376224988707342e+00	 6.703902419659563e+00
 3.914993108678211e-01	 2.379781260948494e+00	 6.663900961278669e+00
 3.704923791699241e-01	 2.383142017333930e+00	 6.627275662991672e+00
 3.495170835139961e-01	 2.386308495462393e+00	 6.593309943320337e+00
 3.285758421694240e-01	 2.389281968537790e+00	 6.561314565460286e+00
 3.076710366437497e-01	 2.392063744314279e+00	 6.530630297459041e+00
 2.868050112068564e-01	 2.394655164037665e+00	 6.500630512995947e+00
 2.659800724471563e-01	 2.397057601384103e+00	 6.470723734248249e+00
 2.451984888595130e-01	 2.399272461397111e+00	 6.440356117889112e+00
 2.244624904646028e-01	 2.401301179423868e+00	 6.409013884834143e+00
 2.037742684593891e-01	 2.403145220051754e+00	 6.376225693925857e+00
 4.140445886158672e-01	 2.384917853011747e+00	 6.720790738534734e+00
 3.929315196905247e-01	 2.388487135044622e+00	 6.681600635233697e+00
 3.718477390377304e-01	 2.391860185972617e+00	 6.646031106736585e+00
 3.507957101599756e-01	 2.395038247921946e+00	 6.613334884025335e+00
 3.297778601733239e-01	 2.398022598754242e+00	 6.582790635715118e+00
 3.087965792975083e-01	 2.400814551007788e+00	 6.553705687900073e+00
 2.878542203783784e-01	 2.403415450835027e+00	 6.525418686905526e+00
 2.669530984424634e-01	 2.405826676937397e+00	 6.497302206423885e+00
 2.460954902833885e-01	 2.408049639498448e+00	 6.468765300059042e+00
 2.252836340798418e-01	 2.410085779116246e+00	 6.439255999854028e+00
 2.045197290447714e-01	 2.411936565736029e+00	 6.408263760935562e+00
 4.155537518651018e-01	 2.393610709930618e+00	 6.739555809922011e+00
 3.943637272964343e-01	 2.397193001744242e+00	 6.701088495009314e+00
 3.732030977540012e-01	 2.400578347204410e+00	 6.666308611197925e+00
 3.520743357195860e-01	 2.403767992964807e+00	 6.634482763688196e+00
 3.309798771559185e-01	 2.406763221544790e+00	 6.604902897364240e+00
 3.099221209949139e-01	 2.409565350266758e+00	 6.576889000589933e+00
 2.889034286583783e-01	 2.412175730189793e+00	 6.549791755086701e+00
 2.679261236109494e-01	 2.414595745040609e+00	 6.522995133454377e+00
 2.469924909450037e-01	 2.416826810142783e+00	 6.495918945425408e+00
 2.261047769972327e-01	 2.418870371345268e+00	 6.468021333467345e+00
 2.052651889965601e-01	 2.420727903951158e+00	 6.438801217889818e+00
 4.170629168253849e-01	 2.402303576705196e+00	 6.760058632785197e+00
 3.957959365261206e-01	 2.405898878314389e+00	 6.722187353495711e+00
 3.745584580069016e-01	 2.409296518320723e+00	 6.687909048939622e+00
 3.533529627288112e-01	 2.412497747905362e+00	 6.656548236874142e+00
 3.321818955012544e-01	 2.415503854245389e+00	 6.627454980951754e+00
 3.110476639683353e-01	 2.418316159447326e+00	 6.600007503181699e+00
 2.899526381278250e-01	 2.420936019476900e+00	 6.573614746513504e+00
 2.688991498824765e-01	 2.423364823086111e+00	 6.547718889282101e+00
 2.478894926234254e-01	 2.425603990738563e+00	 6.521797812754555e+00
 2.269259208453737e-01	 2.427654973534108e+00	 6.495367522516017e+00
 2.060106497932278e-01	 2.429519252133696e+00	 6.467984523951170e+00
 4.185720864898999e-01	 2.410996470576721e+00	 6.782161709357631e+00
 3.972281502201537e-01	 2.414604782022096e+00	 6.744722066908877e+00
 3.759138224845954e-01	 2.418014716612970e+00	 6.710635647703723e+00
 3.546315937236353e-01	 2.421227530057993e+00	 6.679328404175486e+00
 3.333839175933773e-01	 2.424244514191992e+00	 6.650252840149062e+00
 3.121732104501413e-01	 2.427066995905629e+00	 6.622890457107084e+00
 2.910018508676867e-01	 2.429696336071292e+00	 6.596754155482657e+00
 2.698721791869070e-01	 2.432133928466275e+00	 6.571390592985860e+00
 2.487864970977205e-01	 2.434381198694238e+00	 6.546382501438373e+00
 2.277470672528630e-01	 2.436439603105940e+00	 6.521350963062581e+00
 2.067561129132467e-01	 2.438310627720205e+00	 6.495957646652411e+00
 4.200812638518300e-01	 2.419689408786432e+00	 6.805729024573044e+00
 3.986603712191037e-01	 2.423310730134403e+00	 6.768519503920379e+00
 3.772691938752477e-01	 2.426732959372562e+00	 6.734293953406763e+00
 3.559102312400421e-01	 2.429957356737082e+00	 6.702622773107189e+00
 3.345859458163341e-01	 2.432985218720554e+00	 6.673104714443405e+00
 3.132987626727006e-01	 2.435817876997804e+00	 6.645369085814552e+00
 2.920510689589323e-01	 2.438456697347906e+00	 6.619077919018341e+00
 2.708452134541033e-01	 2.440903078573478e+00	 6.593928098827828e+00
 2.496835061469557e-01	 2.443158451418256e+00	 6.569653457520030e+00
 2.285682178482987e-01	 2.445224277483935e+00	 6.546026835588711e+00
 2.075015798350895e-01	 2.447102048147247e+00	 6.522862109319958e+00
 4.215904519043582e-01	 2.428382408575571e+00	 6.830626025972585e+00
 4.000926023635407e-01	 2.432016739918337e+00	 6.793408515486453e+00
 3.786245748670223e-01	 2.435451263890913e+00	 6.758691793967036e+00
 3.571888778140154e-01	 2.438687245257012e+00	 6.726233219874919e+00
 3.357879825541705e-01	 2.441725985167030e+00	 6.695821092656397e+00
 3.144243228683821e-01	 2.444568820079989e+00	 6.667276543711785e+00
 2.931002944825301e-01	 2.447217120681682e+00	 6.640455394775578e+00
 2.718182546139279e-01	 2.449672290800091e+00	 6.615249986519992e+00
 2.505805215501979e-01	 2.451935766319064e+00	 6.591590979584785e+00
 2.293893742602790e-01	 2.454009014091267e+00	 6.569449129634310e+00
 2.082470520372284e-01	 2.455893530851378e+00	 6.548837037447135e+00
 4.230996536406679e-01	 2.437075487185377e+00	 6.856719604075945e+00
 4.015248464940348e-01	 2.440722828640939e+00	 6.819219905357407e+00
 3.799799681480843e-01	 2.444169647459435e+00	 6.783639243939813e+00
 3.584675359815393e-01	 2.447417212932166e+00	 6.749963951993514e+00
 3.369900301909332e-01	 2.450466830867374e+00	 6.718214677270780e+00
 3.155498932695541e-01	 2.453319842508320e+00	 6.688447885794272e+00
 2.941495295194485e-01	 2.455977623447562e+00	 6.660757339431563e+00
 2.727913045962429e-01	 2.458441582538489e+00	 6.635275551702851e+00
 2.514775450865139e-01	 2.460713160805110e+00	 6.612175224518190e+00
 2.302105381174021e-01	 2.462793830351110e+00	 6.591670667892108e+00
 2.089925309981358e-01	 2.464685093269159e+00	 6.574019204044411e+00
 4.246088720539422e-01	 2.445768661857091e+00	 6.883878073204482e+00
 4.029571064511563e-01	 2.449429013569240e+00	 6.845786401251637e+00
 3.813353764065975e-01	 2.452888127369540e+00	 6.808948589941680e+00
 3.597462082785977e-01	 2.456147277076928e+00	 6.773621471734031e+00
 3.381920911106681e-01	 2.459207773157541e+00	 6.740100349545263e+00
 3.166754761085858e-01	 2.462070961638934e+00	 6.708720037943225e+00
 2.951987761506561e-01	 2.464738223020487e+00	 6.679855887550582e+00
 2.737643653309108e-01	 2.467210971181046e+00	 6.653924796632084e+00
 2.523745785349705e-01	 2.469490652284841e+00	 6.631386213136845e+00
 2.310317110482663e-01	 2.471578743686635e+00	 6.612743129771309e+00
 2.097380181962843e-01	 2.473476752837150e+00	 6.598543073993117e+00
 4.261181101373641e-01	 2.454461949831952e+00	 6.911971152746475e+00
 4.043893850754753e-01	 2.458135311970276e+00	 6.872942626676600e+00
 3.826908023307267e-01	 2.461606720912640e+00	 6.834434296843085e+00
 3.610248972411744e-01	 2.464877455005679e+00	 6.797014540379038e+00
 3.393941676974216e-01	 2.467948829373485e+00	 6.761295135397657e+00
 3.178010736178458e-01	 2.470822194827969e+00	 6.727931767874685e+00
 2.962480364571214e-01	 2.473498936775393e+00	 6.697624530912047e+00
 2.747374387477939e-01	 2.475980474120136e+00	 6.671118421068512e+00
 2.532716236746345e-01	 2.478268258166706e+00	 6.649203835693500e+00
 2.318528946814697e-01	 2.480363771521017e+00	 6.632717074443449e+00
 2.104835151101461e-01	 2.482268526991912e+00	 6.622540847427443e+00
 4.276273708841172e-01	 2.463155368351200e+00	 6.940869948852376e+00
 4.058216852075621e-01	 2.466841741111083e+00	 6.900525073381597e+00
 3.840462486086365e-01	 2.470325445380151e+00	 6.859912974710805e+00
 3.623036054052536e-01	 2.473607764032804e+00	 6.819954143265668e+00
 3.405962623352399e-01	 2.476690016851161e+00	 6.781618172036660e+00
 3.189266880297028e-01	 2.479573559431562e+00	 6.745923656725845e+00
 2.972973125198130e-01	 2.482259782087224e+00	 6.713938098289212e+00
 2.757105267767547e-01	 2.484750108748132e+00	 6.686777813364107e+00
 2.541686822845730e-01	 2.487045995859153e+00	 6.665607857260322e+00
 2.326740906456104e-01	 2.489148931277429e+00	 6.651641963384304e+00
 2.112290232181938e-01	 2.491060433170003e+00	 6.646142502169536e+00
 2.037742684593891e-01	 2.403145220051754e+00	 6.376225693925857e+00
 1.831394705683669e-01	 2.404805809140469e+00	 6.343705272736806e+00
 1.625566475833818e-01	 2.406284794526695e+00	 6.312620872291427e+00
 1.420278244541574e-01	 2.407583720882376e+00	 6.281795012420308e+00
 1.215549875204660e-01	 2.408704157848441e+00	 6.250134239485491e+00
 1.011400843060147e-01	 2.409647699001514e+00	 6.216631261469313e+00
 8.078502333994339e-02	 2.410415960825535e+00	 6.180366980439970e+00
 6.049167400547847e-02	 2.411010581689024e+00	 6.140512421165065e+00
 4.026186641526397e-02	 2.411433220828751e+00	 6.096330554421654e+00
 2.009739131287501e-02	 2.411685557340521e+00	 6.047178013360377e+00
 0.000000000000000e+00	 2.411769289177776e+00	 5.992506700983295e+00
 2.045197290447714e-01	 2.411936565736029e+00	 6.408263760935562e+00
 1.838094435635523e-01	 2.413603229702029e+00	 6.377567738644483e+00
 1.631513231264263e-01	 2.415087625610806e+00	 6.348240958743393e+00
 1.425474000909047e-01	 2.416391303785128e+00	 6.318825843559211e+00
 1.219996680633033e-01	 2.417515839608091e+00	 6.287951356567345e+00
 1.015100816918724e-01	 2.418462832486047e+00	 6.254335435911889e+00
 8.108055648764352e-02	 2.419233904816471e+00	 6.216787317074022e+00
 6.071296867252839e-02	 2.419830700961470e+00	 6.174209743269520e+00
 4.040915505419455e-02	 2.420254886227749e+00	 6.125601061939149e+00
 2.017091292721813e-02	 2.420508145853693e+00	 6.070057205519075e+00
 0.000000000000000e+00	 2.420592184004311e+00	 6.006773554388735e+00
 2.052651889965601e-01	 2.420727903951158e+00	 6.438801217889818e+00
 1.844794159892233e-01	 2.422400642789204e+00	 6.410115128778719e+00
 1.637459981638708e-01	 2.423890449215851e+00	 6.382864547271633e+00
 1.430669752858039e-01	 2.425198879204688e+00	 6.355226596236117e+00
 1.224443482278828e-01	 2.426327513880975e+00	 6.325465367743812e+00
 1.018800787629036e-01	 2.427277958480799e+00	 6.291934813013927e+00
 8.137608938379057e-02	 2.428051841315157e+00	 6.253081511777589e+00
 6.093426315114290e-02	 2.428650812739752e+00	 6.207447319261812e+00
 4.055644356765318e-02	 2.429076544131215e+00	 6.153671888800815e+00
 2.024443447890052e-02	 2.429330726870513e+00	 6.090495067914199e+00
 0.000000000000000e+00	 2.429415071334221e+00	 6.016759165430930e+00
 2.060106497932278e-01	 2.429519252133696e+00	 6.467984523951170e+00
 1.851493891741110e-01	 2.431198065850612e+00	 6.441568156213870e+00
 1.643406738750812e-01	 2.432693282801188e+00	 6.416746620474056e+00
 1.435865510692487e-01	 2.434006464609849e+00	 6.391247593970399e+00
 1.228890288960373e-01	 2.435139198144030e+00	 6.362884076633025e+00
 1.022500762528067e-01	 2.436093094469555e+00	 6.329557894470115e+00
 8.167162261439265e-02	 2.436869787810965e+00	 6.289263071156295e+00
 6.115555788009933e-02	 2.437470934517560e+00	 6.240089065459347e+00
 4.070373224766211e-02	 2.437898212035911e+00	 6.180223871973183e+00
 2.031795611368026e-02	 2.438153317889578e+00	 6.107956982484446e+00
 0.000000000000000e+00	 2.438237968666715e+00	 6.021682205073269e+00
 2.067561129132467e-01	 2.438310627720205e+00	 6.495957646652412e+00
 1.858193644469463e-01	 2.439995516334869e+00	 6.472144004247021e+00
 1.649353514394232e-01	 2.441496143826174e+00	 6.450138173156972e+00
 1.441061284716332e-01	 2.442814077469402e+00	 6.427135280543345e+00
 1.233337109495992e-01	 2.443950909874183e+00	 6.400412067011731e+00
 1.026200748952802e-01	 2.444908257936103e+00	 6.367331159498487e+00
 8.196715676545782e-02	 2.445687761793264e+00	 6.325345199662213e+00
 6.137685329817513e-02	 2.446291083788585e+00	 6.272000824668092e+00
 4.085102138624364e-02	 2.446719907438604e+00	 6.204942497121356e+00
 2.039147797731544e-02	 2.446975936409492e+00	 6.121916180792999e+00
 0.000000000000000e+00	 2.447060893501001e+00	 6.020772858600770e+00
 2.075015798350895e-01	 2.447102048147247e+00	 6.522862109319959e+00
 1.864893431364603e-01	 2.448793011690591e+00	 6.502056392235135e+00
 1.655300320362625e-01	 2.450299049750168e+00	 6.483286286196105e+00
 1.446257085233511e-01	 2.451621735252139e+00	 6.463132291766946e+00
 1.237783952704012e-01	 2.452762666548368e+00	 6.438250762650743e+00
 1.029900754240227e-01	 2.453723466364229e+00	 6.405379103181470e+00
 8.226269242299415e-02	 2.454505780751423e+00	 6.361340807156625e+00
 6.159814984414769e-02	 2.455111278046521e+00	 6.303050333971928e+00
 4.099831127542001e-02	 2.455541647836057e+00	 6.227517817916015e+00
 2.046500021556416e-02	 2.455798599928852e+00	 6.131853606428894e+00
 0.000000000000000e+00	 2.455883863336285e+00	 6.013272622981417e+00
 2.082470520372284e-01	 2.455893530851378e+00	 6.548837037447133e+00
 1.871593265713839e-01	 2.457590569366397e+00	 6.531515639976657e+00
 1.661247168449647e-01	 2.459102018032525e+00	 6.516434198765733e+00
 1.451452922547963e-01	 2.460429455426853e+00	 6.499477525666411e+00
 1.242230827402758e-01	 2.461574485643514e+00	 6.476598485826670e+00
 1.033600785727327e-01	 2.462538737237722e+00	 6.443824273953709e+00
 8.255823017300974e-02	 2.463323862174812e+00	 6.397262516301867e+00
 6.181944795679448e-02	 2.463931534785059e+00	 6.333107193227605e+00
 4.114560220721350e-02	 2.464363450725036e+00	 6.247644377111773e+00
 2.053852297418449e-02	 2.464621325946255e+00	 6.137257780431391e+00
 0.000000000000000e+00	 2.464706895671778e+00	 5.998434108685507e+00
 2.089925309981358e-01	 2.464685093269159e+00	 6.574019204044411e+00
 1.878293160804481e-01	 2.466388206810903e+00	 6.560728730673691e+00
 1.667194070448957e-01	 2.467905066132603e+00	 6.549821378975572e+00
 1.456648806963628e-01	 2.469237255462335e+00	 6.536406211114993e+00
 1.246677742410555e-01	 2.470386384636555e+00	 6.515650514541825e+00
 1.037300850751085e-01	 2.471354088040368e+00	 6.482787310263469e+00
 8.285377060151269e-02	 2.472142023552804e+00	 6.433122669782212e+00
 6.204074807489285e-02	 2.472751871497892e+00	 6.362042834243056e+00
 4.129289447364637e-02	 2.473185333602306e+00	 6.265021129351441e+00
 2.061204639893452e-02	 2.473444131960304e+00	 6.137624669665314e+00
 0.000000000000000e+00	 2.473530008006687e+00	 5.975520845850222e+00
 2.097380181962843e-01	 2.473476752837150e+00	 6.598543073993117e+00
 1.884993129923840e-01	 2.475185941472725e+00	 6.589899372511725e+00
 1.673141038154211e-01	 2.476708211509763e+00	 6.583683592956560e+00
 1.461844748784443e-01	 2.478045152827377e+00	 6.574149974961832e+00
 1.251124706545730e-01	 2.479198381004420e+00	 6.555599138487173e+00
 1.041000956648488e-01	 2.480169536255953e+00	 6.522386976422270e+00
 8.314931429451103e-02	 2.480960282374767e+00	 6.468933337362465e+00
 6.226205063722023e-02	 2.481572305678712e+00	 6.389730490624909e+00
 4.144018836674089e-02	 2.482007313964628e+00	 6.279351365652858e+00
 2.068557063557235e-02	 2.482267035469596e+00	 6.132457558066505e+00
 0.000000000000000e+00	 2.482353217840222e+00	 5.943807094677867e+00
 2.104835151101461e-01	 2.482268526991912e+00	 6.622540847427443e+00
 1.891693186359226e-01	 2.483983790800480e+00	 6.619228058891709e+00
 1.679088083359065e-01	 2.485511471623355e+00	 6.618252972435753e+00
 1.467040758314348e-01	 2.486853164990770e+00	 6.612936907689581e+00
 1.255571728626607e-01	 2.488010492224042e+00	 6.596633713777848e+00
 1.044701110756520e-01	 2.488985099368266e+00	 6.562740197668933e+00
 8.344486183801283e-02	 2.489778656130071e+00	 6.504706322783923e+00
 6.248335608255406e-02	 2.490392854821211e+00	 6.416045168274877e+00
 4.158748417851933e-02	 2.490829409308772e+00	 6.290342639534636e+00
 2.075909582985606e-02	 2.491090053972733e+00	 6.121266920689397e+00
 0.000000000000000e+00	 2.491176542671590e+00	 5.902577659960529e+00
 2.112290232181938e-01	 2.491060433170003e+00	 6.646142502169536e+00
 1.898393343397949e-01	 2.492781772242788e+00	 6.648912127348645e+00
 1.685035217857178e-01	 2.494314863932743e+00	 6.653758080835679e+00
 1.472236845857282e-01	 2.495661309421307e+00	 6.652991627640657e+00
 1.260018817471512e-01	 2.496822735772351e+00	 6.638940716494137e+00
 1.048401320412165e-01	 2.497800794861093e+00	 6.603962094464052e+00
 8.374041381802622e-02	 2.498597162308088e+00	 6.540453170505513e+00
 6.270466484967173e-02	 2.499213536419082e+00	 6.440863616522200e+00
 4.173478220100397e-02	 2.499651637131500e+00	 6.297706694740945e+00
 2.083262212754375e-02	 2.499913204968313e+00	 6.103570300482578e+00
 0.000000000000000e+00	 2.500000000000000e+00	 5.851127709626512e+00
