patch_n	x	y	stress_yy
0	 0.000000000000000e+00	 0.000000000000000e+00	 2.843076166813838e+00
0	 0.000000000000000e+00	 1.428576234225853e-01	 3.036011649638478e+00
0	 0.000000000000000e+00	 2.857161301906819e-01	 3.466997561548729e+00
0	 0.000000000000000e+00	 4.285754036348007e-01	 4.144189309825782e+00
0	 0.000000000000000e+00	 5.714353270854531e-01	 5.075743837807895e+00
0	 0.000000000000000e+00	 7.142957838731496e-01	 6.269819624825887e+00
0	 0.000000000000000e+00	 8.571566573284017e-01	 7.734576686157448e+00
0	 0.000000000000000e+00	 1.000017830781720e+00	 9.478176573000272e+00
0	 0.000000000000000e+00	 1.142879187563616e+00	 1.150878237246401e+01
0	 0.000000000000000e+00	 1.285740611004601e+00	 1.383455870758100e+01
0	 0.000000000000000e+00	 1.428601984435185e+00	 1.646367173733589e+01
0	 1.428576234225853e-01	 0.000000000000000e+00	-4.663045450982285e-01
0	 1.428576234225853e-01	 1.428576234225853e-01	 1.169498920815573e+00
0	 1.428576234225853e-01	 2.857161301906819e-01	 2.841488493133097e+00
0	 1.428576234225853e-01	 4.285754036348008e-01	 4.548230935984436e+00
0	 1.428576234225852e-01	 5.714353270854531e-01	 6.288293184710206e+00
0	 1.428576234225853e-01	 7.142957838731498e-01	 8.060242345887760e+00
0	 1.428576234225853e-01	 8.571566573284018e-01	 9.862645697359575e+00
0	 1.428576234225852e-01	 1.000017830781720e+00	 1.169407068826365e+01
0	 1.428576234225852e-01	 1.142879187563616e+00	 1.355308493906612e+01
0	 1.428576234225852e-01	 1.285740611004601e+00	 1.543825624159580e+01
0	 1.428576234225853e-01	 1.428601984435185e+00	 1.734815255908099e+01
0	 2.857161301906819e-01	 0.000000000000000e+00	-2.752289308353912e+00
0	 2.857161301906819e-01	 1.428576234225853e-01	-3.807968120595384e-02
0	 2.857161301906819e-01	 2.857161301906819e-01	 2.556098696927457e+00
0	 2.857161301906818e-01	 4.285754036348007e-01	 5.021010296489695e+00
0	 2.857161301906819e-01	 5.714353270854529e-01	 7.347418687021620e+00
0	 2.857161301906819e-01	 7.142957838731496e-01	 9.526086537258124e+00
0	 2.857161301906818e-01	 8.571566573284015e-01	 1.154777561521369e+01
0	 2.857161301906820e-01	 1.000017830781720e+00	 1.340324678825688e+01
0	 2.857161301906820e-01	 1.142879187563616e+00	 1.508326002317374e+01
0	 2.857161301906819e-01	 1.285740611004601e+00	 1.657857438622030e+01
0	 2.857161301906818e-01	 1.428601984435185e+00	 1.787994804316391e+01
0	 4.285754036348007e-01	 0.000000000000000e+00	-4.146626441634291e+00
0	 4.285754036348006e-01	 1.428576234225853e-01	-6.741457771226955e-01
0	 4.285754036348008e-01	 2.857161301906818e-01	 2.561799221821425e+00
0	 4.285754036348008e-01	 4.285754036348008e-01	 5.545957228184855e+00
0	 4.285754036348007e-01	 5.714353270854531e-01	 8.263075205590358e+00
0	 4.285754036348008e-01	 7.142957838731498e-01	 1.069789840844515e+01
0	 4.285754036348007e-01	 8.571566573284016e-01	 1.283517038206858e+01
0	 4.285754036348007e-01	 1.000017830781720e+00	 1.465963296279869e+01
0	 4.285754036348008e-01	 1.142879187563616e+00	 1.615602627807800e+01
0	 4.285754036348006e-01	 1.285740611004600e+00	 1.730908874651829e+01
0	 4.285754036348007e-01	 1.428601984435185e+00	 1.810355707794438e+01
0	 5.714353270854531e-01	 0.000000000000000e+00	-4.781064596092877e+00
0	 5.714353270854530e-01	 1.428576234225852e-01	-8.261210698339925e-01
0	 5.714353270854530e-01	 2.857161301906819e-01	 2.809561215733775e+00
0	 5.714353270854532e-01	 4.285754036348007e-01	 6.106501787899842e+00
0	 5.714353270854529e-01	 5.714353270854530e-01	 9.045217890697552e+00
0	 5.714353270854530e-01	 7.142957838731496e-01	 1.160622448508837e+01
0	 5.714353270854532e-01	 8.571566573284020e-01	 1.377003424911823e+01
0	 5.714353270854530e-01	 1.000017830781720e+00	 1.551715757804577e+01
0	 5.714353270854532e-01	 1.142879187563616e+00	 1.682810258444276e+01
0	 5.714353270854529e-01	 1.285740611004601e+00	 1.768337509826637e+01
0	 5.714353270854529e-01	 1.428601984435185e+00	 1.806347866690372e+01
0	 7.142957838731496e-01	 0.000000000000000e+00	-4.787352755339644e+00
0	 7.142957838731498e-01	 1.428576234225853e-01	-5.814273444416800e-01
0	 7.142957838731496e-01	 2.857161301906819e-01	 3.250355925601375e+00
0	 7.142957838731497e-01	 4.285754036348007e-01	 6.686074252432618e+00
0	 7.142957838731496e-01	 5.714353270854529e-01	 9.703802182034449e+00
0	 7.142957838731497e-01	 7.142957838731497e-01	 1.228161160893437e+01
0	 7.142957838731497e-01	 8.571566573284020e-01	 1.439757177637831e+01
0	 7.142957838731496e-01	 1.000017830781720e+00	 1.602974927647144e+01
0	 7.142957838731496e-01	 1.142879187563616e+00	 1.715620805028655e+01
0	 7.142957838731497e-01	 1.285740611004601e+00	 1.775500938793990e+01
0	 7.142957838731497e-01	 1.428601984435185e+00	 1.780421192863470e+01
0	 8.571566573284017e-01	 0.000000000000000e+00	-4.297240235429146e+00
0	 8.571566573284018e-01	 1.428576234225853e-01	-2.748646825086531e-02
0	 8.571566573284014e-01	 2.857161301906818e-01	 3.835154697369290e+00
0	 8.571566573284018e-01	 4.285754036348008e-01	 7.268105118533275e+00
0	 8.571566573284018e-01	 5.714353270854531e-01	 1.024878380868316e+01
0	 8.571566573284018e-01	 7.142957838731497e-01	 1.275460693781641e+01
0	 8.571566573284016e-01	 8.571566573284015e-01	 1.476298783266635e+01
0	 8.571566573284016e-01	 1.000017830781720e+00	 1.625133697684773e+01
0	 8.571566573284016e-01	 1.142879187563616e+00	 1.719706201096757e+01
0	 8.571566573284015e-01	 1.285740611004601e+00	 1.757756773270103e+01
0	 8.571566573284016e-01	 1.428601984435186e+00	 1.737025609683266e+01
0	 1.000017830781720e+00	 0.000000000000000e+00	-3.442476684852701e+00
0	 1.000017830781720e+00	 1.428576234225853e-01	 7.482796092282906e-01
0	 1.000017830781720e+00	 2.857161301906819e-01	 4.514928975982113e+00
0	 1.000017830781720e+00	 4.285754036348007e-01	 7.836025102890853e+00
0	 1.000017830781720e+00	 5.714353270854530e-01	 1.069011878910093e+01
0	 1.000017830781720e+00	 7.142957838731496e-01	 1.305575794563786e+01
0	 1.000017830781720e+00	 8.571566573284017e-01	 1.491148759558567e+01
0	 1.000017830781720e+00	 1.000017830781720e+00	 1.623584987423089e+01
0	 1.000017830781720e+00	 1.142879187563616e+00	 1.700738402917125e+01
0	 1.000017830781720e+00	 1.285740611004601e+00	 1.720462642038887e+01
0	 1.000017830781720e+00	 1.428601984435185e+00	 1.680611052028818e+01
0	 1.142879187563616e+00	 0.000000000000000e+00	-2.354812084534647e+00
0	 1.142879187563616e+00	 1.428576234225853e-01	 1.658448856277790e+00
0	 1.142879187563616e+00	 2.857161301906820e-01	 5.240650305376500e+00
0	 1.142879187563616e+00	 4.285754036348008e-01	 8.373265142122809e+00
0	 1.142879187563616e+00	 5.714353270854530e-01	 1.103776343110797e+01
0	 1.142879187563616e+00	 7.142957838731495e-01	 1.321561242235950e+01
0	 1.142879187563616e+00	 8.571566573284016e-01	 1.488827655151312e+01
0	 1.142879187563616e+00	 1.000017830781720e+00	 1.603721743995021e+01
0	 1.142879187563616e+00	 1.142879187563616e+00	 1.664389389490072e+01
0	 1.142879187563616e+00	 1.285740611004601e+00	 1.668976190951165e+01
0	 1.142879187563616e+00	 1.428601984435185e+00	 1.615627466288107e+01
0	 1.285740611004601e+00	 0.000000000000000e+00	-1.165996747832680e+00
0	 1.285740611004601e+00	 1.428576234225853e-01	 2.615599158968009e+00
0	 1.285740611004601e+00	 2.857161301906819e-01	 5.963290328474935e+00
0	 1.285740611004601e+00	 4.285754036348007e-01	 8.863256392767227e+00
0	 1.285740611004601e+00	 5.714353270854530e-01	 1.130167433187885e+01
0	 1.285740611004601e+00	 7.142957838731497e-01	 1.326471847399077e+01
0	 1.285740611004601e+00	 8.571566573284016e-01	 1.473856049559071e+01
0	 1.285740611004601e+00	 1.000017830781720e+00	 1.570936942160032e+01
0	 1.285740611004601e+00	 1.142879187563616e+00	 1.616331162547002e+01
0	 1.285740611004601e+00	 1.285740611004601e+00	 1.608655082924114e+01
0	 1.285740611004601e+00	 1.428601984435186e+00	 1.546524810357580e+01
0	 1.428601984435185e+00	 0.000000000000000e+00	-7.781320542244341e-03
0	 1.428601984435185e+00	 1.428576234225853e-01	 3.532308321152889e+00
0	 1.428601984435185e+00	 2.857161301906819e-01	 6.633820787180686e+00
0	 1.428601984435185e+00	 4.285754036348007e-01	 9.289430231277668e+00
0	 1.428601984435185e+00	 5.714353270854530e-01	 1.149180837793742e+01
0	 1.428601984435185e+00	 7.142957838731498e-01	 1.323362452258485e+01
0	 1.428601984435185e+00	 8.571566573284015e-01	 1.450754553172079e+01
0	 1.428601984435185e+00	 1.000017830781720e+00	 1.530623584303679e+01
0	 1.428601984435185e+00	 1.142879187563616e+00	 1.562235746550009e+01
0	 1.428601984435185e+00	 1.285740611004601e+00	 1.544856997940899e+01
0	 1.428601984435185e+00	 1.428601984435185e+00	 1.477753053641833e+01
0	 0.000000000000000e+00	 1.428601984435185e+00	 1.646367173733589e+01
0	 0.000000000000000e+00	 1.571453213328422e+00	 1.895450565360190e+01
0	 0.000000000000000e+00	 1.714304292230859e+00	 2.086270639326415e+01
0	 0.000000000000000e+00	 1.857155237808251e+00	 2.219174966736782e+01
0	 0.000000000000000e+00	 2.000006066726355e+00	 2.294511159584417e+01
0	 0.000000000000000e+00	 2.142856795650925e+00	 2.312626870751481e+01
0	 0.000000000000000e+00	 2.285707441247718e+00	 2.273869794009515e+01
0	 0.000000000000000e+00	 2.428558020182488e+00	 2.178587664019711e+01
0	 0.000000000000000e+00	 2.571408549120992e+00	 2.027128256333117e+01
0	 0.000000000000000e+00	 2.714259044728984e+00	 1.819839387390775e+01
0	 0.000000000000000e+00	 2.857109523672222e+00	 1.557068914523766e+01
0	 1.428576234225853e-01	 1.428601984435185e+00	 1.734815255908098e+01
0	 1.428576234225853e-01	 1.571453213328422e+00	 1.904226688257024e+01
0	 1.428576234225853e-01	 1.714304292230859e+00	 2.028388324102761e+01
0	 1.428576234225853e-01	 1.857155237808252e+00	 2.107685295051414e+01
0	 1.428576234225853e-01	 2.000006066726355e+00	 2.142502763834068e+01
0	 1.428576234225852e-01	 2.142856795650925e+00	 2.133225924307093e+01
0	 1.428576234225852e-01	 2.285707441247718e+00	 2.080240001452391e+01
0	 1.428576234225853e-01	 2.428558020182487e+00	 1.983930251377611e+01
0	 1.428576234225853e-01	 2.571408549120992e+00	 1.844681961316277e+01
0	 1.428576234225852e-01	 2.714259044728985e+00	 1.662880449627895e+01
0	 1.428576234225852e-01	 2.857109523672222e+00	 1.438911065797973e+01
0	 2.857161301906818e-01	 1.428601984435185e+00	 1.787994804316391e+01
0	 2.857161301906819e-01	 1.571453213328422e+00	 1.890994463204764e+01
0	 2.857161301906819e-01	 1.714304292230859e+00	 1.960016798581013e+01
0	 2.857161301906819e-01	 1.857155237808251e+00	 1.995468378485964e+01
0	 2.857161301906818e-01	 2.000006066726355e+00	 1.997755793669608e+01
0	 2.857161301906819e-01	 2.142856795650925e+00	 1.967285657591326e+01
0	 2.857161301906819e-01	 2.285707441247718e+00	 1.904464606420062e+01
0	 2.857161301906818e-01	 2.428558020182487e+00	 1.809699299034459e+01
0	 2.857161301906819e-01	 2.571408549120991e+00	 1.683396417022951e+01
0	 2.857161301906819e-01	 2.714259044728984e+00	 1.525962664683826e+01
0	 2.857161301906819e-01	 2.857109523672222e+00	 1.337804769025234e+01
0	 4.285754036348007e-01	 1.428601984435185e+00	 1.810355707794438e+01
0	 4.285754036348008e-01	 1.571453213328422e+00	 1.859062293090610e+01
0	 4.285754036348006e-01	 1.714304292230859e+00	 1.883448555373824e+01
0	 4.285754036348008e-01	 1.857155237808252e+00	 1.883926376113462e+01
0	 4.285754036348006e-01	 2.000006066726355e+00	 1.860907652332206e+01
0	 4.285754036348006e-01	 2.142856795650925e+00	 1.814804296606172e+01
0	 4.285754036348008e-01	 2.285707441247718e+00	 1.746028237065022e+01
0	 4.285754036348007e-01	 2.428558020182488e+00	 1.654991417392047e+01
0	 4.285754036348007e-01	 2.571408549120991e+00	 1.542105796824215e+01
0	 4.285754036348007e-01	 2.714259044728984e+00	 1.407783350152211e+01
0	 4.285754036348007e-01	 2.857109523672222e+00	 1.252436067720427e+01
0	 5.714353270854529e-01	 1.428601984435185e+00	 1.806347866690372e+01
0	 5.714353270854529e-01	 1.571453213328422e+00	 1.811738587579090e+01
0	 5.714353270854529e-01	 1.714304292230859e+00	 1.800976090040420e+01
0	 5.714353270854529e-01	 1.857155237808251e+00	 1.774461446947916e+01
0	 5.714353270854530e-01	 2.000006066726355e+00	 1.732595740744576e+01
0	 5.714353270854530e-01	 2.142856795650926e+00	 1.675780063442932e+01
0	 5.714353270854529e-01	 2.285707441247718e+00	 1.604415516625089e+01
0	 5.714353270854531e-01	 2.428558020182488e+00	 1.518903211442775e+01
0	 5.714353270854529e-01	 2.571408549120991e+00	 1.419644268617361e+01
0	 5.714353270854530e-01	 2.714259044728984e+00	 1.307039818439856e+01
0	 5.714353270854531e-01	 2.857109523672222e+00	 1.181491000770911e+01
0	 7.142957838731497e-01	 1.428601984435185e+00	 1.780421192863470e+01
0	 7.142957838731496e-01	 1.571453213328422e+00	 1.752331763111365e+01
0	 7.142957838731497e-01	 1.714304292230859e+00	 1.714891901086210e+01
0	 7.142957838731497e-01	 1.857155237808251e+00	 1.668475749944128e+01
0	 7.142957838731495e-01	 2.000006066726355e+00	 1.613457457510971e+01
0	 7.142957838731497e-01	 2.142856795650925e+00	 1.550211176282345e+01
0	 7.142957838731496e-01	 2.285707441247718e+00	 1.479111063423619e+01
0	 7.142957838731498e-01	 2.428558020182488e+00	 1.400531280769930e+01
0	 7.142957838731497e-01	 2.571408549120993e+00	 1.314845994826174e+01
0	 7.142957838731496e-01	 2.714259044728984e+00	 1.222429376766999e+01
0	 7.142957838731497e-01	 2.857109523672223e+00	 1.123655602436783e+01
0	 8.571566573284016e-01	 1.428601984435186e+00	 1.737025609683266e+01
0	 8.571566573284018e-01	 1.571453213328422e+00	 1.684150242904634e+01
0	 8.571566573284013e-01	 1.714304292230859e+00	 1.627488489962401e+01
0	 8.571566573284015e-01	 1.857155237808251e+00	 1.567371443997511e+01
0	 8.571566573284017e-01	 2.000006066726355e+00	 1.504130198917137e+01
0	 8.571566573284016e-01	 2.142856795650925e+00	 1.438095849394666e+01
0	 8.571566573284014e-01	 2.285707441247718e+00	 1.369599490869667e+01
0	 8.571566573284016e-01	 2.428558020182488e+00	 1.298972219547878e+01
0	 8.571566573284018e-01	 2.571408549120991e+00	 1.226545132401177e+01
0	 8.571566573284018e-01	 2.714259044728983e+00	 1.152649327167553e+01
0	 8.571566573284016e-01	 2.857109523672222e+00	 1.077615902351089e+01
0	 1.000017830781720e+00	 1.428601984435185e+00	 1.680611052028818e+01
0	 1.000017830781720e+00	 1.571453213328422e+00	 1.610502456951598e+01
0	 1.000017830781720e+00	 1.714304292230858e+00	 1.541058361065656e+01
0	 1.000017830781720e+00	 1.857155237808251e+00	 1.472550687943893e+01
0	 1.000017830781720e+00	 2.000006066726355e+00	 1.405251358930254e+01
0	 1.000017830781720e+00	 2.142856795650925e+00	 1.339432293139681e+01
0	 1.000017830781720e+00	 2.285707441247718e+00	 1.275365407458067e+01
0	 1.000017830781720e+00	 2.428558020182488e+00	 1.213322616542210e+01
0	 1.000017830781720e+00	 2.571408549120993e+00	 1.153575832819776e+01
0	 1.000017830781720e+00	 2.714259044728984e+00	 1.096396966489263e+01
0	 1.000017830781720e+00	 2.857109523672222e+00	 1.042057925519970e+01
0	 1.142879187563616e+00	 1.428601984435185e+00	 1.615627466288107e+01
0	 1.142879187563616e+00	 1.571453213328422e+00	 1.534696842020033e+01
0	 1.142879187563616e+00	 1.714304292230859e+00	 1.457894021737799e+01
0	 1.142879187563616e+00	 1.857155237808251e+00	 1.385415640559331e+01
0	 1.142879187563616e+00	 2.000006066726355e+00	 1.317458329198826e+01
0	 1.142879187563616e+00	 2.142856795650926e+00	 1.254218713966694e+01
0	 1.142879187563617e+00	 2.285707441247718e+00	 1.195893416769478e+01
0	 1.142879187563616e+00	 2.428558020182489e+00	 1.142679055109812e+01
0	 1.142879187563616e+00	 2.571408549120992e+00	 1.094772242086367e+01
0	 1.142879187563616e+00	 2.714259044728984e+00	 1.052369586393806e+01
0	 1.142879187563616e+00	 2.857109523672222e+00	 1.015667692322759e+01
0	 1.285740611004601e+00	 1.428601984435186e+00	 1.546524810357580e+01
0	 1.285740611004601e+00	 1.571453213328422e+00	 1.460041841652425e+01
0	 1.285740611004601e+00	 1.714304292230859e+00	 1.380287982265542e+01
0	 1.285740611004601e+00	 1.857155237808252e+00	 1.307368460559923e+01
0	 1.285740611004601e+00	 2.000006066726355e+00	 1.241388499052577e+01
0	 1.285740611004601e+00	 2.142856795650926e+00	 1.182453314414452e+01
0	 1.285740611004601e+00	 2.285707441247718e+00	 1.130668117470349e+01
0	 1.285740611004601e+00	 2.428558020182488e+00	 1.086138113198867e+01
0	 1.285740611004601e+00	 2.571408549120992e+00	 1.048968500732348e+01
0	 1.285740611004601e+00	 2.714259044728984e+00	 1.019264473356828e+01
0	 1.285740611004601e+00	 2.857109523672222e+00	 9.971312185120118e+00
0	 1.428601984435185e+00	 1.428601984435185e+00	 1.477753053641833e+01
0	 1.428601984435185e+00	 1.571453213328422e+00	 1.389845906165704e+01
0	 1.428601984435185e+00	 1.714304292230859e+00	 1.310532755880252e+01
0	 1.428601984435185e+00	 1.857155237808251e+00	 1.239811306601611e+01
0	 1.428601984435185e+00	 2.000006066726356e+00	 1.177679255502278e+01
0	 1.428601984435185e+00	 2.142856795650925e+00	 1.124134293111030e+01
0	 1.428601984435185e+00	 2.285707441247717e+00	 1.079174103312837e+01
0	 1.428601984435185e+00	 2.428558020182488e+00	 1.042796363348798e+01
0	 1.428601984435185e+00	 2.571408549120992e+00	 1.014998743816091e+01
0	 1.428601984435185e+00	 2.714259044728984e+00	 9.957789086679199e+00
0	 1.428601984435186e+00	 2.857109523672222e+00	 9.851345152134895e+00
0	 0.000000000000000e+00	 2.857109523672222e+00	 1.557068914523766e+01
0	 0.000000000000000e+00	 2.999969994316576e+00	 1.288518796853296e+01
0	 0.000000000000000e+00	 3.142830431628385e+00	 1.063242626597687e+01
0	 0.000000000000000e+00	 3.285690802274106e+00	 8.805547980474117e+00
0	 0.000000000000000e+00	 3.428551072920193e+00	 7.397697624408697e+00
0	 0.000000000000000e+00	 3.571411210233102e+00	 6.402020279644092e+00
0	 0.000000000000000e+00	 3.714271180879290e+00	 5.811661597525451e+00
0	 0.000000000000000e+00	 3.857130951525210e+00	 5.619767798883890e+00
0	 0.000000000000000e+00	 3.999990488837320e+00	 5.819485674042617e+00
0	 0.000000000000000e+00	 4.142849759482075e+00	 6.403962582825203e+00
0	 0.000000000000000e+00	 4.285708730125926e+00	 7.366346454565705e+00
0	 1.428576234225852e-01	 2.857109523672222e+00	 1.438911065797972e+01
0	 1.428576234225853e-01	 2.999969994316577e+00	 1.212485775810947e+01
0	 1.428576234225853e-01	 3.142830431628385e+00	 1.022726160473236e+01
0	 1.428576234225852e-01	 3.285690802274106e+00	 8.690806143141856e+00
0	 1.428576234225853e-01	 3.428551072920194e+00	 7.509975802087570e+00
0	 1.428576234225853e-01	 3.571411210233103e+00	 6.679255493775406e+00
0	 1.428576234225853e-01	 3.714271180879289e+00	 6.193130613869553e+00
0	 1.428576234225853e-01	 3.857130951525211e+00	 6.046087041496064e+00
0	 1.428576234225852e-01	 3.999990488837319e+00	 6.232611139248146e+00
0	 1.428576234225853e-01	 4.142849759482075e+00	 6.747189753193233e+00
0	 1.428576234225852e-01	 4.285708730125926e+00	 7.584310212881578e+00
0	 2.857161301906819e-01	 2.857109523672222e+00	 1.337804769025234e+01
0	 2.857161301906819e-01	 2.999969994316575e+00	 1.149827276060778e+01
0	 2.857161301906819e-01	 3.142830431628385e+00	 9.924063790290770e+00
0	 2.857161301906819e-01	 3.285690802274106e+00	 8.651136102531314e+00
0	 2.857161301906819e-01	 3.428551072920194e+00	 7.675205424580410e+00
0	 2.857161301906819e-01	 3.571411210233102e+00	 6.991987887710256e+00
0	 2.857161301906818e-01	 3.714271180879289e+00	 6.597200027215834e+00
0	 2.857161301906819e-01	 3.857130951525211e+00	 6.486558782418043e+00
0	 2.857161301906819e-01	 3.999990488837321e+00	 6.655781496668079e+00
0	 2.857161301906818e-01	 4.142849759482075e+00	 7.100585917353358e+00
0	 2.857161301906819e-01	 4.285708730125925e+00	 7.816690195904791e+00
0	 4.285754036348007e-01	 2.857109523672222e+00	 1.252436067720427e+01
0	 4.285754036348007e-01	 2.999969994316576e+00	 1.099283678996329e+01
0	 4.285754036348007e-01	 3.142830431628386e+00	 9.710836366424347e+00
0	 4.285754036348006e-01	 3.285690802274104e+00	 8.675197488678936e+00
0	 4.285754036348007e-01	 3.428551072920193e+00	 7.882758570071265e+00
0	 4.285754036348008e-01	 3.571411210233103e+00	 7.330358355198516e+00
0	 4.285754036348006e-01	 3.714271180879290e+00	 7.014835919912152e+00
0	 4.285754036348008e-01	 3.857130951525211e+00	 6.933030671320504e+00
0	 4.285754036348007e-01	 3.999990488837320e+00	 7.081782347792386e+00
0	 4.285754036348008e-01	 4.142849759482075e+00	 7.457931018961995e+00
0	 4.285754036348006e-01	 4.285708730125925e+00	 8.058317085734855e+00
0	 5.714353270854531e-01	 2.857109523672222e+00	 1.181491000770911e+01
0	 5.714353270854530e-01	 2.999969994316577e+00	 1.059595362140709e+01
0	 5.714353270854531e-01	 3.142830431628385e+00	 9.575582847174221e+00
0	 5.714353270854531e-01	 3.285690802274106e+00	 8.751649911733164e+00
0	 5.714353270854531e-01	 3.428551072920194e+00	 8.122007307036938e+00
0	 5.714353270854531e-01	 3.571411210233104e+00	 7.684507790269071e+00
0	 5.714353270854531e-01	 3.714271180879290e+00	 7.437004383844762e+00
0	 5.714353270854530e-01	 3.857130951525211e+00	 7.377350375412876e+00
0	 5.714353270854531e-01	 3.999990488837321e+00	 7.503399317858914e+00
0	 5.714353270854530e-01	 4.142849759482074e+00	 7.813005029308946e+00
0	 5.714353270854529e-01	 4.285708730125925e+00	 8.304021593134358e+00
0	 7.142957838731497e-01	 2.857109523672223e+00	 1.123655602436783e+01
0	 7.142957838731497e-01	 2.999969994316576e+00	 1.029502699146818e+01
0	 7.142957838731496e-01	 3.142830431628385e+00	 9.506306716851903e+00
0	 7.142957838731498e-01	 3.285690802274106e+00	 8.869152961955207e+00
0	 7.142957838731496e-01	 3.428551072920193e+00	 8.382323694247008e+00
0	 7.142957838731497e-01	 3.571411210233103e+00	 8.044577087229047e+00
0	 7.142957838731496e-01	 3.714271180879291e+00	 7.854671520436852e+00
0	 7.142957838731497e-01	 3.857130951525210e+00	 7.811365579441246e+00
0	 7.142957838731495e-01	 3.999990488837320e+00	 7.913418055850702e+00
0	 7.142957838731495e-01	 4.142849759482074e+00	 8.159587947314396e+00
0	 7.142957838731496e-01	 4.285708730125926e+00	 8.548634457525921e+00
0	 8.571566573284016e-01	 2.857109523672222e+00	 1.077615902351088e+01
0	 8.571566573284016e-01	 2.999969994316577e+00	 1.007746059797513e+01
0	 8.571566573284016e-01	 3.142830431628385e+00	 9.491011430040489e+00
0	 8.571566573284013e-01	 3.285690802274105e+00	 9.016366209719598e+00
0	 8.571566573284015e-01	 3.428551072920193e+00	 8.653079780763729e+00
0	 8.571566573284016e-01	 3.571411210233102e+00	 8.400707140663028e+00
0	 8.571566573284016e-01	 3.714271180879289e+00	 8.258803440647137e+00
0	 8.571566573284016e-01	 3.857130951525210e+00	 8.226923985686417e+00
0	 8.571566573284018e-01	 3.999990488837320e+00	 8.304624234493639e+00
0	 8.571566573284016e-01	 4.142849759482073e+00	 8.491459799526305e+00
0	 8.571566573284017e-01	 4.285708730125926e+00	 8.786986446989459e+00
0	 1.000017830781720e+00	 2.857109523672222e+00	 1.042057925519970e+01
0	 1.000017830781720e+00	 2.999969994316575e+00	 9.930658100057228e+00
0	 1.000017830781720e+00	 3.142830431628385e+00	 9.517700411595431e+00
0	 1.000017830781720e+00	 3.285690802274106e+00	 9.181949205514471e+00
0	 1.000017830781720e+00	 3.428551072920193e+00	 8.923647605941806e+00
0	 1.000017830781720e+00	 3.571411210233104e+00	 8.743038845432263e+00
0	 1.000017830781720e+00	 3.714271180879289e+00	 8.640366264968568e+00
0	 1.000017830781720e+00	 3.857130951525210e+00	 8.615873313962133e+00
0	 1.000017830781720e+00	 3.999990488837319e+00	 8.669803550254326e+00
0	 1.000017830781720e+00	 4.142849759482075e+00	 8.802400640118073e+00
0	 1.000017830781720e+00	 4.285708730125927e+00	 9.013908358259851e+00
0	 1.142879187563616e+00	 2.857109523672222e+00	 1.015667692322759e+01
0	 1.142879187563616e+00	 2.999969994316576e+00	 9.842023118145299e+00
0	 1.142879187563616e+00	 3.142830431628385e+00	 9.574377056644943e+00
0	 1.142879187563617e+00	 3.285690802274106e+00	 9.354561479941690e+00
0	 1.142879187563616e+00	 3.428551072920193e+00	 9.183399199428054e+00
0	 1.142879187563616e+00	 3.571411210233102e+00	 9.061713096673984e+00
0	 1.142879187563616e+00	 3.714271180879289e+00	 8.990326123427183e+00
0	 1.142879187563616e+00	 3.857130951525209e+00	 8.970061301613612e+00
0	 1.142879187563616e+00	 3.999990488837320e+00	 9.001741723338345e+00
0	 1.142879187563616e+00	 4.142849759482074e+00	 9.086190550886567e+00
0	 1.142879187563616e+00	 4.285708730125926e+00	 9.224231016724914e+00
0	 1.285740611004601e+00	 2.857109523672222e+00	 9.971312185120116e+00
0	 1.285740611004601e+00	 2.999969994316575e+00	 9.798959233971905e+00
0	 1.285740611004601e+00	 3.142830431628385e+00	 9.649044730590148e+00
0	 1.285740611004601e+00	 3.285690802274106e+00	 9.522862543716622e+00
0	 1.285740611004601e+00	 3.428551072920193e+00	 9.421706581160933e+00
0	 1.285740611004601e+00	 3.571411210233102e+00	 9.346870789800569e+00
0	 1.285740611004601e+00	 3.714271180879289e+00	 9.299649155581029e+00
0	 1.285740611004601e+00	 3.857130951525210e+00	 9.281335703516193e+00
0	 1.285740611004601e+00	 3.999990488837320e+00	 9.293224497688682e+00
0	 1.285740611004601e+00	 4.142849759482074e+00	 9.336609641250519e+00
0	 1.285740611004601e+00	 4.285708730125926e+00	 9.412785276423788e+00
0	 1.428601984435186e+00	 2.857109523672222e+00	 9.851345152134893e+00
0	 1.428601984435185e+00	 2.999969994316576e+00	 9.788869990571133e+00
0	 1.428601984435185e+00	 3.142830431628385e+00	 9.729706769104700e+00
0	 1.428601984435185e+00	 3.285690802274106e+00	 9.675511887667714e+00
0	 1.428601984435185e+00	 3.428551072920192e+00	 9.627941761369961e+00
0	 1.428601984435185e+00	 3.571411210233103e+00	 9.588652820498801e+00
0	 1.428601984435185e+00	 3.714271180879290e+00	 9.559301510519301e+00
0	 1.428601984435185e+00	 3.857130951525209e+00	 9.541544292074297e+00
0	 1.428601984435185e+00	 3.999990488837321e+00	 9.537037640984602e+00
0	 1.428601984435185e+00	 4.142849759482075e+00	 9.547438048249218e+00
0	 1.428601984435185e+00	 4.285708730125926e+00	 9.574402020045572e+00
0	 0.000000000000000e+00	 4.285708730125926e+00	 7.366346454565705e+00
0	 0.000000000000000e+00	 4.428567384102075e+00	 8.420252362440266e+00
0	 0.000000000000000e+00	 4.571425771410668e+00	 9.288369698356753e+00
0	 0.000000000000000e+00	 4.714283958718593e+00	 9.977458626188954e+00
0	 0.000000000000000e+00	 4.857142012692742e+00	 1.049427974889017e+01
0	 0.000000000000000e+00	 5.000000000000002e+00	 1.084559410850330e+01
0	 0.000000000000000e+00	 5.142857987307262e+00	 1.103816318616793e+01
0	 0.000000000000000e+00	 5.285716041281409e+00	 1.107874890212429e+01
0	 0.000000000000000e+00	 5.428574228589335e+00	 1.097411361571427e+01
0	 0.000000000000000e+00	 5.571432615897928e+00	 1.073102012537912e+01
0	 0.000000000000000e+00	 5.714291269874075e+00	 1.035623166865431e+01
0	 1.428576234225852e-01	 4.285708730125926e+00	 7.584310212881578e+00
0	 1.428576234225853e-01	 4.428567384102072e+00	 8.500259839121989e+00
0	 1.428576234225853e-01	 4.571425771410667e+00	 9.258552900647921e+00
0	 1.428576234225853e-01	 4.714283958718593e+00	 9.864517794320561e+00
0	 1.428576234225852e-01	 4.857142012692741e+00	 1.032348329408384e+01
0	 1.428576234225853e-01	 5.000000000000004e+00	 1.064077855097322e+01
0	 1.428576234225852e-01	 5.142857987307259e+00	 1.082173309312192e+01
0	 1.428576234225853e-01	 5.285716041281411e+00	 1.087167682576428e+01
0	 1.428576234225853e-01	 5.428574228589334e+00	 1.079594003123664e+01
0	 1.428576234225853e-01	 5.571432615897930e+00	 1.059985336897559e+01
0	 1.428576234225852e-01	 5.714291269874074e+00	 1.028874787551353e+01
0	 2.857161301906819e-01	 4.285708730125925e+00	 7.816690195904791e+00
0	 2.857161301906819e-01	 4.428567384102075e+00	 8.600002121388703e+00
0	 2.857161301906820e-01	 4.571425771410668e+00	 9.251972244314404e+00
0	 2.857161301906819e-01	 4.714283958718593e+00	 9.776633400274466e+00
0	 2.857161301906819e-01	 4.857142012692741e+00	 1.017801874348148e+01
0	 2.857161301906819e-01	 5.000000000000000e+00	 1.046016174677542e+01
0	 2.857161301906819e-01	 5.142857987307260e+00	 1.062709620162903e+01
0	 2.857161301906818e-01	 5.285716041281408e+00	 1.068285621815063e+01
0	 2.857161301906819e-01	 5.428574228589334e+00	 1.063147622508502e+01
0	 2.857161301906819e-01	 5.571432615897928e+00	 1.047699096981200e+01
0	 2.857161301906818e-01	 5.714291269874074e+00	 1.022343551834260e+01
0	 4.285754036348006e-01	 4.285708730125925e+00	 8.058317085734855e+00
0	 4.285754036348007e-01	 4.428567384102075e+00	 8.715339703449027e+00
0	 4.285754036348007e-01	 4.571425771410666e+00	 9.265419777718773e+00
0	 4.285754036348006e-01	 4.714283958718593e+00	 9.711430781291760e+00
0	 4.285754036348006e-01	 4.857142012692742e+00	 1.005624645088185e+01
0	 4.285754036348006e-01	 5.000000000000003e+00	 1.030274078717546e+01
0	 4.285754036348006e-01	 5.142857987307258e+00	 1.045378805483580e+01
0	 4.285754036348007e-01	 5.285716041281407e+00	 1.051226278250550e+01
0	 4.285754036348008e-01	 5.428574228589334e+00	 1.048103976280721e+01
0	 4.285754036348008e-01	 5.571432615897929e+00	 1.036299405234252e+01
0	 4.285754036348007e-01	 5.714291269874075e+00	 1.016100097168882e+01
0	 5.714353270854529e-01	 4.285708730125925e+00	 8.304021593134358e+00
0	 5.714353270854529e-01	 4.428567384102074e+00	 8.842133106016220e+00
0	 5.714353270854532e-01	 4.571425771410667e+00	 9.295687570849424e+00
0	 5.714353270854532e-01	 4.714283958718593e+00	 9.666535289307440e+00
0	 5.714353270854529e-01	 4.857142012692742e+00	 9.956526776460469e+00
0	 5.714353270854531e-01	 5.000000000000000e+00	 1.016751276078059e+01
0	 5.714353270854531e-01	 5.142857987307261e+00	 1.030134418414528e+01
0	 5.714353270854530e-01	 5.285716041281410e+00	 1.035987220183953e+01
0	 5.714353270854530e-01	 5.428574228589335e+00	 1.034494818255640e+01
0	 5.714353270854530e-01	 5.571432615897927e+00	 1.025842370839610e+01
0	 5.714353270854530e-01	 5.714291269874074e+00	 1.010215057486361e+01
0	 7.142957838731496e-01	 4.285708730125926e+00	 8.548634457525921e+00
0	 7.142957838731495e-01	 4.428567384102072e+00	 8.976242876305360e+00
0	 7.142957838731498e-01	 4.571425771410668e+00	 9.339567715318074e+00
0	 7.142957838731498e-01	 4.714283958718593e+00	 9.639572290948644e+00
0	 7.142957838731498e-01	 4.857142012692742e+00	 9.877220086768421e+00
0	 7.142957838731498e-01	 5.000000000000001e+00	 1.005347475353947e+01
0	 7.142957838731497e-01	 5.142857987307260e+00	 1.016930010921741e+01
0	 7.142957838731496e-01	 5.285716041281409e+00	 1.022566013895309e+01
0	 7.142957838731495e-01	 5.428574228589335e+00	 1.022351899509304e+01
0	 7.142957838731496e-01	 5.571432615897927e+00	 1.016384099717883e+01
0	 7.142957838731495e-01	 5.714291269874074e+00	 1.004759063194515e+01
0	 8.571566573284017e-01	 4.285708730125926e+00	 8.786986446989459e+00
0	 8.571566573284016e-01	 4.428567384102075e+00	 9.113529588030811e+00
0	 8.571566573284014e-01	 4.571425771410667e+00	 9.393852324357592e+00
0	 8.571566573284017e-01	 4.714283958718594e+00	 9.628167167532981e+00
0	 8.571566573284016e-01	 4.857142012692740e+00	 9.816686754731448e+00
0	 8.571566573284018e-01	 5.000000000000003e+00	 9.959623848741828e+00
0	 8.571566573284016e-01	 5.142857987307260e+00	 1.005719133796940e+01
0	 8.571566573284016e-01	 5.285716041281410e+00	 1.010960223643721e+01
0	 8.571566573284017e-01	 5.428574228589333e+00	 1.011706968378642e+01
0	 8.571566573284017e-01	 5.571432615897929e+00	 1.007980694527584e+01
0	 8.571566573284017e-01	 5.714291269874074e+00	 9.998027411780546e+00
0	 1.000017830781720e+00	 4.285708730125927e+00	 9.013908358259851e+00
0	 1.000017830781720e+00	 4.428567384102074e+00	 9.249853841403995e+00
0	 1.000017830781720e+00	 4.571425771410668e+00	 9.455333532820173e+00
0	 1.000017830781720e+00	 4.714283958718593e+00	 9.629945315067040e+00
0	 1.000017830781720e+00	 4.857142012692742e+00	 9.773287159648941e+00
0	 1.000017830781720e+00	 5.000000000000001e+00	 9.884957127018069e+00
0	 1.000017830781720e+00	 5.142857987307261e+00	 9.964553366575938e+00
0	 1.000017830781720e+00	 5.285716041281408e+00	 1.001167411667441e+01
0	 1.000017830781720e+00	 5.428574228589335e+00	 1.002591770461587e+01
0	 1.000017830781720e+00	 5.571432615897927e+00	 1.000688254665296e+01
0	 1.000017830781720e+00	 5.714291269874074e+00	 9.954167147987615e+00
0	 1.142879187563616e+00	 4.285708730125926e+00	 9.224231016724914e+00
0	 1.142879187563616e+00	 4.428567384102075e+00	 9.381076263131522e+00
0	 1.142879187563616e+00	 4.571425771410667e+00	 9.520803497175619e+00
0	 1.142879187563616e+00	 4.714283958718593e+00	 9.642532144245141e+00
0	 1.142879187563616e+00	 4.857142012692742e+00	 9.745381687193087e+00
0	 1.142879187563616e+00	 5.000000000000002e+00	 9.828471666338828e+00
0	 1.142879187563616e+00	 5.142857987307260e+00	 9.890921679469209e+00
0	 1.142879187563616e+00	 5.285716041281408e+00	 9.931851381839085e+00
0	 1.142879187563616e+00	 5.428574228589337e+00	 9.950380486171555e+00
0	 1.142879187563616e+00	 5.571432615897928e+00	 9.945628762657735e+00
0	 1.142879187563616e+00	 5.714291269874075e+00	 9.916716038956151e+00
0	 1.285740611004601e+00	 4.285708730125926e+00	 9.412785276423788e+00
0	 1.285740611004600e+00	 4.428567384102075e+00	 9.503057506413612e+00
0	 1.285740611004601e+00	 4.571425771410668e+00	 9.587054395509996e+00
0	 1.285740611004601e+00	 4.714283958718593e+00	 9.663553080448210e+00
0	 1.285740611004601e+00	 4.857142012692742e+00	 9.731330729408054e+00
0	 1.285740611004601e+00	 5.000000000000001e+00	 9.789164542014600e+00
0	 1.285740611004601e+00	 5.142857987307260e+00	 9.835831749338819e+00
0	 1.285740611004601e+00	 5.285716041281409e+00	 9.870109613897837e+00
0	 1.285740611004601e+00	 5.428574228589335e+00	 9.890775429655104e+00
0	 1.285740611004601e+00	 5.571432615897926e+00	 9.896606522020283e+00
0	 1.285740611004601e+00	 5.714291269874075e+00	 9.886380247848880e+00
0	 1.428601984435185e+00	 4.285708730125926e+00	 9.574402020045572e+00
0	 1.428601984435185e+00	 4.428567384102075e+00	 9.611658250942872e+00
0	 1.428601984435185e+00	 4.571425771410667e+00	 9.650878427524566e+00
0	 1.428601984435185e+00	 4.714283958718593e+00	 9.690633563742850e+00
0	 1.428601984435186e+00	 4.857142012692743e+00	 9.729494684709334e+00
0	 1.428601984435185e+00	 5.000000000000001e+00	 9.766032826695227e+00
0	 1.428601984435185e+00	 5.142857987307260e+00	 9.798819037131569e+00
0	 1.428601984435185e+00	 5.285716041281408e+00	 9.826424374609399e+00
0	 1.428601984435185e+00	 5.428574228589335e+00	 9.847419908879736e+00
0	 1.428601984435185e+00	 5.571432615897926e+00	 9.860376720853600e+00
0	 1.428601984435185e+00	 5.714291269874074e+00	 9.863865902601830e+00
0	 0.000000000000000e+00	 5.714291269874075e+00	 1.035623166865431e+01
0	 0.000000000000000e+00	 5.857150240517928e+00	 9.962708615230056e+00
0	 0.000000000000000e+00	 6.000009511162681e+00	 9.655293294037785e+00
0	 0.000000000000000e+00	 6.142869048474791e+00	 9.428572273407998e+00
0	 0.000000000000000e+00	 6.285728819120711e+00	 9.277132205159194e+00
0	 0.000000000000000e+00	 6.428588789766900e+00	 9.195559824595961e+00
0	 0.000000000000000e+00	 6.571448927079809e+00	 9.178441950507382e+00
0	 0.000000000000000e+00	 6.714309197725897e+00	 9.220365485165777e+00
0	 0.000000000000000e+00	 6.857169568371615e+00	 9.315917414325614e+00
0	 0.000000000000000e+00	 7.000030005683427e+00	 9.459684807222875e+00
0	 0.000000000000000e+00	 7.142890476327777e+00	 9.646254816574562e+00
0	 1.428576234225852e-01	 5.714291269874074e+00	 1.028874787551353e+01
0	 1.428576234225853e-01	 5.857150240517929e+00	 9.958624764608951e+00
0	 1.428576234225853e-01	 6.000009511162682e+00	 9.699134204125992e+00
0	 1.428576234225853e-01	 6.142869048474793e+00	 9.506080996905405e+00
0	 1.428576234225853e-01	 6.285728819120714e+00	 9.375270015562624e+00
0	 1.428576234225853e-01	 6.428588789766901e+00	 9.302506202486239e+00
0	 1.428576234225853e-01	 6.571448927079808e+00	 9.283594569836659e+00
0	 1.428576234225852e-01	 6.714309197725895e+00	 9.314340199544983e+00
0	 1.428576234225853e-01	 6.857169568371615e+00	 9.390548243312214e+00
0	 1.428576234225853e-01	 7.000030005683427e+00	 9.508023922608567e+00
0	 1.428576234225852e-01	 7.142890476327777e+00	 9.662572528673268e+00
0	 2.857161301906818e-01	 5.714291269874074e+00	 1.022343551834260e+01
0	 2.857161301906818e-01	 5.857150240517930e+00	 9.951088988076460e+00
0	 2.857161301906818e-01	 6.000009511162683e+00	 9.735473624582092e+00
0	 2.857161301906819e-01	 6.142869048474791e+00	 9.573489468218254e+00
0	 2.857161301906819e-01	 6.285728819120713e+00	 9.462036616841470e+00
0	 2.857161301906818e-01	 6.428588789766899e+00	 9.398015225804802e+00
0	 2.857161301906818e-01	 6.571448927079807e+00	 9.378325507956724e+00
0	 2.857161301906819e-01	 6.714309197725895e+00	 9.399867733640194e+00
0	 2.857161301906820e-01	 6.857169568371617e+00	 9.459542230692035e+00
0	 2.857161301906819e-01	 7.000030005683426e+00	 9.554249384442357e+00
0	 2.857161301906819e-01	 7.142890476327779e+00	 9.680889637714358e+00
0	 4.285754036348007e-01	 5.714291269874075e+00	 1.016100097168882e+01
0	 4.285754036348007e-01	 5.857150240517929e+00	 9.940883806618116e+00
0	 4.285754036348008e-01	 6.000009511162681e+00	 9.765130331204137e+00
0	 4.285754036348006e-01	 6.142869048474791e+00	 9.631612831407915e+00
0	 4.285754036348007e-01	 6.285728819120711e+00	 9.538203639791897e+00
0	 4.285754036348007e-01	 6.428588789766899e+00	 9.482775135518901e+00
0	 4.285754036348006e-01	 6.571448927079808e+00	 9.463199744351314e+00
0	 4.285754036348007e-01	 6.714309197725895e+00	 9.477349938650281e+00
0	 4.285754036348007e-01	 6.857169568371616e+00	 9.523098237375159e+00
0	 4.285754036348006e-01	 7.000030005683423e+00	 9.598317206083141e+00
0	 4.285754036348008e-01	 7.142890476327779e+00	 9.700879456929023e+00
0	 5.714353270854530e-01	 5.714291269874074e+00	 1.010215057486361e+01
0	 5.714353270854529e-01	 5.857150240517927e+00	 9.928791706448809e+00
0	 5.714353270854531e-01	 6.000009511162681e+00	 9.788923068169613e+00
0	 5.714353270854531e-01	 6.142869048474793e+00	 9.681266204147368e+00
0	 5.714353270854531e-01	 6.285728819120712e+00	 9.604542695533206e+00
0	 5.714353270854532e-01	 6.428588789766903e+00	 9.557474160507262e+00
0	 5.714353270854532e-01	 6.571448927079811e+00	 9.538782254277931e+00
0	 5.714353270854529e-01	 6.714309197725896e+00	 9.547188669081327e+00
0	 5.714353270854531e-01	 6.857169568371616e+00	 9.581415134180837e+00
0	 5.714353270854532e-01	 7.000030005683427e+00	 9.640183415866776e+00
0	 5.714353270854531e-01	 7.142890476327779e+00	 9.722215317456277e+00
0	 7.142957838731495e-01	 5.714291269874074e+00	 1.004759063194515e+01
0	 7.142957838731497e-01	 5.857150240517927e+00	 9.915595139015405e+00
0	 7.142957838731496e-01	 6.000009511162681e+00	 9.807670548037816e+00
0	 7.142957838731495e-01	 6.142869048474790e+00	 9.723264677723197e+00
0	 7.142957838731497e-01	 6.285728819120714e+00	 9.661825375509462e+00
0	 7.142957838731496e-01	 6.428588789766899e+00	 9.622800517560968e+00
0	 7.142957838731497e-01	 6.571448927079811e+00	 9.605638008767988e+00
0	 7.142957838731497e-01	 6.714309197725897e+00	 9.609785782746259e+00
0	 7.142957838731497e-01	 6.857169568371618e+00	 9.634691801836627e+00
0	 7.142957838731496e-01	 7.000030005683424e+00	 9.679804057104873e+00
0	 7.142957838731497e-01	 7.142890476327777e+00	 9.744570568341503e+00
0	 8.571566573284017e-01	 5.714291269874074e+00	 9.998027411780546e+00
0	 8.571566573284016e-01	 5.857150240517929e+00	 9.902076520998950e+00
0	 8.571566573284014e-01	 6.000009511162680e+00	 9.822191451751870e+00
0	 8.571566573284015e-01	 6.142869048474793e+00	 9.758423317037280e+00
0	 8.571566573284015e-01	 6.285728819120711e+00	 9.710823251490591e+00
0	 8.571566573284017e-01	 6.428588789766899e+00	 9.679442411384215e+00
0	 8.571566573284016e-01	 6.571448927079809e+00	 9.664331974627103e+00
0	 8.571566573284018e-01	 6.714309197725896e+00	 9.665543140764509e+00
0	 8.571566573284020e-01	 6.857169568371617e+00	 9.683127130977645e+00
0	 8.571566573284017e-01	 7.000030005683426e+00	 9.717135188083580e+00
0	 8.571566573284018e-01	 7.142890476327779e+00	 9.767618576535092e+00
0	 1.000017830781720e+00	 5.714291269874074e+00	 9.954167147987615e+00
0	 1.000017830781720e+00	 5.857150240517928e+00	 9.889018234316413e+00
0	 1.000017830781720e+00	 6.000009511162681e+00	 9.833304428640380e+00
0	 1.000017830781720e+00	 6.142869048474791e+00	 9.787557160608158e+00
0	 1.000017830781720e+00	 6.285728819120713e+00	 9.752307875573475e+00
0	 1.000017830781720e+00	 6.428588789766899e+00	 9.728088034594851e+00
0	 1.000017830781720e+00	 6.571448927079808e+00	 9.715429114435233e+00
0	 1.000017830781720e+00	 6.714309197725897e+00	 9.714862607561837e+00
0	 1.000017830781720e+00	 6.857169568371615e+00	 9.726920022145926e+00
0	 1.000017830781720e+00	 7.000030005683426e+00	 9.752132882062735e+00
0	 1.000017830781720e+00	 7.142890476327778e+00	 9.791032726891373e+00
0	 1.142879187563616e+00	 5.714291269874075e+00	 9.916716038956151e+00
0	 1.142879187563616e+00	 5.857150240517926e+00	 9.877202626122060e+00
0	 1.142879187563616e+00	 6.000009511162683e+00	 9.841828096418627e+00
0	 1.142879187563616e+00	 6.142869048474791e+00	 9.811481220572036e+00
0	 1.142879187563616e+00	 6.285728819120711e+00	 9.787050780182682e+00
0	 1.142879187563616e+00	 6.428588789766899e+00	 9.769425567724880e+00
0	 1.142879187563616e+00	 6.571448927079809e+00	 9.759494386546756e+00
0	 1.142879187563616e+00	 6.714309197725895e+00	 9.758146050870025e+00
0	 1.142879187563616e+00	 6.857169568371615e+00	 9.766269385789933e+00
0	 1.142879187563617e+00	 7.000030005683427e+00	 9.784753227275143e+00
0	 1.142879187563616e+00	 7.142890476327779e+00	 9.814486422167718e+00
0	 1.285740611004601e+00	 5.714291269874075e+00	 9.886380247848880e+00
0	 1.285740611004601e+00	 5.857150240517927e+00	 9.867412008808351e+00
0	 1.285740611004601e+00	 6.000009511162682e+00	 9.848581041189464e+00
0	 1.285740611004601e+00	 6.142869048474791e+00	 9.831010482683574e+00
0	 1.285740611004601e+00	 6.285728819120712e+00	 9.815823478070991e+00
0	 1.285740611004601e+00	 6.428588789766900e+00	 9.804143179220736e+00
0	 1.285740611004601e+00	 6.571448927079807e+00	 9.797092745090572e+00
0	 1.285740611004601e+00	 6.714309197725897e+00	 9.795795341726771e+00
0	 1.285740611004600e+00	 6.857169568371615e+00	 9.801374142264144e+00
0	 1.285740611004601e+00	 7.000030005683425e+00	 9.814952326925965e+00
0	 1.285740611004601e+00	 7.142890476327778e+00	 9.837653083023955e+00
0	 1.428601984435185e+00	 5.714291269874074e+00	 9.863865902601830e+00
0	 1.428601984435185e+00	 5.857150240517928e+00	 9.860428660006416e+00
0	 1.428601984435185e+00	 6.000009511162683e+00	 9.854381817443725e+00
0	 1.428601984435185e+00	 6.142869048474793e+00	 9.846959906316183e+00
0	 1.428601984435185e+00	 6.285728819120713e+00	 9.839397462319651e+00
0	 1.428601984435185e+00	 6.428588789766897e+00	 9.832929025443416e+00
0	 1.428601984435185e+00	 6.571448927079810e+00	 9.828789139970066e+00
0	 1.428601984435185e+00	 6.714309197725895e+00	 9.828212354475482e+00
0	 1.428601984435185e+00	 6.857169568371617e+00	 9.832433221828804e+00
0	 1.428601984435185e+00	 7.000030005683426e+00	 9.842686299192390e+00
0	 1.428601984435185e+00	 7.142890476327780e+00	 9.860206148021877e+00
0	 0.000000000000000e+00	 7.142890476327777e+00	 9.646254816574562e+00
0	 0.000000000000000e+00	 7.285740955271013e+00	 9.828892703463337e+00
0	 0.000000000000000e+00	 7.428591450879007e+00	 9.967252296009688e+00
0	 0.000000000000000e+00	 7.571441979817512e+00	 1.006546037962027e+01
0	 0.000000000000000e+00	 7.714292558752281e+00	 1.012764375801906e+01
0	 0.000000000000000e+00	 7.857143204349074e+00	 1.015792925324735e+01
0	 0.000000000000000e+00	 7.999993933273645e+00	 1.016044370566372e+01
0	 0.000000000000000e+00	 8.142844762191748e+00	 1.013931397394400e+01
0	 0.000000000000000e+00	 8.285695707769140e+00	 1.009866693508105e+01
0	 0.000000000000000e+00	 8.428546786671577e+00	 1.004262948438484e+01
0	 0.000000000000000e+00	 8.571398015564816e+00	 9.975328535482063e+00
0	 1.428576234225852e-01	 7.142890476327777e+00	 9.662572528673268e+00
0	 1.428576234225852e-01	 7.285740955271014e+00	 9.815570353891403e+00
0	 1.428576234225853e-01	 7.428591450879004e+00	 9.933306681015182e+00
0	 1.428576234225853e-01	 7.571441979817511e+00	 1.001892029690214e+01
0	 1.428576234225852e-01	 7.714292558752281e+00	 1.007555000342140e+01
0	 1.428576234225852e-01	 7.857143204349070e+00	 1.010633461745359e+01
0	 1.428576234225853e-01	 7.999993933273643e+00	 1.011441297089089e+01
0	 1.428576234225853e-01	 8.142844762191746e+00	 1.010292391063696e+01
0	 1.428576234225852e-01	 8.285695707769138e+00	 1.007500629860682e+01
0	 1.428576234225853e-01	 8.428546786671577e+00	 1.003379901172680e+01
0	 1.428576234225853e-01	 8.571398015564812e+00	 9.982440941934382e+00
0	 2.857161301906819e-01	 7.142890476327779e+00	 9.680889637714358e+00
0	 2.857161301906819e-01	 7.285740955271013e+00	 9.807985749123198e+00
0	 2.857161301906819e-01	 7.428591450879009e+00	 9.907651748643216e+00
0	 2.857161301906818e-01	 7.571441979817513e+00	 9.982145308552372e+00
0	 2.857161301906819e-01	 7.714292558752285e+00	 1.003372411334771e+01
0	 2.857161301906819e-01	 7.857143204349073e+00	 1.006464585974540e+01
0	 2.857161301906819e-01	 7.999993933273643e+00	 1.007716825668071e+01
0	 2.857161301906818e-01	 8.142844762191745e+00	 1.007354902530794e+01
0	 2.857161301906820e-01	 8.285695707769142e+00	 1.005604589900040e+01
0	 2.857161301906819e-01	 8.428546786671575e+00	 1.002691662335030e+01
0	 2.857161301906819e-01	 8.571398015564814e+00	 9.988418956168609e+00
0	 4.285754036348008e-01	 7.142890476327779e+00	 9.700879456929023e+00
0	 4.285754036348007e-01	 7.285740955271015e+00	 9.805543155520553e+00
0	 4.285754036348007e-01	 7.428591450879010e+00	 9.889489829390513e+00
0	 4.285754036348007e-01	 7.571441979817510e+00	 9.954202916231644e+00
0	 4.285754036348007e-01	 7.714292558752281e+00	 1.000116586362976e+01
0	 4.285754036348006e-01	 7.857143204349070e+00	 1.003186212906372e+01
0	 4.285754036348007e-01	 7.999993933273643e+00	 1.004777517990539e+01
0	 4.285754036348007e-01	 8.142844762191748e+00	 1.005038849341968e+01
0	 4.285754036348008e-01	 8.285695707769142e+00	 1.004118555676435e+01
0	 4.285754036348006e-01	 8.428546786671575e+00	 1.002164986699015e+01
0	 4.285754036348007e-01	 8.571398015564812e+00	 9.993264931040502e+00
0	 5.714353270854531e-01	 7.142890476327779e+00	 9.722215317456277e+00
0	 5.714353270854529e-01	 7.285740955271015e+00	 9.807646857732269e+00
0	 5.714353270854529e-01	 7.428591450879008e+00	 9.878023270204309e+00
0	 5.714353270854532e-01	 7.571441979817512e+00	 9.934160634523140e+00
0	 5.714353270854529e-01	 7.714292558752281e+00	 9.976875038325925e+00
0	 5.714353270854530e-01	 7.857143204349073e+00	 1.000698257723615e+01
0	 5.714353270854530e-01	 7.999993933273642e+00	 1.002529935486370e+01
0	 5.714353270854531e-01	 8.142844762191752e+00	 1.003264148280478e+01
0	 5.714353270854530e-01	 8.285695707769142e+00	 1.002982508064187e+01
0	 5.714353270854530e-01	 8.428546786671575e+00	 1.001766627594370e+01
0	 5.714353270854530e-01	 8.571398015564814e+00	 9.996981204265161e+00
0	 7.142957838731497e-01	 7.142890476327777e+00	 9.744570568341503e+00
0	 7.142957838731496e-01	 7.285740955271013e+00	 9.813701158692465e+00
0	 7.142957838731495e-01	 7.428591450879007e+00	 9.872454434480952e+00
0	 7.142957838731496e-01	 7.571441979817509e+00	 9.921085990931402e+00
0	 7.142957838731496e-01	 7.714292558752281e+00	 9.959851429720381e+00
0	 7.142957838731494e-01	 7.857143204349072e+00	 9.989006358976605e+00
0	 7.142957838731497e-01	 7.999993933273645e+00	 1.000880639328088e+01
0	 7.142957838731496e-01	 8.142844762191745e+00	 1.001950715366619e+01
0	 7.142957838731497e-01	 8.285695707769143e+00	 1.002136426761747e+01
0	 7.142957838731496e-01	 8.428546786671578e+00	 1.001463336907180e+01
0	 7.142957838731497e-01	 8.571398015564816e+00	 9.999570098418152e+00
0	 8.571566573284018e-01	 7.142890476327779e+00	 9.767618576535092e+00
0	 8.571566573284016e-01	 7.285740955271014e+00	 9.823110379619290e+00
0	 8.571566573284017e-01	 7.428591450879007e+00	 9.871985702064691e+00
0	 8.571566573284017e-01	 7.571441979817513e+00	 9.914046525881309e+00
0	 8.571566573284017e-01	 7.714292558752281e+00	 9.949094838322500e+00
0	 8.571566573284017e-01	 7.857143204349077e+00	 9.976932631884994e+00
0	 8.571566573284018e-01	 7.999993933273645e+00	 9.997361904308875e+00
0	 8.571566573284017e-01	 8.142844762191748e+00	 1.001018465857758e+01
0	 8.571566573284018e-01	 8.285695707769142e+00	 1.001520290291785e+01
0	 8.571566573284018e-01	 8.428546786671578e+00	 1.001221865079972e+01
0	 8.571566573284014e-01	 8.571398015564812e+00	 1.000103392093644e+01
0	 1.000017830781720e+00	 7.142890476327778e+00	 9.791032726891371e+00
0	 1.000017830781720e+00	 7.285740955271012e+00	 9.835278860013780e+00
0	 1.000017830781720e+00	 7.428591450879007e+00	 9.875819469246638e+00
0	 1.000017830781720e+00	 7.571441979817512e+00	 9.912109792717292e+00
0	 1.000017830781720e+00	 7.714292558752281e+00	 9.943605072866204e+00
0	 1.000017830781720e+00	 7.857143204349074e+00	 9.969760556446957e+00
0	 1.000017830781720e+00	 7.999993933273646e+00	 9.990031494526203e+00
0	 1.000017830781720e+00	 8.142844762191748e+00	 1.000387314248371e+01
0	 1.000017830781720e+00	 8.285695707769140e+00	 1.001074076001230e+01
0	 1.000017830781720e+00	 8.428546786671575e+00	 1.001008961111781e+01
0	 1.000017830781720e+00	 8.571398015564817e+00	 1.000137496411910e+01
0	 1.142879187563616e+00	 7.142890476327779e+00	 9.814486422167716e+00
0	 1.142879187563616e+00	 7.285740955271014e+00	 9.849610957659010e+00
0	 1.142879187563616e+00	 7.428591450879006e+00	 9.883158148763929e+00
0	 1.142879187563616e+00	 7.571441979817512e+00	 9.914343357702581e+00
0	 1.142879187563616e+00	 7.714292558752280e+00	 9.942381950309509e+00
0	 1.142879187563616e+00	 7.857143204349073e+00	 9.966489296033544e+00
0	 1.142879187563616e+00	 7.999993933273644e+00	 9.985880767938017e+00
0	 1.142879187563616e+00	 8.142844762191750e+00	 9.999771742700553e+00
0	 1.142879187563616e+00	 8.285695707769142e+00	 1.000737760061313e+01
0	 1.142879187563616e+00	 8.428546786671575e+00	 1.000791372558205e+01
0	 1.142879187563617e+00	 8.571398015564817e+00	 1.000059550512792e+01
0	 1.285740611004601e+00	 7.142890476327778e+00	 9.837653083023959e+00
0	 1.285740611004601e+00	 7.285740955271014e+00	 9.865511048619389e+00
0	 1.285740611004601e+00	 7.428591450879005e+00	 9.893204169799157e+00
0	 1.285740611004601e+00	 7.571441979817512e+00	 9.919814800018814e+00
0	 1.285740611004601e+00	 7.714292558752281e+00	 9.944425295834129e+00
0	 1.285740611004601e+00	 7.857143204349072e+00	 9.966118016901133e+00
0	 1.285740611004601e+00	 7.999993933273642e+00	 9.983975325976074e+00
0	 1.285740611004601e+00	 8.142844762191746e+00	 9.997079588915444e+00
0	 1.285740611004601e+00	 8.285695707769138e+00	 1.000451317467592e+01
0	 1.285740611004601e+00	 8.428546786671578e+00	 1.000535845531435e+01
0	 1.285740611004601e+00	 8.571398015564816e+00	 9.998697805987787e+00
0	 1.428601984435185e+00	 7.142890476327780e+00	 9.860206148021881e+00
0	 1.428601984435185e+00	 7.285740955271015e+00	 9.882383527240211e+00
0	 1.428601984435185e+00	 7.428591450879006e+00	 9.905159977979928e+00
0	 1.428601984435185e+00	 7.571441979817510e+00	 9.927591711765544e+00
0	 1.428601984435185e+00	 7.714292558752281e+00	 9.948734942845290e+00
0	 1.428601984435185e+00	 7.857143204349073e+00	 9.967645888191115e+00
0	 1.428601984435185e+00	 7.999993933273643e+00	 9.983380767498618e+00
0	 1.428601984435185e+00	 8.142844762191748e+00	 9.994995803187139e+00
0	 1.428601984435185e+00	 8.285695707769142e+00	 1.000154722039964e+01
0	 1.428601984435185e+00	 8.428546786671578e+00	 1.000209124700278e+01
0	 1.428601984435185e+00	 8.571398015564816e+00	 9.995684113586787e+00
0	 0.000000000000000e+00	 8.571398015564816e+00	 9.975328535482067e+00
0	 0.000000000000000e+00	 8.714259388995400e+00	 9.918795712994418e+00
0	 0.000000000000000e+00	 8.857120812436385e+00	 9.889013885288009e+00
0	 0.000000000000000e+00	 8.999982169218280e+00	 9.881021864203936e+00
0	 0.000000000000000e+00	 9.142843342671599e+00	 9.889858523706913e+00
0	 0.000000000000000e+00	 9.285704216126852e+00	 9.910562799884953e+00
0	 0.000000000000000e+00	 9.428564672914549e+00	 9.938173690949903e+00
0	 0.000000000000000e+00	 9.571424596365201e+00	 9.967730257238554e+00
0	 0.000000000000000e+00	 9.714283869809320e+00	 9.994271621214672e+00
0	 0.000000000000000e+00	 9.857142376577416e+00	 1.001283696747168e+01
0	 0.000000000000000e+00	 1.000000000000000e+01	 1.001846554273634e+01
0	 1.428576234225853e-01	 8.571398015564812e+00	 9.982440941934382e+00
0	 1.428576234225852e-01	 8.714259388995403e+00	 9.938407529351153e+00
0	 1.428576234225852e-01	 8.857120812436385e+00	 9.914655243799844e+00
0	 1.428576234225852e-01	 8.999982169218283e+00	 9.907532936044211e+00
0	 1.428576234225852e-01	 9.142843342671597e+00	 9.913389503382827e+00
0	 1.428576234225853e-01	 9.285704216126856e+00	 9.928573889648844e+00
0	 1.428576234225852e-01	 9.428564672914549e+00	 9.949435085210242e+00
0	 1.428576234225853e-01	 9.571424596365203e+00	 9.972322126970791e+00
0	 1.428576234225853e-01	 9.714283869809318e+00	 9.993584098371359e+00
0	 1.428576234225853e-01	 9.857142376577418e+00	 1.000957012939196e+01
0	 1.428576234225853e-01	 1.000000000000000e+01	 1.001662939655445e+01
0	 2.857161301906819e-01	 8.571398015564814e+00	 9.988418956168610e+00
0	 2.857161301906819e-01	 8.714259388995401e+00	 9.954275475744392e+00
0	 2.857161301906819e-01	 8.857120812436387e+00	 9.935046953309914e+00
0	 2.857161301906819e-01	 8.999982169218281e+00	 9.928239560614953e+00
0	 2.857161301906819e-01	 9.142843342671597e+00	 9.931359504012960e+00
0	 2.857161301906818e-01	 9.285704216126851e+00	 9.941913024460767e+00
0	 2.857161301906819e-01	 9.428564672914549e+00	 9.957406397518717e+00
0	 2.857161301906818e-01	 9.571424596365203e+00	 9.975345933351401e+00
0	 2.857161301906819e-01	 9.714283869809321e+00	 9.993237976728516e+00
0	 2.857161301906818e-01	 9.857142376577416e+00	 1.000858890702651e+01
0	 2.857161301906819e-01	 1.000000000000000e+01	 1.001890513823031e+01
0	 4.285754036348007e-01	 8.571398015564812e+00	 9.993264931040502e+00
0	 4.285754036348007e-01	 8.714259388995398e+00	 9.966723904035383e+00
0	 4.285754036348008e-01	 8.857120812436383e+00	 9.950742630132556e+00
0	 4.285754036348007e-01	 8.999982169218280e+00	 9.943831890157982e+00
0	 4.285754036348008e-01	 9.142843342671599e+00	 9.944502490813262e+00
0	 4.285754036348007e-01	 9.285704216126847e+00	 9.951265264675470e+00
0	 4.285754036348006e-01	 9.428564672914554e+00	 9.962631070197224e+00
0	 4.285754036348007e-01	 9.571424596365203e+00	 9.977110791707123e+00
0	 4.285754036348007e-01	 9.714283869809323e+00	 9.993215339410485e+00
0	 4.285754036348008e-01	 9.857142376577420e+00	 1.000945564939043e+01
0	 4.285754036348007e-01	 9.999999999999998e+00	 1.002434268360933e+01
0	 5.714353270854530e-01	 8.571398015564814e+00	 9.996981204265161e+00
0	 5.714353270854530e-01	 8.714259388995398e+00	 9.976077152528536e+00
0	 5.714353270854531e-01	 8.857120812436383e+00	 9.962295880359857e+00
0	 5.714353270854531e-01	 8.999982169218283e+00	 9.955000071029662e+00
0	 5.714353270854532e-01	 9.142843342671600e+00	 9.953552427705041e+00
0	 5.714353270854529e-01	 9.285704216126854e+00	 9.957315673449511e+00
0	 5.714353270854531e-01	 9.428564672914549e+00	 9.965652551223100e+00
0	 5.714353270854530e-01	 9.571424596365203e+00	 9.977925823882613e+00
0	 5.714353270854531e-01	 9.714283869809321e+00	 9.993498274182343e+00
0	 5.714353270854531e-01	 9.857142376577418e+00	 1.001173270477459e+01
0	 5.714353270854531e-01	 1.000000000000000e+01	 1.003199193821118e+01
0	 7.142957838731497e-01	 8.571398015564816e+00	 9.999570098418154e+00
0	 7.142957838731496e-01	 8.714259388995398e+00	 9.982659545972394e+00
0	 7.142957838731495e-01	 8.857120812436383e+00	 9.970260299862336e+00
0	 7.142957838731496e-01	 8.999982169218281e+00	 9.962434243701413e+00
0	 7.142957838731497e-01	 9.142843342671599e+00	 9.959243277315139e+00
0	 7.142957838731496e-01	 9.285704216126852e+00	 9.960749316741040e+00
0	 7.142957838731498e-01	 9.428564672914550e+00	 9.967014294228665e+00
0	 7.142957838731495e-01	 9.571424596365199e+00	 9.978100158239910e+00
0	 7.142957838731497e-01	 9.714283869809321e+00	 9.994068873449441e+00
0	 7.142957838731498e-01	 9.857142376577418e+00	 1.001498242074538e+01
0	 7.142957838731496e-01	 1.000000000000000e+01	 1.004090279723016e+01
0	 8.571566573284014e-01	 8.571398015564812e+00	 1.000103392093644e+01
0	 8.571566573284017e-01	 8.714259388995398e+00	 9.986795395560510e+00
0	 8.571566573284015e-01	 8.857120812436383e+00	 9.975189474289559e+00
0	 8.571566573284015e-01	 8.999982169218280e+00	 9.966824542759941e+00
0	 8.571566573284016e-01	 9.142843342671599e+00	 9.962309000975923e+00
0	 8.571566573284016e-01	 9.285704216126854e+00	 9.962251263309572e+00
0	 8.571566573284015e-01	 9.428564672914550e+00	 9.967259758500822e+00
0	 8.571566573284016e-01	 9.571424596365201e+00	 9.977942929657768e+00
0	 8.571566573284015e-01	 9.714283869809321e+00	 9.994909234257076e+00
0	 8.571566573284017e-01	 9.857142376577416e+00	 1.001876714414449e+01
0	 8.571566573284017e-01	 1.000000000000000e+01	 1.005012514553590e+01
0	 1.000017830781720e+00	 8.571398015564817e+00	 1.000137496411910e+01
0	 1.000017830781720e+00	 8.714259388995403e+00	 9.988808998932113e+00
0	 1.000017830781720e+00	 8.857120812436385e+00	 9.977636979070695e+00
0	 1.000017830781720e+00	 8.999982169218280e+00	 9.968861096907624e+00
0	 1.000017830781720e+00	 9.142843342671599e+00	 9.963483558725352e+00
0	 1.000017830781720e+00	 9.285704216126852e+00	 9.962506584715831e+00
0	 1.000017830781720e+00	 9.428564672914550e+00	 9.966932408980673e+00
0	 1.000017830781720e+00	 9.571424596365203e+00	 9.977763279531400e+00
0	 1.000017830781720e+00	 9.714283869809321e+00	 9.996001458289950e+00
0	 1.000017830781720e+00	 9.857142376577416e+00	 1.002264922108920e+01
0	 1.000017830781720e+00	 1.000000000000000e+01	 1.005870885767384e+01
0	 1.142879187563617e+00	 8.571398015564817e+00	 1.000059550512792e+01
0	 1.142879187563616e+00	 8.714259388995400e+00	 9.989024640172582e+00
0	 1.142879187563616e+00	 8.857120812436383e+00	 9.978156379414832e+00
0	 1.142879187563616e+00	 8.999982169218283e+00	 9.969234028962681e+00
0	 1.142879187563616e+00	 9.142843342671597e+00	 9.963500909307008e+00
0	 1.142879187563616e+00	 9.285704216126851e+00	 9.962200355321597e+00
0	 1.142879187563616e+00	 9.428564672914549e+00	 9.966575716263282e+00
0	 1.142879187563616e+00	 9.571424596365199e+00	 9.977870355772160e+00
0	 1.142879187563616e+00	 9.714283869809321e+00	 9.997327651872233e+00
0	 1.142879187563616e+00	 9.857142376577420e+00	 1.002619099697195e+01
0	 1.142879187563616e+00	 1.000000000000000e+01	 1.006570379786515e+01
0	 1.285740611004601e+00	 8.571398015564816e+00	 9.998697805987787e+00
0	 1.285740611004601e+00	 8.714259388995401e+00	 9.987766589813855e+00
0	 1.285740611004601e+00	 8.857120812436383e+00	 9.977301230311376e+00
0	 1.285740611004601e+00	 8.999982169218281e+00	 9.968633455859290e+00
0	 1.285740611004601e+00	 9.142843342671600e+00	 9.963095010170049e+00
0	 1.285740611004601e+00	 9.285704216126851e+00	 9.962017652289568e+00
0	 1.285740611004601e+00	 9.428564672914547e+00	 9.966733156597446e+00
0	 1.285740611004601e+00	 9.571424596365203e+00	 9.978573312807208e+00
0	 1.285740611004601e+00	 9.714283869809321e+00	 9.998869925967112e+00
0	 1.285740611004601e+00	 9.857142376577418e+00	 1.002895481646054e+01
0	 1.285740611004601e+00	 1.000000000000000e+01	 1.007015982000727e+01
0	 1.428601984435185e+00	 8.571398015564816e+00	 9.995684113586787e+00
0	 1.428601984435185e+00	 8.714259388995398e+00	 9.985359104834499e+00
0	 1.428601984435185e+00	 8.857120812436385e+00	 9.975625076529946e+00
0	 1.428601984435185e+00	 8.999982169218278e+00	 9.967749488647696e+00
0	 1.428601984435185e+00	 9.142843342671600e+00	 9.962999817469283e+00
0	 1.428601984435185e+00	 9.285704216126854e+00	 9.962643555583302e+00
0	 1.428601984435185e+00	 9.428564672914549e+00	 9.967948211885554e+00
0	 1.428601984435185e+00	 9.571424596365199e+00	 9.980181311579500e+00
0	 1.428601984435185e+00	 9.714283869809321e+00	 1.000061039617669e+01
0	 1.428601984435185e+00	 9.857142376577416e+00	 1.003050302349786e+01
0	 1.428601984435185e+00	 1.000000000000000e+01	 1.007112676767364e+01
0	 1.428601984435185e+00	 0.000000000000000e+00	-7.781320542243897e-03
0	 1.428601984435185e+00	 1.428576234225853e-01	 3.532308321152889e+00
0	 1.428601984435185e+00	 2.857161301906819e-01	 6.633820787180687e+00
0	 1.428601984435185e+00	 4.285754036348007e-01	 9.289430231277667e+00
0	 1.428601984435185e+00	 5.714353270854530e-01	 1.149180837793742e+01
0	 1.428601984435185e+00	 7.142957838731498e-01	 1.323362452258485e+01
0	 1.428601984435185e+00	 8.571566573284015e-01	 1.450754553172079e+01
0	 1.428601984435185e+00	 1.000017830781720e+00	 1.530623584303679e+01
0	 1.428601984435185e+00	 1.142879187563616e+00	 1.562235746550009e+01
0	 1.428601984435185e+00	 1.285740611004601e+00	 1.544856997940899e+01
0	 1.428601984435185e+00	 1.428601984435185e+00	 1.477753053641832e+01
0	 1.571453213328422e+00	 0.000000000000000e+00	 1.093587056341530e+00
0	 1.571453213328422e+00	 1.428576234225853e-01	 4.378347736184956e+00
0	 1.571453213328422e+00	 2.857161301906819e-01	 7.224057562984251e+00
0	 1.571453213328422e+00	 4.285754036348008e-01	 9.630236366103574e+00
0	 1.571453213328422e+00	 5.714353270854531e-01	 1.159640180284746e+01
0	 1.571453213328422e+00	 7.142957838731496e-01	 1.312206935861530e+01
0	 1.571453213328422e+00	 8.571566573284016e-01	 1.420675234702930e+01
0	 1.571453213328422e+00	 1.000017830781720e+00	 1.484996191003584e+01
0	 1.571453213328422e+00	 1.142879187563616e+00	 1.505120701798013e+01
0	 1.571453213328422e+00	 1.285740611004601e+00	 1.480999446965438e+01
0	 1.571453213328422e+00	 1.428601984435185e+00	 1.412582889231932e+01
0	 1.714304292230859e+00	 0.000000000000000e+00	 2.194427503270865e+00
0	 1.714304292230859e+00	 1.428576234225852e-01	 5.182550841585973e+00
0	 1.714304292230859e+00	 2.857161301906819e-01	 7.744152652912865e+00
0	 1.714304292230859e+00	 4.285754036348007e-01	 9.884513901027169e+00
0	 1.714304292230859e+00	 5.714353270854531e-01	 1.160891365716692e+01
0	 1.714304292230859e+00	 7.142957838731497e-01	 1.292262910016619e+01
0	 1.714304292230859e+00	 8.571566573284017e-01	 1.383093551656566e+01
0	 1.714304292230858e+00	 1.000017830781720e+00	 1.433910630069997e+01
0	 1.714304292230859e+00	 1.142879187563616e+00	 1.445241295476179e+01
0	 1.714304292230859e+00	 1.285740611004601e+00	 1.417612508884288e+01
0	 1.714304292230859e+00	 1.428601984435186e+00	 1.351551042095186e+01
0	 1.857155237808251e+00	 0.000000000000000e+00	 3.286607678619621e+00
0	 1.857155237808251e+00	 1.428576234225853e-01	 5.945906270568562e+00
0	 1.857155237808251e+00	 2.857161301906819e-01	 8.202450118639771e+00
0	 1.857155237808251e+00	 4.285754036348007e-01	 1.006619682317077e+01
0	 1.857155237808251e+00	 5.714353270854530e-01	 1.154710238517004e+01
0	 1.857155237808251e+00	 7.142957838731497e-01	 1.265512120642930e+01
0	 1.857155237808252e+00	 8.571566573284018e-01	 1.340020608961633e+01
0	 1.857155237808252e+00	 1.000017830781720e+00	 1.379230823834802e+01
0	 1.857155237808251e+00	 1.142879187563616e+00	 1.384137725724399e+01
0	 1.857155237808252e+00	 1.285740611004601e+00	 1.355736115196050e+01
0	 1.857155237808251e+00	 1.428601984435185e+00	 1.295020632920492e+01
0	 2.000006066726355e+00	 0.000000000000000e+00	 4.361995169297183e+00
0	 2.000006066726355e+00	 1.428576234225853e-01	 6.669402608576913e+00
0	 2.000006066726355e+00	 2.857161301906818e-01	 8.607293991854929e+00
0	 2.000006066726355e+00	 4.285754036348007e-01	 1.018921910230677e+01
0	 2.000006066726355e+00	 5.714353270854530e-01	 1.142872642202182e+01
0	 2.000006066726355e+00	 7.142957838731495e-01	 1.233936313209428e+01
0	 2.000006066726355e+00	 8.571566573284018e-01	 1.293467511269818e+01
0	 2.000006066726355e+00	 1.000017830781720e+00	 1.322820694314644e+01
0	 2.000006066726355e+00	 1.142879187563616e+00	 1.323350190193408e+01
0	 2.000006066726356e+00	 1.285740611004601e+00	 1.296410196676536e+01
0	 2.000006066726355e+00	 1.428601984435186e+00	 1.243354781456510e+01
0	 2.142856795650925e+00	 0.000000000000000e+00	 5.412457490747716e+00
0	 2.142856795650926e+00	 1.428576234225853e-01	 7.354028393286319e+00
0	 2.142856795650925e+00	 2.857161301906819e-01	 8.967028274264758e+00
0	 2.142856795650925e+00	 4.285754036348007e-01	 1.026751469085754e+01
0	 2.142856795650925e+00	 5.714353270854529e-01	 1.127154419377803e+01
0	 2.142856795650925e+00	 7.142957838731496e-01	 1.199517232734861e+01
0	 2.142856795650925e+00	 8.571566573284015e-01	 1.245445362955853e+01
0	 2.142856795650925e+00	 1.000017830781720e+00	 1.266544163210929e+01
0	 2.142856795650926e+00	 1.142879187563616e+00	 1.264418886044788e+01
0	 2.142856795650927e+00	 1.285740611004601e+00	 1.240674683378759e+01
0	 2.142856795650926e+00	 1.428601984435185e+00	 1.196916606511651e+01
0	 2.285707441247718e+00	 0.000000000000000e+00	 6.429862086949591e+00
0	 2.285707441247718e+00	 1.428576234225853e-01	 8.000772114602775e+00
0	 2.285707441247719e+00	 2.857161301906819e-01	 9.289996937591898e+00
0	 2.285707441247718e+00	 4.285754036348008e-01	 1.031501752389527e+01
0	 2.285707441247718e+00	 5.714353270854529e-01	 1.109331411738507e+01
0	 2.285707441247717e+00	 7.142957838731495e-01	 1.164236623787765e+01
0	 2.285707441247718e+00	 8.571566573284017e-01	 1.197965268117517e+01
0	 2.285707441247718e+00	 1.000017830781720e+00	 1.212265151909821e+01
0	 2.285707441247718e+00	 1.142879187563616e+00	 1.208884009950962e+01
0	 2.285707441247717e+00	 1.285740611004601e+00	 1.189569504632938e+01
0	 2.285707441247718e+00	 1.428601984435185e+00	 1.156069225954074e+01
0	 2.428558020182488e+00	 0.000000000000000e+00	 7.406076330414838e+00
0	 2.428558020182488e+00	 1.428576234225853e-01	 8.610622214662653e+00
0	 2.428558020182488e+00	 2.857161301906818e-01	 9.584543923575001e+00
0	 2.428558020182488e+00	 4.285754036348008e-01	 1.034566151914194e+01
0	 2.428558020182489e+00	 5.714353270854529e-01	 1.091179460068002e+01
0	 2.428558020182488e+00	 7.142957838731497e-01	 1.130076230486456e+01
0	 2.428558020182489e+00	 8.571566573284017e-01	 1.153038330575632e+01
0	 2.428558020182489e+00	 1.000017830781720e+00	 1.161847581482247e+01
0	 2.428558020182488e+00	 1.142879187563616e+00	 1.158285758095189e+01
0	 2.428558020182488e+00	 1.285740611004601e+00	 1.144134589046479e+01
0	 2.428558020182489e+00	 1.428601984435185e+00	 1.121175756711677e+01
0	 2.571408549120992e+00	 0.000000000000000e+00	 8.332967522188824e+00
0	 2.571408549120992e+00	 1.428576234225853e-01	 9.184567087832495e+00
0	 2.571408549120992e+00	 2.857161301906819e-01	 9.859013143968667e+00
0	 2.571408549120991e+00	 4.285754036348006e-01	 1.037338057696920e+01
0	 2.571408549120992e+00	 5.714353270854530e-01	 1.074474404239060e+01
0	 2.571408549120993e+00	 7.142957838731497e-01	 1.099017796499041e+01
0	 2.571408549120992e+00	 8.571566573284017e-01	 1.112675653874072e+01
0	 2.571408549120992e+00	 1.000017830781720e+00	 1.117155372683896e+01
0	 2.571408549120992e+00	 1.142879187563616e+00	 1.114164326171573e+01
0	 2.571408549120992e+00	 1.285740611004601e+00	 1.105409864503991e+01
0	 2.571408549120992e+00	 1.428601984435185e+00	 1.092599314772094e+01
0	 2.714259044728984e+00	 0.000000000000000e+00	 9.202402891849999e+00
0	 2.714259044728984e+00	 1.428576234225853e-01	 9.723595080708863e+00
0	 2.714259044728984e+00	 2.857161301906819e-01	 1.012174848054332e+01
0	 2.714259044728985e+00	 4.285754036348008e-01	 1.041210858039838e+01
0	 2.714259044728984e+00	 5.714353270854529e-01	 1.060992083213519e+01
0	 2.714259044728984e+00	 7.142957838731496e-01	 1.073043065043413e+01
0	 2.714259044728984e+00	 8.571566573284018e-01	 1.078888341279758e+01
0	 2.714259044728985e+00	 1.000017830781720e+00	 1.080052445955217e+01
0	 2.714259044728984e+00	 1.142879187563616e+00	 1.078059909385055e+01
0	 2.714259044728985e+00	 1.285740611004601e+00	 1.074435258167271e+01
0	 2.714259044728984e+00	 1.428601984435185e+00	 1.070703015182694e+01
0	 2.857109523672222e+00	 0.000000000000000e+00	 1.000624959750979e+01
0	 2.857109523672222e+00	 1.428576234225852e-01	 1.022869449211828e+01
0	 2.857109523672222e+00	 2.857161301906819e-01	 1.038109378508521e+01
0	 2.857109523672222e+00	 4.285754036348007e-01	 1.047577939510051e+01
0	 2.857109523672222e+00	 5.714353270854530e-01	 1.052508335042280e+01
0	 2.857109523672223e+00	 7.142957838731496e-01	 1.054133778887255e+01
0	 2.857109523672222e+00	 8.571566573284017e-01	 1.053687495782665e+01
0	 2.857109523672222e+00	 1.000017830781720e+00	 1.052402721421430e+01
0	 2.857109523672222e+00	 1.142879187563616e+00	 1.051512702451418e+01
0	 2.857109523672222e+00	 1.285740611004601e+00	 1.052250696475308e+01
0	 2.857109523672221e+00	 1.428601984435185e+00	 1.055849972050578e+01
0	 1.428601984435185e+00	 1.428601984435185e+00	 1.477753053641832e+01
0	 1.428601984435185e+00	 1.571453213328422e+00	 1.389845906165704e+01
0	 1.428601984435185e+00	 1.714304292230859e+00	 1.310532755880252e+01
0	 1.428601984435185e+00	 1.857155237808251e+00	 1.239811306601612e+01
0	 1.428601984435185e+00	 2.000006066726356e+00	 1.177679255502278e+01
0	 1.428601984435185e+00	 2.142856795650925e+00	 1.124134293111030e+01
0	 1.428601984435185e+00	 2.285707441247717e+00	 1.079174103312836e+01
0	 1.428601984435185e+00	 2.428558020182488e+00	 1.042796363348798e+01
0	 1.428601984435185e+00	 2.571408549120992e+00	 1.014998743816091e+01
0	 1.428601984435185e+00	 2.714259044728984e+00	 9.957789086679199e+00
0	 1.428601984435186e+00	 2.857109523672222e+00	 9.851345152134895e+00
0	 1.571453213328422e+00	 1.428601984435185e+00	 1.412582889231932e+01
0	 1.571453213328422e+00	 1.571453213328422e+00	 1.326894271396605e+01
0	 1.571453213328422e+00	 1.714304292230858e+00	 1.250904843641734e+01
0	 1.571453213328422e+00	 1.857155237808251e+00	 1.184505933322361e+01
0	 1.571453213328422e+00	 2.000006066726356e+00	 1.127588860908934e+01
0	 1.571453213328421e+00	 2.142856795650926e+00	 1.080044939987223e+01
0	 1.571453213328422e+00	 2.285707441247719e+00	 1.041765477258234e+01
0	 1.571453213328422e+00	 2.428558020182489e+00	 1.012641772538148e+01
0	 1.571453213328422e+00	 2.571408549120992e+00	 9.925651187582664e+00
0	 1.571453213328422e+00	 2.714259044728984e+00	 9.814268019649671e+00
0	 1.571453213328422e+00	 2.857109523672223e+00	 9.791181013196729e+00
0	 1.714304292230859e+00	 1.428601984435186e+00	 1.351551042095186e+01
0	 1.714304292230859e+00	 1.571453213328422e+00	 1.271531111922022e+01
0	 1.714304292230858e+00	 1.714304292230858e+00	 1.201532837047379e+01
0	 1.714304292230859e+00	 1.857155237808251e+00	 1.141359566295290e+01
0	 1.714304292230859e+00	 2.000006066726355e+00	 1.090814641832921e+01
0	 1.714304292230859e+00	 2.142856795650926e+00	 1.049701399170500e+01
0	 1.714304292230859e+00	 2.285707441247718e+00	 1.017823167161229e+01
0	 1.714304292230858e+00	 2.428558020182488e+00	 9.949832680012335e+00
0	 1.714304292230859e+00	 2.571408549120993e+00	 9.809850172295032e+00
0	 1.714304292230858e+00	 2.714259044728984e+00	 9.756317237278612e+00
0	 1.714304292230859e+00	 2.857109523672222e+00	 9.787266897209296e+00
0	 1.857155237808251e+00	 1.428601984435185e+00	 1.295020632920492e+01
0	 1.857155237808251e+00	 1.571453213328422e+00	 1.223417331511480e+01
0	 1.857155237808251e+00	 1.714304292230859e+00	 1.161501049850144e+01
0	 1.857155237808251e+00	 1.857155237808251e+00	 1.109005556820654e+01
0	 1.857155237808251e+00	 2.000006066726356e+00	 1.065664615258803e+01
0	 1.857155237808251e+00	 2.142856795650925e+00	 1.031211981951934e+01
0	 1.857155237808251e+00	 2.285707441247719e+00	 1.005381407638868e+01
0	 1.857155237808252e+00	 2.428558020182488e+00	 9.879066370098553e+00
0	 1.857155237808251e+00	 2.571408549120991e+00	 9.785214087065265e+00
0	 1.857155237808251e+00	 2.714259044728984e+00	 9.769594553218583e+00
0	 1.857155237808251e+00	 2.857109523672222e+00	 9.829545034001510e+00
0	 2.000006066726355e+00	 1.428601984435186e+00	 1.243354781456510e+01
0	 2.000006066726356e+00	 1.571453213328422e+00	 1.182213832854127e+01
0	 2.000006066726355e+00	 1.714304292230859e+00	 1.129893794661665e+01
0	 2.000006066726355e+00	 1.857155237808252e+00	 1.086077255062774e+01
0	 2.000006066726356e+00	 2.000006066726356e+00	 1.050446797094033e+01
0	 2.000006066726355e+00	 2.142856795650925e+00	 1.022684998644882e+01
0	 2.000006066726356e+00	 2.285707441247718e+00	 1.002474432457557e+01
0	 2.000006066726355e+00	 2.428558020182488e+00	 9.894976661270597e+00
0	 2.000006066726355e+00	 2.571408549120992e+00	 9.834372621011051e+00
0	 2.000006066726355e+00	 2.714259044728985e+00	 9.839757776801015e+00
0	 2.000006066726355e+00	 2.857109523672223e+00	 9.907957650171255e+00
0	 2.142856795650926e+00	 1.428601984435185e+00	 1.196916606511651e+01
0	 2.142856795650925e+00	 1.571453213328422e+00	 1.147581517558717e+01
0	 2.142856795650927e+00	 1.714304292230859e+00	 1.105795382952243e+01
0	 2.142856795650926e+00	 1.857155237808252e+00	 1.071208010050023e+01
0	 2.142856795650926e+00	 2.000006066726356e+00	 1.043469202168952e+01
0	 2.142856795650925e+00	 2.142856795650925e+00	 1.022228758584977e+01
0	 2.142856795650925e+00	 2.285707441247718e+00	 1.007136474533058e+01
0	 2.142856795650925e+00	 2.428558020182488e+00	 9.978421412071237e+00
0	 2.142856795650926e+00	 2.571408549120991e+00	 9.939955457600460e+00
0	 2.142856795650926e+00	 2.714259044728985e+00	 9.952464713036171e+00
0	 2.142856795650926e+00	 2.857109523672222e+00	 1.001244696908534e+01
0	 2.285707441247718e+00	 1.428601984435185e+00	 1.156069225954074e+01
0	 2.285707441247718e+00	 1.571453213328422e+00	 1.119181286153600e+01
0	 2.285707441247718e+00	 1.714304292230859e+00	 1.088290125050843e+01
0	 2.285707441247718e+00	 1.857155237808251e+00	 1.063031169674818e+01
0	 2.285707441247718e+00	 2.000006066726355e+00	 1.043039844236767e+01
0	 2.285707441247718e+00	 2.142856795650926e+00	 1.027951570130121e+01
0	 2.285707441247717e+00	 2.285707441247718e+00	 1.017401765930475e+01
0	 2.285707441247718e+00	 2.428558020182488e+00	 1.011025847395550e+01
0	 2.285707441247718e+00	 2.571408549120993e+00	 1.008459227465186e+01
0	 2.285707441247718e+00	 2.714259044728984e+00	 1.009337316261311e+01
0	 2.285707441247718e+00	 2.857109523672222e+00	 1.013295521087942e+01
0	 2.428558020182489e+00	 1.428601984435185e+00	 1.121175756711677e+01
0	 2.428558020182489e+00	 1.571453213328422e+00	 1.096674038086725e+01
0	 2.428558020182489e+00	 1.714304292230859e+00	 1.076462330145076e+01
0	 2.428558020182488e+00	 1.857155237808252e+00	 1.060180080693609e+01
0	 2.428558020182488e+00	 2.000006066726355e+00	 1.047466735973552e+01
0	 2.428558020182488e+00	 2.142856795650925e+00	 1.037961740660471e+01
0	 2.428558020182488e+00	 2.285707441247718e+00	 1.031304537864248e+01
0	 2.428558020182488e+00	 2.428558020182488e+00	 1.027134569129064e+01
0	 2.428558020182488e+00	 2.571408549120991e+00	 1.025091274433386e+01
0	 2.428558020182488e+00	 2.714259044728984e+00	 1.024814092189960e+01
0	 2.428558020182489e+00	 2.857109523672223e+00	 1.025942459245802e+01
0	 2.571408549120992e+00	 1.428601984435185e+00	 1.092599314772093e+01
0	 2.571408549120992e+00	 1.571453213328422e+00	 1.079720671725622e+01
0	 2.571408549120992e+00	 1.714304292230859e+00	 1.069396306281202e+01
0	 2.571408549120992e+00	 1.857155237808251e+00	 1.061288088726876e+01
0	 2.571408549120992e+00	 2.000006066726356e+00	 1.055057888978240e+01
0	 2.571408549120993e+00	 2.142856795650926e+00	 1.050367576578438e+01
0	 2.571408549120992e+00	 2.285707441247718e+00	 1.046879020698152e+01
0	 2.571408549120991e+00	 2.428558020182488e+00	 1.044254090135600e+01
0	 2.571408549120993e+00	 2.571408549120992e+00	 1.042154653316530e+01
0	 2.571408549120991e+00	 2.714259044728984e+00	 1.040242578294215e+01
0	 2.571408549120992e+00	 2.857109523672221e+00	 1.038179732749448e+01
0	 2.714259044728984e+00	 1.428601984435185e+00	 1.070703015182694e+01
0	 2.714259044728984e+00	 1.571453213328422e+00	 1.067982084357407e+01
0	 2.714259044728985e+00	 1.714304292230859e+00	 1.066176360364115e+01
0	 2.714259044728985e+00	 1.857155237808251e+00	 1.064988538259122e+01
0	 2.714259044728984e+00	 2.000006066726354e+00	 1.064121313772618e+01
0	 2.714259044728984e+00	 2.142856795650925e+00	 1.063277383308682e+01
0	 2.714259044728985e+00	 2.285707441247718e+00	 1.062159443945288e+01
0	 2.714259044728984e+00	 2.428558020182488e+00	 1.060470193434310e+01
0	 2.714259044728985e+00	 2.571408549120992e+00	 1.057912330201521e+01
0	 2.714259044728984e+00	 2.714259044728984e+00	 1.054188553346590e+01
0	 2.714259044728984e+00	 2.857109523672222e+00	 1.049001562643091e+01
0	 2.857109523672221e+00	 1.428601984435185e+00	 1.055849972050578e+01
0	 2.857109523672222e+00	 1.571453213328422e+00	 1.061119172188778e+01
0	 2.857109523672222e+00	 1.714304292230858e+00	 1.065886798157353e+01
0	 2.857109523672222e+00	 1.857155237808251e+00	 1.069914772638872e+01
0	 2.857109523672223e+00	 2.000006066726356e+00	 1.072965019801319e+01
0	 2.857109523672222e+00	 2.142856795650926e+00	 1.074799465298105e+01
0	 2.857109523672222e+00	 2.285707441247718e+00	 1.075180036268082e+01
0	 2.857109523672223e+00	 2.428558020182489e+00	 1.073868661335552e+01
0	 2.857109523672222e+00	 2.571408549120993e+00	 1.070627270610273e+01
0	 2.857109523672222e+00	 2.714259044728984e+00	 1.065217795687468e+01
0	 2.857109523672222e+00	 2.857109523672222e+00	 1.057402169647819e+01
0	 1.428601984435186e+00	 2.857109523672222e+00	 9.851345152134893e+00
0	 1.428601984435185e+00	 2.999969994316576e+00	 9.788869990571133e+00
0	 1.428601984435185e+00	 3.142830431628385e+00	 9.729706769104700e+00
0	 1.428601984435185e+00	 3.285690802274106e+00	 9.675511887667714e+00
0	 1.428601984435185e+00	 3.428551072920192e+00	 9.627941761369961e+00
0	 1.428601984435185e+00	 3.571411210233103e+00	 9.588652820498801e+00
0	 1.428601984435185e+00	 3.714271180879290e+00	 9.559301510519301e+00
0	 1.428601984435185e+00	 3.857130951525209e+00	 9.541544292074297e+00
0	 1.428601984435185e+00	 3.999990488837321e+00	 9.537037640984602e+00
0	 1.428601984435185e+00	 4.142849759482075e+00	 9.547438048249219e+00
0	 1.428601984435185e+00	 4.285708730125926e+00	 9.574402020045570e+00
0	 1.571453213328422e+00	 2.857109523672223e+00	 9.791181013196729e+00
0	 1.571453213328422e+00	 2.999969994316576e+00	 9.806059270026381e+00
0	 1.571453213328422e+00	 3.142830431628386e+00	 9.810577560522930e+00
0	 1.571453213328422e+00	 3.285690802274106e+00	 9.806661473278739e+00
0	 1.571453213328422e+00	 3.428551072920193e+00	 9.796236595296863e+00
0	 1.571453213328422e+00	 3.571411210233101e+00	 9.781228511990975e+00
0	 1.571453213328422e+00	 3.714271180879290e+00	 9.763562807185385e+00
0	 1.571453213328422e+00	 3.857130951525211e+00	 9.745165063115026e+00
0	 1.571453213328422e+00	 3.999990488837320e+00	 9.727960860425400e+00
0	 1.571453213328422e+00	 4.142849759482073e+00	 9.713875778172550e+00
0	 1.571453213328422e+00	 4.285708730125926e+00	 9.704835393823027e+00
0	 1.714304292230859e+00	 2.857109523672222e+00	 9.787266897209296e+00
0	 1.714304292230859e+00	 2.999969994316576e+00	 9.849566568221469e+00
0	 1.714304292230859e+00	 3.142830431628386e+00	 9.892796023431739e+00
0	 1.714304292230859e+00	 3.285690802274106e+00	 9.919071994774884e+00
0	 1.714304292230859e+00	 3.428551072920194e+00	 9.930511202150322e+00
0	 1.714304292230860e+00	 3.571411210233104e+00	 9.929230353422108e+00
0	 1.714304292230858e+00	 3.714271180879289e+00	 9.917346144418897e+00
0	 1.714304292230859e+00	 3.857130951525210e+00	 9.896975258933773e+00
0	 1.714304292230859e+00	 3.999990488837320e+00	 9.870234368724111e+00
0	 1.714304292230859e+00	 4.142849759482074e+00	 9.839240133511435e+00
0	 1.714304292230859e+00	 4.285708730125926e+00	 9.806109200981112e+00
0	 1.857155237808251e+00	 2.857109523672222e+00	 9.829545034001510e+00
0	 1.857155237808251e+00	 2.999969994316575e+00	 9.913898356175860e+00
0	 1.857155237808251e+00	 3.142830431628385e+00	 9.974735536726532e+00
0	 1.857155237808251e+00	 3.285690802274106e+00	 1.001428640728840e+01
0	 1.857155237808252e+00	 3.428551072920193e+00	 1.003478078235972e+01
0	 1.857155237808251e+00	 3.571411210233102e+00	 1.003844845930212e+01
0	 1.857155237808252e+00	 3.714271180879290e+00	 1.002751921834042e+01
0	 1.857155237808252e+00	 3.857130951525211e+00	 1.000422282256255e+01
0	 1.857155237808251e+00	 3.999990488837319e+00	 9.970789017919310e+00
0	 1.857155237808251e+00	 4.142849759482074e+00	 9.929447533224094e+00
0	 1.857155237808252e+00	 4.285708730125926e+00	 9.882428080152506e+00
0	 2.000006066726355e+00	 2.857109523672223e+00	 9.907957650171255e+00
0	 2.000006066726356e+00	 2.999969994316577e+00	 9.993561102431496e+00
0	 2.000006066726355e+00	 3.142830431628385e+00	 1.005476947726603e+01
0	 2.000006066726356e+00	 3.285690802274107e+00	 1.009384766409781e+01
0	 2.000006066726356e+00	 3.428551072920194e+00	 1.011306053448031e+01
0	 2.000006066726355e+00	 3.571411210233103e+00	 1.011467294209753e+01
0	 2.000006066726355e+00	 3.714271180879289e+00	 1.010094972276389e+01
0	 2.000006066726355e+00	 3.857130951525210e+00	 1.007415569442402e+01
0	 2.000006066726355e+00	 3.999990488837319e+00	 1.003655565715253e+01
0	 2.000006066726355e+00	 4.142849759482075e+00	 9.990414393153744e+00
0	 2.000006066726355e+00	 4.285708730125926e+00	 9.937996666761308e+00
0	 2.142856795650926e+00	 2.857109523672222e+00	 1.001244696908534e+01
0	 2.142856795650925e+00	 2.999969994316576e+00	 1.008306127305276e+01
0	 2.142856795650925e+00	 3.142830431628386e+00	 1.013127121987236e+01
0	 2.142856795650925e+00	 3.285690802274106e+00	 1.015929871662792e+01
0	 2.142856795650926e+00	 3.428551072920193e+00	 1.016936565519313e+01
0	 2.142856795650925e+00	 3.571411210233102e+00	 1.016369391223158e+01
0	 2.142856795650925e+00	 3.714271180879290e+00	 1.014450534919665e+01
0	 2.142856795650925e+00	 3.857130951525211e+00	 1.011402181233137e+01
0	 2.142856795650926e+00	 3.999990488837319e+00	 1.007446513266814e+01
0	 2.142856795650925e+00	 4.142849759482074e+00	 1.002805712602856e+01
0	 2.142856795650926e+00	 4.285708730125926e+00	 9.977019593023016e+00
0	 2.285707441247718e+00	 2.857109523672222e+00	 1.013295521087942e+01
0	 2.285707441247718e+00	 2.999969994316576e+00	 1.017690533162640e+01
0	 2.285707441247718e+00	 3.142830431628385e+00	 1.020261413733093e+01
0	 2.285707441247718e+00	 3.285690802274106e+00	 1.021218251444979e+01
0	 2.285707441247718e+00	 3.428551072920193e+00	 1.020771133930506e+01
0	 2.285707441247719e+00	 3.571411210233103e+00	 1.019130147808406e+01
0	 2.285707441247718e+00	 3.714271180879290e+00	 1.016505378683931e+01
0	 2.285707441247718e+00	 3.857130951525210e+00	 1.013106911148828e+01
0	 2.285707441247717e+00	 3.999990488837320e+00	 1.009144828781337e+01
0	 2.285707441247718e+00	 4.142849759482075e+00	 1.004829214146162e+01
0	 2.285707441247718e+00	 4.285708730125926e+00	 1.000370148794449e+01
0	 2.428558020182489e+00	 2.857109523672223e+00	 1.025942459245802e+01
0	 2.428558020182488e+00	 2.999969994316576e+00	 1.026959973926160e+01
0	 2.428558020182489e+00	 3.142830431628386e+00	 1.026717160039045e+01
0	 2.428558020182488e+00	 3.285690802274105e+00	 1.025404200528068e+01
0	 2.428558020182489e+00	 3.428551072920194e+00	 1.023211277974875e+01
0	 2.428558020182488e+00	 3.571411210233103e+00	 1.020328574599144e+01
0	 2.428558020182488e+00	 3.714271180879290e+00	 1.016946272258577e+01
0	 2.428558020182489e+00	 3.857130951525211e+00	 1.013254552448896e+01
0	 2.428558020182488e+00	 3.999990488837320e+00	 1.009443596303826e+01
0	 2.428558020182488e+00	 4.142849759482074e+00	 1.005703584595089e+01
0	 2.428558020182488e+00	 4.285708730125926e+00	 1.002224697732392e+01
0	 2.571408549120992e+00	 2.857109523672221e+00	 1.038179732749448e+01
0	 2.571408549120992e+00	 2.999969994316576e+00	 1.035565095458984e+01
0	 2.571408549120993e+00	 3.142830431628386e+00	 1.032331697776290e+01
0	 2.571408549120993e+00	 3.285690802274106e+00	 1.028642013498406e+01
0	 2.571408549120992e+00	 3.428551072920193e+00	 1.024658516758259e+01
0	 2.571408549120992e+00	 3.571411210233103e+00	 1.020543682024668e+01
0	 2.571408549120992e+00	 3.714271180879290e+00	 1.016459984102325e+01
0	 2.571408549120992e+00	 3.857130951525210e+00	 1.012569898131809e+01
0	 2.571408549120992e+00	 3.999990488837320e+00	 1.009035899589567e+01
0	 2.571408549120992e+00	 4.142849759482074e+00	 1.006020464287925e+01
0	 2.571408549120992e+00	 4.285708730125926e+00	 1.003686068375079e+01
0	 2.714259044728984e+00	 2.857109523672222e+00	 1.049001562643090e+01
0	 2.714259044728984e+00	 2.999969994316575e+00	 1.042956543376494e+01
0	 2.714259044728984e+00	 3.142830431628386e+00	 1.036942363612350e+01
0	 2.714259044728984e+00	 3.285690802274106e+00	 1.031085984756957e+01
0	 2.714259044728985e+00	 3.428551072920193e+00	 1.025514369199077e+01
0	 2.714259044728985e+00	 3.571411210233103e+00	 1.020354480309936e+01
0	 2.714259044728984e+00	 3.714271180879289e+00	 1.015733282443221e+01
0	 2.714259044728984e+00	 3.857130951525210e+00	 1.011777740935078e+01
0	 2.714259044728984e+00	 3.999990488837320e+00	 1.008614822104121e+01
0	 2.714259044728985e+00	 4.142849759482074e+00	 1.006371493251434e+01
0	 2.714259044728984e+00	 4.285708730125926e+00	 1.005174722660592e+01
0	 2.857109523672222e+00	 2.857109523672222e+00	 1.057402169647819e+01
0	 2.857109523672222e+00	 2.999969994316576e+00	 1.048584963046304e+01
0	 2.857109523672223e+00	 3.142830431628385e+00	 1.040386494011073e+01
0	 2.857109523672222e+00	 3.285690802274106e+00	 1.032890408519304e+01
0	 2.857109523672222e+00	 3.428551072920193e+00	 1.026180354028316e+01
0	 2.857109523672223e+00	 3.571411210233103e+00	 1.020339979475563e+01
0	 2.857109523672222e+00	 3.714271180879290e+00	 1.015452935278635e+01
0	 2.857109523672222e+00	 3.857130951525211e+00	 1.011602873335263e+01
0	 2.857109523672222e+00	 3.999990488837320e+00	 1.008873447023327e+01
0	 2.857109523672223e+00	 4.142849759482074e+00	 1.007348311200875e+01
0	 2.857109523672222e+00	 4.285708730125926e+00	 1.007111122206138e+01
0	 1.428601984435185e+00	 4.285708730125926e+00	 9.574402020045570e+00
0	 1.428601984435185e+00	 4.428567384102075e+00	 9.611658250942872e+00
0	 1.428601984435185e+00	 4.571425771410667e+00	 9.650878427524564e+00
0	 1.428601984435185e+00	 4.714283958718593e+00	 9.690633563742850e+00
0	 1.428601984435186e+00	 4.857142012692743e+00	 9.729494684709334e+00
0	 1.428601984435185e+00	 5.000000000000001e+00	 9.766032826695223e+00
0	 1.428601984435185e+00	 5.142857987307260e+00	 9.798819037131567e+00
0	 1.428601984435185e+00	 5.285716041281408e+00	 9.826424374609402e+00
0	 1.428601984435185e+00	 5.428574228589335e+00	 9.847419908879736e+00
0	 1.428601984435185e+00	 5.571432615897926e+00	 9.860376720853600e+00
0	 1.428601984435185e+00	 5.714291269874074e+00	 9.863865902601830e+00
0	 1.571453213328422e+00	 4.285708730125926e+00	 9.704835393823027e+00
0	 1.571453213328422e+00	 4.428567384102075e+00	 9.703342371242655e+00
0	 1.571453213328422e+00	 4.571425771410668e+00	 9.709585482770819e+00
0	 1.571453213328422e+00	 4.714283958718593e+00	 9.722019464923120e+00
0	 1.571453213328422e+00	 4.857142012692742e+00	 9.739099050922965e+00
0	 1.571453213328422e+00	 5.000000000000001e+00	 9.759278970701423e+00
0	 1.571453213328422e+00	 5.142857987307262e+00	 9.781013950897229e+00
0	 1.571453213328422e+00	 5.285716041281408e+00	 9.802758714856701e+00
0	 1.571453213328422e+00	 5.428574228589334e+00	 9.822967982633738e+00
0	 1.571453213328422e+00	 5.571432615897931e+00	 9.840096470989849e+00
0	 1.571453213328422e+00	 5.714291269874074e+00	 9.852598893394159e+00
0	 1.714304292230859e+00	 4.285708730125926e+00	 9.806109200981112e+00
0	 1.714304292230860e+00	 4.428567384102076e+00	 9.778870998404379e+00
0	 1.714304292230859e+00	 4.571425771410667e+00	 9.763065179261618e+00
0	 1.714304292230859e+00	 4.714283958718593e+00	 9.757073712130918e+00
0	 1.714304292230858e+00	 4.857142012692743e+00	 9.759278553065000e+00
0	 1.714304292230859e+00	 5.000000000000002e+00	 9.768061645590944e+00
0	 1.714304292230859e+00	 5.142857987307260e+00	 9.781804920709909e+00
0	 1.714304292230859e+00	 5.285716041281409e+00	 9.798890296897037e+00
0	 1.714304292230859e+00	 5.428574228589334e+00	 9.817699680101342e+00
0	 1.714304292230859e+00	 5.571432615897928e+00	 9.836614963745768e+00
0	 1.714304292230859e+00	 5.714291269874075e+00	 9.854018028727301e+00
0	 1.857155237808252e+00	 4.285708730125926e+00	 9.882428080152506e+00
0	 1.857155237808251e+00	 4.428567384102076e+00	 9.840529603457705e+00
0	 1.857155237808251e+00	 4.571425771410667e+00	 9.811966399990458e+00
0	 1.857155237808252e+00	 4.714283958718594e+00	 9.795091183721238e+00
0	 1.857155237808251e+00	 4.857142012692741e+00	 9.788256651289275e+00
0	 1.857155237808251e+00	 5.000000000000002e+00	 9.789815482002128e+00
0	 1.857155237808252e+00	 5.142857987307262e+00	 9.798120337835389e+00
0	 1.857155237808251e+00	 5.285716041281407e+00	 9.811523863432400e+00
0	 1.857155237808252e+00	 5.428574228589336e+00	 9.828378686104212e+00
0	 1.857155237808251e+00	 5.571432615897928e+00	 9.847037415829581e+00
0	 1.857155237808252e+00	 5.714291269874074e+00	 9.865852645255117e+00
0	 2.000006066726355e+00	 4.285708730125926e+00	 9.937996666761308e+00
0	 2.000006066726355e+00	 4.428567384102075e+00	 9.890603654294990e+00
0	 2.000006066726355e+00	 4.571425771410667e+00	 9.856938025033299e+00
0	 2.000006066726355e+00	 4.714283958718594e+00	 9.835366755469346e+00
0	 2.000006066726355e+00	 4.857142012692742e+00	 9.824256803595230e+00
0	 2.000006066726355e+00	 5.000000000000000e+00	 9.821975108901462e+00
0	 2.000006066726355e+00	 5.142857987307261e+00	 9.826888592376658e+00
0	 2.000006066726355e+00	 5.285716041281410e+00	 9.837364156507270e+00
0	 2.000006066726356e+00	 5.428574228589337e+00	 9.851768685277444e+00
0	 2.000006066726356e+00	 5.571432615897928e+00	 9.868469044169053e+00
0	 2.000006066726356e+00	 5.714291269874075e+00	 9.885832080161858e+00
0	 2.142856795650926e+00	 4.285708730125926e+00	 9.977019593023016e+00
0	 2.142856795650926e+00	 4.428567384102076e+00	 9.931378615671239e+00
0	 2.142856795650925e+00	 4.571425771410667e+00	 9.898628931548490e+00
0	 2.142856795650925e+00	 4.714283958718593e+00	 9.877195300570754e+00
0	 2.142856795650926e+00	 4.857142012692742e+00	 9.865502465827959e+00
0	 2.142856795650925e+00	 5.000000000000001e+00	 9.861975153583510e+00
0	 2.142856795650926e+00	 5.142857987307262e+00	 9.865038073273922e+00
0	 2.142856795650926e+00	 5.285716041281409e+00	 9.873115917508553e+00
0	 2.142856795650926e+00	 5.428574228589335e+00	 9.884633362069476e+00
0	 2.142856795650926e+00	 5.571432615897929e+00	 9.898015065911480e+00
0	 2.142856795650925e+00	 5.714291269874074e+00	 9.911685671162118e+00
0	 2.285707441247718e+00	 4.285708730125926e+00	 1.000370148794449e+01
0	 2.285707441247718e+00	 4.428567384102075e+00	 9.965139949204065e+00
0	 2.285707441247718e+00	 4.571425771410667e+00	 9.937687993776795e+00
0	 2.285707441247718e+00	 4.714283958718593e+00	 9.919871689641131e+00
0	 2.285707441247718e+00	 4.857142012692743e+00	 9.910217091678120e+00
0	 2.285707441247717e+00	 5.000000000000001e+00	 9.907250241670914e+00
0	 2.285707441247719e+00	 5.142857987307262e+00	 9.909497168304551e+00
0	 2.285707441247718e+00	 5.285716041281411e+00	 9.915483887165617e+00
0	 2.285707441247718e+00	 5.428574228589335e+00	 9.923736400742174e+00
0	 2.285707441247718e+00	 5.571432615897928e+00	 9.932780698423649e+00
0	 2.285707441247718e+00	 5.714291269874074e+00	 9.941142756500909e+00
0	 2.428558020182488e+00	 4.285708730125926e+00	 1.002224697732392e+01
0	 2.428558020182488e+00	 4.428567384102074e+00	 9.994173113373664e+00
0	 2.428558020182488e+00	 4.571425771410667e+00	 9.974764083041308e+00
0	 2.428558020182488e+00	 4.714283958718593e+00	 9.962690790716360e+00
0	 2.428558020182488e+00	 4.857142012692741e+00	 9.956624132681926e+00
0	 2.428558020182489e+00	 5.000000000000002e+00	 9.955234997114378e+00
0	 2.428558020182488e+00	 5.142857987307261e+00	 9.957194264083093e+00
0	 2.428558020182487e+00	 5.285716041281407e+00	 9.961172805550266e+00
0	 2.428558020182488e+00	 5.428574228589335e+00	 9.965841485370731e+00
0	 2.428558020182488e+00	 5.571432615897928e+00	 9.969871159291884e+00
0	 2.428558020182488e+00	 5.714291269874074e+00	 9.971932674953646e+00
0	 2.571408549120992e+00	 4.285708730125926e+00	 1.003686068375079e+01
0	 2.571408549120992e+00	 4.428567384102076e+00	 1.002076356352282e+01
0	 2.571408549120992e+00	 4.571425771410667e+00	 1.001050606774750e+01
0	 2.571408549120992e+00	 4.714283958718593e+00	 1.000494746925247e+01
0	 2.571408549120993e+00	 4.857142012692743e+00	 1.000294703822118e+01
0	 2.571408549120992e+00	 5.000000000000002e+00	 1.000336404219264e+01
0	 2.571408549120992e+00	 5.142857987307260e+00	 1.000505774606127e+01
0	 2.571408549120992e+00	 5.285716041281410e+00	 1.000688741207672e+01
0	 2.571408549120992e+00	 5.428574228589335e+00	 1.000771229984372e+01
0	 2.571408549120991e+00	 5.571432615897927e+00	 1.000639166632201e+01
0	 2.571408549120992e+00	 5.714291269874074e+00	 1.000178476582606e+01
0	 2.714259044728984e+00	 4.285708730125926e+00	 1.005174722660592e+01
0	 2.714259044728984e+00	 4.428567384102075e+00	 1.004719675185682e+01
0	 2.714259044728985e+00	 4.571425771410668e+00	 1.004556281338312e+01
0	 2.714259044728985e+00	 4.714283958718593e+00	 1.004593658812564e+01
0	 2.714259044728984e+00	 4.857142012692742e+00	 1.004740925552320e+01
0	 2.714259044728985e+00	 5.000000000000001e+00	 1.004907199751248e+01
0	 2.714259044728984e+00	 5.142857987307259e+00	 1.005001599852791e+01
0	 2.714259044728984e+00	 5.285716041281410e+00	 1.004933244550161e+01
0	 2.714259044728984e+00	 5.428574228589335e+00	 1.004611252786312e+01
0	 2.714259044728985e+00	 5.571432615897929e+00	 1.003944743753934e+01
0	 2.714259044728984e+00	 5.714291269874074e+00	 1.002842836895432e+01
0	 2.857109523672222e+00	 4.285708730125926e+00	 1.007111122206138e+01
0	 2.857109523672222e+00	 4.428567384102073e+00	 1.007575812744352e+01
0	 2.857109523672223e+00	 4.571425771410668e+00	 1.008058318251824e+01
0	 2.857109523672222e+00	 4.714283958718593e+00	 1.008495300763217e+01
0	 2.857109523672223e+00	 4.857142012692742e+00	 1.008823422966084e+01
0	 2.857109523672222e+00	 5.000000000000001e+00	 1.008979348200869e+01
0	 2.857109523672222e+00	 5.142857987307261e+00	 1.008899740460905e+01
0	 2.857109523672222e+00	 5.285716041281408e+00	 1.008521264392397e+01
0	 2.857109523672222e+00	 5.428574228589336e+00	 1.007780585294416e+01
0	 2.857109523672222e+00	 5.571432615897928e+00	 1.006614369118872e+01
0	 2.857109523672222e+00	 5.714291269874074e+00	 1.004959282470492e+01
0	 1.428601984435185e+00	 5.714291269874074e+00	 9.863865902601830e+00
0	 1.428601984435185e+00	 5.857150240517928e+00	 9.860428660006416e+00
0	 1.428601984435185e+00	 6.000009511162683e+00	 9.854381817443725e+00
0	 1.428601984435185e+00	 6.142869048474793e+00	 9.846959906316183e+00
0	 1.428601984435185e+00	 6.285728819120713e+00	 9.839397462319653e+00
0	 1.428601984435185e+00	 6.428588789766897e+00	 9.832929025443416e+00
0	 1.428601984435185e+00	 6.571448927079810e+00	 9.828789139970066e+00
0	 1.428601984435185e+00	 6.714309197725895e+00	 9.828212354475482e+00
0	 1.428601984435185e+00	 6.857169568371617e+00	 9.832433221828802e+00
0	 1.428601984435185e+00	 7.000030005683426e+00	 9.842686299192392e+00
0	 1.428601984435185e+00	 7.142890476327780e+00	 9.860206148021879e+00
0	 1.571453213328422e+00	 5.714291269874074e+00	 9.852598893394159e+00
0	 1.571453213328422e+00	 5.857150240517929e+00	 9.859675487029175e+00
0	 1.571453213328422e+00	 6.000009511162682e+00	 9.862404496633060e+00
0	 1.571453213328421e+00	 6.142869048474790e+00	 9.862057646353442e+00
0	 1.571453213328422e+00	 6.285728819120711e+00	 9.859906662756998e+00
0	 1.571453213328422e+00	 6.428588789766901e+00	 9.857223274829439e+00
0	 1.571453213328422e+00	 6.571448927079809e+00	 9.855279213975470e+00
0	 1.571453213328422e+00	 6.714309197725895e+00	 9.855346214018773e+00
0	 1.571453213328422e+00	 6.857169568371619e+00	 9.858696011202053e+00
0	 1.571453213328422e+00	 7.000030005683425e+00	 9.866600344186919e+00
0	 1.571453213328422e+00	 7.142890476327778e+00	 9.880330954054036e+00
0	 1.714304292230859e+00	 5.714291269874075e+00	 9.854018028727301e+00
0	 1.714304292230859e+00	 5.857150240517928e+00	 9.867017718272530e+00
0	 1.714304292230859e+00	 6.000009511162682e+00	 9.874657290960345e+00
0	 1.714304292230859e+00	 6.142869048474791e+00	 9.878220242330071e+00
0	 1.714304292230859e+00	 6.285728819120713e+00	 9.878990069265482e+00
0	 1.714304292230859e+00	 6.428588789766902e+00	 9.878250269994677e+00
0	 1.714304292230859e+00	 6.571448927079810e+00	 9.877284344090205e+00
0	 1.714304292230859e+00	 6.714309197725897e+00	 9.877375792468936e+00
0	 1.714304292230859e+00	 6.857169568371616e+00	 9.879808117392182e+00
0	 1.714304292230859e+00	 7.000030005683427e+00	 9.885864822465617e+00
0	 1.714304292230858e+00	 7.142890476327779e+00	 9.896829412639345e+00
0	 1.857155237808252e+00	 5.714291269874074e+00	 9.865852645255117e+00
0	 1.857155237808251e+00	 5.857150240517927e+00	 9.880902204424014e+00
0	 1.857155237808251e+00	 6.000009511162682e+00	 9.890208767482010e+00
0	 1.857155237808251e+00	 6.142869048474791e+00	 9.895042180932148e+00
0	 1.857155237808251e+00	 6.285728819120710e+00	 9.896672292212831e+00
0	 1.857155237808252e+00	 6.428588789766900e+00	 9.896368949697830e+00
0	 1.857155237808251e+00	 6.571448927079809e+00	 9.895402002696265e+00
0	 1.857155237808251e+00	 6.714309197725896e+00	 9.895041301452636e+00
0	 1.857155237808252e+00	 6.857169568371618e+00	 9.896556697146817e+00
0	 1.857155237808251e+00	 7.000030005683427e+00	 9.901218041894058e+00
0	 1.857155237808251e+00	 7.142890476327776e+00	 9.910295188745010e+00
0	 2.000006066726356e+00	 5.714291269874075e+00	 9.885832080161858e+00
0	 2.000006066726355e+00	 5.857150240517928e+00	 9.899775796894675e+00
0	 2.000006066726354e+00	 6.000009511162681e+00	 9.908127494063233e+00
0	 2.000006066726356e+00	 6.142869048474791e+00	 9.912117949649499e+00
0	 2.000006066726355e+00	 6.285728819120711e+00	 9.912977942693246e+00
0	 2.000006066726355e+00	 6.428588789766899e+00	 9.911938253292112e+00
0	 2.000006066726355e+00	 6.571448927079810e+00	 9.910229662601521e+00
0	 2.000006066726356e+00	 6.714309197725895e+00	 9.909082952834734e+00
0	 2.000006066726355e+00	 6.857169568371618e+00	 9.909728907262824e+00
0	 2.000006066726356e+00	 7.000030005683427e+00	 9.913398310214715e+00
0	 2.000006066726356e+00	 7.142890476327779e+00	 9.921321947077164e+00
0	 2.142856795650925e+00	 5.714291269874074e+00	 9.911685671162118e+00
0	 2.142856795650925e+00	 5.857150240517930e+00	 9.922085347819124e+00
0	 2.142856795650925e+00	 6.000009511162682e+00	 9.927482039377974e+00
0	 2.142856795650924e+00	 6.142869048474789e+00	 9.929042036775801e+00
0	 2.142856795650926e+00	 6.285728819120711e+00	 9.927931632527432e+00
0	 2.142856795650925e+00	 6.428588789766899e+00	 9.925317120725355e+00
0	 2.142856795650925e+00	 6.571448927079810e+00	 9.922364797039695e+00
0	 2.142856795650925e+00	 6.714309197725895e+00	 9.920240958718237e+00
0	 2.142856795650924e+00	 6.857169568371615e+00	 9.920111904586342e+00
0	 2.142856795650925e+00	 7.000030005683426e+00	 9.923143935047026e+00
0	 2.142856795650926e+00	 7.142890476327779e+00	 9.930503352080928e+00
0	 2.285707441247718e+00	 5.714291269874074e+00	 9.941142756500909e+00
0	 2.285707441247718e+00	 5.857150240517929e+00	 9.946277710055528e+00
0	 2.285707441247718e+00	 6.000009511162681e+00	 9.947340972908920e+00
0	 2.285707441247718e+00	 6.142869048474792e+00	 9.945408931408505e+00
0	 2.285707441247718e+00	 6.285728819120712e+00	 9.941557974262533e+00
0	 2.285707441247717e+00	 6.428588789766896e+00	 9.936864492539938e+00
0	 2.285707441247718e+00	 6.571448927079809e+00	 9.932404879670415e+00
0	 2.285707441247718e+00	 6.714309197725896e+00	 9.929255531444349e+00
0	 2.285707441247718e+00	 6.857169568371615e+00	 9.928492846012752e+00
0	 2.285707441247718e+00	 7.000030005683426e+00	 9.931193223887306e+00
0	 2.285707441247717e+00	 7.142890476327776e+00	 9.938433067940355e+00
0	 2.428558020182488e+00	 5.714291269874074e+00	 9.971932674953646e+00
0	 2.428558020182488e+00	 5.857150240517927e+00	 9.970799737185605e+00
0	 2.428558020182488e+00	 6.000009511162683e+00	 9.966772864947551e+00
0	 2.428558020182489e+00	 6.142869048474793e+00	 9.960813123448927e+00
0	 2.428558020182488e+00	 6.285728819120712e+00	 9.953881581172197e+00
0	 2.428558020182488e+00	 6.428588789766899e+00	 9.946939309872818e+00
0	 2.428558020182488e+00	 6.571448927079808e+00	 9.940947384579147e+00
0	 2.428558020182488e+00	 6.714309197725898e+00	 9.936866883592412e+00
0	 2.428558020182489e+00	 6.857169568371618e+00	 9.935658888486685e+00
0	 2.428558020182488e+00	 7.000030005683427e+00	 9.938284484108820e+00
0	 2.428558020182488e+00	 7.142890476327778e+00	 9.945704758578490e+00
0	 2.571408549120992e+00	 5.714291269874074e+00	 1.000178476582606e+01
0	 2.571408549120992e+00	 5.857150240517928e+00	 9.994098283514589e+00
0	 2.571408549120993e+00	 6.000009511162682e+00	 9.984846286594088e+00
0	 2.571408549120992e+00	 6.142869048474792e+00	 9.974849103602104e+00
0	 2.571408549120992e+00	 6.285728819120712e+00	 9.964927067256568e+00
0	 2.571408549120992e+00	 6.428588789766901e+00	 9.955900514455539e+00
0	 2.571408549120992e+00	 6.571448927079809e+00	 9.948589786277243e+00
0	 2.571408549120992e+00	 6.714309197725898e+00	 9.943815227979970e+00
0	 2.571408549120992e+00	 6.857169568371617e+00	 9.942397189002047e+00
0	 2.571408549120992e+00	 7.000030005683427e+00	 9.945156022961735e+00
0	 2.571408549120992e+00	 7.142890476327778e+00	 9.952912087657289e+00
0	 2.714259044728984e+00	 5.714291269874074e+00	 1.002842836895432e+01
0	 2.714259044728985e+00	 5.857150240517928e+00	 1.001462020407131e+01
0	 2.714259044728985e+00	 6.000009511162683e+00	 1.000062980975751e+01
0	 2.714259044728985e+00	 6.142869048474791e+00	 9.987111363376988e+00
0	 2.714259044728985e+00	 6.285728819120712e+00	 9.974719047242253e+00
0	 2.714259044728985e+00	 6.428588789766901e+00	 9.964107048614199e+00
0	 2.714259044728985e+00	 6.571448927079810e+00	 9.955929559701922e+00
0	 2.714259044728984e+00	 6.714309197725896e+00	 9.950840777662719e+00
0	 2.714259044728985e+00	 6.857169568371617e+00	 9.949494904601980e+00
0	 2.714259044728984e+00	 7.000030005683426e+00	 9.952546147573132e+00
0	 2.714259044728984e+00	 7.142890476327777e+00	 9.960648718577684e+00
0	 2.857109523672222e+00	 5.714291269874074e+00	 1.004959282470492e+01
0	 2.857109523672222e+00	 5.857150240517928e+00	 1.003081235460809e+01
0	 2.857109523672222e+00	 6.000009511162682e+00	 1.001319200715557e+01
0	 2.857109523672222e+00	 6.142869048474791e+00	 9.997194395086224e+00
0	 2.857109523672222e+00	 6.285728819120712e+00	 9.983282136582350e+00
0	 2.857109523672222e+00	 6.428588789766900e+00	 9.971917855269469e+00
0	 2.857109523672222e+00	 6.571448927079808e+00	 9.963564180216270e+00
0	 2.857109523672222e+00	 6.714309197725895e+00	 9.958683745934501e+00
0	 2.857109523672222e+00	 6.857169568371616e+00	 9.957739192378867e+00
0	 2.857109523672222e+00	 7.000030005683426e+00	 9.961193164947030e+00
0	 2.857109523672222e+00	 7.142890476327777e+00	 9.969508314479558e+00
0	 1.428601984435185e+00	 7.142890476327780e+00	 9.860206148021879e+00
0	 1.428601984435185e+00	 7.285740955271015e+00	 9.882383527240211e+00
0	 1.428601984435185e+00	 7.428591450879006e+00	 9.905159977979928e+00
0	 1.428601984435185e+00	 7.571441979817510e+00	 9.927591711765544e+00
0	 1.428601984435185e+00	 7.714292558752281e+00	 9.948734942845293e+00
0	 1.428601984435185e+00	 7.857143204349073e+00	 9.967645888191115e+00
0	 1.428601984435185e+00	 7.999993933273643e+00	 9.983380767498623e+00
0	 1.428601984435185e+00	 8.142844762191748e+00	 9.994995803187139e+00
0	 1.428601984435185e+00	 8.285695707769142e+00	 1.000154722039963e+01
0	 1.428601984435185e+00	 8.428546786671578e+00	 1.000209124700278e+01
0	 1.428601984435185e+00	 8.571398015564816e+00	 9.995684113586789e+00
0	 1.571453213328422e+00	 7.142890476327778e+00	 9.880330954054038e+00
0	 1.571453213328422e+00	 7.285740955271012e+00	 9.898184972871491e+00
0	 1.571453213328422e+00	 7.428591450879007e+00	 9.917006146556290e+00
0	 1.571453213328422e+00	 7.571441979817513e+00	 9.935882556471629e+00
0	 1.571453213328422e+00	 7.714292558752281e+00	 9.953902286423908e+00
0	 1.571453213328422e+00	 7.857143204349074e+00	 9.970153422662696e+00
0	 1.571453213328422e+00	 7.999993933273642e+00	 9.983724053880746e+00
0	 1.571453213328422e+00	 8.142844762191748e+00	 9.993702271213959e+00
0	 1.571453213328422e+00	 8.285695707769140e+00	 9.999176168241380e+00
0	 1.571453213328422e+00	 8.428546786671575e+00	 9.999233840985198e+00
0	 1.571453213328422e+00	 8.571398015564816e+00	 9.992963387910692e+00
0	 1.714304292230858e+00	 7.142890476327779e+00	 9.896829412639345e+00
0	 1.714304292230858e+00	 7.285740955271012e+00	 9.911545927078347e+00
0	 1.714304292230859e+00	 7.428591450879006e+00	 9.927424079451871e+00
0	 1.714304292230859e+00	 7.571441979817509e+00	 9.943592981474527e+00
0	 1.714304292230859e+00	 7.714292558752282e+00	 9.959181747099322e+00
0	 1.714304292230859e+00	 7.857143204349075e+00	 9.973319492517758e+00
0	 1.714304292230859e+00	 7.999993933273643e+00	 9.985135336159701e+00
0	 1.714304292230859e+00	 8.142844762191748e+00	 9.993758398693478e+00
0	 1.714304292230859e+00	 8.285695707769138e+00	 9.998317803025797e+00
0	 1.714304292230859e+00	 8.428546786671577e+00	 9.997942674301761e+00
0	 1.714304292230859e+00	 8.571398015564817e+00	 9.991762139904800e+00
0	 1.857155237808251e+00	 7.142890476327776e+00	 9.910295188745012e+00
0	 1.857155237808251e+00	 7.285740955271015e+00	 9.922878137418399e+00
0	 1.857155237808252e+00	 7.428591450879008e+00	 9.936664824975715e+00
0	 1.857155237808251e+00	 7.571441979817511e+00	 9.950834554053607e+00
0	 1.857155237808251e+00	 7.714292558752279e+00	 9.964566629383373e+00
0	 1.857155237808251e+00	 7.857143204349076e+00	 9.977040357790941e+00
0	 1.857155237808251e+00	 7.999993933273644e+00	 9.987435048196811e+00
0	 1.857155237808251e+00	 8.142844762191746e+00	 9.994930011616107e+00
0	 1.857155237808251e+00	 8.285695707769142e+00	 9.998704561158522e+00
0	 1.857155237808251e+00	 8.428546786671578e+00	 9.997938012028341e+00
0	 1.857155237808251e+00	 8.571398015564816e+00	 9.991809681524350e+00
0	 2.000006066726356e+00	 7.142890476327779e+00	 9.921321947077166e+00
0	 2.000006066726354e+00	 7.285740955271012e+00	 9.932593351098426e+00
0	 2.000006066726355e+00	 7.428591450879006e+00	 9.944979431041872e+00
0	 2.000006066726355e+00	 7.571441979817512e+00	 9.957718841088527e+00
0	 2.000006066726355e+00	 7.714292558752281e+00	 9.970050237416299e+00
0	 2.000006066726355e+00	 7.857143204349074e+00	 9.981212278199985e+00
0	 2.000006066726355e+00	 7.999993933273642e+00	 9.990443623611210e+00
0	 2.000006066726355e+00	 8.142844762191750e+00	 9.996982935818481e+00
0	 2.000006066726355e+00	 8.285695707769138e+00	 1.000006887898713e+01
0	 2.000006066726355e+00	 8.428546786671578e+00	 9.998940119279315e+00
0	 2.000006066726356e+00	 8.571398015564817e+00	 9.992835324854004e+00
0	 2.142856795650926e+00	 7.142890476327779e+00	 9.930503352080928e+00
0	 2.142856795650925e+00	 7.285740955271012e+00	 9.941103314974320e+00
0	 2.142856795650926e+00	 7.428591450879009e+00	 9.952618945169462e+00
0	 2.142856795650925e+00	 7.571441979817511e+00	 9.964357409059215e+00
0	 2.142856795650925e+00	 7.714292558752279e+00	 9.975625874966788e+00
0	 2.142856795650926e+00	 7.857143204349076e+00	 9.985731513145714e+00
0	 2.142856795650925e+00	 7.999993933273642e+00	 9.993981495779883e+00
0	 2.142856795650926e+00	 8.142844762191746e+00	 9.999682996983513e+00
0	 2.142856795650927e+00	 8.285695707769140e+00	 1.000214319280113e+01
0	 2.142856795650926e+00	 8.428546786671577e+00	 1.000066926120755e+01
0	 2.142856795650926e+00	 8.571398015564816e+00	 9.994568382107891e+00
0	 2.285707441247717e+00	 7.142890476327776e+00	 9.938433067940355e+00
0	 2.285707441247718e+00	 7.285740955271015e+00	 9.948819775551069e+00
0	 2.285707441247718e+00	 7.428591450879007e+00	 9.959834414482620e+00
0	 2.285707441247718e+00	 7.571441979817510e+00	 9.970861824045860e+00
0	 2.285707441247717e+00	 7.714292558752281e+00	 9.981286845431912e+00
0	 2.285707441247718e+00	 7.857143204349073e+00	 9.990494321712013e+00
0	 2.285707441247718e+00	 7.999993933273644e+00	 9.997869097837622e+00
0	 2.285707441247717e+00	 8.142844762191748e+00	 1.000279602064035e+01
0	 2.285707441247718e+00	 8.285695707769140e+00	 1.000465993883197e+01
0	 2.285707441247718e+00	 8.428546786671577e+00	 1.000284570300439e+01
0	 2.285707441247718e+00	 8.571398015564814e+00	 9.996738165629655e+00
0	 2.428558020182488e+00	 7.142890476327778e+00	 9.945704758578490e+00
0	 2.428558020182489e+00	 7.285740955271015e+00	 9.956154478982834e+00
0	 2.428558020182488e+00	 7.428591450879007e+00	 9.966876885710489e+00
0	 2.428558020182488e+00	 7.571441979817509e+00	 9.977343651728939e+00
0	 2.428558020182488e+00	 7.714292558752281e+00	 9.987026451837199e+00
0	 2.428558020182487e+00	 7.857143204349071e+00	 9.995396962665867e+00
0	 2.428558020182489e+00	 7.999993933273646e+00	 1.000192686267704e+01
0	 2.428558020182488e+00	 8.142844762191750e+00	 1.000608783216438e+01
0	 2.428558020182489e+00	 8.285695707769140e+00	 1.000735155325302e+01
0	 2.428558020182488e+00	 8.428546786671580e+00	 1.000518970989964e+01
0	 2.428558020182489e+00	 8.571398015564816e+00	 9.999073987892356e+00
0	 2.571408549120992e+00	 7.142890476327778e+00	 9.952912087657289e+00
0	 2.571408549120992e+00	 7.285740955271014e+00	 9.963519171072861e+00
0	 2.571408549120992e+00	 7.428591450879006e+00	 9.973997405187285e+00
0	 2.571408549120991e+00	 7.571441979817509e+00	 9.983914457389139e+00
0	 2.571408549120992e+00	 7.714292558752282e+00	 9.992837996836574e+00
0	 2.571408549120993e+00	 7.857143204349073e+00	 1.000033569445730e+01
0	 2.571408549120992e+00	 7.999993933273645e+00	 1.000597522294859e+01
0	 2.571408549120992e+00	 8.142844762191748e+00	 1.000932425677724e+01
0	 2.571408549120993e+00	 8.285695707769142e+00	 1.000995047217962e+01
0	 2.571408549120992e+00	 8.428546786671578e+00	 1.000742154716160e+01
0	 2.571408549120992e+00	 8.571398015564814e+00	 1.000130516149854e+01
0	 2.714259044728984e+00	 7.142890476327777e+00	 9.960648718577687e+00
0	 2.714259044728984e+00	 7.285740955271013e+00	 9.971325597273511e+00
0	 2.714259044728984e+00	 7.428591450879007e+00	 9.981447018852206e+00
0	 2.714259044728985e+00	 7.571441979817512e+00	 9.990685805907468e+00
0	 2.714259044728984e+00	 7.714292558752279e+00	 9.998714782712367e+00
0	 2.714259044728984e+00	 7.857143204349073e+00	 1.000520677521943e+01
0	 2.714259044728984e+00	 7.999993933273641e+00	 1.000983461106049e+01
0	 2.714259044728985e+00	 8.142844762191748e+00	 1.001227111954680e+01
0	 2.714259044728985e+00	 8.285695707769142e+00	 1.001218913166901e+01
0	 2.714259044728985e+00	 8.428546786671577e+00	 1.000926148009704e+01
0	 2.714259044728985e+00	 8.571398015564816e+00	 1.000316099918021e+01
0	 2.857109523672222e+00	 7.142890476327777e+00	 9.969508314479558e+00
0	 2.857109523672222e+00	 7.285740955271015e+00	 9.979985502686285e+00
0	 2.857109523672222e+00	 7.428591450879006e+00	 9.989476772249498e+00
0	 2.857109523672222e+00	 7.571441979817511e+00	 9.997769261765143e+00
0	 2.857109523672222e+00	 7.714292558752279e+00	 1.000465011137535e+01
0	 2.857109523672223e+00	 7.857143204349073e+00	 1.000990646276841e+01
0	 2.857109523672223e+00	 7.999993933273644e+00	 1.001332545917881e+01
0	 2.857109523672222e+00	 8.142844762191746e+00	 1.001469424538719e+01
0	 2.857109523672222e+00	 8.285695707769142e+00	 1.001379996772034e+01
0	 2.857109523672222e+00	 8.428546786671577e+00	 1.001042977405120e+01
0	 2.857109523672222e+00	 8.571398015564816e+00	 1.000437081379882e+01
0	 1.428601984435185e+00	 8.571398015564816e+00	 9.995684113586787e+00
0	 1.428601984435185e+00	 8.714259388995398e+00	 9.985359104834497e+00
0	 1.428601984435185e+00	 8.857120812436385e+00	 9.975625076529946e+00
0	 1.428601984435185e+00	 8.999982169218278e+00	 9.967749488647694e+00
0	 1.428601984435185e+00	 9.142843342671600e+00	 9.962999817469283e+00
0	 1.428601984435185e+00	 9.285704216126854e+00	 9.962643555583302e+00
0	 1.428601984435185e+00	 9.428564672914549e+00	 9.967948211885556e+00
0	 1.428601984435185e+00	 9.571424596365199e+00	 9.980181311579498e+00
0	 1.428601984435185e+00	 9.714283869809321e+00	 1.000061039617669e+01
0	 1.428601984435185e+00	 9.857142376577416e+00	 1.003050302349786e+01
0	 1.428601984435185e+00	 1.000000000000000e+01	 1.007112676767364e+01
0	 1.571453213328422e+00	 8.571398015564816e+00	 9.992963387910693e+00
0	 1.571453213328423e+00	 8.714259388995400e+00	 9.983265038419718e+00
0	 1.571453213328422e+00	 8.857120812436383e+00	 9.974401259248513e+00
0	 1.571453213328422e+00	 8.999982169218281e+00	 9.967501474211275e+00
0	 1.571453213328422e+00	 9.142843342671600e+00	 9.963695124053700e+00
0	 1.571453213328422e+00	 9.285704216126851e+00	 9.964111666452947e+00
0	 1.571453213328422e+00	 9.428564672914550e+00	 9.969880576017832e+00
0	 1.571453213328422e+00	 9.571424596365205e+00	 9.982131344289307e+00
0	 1.571453213328422e+00	 9.714283869809321e+00	 1.000199347974104e+01
0	 1.571453213328422e+00	 9.857142376577416e+00	 1.003059650778029e+01
0	 1.571453213328422e+00	 1.000000000000000e+01	 1.006906997074893e+01
0	 1.714304292230859e+00	 8.571398015564817e+00	 9.991762139904800e+00
0	 1.714304292230859e+00	 8.714259388995401e+00	 9.982566021470404e+00
0	 1.714304292230859e+00	 8.857120812436387e+00	 9.974390373753723e+00
0	 1.714304292230859e+00	 8.999982169218281e+00	 9.968231719830776e+00
0	 1.714304292230859e+00	 9.142843342671600e+00	 9.965086599941733e+00
0	 1.714304292230859e+00	 9.285704216126851e+00	 9.965951571491034e+00
0	 1.714304292230858e+00	 9.428564672914549e+00	 9.971823209047642e+00
0	 1.714304292230859e+00	 9.571424596365203e+00	 9.983698104345326e+00
0	 1.714304292230859e+00	 9.714283869809323e+00	 1.000257286628351e+01
0	 1.714304292230859e+00	 9.857142376577420e+00	 1.002944412092787e+01
0	 1.714304292230859e+00	 1.000000000000000e+01	 1.006530851151167e+01
0	 1.857155237808251e+00	 8.571398015564816e+00	 9.991809681524350e+00
0	 1.857155237808252e+00	 8.714259388995401e+00	 9.983015071083511e+00
0	 1.857155237808251e+00	 8.857120812436383e+00	 9.975377237960569e+00
0	 1.857155237808251e+00	 8.999982169218280e+00	 9.969764940056404e+00
0	 1.857155237808251e+00	 9.142843342671602e+00	 9.967046952316949e+00
0	 1.857155237808252e+00	 9.285704216126852e+00	 9.968092066733119e+00
0	 1.857155237808251e+00	 9.428564672914549e+00	 9.973769092341115e+00
0	 1.857155237808251e+00	 9.571424596365201e+00	 9.984946855222820e+00
0	 1.857155237808251e+00	 9.714283869809321e+00	 1.000249419850640e+01
0	 1.857155237808251e+00	 9.857142376577416e+00	 1.002727998236719e+01
0	 1.857155237808251e+00	 1.000000000000000e+01	 1.006017308402870e+01
0	 2.000006066726356e+00	 8.571398015564817e+00	 9.992835324854006e+00
0	 2.000006066726355e+00	 8.714259388995401e+00	 9.984365204564973e+00
0	 2.000006066726355e+00	 8.857120812436383e+00	 9.977146670056802e+00
0	 2.000006066726355e+00	 8.999982169218280e+00	 9.971925849756008e+00
0	 2.000006066726355e+00	 9.142843342671599e+00	 9.969448888702548e+00
0	 2.000006066726355e+00	 9.285704216126852e+00	 9.970461948549925e+00
0	 2.000006066726355e+00	 9.428564672914552e+00	 9.975711207565363e+00
0	 2.000006066726356e+00	 9.571424596365203e+00	 9.985942860630095e+00
0	 2.000006066726355e+00	 9.714283869809320e+00	 1.000190311924025e+01
0	 2.000006066726355e+00	 9.857142376577414e+00	 1.002433821150728e+01
0	 2.000006066726355e+00	 1.000000000000000e+01	 1.005399438215925e+01
0	 2.142856795650926e+00	 8.571398015564816e+00	 9.994568382107893e+00
0	 2.142856795650926e+00	 8.714259388995398e+00	 9.986369439429698e+00
0	 2.142856795650926e+00	 8.857120812436383e+00	 9.979483488503156e+00
0	 2.142856795650925e+00	 8.999982169218281e+00	 9.974539164115038e+00
0	 2.142856795650925e+00	 9.142843342671597e+00	 9.972165116961369e+00
0	 2.142856795650925e+00	 9.285704216126858e+00	 9.972990013647532e+00
0	 2.142856795650925e+00	 9.428564672914547e+00	 9.977642536688400e+00
0	 2.142856795650926e+00	 9.571424596365203e+00	 9.986751384508709e+00
0	 2.142856795650926e+00	 9.714283869809318e+00	 1.000094527144365e+01
0	 2.142856795650926e+00	 9.857142376577418e+00	 1.002085292773954e+01
0	 2.142856795650925e+00	 9.999999999999998e+00	 1.004710309955491e+01
0	 2.285707441247718e+00	 8.571398015564814e+00	 9.996738165629656e+00
0	 2.285707441247717e+00	 8.714259388995398e+00	 9.988780793401533e+00
0	 2.285707441247719e+00	 8.857120812436385e+00	 9.982172512033195e+00
0	 2.285707441247719e+00	 8.999982169218285e+00	 9.977429598636617e+00
0	 2.285707441247717e+00	 9.142843342671600e+00	 9.975068345295870e+00
0	 2.285707441247718e+00	 9.285704216126852e+00	 9.975605059067256e+00
0	 2.285707441247717e+00	 9.428564672914549e+00	 9.979556061979313e+00
0	 2.285707441247718e+00	 9.571424596365201e+00	 9.987437691033222e+00
0	 2.285707441247718e+00	 9.714283869809321e+00	 9.999766298203332e+00
0	 2.285707441247718e+00	 9.857142376577418e+00	 1.001705825043783e+01
0	 2.285707441247718e+00	 1.000000000000000e+01	 1.003982992965968e+01
0	 2.428558020182489e+00	 8.571398015564816e+00	 9.999073987892356e+00
0	 2.428558020182489e+00	 8.714259388995400e+00	 9.991352284413260e+00
0	 2.428558020182488e+00	 8.857120812436387e+00	 9.984998559653345e+00
0	 2.428558020182488e+00	 8.999982169218281e+00	 9.980421869141447e+00
0	 2.428558020182487e+00	 9.142843342671599e+00	 9.978031282248155e+00
0	 2.428558020182488e+00	 9.285704216126851e+00	 9.978235882185682e+00
0	 2.428558020182488e+00	 9.428564672914550e+00	 9.981444766008083e+00
0	 2.428558020182488e+00	 9.571424596365203e+00	 9.988067044611380e+00
0	 2.428558020182489e+00	 9.714283869809321e+00	 9.998511842734297e+00
0	 2.428558020182488e+00	 9.857142376577418e+00	 1.001318829895854e+01
0	 2.428558020182488e+00	 1.000000000000000e+01	 1.003250556570987e+01
0	 2.571408549120992e+00	 8.571398015564814e+00	 1.000130516149854e+01
0	 2.571408549120992e+00	 8.714259388995401e+00	 9.993836930606658e+00
0	 2.571408549120992e+00	 8.857120812436385e+00	 9.987746450642906e+00
0	 2.571408549120992e+00	 8.999982169218280e+00	 9.983340691767918e+00
0	 2.571408549120991e+00	 9.142843342671599e+00	 9.980926636699925e+00
0	 2.571408549120992e+00	 9.285704216126854e+00	 9.980811280714697e+00
0	 2.571408549120992e+00	 9.428564672914547e+00	 9.983301631645663e+00
0	 2.571408549120992e+00	 9.571424596365201e+00	 9.988704709884070e+00
0	 2.571408549120992e+00	 9.714283869809323e+00	 9.997327548379483e+00
0	 2.571408549120991e+00	 9.857142376577414e+00	 1.000947719264028e+01
0	 2.571408549120992e+00	 1.000000000000000e+01	 1.002546070073424e+01
0	 2.714259044728985e+00	 8.571398015564816e+00	 1.000316099918021e+01
0	 2.714259044728985e+00	 8.714259388995400e+00	 9.995987750332409e+00
0	 2.714259044728984e+00	 8.857120812436385e+00	 9.990201004554059e+00
0	 2.714259044728984e+00	 8.999982169218283e+00	 9.986010782971992e+00
0	 2.714259044728985e+00	 9.142843342671599e+00	 9.983627117872508e+00
0	 2.714259044728985e+00	 9.285704216126852e+00	 9.983260052701430e+00
0	 2.714259044728984e+00	 9.428564672914550e+00	 9.985119642064031e+00
0	 2.714259044728984e+00	 9.571424596365201e+00	 9.989415951725283e+00
0	 2.714259044728984e+00	 9.714283869809320e+00	 9.996359058610167e+00
0	 2.714259044728984e+00	 9.857142376577416e+00	 1.000615905080420e+01
0	 2.714259044728984e+00	 1.000000000000000e+01	 1.001902602755384e+01
0	 2.857109523672222e+00	 8.571398015564816e+00	 1.000437081379882e+01
0	 2.857109523672221e+00	 8.714259388995400e+00	 9.997557762150169e+00
0	 2.857109523672223e+00	 8.857120812436383e+00	 9.992147041211881e+00
0	 2.857109523672222e+00	 8.999982169218281e+00	 9.988256859527279e+00
0	 2.857109523672222e+00	 9.142843342671597e+00	 9.986005435326906e+00
0	 2.857109523672223e+00	 9.285704216126852e+00	 9.985510996528307e+00
0	 2.857109523672222e+00	 9.428564672914550e+00	 9.986891780736102e+00
0	 2.857109523672222e+00	 9.571424596365199e+00	 9.990266035242128e+00
0	 2.857109523672222e+00	 9.714283869809323e+00	 9.995752017025673e+00
0	 2.857109523672223e+00	 9.857142376577418e+00	 1.000346799275388e+01
0	 2.857109523672222e+00	 9.999999999999998e+00	 1.001353223878225e+01
0	 2.857109523672222e+00	 0.000000000000000e+00	 1.000624959750979e+01
0	 2.857109523672222e+00	 1.428576234225852e-01	 1.022869449211828e+01
0	 2.857109523672222e+00	 2.857161301906819e-01	 1.038109378508521e+01
0	 2.857109523672222e+00	 4.285754036348007e-01	 1.047577939510051e+01
0	 2.857109523672222e+00	 5.714353270854530e-01	 1.052508335042280e+01
0	 2.857109523672223e+00	 7.142957838731496e-01	 1.054133778887255e+01
0	 2.857109523672222e+00	 8.571566573284017e-01	 1.053687495782665e+01
0	 2.857109523672222e+00	 1.000017830781720e+00	 1.052402721421430e+01
0	 2.857109523672222e+00	 1.142879187563616e+00	 1.051512702451418e+01
0	 2.857109523672222e+00	 1.285740611004601e+00	 1.052250696475308e+01
0	 2.857109523672221e+00	 1.428601984435185e+00	 1.055849972050578e+01
0	 2.999969994316576e+00	 0.000000000000000e+00	 1.065801386492333e+01
0	 2.999969994316577e+00	 1.428576234225853e-01	 1.064396925510832e+01
0	 2.999969994316576e+00	 2.857161301906819e-01	 1.060463906766607e+01
0	 2.999969994316576e+00	 4.285754036348007e-01	 1.054911082159004e+01
0	 2.999969994316576e+00	 5.714353270854530e-01	 1.048647223943925e+01
0	 2.999969994316576e+00	 7.142957838731496e-01	 1.042581124732510e+01
0	 2.999969994316577e+00	 8.571566573284015e-01	 1.037621597490076e+01
0	 2.999969994316576e+00	 1.000017830781720e+00	 1.034677475535297e+01
0	 2.999969994316576e+00	 1.142879187563616e+00	 1.034657612539632e+01
0	 2.999969994316575e+00	 1.285740611004601e+00	 1.038470882527015e+01
0	 2.999969994316576e+00	 1.428601984435186e+00	 1.047026179873778e+01
0	 3.142830431628385e+00	 0.000000000000000e+00	 1.109450118872930e+01
0	 3.142830431628385e+00	 1.428576234225852e-01	 1.092355472996380e+01
0	 3.142830431628386e+00	 2.857161301906819e-01	 1.075899239618099e+01
0	 3.142830431628386e+00	 4.285754036348007e-01	 1.060708023684890e+01
0	 3.142830431628385e+00	 5.714353270854531e-01	 1.047408455143227e+01
0	 3.142830431628386e+00	 7.142957838731496e-01	 1.036627188937620e+01
0	 3.142830431628385e+00	 8.571566573284017e-01	 1.028990905009302e+01
0	 3.142830431628385e+00	 1.000017830781720e+00	 1.025126308295209e+01
0	 3.142830431628385e+00	 1.142879187563616e+00	 1.025660128727276e+01
0	 3.142830431628385e+00	 1.285740611004601e+00	 1.031219121232033e+01
0	 3.142830431628386e+00	 1.428601984435185e+00	 1.042430065730513e+01
0	 3.285690802274106e+00	 0.000000000000000e+00	 1.134268886679734e+01
0	 3.285690802274106e+00	 1.428576234225852e-01	 1.108358885006277e+01
0	 3.285690802274106e+00	 2.857161301906819e-01	 1.085107933988446e+01
0	 3.285690802274105e+00	 4.285754036348007e-01	 1.064902779408727e+01
0	 3.285690802274106e+00	 5.714353270854532e-01	 1.048130192733115e+01
0	 3.285690802274106e+00	 7.142957838731496e-01	 1.035176971109449e+01
0	 3.285690802274106e+00	 8.571566573284016e-01	 1.026429937366056e+01
0	 3.285690802274107e+00	 1.000017830781720e+00	 1.022275940010718e+01
0	 3.285690802274105e+00	 1.142879187563616e+00	 1.023101853229941e+01
0	 3.285690802274106e+00	 1.285740611004601e+00	 1.029294576888551e+01
0	 3.285690802274106e+00	 1.428601984435185e+00	 1.041241036529600e+01
0	 3.428551072920193e+00	 0.000000000000000e+00	 1.142955410402307e+01
0	 3.428551072920194e+00	 1.428576234225853e-01	 1.114020947790382e+01
0	 3.428551072920194e+00	 2.857161301906819e-01	 1.088782541450853e+01
0	 3.428551072920193e+00	 4.285754036348008e-01	 1.067429360620388e+01
0	 3.428551072920193e+00	 5.714353270854530e-01	 1.050150597741054e+01
0	 3.428551072920193e+00	 7.142957838731495e-01	 1.037135468458820e+01
0	 3.428551072920193e+00	 8.571566573284016e-01	 1.028573211622350e+01
0	 3.428551072920194e+00	 1.000017830781720e+00	 1.024653089282080e+01
0	 3.428551072920193e+00	 1.142879187563616e+00	 1.025564386689574e+01
0	 3.428551072920193e+00	 1.285740611004601e+00	 1.031496412297171e+01
0	 3.428551072920193e+00	 1.428601984435185e+00	 1.042638497757910e+01
0	 3.571411210233102e+00	 0.000000000000000e+00	 1.138207401232814e+01
0	 3.571411210233103e+00	 1.428576234225853e-01	 1.110955440510610e+01
0	 3.571411210233102e+00	 2.857161301906819e-01	 1.087615608226274e+01
0	 3.571411210233102e+00	 4.285754036348007e-01	 1.068221774578606e+01
0	 3.571411210233104e+00	 5.714353270854531e-01	 1.052807828129049e+01
0	 3.571411210233103e+00	 7.142957838731496e-01	 1.041407675800520e+01
0	 3.571411210233102e+00	 8.571566573284015e-01	 1.034055242876489e+01
0	 3.571411210233103e+00	 1.000017830781720e+00	 1.030784473000256e+01
0	 3.571411210233103e+00	 1.142879187563616e+00	 1.031629328174479e+01
0	 3.571411210233103e+00	 1.285740611004601e+00	 1.036623788760913e+01
0	 3.571411210233102e+00	 1.428601984435185e+00	 1.045801853480372e+01
0	 3.714271180879290e+00	 0.000000000000000e+00	 1.122722561065983e+01
0	 3.714271180879289e+00	 1.428576234225853e-01	 1.100776135240902e+01
0	 3.714271180879289e+00	 2.857161301906817e-01	 1.082299675183390e+01
0	 3.714271180879289e+00	 4.285754036348006e-01	 1.067214024510949e+01
0	 3.714271180879290e+00	 5.714353270854531e-01	 1.055440038793625e+01
0	 3.714271180879290e+00	 7.142957838731496e-01	 1.046898585553289e+01
0	 3.714271180879290e+00	 8.571566573284020e-01	 1.041510544263063e+01
0	 3.714271180879290e+00	 1.000017830781720e+00	 1.039196806346903e+01
0	 3.714271180879290e+00	 1.142879187563616e+00	 1.039878275179312e+01
0	 3.714271180879289e+00	 1.285740611004600e+00	 1.043475866085213e+01
0	 3.714271180879290e+00	 1.428601984435185e+00	 1.049910506339963e+01
0	 3.857130951525210e+00	 0.000000000000000e+00	 1.099198582499043e+01
0	 3.857130951525211e+00	 1.428576234225853e-01	 1.085096796967171e+01
0	 3.857130951525210e+00	 2.857161301906819e-01	 1.073527277838572e+01
0	 3.857130951525211e+00	 4.285754036348007e-01	 1.064340109613795e+01
0	 3.857130951525211e+00	 5.714353270854530e-01	 1.057385381565813e+01
0	 3.857130951525211e+00	 7.142957838731497e-01	 1.052513187739795e+01
0	 3.857130951525210e+00	 8.571566573284017e-01	 1.049573626952940e+01
0	 3.857130951525211e+00	 1.000017830781720e+00	 1.048416802794366e+01
0	 3.857130951525210e+00	 1.142879187563616e+00	 1.048892823625067e+01
0	 3.857130951525210e+00	 1.285740611004601e+00	 1.050851802577910e+01
0	 3.857130951525211e+00	 1.428601984435185e+00	 1.054143857557709e+01
0	 3.999990488837320e+00	 0.000000000000000e+00	 1.070333148831622e+01
0	 3.999990488837321e+00	 1.428576234225852e-01	 1.065531183587231e+01
0	 3.999990488837321e+00	 2.857161301906820e-01	 1.061990946355822e+01
0	 3.999990488837319e+00	 4.285754036348006e-01	 1.059534025052287e+01
0	 3.999990488837320e+00	 5.714353270854531e-01	 1.057982005211107e+01
0	 3.999990488837319e+00	 7.142957838731496e-01	 1.057156469986616e+01
0	 3.999990488837319e+00	 8.571566573284016e-01	 1.056879000153231e+01
0	 3.999990488837321e+00	 1.000017830781720e+00	 1.056971174105657e+01
0	 3.999990488837320e+00	 1.142879187563616e+00	 1.057254567859065e+01
0	 3.999990488837320e+00	 1.285740611004601e+00	 1.057550755049231e+01
0	 3.999990488837321e+00	 1.428601984435185e+00	 1.057681306932662e+01
0	 4.142849759482075e+00	 0.000000000000000e+00	 1.038823934065612e+01
0	 4.142849759482075e+00	 1.428576234225853e-01	 1.043693045910692e+01
0	 4.142849759482075e+00	 2.857161301906819e-01	 1.048383205546693e+01
0	 4.142849759482075e+00	 4.285754036348008e-01	 1.052729761960269e+01
0	 4.142849759482075e+00	 5.714353270854531e-01	 1.056568055429422e+01
0	 4.142849759482074e+00	 7.142957838731497e-01	 1.059733417524198e+01
0	 4.142849759482073e+00	 8.571566573284016e-01	 1.062061171107274e+01
0	 4.142849759482074e+00	 1.000017830781720e+00	 1.063386630334429e+01
0	 4.142849759482075e+00	 1.142879187563616e+00	 1.063545100654928e+01
0	 4.142849759482075e+00	 1.285740611004601e+00	 1.062371878811777e+01
0	 4.142849759482075e+00	 1.428601984435185e+00	 1.059702252841890e+01
0	 4.285708730125926e+00	 0.000000000000000e+00	 1.007368602905010e+01
0	 4.285708730125926e+00	 1.428576234225852e-01	 1.021196127658830e+01
0	 4.285708730125926e+00	 2.857161301906819e-01	 1.033396574870194e+01
0	 4.285708730125925e+00	 4.285754036348007e-01	 1.043861307440219e+01
0	 4.285708730125926e+00	 5.714353270854531e-01	 1.052481674855038e+01
0	 4.285708730125926e+00	 7.142957838731496e-01	 1.059149013186817e+01
0	 4.285708730125925e+00	 8.571566573284017e-01	 1.063754645094589e+01
0	 4.285708730125926e+00	 1.000017830781720e+00	 1.066189879824947e+01
0	 4.285708730125926e+00	 1.142879187563616e+00	 1.066346013212553e+01
0	 4.285708730125926e+00	 1.285740611004601e+00	 1.064114327680488e+01
0	 4.285708730125926e+00	 1.428601984435185e+00	 1.059386092240446e+01
0	 2.857109523672221e+00	 1.428601984435185e+00	 1.055849972050578e+01
0	 2.857109523672222e+00	 1.571453213328422e+00	 1.061119172188778e+01
0	 2.857109523672222e+00	 1.714304292230858e+00	 1.065886798157353e+01
0	 2.857109523672222e+00	 1.857155237808251e+00	 1.069914772638872e+01
0	 2.857109523672223e+00	 2.000006066726356e+00	 1.072965019801319e+01
0	 2.857109523672222e+00	 2.142856795650926e+00	 1.074799465298105e+01
0	 2.857109523672222e+00	 2.285707441247718e+00	 1.075180036268082e+01
0	 2.857109523672223e+00	 2.428558020182489e+00	 1.073868661335552e+01
0	 2.857109523672222e+00	 2.571408549120993e+00	 1.070627270610273e+01
0	 2.857109523672222e+00	 2.714259044728984e+00	 1.065217795687468e+01
0	 2.857109523672222e+00	 2.857109523672222e+00	 1.057402169647819e+01
0	 2.999969994316576e+00	 1.428601984435186e+00	 1.047026179873778e+01
0	 2.999969994316576e+00	 1.571453213328422e+00	 1.057548101340125e+01
0	 2.999969994316577e+00	 1.714304292230859e+00	 1.066540918530140e+01
0	 2.999969994316576e+00	 1.857155237808251e+00	 1.073830696745918e+01
0	 2.999969994316577e+00	 2.000006066726356e+00	 1.079243503286089e+01
0	 2.999969994316576e+00	 2.142856795650925e+00	 1.082605407445841e+01
0	 2.999969994316576e+00	 2.285707441247718e+00	 1.083742480516936e+01
0	 2.999969994316576e+00	 2.428558020182489e+00	 1.082480795787719e+01
0	 2.999969994316576e+00	 2.571408549120992e+00	 1.078646428543138e+01
0	 2.999969994316576e+00	 2.714259044728983e+00	 1.072065456064741e+01
0	 2.999969994316576e+00	 2.857109523672223e+00	 1.062563957630691e+01
0	 3.142830431628386e+00	 1.428601984435185e+00	 1.042430065730513e+01
0	 3.142830431628386e+00	 1.571453213328422e+00	 1.055650513555585e+01
0	 3.142830431628386e+00	 1.714304292230860e+00	 1.066743226797308e+01
0	 3.142830431628386e+00	 1.857155237808252e+00	 1.075589830362162e+01
0	 3.142830431628386e+00	 2.000006066726355e+00	 1.082071951387422e+01
0	 3.142830431628386e+00	 2.142856795650926e+00	 1.086071219241181e+01
0	 3.142830431628385e+00	 2.285707441247718e+00	 1.087469265522371e+01
0	 3.142830431628386e+00	 2.428558020182489e+00	 1.086147724060775e+01
0	 3.142830431628385e+00	 2.571408549120992e+00	 1.081988230917046e+01
0	 3.142830431628386e+00	 2.714259044728985e+00	 1.074872424382709e+01
0	 3.142830431628385e+00	 2.857109523672222e+00	 1.064681944980171e+01
0	 3.285690802274106e+00	 1.428601984435185e+00	 1.041241036529600e+01
0	 3.285690802274105e+00	 1.571453213328422e+00	 1.055034563641943e+01
0	 3.285690802274106e+00	 1.714304292230859e+00	 1.066465019479821e+01
0	 3.285690802274106e+00	 1.857155237808252e+00	 1.075461005246569e+01
0	 3.285690802274106e+00	 2.000006066726355e+00	 1.081951124379627e+01
0	 3.285690802274107e+00	 2.142856795650926e+00	 1.085863982550578e+01
0	 3.285690802274105e+00	 2.285707441247717e+00	 1.087128187665158e+01
0	 3.285690802274106e+00	 2.428558020182488e+00	 1.085672349863284e+01
0	 3.285690802274106e+00	 2.571408549120993e+00	 1.081425081519053e+01
0	 3.285690802274106e+00	 2.714259044728985e+00	 1.074314997240764e+01
0	 3.285690802274106e+00	 2.857109523672222e+00	 1.064270713870908e+01
0	 3.428551072920193e+00	 1.428601984435185e+00	 1.042638497757911e+01
0	 3.428551072920193e+00	 1.571453213328422e+00	 1.055308405106539e+01
0	 3.428551072920193e+00	 1.714304292230859e+00	 1.065677591968426e+01
0	 3.428551072920193e+00	 1.857155237808252e+00	 1.073713052231799e+01
0	 3.428551072920194e+00	 2.000006066726356e+00	 1.079381781837306e+01
0	 3.428551072920193e+00	 2.142856795650926e+00	 1.082650778778033e+01
0	 3.428551072920194e+00	 2.285707441247719e+00	 1.083487043099518e+01
0	 3.428551072920194e+00	 2.428558020182488e+00	 1.081857576899777e+01
0	 3.428551072920194e+00	 2.571408549120992e+00	 1.077729384329307e+01
0	 3.428551072920194e+00	 2.714259044728985e+00	 1.071069471591096e+01
0	 3.428551072920193e+00	 2.857109523672222e+00	 1.061844846940632e+01
0	 3.571411210233102e+00	 1.428601984435185e+00	 1.045801853480372e+01
0	 3.571411210233102e+00	 1.571453213328422e+00	 1.056080190157282e+01
0	 3.571411210233102e+00	 1.714304292230859e+00	 1.064352238523645e+01
0	 3.571411210233103e+00	 1.857155237808252e+00	 1.070614801224214e+01
0	 3.571411210233102e+00	 2.000006066726355e+00	 1.074864682635361e+01
0	 3.571411210233103e+00	 2.142856795650926e+00	 1.077098688865104e+01
0	 3.571411210233104e+00	 2.285707441247719e+00	 1.077313627753121e+01
0	 3.571411210233103e+00	 2.428558020182488e+00	 1.075506308870759e+01
0	 3.571411210233103e+00	 2.571408549120992e+00	 1.071673543521050e+01
0	 3.571411210233102e+00	 2.714259044728984e+00	 1.065812144738708e+01
0	 3.571411210233103e+00	 2.857109523672223e+00	 1.057918927290146e+01
0	 3.714271180879290e+00	 1.428601984435185e+00	 1.049910506339963e+01
0	 3.714271180879289e+00	 1.571453213328422e+00	 1.056958069702633e+01
0	 3.714271180879289e+00	 1.714304292230859e+00	 1.062460252275791e+01
0	 3.714271180879290e+00	 1.857155237808251e+00	 1.066435081203875e+01
0	 3.714271180879290e+00	 2.000006066726356e+00	 1.068900584948988e+01
0	 3.714271180879290e+00	 2.142856795650925e+00	 1.069874793290906e+01
0	 3.714271180879290e+00	 2.285707441247718e+00	 1.069375737327094e+01
0	 3.714271180879290e+00	 2.428558020182488e+00	 1.067421449472710e+01
0	 3.714271180879289e+00	 2.571408549120992e+00	 1.064029963460623e+01
0	 3.714271180879289e+00	 2.714259044728984e+00	 1.059219314341405e+01
0	 3.714271180879290e+00	 2.857109523672222e+00	 1.053007538483346e+01
0	 3.857130951525211e+00	 1.428601984435185e+00	 1.054143857557709e+01
0	 3.857130951525211e+00	 1.571453213328422e+00	 1.057550193351610e+01
0	 3.857130951525211e+00	 1.714304292230859e+00	 1.059972925224944e+01
0	 3.857130951525210e+00	 1.857155237808251e+00	 1.061442720224542e+01
0	 3.857130951525211e+00	 2.000006066726355e+00	 1.061990246253684e+01
0	 3.857130951525211e+00	 2.142856795650925e+00	 1.061646172072108e+01
0	 3.857130951525210e+00	 2.285707441247718e+00	 1.060441167296017e+01
0	 3.857130951525210e+00	 2.428558020182488e+00	 1.058405902398088e+01
0	 3.857130951525211e+00	 2.571408549120992e+00	 1.055571048707474e+01
0	 3.857130951525210e+00	 2.714259044728984e+00	 1.051967278409810e+01
0	 3.857130951525211e+00	 2.857109523672221e+00	 1.047625264547212e+01
0	 3.999990488837321e+00	 1.428601984435185e+00	 1.057681306932662e+01
0	 3.999990488837320e+00	 1.571453213328422e+00	 1.057464709413767e+01
0	 3.999990488837320e+00	 1.714304292230859e+00	 1.056861548240955e+01
0	 3.999990488837320e+00	 1.857155237808251e+00	 1.055906545413664e+01
0	 3.999990488837320e+00	 2.000006066726355e+00	 1.054634423325236e+01
0	 3.999990488837319e+00	 2.142856795650925e+00	 1.053079904762932e+01
0	 3.999990488837319e+00	 2.285707441247717e+00	 1.051277712907931e+01
0	 3.999990488837319e+00	 2.428558020182487e+00	 1.049262571335333e+01
0	 3.999990488837320e+00	 2.571408549120991e+00	 1.047069204014161e+01
0	 3.999990488837320e+00	 2.714259044728984e+00	 1.044732335307367e+01
0	 3.999990488837320e+00	 2.857109523672222e+00	 1.042286689971827e+01
0	 4.142849759482075e+00	 1.428601984435185e+00	 1.059702252841890e+01
0	 4.142849759482074e+00	 1.571453213328422e+00	 1.056309764899182e+01
0	 4.142849759482074e+00	 1.714304292230859e+00	 1.053097411063428e+01
0	 4.142849759482075e+00	 1.857155237808251e+00	 1.050095382972368e+01
0	 4.142849759482075e+00	 2.000006066726355e+00	 1.047333872239716e+01
0	 4.142849759482074e+00	 2.142856795650925e+00	 1.044843070455153e+01
0	 4.142849759482075e+00	 2.285707441247718e+00	 1.042653169184331e+01
0	 4.142849759482075e+00	 2.428558020182488e+00	 1.040794359968868e+01
0	 4.142849759482074e+00	 2.571408549120992e+00	 1.039296834326355e+01
0	 4.142849759482075e+00	 2.714259044728986e+00	 1.038190783750350e+01
0	 4.142849759482075e+00	 2.857109523672223e+00	 1.037506399710380e+01
0	 4.285708730125926e+00	 1.428601984435185e+00	 1.059386092240446e+01
0	 4.285708730125925e+00	 1.571453213328422e+00	 1.053693505518439e+01
0	 4.285708730125926e+00	 1.714304292230859e+00	 1.048651802301696e+01
0	 4.285708730125926e+00	 1.857155237808252e+00	 1.044278058175448e+01
0	 4.285708730125926e+00	 2.000006066726355e+00	 1.040589348373472e+01
0	 4.285708730125927e+00	 2.142856795650926e+00	 1.037602747778090e+01
0	 4.285708730125925e+00	 2.285707441247717e+00	 1.035335330920167e+01
0	 4.285708730125926e+00	 2.428558020182488e+00	 1.033804171979106e+01
0	 4.285708730125926e+00	 2.571408549120993e+00	 1.033026344782849e+01
0	 4.285708730125926e+00	 2.714259044728984e+00	 1.033018922807870e+01
0	 4.285708730125926e+00	 2.857109523672222e+00	 1.033798979179179e+01
0	 2.857109523672222e+00	 2.857109523672222e+00	 1.057402169647819e+01
0	 2.857109523672222e+00	 2.999969994316576e+00	 1.048584963046304e+01
0	 2.857109523672223e+00	 3.142830431628385e+00	 1.040386494011073e+01
0	 2.857109523672222e+00	 3.285690802274106e+00	 1.032890408519304e+01
0	 2.857109523672222e+00	 3.428551072920193e+00	 1.026180354028316e+01
0	 2.857109523672223e+00	 3.571411210233103e+00	 1.020339979475563e+01
0	 2.857109523672222e+00	 3.714271180879290e+00	 1.015452935278635e+01
0	 2.857109523672222e+00	 3.857130951525211e+00	 1.011602873335263e+01
0	 2.857109523672222e+00	 3.999990488837320e+00	 1.008873447023327e+01
0	 2.857109523672223e+00	 4.142849759482074e+00	 1.007348311200875e+01
0	 2.857109523672222e+00	 4.285708730125926e+00	 1.007111122206138e+01
0	 2.999969994316576e+00	 2.857109523672223e+00	 1.062563957630691e+01
0	 2.999969994316576e+00	 2.999969994316576e+00	 1.052055391755417e+01
0	 2.999969994316576e+00	 3.142830431628386e+00	 1.042597350682996e+01
0	 2.999969994316577e+00	 3.285690802274106e+00	 1.034229802838878e+01
0	 2.999969994316577e+00	 3.428551072920193e+00	 1.026992718402258e+01
0	 2.999969994316576e+00	 3.571411210233103e+00	 1.020926069306082e+01
0	 2.999969994316576e+00	 3.714271180879289e+00	 1.016069829237034e+01
0	 2.999969994316577e+00	 3.857130951525210e+00	 1.012463973635559e+01
0	 2.999969994316577e+00	 3.999990488837320e+00	 1.010148479695858e+01
0	 2.999969994316575e+00	 4.142849759482073e+00	 1.009163326365924e+01
0	 2.999969994316576e+00	 4.285708730125926e+00	 1.009548494347556e+01
0	 3.142830431628385e+00	 2.857109523672222e+00	 1.064681944980171e+01
0	 3.142830431628385e+00	 2.999969994316576e+00	 1.053560662251409e+01
0	 3.142830431628386e+00	 3.142830431628385e+00	 1.043735248243616e+01
0	 3.142830431628385e+00	 3.285690802274106e+00	 1.035209079023666e+01
0	 3.142830431628385e+00	 3.428551072920193e+00	 1.027985532476319e+01
0	 3.142830431628385e+00	 3.571411210233102e+00	 1.022067988304215e+01
0	 3.142830431628385e+00	 3.714271180879290e+00	 1.017459828027877e+01
0	 3.142830431628385e+00	 3.857130951525210e+00	 1.014164434985718e+01
0	 3.142830431628386e+00	 3.999990488837320e+00	 1.012185194334055e+01
0	 3.142830431628385e+00	 4.142849759482072e+00	 1.011525493047124e+01
0	 3.142830431628385e+00	 4.285708730125926e+00	 1.012188719917119e+01
0	 3.285690802274106e+00	 2.857109523672222e+00	 1.064270713870908e+01
0	 3.285690802274106e+00	 2.999969994316576e+00	 1.053434071736849e+01
0	 3.285690802274106e+00	 3.142830431628386e+00	 1.043978692173007e+01
0	 3.285690802274105e+00	 3.285690802274105e+00	 1.035878443982129e+01
0	 3.285690802274106e+00	 3.428551072920194e+00	 1.029107197676595e+01
0	 3.285690802274106e+00	 3.571411210233103e+00	 1.023638825478424e+01
0	 3.285690802274104e+00	 3.714271180879289e+00	 1.019447201319269e+01
0	 3.285690802274106e+00	 3.857130951525210e+00	 1.016506200840425e+01
0	 3.285690802274106e+00	 3.999990488837320e+00	 1.014789701392840e+01
0	 3.285690802274106e+00	 4.142849759482074e+00	 1.014271582037141e+01
0	 3.285690802274106e+00	 4.285708730125926e+00	 1.014925723543648e+01
0	 3.428551072920193e+00	 2.857109523672222e+00	 1.061844846940632e+01
0	 3.428551072920192e+00	 2.999969994316576e+00	 1.052008917929861e+01
0	 3.428551072920193e+00	 3.142830431628385e+00	 1.043506188467741e+01
0	 3.428551072920194e+00	 3.285690802274106e+00	 1.036288105098535e+01
0	 3.428551072920193e+00	 3.428551072920192e+00	 1.030306115832606e+01
0	 3.428551072920194e+00	 3.571411210233104e+00	 1.025511670146414e+01
0	 3.428551072920192e+00	 3.714271180879289e+00	 1.021856218982512e+01
0	 3.428551072920194e+00	 3.857130951525211e+00	 1.019291214749556e+01
0	 3.428551072920193e+00	 3.999990488837320e+00	 1.017768111322309e+01
0	 3.428551072920193e+00	 4.142849759482074e+00	 1.017238364041661e+01
0	 3.428551072920193e+00	 4.285708730125926e+00	 1.017653429714652e+01
0	 3.571411210233103e+00	 2.857109523672223e+00	 1.057918927290146e+01
0	 3.571411210233102e+00	 2.999969994316576e+00	 1.049618499064135e+01
0	 3.571411210233103e+00	 3.142830431628385e+00	 1.042496243640887e+01
0	 3.571411210233103e+00	 3.285690802274106e+00	 1.036488270232966e+01
0	 3.571411210233103e+00	 3.428551072920193e+00	 1.031530689177290e+01
0	 3.571411210233104e+00	 3.571411210233103e+00	 1.027559611935129e+01
0	 3.571411210233103e+00	 3.714271180879290e+00	 1.024511151092103e+01
0	 3.571411210233101e+00	 3.857130951525210e+00	 1.022321420358188e+01
0	 3.571411210233103e+00	 3.999990488837321e+00	 1.020926534567716e+01
0	 3.571411210233102e+00	 4.142849759482074e+00	 1.020262609679396e+01
0	 3.571411210233103e+00	 4.285708730125926e+00	 1.020265762776319e+01
0	 3.714271180879290e+00	 2.857109523672222e+00	 1.053007538483346e+01
0	 3.714271180879289e+00	 2.999969994316576e+00	 1.046596113888920e+01
0	 3.714271180879290e+00	 3.142830431628385e+00	 1.041127364722020e+01
0	 3.714271180879288e+00	 3.285690802274104e+00	 1.036529147721325e+01
0	 3.714271180879289e+00	 3.428551072920193e+00	 1.032729320347013e+01
0	 3.714271180879290e+00	 3.571411210233103e+00	 1.029655740780762e+01
0	 3.714271180879290e+00	 3.714271180879290e+00	 1.027236267925736e+01
0	 3.714271180879290e+00	 3.857130951525211e+00	 1.025398761406594e+01
0	 3.714271180879289e+00	 3.999990488837319e+00	 1.024071081569490e+01
0	 3.714271180879289e+00	 4.142849759482075e+00	 1.023181089482080e+01
0	 3.714271180879289e+00	 4.285708730125926e+00	 1.022656646933525e+01
0	 3.857130951525211e+00	 2.857109523672221e+00	 1.047625264547212e+01
0	 3.857130951525211e+00	 2.999969994316577e+00	 1.043275061669044e+01
0	 3.857130951525210e+00	 3.142830431628385e+00	 1.039578059257222e+01
0	 3.857130951525210e+00	 3.285690802274106e+00	 1.036460946375330e+01
0	 3.857130951525210e+00	 3.428551072920193e+00	 1.033850412381569e+01
0	 3.857130951525210e+00	 3.571411210233102e+00	 1.031673146928752e+01
0	 3.857130951525211e+00	 3.714271180879290e+00	 1.029855839964301e+01
0	 3.857130951525210e+00	 3.857130951525210e+00	 1.028325181730247e+01
0	 3.857130951525209e+00	 3.999990488837319e+00	 1.027007862763223e+01
0	 3.857130951525210e+00	 4.142849759482075e+00	 1.025830573894469e+01
0	 3.857130951525211e+00	 4.285708730125926e+00	 1.024720006249826e+01
0	 3.999990488837320e+00	 2.857109523672222e+00	 1.042286689971827e+01
0	 3.999990488837319e+00	 2.999969994316575e+00	 1.039988642184908e+01
0	 3.999990488837319e+00	 3.142830431628385e+00	 1.038026835309094e+01
0	 3.999990488837320e+00	 3.285690802274106e+00	 1.036333875482536e+01
0	 3.999990488837320e+00	 3.428551072920193e+00	 1.034842368724185e+01
0	 3.999990488837320e+00	 3.571411210233103e+00	 1.033484920933793e+01
0	 3.999990488837319e+00	 3.714271180879289e+00	 1.032194137891896e+01
0	 3.999990488837321e+00	 3.857130951525211e+00	 1.030902625259823e+01
0	 3.999990488837320e+00	 3.999990488837320e+00	 1.029542988579677e+01
0	 3.999990488837320e+00	 4.142849759482075e+00	 1.028047833274340e+01
0	 3.999990488837320e+00	 4.285708730125926e+00	 1.026349764647462e+01
0	 4.142849759482075e+00	 2.857109523672223e+00	 1.037506399710380e+01
0	 4.142849759482072e+00	 2.999969994316575e+00	 1.037070155732506e+01
0	 4.142849759482074e+00	 3.142830431628385e+00	 1.036652201456761e+01
0	 4.142849759482075e+00	 3.285690802274106e+00	 1.036198144806330e+01
0	 4.142849759482075e+00	 3.428551072920193e+00	 1.035653593221535e+01
0	 4.142849759482074e+00	 3.571411210233103e+00	 1.034964153659836e+01
0	 4.142849759482075e+00	 3.714271180879290e+00	 1.034075432595821e+01
0	 4.142849759482075e+00	 3.857130951525210e+00	 1.032933036021196e+01
0	 4.142849759482075e+00	 3.999990488837320e+00	 1.031482569444781e+01
0	 4.142849759482075e+00	 4.142849759482075e+00	 1.029669637892496e+01
0	 4.142849759482073e+00	 4.285708730125925e+00	 1.027439845907349e+01
0	 4.285708730125926e+00	 2.857109523672222e+00	 1.033798979179179e+01
0	 4.285708730125926e+00	 2.999969994316576e+00	 1.034852903123433e+01
0	 4.285708730125926e+00	 3.142830431628385e+00	 1.035632666795888e+01
0	 4.285708730125926e+00	 3.285690802274106e+00	 1.036103964585948e+01
0	 4.285708730125926e+00	 3.428551072920192e+00	 1.036232490123738e+01
0	 4.285708730125926e+00	 3.571411210233102e+00	 1.035983936280101e+01
0	 4.285708730125926e+00	 3.714271180879290e+00	 1.035323995166588e+01
0	 4.285708730125926e+00	 3.857130951525210e+00	 1.034218358135451e+01
0	 4.285708730125926e+00	 3.999990488837321e+00	 1.032632715779634e+01
0	 4.285708730125926e+00	 4.142849759482074e+00	 1.030532757932754e+01
0	 4.285708730125926e+00	 4.285708730125926e+00	 1.027884173669085e+01
0	 2.857109523672222e+00	 4.285708730125926e+00	 1.007111122206138e+01
0	 2.857109523672222e+00	 4.428567384102073e+00	 1.007575812744352e+01
0	 2.857109523672223e+00	 4.571425771410668e+00	 1.008058318251824e+01
0	 2.857109523672222e+00	 4.714283958718593e+00	 1.008495300763217e+01
0	 2.857109523672223e+00	 4.857142012692742e+00	 1.008823422966084e+01
0	 2.857109523672222e+00	 5.000000000000001e+00	 1.008979348200869e+01
0	 2.857109523672222e+00	 5.142857987307261e+00	 1.008899740460905e+01
0	 2.857109523672222e+00	 5.285716041281408e+00	 1.008521264392398e+01
0	 2.857109523672222e+00	 5.428574228589336e+00	 1.007780585294416e+01
0	 2.857109523672222e+00	 5.571432615897928e+00	 1.006614369118872e+01
0	 2.857109523672222e+00	 5.714291269874074e+00	 1.004959282470492e+01
0	 2.999969994316576e+00	 4.285708730125926e+00	 1.009548494347556e+01
0	 2.999969994316576e+00	 4.428567384102075e+00	 1.010547132671629e+01
0	 2.999969994316576e+00	 4.571425771410667e+00	 1.011351809959182e+01
0	 2.999969994316576e+00	 4.714283958718593e+00	 1.011926638275511e+01
0	 2.999969994316576e+00	 4.857142012692742e+00	 1.012235730569748e+01
0	 2.999969994316576e+00	 5.000000000000002e+00	 1.012243200674874e+01
0	 2.999969994316576e+00	 5.142857987307261e+00	 1.011913163307706e+01
0	 2.999969994316576e+00	 5.285716041281409e+00	 1.011209734068899e+01
0	 2.999969994316576e+00	 5.428574228589337e+00	 1.010097029442924e+01
0	 2.999969994316576e+00	 5.571432615897927e+00	 1.008539166798053e+01
0	 2.999969994316576e+00	 5.714291269874074e+00	 1.006500264386325e+01
0	 3.142830431628385e+00	 4.285708730125926e+00	 1.012188719917119e+01
0	 3.142830431628385e+00	 4.428567384102073e+00	 1.013355926036698e+01
0	 3.142830431628384e+00	 4.571425771410667e+00	 1.014197245298655e+01
0	 3.142830431628386e+00	 4.714283958718592e+00	 1.014699692774288e+01
0	 3.142830431628385e+00	 4.857142012692742e+00	 1.014850284488820e+01
0	 3.142830431628386e+00	 5.000000000000002e+00	 1.014636037421401e+01
0	 3.142830431628385e+00	 5.142857987307261e+00	 1.014043969505110e+01
0	 3.142830431628386e+00	 5.285716041281408e+00	 1.013061099626947e+01
0	 3.142830431628385e+00	 5.428574228589335e+00	 1.011674447627816e+01
0	 3.142830431628386e+00	 5.571432615897928e+00	 1.009871034302507e+01
0	 3.142830431628385e+00	 5.714291269874074e+00	 1.007637881399667e+01
0	 3.285690802274106e+00	 4.285708730125926e+00	 1.014925723543648e+01
0	 3.285690802274106e+00	 4.428567384102074e+00	 1.015961266694219e+01
0	 3.285690802274105e+00	 4.571425771410666e+00	 1.016608344413336e+01
0	 3.285690802274106e+00	 4.714283958718593e+00	 1.016872327636966e+01
0	 3.285690802274105e+00	 4.857142012692742e+00	 1.016758588193620e+01
0	 3.285690802274106e+00	 5.000000000000000e+00	 1.016272498804369e+01
0	 3.285690802274106e+00	 5.142857987307260e+00	 1.015419433082834e+01
0	 3.285690802274107e+00	 5.285716041281410e+00	 1.014204765535183e+01
0	 3.285690802274106e+00	 5.428574228589335e+00	 1.012633871560113e+01
0	 3.285690802274106e+00	 5.571432615897930e+00	 1.010712127448834e+01
0	 3.285690802274106e+00	 5.714291269874074e+00	 1.008444910385038e+01
0	 3.428551072920193e+00	 4.285708730125926e+00	 1.017653429714652e+01
0	 3.428551072920194e+00	 4.428567384102075e+00	 1.018322228338201e+01
0	 3.428551072920194e+00	 4.571425771410667e+00	 1.018598827297699e+01
0	 3.428551072920191e+00	 4.714283958718593e+00	 1.018502406129357e+01
0	 3.428551072920193e+00	 4.857142012692742e+00	 1.018052145098512e+01
0	 3.428551072920193e+00	 5.000000000000001e+00	 1.017267225199635e+01
0	 3.428551072920192e+00	 5.142857987307259e+00	 1.016166828156321e+01
0	 3.428551072920193e+00	 5.285716041281409e+00	 1.014770136421283e+01
0	 3.428551072920194e+00	 5.428574228589336e+00	 1.013096333176336e+01
0	 3.428551072920193e+00	 5.571432615897928e+00	 1.011164602332383e+01
0	 3.428551072920193e+00	 5.714291269874074e+00	 1.008994128529380e+01
0	 3.571411210233103e+00	 4.285708730125926e+00	 1.020265762776319e+01
0	 3.571411210233102e+00	 4.428567384102075e+00	 1.020397884502011e+01
0	 3.571411210233102e+00	 4.571425771410667e+00	 1.020182413797598e+01
0	 3.571411210233101e+00	 4.714283958718593e+00	 1.019647791405673e+01
0	 3.571411210233102e+00	 4.857142012692742e+00	 1.018822458561895e+01
0	 3.571411210233104e+00	 5.000000000000002e+00	 1.017734856994988e+01
0	 3.571411210233102e+00	 5.142857987307260e+00	 1.016413428926732e+01
0	 3.571411210233101e+00	 5.285716041281408e+00	 1.014886617071951e+01
0	 3.571411210233103e+00	 5.428574228589335e+00	 1.013182864638502e+01
0	 3.571411210233102e+00	 5.571432615897927e+00	 1.011330615327253e+01
0	 3.571411210233102e+00	 5.714291269874074e+00	 1.009358313332074e+01
0	 3.714271180879289e+00	 4.285708730125926e+00	 1.022656646933525e+01
0	 3.714271180879290e+00	 4.428567384102074e+00	 1.022147308558369e+01
0	 3.714271180879290e+00	 4.571425771410668e+00	 1.021372823610267e+01
0	 3.714271180879290e+00	 4.714283958718593e+00	 1.020366346508522e+01
0	 3.714271180879290e+00	 4.857142012692742e+00	 1.019161031886205e+01
0	 3.714271180879290e+00	 5.000000000000003e+00	 1.017790034590151e+01
0	 3.714271180879289e+00	 5.142857987307260e+00	 1.016286509680948e+01
0	 3.714271180879290e+00	 5.285716041281409e+00	 1.014683612432921e+01
0	 3.714271180879289e+00	 5.428574228589335e+00	 1.013014498334118e+01
0	 3.714271180879290e+00	 5.571432615897928e+00	 1.011312323086302e+01
0	 3.714271180879289e+00	 5.714291269874075e+00	 1.009610242604925e+01
0	 3.857130951525211e+00	 4.285708730125926e+00	 1.024720006249826e+01
0	 3.857130951525210e+00	 4.428567384102076e+00	 1.023529573719347e+01
0	 3.857130951525209e+00	 4.571425771410667e+00	 1.022183776284323e+01
0	 3.857130951525211e+00	 4.714283958718594e+00	 1.020715934368909e+01
0	 3.857130951525210e+00	 4.857142012692740e+00	 1.019159368317914e+01
0	 3.857130951525210e+00	 5.000000000000001e+00	 1.017547398396780e+01
0	 3.857130951525210e+00	 5.142857987307262e+00	 1.015913344791573e+01
0	 3.857130951525211e+00	 5.285716041281410e+00	 1.014290527608958e+01
0	 3.857130951525210e+00	 5.428574228589335e+00	 1.012712266876198e+01
0	 3.857130951525211e+00	 5.571432615897929e+00	 1.011211882541136e+01
0	 3.857130951525210e+00	 5.714291269874074e+00	 1.009822694472176e+01
0	 3.999990488837320e+00	 4.285708730125926e+00	 1.026349764647462e+01
0	 3.999990488837320e+00	 4.428567384102074e+00	 1.024503753036369e+01
0	 3.999990488837321e+00	 4.571425771410668e+00	 1.022628991219754e+01
0	 3.999990488837320e+00	 4.714283958718593e+00	 1.020754417806233e+01
0	 3.999990488837320e+00	 4.857142012692742e+00	 1.018908971047531e+01
0	 3.999990488837321e+00	 5.000000000000001e+00	 1.017121588838467e+01
0	 3.999990488837319e+00	 5.142857987307260e+00	 1.015421208716928e+01
0	 3.999990488837319e+00	 5.285716041281409e+00	 1.013836767863859e+01
0	 3.999990488837320e+00	 5.428574228589336e+00	 1.012397203103250e+01
0	 3.999990488837319e+00	 5.571432615897927e+00	 1.011131450902118e+01
0	 3.999990488837321e+00	 5.714291269874074e+00	 1.010068447370507e+01
0	 4.142849759482073e+00	 4.285708730125925e+00	 1.027439845907349e+01
0	 4.142849759482074e+00	 4.428567384102074e+00	 1.025028919400205e+01
0	 4.142849759482074e+00	 4.571425771410667e+00	 1.022722187667930e+01
0	 4.142849759482075e+00	 4.714283958718593e+00	 1.020539659528287e+01
0	 4.142849759482075e+00	 4.857142012692742e+00	 1.018501343209601e+01
0	 4.142849759482074e+00	 5.000000000000000e+00	 1.016627246350734e+01
0	 4.142849759482075e+00	 5.142857987307260e+00	 1.014937376001061e+01
0	 4.142849759482074e+00	 5.285716041281408e+00	 1.013451738620459e+01
0	 4.142849759482074e+00	 5.428574228589335e+00	 1.012190340079286e+01
0	 4.142849759482074e+00	 5.571432615897927e+00	 1.011173185658376e+01
0	 4.142849759482075e+00	 5.714291269874074e+00	 1.010420280049034e+01
0	 4.285708730125926e+00	 4.285708730125926e+00	 1.027884173669085e+01
0	 4.285708730125926e+00	 4.428567384102075e+00	 1.025064145540973e+01
0	 4.285708730125926e+00	 4.571425771410667e+00	 1.022477084731589e+01
0	 4.285708730125926e+00	 4.714283958718593e+00	 1.020129522131254e+01
0	 4.285708730125926e+00	 4.857142012692742e+00	 1.018027987882699e+01
0	 4.285708730125926e+00	 5.000000000000001e+00	 1.016179011381038e+01
0	 4.285708730125926e+00	 5.142857987307262e+00	 1.014589121273742e+01
0	 4.285708730125926e+00	 5.285716041281411e+00	 1.013264845460624e+01
0	 4.285708730125925e+00	 5.428574228589334e+00	 1.012212711093823e+01
0	 4.285708730125926e+00	 5.571432615897929e+00	 1.011439244577798e+01
0	 4.285708730125925e+00	 5.714291269874074e+00	 1.010950971569323e+01
0	 2.857109523672222e+00	 5.714291269874074e+00	 1.004959282470492e+01
0	 2.857109523672222e+00	 5.857150240517928e+00	 1.003081235460809e+01
0	 2.857109523672222e+00	 6.000009511162682e+00	 1.001319200715557e+01
0	 2.857109523672222e+00	 6.142869048474791e+00	 9.997194395086229e+00
0	 2.857109523672222e+00	 6.285728819120712e+00	 9.983282136582350e+00
0	 2.857109523672222e+00	 6.428588789766900e+00	 9.971917855269469e+00
0	 2.857109523672222e+00	 6.571448927079808e+00	 9.963564180216270e+00
0	 2.857109523672222e+00	 6.714309197725895e+00	 9.958683745934499e+00
0	 2.857109523672222e+00	 6.857169568371616e+00	 9.957739192378863e+00
0	 2.857109523672222e+00	 7.000030005683426e+00	 9.961193164947030e+00
0	 2.857109523672222e+00	 7.142890476327777e+00	 9.969508314479558e+00
0	 2.999969994316576e+00	 5.714291269874074e+00	 1.006500264386325e+01
0	 2.999969994316576e+00	 5.857150240517929e+00	 1.004311525570625e+01
0	 2.999969994316576e+00	 6.000009511162682e+00	 1.002346305704203e+01
0	 2.999969994316577e+00	 6.142869048474792e+00	 1.000631952104810e+01
0	 2.999969994316576e+00	 6.285728819120711e+00	 9.991958126466509e+00
0	 2.999969994316576e+00	 6.428588789766899e+00	 9.980652357603772e+00
0	 2.999969994316577e+00	 6.571448927079809e+00	 9.972675704330676e+00
0	 2.999969994316576e+00	 6.714309197725897e+00	 9.968301662082242e+00
0	 2.999969994316576e+00	 6.857169568371617e+00	 9.967803731857646e+00
0	 2.999969994316576e+00	 7.000030005683427e+00	 9.971455420220103e+00
0	 2.999969994316576e+00	 7.142890476327779e+00	 9.979530239296913e+00
0	 3.142830431628385e+00	 5.714291269874074e+00	 1.007637881399667e+01
0	 3.142830431628385e+00	 5.857150240517927e+00	 1.005327334389019e+01
0	 3.142830431628385e+00	 6.000009511162681e+00	 1.003308031809814e+01
0	 3.142830431628385e+00	 6.142869048474791e+00	 1.001591436131315e+01
0	 3.142830431628385e+00	 6.285728819120711e+00	 1.000189010357367e+01
0	 3.142830431628386e+00	 6.428588789766899e+00	 9.991122180263833e+00
0	 3.142830431628385e+00	 6.571448927079808e+00	 9.983725232113372e+00
0	 3.142830431628385e+00	 6.714309197725898e+00	 9.979813905197478e+00
0	 3.142830431628385e+00	 6.857169568371616e+00	 9.979502850936788e+00
0	 3.142830431628385e+00	 7.000030005683426e+00	 9.982906726097243e+00
0	 3.142830431628385e+00	 7.142890476327778e+00	 9.990140192790122e+00
0	 3.285690802274106e+00	 5.714291269874074e+00	 1.008444910385038e+01
0	 3.285690802274106e+00	 5.857150240517927e+00	 1.006169218893168e+01
0	 3.285690802274105e+00	 6.000009511162682e+00	 1.004217537134654e+01
0	 3.285690802274106e+00	 6.142869048474791e+00	 1.002588471782118e+01
0	 3.285690802274105e+00	 6.285728819120711e+00	 1.001280629993649e+01
0	 3.285690802274106e+00	 6.428588789766898e+00	 1.000292619412793e+01
0	 3.285690802274105e+00	 6.571448927079808e+00	 9.996230481685362e+00
0	 3.285690802274106e+00	 6.714309197725895e+00	 9.992705248753040e+00
0	 3.285690802274106e+00	 6.857169568371618e+00	 9.992336586329525e+00
0	 3.285690802274106e+00	 7.000030005683427e+00	 9.995110590267533e+00
0	 3.285690802274106e+00	 7.142890476327779e+00	 1.000101336127401e+01
0	 3.428551072920193e+00	 5.714291269874074e+00	 1.008994128529380e+01
0	 3.428551072920193e+00	 5.857150240517929e+00	 1.006877736382182e+01
0	 3.428551072920193e+00	 6.000009511162683e+00	 1.005087980090722e+01
0	 3.428551072920192e+00	 6.142869048474789e+00	 1.003613639531269e+01
0	 3.428551072920193e+00	 6.285728819120712e+00	 1.002443494995950e+01
0	 3.428551072920193e+00	 6.428588789766898e+00	 1.001566327192745e+01
0	 3.428551072920193e+00	 6.571448927079810e+00	 1.000970917245469e+01
0	 3.428551072920193e+00	 6.714309197725896e+00	 1.000646046693772e+01
0	 3.428551072920193e+00	 6.857169568371617e+00	 1.000580497493130e+01
0	 3.428551072920193e+00	 7.000030005683425e+00	 1.000763052014836e+01
0	 3.428551072920194e+00	 7.142890476327778e+00	 1.001182493045999e+01
0	 3.571411210233102e+00	 5.714291269874074e+00	 1.009358313332074e+01
0	 3.571411210233102e+00	 5.857150240517928e+00	 1.007493444477103e+01
0	 3.571411210233104e+00	 6.000009511162683e+00	 1.005932519399748e+01
0	 3.571411210233102e+00	 6.142869048474791e+00	 1.004657520132888e+01
0	 3.571411210233103e+00	 6.285728819120713e+00	 1.003650429041909e+01
0	 3.571411210233103e+00	 6.428588789766900e+00	 1.002893228824702e+01
0	 3.571411210233103e+00	 6.571448927079809e+00	 1.002367902511651e+01
0	 3.571411210233102e+00	 6.714309197725896e+00	 1.002056433465626e+01
0	 3.571411210233102e+00	 6.857169568371615e+00	 1.001940805381979e+01
0	 3.571411210233103e+00	 7.000030005683426e+00	 1.002003002288538e+01
0	 3.571411210233103e+00	 7.142890476327778e+00	 1.002225008545601e+01
0	 3.714271180879289e+00	 5.714291269874075e+00	 1.009610242604925e+01
0	 3.714271180879290e+00	 5.857150240517928e+00	 1.008056901120910e+01
0	 3.714271180879290e+00	 6.000009511162684e+00	 1.006764314093201e+01
0	 3.714271180879289e+00	 6.142869048474791e+00	 1.005710694621167e+01
0	 3.714271180879289e+00	 6.285728819120712e+00	 1.004874256046347e+01
0	 3.714271180879290e+00	 6.428588789766899e+00	 1.004233211952440e+01
0	 3.714271180879289e+00	 6.571448927079808e+00	 1.003765776165302e+01
0	 3.714271180879290e+00	 6.714309197725897e+00	 1.003450162752936e+01
0	 3.714271180879290e+00	 6.857169568371616e+00	 1.003264586025491e+01
0	 3.714271180879291e+00	 7.000030005683426e+00	 1.003187260535254e+01
0	 3.714271180879291e+00	 7.142890476327779e+00	 1.003196401076652e+01
0	 3.857130951525210e+00	 5.714291269874074e+00	 1.009822694472176e+01
0	 3.857130951525211e+00	 5.857150240517927e+00	 1.008608664578518e+01
0	 3.857130951525210e+00	 6.000009511162681e+00	 1.007596523512283e+01
0	 3.857130951525210e+00	 6.142869048474790e+00	 1.006763744310374e+01
0	 3.857130951525210e+00	 6.285728819120711e+00	 1.006087800161277e+01
0	 3.857130951525210e+00	 6.428588789766899e+00	 1.005546164405058e+01
0	 3.857130951525210e+00	 6.571448927079809e+00	 1.005116310533354e+01
0	 3.857130951525211e+00	 6.714309197725898e+00	 1.004775712189369e+01
0	 3.857130951525210e+00	 6.857169568371615e+00	 1.004501843167877e+01
0	 3.857130951525210e+00	 7.000030005683426e+00	 1.004272177415207e+01
0	 3.857130951525211e+00	 7.142890476327778e+00	 1.004064189029252e+01
0	 3.999990488837321e+00	 5.714291269874074e+00	 1.010068447370507e+01
0	 3.999990488837320e+00	 5.857150240517927e+00	 1.009189293436780e+01
0	 3.999990488837320e+00	 6.000009511162682e+00	 1.008442307307936e+01
0	 3.999990488837320e+00	 6.142869048474791e+00	 1.007807250794848e+01
0	 3.999990488837320e+00	 6.285728819120711e+00	 1.007263885775899e+01
0	 3.999990488837319e+00	 6.428588789766900e+00	 1.006791974196971e+01
0	 3.999990488837319e+00	 6.571448927079809e+00	 1.006371278071443e+01
0	 3.999990488837320e+00	 6.714309197725894e+00	 1.005981559480189e+01
0	 3.999990488837320e+00	 6.857169568371616e+00	 1.005602580571573e+01
0	 3.999990488837320e+00	 7.000030005683426e+00	 1.005214103561448e+01
0	 3.999990488837320e+00	 7.142890476327778e+00	 1.004795890733152e+01
0	 4.142849759482075e+00	 5.714291269874074e+00	 1.010420280049034e+01
0	 4.142849759482075e+00	 5.857150240517927e+00	 1.009839346604497e+01
0	 4.142849759482075e+00	 6.000009511162682e+00	 1.009314825440846e+01
0	 4.142849759482075e+00	 6.142869048474791e+00	 1.008831795949011e+01
0	 4.142849759482075e+00	 6.285728819120713e+00	 1.008375337516604e+01
0	 4.142849759482075e+00	 6.428588789766899e+00	 1.007930529527917e+01
0	 4.142849759482074e+00	 6.571448927079809e+00	 1.007482451363919e+01
0	 4.142849759482075e+00	 6.714309197725896e+00	 1.007016182402252e+01
0	 4.142849759482073e+00	 6.857169568371615e+00	 1.006516802017233e+01
0	 4.142849759482074e+00	 7.000030005683427e+00	 1.005969389579848e+01
0	 4.142849759482075e+00	 7.142890476327779e+00	 1.005359024457752e+01
0	 4.285708730125925e+00	 5.714291269874074e+00	 1.010950971569323e+01
0	 4.285708730125926e+00	 5.857150240517928e+00	 1.010599383312415e+01
0	 4.285708730125926e+00	 6.000009511162682e+00	 1.010227238181448e+01
0	 4.285708730125926e+00	 6.142869048474793e+00	 1.009827961927366e+01
0	 4.285708730125926e+00	 6.285728819120710e+00	 1.009394980246979e+01
0	 4.285708730125925e+00	 6.428588789766899e+00	 1.008921718782960e+01
0	 4.285708730125926e+00	 6.571448927079809e+00	 1.008401603123842e+01
0	 4.285708730125926e+00	 6.714309197725895e+00	 1.007828058804016e+01
0	 4.285708730125926e+00	 6.857169568371619e+00	 1.007194511303737e+01
0	 4.285708730125926e+00	 7.000030005683427e+00	 1.006494386049110e+01
0	 4.285708730125926e+00	 7.142890476327779e+00	 1.005721108412101e+01
0	 2.857109523672222e+00	 7.142890476327777e+00	 9.969508314479558e+00
0	 2.857109523672222e+00	 7.285740955271015e+00	 9.979985502686285e+00
0	 2.857109523672222e+00	 7.428591450879006e+00	 9.989476772249498e+00
0	 2.857109523672222e+00	 7.571441979817511e+00	 9.997769261765143e+00
0	 2.857109523672222e+00	 7.714292558752279e+00	 1.000465011137535e+01
0	 2.857109523672223e+00	 7.857143204349073e+00	 1.000990646276841e+01
0	 2.857109523672223e+00	 7.999993933273644e+00	 1.001332545917881e+01
0	 2.857109523672222e+00	 8.142844762191746e+00	 1.001469424538719e+01
0	 2.857109523672222e+00	 8.285695707769142e+00	 1.001379996772034e+01
0	 2.857109523672222e+00	 8.428546786671577e+00	 1.001042977405120e+01
0	 2.857109523672222e+00	 8.571398015564816e+00	 1.000437081379882e+01
0	 2.999969994316576e+00	 7.142890476327779e+00	 9.979530239296913e+00
0	 2.999969994316575e+00	 7.285740955271011e+00	 9.989279659128416e+00
0	 2.999969994316576e+00	 7.428591450879006e+00	 9.997705349247189e+00
0	 2.999969994316575e+00	 7.571441979817511e+00	 1.000470394696843e+01
0	 2.999969994316576e+00	 7.714292558752281e+00	 1.001017209096716e+01
0	 2.999969994316576e+00	 7.857143204349073e+00	 1.001400642127807e+01
0	 2.999969994316577e+00	 7.999993933273647e+00	 1.001610357929570e+01
0	 2.999969994316576e+00	 8.142844762191746e+00	 1.001636020777431e+01
0	 2.999969994316576e+00	 8.285695707769140e+00	 1.001467295082787e+01
0	 2.999969994316576e+00	 8.428546786671577e+00	 1.001093845393013e+01
0	 2.999969994316576e+00	 8.571398015564817e+00	 1.000505336391454e+01
0	 3.142830431628385e+00	 7.142890476327778e+00	 9.990140192790118e+00
0	 3.142830431628385e+00	 7.285740955271012e+00	 9.998580629122486e+00
0	 3.142830431628385e+00	 7.428591450879007e+00	 1.000552180400131e+01
0	 3.142830431628386e+00	 7.571441979817511e+00	 1.001095104147015e+01
0	 3.142830431628386e+00	 7.714292558752282e+00	 1.001485566670148e+01
0	 3.142830431628386e+00	 7.857143204349076e+00	 1.001722300599666e+01
0	 3.142830431628385e+00	 7.999993933273643e+00	 1.001804038678589e+01
0	 3.142830431628385e+00	 8.142844762191746e+00	 1.001729513762826e+01
0	 3.142830431628385e+00	 8.285695707769140e+00	 1.001497458821170e+01
0	 3.142830431628386e+00	 8.428546786671578e+00	 1.001106606935299e+01
0	 3.142830431628386e+00	 8.571398015564814e+00	 1.000555691299775e+01
0	 3.285690802274106e+00	 7.142890476327779e+00	 1.000101336127402e+01
0	 3.285690802274106e+00	 7.285740955271013e+00	 1.000768978009268e+01
0	 3.285690802274105e+00	 7.428591450879005e+00	 1.001283450139926e+01
0	 3.285690802274105e+00	 7.571441979817509e+00	 1.001650672399118e+01
0	 3.285690802274106e+00	 7.714292558752280e+00	 1.001876564753280e+01
0	 3.285690802274107e+00	 7.857143204349074e+00	 1.001967047255543e+01
0	 3.285690802274106e+00	 7.999993933273643e+00	 1.001928040045729e+01
0	 3.285690802274106e+00	 8.142844762191746e+00	 1.001765463350355e+01
0	 3.285690802274106e+00	 8.285695707769142e+00	 1.001485237482630e+01
0	 3.285690802274106e+00	 8.428546786671577e+00	 1.001093282842456e+01
0	 3.285690802274106e+00	 8.571398015564814e+00	 1.000595519916424e+01
0	 3.428551072920194e+00	 7.142890476327778e+00	 1.001182493045999e+01
0	 3.428551072920193e+00	 7.285740955271015e+00	 1.001640847868113e+01
0	 3.428551072920192e+00	 7.428591450879003e+00	 1.001955180550609e+01
0	 3.428551072920193e+00	 7.571441979817511e+00	 1.002136717250160e+01
0	 3.428551072920192e+00	 7.714292558752280e+00	 1.002196684182179e+01
0	 3.428551072920192e+00	 7.857143204349075e+00	 1.002146307620811e+01
0	 3.428551072920194e+00	 7.999993933273646e+00	 1.001996813898946e+01
0	 3.428551072920194e+00	 8.142844762191752e+00	 1.001759429408207e+01
0	 3.428551072920193e+00	 8.285695707769140e+00	 1.001445380598959e+01
0	 3.428551072920194e+00	 8.428546786671578e+00	 1.001065893980298e+01
0	 3.428551072920193e+00	 8.571398015564817e+00	 1.000632196120061e+01
0	 3.571411210233103e+00	 7.142890476327778e+00	 1.002225008545601e+01
0	 3.571411210233103e+00	 7.285740955271015e+00	 1.002453809074791e+01
0	 3.571411210233103e+00	 7.428591450879006e+00	 1.002558207956436e+01
0	 3.571411210233103e+00	 7.571441979817511e+00	 1.002552856422056e+01
0	 3.571411210233102e+00	 7.714292558752281e+00	 1.002452405733529e+01
0	 3.571411210233103e+00	 7.857143204349074e+00	 1.002271507183100e+01
0	 3.571411210233102e+00	 7.999993933273643e+00	 1.002024812093379e+01
0	 3.571411210233103e+00	 8.142844762191748e+00	 1.001726971817334e+01
0	 3.571411210233103e+00	 8.285695707769140e+00	 1.001392637738302e+01
0	 3.571411210233103e+00	 8.428546786671577e+00	 1.001036461269977e+01
0	 3.571411210233103e+00	 8.571398015564816e+00	 1.000673093856422e+01
0	 3.714271180879291e+00	 7.142890476327779e+00	 1.003196401076652e+01
0	 3.714271180879289e+00	 7.285740955271014e+00	 1.003187998137102e+01
0	 3.714271180879290e+00	 7.428591450879007e+00	 1.003083368599425e+01
0	 3.714271180879291e+00	 7.571441979817512e+00	 1.002898707561630e+01
0	 3.714271180879290e+00	 7.714292558752281e+00	 1.002650210124640e+01
0	 3.714271180879289e+00	 7.857143204349073e+00	 1.002354071392292e+01
0	 3.714271180879289e+00	 7.999993933273643e+00	 1.002026486471333e+01
0	 3.714271180879291e+00	 8.142844762191750e+00	 1.001683650471429e+01
0	 3.714271180879291e+00	 8.285695707769142e+00	 1.001341758505147e+01
0	 3.714271180879290e+00	 8.428546786671582e+00	 1.001017005687978e+01
0	 3.714271180879290e+00	 8.571398015564814e+00	 1.000725587138317e+01
0	 3.857130951525211e+00	 7.142890476327778e+00	 1.004064189029252e+01
0	 3.857130951525211e+00	 7.285740955271013e+00	 1.003823551484640e+01
0	 3.857130951525210e+00	 7.428591450879006e+00	 1.003521498639343e+01
0	 3.857130951525211e+00	 7.571441979817513e+00	 1.003173888240615e+01
0	 3.857130951525211e+00	 7.714292558752282e+00	 1.002796578013435e+01
0	 3.857130951525212e+00	 7.857143204349074e+00	 1.002405425660515e+01
0	 3.857130951525211e+00	 7.999993933273644e+00	 1.002016288862292e+01
0	 3.857130951525211e+00	 8.142844762191748e+00	 1.001645025276934e+01
0	 3.857130951525210e+00	 8.285695707769142e+00	 1.001307492540335e+01
0	 3.857130951525210e+00	 8.428546786671575e+00	 1.001019548266116e+01
0	 3.857130951525211e+00	 8.571398015564816e+00	 1.000797050045630e+01
0	 3.999990488837320e+00	 7.142890476327778e+00	 1.004795890733152e+01
0	 3.999990488837320e+00	 7.285740955271015e+00	 1.004340605468786e+01
0	 3.999990488837320e+00	 7.428591450879008e+00	 1.003863434153716e+01
0	 3.999990488837320e+00	 7.571441979817513e+00	 1.003378015955652e+01
0	 3.999990488837320e+00	 7.714292558752280e+00	 1.002897989998459e+01
0	 3.999990488837320e+00	 7.857143204349073e+00	 1.002436995362153e+01
0	 3.999990488837320e+00	 7.999993933273644e+00	 1.002008671082907e+01
0	 3.999990488837320e+00	 8.142844762191746e+00	 1.001626656153048e+01
0	 3.999990488837320e+00	 8.285695707769142e+00	 1.001304589521050e+01
0	 3.999990488837320e+00	 8.428546786671577e+00	 1.001056110091548e+01
0	 3.999990488837320e+00	 8.571398015564817e+00	 1.000894856725326e+01
0	 4.142849759482075e+00	 7.142890476327779e+00	 1.005359024457752e+01
0	 4.142849759482075e+00	 7.285740955271015e+00	 1.004719296362713e+01
0	 4.142849759482073e+00	 7.428591450879008e+00	 1.004100011137819e+01
0	 4.142849759482075e+00	 7.571441979817511e+00	 1.003510708128288e+01
0	 4.142849759482074e+00	 7.714292558752280e+00	 1.002960926618866e+01
0	 4.142849759482075e+00	 7.857143204349073e+00	 1.002460205833835e+01
0	 4.142849759482074e+00	 7.999993933273645e+00	 1.002018084937002e+01
0	 4.142849759482075e+00	 8.142844762191748e+00	 1.001644103031709e+01
0	 4.142849759482075e+00	 8.285695707769140e+00	 1.001347799160829e+01
0	 4.142849759482074e+00	 8.428546786671577e+00	 1.001138712306762e+01
0	 4.142849759482075e+00	 8.571398015564816e+00	 1.001026381391444e+01
0	 4.285708730125926e+00	 7.142890476327779e+00	 1.005721108412101e+01
0	 4.285708730125926e+00	 7.285740955271015e+00	 1.004939760361379e+01
0	 4.285708730125926e+00	 7.428591450879009e+00	 1.004222065504678e+01
0	 4.285708730125926e+00	 7.571441979817511e+00	 1.003571582104971e+01
0	 4.285708730125925e+00	 7.714292558752280e+00	 1.002991868354431e+01
0	 4.285708730125926e+00	 7.857143204349074e+00	 1.002486482374437e+01
0	 4.285708730125926e+00	 7.999993933273643e+00	 1.002058982215569e+01
0	 4.285708730125926e+00	 8.142844762191748e+00	 1.001712925857612e+01
0	 4.285708730125926e+00	 8.285695707769140e+00	 1.001451871209553e+01
0	 4.285708730125926e+00	 8.428546786671578e+00	 1.001279376109583e+01
0	 4.285708730125926e+00	 8.571398015564817e+00	 1.001198998325095e+01
0	 2.857109523672222e+00	 8.571398015564816e+00	 1.000437081379882e+01
0	 2.857109523672221e+00	 8.714259388995400e+00	 9.997557762150169e+00
0	 2.857109523672223e+00	 8.857120812436383e+00	 9.992147041211883e+00
0	 2.857109523672222e+00	 8.999982169218281e+00	 9.988256859527281e+00
0	 2.857109523672222e+00	 9.142843342671597e+00	 9.986005435326906e+00
0	 2.857109523672223e+00	 9.285704216126852e+00	 9.985510996528307e+00
0	 2.857109523672222e+00	 9.428564672914550e+00	 9.986891780736102e+00
0	 2.857109523672222e+00	 9.571424596365199e+00	 9.990266035242126e+00
0	 2.857109523672222e+00	 9.714283869809323e+00	 9.995752017025669e+00
0	 2.857109523672223e+00	 9.857142376577418e+00	 1.000346799275388e+01
0	 2.857109523672222e+00	 9.999999999999998e+00	 1.001353223878224e+01
0	 2.999969994316576e+00	 8.571398015564817e+00	 1.000505336391454e+01
0	 2.999969994316575e+00	 8.714259388995396e+00	 9.998743091733182e+00
0	 2.999969994316575e+00	 8.857120812436383e+00	 9.993827200171157e+00
0	 2.999969994316575e+00	 8.999982169218280e+00	 9.990342101977095e+00
0	 2.999969994316577e+00	 9.142843342671600e+00	 9.988324218079645e+00
0	 2.999969994316576e+00	 9.285704216126854e+00	 9.987809977587396e+00
0	 2.999969994316576e+00	 9.428564672914550e+00	 9.988835817788807e+00
0	 2.999969994316575e+00	 9.571424596365199e+00	 9.991438184152395e+00
0	 2.999969994316576e+00	 9.714283869809320e+00	 9.995653530326873e+00
0	 2.999969994316576e+00	 9.857142376577418e+00	 1.000151831814154e+01
0	 2.999969994316576e+00	 1.000000000000000e+01	 1.000906901760638e+01
0	 3.142830431628386e+00	 8.571398015564814e+00	 1.000555691299775e+01
0	 3.142830431628386e+00	 8.714259388995401e+00	 9.999918839652377e+00
0	 3.142830431628385e+00	 8.857120812436383e+00	 9.995612579516706e+00
0	 3.142830431628385e+00	 8.999982169218281e+00	 9.992607658989037e+00
0	 3.142830431628385e+00	 9.142843342671600e+00	 9.990873611145661e+00
0	 3.142830431628386e+00	 9.285704216126852e+00	 9.990379975740888e+00
0	 3.142830431628385e+00	 9.428564672914550e+00	 9.991096299206927e+00
0	 3.142830431628385e+00	 9.571424596365199e+00	 9.992992134653978e+00
0	 3.142830431628385e+00	 9.714283869809320e+00	 9.996037041870348e+00
0	 3.142830431628385e+00	 9.857142376577414e+00	 1.000020058732271e+01
0	 3.142830431628385e+00	 1.000000000000000e+01	 1.000545234415632e+01
0	 3.285690802274106e+00	 8.571398015564814e+00	 1.000595519916424e+01
0	 3.285690802274106e+00	 8.714259388995401e+00	 1.000110673893518e+01
0	 3.285690802274106e+00	 8.857120812436385e+00	 9.997481027785366e+00
0	 3.285690802274106e+00	 8.999982169218281e+00	 9.994995615069806e+00
0	 3.285690802274106e+00	 9.142843342671599e+00	 9.993568055364625e+00
0	 3.285690802274105e+00	 9.285704216126852e+00	 9.993115908466802e+00
0	 3.285690802274106e+00	 9.428564672914550e+00	 9.993556739394247e+00
0	 3.285690802274105e+00	 9.571424596365201e+00	 9.994808118385773e+00
0	 3.285690802274106e+00	 9.714283869809321e+00	 9.996787620901127e+00
0	 3.285690802274106e+00	 9.857142376577416e+00	 9.999412827621228e+00
0	 3.285690802274106e+00	 1.000000000000000e+01	 1.000260132444824e+01
0	 3.428551072920193e+00	 8.571398015564817e+00	 1.000632196120062e+01
0	 3.428551072920193e+00	 8.714259388995401e+00	 1.000232852330631e+01
0	 3.428551072920193e+00	 8.857120812436383e+00	 9.999410394159739e+00
0	 3.428551072920193e+00	 8.999982169218280e+00	 9.997448055263478e+00
0	 3.428551072920194e+00	 9.142843342671600e+00	 9.996321991968800e+00
0	 3.428551072920195e+00	 9.285704216126854e+00	 9.995912693475690e+00
0	 3.428551072920193e+00	 9.428564672914550e+00	 9.996100652832641e+00
0	 3.428551072920193e+00	 9.571424596365203e+00	 9.996766366936759e+00
0	 3.428551072920193e+00	 9.714283869809320e+00	 9.997790336533651e+00
0	 3.428551072920193e+00	 9.857142376577414e+00	 9.999053066217680e+00
0	 3.428551072920193e+00	 1.000000000000000e+01	 1.000043506443183e+01
0	 3.571411210233103e+00	 8.571398015564816e+00	 1.000673093856422e+01
0	 3.571411210233103e+00	 8.714259388995401e+00	 1.000360592718766e+01
0	 3.571411210233103e+00	 8.857120812436387e+00	 1.000137852846825e+01
0	 3.571411210233103e+00	 8.999982169218281e+00	 9.999907065151302e+00
0	 3.571411210233103e+00	 9.142843342671602e+00	 9.999049862583060e+00
0	 3.571411210233102e+00	 9.285704216126851e+00	 9.998665248710690e+00
0	 3.571411210233104e+00	 9.428564672914549e+00	 9.998611554082142e+00
0	 3.571411210233102e+00	 9.571424596365199e+00	 9.998747111846049e+00
0	 3.571411210233103e+00	 9.714283869809320e+00	 9.998930257751773e+00
0	 3.571411210233102e+00	 9.857142376577418e+00	 9.999019330149430e+00
0	 3.571411210233102e+00	 1.000000000000000e+01	 9.998872669989892e+00
0	 3.714271180879290e+00	 8.571398015564814e+00	 1.000725587138317e+01
0	 3.714271180879289e+00	 8.714259388995401e+00	 1.000496068569840e+01
0	 3.714271180879289e+00	 8.857120812436383e+00	 1.000336328118510e+01
0	 3.714271180879290e+00	 8.999982169218281e+00	 1.000231473085186e+01
0	 3.714271180879289e+00	 9.142843342671599e+00	 1.000166610922484e+01
0	 3.714271180879290e+00	 9.285704216126851e+00	 1.000126849234754e+01
0	 3.714271180879290e+00	 9.428564672914549e+00	 1.000097295778083e+01
0	 3.714271180879289e+00	 9.571424596365201e+00	 1.000063058460275e+01
0	 3.714271180879289e+00	 9.714283869809320e+00	 1.000009245340854e+01
0	 3.714271180879290e+00	 9.857142376577416e+00	 9.999209646310632e+00
0	 3.714271180879290e+00	 1.000000000000000e+01	 9.997833246938544e+00
0	 3.857130951525211e+00	 8.571398015564816e+00	 1.000797050045631e+01
0	 3.857130951525210e+00	 8.714259388995401e+00	 1.000641453465495e+01
0	 3.857130951525210e+00	 8.857120812436385e+00	 1.000534250343027e+01
0	 3.857130951525210e+00	 8.999982169218280e+00	 1.000461313902106e+01
0	 3.857130951525209e+00	 9.142843342671599e+00	 1.000408517430414e+01
0	 3.857130951525210e+00	 9.285704216126852e+00	 1.000361734279448e+01
0	 3.857130951525211e+00	 9.428564672914550e+00	 1.000306837864486e+01
0	 3.857130951525210e+00	 9.571424596365201e+00	 1.000229701664604e+01
0	 3.857130951525211e+00	 9.714283869809320e+00	 1.000116199222641e+01
0	 3.857130951525209e+00	 9.857142376577420e+00	 9.999522041452176e+00
0	 3.857130951525210e+00	 1.000000000000000e+01	 9.997235901027038e+00
0	 3.999990488837320e+00	 8.571398015564817e+00	 1.000894856725326e+01
0	 3.999990488837320e+00	 8.714259388995400e+00	 1.000798921057092e+01
0	 3.999990488837319e+00	 8.857120812436383e+00	 1.000729404696959e+01
0	 3.999990488837321e+00	 8.999982169218281e+00	 1.000674437685198e+01
0	 3.999990488837320e+00	 9.142843342671600e+00	 1.000622150062357e+01
0	 3.999990488837321e+00	 9.285704216126854e+00	 1.000560671869227e+01
0	 3.999990488837319e+00	 9.428564672914549e+00	 1.000478133146855e+01
0	 3.999990488837321e+00	 9.571424596365201e+00	 1.000362663936520e+01
0	 3.999990488837320e+00	 9.714283869809320e+00	 1.000202394279721e+01
0	 3.999990488837320e+00	 9.857142376577416e+00	 9.999854542181758e+00
0	 3.999990488837320e+00	 1.000000000000000e+01	 9.996999737938069e+00
0	 4.142849759482075e+00	 8.571398015564816e+00	 1.001026381391444e+01
0	 4.142849759482074e+00	 8.714259388995400e+00	 1.000970645065724e+01
0	 4.142849759482075e+00	 8.857120812436387e+00	 1.000919576421457e+01
0	 4.142849759482075e+00	 8.999982169218281e+00	 1.000865053207506e+01
0	 4.142849759482074e+00	 9.142843342671602e+00	 1.000798953137822e+01
0	 4.142849759482075e+00	 9.285704216126852e+00	 1.000713153891431e+01
0	 4.142849759482074e+00	 9.428564672914547e+00	 1.000599533112423e+01
0	 4.142849759482073e+00	 9.571424596365198e+00	 1.000449968409944e+01
0	 4.142849759482074e+00	 9.714283869809320e+00	 1.000256337358189e+01
0	 4.142849759482074e+00	 9.857142376577416e+00	 1.000010517496372e+01
0	 4.142849759482075e+00	 1.000000000000000e+01	 9.997043863287413e+00
0	 4.285708730125926e+00	 8.571398015564817e+00	 1.001198998325095e+01
0	 4.285708730125926e+00	 8.714259388995401e+00	 1.001158799282205e+01
0	 4.285708730125926e+00	 8.857120812436385e+00	 1.001102550822264e+01
0	 4.285708730125925e+00	 8.999982169218280e+00	 1.001027369295798e+01
0	 4.285708730125926e+00	 9.142843342671600e+00	 1.000930371015585e+01
0	 4.285708730125925e+00	 9.285704216126851e+00	 1.000808672256645e+01
0	 4.285708730125926e+00	 9.428564672914549e+00	 1.000659389256228e+01
0	 4.285708730125926e+00	 9.571424596365203e+00	 1.000479638213811e+01
0	 4.285708730125926e+00	 9.714283869809318e+00	 1.000266535291081e+01
0	 4.285708730125926e+00	 9.857142376577416e+00	 1.000017196611920e+01
0	 4.285708730125926e+00	 1.000000000000000e+01	 9.997287382624032e+00
0	 4.285708730125926e+00	 0.000000000000000e+00	 1.007368602905010e+01
0	 4.285708730125926e+00	 1.428576234225852e-01	 1.021196127658830e+01
0	 4.285708730125926e+00	 2.857161301906819e-01	 1.033396574870194e+01
0	 4.285708730125925e+00	 4.285754036348007e-01	 1.043861307440219e+01
0	 4.285708730125926e+00	 5.714353270854531e-01	 1.052481674855038e+01
0	 4.285708730125926e+00	 7.142957838731496e-01	 1.059149013186817e+01
0	 4.285708730125925e+00	 8.571566573284017e-01	 1.063754645094589e+01
0	 4.285708730125926e+00	 1.000017830781720e+00	 1.066189879824947e+01
0	 4.285708730125926e+00	 1.142879187563616e+00	 1.066346013212553e+01
0	 4.285708730125926e+00	 1.285740611004601e+00	 1.064114327680488e+01
0	 4.285708730125926e+00	 1.428601984435185e+00	 1.059386092240446e+01
0	 4.428567384102075e+00	 0.000000000000000e+00	 9.824674604243524e+00
0	 4.428567384102074e+00	 1.428576234225852e-01	 1.002692383590082e+01
0	 4.428567384102073e+00	 2.857161301906819e-01	 1.020173470891648e+01
0	 4.428567384102075e+00	 4.285754036348007e-01	 1.034873494748854e+01
0	 4.428567384102074e+00	 5.714353270854529e-01	 1.046755211684049e+01
0	 4.428567384102073e+00	 7.142957838731495e-01	 1.055781362323292e+01
0	 4.428567384102075e+00	 8.571566573284016e-01	 1.061914671397339e+01
0	 4.428567384102075e+00	 1.000017830781720e+00	 1.065117847742419e+01
0	 4.428567384102074e+00	 1.142879187563616e+00	 1.065353584300825e+01
0	 4.428567384102074e+00	 1.285740611004601e+00	 1.062584558121301e+01
0	 4.428567384102075e+00	 1.428601984435185e+00	 1.056773430359251e+01
0	 4.571425771410668e+00	 0.000000000000000e+00	 9.678230011745072e+00
0	 4.571425771410667e+00	 1.428576234225853e-01	 9.911120373093098e+00
0	 4.571425771410667e+00	 2.857161301906819e-01	 1.011051199076373e+01
0	 4.571425771410665e+00	 4.285754036348007e-01	 1.027663211475374e+01
0	 4.571425771410667e+00	 5.714353270854531e-01	 1.040970783170413e+01
0	 4.571425771410668e+00	 7.142957838731497e-01	 1.050996606491206e+01
0	 4.571425771410667e+00	 8.571566573284016e-01	 1.057763357434076e+01
0	 4.571425771410667e+00	 1.000017830781720e+00	 1.061293695662746e+01
0	 4.571425771410666e+00	 1.142879187563616e+00	 1.061610264508936e+01
0	 4.571425771410668e+00	 1.285740611004601e+00	 1.058735690972751e+01
0	 4.571425771410668e+00	 1.428601984435185e+00	 1.052692585722876e+01
0	 4.714283958718593e+00	 0.000000000000000e+00	 9.619361621384511e+00
0	 4.714283958718593e+00	 1.428576234225853e-01	 9.854862265552548e+00
0	 4.714283958718593e+00	 2.857161301906819e-01	 1.005514605112754e+01
0	 4.714283958718594e+00	 4.285754036348007e-01	 1.022092520748538e+01
0	 4.714283958718592e+00	 5.714353270854531e-01	 1.035291181295989e+01
0	 4.714283958718593e+00	 7.142957838731497e-01	 1.045181779485385e+01
0	 4.714283958718595e+00	 8.571566573284018e-01	 1.051835492944810e+01
0	 4.714283958718593e+00	 1.000017830781720e+00	 1.055323484200884e+01
0	 4.714283958718593e+00	 1.142879187563616e+00	 1.055716900679308e+01
0	 4.714283958718593e+00	 1.285740611004601e+00	 1.053086874705219e+01
0	 4.714283958718593e+00	 1.428601984435185e+00	 1.047504523503371e+01
0	 4.857142012692742e+00	 0.000000000000000e+00	 9.633078736830361e+00
0	 4.857142012692741e+00	 1.428576234225852e-01	 9.848460838187632e+00
0	 4.857142012692741e+00	 2.857161301906819e-01	 1.003048530547572e+01
0	 4.857142012692742e+00	 4.285754036348007e-01	 1.018023482431893e+01
0	 4.857142012692742e+00	 5.714353270854530e-01	 1.029879195455959e+01
0	 4.857142012692742e+00	 7.142957838731497e-01	 1.038723913026713e+01
0	 4.857142012692740e+00	 8.571566573284016e-01	 1.044665865974575e+01
0	 4.857142012692743e+00	 1.000017830781720e+00	 1.047813272554048e+01
0	 4.857142012692742e+00	 1.142879187563616e+00	 1.048274338444168e+01
0	 4.857142012692741e+00	 1.285740611004601e+00	 1.046157256748806e+01
0	 4.857142012692742e+00	 1.428601984435186e+00	 1.041570207996811e+01
0	 5.000000000000002e+00	 0.000000000000000e+00	 9.704390595588404e+00
0	 5.000000000000002e+00	 1.428576234225853e-01	 9.882227363426580e+00
0	 5.000000000000001e+00	 2.857161301906819e-01	 1.003137812785894e+01
0	 5.000000000000002e+00	 4.285754036348007e-01	 1.015318153123692e+01
0	 5.000000000000001e+00	 5.714353270854530e-01	 1.024897612458767e+01
0	 5.000000000000000e+00	 7.142957838731497e-01	 1.032010036762080e+01
0	 5.000000000000002e+00	 8.571566573284017e-01	 1.036789262873384e+01
0	 5.000000000000002e+00	 1.000017830781720e+00	 1.039369118501677e+01
0	 5.000000000000003e+00	 1.142879187563616e+00	 1.039883422225531e+01
0	 4.999999999999998e+00	 1.285740611004601e+00	 1.038465983493313e+01
0	 5.000000000000000e+00	 1.428601984435185e+00	 1.035250602623294e+01
0	 5.142857987307262e+00	 0.000000000000000e+00	 9.818306369000522e+00
0	 5.142857987307259e+00	 1.428576234225852e-01	 9.946473061216548e+00
0	 5.142857987307259e+00	 2.857161301906819e-01	 1.005267285091015e+01
0	 5.142857987307262e+00	 4.285754036348008e-01	 1.013838586156837e+01
0	 5.142857987307260e+00	 5.714353270854531e-01	 1.020509216526084e+01
0	 5.142857987307262e+00	 7.142957838731497e-01	 1.025427178264353e+01
0	 5.142857987307260e+00	 8.571566573284015e-01	 1.028740468296205e+01
0	 5.142857987307261e+00	 1.000017830781720e+00	 1.030597078405416e+01
0	 5.142857987307260e+00	 1.142879187563616e+00	 1.031144995235178e+01
0	 5.142857987307261e+00	 1.285740611004601e+00	 1.030532200288229e+01
0	 5.142857987307260e+00	 1.428601984435185e+00	 1.028906669926922e+01
0	 5.285716041281409e+00	 0.000000000000000e+00	 9.959835162244136e+00
0	 5.285716041281410e+00	 1.428576234225853e-01	 1.003150909902311e+01
0	 5.285716041281411e+00	 2.857161301906819e-01	 1.008921776584411e+01
0	 5.285716041281408e+00	 4.285754036348006e-01	 1.013446831598857e+01
0	 5.285716041281410e+00	 5.714353270854531e-01	 1.016876789292774e+01
0	 5.285716041281409e+00	 7.142957838731496e-01	 1.019362363032355e+01
0	 5.285716041281409e+00	 8.571566573284018e-01	 1.021054265202945e+01
0	 5.285716041281410e+00	 1.000017830781720e+00	 1.022103207209102e+01
0	 5.285716041281408e+00	 1.142879187563616e+00	 1.022659899474651e+01
0	 5.285716041281409e+00	 1.285740611004601e+00	 1.022875051442725e+01
0	 5.285716041281408e+00	 1.428601984435185e+00	 1.022899371575798e+01
0	 5.428574228589335e+00	 0.000000000000000e+00	 1.011398601433203e+01
0	 5.428574228589335e+00	 1.428576234225853e-01	 1.012764659183014e+01
0	 5.428574228589333e+00	 2.857161301906818e-01	 1.013586112245738e+01
0	 5.428574228589334e+00	 4.285754036348007e-01	 1.014004936251896e+01
0	 5.428574228589335e+00	 5.714353270854531e-01	 1.014163109806899e+01
0	 5.428574228589335e+00	 7.142957838731496e-01	 1.014202614490865e+01
0	 5.428574228589334e+00	 8.571566573284018e-01	 1.014265434858457e+01
0	 5.428574228589335e+00	 1.000017830781720e+00	 1.014493558438770e+01
0	 5.428574228589335e+00	 1.142879187563616e+00	 1.015028975735252e+01
0	 5.428574228589333e+00	 1.285740611004601e+00	 1.016013680225655e+01
0	 5.428574228589335e+00	 1.428601984435185e+00	 1.017589668362032e+01
0	 5.571432615897928e+00	 0.000000000000000e+00	 1.026576789811262e+01
0	 5.571432615897929e+00	 1.428576234225852e-01	 1.022519660214005e+01
0	 5.571432615897928e+00	 2.857161301906818e-01	 1.018745112912842e+01
0	 5.571432615897927e+00	 4.285754036348007e-01	 1.015374943652724e+01
0	 5.571432615897928e+00	 5.714353270854531e-01	 1.012530954529728e+01
0	 5.571432615897928e+00	 7.142957838731496e-01	 1.010334953990625e+01
0	 5.571432615897929e+00	 8.571566573284016e-01	 1.008908756832537e+01
0	 5.571432615897928e+00	 1.000017830781720e+00	 1.008374184202656e+01
0	 5.571432615897929e+00	 1.142879187563616e+00	 1.008853063598056e+01
0	 5.571432615897929e+00	 1.285740611004601e+00	 1.010467228865567e+01
0	 5.571432615897927e+00	 1.428601984435185e+00	 1.013338520201750e+01
0	 5.714291269874075e+00	 0.000000000000000e+00	 1.040018972027078e+01
0	 5.714291269874074e+00	 1.428576234225853e-01	 1.031447013997438e+01
0	 5.714291269874074e+00	 2.857161301906819e-01	 1.023883595281811e+01
0	 5.714291269874074e+00	 4.285754036348008e-01	 1.017418894072784e+01
0	 5.714291269874074e+00	 5.714353270854531e-01	 1.012143097335762e+01
0	 5.714291269874074e+00	 7.142957838731496e-01	 1.008146400808369e+01
0	 5.714291269874074e+00	 8.571566573284018e-01	 1.005519008999958e+01
0	 5.714291269874075e+00	 1.000017830781720e+00	 1.004351135191221e+01
0	 5.714291269874074e+00	 1.142879187563616e+00	 1.004733001433922e+01
0	 5.714291269874074e+00	 1.285740611004601e+00	 1.006754838550718e+01
0	 5.714291269874074e+00	 1.428601984435185e+00	 1.010506886135103e+01
0	 4.285708730125926e+00	 1.428601984435185e+00	 1.059386092240446e+01
0	 4.285708730125925e+00	 1.571453213328422e+00	 1.053693505518439e+01
0	 4.285708730125926e+00	 1.714304292230859e+00	 1.048651802301696e+01
0	 4.285708730125926e+00	 1.857155237808252e+00	 1.044278058175448e+01
0	 4.285708730125926e+00	 2.000006066726355e+00	 1.040589348373472e+01
0	 4.285708730125927e+00	 2.142856795650926e+00	 1.037602747778090e+01
0	 4.285708730125925e+00	 2.285707441247717e+00	 1.035335330920167e+01
0	 4.285708730125926e+00	 2.428558020182488e+00	 1.033804171979106e+01
0	 4.285708730125926e+00	 2.571408549120993e+00	 1.033026344782849e+01
0	 4.285708730125926e+00	 2.714259044728984e+00	 1.033018922807870e+01
0	 4.285708730125926e+00	 2.857109523672222e+00	 1.033798979179179e+01
0	 4.428567384102075e+00	 1.428601984435185e+00	 1.056773430359251e+01
0	 4.428567384102075e+00	 1.571453213328422e+00	 1.049906883188679e+01
0	 4.428567384102074e+00	 1.714304292230859e+00	 1.043996267157752e+01
0	 4.428567384102076e+00	 1.857155237808252e+00	 1.039042775989250e+01
0	 4.428567384102075e+00	 2.000006066726356e+00	 1.035047602852513e+01
0	 4.428567384102076e+00	 2.142856795650926e+00	 1.032011940363432e+01
0	 4.428567384102074e+00	 2.285707441247718e+00	 1.029936980584447e+01
0	 4.428567384102075e+00	 2.428558020182488e+00	 1.028823915024542e+01
0	 4.428567384102076e+00	 2.571408549120992e+00	 1.028673934639238e+01
0	 4.428567384102075e+00	 2.714259044728984e+00	 1.029488229830600e+01
0	 4.428567384102074e+00	 2.857109523672222e+00	 1.031267990447224e+01
0	 4.571425771410668e+00	 1.428601984435185e+00	 1.052692585722877e+01
0	 4.571425771410668e+00	 1.571453213328422e+00	 1.045621382024727e+01
0	 4.571425771410667e+00	 1.714304292230858e+00	 1.039638625298747e+01
0	 4.571425771410667e+00	 1.857155237808251e+00	 1.034732681852311e+01
0	 4.571425771410667e+00	 2.000006066726355e+00	 1.030891917353657e+01
0	 4.571425771410668e+00	 2.142856795650926e+00	 1.028104696831884e+01
0	 4.571425771410667e+00	 2.285707441247718e+00	 1.026359384676947e+01
0	 4.571425771410666e+00	 2.428558020182488e+00	 1.025644344639647e+01
0	 4.571425771410667e+00	 2.571408549120992e+00	 1.025947939831630e+01
0	 4.571425771410668e+00	 2.714259044728985e+00	 1.027258532725386e+01
0	 4.571425771410667e+00	 2.857109523672223e+00	 1.029564485154248e+01
0	 4.714283958718593e+00	 1.428601984435185e+00	 1.047504523503371e+01
0	 4.714283958718593e+00	 1.571453213328421e+00	 1.041015944540066e+01
0	 4.714283958718595e+00	 1.714304292230859e+00	 1.035604575816459e+01
0	 4.714283958718594e+00	 1.857155237808252e+00	 1.031249010843740e+01
0	 4.714283958718594e+00	 2.000006066726355e+00	 1.027927842504421e+01
0	 4.714283958718594e+00	 2.142856795650925e+00	 1.025619663052339e+01
0	 4.714283958718594e+00	 2.285707441247718e+00	 1.024303064112642e+01
0	 4.714283958718593e+00	 2.428558020182488e+00	 1.023956636681790e+01
0	 4.714283958718593e+00	 2.571408549120991e+00	 1.024558971127550e+01
0	 4.714283958718594e+00	 2.714259044728985e+00	 1.026088657188991e+01
0	 4.714283958718593e+00	 2.857109523672222e+00	 1.028524283976486e+01
0	 4.857142012692742e+00	 1.428601984435186e+00	 1.041570207996811e+01
0	 4.857142012692742e+00	 1.571453213328422e+00	 1.036269512556184e+01
0	 4.857142012692741e+00	 1.714304292230858e+00	 1.031919817312530e+01
0	 4.857142012692741e+00	 1.857155237808251e+00	 1.028492997763698e+01
0	 4.857142012692741e+00	 2.000006066726355e+00	 1.025960928865335e+01
0	 4.857142012692742e+00	 2.142856795650926e+00	 1.024295485030877e+01
0	 4.857142012692742e+00	 2.285707441247718e+00	 1.023468540131545e+01
0	 4.857142012692741e+00	 2.428558020182488e+00	 1.023451967496342e+01
0	 4.857142012692742e+00	 2.571408549120992e+00	 1.024217639912046e+01
0	 4.857142012692742e+00	 2.714259044728984e+00	 1.025737429623214e+01
0	 4.857142012692742e+00	 2.857109523672222e+00	 1.027983208332176e+01
0	 5.000000000000000e+00	 1.428601984435185e+00	 1.035250602623294e+01
0	 4.999999999999999e+00	 1.571453213328422e+00	 1.031561027202566e+01
0	 5.000000000000002e+00	 1.714304292230859e+00	 1.028610047898454e+01
0	 5.000000000000000e+00	 1.857155237808251e+00	 1.026365877133393e+01
0	 5.000000000000001e+00	 2.000006066726355e+00	 1.024796726929943e+01
0	 5.000000000000002e+00	 2.142856795650926e+00	 1.023870808910787e+01
0	 5.000000000000002e+00	 2.285707441247718e+00	 1.023556334298729e+01
0	 5.000000000000001e+00	 2.428558020182488e+00	 1.023821513916689e+01
0	 5.000000000000001e+00	 2.571408549120992e+00	 1.024634558187699e+01
0	 5.000000000000001e+00	 2.714259044728985e+00	 1.025963677134908e+01
0	 5.000000000000000e+00	 2.857109523672223e+00	 1.027777080381574e+01
0	 5.142857987307260e+00	 1.428601984435185e+00	 1.028906669926922e+01
0	 5.142857987307262e+00	 1.571453213328422e+00	 1.027069428916683e+01
0	 5.142857987307260e+00	 1.714304292230859e+00	 1.025700965195587e+01
0	 5.142857987307261e+00	 1.857155237808252e+00	 1.024768883195085e+01
0	 5.142857987307260e+00	 2.000006066726355e+00	 1.024240787124809e+01
0	 5.142857987307262e+00	 2.142856795650926e+00	 1.024084280972564e+01
0	 5.142857987307261e+00	 2.285707441247718e+00	 1.024266968504326e+01
0	 5.142857987307263e+00	 2.428558020182489e+00	 1.024756453264244e+01
0	 5.142857987307261e+00	 2.571408549120992e+00	 1.025520338574637e+01
0	 5.142857987307259e+00	 2.714259044728984e+00	 1.026526227535994e+01
0	 5.142857987307262e+00	 2.857109523672222e+00	 1.027741723026973e+01
0	 5.285716041281408e+00	 1.428601984435185e+00	 1.022899371575798e+01
0	 5.285716041281407e+00	 1.571453213328422e+00	 1.022973657443993e+01
0	 5.285716041281409e+00	 1.714304292230859e+00	 1.023218266335131e+01
0	 5.285716041281407e+00	 1.857155237808252e+00	 1.023603249912083e+01
0	 5.285716041281409e+00	 2.000006066726355e+00	 1.024098659809522e+01
0	 5.285716041281407e+00	 2.142856795650926e+00	 1.024674547633917e+01
0	 5.285716041281408e+00	 2.285707441247718e+00	 1.025300964963541e+01
0	 5.285716041281408e+00	 2.428558020182487e+00	 1.025947963348461e+01
0	 5.285716041281409e+00	 2.571408549120992e+00	 1.026585594310548e+01
0	 5.285716041281410e+00	 2.714259044728984e+00	 1.027183909343474e+01
0	 5.285716041281409e+00	 2.857109523672222e+00	 1.027712959912708e+01
0	 5.428574228589335e+00	 1.428601984435185e+00	 1.017589668362032e+01
0	 5.428574228589335e+00	 1.571453213328422e+00	 1.019452651837942e+01
0	 5.428574228589335e+00	 1.714304292230859e+00	 1.021187647958151e+01
0	 5.428574228589335e+00	 1.857155237808251e+00	 1.022770210968753e+01
0	 5.428574228589335e+00	 2.000006066726355e+00	 1.024175895276696e+01
0	 5.428574228589334e+00	 2.142856795650926e+00	 1.025380255449778e+01
0	 5.428574228589335e+00	 2.285707441247718e+00	 1.026358846216654e+01
0	 5.428574228589336e+00	 2.428558020182489e+00	 1.027087222466833e+01
0	 5.428574228589334e+00	 2.571408549120992e+00	 1.027540939250684e+01
0	 5.428574228589336e+00	 2.714259044728985e+00	 1.027695551779434e+01
0	 5.428574228589336e+00	 2.857109523672222e+00	 1.027526615425168e+01
0	 5.571432615897927e+00	 1.428601984435185e+00	 1.013338520201750e+01
0	 5.571432615897930e+00	 1.571453213328422e+00	 1.016685350459977e+01
0	 5.571432615897928e+00	 1.714304292230859e+00	 1.019634806215577e+01
0	 5.571432615897928e+00	 1.857155237808251e+00	 1.022170999770524e+01
0	 5.571432615897928e+00	 2.000006066726355e+00	 1.024278043751981e+01
0	 5.571432615897928e+00	 2.142856795650925e+00	 1.025940051112300e+01
0	 5.571432615897927e+00	 2.285707441247717e+00	 1.027141135129026e+01
0	 5.571432615897928e+00	 2.428558020182489e+00	 1.027865409404899e+01
0	 5.571432615897929e+00	 2.571408549120992e+00	 1.028096987867858e+01
0	 5.571432615897929e+00	 2.714259044728985e+00	 1.027819984771043e+01
0	 5.571432615897929e+00	 2.857109523672223e+00	 1.027018514692794e+01
0	 5.714291269874074e+00	 1.428601984435185e+00	 1.010506886135103e+01
0	 5.714291269874074e+00	 1.571453213328422e+00	 1.014850690979555e+01
0	 5.714291269874076e+00	 1.714304292230859e+00	 1.018585436768215e+01
0	 5.714291269874074e+00	 1.857155237808252e+00	 1.021706849443894e+01
0	 5.714291269874074e+00	 2.000006066726355e+00	 1.024210655394064e+01
0	 5.714291269874074e+00	 2.142856795650926e+00	 1.026092581450863e+01
0	 5.714291269874074e+00	 2.285707441247718e+00	 1.027348354891096e+01
0	 5.714291269874074e+00	 2.428558020182487e+00	 1.027973703436239e+01
0	 5.714291269874074e+00	 2.571408549120992e+00	 1.027964355252448e+01
0	 5.714291269874075e+00	 2.714259044728984e+00	 1.027316038950554e+01
0	 5.714291269874074e+00	 2.857109523672222e+00	 1.026024483586068e+01
0	 4.285708730125926e+00	 2.857109523672222e+00	 1.033798979179179e+01
0	 4.285708730125926e+00	 2.999969994316576e+00	 1.034852903123433e+01
0	 4.285708730125926e+00	 3.142830431628385e+00	 1.035632666795888e+01
0	 4.285708730125926e+00	 3.285690802274106e+00	 1.036103964585948e+01
0	 4.285708730125926e+00	 3.428551072920192e+00	 1.036232490123738e+01
0	 4.285708730125926e+00	 3.571411210233102e+00	 1.035983936280101e+01
0	 4.285708730125926e+00	 3.714271180879290e+00	 1.035323995166588e+01
0	 4.285708730125926e+00	 3.857130951525210e+00	 1.034218358135451e+01
0	 4.285708730125926e+00	 3.999990488837321e+00	 1.032632715779634e+01
0	 4.285708730125926e+00	 4.142849759482074e+00	 1.030532757932754e+01
0	 4.285708730125926e+00	 4.285708730125926e+00	 1.027884173669085e+01
0	 4.428567384102074e+00	 2.857109523672222e+00	 1.031267990447224e+01
0	 4.428567384102074e+00	 2.999969994316576e+00	 1.033288147992107e+01
0	 4.428567384102072e+00	 3.142830431628384e+00	 1.034814152584966e+01
0	 4.428567384102076e+00	 3.285690802274106e+00	 1.035833446124528e+01
0	 4.428567384102074e+00	 3.428551072920194e+00	 1.036333469588889e+01
0	 4.428567384102075e+00	 3.571411210233103e+00	 1.036301663035509e+01
0	 4.428567384102073e+00	 3.714271180879290e+00	 1.035725465601204e+01
0	 4.428567384102075e+00	 3.857130951525210e+00	 1.034592315502141e+01
0	 4.428567384102073e+00	 3.999990488837320e+00	 1.032889650033815e+01
0	 4.428567384102074e+00	 4.142849759482075e+00	 1.030604905571045e+01
0	 4.428567384102075e+00	 4.285708730125926e+00	 1.027725517567946e+01
0	 4.571425771410667e+00	 2.857109523672223e+00	 1.029564485154248e+01
0	 4.571425771410667e+00	 2.999969994316576e+00	 1.032052016759134e+01
0	 4.571425771410667e+00	 3.142830431628384e+00	 1.033918332659723e+01
0	 4.571425771410667e+00	 3.285690802274106e+00	 1.035168859673431e+01
0	 4.571425771410667e+00	 3.428551072920193e+00	 1.035809023641502e+01
0	 4.571425771410667e+00	 3.571411210233102e+00	 1.035844249428998e+01
0	 4.571425771410667e+00	 3.714271180879289e+00	 1.035279960924792e+01
0	 4.571425771410667e+00	 3.857130951525209e+00	 1.034121581041568e+01
0	 4.571425771410667e+00	 3.999990488837321e+00	 1.032374531715791e+01
0	 4.571425771410666e+00	 4.142849759482074e+00	 1.030044233907708e+01
0	 4.571425771410667e+00	 4.285708730125927e+00	 1.027136107601312e+01
0	 4.714283958718593e+00	 2.857109523672222e+00	 1.028524283976486e+01
0	 4.714283958718593e+00	 2.999969994316575e+00	 1.031065105344354e+01
0	 4.714283958718593e+00	 3.142830431628386e+00	 1.032937345860690e+01
0	 4.714283958718592e+00	 3.285690802274106e+00	 1.034160654663542e+01
0	 4.714283958718593e+00	 3.428551072920193e+00	 1.034754679946519e+01
0	 4.714283958718593e+00	 3.571411210233102e+00	 1.034739068958793e+01
0	 4.714283958718593e+00	 3.714271180879290e+00	 1.034133468005085e+01
0	 4.714283958718593e+00	 3.857130951525210e+00	 1.032957522445667e+01
0	 4.714283958718593e+00	 3.999990488837320e+00	 1.031230876696337e+01
0	 4.714283958718593e+00	 4.142849759482074e+00	 1.028973174228412e+01
0	 4.714283958718594e+00	 4.285708730125926e+00	 1.026204057568703e+01
0	 4.857142012692742e+00	 2.857109523672222e+00	 1.027983208332176e+01
0	 4.857142012692742e+00	 2.999969994316576e+00	 1.030248010390641e+01
0	 4.857142012692742e+00	 3.142830431628386e+00	 1.031863331683888e+01
0	 4.857142012692742e+00	 3.285690802274105e+00	 1.032859281075639e+01
0	 4.857142012692743e+00	 3.428551072920193e+00	 1.033265966585672e+01
0	 4.857142012692740e+00	 3.571411210233101e+00	 1.033113495389829e+01
0	 4.857142012692742e+00	 3.714271180879290e+00	 1.032431973820002e+01
0	 4.857142012692740e+00	 3.857130951525209e+00	 1.031251507364126e+01
0	 4.857142012692742e+00	 3.999990488837320e+00	 1.029602200666172e+01
0	 4.857142012692741e+00	 4.142849759482074e+00	 1.027514157526129e+01
0	 4.857142012692742e+00	 4.285708730125926e+00	 1.025017480899987e+01
0	 5.000000000000000e+00	 2.857109523672223e+00	 1.027777080381574e+01
0	 5.000000000000003e+00	 2.999969994316577e+00	 1.029521329263927e+01
0	 5.000000000000002e+00	 3.142830431628385e+00	 1.030688430280848e+01
0	 5.000000000000000e+00	 3.285690802274106e+00	 1.031315189440416e+01
0	 5.000000000000001e+00	 3.428551072920193e+00	 1.031438412057504e+01
0	 5.000000000000002e+00	 3.571411210233103e+00	 1.031094902753769e+01
0	 5.000000000000001e+00	 3.714271180879289e+00	 1.030321465457658e+01
0	 5.000000000000001e+00	 3.857130951525210e+00	 1.029154903404394e+01
0	 5.000000000000000e+00	 3.999990488837320e+00	 1.027632019135968e+01
0	 5.000000000000000e+00	 4.142849759482074e+00	 1.025789614501132e+01
0	 5.000000000000001e+00	 4.285708730125926e+00	 1.023664490655380e+01
0	 5.142857987307262e+00	 2.857109523672222e+00	 1.027741723026973e+01
0	 5.142857987307260e+00	 2.999969994316576e+00	 1.028805660053211e+01
0	 5.142857987307260e+00	 3.142830431628385e+00	 1.029404782458620e+01
0	 5.142857987307260e+00	 3.285690802274106e+00	 1.029578830838498e+01
0	 5.142857987307260e+00	 3.428551072920194e+00	 1.029367545277374e+01
0	 5.142857987307260e+00	 3.571411210233103e+00	 1.028810665349005e+01
0	 5.142857987307260e+00	 3.714271180879289e+00	 1.027947930116372e+01
0	 5.142857987307261e+00	 3.857130951525211e+00	 1.026819078131681e+01
0	 5.142857987307261e+00	 3.999990488837321e+00	 1.025463847436348e+01
0	 5.142857987307260e+00	 4.142849759482073e+00	 1.023921975560997e+01
0	 5.142857987307261e+00	 4.285708730125926e+00	 1.022233199525444e+01
0	 5.285716041281409e+00	 2.857109523672222e+00	 1.027712959912708e+01
0	 5.285716041281408e+00	 2.999969994316576e+00	 1.028021601570574e+01
0	 5.285716041281408e+00	 3.142830431628385e+00	 1.028004529679790e+01
0	 5.285716041281409e+00	 3.285690802274106e+00	 1.027700656900443e+01
0	 5.285716041281409e+00	 3.428551072920194e+00	 1.027148895577471e+01
0	 5.285716041281409e+00	 3.571411210233102e+00	 1.026388157740666e+01
0	 5.285716041281407e+00	 3.714271180879289e+00	 1.025457355104669e+01
0	 5.285716041281409e+00	 3.857130951525211e+00	 1.024395399068968e+01
0	 5.285716041281408e+00	 3.999990488837321e+00	 1.023241200717889e+01
0	 5.285716041281407e+00	 4.142849759482074e+00	 1.022033670820598e+01
0	 5.285716041281409e+00	 4.285708730125927e+00	 1.020811719831087e+01
0	 5.428574228589336e+00	 2.857109523672222e+00	 1.027526615425168e+01
0	 5.428574228589336e+00	 2.999969994316576e+00	 1.027089753351184e+01
0	 5.428574228589334e+00	 3.142830431628385e+00	 1.026479814062481e+01
0	 5.428574228589334e+00	 3.285690802274106e+00	 1.025731119806748e+01
0	 5.428574228589336e+00	 3.428551072920194e+00	 1.024877992706813e+01
0	 5.428574228589334e+00	 3.571411210233102e+00	 1.023954754760630e+01
0	 5.428574228589335e+00	 3.714271180879290e+00	 1.022995727841290e+01
0	 5.428574228589334e+00	 3.857130951525209e+00	 1.022035233697008e+01
0	 5.428574228589335e+00	 3.999990488837320e+00	 1.021107593951128e+01
0	 5.428574228589334e+00	 4.142849759482074e+00	 1.020247130102119e+01
0	 5.428574228589334e+00	 4.285708730125926e+00	 1.019488163523570e+01
0	 5.571432615897929e+00	 2.857109523672223e+00	 1.027018514692794e+01
0	 5.571432615897927e+00	 2.999969994316576e+00	 1.025930715653294e+01
0	 5.571432615897928e+00	 3.142830431628385e+00	 1.024822778380350e+01
0	 5.571432615897929e+00	 3.285690802274106e+00	 1.023720672287857e+01
0	 5.571432615897929e+00	 3.428551072920193e+00	 1.022650366831252e+01
0	 5.571432615897928e+00	 3.571411210233103e+00	 1.021637831507519e+01
0	 5.571432615897928e+00	 3.714271180879289e+00	 1.020709035855187e+01
0	 5.571432615897928e+00	 3.857130951525211e+00	 1.019889949454331e+01
0	 5.571432615897930e+00	 3.999990488837320e+00	 1.019206541926567e+01
0	 5.571432615897927e+00	 4.142849759482075e+00	 1.018684782935059e+01
0	 5.571432615897930e+00	 4.285708730125927e+00	 1.018350642184513e+01
0	 5.714291269874074e+00	 2.857109523672222e+00	 1.026024483586068e+01
0	 5.714291269874075e+00	 2.999969994316577e+00	 1.024465089458237e+01
0	 5.714291269874075e+00	 3.142830431628385e+00	 1.023025566062596e+01
0	 5.714291269874075e+00	 3.285690802274106e+00	 1.021719767624151e+01
0	 5.714291269874073e+00	 3.428551072920192e+00	 1.020561548533474e+01
0	 5.714291269874074e+00	 3.571411210233103e+00	 1.019564763346701e+01
0	 5.714291269874074e+00	 3.714271180879289e+00	 1.018743266785536e+01
0	 5.714291269874074e+00	 3.857130951525209e+00	 1.018110913737250e+01
0	 5.714291269874074e+00	 3.999990488837320e+00	 1.017681559254681e+01
0	 5.714291269874074e+00	 4.142849759482075e+00	 1.017469058556237e+01
0	 5.714291269874074e+00	 4.285708730125924e+00	 1.017487267025900e+01
0	 4.285708730125926e+00	 4.285708730125926e+00	 1.027884173669085e+01
0	 4.285708730125926e+00	 4.428567384102075e+00	 1.025064145540973e+01
0	 4.285708730125926e+00	 4.571425771410667e+00	 1.022477084731589e+01
0	 4.285708730125926e+00	 4.714283958718593e+00	 1.020129522131254e+01
0	 4.285708730125926e+00	 4.857142012692742e+00	 1.018027987882699e+01
0	 4.285708730125926e+00	 5.000000000000001e+00	 1.016179011381038e+01
0	 4.285708730125926e+00	 5.142857987307262e+00	 1.014589121273742e+01
0	 4.285708730125926e+00	 5.285716041281411e+00	 1.013264845460624e+01
0	 4.285708730125925e+00	 5.428574228589334e+00	 1.012212711093823e+01
0	 4.285708730125926e+00	 5.571432615897929e+00	 1.011439244577798e+01
0	 4.285708730125925e+00	 5.714291269874074e+00	 1.010950971569323e+01
0	 4.428567384102075e+00	 4.285708730125926e+00	 1.027725517567946e+01
0	 4.428567384102076e+00	 4.428567384102075e+00	 1.024713101387515e+01
0	 4.428567384102074e+00	 4.571425771410668e+00	 1.022032395814039e+01
0	 4.428567384102077e+00	 4.714283958718594e+00	 1.019675520135793e+01
0	 4.428567384102074e+00	 4.857142012692742e+00	 1.017634592831390e+01
0	 4.428567384102075e+00	 5.000000000000002e+00	 1.015901731569751e+01
0	 4.428567384102073e+00	 5.142857987307260e+00	 1.014469053210074e+01
0	 4.428567384102075e+00	 5.285716041281407e+00	 1.013328673801829e+01
0	 4.428567384102074e+00	 5.428574228589333e+00	 1.012472708584732e+01
0	 4.428567384102076e+00	 5.571432615897928e+00	 1.011893271988745e+01
0	 4.428567384102075e+00	 5.714291269874074e+00	 1.011582477634077e+01
0	 4.571425771410667e+00	 4.285708730125927e+00	 1.027136107601312e+01
0	 4.571425771410668e+00	 4.428567384102075e+00	 1.024140213860161e+01
0	 4.571425771410667e+00	 4.571425771410667e+00	 1.021529927077237e+01
0	 4.571425771410666e+00	 4.714283958718593e+00	 1.019285635909829e+01
0	 4.571425771410668e+00	 4.857142012692742e+00	 1.017387728230335e+01
0	 4.571425771410667e+00	 5.000000000000000e+00	 1.015816591126234e+01
0	 4.571425771410667e+00	 5.142857987307259e+00	 1.014552610900066e+01
0	 4.571425771410667e+00	 5.285716041281408e+00	 1.013576173069407e+01
0	 4.571425771410667e+00	 5.428574228589335e+00	 1.012867662366863e+01
0	 4.571425771410667e+00	 5.571432615897928e+00	 1.012407462740063e+01
0	 4.571425771410667e+00	 5.714291269874074e+00	 1.012175957351654e+01
0	 4.714283958718594e+00	 4.285708730125926e+00	 1.026204057568703e+01
0	 4.714283958718594e+00	 4.428567384102076e+00	 1.023395690753234e+01
0	 4.714283958718593e+00	 4.571425771410667e+00	 1.020988036351638e+01
0	 4.714283958718593e+00	 4.714283958718592e+00	 1.018952433465099e+01
0	 4.714283958718593e+00	 4.857142012692741e+00	 1.017260220504574e+01
0	 4.714283958718593e+00	 5.000000000000000e+00	 1.015882735190771e+01
0	 4.714283958718594e+00	 5.142857987307262e+00	 1.014791314554123e+01
0	 4.714283958718593e+00	 5.285716041281408e+00	 1.013957294934774e+01
0	 4.714283958718595e+00	 5.428574228589335e+00	 1.013352011982565e+01
0	 4.714283958718593e+00	 5.571432615897927e+00	 1.012946800657030e+01
0	 4.714283958718594e+00	 5.714291269874074e+00	 1.012712995227395e+01
0	 4.857142012692742e+00	 4.285708730125926e+00	 1.025017480899987e+01
0	 4.857142012692741e+00	 4.428567384102073e+00	 1.022529739457679e+01
0	 4.857142012692743e+00	 4.571425771410669e+00	 1.020425081069309e+01
0	 4.857142012692741e+00	 4.714283958718593e+00	 1.018668476451159e+01
0	 4.857142012692742e+00	 4.857142012692743e+00	 1.017224895776883e+01
0	 4.857142012692742e+00	 5.000000000000001e+00	 1.016059308677485e+01
0	 4.857142012692742e+00	 5.142857987307261e+00	 1.015136684241300e+01
0	 4.857142012692740e+00	 5.285716041281407e+00	 1.014421991013978e+01
0	 4.857142012692741e+00	 5.428574228589335e+00	 1.013880196998477e+01
0	 4.857142012692740e+00	 5.571432615897928e+00	 1.013476269655050e+01
0	 4.857142012692742e+00	 5.714291269874074e+00	 1.013175175901245e+01
0	 5.000000000000001e+00	 4.285708730125926e+00	 1.023664490655380e+01
0	 5.000000000000001e+00	 4.428567384102074e+00	 1.021592566961057e+01
0	 5.000000000000000e+00	 4.571425771410667e+00	 1.019859418263927e+01
0	 5.000000000000001e+00	 4.714283958718593e+00	 1.018426328155384e+01
0	 5.000000000000001e+00	 4.857142012692741e+00	 1.017254579867766e+01
0	 5.000000000000001e+00	 5.000000000000001e+00	 1.016305456274341e+01
0	 5.000000000000001e+00	 5.142857987307262e+00	 1.015540239889291e+01
0	 5.000000000000002e+00	 5.285716041281410e+00	 1.014920212867697e+01
0	 5.000000000000001e+00	 5.428574228589334e+00	 1.014406657005531e+01
0	 5.000000000000001e+00	 5.571432615897929e+00	 1.013960853739646e+01
0	 5.000000000000001e+00	 5.714291269874074e+00	 1.013544084147770e+01
0	 5.142857987307261e+00	 4.285708730125926e+00	 1.022233199525444e+01
0	 5.142857987307262e+00	 4.428567384102074e+00	 1.020634379847541e+01
0	 5.142857987307259e+00	 4.571425771410667e+00	 1.019309404570773e+01
0	 5.142857987307261e+00	 4.714283958718593e+00	 1.018218551502958e+01
0	 5.142857987307261e+00	 4.857142012692742e+00	 1.017322098295453e+01
0	 5.142857987307261e+00	 5.000000000000000e+00	 1.016580322443146e+01
0	 5.142857987307260e+00	 5.142857987307262e+00	 1.015953501284440e+01
0	 5.142857987307261e+00	 5.285716041281408e+00	 1.015401912001242e+01
0	 5.142857987307260e+00	 5.428574228589334e+00	 1.014885831618954e+01
0	 5.142857987307259e+00	 5.571432615897927e+00	 1.014365537006466e+01
0	 5.142857987307261e+00	 5.714291269874074e+00	 1.013801304876145e+01
0	 5.285716041281409e+00	 4.285708730125927e+00	 1.020811719831087e+01
0	 5.285716041281409e+00	 4.428567384102076e+00	 1.019705384297925e+01
0	 5.285716041281408e+00	 4.571425771410667e+00	 1.018793396226737e+01
0	 5.285716041281408e+00	 4.714283958718593e+00	 1.018037709056879e+01
0	 5.285716041281410e+00	 4.857142012692742e+00	 1.017400276275903e+01
0	 5.285716041281409e+00	 5.000000000000002e+00	 1.016843051419546e+01
0	 5.285716041281409e+00	 5.142857987307262e+00	 1.016327988071733e+01
0	 5.285716041281409e+00	 5.285716041281410e+00	 1.015817039864556e+01
0	 5.285716041281407e+00	 5.428574228589334e+00	 1.015272160478272e+01
0	 5.285716041281408e+00	 5.571432615897927e+00	 1.014655303641291e+01
0	 5.285716041281408e+00	 5.714291269874074e+00	 1.013928423130166e+01
0	 5.428574228589334e+00	 4.285708730125926e+00	 1.019488163523570e+01
0	 5.428574228589336e+00	 4.428567384102075e+00	 1.018855786089618e+01
0	 5.428574228589333e+00	 4.571425771410667e+00	 1.018329749070321e+01
0	 5.428574228589334e+00	 4.714283958718593e+00	 1.017876363017968e+01
0	 5.428574228589336e+00	 4.857142012692742e+00	 1.017461938722805e+01
0	 5.428574228589336e+00	 5.000000000000002e+00	 1.017052787213033e+01
0	 5.428574228589335e+00	 5.142857987307261e+00	 1.016615219754805e+01
0	 5.428574228589335e+00	 5.285716041281408e+00	 1.016115547852219e+01
0	 5.428574228589336e+00	 5.428574228589335e+00	 1.015520083247306e+01
0	 5.428574228589335e+00	 5.571432615897928e+00	 1.014795137920024e+01
0	 5.428574228589334e+00	 5.714291269874074e+00	 1.013907024088242e+01
0	 5.571432615897930e+00	 4.285708730125927e+00	 1.018350642184513e+01
0	 5.571432615897929e+00	 4.428567384102076e+00	 1.018135790596658e+01
0	 5.571432615897928e+00	 4.571425771410667e+00	 1.017936818541643e+01
0	 5.571432615897928e+00	 4.714283958718594e+00	 1.017727075224863e+01
0	 5.571432615897928e+00	 4.857142012692741e+00	 1.017479910247584e+01
0	 5.571432615897928e+00	 5.000000000000001e+00	 1.017168673606943e+01
0	 5.571432615897926e+00	 5.142857987307259e+00	 1.016766715695942e+01
0	 5.571432615897927e+00	 5.285716041281408e+00	 1.016247387303446e+01
0	 5.571432615897929e+00	 5.428574228589335e+00	 1.015584039614178e+01
0	 5.571432615897929e+00	 5.571432615897928e+00	 1.014750024208699e+01
0	 5.571432615897928e+00	 5.714291269874074e+00	 1.013718693063406e+01
0	 5.714291269874074e+00	 4.285708730125924e+00	 1.017487267025900e+01
0	 5.714291269874074e+00	 4.428567384102074e+00	 1.017595602789716e+01
0	 5.714291269874074e+00	 4.571425771410667e+00	 1.017632959682444e+01
0	 5.714291269874073e+00	 4.714283958718594e+00	 1.017582407154033e+01
0	 5.714291269874074e+00	 4.857142012692742e+00	 1.017427015159410e+01
0	 5.714291269874074e+00	 5.000000000000001e+00	 1.017149854158469e+01
0	 5.714291269874076e+00	 5.142857987307261e+00	 1.016733995116085e+01
0	 5.714291269874075e+00	 5.285716041281409e+00	 1.016162509502096e+01
0	 5.714291269874074e+00	 5.428574228589336e+00	 1.015418469291308e+01
0	 5.714291269874074e+00	 5.571432615897928e+00	 1.014484946963480e+01
0	 5.714291269874074e+00	 5.714291269874073e+00	 1.013345015503303e+01
0	 4.285708730125925e+00	 5.714291269874074e+00	 1.010950971569323e+01
0	 4.285708730125926e+00	 5.857150240517928e+00	 1.010599383312415e+01
0	 4.285708730125926e+00	 6.000009511162682e+00	 1.010227238181448e+01
0	 4.285708730125926e+00	 6.142869048474793e+00	 1.009827961927366e+01
0	 4.285708730125926e+00	 6.285728819120710e+00	 1.009394980246979e+01
0	 4.285708730125925e+00	 6.428588789766899e+00	 1.008921718782960e+01
0	 4.285708730125926e+00	 6.571448927079809e+00	 1.008401603123842e+01
0	 4.285708730125926e+00	 6.714309197725895e+00	 1.007828058804016e+01
0	 4.285708730125926e+00	 6.857169568371619e+00	 1.007194511303737e+01
0	 4.285708730125926e+00	 7.000030005683427e+00	 1.006494386049110e+01
0	 4.285708730125926e+00	 7.142890476327779e+00	 1.005721108412101e+01
0	 4.428567384102075e+00	 5.714291269874074e+00	 1.011582477634077e+01
0	 4.428567384102074e+00	 5.857150240517929e+00	 1.011360964968232e+01
0	 4.428567384102074e+00	 6.000009511162681e+00	 1.011056251992175e+01
0	 4.428567384102074e+00	 6.142869048474792e+00	 1.010670769488943e+01
0	 4.428567384102074e+00	 6.285728819120711e+00	 1.010206948161512e+01
0	 4.428567384102075e+00	 6.428588789766899e+00	 1.009667218632797e+01
0	 4.428567384102075e+00	 6.571448927079810e+00	 1.009054011445657e+01
0	 4.428567384102073e+00	 6.714309197725895e+00	 1.008369757062883e+01
0	 4.428567384102073e+00	 6.857169568371615e+00	 1.007616885867208e+01
0	 4.428567384102074e+00	 7.000030005683424e+00	 1.006797828161298e+01
0	 4.428567384102074e+00	 7.142890476327777e+00	 1.005915014167757e+01
0	 4.571425771410667e+00	 5.714291269874074e+00	 1.012175957351654e+01
0	 4.571425771410666e+00	 5.857150240517928e+00	 1.011988371625208e+01
0	 4.571425771410667e+00	 6.000009511162683e+00	 1.011679492243017e+01
0	 4.571425771410667e+00	 6.142869048474791e+00	 1.011259043604354e+01
0	 4.571425771410667e+00	 6.285728819120711e+00	 1.010736750024847e+01
0	 4.571425771410667e+00	 6.428588789766899e+00	 1.010122335736490e+01
0	 4.571425771410667e+00	 6.571448927079809e+00	 1.009425524887629e+01
0	 4.571425771410668e+00	 6.714309197725896e+00	 1.008656041542973e+01
0	 4.571425771410667e+00	 6.857169568371616e+00	 1.007823609683589e+01
0	 4.571425771410667e+00	 7.000030005683426e+00	 1.006937953206894e+01
0	 4.571425771410667e+00	 7.142890476327776e+00	 1.006008795926666e+01
0	 4.714283958718594e+00	 5.714291269874074e+00	 1.012712995227395e+01
0	 4.714283958718593e+00	 5.857150240517928e+00	 1.012481240838126e+01
0	 4.714283958718593e+00	 6.000009511162683e+00	 1.012111497907506e+01
0	 4.714283958718593e+00	 6.142869048474791e+00	 1.011619073045770e+01
0	 4.714283958718595e+00	 6.285728819120714e+00	 1.011019272793867e+01
0	 4.714283958718593e+00	 6.428588789766899e+00	 1.010327403623453e+01
0	 4.714283958718593e+00	 6.571448927079810e+00	 1.009558771936891e+01
0	 4.714283958718593e+00	 6.714309197725897e+00	 1.008728684067253e+01
0	 4.714283958718592e+00	 6.857169568371615e+00	 1.007852446278316e+01
0	 4.714283958718592e+00	 7.000030005683425e+00	 1.006945364764561e+01
0	 4.714283958718593e+00	 7.142890476327778e+00	 1.006022745651175e+01
0	 4.857142012692742e+00	 5.714291269874074e+00	 1.013175175901245e+01
0	 4.857142012692742e+00	 5.857150240517928e+00	 1.012839210314070e+01
0	 4.857142012692741e+00	 6.000009511162681e+00	 1.012366808105107e+01
0	 4.857142012692742e+00	 6.142869048474791e+00	 1.011777146705672e+01
0	 4.857142012692742e+00	 6.285728819120712e+00	 1.011089403505655e+01
0	 4.857142012692741e+00	 6.428588789766898e+00	 1.010322755853524e+01
0	 4.857142012692742e+00	 6.571448927079811e+00	 1.009496381056320e+01
0	 4.857142012692742e+00	 6.714309197725896e+00	 1.008629456379656e+01
0	 4.857142012692742e+00	 6.857169568371615e+00	 1.007741159047719e+01
0	 4.857142012692742e+00	 7.000030005683425e+00	 1.006850666243262e+01
0	 4.857142012692741e+00	 7.142890476327777e+00	 1.005977155107611e+01
0	 5.000000000000001e+00	 5.714291269874074e+00	 1.013544084147770e+01
0	 5.000000000000001e+00	 5.857150240517929e+00	 1.013061917912429e+01
0	 5.000000000000000e+00	 6.000009511162681e+00	 1.012459962101231e+01
0	 5.000000000000003e+00	 6.142869048474791e+00	 1.011759553596846e+01
0	 5.000000000000001e+00	 6.285728819120711e+00	 1.010982029277500e+01
0	 5.000000000000001e+00	 6.428588789766900e+00	 1.010148726016959e+01
0	 5.000000000000002e+00	 6.571448927079808e+00	 1.009280980684538e+01
0	 5.000000000000001e+00	 6.714309197725897e+00	 1.008400130145091e+01
0	 5.000000000000002e+00	 6.857169568371615e+00	 1.007527511259018e+01
0	 5.000000000000000e+00	 7.000030005683426e+00	 1.006684460882252e+01
0	 5.000000000000001e+00	 7.142890476327777e+00	 1.005892315866270e+01
0	 5.142857987307261e+00	 5.714291269874074e+00	 1.013801304876145e+01
0	 5.142857987307261e+00	 5.857150240517928e+00	 1.013149001644896e+01
0	 5.142857987307262e+00	 6.000009511162681e+00	 1.012405499307221e+01
0	 5.142857987307261e+00	 6.142869048474791e+00	 1.011592582852393e+01
0	 5.142857987307260e+00	 6.285728819120712e+00	 1.010732037306898e+01
0	 5.142857987307262e+00	 6.428588789766899e+00	 1.009845647734436e+01
0	 5.142857987307260e+00	 6.571448927079808e+00	 1.008955199235912e+01
0	 5.142857987307259e+00	 6.714309197725895e+00	 1.008082476949435e+01
0	 5.142857987307260e+00	 6.857169568371616e+00	 1.007249266050319e+01
0	 5.142857987307261e+00	 7.000030005683426e+00	 1.006477351751077e+01
0	 5.142857987307262e+00	 7.142890476327779e+00	 1.005788519301421e+01
0	 5.285716041281408e+00	 5.714291269874074e+00	 1.013928423130166e+01
0	 5.285716041281410e+00	 5.857150240517930e+00	 1.013100099675477e+01
0	 5.285716041281409e+00	 6.000009511162682e+00	 1.012217959280371e+01
0	 5.285716041281407e+00	 6.142869048474790e+00	 1.011302523725720e+01
0	 5.285716041281408e+00	 6.285728819120711e+00	 1.010374314871554e+01
0	 5.285716041281408e+00	 6.428588789766899e+00	 1.009453854657054e+01
0	 5.285716041281410e+00	 6.571448927079810e+00	 1.008561665100553e+01
0	 5.285716041281408e+00	 6.714309197725895e+00	 1.007718268299533e+01
0	 5.285716041281407e+00	 6.857169568371615e+00	 1.006944186430616e+01
0	 5.285716041281408e+00	 7.000030005683427e+00	 1.006259941749570e+01
0	 5.285716041281408e+00	 7.142890476327778e+00	 1.005686056591301e+01
0	 5.428574228589334e+00	 5.714291269874074e+00	 1.013907024088242e+01
0	 5.428574228589335e+00	 5.857150240517927e+00	 1.012914850320480e+01
0	 5.428574228589334e+00	 6.000009511162680e+00	 1.011911881723913e+01
0	 5.428574228589333e+00	 6.142869048474791e+00	 1.010915665590552e+01
0	 5.428574228589336e+00	 6.285728819120713e+00	 1.009943749329377e+01
0	 5.428574228589334e+00	 6.428588789766899e+00	 1.009013680466331e+01
0	 5.428574228589334e+00	 6.571448927079808e+00	 1.008143006644318e+01
0	 5.428574228589335e+00	 6.714309197725897e+00	 1.007349275623199e+01
0	 5.428574228589335e+00	 6.857169568371616e+00	 1.006650035279791e+01
0	 5.428574228589335e+00	 7.000030005683426e+00	 1.006062833607857e+01
0	 5.428574228589335e+00	 7.142890476327777e+00	 1.005605218718114e+01
0	 5.571432615897928e+00	 5.714291269874074e+00	 1.013718693063406e+01
0	 5.571432615897927e+00	 5.857150240517928e+00	 1.012592892048529e+01
0	 5.571432615897929e+00	 6.000009511162682e+00	 1.011501806487026e+01
0	 5.571432615897928e+00	 6.142869048474792e+00	 1.010458297940924e+01
0	 5.571432615897928e+00	 6.285728819120711e+00	 1.009475228118487e+01
0	 5.571432615897927e+00	 6.428588789766900e+00	 1.008565458874207e+01
0	 5.571432615897927e+00	 6.571448927079808e+00	 1.007741852208804e+01
0	 5.571432615897929e+00	 6.714309197725896e+00	 1.007017270269218e+01
0	 5.571432615897928e+00	 6.857169568371617e+00	 1.006404575348608e+01
0	 5.571432615897928e+00	 7.000030005683427e+00	 1.005916629886351e+01
0	 5.571432615897927e+00	 7.142890476327777e+00	 1.005566296468031e+01
0	 5.714291269874074e+00	 5.714291269874073e+00	 1.013345015503303e+01
0	 5.714291269874074e+00	 5.857150240517930e+00	 1.012133863480549e+01
0	 5.714291269874075e+00	 6.000009511162681e+00	 1.011002273564823e+01
0	 5.714291269874075e+00	 6.142869048474792e+00	 1.009956710391177e+01
0	 5.714291269874074e+00	 6.285728819120712e+00	 1.009003638757206e+01
0	 5.714291269874074e+00	 6.428588789766899e+00	 1.008149523623043e+01
0	 5.714291269874074e+00	 6.571448927079808e+00	 1.007400830111355e+01
0	 5.714291269874073e+00	 6.714309197725894e+00	 1.006764023507343e+01
0	 5.714291269874074e+00	 6.857169568371616e+00	 1.006245569258727e+01
0	 5.714291269874074e+00	 7.000030005683425e+00	 1.005851932975757e+01
0	 5.714291269874075e+00	 7.142890476327779e+00	 1.005589580431198e+01
0	 4.285708730125926e+00	 7.142890476327779e+00	 1.005721108412101e+01
0	 4.285708730125926e+00	 7.285740955271015e+00	 1.004939760361379e+01
0	 4.285708730125926e+00	 7.428591450879009e+00	 1.004222065504678e+01
0	 4.285708730125926e+00	 7.571441979817511e+00	 1.003571582104971e+01
0	 4.285708730125925e+00	 7.714292558752280e+00	 1.002991868354431e+01
0	 4.285708730125926e+00	 7.857143204349074e+00	 1.002486482374437e+01
0	 4.285708730125926e+00	 7.999993933273643e+00	 1.002058982215569e+01
0	 4.285708730125926e+00	 8.142844762191748e+00	 1.001712925857612e+01
0	 4.285708730125926e+00	 8.285695707769140e+00	 1.001451871209553e+01
0	 4.285708730125926e+00	 8.428546786671578e+00	 1.001279376109583e+01
0	 4.285708730125926e+00	 8.571398015564817e+00	 1.001198998325095e+01
0	 4.428567384102074e+00	 7.142890476327777e+00	 1.005915014167757e+01
0	 4.428567384102074e+00	 7.285740955271013e+00	 1.005051475952899e+01
0	 4.428567384102076e+00	 7.428591450879007e+00	 1.004286650188872e+01
0	 4.428567384102074e+00	 7.571441979817509e+00	 1.003617765802915e+01
0	 4.428567384102074e+00	 7.714292558752280e+00	 1.003042051648338e+01
0	 4.428567384102076e+00	 7.857143204349076e+00	 1.002556736504525e+01
0	 4.428567384102074e+00	 7.999993933273643e+00	 1.002159049076920e+01
0	 4.428567384102077e+00	 8.142844762191750e+00	 1.001846217997043e+01
0	 4.428567384102073e+00	 8.285695707769138e+00	 1.001615471822479e+01
0	 4.428567384102075e+00	 8.428546786671577e+00	 1.001464039036884e+01
0	 4.428567384102076e+00	 8.571398015564814e+00	 1.001389148049981e+01
0	 4.571425771410667e+00	 7.142890476327776e+00	 1.006008795926666e+01
0	 4.571425771410667e+00	 7.285740955271013e+00	 1.005123398518077e+01
0	 4.571425771410668e+00	 7.428591450879006e+00	 1.004357129432736e+01
0	 4.571425771410667e+00	 7.571441979817511e+00	 1.003702073039237e+01
0	 4.571425771410667e+00	 7.714292558752282e+00	 1.003150313635424e+01
0	 4.571425771410668e+00	 7.857143204349073e+00	 1.002693935448387e+01
0	 4.571425771410667e+00	 7.999993933273644e+00	 1.002325022634465e+01
0	 4.571425771410667e+00	 8.142844762191746e+00	 1.002035659279246e+01
0	 4.571425771410667e+00	 8.285695707769142e+00	 1.001817929397563e+01
0	 4.571425771410667e+00	 8.428546786671575e+00	 1.001663916933498e+01
0	 4.571425771410667e+00	 8.571398015564814e+00	 1.001565705760382e+01
0	 4.714283958718593e+00	 7.142890476327778e+00	 1.006022745651175e+01
0	 4.714283958718594e+00	 7.285740955271014e+00	 1.005164879378766e+01
0	 4.714283958718594e+00	 7.428591450879009e+00	 1.004433805901135e+01
0	 4.714283958718593e+00	 7.571441979817510e+00	 1.003817649820494e+01
0	 4.714283958718593e+00	 7.714292558752280e+00	 1.003304535676474e+01
0	 4.714283958718594e+00	 7.857143204349073e+00	 1.002882587946119e+01
0	 4.714283958718594e+00	 7.999993933273646e+00	 1.002539931043888e+01
0	 4.714283958718595e+00	 8.142844762191750e+00	 1.002264689321657e+01
0	 4.714283958718594e+00	 8.285695707769140e+00	 1.002044987068718e+01
0	 4.714283958718593e+00	 8.428546786671575e+00	 1.001868948511778e+01
0	 4.714283958718593e+00	 8.571398015564814e+00	 1.001724697814963e+01
0	 4.857142012692741e+00	 7.142890476327777e+00	 1.005977155107611e+01
0	 4.857142012692742e+00	 7.285740955271014e+00	 1.005185269652192e+01
0	 4.857142012692741e+00	 7.428591450879007e+00	 1.004516982061447e+01
0	 4.857142012692742e+00	 7.571441979817511e+00	 1.003957641975332e+01
0	 4.857142012692742e+00	 7.714292558752279e+00	 1.003492598983055e+01
0	 4.857142012692741e+00	 7.857143204349073e+00	 1.003107202623073e+01
0	 4.857142012692742e+00	 7.999993933273644e+00	 1.002786802383087e+01
0	 4.857142012692740e+00	 8.142844762191748e+00	 1.002516747700049e+01
0	 4.857142012692742e+00	 8.285695707769142e+00	 1.002282387960160e+01
0	 4.857142012692743e+00	 8.428546786671580e+00	 1.002069072498868e+01
0	 4.857142012692742e+00	 8.571398015564814e+00	 1.001862150600870e+01
0	 5.000000000000001e+00	 7.142890476327777e+00	 1.005892315866270e+01
0	 5.000000000000002e+00	 7.285740955271015e+00	 1.005193920250953e+01
0	 5.000000000000002e+00	 7.428591450879007e+00	 1.004606960183565e+01
0	 5.000000000000002e+00	 7.571441979817511e+00	 1.004115195154481e+01
0	 5.000000000000001e+00	 7.714292558752278e+00	 1.003702384617504e+01
0	 5.000000000000001e+00	 7.857143204349072e+00	 1.003352287989855e+01
0	 5.000000000000002e+00	 7.999993933273644e+00	 1.003048664652174e+01
0	 5.000000000000002e+00	 8.142844762191748e+00	 1.002775273948528e+01
0	 5.000000000000002e+00	 8.285695707769140e+00	 1.002515875186397e+01
0	 5.000000000000002e+00	 8.428546786671577e+00	 1.002254227636691e+01
0	 5.000000000000001e+00	 8.571398015564816e+00	 1.001974090533733e+01
0	 5.142857987307262e+00	 7.142890476327779e+00	 1.005788519301421e+01
0	 5.142857987307260e+00	 7.285740955271015e+00	 1.005200181883012e+01
0	 5.142857987307259e+00	 7.428591450879007e+00	 1.004704042339889e+01
0	 5.142857987307263e+00	 7.571441979817512e+00	 1.004283454830755e+01
0	 5.142857987307263e+00	 7.714292558752282e+00	 1.003921773492925e+01
0	 5.142857987307262e+00	 7.857143204349072e+00	 1.003602352442320e+01
0	 5.142857987307263e+00	 7.999993933273645e+00	 1.003308545773474e+01
0	 5.142857987307259e+00	 8.142844762191746e+00	 1.003023707559528e+01
0	 5.142857987307263e+00	 8.285695707769143e+00	 1.002731191852236e+01
0	 5.142857987307262e+00	 8.428546786671577e+00	 1.002414352681957e+01
0	 5.142857987307261e+00	 8.571398015564816e+00	 1.002056544057661e+01
0	 5.285716041281408e+00	 7.142890476327778e+00	 1.005686056591301e+01
0	 5.285716041281409e+00	 7.285740955271016e+00	 1.005213405051693e+01
0	 5.285716041281409e+00	 7.428591450879009e+00	 1.004808530405327e+01
0	 5.285716041281408e+00	 7.571441979817509e+00	 1.004455566299049e+01
0	 5.285716041281408e+00	 7.714292558752281e+00	 1.004138646373191e+01
0	 5.285716041281409e+00	 7.857143204349073e+00	 1.003841904261576e+01
0	 5.285716041281407e+00	 7.999993933273641e+00	 1.003549473591518e+01
0	 5.285716041281409e+00	 8.142844762191746e+00	 1.003245487983820e+01
0	 5.285716041281407e+00	 8.285695707769140e+00	 1.002914081052772e+01
0	 5.285716041281408e+00	 8.428546786671578e+00	 1.002539386406157e+01
0	 5.285716041281408e+00	 8.571398015564816e+00	 1.002105537645241e+01
0	 5.428574228589335e+00	 7.142890476327777e+00	 1.005605218718114e+01
0	 5.428574228589336e+00	 7.285740955271014e+00	 1.005242940055684e+01
0	 5.428574228589335e+00	 7.428591450879006e+00	 1.004920726057293e+01
0	 5.428574228589335e+00	 7.571441979817511e+00	 1.004624674676334e+01
0	 5.428574228589334e+00	 7.714292558752281e+00	 1.004340883872940e+01
0	 5.428574228589334e+00	 7.857143204349074e+00	 1.004055451613975e+01
0	 5.428574228589335e+00	 7.999993933273645e+00	 1.003754475873047e+01
0	 5.428574228589335e+00	 8.142844762191750e+00	 1.003424054630495e+01
0	 5.428574228589336e+00	 8.285695707769143e+00	 1.003050285873397e+01
0	 5.428574228589336e+00	 8.428546786671577e+00	 1.002619267595563e+01
0	 5.428574228589335e+00	 8.571398015564814e+00	 1.002117097797539e+01
0	 5.571432615897927e+00	 7.142890476327777e+00	 1.005566296468031e+01
0	 5.571432615897928e+00	 7.285740955271014e+00	 1.005298136989040e+01
0	 5.571432615897928e+00	 7.428591450879005e+00	 1.005040930775708e+01
0	 5.571432615897929e+00	 7.571441979817512e+00	 1.004783924901667e+01
0	 5.571432615897927e+00	 7.714292558752282e+00	 1.004516366457576e+01
0	 5.571432615897927e+00	 7.857143204349073e+00	 1.004227502551120e+01
0	 5.571432615897929e+00	 7.999993933273644e+00	 1.003906580307008e+01
0	 5.571432615897929e+00	 8.142844762191748e+00	 1.003542846866978e+01
0	 5.571432615897928e+00	 8.285695707769140e+00	 1.003125549389787e+01
0	 5.571432615897930e+00	 8.428546786671580e+00	 1.002643935051224e+01
0	 5.571432615897927e+00	 8.571398015564814e+00	 1.002087251044098e+01
0	 5.714291269874075e+00	 7.142890476327779e+00	 1.005589580431198e+01
0	 5.714291269874074e+00	 7.285740955271013e+00	 1.005388345741178e+01
0	 5.714291269874074e+00	 7.428591450879007e+00	 1.005169445843001e+01
0	 5.714291269874074e+00	 7.571441979817511e+00	 1.004926461736183e+01
0	 5.714291269874074e+00	 7.714292558752280e+00	 1.004652974443276e+01
0	 5.714291269874073e+00	 7.857143204349073e+00	 1.004342565009861e+01
0	 5.714291269874073e+00	 7.999993933273643e+00	 1.003988814504558e+01
0	 5.714291269874075e+00	 8.142844762191750e+00	 1.003585304019014e+01
0	 5.714291269874074e+00	 8.285695707769142e+00	 1.003125614667913e+01
0	 5.714291269874074e+00	 8.428546786671575e+00	 1.002603327588971e+01
0	 5.714291269874074e+00	 8.571398015564814e+00	 1.002012023942928e+01
0	 4.285708730125926e+00	 8.571398015564817e+00	 1.001198998325095e+01
0	 4.285708730125926e+00	 8.714259388995401e+00	 1.001158799282205e+01
0	 4.285708730125926e+00	 8.857120812436385e+00	 1.001102550822264e+01
0	 4.285708730125925e+00	 8.999982169218280e+00	 1.001027369295798e+01
0	 4.285708730125926e+00	 9.142843342671600e+00	 1.000930371015585e+01
0	 4.285708730125925e+00	 9.285704216126851e+00	 1.000808672256645e+01
0	 4.285708730125926e+00	 9.428564672914549e+00	 1.000659389256228e+01
0	 4.285708730125926e+00	 9.571424596365203e+00	 1.000479638213811e+01
0	 4.285708730125926e+00	 9.714283869809318e+00	 1.000266535291081e+01
0	 4.285708730125926e+00	 9.857142376577416e+00	 1.000017196611920e+01
0	 4.285708730125926e+00	 1.000000000000000e+01	 9.997287382624032e+00
0	 4.428567384102076e+00	 8.571398015564814e+00	 1.001389148049981e+01
0	 4.428567384102074e+00	 8.714259388995400e+00	 1.001335469869196e+01
0	 4.428567384102074e+00	 8.857120812436383e+00	 1.001251218653146e+01
0	 4.428567384102076e+00	 8.999982169218281e+00	 1.001138929593635e+01
0	 4.428567384102075e+00	 9.142843342671599e+00	 1.001001137876298e+01
0	 4.428567384102073e+00	 9.285704216126849e+00	 1.000840378680589e+01
0	 4.428567384102075e+00	 9.428564672914552e+00	 1.000659187179765e+01
0	 4.428567384102074e+00	 9.571424596365201e+00	 1.000460098540888e+01
0	 4.428567384102073e+00	 9.714283869809320e+00	 1.000245647924808e+01
0	 4.428567384102074e+00	 9.857142376577414e+00	 1.000018370486154e+01
0	 4.428567384102075e+00	 1.000000000000000e+01	 9.997808013733401e+00
0	 4.571425771410667e+00	 8.571398015564814e+00	 1.001565705760382e+01
0	 4.571425771410669e+00	 8.714259388995403e+00	 1.001472822446092e+01
0	 4.571425771410667e+00	 8.857120812436385e+00	 1.001344630275230e+01
0	 4.571425771410669e+00	 8.999982169218281e+00	 1.001187952863691e+01
0	 4.571425771410667e+00	 9.142843342671599e+00	 1.001009613881573e+01
0	 4.571425771410667e+00	 9.285704216126852e+00	 1.000816437053182e+01
0	 4.571425771410667e+00	 9.428564672914549e+00	 1.000615246156999e+01
0	 4.571425771410666e+00	 9.571424596365199e+00	 1.000412865025699e+01
0	 4.571425771410667e+00	 9.714283869809323e+00	 1.000216117546132e+01
0	 4.571425771410667e+00	 9.857142376577418e+00	 1.000031827659313e+01
0	 4.571425771410668e+00	 1.000000000000000e+01	 9.998668193604191e+00
0	 4.714283958718593e+00	 8.571398015564814e+00	 1.001724697814963e+01
0	 4.714283958718593e+00	 8.714259388995400e+00	 1.001573150062966e+01
0	 4.714283958718593e+00	 8.857120812436383e+00	 1.001389810467888e+01
0	 4.714283958718593e+00	 8.999982169218281e+00	 1.001184660652308e+01
0	 4.714283958718594e+00	 9.142843342671599e+00	 1.000967682374663e+01
0	 4.714283958718593e+00	 9.285704216126854e+00	 1.000748857529257e+01
0	 4.714283958718593e+00	 9.428564672914550e+00	 1.000538168146243e+01
0	 4.714283958718593e+00	 9.571424596365203e+00	 1.000345596391626e+01
0	 4.714283958718593e+00	 9.714283869809320e+00	 1.000181124567251e+01
0	 4.714283958718593e+00	 9.857142376577418e+00	 1.000054735110816e+01
0	 4.714283958718593e+00	 1.000000000000000e+01	 9.999764105958528e+00
0	 4.857142012692742e+00	 8.571398015564814e+00	 1.001862150600871e+01
0	 4.857142012692742e+00	 8.714259388995400e+00	 1.001638745799034e+01
0	 4.857142012692742e+00	 8.857120812436381e+00	 1.001393784029362e+01
0	 4.857142012692741e+00	 8.999982169218280e+00	 1.001139274506642e+01
0	 4.857142012692742e+00	 9.142843342671602e+00	 1.000887226676955e+01
0	 4.857142012692742e+00	 9.285704216126852e+00	 1.000649650217663e+01
0	 4.857142012692743e+00	 9.428564672914552e+00	 1.000438555037405e+01
0	 4.857142012692742e+00	 9.571424596365203e+00	 1.000265951276102e+01
0	 4.857142012692742e+00	 9.714283869809323e+00	 1.000143849304938e+01
0	 4.857142012692742e+00	 9.857142376577418e+00	 1.000084259726395e+01
0	 4.857142012692742e+00	 1.000000000000000e+01	 1.000099193374234e+01
0	 5.000000000000001e+00	 8.571398015564816e+00	 1.001974090533733e+01
0	 4.999999999999998e+00	 8.714259388995396e+00	 1.001671902762667e+01
0	 5.000000000000002e+00	 8.857120812436385e+00	 1.001363575776761e+01
0	 4.999999999999999e+00	 8.999982169218281e+00	 1.001062015974663e+01
0	 5.000000000000001e+00	 9.142843342671602e+00	 1.000780130087980e+01
0	 5.000000000000001e+00	 9.285704216126854e+00	 1.000530825181261e+01
0	 5.000000000000001e+00	 9.428564672914552e+00	 1.000327008651998e+01
0	 5.000000000000001e+00	 9.571424596365205e+00	 1.000181588230629e+01
0	 5.000000000000001e+00	 9.714283869809320e+00	 1.000107471980540e+01
0	 5.000000000000002e+00	 9.857142376577420e+00	 1.000117568298070e+01
0	 5.000000000000002e+00	 1.000000000000000e+01	 1.000224785912545e+01
0	 5.142857987307261e+00	 8.571398015564816e+00	 1.002056544057661e+01
0	 5.142857987307261e+00	 8.714259388995400e+00	 1.001674914091383e+01
0	 5.142857987307260e+00	 8.857120812436383e+00	 1.001306210546067e+01
0	 5.142857987307260e+00	 8.999982169218280e+00	 1.000963106605147e+01
0	 5.142857987307260e+00	 9.142843342671599e+00	 1.000658275885395e+01
0	 5.142857987307262e+00	 9.285704216126854e+00	 1.000404392436912e+01
0	 5.142857987307260e+00	 9.428564672914549e+00	 1.000214130743119e+01
0	 5.142857987307261e+00	 9.571424596365203e+00	 1.000100165720774e+01
0	 5.142857987307260e+00	 9.714283869809320e+00	 1.000075172719972e+01
0	 5.142857987307260e+00	 9.857142376577416e+00	 1.000151827524160e+01
0	 5.142857987307262e+00	 1.000000000000000e+01	 1.000342806350154e+01
0	 5.285716041281408e+00	 8.571398015564816e+00	 1.002105537645241e+01
0	 5.285716041281408e+00	 8.714259388995400e+00	 1.001650072951846e+01
0	 5.285716041281407e+00	 8.857120812436383e+00	 1.001228713192126e+01
0	 5.285716041281409e+00	 8.999982169218283e+00	 1.000852767947674e+01
0	 5.285716041281410e+00	 9.142843342671597e+00	 1.000533547324989e+01
0	 5.285716041281408e+00	 9.285704216126849e+00	 1.000282361955480e+01
0	 5.285716041281409e+00	 9.428564672914549e+00	 1.000110522995460e+01
0	 5.285716041281408e+00	 9.571424596365201e+00	 1.000029342126155e+01
0	 5.285716041281410e+00	 9.714283869809321e+00	 1.000050131553718e+01
0	 5.285716041281408e+00	 9.857142376577418e+00	 1.000184204009241e+01
0	 5.285716041281409e+00	 1.000000000000000e+01	 1.000442872748801e+01
0	 5.428574228589335e+00	 8.571398015564814e+00	 1.002117097797539e+01
0	 5.428574228589334e+00	 8.714259388995400e+00	 1.001599672539863e+01
0	 5.428574228589335e+00	 8.857120812436387e+00	 1.001138108588656e+01
0	 5.428574228589335e+00	 8.999982169218283e+00	 1.000741221552635e+01
0	 5.428574228589336e+00	 9.142843342671602e+00	 1.000417827640681e+01
0	 5.428574228589333e+00	 9.285704216126852e+00	 1.000176743661833e+01
0	 5.428574228589335e+00	 9.428564672914547e+00	 1.000026787025296e+01
0	 5.428574228589335e+00	 9.571424596365203e+00	 9.999767757404372e+00
0	 5.428574228589336e+00	 9.714283869809323e+00	 1.000035528416819e+01
0	 5.428574228589334e+00	 9.857142376577416e+00	 1.000211864264205e+01
0	 5.428574228589335e+00	 1.000000000000000e+01	 1.000514603092605e+01
0	 5.571432615897927e+00	 8.571398015564814e+00	 1.002087251044098e+01
0	 5.571432615897930e+00	 8.714259388995401e+00	 1.001526006080386e+01
0	 5.571432615897929e+00	 8.857120812436385e+00	 1.001041421628233e+01
0	 5.571432615897928e+00	 8.999982169218281e+00	 1.000638688971224e+01
0	 5.571432615897929e+00	 9.142843342671600e+00	 1.000323000044517e+01
0	 5.571432615897927e+00	 9.285704216126851e+00	 1.000099547434840e+01
0	 5.571432615897928e+00	 9.428564672914549e+00	 9.999735243804910e+00
0	 5.571432615897927e+00	 9.571424596365201e+00	 9.999501247713450e+00
0	 5.571432615897927e+00	 9.714283869809320e+00	 1.000034543148882e+01
0	 5.571432615897928e+00	 9.857142376577416e+00	 1.000231974706199e+01
0	 5.571432615897928e+00	 1.000000000000000e+01	 1.000547615288059e+01
0	 5.714291269874074e+00	 8.571398015564814e+00	 1.002012023942928e+01
0	 5.714291269874074e+00	 8.714259388995403e+00	 1.001431366827505e+01
0	 5.714291269874074e+00	 8.857120812436385e+00	 1.000945677222293e+01
0	 5.714291269874075e+00	 8.999982169218283e+00	 1.000555391755430e+01
0	 5.714291269874074e+00	 9.142843342671599e+00	 1.000260947726667e+01
0	 5.714291269874074e+00	 9.285704216126854e+00	 1.000062783107363e+01
0	 5.714291269874074e+00	 9.428564672914547e+00	 9.999613365404935e+00
0	 5.714291269874074e+00	 9.571424596365199e+00	 9.999570473406528e+00
0	 5.714291269874074e+00	 9.714283869809320e+00	 1.000050355494073e+01
0	 5.714291269874074e+00	 9.857142376577416e+00	 1.000241701658663e+01
0	 5.714291269874075e+00	 1.000000000000000e+01	 1.000531527164031e+01
0	 5.714291269874075e+00	 0.000000000000000e+00	 1.040018972027078e+01
0	 5.714291269874074e+00	 1.428576234225853e-01	 1.031447013997438e+01
0	 5.714291269874074e+00	 2.857161301906819e-01	 1.023883595281811e+01
0	 5.714291269874074e+00	 4.285754036348008e-01	 1.017418894072784e+01
0	 5.714291269874074e+00	 5.714353270854531e-01	 1.012143097335762e+01
0	 5.714291269874074e+00	 7.142957838731496e-01	 1.008146400808369e+01
0	 5.714291269874074e+00	 8.571566573284018e-01	 1.005519008999958e+01
0	 5.714291269874075e+00	 1.000017830781720e+00	 1.004351135191221e+01
0	 5.714291269874074e+00	 1.142879187563616e+00	 1.004733001433922e+01
0	 5.714291269874074e+00	 1.285740611004601e+00	 1.006754838550718e+01
0	 5.714291269874074e+00	 1.428601984435185e+00	 1.010506886135103e+01
0	 5.857150240517928e+00	 0.000000000000000e+00	 1.049043540913453e+01
0	 5.857150240517929e+00	 1.428576234225853e-01	 1.037579745753637e+01
0	 5.857150240517928e+00	 2.857161301906819e-01	 1.027627714514098e+01
0	 5.857150240517929e+00	 4.285754036348008e-01	 1.019242860389048e+01
0	 5.857150240517927e+00	 5.714353270854531e-01	 1.012480606535453e+01
0	 5.857150240517928e+00	 7.142957838731497e-01	 1.007396386072351e+01
0	 5.857150240517927e+00	 8.571566573284017e-01	 1.004045642080292e+01
0	 5.857150240517929e+00	 1.000017830781720e+00	 1.002483827600899e+01
0	 5.857150240517929e+00	 1.142879187563616e+00	 1.002766405636552e+01
0	 5.857150240517927e+00	 1.285740611004601e+00	 1.004948849150189e+01
0	 5.857150240517928e+00	 1.428601984435185e+00	 1.009086641065239e+01
0	 6.000009511162681e+00	 0.000000000000000e+00	 1.052569433450368e+01
0	 6.000009511162682e+00	 1.428576234225853e-01	 1.039993475617037e+01
0	 6.000009511162683e+00	 2.857161301906819e-01	 1.029167975301559e+01
0	 6.000009511162681e+00	 4.285754036348007e-01	 1.020118720811991e+01
0	 6.000009511162681e+00	 5.714353270854531e-01	 1.012871510490698e+01
0	 6.000009511162681e+00	 7.142957838731496e-01	 1.007452152713668e+01
0	 6.000009511162681e+00	 8.571566573284016e-01	 1.003886465889951e+01
0	 6.000009511162683e+00	 1.000017830781720e+00	 1.002200278461207e+01
0	 6.000009511162682e+00	 1.142879187563616e+00	 1.002419428901395e+01
0	 6.000009511162683e+00	 1.285740611004601e+00	 1.004569765716574e+01
0	 6.000009511162681e+00	 1.428601984435185e+00	 1.008677147444828e+01
0	 6.142869048474791e+00	 0.000000000000000e+00	 1.051498350722456e+01
0	 6.142869048474794e+00	 1.428576234225853e-01	 1.039283192349647e+01
0	 6.142869048474791e+00	 2.857161301906820e-01	 1.028835714983285e+01
0	 6.142869048474790e+00	 4.285754036348006e-01	 1.020157220714247e+01
0	 6.142869048474794e+00	 5.714353270854531e-01	 1.013249020831914e+01
0	 6.142869048474791e+00	 7.142957838731496e-01	 1.008112435823545e+01
0	 6.142869048474792e+00	 8.571566573284016e-01	 1.004748795373754e+01
0	 6.142869048474791e+00	 1.000017830781720e+00	 1.003159438364116e+01
0	 6.142869048474790e+00	 1.142879187563616e+00	 1.003345712872864e+01
0	 6.142869048474791e+00	 1.285740611004601e+00	 1.005308976174718e+01
0	 6.142869048474790e+00	 1.428601984435185e+00	 1.009050594740818e+01
0	 6.285728819120711e+00	 0.000000000000000e+00	 1.046731992691145e+01
0	 6.285728819120713e+00	 1.428576234225853e-01	 1.036043883813083e+01
0	 6.285728819120713e+00	 2.857161301906819e-01	 1.026962270169943e+01
0	 6.285728819120711e+00	 4.285754036348006e-01	 1.019469104868340e+01
0	 6.285728819120711e+00	 5.714353270854530e-01	 1.013546348681252e+01
0	 6.285728819120712e+00	 7.142957838731496e-01	 1.009175970047488e+01
0	 6.285728819120711e+00	 8.571566573284014e-01	 1.006339945071268e+01
0	 6.285728819120711e+00	 1.000017830781720e+00	 1.005020257521888e+01
0	 6.285728819120713e+00	 1.142879187563616e+00	 1.005198898833477e+01
0	 6.285728819120712e+00	 1.285740611004601e+00	 1.006857868104850e+01
0	 6.285728819120711e+00	 1.428601984435185e+00	 1.009979172099460e+01
0	 6.428588789766900e+00	 0.000000000000000e+00	 1.039172058194692e+01
0	 6.428588789766902e+00	 1.428576234225852e-01	 1.030870536968594e+01
0	 6.428588789766899e+00	 2.857161301906818e-01	 1.023878976743795e+01
0	 6.428588789766901e+00	 4.285754036348008e-01	 1.018165117446700e+01
0	 6.428588789766900e+00	 5.714353270854532e-01	 1.013696704652601e+01
0	 6.428588789766898e+00	 7.142957838731496e-01	 1.010441489585304e+01
0	 6.428588789766899e+00	 8.571566573284016e-01	 1.008367229116811e+01
0	 6.428588789766901e+00	 1.000017830781720e+00	 1.007441685767083e+01
0	 6.428588789766899e+00	 1.142879187563616e+00	 1.007632627703866e+01
0	 6.428588789766900e+00	 1.285740611004601e+00	 1.008907828742587e+01
0	 6.428588789766899e+00	 1.428601984435185e+00	 1.011235068346321e+01
0	 6.571448927079809e+00	 0.000000000000000e+00	 1.029720244948195e+01
0	 6.571448927079809e+00	 1.428576234225853e-01	 1.024358137877076e+01
0	 6.571448927079806e+00	 2.857161301906818e-01	 1.019917169858716e+01
0	 6.571448927079808e+00	 4.285754036348006e-01	 1.016356002021669e+01
0	 6.571448927079811e+00	 5.714353270854532e-01	 1.013633298851607e+01
0	 6.571448927079810e+00	 7.142957838731497e-01	 1.011707728191103e+01
0	 6.571448927079809e+00	 8.571566573284015e-01	 1.010537961239460e+01
0	 6.571448927079808e+00	 1.000017830781720e+00	 1.010082672552561e+01
0	 6.571448927079809e+00	 1.142879187563616e+00	 1.010300540042786e+01
0	 6.571448927079810e+00	 1.285740611004601e+00	 1.011150244978947e+01
0	 6.571448927079810e+00	 1.428601984435185e+00	 1.012590471986281e+01
0	 6.714309197725897e+00	 0.000000000000000e+00	 1.019278249543621e+01
0	 6.714309197725896e+00	 1.428576234225853e-01	 1.017101671699088e+01
0	 6.714309197725897e+00	 2.857161301906819e-01	 1.015408183940201e+01
0	 6.714309197725896e+00	 4.285754036348007e-01	 1.014152501565517e+01
0	 6.714309197725898e+00	 5.714353270854532e-01	 1.013289340875671e+01
0	 6.714309197725896e+00	 7.142957838731497e-01	 1.012773419173310e+01
0	 6.714309197725896e+00	 8.571566573284016e-01	 1.012559454763061e+01
0	 6.714309197725894e+00	 1.000017830781720e+00	 1.012602166951495e+01
0	 6.714309197725894e+00	 1.142879187563616e+00	 1.012856276047115e+01
0	 6.714309197725896e+00	 1.285740611004601e+00	 1.013276503360346e+01
0	 6.714309197725896e+00	 1.428601984435185e+00	 1.013817571203548e+01
0	 6.857169568371615e+00	 0.000000000000000e+00	 1.008747767449809e+01
0	 6.857169568371616e+00	 1.428576234225852e-01	 1.009696122694862e+01
0	 6.857169568371617e+00	 2.857161301906819e-01	 1.010683352685370e+01
0	 6.857169568371618e+00	 4.285754036348009e-01	 1.011665358450445e+01
0	 6.857169568371616e+00	 5.714353270854531e-01	 1.012598039813963e+01
0	 6.857169568371617e+00	 7.142957838731497e-01	 1.013437295394663e+01
0	 6.857169568371617e+00	 8.571566573284020e-01	 1.014139022606229e+01
0	 6.857169568371617e+00	 1.000017830781720e+00	 1.014659117657368e+01
0	 6.857169568371617e+00	 1.142879187563616e+00	 1.014953475551862e+01
0	 6.857169568371617e+00	 1.285740611004601e+00	 1.014977990088608e+01
0	 6.857169568371617e+00	 1.428601984435185e+00	 1.014688553861653e+01
0	 7.000030005683427e+00	 0.000000000000000e+00	 9.990304930124919e+00
0	 7.000030005683426e+00	 1.428576234225853e-01	 1.002736474224312e+01
0	 7.000030005683428e+00	 2.857161301906820e-01	 1.006074009062983e+01
0	 7.000030005683426e+00	 4.285754036348007e-01	 1.009005314448588e+01
0	 7.000030005683425e+00	 5.714353270854531e-01	 1.011492604247423e+01
0	 7.000030005683426e+00	 7.142957838731495e-01	 1.013498089272222e+01
0	 7.000030005683427e+00	 8.571566573284017e-01	 1.014983977282356e+01
0	 7.000030005683428e+00	 1.000017830781720e+00	 1.015912472983981e+01
0	 7.000030005683427e+00	 1.142879187563616e+00	 1.016245778030166e+01
0	 7.000030005683427e+00	 1.285740611004601e+00	 1.015946091020963e+01
0	 7.000030005683427e+00	 1.428601984435185e+00	 1.014975607503458e+01
0	 7.142890476327777e+00	 0.000000000000000e+00	 9.910281194542943e+00
0	 7.142890476327779e+00	 1.428576234225852e-01	 9.968177087470362e+00
0	 7.142890476327778e+00	 2.857161301906819e-01	 1.001911485313438e+01
0	 7.142890476327778e+00	 4.285754036348008e-01	 1.006283110732024e+01
0	 7.142890476327778e+00	 5.714353270854531e-01	 1.009906242248761e+01
0	 7.142890476327776e+00	 7.142957838731497e-01	 1.012754532777371e+01
0	 7.142890476327779e+00	 8.571566573284016e-01	 1.014801630899606e+01
0	 7.142890476327779e+00	 1.000017830781720e+00	 1.016021180865456e+01
0	 7.142890476327778e+00	 1.142879187563616e+00	 1.016386822593306e+01
0	 7.142890476327779e+00	 1.285740611004601e+00	 1.015872191670055e+01
0	 7.142890476327779e+00	 1.428601984435185e+00	 1.014450919351156e+01
0	 5.714291269874074e+00	 1.428601984435185e+00	 1.010506886135103e+01
0	 5.714291269874074e+00	 1.571453213328422e+00	 1.014850690979555e+01
0	 5.714291269874076e+00	 1.714304292230859e+00	 1.018585436768215e+01
0	 5.714291269874074e+00	 1.857155237808252e+00	 1.021706849443894e+01
0	 5.714291269874074e+00	 2.000006066726355e+00	 1.024210655394064e+01
0	 5.714291269874074e+00	 2.142856795650926e+00	 1.026092581450863e+01
0	 5.714291269874074e+00	 2.285707441247718e+00	 1.027348354891096e+01
0	 5.714291269874074e+00	 2.428558020182487e+00	 1.027973703436239e+01
0	 5.714291269874074e+00	 2.571408549120992e+00	 1.027964355252448e+01
0	 5.714291269874075e+00	 2.714259044728984e+00	 1.027316038950554e+01
0	 5.714291269874074e+00	 2.857109523672222e+00	 1.026024483586068e+01
0	 5.857150240517928e+00	 1.428601984435185e+00	 1.009086641065239e+01
0	 5.857150240517929e+00	 1.571453213328422e+00	 1.013850415920041e+01
0	 5.857150240517927e+00	 1.714304292230859e+00	 1.017879685089996e+01
0	 5.857150240517927e+00	 1.857155237808252e+00	 1.021182176491995e+01
0	 5.857150240517927e+00	 2.000006066726355e+00	 1.023765618547126e+01
0	 5.857150240517929e+00	 2.142856795650925e+00	 1.025637740180668e+01
0	 5.857150240517928e+00	 2.285707441247718e+00	 1.026806270822108e+01
0	 5.857150240517927e+00	 2.428558020182488e+00	 1.027278940405138e+01
0	 5.857150240517928e+00	 2.571408549120992e+00	 1.027063479367660e+01
0	 5.857150240517927e+00	 2.714259044728984e+00	 1.026167618651792e+01
0	 5.857150240517928e+00	 2.857109523672222e+00	 1.024599089703862e+01
0	 6.000009511162681e+00	 1.428601984435185e+00	 1.008677147444828e+01
0	 6.000009511162683e+00	 1.571453213328422e+00	 1.013378436963053e+01
0	 6.000009511162681e+00	 1.714304292230859e+00	 1.017305599984520e+01
0	 6.000009511162681e+00	 1.857155237808251e+00	 1.020476087378532e+01
0	 6.000009511162683e+00	 2.000006066726355e+00	 1.022907350523356e+01
0	 6.000009511162681e+00	 2.142856795650925e+00	 1.024616841306234e+01
0	 6.000009511162681e+00	 2.285707441247718e+00	 1.025622012123385e+01
0	 6.000009511162683e+00	 2.428558020182489e+00	 1.025940315880013e+01
0	 6.000009511162679e+00	 2.571408549120991e+00	 1.025589205990304e+01
0	 6.000009511162684e+00	 2.714259044728985e+00	 1.024586136377438e+01
0	 6.000009511162683e+00	 2.857109523672223e+00	 1.022948561473583e+01
0	 6.142869048474790e+00	 1.428601984435185e+00	 1.009050594740818e+01
0	 6.142869048474792e+00	 1.571453213328422e+00	 1.013301944782939e+01
0	 6.142869048474791e+00	 1.714304292230859e+00	 1.016810731561002e+01
0	 6.142869048474791e+00	 1.857155237808251e+00	 1.019601849823730e+01
0	 6.142869048474789e+00	 2.000006066726355e+00	 1.021700194789079e+01
0	 6.142869048474789e+00	 2.142856795650924e+00	 1.023130662144246e+01
0	 6.142869048474792e+00	 2.285707441247718e+00	 1.023918148045669e+01
0	 6.142869048474791e+00	 2.428558020182489e+00	 1.024087549119039e+01
0	 6.142869048474792e+00	 2.571408549120992e+00	 1.023663762459298e+01
0	 6.142869048474791e+00	 2.714259044728984e+00	 1.022671685630640e+01
0	 6.142869048474790e+00	 2.857109523672222e+00	 1.021136216666515e+01
0	 6.285728819120711e+00	 1.428601984435185e+00	 1.009979172099461e+01
0	 6.285728819120711e+00	 1.571453213328422e+00	 1.013488129769373e+01
0	 6.285728819120711e+00	 1.714304292230859e+00	 1.016342629690640e+01
0	 6.285728819120710e+00	 1.857155237808251e+00	 1.018572731363911e+01
0	 6.285728819120709e+00	 2.000006066726355e+00	 1.020208494685075e+01
0	 6.285728819120712e+00	 2.142856795650926e+00	 1.021279979945272e+01
0	 6.285728819120713e+00	 2.285707441247718e+00	 1.021817247830888e+01
0	 6.285728819120712e+00	 2.428558020182488e+00	 1.021850359423564e+01
0	 6.285728819120711e+00	 2.571408549120992e+00	 1.021409376200200e+01
0	 6.285728819120712e+00	 2.714259044728986e+00	 1.020524360032952e+01
0	 6.285728819120711e+00	 2.857109523672221e+00	 1.019225373189235e+01
0	 6.428588789766899e+00	 1.428601984435185e+00	 1.011235068346321e+01
0	 6.428588789766900e+00	 1.571453213328422e+00	 1.013804182027362e+01
0	 6.428588789766901e+00	 1.714304292230859e+00	 1.015848844006623e+01
0	 6.428588789766897e+00	 1.857155237808251e+00	 1.017401999351488e+01
0	 6.428588789766899e+00	 2.000006066726355e+00	 1.018496593426580e+01
0	 6.428588789766899e+00	 2.142856795650925e+00	 1.019165571893763e+01
0	 6.428588789766899e+00	 2.285707441247719e+00	 1.019441880712148e+01
0	 6.428588789766899e+00	 2.428558020182488e+00	 1.019358466138092e+01
0	 6.428588789766899e+00	 2.571408549120992e+00	 1.018948274725201e+01
0	 6.428588789766899e+00	 2.714259044728984e+00	 1.018244253324336e+01
0	 6.428588789766899e+00	 2.857109523672222e+00	 1.017279349083606e+01
0	 6.571448927079810e+00	 1.428601984435185e+00	 1.012590471986281e+01
0	 6.571448927079809e+00	 1.571453213328422e+00	 1.014117291377251e+01
0	 6.571448927079809e+00	 1.714304292230859e+00	 1.015276923904137e+01
0	 6.571448927079810e+00	 1.857155237808251e+00	 1.016102920954980e+01
0	 6.571448927079809e+00	 2.000006066726356e+00	 1.016628834103291e+01
0	 6.571448927079809e+00	 2.142856795650925e+00	 1.016888215108056e+01
0	 6.571448927079810e+00	 2.285707441247718e+00	 1.016914615913741e+01
0	 6.571448927079807e+00	 2.428558020182488e+00	 1.016741588650290e+01
0	 6.571448927079809e+00	 2.571408549120992e+00	 1.016402685633129e+01
0	 6.571448927079809e+00	 2.714259044728984e+00	 1.015931459363163e+01
0	 6.571448927079808e+00	 2.857109523672222e+00	 1.015361462526781e+01
0	 6.714309197725896e+00	 1.428601984435185e+00	 1.013817571203548e+01
0	 6.714309197725897e+00	 1.571453213328422e+00	 1.014294647354726e+01
0	 6.714309197725897e+00	 1.714304292230859e+00	 1.014574418540368e+01
0	 6.714309197725897e+00	 1.857155237808251e+00	 1.014688763159006e+01
0	 6.714309197725896e+00	 2.000006066726356e+00	 1.014669559679367e+01
0	 6.714309197725894e+00	 2.142856795650924e+00	 1.014548686640372e+01
0	 6.714309197725896e+00	 2.285707441247718e+00	 1.014358022651142e+01
0	 6.714309197725896e+00	 2.428558020182489e+00	 1.014129446390994e+01
0	 6.714309197725897e+00	 2.571408549120992e+00	 1.013894836609444e+01
0	 6.714309197725897e+00	 2.714259044728984e+00	 1.013686072126206e+01
0	 6.714309197725895e+00	 2.857109523672222e+00	 1.013535031831194e+01
0	 6.857169568371617e+00	 1.428601984435185e+00	 1.014688553861653e+01
0	 6.857169568371617e+00	 1.571453213328422e+00	 1.014203439210820e+01
0	 6.857169568371618e+00	 1.714304292230860e+00	 1.013688876834502e+01
0	 6.857169568371618e+00	 1.857155237808252e+00	 1.013172792764292e+01
0	 6.857169568371617e+00	 2.000006066726356e+00	 1.012683112993432e+01
0	 6.857169568371615e+00	 2.142856795650925e+00	 1.012247763476822e+01
0	 6.857169568371617e+00	 2.285707441247718e+00	 1.011894670131011e+01
0	 6.857169568371617e+00	 2.428558020182488e+00	 1.011651758834199e+01
0	 6.857169568371617e+00	 2.571408549120992e+00	 1.011546955426242e+01
0	 6.857169568371615e+00	 2.714259044728984e+00	 1.011608185708645e+01
0	 6.857169568371615e+00	 2.857109523672222e+00	 1.011863375444567e+01
0	 7.000030005683427e+00	 1.428601984435185e+00	 1.014975607503458e+01
0	 7.000030005683425e+00	 1.571453213328422e+00	 1.013710855911913e+01
0	 7.000030005683426e+00	 1.714304292230859e+00	 1.012567847467731e+01
0	 7.000030005683426e+00	 1.857155237808251e+00	 1.011568276387667e+01
0	 7.000030005683427e+00	 2.000006066726356e+00	 1.010733836758577e+01
0	 7.000030005683424e+00	 2.142856795650925e+00	 1.010086222537405e+01
0	 7.000030005683424e+00	 2.285707441247717e+00	 1.009647127551190e+01
0	 7.000030005683427e+00	 2.428558020182488e+00	 1.009438245497064e+01
0	 7.000030005683426e+00	 2.571408549120992e+00	 1.009481269942250e+01
0	 7.000030005683425e+00	 2.714259044728984e+00	 1.009797894324062e+01
0	 7.000030005683426e+00	 2.857109523672222e+00	 1.010409811949904e+01
0	 7.142890476327779e+00	 1.428601984435185e+00	 1.014450919351156e+01
0	 7.142890476327779e+00	 1.571453213328422e+00	 1.012684086139737e+01
0	 7.142890476327778e+00	 1.714304292230859e+00	 1.011158878883252e+01
0	 7.142890476327777e+00	 1.857155237808251e+00	 1.009888480462078e+01
0	 7.142890476327778e+00	 2.000006066726356e+00	 1.008886073562358e+01
0	 7.142890476327777e+00	 2.142856795650926e+00	 1.008164840676008e+01
0	 7.142890476327775e+00	 2.285707441247718e+00	 1.007737964100711e+01
0	 7.142890476327777e+00	 2.428558020182488e+00	 1.007618625939914e+01
0	 7.142890476327778e+00	 2.571408549120992e+00	 1.007820008102832e+01
0	 7.142890476327778e+00	 2.714259044728984e+00	 1.008355292304445e+01
0	 7.142890476327779e+00	 2.857109523672222e+00	 1.009237660065495e+01
0	 5.714291269874074e+00	 2.857109523672222e+00	 1.026024483586068e+01
0	 5.714291269874075e+00	 2.999969994316577e+00	 1.024465089458237e+01
0	 5.714291269874075e+00	 3.142830431628385e+00	 1.023025566062596e+01
0	 5.714291269874075e+00	 3.285690802274106e+00	 1.021719767624151e+01
0	 5.714291269874073e+00	 3.428551072920192e+00	 1.020561548533474e+01
0	 5.714291269874074e+00	 3.571411210233103e+00	 1.019564763346701e+01
0	 5.714291269874074e+00	 3.714271180879289e+00	 1.018743266785536e+01
0	 5.714291269874074e+00	 3.857130951525209e+00	 1.018110913737250e+01
0	 5.714291269874074e+00	 3.999990488837320e+00	 1.017681559254681e+01
0	 5.714291269874074e+00	 4.142849759482075e+00	 1.017469058556237e+01
0	 5.714291269874074e+00	 4.285708730125924e+00	 1.017487267025900e+01
0	 5.857150240517928e+00	 2.857109523672222e+00	 1.024599089703862e+01
0	 5.857150240517927e+00	 2.999969994316575e+00	 1.022807881043978e+01
0	 5.857150240517926e+00	 3.142830431628385e+00	 1.021239774658830e+01
0	 5.857150240517926e+00	 3.285690802274106e+00	 1.019895793247826e+01
0	 5.857150240517928e+00	 3.428551072920193e+00	 1.018776959743738e+01
0	 5.857150240517929e+00	 3.571411210233103e+00	 1.017884297312705e+01
0	 5.857150240517929e+00	 3.714271180879289e+00	 1.017218829354229e+01
0	 5.857150240517929e+00	 3.857130951525211e+00	 1.016781579501184e+01
0	 5.857150240517927e+00	 3.999990488837320e+00	 1.016573571619810e+01
0	 5.857150240517927e+00	 4.142849759482075e+00	 1.016595829809724e+01
0	 5.857150240517928e+00	 4.285708730125926e+00	 1.016849378403913e+01
0	 6.000009511162683e+00	 2.857109523672223e+00	 1.022948561473583e+01
0	 6.000009511162682e+00	 2.999969994316577e+00	 1.021142139819619e+01
0	 6.000009511162681e+00	 3.142830431628386e+00	 1.019614846683348e+01
0	 6.000009511162683e+00	 3.285690802274106e+00	 1.018357202844073e+01
0	 6.000009511162683e+00	 3.428551072920194e+00	 1.017359729330997e+01
0	 6.000009511162681e+00	 3.571411210233103e+00	 1.016612947423230e+01
0	 6.000009511162682e+00	 3.714271180879289e+00	 1.016107378649784e+01
0	 6.000009511162682e+00	 3.857130951525211e+00	 1.015833544789574e+01
0	 6.000009511162682e+00	 3.999990488837320e+00	 1.015781967871423e+01
0	 6.000009511162682e+00	 4.142849759482076e+00	 1.015943170174065e+01
0	 6.000009511162682e+00	 4.285708730125925e+00	 1.016307674226148e+01
0	 6.142869048474790e+00	 2.857109523672222e+00	 1.021136216666515e+01
0	 6.142869048474791e+00	 2.999969994316576e+00	 1.019490532106878e+01
0	 6.142869048474791e+00	 3.142830431628385e+00	 1.018139693594172e+01
0	 6.142869048474791e+00	 3.285690802274106e+00	 1.017066049555492e+01
0	 6.142869048474791e+00	 3.428551072920193e+00	 1.016251948642764e+01
0	 6.142869048474791e+00	 3.571411210233102e+00	 1.015679739732748e+01
0	 6.142869048474792e+00	 3.714271180879290e+00	 1.015331771927034e+01
0	 6.142869048474790e+00	 3.857130951525209e+00	 1.015190394552044e+01
0	 6.142869048474791e+00	 3.999990488837320e+00	 1.015237957159041e+01
0	 6.142869048474791e+00	 4.142849759482075e+00	 1.015456809524121e+01
0	 6.142869048474794e+00	 4.285708730125926e+00	 1.015829301648226e+01
0	 6.285728819120711e+00	 2.857109523672221e+00	 1.019225373189235e+01
0	 6.285728819120712e+00	 2.999969994316575e+00	 1.017875724362632e+01
0	 6.285728819120711e+00	 3.142830431628386e+00	 1.016803226969533e+01
0	 6.285728819120713e+00	 3.285690802274106e+00	 1.015984386618383e+01
0	 6.285728819120712e+00	 3.428551072920192e+00	 1.015395709085436e+01
0	 6.285728819120712e+00	 3.571411210233103e+00	 1.015013700314753e+01
0	 6.285728819120711e+00	 3.714271180879289e+00	 1.014814866418202e+01
0	 6.285728819120711e+00	 3.857130951525210e+00	 1.014775713675463e+01
0	 6.285728819120712e+00	 3.999990488837320e+00	 1.014872748534023e+01
0	 6.285728819120714e+00	 4.142849759482074e+00	 1.015082477609185e+01
0	 6.285728819120711e+00	 4.285708730125926e+00	 1.015381407684066e+01
0	 6.428588789766899e+00	 2.857109523672222e+00	 1.017279349083606e+01
0	 6.428588789766899e+00	 2.999969994316576e+00	 1.016320383178923e+01
0	 6.428588789766899e+00	 3.142830431628386e+00	 1.015594358507876e+01
0	 6.428588789766899e+00	 3.285690802274106e+00	 1.015074267362744e+01
0	 6.428588789766899e+00	 3.428551072920194e+00	 1.014733102124291e+01
0	 6.428588789766899e+00	 3.571411210233103e+00	 1.014543855261769e+01
0	 6.428588789766901e+00	 3.714271180879290e+00	 1.014479519332912e+01
0	 6.428588789766899e+00	 3.857130951525210e+00	 1.014513086983943e+01
0	 6.428588789766899e+00	 3.999990488837320e+00	 1.014617550949572e+01
0	 6.428588789766899e+00	 4.142849759482074e+00	 1.014765904052997e+01
0	 6.428588789766899e+00	 4.285708730125926e+00	 1.014931139205903e+01
0	 6.571448927079808e+00	 2.857109523672222e+00	 1.015361462526781e+01
0	 6.571448927079810e+00	 2.999969994316576e+00	 1.014847175282951e+01
0	 6.571448927079809e+00	 3.142830431628385e+00	 1.014502000027852e+01
0	 6.571448927079806e+00	 3.285690802274105e+00	 1.014297745212265e+01
0	 6.571448927079810e+00	 3.428551072920194e+00	 1.014206219283490e+01
0	 6.571448927079809e+00	 3.571411210233103e+00	 1.014199230685348e+01
0	 6.571448927079810e+00	 3.714271180879289e+00	 1.014248587858179e+01
0	 6.571448927079809e+00	 3.857130951525211e+00	 1.014326099238846e+01
0	 6.571448927079809e+00	 3.999990488837319e+00	 1.014403573260731e+01
0	 6.571448927079806e+00	 4.142849759482074e+00	 1.014452818353735e+01
0	 6.571448927079809e+00	 4.285708730125926e+00	 1.014445642944278e+01
0	 6.714309197725895e+00	 2.857109523672222e+00	 1.013535031831194e+01
0	 6.714309197725894e+00	 2.999969994316575e+00	 1.013478767537073e+01
0	 6.714309197725896e+00	 3.142830431628385e+00	 1.013515063468322e+01
0	 6.714309197725896e+00	 3.285690802274106e+00	 1.013616873684335e+01
0	 6.714309197725896e+00	 3.428551072920194e+00	 1.013757152146075e+01
0	 6.714309197725896e+00	 3.571411210233102e+00	 1.013908852716070e+01
0	 6.714309197725898e+00	 3.714271180879290e+00	 1.014044929158419e+01
0	 6.714309197725895e+00	 3.857130951525210e+00	 1.014138335138784e+01
0	 6.714309197725896e+00	 3.999990488837321e+00	 1.014162024224390e+01
0	 6.714309197725896e+00	 4.142849759482075e+00	 1.014088949884028e+01
0	 6.714309197725895e+00	 4.285708730125925e+00	 1.013892065488050e+01
0	 6.857169568371615e+00	 2.857109523672222e+00	 1.011863375444567e+01
0	 6.857169568371616e+00	 2.999969994316576e+00	 1.012237826938807e+01
0	 6.857169568371617e+00	 3.142830431628385e+00	 1.012622460888352e+01
0	 6.857169568371618e+00	 3.285690802274106e+00	 1.012993706390035e+01
0	 6.857169568371616e+00	 3.428551072920193e+00	 1.013327992353971e+01
0	 6.857169568371617e+00	 3.571411210233103e+00	 1.013601747503550e+01
0	 6.857169568371617e+00	 3.714271180879290e+00	 1.013791400375448e+01
0	 6.857169568371615e+00	 3.857130951525210e+00	 1.013873379319617e+01
0	 6.857169568371616e+00	 3.999990488837320e+00	 1.013824112499285e+01
0	 6.857169568371615e+00	 4.142849759482074e+00	 1.013620027890953e+01
0	 6.857169568371617e+00	 4.285708730125926e+00	 1.013237553284390e+01
0	 7.000030005683426e+00	 2.857109523672222e+00	 1.010409811949904e+01
0	 7.000030005683426e+00	 2.999969994316576e+00	 1.011147020620822e+01
0	 7.000030005683424e+00	 3.142830431628385e+00	 1.011813104467216e+01
0	 7.000030005683427e+00	 3.285690802274106e+00	 1.012390297034144e+01
0	 7.000030005683424e+00	 3.428551072920192e+00	 1.012860831607983e+01
0	 7.000030005683426e+00	 3.571411210233103e+00	 1.013206941216426e+01
0	 7.000030005683426e+00	 3.714271180879290e+00	 1.013410858628480e+01
0	 7.000030005683427e+00	 3.857130951525211e+00	 1.013454816354463e+01
0	 7.000030005683425e+00	 3.999990488837320e+00	 1.013321046646004e+01
0	 7.000030005683428e+00	 4.142849759482075e+00	 1.012991781496037e+01
0	 7.000030005683426e+00	 4.285708730125926e+00	 1.012449252638795e+01
0	 7.142890476327779e+00	 2.857109523672222e+00	 1.009237660065495e+01
0	 7.142890476327778e+00	 2.999969994316576e+00	 1.010229015850951e+01
0	 7.142890476327778e+00	 3.142830431628385e+00	 1.011075906504394e+01
0	 7.142890476327780e+00	 3.285690802274106e+00	 1.011768699415133e+01
0	 7.142890476327778e+00	 3.428551072920193e+00	 1.012297761667806e+01
0	 7.142890476327777e+00	 3.571411210233102e+00	 1.012653460042374e+01
0	 7.142890476327779e+00	 3.714271180879290e+00	 1.012826161014132e+01
0	 7.142890476327779e+00	 3.857130951525211e+00	 1.012806230753689e+01
0	 7.142890476327780e+00	 3.999990488837321e+00	 1.012584035126982e+01
0	 7.142890476327779e+00	 4.142849759482075e+00	 1.012149939695259e+01
0	 7.142890476327779e+00	 4.285708730125926e+00	 1.011494309715077e+01
0	 5.714291269874074e+00	 4.285708730125924e+00	 1.017487267025900e+01
0	 5.714291269874074e+00	 4.428567384102074e+00	 1.017595602789716e+01
0	 5.714291269874074e+00	 4.571425771410667e+00	 1.017632959682444e+01
0	 5.714291269874073e+00	 4.714283958718594e+00	 1.017582407154033e+01
0	 5.714291269874074e+00	 4.857142012692742e+00	 1.017427015159410e+01
0	 5.714291269874074e+00	 5.000000000000001e+00	 1.017149854158469e+01
0	 5.714291269874076e+00	 5.142857987307261e+00	 1.016733995116085e+01
0	 5.714291269874075e+00	 5.285716041281409e+00	 1.016162509502096e+01
0	 5.714291269874074e+00	 5.428574228589336e+00	 1.015418469291308e+01
0	 5.714291269874074e+00	 5.571432615897928e+00	 1.014484946963480e+01
0	 5.714291269874074e+00	 5.714291269874073e+00	 1.013345015503303e+01
0	 5.857150240517928e+00	 4.285708730125926e+00	 1.016849378403913e+01
0	 5.857150240517928e+00	 4.428567384102073e+00	 1.017151857461588e+01
0	 5.857150240517927e+00	 4.571425771410666e+00	 1.017315721291536e+01
0	 5.857150240517929e+00	 4.714283958718593e+00	 1.017334216190846e+01
0	 5.857150240517928e+00	 4.857142012692742e+00	 1.017200589009554e+01
0	 5.857150240517930e+00	 5.000000000000003e+00	 1.016908087150641e+01
0	 5.857150240517927e+00	 5.142857987307260e+00	 1.016449958570038e+01
0	 5.857150240517932e+00	 5.285716041281410e+00	 1.015819451776619e+01
0	 5.857150240517927e+00	 5.428574228589336e+00	 1.015009815832198e+01
0	 5.857150240517928e+00	 5.571432615897928e+00	 1.014014300351518e+01
0	 5.857150240517929e+00	 5.714291269874074e+00	 1.012826155502235e+01
0	 6.000009511162682e+00	 4.285708730125925e+00	 1.016307674226148e+01
0	 6.000009511162682e+00	 4.428567384102074e+00	 1.016681101985643e+01
0	 6.000009511162682e+00	 4.571425771410667e+00	 1.016876496466296e+01
0	 6.000009511162682e+00	 4.714283958718594e+00	 1.016895512377360e+01
0	 6.000009511162682e+00	 4.857142012692741e+00	 1.016739804974097e+01
0	 6.000009511162683e+00	 5.000000000000001e+00	 1.016411030057782e+01
0	 6.000009511162683e+00	 5.142857987307261e+00	 1.015910843975703e+01
0	 6.000009511162681e+00	 5.285716041281409e+00	 1.015240903621159e+01
0	 6.000009511162681e+00	 5.428574228589334e+00	 1.014402866433457e+01
0	 6.000009511162681e+00	 5.571432615897929e+00	 1.013398390397900e+01
0	 6.000009511162681e+00	 5.714291269874075e+00	 1.012229134045773e+01
0	 6.142869048474794e+00	 4.285708730125926e+00	 1.015829301648226e+01
0	 6.142869048474791e+00	 4.428567384102073e+00	 1.016173409792707e+01
0	 6.142869048474792e+00	 4.571425771410668e+00	 1.016324406296472e+01
0	 6.142869048474791e+00	 4.714283958718593e+00	 1.016290585816697e+01
0	 6.142869048474791e+00	 4.857142012692742e+00	 1.016080243505583e+01
0	 6.142869048474792e+00	 5.000000000000002e+00	 1.015701675010363e+01
0	 6.142869048474789e+00	 5.142857987307260e+00	 1.015163176473302e+01
0	 6.142869048474792e+00	 5.285716041281408e+00	 1.014473044531694e+01
0	 6.142869048474790e+00	 5.428574228589335e+00	 1.013639576317860e+01
0	 6.142869048474792e+00	 5.571432615897928e+00	 1.012671069459136e+01
0	 6.142869048474792e+00	 5.714291269874074e+00	 1.011575822077859e+01
0	 6.285728819120711e+00	 4.285708730125926e+00	 1.015381407684066e+01
0	 6.285728819120713e+00	 4.428567384102074e+00	 1.015618854169350e+01
0	 6.285728819120711e+00	 4.571425771410667e+00	 1.015668571737047e+01
0	 6.285728819120715e+00	 4.714283958718593e+00	 1.015543726496281e+01
0	 6.285728819120711e+00	 4.857142012692742e+00	 1.015257484967025e+01
0	 6.285728819120712e+00	 5.000000000000002e+00	 1.014823014080120e+01
0	 6.285728819120712e+00	 5.142857987307261e+00	 1.014253481177264e+01
0	 6.285728819120713e+00	 5.285716041281409e+00	 1.013562054011021e+01
0	 6.285728819120713e+00	 5.428574228589335e+00	 1.012761900744805e+01
0	 6.285728819120711e+00	 5.571432615897927e+00	 1.011866189952880e+01
0	 6.285728819120712e+00	 5.714291269874074e+00	 1.010888090620347e+01
0	 6.428588789766899e+00	 4.285708730125926e+00	 1.014931139205903e+01
0	 6.428588789766899e+00	 4.428567384102074e+00	 1.015007508257889e+01
0	 6.428588789766900e+00	 4.571425771410667e+00	 1.014918113608245e+01
0	 6.428588789766899e+00	 4.714283958718592e+00	 1.014679224287841e+01
0	 6.428588789766898e+00	 4.857142012692741e+00	 1.014307109631911e+01
0	 6.428588789766899e+00	 5.000000000000001e+00	 1.013818039280051e+01
0	 6.428588789766899e+00	 5.142857987307261e+00	 1.013228283176221e+01
0	 6.428588789766899e+00	 5.285716041281408e+00	 1.012554111568746e+01
0	 6.428588789766899e+00	 5.428574228589335e+00	 1.011811795010305e+01
0	 6.428588789766899e+00	 5.571432615897927e+00	 1.011017604357933e+01
0	 6.428588789766900e+00	 5.714291269874074e+00	 1.010187810773001e+01
0	 6.571448927079809e+00	 4.285708730125926e+00	 1.014445642944278e+01
0	 6.571448927079809e+00	 4.428567384102075e+00	 1.014329445056393e+01
0	 6.571448927079810e+00	 4.571425771410667e+00	 1.014082152595528e+01
0	 6.571448927079809e+00	 4.714283958718594e+00	 1.013721368947421e+01
0	 6.571448927079809e+00	 4.857142012692742e+00	 1.013264697684208e+01
0	 6.571448927079809e+00	 5.000000000000002e+00	 1.012729742564425e+01
0	 6.571448927079808e+00	 5.142857987307260e+00	 1.012134107533010e+01
0	 6.571448927079810e+00	 5.285716041281410e+00	 1.011495396721293e+01
0	 6.571448927079808e+00	 5.428574228589335e+00	 1.010831214446996e+01
0	 6.571448927079809e+00	 5.571432615897927e+00	 1.010159165214236e+01
0	 6.571448927079809e+00	 5.714291269874074e+00	 1.009496853713500e+01
0	 6.714309197725895e+00	 4.285708730125925e+00	 1.013892065488050e+01
0	 6.714309197725896e+00	 4.428567384102075e+00	 1.013574737418684e+01
0	 6.714309197725894e+00	 4.571425771410667e+00	 1.013169809249608e+01
0	 6.714309197725896e+00	 4.714283958718593e+00	 1.012694450115371e+01
0	 6.714309197725896e+00	 4.857142012692742e+00	 1.012165829218357e+01
0	 6.714309197725895e+00	 5.000000000000001e+00	 1.011601115828779e+01
0	 6.714309197725896e+00	 5.142857987307261e+00	 1.011017479284673e+01
0	 6.714309197725895e+00	 5.285716041281407e+00	 1.010432088991898e+01
0	 6.714309197725896e+00	 5.428574228589335e+00	 1.009862114424134e+01
0	 6.714309197725896e+00	 5.571432615897926e+00	 1.009324725122875e+01
0	 6.714309197725894e+00	 5.714291269874073e+00	 1.008837090697425e+01
0	 6.857169568371617e+00	 4.285708730125926e+00	 1.013237553284390e+01
0	 6.857169568371615e+00	 4.428567384102073e+00	 1.012733458054344e+01
0	 6.857169568371617e+00	 4.571425771410668e+00	 1.012190203986440e+01
0	 6.857169568371617e+00	 4.714283958718593e+00	 1.011622757316358e+01
0	 6.857169568371617e+00	 4.857142012692742e+00	 1.011046084239285e+01
0	 6.857169568371617e+00	 5.000000000000001e+00	 1.010475150909918e+01
0	 6.857169568371615e+00	 5.142857987307259e+00	 1.009924923442460e+01
0	 6.857169568371615e+00	 5.285716041281408e+00	 1.009410367910618e+01
0	 6.857169568371616e+00	 5.428574228589336e+00	 1.008946450347590e+01
0	 6.857169568371619e+00	 5.571432615897930e+00	 1.008548136746078e+01
0	 6.857169568371618e+00	 5.714291269874074e+00	 1.008230393058272e+01
0	 7.000030005683426e+00	 4.285708730125926e+00	 1.012449252638795e+01
0	 7.000030005683424e+00	 4.428567384102076e+00	 1.011795679528708e+01
0	 7.000030005683427e+00	 4.571425771410667e+00	 1.011152457087235e+01
0	 7.000030005683426e+00	 4.714283958718593e+00	 1.010530579959365e+01
0	 7.000030005683426e+00	 4.857142012692742e+00	 1.009941042662395e+01
0	 7.000030005683427e+00	 5.000000000000002e+00	 1.009394839585918e+01
0	 7.000030005683426e+00	 5.142857987307261e+00	 1.008902964991831e+01
0	 7.000030005683426e+00	 5.285716041281407e+00	 1.008476413014318e+01
0	 7.000030005683424e+00	 5.428574228589335e+00	 1.008126177659858e+01
0	 7.000030005683427e+00	 5.571432615897928e+00	 1.007863252807215e+01
0	 7.000030005683426e+00	 5.714291269874074e+00	 1.007698632207443e+01
0	 7.142890476327779e+00	 4.285708730125926e+00	 1.011494309715077e+01
0	 7.142890476327776e+00	 4.428567384102074e+00	 1.010751474262872e+01
0	 7.142890476327778e+00	 4.571425771410667e+00	 1.010065688698446e+01
0	 7.142890476327777e+00	 4.714283958718592e+00	 1.009442207337692e+01
0	 7.142890476327779e+00	 4.857142012692742e+00	 1.008886284313575e+01
0	 7.142890476327777e+00	 5.000000000000001e+00	 1.008403173576131e+01
0	 7.142890476327778e+00	 5.142857987307261e+00	 1.007998128892451e+01
0	 7.142890476327778e+00	 5.285716041281409e+00	 1.007676403846688e+01
0	 7.142890476327777e+00	 5.428574228589334e+00	 1.007443251840051e+01
0	 7.142890476327777e+00	 5.571432615897927e+00	 1.007303926090800e+01
0	 7.142890476327778e+00	 5.714291269874073e+00	 1.007263679634250e+01
0	 5.714291269874074e+00	 5.714291269874073e+00	 1.013345015503303e+01
0	 5.714291269874074e+00	 5.857150240517930e+00	 1.012133863480549e+01
0	 5.714291269874075e+00	 6.000009511162681e+00	 1.011002273564823e+01
0	 5.714291269874075e+00	 6.142869048474792e+00	 1.009956710391177e+01
0	 5.714291269874074e+00	 6.285728819120712e+00	 1.009003638757206e+01
0	 5.714291269874074e+00	 6.428588789766899e+00	 1.008149523623043e+01
0	 5.714291269874074e+00	 6.571448927079808e+00	 1.007400830111355e+01
0	 5.714291269874073e+00	 6.714309197725894e+00	 1.006764023507343e+01
0	 5.714291269874074e+00	 6.857169568371616e+00	 1.006245569258727e+01
0	 5.714291269874074e+00	 7.000030005683425e+00	 1.005851932975757e+01
0	 5.714291269874075e+00	 7.142890476327779e+00	 1.005589580431198e+01
0	 5.857150240517929e+00	 5.714291269874074e+00	 1.012826155502235e+01
0	 5.857150240517927e+00	 5.857150240517928e+00	 1.011596579064952e+01
0	 5.857150240517927e+00	 6.000009511162682e+00	 1.010481144363911e+01
0	 5.857150240517927e+00	 6.142869048474792e+00	 1.009479665418960e+01
0	 5.857150240517929e+00	 6.285728819120712e+00	 1.008591956412683e+01
0	 5.857150240517929e+00	 6.428588789766900e+00	 1.007817831690397e+01
0	 5.857150240517926e+00	 6.571448927079809e+00	 1.007157105760151e+01
0	 5.857150240517927e+00	 6.714309197725898e+00	 1.006609593292713e+01
0	 5.857150240517929e+00	 6.857169568371616e+00	 1.006175109121578e+01
0	 5.857150240517928e+00	 7.000030005683427e+00	 1.005853468242952e+01
0	 5.857150240517928e+00	 7.142890476327779e+00	 1.005644485815763e+01
0	 6.000009511162681e+00	 5.714291269874075e+00	 1.012229134045773e+01
0	 6.000009511162682e+00	 5.857150240517926e+00	 1.011046137818741e+01
0	 6.000009511162683e+00	 6.000009511162682e+00	 1.009995580904564e+01
0	 6.000009511162680e+00	 6.142869048474790e+00	 1.009071830474665e+01
0	 6.000009511162682e+00	 6.285728819120712e+00	 1.008269253849152e+01
0	 6.000009511162681e+00	 6.428588789766899e+00	 1.007582218496814e+01
0	 6.000009511162682e+00	 6.571448927079808e+00	 1.007005092035115e+01
0	 6.000009511162682e+00	 6.714309197725895e+00	 1.006532242230195e+01
0	 6.000009511162681e+00	 6.857169568371617e+00	 1.006158036996858e+01
0	 6.000009511162682e+00	 7.000030005683427e+00	 1.005876844398577e+01
0	 6.000009511162683e+00	 7.142890476327777e+00	 1.005683032647491e+01
0	 6.142869048474792e+00	 5.714291269874074e+00	 1.011575822077859e+01
0	 6.142869048474791e+00	 5.857150240517928e+00	 1.010491605393812e+01
0	 6.142869048474792e+00	 6.000009511162682e+00	 1.009544074274719e+01
0	 6.142869048474790e+00	 6.142869048474791e+00	 1.008723352778710e+01
0	 6.142869048474792e+00	 6.285728819120711e+00	 1.008019565087425e+01
0	 6.142869048474791e+00	 6.428588789766899e+00	 1.007422835506004e+01
0	 6.142869048474790e+00	 6.571448927079809e+00	 1.006923288463092e+01
0	 6.142869048474791e+00	 6.714309197725896e+00	 1.006511048510830e+01
0	 6.142869048474791e+00	 6.857169568371615e+00	 1.006176240324852e+01
0	 6.142869048474793e+00	 7.000030005683427e+00	 1.005908988704283e+01
0	 6.142869048474791e+00	 7.142890476327777e+00	 1.005699418571740e+01
0	 6.285728819120712e+00	 5.714291269874074e+00	 1.010888090620347e+01
0	 6.285728819120714e+00	 5.857150240517929e+00	 1.009942047527203e+01
0	 6.285728819120712e+00	 6.000009511162681e+00	 1.009125115646135e+01
0	 6.285728819120713e+00	 6.142869048474793e+00	 1.008424379627150e+01
0	 6.285728819120712e+00	 6.285728819120711e+00	 1.007826924210584e+01
0	 6.285728819120711e+00	 6.428588789766899e+00	 1.007319834227100e+01
0	 6.285728819120712e+00	 6.571448927079810e+00	 1.006890194597684e+01
0	 6.285728819120712e+00	 6.714309197725895e+00	 1.006525090333641e+01
0	 6.285728819120713e+00	 6.857169568371617e+00	 1.006211606536601e+01
0	 6.285728819120711e+00	 7.000030005683425e+00	 1.005936828398504e+01
0	 6.285728819120710e+00	 7.142890476327774e+00	 1.005687841201605e+01
0	 6.428588789766900e+00	 5.714291269874074e+00	 1.010187810773001e+01
0	 6.428588789766901e+00	 5.857150240517928e+00	 1.009406530041087e+01
0	 6.428588789766900e+00	 6.000009511162681e+00	 1.008737196274388e+01
0	 6.428588789766900e+00	 6.142869048474791e+00	 1.008165058391674e+01
0	 6.428588789766899e+00	 6.285728819120711e+00	 1.007675365363992e+01
0	 6.428588789766897e+00	 6.428588789766898e+00	 1.007253366214655e+01
0	 6.428588789766899e+00	 6.571448927079810e+00	 1.006884310019249e+01
0	 6.428588789766899e+00	 6.714309197725896e+00	 1.006553445905625e+01
0	 6.428588789766899e+00	 6.857169568371616e+00	 1.006246023053899e+01
0	 6.428588789766900e+00	 7.000030005683428e+00	 1.005947290696451e+01
0	 6.428588789766899e+00	 7.142890476327778e+00	 1.005642498117922e+01
0	 6.571448927079809e+00	 5.714291269874074e+00	 1.009496853713500e+01
0	 6.571448927079807e+00	 5.857150240517928e+00	 1.008894118842778e+01
0	 6.571448927079808e+00	 6.000009511162682e+00	 1.008378807498870e+01
0	 6.571448927079809e+00	 6.142869048474791e+00	 1.007935536519605e+01
0	 6.571448927079809e+00	 6.285728819120713e+00	 1.007548922755276e+01
0	 6.571448927079809e+00	 6.428588789766900e+00	 1.007203583068638e+01
0	 6.571448927079807e+00	 6.571448927079806e+00	 1.006884134334904e+01
0	 6.571448927079808e+00	 6.714309197725895e+00	 1.006575193441746e+01
0	 6.571448927079810e+00	 6.857169568371617e+00	 1.006261377289290e+01
0	 6.571448927079808e+00	 7.000030005683424e+00	 1.005927302790119e+01
0	 6.571448927079808e+00	 7.142890476327775e+00	 1.005557586869270e+01
0	 6.714309197725894e+00	 5.714291269874073e+00	 1.008837090697425e+01
0	 6.714309197725897e+00	 5.857150240517926e+00	 1.008413879924727e+01
0	 6.714309197725895e+00	 6.000009511162681e+00	 1.008048440742791e+01
0	 6.714309197725896e+00	 6.142869048474791e+00	 1.007725961533897e+01
0	 6.714309197725894e+00	 6.285728819120709e+00	 1.007431630654342e+01
0	 6.714309197725894e+00	 6.428588789766899e+00	 1.007150636434441e+01
0	 6.714309197725897e+00	 6.571448927079810e+00	 1.006868167178528e+01
0	 6.714309197725897e+00	 6.714309197725897e+00	 1.006569411164951e+01
0	 6.714309197725896e+00	 6.857169568371615e+00	 1.006239556646077e+01
0	 6.714309197725895e+00	 7.000030005683426e+00	 1.005863791848284e+01
0	 6.714309197725897e+00	 7.142890476327777e+00	 1.005427304971966e+01
0	 6.857169568371618e+00	 5.714291269874074e+00	 1.008230393058272e+01
0	 6.857169568371616e+00	 5.857150240517928e+00	 1.007974879364516e+01
0	 6.857169568371616e+00	 6.000009511162682e+00	 1.007744587513175e+01
0	 6.857169568371615e+00	 6.142869048474790e+00	 1.007526481033138e+01
0	 6.857169568371615e+00	 6.285728819120711e+00	 1.007307523393363e+01
0	 6.857169568371617e+00	 6.428588789766900e+00	 1.007074678002870e+01
0	 6.857169568371616e+00	 6.571448927079810e+00	 1.006814908210751e+01
0	 6.857169568371616e+00	 6.714309197725895e+00	 1.006515177306158e+01
0	 6.857169568371616e+00	 6.857169568371615e+00	 1.006162448518313e+01
0	 6.857169568371615e+00	 7.000030005683424e+00	 1.005743685016502e+01
0	 6.857169568371616e+00	 7.142890476327776e+00	 1.005245849910073e+01
0	 7.000030005683426e+00	 5.714291269874074e+00	 1.007698632207443e+01
0	 7.000030005683425e+00	 5.857150240517927e+00	 1.007586183324870e+01
0	 7.000030005683426e+00	 6.000009511162682e+00	 1.007465739400862e+01
0	 7.000030005683427e+00	 6.142869048474792e+00	 1.007327242691550e+01
0	 7.000030005683427e+00	 6.285728819120712e+00	 1.007160635366785e+01
0	 7.000030005683427e+00	 6.428588789766899e+00	 1.006955859510153e+01
0	 7.000030005683426e+00	 6.571448927079808e+00	 1.006702857118964e+01
0	 7.000030005683427e+00	 6.714309197725897e+00	 1.006391570104259e+01
0	 7.000030005683426e+00	 6.857169568371618e+00	 1.006011940290809e+01
0	 7.000030005683425e+00	 7.000030005683425e+00	 1.005553909417112e+01
0	 7.000030005683425e+00	 7.142890476327776e+00	 1.005007419135395e+01
0	 7.142890476327778e+00	 5.714291269874073e+00	 1.007263679634250e+01
0	 7.142890476327777e+00	 5.857150240517927e+00	 1.007256858053643e+01
0	 7.142890476327778e+00	 6.000009511162682e+00	 1.007210388080509e+01
0	 7.142890476327779e+00	 6.142869048474793e+00	 1.007118394258982e+01
0	 7.142890476327777e+00	 6.285728819120713e+00	 1.006975001031328e+01
0	 7.142890476327779e+00	 6.428588789766899e+00	 1.006774332737933e+01
0	 7.142890476327777e+00	 6.571448927079808e+00	 1.006510513617316e+01
0	 7.142890476327779e+00	 6.714309197725897e+00	 1.006177667806123e+01
0	 7.142890476327776e+00	 6.857169568371617e+00	 1.005769919339129e+01
0	 7.142890476327777e+00	 7.000030005683425e+00	 1.005281392149237e+01
0	 7.142890476327779e+00	 7.142890476327780e+00	 1.004706210067478e+01
0	 5.714291269874075e+00	 7.142890476327779e+00	 1.005589580431198e+01
0	 5.714291269874074e+00	 7.285740955271013e+00	 1.005388345741178e+01
0	 5.714291269874074e+00	 7.428591450879007e+00	 1.005169445843001e+01
0	 5.714291269874074e+00	 7.571441979817511e+00	 1.004926461736183e+01
0	 5.714291269874074e+00	 7.714292558752280e+00	 1.004652974443276e+01
0	 5.714291269874073e+00	 7.857143204349073e+00	 1.004342565009861e+01
0	 5.714291269874073e+00	 7.999993933273643e+00	 1.003988814504558e+01
0	 5.714291269874075e+00	 8.142844762191750e+00	 1.003585304019014e+01
0	 5.714291269874074e+00	 8.285695707769142e+00	 1.003125614667913e+01
0	 5.714291269874074e+00	 8.428546786671575e+00	 1.002603327588971e+01
0	 5.714291269874074e+00	 8.571398015564814e+00	 1.002012023942928e+01
0	 5.857150240517928e+00	 7.142890476327779e+00	 1.005644485815763e+01
0	 5.857150240517927e+00	 7.285740955271013e+00	 1.005472566592851e+01
0	 5.857150240517927e+00	 7.428591450879007e+00	 1.005260944368470e+01
0	 5.857150240517927e+00	 7.571441979817510e+00	 1.005007710073038e+01
0	 5.857150240517927e+00	 7.714292558752280e+00	 1.004710954660797e+01
0	 5.857150240517927e+00	 7.857143204349071e+00	 1.004368769109821e+01
0	 5.857150240517928e+00	 7.999993933273643e+00	 1.003979244422011e+01
0	 5.857150240517928e+00	 8.142844762191750e+00	 1.003540471623098e+01
0	 5.857150240517929e+00	 8.285695707769140e+00	 1.003050541762641e+01
0	 5.857150240517927e+00	 8.428546786671578e+00	 1.002507545914022e+01
0	 5.857150240517928e+00	 8.571398015564812e+00	 1.001909575174454e+01
0	 6.000009511162683e+00	 7.142890476327777e+00	 1.005683032647491e+01
0	 6.000009511162683e+00	 7.285740955271015e+00	 1.005504792503680e+01
0	 6.000009511162681e+00	 7.428591450879008e+00	 1.005275226606998e+01
0	 6.000009511162683e+00	 7.571441979817513e+00	 1.004996103034850e+01
0	 6.000009511162682e+00	 7.714292558752280e+00	 1.004669189884694e+01
0	 6.000009511162681e+00	 7.857143204349073e+00	 1.004296255274054e+01
0	 6.000009511162682e+00	 7.999993933273643e+00	 1.003879067340510e+01
0	 6.000009511162683e+00	 8.142844762191746e+00	 1.003419394241700e+01
0	 6.000009511162682e+00	 8.285695707769142e+00	 1.002919004155325e+01
0	 6.000009511162681e+00	 8.428546786671577e+00	 1.002379665279137e+01
0	 6.000009511162682e+00	 8.571398015564814e+00	 1.001803145830950e+01
0	 6.142869048474791e+00	 7.142890476327777e+00	 1.005699418571740e+01
0	 6.142869048474791e+00	 7.285740955271013e+00	 1.005486862201549e+01
0	 6.142869048474792e+00	 7.428591450879010e+00	 1.005220284386818e+01
0	 6.142869048474790e+00	 7.571441979817510e+00	 1.004904297574185e+01
0	 6.142869048474791e+00	 7.714292558752281e+00	 1.004543514223048e+01
0	 6.142869048474791e+00	 7.857143204349073e+00	 1.004142546805576e+01
0	 6.142869048474791e+00	 7.999993933273646e+00	 1.003706007806703e+01
0	 6.142869048474790e+00	 8.142844762191746e+00	 1.003238509724131e+01
0	 6.142869048474793e+00	 8.285695707769142e+00	 1.002744665068324e+01
0	 6.142869048474791e+00	 8.428546786671577e+00	 1.002229086362516e+01
0	 6.142869048474791e+00	 8.571398015564814e+00	 1.001696386142701e+01
0	 6.285728819120710e+00	 7.142890476327774e+00	 1.005687841201605e+01
0	 6.285728819120712e+00	 7.285740955271016e+00	 1.005420614379180e+01
0	 6.285728819120713e+00	 7.428591450879009e+00	 1.005104109503561e+01
0	 6.285728819120714e+00	 7.571441979817512e+00	 1.004744950617849e+01
0	 6.285728819120712e+00	 7.714292558752282e+00	 1.004349761768137e+01
0	 6.285728819120714e+00	 7.857143204349075e+00	 1.003925167003514e+01
0	 6.285728819120711e+00	 7.999993933273643e+00	 1.003477790376054e+01
0	 6.285728819120710e+00	 8.142844762191748e+00	 1.003014255940833e+01
0	 6.285728819120710e+00	 8.285695707769138e+00	 1.002541187755910e+01
0	 6.285728819120711e+00	 8.428546786671575e+00	 1.002065209882338e+01
0	 6.285728819120711e+00	 8.571398015564814e+00	 1.001592946384165e+01
0	 6.428588789766899e+00	 7.142890476327778e+00	 1.005642498117922e+01
0	 6.428588789766900e+00	 7.285740955271014e+00	 1.005307887694145e+01
0	 6.428588789766899e+00	 7.428591450879006e+00	 1.004934693720256e+01
0	 6.428588789766897e+00	 7.571441979817508e+00	 1.004530719066886e+01
0	 6.428588789766900e+00	 7.714292558752283e+00	 1.004103766596439e+01
0	 6.428588789766901e+00	 7.857143204349075e+00	 1.003661639163104e+01
0	 6.428588789766899e+00	 7.999993933273642e+00	 1.003212139612840e+01
0	 6.428588789766899e+00	 8.142844762191746e+00	 1.002763070783390e+01
0	 6.428588789766900e+00	 8.285695707769140e+00	 1.002322235504269e+01
0	 6.428588789766900e+00	 8.428546786671575e+00	 1.001897436596773e+01
0	 6.428588789766899e+00	 8.571398015564816e+00	 1.001496476873973e+01
0	 6.571448927079808e+00	 7.142890476327775e+00	 1.005557586869270e+01
0	 6.571448927079807e+00	 7.285740955271014e+00	 1.005150520768855e+01
0	 6.571448927079810e+00	 7.428591450879008e+00	 1.004720028767331e+01
0	 6.571448927079808e+00	 7.571441979817510e+00	 1.004274259796576e+01
0	 6.571448927079808e+00	 7.714292558752280e+00	 1.003821362768629e+01
0	 6.571448927079809e+00	 7.857143204349073e+00	 1.003369486575696e+01
0	 6.571448927079809e+00	 7.999993933273644e+00	 1.002926780090147e+01
0	 6.571448927079810e+00	 8.142844762191746e+00	 1.002501392164514e+01
0	 6.571448927079807e+00	 8.285695707769142e+00	 1.002101471631500e+01
0	 6.571448927079809e+00	 8.428546786671577e+00	 1.001735167303965e+01
0	 6.571448927079809e+00	 8.571398015564816e+00	 1.001410627974937e+01
0	 6.714309197725897e+00	 7.142890476327777e+00	 1.005427304971966e+01
0	 6.714309197725897e+00	 7.285740955271015e+00	 1.004950352190566e+01
0	 6.714309197725897e+00	 7.428591450879009e+00	 1.004468106342614e+01
0	 6.714309197725894e+00	 7.571441979817509e+00	 1.003988229656443e+01
0	 6.714309197725894e+00	 7.714292558752279e+00	 1.003518384329581e+01
0	 6.714309197725896e+00	 7.857143204349073e+00	 1.003066232528751e+01
0	 6.714309197725898e+00	 7.999993933273644e+00	 1.002639436389873e+01
0	 6.714309197725897e+00	 8.142844762191748e+00	 1.002245658018057e+01
0	 6.714309197725896e+00	 8.285695707769140e+00	 1.001892559487613e+01
0	 6.714309197725896e+00	 8.428546786671577e+00	 1.001587802842042e+01
0	 6.714309197725896e+00	 8.571398015564816e+00	 1.001339050094040e+01
0	 6.857169568371616e+00	 7.142890476327776e+00	 1.005245849910073e+01
0	 6.857169568371615e+00	 7.285740955271014e+00	 1.004709220511386e+01
0	 6.857169568371617e+00	 7.428591450879008e+00	 1.004186918111333e+01
0	 6.857169568371615e+00	 7.571441979817509e+00	 1.003685285470245e+01
0	 6.857169568371615e+00	 7.714292558752279e+00	 1.003210665308363e+01
0	 6.857169568371615e+00	 7.857143204349074e+00	 1.002769400305838e+01
0	 6.857169568371616e+00	 7.999993933273645e+00	 1.002367833102728e+01
0	 6.857169568371616e+00	 8.142844762191746e+00	 1.002012306299000e+01
0	 6.857169568371616e+00	 8.285695707769140e+00	 1.001709162454534e+01
0	 6.857169568371615e+00	 8.428546786671577e+00	 1.001464744089114e+01
0	 6.857169568371619e+00	 8.571398015564817e+00	 1.001285393682434e+01
0	 7.000030005683425e+00	 7.142890476327776e+00	 1.005007419135395e+01
0	 7.000030005683427e+00	 7.285740955271014e+00	 1.004428964248259e+01
0	 7.000030005683425e+00	 7.428591450879006e+00	 1.003884455706112e+01
0	 7.000030005683423e+00	 7.571441979817509e+00	 1.003378084035982e+01
0	 7.000030005683427e+00	 7.714292558752282e+00	 1.002914039718248e+01
0	 7.000030005683427e+00	 7.857143204349073e+00	 1.002496513186639e+01
0	 7.000030005683426e+00	 7.999993933273643e+00	 1.002129694828234e+01
0	 7.000030005683425e+00	 8.142844762191746e+00	 1.001817774983460e+01
0	 7.000030005683426e+00	 8.285695707769142e+00	 1.001564943946094e+01
0	 7.000030005683426e+00	 8.428546786671577e+00	 1.001375391963267e+01
0	 7.000030005683427e+00	 8.571398015564817e+00	 1.001253309235451e+01
0	 7.142890476327779e+00	 7.142890476327780e+00	 1.004706210067478e+01
0	 7.142890476327778e+00	 7.285740955271013e+00	 1.004111421882982e+01
0	 7.142890476327779e+00	 7.428591450879007e+00	 1.003568710726981e+01
0	 7.142890476327778e+00	 7.571441979817512e+00	 1.003079282125894e+01
0	 7.142890476327777e+00	 7.714292558752281e+00	 1.002644341556705e+01
0	 7.142890476327778e+00	 7.857143204349074e+00	 1.002265094446949e+01
0	 7.142890476327777e+00	 7.999993933273643e+00	 1.001942746174725e+01
0	 7.142890476327778e+00	 8.142844762191746e+00	 1.001678502068686e+01
0	 7.142890476327778e+00	 8.285695707769140e+00	 1.001473567408044e+01
0	 7.142890476327778e+00	 8.428546786671575e+00	 1.001329147422569e+01
0	 7.142890476327779e+00	 8.571398015564816e+00	 1.001246447292591e+01
0	 5.714291269874074e+00	 8.571398015564814e+00	 1.002012023942928e+01
0	 5.714291269874074e+00	 8.714259388995403e+00	 1.001431366827505e+01
0	 5.714291269874074e+00	 8.857120812436385e+00	 1.000945677222293e+01
0	 5.714291269874075e+00	 8.999982169218283e+00	 1.000555391755430e+01
0	 5.714291269874074e+00	 9.142843342671599e+00	 1.000260947726667e+01
0	 5.714291269874074e+00	 9.285704216126854e+00	 1.000062783107363e+01
0	 5.714291269874074e+00	 9.428564672914547e+00	 9.999613365404935e+00
0	 5.714291269874074e+00	 9.571424596365199e+00	 9.999570473406528e+00
0	 5.714291269874074e+00	 9.714283869809320e+00	 1.000050355494073e+01
0	 5.714291269874074e+00	 9.857142376577416e+00	 1.000241701658663e+01
0	 5.714291269874075e+00	 1.000000000000000e+01	 1.000531527164031e+01
0	 5.857150240517928e+00	 8.571398015564812e+00	 1.001909575174454e+01
0	 5.857150240517928e+00	 8.714259388995403e+00	 1.001338144897901e+01
0	 5.857150240517929e+00	 8.857120812436387e+00	 1.000873196108260e+01
0	 5.857150240517928e+00	 8.999982169218283e+00	 1.000510327430537e+01
0	 5.857150240517929e+00	 9.142843342671602e+00	 1.000245138145000e+01
0	 5.857150240517929e+00	 9.285704216126856e+00	 1.000073228187160e+01
0	 5.857150240517928e+00	 9.428564672914547e+00	 9.999901981477898e+00
0	 5.857150240517930e+00	 9.571424596365201e+00	 9.999916492729229e+00
0	 5.857150240517927e+00	 9.714283869809320e+00	 1.000073183463867e+01
0	 5.857150240517928e+00	 9.857142376577416e+00	 1.000230403277252e+01
0	 5.857150240517928e+00	 1.000000000000000e+01	 1.000458911925043e+01
0	 6.000009511162682e+00	 8.571398015564814e+00	 1.001803145830950e+01
0	 6.000009511162683e+00	 8.714259388995401e+00	 1.001265809462728e+01
0	 6.000009511162681e+00	 8.857120812436385e+00	 1.000837406756224e+01
0	 6.000009511162683e+00	 8.999982169218280e+00	 1.000509661939042e+01
0	 6.000009511162683e+00	 9.142843342671600e+00	 1.000274299846208e+01
0	 6.000009511162682e+00	 9.285704216126851e+00	 1.000123045920163e+01
0	 6.000009511162681e+00	 9.428564672914550e+00	 1.000047626210772e+01
0	 6.000009511162681e+00	 9.571424596365203e+00	 1.000039767375322e+01
0	 6.000009511162682e+00	 9.714283869809318e+00	 1.000091196678549e+01
0	 6.000009511162681e+00	 9.857142376577416e+00	 1.000193641992657e+01
0	 6.000009511162681e+00	 1.000000000000000e+01	 1.000338831797355e+01
0	 6.142869048474791e+00	 8.571398015564814e+00	 1.001696386142701e+01
0	 6.142869048474791e+00	 8.714259388995400e+00	 1.001212272412448e+01
0	 6.142869048474791e+00	 8.857120812436383e+00	 1.000831995720493e+01
0	 6.142869048474793e+00	 8.999982169218281e+00	 1.000544369484227e+01
0	 6.142869048474792e+00	 9.142843342671599e+00	 1.000338207656563e+01
0	 6.142869048474791e+00	 9.285704216126852e+00	 1.000202324725942e+01
0	 6.142869048474791e+00	 9.428564672914549e+00	 1.000125535716316e+01
0	 6.142869048474792e+00	 9.571424596365205e+00	 1.000096656187181e+01
0	 6.142869048474791e+00	 9.714283869809323e+00	 1.000104502233559e+01
0	 6.142869048474791e+00	 9.857142376577418e+00	 1.000137890486063e+01
0	 6.142869048474791e+00	 1.000000000000000e+01	 1.000185638110876e+01
0	 6.285728819120711e+00	 8.571398015564814e+00	 1.001592946384165e+01
0	 6.285728819120712e+00	 8.714259388995400e+00	 1.001175445681264e+01
0	 6.285728819120714e+00	 8.857120812436387e+00	 1.000850649594993e+01
0	 6.285728819120711e+00	 8.999982169218280e+00	 1.000605424302526e+01
0	 6.285728819120712e+00	 9.142843342671600e+00	 1.000426636428031e+01
0	 6.285728819120711e+00	 9.285704216126851e+00	 1.000301153042640e+01
0	 6.285728819120713e+00	 9.428564672914550e+00	 1.000215841664474e+01
0	 6.285728819120710e+00	 9.571424596365199e+00	 1.000157570258632e+01
0	 6.285728819120711e+00	 9.714283869809320e+00	 1.000113207237209e+01
0	 6.285728819120711e+00	 9.857142376577420e+00	 1.000069621459308e+01
0	 6.285728819120711e+00	 9.999999999999998e+00	 1.000013682231077e+01
0	 6.428588789766899e+00	 8.571398015564816e+00	 1.001496476873974e+01
0	 6.428588789766899e+00	 8.714259388995398e+00	 1.001153241247138e+01
0	 6.428588789766899e+00	 8.857120812436383e+00	 1.000887055013278e+01
0	 6.428588789766901e+00	 8.999982169218281e+00	 1.000683800663536e+01
0	 6.428588789766901e+00	 9.142843342671599e+00	 1.000529361038260e+01
0	 6.428588789766898e+00	 9.285704216126852e+00	 1.000409619326991e+01
0	 6.428588789766899e+00	 9.428564672914549e+00	 1.000310459068471e+01
0	 6.428588789766899e+00	 9.571424596365201e+00	 1.000217764150641e+01
0	 6.428588789766899e+00	 9.714283869809321e+00	 1.000117418810658e+01
0	 6.428588789766900e+00	 9.857142376577418e+00	 9.999953076348955e+00
0	 6.428588789766900e+00	 1.000000000000000e+01	 9.998373155589627e+00
0	 6.571448927079809e+00	 8.571398015564816e+00	 1.001410627974937e+01
0	 6.571448927079810e+00	 8.714259388995401e+00	 1.001143571131760e+01
0	 6.571448927079808e+00	 8.857120812436381e+00	 1.000934898648518e+01
0	 6.571448927079810e+00	 8.999982169218281e+00	 1.000770472870000e+01
0	 6.571448927079810e+00	 9.142843342671602e+00	 1.000636156390598e+01
0	 6.571448927079809e+00	 9.285704216126852e+00	 1.000517812054303e+01
0	 6.571448927079809e+00	 9.428564672914550e+00	 1.000401302954702e+01
0	 6.571448927079808e+00	 9.571424596365199e+00	 1.000272492434985e+01
0	 6.571448927079809e+00	 9.714283869809318e+00	 1.000117244087942e+01
0	 6.571448927079808e+00	 9.857142376577416e+00	 9.999214217559686e+00
0	 6.571448927079809e+00	 1.000000000000000e+01	 9.996708895310928e+00
0	 6.714309197725896e+00	 8.571398015564816e+00	 1.001339050094040e+01
0	 6.714309197725896e+00	 8.714259388995401e+00	 1.001144347400579e+01
0	 6.714309197725893e+00	 8.857120812436381e+00	 1.000987867213509e+01
0	 6.714309197725895e+00	 8.999982169218281e+00	 1.000856415257813e+01
0	 6.714309197725896e+00	 9.142843342671600e+00	 1.000736797414074e+01
0	 6.714309197725896e+00	 9.285704216126849e+00	 1.000615819718463e+01
0	 6.714309197725896e+00	 9.428564672914550e+00	 1.000480288362740e+01
0	 6.714309197725893e+00	 9.571424596365198e+00	 1.000317009694256e+01
0	 6.714309197725895e+00	 9.714283869809320e+00	 1.000112790215945e+01
0	 6.714309197725897e+00	 9.857142376577420e+00	 9.998544365863413e+00
0	 6.714309197725897e+00	 1.000000000000000e+01	 9.995287556195755e+00
0	 6.857169568371619e+00	 8.571398015564817e+00	 1.001285393682434e+01
0	 6.857169568371617e+00	 8.714259388995400e+00	 1.001153482162777e+01
0	 6.857169568371615e+00	 8.857120812436383e+00	 1.001039647460663e+01
0	 6.857169568371615e+00	 8.999982169218280e+00	 1.000932602196028e+01
0	 6.857169568371617e+00	 9.142843342671600e+00	 1.000821059063415e+01
0	 6.857169568371616e+00	 9.285704216126852e+00	 1.000693730831942e+01
0	 6.857169568371616e+00	 9.428564672914549e+00	 1.000539330345324e+01
0	 6.857169568371618e+00	 9.571424596365203e+00	 1.000346570521856e+01
0	 6.857169568371615e+00	 9.714283869809321e+00	 1.000104164354415e+01
0	 6.857169568371617e+00	 9.857142376577418e+00	 9.998008249104695e+00
0	 6.857169568371615e+00	 1.000000000000000e+01	 9.994252653320462e+00
0	 7.000030005683427e+00	 8.571398015564817e+00	 1.001253309235451e+01
0	 7.000030005683428e+00	 8.714259388995401e+00	 1.001168887571285e+01
0	 7.000030005683427e+00	 8.857120812436387e+00	 1.001083926182010e+01
0	 7.000030005683427e+00	 8.999982169218281e+00	 1.000990008086847e+01
0	 7.000030005683426e+00	 9.142843342671602e+00	 1.000878716319026e+01
0	 7.000030005683424e+00	 9.285704216126851e+00	 1.000741633925787e+01
0	 7.000030005683428e+00	 9.428564672914547e+00	 1.000570343968368e+01
0	 7.000030005683428e+00	 9.571424596365205e+00	 1.000356429522015e+01
0	 7.000030005683426e+00	 9.714283869809320e+00	 1.000091473675965e+01
0	 7.000030005683425e+00	 9.857142376577418e+00	 9.997670595334547e+00
0	 7.000030005683427e+00	 1.000000000000000e+01	 9.993747702117023e+00
0	 7.142890476327779e+00	 8.571398015564816e+00	 1.001246447292591e+01
0	 7.142890476327777e+00	 8.714259388995400e+00	 1.001188475822768e+01
0	 7.142890476327779e+00	 8.857120812436387e+00	 1.001114390209203e+01
0	 7.142890476327777e+00	 8.999982169218281e+00	 1.001019607365619e+01
0	 7.142890476327777e+00	 9.142843342671602e+00	 1.000899544187009e+01
0	 7.142890476327778e+00	 9.285704216126854e+00	 1.000749617549619e+01
0	 7.142890476327778e+00	 9.428564672914549e+00	 1.000565244310953e+01
0	 7.142890476327777e+00	 9.571424596365201e+00	 1.000341841309768e+01
0	 7.142890476327778e+00	 9.714283869809321e+00	 1.000074825366056e+01
0	 7.142890476327778e+00	 9.857142376577414e+00	 9.997596132810683e+00
0	 7.142890476327777e+00	 1.000000000000000e+01	 9.993916218372815e+00
0	 7.142890476327777e+00	 0.000000000000000e+00	 9.910281194542939e+00
0	 7.142890476327779e+00	 1.428576234225852e-01	 9.968177087470362e+00
0	 7.142890476327778e+00	 2.857161301906819e-01	 1.001911485313438e+01
0	 7.142890476327778e+00	 4.285754036348008e-01	 1.006283110732024e+01
0	 7.142890476327778e+00	 5.714353270854531e-01	 1.009906242248761e+01
0	 7.142890476327776e+00	 7.142957838731497e-01	 1.012754532777371e+01
0	 7.142890476327779e+00	 8.571566573284016e-01	 1.014801630899606e+01
0	 7.142890476327779e+00	 1.000017830781720e+00	 1.016021180865456e+01
0	 7.142890476327778e+00	 1.142879187563616e+00	 1.016386822593306e+01
0	 7.142890476327779e+00	 1.285740611004601e+00	 1.015872191670054e+01
0	 7.142890476327779e+00	 1.428601984435185e+00	 1.014450919351156e+01
0	 7.285740955271013e+00	 0.000000000000000e+00	 9.859334154939091e+00
0	 7.285740955271016e+00	 1.428576234225853e-01	 9.928115986037920e+00
0	 7.285740955271014e+00	 2.857161301906819e-01	 9.988014128655493e+00
0	 7.285740955271014e+00	 4.285754036348007e-01	 1.003889528323809e+01
0	 7.285740955271015e+00	 5.714353270854527e-01	 1.008062610135054e+01
0	 7.285740955271014e+00	 7.142957838731498e-01	 1.011307318567978e+01
0	 7.285740955271015e+00	 8.571566573284018e-01	 1.013610309003787e+01
0	 7.285740955271012e+00	 1.000017830781720e+00	 1.014958231936435e+01
0	 7.285740955271013e+00	 1.142879187563616e+00	 1.015337732972806e+01
0	 7.285740955271015e+00	 1.285740611004601e+00	 1.014735452832820e+01
0	 7.285740955271014e+00	 1.428601984435185e+00	 1.013138027349509e+01
0	 7.428591450879007e+00	 0.000000000000000e+00	 9.839358892239824e+00
0	 7.428591450879007e+00	 1.428576234225853e-01	 9.909231052418519e+00
0	 7.428591450879010e+00	 2.857161301906819e-01	 9.969719890904759e+00
0	 7.428591450879007e+00	 4.285754036348006e-01	 1.002080221607466e+01
0	 7.428591450879007e+00	 5.714353270854530e-01	 1.006245478832669e+01
0	 7.428591450879007e+00	 7.142957838731497e-01	 1.009465432008520e+01
0	 7.428591450879008e+00	 8.571566573284018e-01	 1.011737747580336e+01
0	 7.428591450879005e+00	 1.000017830781720e+00	 1.013060087196544e+01
0	 7.428591450879007e+00	 1.142879187563616e+00	 1.013430107708857e+01
0	 7.428591450879006e+00	 1.285740611004601e+00	 1.012845461172389e+01
0	 7.428591450879006e+00	 1.428601984435185e+00	 1.011303794845710e+01
0	 7.571441979817512e+00	 0.000000000000000e+00	 9.844337792250695e+00
0	 7.571441979817510e+00	 1.428576234225853e-01	 9.907480859551899e+00
0	 7.571441979817513e+00	 2.857161301906818e-01	 9.961891984868432e+00
0	 7.571441979817511e+00	 4.285754036348007e-01	 1.000763811667797e+01
0	 7.571441979817511e+00	 5.714353270854530e-01	 1.004478616149688e+01
0	 7.571441979817509e+00	 7.142957838731497e-01	 1.007340298388320e+01
0	 7.571441979817512e+00	 8.571566573284018e-01	 1.009355540643925e+01
0	 7.571441979817513e+00	 1.000017830781720e+00	 1.010531020981363e+01
0	 7.571441979817512e+00	 1.142879187563616e+00	 1.010873413270276e+01
0	 7.571441979817512e+00	 1.285740611004601e+00	 1.010389387185189e+01
0	 7.571441979817510e+00	 1.428601984435185e+00	 1.009085608205560e+01
0	 7.714292558752281e+00	 0.000000000000000e+00	 9.868253238813123e+00
0	 7.714292558752282e+00	 1.428576234225853e-01	 9.918823978675951e+00
0	 7.714292558752281e+00	 2.857161301906819e-01	 9.962190254017726e+00
0	 7.714292558752282e+00	 4.285754036348008e-01	 9.998489194506435e+00
0	 7.714292558752280e+00	 5.714353270854529e-01	 1.002785789763016e+01
0	 7.714292558752281e+00	 7.142957838731496e-01	 1.005043342869947e+01
0	 7.714292558752281e+00	 8.571566573284017e-01	 1.006635282084934e+01
0	 7.714292558752279e+00	 1.000017830781720e+00	 1.007575307504080e+01
0	 7.714292558752281e+00	 1.142879187563616e+00	 1.007877116006203e+01
0	 7.714292558752281e+00	 1.285740611004601e+00	 1.007554401252923e+01
0	 7.714292558752281e+00	 1.428601984435185e+00	 1.006620853688695e+01
0	 7.857143204349074e+00	 0.000000000000000e+00	 9.905087613804360e+00
0	 7.857143204349071e+00	 1.428576234225853e-01	 9.939218979326702e+00
0	 7.857143204349072e+00	 2.857161301906819e-01	 9.968274540308922e+00
0	 7.857143204349071e+00	 4.285754036348006e-01	 9.992441657628829e+00
0	 7.857143204349073e+00	 5.714353270854531e-01	 1.001190767218377e+01
0	 7.857143204349072e+00	 7.142957838731496e-01	 1.002685990489212e+01
0	 7.857143204349074e+00	 8.571566573284017e-01	 1.003748565669452e+01
0	 7.857143204349074e+00	 1.000017830781720e+00	 1.004397220855486e+01
0	 7.857143204349074e+00	 1.142879187563616e+00	 1.004650682146109e+01
0	 7.857143204349072e+00	 1.285740611004601e+00	 1.004527673642568e+01
0	 7.857143204349073e+00	 1.428601984435185e+00	 1.004046917448594e+01
0	 7.999993933273645e+00	 0.000000000000000e+00	 9.948823297137540e+00
0	 7.999993933273646e+00	 1.428576234225853e-01	 9.964624429338349e+00
0	 7.999993933273644e+00	 2.857161301906819e-01	 9.977804684183262e+00
0	 7.999993933273644e+00	 4.285754036348007e-01	 9.988581712724301e+00
0	 7.999993933273645e+00	 5.714353270854532e-01	 9.997173159303166e+00
0	 7.999993933273646e+00	 7.142957838731498e-01	 1.000379666155177e+01
0	 7.999993933273643e+00	 8.571566573284015e-01	 1.000866985039275e+01
0	 7.999993933273644e+00	 1.000017830781720e+00	 1.001201035003976e+01
0	 7.999993933273642e+00	 1.142879187563616e+00	 1.001403577799787e+01
0	 7.999993933273643e+00	 1.285740611004601e+00	 1.001496374506373e+01
0	 7.999993933273644e+00	 1.428601984435185e+00	 1.001501185532570e+01
0	 8.142844762191748e+00	 0.000000000000000e+00	 9.993442666761622e+00
0	 8.142844762191746e+00	 1.428576234225853e-01	 9.990998894843232e+00
0	 8.142844762191748e+00	 2.857161301906819e-01	 9.988440524567043e+00
0	 8.142844762191748e+00	 4.285754036348007e-01	 9.985995565082407e+00
0	 8.142844762191746e+00	 5.714353270854530e-01	 9.983892031822025e+00
0	 8.142844762191745e+00	 7.142957838731496e-01	 9.982357946501496e+00
0	 8.142844762191748e+00	 8.571566573284017e-01	 9.981621337119090e+00
0	 8.142844762191748e+00	 1.000017830781720e+00	 9.981910237955478e+00
0	 8.142844762191746e+00	 1.142879187563616e+00	 9.983452689573605e+00
0	 8.142844762191748e+00	 1.285740611004601e+00	 9.986476738818592e+00
0	 8.142844762191746e+00	 1.428601984435185e+00	 9.991210438817781e+00
0	 8.285695707769140e+00	 0.000000000000000e+00	 1.003292809866146e+01
0	 8.285695707769138e+00	 1.428576234225852e-01	 1.001430094027187e+01
0	 8.285695707769140e+00	 2.857161301906819e-01	 9.997841898871553e+00
0	 8.285695707769142e+00	 4.285754036348008e-01	 9.983769418603071e+00
0	 8.285695707769143e+00	 5.714353270854531e-01	 9.972301961262222e+00
0	 8.285695707769142e+00	 7.142957838731496e-01	 9.963658006296813e+00
0	 8.285695707769142e+00	 8.571566573284017e-01	 9.958056050805713e+00
0	 8.285695707769142e+00	 1.000017830781720e+00	 9.955714609538065e+00
0	 8.285695707769142e+00	 1.142879187563616e+00	 9.956852214892791e+00
0	 8.285695707769140e+00	 1.285740611004601e+00	 9.961687416918242e+00
0	 8.285695707769142e+00	 1.428601984435185e+00	 9.970438783312098e+00
0	 8.428546786671577e+00	 0.000000000000000e+00	 1.006126196685778e+01
0	 8.428546786671578e+00	 1.428576234225853e-01	 1.003048912835295e+01
0	 8.428546786671578e+00	 2.857161301906819e-01	 1.000366864299311e+01
0	 8.428546786671577e+00	 4.285754036348006e-01	 9.980989475796612e+00
0	 8.428546786671577e+00	 5.714353270854531e-01	 9.962640617833904e+00
0	 8.428546786671577e+00	 7.142957838731497e-01	 9.948811086225767e+00
0	 8.428546786671577e+00	 8.571566573284017e-01	 9.939689924141879e+00
0	 8.428546786671577e+00	 1.000017830781720e+00	 9.935466200799608e+00
0	 8.428546786671578e+00	 1.142879187563616e+00	 9.936329011463229e+00
0	 8.428546786671578e+00	 1.285740611004601e+00	 9.942467477443405e+00
0	 8.428546786671578e+00	 1.428601984435185e+00	 9.954070746096992e+00
0	 8.571398015564816e+00	 0.000000000000000e+00	 1.007242664340722e+01
0	 8.571398015564816e+00	 1.428576234225853e-01	 1.003552202011336e+01
0	 8.571398015564816e+00	 2.857161301906819e-01	 1.000358059131313e+01
0	 8.571398015564816e+00	 4.285754036348007e-01	 9.976741937783785e+00
0	 8.571398015564812e+00	 5.714353270854530e-01	 9.955145670435439e+00
0	 8.571398015564816e+00	 7.142957838731496e-01	 9.938931430308882e+00
0	 8.571398015564817e+00	 8.571566573284017e-01	 9.928238888573986e+00
0	 8.571398015564816e+00	 1.000017830781720e+00	 9.923207746528275e+00
0	 8.571398015564816e+00	 1.142879187563616e+00	 9.923977735596015e+00
0	 8.571398015564814e+00	 1.285740611004601e+00	 9.930688617327572e+00
0	 8.571398015564817e+00	 1.428601984435185e+00	 9.943480183399204e+00
0	 7.142890476327779e+00	 1.428601984435185e+00	 1.014450919351156e+01
0	 7.142890476327779e+00	 1.571453213328422e+00	 1.012684086139737e+01
0	 7.142890476327778e+00	 1.714304292230859e+00	 1.011158878883252e+01
0	 7.142890476327777e+00	 1.857155237808251e+00	 1.009888480462078e+01
0	 7.142890476327778e+00	 2.000006066726356e+00	 1.008886073562358e+01
0	 7.142890476327777e+00	 2.142856795650926e+00	 1.008164840676008e+01
0	 7.142890476327775e+00	 2.285707441247718e+00	 1.007737964100711e+01
0	 7.142890476327777e+00	 2.428558020182488e+00	 1.007618625939914e+01
0	 7.142890476327778e+00	 2.571408549120992e+00	 1.007820008102832e+01
0	 7.142890476327778e+00	 2.714259044728984e+00	 1.008355292304445e+01
0	 7.142890476327779e+00	 2.857109523672222e+00	 1.009237660065495e+01
0	 7.285740955271014e+00	 1.428601984435185e+00	 1.013138027349509e+01
0	 7.285740955271013e+00	 1.571453213328422e+00	 1.011193755687495e+01
0	 7.285740955271013e+00	 1.714304292230858e+00	 1.009562452784053e+01
0	 7.285740955271017e+00	 1.857155237808252e+00	 1.008248465174671e+01
0	 7.285740955271013e+00	 2.000006066726355e+00	 1.007256139170987e+01
0	 7.285740955271013e+00	 2.142856795650925e+00	 1.006589820860775e+01
0	 7.285740955271015e+00	 2.285707441247718e+00	 1.006253856107954e+01
0	 7.285740955271014e+00	 2.428558020182489e+00	 1.006252590552585e+01
0	 7.285740955271015e+00	 2.571408549120993e+00	 1.006590369610863e+01
0	 7.285740955271016e+00	 2.714259044728984e+00	 1.007271538475123e+01
0	 7.285740955271015e+00	 2.857109523672223e+00	 1.008300442113836e+01
0	 7.428591450879006e+00	 1.428601984435185e+00	 1.011303794845710e+01
0	 7.428591450879007e+00	 1.571453213328422e+00	 1.009451163101376e+01
0	 7.428591450879007e+00	 1.714304292230859e+00	 1.007933000670954e+01
0	 7.428591450879008e+00	 1.857155237808252e+00	 1.006746445980741e+01
0	 7.428591450879007e+00	 2.000006066726355e+00	 1.005888637234572e+01
0	 7.428591450879008e+00	 2.142856795650926e+00	 1.005356712413812e+01
0	 7.428591450879007e+00	 2.285707441247718e+00	 1.005147809277357e+01
0	 7.428591450879007e+00	 2.428558020182488e+00	 1.005259065361632e+01
0	 7.428591450879007e+00	 2.571408549120992e+00	 1.005687617980588e+01
0	 7.428591450879007e+00	 2.714259044728984e+00	 1.006430604225704e+01
0	 7.428591450879008e+00	 2.857109523672222e+00	 1.007485160965987e+01
0	 7.571441979817510e+00	 1.428601984435185e+00	 1.009085608205560e+01
0	 7.571441979817513e+00	 1.571453213328422e+00	 1.007534786911760e+01
0	 7.571441979817509e+00	 1.714304292230859e+00	 1.006299325230471e+01
0	 7.571441979817510e+00	 1.857155237808251e+00	 1.005370781761016e+01
0	 7.571441979817508e+00	 2.000006066726355e+00	 1.004740714906194e+01
0	 7.571441979817511e+00	 2.142856795650925e+00	 1.004400682872276e+01
0	 7.571441979817510e+00	 2.285707441247718e+00	 1.004342243669008e+01
0	 7.571441979817509e+00	 2.428558020182487e+00	 1.004556955109609e+01
0	 7.571441979817509e+00	 2.571408549120991e+00	 1.005036374810764e+01
0	 7.571441979817511e+00	 2.714259044728984e+00	 1.005772060192634e+01
0	 7.571441979817511e+00	 2.857109523672222e+00	 1.006755568478844e+01
0	 7.714292558752281e+00	 1.428601984435185e+00	 1.006620853688695e+01
0	 7.714292558752279e+00	 1.571453213328422e+00	 1.005523105556018e+01
0	 7.714292558752281e+00	 1.714304292230859e+00	 1.004690229073145e+01
0	 7.714292558752278e+00	 1.857155237808251e+00	 1.004109831340015e+01
0	 7.714292558752280e+00	 2.000006066726355e+00	 1.003769519304072e+01
0	 7.714292558752281e+00	 2.142856795650926e+00	 1.003656899760272e+01
0	 7.714292558752280e+00	 2.285707441247717e+00	 1.003759579351075e+01
0	 7.714292558752280e+00	 2.428558020182488e+00	 1.004065164566448e+01
0	 7.714292558752281e+00	 2.571408549120992e+00	 1.004561261743861e+01
0	 7.714292558752281e+00	 2.714259044728985e+00	 1.005235477068292e+01
0	 7.714292558752280e+00	 2.857109523672222e+00	 1.006075416572216e+01
0	 7.857143204349073e+00	 1.428601984435185e+00	 1.004046917448594e+01
0	 7.857143204349073e+00	 1.571453213328422e+00	 1.003494597378520e+01
0	 7.857143204349074e+00	 1.714304292230859e+00	 1.003134514733538e+01
0	 7.857143204349075e+00	 1.857155237808252e+00	 1.002951953486037e+01
0	 7.857143204349072e+00	 2.000006066726355e+00	 1.002932197511569e+01
0	 7.857143204349075e+00	 2.142856795650926e+00	 1.003060530588859e+01
0	 7.857143204349073e+00	 2.285707441247718e+00	 1.003322236399800e+01
0	 7.857143204349071e+00	 2.428558020182488e+00	 1.003702598529454e+01
0	 7.857143204349073e+00	 2.571408549120992e+00	 1.004186900466051e+01
0	 7.857143204349076e+00	 2.714259044728984e+00	 1.004760425600987e+01
0	 7.857143204349074e+00	 2.857109523672223e+00	 1.005408457228827e+01
0	 7.999993933273644e+00	 1.428601984435185e+00	 1.001501185532570e+01
0	 7.999993933273644e+00	 1.571453213328422e+00	 1.001527740630624e+01
0	 7.999993933273644e+00	 1.714304292230859e+00	 1.001660984670237e+01
0	 7.999993933273643e+00	 1.857155237808251e+00	 1.001885506911171e+01
0	 7.999993933273643e+00	 2.000006066726355e+00	 1.002185896577189e+01
0	 7.999993933273645e+00	 2.142856795650926e+00	 1.002546742856048e+01
0	 7.999993933273644e+00	 2.285707441247718e+00	 1.002952634899503e+01
0	 7.999993933273642e+00	 2.428558020182489e+00	 1.003388161823307e+01
0	 7.999993933273646e+00	 2.571408549120993e+00	 1.003837912707212e+01
0	 7.999993933273644e+00	 2.714259044728985e+00	 1.004286476594965e+01
0	 7.999993933273644e+00	 2.857109523672223e+00	 1.004718442494312e+01
0	 8.142844762191746e+00	 1.428601984435185e+00	 9.991210438817781e+00
0	 8.142844762191748e+00	 1.571453213328422e+00	 9.997010134706869e+00
0	 8.142844762191748e+00	 1.714304292230859e+00	 1.000298441265848e+01
0	 8.142844762191746e+00	 1.857155237808251e+00	 1.000898850271292e+01
0	 8.142844762191748e+00	 2.000006066726355e+00	 1.001487763514580e+01
0	 8.142844762191750e+00	 2.142856795650926e+00	 1.002050704046802e+01
0	 8.142844762191746e+00	 2.285707441247718e+00	 1.002573194942578e+01
0	 8.142844762191750e+00	 2.428558020182489e+00	 1.003040759300061e+01
0	 8.142844762191750e+00	 2.571408549120993e+00	 1.003438920240930e+01
0	 8.142844762191752e+00	 2.714259044728985e+00	 1.003753200910402e+01
0	 8.142844762191750e+00	 2.857109523672223e+00	 1.003969124477220e+01
0	 8.285695707769142e+00	 1.428601984435185e+00	 9.970438783312098e+00
0	 8.285695707769140e+00	 1.571453213328422e+00	 9.980928939640586e+00
0	 8.285695707769140e+00	 1.714304292230859e+00	 9.990756868270045e+00
0	 8.285695707769140e+00	 1.857155237808251e+00	 9.999803421660591e+00
0	 8.285695707769140e+00	 2.000006066726355e+00	 1.000794945302532e+01
0	 8.285695707769142e+00	 2.142856795650925e+00	 1.001507581633039e+01
0	 8.285695707769138e+00	 2.285707441247717e+00	 1.002106336629500e+01
0	 8.285695707769140e+00	 2.428558020182488e+00	 1.002579295839143e+01
0	 8.285695707769143e+00	 2.571408549120993e+00	 1.002914544884498e+01
0	 8.285695707769143e+00	 2.714259044728985e+00	 1.003100169463407e+01
0	 8.285695707769140e+00	 2.857109523672222e+00	 1.003124255349013e+01
0	 8.428546786671578e+00	 1.428601984435185e+00	 9.954070746096988e+00
0	 8.428546786671577e+00	 1.571453213328422e+00	 9.967818600830856e+00
0	 8.428546786671578e+00	 1.714304292230859e+00	 9.980215235843666e+00
0	 8.428546786671578e+00	 1.857155237808252e+00	 9.991183411389194e+00
0	 8.428546786671577e+00	 2.000006066726355e+00	 1.000064588884976e+01
0	 8.428546786671577e+00	 2.142856795650925e+00	 1.000852543073626e+01
0	 8.428546786671577e+00	 2.285707441247718e+00	 1.001474480068817e+01
0	 8.428546786671577e+00	 2.428558020182488e+00	 1.001922676347357e+01
0	 8.428546786671578e+00	 2.571408549120992e+00	 1.002189408498914e+01
0	 8.428546786671578e+00	 2.714259044728985e+00	 1.002266953226021e+01
0	 8.428546786671578e+00	 2.857109523672222e+00	 1.002147587344066e+01
0	 8.571398015564817e+00	 1.428601984435185e+00	 9.943480183399206e+00
0	 8.571398015564816e+00	 1.571453213328422e+00	 9.958463897071097e+00
0	 8.571398015564817e+00	 1.714304292230859e+00	 9.971647536926149e+00
0	 8.571398015564814e+00	 1.857155237808251e+00	 9.983012056771091e+00
0	 8.571398015564816e+00	 2.000006066726355e+00	 9.992538411709894e+00
0	 8.571398015564817e+00	 2.142856795650926e+00	 1.000020755814386e+01
0	 8.571398015564816e+00	 2.285707441247718e+00	 1.000600045377152e+01
0	 8.571398015564816e+00	 2.428558020182488e+00	 1.000989805758878e+01
0	 8.571398015564814e+00	 2.571408549120992e+00	 1.001188132988881e+01
0	 8.571398015564816e+00	 2.714259044728984e+00	 1.001193123226216e+01
0	 8.571398015564814e+00	 2.857109523672223e+00	 1.001002872759666e+01
0	 7.142890476327779e+00	 2.857109523672222e+00	 1.009237660065495e+01
0	 7.142890476327778e+00	 2.999969994316576e+00	 1.010229015850951e+01
0	 7.142890476327778e+00	 3.142830431628385e+00	 1.011075906504394e+01
0	 7.142890476327780e+00	 3.285690802274106e+00	 1.011768699415133e+01
0	 7.142890476327778e+00	 3.428551072920193e+00	 1.012297761667806e+01
0	 7.142890476327777e+00	 3.571411210233102e+00	 1.012653460042374e+01
0	 7.142890476327779e+00	 3.714271180879290e+00	 1.012826161014132e+01
0	 7.142890476327779e+00	 3.857130951525211e+00	 1.012806230753689e+01
0	 7.142890476327780e+00	 3.999990488837321e+00	 1.012584035126982e+01
0	 7.142890476327779e+00	 4.142849759482075e+00	 1.012149939695258e+01
0	 7.142890476327779e+00	 4.285708730125926e+00	 1.011494309715077e+01
0	 7.285740955271015e+00	 2.857109523672223e+00	 1.008300442113836e+01
0	 7.285740955271011e+00	 2.999969994316575e+00	 1.009407224794596e+01
0	 7.285740955271015e+00	 3.142830431628385e+00	 1.010318211337399e+01
0	 7.285740955271015e+00	 3.285690802274107e+00	 1.011032270031828e+01
0	 7.285740955271014e+00	 3.428551072920193e+00	 1.011548268849760e+01
0	 7.285740955271015e+00	 3.571411210233102e+00	 1.011865075445355e+01
0	 7.285740955271014e+00	 3.714271180879289e+00	 1.011981557155061e+01
0	 7.285740955271016e+00	 3.857130951525211e+00	 1.011896580997609e+01
0	 7.285740955271015e+00	 3.999990488837321e+00	 1.011609013674010e+01
0	 7.285740955271012e+00	 4.142849759482074e+00	 1.011117721567549e+01
0	 7.285740955271015e+00	 4.285708730125926e+00	 1.010421570743783e+01
0	 7.428591450879008e+00	 2.857109523672222e+00	 1.007485160965987e+01
0	 7.428591450879006e+00	 2.999969994316576e+00	 1.008583333654181e+01
0	 7.428591450879006e+00	 3.142830431628385e+00	 1.009462757583837e+01
0	 7.428591450879008e+00	 3.285690802274106e+00	 1.010129207976225e+01
0	 7.428591450879006e+00	 3.428551072920193e+00	 1.010588459751054e+01
0	 7.428591450879006e+00	 3.571411210233103e+00	 1.010846287526465e+01
0	 7.428591450879006e+00	 3.714271180879290e+00	 1.010908465619032e+01
0	 7.428591450879009e+00	 3.857130951525210e+00	 1.010780768043766e+01
0	 7.428591450879009e+00	 3.999990488837320e+00	 1.010468968514098e+01
0	 7.428591450879008e+00	 4.142849759482073e+00	 1.009978840441888e+01
0	 7.428591450879009e+00	 4.285708730125926e+00	 1.009316156937412e+01
0	 7.571441979817511e+00	 2.857109523672222e+00	 1.006755568478844e+01
0	 7.571441979817511e+00	 2.999969994316576e+00	 1.007747593949009e+01
0	 7.571441979817509e+00	 3.142830431628385e+00	 1.008521697106289e+01
0	 7.571441979817509e+00	 3.285690802274105e+00	 1.009088966143970e+01
0	 7.571441979817512e+00	 3.428551072920193e+00	 1.009460488992668e+01
0	 7.571441979817511e+00	 3.571411210233104e+00	 1.009647353320331e+01
0	 7.571441979817510e+00	 3.714271180879290e+00	 1.009660646532236e+01
0	 7.571441979817513e+00	 3.857130951525211e+00	 1.009511455770991e+01
0	 7.571441979817513e+00	 3.999990488837320e+00	 1.009210867916524e+01
0	 7.571441979817513e+00	 4.142849759482075e+00	 1.008769969586092e+01
0	 7.571441979817511e+00	 4.285708730125926e+00	 1.008199847134260e+01
0	 7.714292558752280e+00	 2.857109523672222e+00	 1.006075416572216e+01
0	 7.714292558752280e+00	 2.999969994316575e+00	 1.006890257262269e+01
0	 7.714292558752281e+00	 3.142830431628385e+00	 1.007507181826922e+01
0	 7.714292558752280e+00	 3.285690802274106e+00	 1.007940997481837e+01
0	 7.714292558752280e+00	 3.428551072920192e+00	 1.008206511235216e+01
0	 7.714292558752283e+00	 3.571411210233102e+00	 1.008318529887796e+01
0	 7.714292558752281e+00	 3.714271180879291e+00	 1.008291860032850e+01
0	 7.714292558752280e+00	 3.857130951525209e+00	 1.008141308056187e+01
0	 7.714292558752281e+00	 3.999990488837320e+00	 1.007881680136147e+01
0	 7.714292558752279e+00	 4.142849759482074e+00	 1.007527782243599e+01
0	 7.714292558752279e+00	 4.285708730125925e+00	 1.007094420141942e+01
0	 7.857143204349074e+00	 2.857109523672223e+00	 1.005408457228827e+01
0	 7.857143204349073e+00	 2.999969994316576e+00	 1.006001575241034e+01
0	 7.857143204349076e+00	 3.142830431628385e+00	 1.006431363727482e+01
0	 7.857143204349074e+00	 3.285690802274107e+00	 1.006714754987729e+01
0	 7.857143204349072e+00	 3.428551072920192e+00	 1.006868681178947e+01
0	 7.857143204349075e+00	 3.571411210233104e+00	 1.006910074315919e+01
0	 7.857143204349073e+00	 3.714271180879289e+00	 1.006855866271043e+01
0	 7.857143204349074e+00	 3.857130951525211e+00	 1.006722988774330e+01
0	 7.857143204349073e+00	 3.999990488837320e+00	 1.006528373413397e+01
0	 7.857143204349073e+00	 4.142849759482075e+00	 1.006288951633474e+01
0	 7.857143204349074e+00	 4.285708730125926e+00	 1.006021654737396e+01
0	 7.999993933273644e+00	 2.857109523672223e+00	 1.004718442494312e+01
0	 7.999993933273645e+00	 2.999969994316577e+00	 1.005071799596259e+01
0	 7.999993933273641e+00	 3.142830431628385e+00	 1.005306394849303e+01
0	 7.999993933273644e+00	 3.285690802274106e+00	 1.005439691710678e+01
0	 7.999993933273646e+00	 3.428551072920194e+00	 1.005489153563742e+01
0	 7.999993933273642e+00	 3.571411210233102e+00	 1.005472243717975e+01
0	 7.999993933273642e+00	 3.714271180879290e+00	 1.005406425408975e+01
0	 7.999993933273644e+00	 3.857130951525210e+00	 1.005309161798465e+01
0	 7.999993933273646e+00	 3.999990488837320e+00	 1.005197915974284e+01
0	 7.999993933273645e+00	 4.142849759482074e+00	 1.005090150950396e+01
0	 7.999993933273641e+00	 4.285708730125924e+00	 1.005003329666878e+01
0	 8.142844762191750e+00	 2.857109523672223e+00	 1.003969124477220e+01
0	 8.142844762191746e+00	 2.999969994316576e+00	 1.004091182102786e+01
0	 8.142844762191746e+00	 3.142830431628386e+00	 1.004144427293299e+01
0	 8.142844762191748e+00	 3.285690802274105e+00	 1.004145260750842e+01
0	 8.142844762191746e+00	 3.428551072920193e+00	 1.004110083169119e+01
0	 8.142844762191750e+00	 3.571411210233103e+00	 1.004055295233453e+01
0	 8.142844762191750e+00	 3.714271180879291e+00	 1.003997297620792e+01
0	 8.142844762191748e+00	 3.857130951525211e+00	 1.003952490999709e+01
0	 8.142844762191746e+00	 3.999990488837320e+00	 1.003937276030395e+01
0	 8.142844762191748e+00	 4.142849759482074e+00	 1.003968053364669e+01
0	 8.142844762191748e+00	 4.285708730125926e+00	 1.004061223645969e+01
0	 8.285695707769140e+00	 2.857109523672222e+00	 1.003124255349013e+01
0	 8.285695707769140e+00	 2.999969994316576e+00	 1.003049974599336e+01
0	 8.285695707769140e+00	 3.142830431628385e+00	 1.002957613219971e+01
0	 8.285695707769142e+00	 3.285690802274106e+00	 1.002860915259511e+01
0	 8.285695707769142e+00	 3.428551072920194e+00	 1.002773624814225e+01
0	 8.285695707769140e+00	 3.571411210233102e+00	 1.002709486028059e+01
0	 8.285695707769142e+00	 3.714271180879291e+00	 1.002682243092634e+01
0	 8.285695707769138e+00	 3.857130951525209e+00	 1.002705640247251e+01
0	 8.285695707769142e+00	 3.999990488837320e+00	 1.002793421778893e+01
0	 8.285695707769140e+00	 4.142849759482075e+00	 1.002959332022219e+01
0	 8.285695707769140e+00	 4.285708730125926e+00	 1.003217115359571e+01
0	 8.428546786671578e+00	 2.857109523672222e+00	 1.002147587344066e+01
0	 8.428546786671575e+00	 2.999969994316576e+00	 1.001938428988517e+01
0	 8.428546786671578e+00	 3.142830431628386e+00	 1.001758104849401e+01
0	 8.428546786671578e+00	 3.285690802274107e+00	 1.001616108439100e+01
0	 8.428546786671578e+00	 3.428551072920194e+00	 1.001521933357846e+01
0	 8.428546786671578e+00	 3.571411210233103e+00	 1.001485073293714e+01
0	 8.428546786671578e+00	 3.714271180879290e+00	 1.001515022022625e+01
0	 8.428546786671578e+00	 3.857130951525211e+00	 1.001621273408354e+01
0	 8.428546786671577e+00	 3.999990488837320e+00	 1.001813321402519e+01
0	 8.428546786671578e+00	 4.142849759482075e+00	 1.002100660044594e+01
0	 8.428546786671577e+00	 4.285708730125926e+00	 1.002492783461905e+01
0	 8.571398015564814e+00	 2.857109523672223e+00	 1.001002872759665e+01
0	 8.571398015564816e+00	 2.999969994316575e+00	 1.000746797236819e+01
0	 8.571398015564812e+00	 3.142830431628385e+00	 1.000558054461252e+01
0	 8.571398015564816e+00	 3.285690802274106e+00	 1.000440293543153e+01
0	 8.571398015564816e+00	 3.428551072920193e+00	 1.000397163698398e+01
0	 8.571398015564816e+00	 3.571411210233102e+00	 1.000432314248555e+01
0	 8.571398015564816e+00	 3.714271180879290e+00	 1.000549394620887e+01
0	 8.571398015564816e+00	 3.857130951525211e+00	 1.000752054348348e+01
0	 8.571398015564817e+00	 3.999990488837320e+00	 1.001043943069590e+01
0	 8.571398015564816e+00	 4.142849759482074e+00	 1.001428710528964e+01
0	 8.571398015564817e+00	 4.285708730125926e+00	 1.001910006576519e+01
0	 7.142890476327779e+00	 4.285708730125926e+00	 1.011494309715077e+01
0	 7.142890476327776e+00	 4.428567384102074e+00	 1.010751474262872e+01
0	 7.142890476327778e+00	 4.571425771410667e+00	 1.010065688698446e+01
0	 7.142890476327777e+00	 4.714283958718592e+00	 1.009442207337692e+01
0	 7.142890476327779e+00	 4.857142012692742e+00	 1.008886284313575e+01
0	 7.142890476327777e+00	 5.000000000000001e+00	 1.008403173576131e+01
0	 7.142890476327778e+00	 5.142857987307261e+00	 1.007998128892451e+01
0	 7.142890476327778e+00	 5.285716041281409e+00	 1.007676403846688e+01
0	 7.142890476327777e+00	 5.428574228589334e+00	 1.007443251840051e+01
0	 7.142890476327777e+00	 5.571432615897927e+00	 1.007303926090800e+01
0	 7.142890476327778e+00	 5.714291269874073e+00	 1.007263679634250e+01
0	 7.285740955271015e+00	 4.285708730125926e+00	 1.010421570743783e+01
0	 7.285740955271015e+00	 4.428567384102075e+00	 1.009668399853604e+01
0	 7.285740955271014e+00	 4.571425771410667e+00	 1.009006279871646e+01
0	 7.285740955271017e+00	 4.714283958718593e+00	 1.008434424961931e+01
0	 7.285740955271014e+00	 4.857142012692742e+00	 1.007952049090007e+01
0	 7.285740955271016e+00	 5.000000000000001e+00	 1.007558366022952e+01
0	 7.285740955271012e+00	 5.142857987307261e+00	 1.007252589329366e+01
0	 7.285740955271014e+00	 5.285716041281408e+00	 1.007033932379365e+01
0	 7.285740955271015e+00	 5.428574228589336e+00	 1.006901608344583e+01
0	 7.285740955271014e+00	 5.571432615897928e+00	 1.006854830198165e+01
0	 7.285740955271015e+00	 5.714291269874074e+00	 1.006892810714779e+01
0	 7.428591450879009e+00	 4.285708730125926e+00	 1.009316156937412e+01
0	 7.428591450879008e+00	 4.428567384102075e+00	 1.008624482569985e+01
0	 7.428591450879005e+00	 4.571425771410667e+00	 1.008039761563992e+01
0	 7.428591450879008e+00	 4.714283958718593e+00	 1.007556336151776e+01
0	 7.428591450879007e+00	 4.857142012692742e+00	 1.007168548386534e+01
0	 7.428591450879006e+00	 5.000000000000001e+00	 1.006870740142315e+01
0	 7.428591450879007e+00	 5.142857987307260e+00	 1.006657253114012e+01
0	 7.428591450879007e+00	 5.285716041281409e+00	 1.006522428817366e+01
0	 7.428591450879006e+00	 5.428574228589335e+00	 1.006460608588952e+01
0	 7.428591450879007e+00	 5.571432615897928e+00	 1.006466133586191e+01
0	 7.428591450879008e+00	 5.714291269874074e+00	 1.006533344787342e+01
0	 7.571441979817511e+00	 4.285708730125926e+00	 1.008199847134260e+01
0	 7.571441979817512e+00	 4.428567384102074e+00	 1.007625728857240e+01
0	 7.571441979817512e+00	 4.571425771410667e+00	 1.007159211381991e+01
0	 7.571441979817508e+00	 4.714283958718593e+00	 1.006790933262499e+01
0	 7.571441979817511e+00	 4.857142012692742e+00	 1.006511532919837e+01
0	 7.571441979817513e+00	 5.000000000000001e+00	 1.006311648642149e+01
0	 7.571441979817510e+00	 5.142857987307262e+00	 1.006181918584656e+01
0	 7.571441979817509e+00	 5.285716041281410e+00	 1.006112980769652e+01
0	 7.571441979817512e+00	 5.428574228589337e+00	 1.006095473086496e+01
0	 7.571441979817511e+00	 5.571432615897928e+00	 1.006120033291616e+01
0	 7.571441979817511e+00	 5.714291269874074e+00	 1.006177299008510e+01
0	 7.714292558752279e+00	 4.285708730125925e+00	 1.007094420141942e+01
0	 7.714292558752280e+00	 4.428567384102075e+00	 1.006678145128065e+01
0	 7.714292558752281e+00	 4.571425771410667e+00	 1.006357706901722e+01
0	 7.714292558752281e+00	 4.714283958718593e+00	 1.006121208624181e+01
0	 7.714292558752282e+00	 4.857142012692742e+00	 1.005956753388954e+01
0	 7.714292558752279e+00	 5.000000000000002e+00	 1.005852444221799e+01
0	 7.714292558752283e+00	 5.142857987307262e+00	 1.005796384080714e+01
0	 7.714292558752282e+00	 5.285716041281409e+00	 1.005776675855937e+01
0	 7.714292558752282e+00	 5.428574228589334e+00	 1.005781422369944e+01
0	 7.714292558752281e+00	 5.571432615897927e+00	 1.005798726377447e+01
0	 7.714292558752280e+00	 5.714291269874075e+00	 1.005816690565394e+01
0	 7.857143204349074e+00	 4.285708730125926e+00	 1.006021654737396e+01
0	 7.857143204349076e+00	 4.428567384102076e+00	 1.005787737762622e+01
0	 7.857143204349073e+00	 4.571425771410667e+00	 1.005628325668837e+01
0	 7.857143204349074e+00	 4.714283958718594e+00	 1.005530154541706e+01
0	 7.857143204349072e+00	 4.857142012692741e+00	 1.005479960475287e+01
0	 7.857143204349074e+00	 5.000000000000002e+00	 1.005464479572022e+01
0	 7.857143204349072e+00	 5.142857987307261e+00	 1.005470447942745e+01
0	 7.857143204349073e+00	 5.285716041281408e+00	 1.005484601706675e+01
0	 7.857143204349074e+00	 5.428574228589335e+00	 1.005493676991414e+01
0	 7.857143204349074e+00	 5.571432615897928e+00	 1.005484409932950e+01
0	 7.857143204349075e+00	 5.714291269874074e+00	 1.005443536675650e+01
0	 7.999993933273641e+00	 4.285708730125924e+00	 1.005003329666878e+01
0	 7.999993933273644e+00	 4.428567384102075e+00	 1.004960513108543e+01
0	 7.999993933273642e+00	 4.571425771410667e+00	 1.004964145198553e+01
0	 7.999993933273643e+00	 4.714283958718593e+00	 1.005000763294767e+01
0	 7.999993933273643e+00	 4.857142012692742e+00	 1.005056904842592e+01
0	 7.999993933273643e+00	 5.000000000000001e+00	 1.005119107374988e+01
0	 7.999993933273644e+00	 5.142857987307262e+00	 1.005173908512461e+01
0	 7.999993933273643e+00	 5.285716041281408e+00	 1.005207845963067e+01
0	 7.999993933273645e+00	 5.428574228589335e+00	 1.005207457522414e+01
0	 7.999993933273643e+00	 5.571432615897928e+00	 1.005159281073653e+01
0	 7.999993933273643e+00	 5.714291269874074e+00	 1.005049854587479e+01
0	 8.142844762191748e+00	 4.285708730125926e+00	 1.004061223645969e+01
0	 8.142844762191748e+00	 4.428567384102074e+00	 1.004202477480931e+01
0	 8.142844762191748e+00	 4.571425771410667e+00	 1.004358242975661e+01
0	 8.142844762191746e+00	 4.714283958718594e+00	 1.004516027137861e+01
0	 8.142844762191746e+00	 4.857142012692740e+00	 1.004663337136993e+01
0	 8.142844762191746e+00	 5.000000000000001e+00	 1.004787680304279e+01
0	 8.142844762191748e+00	 5.142857987307259e+00	 1.004876564132716e+01
0	 8.142844762191750e+00	 5.285716041281409e+00	 1.004917496277062e+01
0	 8.142844762191748e+00	 5.428574228589334e+00	 1.004897984553842e+01
0	 8.142844762191748e+00	 5.571432615897929e+00	 1.004805536941347e+01
0	 8.142844762191750e+00	 5.714291269874075e+00	 1.004627661579624e+01
0	 8.285695707769140e+00	 4.285708730125926e+00	 1.003217115359571e+01
0	 8.285695707769140e+00	 4.428567384102073e+00	 1.003519637162357e+01
0	 8.285695707769140e+00	 4.571425771410668e+00	 1.003803696454525e+01
0	 8.285695707769142e+00	 4.714283958718594e+00	 1.004058938300299e+01
0	 8.285695707769142e+00	 4.857142012692742e+00	 1.004275007986968e+01
0	 8.285695707769140e+00	 5.000000000000002e+00	 1.004441551024895e+01
0	 8.285695707769140e+00	 5.142857987307261e+00	 1.004548213147518e+01
0	 8.285695707769140e+00	 5.285716041281408e+00	 1.004584640311352e+01
0	 8.285695707769140e+00	 5.428574228589334e+00	 1.004540478695985e+01
0	 8.285695707769138e+00	 5.571432615897927e+00	 1.004405374704083e+01
0	 8.285695707769140e+00	 5.714291269874073e+00	 1.004168974961373e+01
0	 8.428546786671577e+00	 4.285708730125926e+00	 1.002492783461905e+01
0	 8.428546786671575e+00	 4.428567384102074e+00	 1.002917998402863e+01
0	 8.428546786671578e+00	 4.571425771410667e+00	 1.003293583059077e+01
0	 8.428546786671577e+00	 4.714283958718593e+00	 1.003612488986191e+01
0	 8.428546786671580e+00	 4.857142012692742e+00	 1.003867668003359e+01
0	 8.428546786671575e+00	 5.000000000000000e+00	 1.004052072193243e+01
0	 8.428546786671577e+00	 5.142857987307261e+00	 1.004158653902018e+01
0	 8.428546786671578e+00	 5.285716041281408e+00	 1.004180365739375e+01
0	 8.428546786671575e+00	 5.428574228589335e+00	 1.004110160578521e+01
0	 8.428546786671578e+00	 5.571432615897929e+00	 1.003940991556174e+01
0	 8.428546786671578e+00	 5.714291269874075e+00	 1.003665812072560e+01
0	 8.571398015564817e+00	 4.285708730125926e+00	 1.001910006576519e+01
0	 8.571398015564816e+00	 4.428567384102076e+00	 1.002403567419964e+01
0	 8.571398015564816e+00	 4.571425771410667e+00	 1.002820980182820e+01
0	 8.571398015564816e+00	 4.714283958718593e+00	 1.003159671374461e+01
0	 8.571398015564816e+00	 4.857142012692742e+00	 1.003417067779370e+01
0	 8.571398015564816e+00	 5.000000000000002e+00	 1.003590596457148e+01
0	 8.571398015564814e+00	 5.142857987307261e+00	 1.003677684742516e+01
0	 8.571398015564816e+00	 5.285716041281409e+00	 1.003675760245318e+01
0	 8.571398015564816e+00	 5.428574228589335e+00	 1.003582250850516e+01
0	 8.571398015564816e+00	 5.571432615897928e+00	 1.003394584718197e+01
0	 8.571398015564816e+00	 5.714291269874074e+00	 1.003110190283558e+01
0	 7.142890476327778e+00	 5.714291269874073e+00	 1.007263679634250e+01
0	 7.142890476327777e+00	 5.857150240517927e+00	 1.007256858053643e+01
0	 7.142890476327778e+00	 6.000009511162682e+00	 1.007210388080509e+01
0	 7.142890476327779e+00	 6.142869048474793e+00	 1.007118394258982e+01
0	 7.142890476327777e+00	 6.285728819120713e+00	 1.006975001031327e+01
0	 7.142890476327779e+00	 6.428588789766899e+00	 1.006774332737933e+01
0	 7.142890476327777e+00	 6.571448927079808e+00	 1.006510513617316e+01
0	 7.142890476327779e+00	 6.714309197725897e+00	 1.006177667806123e+01
0	 7.142890476327776e+00	 6.857169568371617e+00	 1.005769919339129e+01
0	 7.142890476327777e+00	 7.000030005683425e+00	 1.005281392149237e+01
0	 7.142890476327779e+00	 7.142890476327780e+00	 1.004706210067478e+01
0	 7.285740955271015e+00	 5.714291269874074e+00	 1.006892810714779e+01
0	 7.285740955271016e+00	 5.857150240517929e+00	 1.006941848054444e+01
0	 7.285740955271013e+00	 6.000009511162681e+00	 1.006927761142451e+01
0	 7.285740955271015e+00	 6.142869048474792e+00	 1.006849043674059e+01
0	 7.285740955271016e+00	 6.285728819120711e+00	 1.006704189239941e+01
0	 7.285740955271015e+00	 6.428588789766900e+00	 1.006491691326191e+01
0	 7.285740955271013e+00	 6.571448927079807e+00	 1.006210043314321e+01
0	 7.285740955271015e+00	 6.714309197725896e+00	 1.005857738481265e+01
0	 7.285740955271014e+00	 6.857169568371615e+00	 1.005433269999379e+01
0	 7.285740955271012e+00	 7.000030005683424e+00	 1.004935130936435e+01
0	 7.285740955271015e+00	 7.142890476327778e+00	 1.004361814255630e+01
0	 7.428591450879008e+00	 5.714291269874074e+00	 1.006533344787342e+01
0	 7.428591450879008e+00	 5.857150240517927e+00	 1.006591547493766e+01
0	 7.428591450879009e+00	 6.000009511162681e+00	 1.006575175628713e+01
0	 7.428591450879010e+00	 6.142869048474793e+00	 1.006486262896829e+01
0	 7.428591450879006e+00	 6.285728819120711e+00	 1.006326842906643e+01
0	 7.428591450879007e+00	 6.428588789766900e+00	 1.006098949170581e+01
0	 7.428591450879006e+00	 6.571448927079810e+00	 1.005804615104963e+01
0	 7.428591450879010e+00	 6.714309197725899e+00	 1.005445874029996e+01
0	 7.428591450879007e+00	 6.857169568371616e+00	 1.005024759169783e+01
0	 7.428591450879004e+00	 7.000030005683424e+00	 1.004543303652320e+01
0	 7.428591450879007e+00	 7.142890476327777e+00	 1.004003540509497e+01
0	 7.571441979817511e+00	 5.714291269874074e+00	 1.006177299008510e+01
0	 7.571441979817510e+00	 5.857150240517928e+00	 1.006208259489882e+01
0	 7.571441979817513e+00	 6.000009511162682e+00	 1.006163308737953e+01
0	 7.571441979817510e+00	 6.142869048474791e+00	 1.006047191341451e+01
0	 7.571441979817512e+00	 6.285728819120713e+00	 1.005864651809972e+01
0	 7.571441979817511e+00	 6.428588789766900e+00	 1.005620434573978e+01
0	 7.571441979817510e+00	 6.571448927079809e+00	 1.005319283984803e+01
0	 7.571441979817512e+00	 6.714309197725898e+00	 1.004965944314647e+01
0	 7.571441979817510e+00	 6.857169568371615e+00	 1.004565159756584e+01
0	 7.571441979817511e+00	 7.000030005683425e+00	 1.004121674424553e+01
0	 7.571441979817511e+00	 7.142890476327779e+00	 1.003640232353367e+01
0	 7.714292558752280e+00	 5.714291269874075e+00	 1.005816690565394e+01
0	 7.714292558752281e+00	 5.857150240517928e+00	 1.005794287192712e+01
0	 7.714292558752280e+00	 6.000009511162681e+00	 1.005702837698758e+01
0	 7.714292558752282e+00	 6.142869048474791e+00	 1.005548968448056e+01
0	 7.714292558752282e+00	 6.285728819120712e+00	 1.005339305748800e+01
0	 7.714292558752283e+00	 6.428588789766900e+00	 1.005080475852863e+01
0	 7.714292558752281e+00	 6.571448927079809e+00	 1.004779104955788e+01
0	 7.714292558752278e+00	 6.714309197725895e+00	 1.004441819196790e+01
0	 7.714292558752278e+00	 6.857169568371614e+00	 1.004075244658765e+01
0	 7.714292558752280e+00	 7.000030005683426e+00	 1.003686007368275e+01
0	 7.714292558752279e+00	 7.142890476327776e+00	 1.003280733295559e+01
0	 7.857143204349075e+00	 5.714291269874074e+00	 1.005443536675650e+01
0	 7.857143204349072e+00	 5.857150240517928e+00	 1.005351933783834e+01
0	 7.857143204349074e+00	 6.000009511162684e+00	 1.005204439769653e+01
0	 7.857143204349075e+00	 6.142869048474791e+00	 1.005008733682734e+01
0	 7.857143204349074e+00	 6.285728819120710e+00	 1.004772494542331e+01
0	 7.857143204349075e+00	 6.428588789766899e+00	 1.004503401337332e+01
0	 7.857143204349074e+00	 6.571448927079810e+00	 1.004209133026251e+01
0	 7.857143204349074e+00	 6.714309197725897e+00	 1.003897368537231e+01
0	 7.857143204349075e+00	 6.857169568371616e+00	 1.003575786768048e+01
0	 7.857143204349074e+00	 7.000030005683427e+00	 1.003252066586103e+01
0	 7.857143204349072e+00	 7.142890476327779e+00	 1.002933886828425e+01
0	 7.999993933273643e+00	 5.714291269874074e+00	 1.005049854587479e+01
0	 7.999993933273645e+00	 5.857150240517928e+00	 1.004883502476474e+01
0	 7.999993933273643e+00	 6.000009511162682e+00	 1.004678792239090e+01
0	 7.999993933273645e+00	 6.142869048474793e+00	 1.004443626537543e+01
0	 7.999993933273643e+00	 6.285728819120711e+00	 1.004185908030100e+01
0	 7.999993933273643e+00	 6.428588789766899e+00	 1.003913539371093e+01
0	 7.999993933273644e+00	 6.571448927079809e+00	 1.003634423210915e+01
0	 7.999993933273643e+00	 6.714309197725896e+00	 1.003356462196012e+01
0	 7.999993933273642e+00	 6.857169568371615e+00	 1.003087558968896e+01
0	 7.999993933273644e+00	 7.000030005683426e+00	 1.002835616168133e+01
0	 7.999993933273645e+00	 7.142890476327779e+00	 1.002608536428349e+01
0	 8.142844762191750e+00	 5.714291269874075e+00	 1.004627661579624e+01
0	 8.142844762191748e+00	 5.857150240517927e+00	 1.004391296515507e+01
0	 8.142844762191746e+00	 6.000009511162682e+00	 1.004136572425458e+01
0	 8.142844762191750e+00	 6.142869048474792e+00	 1.003870786530507e+01
0	 8.142844762191746e+00	 6.285728819120711e+00	 1.003601236071975e+01
0	 8.142844762191748e+00	 6.428588789766899e+00	 1.003335218311469e+01
0	 8.142844762191746e+00	 6.571448927079809e+00	 1.003080030530885e+01
0	 8.142844762191748e+00	 6.714309197725897e+00	 1.002842970032409e+01
0	 8.142844762191745e+00	 6.857169568371616e+00	 1.002631334138509e+01
0	 8.142844762191748e+00	 7.000030005683426e+00	 1.002452420191940e+01
0	 8.142844762191750e+00	 7.142890476327778e+00	 1.002313525555744e+01
0	 8.285695707769140e+00	 5.714291269874073e+00	 1.004168974961373e+01
0	 8.285695707769138e+00	 5.857150240517927e+00	 1.003877619177466e+01
0	 8.285695707769142e+00	 6.000009511162682e+00	 1.003588457677073e+01
0	 8.285695707769140e+00	 6.142869048474792e+00	 1.003307353205615e+01
0	 8.285695707769142e+00	 6.285728819120712e+00	 1.003040168548154e+01
0	 8.285695707769142e+00	 6.428588789766899e+00	 1.002792766529391e+01
0	 8.285695707769140e+00	 6.571448927079808e+00	 1.002571010013660e+01
0	 8.285695707769140e+00	 6.714309197725896e+00	 1.002380761904936e+01
0	 8.285695707769140e+00	 6.857169568371617e+00	 1.002227885146827e+01
0	 8.285695707769140e+00	 7.000030005683424e+00	 1.002118242722575e+01
0	 8.285695707769138e+00	 7.142890476327778e+00	 1.002057697655059e+01
0	 8.428546786671578e+00	 5.714291269874075e+00	 1.003665812072560e+01
0	 8.428546786671578e+00	 5.857150240517927e+00	 1.003344773770530e+01
0	 8.428546786671577e+00	 6.000009511162682e+00	 1.003045125372183e+01
0	 8.428546786671578e+00	 6.142869048474793e+00	 1.002770466132819e+01
0	 8.428546786671573e+00	 6.285728819120710e+00	 1.002524395359170e+01
0	 8.428546786671577e+00	 6.428588789766899e+00	 1.002310512409405e+01
0	 8.428546786671578e+00	 6.571448927079810e+00	 1.002132416693119e+01
0	 8.428546786671577e+00	 6.714309197725897e+00	 1.001993707671343e+01
0	 8.428546786671578e+00	 6.857169568371617e+00	 1.001897984856531e+01
0	 8.428546786671577e+00	 7.000030005683426e+00	 1.001848847812572e+01
0	 8.428546786671575e+00	 7.142890476327779e+00	 1.001849896154776e+01
0	 8.571398015564816e+00	 5.714291269874074e+00	 1.003110190283558e+01
0	 8.571398015564816e+00	 5.857150240517927e+00	 1.002795063634532e+01
0	 8.571398015564816e+00	 6.000009511162681e+00	 1.002517252918972e+01
0	 8.571398015564816e+00	 6.142869048474793e+00	 1.002277264908038e+01
0	 8.571398015564814e+00	 6.285728819120712e+00	 1.002075606425885e+01
0	 8.571398015564816e+00	 6.428588789766899e+00	 1.001912784349669e+01
0	 8.571398015564817e+00	 6.571448927079810e+00	 1.001789305609533e+01
0	 8.571398015564817e+00	 6.714309197725898e+00	 1.001705677188614e+01
0	 8.571398015564816e+00	 6.857169568371617e+00	 1.001662406123041e+01
0	 8.571398015564819e+00	 7.000030005683428e+00	 1.001659999501934e+01
0	 8.571398015564816e+00	 7.142890476327779e+00	 1.001698964467406e+01
0	 7.142890476327779e+00	 7.142890476327780e+00	 1.004706210067478e+01
0	 7.142890476327778e+00	 7.285740955271013e+00	 1.004111421882982e+01
0	 7.142890476327779e+00	 7.428591450879007e+00	 1.003568710726981e+01
0	 7.142890476327778e+00	 7.571441979817512e+00	 1.003079282125894e+01
0	 7.142890476327777e+00	 7.714292558752281e+00	 1.002644341556705e+01
0	 7.142890476327778e+00	 7.857143204349074e+00	 1.002265094446949e+01
0	 7.142890476327777e+00	 7.999993933273643e+00	 1.001942746174725e+01
0	 7.142890476327778e+00	 8.142844762191746e+00	 1.001678502068686e+01
0	 7.142890476327778e+00	 8.285695707769140e+00	 1.001473567408044e+01
0	 7.142890476327778e+00	 8.428546786671575e+00	 1.001329147422569e+01
0	 7.142890476327779e+00	 8.571398015564816e+00	 1.001246447292591e+01
0	 7.285740955271015e+00	 7.142890476327778e+00	 1.004361814255630e+01
0	 7.285740955271015e+00	 7.285740955271015e+00	 1.003783259939823e+01
0	 7.285740955271015e+00	 7.428591450879008e+00	 1.003269073552549e+01
0	 7.285740955271013e+00	 7.571441979817510e+00	 1.002817374706840e+01
0	 7.285740955271013e+00	 7.714292558752281e+00	 1.002426282967968e+01
0	 7.285740955271014e+00	 7.857143204349073e+00	 1.002093917853443e+01
0	 7.285740955271014e+00	 7.999993933273645e+00	 1.001818398833013e+01
0	 7.285740955271014e+00	 8.142844762191746e+00	 1.001597845328664e+01
0	 7.285740955271014e+00	 8.285695707769140e+00	 1.001430376714622e+01
0	 7.285740955271015e+00	 8.428546786671577e+00	 1.001314112317352e+01
0	 7.285740955271014e+00	 8.571398015564816e+00	 1.001247171415557e+01
0	 7.428591450879007e+00	 7.142890476327777e+00	 1.004003540509497e+01
0	 7.428591450879008e+00	 7.285740955271015e+00	 1.003470981747526e+01
0	 7.428591450879009e+00	 7.428591450879008e+00	 1.003006813980991e+01
0	 7.428591450879008e+00	 7.571441979817513e+00	 1.002606701378444e+01
0	 7.428591450879008e+00	 7.714292558752281e+00	 1.002266308066182e+01
0	 7.428591450879005e+00	 7.857143204349073e+00	 1.001981298128258e+01
0	 7.428591450879008e+00	 7.999993933273645e+00	 1.001747335606482e+01
0	 7.428591450879006e+00	 8.142844762191748e+00	 1.001560084500411e+01
0	 7.428591450879005e+00	 8.285695707769140e+00	 1.001415208767357e+01
0	 7.428591450879007e+00	 8.428546786671578e+00	 1.001308372322387e+01
0	 7.428591450879007e+00	 8.571398015564816e+00	 1.001235239038320e+01
0	 7.571441979817511e+00	 7.142890476327779e+00	 1.003640232353367e+01
0	 7.571441979817511e+00	 7.285740955271014e+00	 1.003176251424189e+01
0	 7.571441979817512e+00	 7.428591450879009e+00	 1.002777809845260e+01
0	 7.571441979817508e+00	 7.571441979817509e+00	 1.002438746811373e+01
0	 7.571441979817512e+00	 7.714292558752281e+00	 1.002152901483443e+01
0	 7.571441979817510e+00	 7.857143204349073e+00	 1.001914112988515e+01
0	 7.571441979817513e+00	 7.999993933273644e+00	 1.001716220419754e+01
0	 7.571441979817511e+00	 8.142844762191746e+00	 1.001553062836456e+01
0	 7.571441979817508e+00	 8.285695707769140e+00	 1.001418479264036e+01
0	 7.571441979817509e+00	 8.428546786671577e+00	 1.001306308694040e+01
0	 7.571441979817510e+00	 8.571398015564814e+00	 1.001210390084135e+01
0	 7.714292558752279e+00	 7.142890476327776e+00	 1.003280733295559e+01
0	 7.714292558752280e+00	 7.285740955271013e+00	 1.002900733070718e+01
0	 7.714292558752281e+00	 7.428591450879006e+00	 1.002577938961846e+01
0	 7.714292558752281e+00	 7.571441979817512e+00	 1.002304995662086e+01
0	 7.714292558752278e+00	 7.714292558752279e+00	 1.002074547840965e+01
0	 7.714292558752280e+00	 7.857143204349073e+00	 1.001879240144391e+01
0	 7.714292558752279e+00	 7.999993933273642e+00	 1.001711717194649e+01
0	 7.714292558752280e+00	 8.142844762191750e+00	 1.001564623590407e+01
0	 7.714292558752282e+00	 8.285695707769142e+00	 1.001430603906715e+01
0	 7.714292558752280e+00	 8.428546786671577e+00	 1.001302302694997e+01
0	 7.714292558752279e+00	 8.571398015564812e+00	 1.001172364483067e+01
0	 7.857143204349072e+00	 7.142890476327779e+00	 1.002933886828425e+01
0	 7.857143204349074e+00	 7.285740955271014e+00	 1.002646090770833e+01
0	 7.857143204349072e+00	 7.428591450879005e+00	 1.002403079130788e+01
0	 7.857143204349074e+00	 7.571441979817513e+00	 1.002196932572837e+01
0	 7.857143204349072e+00	 7.714292558752279e+00	 1.002019731749069e+01
0	 7.857143204349074e+00	 7.857143204349075e+00	 1.001863557299124e+01
0	 7.857143204349075e+00	 7.999993933273645e+00	 1.001720489850176e+01
0	 7.857143204349073e+00	 8.142844762191746e+00	 1.001582610016951e+01
0	 7.857143204349073e+00	 8.285695707769138e+00	 1.001441998401712e+01
0	 7.857143204349073e+00	 8.428546786671575e+00	 1.001290735594272e+01
0	 7.857143204349072e+00	 8.571398015564814e+00	 1.001120902171979e+01
0	 7.999993933273645e+00	 7.142890476327779e+00	 1.002608536428349e+01
0	 7.999993933273643e+00	 7.285740955271014e+00	 1.002413988591064e+01
0	 7.999993933273646e+00	 7.428591450879008e+00	 1.002249108135672e+01
0	 7.999993933273642e+00	 7.571441979817511e+00	 1.002106042171667e+01
0	 7.999993933273643e+00	 7.714292558752279e+00	 1.001976937807185e+01
0	 7.999993933273644e+00	 7.857143204349075e+00	 1.001853942149005e+01
0	 7.999993933273644e+00	 7.999993933273643e+00	 1.001729202302542e+01
0	 7.999993933273646e+00	 8.142844762191748e+00	 1.001594865371849e+01
0	 7.999993933273644e+00	 8.285695707769142e+00	 1.001443078459622e+01
0	 7.999993933273643e+00	 8.428546786671577e+00	 1.001265988667195e+01
0	 7.999993933273645e+00	 8.571398015564817e+00	 1.001055743094538e+01
0	 8.142844762191750e+00	 7.142890476327778e+00	 1.002313525555744e+01
0	 8.142844762191750e+00	 7.285740955271015e+00	 1.002206090580754e+01
0	 8.142844762191748e+00	 7.428591450879006e+00	 1.002111903743625e+01
0	 8.142844762191746e+00	 7.571441979817512e+00	 1.002023809072410e+01
0	 8.142844762191748e+00	 7.714292558752281e+00	 1.001934650603852e+01
0	 8.142844762191748e+00	 7.857143204349073e+00	 1.001837272383388e+01
0	 8.142844762191748e+00	 7.999993933273645e+00	 1.001724518465145e+01
0	 8.142844762191746e+00	 8.142844762191746e+00	 1.001589232911947e+01
0	 8.142844762191746e+00	 8.285695707769138e+00	 1.001424259795306e+01
0	 8.142844762191748e+00	 8.428546786671577e+00	 1.001222443195429e+01
0	 8.142844762191750e+00	 8.571398015564817e+00	 1.000976627201212e+01
0	 8.285695707769138e+00	 7.142890476327778e+00	 1.002057697655059e+01
0	 8.285695707769140e+00	 7.285740955271015e+00	 1.002024060772052e+01
0	 8.285695707769142e+00	 7.428591450879006e+00	 1.001987343705323e+01
0	 8.285695707769143e+00	 7.571441979817512e+00	 1.001941717874695e+01
0	 8.285695707769140e+00	 7.714292558752280e+00	 1.001881354716719e+01
0	 8.285695707769140e+00	 7.857143204349074e+00	 1.001800425684678e+01
0	 8.285695707769142e+00	 7.999993933273644e+00	 1.001693102248582e+01
0	 8.285695707769143e+00	 8.142844762191748e+00	 1.001553555895164e+01
0	 8.285695707769140e+00	 8.285695707769140e+00	 1.001375958127892e+01
0	 8.285695707769138e+00	 8.428546786671575e+00	 1.001154480466955e+01
0	 8.285695707769142e+00	 8.571398015564814e+00	 1.000883294449275e+01
0	 8.428546786671575e+00	 7.142890476327779e+00	 1.001849896154776e+01
0	 8.428546786671575e+00	 7.285740955271014e+00	 1.001869563179929e+01
0	 8.428546786671578e+00	 7.428591450879006e+00	 1.001871305754986e+01
0	 8.428546786671577e+00	 7.571441979817509e+00	 1.001851253163937e+01
0	 8.428546786671578e+00	 7.714292558752282e+00	 1.001805534712545e+01
0	 8.428546786671577e+00	 7.857143204349073e+00	 1.001730279728344e+01
0	 8.428546786671578e+00	 7.999993933273643e+00	 1.001621617560637e+01
0	 8.428546786671577e+00	 8.142844762191748e+00	 1.001475677580500e+01
0	 8.428546786671578e+00	 8.285695707769140e+00	 1.001288589180776e+01
0	 8.428546786671578e+00	 8.428546786671578e+00	 1.001056481776080e+01
0	 8.428546786671580e+00	 8.571398015564817e+00	 1.000775484802797e+01
0	 8.571398015564816e+00	 7.142890476327779e+00	 1.001698964467406e+01
0	 8.571398015564816e+00	 7.285740955271013e+00	 1.001744261802161e+01
0	 8.571398015564816e+00	 7.428591450879008e+00	 1.001759667610379e+01
0	 8.571398015564814e+00	 7.571441979817510e+00	 1.001743899511349e+01
0	 8.571398015564814e+00	 7.714292558752279e+00	 1.001695675147199e+01
0	 8.571398015564814e+00	 7.857143204349073e+00	 1.001613712182908e+01
0	 8.571398015564816e+00	 7.999993933273642e+00	 1.001496728306297e+01
0	 8.571398015564817e+00	 8.142844762191748e+00	 1.001343441228031e+01
0	 8.571398015564816e+00	 8.285695707769140e+00	 1.001152568681625e+01
0	 8.571398015564817e+00	 8.428546786671578e+00	 1.000922828423434e+01
0	 8.571398015564816e+00	 8.571398015564816e+00	 1.000652938232655e+01
0	 7.142890476327779e+00	 8.571398015564816e+00	 1.001246447292591e+01
0	 7.142890476327777e+00	 8.714259388995400e+00	 1.001188475822768e+01
0	 7.142890476327779e+00	 8.857120812436387e+00	 1.001114390209203e+01
0	 7.142890476327777e+00	 8.999982169218281e+00	 1.001019607365620e+01
0	 7.142890476327777e+00	 9.142843342671602e+00	 1.000899544187008e+01
0	 7.142890476327778e+00	 9.285704216126854e+00	 1.000749617549619e+01
0	 7.142890476327778e+00	 9.428564672914549e+00	 1.000565244310953e+01
0	 7.142890476327777e+00	 9.571424596365201e+00	 1.000341841309768e+01
0	 7.142890476327778e+00	 9.714283869809321e+00	 1.000074825366056e+01
0	 7.142890476327778e+00	 9.857142376577414e+00	 9.997596132810683e+00
0	 7.142890476327777e+00	 1.000000000000000e+01	 9.993916218372819e+00
0	 7.285740955271014e+00	 8.571398015564816e+00	 1.001247171415558e+01
0	 7.285740955271014e+00	 8.714259388995401e+00	 1.001191845191322e+01
0	 7.285740955271013e+00	 8.857120812436381e+00	 1.001111239078964e+01
0	 7.285740955271013e+00	 8.999982169218281e+00	 1.001004684674952e+01
0	 7.285740955271015e+00	 9.142843342671602e+00	 1.000871513557032e+01
0	 7.285740955271014e+00	 9.285704216126851e+00	 1.000711057284217e+01
0	 7.285740955271014e+00	 9.428564672914547e+00	 1.000522647396790e+01
0	 7.285740955271016e+00	 9.571424596365199e+00	 1.000305615416301e+01
0	 7.285740955271012e+00	 9.714283869809320e+00	 1.000059292845549e+01
0	 7.285740955271016e+00	 9.857142376577416e+00	 9.997830111685991e+00
0	 7.285740955271013e+00	 1.000000000000000e+01	 9.994761018507738e+00
0	 7.428591450879007e+00	 8.571398015564816e+00	 1.001235239038320e+01
0	 7.428591450879005e+00	 8.714259388995398e+00	 1.001163343096487e+01
0	 7.428591450879007e+00	 8.857120812436387e+00	 1.001064747511978e+01
0	 7.428591450879007e+00	 8.999982169218278e+00	 1.000941897260044e+01
0	 7.428591450879006e+00	 9.142843342671600e+00	 1.000797237324976e+01
0	 7.428591450879006e+00	 9.285704216126851e+00	 1.000633212700105e+01
0	 7.428591450879010e+00	 9.428564672914552e+00	 1.000452268387798e+01
0	 7.428591450879008e+00	 9.571424596365199e+00	 1.000256849399452e+01
0	 7.428591450879006e+00	 9.714283869809321e+00	 1.000049400755493e+01
0	 7.428591450879007e+00	 9.857142376577416e+00	 9.998323674853804e+00
0	 7.428591450879007e+00	 1.000000000000000e+01	 9.996081946275883e+00
0	 7.571441979817510e+00	 8.571398015564814e+00	 1.001210390084135e+01
0	 7.571441979817513e+00	 8.714259388995401e+00	 1.001108001083498e+01
0	 7.571441979817510e+00	 8.857120812436385e+00	 1.000983710642615e+01
0	 7.571441979817514e+00	 8.999982169218283e+00	 1.000842275819841e+01
0	 7.571441979817510e+00	 9.142843342671599e+00	 1.000688453730609e+01
0	 7.571441979817511e+00	 9.285704216126852e+00	 1.000527001547425e+01
0	 7.571441979817511e+00	 9.428564672914549e+00	 1.000362676499863e+01
0	 7.571441979817511e+00	 9.571424596365203e+00	 1.000200235874563e+01
0	 7.571441979817509e+00	 9.714283869809316e+00	 1.000044437015241e+01
0	 7.571441979817510e+00	 9.857142376577416e+00	 9.999000373226696e+00
0	 7.571441979817512e+00	 1.000000000000000e+01	 9.997717942547110e+00
0	 7.714292558752279e+00	 8.571398015564812e+00	 1.001172364483067e+01
0	 7.714292558752281e+00	 8.714259388995400e+00	 1.001030850703023e+01
0	 7.714292558752277e+00	 8.857120812436383e+00	 1.000876923607845e+01
0	 7.714292558752280e+00	 8.999982169218278e+00	 1.000716851052167e+01
0	 7.714292558752279e+00	 9.142843342671600e+00	 1.000556901008514e+01
0	 7.714292558752283e+00	 9.285704216126856e+00	 1.000403341567292e+01
0	 7.714292558752280e+00	 9.428564672914549e+00	 1.000262440936793e+01
0	 7.714292558752281e+00	 9.571424596365201e+00	 1.000140467443197e+01
0	 7.714292558752281e+00	 9.714283869809320e+00	 1.000043689530564e+01
0	 7.714292558752281e+00	 9.857142376577420e+00	 9.999783757608542e+00
0	 7.714292558752281e+00	 1.000000000000000e+01	 9.999507948139190e+00
0	 7.857143204349072e+00	 8.571398015564814e+00	 1.001120902171979e+01
0	 7.857143204349072e+00	 8.714259388995398e+00	 1.000936923511154e+01
0	 7.857143204349073e+00	 8.857120812436385e+00	 1.000753181547237e+01
0	 7.857143204349073e+00	 8.999982169218281e+00	 1.000576653653720e+01
0	 7.857143204349072e+00	 9.142843342671599e+00	 1.000414317388082e+01
0	 7.857143204349073e+00	 9.285704216126851e+00	 1.000273150491798e+01
0	 7.857143204349073e+00	 9.428564672914549e+00	 1.000160130890329e+01
0	 7.857143204349074e+00	 9.571424596365203e+00	 1.000082236693137e+01
0	 7.857143204349073e+00	 9.714283869809320e+00	 1.000046446193672e+01
0	 7.857143204349073e+00	 9.857142376577416e+00	 1.000059737869408e+01
0	 7.857143204349074e+00	 1.000000000000000e+01	 1.000129090381812e+01
0	 7.999993933273645e+00	 8.571398015564817e+00	 1.001055743094538e+01
0	 7.999993933273643e+00	 8.714259388995398e+00	 1.000831251069418e+01
0	 7.999993933273643e+00	 8.857120812436383e+00	 1.000621279602965e+01
0	 7.999993933273644e+00	 8.999982169218283e+00	 1.000432714320069e+01
0	 7.999993933273642e+00	 9.142843342671599e+00	 1.000272441093521e+01
0	 7.999993933273645e+00	 9.285704216126854e+00	 1.000147346044012e+01
0	 7.999993933273643e+00	 9.428564672914550e+00	 1.000064315540135e+01
0	 7.999993933273645e+00	 9.571424596365203e+00	 1.000030236198393e+01
0	 7.999993933273643e+00	 9.714283869809320e+00	 1.000051994883205e+01
0	 7.999993933273643e+00	 9.857142376577412e+00	 1.000136478706911e+01
0	 7.999993933273645e+00	 1.000000000000000e+01	 1.000290575029799e+01
0	 8.142844762191750e+00	 8.571398015564817e+00	 1.000976627201212e+01
0	 8.142844762191745e+00	 8.714259388995398e+00	 1.000718864944769e+01
0	 8.142844762191748e+00	 8.857120812436385e+00	 1.000490012919799e+01
0	 8.142844762191746e+00	 8.999982169218280e+00	 1.000296063745664e+01
0	 8.142844762191743e+00	 9.142843342671600e+00	 1.000143010343852e+01
0	 8.142844762191748e+00	 9.285704216126852e+00	 1.000036845937983e+01
0	 8.142844762191746e+00	 9.428564672914547e+00	 9.999835640538031e+00
0	 8.142844762191748e+00	 9.571424596365199e+00	 9.999891585192051e+00
0	 8.142844762191746e+00	 9.714283869809320e+00	 1.000059623464221e+01
0	 8.142844762191748e+00	 9.857142376577416e+00	 1.000200953321052e+01
0	 8.142844762191748e+00	 1.000000000000000e+01	 1.000419142824079e+01
0	 8.285695707769142e+00	 8.571398015564814e+00	 1.000883294449274e+01
0	 8.285695707769142e+00	 8.714259388995401e+00	 1.000604796709591e+01
0	 8.285695707769142e+00	 8.857120812436385e+00	 1.000368176645110e+01
0	 8.285695707769142e+00	 8.999982169218281e+00	 1.000177732623824e+01
0	 8.285695707769138e+00	 9.142843342671600e+00	 1.000037763352909e+01
0	 8.285695707769140e+00	 9.285704216126851e+00	 9.999525678787322e+00
0	 8.285695707769142e+00	 9.428564672914549e+00	 9.999264455868532e+00
0	 8.285695707769140e+00	 9.571424596365203e+00	 9.999636962020288e+00
0	 8.285695707769142e+00	 9.714283869809321e+00	 1.000068619788219e+01
0	 8.285695707769142e+00	 9.857142376577418e+00	 1.000245516748628e+01
0	 8.285695707769140e+00	 9.999999999999998e+00	 1.000498687825688e+01
0	 8.428546786671580e+00	 8.571398015564817e+00	 1.000775484802797e+01
0	 8.428546786671577e+00	 8.714259388995400e+00	 1.000494077941701e+01
0	 8.428546786671577e+00	 8.857120812436385e+00	 1.000264565928872e+01
0	 8.428546786671578e+00	 8.999982169218281e+00	 1.000088751646742e+01
0	 8.428546786671577e+00	 9.142843342671597e+00	 9.999684383293353e+00
0	 8.428546786671575e+00	 9.285704216126849e+00	 9.999054295622644e+00
0	 8.428546786671578e+00	 9.428564672914550e+00	 9.999015292827339e+00
0	 8.428546786671577e+00	 9.571424596365201e+00	 9.999585417795485e+00
0	 8.428546786671578e+00	 9.714283869809321e+00	 1.000078271693131e+01
0	 8.428546786671577e+00	 9.857142376577418e+00	 1.000262524015528e+01
0	 8.428546786671577e+00	 1.000000000000000e+01	 1.000513104090446e+01
0	 8.571398015564816e+00	 8.571398015564816e+00	 1.000652938232655e+01
0	 8.571398015564817e+00	 8.714259388995400e+00	 1.000391740224343e+01
0	 8.571398015564814e+00	 8.857120812436385e+00	 1.000187975923656e+01
0	 8.571398015564817e+00	 8.999982169218281e+00	 1.000040151505490e+01
0	 8.571398015564816e+00	 9.142843342671600e+00	 9.999467734765931e+00
0	 8.571398015564816e+00	 9.285704216126851e+00	 9.999063486755539e+00
0	 8.571398015564816e+00	 9.428564672914549e+00	 9.999173842728149e+00
0	 8.571398015564816e+00	 9.571424596365201e+00	 9.999783877706761e+00
0	 8.571398015564816e+00	 9.714283869809321e+00	 1.000087867003305e+01
0	 8.571398015564816e+00	 9.857142376577418e+00	 1.000244330136757e+01
0	 8.571398015564816e+00	 1.000000000000000e+01	 1.000446285668992e+01
0	 8.571398015564816e+00	 0.000000000000000e+00	 1.007242664340722e+01
0	 8.571398015564816e+00	 1.428576234225853e-01	 1.003552202011336e+01
0	 8.571398015564816e+00	 2.857161301906819e-01	 1.000358059131312e+01
0	 8.571398015564816e+00	 4.285754036348007e-01	 9.976741937783785e+00
0	 8.571398015564812e+00	 5.714353270854530e-01	 9.955145670435439e+00
0	 8.571398015564816e+00	 7.142957838731496e-01	 9.938931430308882e+00
0	 8.571398015564817e+00	 8.571566573284017e-01	 9.928238888573986e+00
0	 8.571398015564816e+00	 1.000017830781720e+00	 9.923207746528274e+00
0	 8.571398015564816e+00	 1.142879187563616e+00	 9.923977735596019e+00
0	 8.571398015564814e+00	 1.285740611004601e+00	 9.930688617327576e+00
0	 8.571398015564817e+00	 1.428601984435185e+00	 9.943480183399204e+00
0	 8.714259388995400e+00	 0.000000000000000e+00	 1.006110205770847e+01
0	 8.714259388995400e+00	 1.428576234225853e-01	 1.002540630291811e+01
0	 8.714259388995401e+00	 2.857161301906819e-01	 9.994688912713730e+00
0	 8.714259388995398e+00	 4.285754036348007e-01	 9.969032891796305e+00
0	 8.714259388995398e+00	 5.714353270854530e-01	 9.948521273890366e+00
0	 8.714259388995400e+00	 7.142957838731496e-01	 9.933237121741962e+00
0	 8.714259388995400e+00	 8.571566573284018e-01	 9.923263527117061e+00
0	 8.714259388995405e+00	 1.000017830781720e+00	 9.918683610800247e+00
0	 8.714259388995401e+00	 1.142879187563616e+00	 9.919580522593797e+00
0	 8.714259388995398e+00	 1.285740611004601e+00	 9.926037441317050e+00
0	 8.714259388995401e+00	 1.428601984435185e+00	 9.938137574806264e+00
0	 8.857120812436385e+00	 0.000000000000000e+00	 1.003034378299109e+01
0	 8.857120812436383e+00	 1.428576234225852e-01	 1.000173976695279e+01
0	 8.857120812436387e+00	 2.857161301906819e-01	 9.977299623167076e+00
0	 8.857120812436387e+00	 4.285754036348008e-01	 9.957055297262608e+00
0	 8.857120812436385e+00	 5.714353270854532e-01	 9.941038758623659e+00
0	 8.857120812436385e+00	 7.142957838731496e-01	 9.929282000388374e+00
0	 8.857120812436385e+00	 8.571566573284017e-01	 9.921817039447546e+00
0	 8.857120812436385e+00	 1.000017830781720e+00	 9.918675916443473e+00
0	 8.857120812436385e+00	 1.142879187563616e+00	 9.919890695769251e+00
0	 8.857120812436381e+00	 1.285740611004601e+00	 9.925493465568335e+00
0	 8.857120812436387e+00	 1.428601984435185e+00	 9.935516337734299e+00
0	 8.999982169218280e+00	 0.000000000000000e+00	 9.986697776235346e+00
0	 8.999982169218283e+00	 1.428576234225853e-01	 9.968867227904656e+00
0	 8.999982169218281e+00	 2.857161301906819e-01	 9.953864021215876e+00
0	 8.999982169218280e+00	 4.285754036348006e-01	 9.941674549636517e+00
0	 8.999982169218281e+00	 5.714353270854531e-01	 9.932285222470432e+00
0	 8.999982169218281e+00	 7.142957838731495e-01	 9.925682464856779e+00
0	 8.999982169218281e+00	 8.571566573284017e-01	 9.921852717769163e+00
0	 8.999982169218280e+00	 1.000017830781720e+00	 9.920782438014919e+00
0	 8.999982169218283e+00	 1.142879187563616e+00	 9.922458098234667e+00
0	 8.999982169218283e+00	 1.285740611004601e+00	 9.926866186901981e+00
0	 8.999982169218283e+00	 1.428601984435185e+00	 9.933993208323351e+00
0	 9.142843342671599e+00	 0.000000000000000e+00	 9.936709994503662e+00
0	 9.142843342671599e+00	 1.428576234225852e-01	 9.931133500161483e+00
0	 9.142843342671595e+00	 2.857161301906818e-01	 9.926833402814744e+00
0	 9.142843342671599e+00	 4.285754036348007e-01	 9.923756040614819e+00
0	 9.142843342671599e+00	 5.714353270854531e-01	 9.921847758486583e+00
0	 9.142843342671600e+00	 7.142957838731496e-01	 9.921054908128010e+00
0	 9.142843342671602e+00	 8.571566573284016e-01	 9.921323848009774e+00
0	 9.142843342671600e+00	 1.000017830781720e+00	 9.922600943375066e+00
0	 9.142843342671599e+00	 1.142879187563616e+00	 9.924832566239390e+00
0	 9.142843342671600e+00	 1.285740611004601e+00	 9.927965095390444e+00
0	 9.142843342671602e+00	 1.428601984435186e+00	 9.931944916388176e+00
0	 9.285704216126852e+00	 0.000000000000000e+00	 9.886926394940707e+00
0	 9.285704216126851e+00	 1.428576234225852e-01	 9.892883396811698e+00
0	 9.285704216126849e+00	 2.857161301906819e-01	 9.898659061330171e+00
0	 9.285704216126851e+00	 4.285754036348007e-01	 9.904165158137340e+00
0	 9.285704216126851e+00	 5.714353270854530e-01	 9.909313454948892e+00
0	 9.285704216126852e+00	 7.142957838731496e-01	 9.914015717555174e+00
0	 9.285704216126854e+00	 8.571566573284018e-01	 9.918183709821433e+00
0	 9.285704216126852e+00	 1.000017830781720e+00	 9.921729193687888e+00
0	 9.285704216126851e+00	 1.142879187563616e+00	 9.924563929169896e+00
0	 9.285704216126851e+00	 1.285740611004601e+00	 9.926599674358073e+00
0	 9.285704216126852e+00	 1.428601984435185e+00	 9.927748185418356e+00
0	 9.428564672914549e+00	 0.000000000000000e+00	 9.843892934773550e+00
0	 9.428564672914549e+00	 1.428576234225853e-01	 9.858461729644416e+00
0	 9.428564672914547e+00	 2.857161301906819e-01	 9.871792287540634e+00
0	 9.428564672914550e+00	 4.285754036348007e-01	 9.883767286386929e+00
0	 9.428564672914549e+00	 5.714353270854532e-01	 9.894269395354891e+00
0	 9.428564672914550e+00	 7.142957838731496e-01	 9.903181274863599e+00
0	 9.428564672914549e+00	 8.571566573284016e-01	 9.910385576580271e+00
0	 9.428564672914550e+00	 1.000017830781720e+00	 9.915764943420729e+00
0	 9.428564672914549e+00	 1.142879187563616e+00	 9.919202009549663e+00
0	 9.428564672914549e+00	 1.285740611004600e+00	 9.920579400381055e+00
0	 9.428564672914550e+00	 1.428601984435186e+00	 9.919779732578219e+00
0	 9.571424596365201e+00	 0.000000000000000e+00	 9.814155571311776e+00
0	 9.571424596365205e+00	 1.428576234225853e-01	 9.832213309149555e+00
0	 9.571424596365201e+00	 2.857161301906819e-01	 9.848684369636544e+00
0	 9.571424596365203e+00	 4.285754036348007e-01	 9.863427805789405e+00
0	 9.571424596365201e+00	 5.714353270854530e-01	 9.876302658422871e+00
0	 9.571424596365201e+00	 7.142957838731496e-01	 9.887167956150689e+00
0	 9.571424596365203e+00	 8.571566573284018e-01	 9.895882715386485e+00
0	 9.571424596365199e+00	 1.000017830781720e+00	 9.902305940344283e+00
0	 9.571424596365201e+00	 1.142879187563616e+00	 9.906296623039109e+00
0	 9.571424596365203e+00	 1.285740611004601e+00	 9.907713743287299e+00
0	 9.571424596365201e+00	 1.428601984435185e+00	 9.906416268706678e+00
0	 9.714283869809320e+00	 0.000000000000000e+00	 9.804260261947608e+00
0	 9.714283869809321e+00	 1.428576234225853e-01	 9.818482944517807e+00
0	 9.714283869809321e+00	 2.857161301906819e-01	 9.831786593220274e+00
0	 9.714283869809318e+00	 4.285754036348007e-01	 9.844012093013479e+00
0	 9.714283869809320e+00	 5.714353270854531e-01	 9.855000318091708e+00
0	 9.714283869809320e+00	 7.142957838731496e-01	 9.864592131885793e+00
0	 9.714283869809320e+00	 8.571566573284015e-01	 9.872628387063937e+00
0	 9.714283869809321e+00	 1.000017830781720e+00	 9.878949925532261e+00
0	 9.714283869809320e+00	 1.142879187563616e+00	 9.883397578435282e+00
0	 9.714283869809320e+00	 1.285740611004601e+00	 9.885812166156180e+00
0	 9.714283869809320e+00	 1.428601984435185e+00	 9.886034498317079e+00
0	 9.857142376577416e+00	 0.000000000000000e+00	 9.820752964156025e+00
0	 9.857142376577416e+00	 1.428576234225853e-01	 9.821615443640725e+00
0	 9.857142376577416e+00	 2.857161301906819e-01	 9.823550241306023e+00
0	 9.857142376577418e+00	 4.285754036348007e-01	 9.826385520970650e+00
0	 9.857142376577416e+00	 5.714353270854531e-01	 9.829949443520693e+00
0	 9.857142376577416e+00	 7.142957838731495e-01	 9.834070166909910e+00
0	 9.857142376577418e+00	 8.571566573284017e-01	 9.838575846160085e+00
0	 9.857142376577418e+00	 1.000017830781720e+00	 9.843294633361170e+00
0	 9.857142376577416e+00	 1.142879187563616e+00	 9.848054677671559e+00
0	 9.857142376577416e+00	 1.285740611004601e+00	 9.852684125318220e+00
0	 9.857142376577418e+00	 1.428601984435185e+00	 9.857011119596869e+00
0	 1.000000000000000e+01	 0.000000000000000e+00	 9.870179635494885e+00
0	 1.000000000000000e+01	 1.428576234225853e-01	 9.845955613110700e+00
0	 1.000000000000000e+01	 2.857161301906819e-01	 9.826426594319845e+00
0	 9.999999999999998e+00	 4.285754036348007e-01	 9.811413458814958e+00
0	 1.000000000000000e+01	 5.714353270854531e-01	 9.800737099089208e+00
0	 1.000000000000000e+01	 7.142957838731496e-01	 9.794218420435431e+00
0	 1.000000000000000e+01	 8.571566573284017e-01	 9.791678340945467e+00
0	 1.000000000000000e+01	 1.000017830781720e+00	 9.792937791509836e+00
0	 1.000000000000000e+01	 1.142879187563616e+00	 9.797817715817306e+00
0	 1.000000000000000e+01	 1.285740611004601e+00	 9.806139070354757e+00
0	 1.000000000000000e+01	 1.428601984435185e+00	 9.817722824407250e+00
0	 8.571398015564817e+00	 1.428601984435185e+00	 9.943480183399203e+00
0	 8.571398015564816e+00	 1.571453213328422e+00	 9.958463897071095e+00
0	 8.571398015564817e+00	 1.714304292230859e+00	 9.971647536926149e+00
0	 8.571398015564814e+00	 1.857155237808251e+00	 9.983012056771091e+00
0	 8.571398015564816e+00	 2.000006066726355e+00	 9.992538411709898e+00
0	 8.571398015564817e+00	 2.142856795650926e+00	 1.000020755814386e+01
0	 8.571398015564816e+00	 2.285707441247718e+00	 1.000600045377152e+01
0	 8.571398015564816e+00	 2.428558020182488e+00	 1.000989805758878e+01
0	 8.571398015564814e+00	 2.571408549120992e+00	 1.001188132988881e+01
0	 8.571398015564816e+00	 2.714259044728984e+00	 1.001193123226216e+01
0	 8.571398015564814e+00	 2.857109523672223e+00	 1.001002872759666e+01
0	 8.714259388995401e+00	 1.428601984435185e+00	 9.938137574806262e+00
0	 8.714259388995401e+00	 1.571453213328423e+00	 9.952125175357608e+00
0	 8.714259388995400e+00	 1.714304292230859e+00	 9.964217422842616e+00
0	 8.714259388995401e+00	 1.857155237808252e+00	 9.974453799807582e+00
0	 8.714259388995400e+00	 2.000006066726356e+00	 9.982873790016345e+00
0	 8.714259388995400e+00	 2.142856795650926e+00	 9.989516878450313e+00
0	 8.714259388995398e+00	 2.285707441247717e+00	 9.994422551308469e+00
0	 8.714259388995400e+00	 2.428558020182488e+00	 9.997630296007406e+00
0	 8.714259388995400e+00	 2.571408549120992e+00	 9.999179601181314e+00
0	 8.714259388995400e+00	 2.714259044728985e+00	 9.999109956681981e+00
0	 8.714259388995398e+00	 2.857109523672221e+00	 9.997460853578842e+00
0	 8.857120812436387e+00	 1.428601984435185e+00	 9.935516337734299e+00
0	 8.857120812436385e+00	 1.571453213328422e+00	 9.946904019309120e+00
0	 8.857120812436385e+00	 1.714304292230859e+00	 9.956636435219906e+00
0	 8.857120812436383e+00	 1.857155237808251e+00	 9.964795971594077e+00
0	 8.857120812436387e+00	 2.000006066726355e+00	 9.971465015499032e+00
0	 8.857120812436385e+00	 2.142856795650926e+00	 9.976725954942236e+00
0	 8.857120812436385e+00	 2.285707441247718e+00	 9.980661178871113e+00
0	 8.857120812436383e+00	 2.428558020182488e+00	 9.983353077173174e+00
0	 8.857120812436383e+00	 2.571408549120992e+00	 9.984884040675938e+00
0	 8.857120812436383e+00	 2.714259044728984e+00	 9.985336461146989e+00
0	 8.857120812436381e+00	 2.857109523672222e+00	 9.984792731293942e+00
0	 8.999982169218283e+00	 1.428601984435185e+00	 9.933993208323344e+00
0	 8.999982169218283e+00	 1.571453213328422e+00	 9.941845542479303e+00
0	 8.999982169218281e+00	 1.714304292230859e+00	 9.948512855177396e+00
0	 8.999982169218280e+00	 1.857155237808252e+00	 9.954104810560024e+00
0	 8.999982169218281e+00	 2.000006066726355e+00	 9.958731073307828e+00
0	 8.999982169218281e+00	 2.142856795650926e+00	 9.962501308639734e+00
0	 8.999982169218283e+00	 2.285707441247717e+00	 9.965525182312913e+00
0	 8.999982169218283e+00	 2.428558020182489e+00	 9.967912360622790e+00
0	 8.999982169218281e+00	 2.571408549120993e+00	 9.969772510403105e+00
0	 8.999982169218281e+00	 2.714259044728985e+00	 9.971215299025864e+00
0	 8.999982169218281e+00	 2.857109523672223e+00	 9.972350394401355e+00
0	 9.142843342671602e+00	 1.428601984435186e+00	 9.931944916388176e+00
0	 9.142843342671599e+00	 1.571453213328422e+00	 9.935994852837114e+00
0	 9.142843342671600e+00	 1.714304292230858e+00	 9.939454959248705e+00
0	 9.142843342671600e+00	 1.857155237808251e+00	 9.942446551729883e+00
0	 9.142843342671600e+00	 2.000006066726355e+00	 9.945090946473524e+00
0	 9.142843342671599e+00	 2.142856795650925e+00	 9.947509459758473e+00
0	 9.142843342671597e+00	 2.285707441247717e+00	 9.949823407949516e+00
0	 9.142843342671600e+00	 2.428558020182488e+00	 9.952154107497392e+00
0	 9.142843342671600e+00	 2.571408549120992e+00	 9.954622874938817e+00
0	 9.142843342671599e+00	 2.714259044728984e+00	 9.957351026896472e+00
0	 9.142843342671599e+00	 2.857109523672221e+00	 9.960459880078979e+00
0	 9.285704216126852e+00	 1.428601984435185e+00	 9.927748185418359e+00
0	 9.285704216126851e+00	 1.571453213328422e+00	 9.928397052766888e+00
0	 9.285704216126851e+00	 1.714304292230859e+00	 9.929071019381750e+00
0	 9.285704216126851e+00	 1.857155237808251e+00	 9.929887426723102e+00
0	 9.285704216126852e+00	 2.000006066726355e+00	 9.930963615907849e+00
0	 9.285704216126854e+00	 2.142856795650925e+00	 9.932416927709648e+00
0	 9.285704216126852e+00	 2.285707441247717e+00	 9.934364702558849e+00
0	 9.285704216126851e+00	 2.428558020182488e+00	 9.936924280542593e+00
0	 9.285704216126854e+00	 2.571408549120992e+00	 9.940213001404718e+00
0	 9.285704216126852e+00	 2.714259044728985e+00	 9.944348204545829e+00
0	 9.285704216126852e+00	 2.857109523672223e+00	 9.949447229023246e+00
0	 9.428564672914550e+00	 1.428601984435186e+00	 9.919779732578219e+00
0	 9.428564672914550e+00	 1.571453213328422e+00	 9.918097239068270e+00
0	 9.428564672914549e+00	 1.714304292230859e+00	 9.916969302938686e+00
0	 9.428564672914549e+00	 1.857155237808251e+00	 9.916493663754128e+00
0	 9.428564672914550e+00	 2.000006066726355e+00	 9.916768060403513e+00
0	 9.428564672914547e+00	 2.142856795650925e+00	 9.917890231100031e+00
0	 9.428564672914550e+00	 2.285707441247718e+00	 9.919957913381140e+00
0	 9.428564672914550e+00	 2.428558020182488e+00	 9.923068844108544e+00
0	 9.428564672914549e+00	 2.571408549120992e+00	 9.927320759468168e+00
0	 9.428564672914549e+00	 2.714259044728984e+00	 9.932811394970264e+00
0	 9.428564672914547e+00	 2.857109523672222e+00	 9.939638485449255e+00
0	 9.571424596365201e+00	 1.428601984435185e+00	 9.906416268706678e+00
0	 9.571424596365201e+00	 1.571453213328422e+00	 9.904140502956109e+00
0	 9.571424596365205e+00	 1.714304292230859e+00	 9.902758072695852e+00
0	 9.571424596365198e+00	 1.857155237808251e+00	 9.902331487632337e+00
0	 9.571424596365205e+00	 2.000006066726356e+00	 9.902923256634148e+00
0	 9.571424596365203e+00	 2.142856795650926e+00	 9.904595887732059e+00
0	 9.571424596365201e+00	 2.285707441247718e+00	 9.907411888118981e+00
0	 9.571424596365203e+00	 2.428558020182488e+00	 9.911433764150008e+00
0	 9.571424596365201e+00	 2.571408549120992e+00	 9.916724021342375e+00
0	 9.571424596365199e+00	 2.714259044728984e+00	 9.923345164375490e+00
0	 9.571424596365201e+00	 2.857109523672222e+00	 9.931359697090880e+00
0	 9.714283869809320e+00	 1.428601984435185e+00	 9.886034498317080e+00
0	 9.714283869809320e+00	 1.571453213328422e+00	 9.885571930060276e+00
0	 9.714283869809320e+00	 1.714304292230859e+00	 9.886045586843617e+00
0	 9.714283869809321e+00	 1.857155237808252e+00	 9.887467119761983e+00
0	 9.714283869809321e+00	 2.000006066726355e+00	 9.889848179154329e+00
0	 9.714283869809321e+00	 2.142856795650926e+00	 9.893200414603751e+00
0	 9.714283869809321e+00	 2.285707441247718e+00	 9.897535474937387e+00
0	 9.714283869809321e+00	 2.428558020182488e+00	 9.902865008226517e+00
0	 9.714283869809321e+00	 2.571408549120992e+00	 9.909200661786516e+00
0	 9.714283869809320e+00	 2.714259044728984e+00	 9.916554082176811e+00
0	 9.714283869809321e+00	 2.857109523672222e+00	 9.924936915200952e+00
0	 9.857142376577418e+00	 1.428601984435185e+00	 9.857011119596867e+00
0	 9.857142376577416e+00	 1.571453213328422e+00	 9.861436600425424e+00
0	 9.857142376577420e+00	 1.714304292230859e+00	 9.866440098986216e+00
0	 9.857142376577418e+00	 1.857155237808251e+00	 9.871966778142051e+00
0	 9.857142376577420e+00	 2.000006066726356e+00	 9.877961800399477e+00
0	 9.857142376577416e+00	 2.142856795650926e+00	 9.884370327908766e+00
0	 9.857142376577418e+00	 2.285707441247718e+00	 9.891137522463868e+00
0	 9.857142376577416e+00	 2.428558020182488e+00	 9.898208545502456e+00
0	 9.857142376577414e+00	 2.571408549120991e+00	 9.905528558105896e+00
0	 9.857142376577416e+00	 2.714259044728984e+00	 9.913042720999318e+00
0	 9.857142376577416e+00	 2.857109523672222e+00	 9.920696194551507e+00
0	 1.000000000000000e+01	 1.428601984435185e+00	 9.817722824407248e+00
0	 1.000000000000000e+01	 1.571453213328422e+00	 9.830779588510721e+00
0	 1.000000000000000e+01	 1.714304292230859e+00	 9.843549858141447e+00
0	 1.000000000000000e+01	 1.857155237808251e+00	 9.855896677366058e+00
0	 1.000000000000000e+01	 2.000006066726355e+00	 9.867683090685780e+00
0	 9.999999999999998e+00	 2.142856795650925e+00	 9.878772143036425e+00
0	 1.000000000000000e+01	 2.285707441247718e+00	 9.889026879788505e+00
0	 1.000000000000000e+01	 2.428558020182488e+00	 9.898310346747175e+00
0	 1.000000000000000e+01	 2.571408549120992e+00	 9.906485590152233e+00
0	 1.000000000000000e+01	 2.714259044728984e+00	 9.913415656678144e+00
0	 9.999999999999998e+00	 2.857109523672222e+00	 9.918963593434036e+00
0	 8.571398015564814e+00	 2.857109523672223e+00	 1.001002872759666e+01
0	 8.571398015564816e+00	 2.999969994316575e+00	 1.000746797236819e+01
0	 8.571398015564812e+00	 3.142830431628385e+00	 1.000558054461252e+01
0	 8.571398015564816e+00	 3.285690802274106e+00	 1.000440293543153e+01
0	 8.571398015564816e+00	 3.428551072920193e+00	 1.000397163698398e+01
0	 8.571398015564816e+00	 3.571411210233102e+00	 1.000432314248555e+01
0	 8.571398015564816e+00	 3.714271180879290e+00	 1.000549394620887e+01
0	 8.571398015564816e+00	 3.857130951525211e+00	 1.000752054348348e+01
0	 8.571398015564817e+00	 3.999990488837320e+00	 1.001043943069590e+01
0	 8.571398015564816e+00	 4.142849759482074e+00	 1.001428710528964e+01
0	 8.571398015564817e+00	 4.285708730125926e+00	 1.001910006576519e+01
0	 8.714259388995398e+00	 2.857109523672221e+00	 9.997460853578840e+00
0	 8.714259388995401e+00	 2.999969994316575e+00	 9.995478140076287e+00
0	 8.714259388995400e+00	 3.142830431628386e+00	 9.994367072344181e+00
0	 8.714259388995401e+00	 3.285690802274106e+00	 9.994105745626154e+00
0	 8.714259388995401e+00	 3.428551072920193e+00	 9.994672256137502e+00
0	 8.714259388995400e+00	 3.571411210233103e+00	 9.996044701065108e+00
0	 8.714259388995401e+00	 3.714271180879290e+00	 9.998201178567488e+00
0	 8.714259388995401e+00	 3.857130951525211e+00	 1.000111978777483e+01
0	 8.714259388995401e+00	 3.999990488837321e+00	 1.000477862878894e+01
0	 8.714259388995400e+00	 4.142849759482074e+00	 1.000915580268336e+01
0	 8.714259388995398e+00	 4.285708730125926e+00	 1.001422941150329e+01
0	 8.857120812436381e+00	 2.857109523672222e+00	 9.984792731293940e+00
0	 8.857120812436388e+00	 2.999969994316576e+00	 9.984224251425003e+00
0	 8.857120812436383e+00	 3.142830431628385e+00	 9.984504796830500e+00
0	 8.857120812436387e+00	 3.285690802274106e+00	 9.985570110882398e+00
0	 8.857120812436385e+00	 3.428551072920193e+00	 9.987355937630266e+00
0	 8.857120812436383e+00	 3.571411210233102e+00	 9.989798021801354e+00
0	 8.857120812436381e+00	 3.714271180879289e+00	 9.992832108800560e+00
0	 8.857120812436385e+00	 3.857130951525210e+00	 9.996393944710444e+00
0	 8.857120812436383e+00	 3.999990488837319e+00	 1.000041927629124e+01
0	 8.857120812436385e+00	 4.142849759482075e+00	 1.000484385098091e+01
0	 8.857120812436381e+00	 4.285708730125926e+00	 1.000960341689509e+01
0	 8.999982169218281e+00	 2.857109523672223e+00	 9.972350394401357e+00
0	 8.999982169218280e+00	 2.999969994316576e+00	 9.973729403327578e+00
0	 8.999982169218283e+00	 3.142830431628385e+00	 9.975770301281392e+00
0	 8.999982169218281e+00	 3.285690802274106e+00	 9.978382523535267e+00
0	 8.999982169218283e+00	 3.428551072920194e+00	 9.981475505615652e+00
0	 8.999982169218281e+00	 3.571411210233102e+00	 9.984958683302978e+00
0	 8.999982169218283e+00	 3.714271180879291e+00	 9.988741492631664e+00
0	 8.999982169218278e+00	 3.857130951525210e+00	 9.992733369890136e+00
0	 8.999982169218283e+00	 3.999990488837320e+00	 9.996843751620817e+00
0	 8.999982169218283e+00	 4.142849759482074e+00	 1.000098207462015e+01
0	 8.999982169218281e+00	 4.285708730125926e+00	 1.000505777593861e+01
0	 9.142843342671599e+00	 2.857109523672221e+00	 9.960459880078977e+00
0	 9.142843342671602e+00	 2.999969994316576e+00	 9.964016696120241e+00
0	 9.142843342671599e+00	 3.142830431628386e+00	 9.967940171881958e+00
0	 9.142843342671602e+00	 3.285690802274107e+00	 9.972129478173681e+00
0	 9.142843342671600e+00	 3.428551072920194e+00	 9.976483785584598e+00
0	 9.142843342671600e+00	 3.571411210233101e+00	 9.980902264483486e+00
0	 9.142843342671599e+00	 3.714271180879289e+00	 9.985284085018769e+00
0	 9.142843342671600e+00	 3.857130951525211e+00	 9.989528417118485e+00
0	 9.142843342671599e+00	 3.999990488837320e+00	 9.993534430490321e+00
0	 9.142843342671602e+00	 4.142849759482074e+00	 9.997201294621590e+00
0	 9.142843342671599e+00	 4.285708730125926e+00	 1.000042817877924e+01
0	 9.285704216126852e+00	 2.857109523672223e+00	 9.949447229023246e+00
0	 9.285704216126852e+00	 2.999969994316576e+00	 9.955109233562180e+00
0	 9.285704216126852e+00	 3.142830431628385e+00	 9.960790997792516e+00
0	 9.285704216126854e+00	 3.285690802274106e+00	 9.966397471640418e+00
0	 9.285704216126852e+00	 3.428551072920193e+00	 9.971833604365582e+00
0	 9.285704216126851e+00	 3.571411210233103e+00	 9.977004344561271e+00
0	 9.285704216126851e+00	 3.714271180879290e+00	 9.981814640154280e+00
0	 9.285704216126852e+00	 3.857130951525211e+00	 9.986169438404954e+00
0	 9.285704216126852e+00	 3.999990488837320e+00	 9.989973685907213e+00
0	 9.285704216126851e+00	 4.142849759482074e+00	 9.993132328588503e+00
0	 9.285704216126852e+00	 4.285708730125926e+00	 9.995550311709792e+00
0	 9.428564672914547e+00	 2.857109523672222e+00	 9.939638485449253e+00
0	 9.428564672914549e+00	 2.999969994316575e+00	 9.947030122835699e+00
0	 9.428564672914549e+00	 3.142830431628386e+00	 9.954099371148732e+00
0	 9.428564672914549e+00	 3.285690802274106e+00	 9.960773003032203e+00
0	 9.428564672914549e+00	 3.428551072920193e+00	 9.966977790124725e+00
0	 9.428564672914552e+00	 3.571411210233104e+00	 9.972640503059642e+00
0	 9.428564672914550e+00	 3.714271180879290e+00	 9.977687911465065e+00
0	 9.428564672914549e+00	 3.857130951525210e+00	 9.982046783963867e+00
0	 9.428564672914550e+00	 3.999990488837321e+00	 9.985643888173673e+00
0	 9.428564672914549e+00	 4.142849759482075e+00	 9.988405990706847e+00
0	 9.428564672914549e+00	 4.285708730125926e+00	 9.990259857170464e+00
0	 9.571424596365201e+00	 2.857109523672222e+00	 9.931359697090880e+00
0	 9.571424596365203e+00	 2.999969994316576e+00	 9.939802474546312e+00
0	 9.571424596365201e+00	 3.142830431628385e+00	 9.947641887061707e+00
0	 9.571424596365199e+00	 3.285690802274106e+00	 9.954842573699873e+00
0	 9.571424596365199e+00	 3.428551072920193e+00	 9.961369172365833e+00
0	 9.571424596365201e+00	 3.571411210233103e+00	 9.967186319806872e+00
0	 9.571424596365201e+00	 3.714271180879290e+00	 9.972258651612478e+00
0	 9.571424596365203e+00	 3.857130951525210e+00	 9.976550802214398e+00
0	 9.571424596365201e+00	 3.999990488837320e+00	 9.980027404886611e+00
0	 9.571424596365201e+00	 4.142849759482074e+00	 9.982653091745295e+00
0	 9.571424596365199e+00	 4.285708730125925e+00	 9.984392493748835e+00
0	 9.714283869809321e+00	 2.857109523672222e+00	 9.924936915200952e+00
0	 9.714283869809321e+00	 2.999969994316576e+00	 9.933449402722941e+00
0	 9.714283869809320e+00	 3.142830431628385e+00	 9.941195143618160e+00
0	 9.714283869809321e+00	 3.285690802274106e+00	 9.948192687248429e+00
0	 9.714283869809321e+00	 3.428551072920194e+00	 9.954460581930553e+00
0	 9.714283869809320e+00	 3.571411210233103e+00	 9.960017374936283e+00
0	 9.714283869809320e+00	 3.714271180879290e+00	 9.964881612492375e+00
0	 9.714283869809320e+00	 3.857130951525209e+00	 9.969071839780586e+00
0	 9.714283869809321e+00	 3.999990488837321e+00	 9.972606600937588e+00
0	 9.714283869809320e+00	 4.142849759482075e+00	 9.975504439055070e+00
0	 9.714283869809320e+00	 4.285708730125926e+00	 9.977783896179680e+00
0	 9.857142376577416e+00	 2.857109523672222e+00	 9.920696194551503e+00
0	 9.857142376577416e+00	 2.999969994316576e+00	 9.927994024818133e+00
0	 9.857142376577416e+00	 3.142830431628386e+00	 9.934535741880607e+00
0	 9.857142376577418e+00	 3.285690802274106e+00	 9.940409849537255e+00
0	 9.857142376577418e+00	 3.428551072920193e+00	 9.945704850998389e+00
0	 9.857142376577418e+00	 3.571411210233103e+00	 9.950509248886267e+00
0	 9.857142376577416e+00	 3.714271180879290e+00	 9.954911545235131e+00
0	 9.857142376577420e+00	 3.857130951525211e+00	 9.959000241491218e+00
0	 9.857142376577418e+00	 3.999990488837320e+00	 9.962863838512725e+00
0	 9.857142376577414e+00	 4.142849759482074e+00	 9.966590836569882e+00
0	 9.857142376577416e+00	 4.285708730125926e+00	 9.970269735344836e+00
0	 9.999999999999998e+00	 2.857109523672222e+00	 9.918963593434034e+00
0	 1.000000000000000e+01	 2.999969994316576e+00	 9.923459461708322e+00
0	 1.000000000000000e+01	 3.142830431628385e+00	 9.927440285887613e+00
0	 1.000000000000000e+01	 3.285690802274106e+00	 9.931080568680297e+00
0	 1.000000000000000e+01	 3.428551072920193e+00	 9.934554813086956e+00
0	 1.000000000000000e+01	 3.571411210233102e+00	 9.938037522400377e+00
0	 1.000000000000000e+01	 3.714271180879290e+00	 9.941703200205588e+00
0	 1.000000000000000e+01	 3.857130951525210e+00	 9.945726350379852e+00
0	 1.000000000000000e+01	 3.999990488837320e+00	 9.950281477092609e+00
0	 1.000000000000000e+01	 4.142849759482075e+00	 9.955543084805669e+00
0	 1.000000000000000e+01	 4.285708730125926e+00	 9.961685678273057e+00
0	 8.571398015564817e+00	 4.285708730125926e+00	 1.001910006576519e+01
0	 8.571398015564816e+00	 4.428567384102076e+00	 1.002403567419964e+01
0	 8.571398015564816e+00	 4.571425771410667e+00	 1.002820980182820e+01
0	 8.571398015564816e+00	 4.714283958718593e+00	 1.003159671374461e+01
0	 8.571398015564816e+00	 4.857142012692742e+00	 1.003417067779370e+01
0	 8.571398015564816e+00	 5.000000000000002e+00	 1.003590596457149e+01
0	 8.571398015564814e+00	 5.142857987307261e+00	 1.003677684742516e+01
0	 8.571398015564816e+00	 5.285716041281409e+00	 1.003675760245318e+01
0	 8.571398015564816e+00	 5.428574228589335e+00	 1.003582250850516e+01
0	 8.571398015564816e+00	 5.571432615897928e+00	 1.003394584718197e+01
0	 8.571398015564816e+00	 5.714291269874074e+00	 1.003110190283558e+01
0	 8.714259388995398e+00	 4.285708730125926e+00	 1.001422941150329e+01
0	 8.714259388995400e+00	 4.428567384102074e+00	 1.001918531743650e+01
0	 8.714259388995398e+00	 4.571425771410667e+00	 1.002323642573125e+01
0	 8.714259388995400e+00	 4.714283958718593e+00	 1.002640140565059e+01
0	 8.714259388995398e+00	 4.857142012692742e+00	 1.002869892898858e+01
0	 8.714259388995400e+00	 5.000000000000000e+00	 1.003014767007037e+01
0	 8.714259388995398e+00	 5.142857987307261e+00	 1.003076630575226e+01
0	 8.714259388995400e+00	 5.285716041281409e+00	 1.003057351542166e+01
0	 8.714259388995400e+00	 5.428574228589335e+00	 1.002958798099714e+01
0	 8.714259388995400e+00	 5.571432615897928e+00	 1.002782838692841e+01
0	 8.714259388995401e+00	 5.714291269874074e+00	 1.002531342019623e+01
0	 8.857120812436381e+00	 4.285708730125926e+00	 1.000960341689509e+01
0	 8.857120812436385e+00	 4.428567384102074e+00	 1.001404399964007e+01
0	 8.857120812436383e+00	 4.571425771410667e+00	 1.001758825177968e+01
0	 8.857120812436383e+00	 4.714283958718593e+00	 1.002028686391489e+01
0	 8.857120812436381e+00	 4.857142012692742e+00	 1.002219052870107e+01
0	 8.857120812436385e+00	 5.000000000000002e+00	 1.002334994084791e+01
0	 8.857120812436383e+00	 5.142857987307260e+00	 1.002381579711952e+01
0	 8.857120812436383e+00	 5.285716041281408e+00	 1.002363879633446e+01
0	 8.857120812436387e+00	 5.428574228589335e+00	 1.002286963936568e+01
0	 8.857120812436385e+00	 5.571432615897929e+00	 1.002155902914060e+01
0	 8.857120812436385e+00	 5.714291269874074e+00	 1.001975767064100e+01
0	 8.999982169218281e+00	 4.285708730125926e+00	 1.000505777593861e+01
0	 8.999982169218283e+00	 4.428567384102075e+00	 1.000866061109422e+01
0	 8.999982169218281e+00	 4.571425771410667e+00	 1.001148759589231e+01
0	 8.999982169218281e+00	 4.714283958718593e+00	 1.001360905907913e+01
0	 8.999982169218281e+00	 4.857142012692742e+00	 1.001509533083326e+01
0	 8.999982169218281e+00	 5.000000000000001e+00	 1.001601674276568e+01
0	 8.999982169218280e+00	 5.142857987307258e+00	 1.001644362791978e+01
0	 8.999982169218281e+00	 5.285716041281408e+00	 1.001644632077141e+01
0	 8.999982169218281e+00	 5.428574228589336e+00	 1.001609515722883e+01
0	 8.999982169218280e+00	 5.571432615897929e+00	 1.001546047463275e+01
0	 8.999982169218280e+00	 5.714291269874074e+00	 1.001461261175632e+01
0	 9.142843342671599e+00	 4.285708730125926e+00	 1.000042817877924e+01
0	 9.142843342671602e+00	 4.428567384102076e+00	 1.000308403812698e+01
0	 9.142843342671602e+00	 4.571425771410667e+00	 1.000515677022362e+01
0	 9.142843342671602e+00	 4.714283958718594e+00	 1.000672395834584e+01
0	 9.142843342671602e+00	 4.857142012692742e+00	 1.000786318654679e+01
0	 9.142843342671597e+00	 5.000000000000001e+00	 1.000865203965608e+01
0	 9.142843342671597e+00	 5.142857987307260e+00	 1.000916810327984e+01
0	 9.142843342671599e+00	 5.285716041281409e+00	 1.000948896380073e+01
0	 9.142843342671600e+00	 5.428574228589334e+00	 1.000969220837793e+01
0	 9.142843342671600e+00	 5.571432615897928e+00	 1.000985542494718e+01
0	 9.142843342671597e+00	 5.714291269874074e+00	 1.001005620222073e+01
0	 9.285704216126852e+00	 4.285708730125926e+00	 9.995550311709792e+00
0	 9.285704216126852e+00	 4.428567384102075e+00	 9.997363163110585e+00
0	 9.285704216126852e+00	 4.571425771410667e+00	 9.998818083163666e+00
0	 9.285704216126854e+00	 4.714283958718593e+00	 9.999987525578597e+00
0	 9.285704216126852e+00	 4.857142012692742e+00	 1.000094394426298e+01
0	 9.285704216126851e+00	 5.000000000000000e+00	 1.000175979332240e+01
0	 9.285704216126851e+00	 5.142857987307261e+00	 1.000250752706051e+01
0	 9.285704216126852e+00	 5.285716041281407e+00	 1.000325959997902e+01
0	 9.285704216126852e+00	 5.428574228589335e+00	 1.000408846677766e+01
0	 9.285704216126852e+00	 5.571432615897926e+00	 1.000506658235430e+01
0	 9.285704216126852e+00	 5.714291269874074e+00	 1.000626640180486e+01
0	 9.428564672914549e+00	 4.285708730125926e+00	 9.990259857170464e+00
0	 9.428564672914550e+00	 4.428567384102075e+00	 9.991546864461462e+00
0	 9.428564672914550e+00	 4.571425771410667e+00	 9.992693839338099e+00
0	 9.428564672914549e+00	 4.714283958718593e+00	 9.993755721301898e+00
0	 9.428564672914550e+00	 4.857142012692742e+00	 9.994787449662724e+00
0	 9.428564672914549e+00	 5.000000000000001e+00	 9.995843963538787e+00
0	 9.428564672914550e+00	 5.142857987307260e+00	 9.996980201856649e+00
0	 9.428564672914549e+00	 5.285716041281409e+00	 9.998251103351286e+00
0	 9.428564672914549e+00	 5.428574228589336e+00	 9.999711606566056e+00
0	 9.428564672914549e+00	 5.571432615897928e+00	 1.000141664985273e+01
0	 9.428564672914550e+00	 5.714291269874074e+00	 1.000342117137151e+01
0	 9.571424596365199e+00	 4.285708730125925e+00	 9.984392493748835e+00
0	 9.571424596365201e+00	 4.428567384102073e+00	 9.985684016640121e+00
0	 9.571424596365199e+00	 4.571425771410667e+00	 9.987006339608124e+00
0	 9.571424596365201e+00	 4.714283958718593e+00	 9.988384502701189e+00
0	 9.571424596365199e+00	 4.857142012692742e+00	 9.989843545686544e+00
0	 9.571424596365203e+00	 5.000000000000001e+00	 9.991408508050224e+00
0	 9.571424596365203e+00	 5.142857987307261e+00	 9.993104428997125e+00
0	 9.571424596365199e+00	 5.285716041281408e+00	 9.994956347451005e+00
0	 9.571424596365203e+00	 5.428574228589335e+00	 9.996989302054537e+00
0	 9.571424596365201e+00	 5.571432615897927e+00	 9.999228331169277e+00
0	 9.571424596365199e+00	 5.714291269874074e+00	 1.000169847287572e+01
0	 9.714283869809320e+00	 4.285708730125926e+00	 9.977783896179680e+00
0	 9.714283869809321e+00	 4.428567384102075e+00	 9.979823490151121e+00
0	 9.714283869809321e+00	 4.571425771410667e+00	 9.981977881070360e+00
0	 9.714283869809321e+00	 4.714283958718594e+00	 9.984229823622760e+00
0	 9.714283869809321e+00	 4.857142012692741e+00	 9.986562072534483e+00
0	 9.714283869809321e+00	 5.000000000000001e+00	 9.988957382572545e+00
0	 9.714283869809320e+00	 5.142857987307260e+00	 9.991398508544819e+00
0	 9.714283869809321e+00	 5.285716041281409e+00	 9.993868205300078e+00
0	 9.714283869809321e+00	 5.428574228589335e+00	 9.996349227727954e+00
0	 9.714283869809320e+00	 5.571432615897927e+00	 9.998824330759014e+00
0	 9.714283869809320e+00	 5.714291269874073e+00	 1.000127626936478e+01
0	 9.857142376577416e+00	 4.285708730125926e+00	 9.970269735344836e+00
0	 9.857142376577416e+00	 4.428567384102075e+00	 9.974014151542828e+00
0	 9.857142376577416e+00	 4.571425771410667e+00	 9.977830757056736e+00
0	 9.857142376577418e+00	 4.714283958718593e+00	 9.981647634573577e+00
0	 9.857142376577420e+00	 4.857142012692742e+00	 9.985392867665976e+00
0	 9.857142376577416e+00	 5.000000000000000e+00	 9.988994540792291e+00
0	 9.857142376577416e+00	 5.142857987307260e+00	 9.992380739296635e+00
0	 9.857142376577416e+00	 5.285716041281407e+00	 9.995479549408858e+00
0	 9.857142376577416e+00	 5.428574228589334e+00	 9.998219058244635e+00
0	 9.857142376577418e+00	 5.571432615897928e+00	 1.000052735380540e+01
0	 9.857142376577416e+00	 5.714291269874074e+00	 1.000233252497840e+01
0	 1.000000000000000e+01	 4.285708730125926e+00	 9.961685678273057e+00
0	 1.000000000000000e+01	 4.428567384102075e+00	 9.968304863407239e+00
0	 1.000000000000000e+01	 4.571425771410668e+00	 9.974787257134253e+00
0	 1.000000000000000e+01	 4.714283958718593e+00	 9.980993882721146e+00
0	 1.000000000000000e+01	 4.857142012692742e+00	 9.986785765799743e+00
0	 1.000000000000000e+01	 5.000000000000002e+00	 9.992023934366671e+00
0	 1.000000000000000e+01	 5.142857987307262e+00	 9.996569418783357e+00
0	 1.000000000000000e+01	 5.285716041281409e+00	 1.000028325177620e+01
0	 1.000000000000000e+01	 5.428574228589335e+00	 1.000302646843644e+01
0	 1.000000000000000e+01	 5.571432615897928e+00	 1.000466010622026e+01
0	 1.000000000000000e+01	 5.714291269874075e+00	 1.000504520494874e+01
0	 8.571398015564816e+00	 5.714291269874074e+00	 1.003110190283558e+01
0	 8.571398015564816e+00	 5.857150240517927e+00	 1.002795063634533e+01
0	 8.571398015564816e+00	 6.000009511162681e+00	 1.002517252918972e+01
0	 8.571398015564816e+00	 6.142869048474793e+00	 1.002277264908038e+01
0	 8.571398015564814e+00	 6.285728819120712e+00	 1.002075606425886e+01
0	 8.571398015564816e+00	 6.428588789766899e+00	 1.001912784349669e+01
0	 8.571398015564817e+00	 6.571448927079810e+00	 1.001789305609533e+01
0	 8.571398015564817e+00	 6.714309197725898e+00	 1.001705677188613e+01
0	 8.571398015564816e+00	 6.857169568371617e+00	 1.001662406123041e+01
0	 8.571398015564819e+00	 7.000030005683428e+00	 1.001659999501934e+01
0	 8.571398015564816e+00	 7.142890476327779e+00	 1.001698964467406e+01
0	 8.714259388995401e+00	 5.714291269874074e+00	 1.002531342019623e+01
0	 8.714259388995400e+00	 5.857150240517928e+00	 1.002265904124914e+01
0	 8.714259388995403e+00	 6.000009511162682e+00	 1.002045175789446e+01
0	 8.714259388995401e+00	 6.142869048474792e+00	 1.001866608036999e+01
0	 8.714259388995400e+00	 6.285728819120712e+00	 1.001727651934102e+01
0	 8.714259388995400e+00	 6.428588789766899e+00	 1.001625758590023e+01
0	 8.714259388995401e+00	 6.571448927079811e+00	 1.001558379156776e+01
0	 8.714259388995400e+00	 6.714309197725897e+00	 1.001522964829110e+01
0	 8.714259388995401e+00	 6.857169568371616e+00	 1.001516966844522e+01
0	 8.714259388995400e+00	 7.000030005683427e+00	 1.001537836483246e+01
0	 8.714259388995398e+00	 7.142890476327777e+00	 1.001583025068254e+01
0	 8.857120812436385e+00	 5.714291269874074e+00	 1.001975767064100e+01
0	 8.857120812436385e+00	 5.857150240517928e+00	 1.001795070543672e+01
0	 8.857120812436385e+00	 6.000009511162680e+00	 1.001655812528903e+01
0	 8.857120812436385e+00	 6.142869048474791e+00	 1.001553291218370e+01
0	 8.857120812436385e+00	 6.285728819120715e+00	 1.001482804834134e+01
0	 8.857120812436387e+00	 6.428588789766901e+00	 1.001439651621741e+01
0	 8.857120812436385e+00	 6.571448927079809e+00	 1.001419129850214e+01
0	 8.857120812436381e+00	 6.714309197725893e+00	 1.001416537812063e+01
0	 8.857120812436383e+00	 6.857169568371615e+00	 1.001427173823277e+01
0	 8.857120812436385e+00	 7.000030005683425e+00	 1.001446336223323e+01
0	 8.857120812436385e+00	 7.142890476327779e+00	 1.001469323375152e+01
0	 8.999982169218280e+00	 5.714291269874074e+00	 1.001461261175632e+01
0	 8.999982169218283e+00	 5.857150240517928e+00	 1.001385289211323e+01
0	 8.999982169218281e+00	 6.000009511162684e+00	 1.001339606775836e+01
0	 8.999982169218281e+00	 6.142869048474792e+00	 1.001318262134424e+01
0	 8.999982169218280e+00	 6.285728819120711e+00	 1.001315303551456e+01
0	 8.999982169218281e+00	 6.428588789766900e+00	 1.001324779290415e+01
0	 8.999982169218280e+00	 6.571448927079809e+00	 1.001340737613895e+01
0	 8.999982169218280e+00	 6.714309197725894e+00	 1.001357226783611e+01
0	 8.999982169218283e+00	 6.857169568371617e+00	 1.001368295060385e+01
0	 8.999982169218281e+00	 7.000030005683427e+00	 1.001367990704156e+01
0	 8.999982169218280e+00	 7.142890476327776e+00	 1.001350361973978e+01
0	 9.142843342671597e+00	 5.714291269874074e+00	 1.001005620222073e+01
0	 9.142843342671599e+00	 5.857150240517928e+00	 1.001039286570592e+01
0	 9.142843342671602e+00	 6.000009511162683e+00	 1.001087002283221e+01
0	 9.142843342671600e+00	 6.142869048474794e+00	 1.001142468557896e+01
0	 9.142843342671597e+00	 6.285728819120711e+00	 1.001199386566096e+01
0	 9.142843342671599e+00	 6.428588789766900e+00	 1.001251457452837e+01
0	 9.142843342671602e+00	 6.571448927079810e+00	 1.001292382336675e+01
0	 9.142843342671599e+00	 6.714309197725896e+00	 1.001315862309711e+01
0	 9.142843342671600e+00	 6.857169568371616e+00	 1.001315598437576e+01
0	 9.142843342671600e+00	 7.000030005683425e+00	 1.001285291759455e+01
0	 9.142843342671599e+00	 7.142890476327778e+00	 1.001218643288066e+01
0	 9.285704216126852e+00	 5.714291269874074e+00	 1.000626640180486e+01
0	 9.285704216126852e+00	 5.857150240517927e+00	 1.000759789186412e+01
0	 9.285704216126852e+00	 6.000009511162681e+00	 1.000888442918514e+01
0	 9.285704216126854e+00	 6.142869048474792e+00	 1.001006858351975e+01
0	 9.285704216126851e+00	 6.285728819120711e+00	 1.001109292412635e+01
0	 9.285704216126851e+00	 6.428588789766899e+00	 1.001190001976996e+01
0	 9.285704216126851e+00	 6.571448927079808e+00	 1.001243243872221e+01
0	 9.285704216126849e+00	 6.714309197725896e+00	 1.001263274876136e+01
0	 9.285704216126852e+00	 6.857169568371616e+00	 1.001244351717229e+01
0	 9.285704216126851e+00	 7.000030005683424e+00	 1.001180731074647e+01
0	 9.285704216126852e+00	 7.142890476327779e+00	 1.001066669578208e+01
0	 9.428564672914550e+00	 5.714291269874074e+00	 1.000342117137151e+01
0	 9.428564672914550e+00	 5.857150240517927e+00	 1.000549523745934e+01
0	 9.428564672914547e+00	 6.000009511162681e+00	 1.000734372663666e+01
0	 9.428564672914549e+00	 6.142869048474791e+00	 1.000892379470311e+01
0	 9.428564672914550e+00	 6.285728819120711e+00	 1.001019259680209e+01
0	 9.428564672914549e+00	 6.428588789766899e+00	 1.001110728742077e+01
0	 9.428564672914552e+00	 6.571448927079810e+00	 1.001162502039011e+01
0	 9.428564672914547e+00	 6.714309197725897e+00	 1.001170294888488e+01
0	 9.428564672914550e+00	 6.857169568371617e+00	 1.001129822542365e+01
0	 9.428564672914547e+00	 7.000030005683427e+00	 1.001036800186881e+01
0	 9.428564672914549e+00	 7.142890476327777e+00	 1.000886942942654e+01
0	 9.571424596365199e+00	 5.714291269874074e+00	 1.000169847287572e+01
0	 9.571424596365203e+00	 5.857150240517928e+00	 1.000411217058528e+01
0	 9.571424596365199e+00	 6.000009511162681e+00	 1.000615235615117e+01
0	 9.571424596365201e+00	 6.142869048474791e+00	 1.000779979957022e+01
0	 9.571424596365201e+00	 6.285728819120712e+00	 1.000903527012515e+01
0	 9.571424596365201e+00	 6.428588789766899e+00	 1.000983953638466e+01
0	 9.571424596365199e+00	 6.571448927079808e+00	 1.001019336620335e+01
0	 9.571424596365201e+00	 6.714309197725895e+00	 1.001007752672181e+01
0	 9.571424596365203e+00	 6.857169568371617e+00	 1.000947278436658e+01
0	 9.571424596365205e+00	 7.000030005683429e+00	 1.000835990485016e+01
0	 9.571424596365203e+00	 7.142890476327779e+00	 1.000671965317105e+01
0	 9.714283869809320e+00	 5.714291269874073e+00	 1.000127626936478e+01
0	 9.714283869809318e+00	 5.857150240517929e+00	 1.000347596055795e+01
0	 9.714283869809320e+00	 6.000009511162683e+00	 1.000521475983812e+01
0	 9.714283869809321e+00	 6.142869048474792e+00	 1.000650607946694e+01
0	 9.714283869809321e+00	 6.285728819120712e+00	 1.000736333107814e+01
0	 9.714283869809321e+00	 6.428588789766899e+00	 1.000779992567753e+01
0	 9.714283869809320e+00	 6.571448927079810e+00	 1.000782927364297e+01
0	 9.714283869809323e+00	 6.714309197725897e+00	 1.000746478472449e+01
0	 9.714283869809320e+00	 6.857169568371615e+00	 1.000671986804418e+01
0	 9.714283869809321e+00	 7.000030005683427e+00	 1.000560793209627e+01
0	 9.714283869809321e+00	 7.142890476327778e+00	 1.000414238474711e+01
0	 9.857142376577416e+00	 5.714291269874074e+00	 1.000233252497840e+01
0	 9.857142376577418e+00	 5.857150240517927e+00	 1.000361387791569e+01
0	 9.857142376577416e+00	 6.000009511162682e+00	 1.000443538095200e+01
0	 9.857142376577416e+00	 6.142869048474791e+00	 1.000485211664395e+01
0	 9.857142376577416e+00	 6.285728819120711e+00	 1.000491916718937e+01
0	 9.857142376577418e+00	 6.428588789766900e+00	 1.000469161442733e+01
0	 9.857142376577416e+00	 6.571448927079808e+00	 1.000422453983815e+01
0	 9.857142376577418e+00	 6.714309197725896e+00	 1.000357302454342e+01
0	 9.857142376577416e+00	 6.857169568371617e+00	 1.000279214930597e+01
0	 9.857142376577418e+00	 7.000030005683426e+00	 1.000193699452992e+01
0	 9.857142376577414e+00	 7.142890476327778e+00	 1.000106264026063e+01
0	 1.000000000000000e+01	 5.714291269874075e+00	 1.000504520494874e+01
0	 1.000000000000000e+01	 5.857150240517928e+00	 1.000455319441937e+01
0	 1.000000000000000e+01	 6.000009511162681e+00	 1.000371866389258e+01
0	 1.000000000000000e+01	 6.142869048474791e+00	 1.000264739425681e+01
0	 9.999999999999998e+00	 6.285728819120711e+00	 1.000144516653290e+01
0	 1.000000000000000e+01	 6.428588789766900e+00	 1.000021776187411e+01
0	 1.000000000000000e+01	 6.571448927079809e+00	 9.999070961566176e+00
0	 1.000000000000000e+01	 6.714309197725897e+00	 9.998110547027213e+00
0	 1.000000000000000e+01	 6.857169568371615e+00	 9.997442299807785e+00
0	 1.000000000000000e+01	 7.000030005683427e+00	 9.997172001590856e+00
0	 1.000000000000000e+01	 7.142890476327777e+00	 9.997405434191794e+00
0	 8.571398015564816e+00	 7.142890476327779e+00	 1.001698964467406e+01
0	 8.571398015564816e+00	 7.285740955271013e+00	 1.001744261802160e+01
0	 8.571398015564816e+00	 7.428591450879008e+00	 1.001759667610379e+01
0	 8.571398015564814e+00	 7.571441979817510e+00	 1.001743899511349e+01
0	 8.571398015564814e+00	 7.714292558752279e+00	 1.001695675147199e+01
0	 8.571398015564814e+00	 7.857143204349073e+00	 1.001613712182908e+01
0	 8.571398015564816e+00	 7.999993933273642e+00	 1.001496728306296e+01
0	 8.571398015564817e+00	 8.142844762191748e+00	 1.001343441228031e+01
0	 8.571398015564816e+00	 8.285695707769140e+00	 1.001152568681625e+01
0	 8.571398015564817e+00	 8.428546786671578e+00	 1.000922828423434e+01
0	 8.571398015564816e+00	 8.571398015564816e+00	 1.000652938232655e+01
0	 8.714259388995398e+00	 7.142890476327777e+00	 1.001583025068254e+01
0	 8.714259388995400e+00	 7.285740955271015e+00	 1.001621496348410e+01
0	 8.714259388995400e+00	 7.428591450879006e+00	 1.001624745618869e+01
0	 8.714259388995401e+00	 7.571441979817512e+00	 1.001594009704189e+01
0	 8.714259388995396e+00	 7.714292558752279e+00	 1.001530525448318e+01
0	 8.714259388995401e+00	 7.857143204349073e+00	 1.001435529714597e+01
0	 8.714259388995400e+00	 7.999993933273644e+00	 1.001310259385751e+01
0	 8.714259388995400e+00	 8.142844762191748e+00	 1.001155951363908e+01
0	 8.714259388995401e+00	 8.285695707769142e+00	 1.000973842570572e+01
0	 8.714259388995401e+00	 8.428546786671578e+00	 1.000765169946650e+01
0	 8.714259388995400e+00	 8.571398015564816e+00	 1.000531170452430e+01
0	 8.857120812436385e+00	 7.142890476327779e+00	 1.001469323375152e+01
0	 8.857120812436385e+00	 7.285740955271013e+00	 1.001475395784178e+01
0	 8.857120812436387e+00	 7.428591450879007e+00	 1.001448942893459e+01
0	 8.857120812436385e+00	 7.571441979817511e+00	 1.001392951599698e+01
0	 8.857120812436387e+00	 7.714292558752279e+00	 1.001310408812114e+01
0	 8.857120812436385e+00	 7.857143204349073e+00	 1.001204301452420e+01
0	 8.857120812436388e+00	 7.999993933273646e+00	 1.001077616454847e+01
0	 8.857120812436381e+00	 8.142844762191746e+00	 1.000933340766125e+01
0	 8.857120812436387e+00	 8.285695707769140e+00	 1.000774461345489e+01
0	 8.857120812436385e+00	 8.428546786671575e+00	 1.000603965164684e+01
0	 8.857120812436383e+00	 8.571398015564814e+00	 1.000424839207956e+01
0	 8.999982169218280e+00	 7.142890476327776e+00	 1.001350361973978e+01
0	 8.999982169218283e+00	 7.285740955271016e+00	 1.001308784726433e+01
0	 8.999982169218278e+00	 7.428591450879007e+00	 1.001243243911049e+01
0	 8.999982169218283e+00	 7.571441979817514e+00	 1.001157707365992e+01
0	 8.999982169218283e+00	 7.714292558752282e+00	 1.001056142933135e+01
0	 8.999982169218280e+00	 7.857143204349074e+00	 1.000942518458056e+01
0	 8.999982169218281e+00	 7.999993933273644e+00	 1.000820801790035e+01
0	 8.999982169218280e+00	 8.142844762191750e+00	 1.000694960782057e+01
0	 8.999982169218280e+00	 8.285695707769138e+00	 1.000568963290811e+01
0	 8.999982169218280e+00	 8.428546786671577e+00	 1.000446777176689e+01
0	 8.999982169218283e+00	 8.571398015564817e+00	 1.000332370303788e+01
0	 9.142843342671599e+00	 7.142890476327778e+00	 1.001218643288066e+01
0	 9.142843342671602e+00	 7.285740955271013e+00	 1.001124487633062e+01
0	 9.142843342671600e+00	 7.428591450879005e+00	 1.001018633008245e+01
0	 9.142843342671602e+00	 7.571441979817513e+00	 1.000905259061221e+01
0	 9.142843342671599e+00	 7.714292558752279e+00	 1.000788545434091e+01
0	 9.142843342671600e+00	 7.857143204349073e+00	 1.000672671763458e+01
0	 9.142843342671599e+00	 7.999993933273642e+00	 1.000561817680423e+01
0	 9.142843342671600e+00	 8.142844762191748e+00	 1.000460162810582e+01
0	 9.142843342671599e+00	 8.285695707769140e+00	 1.000371886774035e+01
0	 9.142843342671599e+00	 8.428546786671575e+00	 1.000301169185379e+01
0	 9.142843342671600e+00	 8.571398015564816e+00	 1.000252189653707e+01
0	 9.285704216126852e+00	 7.142890476327779e+00	 1.001066669578209e+01
0	 9.285704216126854e+00	 7.285740955271016e+00	 1.000925328802870e+01
0	 9.285704216126852e+00	 7.428591450879007e+00	 1.000786094381355e+01
0	 9.285704216126852e+00	 7.571441979817512e+00	 1.000652588633573e+01
0	 9.285704216126854e+00	 7.714292558752281e+00	 1.000528433865839e+01
0	 9.285704216126851e+00	 7.857143204349073e+00	 1.000417252370865e+01
0	 9.285704216126854e+00	 7.999993933273644e+00	 1.000322666427773e+01
0	 9.285704216126852e+00	 8.142844762191750e+00	 1.000248298302084e+01
0	 9.285704216126852e+00	 8.285695707769140e+00	 1.000197770245724e+01
0	 9.285704216126851e+00	 8.428546786671577e+00	 1.000174704497023e+01
0	 9.285704216126851e+00	 8.571398015564816e+00	 1.000182723280715e+01
0	 9.428564672914549e+00	 7.142890476327777e+00	 1.000886942942654e+01
0	 9.428564672914549e+00	 7.285740955271014e+00	 1.000714132375584e+01
0	 9.428564672914550e+00	 7.428591450879009e+00	 1.000556612086388e+01
0	 9.428564672914549e+00	 7.571441979817511e+00	 1.000416677921276e+01
0	 9.428564672914545e+00	 7.714292558752278e+00	 1.000296625707388e+01
0	 9.428564672914547e+00	 7.857143204349073e+00	 1.000198751252798e+01
0	 9.428564672914549e+00	 7.999993933273645e+00	 1.000125350346507e+01
0	 9.428564672914549e+00	 8.142844762191746e+00	 1.000078718758453e+01
0	 9.428564672914549e+00	 8.285695707769143e+00	 1.000061152239502e+01
0	 9.428564672914547e+00	 8.428546786671577e+00	 1.000074946521453e+01
0	 9.428564672914549e+00	 8.571398015564816e+00	 1.000122397317039e+01
0	 9.571424596365203e+00	 7.142890476327779e+00	 1.000671965317105e+01
0	 9.571424596365198e+00	 7.285740955271014e+00	 1.000493722331848e+01
0	 9.571424596365199e+00	 7.428591450879007e+00	 1.000341170039055e+01
0	 9.571424596365201e+00	 7.571441979817511e+00	 1.000214508652587e+01
0	 9.571424596365199e+00	 7.714292558752280e+00	 1.000113938365903e+01
0	 9.571424596365203e+00	 7.857143204349074e+00	 1.000039659352058e+01
0	 9.571424596365199e+00	 7.999993933273644e+00	 9.999918717637035e+00
0	 9.571424596365201e+00	 8.142844762191748e+00	 9.999707757330901e+00
0	 9.571424596365201e+00	 8.285695707769140e+00	 9.999765713720631e+00
0	 9.571424596365203e+00	 8.428546786671578e+00	 1.000009458772064e+01
0	 9.571424596365201e+00	 8.571398015564814e+00	 1.000069638004134e+01
0	 9.714283869809321e+00	 7.142890476327778e+00	 1.000414238474711e+01
0	 9.714283869809321e+00	 7.285740955271014e+00	 1.000266922493218e+01
0	 9.714283869809321e+00	 7.428591450879006e+00	 1.000150752014761e+01
0	 9.714283869809320e+00	 7.571441979817510e+00	 1.000063062445796e+01
0	 9.714283869809321e+00	 7.714292558752279e+00	 1.000001189176693e+01
0	 9.714283869809320e+00	 7.857143204349073e+00	 9.999624675817294e+00
0	 9.714283869809320e+00	 7.999993933273643e+00	 9.999442330190991e+00
0	 9.714283869809321e+00	 8.142844762191748e+00	 9.999438208309074e+00
0	 9.714283869809320e+00	 8.285695707769140e+00	 9.999585663431702e+00
0	 9.714283869809321e+00	 8.428546786671578e+00	 9.999858048658171e+00
0	 9.714283869809321e+00	 8.571398015564816e+00	 1.000022871692691e+01
0	 9.857142376577414e+00	 7.142890476327778e+00	 1.000106264026062e+01
0	 9.857142376577416e+00	 7.285740955271015e+00	 1.000036556522147e+01
0	 9.857142376577416e+00	 7.428591450879007e+00	 9.999963416485963e+00
0	 9.857142376577416e+00	 7.571441979817511e+00	 9.999793208092203e+00
0	 9.857142376577418e+00	 7.714292558752279e+00	 9.999791954032172e+00
0	 9.857142376577416e+00	 7.857143204349073e+00	 9.999896668251793e+00
0	 9.857142376577416e+00	 7.999993933273645e+00	 1.000004436465093e+01
0	 9.857142376577416e+00	 8.142844762191748e+00	 1.000017205708328e+01
0	 9.857142376577418e+00	 8.285695707769142e+00	 1.000021675935659e+01
0	 9.857142376577420e+00	 8.428546786671578e+00	 1.000011548523243e+01
0	 9.857142376577418e+00	 8.571398015564816e+00	 9.999805248426341e+00
0	 1.000000000000000e+01	 7.142890476327777e+00	 9.997405434191794e+00
0	 1.000000000000000e+01	 7.285740955271013e+00	 9.998054479219903e+00
0	 1.000000000000000e+01	 7.428591450879007e+00	 9.998889224353380e+00
0	 1.000000000000000e+01	 7.571441979817512e+00	 9.999802651411924e+00
0	 1.000000000000000e+01	 7.714292558752281e+00	 1.000068774237073e+01
0	 1.000000000000000e+01	 7.857143204349074e+00	 1.000143747936050e+01
0	 1.000000000000000e+01	 7.999993933273645e+00	 1.000194484466735e+01
0	 1.000000000000000e+01	 8.142844762191748e+00	 1.000210282073301e+01
0	 9.999999999999998e+00	 8.285695707769140e+00	 1.000180439015453e+01
0	 1.000000000000000e+01	 8.428546786671577e+00	 1.000094253568459e+01
0	 1.000000000000000e+01	 8.571398015564816e+00	 9.999410240231345e+00
0	 8.571398015564816e+00	 8.571398015564816e+00	 1.000652938232655e+01
0	 8.571398015564817e+00	 8.714259388995400e+00	 1.000391740224343e+01
0	 8.571398015564814e+00	 8.857120812436385e+00	 1.000187975923656e+01
0	 8.571398015564817e+00	 8.999982169218281e+00	 1.000040151505490e+01
0	 8.571398015564816e+00	 9.142843342671600e+00	 9.999467734765931e+00
0	 8.571398015564816e+00	 9.285704216126851e+00	 9.999063486755539e+00
0	 8.571398015564816e+00	 9.428564672914549e+00	 9.999173842728151e+00
0	 8.571398015564816e+00	 9.571424596365201e+00	 9.999783877706761e+00
0	 8.571398015564816e+00	 9.714283869809321e+00	 1.000087867003305e+01
0	 8.571398015564816e+00	 9.857142376577418e+00	 1.000244330136757e+01
0	 8.571398015564816e+00	 1.000000000000000e+01	 1.000446285668992e+01
0	 8.714259388995400e+00	 8.571398015564816e+00	 1.000531170452430e+01
0	 8.714259388995400e+00	 8.714259388995400e+00	 1.000314105004572e+01
0	 8.714259388995398e+00	 8.857120812436383e+00	 1.000152363715786e+01
0	 8.714259388995401e+00	 8.999982169218281e+00	 1.000041325846790e+01
0	 8.714259388995398e+00	 9.142843342671599e+00	 9.999763709343361e+00
0	 8.714259388995398e+00	 9.285704216126852e+00	 9.999528787911952e+00
0	 8.714259388995400e+00	 9.428564672914550e+00	 9.999662295061780e+00
0	 8.714259388995400e+00	 9.571424596365201e+00	 1.000011803444124e+01
0	 8.714259388995401e+00	 9.714283869809321e+00	 1.000084981245926e+01
0	 8.714259388995400e+00	 9.857142376577416e+00	 1.000181143828532e+01
0	 8.714259388995400e+00	 1.000000000000000e+01	 1.000295672384965e+01
0	 8.857120812436383e+00	 8.571398015564814e+00	 1.000424839207956e+01
0	 8.857120812436383e+00	 8.714259388995400e+00	 1.000267234732500e+01
0	 8.857120812436387e+00	 8.857120812436390e+00	 1.000154932878896e+01
0	 8.857120812436383e+00	 8.999982169218278e+00	 1.000081327296280e+01
0	 8.857120812436385e+00	 9.142843342671600e+00	 1.000039811828237e+01
0	 8.857120812436385e+00	 9.285704216126854e+00	 1.000023780512803e+01
0	 8.857120812436383e+00	 9.428564672914549e+00	 1.000026627582465e+01
0	 8.857120812436385e+00	 9.571424596365203e+00	 1.000041747464167e+01
0	 8.857120812436388e+00	 9.714283869809323e+00	 1.000062534779316e+01
0	 8.857120812436381e+00	 9.857142376577416e+00	 1.000082384343786e+01
0	 8.857120812436385e+00	 1.000000000000000e+01	 1.000094691167940e+01
0	 8.999982169218283e+00	 8.571398015564817e+00	 1.000332370303788e+01
0	 8.999982169218283e+00	 8.714259388995398e+00	 1.000240752313706e+01
0	 8.999982169218280e+00	 8.857120812436383e+00	 1.000179335721878e+01
0	 8.999982169218283e+00	 8.999982169218281e+00	 1.000140669849647e+01
0	 8.999982169218281e+00	 9.142843342671600e+00	 1.000117304119354e+01
0	 8.999982169218281e+00	 9.285704216126854e+00	 1.000101788054327e+01
0	 8.999982169218283e+00	 9.428564672914550e+00	 1.000086671278888e+01
0	 8.999982169218280e+00	 9.571424596365203e+00	 1.000064503518354e+01
0	 8.999982169218281e+00	 9.714283869809321e+00	 1.000027834599038e+01
0	 8.999982169218280e+00	 9.857142376577416e+00	 9.999692144482440e+00
0	 8.999982169218280e+00	 1.000000000000000e+01	 9.998811930942940e+00
0	 9.142843342671600e+00	 8.571398015564816e+00	 1.000252189653707e+01
0	 9.142843342671599e+00	 8.714259388995401e+00	 1.000224280751619e+01
0	 9.142843342671599e+00	 8.857120812436385e+00	 1.000209224627082e+01
0	 9.142843342671600e+00	 8.999982169218281e+00	 1.000199867544244e+01
0	 9.142843342671597e+00	 9.142843342671599e+00	 1.000189055776779e+01
0	 9.142843342671599e+00	 9.285704216126852e+00	 1.000169635607898e+01
0	 9.142843342671600e+00	 9.428564672914552e+00	 1.000134453330335e+01
0	 9.142843342671599e+00	 9.571424596365203e+00	 1.000076355246359e+01
0	 9.142843342671599e+00	 9.714283869809320e+00	 9.999881876677620e+00
0	 9.142843342671600e+00	 9.857142376577421e+00	 9.998627969158600e+00
0	 9.142843342671599e+00	 9.999999999999998e+00	 9.996930293215108e+00
0	 9.285704216126851e+00	 8.571398015564816e+00	 1.000182723280715e+01
0	 9.285704216126852e+00	 8.714259388995401e+00	 1.000207443147514e+01
0	 9.285704216126851e+00	 8.857120812436383e+00	 1.000228252050327e+01
0	 9.285704216126852e+00	 8.999982169218281e+00	 1.000239434459079e+01
0	 9.285704216126852e+00	 9.142843342671599e+00	 1.000235274777640e+01
0	 9.285704216126854e+00	 9.285704216126854e+00	 1.000210057343816e+01
0	 9.285704216126851e+00	 9.428564672914549e+00	 1.000158066429366e+01
0	 9.285704216126851e+00	 9.571424596365201e+00	 1.000073586239981e+01
0	 9.285704216126849e+00	 9.714283869809320e+00	 9.999509009152915e+00
0	 9.285704216126852e+00	 9.857142376577416e+00	 9.997842945288589e+00
0	 9.285704216126852e+00	 1.000000000000000e+01	 9.995680510881762e+00
0	 9.428564672914549e+00	 8.571398015564816e+00	 1.000122397317039e+01
0	 9.428564672914550e+00	 8.714259388995400e+00	 1.000179862700508e+01
0	 9.428564672914549e+00	 8.857120812436385e+00	 1.000220070520888e+01
0	 9.428564672914549e+00	 8.999982169218283e+00	 1.000239884714828e+01
0	 9.428564672914550e+00	 9.142843342671600e+00	 1.000236169107091e+01
0	 9.428564672914549e+00	 9.285704216126852e+00	 1.000205787410556e+01
0	 9.428564672914552e+00	 9.428564672914550e+00	 1.000145603226211e+01
0	 9.428564672914550e+00	 9.571424596365203e+00	 1.000052480043140e+01
0	 9.428564672914547e+00	 9.714283869809320e+00	 9.999232812385435e+00
0	 9.428564672914550e+00	 9.857142376577418e+00	 9.997548700777035e+00
0	 9.428564672914549e+00	 1.000000000000000e+01	 9.995441097139928e+00
0	 9.571424596365201e+00	 8.571398015564814e+00	 1.000069638004134e+01
0	 9.571424596365201e+00	 8.714259388995400e+00	 1.000131162707585e+01
0	 9.571424596365203e+00	 8.857120812436385e+00	 1.000168332641511e+01
0	 9.571424596365201e+00	 8.999982169218281e+00	 1.000181732473822e+01
0	 9.571424596365199e+00	 9.142843342671599e+00	 1.000171946758331e+01
0	 9.571424596365201e+00	 9.285704216126852e+00	 1.000139559934767e+01
0	 9.571424596365203e+00	 9.428564672914549e+00	 1.000085156328771e+01
0	 9.571424596365203e+00	 9.571424596365203e+00	 1.000009320151886e+01
0	 9.571424596365201e+00	 9.714283869809321e+00	 9.999126355015521e+00
0	 9.571424596365201e+00	 9.857142376577418e+00	 9.997956863611137e+00
0	 9.571424596365201e+00	 1.000000000000000e+01	 9.996590565997929e+00
0	 9.714283869809321e+00	 8.571398015564816e+00	 1.000022871692691e+01
0	 9.714283869809320e+00	 8.714259388995401e+00	 1.000050966563574e+01
0	 9.714283869809320e+00	 8.857120812436383e+00	 1.000056691088413e+01
0	 9.714283869809320e+00	 8.999982169218281e+00	 1.000045491940061e+01
0	 9.714283869809320e+00	 9.142843342671599e+00	 1.000022815732582e+01
0	 9.714283869809320e+00	 9.285704216126852e+00	 9.999941090212660e+00
0	 9.714283869809321e+00	 9.428564672914549e+00	 9.999648183026224e+00
0	 9.714283869809320e+00	 9.571424596365201e+00	 9.999403900143761e+00
0	 9.714283869809321e+00	 9.714283869809321e+00	 9.999262705354703e+00
0	 9.714283869809320e+00	 9.857142376577416e+00	 9.999279061860589e+00
0	 9.714283869809320e+00	 1.000000000000000e+01	 9.999507432275026e+00
0	 9.857142376577418e+00	 8.571398015564816e+00	 9.999805248426343e+00
0	 9.857142376577416e+00	 8.714259388995400e+00	 9.999288977611661e+00
0	 9.857142376577416e+00	 8.857120812436383e+00	 9.998687986112801e+00
0	 9.857142376577418e+00	 8.999982169218281e+00	 9.998116773592086e+00
0	 9.857142376577418e+00	 9.142843342671599e+00	 9.997689840391050e+00
0	 9.857142376577418e+00	 9.285704216126852e+00	 9.997521687530401e+00
0	 9.857142376577418e+00	 9.428564672914550e+00	 9.997726816710017e+00
0	 9.857142376577418e+00	 9.571424596365201e+00	 9.998419730308962e+00
0	 9.857142376577416e+00	 9.714283869809320e+00	 9.999714931385636e+00
0	 9.857142376577416e+00	 9.857142376577416e+00	 1.000172692367762e+01
0	 9.857142376577416e+00	 9.999999999999998e+00	 1.000457021160194e+01
0	 1.000000000000000e+01	 8.571398015564816e+00	 9.999410240231345e+00
0	 1.000000000000000e+01	 8.714259388995400e+00	 9.997545798909218e+00
0	 1.000000000000000e+01	 8.857120812436385e+00	 9.995883080332716e+00
0	 1.000000000000000e+01	 8.999982169218280e+00	 9.994608030185947e+00
0	 9.999999999999998e+00	 9.142843342671599e+00	 9.993906596951927e+00
0	 1.000000000000000e+01	 9.285704216126852e+00	 9.993964731912438e+00
0	 1.000000000000000e+01	 9.428564672914549e+00	 9.994968389148077e+00
0	 1.000000000000000e+01	 9.571424596365201e+00	 9.997103525538419e+00
0	 1.000000000000000e+01	 9.714283869809320e+00	 1.000055610076212e+01
0	 9.999999999999998e+00	 9.857142376577416e+00	 1.000551207729707e+01
0	 1.000000000000000e+01	 1.000000000000000e+01	 1.001215742042050e+01
1	 1.000000000000000e+00	 0.000000000000000e+00	 3.020560573969272e+01
1	 9.997942136041430e-01	 2.028591802679378e-02	 2.955731128033907e+01
1	 9.991701517322812e-01	 4.073043895732996e-02	 2.886496955362595e+01
1	 9.981179738659461e-01	 6.132242709398375e-02	 2.812721123978717e+01
1	 9.966281528999331e-01	 8.205016480108969e-02	 2.734310025016535e+01
1	 9.946915115410935e-01	 1.029013581149163e-01	 2.651216328402180e+01
1	 9.922992591451227e-01	 1.238631447915628e-01	 2.563441790814176e+01
1	 9.894430288203904e-01	 1.449221048859623e-01	 2.471039881711977e+01
1	 9.861149146151664e-01	 1.660642739430359e-01	 2.374118192566175e+01
1	 9.823075085927058e-01	 1.872751588682954e-01	 2.272840594160929e+01
1	 9.780139375877577e-01	 2.085397565298897e-01	 2.167429107005580e+01
1	 1.021428643505832e+00	 0.000000000000000e+00	 2.875356124918176e+01
1	 1.021218447386510e+00	 2.072061773363239e-02	 2.809753364672007e+01
1	 1.020581012714856e+00	 4.160323701545225e-02	 2.740346149322124e+01
1	 1.019506288103497e+00	 6.263648352503386e-02	 2.667012521388099e+01
1	 1.017984542294350e+00	 8.380838853377182e-02	 2.589669737237583e+01
1	 1.016006401337383e+00	 1.051063946350698e-01	 2.508276942405117e+01
1	 1.013562886216773e+00	 1.265173639646926e-01	 2.422837711740496e+01
1	 1.010645450749817e+00	 1.480275890064633e-01	 2.333402423245954e+01
1	 1.007246019571033e+00	 1.696228060660851e-01	 2.240070433874518e+01
1	 1.003357026001709e+00	 1.912882114818296e-01	 2.142992025332088e+01
1	 9.989714495940581e-01	 2.130084806252003e-01	 2.042370088088787e+01
1	 1.042857419516156e+00	 0.000000000000000e+00	 2.743789931124325e+01
1	 1.042642813646134e+00	 2.115532012778683e-02	 2.677457764024921e+01
1	 1.041992006092093e+00	 4.247604046947519e-02	 2.607861693392900e+01
1	 1.040894734596435e+00	 6.395054808032835e-02	 2.534893983300393e+01
1	 1.039341063746916e+00	 8.556662313721250e-02	 2.458482370368610e+01
1	 1.037321422935393e+00	 1.073114447890000e-01	 2.378592479389832e+01
1	 1.034826644773343e+00	 1.291715995493786e-01	 2.295230115003042e+01
1	 1.031848003785864e+00	 1.511330923292427e-01	 2.208443401107543e+01
1	 1.028377255192658e+00	 1.731813601931859e-01	 2.118324739177391e+01
1	 1.024406673572047e+00	 1.953012889102773e-01	 2.025012556444261e+01
1	 1.019929091192779e+00	 2.174772323533424e-01	 1.928692815079546e+01
1	 1.064286310530212e+00	 0.000000000000000e+00	 2.624197496663627e+01
1	 1.064067294885857e+00	 2.159002485435523e-02	 2.557177050179994e+01
1	 1.063403114377741e+00	 4.334884860678007e-02	 2.487378837679190e+01
1	 1.062283295876901e+00	 6.526461968691667e-02	 2.414708651094639e+01
1	 1.060697699815823e+00	 8.732486717572448e-02	 2.339104364268970e+01
1	 1.058636558927184e+00	 1.095165067760990e-01	 2.260538108556057e+01
1	 1.056090517448735e+00	 1.318258493781382e-01	 2.179018334423041e+01
1	 1.053050670612401e+00	 1.542386123182305e-01	 2.094591733325739e+01
1	 1.049508604222139e+00	 1.767399334182189e-01	 2.007344993672952e+01
1	 1.045456434112439e+00	 1.993143878762661e-01	 1.917406364535464e+01
1	 1.040886845267778e+00	 2.219460080647578e-01	 1.824947000922803e+01
1	 1.085715299047245e+00	 0.000000000000000e+00	 2.515045711333369e+01
1	 1.085491873608516e+00	 2.202473155843574e-02	 2.447375552214670e+01
1	 1.084814320085547e+00	 4.422166071474820e-02	 2.377364237685741e+01
1	 1.083671954477038e+00	 6.657869727184827e-02	 2.304930448427237e+01
1	 1.082054433059266e+00	 8.908311921362053e-02	 2.230021891109832e+01
1	 1.079951791904819e+00	 1.117215787957585e-01	 2.152617252742830e+01
1	 1.077354486876854e+00	 1.344801112834888e-01	 2.072728049735501e+01
1	 1.074253433913294e+00	 1.573441464373569e-01	 1.990400348306929e+01
1	 1.070640049401569e+00	 1.802985228350641e-01	 1.905716332484106e+01
1	 1.066506290431602e+00	 2.033275051024242e-01	 1.818795695804715e+01
1	 1.061844694702915e+00	 2.264148041098882e-01	 1.729796833016384e+01
1	 1.107144367566494e+00	 0.000000000000000e+00	 2.414920137901009e+01
1	 1.106916532316949e+00	 2.245943988512645e-02	 2.346636470222339e+01
1	 1.106225605729260e+00	 4.509447608076091e-02	 2.276403239640137e+01
1	 1.105060692928989e+00	 6.789277976217256e-02	 2.204151426822576e+01
1	 1.103411246035438e+00	 9.084137781521351e-02	 2.129838302525120e+01
1	 1.101267104460359e+00	 1.139266590473704e-01	 2.053449178612333e+01
1	 1.098618535691603e+00	 1.371343830979478e-01	 1.974999061312340e+01
1	 1.095456276372411e+00	 1.604496921505520e-01	 1.894534185483955e+01
1	 1.091771573473045e+00	 1.838571255376023e-01	 1.812133408340630e+01
1	 1.087556225338255e+00	 2.073406373113792e-01	 1.727909440989462e+01
1	 1.082802622382047e+00	 2.308836168391752e-01	 1.642009896330791e+01
1	 1.128573498587201e+00	 0.000000000000000e+00	 2.322513747051050e+01
1	 1.128341253513995e+00	 2.289414947952548e-02	 2.253650591452981e+01
1	 1.127636953822624e+00	 4.596729399219950e-02	 2.183188613732453e+01
1	 1.126449493764897e+00	 6.920686608493898e-02	 2.111070552317718e+01
1	 1.124768121302530e+00	 9.259964154481601e-02	 2.037263006251007e+01
1	 1.122582479185865e+00	 1.161317457303265e-01	 1.961758000034006e+01
1	 1.119882646526885e+00	 1.397886626540325e-01	 1.884574457070865e+01
1	 1.116659180673621e+00	 1.635552469217459e-01	 1.805759562422597e+01
1	 1.112903159178661e+00	 1.874157386197134e-01	 1.725389995309630e+01
1	 1.108606221641115e+00	 2.113537812257591e-01	 1.643573011751753e+01
1	 1.103760611189034e+00	 2.353524426030607e-01	 1.560447357937712e+01
1	 1.150002674608608e+00	 0.000000000000000e+00	 2.236616911275250e+01
1	 1.149766019702493e+00	 2.332885998673096e-02	 2.167206267498822e+01
1	 1.149048346879390e+00	 4.684011373644527e-02	 2.096510546488924e+01
1	 1.147838339516904e+00	 7.052095516719697e-02	 2.024483745272701e+01
1	 1.146125041418737e+00	 9.435790896674096e-02	 1.951101585873481e+01
1	 1.143897898673398e+00	 1.183368370440186e-01	 1.876362910412171e+01
1	 1.141146802016604e+00	 1.424429477842606e-01	 1.800290990050843e+01
1	 1.137862129500790e+00	 1.666608082148687e-01	 1.722934730223205e+01
1	 1.134034789260514e+00	 1.909743591752778e-01	 1.644369754376857e+01
1	 1.129656262148901e+00	 2.153669335681918e-01	 1.564699348444203e+01
1	 1.124718644007732e+00	 2.398212777519861e-01	 1.484055248481412e+01
1	 1.171431878129957e+00	 0.000000000000000e+00	 2.156108496563313e+01
1	 1.171190813385280e+00	 2.376357105184102e-02	 2.086180491113116e+01
1	 1.170459767413303e+00	 4.771293460087955e-02	 2.015247731112403e+01
1	 1.169227212717153e+00	 7.183504593599596e-02	 1.943275012943160e+01
1	 1.167481988942252e+00	 9.611617864530096e-02	 1.870247004568047e+01
1	 1.165213345515019e+00	 1.205419311878386e-01	 1.796169486654254e+01
1	 1.162410984794663e+00	 1.450972363211491e-01	 1.721070511696376e+01
1	 1.159065105537788e+00	 1.697663734938503e-01	 1.645001465117457e+01
1	 1.155166446460698e+00	 1.945329842981758e-01	 1.568038012163704e+01
1	 1.150706329670330e+00	 2.193800910613053e-01	 1.490280914440866e+01
1	 1.145676703722003e+00	 2.442901186363934e-01	 1.411856700185964e+01
1	 1.192861091650489e+00	 0.000000000000000e+00	 2.079947913900472e+01
1	 1.192615617065195e+00	 2.419828231995378e-02	 2.009530934438130e+01
1	 1.191871197938111e+00	 4.858575587288364e-02	 1.938359417775079e+01
1	 1.190616095897788e+00	 7.314913731838538e-02	 1.866408537454967e+01
1	 1.188838946431268e+00	 9.787444914480888e-02	 1.793671756573661e+01
1	 1.186528802302791e+00	 1.227470263611784e-01	 1.720161930074332e+01
1	 1.183675177494965e+00	 1.477515260972157e-01	 1.645912328140475e+01
1	 1.180268091468482e+00	 1.728719402226212e-01	 1.570977566010505e+01
1	 1.176298113521310e+00	 1.980916110822880e-01	 1.495434425428724e+01
1	 1.171756407014122e+00	 2.233932504277272e-01	 1.419382553021723e+01
1	 1.166634773215702e+00	 2.487589616067241e-01	 1.342945021161750e+01
1	 1.214290297669446e+00	 0.000000000000000e+00	 2.007168012052479e+01
1	 1.214040413245077e+00	 2.463299343616735e-02	 1.936288829924952e+01
1	 1.213282620967562e+00	 4.945857683983884e-02	 1.864878305326063e+01
1	 1.212004971590950e+00	 7.446322824141469e-02	 1.792921601205359e+01
1	 1.210195896443978e+00	 9.963271902957743e-02	 1.720420849372235e+01
1	 1.207844251628774e+00	 1.249521207634298e-01	 1.647396128536777e+01
1	 1.204939362751414e+00	 1.504058149449777e-01	 1.573886365517529e+01
1	 1.201471069976739e+00	 1.759775058651112e-01	 1.499950146099983e+01
1	 1.197429773184443e+00	 2.016502366214944e-01	 1.425666421974621e+01
1	 1.192806476988992e+00	 2.274064083900854e-01	 1.351135100300438e+01
1	 1.187592835372691e+00	 2.532278030134200e-01	 1.276477502742772e+01
1	 9.780139375877577e-01	 2.085397565298897e-01	 2.167429107005580e+01
1	 9.732282518626567e-01	 2.298410867697774e-01	 2.058143615697861e+01
1	 9.679444735972303e-01	 2.511647027528097e-01	 1.945179117897032e+01
1	 9.621575490304195e-01	 2.724942383587359e-01	 1.828761829344773e+01
1	 9.558630981313170e-01	 2.938129209596946e-01	 1.709164501644805e+01
1	 9.490574463164518e-01	 3.151036037782406e-01	 1.586707013116564e+01
1	 9.417376544619561e-01	 3.363488008802307e-01	 1.461756642709033e+01
1	 9.339015469729997e-01	 3.575307247119079e-01	 1.334728007872686e+01
1	 9.255477376767898e-01	 3.786313260672552e-01	 1.206082649911979e+01
1	 9.166756533117869e-01	 3.996323363483558e-01	 1.076328253342718e+01
1	 9.072855543946887e-01	 4.205153119584039e-01	 9.460174891321712e+00
1	 9.989714495940581e-01	 2.130084806252003e-01	 2.042370088088788e+01
1	 9.940832131156619e-01	 2.347662694764963e-01	 1.938374801064331e+01
1	 9.886862106497466e-01	 2.565468216244761e-01	 1.831120088477272e+01
1	 9.827752801399662e-01	 2.783334202450918e-01	 1.720817456671357e+01
1	 9.763459476972483e-01	 3.001089332957766e-01	 1.607720572275208e+01
1	 9.693944599967363e-01	 3.218558465668612e-01	 1.492125750793450e+01
1	 9.619178149330774e-01	 3.435562994243084e-01	 1.374372154975600e+01
1	 9.539137902913475e-01	 3.651921231511672e-01	 1.254841685922471e+01
1	 9.453809701949015e-01	 3.867448817713726e-01	 1.133958552317569e+01
1	 9.363187690979322e-01	 4.081959152156873e-01	 1.012188505939155e+01
1	 9.267274530996050e-01	 4.295263846659970e-01	 8.900377346939116e+00
1	 1.019929091192779e+00	 2.174772323533424e-01	 1.928692815079545e+01
1	 1.014938303326879e+00	 2.396914826387362e-01	 1.829454862459473e+01
1	 1.009428075960190e+00	 2.619289737772124e-01	 1.727339207928492e+01
1	 1.003393138740421e+00	 2.841726382387691e-01	 1.622543711335602e+01
1	 9.968289239197675e-01	 3.064049845639252e-01	 1.515304317668000e+01
1	 9.897315994315167e-01	 3.286081311085273e-01	 1.405895449884516e+01
1	 9.820981001884546e-01	 3.507638425363410e-01	 1.294630136488746e+01
1	 9.739261573552893e-01	 3.728535689648780e-01	 1.181859858733097e+01
1	 9.652143253513547e-01	 3.948584876456475e-01	 1.067974104588396e+01
1	 9.559620063465154e-01	 4.167595470356862e-01	 9.533996191636641e+00
1	 9.461694720224560e-01	 4.385375130931406e-01	 8.385993440949330e+00
1	 1.040886845267778e+00	 2.219460080647578e-01	 1.824947000922803e+01
1	 1.035793505463931e+00	 2.446167222341214e-01	 1.729983308150928e+01
1	 1.030170052588673e+00	 2.673111548154466e-01	 1.632489130777591e+01
1	 1.024011107993203e+00	 2.900118875709073e-01	 1.532649740852837e+01
1	 1.017312010070490e+00	 3.127010696221890e-01	 1.430684706220541e+01
1	 1.010068848011553e+00	 3.353604518886944e-01	 1.326848193672439e+01
1	 1.002278493746992e+00	 3.579714243299930e-01	 1.221429030121268e+01
1	 9.939386318209120e-01	 3.805150558960257e-01	 1.114750508491187e+01
1	 9.850477869484796e-01	 4.029721370638132e-01	 1.007169927095499e+01
1	 9.756053490151769e-01	 4.253232248145771e-01	 8.990778536176334e+00
1	 9.656115952852508e-01	 4.475486898806173e-01	 7.908971074113499e+00
1	 1.061844694702915e+00	 2.264148041098882e-01	 1.729796833016384e+01
1	 1.056648802494440e+00	 2.495419842402760e-01	 1.638670189938646e+01
1	 1.050912123595312e+00	 2.726933603436072e-01	 1.545328859668017e+01
1	 1.044629171059732e+00	 2.958511634726447e-01	 1.449946581277477e+01
1	 1.037795189421028e+00	 3.189971833286157e-01	 1.352727872618290e+01
1	 1.030406189127603e+00	 3.421128033928177e-01	 1.253908249480033e+01
1	 1.022458979127597e+00	 3.651790389189289e-01	 1.153754224433809e+01
1	 1.013951197344305e+00	 3.881765776875966e-01	 1.052563073745205e+01
1	 1.004881338788606e+00	 4.110858233996026e-01	 9.506623626554424e+00
1	 9.952487810615555e-01	 4.338869415585853e-01	 8.484092214853611e+00
1	 9.850538070099996e-01	 4.565599076692103e-01	 7.461893673984298e+00
1	 1.082802622382047e+00	 2.308836168391752e-01	 1.642009896330791e+01
1	 1.077504177386029e+00	 2.544672646348242e-01	 1.554325406544280e+01
1	 1.071654272040220e+00	 2.780755859661224e-01	 1.464713454607573e+01
1	 1.065247311101426e+00	 3.016904611751203e-01	 1.373337297866322e+01
1	 1.058278445242995e+00	 3.252933205412539e-01	 1.280387715327265e+01
1	 1.050743606170426e+00	 3.488651801063524e-01	 1.186083148147122e+01
1	 1.042639539849171e+00	 3.723866804168130e-01	 1.090669639915565e+01
1	 1.033963837581557e+00	 3.958381280825752e-01	 9.944205666937350e+00
1	 1.024714964674065e+00	 4.191995400267485e-01	 8.976361485331289e+00
1	 1.014892286443292e+00	 4.424506902739357e-01	 8.006427361797519e+00
1	 1.004496091318712e+00	 4.655711590997022e-01	 7.037918688468840e+00
1	 1.103760611189034e+00	 2.353524426030607e-01	 1.560447357937712e+01
1	 1.098359613106321e+00	 2.593925593953900e-01	 1.475849225105051e+01
1	 1.092396480983510e+00	 2.834578272874197e-01	 1.389584914102529e+01
1	 1.085865511279706e+00	 3.075297759094727e-01	 1.301808248499624e+01
1	 1.078761760808005e+00	 3.315894761181519e-01	 1.212697564821633e+01
1	 1.071081082530781e+00	 3.556175765147537e-01	 1.122455779355341e+01
1	 1.062820159430623e+00	 3.795943429373099e-01	 1.031310273363836e+01
1	 1.053976536188754e+00	 4.034997008239476e-01	 9.395125881381496e+00
1	 1.044548648407187e+00	 4.273132803189844e-01	 8.473379229394334e+00
1	 1.034535849118026e+00	 4.510144639668530e-01	 7.550844307022311e+00
1	 1.023938432333398e+00	 4.745824368128753e-01	 6.630723083597654e+00
1	 1.124718644007732e+00	 2.398212777519861e-01	 1.484055248481413e+01
1	 1.119215092622939e+00	 2.643178644995977e-01	 1.402223861952451e+01
1	 1.113138733485298e+00	 2.888400799119279e-01	 1.318964075384441e+01
1	 1.106483754755991e+00	 3.133691029068406e-01	 1.234421323471782e+01
1	 1.099245119387670e+00	 3.378856449173577e-01	 1.148762782941169e+01
1	 1.091418601599426e+00	 3.623699871034770e-01	 1.062177370351912e+01
1	 1.083000821390855e+00	 3.868020205940836e-01	 9.748755754777573e+00
1	 1.073989276821986e+00	 4.111612896546989e-01	 8.870891230598614e+00
1	 1.064382373790302e+00	 4.354270376500429e-01	 7.990704572200738e+00
1	 1.054179453043397e+00	 4.595782556435625e-01	 7.110920444899188e+00
1	 1.043380814176068e+00	 4.835937334495128e-01	 6.234454932273272e+00
1	 1.145676703722003e+00	 2.442901186363934e-01	 1.411856700185965e+01
1	 1.140070598903503e+00	 2.692431759250715e-01	 1.332505987088889e+01
1	 1.133881012605697e+00	 2.942223394440748e-01	 1.251943403287297e+01
1	 1.127102024691700e+00	 3.192084373983631e-01	 1.170307036677810e+01
1	 1.119728504253606e+00	 3.441818217969195e-01	 1.087754174195340e+01
1	 1.111756146767122e+00	 3.691224063579771e-01	 1.004461234998609e+01
1	 1.103181509248773e+00	 3.940097075007988e-01	 9.206235550160018e+00
1	 1.094002043137341e+00	 4.188228883178152e-01	 8.364550169033020e+00
1	 1.084216124625741e+00	 4.435408053936571e-01	 7.521875208482422e+00
1	 1.073823082177046e+00	 4.681420583102890e-01	 6.680702931846835e+00
1	 1.062823220968731e+00	 4.926050416503971e-01	 5.843690314361452e+00
1	 1.166634773215702e+00	 2.487589616067241e-01	 1.342945021161750e+01
1	 1.160926114915639e+00	 2.741684896494354e-01	 1.265820036253427e+01
1	 1.154623301404820e+00	 2.996046014882886e-01	 1.187680556071632e+01
1	 1.147720304248252e+00	 3.250477746151783e-01	 1.108658361175090e+01
1	 1.140211898677425e+00	 3.504780016148855e-01	 1.028902106952281e+01
1	 1.132093701424626e+00	 3.758748287637098e-01	 9.485771963160284e+00
1	 1.123362206523283e+00	 4.012173977711197e-01	 8.678655181893616e+00
1	 1.114014818790906e+00	 4.264844905562815e-01	 7.869650469999337e+00
1	 1.104049884715835e+00	 4.516545769235600e-01	 7.060892996775401e+00
1	 1.093466720476611e+00	 4.767058649732576e-01	 6.254666480506813e+00
1	 1.082265636833397e+00	 5.016163540563112e-01	 5.453394860488951e+00
1	 1.187592835372691e+00	 2.532278030134200e-01	 1.276477502742772e+01
1	 1.181781623626968e+00	 2.790938016503138e-01	 1.201352230853359e+01
1	 1.175365582942782e+00	 3.049868616489975e-01	 1.125392632256130e+01
1	 1.168338576587066e+00	 3.308871097884256e-01	 1.048725217202980e+01
1	 1.160695285930740e+00	 3.567741792293043e-01	 9.714912568542099e+00
1	 1.152431248962697e+00	 3.826272488061300e-01	 8.938465993581543e+00
1	 1.143542896733289e+00	 4.084250855187107e-01	 8.159613648476610e+00
1	 1.134027587438770e+00	 4.341460901130836e-01	 7.380195156436599e+00
1	 1.123883637862912e+00	 4.597683456134844e-01	 6.602182991371949e+00
1	 1.113110351899734e+00	 4.852696686386933e-01	 5.827675621077138e+00
1	 1.101708045892076e+00	 5.106276633080375e-01	 5.058889366130684e+00
1	 9.072855543946887e-01	 4.205153119584039e-01	 9.460174891321708e+00
1	 8.973778426309759e-01	 4.412631267957646e-01	 8.156376638282030e+00
1	 8.869551416254857e-01	 4.618556531118257e-01	 6.855923247787961e+00
1	 8.760203156838144e-01	 4.822741974000463e-01	 5.563219376719369e+00
1	 8.645771165329884e-01	 5.025000860247010e-01	 4.282762517078369e+00
1	 8.526301882742356e-01	 5.225147171506273e-01	 3.019125434970210e+00
1	 8.401850687269298e-01	 5.422996134099225e-01	 1.776937633387290e+00
1	 8.272481870752481e-01	 5.618364750149920e-01	 5.608659593216481e-01
1	 8.138268577557128e-01	 5.811072330167580e-01	-6.244055116237011e-01
1	 7.999292705517563e-01	 6.000941023989975e-01	-1.774196168625804e+00
1	 7.855644768903997e-01	 6.187796346948449e-01	-2.883849982709967e+00
1	 9.267274530996050e-01	 4.295263846659970e-01	 8.900377346939111e+00
1	 9.166074325133625e-01	 4.507187970315008e-01	 7.678227972092207e+00
1	 9.059613871643314e-01	 4.717525932532430e-01	 6.457899140060187e+00
1	 8.947922427362981e-01	 4.926086792482119e-01	 5.243512417919817e+00
1	 8.831038313507167e-01	 5.132679812300157e-01	 4.039278601855099e+00
1	 8.709008966256139e-01	 5.337114987514157e-01	 2.849481028809671e+00
1	 8.581890950483269e-01	 5.539203584995974e-01	 1.678457951736778e+00
1	 8.449749935717367e-01	 5.738758685473588e-01	 5.305840938889497e-01
1	 8.312660633708281e-01	 5.935595727525728e-01	-5.897484902634780e-01
1	 8.170706697249901e-01	 6.129533049902617e-01	-1.678150109003149e+00
1	 8.023980580210568e-01	 6.320392428966034e-01	-2.730253534310751e+00
1	 9.461694720224560e-01	 4.385375130931406e-01	 8.385993440949326e+00
1	 9.358371413006450e-01	 4.601745257357878e-01	 7.237386564372338e+00
1	 9.249677502268455e-01	 4.816495945916609e-01	 6.089248540586467e+00
1	 9.135642858634088e-01	 5.029432249987976e-01	 4.945433328947916e+00
1	 9.016306607267102e-01	 5.240359430176634e-01	 3.809880434145969e+00
1	 8.891717179521819e-01	 5.449083495864748e-01	 2.686599047075884e+00
1	 8.761932326958565e-01	 5.655411754450540e-01	 1.579651289027868e+00
1	 8.627019096801651e-01	 5.859153365241648e-01	 4.931346698050114e-01
1	 8.487053768195171e-01	 6.060119894862327e-01	-5.688361179626922e-01
1	 8.342121748903391e-01	 6.258125870951656e-01	-1.602147935588275e+00
1	 8.192317432404702e-01	 6.452989330878690e-01	-2.602708324422771e+00
1	 9.656115952852508e-01	 4.475486898806173e-01	 7.908971074113497e+00
1	 9.550669532882546e-01	 4.696303051863300e-01	 6.826597542016558e+00
1	 9.439742152908877e-01	 4.915466490444217e-01	 5.743509409063209e+00
1	 9.323364297343916e-01	 5.132778262118273e-01	 4.663308380586974e+00
1	 9.201575895304888e-01	 5.348039625937184e-01	 3.589677941612692e+00
1	 9.074426373325500e-01	 5.561052605116253e-01	 2.526368284022415e+00
1	 8.941974669659334e-01	 5.771620547558787e-01	 1.477180376715479e+00
1	 8.804289209233546e-01	 5.979548691130999e-01	 4.459492847953712e-01
1	 8.661447838594841e-01	 6.184644730481857e-01	-5.634731450163897e-01
1	 8.513537720487253e-01	 6.386719382118828e-01	-1.547236105530807e+00
1	 8.360655188009578e-01	 6.585586944398125e-01	-2.501508020953816e+00
1	 9.850538070099996e-01	 4.565599076692103e-01	 7.461893673984299e+00
1	 9.742968527716235e-01	 4.790861276608320e-01	 6.439178628142780e+00
1	 9.629807668343175e-01	 5.014437485288680e-01	 5.414729717958542e+00
1	 9.511086590184907e-01	 5.236124744473241e-01	 4.391911630190542e+00
1	 9.386846026315760e-01	 5.455720311642558e-01	 3.374166979993698e+00
1	 9.257136398453290e-01	 5.673022223826882e-01	 2.365001981933469e+00
1	 9.122017831549702e-01	 5.887829869416565e-01	 1.367971303663669e+00
1	 8.981560128241259e-01	 6.099944564818535e-01	 3.866622039661545e-01
1	 8.835842702484357e-01	 6.309170132688808e-01	-5.753219324638565e-01
1	 8.684954472010722e-01	 6.515313478385863e-01	-1.514378541543511e+00
1	 8.528993709548366e-01	 6.718185161236035e-01	-2.426923177444185e+00
1	 1.004496091318712e+00	 4.655711590997022e-01	 7.037918688468835e+00
1	 9.935268240461826e-01	 4.885419854369982e-01	 6.068964723916210e+00
1	 9.819873893349953e-01	 5.113408849623421e-01	 5.097418089086003e+00
1	 9.698809583849516e-01	 5.339471612653121e-01	 4.126421578521059e+00
1	 9.572116848994920e-01	 5.563401399353490e-01	 3.159191974717193e+00
1	 9.439847105691278e-01	 5.784992260554838e-01	 2.199006420987849e+00
1	 9.302061665593823e-01	 6.004039625119739e-01	 1.249188016680433e+00
1	 9.158831709053001e-01	 6.220340887981143e-01	 3.130907323545844e-01
1	 9.010238217440759e-01	 6.433695999787661e-01	-6.059162472669393e-01
1	 8.856371863483031e-01	 6.643908054734494e-01	-1.504464635649901e+00
1	 8.697332859544248e-01	 6.850783873104126e-01	-2.379203487327367e+00
1	 1.023938432333398e+00	 4.745824368128753e-01	 6.630723083597654e+00
1	 1.012756851407364e+00	 4.979978707925334e-01	 5.710258801262386e+00
1	 1.000994067270781e+00	 5.212380502621865e-01	 4.786500051567057e+00
1	 9.886533125030187e-01	 5.442818782258143e-01	 3.862382762404180e+00
1	 9.757388212037590e-01	 5.671082801130731e-01	 2.940912816798338e+00
1	 9.622558345825569e-01	 5.896962623858329e-01	 2.025153086033974e+00
1	 9.482106024755820e-01	 6.120249719764159e-01	 1.118209724870183e+00
1	 9.336103806896991e-01	 6.340737562295730e-01	 2.232178226058381e-01
1	 9.184634241041097e-01	 6.558222230082897e-01	-6.566734865257331e-01
1	 9.027789754913409e-01	 6.772503006146461e-01	-1.518316341484769e+00
1	 8.865672500520388e-01	 6.983382971714092e-01	-2.358579781481525e+00
1	 1.043380814176068e+00	 4.835937334495128e-01	 6.234454932273272e+00
1	 1.031986919150600e+00	 5.074537760051423e-01	 5.357788283639394e+00
1	 1.020000785119533e+00	 5.311352363457440e-01	 4.477279188251316e+00
1	 1.007425706041936e+00	 5.546166168888547e-01	 3.595671639654076e+00
1	 9.942659964138990e-01	 5.778764429035027e-01	 2.715775458335054e+00
1	 9.805269969642261e-01	 6.008933222295565e-01	 1.840453943908869e+00
1	 9.662150761999840e-01	 6.236460058445684e-01	 9.726108291969446e-01
1	 9.513376277001433e-01	 6.461134489439182e-01	 1.151766263555245e-01
1	 9.359030630862430e-01	 6.682748721878998e-01	-7.289055355595817e-01
1	 9.199208006311085e-01	 6.901098227603493e-01	-1.556694473983529e+00
1	 9.034012494999971e-01	 7.115982348777641e-01	-2.365265802542146e+00
1	 1.062823220968731e+00	 4.926050416503971e-01	 5.843690314361453e+00
1	 1.051217011571321e+00	 5.169096933525292e-01	 5.006666212405571e+00
1	 1.039007527359112e+00	 5.410324351303567e-01	 4.165402544878511e+00
1	 1.026198123670950e+00	 5.649513688144565e-01	 3.322466216864920e+00
1	 1.012793195399433e+00	 5.886446195127114e-01	 2.480485734059321e+00
1	 9.987981827927459e-01	 6.120903964424752e-01	 1.642139433155752e+00
1	 9.842195730290011e-01	 6.352670546260167e-01	 8.101430540341885e-01
1	 9.690648974594546e-01	 6.581531571088396e-01	-1.276325947524981e-02
1	 9.533427244481810e-01	 6.807275373480454e-01	-8.238284347160740e-01
1	 9.370626477685290e-01	 7.029693614087323e-01	-1.620304317915421e+00
1	 9.202352705506168e-01	 7.248581896006466e-01	-2.399459784550339e+00
1	 1.082265636833397e+00	 5.016163540563112e-01	 5.453394860488951e+00
1	 1.070447112964960e+00	 5.263656151123988e-01	 4.652356597232828e+00
1	 1.058014278467378e+00	 5.509296385333676e-01	 3.846829766155422e+00
1	 1.044970550059303e+00	 5.752861255626432e-01	 3.039218949589855e+00
1	 1.031320403029883e+00	 5.994128011467749e-01	 2.231986003428402e+00
1	 1.017069377146726e+00	 6.232874758804096e-01	 1.427638825191300e+00
1	 1.002224078259048e+00	 6.468881088303472e-01	 6.287195039117137e-01
1	 9.867921754904537e-01	 6.701928708920269e-01	-1.622080645217190e-01
1	 9.707823939476281e-01	 6.931802083191746e-01	-9.425710046515603e-01
1	 9.542045029045261e-01	 7.158289060579697e-01	-1.709800632138158e+00
1	 9.370692994562149e-01	 7.381181505112275e-01	-2.461345862406594e+00
1	 1.101708045892076e+00	 5.106276633080375e-01	 5.058889366130686e+00
1	 1.089677207626948e+00	 5.358215335624558e-01	 4.290643433908628e+00
1	 1.077021022922191e+00	 5.608268384721187e-01	 3.517805498538095e+00
1	 1.063742969876242e+00	 5.856208786934388e-01	 2.742632510824701e+00
1	 1.049847604174770e+00	 6.101809790117667e-01	 1.967434264968009e+00
1	 1.035340565104777e+00	 6.344845513991805e-01	 1.194562664089240e+00
1	 1.020228577186538e+00	 6.585091589671449e-01	 4.264004077304544e-01
1	 1.004519447315962e+00	 6.822325804611694e-01	-3.346508179403693e-01
1	 9.882220573422899e-01	 7.056328749317351e-01	-1.086182558694496e+00
1	 9.713463520400218e-01	 7.286884462062339e-01	-1.825792124192807e+00
1	 9.539033224691094e-01	 7.513781067806766e-01	-2.551095332146162e+00
1	 7.855644768903997e-01	 6.187796346948449e-01	-2.883849982709967e+00
1	 7.707423701765810e-01	 6.371467715387087e-01	-3.948960794438467e+00
1	 7.554736580333883e-01	 6.551789005581102e-01	-4.966248780653291e+00
1	 7.397698440641727e-01	 6.728598994536507e-01	-5.933050386544768e+00
1	 7.236432017326105e-01	 6.901741818186914e-01	-6.847070845689275e+00
1	 7.071067426773200e-01	 7.071067426773202e-01	-7.706390029476442e+00
1	 6.901741818186911e-01	 7.236432017326108e-01	-8.509465541087815e+00
1	 6.728598994536503e-01	 7.397698440641729e-01	-9.255133042294315e+00
1	 6.551789005581099e-01	 7.554736580333886e-01	-9.942603832332743e+00
1	 6.371467715387082e-01	 7.707423701765813e-01	-1.057145972872306e+01
1	 6.187796346948450e-01	 7.855644768903999e-01	-1.114164532961126e+01
1	 8.023980580210568e-01	 6.320392428966034e-01	-2.730253534310751e+00
1	 7.872583336662222e-01	 6.507999625683830e-01	-3.743102985234871e+00
1	 7.716624337334248e-01	 6.692184956525079e-01	-4.714676791778283e+00
1	 7.556221083326433e-01	 6.872783743705597e-01	-5.642271614456637e+00
1	 7.391498939312462e-01	 7.049636783203347e-01	-6.523502901735632e+00
1	 7.222590809896289e-01	 7.222590809896291e-01	-7.356311960901690e+00
1	 7.049636783203347e-01	 7.391498939312467e-01	-8.138970641998753e+00
1	 6.872783743705594e-01	 7.556221083326436e-01	-8.870083607624519e+00
1	 6.692184956525077e-01	 7.716624337334250e-01	-9.548588188352618e+00
1	 6.507999625683827e-01	 7.872583336662224e-01	-1.017375185041998e+01
1	 6.320392428966034e-01	 8.023980580210568e-01	-1.074516732863917e+01
1	 8.192317432404702e-01	 6.452989330878690e-01	-2.602708324422771e+00
1	 8.037743992806687e-01	 6.644532380212435e-01	-3.568797191676096e+00
1	 7.878513095351404e-01	 6.832581775593793e-01	-4.499456568145529e+00
1	 7.714744706220162e-01	 7.016969384427031e-01	-5.391963618646438e+00
1	 7.546566820139806e-01	 7.197532662713827e-01	-6.243869091331334e+00
1	 7.374115129949314e-01	 7.374115129949317e-01	-7.053005427326642e+00
1	 7.197532662713823e-01	 7.546566820139807e-01	-7.817492817553678e+00
1	 7.016969384427029e-01	 7.714744706220167e-01	-8.535743166025780e+00
1	 6.832581775593791e-01	 7.878513095351407e-01	-9.206461942245463e+00
1	 6.644532380212431e-01	 8.037743992806691e-01	-9.828647928796205e+00
1	 6.452989330878689e-01	 8.192317432404701e-01	-1.040159089343947e+01
1	 8.360655188009578e-01	 6.585586944398125e-01	-2.501508020953816e+00
1	 8.202905535316367e-01	 6.781065867470273e-01	-3.425614203155387e+00
1	 8.040402722174659e-01	 6.972979348128892e-01	-4.319489189209039e+00
1	 7.873269179860506e-01	 7.161155798948174e-01	-5.180409193882221e+00
1	 7.701635533168030e-01	 7.345429335935574e-01	-6.005883392283905e+00
1	 7.525640263186183e-01	 7.525640263186185e-01	-6.793662893860658e+00
1	 7.345429335935570e-01	 7.701635533168031e-01	-7.541747964627909e+00
1	 7.161155798948173e-01	 7.873269179860510e-01	-8.248393445329425e+00
1	 6.972979348128893e-01	 8.040402722174663e-01	-8.912112333265911e+00
1	 6.781065867470268e-01	 8.202905535316370e-01	-9.531677515919272e+00
1	 6.585586944398124e-01	 8.360655188009579e-01	-1.010612166490322e+01
1	 8.528993709548366e-01	 6.718185161236035e-01	-2.426923177444185e+00
1	 8.368067829308420e-01	 6.917599975954706e-01	-3.313158753327766e+00
1	 8.202293085593317e-01	 7.113377559472025e-01	-4.173762539900468e+00
1	 8.031794374785077e-01	 7.305342869516385e-01	-5.006026741867748e+00
1	 7.856704951757033e-01	 7.493326682085840e-01	-5.807440285604310e+00
1	 7.677166085860817e-01	 7.677166085860819e-01	-6.575698490721943e+00
1	 7.493326682085839e-01	 7.856704951757036e-01	-7.308711259078960e+00
1	 7.305342869516384e-01	 8.031794374785082e-01	-8.004609719165906e+00
1	 7.113377559472021e-01	 8.202293085593320e-01	-8.661751280896610e+00
1	 6.917599975954701e-01	 8.368067829308423e-01	-9.278723073456140e+00
1	 6.718185161236035e-01	 8.528993709548366e-01	-9.854343756715126e+00
1	 8.697332859544248e-01	 6.850783873104126e-01	-2.379203487327367e+00
1	 8.533230739900002e-01	 7.054134594163103e-01	-3.231066253231961e+00
1	 8.364184053396694e-01	 7.253776294964832e-01	-4.061342928593541e+00
1	 8.190320161531471e-01	 7.449530478379018e-01	-4.867357166714102e+00
1	 8.011774949266720e-01	 7.641224580381865e-01	-5.646597306203006e+00
1	 7.828692474227116e-01	 7.828692474227119e-01	-6.396726580353533e+00
1	 7.641224580381860e-01	 8.011774949266722e-01	-7.115592082459184e+00
1	 7.449530478379015e-01	 8.190320161531474e-01	-7.801232417013290e+00
1	 7.253776294964830e-01	 8.364184053396695e-01	-8.451883981214834e+00
1	 7.054134594163100e-01	 8.533230739900004e-01	-9.065985836356056e+00
1	 6.850783873104126e-01	 8.697332859544249e-01	-9.642183144252328e+00
1	 8.865672500520388e-01	 6.983382971714092e-01	-2.358579781481525e+00
1	 8.698394132208275e-01	 7.190669610592838e-01	-3.178999896437837e+00
1	 8.526075493374089e-01	 7.394175439948966e-01	-3.981367659594535e+00
1	 8.348846410637298e-01	 7.593718507783438e-01	-4.763052262724585e+00
1	 8.166845399056983e-01	 7.789122910040875e-01	-5.521559580671314e+00
1	 7.980219304538989e-01	 7.980219304538996e-01	-6.254542765265483e+00
1	 7.789122910040872e-01	 8.166845399056983e-01	-6.959811804013632e+00
1	 7.593718507783433e-01	 8.348846410637299e-01	-7.635341967225830e+00
1	 7.394175439948960e-01	 8.526075493374089e-01	-8.279281079429989e+00
1	 7.190669610592832e-01	 8.698394132208278e-01	-8.889955563896480e+00
1	 6.983382971714092e-01	 8.865672500520388e-01	-9.465875222668158e+00
1	 9.034012494999971e-01	 7.115982348777641e-01	-2.365265802542146e+00
1	 8.863557871350394e-01	 7.327204913741271e-01	-3.156648087712125e+00
1	 8.687967273314808e-01	 7.534574879766064e-01	-3.933038435706057e+00
1	 8.507372992640161e-01	 7.737906839977000e-01	-4.691864399920232e+00
1	 8.321916174487727e-01	 7.937021550280120e-01	-5.430666093067475e+00
1	 8.131746453050358e-01	 8.131746453050365e-01	-6.147107018374728e+00
1	 7.937021550280117e-01	 8.321916174487727e-01	-6.838984045685660e+00
1	 7.737906839977000e-01	 8.507372992640163e-01	-7.504236451518922e+00
1	 7.534574879766063e-01	 8.687967273314813e-01	-8.140953952322334e+00
1	 7.327204913741269e-01	 8.863557871350398e-01	-8.747383671247155e+00
1	 7.115982348777641e-01	 9.034012494999973e-01	-9.321935990572053e+00
1	 9.202352705506168e-01	 7.248581896006466e-01	-2.399459784550339e+00
1	 9.028721822443518e-01	 7.463740392105777e-01	-3.163722153794502e+00
1	 8.849859261008165e-01	 7.674974499757784e-01	-3.915615484616395e+00
1	 8.665899778077661e-01	 7.882095357207065e-01	-4.652637341198542e+00
1	 8.476987148918844e-01	 8.084920380316823e-01	-5.372377457524746e+00
1	 8.283273796015135e-01	 8.283273796015139e-01	-6.072528664166958e+00
1	 8.084920380316822e-01	 8.476987148918850e-01	-6.750897112308713e+00
1	 7.882095357207061e-01	 8.665899778077666e-01	-7.405411711047675e+00
1	 7.674974499757782e-01	 8.849859261008168e-01	-8.034132702519456e+00
1	 7.463740392105774e-01	 9.028721822443523e-01	-8.635259308851275e+00
1	 7.248581896006467e-01	 9.202352705506168e-01	-9.207136395234913e+00
1	 9.370692994562149e-01	 7.381181505112275e-01	-2.461345862406594e+00
1	 9.193885850604807e-01	 7.600275934183721e-01	-3.199954300822037e+00
1	 9.011751324243462e-01	 7.815374185265763e-01	-3.928412318129259e+00
1	 8.824426637487408e-01	 8.026283941720994e-01	-4.644298048878586e+00
1	 8.632058195710240e-01	 8.232819279368239e-01	-5.345265008275276e+00
1	 8.434801209687223e-01	 8.434801209687225e-01	-6.029052978031974e+00
1	 8.232819279368236e-01	 8.632058195710244e-01	-6.693498314820030e+00
1	 8.026283941720993e-01	 8.824426637487413e-01	-7.336543595914675e+00
1	 7.815374185265760e-01	 9.011751324243464e-01	-7.956246523733707e+00
1	 7.600275934183719e-01	 9.193885850604807e-01	-8.550788019082988e+00
1	 7.381181505112275e-01	 9.370692994562149e-01	-9.118479441915495e+00
1	 9.539033224691094e-01	 7.513781067806766e-01	-2.551095332146162e+00
1	 9.359049820951422e-01	 7.736811428472474e-01	-3.265095787946024e+00
1	 9.173643330810004e-01	 7.955773821631652e-01	-3.970791046090129e+00
1	 8.982953441407002e-01	 8.170472475766148e-01	-4.665849358461389e+00
1	 8.787129188221813e-01	 8.380718126651596e-01	-5.348001044411097e+00
1	 8.586328570320533e-01	 8.586328570320538e-01	-6.015049203956531e+00
1	 8.380718126651595e-01	 8.787129188221815e-01	-6.664879952741822e+00
1	 8.170472475766142e-01	 8.982953441407006e-01	-7.295472093430391e+00
1	 7.955773821631648e-01	 9.173643330810007e-01	-7.904906144187313e+00
1	 7.736811428472473e-01	 9.359049820951423e-01	-8.491372651933471e+00
1	 7.513781067806767e-01	 9.539033224691095e-01	-9.053179725988263e+00
1	 6.187796346948450e-01	 7.855644768903999e-01	-1.114164532961126e+01
1	 6.000941023989972e-01	 7.999292705517564e-01	-1.165446833842561e+01
1	 5.811072330167577e-01	 8.138268577557130e-01	-1.211106378129947e+01
1	 5.618364750149918e-01	 8.272481870752482e-01	-1.251171123107501e+01
1	 5.422996134099223e-01	 8.401850687269302e-01	-1.285711549898895e+01
1	 5.225147171506268e-01	 8.526301882742356e-01	-1.314838948287211e+01
1	 5.025000860247008e-01	 8.645771165329886e-01	-1.338703439184995e+01
1	 4.822741974000460e-01	 8.760203156838146e-01	-1.357491759188403e+01
1	 4.618556531118254e-01	 8.869551416254861e-01	-1.371424833637690e+01
1	 4.412631267957642e-01	 8.973778426309756e-01	-1.380755166183096e+01
1	 4.205153119584038e-01	 9.072855543946884e-01	-1.385764074006630e+01
1	 6.320392428966034e-01	 8.023980580210568e-01	-1.074516732863917e+01
1	 6.129533049902616e-01	 8.170706697249903e-01	-1.126427262367167e+01
1	 5.935595727525724e-01	 8.312660633708283e-01	-1.173237303494277e+01
1	 5.738758685473585e-01	 8.449749935717368e-01	-1.214939571290048e+01
1	 5.539203584995970e-01	 8.581890950483272e-01	-1.251564998462527e+01
1	 5.337114987514154e-01	 8.709008966256140e-01	-1.283181366421388e+01
1	 5.132679812300153e-01	 8.831038313507170e-01	-1.309891697358995e+01
1	 4.926086792482115e-01	 8.947922427362983e-01	-1.331832427937369e+01
1	 4.717525932532428e-01	 9.059613871643315e-01	-1.349171387009160e+01
1	 4.507187970315005e-01	 9.166074325133627e-01	-1.362105601308745e+01
1	 4.295263846659971e-01	 9.267274530996050e-01	-1.370858954190610e+01
1	 6.452989330878689e-01	 8.192317432404701e-01	-1.040159089343947e+01
1	 6.258125870951656e-01	 8.342121748903389e-01	-1.092682851355636e+01
1	 6.060119894862324e-01	 8.487053768195172e-01	-1.140579686355070e+01
1	 5.859153365241646e-01	 8.627019096801652e-01	-1.183811112692409e+01
1	 5.655411754450539e-01	 8.761932326958571e-01	-1.222372891356162e+01
1	 5.449083495864745e-01	 8.891717179521820e-01	-1.256293971572126e+01
1	 5.240359430176632e-01	 9.016306607267103e-01	-1.285635219202185e+01
1	 5.029432249987972e-01	 9.135642858634091e-01	-1.310487944965508e+01
1	 4.816495945916606e-01	 9.249677502268457e-01	-1.330972251250839e+01
1	 4.601745257357874e-01	 9.358371413006453e-01	-1.347235217731604e+01
1	 4.385375130931406e-01	 9.461694720224560e-01	-1.359448947122825e+01
1	 6.585586944398124e-01	 8.360655188009579e-01	-1.010612166490322e+01
1	 6.386719382118824e-01	 8.513537720487252e-01	-1.063705594766904e+01
1	 6.184644730481854e-01	 8.661447838594846e-01	-1.112601272289811e+01
1	 5.979548691130996e-01	 8.804289209233550e-01	-1.157233326771420e+01
1	 5.771620547558782e-01	 8.941974669659335e-01	-1.197566468497277e+01
1	 5.561052605116251e-01	 9.074426373325506e-01	-1.233595220198083e+01
1	 5.348039625937184e-01	 9.201575895304894e-01	-1.265342949914947e+01
1	 5.132778262118267e-01	 9.323364297343917e-01	-1.292860720655241e+01
1	 4.915466490444214e-01	 9.439742152908878e-01	-1.316225972271673e+01
1	 4.696303051863295e-01	 9.550669532882545e-01	-1.335541052375589e+01
1	 4.475486898806173e-01	 9.656115952852506e-01	-1.350931614207985e+01
1	 6.718185161236035e-01	 8.528993709548366e-01	-9.854343756715126e+00
1	 6.515313478385860e-01	 8.684954472010725e-01	-1.039027588546413e+01
1	 6.309170132688804e-01	 8.835842702484357e-01	-1.088811822431539e+01
1	 6.099944564818532e-01	 8.981560128241262e-01	-1.134697399878603e+01
1	 5.887829869416564e-01	 9.122017831549707e-01	-1.176621865993458e+01
1	 5.673022223826878e-01	 9.257136398453292e-01	-1.214549473556229e+01
1	 5.455720311642555e-01	 9.386846026315764e-01	-1.248470489829135e+01
1	 5.236124744473237e-01	 9.511086590184908e-01	-1.278400335929065e+01
1	 5.014437485288675e-01	 9.629807668343175e-01	-1.304378571170627e+01
1	 4.790861276608314e-01	 9.742968527716233e-01	-1.326467736103520e+01
1	 4.565599076692103e-01	 9.850538070099997e-01	-1.344752069060680e+01
1	 6.850783873104126e-01	 8.697332859544249e-01	-9.642183144252328e+00
1	 6.643908054734493e-01	 8.856371863483036e-01	-1.018217151214075e+01
1	 6.433695999787655e-01	 9.010238217440757e-01	-1.068759048756381e+01
1	 6.220340887981141e-01	 9.158831709053001e-01	-1.115733906420203e+01
1	 6.004039625119737e-01	 9.302061665593826e-01	-1.159055772396075e+01
1	 5.784992260554833e-01	 9.439847105691280e-01	-1.198662556204797e+01
1	 5.563401399353486e-01	 9.572116848994920e-01	-1.234515580149291e+01
1	 5.339471612653116e-01	 9.698809583849518e-01	-1.266598977959553e+01
1	 5.113408849623419e-01	 9.819873893349959e-01	-1.294918950309653e+01
1	 4.885419854369978e-01	 9.935268240461828e-01	-1.319502888143317e+01
1	 4.655711590997021e-01	 1.004496091318712e+00	-1.340398375816784e+01
1	 6.983382971714092e-01	 8.865672500520388e-01	-9.465875222668158e+00
1	 6.772503006146458e-01	 9.027789754913409e-01	-1.000875386230549e+01
1	 6.558222230082891e-01	 9.184634241041100e-01	-1.052025012250865e+01
1	 6.340737562295727e-01	 9.336103806896990e-01	-1.099909070448729e+01
1	 6.120249719764157e-01	 9.482106024755824e-01	-1.144421579609297e+01
1	 5.896962623858325e-01	 9.622558345825569e-01	-1.185477820293510e+01
1	 5.671082801130728e-01	 9.757388212037590e-01	-1.223014102766825e+01
1	 5.442818782258141e-01	 9.886533125030188e-01	-1.256987395649985e+01
1	 5.212380502621862e-01	 1.000994067270781e+00	-1.287374822532099e+01
1	 4.979978707925330e-01	 1.012756851407364e+00	-1.314173034985929e+01
1	 4.745824368128753e-01	 1.023938432333398e+00	-1.337397471474162e+01
1	 7.115982348777641e-01	 9.034012494999973e-01	-9.321935990572053e+00
1	 6.901098227603490e-01	 9.199208006311087e-01	-9.866331285414237e+00
1	 6.682748721878996e-01	 9.359030630862434e-01	-1.038222923607612e+01
1	 6.461134489439179e-01	 9.513376277001435e-01	-1.086821445045978e+01
1	 6.236460058445679e-01	 9.662150761999836e-01	-1.132305963960290e+01
1	 6.008933222295560e-01	 9.805269969642263e-01	-1.174572649694901e+01
1	 5.778764429035024e-01	 9.942659964138990e-01	-1.213536527121045e+01
1	 5.546166168888542e-01	 1.007425706041936e+00	-1.249131307116188e+01
1	 5.311352363457437e-01	 1.020000785119533e+00	-1.281309095317479e+01
1	 5.074537760051419e-01	 1.031986919150600e+00	-1.310039985373078e+01
1	 4.835937334495127e-01	 1.043380814176068e+00	-1.335311543938431e+01
1	 7.248581896006467e-01	 9.202352705506168e-01	-9.207136395234913e+00
1	 7.029693614087323e-01	 9.370626477685295e-01	-9.751482261253358e+00
1	 6.807275373480450e-01	 9.533427244481812e-01	-1.026994294926201e+01
1	 6.581531571088395e-01	 9.690648974594548e-01	-1.076098956021014e+01
1	 6.352670546260165e-01	 9.842195730290018e-01	-1.122325842370356e+01
1	 6.120903964424750e-01	 9.987981827927465e-01	-1.165555347677967e+01
1	 5.886446195127112e-01	 1.012793195399433e+00	-1.205684746885760e+01
1	 5.649513688144562e-01	 1.026198123670950e+00	-1.242628201314442e+01
1	 5.410324351303566e-01	 1.039007527359113e+00	-1.276316651641498e+01
1	 5.169096933525288e-01	 1.051217011571321e+00	-1.306697602995848e+01
1	 4.926050416503973e-01	 1.062823220968731e+00	-1.333734807444102e+01
1	 7.381181505112275e-01	 9.370692994562149e-01	-9.118479441915495e+00
1	 7.158289060579694e-01	 9.542045029045262e-01	-9.661031144358112e+00
1	 6.931802083191740e-01	 9.707823939476286e-01	-1.018006398298106e+01
1	 6.701928708920266e-01	 9.867921754904537e-01	-1.067396264128519e+01
1	 6.468881088303469e-01	 1.002224078259048e+00	-1.114125656476988e+01
1	 6.232874758804091e-01	 1.017069377146727e+00	-1.158062359912742e+01
1	 5.994128011467743e-01	 1.031320403029883e+00	-1.199089257480304e+01
1	 5.752861255626429e-01	 1.044970550059304e+00	-1.237104484271104e+01
1	 5.509296385333672e-01	 1.058014278467379e+00	-1.272021477675356e+01
1	 5.263656151123984e-01	 1.070447112964960e+00	-1.303768926912060e+01
1	 5.016163540563112e-01	 1.082265636833397e+00	-1.332290625401090e+01
1	 7.513781067806767e-01	 9.539033224691095e-01	-9.053179725988263e+00
1	 7.286884462062335e-01	 9.713463520400222e-01	-9.592026475697596e+00
1	 7.056328749317351e-01	 9.882220573422903e-01	-1.010949993380643e+01
1	 6.822325804611691e-01	 1.004519447315962e+00	-1.060392406475958e+01
1	 6.585091589671447e-01	 1.020228577186539e+00	-1.107374944210498e+01
1	 6.344845513991801e-01	 1.035340565104777e+00	-1.151755791398286e+01
1	 6.101809790117663e-01	 1.049847604174770e+00	-1.193406632319072e+01
1	 5.856208786934384e-01	 1.063742969876243e+00	-1.232212927361644e+01
1	 5.608268384721183e-01	 1.077021022922191e+00	-1.268074094495810e+01
1	 5.358215335624553e-01	 1.089677207626948e+00	-1.300903596744972e+01
1	 5.106276633080377e-01	 1.101708045892076e+00	-1.330628937765504e+01
1	 4.205153119584038e-01	 9.072855543946884e-01	-1.385764074006630e+01
1	 3.996323363483559e-01	 9.166756533117867e-01	-1.386987056515022e+01
1	 3.786313260672554e-01	 9.255477376767897e-01	-1.384819611142149e+01
1	 3.575307247119081e-01	 9.339015469729992e-01	-1.379370836197930e+01
1	 3.363488008802308e-01	 9.417376544619560e-01	-1.370773163048444e+01
1	 3.151036037782408e-01	 9.490574463164519e-01	-1.359180576992785e+01
1	 2.938129209596947e-01	 9.558630981313170e-01	-1.344766753506505e+01
1	 2.724942383587361e-01	 9.621575490304196e-01	-1.327723129788238e+01
1	 2.511647027528098e-01	 9.679444735972303e-01	-1.308256931272649e+01
1	 2.298410867697775e-01	 9.732282518626566e-01	-1.286589172262834e+01
1	 2.085397565298897e-01	 9.780139375877577e-01	-1.262952649111549e+01
1	 4.295263846659971e-01	 9.267274530996050e-01	-1.370858954190610e+01
1	 4.081959152156875e-01	 9.363187690979321e-01	-1.375916668241869e+01
1	 3.867448817713726e-01	 9.453809701949013e-01	-1.377639854270180e+01
1	 3.651921231511673e-01	 9.539137902913475e-01	-1.376101043487138e+01
1	 3.435562994243084e-01	 9.619178149330770e-01	-1.371395041910027e+01
1	 3.218558465668613e-01	 9.693944599967365e-01	-1.363637427226218e+01
1	 3.001089332957768e-01	 9.763459476972484e-01	-1.352962957578713e+01
1	 2.783334202450919e-01	 9.827752801399664e-01	-1.339523909946733e+01
1	 2.565468216244761e-01	 9.886862106497463e-01	-1.323488365684529e+01
1	 2.347662694764965e-01	 9.940832131156619e-01	-1.305038460453173e+01
1	 2.130084806252003e-01	 9.989714495940584e-01	-1.284368615252123e+01
1	 4.385375130931406e-01	 9.461694720224560e-01	-1.359448947122825e+01
1	 4.167595470356864e-01	 9.559620063465152e-01	-1.368053020951222e+01
1	 3.948584876456476e-01	 9.652143253513543e-01	-1.373377056170646e+01
1	 3.728535689648783e-01	 9.739261573552891e-01	-1.375460223353540e+01
1	 3.507638425363411e-01	 9.820981001884548e-01	-1.374362943586417e+01
1	 3.286081311085275e-01	 9.897315994315168e-01	-1.370165642456810e+01
1	 3.064049845639254e-01	 9.968289239197676e-01	-1.362967412998261e+01
1	 2.841726382387694e-01	 1.003393138740421e+00	-1.352884603141149e+01
1	 2.619289737772125e-01	 1.009428075960190e+00	-1.340049343256463e+01
1	 2.396914826387364e-01	 1.014938303326879e+00	-1.324608029219561e+01
1	 2.174772323533424e-01	 1.019929091192779e+00	-1.306719776075045e+01
1	 4.475486898806173e-01	 9.656115952852506e-01	-1.350931614207985e+01
1	 4.253232248145773e-01	 9.756053490151767e-01	-1.362795861126477e+01
1	 4.029721370638132e-01	 9.850477869484793e-01	-1.371434538855279e+01
1	 3.805150558960260e-01	 9.939386318209121e-01	-1.376856487769323e+01
1	 3.579714243299932e-01	 1.002278493746992e+00	-1.379090804665023e+01
1	 3.353604518886946e-01	 1.010068848011553e+00	-1.378185835897268e+01
1	 3.127010696221891e-01	 1.017312010070490e+00	-1.374208076981894e+01
1	 2.900118875709075e-01	 1.024011107993203e+00	-1.367240992214851e+01
1	 2.673111548154468e-01	 1.030170052588674e+00	-1.357383768037632e+01
1	 2.446167222341216e-01	 1.035793505463931e+00	-1.344750013873566e+01
1	 2.219460080647578e-01	 1.040886845267778e+00	-1.329466423982431e+01
1	 4.565599076692103e-01	 9.850538070099997e-01	-1.344752069060680e+01
1	 4.338869415585854e-01	 9.952487810615555e-01	-1.359592314691608e+01
1	 4.110858233996027e-01	 1.004881338788606e+00	-1.371262721294169e+01
1	 3.881765776875967e-01	 1.013951197344305e+00	-1.379744667364495e+01
1	 3.651790389189292e-01	 1.022458979127596e+00	-1.385038820463363e+01
1	 3.421128033928178e-01	 1.030406189127603e+00	-1.387164352353100e+01
1	 3.189971833286159e-01	 1.037795189421028e+00	-1.386158058566301e+01
1	 2.958511634726449e-01	 1.044629171059732e+00	-1.382073394085429e+01
1	 2.726933603436074e-01	 1.050912123595312e+00	-1.374979437118147e+01
1	 2.495419842402762e-01	 1.056648802494440e+00	-1.364959793090817e+01
1	 2.264148041098882e-01	 1.061844694702915e+00	-1.352111450961664e+01
1	 4.655711590997021e-01	 1.004496091318712e+00	-1.340398375816784e+01
1	 4.424506902739356e-01	 1.014892286443292e+00	-1.357932301892787e+01
1	 4.191995400267488e-01	 1.024714964674065e+00	-1.372354561489677e+01
1	 3.958381280825752e-01	 1.033963837581557e+00	-1.383621789971614e+01
1	 3.723866804168133e-01	 1.042639539849171e+00	-1.391708967951004e+01
1	 3.488651801063526e-01	 1.050743606170426e+00	-1.396608842033786e+01
1	 3.252933205412541e-01	 1.058278445242995e+00	-1.398331248411194e+01
1	 3.016904611751206e-01	 1.065247311101426e+00	-1.396902349224538e+01
1	 2.780755859661225e-01	 1.071654272040220e+00	-1.392363792050248e+01
1	 2.544672646348243e-01	 1.077504177386029e+00	-1.384771803121981e+01
1	 2.308836168391752e-01	 1.082802622382047e+00	-1.374196225028313e+01
1	 4.745824368128753e-01	 1.023938432333398e+00	-1.337397471474162e+01
1	 4.510144639668531e-01	 1.034535849118026e+00	-1.357344474322321e+01
1	 4.273132803189845e-01	 1.044548648407187e+00	-1.374241517596074e+01
1	 4.034997008239476e-01	 1.053976536188754e+00	-1.388023074063049e+01
1	 3.795943429373100e-01	 1.062820159430623e+00	-1.398641038510430e+01
1	 3.556175765147537e-01	 1.071081082530780e+00	-1.406064338407693e+01
1	 3.315894761181520e-01	 1.078761760808004e+00	-1.410278446270049e+01
1	 3.075297759094728e-01	 1.085865511279706e+00	-1.411284802009522e+01
1	 2.834578272874200e-01	 1.092396480983510e+00	-1.409100154087575e+01
1	 2.593925593953902e-01	 1.098359613106321e+00	-1.403755828671472e+01
1	 2.353524426030607e-01	 1.103760611189034e+00	-1.395296936249935e+01
1	 4.835937334495127e-01	 1.043380814176068e+00	-1.335311543938431e+01
1	 4.595782556435624e-01	 1.054179453043397e+00	-1.357392606006611e+01
1	 4.354270376500431e-01	 1.064382373790302e+00	-1.376489960410384e+01
1	 4.111612896546992e-01	 1.073989276821986e+00	-1.392518369947873e+01
1	 3.868020205940839e-01	 1.083000821390855e+00	-1.405409114062728e+01
1	 3.623699871034771e-01	 1.091418601599426e+00	-1.415109774382374e+01
1	 3.378856449173579e-01	 1.099245119387670e+00	-1.421583921241148e+01
1	 3.133691029068408e-01	 1.106483754755991e+00	-1.424810707945562e+01
1	 2.888400799119281e-01	 1.113138733485298e+00	-1.424784380160885e+01
1	 2.643178644995979e-01	 1.119215092622939e+00	-1.421513708294568e+01
1	 2.398212777519862e-01	 1.124718644007733e+00	-1.415021351125455e+01
1	 4.926050416503973e-01	 1.062823220968731e+00	-1.333734807444102e+01
1	 4.681420583102891e-01	 1.073823082177045e+00	-1.357672380438666e+01
1	 4.435408053936573e-01	 1.084216124625741e+00	-1.378697979459563e+01
1	 4.188228883178154e-01	 1.094002043137341e+00	-1.396708991415468e+01
1	 3.940097075007988e-01	 1.103181509248773e+00	-1.411618429808081e+01
1	 3.691224063579773e-01	 1.111756146767121e+00	-1.423354880705012e+01
1	 3.441818217969195e-01	 1.119728504253606e+00	-1.431862349403772e+01
1	 3.192084373983631e-01	 1.127102024691700e+00	-1.437100013119658e+01
1	 2.942223394440749e-01	 1.133881012605696e+00	-1.439041885736699e+01
1	 2.692431759250716e-01	 1.140070598903504e+00	-1.437676401255285e+01
1	 2.442901186363934e-01	 1.145676703722003e+00	-1.433005923051306e+01
1	 5.016163540563112e-01	 1.082265636833397e+00	-1.332290625401090e+01
1	 4.767058649732577e-01	 1.093466720476611e+00	-1.357808523784896e+01
1	 4.516545769235600e-01	 1.104049884715834e+00	-1.380492533208988e+01
1	 4.264844905562817e-01	 1.114014818790906e+00	-1.400224888747072e+01
1	 4.012173977711198e-01	 1.123362206523283e+00	-1.416902574983501e+01
1	 3.758748287637099e-01	 1.132093701424626e+00	-1.430437418538038e+01
1	 3.504780016148858e-01	 1.140211898677425e+00	-1.440756081402170e+01
1	 3.250477746151785e-01	 1.147720304248252e+00	-1.447799959096760e+01
1	 2.996046014882889e-01	 1.154623301404820e+00	-1.451524988441593e+01
1	 2.741684896494356e-01	 1.160926114915639e+00	-1.451901370409216e+01
1	 2.487589616067241e-01	 1.166634773215703e+00	-1.448913214114070e+01
1	 5.106276633080377e-01	 1.101708045892076e+00	-1.330628937765504e+01
1	 4.852696686386936e-01	 1.113110351899734e+00	-1.357452241519639e+01
1	 4.597683456134846e-01	 1.123883637862912e+00	-1.381526900899132e+01
1	 4.341460901130837e-01	 1.134027587438770e+00	-1.402722120941845e+01
1	 4.084250855187109e-01	 1.143542896733289e+00	-1.420920989898533e+01
1	 3.826272488061301e-01	 1.152431248962697e+00	-1.436020704945098e+01
1	 3.567741792293045e-01	 1.160695285930740e+00	-1.447932699234424e+01
1	 3.308871097884258e-01	 1.168338576587066e+00	-1.456582673071657e+01
1	 3.049868616489977e-01	 1.175365582942782e+00	-1.461910532843090e+01
1	 2.790938016503139e-01	 1.181781623626968e+00	-1.463870242087849e+01
1	 2.532278030134201e-01	 1.187592835372691e+00	-1.462429589766289e+01
1	 2.085397565298897e-01	 9.780139375877577e-01	-1.262952649111549e+01
1	 1.872751588682954e-01	 9.823075085927059e-01	-1.237775914454988e+01
1	 1.660642739430359e-01	 9.861149146151665e-01	-1.211343929901483e+01
1	 1.449221048859622e-01	 9.894430288203904e-01	-1.183684409351204e+01
1	 1.238631447915627e-01	 9.922992591451227e-01	-1.154834857334468e+01
1	 1.029013581149162e-01	 9.946915115410935e-01	-1.124841751851996e+01
1	 8.205016480108950e-02	 9.966281528999332e-01	-1.093759711039827e+01
1	 6.132242709398352e-02	 9.981179738659459e-01	-1.061650651606680e+01
1	 4.073043895732970e-02	 9.991701517322813e-01	-1.028582946530816e+01
1	 2.028591802679350e-02	 9.997942136041430e-01	-9.946305889893146e+00
1	 0.000000000000000e+00	 1.000000000000000e+00	-9.598723689334946e+00
1	 2.130084806252003e-01	 9.989714495940584e-01	-1.284368615252123e+01
1	 1.912882114818296e-01	 1.003357026001709e+00	-1.261868698372682e+01
1	 1.696228060660850e-01	 1.007246019571033e+00	-1.237799181188803e+01
1	 1.480275890064632e-01	 1.010645450749817e+00	-1.212172570510934e+01
1	 1.265173639646925e-01	 1.013562886216773e+00	-1.185012236171950e+01
1	 1.051063946350696e-01	 1.016006401337383e+00	-1.156351644318949e+01
1	 8.380838853377159e-02	 1.017984542294350e+00	-1.126233565144331e+01
1	 6.263648352503362e-02	 1.019506288103497e+00	-1.094709263157162e+01
1	 4.160323701545199e-02	 1.020581012714855e+00	-1.061837677716523e+01
1	 2.072061773363211e-02	 1.021218447386510e+00	-1.027684601106583e+01
1	 0.000000000000000e+00	 1.021428643505832e+00	-9.923218609384707e+00
1	 2.174772323533424e-01	 1.019929091192779e+00	-1.306719776075045e+01
1	 1.953012889102773e-01	 1.024406673572047e+00	-1.286740830779522e+01
1	 1.731813601931859e-01	 1.028377255192658e+00	-1.264910538127043e+01
1	 1.511330923292425e-01	 1.031848003785864e+00	-1.241226534520300e+01
1	 1.291715995493784e-01	 1.034826644773342e+00	-1.215698279623111e+01
1	 1.073114447889999e-01	 1.037321422935393e+00	-1.188346345000640e+01
1	 8.556662313721228e-02	 1.039341063746916e+00	-1.159201668167735e+01
1	 6.395054808032812e-02	 1.040894734596435e+00	-1.128304780238820e+01
1	 4.247604046947492e-02	 1.041992006092093e+00	-1.095705015075683e+01
1	 2.115532012778655e-02	 1.042642813646135e+00	-1.061459707462295e+01
1	 0.000000000000000e+00	 1.042857419516156e+00	-1.025633387407471e+01
1	 2.219460080647578e-01	 1.040886845267778e+00	-1.329466423982431e+01
1	 1.993143878762662e-01	 1.045456434112439e+00	-1.311860047825254e+01
1	 1.767399334182188e-01	 1.049508604222139e+00	-1.292151930425407e+01
1	 1.542386123182304e-01	 1.053050670612401e+00	-1.270325149224549e+01
1	 1.318258493781381e-01	 1.056090517448735e+00	-1.246375456187693e+01
1	 1.095165067760988e-01	 1.058636558927184e+00	-1.220310626652801e+01
1	 8.732486717572427e-02	 1.060697699815824e+00	-1.192149764896290e+01
1	 6.526461968691645e-02	 1.062283295876901e+00	-1.161922574639944e+01
1	 4.334884860677980e-02	 1.063403114377741e+00	-1.129668602512287e+01
1	 2.159002485435494e-02	 1.064067294885858e+00	-1.095436462186199e+01
1	 0.000000000000000e+00	 1.064286310530212e+00	-1.059283046555801e+01
1	 2.264148041098882e-01	 1.061844694702915e+00	-1.352111450961664e+01
1	 2.033275051024242e-01	 1.066506290431602e+00	-1.336736097821103e+01
1	 1.802985228350641e-01	 1.070640049401569e+00	-1.319038811263155e+01
1	 1.573441464373569e-01	 1.074253433913294e+00	-1.298988397967083e+01
1	 1.344801112834887e-01	 1.077354486876854e+00	-1.276567084347601e+01
1	 1.117215787957583e-01	 1.079951791904819e+00	-1.251769930441839e+01
1	 8.908311921362033e-02	 1.082054433059266e+00	-1.224604192144277e+01
1	 6.657869727184804e-02	 1.083671954477038e+00	-1.195088639988846e+01
1	 4.422166071474793e-02	 1.084814320085548e+00	-1.163252842550105e+01
1	 2.202473155843544e-02	 1.085491873608516e+00	-1.129136422323453e+01
1	 0.000000000000000e+00	 1.085715299047245e+00	-1.092788291656349e+01
1	 2.308836168391752e-01	 1.082802622382047e+00	-1.374196225028313e+01
1	 2.073406373113792e-01	 1.087556225338255e+00	-1.360916674475323e+01
1	 1.838571255376022e-01	 1.091771573473044e+00	-1.345124137777798e+01
1	 1.604496921505519e-01	 1.095456276372411e+00	-1.326773417598307e+01
1	 1.371343830979476e-01	 1.098618535691603e+00	-1.305833378196300e+01
1	 1.139266590473702e-01	 1.101267104460359e+00	-1.282286429150120e+01
1	 9.084137781521326e-02	 1.103411246035437e+00	-1.256127949370068e+01
1	 6.789277976217231e-02	 1.105060692928989e+00	-1.227365659517776e+01
1	 4.509447608076063e-02	 1.106225605729260e+00	-1.196018950906687e+01
1	 2.245943988512613e-02	 1.106916532316950e+00	-1.162118178827296e+01
1	 0.000000000000000e+00	 1.107144367566494e+00	-1.125703928027264e+01
1	 2.353524426030607e-01	 1.103760611189034e+00	-1.395296936249935e+01
1	 2.113537812257591e-01	 1.108606221641115e+00	-1.383983813241985e+01
1	 1.874157386197133e-01	 1.112903159178661e+00	-1.369994809285807e+01
1	 1.635552469217459e-01	 1.116659180673621e+00	-1.353270969944326e+01
1	 1.397886626540324e-01	 1.119882646526886e+00	-1.333767943382583e+01
1	 1.161317457303262e-01	 1.122582479185865e+00	-1.311455538694183e+01
1	 9.259964154481580e-02	 1.124768121302530e+00	-1.286317216761081e+01
1	 6.920686608493874e-02	 1.126449493764897e+00	-1.258349521620673e+01
1	 4.596729399219920e-02	 1.127636953822624e+00	-1.227561460363039e+01
1	 2.289414947952517e-02	 1.128341253513995e+00	-1.193973839532832e+01
1	 0.000000000000000e+00	 1.128573498587201e+00	-1.157618565873152e+01
1	 2.398212777519862e-01	 1.124718644007733e+00	-1.415021351125455e+01
1	 2.153669335681919e-01	 1.129656262148901e+00	-1.405550690401378e+01
1	 1.909743591752777e-01	 1.134034789260513e+00	-1.393268503555294e+01
1	 1.666608082148685e-01	 1.137862129500790e+00	-1.378102307611954e+01
1	 1.424429477842604e-01	 1.141146802016604e+00	-1.359994664655356e+01
1	 1.183368370440184e-01	 1.143897898673398e+00	-1.338902819503411e+01
1	 9.435790896674069e-02	 1.146125041418737e+00	-1.314798262445449e+01
1	 7.052095516719674e-02	 1.147838339516904e+00	-1.287666224819940e+01
1	 4.684011373644497e-02	 1.149048346879390e+00	-1.257505115348814e+01
1	 2.332885998673064e-02	 1.149766019702492e+00	-1.224325905181546e+01
1	 0.000000000000000e+00	 1.150002674608608e+00	-1.188151469544505e+01
1	 2.442901186363934e-01	 1.145676703722003e+00	-1.433005923051306e+01
1	 2.193800910613053e-01	 1.150706329670330e+00	-1.425258773322790e+01
1	 1.945329842981758e-01	 1.155166446460698e+00	-1.414590860180671e+01
1	 1.697663734938503e-01	 1.159065105537788e+00	-1.400916383655514e+01
1	 1.450972363211490e-01	 1.162410984794663e+00	-1.384164934885255e+01
1	 1.205419311878384e-01	 1.165213345515019e+00	-1.364281217857739e+01
1	 9.611617864530074e-02	 1.167481988942253e+00	-1.341224689022704e+01
1	 7.183504593599568e-02	 1.169227212717153e+00	-1.314969122298706e+01
1	 4.771293460087925e-02	 1.170459767413303e+00	-1.285502107231753e+01
1	 2.376357105184069e-02	 1.171190813385280e+00	-1.252824488186440e+01
1	 0.000000000000000e+00	 1.171431878129957e+00	-1.216949752474358e+01
1	 2.487589616067241e-01	 1.166634773215703e+00	-1.448913214114070e+01
1	 2.233932504277272e-01	 1.171756407014121e+00	-1.442775277765989e+01
1	 1.980916110822880e-01	 1.176298113521309e+00	-1.433632967428454e+01
1	 1.728719402226211e-01	 1.180268091468482e+00	-1.421387361882122e+01
1	 1.477515260972155e-01	 1.183675177494965e+00	-1.405955182639214e+01
1	 1.227470263611782e-01	 1.186528802302791e+00	-1.387268604451464e+01
1	 9.787444914480863e-02	 1.188838946431268e+00	-1.365274976761118e+01
1	 7.314913731838514e-02	 1.190616095897788e+00	-1.339936463314878e+01
1	 4.858575587288333e-02	 1.191871197938112e+00	-1.311229607484972e+01
1	 2.419828231995344e-02	 1.192615617065195e+00	-1.279144831055487e+01
1	 0.000000000000000e+00	 1.192861091650489e+00	-1.243685874340482e+01
1	 2.532278030134201e-01	 1.187592835372691e+00	-1.462429589766288e+01
1	 2.274064083900854e-01	 1.192806476988992e+00	-1.457790894307601e+01
1	 2.016502366214943e-01	 1.197429773184443e+00	-1.450089115080829e+01
1	 1.759775058651110e-01	 1.201471069976739e+00	-1.439212390671628e+01
1	 1.504058149449775e-01	 1.204939362751414e+00	-1.425064661442084e+01
1	 1.249521207634296e-01	 1.207844251628774e+00	-1.407565573480833e+01
1	 9.963271902957720e-02	 1.210195896443978e+00	-1.386650286828361e+01
1	 7.446322824141441e-02	 1.212004971590951e+00	-1.362269194837470e+01
1	 4.945857683983854e-02	 1.213282620967563e+00	-1.334387561949284e+01
1	 2.463299343616701e-02	 1.214040413245077e+00	-1.302985087470573e+01
1	 0.000000000000000e+00	 1.214290297669446e+00	-1.268055403133524e+01
1	 1.214290297669446e+00	 0.000000000000000e+00	 2.007168012052479e+01
1	 1.214040413245077e+00	 2.463299343616735e-02	 1.936288829924952e+01
1	 1.213282620967562e+00	 4.945857683983884e-02	 1.864878305326063e+01
1	 1.212004971590950e+00	 7.446322824141469e-02	 1.792921601205359e+01
1	 1.210195896443978e+00	 9.963271902957743e-02	 1.720420849372235e+01
1	 1.207844251628774e+00	 1.249521207634298e-01	 1.647396128536777e+01
1	 1.204939362751414e+00	 1.504058149449777e-01	 1.573886365517529e+01
1	 1.201471069976739e+00	 1.759775058651112e-01	 1.499950146099983e+01
1	 1.197429773184443e+00	 2.016502366214944e-01	 1.425666421974621e+01
1	 1.192806476988992e+00	 2.274064083900854e-01	 1.351135100300438e+01
1	 1.187592835372691e+00	 2.532278030134200e-01	 1.276477502742772e+01
1	 1.235717982007509e+00	 0.000000000000000e+00	 1.938184319187392e+01
1	 1.235463688057201e+00	 2.506767368405079e-02	 1.866862021162370e+01
1	 1.234692523578864e+00	 5.033133582869984e-02	 1.795211920420425e+01
1	 1.233392328467018e+00	 7.577722585210603e-02	 1.723228913952718e+01
1	 1.231551329906597e+00	 1.013908640611249e-01	 1.650923692687828e+01
1	 1.229158187351587e+00	 1.271570585836554e-01	 1.578323603323313e+01
1	 1.226202038044907e+00	 1.530599153135700e-01	 1.505473434836645e+01
1	 1.222672542868285e+00	 1.790828509833808e-01	 1.432436117220237e+01
1	 1.218559932295173e+00	 2.052086094647837e-01	 1.359293319983415e+01
1	 1.213855052205103e+00	 2.314192813802493e-01	 1.286145938124922e+01
1	 1.208549409304364e+00	 2.576963270899055e-01	 1.213114453614662e+01
1	 1.257145643846623e+00	 0.000000000000000e+00	 1.873714821403820e+01
1	 1.256886940375000e+00	 2.550235347585065e-02	 1.801962475211058e+01
1	 1.256102403709864e+00	 5.120409390174040e-02	 1.730072067062234e+01
1	 1.254779662886434e+00	 7.709122208384636e-02	 1.658048094432138e+01
1	 1.252906740946056e+00	 1.031490072474701e-01	 1.585909708943606e+01
1	 1.250472100694778e+00	 1.293619940895929e-01	 1.513691463757247e+01
1	 1.247464691012572e+00	 1.557140128962541e-01	 1.441443987054934e+01
1	 1.243873993498236e+00	 1.821881928418994e-01	 1.369234570205551e+01
1	 1.239690069219164e+00	 2.087669785725820e-01	 1.297147659252746e+01
1	 1.234903605320127e+00	 2.354321501576222e-01	 1.225285238568678e+01
1	 1.229505961231549e+00	 2.621648464750896e-01	 1.153767095885659e+01
1	 1.278573285686670e+00	 0.000000000000000e+00	 1.813334726042426e+01
1	 1.278310172697841e+00	 2.593703286221347e-02	 1.741166407817030e+01
1	 1.277512263858373e+00	 5.207685116066522e-02	 1.669036546596300e+01
1	 1.276166977344381e+00	 7.840521708978081e-02	 1.596959120720996e+01
1	 1.274262132053813e+00	 1.049071487935502e-01	 1.524961656244031e+01
1	 1.271785994144974e+00	 1.315669275382911e-01	 1.453085861511902e+01
1	 1.268727324135054e+00	 1.583681080024752e-01	 1.381388189159549e+01
1	 1.265075424340102e+00	 1.852935318027594e-01	 1.309940315134985e+01
1	 1.260820186421612e+00	 2.123253443598424e-01	 1.238829524474278e+01
1	 1.255952138789739e+00	 2.394450151901940e-01	 1.168158993795515e+01
1	 1.250462493599191e+00	 2.666333616901347e-01	 1.098047960881154e+01
1	 1.300000910027534e+00	 0.000000000000000e+00	 1.756647248625226e+01
1	 1.299733387525096e+00	 2.637171189378576e-02	 1.684077976460908e+01
1	 1.298922106522203e+00	 5.294960770717896e-02	 1.611710997596985e+01
1	 1.297554274336043e+00	 7.971921102305467e-02	 1.539569664643350e+01
1	 1.295617505721335e+00	 1.066652889043024e-01	 1.467689803177418e+01
1	 1.293099870188797e+00	 1.337718591867983e-01	 1.396120235025705e+01
1	 1.289989939893004e+00	 1.610222009416786e-01	 1.324923230186933e+01
1	 1.286276837867395e+00	 1.883988682280533e-01	 1.254174878025926e+01
1	 1.281950286367708e+00	 2.158837072415183e-01	 1.183965368524911e+01
1	 1.277000655069617e+00	 2.434578769459541e-01	 1.114399174670769e+01
1	 1.271419008852232e+00	 2.711018732562027e-01	 1.045595127490736e+01
1	 1.321428519369097e+00	 0.000000000000000e+00	 1.703281341925943e+01
1	 1.321156587356134e+00	 2.680639062121409e-02	 1.630327014817420e+01
1	 1.320331934199167e+00	 5.382236364298634e-02	 1.557726638802796e+01
1	 1.318941556356603e+00	 8.103320403681297e-02	 1.485512846340154e+01
1	 1.316972864440081e+00	 1.084234277846640e-01	 1.413729698247294e+01
1	 1.314413731312873e+00	 1.359767892921634e-01	 1.342433097075031e+01
1	 1.311252540767067e+00	 1.636762920233099e-01	 1.271691130261324e+01
1	 1.307478236553624e+00	 1.915042024798736e-01	 1.201584334694735e+01
1	 1.303080371522645e+00	 2.194420676325628e-01	 1.132205874526045e+01
1	 1.298049156615436e+00	 2.474707358928920e-01	 1.063661624402829e+01
1	 1.292375509435615e+00	 2.755703816944557e-01	 9.960701507693580e+00
1	 1.342856116211244e+00	 0.000000000000000e+00	 1.652889642479792e+01
1	 1.342579774690324e+00	 2.724106909514499e-02	 1.579566984138307e+01
1	 1.341741749387073e+00	 5.469511906979199e-02	 1.506738228162929e+01
1	 1.340328825901245e+00	 8.234719628420101e-02	 1.434445203837297e+01
1	 1.338328210701515e+00	 1.101815656395722e-01	 1.362740152878658e+01
1	 1.335727580003826e+00	 1.381817181114346e-01	 1.291686034184912e+01
1	 1.332515129237891e+00	 1.663303815568143e-01	 1.221356759415827e+01
1	 1.328679622872302e+00	 1.946095349203129e-01	 1.151837352023266e+01
1	 1.324210444351618e+00	 2.230004259479293e-01	 1.083224022608723e+01
1	 1.319097645882874e+00	 2.514835924989972e-01	 1.015624153866569e+01
1	 1.313331997794282e+00	 2.800388875260558e-01	 9.491561888730722e+00
1	 1.364283703053858e+00	 0.000000000000000e+00	 1.605146610624637e+01
1	 1.364002952027036e+00	 2.767574736622498e-02	 1.531473117707371e+01
1	 1.363151554583735e+00	 5.556787408930065e-02	 1.458422214233675e+01
1	 1.361716085465153e+00	 8.366118791836383e-02	 1.386044853971935e+01
1	 1.359683546997100e+00	 1.119397026739642e-01	 1.314401414516020e+01
1	 1.357041418748281e+00	 1.403866459016608e-01	 1.243561894585488e+01
1	 1.353777707786126e+00	 1.689844698516374e-01	 1.173606043129897e+01
1	 1.349880999296936e+00	 1.977148659114634e-01	 1.104623413826426e+01
1	 1.345340507319818e+00	 2.265587826025709e-01	 1.036713338876700e+01
1	 1.340146125327605e+00	 2.554964472322594e-01	 9.699848164332341e+00
1	 1.334288476373178e+00	 2.845073912721650e-01	 9.045563065218991e+00
1	 1.385711282396822e+00	 0.000000000000000e+00	 1.559746843123331e+01
1	 1.385426121865639e+00	 2.811042548510060e-02	 1.485740737467128e+01
1	 1.384561352286963e+00	 5.644062880321693e-02	 1.412475059102368e+01
1	 1.383103337543510e+00	 8.497517909244671e-02	 1.340009823962107e+01
1	 1.381038875818297e+00	 1.136978390927772e-01	 1.268413509235366e+01
1	 1.378355250032862e+00	 1.425915729198905e-01	 1.197763144303712e+01
1	 1.375040278892416e+00	 1.716385572172245e-01	 1.128144334370776e+01
1	 1.371082368301040e+00	 2.008201958154180e-01	 1.059651211337300e+01
1	 1.366470562892438e+00	 2.301171380114408e-01	 9.923863068441063e+00
1	 1.361194597405308e+00	 2.595093005606682e-01	 9.264603428747822e+00
1	 1.355244947617245e+00	 2.889758934539454e-01	 8.619919358803791e+00
1	 1.407138856740019e+00	 0.000000000000000e+00	 1.516403539969441e+01
1	 1.406849286705503e+00	 2.854510350241839e-02	 1.442083724462972e+01
1	 1.405971144994569e+00	 5.731338331324556e-02	 1.368611714553450e+01
1	 1.404490584631499e+00	 8.628916995959479e-02	 1.296056535428454e+01
1	 1.402394199656569e+00	 1.154559751009486e-01	 1.224494735799237e+01
1	 1.399669076344194e+00	 1.447964994231720e-01	 1.154010373466460e+01
1	 1.396302845037412e+00	 1.742926439630209e-01	 1.084694934388938e+01
1	 1.392283732358122e+00	 2.039255249942690e-01	 1.016647180761005e+01
1	 1.387600613534673e+00	 2.336754925894924e-01	 9.499729240273018e+00
1	 1.382243064571658e+00	 2.635221529522129e-01	 8.847847192781826e+00
1	 1.376201413971425e+00	 2.934443945925591e-01	 8.212014780745053e+00
1	 1.428566428583333e+00	 0.000000000000000e+00	 1.474847109186418e+01
1	 1.428272449045998e+00	 2.897978146882486e-02	 1.400233126953309e+01
1	 1.427380935204363e+00	 5.818613772109118e-02	 1.326564235385492e+01
1	 1.425877829224305e+00	 8.760316067295322e-02	 1.253918424859885e+01
1	 1.423749521003378e+00	 1.172141109034155e-01	 1.182380295252702e+01
1	 1.420982900168901e+00	 1.470014256685542e-01	 1.112040937042177e+01
1	 1.417565408701760e+00	 1.769467303984722e-01	 1.042997746647698e+01
1	 1.413485093941694e+00	 2.070308538101091e-01	 9.753541724544000e+00
1	 1.408730661711715e+00	 2.372338467516789e-01	 9.092193884490921e+00
1	 1.403291529282332e+00	 2.675350048748832e-01	 8.447078929529589e+00
1	 1.397157877880663e+00	 2.979128952091682e-01	 7.819390305775776e+00
1	 1.187592835372691e+00	 2.532278030134200e-01	 1.276477502742772e+01
1	 1.181781623626968e+00	 2.790938016503138e-01	 1.201352230853359e+01
1	 1.175365582942782e+00	 3.049868616489975e-01	 1.125392632256130e+01
1	 1.168338576587066e+00	 3.308871097884256e-01	 1.048725217202980e+01
1	 1.160695285930740e+00	 3.567741792293043e-01	 9.714912568542093e+00
1	 1.152431248962697e+00	 3.826272488061300e-01	 8.938465993581543e+00
1	 1.143542896733289e+00	 4.084250855187107e-01	 8.159613648476610e+00
1	 1.134027587438770e+00	 4.341460901130836e-01	 7.380195156436598e+00
1	 1.123883637862912e+00	 4.597683456134844e-01	 6.602182991371949e+00
1	 1.113110351899734e+00	 4.852696686386933e-01	 5.827675621077137e+00
1	 1.101708045892076e+00	 5.106276633080375e-01	 5.058889366130685e+00
1	 1.208549409304364e+00	 2.576963270899055e-01	 1.213114453614662e+01
1	 1.202635651395282e+00	 2.840187639070760e-01	 1.139819482695630e+01
1	 1.196106391577979e+00	 3.103687396177811e-01	 1.065855939271912e+01
1	 1.188955384829006e+00	 3.367260303129397e-01	 9.913456088775844e+00
1	 1.181177218665371e+00	 3.630699097547062e-01	 9.164230955215867e+00
1	 1.172767352338166e+00	 3.893791893618671e-01	 8.412355857428956e+00
1	 1.163722153919135e+00	 4.156322614511784e-01	 7.659425036844250e+00
1	 1.154038934986585e+00	 4.418071456226151e-01	 6.907150544629424e+00
1	 1.143715982621827e+00	 4.678815381477509e-01	 6.157356542044483e+00
1	 1.132752588435226e+00	 4.938328641916428e-01	 5.411972462946268e+00
1	 1.121149074351903e+00	 5.196383326700746e-01	 4.673025046486243e+00
1	 1.229505961231549e+00	 2.621648464750896e-01	 1.153767095885659e+01
1	 1.223489657266795e+00	 2.889437209932077e-01	 1.082176901872087e+01
1	 1.216847178435284e+00	 3.157506119361138e-01	 1.010072016885730e+01
1	 1.209572171423291e+00	 3.425649447070591e-01	 9.375695634293743e+00
1	 1.201659129894013e+00	 3.693656336700243e-01	 8.647976739937931e+00
1	 1.193103434360818e+00	 3.961311228284720e-01	 7.918952083965225e+00
1	 1.183901389916909e+00	 4.228394298164989e-01	 7.190113734921033e+00
1	 1.174050261522691e+00	 4.494681930884203e-01	 6.463052434387288e+00
1	 1.163548306557042e+00	 4.759947221635517e-01	 5.739451797139591e+00
1	 1.152394804346683e+00	 5.023960507536391e-01	 5.021081511519450e+00
1	 1.140590082399010e+00	 5.286489925713382e-01	 4.309789554136201e+00
1	 1.250462493599191e+00	 2.666333616901347e-01	 1.098047960881154e+01
1	 1.244343643674486e+00	 2.938686734831359e-01	 1.028044548521135e+01
1	 1.237587945934461e+00	 3.211324792317422e-01	 9.576698136675088e+00
1	 1.230188938775215e+00	 3.484038536518649e-01	 8.870362869853375e+00
1	 1.222141022006219e+00	 3.756613517096460e-01	 8.162658291376319e+00
1	 1.213439497403189e+00	 4.028830499935666e-01	 7.454893065080292e+00
1	 1.204080607080841e+00	 4.300465914554146e-01	 6.748461799241508e+00
1	 1.194061569381721e+00	 4.571292334041993e-01	 6.044840053972841e+00
1	 1.183380611982301e+00	 4.841078986073408e-01	 5.345578468219143e+00
1	 1.172037001925665e+00	 5.109592293236384e-01	 4.652296015638038e+00
1	 1.160031072301475e+00	 5.376596440629882e-01	 3.966672408954180e+00
1	 1.271419008852232e+00	 2.711018732562027e-01	 1.045595127490736e+01
1	 1.265197613051333e+00	 2.987936219512873e-01	 9.770675339538382e+00
1	 1.258328696495277e+00	 3.265143421324131e-01	 9.083027433221559e+00
1	 1.250805689290075e+00	 3.542427578284384e-01	 8.394087744968626e+00
1	 1.242622897391544e+00	 3.819570646079584e-01	 7.705014197933668e+00
1	 1.233775543837814e+00	 4.096349716447727e-01	 7.017038839541724e+00
1	 1.224259807765161e+00	 4.372537472086662e-01	 6.331463460919097e+00
1	 1.214072860898309e+00	 4.647902674636529e-01	 5.649654443344716e+00
1	 1.203212901211347e+00	 4.922210684255724e-01	 4.973036837965388e+00
1	 1.191679183463730e+00	 5.195224009005966e-01	 4.303087693978972e+00
1	 1.179472046327379e+00	 5.466702881961839e-01	 3.641328659769299e+00
1	 1.292375509435615e+00	 2.755703816944557e-01	 9.960701507693582e+00
1	 1.286051567830313e+00	 3.037185669720885e-01	 9.289139895056284e+00
1	 1.279069432537498e+00	 3.318962012658738e-01	 8.616467010603261e+00
1	 1.271422425373163e+00	 3.600816579178602e-01	 7.943718809489085e+00
1	 1.263104758439543e+00	 3.882527730993484e-01	 7.271994601633422e+00
1	 1.254111576037226e+00	 4.163868885697128e-01	 6.602453121999738e+00
1	 1.244438994324100e+00	 4.444608979169954e-01	 5.936307922696625e+00
1	 1.234084138407093e+00	 4.724512961604820e-01	 5.274822091462002e+00
1	 1.223045176557927e+00	 5.003342325647011e-01	 4.619302308901666e+00
1	 1.211321351252438e+00	 5.280855664834700e-01	 3.971092264977250e+00
1	 1.198913006744801e+00	 5.556809260220851e-01	 3.331565463563179e+00
1	 1.313331997794282e+00	 2.800388875260558e-01	 9.491561888730722e+00
1	 1.306905510444404e+00	 3.086435091199661e-01	 8.832732298686079e+00
1	 1.299810156480888e+00	 3.372780572598706e-01	 8.173982698998737e+00
1	 1.292039149429777e+00	 3.659205546012115e-01	 7.516305772491414e+00
1	 1.283586607539769e+00	 3.945484779182039e-01	 6.860744319269294e+00
1	 1.274447596373964e+00	 4.231388015560087e-01	 6.208387052698686e+00
1	 1.264618169111887e+00	 4.516680444211439e-01	 5.560363803163646e+00
1	 1.254095404242703e+00	 4.801123203883873e-01	 4.917840140301673e+00
1	 1.242877440335784e+00	 5.084473919711806e-01	 4.282011431559021e+00
1	 1.230963507583349e+00	 5.366487270712144e-01	 3.654096362244993e+00
1	 1.218353955821823e+00	 5.646915585918517e-01	 3.035329949696577e+00
1	 1.334288476373178e+00	 2.845073912721650e-01	 9.045563065218992e+00
1	 1.327759443326584e+00	 3.135684489693472e-01	 8.398540895207836e+00
1	 1.320550870745215e+00	 3.426599107421504e-01	 7.752730960146207e+00
1	 1.312655863865211e+00	 3.717594485595738e-01	 7.109083704909883e+00
1	 1.304068447081777e+00	 4.008441797989112e-01	 6.468587554303854e+00
1	 1.294783607220561e+00	 4.298907113912824e-01	 5.832264478698663e+00
1	 1.284797334482754e+00	 4.588751875618530e-01	 5.201165047030216e+00
1	 1.274106660739776e+00	 4.877733410410693e-01	 4.576362983325071e+00
1	 1.262709694858662e+00	 5.165605475914657e-01	 3.958949249419733e+00
1	 1.250605654748022e+00	 5.452118836627861e-01	 3.350025683148260e+00
1	 1.237794895826525e+00	 5.737021869566435e-01	 2.750698227873313e+00
1	 1.355244947617245e+00	 2.889758934539454e-01	 8.619919358803791e+00
1	 1.348613368909831e+00	 3.184933870946581e-01	 7.983834135141324e+00
1	 1.341291577750244e+00	 3.480417623404600e-01	 7.350044148306757e+00
1	 1.333272571084760e+00	 3.775983404740276e-01	 6.719458707967516e+00
1	 1.324550279455123e+00	 4.071398794758583e-01	 6.093014027313989e+00
1	 1.315119610949551e+00	 4.366426188631559e-01	 5.471668600817803e+00
1	 1.304976492790930e+00	 4.660823281798642e-01	 4.856398142753006e+00
1	 1.294117910232946e+00	 4.954343590122290e-01	 4.248190107441030e+00
1	 1.282541942440307e+00	 5.246737003720103e-01	 3.648037818093668e+00
1	 1.270247795038016e+00	 5.537750372571406e-01	 3.056934237049510e+00
1	 1.257235829026986e+00	 5.827128121676197e-01	 2.475865416029246e+00
1	 1.376201413971425e+00	 2.934443945925591e-01	 8.212014780745053e+00
1	 1.369467289627122e+00	 3.234183240703259e-01	 7.586046861662428e+00
1	 1.362032279915742e+00	 3.534236126825465e-01	 6.963417118000764e+00
1	 1.353889273493718e+00	 3.834372310256541e-01	 6.344994891148264e+00
1	 1.345032107049359e+00	 4.134355776834319e-01	 5.731666373760938e+00
1	 1.335455609933472e+00	 4.433945247592514e-01	 5.124329840704640e+00
1	 1.325155646390646e+00	 4.732894671159190e-01	 4.523890508145469e+00
1	 1.314129155056847e+00	 5.030953751955670e-01	 3.931255045904389e+00
1	 1.302374185394463e+00	 5.327868512592691e-01	 3.347325773550002e+00
1	 1.289889930744891e+00	 5.623381888532348e-01	 2.772994575987183e+00
1	 1.276676757691286e+00	 5.917234352759403e-01	 2.209136579418603e+00
1	 1.397157877880663e+00	 2.979128952091682e-01	 7.819390305775773e+00
1	 1.390321207911435e+00	 3.283432604707773e-01	 7.202767831750540e+00
1	 1.382772979661474e+00	 3.588054623961565e-01	 6.590495037100146e+00
1	 1.374505973497382e+00	 3.892761208955346e-01	 5.983402522202304e+00
1	 1.365513932254041e+00	 4.197312751560196e-01	 5.382328676010101e+00
1	 1.355791606544858e+00	 4.501464298671908e-01	 4.788114799921054e+00
1	 1.345334797636131e+00	 4.804966052107589e-01	 4.201599921328203e+00
1	 1.334140397546113e+00	 5.107563904847842e-01	 3.623615325496733e+00
1	 1.322206426034874e+00	 5.409000011996961e-01	 3.054978839248641e+00
1	 1.309532064160208e+00	 5.709013394500247e-01	 2.496488904632266e+00
1	 1.296117684087507e+00	 6.007340573327650e-01	 1.948918485217827e+00
1	 1.101708045892076e+00	 5.106276633080375e-01	 5.058889366130686e+00
1	 1.089677207626948e+00	 5.358215335624558e-01	 4.290643433908628e+00
1	 1.077021022922191e+00	 5.608268384721187e-01	 3.517805498538096e+00
1	 1.063742969876242e+00	 5.856208786934388e-01	 2.742632510824703e+00
1	 1.049847604174770e+00	 6.101809790117667e-01	 1.967434264968011e+00
1	 1.035340565104777e+00	 6.344845513991805e-01	 1.194562664089238e+00
1	 1.020228577186538e+00	 6.585091589671449e-01	 4.264004077304540e-01
1	 1.004519447315962e+00	 6.822325804611694e-01	-3.346508179403671e-01
1	 9.882220573422899e-01	 7.056328749317351e-01	-1.086182558694496e+00
1	 9.713463520400218e-01	 7.286884462062339e-01	-1.825792124192805e+00
1	 9.539033224691094e-01	 7.513781067806766e-01	-2.551095332146163e+00
1	 1.121149074351903e+00	 5.196383326700746e-01	 4.673025046486244e+00
1	 1.108905936766497e+00	 5.452767805513055e-01	 3.934949686353034e+00
1	 1.096026417714620e+00	 5.707233356144560e-01	 3.192272696994700e+00
1	 1.082514056670136e+00	 5.959548979573671e-01	 2.447112558406774e+00
1	 1.068373489709529e+00	 6.209483922326035e-01	 1.701636052384405e+00
1	 1.053610455632130e+00	 6.456808318179762e-01	 9.580480049326103e-01
1	 1.038231797620851e+00	 6.701293838977294e-01	 2.185804914383707e-01
1	 1.022245460334119e+00	 6.942714350952841e-01	-5.145184174679546e-01
1	 1.005660482352604e+00	 7.180846572853697e-01	-1.238996284132650e+00
1	 9.884869839388923e-01	 7.415470732036488e-01	-1.952608214553535e+00
1	 9.707361501040475e-01	 7.646371214658770e-01	-2.653128954524242e+00
1	 1.140590082399010e+00	 5.286489925713382e-01	 4.309789554136202e+00
1	 1.128134645716275e+00	 5.547320176126134e-01	 3.599688456409705e+00
1	 1.115031792551807e+00	 5.806198223659862e-01	 2.885018962421258e+00
1	 1.101285123754836e+00	 6.062889063711434e-01	 2.167764751199778e+00
1	 1.086899355792575e+00	 6.317157941482812e-01	 1.449953143274001e+00
1	 1.071880326976580e+00	 6.568771004813603e-01	 7.336453188544164e-01
1	 1.056234999152278e+00	 6.817495966278152e-01	 2.092604069021253e-02
1	 1.039971454740473e+00	 7.063102770893898e-01	-6.861070433049816e-01
1	 1.023098889053101e+00	 7.305364265654639e-01	-1.385354435766383e+00
1	 1.005627597840650e+00	 7.544056867003690e-01	-2.074726076119715e+00
1	 9.875689600650959e-01	 7.778961222299947e-01	-2.752152784625237e+00
1	 1.160031072301475e+00	 5.376596440629882e-01	 3.966672408954180e+00
1	 1.147363336719591e+00	 5.641872458494022e-01	 3.282551219732145e+00
1	 1.134037149651004e+00	 5.905162998812025e-01	 2.593936590056569e+00
1	 1.120056173320251e+00	 6.166229051402949e-01	 1.902681085309746e+00
1	 1.105425204585207e+00	 6.424831860148789e-01	 1.210676133586302e+00
1	 1.090150181269558e+00	 6.680733586954340e-01	 5.198427184585845e-01
1	 1.074238183881136e+00	 6.933697985129534e-01	-1.678783805495628e-01
1	 1.057697432602996e+00	 7.183491078478664e-01	-8.505367275464393e-01
1	 1.040537279478195e+00	 7.429881842245643e-01	-1.526182671401200e+00
1	 1.022768195744962e+00	 7.672642881963991e-01	-2.192878004478390e+00
1	 1.004401754316001e+00	 7.911551106197430e-01	-2.848706750582189e+00
1	 1.179472046327379e+00	 5.466702881961839e-01	 3.641328659769298e+00
1	 1.166592012019752e+00	 5.736424663646928e-01	 2.981381665208875e+00
1	 1.153042491229457e+00	 6.004127693145985e-01	 2.317056847533078e+00
1	 1.138827207556292e+00	 6.269568954703506e-01	 1.650079362123983e+00
1	 1.123951038248725e+00	 6.532505690884765e-01	 9.822083300042546e-01
1	 1.108420020642495e+00	 6.792696077662999e-01	 3.152280039256461e-01
1	 1.092241353907742e+00	 7.049899909086944e-01	-3.490614736826657e-01
1	 1.075423395989661e+00	 7.303879287750944e-01	-1.008853651558050e+00
1	 1.057975655662302e+00	 7.554399317152162e-01	-1.662345614148192e+00
1	 1.039908779651493e+00	 7.801228791917441e-01	-2.307748009843189e+00
1	 1.021234534820511e+00	 8.044140881818345e-01	-2.943295178899744e+00
1	 1.198913006744801e+00	 5.556809260220851e-01	 3.331565463563179e+00
1	 1.185820673860066e+00	 5.830976802615084e-01	 2.694163353824673e+00
1	 1.172047819504416e+00	 6.103092318206678e-01	 2.052538707328146e+00
1	 1.157598228652869e+00	 6.372908785668374e-01	 1.408292988370935e+00
1	 1.142476858944431e+00	 6.640179446251530e-01	 7.630566117257139e-01
1	 1.126689847226822e+00	 6.904658490000599e-01	 1.184805807241642e-01
1	 1.110244511332412e+00	 7.166101751705887e-01	-5.237722375324487e-01
1	 1.093149346968438e+00	 7.424267412754532e-01	-1.162036133399818e+00
1	 1.075414019639836e+00	 7.678916704899656e-01	-1.794651800722088e+00
1	 1.057049351559909e+00	 7.929814611864083e-01	-2.419975731639943e+00
1	 1.038067303542373e+00	 8.176730564629836e-01	-3.036389680647664e+00
1	 1.218353955821823e+00	 5.646915585918517e-01	 3.035329949696577e+00
1	 1.205049324483841e+00	 5.925528886428706e-01	 2.419008559174690e+00
1	 1.191053136693129e+00	 6.202056885539035e-01	 1.798658658072626e+00
1	 1.176369238799892e+00	 6.476248556352835e-01	 1.175761752814845e+00
1	 1.161002668833623e+00	 6.747853138809872e-01	 5.518231672209560e-01
1	 1.144959663153971e+00	 7.016620837028154e-01	-7.163584880638307e-02
1	 1.128247658255463e+00	 7.282303526541866e-01	-6.930863270865671e-01
1	 1.110875287607300e+00	 7.544655467533233e-01	-1.311000041959190e+00
1	 1.092852373445211e+00	 7.803434020013585e-01	-1.923858155944335e+00
1	 1.074189913469875e+00	 8.058400356803961e-01	-2.530159978274104e+00
1	 1.054900062445334e+00	 8.309320170099024e-01	-3.128431761304300e+00
1	 1.237794895826525e+00	 5.737021869566435e-01	 2.750698227873313e+00
1	 1.224277966134384e+00	 6.020080926118017e-01	 2.154148159705414e+00
1	 1.210058445012847e+00	 6.301021406687995e-01	 1.553801476093909e+00
1	 1.195140240187270e+00	 6.579588278812166e-01	 9.510234722019528e-01
1	 1.179528470077603e+00	 6.855526781120591e-01	 3.471980097604751e-01
1	 1.163229470555374e+00	 7.128583131806686e-01	-2.562799050900310e-01
1	 1.146250796777212e+00	 7.398505247150396e-01	-8.580118129591309e-01
1	 1.128601219974219e+00	 7.665043466130843e-01	-1.456603700828501e+00
1	 1.110290719112843e+00	 7.927951277019407e-01	-2.050674045546081e+00
1	 1.091330467381058e+00	 8.186986041737121e-01	-2.638861933292557e+00
1	 1.071732813493140e+00	 8.441909713693050e-01	-3.219835184634828e+00
1	 1.257235829026986e+00	 5.827128121676197e-01	 2.475865416029248e+00
1	 1.243506601055003e+00	 6.114632932713230e-01	 1.897922468830715e+00
1	 1.229063746680817e+00	 6.399985893198491e-01	 1.316451853245529e+00
1	 1.213911235004914e+00	 6.682927965101650e-01	 7.327064123594300e-01
1	 1.198054264837671e+00	 6.963200385744475e-01	 1.479521874090401e-01
1	 1.181499271562462e+00	 7.240545387397219e-01	-4.365385367284942e-01
1	 1.164253928997976e+00	 7.514706927086973e-01	-1.019494406445972e+00
1	 1.146327146137165e+00	 7.785431422591159e-01	-1.599652337163484e+00
1	 1.127729058677147e+00	 8.052468490442584e-01	-2.175764952921111e+00
1	 1.108471015293122e+00	 8.315571681663614e-01	-2.746608064053220e+00
1	 1.088565558649539e+00	 8.574499210879043e-01	-3.310988117230825e+00
1	 1.276676757691286e+00	 5.917234352759403e-01	 2.209136579418603e+00
1	 1.262735231489007e+00	 6.209184917244573e-01	 1.648772902942194e+00
1	 1.248069043914288e+00	 6.498950356615459e-01	 1.085186789740435e+00
1	 1.232682225442734e+00	 6.786267627276558e-01	 5.195224018133974e-01
1	 1.216580055275128e+00	 7.070873965242318e-01	-4.706838654611067e-02
1	 1.199769068306666e+00	 7.352507616860772e-01	-6.134324771732367e-01
1	 1.182257057018070e+00	 7.630908579907101e-01	-1.178422207142944e+00
1	 1.164053068164112e+00	 7.905819350957992e-01	-1.740902124029045e+00
1	 1.145167394172536e+00	 8.176985674808571e-01	-2.299755819917220e+00
1	 1.125611559205735e+00	 8.444157291583477e-01	-2.853892764616181e+00
1	 1.105398299878278e+00	 8.707088677124132e-01	-3.402255077093572e+00
1	 1.296117684087507e+00	 6.007340573327650e-01	 1.948918485217826e+00
1	 1.281963859679703e+00	 6.303736890742270e-01	 1.405234399330876e+00
1	 1.267074338930509e+00	 6.597914808483830e-01	 8.586686716586369e-01
1	 1.251453213690639e+00	 6.889607277392177e-01	 3.102605652078446e-01
1	 1.235105843551274e+00	 7.178547532174914e-01	-2.389485478818096e-01
1	 1.218038862919418e+00	 7.464469833258361e-01	-7.879212102759082e-01
1	 1.200260182937812e+00	 7.747110219166298e-01	-1.335630023259848e+00
1	 1.181778988123030e+00	 8.026207265275134e-01	-1.881063858918360e+00
1	 1.162605727633426e+00	 8.301502844642831e-01	-2.423234086943194e+00
1	 1.142752101118561e+00	 8.572742886496769e-01	-2.961180760764295e+00
1	 1.122231039143104e+00	 8.839678127895461e-01	-3.493978706837341e+00
1	 9.539033224691094e-01	 7.513781067806766e-01	-2.551095332146163e+00
1	 9.359049820951422e-01	 7.736811428472474e-01	-3.265095787946024e+00
1	 9.173643330810004e-01	 7.955773821631652e-01	-3.970791046090131e+00
1	 8.982953441407002e-01	 8.170472475766148e-01	-4.665849358461394e+00
1	 8.787129188221813e-01	 8.380718126651596e-01	-5.348001044411099e+00
1	 8.586328570320533e-01	 8.586328570320538e-01	-6.015049203956531e+00
1	 8.380718126651595e-01	 8.787129188221815e-01	-6.664879952741822e+00
1	 8.170472475766142e-01	 8.982953441407006e-01	-7.295472093430389e+00
1	 7.955773821631648e-01	 9.173643330810007e-01	-7.904906144187311e+00
1	 7.736811428472473e-01	 9.359049820951423e-01	-8.491372651933469e+00
1	 7.513781067806767e-01	 9.539033224691095e-01	-9.053179725988265e+00
1	 9.707361501040475e-01	 7.646371214658770e-01	-2.653128954524242e+00
1	 9.524202063064088e-01	 7.873337227429530e-01	-3.343769010183960e+00
1	 9.335523841484195e-01	 8.096163488274210e-01	-4.027694217346173e+00
1	 9.141468988396736e-01	 8.314650771039285e-01	-4.702666058540156e+00
1	 8.942189169200120e-01	 8.528606471694401e-01	-5.366496885648241e+00
1	 8.737845171053263e-01	 8.737845171053266e-01	-6.017060398547980e+00
1	 8.528606471694397e-01	 8.942189169200122e-01	-6.652301728910690e+00
1	 8.314650771039280e-01	 9.141468988396738e-01	-7.270247044648555e+00
1	 8.096163488274206e-01	 9.335523841484197e-01	-7.869012595554081e+00
1	 7.873337227429523e-01	 9.524202063064089e-01	-8.446813126763361e+00
1	 7.646371214658773e-01	 9.707361501040475e-01	-9.001969593698634e+00
1	 9.875689600650959e-01	 7.778961222299947e-01	-2.752152784625237e+00
1	 9.689354131773041e-01	 8.009862883043352e-01	-3.421011408924080e+00
1	 9.497404182190402e-01	 8.236553007516381e-01	-4.084595177807071e+00
1	 9.299984368952128e-01	 8.458828914933745e-01	-4.740756138753793e+00
1	 9.097248987372876e-01	 8.676494661462674e-01	-5.387386821430027e+00
1	 8.889361612701406e-01	 8.889361612701406e-01	-6.022430486632294e+00
1	 8.676494661462667e-01	 9.097248987372878e-01	-6.643891058084406e+00
1	 8.458828914933744e-01	 9.299984368952133e-01	-7.249842653416859e+00
1	 8.236553007516376e-01	 9.497404182190402e-01	-7.838438634833242e+00
1	 8.009862883043346e-01	 9.689354131773045e-01	-8.407920105183230e+00
1	 7.778961222299949e-01	 9.875689600650960e-01	-8.956623781331317e+00
1	 1.004401754316001e+00	 7.911551106197430e-01	-2.848706750582189e+00
1	 9.854506046345121e-01	 8.146388411240247e-01	-3.497174779453730e+00
1	 9.659284371813641e-01	 8.376942395735272e-01	-4.141665092012130e+00
1	 9.458499601565503e-01	 8.603006924268740e-01	-4.780117637968388e+00
1	 9.252308660829119e-01	 8.824382713208537e-01	-5.410503244297719e+00
1	 9.040877912940503e-01	 9.040877912940507e-01	-6.030833639345377e+00
1	 8.824382713208535e-01	 9.252308660829124e-01	-6.639171231965493e+00
1	 8.603006924268733e-01	 9.458499601565509e-01	-7.233638562873017e+00
1	 8.376942395735268e-01	 9.659284371813643e-01	-7.812427348748279e+00
1	 8.146388411240244e-01	 9.854506046345127e-01	-8.373807044033391e+00
1	 7.911551106197429e-01	 1.004401754316001e+00	-8.916132850733526e+00
1	 1.021234534820511e+00	 8.044140881818345e-01	-2.943295178899744e+00
1	 1.001965782604716e+00	 8.282913827946506e-01	-3.572587719987848e+00
1	 9.821164429238932e-01	 8.517331669308026e-01	-4.199063837361598e+00
1	 9.617014704729175e-01	 8.747184815863454e-01	-4.820748723025375e+00
1	 9.407368207657906e-01	 8.972270644184118e-01	-5.435689596758448e+00
1	 9.192394089446086e-01	 9.192394089446090e-01	-6.041965510244152e+00
1	 8.972270644184116e-01	 9.407368207657908e-01	-6.637696973065155e+00
1	 8.747184815863452e-01	 9.617014704729178e-01	-7.221055318608713e+00
1	 8.517331669308021e-01	 9.821164429238933e-01	-7.790271730524855e+00
1	 8.282913827946503e-01	 1.001965782604716e+00	-8.343645854026347e+00
1	 8.044140881818346e-01	 1.021234534820511e+00	-8.879553920950752e+00
1	 1.038067303542373e+00	 8.176730564629836e-01	-3.036389680647664e+00
1	 1.018480949014599e+00	 8.419439149088439e-01	-3.647557512111828e+00
1	 9.983044373351290e-01	 8.657720844611750e-01	-4.256940918917975e+00
1	 9.775529696935463e-01	 8.891362606537089e-01	-4.862647678025795e+00
1	 9.562427645948276e-01	 9.120158471641556e-01	-5.462799475040764e+00
1	 9.343910159893679e-01	 9.343910159893685e-01	-6.055541493229826e+00
1	 9.120158471641555e-01	 9.562427645948279e-01	-6.639051886048333e+00
1	 8.891362606537084e-01	 9.775529696935467e-01	-7.211551052095759e+00
1	 8.657720844611745e-01	 9.983044373351294e-01	-7.771310633315933e+00
1	 8.419439149088433e-01	 1.018480949014600e+00	-8.316662160203677e+00
1	 8.176730564629834e-01	 1.038067303542373e+00	-8.846005271724238e+00
1	 1.054900062445334e+00	 8.309320170099024e-01	-3.128431761304300e+00
1	 1.034996105790846e+00	 8.555964390592333e-01	-3.722371821173581e+00
1	 1.014492422303574e+00	 8.798109938023572e-01	-4.315436296615540e+00
1	 9.934044596676692e-01	 9.035540313108849e-01	-4.905812894640813e+00
1	 9.717486993789275e-01	 9.268046212832972e-01	-5.491695818664533e+00
1	 9.495426141958827e-01	 9.495426141958832e-01	-6.071295147273563e+00
1	 9.268046212832969e-01	 9.717486993789277e-01	-6.642846153109841e+00
1	 9.035540313108841e-01	 9.934044596676690e-01	-7.204618481670928e+00
1	 8.798109938023571e-01	 1.014492422303574e+00	-7.754925111082942e+00
1	 8.555964390592327e-01	 1.034996105790846e+00	-8.292131016200386e+00
1	 8.309320170099023e-01	 1.054900062445334e+00	-8.814661463698641e+00
1	 1.071732813493140e+00	 8.441909713693050e-01	-3.219835184634828e+00
1	 1.051511254860137e+00	 8.692489568384484e-01	-3.797300236422196e+00
1	 1.030680399717729e+00	 8.938498965920609e-01	-4.374681134509672e+00
1	 1.009255942244516e+00	 9.179717952397922e-01	-4.950242863335318e+00
1	 9.872546269269951e-01	 9.415933885010491e-01	-5.522250176390208e+00
1	 9.646942053317054e-01	 9.646942053317057e-01	-6.088976769604129e+00
1	 9.415933885010488e-01	 9.872546269269954e-01	-6.648714446550148e+00
1	 9.179717952397918e-01	 1.009255942244516e+00	-7.199782196163325e+00
1	 8.938498965920609e-01	 1.030680399717730e+00	-7.740535104330898e+00
1	 8.692489568384477e-01	 1.051511254860138e+00	-8.269373022418632e+00
1	 8.441909713693050e-01	 1.071732813493140e+00	-8.784748918526260e+00
1	 1.088565558649539e+00	 8.574499210879043e-01	-3.310988117230825e+00
1	 1.068026398149158e+00	 8.829014698391190e-01	-3.872595668240652e+00
1	 1.046868371466098e+00	 9.078887944679994e-01	-4.434798480505032e+00
1	 1.025107419273321e+00	 9.323895541223510e-01	-4.995936165405844e+00
1	 1.002760549047935e+00	 9.563821505426250e-01	-5.554342040278768e+00
1	 9.798457911643897e-01	 9.798457911643903e-01	-6.108352101285885e+00
1	 9.563821505426245e-01	 1.002760549047935e+00	-6.656314035038410e+00
1	 9.323895541223510e-01	 1.025107419273321e+00	-7.196596190567766e+00
1	 9.078887944679991e-01	 1.046868371466098e+00	-7.727596433366364e+00
1	 8.829014698391190e-01	 1.068026398149159e+00	-8.247750804386788e+00
1	 8.574499210879042e-01	 1.088565558649539e+00	-8.755541909082785e+00
1	 1.105398299878278e+00	 8.707088677124132e-01	-3.402255077093572e+00
1	 1.084541537584593e+00	 8.965539796538760e-01	-3.948495617706872e+00
1	 1.063056339437180e+00	 9.219276890678842e-01	-4.495903883973881e+00
1	 1.040958892603314e+00	 9.468073096404813e-01	-5.042891465746064e+00
1	 1.018266467550652e+00	 9.711709091332374e-01	-5.587858240601512e+00
1	 9.949973734614892e-01	 9.949973734614896e-01	-6.129201151074081e+00
1	 9.711709091332367e-01	 1.018266467550651e+00	-6.665323062914783e+00
1	 9.468073096404810e-01	 1.040958892603315e+00	-7.194641626894680e+00
1	 9.219276890678837e-01	 1.063056339437180e+00	-7.715598066295097e+00
1	 8.965539796538756e-01	 1.084541537584593e+00	-8.226665812907289e+00
1	 8.707088677124133e-01	 1.105398299878278e+00	-8.726358916075547e+00
1	 1.122231039143104e+00	 8.839678127895461e-01	-3.493978706837341e+00
1	 1.101056675093123e+00	 9.102064878753481e-01	-4.025223331889631e+00
1	 1.079244305519478e+00	 9.359665820294276e-01	-4.558105957786214e+00
1	 1.056810364083729e+00	 9.612250634761028e-01	-5.091107506263366e+00
1	 1.033772384244049e+00	 9.859596659980987e-01	-5.622692395210684e+00
1	 1.010148953990557e+00	 1.010148953990557e+00	-6.151317125128010e+00
1	 9.859596659980979e-01	 1.033772384244049e+00	-6.675438984362260e+00
1	 9.612250634761024e-01	 1.056810364083729e+00	-7.193524796552369e+00
1	 9.359665820294277e-01	 1.079244305519479e+00	-7.704059632910623e+00
1	 9.102064878753476e-01	 1.101056675093124e+00	-8.205555412203454e+00
1	 8.839678127895459e-01	 1.122231039143104e+00	-8.696559312571166e+00
1	 7.513781067806767e-01	 9.539033224691095e-01	-9.053179725988265e+00
1	 7.286884462062335e-01	 9.713463520400222e-01	-9.592026475697596e+00
1	 7.056328749317351e-01	 9.882220573422903e-01	-1.010949993380643e+01
1	 6.822325804611691e-01	 1.004519447315962e+00	-1.060392406475958e+01
1	 6.585091589671447e-01	 1.020228577186539e+00	-1.107374944210498e+01
1	 6.344845513991801e-01	 1.035340565104777e+00	-1.151755791398285e+01
1	 6.101809790117663e-01	 1.049847604174770e+00	-1.193406632319073e+01
1	 5.856208786934384e-01	 1.063742969876243e+00	-1.232212927361644e+01
1	 5.608268384721183e-01	 1.077021022922191e+00	-1.268074094495810e+01
1	 5.358215335624553e-01	 1.089677207626948e+00	-1.300903596744972e+01
1	 5.106276633080377e-01	 1.101708045892076e+00	-1.330628937765504e+01
1	 7.646371214658773e-01	 9.707361501040475e-01	-9.001969593698634e+00
1	 7.415470732036484e-01	 9.884869839388924e-01	-9.536158183356559e+00
1	 7.180846572853693e-01	 1.005660482352604e+00	-1.005092303955774e+01
1	 6.942714350952838e-01	 1.022245460334119e+00	-1.054455005751571e+01
1	 6.701293838977288e-01	 1.038231797620851e+00	-1.101543552727847e+01
1	 6.456808318179758e-01	 1.053610455632130e+00	-1.146209161992816e+01
1	 6.209483922326030e-01	 1.068373489709530e+00	-1.188315102691826e+01
1	 5.959548979573668e-01	 1.082514056670136e+00	-1.227737073354346e+01
1	 5.707233356144555e-01	 1.096026417714620e+00	-1.264363491696016e+01
1	 5.452767805513049e-01	 1.108905936766497e+00	-1.298095696845098e+01
1	 5.196383326700746e-01	 1.121149074351903e+00	-1.328848064861819e+01
1	 7.778961222299949e-01	 9.875689600650960e-01	-8.956623781331317e+00
1	 7.544056867003687e-01	 1.005627597840651e+00	-9.486184707917664e+00
1	 7.305364265654636e-01	 1.023098889053101e+00	-9.998095932436485e+00
1	 7.063102770893895e-01	 1.039971454740473e+00	-1.049062505560888e+01
1	 6.817495966278149e-01	 1.056234999152278e+00	-1.096213543889069e+01
1	 6.568771004813599e-01	 1.071880326976580e+00	-1.141109232931783e+01
1	 6.317157941482805e-01	 1.086899355792575e+00	-1.183606822865898e+01
1	 6.062889063711429e-01	 1.101285123754836e+00	-1.223574747898606e+01
1	 5.806198223659860e-01	 1.115031792551808e+00	-1.260893004550890e+01
1	 5.547320176126129e-01	 1.128134645716276e+00	-1.295453448625847e+01
1	 5.286489925713381e-01	 1.140590082399010e+00	-1.327160010680829e+01
1	 7.911551106197429e-01	 1.004401754316001e+00	-8.916132850733526e+00
1	 7.672642881963988e-01	 1.022768195744962e+00	-9.440985397769458e+00
1	 7.429881842245639e-01	 1.040537279478196e+00	-9.949802883826969e+00
1	 7.183491078478662e-01	 1.057697432602996e+00	-1.044085339547757e+01
1	 6.933697985129529e-01	 1.074238183881136e+00	-1.091248766865350e+01
1	 6.680733586954336e-01	 1.090150181269558e+00	-1.136314567560025e+01
1	 6.424831860148784e-01	 1.105425204585207e+00	-1.179136254015108e+01
1	 6.166229051402946e-01	 1.120056173320251e+00	-1.219577374641252e+01
1	 5.905162998812021e-01	 1.134037149651004e+00	-1.257511961401084e+01
1	 5.641872458494017e-01	 1.147363336719592e+00	-1.292824902124174e+01
1	 5.376596440629881e-01	 1.160031072301475e+00	-1.325412236564867e+01
1	 8.044140881818346e-01	 1.021234534820511e+00	-8.879553920950752e+00
1	 7.801228791917437e-01	 1.039908779651493e+00	-9.399513491640482e+00
1	 7.554399317152156e-01	 1.057975655662302e+00	-9.904908324685049e+00
1	 7.303879287750938e-01	 1.075423395989661e+00	-1.039402484400744e+01
1	 7.049899909086940e-01	 1.092241353907742e+00	-1.086522048058709e+01
1	 6.792696077662996e-01	 1.108420020642495e+00	-1.131693055014247e+01
1	 6.532505690884762e-01	 1.123951038248725e+00	-1.174767453621867e+01
1	 6.269568954703503e-01	 1.138827207556292e+00	-1.215606173855855e+01
1	 6.004127693145982e-01	 1.153042491229457e+00	-1.254079625404273e+01
1	 5.736424663646924e-01	 1.166592012019752e+00	-1.290068126511504e+01
1	 5.466702881961839e-01	 1.179472046327378e+00	-1.323462261833742e+01
1	 8.176730564629834e-01	 1.038067303542373e+00	-8.846005271724238e+00
1	 7.929814611864079e-01	 1.057049351559909e+00	-9.360790127588700e+00
1	 7.678916704899652e-01	 1.075414019639836e+00	-9.862350346285655e+00
1	 7.424267412754527e-01	 1.093149346968438e+00	-1.034900767198724e+01
1	 7.166101751705883e-01	 1.110244511332412e+00	-1.081914463251097e+01
1	 6.904658490000594e-01	 1.126689847226822e+00	-1.127121154118359e+01
1	 6.640179446251525e-01	 1.142476858944430e+00	-1.170373297446564e+01
1	 6.372908785668371e-01	 1.157598228652869e+00	-1.211531368177750e+01
1	 6.103092318206673e-01	 1.172047819504416e+00	-1.250464389072948e+01
1	 5.830976802615079e-01	 1.185820673860066e+00	-1.287050397801952e+01
1	 5.556809260220850e-01	 1.198913006744801e+00	-1.321176848350003e+01
1	 8.309320170099023e-01	 1.054900062445334e+00	-8.814661463698641e+00
1	 8.058400356803955e-01	 1.074189913469875e+00	-9.323898925624496e+00
1	 7.803434020013582e-01	 1.092852373445212e+00	-9.821134823267858e+00
1	 7.544655467533229e-01	 1.110875287607301e+00	-1.030474239077506e+01
1	 7.282303526541866e-01	 1.128247658255463e+00	-1.077314679444670e+01
1	 7.016620837028147e-01	 1.144959663153971e+00	-1.122483209675133e+01
1	 6.747853138809868e-01	 1.161002668833623e+00	-1.165834775992616e+01
1	 6.476248556352834e-01	 1.176369238799892e+00	-1.207231464389166e+01
1	 6.202056885539030e-01	 1.191053136693130e+00	-1.246543045934441e+01
1	 5.925528886428700e-01	 1.205049324483841e+00	-1.283647464336739e+01
1	 5.646915585918519e-01	 1.218353955821823e+00	-1.318431263161402e+01
1	 8.441909713693050e-01	 1.071732813493140e+00	-8.784748918526260e+00
1	 8.186986041737117e-01	 1.091330467381058e+00	-9.287981080895092e+00
1	 7.927951277019403e-01	 1.110290719112844e+00	-9.780330090554024e+00
1	 7.665043466130838e-01	 1.128601219974219e+00	-1.026023607925344e+01
1	 7.398505247150390e-01	 1.146250796777212e+00	-1.072618358730272e+01
1	 7.128583131806682e-01	 1.163229470555374e+00	-1.117670833194014e+01
1	 6.855526781120588e-01	 1.179528470077603e+00	-1.161040357276303e+01
1	 6.579588278812166e-01	 1.195140240187270e+00	-1.202592602892664e+01
1	 6.301021406687992e-01	 1.210058445012847e+00	-1.242200130833488e+01
1	 6.020080926118010e-01	 1.224277966134384e+00	-1.279742881493126e+01
1	 5.737021869566434e-01	 1.237794895826525e+00	-1.315108610635590e+01
1	 8.574499210879042e-01	 1.088565558649539e+00	-8.755541909082785e+00
1	 8.315571681663609e-01	 1.108471015293123e+00	-9.252230912160888e+00
1	 8.052468490442578e-01	 1.127729058677147e+00	-9.739062114185270e+00
1	 7.785431422591157e-01	 1.146327146137166e+00	-1.021455723717213e+01
1	 7.514706927086967e-01	 1.164253928997976e+00	-1.067727617469661e+01
1	 7.240545387397214e-01	 1.181499271562462e+00	-1.112582341079734e+01
1	 6.963200385744472e-01	 1.198054264837672e+00	-1.155885408723615e+01
1	 6.682927965101644e-01	 1.213911235004914e+00	-1.197507967545296e+01
1	 6.399985893198488e-01	 1.229063746680817e+00	-1.237327321446499e+01
1	 6.114632932713226e-01	 1.243506601055004e+00	-1.275227408124103e+01
1	 5.827128121676197e-01	 1.257235829026986e+00	-1.311099226564604e+01
1	 8.707088677124133e-01	 1.105398299878278e+00	-8.726358916075547e+00
1	 8.444157291583471e-01	 1.125611559205735e+00	-9.215891817027524e+00
1	 8.176985674808565e-01	 1.145167394172536e+00	-9.696510103419815e+00
1	 7.905819350957988e-01	 1.164053068164112e+00	-1.016683110876542e+01
1	 7.630908579907099e-01	 1.182257057018070e+00	-1.062550534894627e+01
1	 7.352507616860767e-01	 1.199769068306667e+00	-1.107122244156223e+01
1	 7.070873965242315e-01	 1.216580055275129e+00	-1.150271671891116e+01
1	 6.786267627276555e-01	 1.232682225442734e+00	-1.191877249419006e+01
1	 6.498950356615451e-01	 1.248069043914288e+00	-1.231822894482223e+01
1	 6.209184917244570e-01	 1.262735231489007e+00	-1.269998458148182e+01
1	 5.917234352759403e-01	 1.276676757691286e+00	-1.306300127632639e+01
1	 8.839678127895459e-01	 1.122231039143104e+00	-8.696559312571166e+00
1	 8.572742886496763e-01	 1.142752101118562e+00	-9.178252591223149e+00
1	 8.301502844642827e-01	 1.162605727633426e+00	-9.651902517759108e+00
1	 8.026207265275128e-01	 1.181778988123030e+00	-1.011623542726141e+01
1	 7.747110219166292e-01	 1.200260182937813e+00	-1.057000705934188e+01
1	 7.464469833258357e-01	 1.218038862919419e+00	-1.101200783135326e+01
1	 7.178547532174911e-01	 1.235105843551275e+00	-1.144106784463879e+01
1	 6.889607277392172e-01	 1.251453213690640e+00	-1.185606158824631e+01
1	 6.597914808483826e-01	 1.267074338930509e+00	-1.225591230826500e+01
1	 6.303736890742265e-01	 1.281963859679704e+00	-1.263959601498216e+01
1	 6.007340573327651e-01	 1.296117684087506e+00	-1.300614510433971e+01
1	 5.106276633080377e-01	 1.101708045892076e+00	-1.330628937765504e+01
1	 4.852696686386936e-01	 1.113110351899734e+00	-1.357452241519639e+01
1	 4.597683456134846e-01	 1.123883637862912e+00	-1.381526900899131e+01
1	 4.341460901130837e-01	 1.134027587438770e+00	-1.402722120941845e+01
1	 4.084250855187109e-01	 1.143542896733289e+00	-1.420920989898533e+01
1	 3.826272488061301e-01	 1.152431248962697e+00	-1.436020704945098e+01
1	 3.567741792293045e-01	 1.160695285930740e+00	-1.447932699234424e+01
1	 3.308871097884258e-01	 1.168338576587066e+00	-1.456582673071657e+01
1	 3.049868616489977e-01	 1.175365582942782e+00	-1.461910532843090e+01
1	 2.790938016503139e-01	 1.181781623626968e+00	-1.463870242087849e+01
1	 2.532278030134201e-01	 1.187592835372691e+00	-1.462429589766289e+01
1	 5.196383326700746e-01	 1.121149074351903e+00	-1.328848064861819e+01
1	 4.938328641916429e-01	 1.132752588435226e+00	-1.356804757140902e+01
1	 4.678815381477510e-01	 1.143715982621827e+00	-1.382103715179066e+01
1	 4.418071456226153e-01	 1.154038934986585e+00	-1.404603158609352e+01
1	 4.156322614511785e-01	 1.163722153919135e+00	-1.424174327467944e+01
1	 3.893791893618673e-01	 1.172767352338166e+00	-1.440701827826516e+01
1	 3.630699097547064e-01	 1.181177218665371e+00	-1.454083879774854e+01
1	 3.367260303129400e-01	 1.188955384829006e+00	-1.464232469405548e+01
1	 3.103687396177812e-01	 1.196106391577979e+00	-1.471073407353982e+01
1	 2.840187639070761e-01	 1.202635651395282e+00	-1.474546297271934e+01
1	 2.576963270899055e-01	 1.208549409304363e+00	-1.474604418353612e+01
1	 5.286489925713381e-01	 1.140590082399010e+00	-1.327160010680829e+01
1	 5.023960507536394e-01	 1.152394804346683e+00	-1.356180368433100e+01
1	 4.759947221635519e-01	 1.163548306557042e+00	-1.382637986030198e+01
1	 4.494681930884203e-01	 1.174050261522690e+00	-1.406382062375181e+01
1	 4.228394298164992e-01	 1.183901389916909e+00	-1.427273950679549e+01
1	 3.961311228284722e-01	 1.193103434360818e+00	-1.445187610847335e+01
1	 3.693656336700246e-01	 1.201659129894012e+00	-1.460009965775334e+01
1	 3.425649447070593e-01	 1.209572171423291e+00	-1.471641162178943e+01
1	 3.157506119361139e-01	 1.216847178435284e+00	-1.479994737499090e+01
1	 2.889437209932079e-01	 1.223489657266795e+00	-1.484997695325251e+01
1	 2.621648464750896e-01	 1.229505961231549e+00	-1.486590492574225e+01
1	 5.376596440629881e-01	 1.160031072301475e+00	-1.325412236564867e+01
1	 5.109592293236386e-01	 1.172037001925664e+00	-1.355426573068677e+01
1	 4.841078986073412e-01	 1.183380611982301e+00	-1.382977831963304e+01
1	 4.571292334041995e-01	 1.194061569381721e+00	-1.407908062548299e+01
1	 4.300465914554147e-01	 1.204080607080841e+00	-1.430070598003735e+01
1	 4.028830499935667e-01	 1.213439497403189e+00	-1.449330601802278e+01
1	 3.756613517096462e-01	 1.222141022006219e+00	-1.465565520147171e+01
1	 3.484038536518652e-01	 1.230188938775215e+00	-1.478665440090693e+01
1	 3.211324792317424e-01	 1.237587945934461e+00	-1.488533353966876e+01
1	 2.938686734831362e-01	 1.244343643674486e+00	-1.495085331695777e+01
1	 2.666333616901347e-01	 1.250462493599191e+00	-1.498250603373325e+01
1	 5.466702881961839e-01	 1.179472046327378e+00	-1.323462261833742e+01
1	 5.195224009005970e-01	 1.191679183463729e+00	-1.354400924323500e+01
1	 4.922210684255726e-01	 1.203212901211347e+00	-1.382981386172245e+01
1	 4.647902674636531e-01	 1.214072860898310e+00	-1.409040330821386e+01
1	 4.372537472086664e-01	 1.224259807765161e+00	-1.432424849852772e+01
1	 4.096349716447729e-01	 1.233775543837813e+00	-1.452993071119906e+01
1	 3.819570646079585e-01	 1.242622897391544e+00	-1.470614695548870e+01
1	 3.542427578284386e-01	 1.250805689290074e+00	-1.485171441392717e+01
1	 3.265143421324134e-01	 1.258328696495277e+00	-1.496557395725534e+01
1	 2.987936219512875e-01	 1.265197613051333e+00	-1.504679273918513e+01
1	 2.711018732562027e-01	 1.271419008852232e+00	-1.509456588738719e+01
1	 5.556809260220850e-01	 1.198913006744801e+00	-1.321176848350003e+01
1	 5.280855664834702e-01	 1.211321351252438e+00	-1.352970215840534e+01
1	 5.003342325647013e-01	 1.223045176557927e+00	-1.382515984620692e+01
1	 4.724512961604821e-01	 1.234084138407093e+00	-1.409647174305281e+01
1	 4.444608979169956e-01	 1.244438994324099e+00	-1.434206330681728e+01
1	 4.163868885697131e-01	 1.254111576037227e+00	-1.456046223639884e+01
1	 3.882527730993486e-01	 1.263104758439542e+00	-1.475030456939674e+01
1	 3.600816579178603e-01	 1.271422425373163e+00	-1.491033987811356e+01
1	 3.318962012658740e-01	 1.279069432537498e+00	-1.503943555398464e+01
1	 3.037185669720887e-01	 1.286051567830313e+00	-1.513658018032026e+01
1	 2.755703816944557e-01	 1.292375509435615e+00	-1.520088600253268e+01
1	 5.646915585918519e-01	 1.218353955821823e+00	-1.318431263161402e+01
1	 5.366487270712145e-01	 1.230963507583349e+00	-1.351009744451637e+01
1	 5.084473919711809e-01	 1.242877440335783e+00	-1.381457431868880e+01
1	 4.801123203883875e-01	 1.254095404242703e+00	-1.409605306733893e+01
1	 4.516680444211442e-01	 1.264618169111888e+00	-1.435292987487506e+01
1	 4.231388015560089e-01	 1.274447596373964e+00	-1.458369485861857e+01
1	 3.945484779182040e-01	 1.283586607539769e+00	-1.478693878573005e+01
1	 3.659205546012119e-01	 1.292039149429777e+00	-1.496135891820093e+01
1	 3.372780572598708e-01	 1.299810156480888e+00	-1.510576396894479e+01
1	 3.086435091199663e-01	 1.306905510444404e+00	-1.521907816192456e+01
1	 2.800388875260558e-01	 1.313331997794282e+00	-1.530034439874223e+01
1	 5.737021869566434e-01	 1.237794895826525e+00	-1.315108610635590e+01
1	 5.452118836627862e-01	 1.250605654748021e+00	-1.348402642474838e+01
1	 5.165605475914659e-01	 1.262709694858662e+00	-1.379689336092536e+01
1	 4.877733410410696e-01	 1.274106660739776e+00	-1.408799188354428e+01
1	 4.588751875618532e-01	 1.284797334482754e+00	-1.435570436305784e+01
1	 4.298907113912827e-01	 1.294783607220561e+00	-1.459849860367624e+01
1	 4.008441797989115e-01	 1.304068447081777e+00	-1.481493507244753e+01
1	 3.717594485595739e-01	 1.312655863865211e+00	-1.500367329198457e+01
1	 3.426599107421506e-01	 1.320550870745215e+00	-1.516347737347934e+01
1	 3.135684489693475e-01	 1.327759443326584e+00	-1.529322067656624e+01
1	 2.845073912721650e-01	 1.334288476373178e+00	-1.539188959217884e+01
1	 5.827128121676197e-01	 1.257235829026986e+00	-1.311099226564604e+01
1	 5.537750372571409e-01	 1.270247795038016e+00	-1.345039271966114e+01
1	 5.246737003720107e-01	 1.282541942440307e+00	-1.377102505803882e+01
1	 4.954343590122293e-01	 1.294117910232945e+00	-1.407120427067704e+01
1	 4.660823281798644e-01	 1.304976492790930e+00	-1.434931369344999e+01
1	 4.366426188631561e-01	 1.315119610949552e+00	-1.460381340144991e+01
1	 4.071398794758586e-01	 1.324550279455123e+00	-1.483324784624332e+01
1	 3.775983404740276e-01	 1.333272571084760e+00	-1.503625269809615e+01
1	 3.480417623404605e-01	 1.341291577750245e+00	-1.521156086407217e+01
1	 3.184933870946584e-01	 1.348613368909831e+00	-1.535800766274314e+01
1	 2.889758934539454e-01	 1.355244947617244e+00	-1.547453514583191e+01
1	 5.917234352759403e-01	 1.276676757691286e+00	-1.306300127632639e+01
1	 5.623381888532349e-01	 1.289889930744891e+00	-1.340816674321195e+01
1	 5.327868512592693e-01	 1.302374185394463e+00	-1.373594401696966e+01
1	 5.030953751955672e-01	 1.314129155056846e+00	-1.404467234289008e+01
1	 4.732894671159193e-01	 1.325155646390646e+00	-1.433275016293198e+01
1	 4.433945247592517e-01	 1.335455609933472e+00	-1.459864376427490e+01
1	 4.134355776834322e-01	 1.345032107049359e+00	-1.484089522369892e+01
1	 3.834372310256544e-01	 1.353889273493718e+00	-1.505812960390528e+01
1	 3.534236126825467e-01	 1.362032279915742e+00	-1.524906136757985e+01
1	 3.234183240703262e-01	 1.369467289627122e+00	-1.541249998465782e+01
1	 2.934443945925591e-01	 1.376201413971425e+00	-1.554735471772352e+01
1	 6.007340573327651e-01	 1.296117684087506e+00	-1.300614510433971e+01
1	 5.709013394500249e-01	 1.309532064160208e+00	-1.335638069415332e+01
1	 5.409000011996963e-01	 1.322206426034874e+00	-1.369068637829040e+01
1	 5.107563904847843e-01	 1.334140397546113e+00	-1.400743929783520e+01
1	 4.804966052107591e-01	 1.345334797636131e+00	-1.430506654109333e+01
1	 4.501464298671911e-01	 1.355791606544858e+00	-1.458205394430590e+01
1	 4.197312751560198e-01	 1.365513932254041e+00	-1.483695424485299e+01
1	 3.892761208955348e-01	 1.374505973497381e+00	-1.506839453892921e+01
1	 3.588054623961567e-01	 1.382772979661473e+00	-1.527508300501327e+01
1	 3.283432604707774e-01	 1.390321207911435e+00	-1.545581486383223e+01
1	 2.979128952091682e-01	 1.397157877880663e+00	-1.560947755479478e+01
1	 2.532278030134201e-01	 1.187592835372691e+00	-1.462429589766289e+01
1	 2.274064083900854e-01	 1.192806476988992e+00	-1.457790894307602e+01
1	 2.016502366214943e-01	 1.197429773184443e+00	-1.450089115080830e+01
1	 1.759775058651110e-01	 1.201471069976739e+00	-1.439212390671628e+01
1	 1.504058149449775e-01	 1.204939362751414e+00	-1.425064661442084e+01
1	 1.249521207634296e-01	 1.207844251628774e+00	-1.407565573480832e+01
1	 9.963271902957720e-02	 1.210195896443978e+00	-1.386650286828361e+01
1	 7.446322824141441e-02	 1.212004971590951e+00	-1.362269194837470e+01
1	 4.945857683983854e-02	 1.213282620967563e+00	-1.334387561949284e+01
1	 2.463299343616701e-02	 1.214040413245077e+00	-1.302985087470573e+01
1	 0.000000000000000e+00	 1.214290297669446e+00	-1.268055403133524e+01
1	 2.576963270899055e-01	 1.208549409304363e+00	-1.474604418353612e+01
1	 2.314192813802493e-01	 1.213855052205103e+00	-1.471438332183003e+01
1	 2.052086094647836e-01	 1.218559932295173e+00	-1.465171791089981e+01
1	 1.790828509833808e-01	 1.222672542868285e+00	-1.455679532461169e+01
1	 1.530599153135699e-01	 1.226202038044907e+00	-1.442852203256100e+01
1	 1.271570585836551e-01	 1.229158187351587e+00	-1.426596364319968e+01
1	 1.013908640611247e-01	 1.231551329906598e+00	-1.406834392144869e+01
1	 7.577722585210574e-02	 1.233392328467018e+00	-1.383504284535099e+01
1	 5.033133582869952e-02	 1.234692523578864e+00	-1.356559377153440e+01
1	 2.506767368405044e-02	 1.235463688057201e+00	-1.325967978327587e+01
1	 0.000000000000000e+00	 1.235717982007509e+00	-1.291712929783685e+01
1	 2.621648464750896e-01	 1.229505961231549e+00	-1.486590492574225e+01
1	 2.354321501576223e-01	 1.234903605320127e+00	-1.484952339909430e+01
1	 2.087669785725819e-01	 1.239690069219164e+00	-1.480194395303949e+01
1	 1.821881928418994e-01	 1.243873993498235e+00	-1.472176928192001e+01
1	 1.557140128962540e-01	 1.247464691012572e+00	-1.460776213728230e+01
1	 1.293619940895927e-01	 1.250472100694779e+00	-1.445884646560770e+01
1	 1.031490072474699e-01	 1.252906740946056e+00	-1.427410744663388e+01
1	 7.709122208384607e-02	 1.254779662886434e+00	-1.405279049241759e+01
1	 5.120409390174007e-02	 1.256102403709864e+00	-1.379429927359389e+01
1	 2.550235347585030e-02	 1.256886940375000e+00	-1.349819284436719e+01
1	 0.000000000000000e+00	 1.257145643846623e+00	-1.316418194164665e+01
1	 2.666333616901347e-01	 1.250462493599191e+00	-1.498250603373325e+01
1	 2.394450151901940e-01	 1.255952138789739e+00	-1.498197337052625e+01
1	 2.123253443598423e-01	 1.260820186421612e+00	-1.495022699427442e+01
1	 1.852935318027594e-01	 1.265075424340102e+00	-1.488571466300846e+01
1	 1.583681080024750e-01	 1.268727324135055e+00	-1.478704502864582e+01
1	 1.315669275382908e-01	 1.271785994144974e+00	-1.465298995897862e+01
1	 1.049071487935499e-01	 1.274262132053813e+00	-1.448248568084977e+01
1	 7.840521708978057e-02	 1.276166977344381e+00	-1.427463279989842e+01
1	 5.207685116066488e-02	 1.277512263858373e+00	-1.402869525974265e+01
1	 2.593703286221311e-02	 1.278310172697842e+00	-1.374409830968297e+01
1	 0.000000000000000e+00	 1.278573285686670e+00	-1.342042555496835e+01
1	 2.711018732562027e-01	 1.271419008852232e+00	-1.509456588738719e+01
1	 2.434578769459541e-01	 1.277000655069617e+00	-1.511046682760751e+01
1	 2.158837072415182e-01	 1.281950286367708e+00	-1.509531325505830e+01
1	 1.883988682280532e-01	 1.286276837867395e+00	-1.504738811835170e+01
1	 1.610222009416785e-01	 1.289989939893004e+00	-1.496513596411856e+01
1	 1.337718591867981e-01	 1.293099870188797e+00	-1.484716653167599e+01
1	 1.066652889043021e-01	 1.295617505721334e+00	-1.469225708407699e+01
1	 7.971921102305438e-02	 1.297554274336043e+00	-1.449935352579625e+01
1	 5.294960770717862e-02	 1.298922106522204e+00	-1.426757036605882e+01
1	 2.637171189378541e-02	 1.299733387525096e+00	-1.399618959424852e+01
1	 0.000000000000000e+00	 1.300000910027534e+00	-1.368465853995228e+01
1	 2.755703816944557e-01	 1.292375509435615e+00	-1.520088600253268e+01
1	 2.474707358928920e-01	 1.298049156615436e+00	-1.523381951025616e+01
1	 2.194420676325628e-01	 1.303080371522645e+00	-1.523603028416906e+01
1	 1.915042024798735e-01	 1.307478236553625e+00	-1.520562694916547e+01
1	 1.636762920233097e-01	 1.311252540767066e+00	-1.514088029248691e+01
1	 1.359767892921631e-01	 1.314413731312873e+00	-1.504022821833663e+01
1	 1.084234277846637e-01	 1.316972864440081e+00	-1.490227934876895e+01
1	 8.103320403681270e-02	 1.318941556356603e+00	-1.472581531562433e+01
1	 5.382236364298600e-02	 1.320331934199166e+00	-1.450979179837922e+01
1	 2.680639062121374e-02	 1.321156587356134e+00	-1.425333837151099e+01
1	 0.000000000000000e+00	 1.321428519369097e+00	-1.395575723232878e+01
1	 2.800388875260558e-01	 1.313331997794282e+00	-1.530034439874223e+01
1	 2.514835924989972e-01	 1.319097645882874e+00	-1.535092275337047e+01
1	 2.230004259479292e-01	 1.324210444351618e+00	-1.537128047063397e+01
1	 1.946095349203127e-01	 1.328679622872302e+00	-1.535934267333091e+01
1	 1.663303815568142e-01	 1.332515129237891e+00	-1.531319706434179e+01
1	 1.381817181114345e-01	 1.335727580003826e+00	-1.523110032737718e+01
1	 1.101815656395719e-01	 1.338328210701515e+00	-1.511148307868777e+01
1	 8.234719628420067e-02	 1.340328825901245e+00	-1.495295340866707e+01
1	 5.469511906979165e-02	 1.341741749387074e+00	-1.475429906380733e+01
1	 2.724106909514462e-02	 1.342579774690324e+00	-1.451448832957682e+01
1	 0.000000000000000e+00	 1.342856116211244e+00	-1.423266968344733e+01
1	 2.845073912721650e-01	 1.334288476373178e+00	-1.539188959217884e+01
1	 2.554964472322594e-01	 1.340146125327605e+00	-1.546073755100309e+01
1	 2.265587826025708e-01	 1.345340507319818e+00	-1.550003516712365e+01
1	 1.977148659114633e-01	 1.349880999296936e+00	-1.550751519769824e+01
1	 1.689844698516372e-01	 1.353777707786126e+00	-1.548107324474392e+01
1	 1.403866459016606e-01	 1.357041418748281e+00	-1.541877568719284e+01
1	 1.119397026739639e-01	 1.359683546997099e+00	-1.531886606347923e+01
1	 8.366118791836354e-02	 1.361716085465153e+00	-1.517976993739550e+01
1	 5.556787408930028e-02	 1.363151554583735e+00	-1.500009829299623e+01
1	 2.767574736622461e-02	 1.364002952027036e+00	-1.477864951589304e+01
1	 0.000000000000000e+00	 1.364283703053858e+00	-1.451441002832804e+01
1	 2.889758934539454e-01	 1.355244947617244e+00	-1.547453514583191e+01
1	 2.595093005606681e-01	 1.361194597405308e+00	-1.556228917130697e+01
1	 2.301171380114408e-01	 1.366470562892439e+00	-1.562132935862296e+01
1	 2.008201958154179e-01	 1.371082368301039e+00	-1.564918753112907e+01
1	 1.716385572172243e-01	 1.375040278892417e+00	-1.564355846288268e+01
1	 1.425915729198902e-01	 1.378355250032861e+00	-1.560230942623727e+01
1	 1.136978390927769e-01	 1.381038875818296e+00	-1.552348808449631e+01
1	 8.497517909244642e-02	 1.383103337543510e+00	-1.540532875582611e+01
1	 5.644062880321656e-02	 1.384561352286963e+00	-1.524625708925349e+01
1	 2.811042548510022e-02	 1.385426121865639e+00	-1.504489320667289e+01
1	 0.000000000000000e+00	 1.385711282396822e+00	-1.480005337628833e+01
1	 2.934443945925591e-01	 1.376201413971425e+00	-1.554735471772352e+01
1	 2.635221529522129e-01	 1.382243064571658e+00	-1.565466226353815e+01
1	 2.336754925894923e-01	 1.387600613534673e+00	-1.573425681824982e+01
1	 2.039255249942689e-01	 1.392283732358122e+00	-1.578346098063233e+01
1	 1.742926439630208e-01	 1.396302845037412e+00	-1.579976024148225e+01
1	 1.447964994231718e-01	 1.399669076344194e+00	-1.578081423007048e+01
1	 1.154559751009483e-01	 1.402394199656568e+00	-1.572446619523819e+01
1	 8.628916995959447e-02	 1.404490584631499e+00	-1.562875074043597e+01
1	 5.731338331324518e-02	 1.405971144994568e+00	-1.549189984830650e+01
1	 2.854510350241799e-02	 1.406849286705503e+00	-1.531234724512451e+01
1	 0.000000000000000e+00	 1.407138856740019e+00	-1.508873116843624e+01
1	 2.979128952091682e-01	 1.397157877880663e+00	-1.560947755479478e+01
1	 2.675350048748832e-01	 1.403291529282332e+00	-1.573699640544734e+01
1	 2.372338467516789e-01	 1.408730661711715e+00	-1.583796569906846e+01
1	 2.070308538101089e-01	 1.413485093941693e+00	-1.590949077986596e+01
1	 1.769467303984721e-01	 1.417565408701761e+00	-1.594883965558007e+01
1	 1.470014256685540e-01	 1.420982900168902e+00	-1.595345602529100e+01
1	 1.172141109034152e-01	 1.423749521003378e+00	-1.592097042656853e+01
1	 8.760316067295294e-02	 1.425877829224306e+00	-1.584920951401427e+01
1	 5.818613772109082e-02	 1.427380935204363e+00	-1.573620349930751e+01
1	 2.897978146882448e-02	 1.428272449045998e+00	-1.558019179925791e+01
1	 0.000000000000000e+00	 1.428566428583333e+00	-1.537962695300764e+01
1	 1.428566428583333e+00	 0.000000000000000e+00	 1.474847109186418e+01
1	 1.428272449045998e+00	 2.897978146882486e-02	 1.400233126953309e+01
1	 1.427380935204363e+00	 5.818613772109118e-02	 1.326564235385492e+01
1	 1.425877829224305e+00	 8.760316067295322e-02	 1.253918424859885e+01
1	 1.423749521003378e+00	 1.172141109034155e-01	 1.182380295252702e+01
1	 1.420982900168901e+00	 1.470014256685542e-01	 1.112040937042178e+01
1	 1.417565408701760e+00	 1.769467303984722e-01	 1.042997746647698e+01
1	 1.413485093941694e+00	 2.070308538101091e-01	 9.753541724543998e+00
1	 1.408730661711715e+00	 2.372338467516789e-01	 9.092193884490925e+00
1	 1.403291529282332e+00	 2.675350048748832e-01	 8.447078929529589e+00
1	 1.397157877880663e+00	 2.979128952091682e-01	 7.819390305775777e+00
1	 1.449995499181647e+00	 0.000000000000000e+00	 1.435008359633284e+01
1	 1.449697109833070e+00	 2.941448983860340e-02	 1.360138701479307e+01
1	 1.448792222925418e+00	 5.905895317343568e-02	 1.286302439691023e+01
1	 1.447266569751416e+00	 8.891724329299891e-02	 1.213586253452954e+01
1	 1.445106336051617e+00	 1.189723696782540e-01	 1.142082556830146e+01
1	 1.442298214792488e+00	 1.492065061370588e-01	 1.071889278887488e+01
1	 1.438829459579589e+00	 1.796010024735820e-01	 1.003109578725471e+01
1	 1.434687938457957e+00	 2.101363998278110e-01	 9.358514927937428e+00
1	 1.429862187833423e+00	 2.407924498026650e-01	 8.702275123727871e+00
1	 1.424341466231304e+00	 2.715481374762986e-01	 8.063540897176063e+00
1	 1.418115807593190e+00	 3.023817083749849e-01	 7.443510720329749e+00
1	 1.471424564779844e+00	 0.000000000000000e+00	 1.396885492940277e+01
1	 1.471121765621054e+00	 2.984919810671369e-02	 1.321816374831603e+01
1	 1.470203505650512e+00	 5.993176842169688e-02	 1.247861340472593e+01
1	 1.468655305287833e+00	 9.023132560585176e-02	 1.175115262304346e+01
1	 1.466463146116619e+00	 1.207306280421508e-01	 1.103677927722385e+01
1	 1.463613524442529e+00	 1.514115860902909e-01	 1.033653724196204e+01
1	 1.460093505495844e+00	 1.822552739285674e-01	 9.651512599539641e+00
1	 1.455890778026941e+00	 2.132419451200787e-01	 8.982829184538311e+00
1	 1.450993709024503e+00	 2.443510520225141e-01	 8.331643454413072e+00
1	 1.445391398268700e+00	 2.755612691405500e-01	 7.699138680368062e+00
1	 1.439073732415621e+00	 3.068505204973566e-01	 7.086518460058643e+00
1	 1.492853620377808e+00	 0.000000000000000e+00	 1.360320681946032e+01
1	 1.492546411410866e+00	 3.028390617175231e-02	 1.285107093020632e+01
1	 1.491614778383680e+00	 6.080458326226987e-02	 1.211081365039370e+01
1	 1.490044030842858e+00	 9.154540730496345e-02	 1.138346096901365e+01
1	 1.487819946215142e+00	 1.224888855849311e-01	 1.067008035423966e+01
1	 1.484928824145480e+00	 1.536166650138291e-01	 9.971776712502601e+00
1	 1.481357541488952e+00	 1.849095441442039e-01	 9.289687709396006e+00
1	 1.477093607701365e+00	 2.163474889623962e-01	 8.624978442719017e+00
1	 1.472125220354330e+00	 2.479096525810012e-01	 7.978835464202922e+00
1	 1.466441320482941e+00	 2.795743989313582e-01	 7.352460153303253e+00
1	 1.460031647457859e+00	 3.113193305336813e-01	 6.747061453824224e+00
1	 1.514282660975422e+00	 0.000000000000000e+00	 1.325165032371796e+01
1	 1.513971042203420e+00	 3.071861393231583e-02	 1.249860804345858e+01
1	 1.513026036128963e+00	 6.167739749154973e-02	 1.175811972316776e+01
1	 1.511432741425798e+00	 9.285948808378569e-02	 1.103128421968159e+01
1	 1.509176731363953e+00	 1.242471418964206e-01	 1.031923471054849e+01
1	 1.506244108927795e+00	 1.558217423932516e-01	 9.623133817013626e+00
1	 1.502621562597342e+00	 1.875638125012670e-01	 8.944168094707129e+00
1	 1.498296422533949e+00	 2.194530306302475e-01	 8.283541889941944e+00
1	 1.493256716892276e+00	 2.514682506479013e-01	 7.642470566195774e+00
1	 1.487491227962451e+00	 2.835875259124445e-01	 7.022173112549836e+00
1	 1.480989547829808e+00	 3.157881374413563e-01	 6.423864153525058e+00
1	 1.535711681572569e+00	 0.000000000000000e+00	 1.291277959579833e+01
1	 1.535395652999628e+00	 3.115332128700082e-02	 1.215935831312480e+01
1	 1.534437273890396e+00	 6.255021090593156e-02	 1.141911022717750e+01
1	 1.532821432045957e+00	 9.417356763577016e-02	 1.069320292201361e+01
1	 1.530533496579810e+00	 1.260053965664448e-01	 9.982831639766450e+00
1	 1.527559373815928e+00	 1.580268177141372e-01	 9.289213621825205e+00
1	 1.523885563859440e+00	 1.902180783805323e-01	 8.613581823289358e+00
1	 1.519499217577412e+00	 2.225585693991171e-01	 7.957178005722080e+00
1	 1.514388193707715e+00	 2.550268453929895e-01	 7.321245220295365e+00
1	 1.508541115795653e+00	 2.876006491475298e-01	 6.707019700956557e+00
1	 1.501947428641371e+00	 3.202569401777798e-01	 6.115722195175993e+00
1	 1.557140677169134e+00	 0.000000000000000e+00	 1.258526616785264e+01
1	 1.556820238800403e+00	 3.158802813440383e-02	 1.183198294401265e+01
1	 1.555848486672018e+00	 6.342302330181039e-02	 1.109244200036046e+01
1	 1.554210097712639e+00	 9.548764565436864e-02	 1.036787574956386e+01
1	 1.551890236879478e+00	 1.277636491848292e-01	 9.659538080391213e+00
1	 1.548874613836336e+00	 1.602318904620643e-01	 8.968697969723403e+00
1	 1.545149540313671e+00	 1.928723411627752e-01	 8.296632473112926e+00
1	 1.540701987884476e+00	 2.256641045444891e-01	 7.644619105563519e+00
1	 1.535519645870019e+00	 2.585854359860407e-01	 7.013927631645490e+00
1	 1.529590979070970e+00	 2.916137677003350e-01	 6.405811291912078e+00
1	 1.522905285002452e+00	 3.247257377003494e-01	 5.821497500756792e+00
1	 1.578569642764997e+00	 0.000000000000000e+00	 1.226785369832731e+01
1	 1.578244794606660e+00	 3.202273437312145e-02	 1.151521582764970e+01
1	 1.577259669477867e+00	 6.429583447558138e-02	 1.077684480418887e+01
1	 1.575598733435150e+00	 9.680172183303276e-02	 1.005403419948534e+01
1	 1.573246947279715e+00	 1.295218993413993e-01	 9.348093345515760e+00
1	 1.570189824015471e+00	 1.624369601226113e-01	 8.660340268615384e+00
1	 1.566413486998465e+00	 1.955266002287714e-01	 7.992094006924231e+00
1	 1.561904728507859e+00	 2.287696353418478e-01	 7.344666329222567e+00
1	 1.556651068448562e+00	 2.621440215968300e-01	 6.719352880809174e+00
1	 1.550640812876824e+00	 2.956268806345810e-01	 6.117423790215983e+00
1	 1.543863112022955e+00	 3.291945289664627e-01	 5.540113778952559e+00
1	 1.599998573360045e+00	 0.000000000000000e+00	 1.195935314173012e+01
1	 1.599669315419313e+00	 3.245743990175022e-02	 1.120785867452533e+01
1	 1.598670817311980e+00	 6.516864422363956e-02	 1.047111644005924e+01
1	 1.596987334222794e+00	 9.811579586521423e-02	 9.750477715618473e+00
1	 1.594603622797286e+00	 1.312801466259807e-01	 9.047304275992186e+00
1	 1.591504999379790e+00	 1.646420261813569e-01	 8.362960698908006e+00
1	 1.587677398952247e+00	 1.981808549592961e-01	 7.698806058675209e+00
1	 1.583107434500282e+00	 2.318751610666773e-01	 7.056185031647047e+00
1	 1.577782456512717e+00	 2.657026013951323e-01	 6.436418445221781e+00
1	 1.571690612301640e+00	 2.996399870139888e-01	 5.840793310508998e+00
1	 1.564820904812782e+00	 3.336633129335175e-01	 5.270552387394564e+00
1	 1.621427463954159e+00	 0.000000000000000e+00	 1.165863830136112e+01
1	 1.621093796239274e+00	 3.289214461888672e-02	 1.090877653227259e+01
1	 1.620081925178396e+00	 6.604145234238003e-02	 1.017411825287855e+01
1	 1.618375895084876e+00	 9.942986744436480e-02	 9.456069198245245e+00
1	 1.615960258448952e+00	 1.330383906283987e-01	 8.756040777876510e+00
1	 1.612820134955746e+00	 1.668470881238793e-01	 8.075441800869090e+00
1	 1.608941271213444e+00	 2.008351047351250e-01	 7.415669593667859e+00
1	 1.604310100914466e+00	 2.349806809944619e-01	 6.778100539344815e+00
1	 1.598913805131856e+00	 2.692611745507228e-01	 6.164080075725423e+00
1	 1.592740372433839e+00	 3.036530859022795e-01	 5.574912198338718e+00
1	 1.585778658481837e+00	 3.381320885589116e-01	 5.011848522963109e+00
1	 1.642856309547222e+00	 0.000000000000000e+00	 1.136464173004658e+01
1	 1.642518232067458e+00	 3.332684842312753e-02	 1.061689365455658e+01
1	 1.641492988081151e+00	 6.691425862819787e-02	 9.884770986499191e+00
1	 1.639764411030700e+00	 1.007439362639361e-01	 9.169730865209329e+00
1	 1.637316849251474e+00	 1.347966309384790e-01	 8.473231709072703e+00
1	 1.634135225769794e+00	 1.690521454357572e-01	 7.796724407281729e+00
1	 1.630205098820483e+00	 2.034893489370335e-01	 7.141642908296478e+00
1	 1.625512722803128e+00	 2.380861944006857e-01	 6.509394238820381e+00
1	 1.620045109375352e+00	 2.728197402333763e-01	 5.901347995768335e+00
1	 1.613790088361845e+00	 3.076661763631741e-01	 5.318825362580553e+00
1	 1.606736368140026e+00	 3.426008548000429e-01	 4.763087710202681e+00
1	 1.397157877880663e+00	 2.979128952091682e-01	 7.819390305775776e+00
1	 1.390321207911435e+00	 3.283432604707773e-01	 7.202767831750541e+00
1	 1.382772979661474e+00	 3.588054623961565e-01	 6.590495037100146e+00
1	 1.374505973497382e+00	 3.892761208955346e-01	 5.983402522202303e+00
1	 1.365513932254041e+00	 4.197312751560196e-01	 5.382328676010101e+00
1	 1.355791606544858e+00	 4.501464298671908e-01	 4.788114799921055e+00
1	 1.345334797636131e+00	 4.804966052107589e-01	 4.201599921328201e+00
1	 1.334140397546113e+00	 5.107563904847842e-01	 3.623615325496733e+00
1	 1.322206426034874e+00	 5.409000011996961e-01	 3.054978839248641e+00
1	 1.309532064160208e+00	 5.709013394500247e-01	 2.496488904632266e+00
1	 1.296117684087507e+00	 6.007340573327650e-01	 1.948918485217827e+00
1	 1.418115807593190e+00	 3.023817083749849e-01	 7.443510720329749e+00
1	 1.411176584826471e+00	 3.332685413459622e-01	 6.835683454254061e+00
1	 1.403515130118839e+00	 3.641876885434341e-01	 6.233187183657646e+00
1	 1.395124115539500e+00	 3.951154191668939e-01	 5.636816137404839e+00
1	 1.385997190063342e+00	 4.260274129816328e-01	 5.047363492502468e+00
1	 1.376129025560859e+00	 4.568988072377368e-01	 4.465616393198516e+00
1	 1.365515360315660e+00	 4.877042474096103e-01	 3.892350720106652e+00
1	 1.354153039725019e+00	 5.184179416245797e-01	 3.328325641445928e+00
1	 1.342040053844614e+00	 5.490137186153758e-01	 2.774277982812852e+00
1	 1.329175571447773e+00	 5.794650889974661e-01	 2.230916456016911e+00
1	 1.315559970282518e+00	 6.097453096387191e-01	 1.698915791330379e+00
1	 1.439073732415621e+00	 3.068505204973566e-01	 7.086518460058643e+00
1	 1.432031956875350e+00	 3.381938210712481e-01	 6.487169897651485e+00
1	 1.424257275736481e+00	 3.695699134342548e-01	 5.894096782259421e+00
1	 1.415742252770840e+00	 4.009547160752124e-01	 5.308060390602618e+00
1	 1.406480443093345e+00	 4.323235493376784e-01	 4.729811593206055e+00
1	 1.396466439831600e+00	 4.636511830323276e-01	 4.160085734943488e+00
1	 1.385695918286535e+00	 4.949118879263421e-01	 3.599597329281860e+00
1	 1.374165677234460e+00	 5.260794909764009e-01	 3.049034602208899e+00
1	 1.361873677026661e+00	 5.571274341376236e-01	 2.509053925623282e+00
1	 1.348819074152008e+00	 5.880288365465024e-01	 1.980274183472476e+00
1	 1.335002251941154e+00	 6.187565598418697e-01	 1.463271117063648e+00
1	 1.460031647457859e+00	 3.113193305336813e-01	 6.747061453824225e+00
1	 1.452887319191917e+00	 3.431190984975254e-01	 6.155937945041108e+00
1	 1.444999411674672e+00	 3.749521358128902e-01	 5.571994183003869e+00
1	 1.436360380380620e+00	 4.067940102581153e-01	 4.995961826575934e+00
1	 1.426963686564753e+00	 4.386196827551881e-01	 4.428552271544679e+00
1	 1.416803844611821e+00	 4.704035556755414e-01	 3.870451359547571e+00
1	 1.405876466840104e+00	 5.021195250793080e-01	 3.322313967660351e+00
1	 1.394178305404967e+00	 5.337410367526935e-01	 2.784758518964531e+00
1	 1.381707290953323e+00	 5.652411458733838e-01	 2.258361457655689e+00
1	 1.368462567689588e+00	 5.965925800990770e-01	 1.743651735124411e+00
1	 1.354444524527037e+00	 6.277678058397489e-01	 1.241105355868395e+00
1	 1.480989547829808e+00	 3.157881374413563e-01	 6.423864153525058e+00
1	 1.473742666910018e+00	 3.480443724756851e-01	 5.840771344815584e+00
1	 1.465741533093688e+00	 3.803343544236131e-01	 5.265719329680990e+00
1	 1.456978493558061e+00	 4.126333003532271e-01	 4.699413403152460e+00
1	 1.447446915698271e+00	 4.449158117651933e-01	 4.142528248478255e+00
1	 1.437141235156264e+00	 4.771559235919575e-01	 3.595702442048894e+00
1	 1.426057001267715e+00	 5.093271571868619e-01	 3.059532909192392e+00
1	 1.414190919567078e+00	 5.414025771659036e-01	 2.534569375925151e+00
1	 1.401540890996910e+00	 5.733548519296027e-01	 2.021308864415445e+00
1	 1.388106047477182e+00	 6.051563176571331e-01	 1.520190282124176e+00
1	 1.373886783503789e+00	 6.367790455298894e-01	 1.031589156267030e+00
1	 1.501947428641371e+00	 3.202569401777798e-01	 6.115722195175993e+00
1	 1.494597995163497e+00	 3.529696418566181e-01	 5.540521719962339e+00
1	 1.486483635153804e+00	 3.857165680106959e-01	 4.974176904306781e+00
1	 1.477596587492386e+00	 4.184725849981724e-01	 4.417369857652758e+00
1	 1.467930125714600e+00	 4.512119348987256e-01	 3.870741247245410e+00
1	 1.457478606719667e+00	 4.839082852061540e-01	 3.334884567314656e+00
1	 1.446237516860712e+00	 5.165347825673574e-01	 2.810340432544399e+00
1	 1.434203515051323e+00	 5.490641104284768e-01	 2.297590946108722e+00
1	 1.421374472529729e+00	 5.814685504132245e-01	 1.797054194634603e+00
1	 1.407749508931462e+00	 6.137200472226142e-01	 1.309078923968788e+00
1	 1.393329024335036e+00	 6.457902768098238e-01	 8.339394505244002e-01
1	 1.522905285002452e+00	 3.247257377003494e-01	 5.821497500756793e+00
1	 1.515453299086196e+00	 3.578949054912148e-01	 5.254103897640616e+00
1	 1.507225713015295e+00	 3.910987753184111e-01	 4.696331872513881e+00
1	 1.498214657372813e+00	 4.243118628305759e-01	 4.148843455871542e+00
1	 1.488413311834442e+00	 4.575080506868162e-01	 3.612247933445352e+00
1	 1.477815954556771e+00	 4.906606389427100e-01	 3.087095848510439e+00
1	 1.466418008910445e+00	 5.237423995391485e-01	 2.573873105065503e+00
1	 1.454216087188239e+00	 5.567256347528590e-01	 2.072995227784078e+00
1	 1.441208030924087e+00	 5.895822394311954e-01	 1.584801836099587e+00
1	 1.427392947469101e+00	 6.222837667974633e-01	 1.109551390589100e+00
1	 1.412771242484401e+00	 6.548014975770848e-01	 6.474162699036594e-01
1	 1.543863112022955e+00	 3.291945289664627e-01	 5.540113778952560e+00
1	 1.536308573811963e+00	 3.628201622303664e-01	 4.980491619104646e+00
1	 1.527967761838435e+00	 3.964809750910310e-01	 4.431205391713108e+00
1	 1.518832698388564e+00	 4.301511324880623e-01	 3.892900087249991e+00
1	 1.508896469278502e+00	 4.638041576604971e-01	 3.366156185748143e+00
1	 1.498153273922315e+00	 4.974129832262040e-01	 2.851483361670435e+00
1	 1.486598472708260e+00	 5.309500064205889e-01	 2.349314369377403e+00
1	 1.474228631308358e+00	 5.643871483514963e-01	 1.859999171122103e+00
1	 1.461041561552292e+00	 5.976959170904599e-01	 1.383799370333771e+00
1	 1.447036358506768e+00	 6.308474743836244e-01	 9.208830130108181e-01
1	 1.432213433415505e+00	 6.638127057292049e-01	 4.713198192787610e-01
1	 1.564820904812782e+00	 3.336633129335175e-01	 5.270552387394562e+00
1	 1.557163814474638e+00	 3.677454109249632e-01	 4.718713594320166e+00
1	 1.548709776783500e+00	 4.018631660728283e-01	 4.177871048020511e+00
1	 1.539450705728858e+00	 4.359903926082565e-01	 3.648655673787896e+00
1	 1.529379593267484e+00	 4.701002543507994e-01	 3.131621666240833e+00
1	 1.518490560071041e+00	 5.041653164812150e-01	 2.627239866738100e+00
1	 1.506778903545503e+00	 5.381576015300327e-01	 2.135891404220351e+00
1	 1.494241142742214e+00	 5.720486494368344e-01	 1.657861667849493e+00
1	 1.480875059786653e+00	 6.058095814979635e-01	 1.193334679995828e+00
1	 1.466679737461136e+00	 6.394111679830407e-01	 7.423879374126702e-01
1	 1.451655592591975e+00	 6.728238991637165e-01	 3.049877867921206e-01
1	 1.585778658481837e+00	 3.381320885589116e-01	 5.011848522963109e+00
1	 1.578019016208070e+00	 3.726706504258964e-01	 4.467849869390465e+00
1	 1.569451753010765e+00	 4.072453470080751e-01	 3.935451391539499e+00
1	 1.560068674582917e+00	 4.418296418287829e-01	 3.415272863674980e+00
1	 1.549862679022088e+00	 4.763963392887547e-01	 2.907844662693567e+00
1	 1.538827808257688e+00	 5.109176371323216e-01	 2.413600788578830e+00
1	 1.526959296713520e+00	 5.453651831858333e-01	 1.932872234186770e+00
1	 1.514253616820342e+00	 5.797101362213192e-01	 1.465880779577704e+00
1	 1.500708520999477e+00	 6.139232307606518e-01	 1.012733285617855e+00
1	 1.486323079748878e+00	 6.479748455976551e-01	 5.734165600678968e-01
1	 1.471097715477432e+00	 6.818350757781524e-01	 1.477928668158239e-01
1	 1.606736368140026e+00	 3.426008548000429e-01	 4.763087710202681e+00
1	 1.598874174146099e+00	 3.775958795840561e-01	 4.227028478234616e+00
1	 1.590193685680504e+00	 4.126275166410439e-01	 3.703114742760282e+00
1	 1.580686600139960e+00	 4.476688787872662e-01	 3.191957983648670e+00
1	 1.570345721763017e+00	 4.826924110053945e-01	 2.694067177921264e+00
1	 1.559165013736997e+00	 5.176699436041022e-01	 2.209841434231271e+00
1	 1.547139647503661e+00	 5.525727497063446e-01	 1.739563065620881e+00
1	 1.534266048873275e+00	 5.873716069173964e-01	 1.283391183017631e+00
1	 1.520541940563071e+00	 6.220368629854692e-01	 8.413558907461540e-01
1	 1.505966380786663e+00	 6.565385052294113e-01	 4.133531630039091e-01
1	 1.490539797535500e+00	 6.908462334700449e-01	-8.595232565238309e-04
1	 1.296117684087507e+00	 6.007340573327650e-01	 1.948918485217826e+00
1	 1.281963859679703e+00	 6.303736890742270e-01	 1.405234399330876e+00
1	 1.267074338930509e+00	 6.597914808483830e-01	 8.586686716586369e-01
1	 1.251453213690639e+00	 6.889607277392177e-01	 3.102605652078448e-01
1	 1.235105843551274e+00	 7.178547532174914e-01	-2.389485478818103e-01
1	 1.218038862919418e+00	 7.464469833258361e-01	-7.879212102759082e-01
1	 1.200260182937812e+00	 7.747110219166298e-01	-1.335630023259847e+00
1	 1.181778988123030e+00	 8.026207265275134e-01	-1.881063858918362e+00
1	 1.162605727633426e+00	 8.301502844642831e-01	-2.423234086943194e+00
1	 1.142752101118561e+00	 8.572742886496769e-01	-2.961180760764293e+00
1	 1.122231039143104e+00	 8.839678127895461e-01	-3.493978706837340e+00
1	 1.315559970282518e+00	 6.097453096387191e-01	 1.698915791330380e+00
1	 1.301193832819959e+00	 6.398295477690124e-01	 1.171196890527170e+00
1	 1.286080963275212e+00	 6.696886182433677e-01	 6.409486908582288e-01
1	 1.270225514878399e+00	 6.992954155612896e-01	 1.091093779750731e-01
1	 1.253632927616717e+00	 7.286228630348721e-01	-4.233860066600754e-01
1	 1.236309935415939e+00	 7.576439880866992e-01	-9.556111300303568e-01
1	 1.218264568089122e+00	 7.863319986163192e-01	-1.486654003710433e+00
1	 1.199506147924278e+00	 8.146603600139233e-01	-2.015622643468951e+00
1	 1.180045280821333e+00	 8.426028723845139e-01	-2.541650702259822e+00
1	 1.159893841929293e+00	 8.701337475344513e-01	-3.063903025529662e+00
1	 1.139064955776485e+00	 8.972276852651485e-01	-3.581581077428013e+00
1	 1.335002251941154e+00	 6.187565598418697e-01	 1.463271117063647e+00
1	 1.320423801473375e+00	 6.492854042572533e-01	 9.509268711882800e-01
1	 1.305087583185188e+00	 6.795857533288279e-01	 4.363974804241333e-01
1	 1.288997811686099e+00	 7.096301009717146e-01	-7.947618505048593e-02
1	 1.272160007359306e+00	 7.393909703394383e-01	-5.958608526837017e-01
1	 1.254581003649326e+00	 7.688409902346313e-01	-1.111935959935971e+00
1	 1.236268949039506e+00	 7.979529726041076e-01	-1.626898797226108e+00
1	 1.217233303589262e+00	 8.266999906907053e-01	-2.139969636145125e+00
1	 1.197484829940055e+00	 8.550554573987261e-01	-2.650396796528573e+00
1	 1.177035578740290e+00	 8.829932034182446e-01	-3.157461605458027e+00
1	 1.155898868481916e+00	 9.104875546463292e-01	-3.660483201362797e+00
1	 1.354444524527037e+00	 6.277678058397489e-01	 1.241105355868393e+00
1	 1.339653761153115e+00	 6.587412563327480e-01	 7.435775037606510e-01
1	 1.324094194225708e+00	 6.894828837956045e-01	 2.442060258075812e-01
1	 1.307770099733683e+00	 7.199647815592474e-01	-2.562619144985460e-01
1	 1.290687078456197e+00	 7.501590726188204e-01	-7.570904303858834e-01
1	 1.272852063356467e+00	 7.800379871571943e-01	-1.257559579823598e+00
1	 1.254273321588074e+00	 8.095739411686381e-01	-1.756970029264196e+00
1	 1.234960450981773e+00	 8.387396157488207e-01	-2.254647671020462e+00
1	 1.214924370920487e+00	 8.675080366015272e-01	-2.749948151517207e+00
1	 1.194177307551941e+00	 8.958526533007305e-01	-3.242261267544129e+00
1	 1.172732773331609e+00	 9.237474178393288e-01	-3.731015188103491e+00
1	 1.373886783503789e+00	 6.367790455298894e-01	 1.031589156267029e+00
1	 1.358883707372339e+00	 6.681971017892955e-01	 5.483498799008583e-01
1	 1.343100791962047e+00	 6.993800073345399e-01	 6.361110145864779e-02
1	 1.326542374641095e+00	 7.302994549126425e-01	-4.219702578961797e-01
1	 1.309214136584547e+00	 7.609271673606491e-01	-9.077514825670612e-01
1	 1.291123110274250e+00	 7.912349762419519e-01	-1.393108293394375e+00
1	 1.272277681533936e+00	 8.211949015985522e-01	-1.877439045745129e+00
1	 1.252687585965604e+00	 8.507792323792299e-01	-2.360168856004763e+00
1	 1.232363899693529e+00	 8.799606070875265e-01	-2.840753617351755e+00
1	 1.211319024364632e+00	 9.087120941815811e-01	-3.318683865914613e+00
1	 1.189566666397781e+00	 9.370072717503887e-01	-3.793488459166928e+00
1	 1.393329024335036e+00	 6.457902768098238e-01	 8.339394505243990e-01
1	 1.378113635644210e+00	 6.776529384206935e-01	 3.644896765382356e-01
1	 1.362107371959476e+00	 7.092771216364750e-01	-1.061079237858614e-01
1	 1.345314632028278e+00	 7.406341186206541e-01	-5.772833436258470e-01
1	 1.327741177421514e+00	 7.716952520525563e-01	-1.048482983075046e+00
1	 1.309394140139563e+00	 8.024319548764670e-01	-1.519173449802837e+00
1	 1.290282024676203e+00	 8.328158511824933e-01	-1.988845304622352e+00
1	 1.270414704404546e+00	 8.628188377728937e-01	-2.457016716482199e+00
1	 1.249803412190078e+00	 8.924131659513319e-01	-2.923236991395072e+00
1	 1.228460725178751e+00	 9.215715230604694e-01	-3.387089940296367e+00
1	 1.206400543752646e+00	 9.502671132857498e-01	-3.848197051795719e+00
1	 1.412771242484401e+00	 6.548014975770848e-01	 6.474162699036599e-01
1	 1.397343541481887e+00	 6.871087640207412e-01	 1.912840880054667e-01
1	 1.381113929783269e+00	 7.191742243922515e-01	-2.656320175746050e-01
1	 1.364086867515178e+00	 7.509687702720376e-01	-7.228457552321056e-01
1	 1.346268196644251e+00	 7.824633241821719e-01	-1.179888735625201e+00
1	 1.327665148689293e+00	 8.136289204483015e-01	-1.636313848807809e+00
1	 1.308286346813982e+00	 8.444367872091038e-01	-2.091698570009421e+00
1	 1.288141802162392e+00	 8.748584291207741e-01	-2.545648161975547e+00
1	 1.267242904341031e+00	 9.048657102875507e-01	-2.997798742008894e+00
1	 1.245602405994683e+00	 9.344309369370680e-01	-3.447820182519062e+00
1	 1.223234401468420e+00	 9.635269393516541e-01	-3.895418815001125e+00
1	 1.432213433415505e+00	 6.638127057292049e-01	 4.713198192787620e-01
1	 1.416573420398534e+00	 6.965645763832368e-01	 2.805900800780314e-02
1	 1.400120460998699e+00	 7.290713132927109e-01	-4.156051762318710e-01
1	 1.382859076721738e+00	 7.613034074555473e-01	-8.592670797968043e-01
1	 1.364795189929917e+00	 7.932313812371272e-01	-1.302539760980142e+00
1	 1.345936131660326e+00	 8.248258703450192e-01	-1.745057950054871e+00
1	 1.326290643746386e+00	 8.560577069670260e-01	-2.186480927623693e+00
1	 1.305868875102934e+00	 8.868980036138313e-01	-2.626495292650946e+00
1	 1.284682372077287e+00	 9.173182371907922e-01	-3.064817591937904e+00
1	 1.262744062812819e+00	 9.472903328110500e-01	-3.501196783589628e+00
1	 1.240068235617315e+00	 9.767867468543421e-01	-3.935416508203282e+00
1	 1.451655592591975e+00	 6.728238991637165e-01	 3.049877867921205e-01
1	 1.435803267907312e+00	 7.060203733019786e-01	-1.258235619882779e-01
1	 1.419126961171039e+00	 7.389683860286949e-01	-5.566369006393032e-01
1	 1.401631255267902e+00	 7.716380277599376e-01	-9.871242515605225e-01
1	 1.383322152955669e+00	 8.039994207050533e-01	-1.416976492327453e+00
1	 1.364207084789552e+00	 8.360228019541825e-01	-1.845905904850031e+00
1	 1.344294911272523e+00	 8.676786077449022e-01	-2.273648638295775e+00
1	 1.323595919089963e+00	 8.989375584430266e-01	-2.699967060675780e+00
1	 1.302121811329744e+00	 9.297707437556647e-01	-3.124651974474050e+00
1	 1.279885691633543e+00	 9.601497076820873e-01	-3.547524672533940e+00
1	 1.256902042271548e+00	 9.900465327000560e-01	-3.968438811599439e+00
1	 1.471097715477432e+00	 6.818350757781524e-01	 1.477928668158244e-01
1	 1.455033079521381e+00	 7.154761525707655e-01	-2.709678988907792e-01
1	 1.438133425865562e+00	 7.488654402910444e-01	-6.893044758173170e-01
1	 1.420403398773615e+00	 7.819726287739635e-01	-1.106963709730391e+00
1	 1.401849081398661e+00	 8.147674400735805e-01	-1.523710796596986e+00
1	 1.382478003813858e+00	 8.472197126633544e-01	-1.939331426844580e+00
1	 1.362299145191503e+00	 8.792994868313756e-01	-2.353633844523462e+00
1	 1.341322929987272e+00	 9.109770907993211e-01	-2.766450799856063e+00
1	 1.319561218029299e+00	 9.422232270767761e-01	-3.177641374168925e+00
1	 1.297027288457242e+00	 9.730090585498532e-01	-3.587092657016925e+00
1	 1.273735817503334e+00	 1.003306293795036e+00	-3.994721256425302e+00
1	 1.490539797535500e+00	 6.908462334700449e-01	-8.595232565238309e-04
1	 1.474262850753904e+00	 7.249319119833955e-01	-4.079467574004421e-01
1	 1.457139850647540e+00	 7.587624737706010e-01	-8.141550721274352e-01
1	 1.439175502858820e+00	 7.923072080863791e-01	-1.219303387437279e+00
1	 1.420375970936052e+00	 8.255354368303396e-01	-1.623227837608274e+00
1	 1.400748884470129e+00	 8.584165998600977e-01	-2.025783516336915e+00
1	 1.380303341302437e+00	 8.909203415150886e-01	-2.426846143486459e+00
1	 1.359049903658652e+00	 9.230165978736755e-01	-2.826313635578190e+00
1	 1.337000588106851e+00	 9.546756842487342e-01	-3.224107562634087e+00
1	 1.314168849284303e+00	 9.858683824140202e-01	-3.620174474708081e+00
1	 1.290569557384885e+00	 1.016566027045524e+00	-4.014487082422256e+00
1	 1.122231039143104e+00	 8.839678127895461e-01	-3.493978706837340e+00
1	 1.101056675093123e+00	 9.102064878753481e-01	-4.025223331889630e+00
1	 1.079244305519478e+00	 9.359665820294276e-01	-4.558105957786212e+00
1	 1.056810364083729e+00	 9.612250634761028e-01	-5.091107506263365e+00
1	 1.033772384244049e+00	 9.859596659980987e-01	-5.622692395210687e+00
1	 1.010148953990557e+00	 1.010148953990557e+00	-6.151317125128011e+00
1	 9.859596659980979e-01	 1.033772384244049e+00	-6.675438984362258e+00
1	 9.612250634761024e-01	 1.056810364083729e+00	-7.193524796552371e+00
1	 9.359665820294277e-01	 1.079244305519479e+00	-7.704059632910623e+00
1	 9.102064878753476e-01	 1.101056675093124e+00	-8.205555412203454e+00
1	 8.839678127895459e-01	 1.122231039143104e+00	-8.696559312571170e+00
1	 1.139064955776485e+00	 8.972276852651485e-01	-3.581581077428013e+00
1	 1.117572967755451e+00	 9.238599510231368e-01	-4.098202870981289e+00
1	 1.095433403871457e+00	 9.500064569430546e-01	-4.616845347552416e+00
1	 1.072662944297590e+00	 9.756438257633305e-01	-5.136058531193142e+00
1	 1.049279385500946e+00	 1.000749457264482e+00	-5.654371721648330e+00
1	 1.025301594298962e+00	 1.025301594298963e+00	-6.170301878367287e+00
1	 1.000749457264481e+00	 1.049279385500947e+00	-6.682362156906741e+00
1	 9.756438257633303e-01	 1.072662944297591e+00	-7.189070522234475e+00
1	 9.500064569430545e-01	 1.095433403871457e+00	-7.688958362248182e+00
1	 9.238599510231363e-01	 1.117572967755451e+00	-8.180579024663164e+00
1	 8.972276852651483e-01	 1.139064955776485e+00	-8.662516201297226e+00
1	 1.155898868481916e+00	 9.104875546463292e-01	-3.660483201362797e+00
1	 1.134089256563889e+00	 9.375134109846690e-01	-4.162883445398517e+00
1	 1.111622498445837e+00	 9.640463285802824e-01	-4.667613539877856e+00
1	 1.088515520812319e+00	 9.900625846857832e-01	-5.173294688166925e+00
1	 1.064786383139289e+00	 1.015539245079557e+00	-5.678523666744974e+00
1	 1.040454231071444e+00	 1.040454231071444e+00	-6.181880979049263e+00
1	 1.015539245079557e+00	 1.064786383139289e+00	-6.681939191569936e+00
1	 9.900625846857829e-01	 1.088515520812319e+00	-7.177271378093612e+00
1	 9.640463285802823e-01	 1.111622498445838e+00	-7.666459596448058e+00
1	 9.375134109846684e-01	 1.134089256563889e+00	-8.148103321573009e+00
1	 9.104875546463294e-01	 1.155898868481916e+00	-8.620827759250188e+00
1	 1.172732773331609e+00	 9.237474178393288e-01	-3.731015188103491e+00
1	 1.150605537664771e+00	 9.511668645743447e-01	-4.219520687550192e+00
1	 1.127811585465305e+00	 9.780861936653397e-01	-4.710595382503236e+00
1	 1.104368089929129e+00	 1.004481336879273e+00	-5.202933589504011e+00
1	 1.080293373540936e+00	 1.030329025992554e+00	-5.695201999270731e+00
1	 1.055606860772555e+00	 1.055606860772555e+00	-6.186047573332458e+00
1	 1.030329025992554e+00	 1.080293373540937e+00	-6.674105649106503e+00
1	 1.004481336879273e+00	 1.104368089929129e+00	-7.158008181011269e+00
1	 9.780861936653389e-01	 1.127811585465305e+00	-7.636392043346110e+00
1	 9.511668645743440e-01	 1.150605537664771e+00	-8.107907319812650e+00
1	 9.237474178393289e-01	 1.172732773331609e+00	-8.571225504718459e+00
1	 1.189566666397781e+00	 9.370072717503887e-01	-3.793488459166928e+00
1	 1.167121807204428e+00	 9.648203086065620e-01	-4.268355756551130e+00
1	 1.144000661152543e+00	 9.921260489224550e-01	-4.745965255462539e+00
1	 1.120220647949233e+00	 1.018900078979615e+00	-5.225086184449164e+00
1	 1.095800353087748e+00	 1.045118796552703e+00	-5.704457437512487e+00
1	 1.070759479866851e+00	 1.070759479866852e+00	-6.182795187125373e+00
1	 1.045118796552703e+00	 1.095800353087748e+00	-6.658800728303829e+00
1	 1.018900078979615e+00	 1.120220647949234e+00	-7.131168483317136e+00
1	 9.921260489224547e-01	 1.144000661152543e+00	-7.598594094483132e+00
1	 9.648203086065613e-01	 1.167121807204428e+00	-8.059782531341074e+00
1	 9.370072717503887e-01	 1.189566666397781e+00	-8.513456138346797e+00
1	 1.206400543752646e+00	 9.502671132857498e-01	-3.848197051795719e+00
1	 1.183638061329192e+00	 9.784737398957201e-01	-4.309616347806865e+00
1	 1.160189721730237e+00	 1.006165891075858e+00	-4.773887801162740e+00
1	 1.136073191173848e+00	 1.033318807622620e+00	-5.239857223762622e+00
1	 1.111307318161584e+00	 1.059908553309234e+00	-5.706337861768641e+00
1	 1.085912084818888e+00	 1.085912084818888e+00	-6.172117699204621e+00
1	 1.059908553309234e+00	 1.111307318161584e+00	-6.635967011715867e+00
1	 1.033318807622620e+00	 1.136073191173848e+00	-7.096646102359073e+00
1	 1.006165891075858e+00	 1.160189721730238e+00	-7.552913148914553e+00
1	 9.784737398957200e-01	 1.183638061329192e+00	-8.003532090793042e+00
1	 9.502671132857498e-01	 1.206400543752646e+00	-8.447280483175810e+00
1	 1.223234401468420e+00	 9.635269393516541e-01	-3.895418815001125e+00
1	 1.200154296185394e+00	 9.921271552562185e-01	-4.343517619249222e+00
1	 1.176378763421072e+00	 1.020205716849779e+00	-4.794518594189788e+00
1	 1.151925715904186e+00	 1.047737519444104e+00	-5.247345685955099e+00
1	 1.126814265144303e+00	 1.074698292811377e+00	-5.700888509300732e+00
1	 1.101064672093217e+00	 1.101064672093218e+00	-6.154009316552073e+00
1	 1.074698292811377e+00	 1.126814265144304e+00	-6.605550232388868e+00
1	 1.047737519444104e+00	 1.151925715904187e+00	-7.054340688910948e+00
1	 1.020205716849779e+00	 1.176378763421072e+00	-7.499204992844692e+00
1	 9.921271552562180e-01	 1.200154296185395e+00	-7.938969955099727e+00
1	 9.635269393516543e-01	 1.223234401468420e+00	-8.372472512189624e+00
1	 1.240068235617315e+00	 9.767867468543421e-01	-3.935416508203282e+00
1	 1.216670507919368e+00	 1.005780551502456e+00	-4.370263042142182e+00
1	 1.192567782447730e+00	 1.034245522968447e+00	-4.808004756567444e+00
1	 1.167778218441463e+00	 1.062156211079880e+00	-5.247645168811048e+00
1	 1.142321190417767e+00	 1.089488011608362e+00	-5.688152153408932e+00
1	 1.116217238154395e+00	 1.116217238154396e+00	-6.128464551700464e+00
1	 1.089488011608362e+00	 1.142321190417767e+00	-6.567499059584112e+00
1	 1.062156211079880e+00	 1.167778218441464e+00	-7.004157330727804e+00
1	 1.034245522968446e+00	 1.192567782447731e+00	-7.437333229781991e+00
1	 1.005780551502455e+00	 1.216670507919368e+00	-7.865920168289367e+00
1	 9.767867468543423e-01	 1.240068235617315e+00	-8.288818455057058e+00
1	 1.256902042271548e+00	 9.900465327000560e-01	-3.968438811599439e+00
1	 1.233186692677444e+00	 1.019433925448831e+00	-4.390045183527890e+00
1	 1.208756775032898e+00	 1.048285306156090e+00	-4.814485523582187e+00
1	 1.183630695086892e+00	 1.076574879165760e+00	-5.240844249454460e+00
1	 1.157828090363832e+00	 1.104277706249419e+00	-5.668169268119027e+00
1	 1.131369779466976e+00	 1.131369779466977e+00	-6.095478201899384e+00
1	 1.104277706249418e+00	 1.157828090363832e+00	-6.521764901717082e+00
1	 1.076574879165760e+00	 1.183630695086892e+00	-6.946006187954182e+00
1	 1.048285306156090e+00	 1.208756775032898e+00	-7.367168756479214e+00
1	 1.019433925448831e+00	 1.233186692677445e+00	-7.784216185358969e+00
1	 9.900465327000560e-01	 1.256902042271548e+00	-8.196115976643322e+00
1	 1.273735817503334e+00	 1.003306293795036e+00	-3.994721256425302e+00
1	 1.249702846605955e+00	 1.033087273909743e+00	-4.403046426636823e+00
1	 1.224945737399259e+00	 1.062325063136939e+00	-4.814092764746457e+00
1	 1.199483142141688e+00	 1.090993520337559e+00	-5.227026815866792e+00
1	 1.173334961364359e+00	 1.119067373283777e+00	-5.640978179812541e+00
1	 1.146522292495515e+00	 1.146522292495515e+00	-6.055045329932854e+00
1	 1.119067373283777e+00	 1.173334961364360e+00	-6.468301724920619e+00
1	 1.090993520337559e+00	 1.199483142141688e+00	-6.879802157438882e+00
1	 1.062325063136939e+00	 1.224945737399259e+00	-7.288589280423629e+00
1	 1.033087273909742e+00	 1.249702846605955e+00	-7.693700249752871e+00
1	 1.003306293795036e+00	 1.273735817503334e+00	-8.094173420653089e+00
1	 1.290569557384885e+00	 1.016566027045524e+00	-4.014487082422256e+00
1	 1.266218965851231e+00	 1.046740593699590e+00	-4.409439634924944e+00
1	 1.241134665769497e+00	 1.076364790635222e+00	-4.806951463996383e+00
1	 1.215335555907064e+00	 1.105412131231090e+00	-5.206272372463284e+00
1	 1.188841799801208e+00	 1.133857009260667e+00	-5.606615206991375e+00
1	 1.161674773704565e+00	 1.161674773704565e+00	-6.007161246437833e+00
1	 1.133857009260667e+00	 1.188841799801209e+00	-6.407065885805541e+00
1	 1.105412131231089e+00	 1.215335555907065e+00	-6.805464563317501e+00
1	 1.076364790635221e+00	 1.241134665769497e+00	-7.201478875084127e+00
1	 1.046740593699590e+00	 1.266218965851232e+00	-7.594222819553742e+00
1	 1.016566027045524e+00	 1.290569557384886e+00	-7.982809112459248e+00
1	 8.839678127895459e-01	 1.122231039143104e+00	-8.696559312571170e+00
1	 8.572742886496763e-01	 1.142752101118562e+00	-9.178252591223149e+00
1	 8.301502844642827e-01	 1.162605727633426e+00	-9.651902517759108e+00
1	 8.026207265275128e-01	 1.181778988123030e+00	-1.011623542726141e+01
1	 7.747110219166292e-01	 1.200260182937813e+00	-1.057000705934188e+01
1	 7.464469833258357e-01	 1.218038862919419e+00	-1.101200783135326e+01
1	 7.178547532174911e-01	 1.235105843551275e+00	-1.144106784463879e+01
1	 6.889607277392172e-01	 1.251453213690640e+00	-1.185606158824631e+01
1	 6.597914808483826e-01	 1.267074338930509e+00	-1.225591230826500e+01
1	 6.303736890742265e-01	 1.281963859679704e+00	-1.263959601498216e+01
1	 6.007340573327651e-01	 1.296117684087506e+00	-1.300614510433971e+01
1	 8.972276852651483e-01	 1.139064955776485e+00	-8.662516201297226e+00
1	 8.701337475344506e-01	 1.159893841929293e+00	-9.135935324376794e+00
1	 8.426028723845135e-01	 1.180045280821334e+00	-9.602146360889352e+00
1	 8.146603600139232e-01	 1.199506147924279e+00	-1.005999463919394e+01
1	 7.863319986163185e-01	 1.218264568089122e+00	-1.050835210513218e+01
1	 7.576439880866987e-01	 1.236309935415939e+00	-1.094612183300809e+01
1	 7.286228630348719e-01	 1.253632927616718e+00	-1.137224230398413e+01
1	 6.992954155612895e-01	 1.270225514878400e+00	-1.178569142243391e+01
1	 6.696886182433671e-01	 1.286080963275213e+00	-1.218549024395384e+01
1	 6.398295477690119e-01	 1.301193832819959e+00	-1.257070639214094e+01
1	 6.097453096387191e-01	 1.315559970282518e+00	-1.294045714484740e+01
1	 9.104875546463294e-01	 1.155898868481916e+00	-8.620827759250188e+00
1	 8.829932034182445e-01	 1.177035578740290e+00	-9.085803023298130e+00
1	 8.550554573987257e-01	 1.197484829940055e+00	-9.544402915859544e+00
1	 8.266999906907052e-01	 1.217233303589262e+00	-9.995598538374292e+00
1	 7.979529726041075e-01	 1.236268949039506e+00	-1.043838560082137e+01
1	 7.688409902346308e-01	 1.254581003649326e+00	-1.087178808390524e+01
1	 7.393909703394376e-01	 1.272160007359306e+00	-1.129486169881975e+01
1	 7.096301009717144e-01	 1.288997811686100e+00	-1.170669712222221e+01
1	 6.795857533288273e-01	 1.305087583185189e+00	-1.210642298665309e+01
1	 6.492854042572528e-01	 1.320423801473376e+00	-1.249320860941285e+01
1	 6.187565598418698e-01	 1.335002251941154e+00	-1.286626644581280e+01
1	 9.237474178393289e-01	 1.172732773331609e+00	-8.571225504718459e+00
1	 8.958526533007303e-01	 1.194177307551941e+00	-9.027543799331823e+00
1	 8.675080366015266e-01	 1.214924370920487e+00	-9.478322853886629e+00
1	 8.387396157488203e-01	 1.234960450981774e+00	-9.922666036773414e+00
1	 8.095739411686373e-01	 1.254273321588074e+00	-1.035970007141578e+01
1	 7.800379871571941e-01	 1.272852063356468e+00	-1.078857776479358e+01
1	 7.501590726188196e-01	 1.290687078456197e+00	-1.120848055959162e+01
1	 7.199647815592468e-01	 1.307770099733683e+00	-1.161862089565969e+01
1	 6.894828837956043e-01	 1.324094194225709e+00	-1.201824436852871e+01
1	 6.587412563327476e-01	 1.339653761153116e+00	-1.240663167487075e+01
1	 6.277678058397487e-01	 1.354444524527036e+00	-1.278310033698866e+01
1	 9.370072717503887e-01	 1.189566666397781e+00	-8.513456138346797e+00
1	 9.087120941815807e-01	 1.211319024364632e+00	-8.960863401859395e+00
1	 8.799606070875260e-01	 1.232363899693529e+00	-9.403576602182318e+00
1	 8.507792323792295e-01	 1.252687585965604e+00	-9.840837598797881e+00
1	 8.211949015985517e-01	 1.272277681533936e+00	-1.027191108677161e+01
1	 7.912349762419516e-01	 1.291123110274250e+00	-1.069608630833749e+01
1	 7.609271673606488e-01	 1.309214136584548e+00	-1.111267861014187e+01
1	 7.302994549126419e-01	 1.326542374641095e+00	-1.152103084083129e+01
1	 6.993800073345395e-01	 1.343100791962047e+00	-1.192051458519503e+01
1	 6.681971017892951e-01	 1.358883707372340e+00	-1.231053123258708e+01
1	 6.367790455298894e-01	 1.373886783503790e+00	-1.269051287882399e+01
1	 9.502671132857498e-01	 1.206400543752646e+00	-8.447280483175810e+00
1	 9.215715230604690e-01	 1.228460725178751e+00	-8.885483986939262e+00
1	 8.924131659513314e-01	 1.249803412190078e+00	-9.319852964756590e+00
1	 8.628188377728934e-01	 1.270414704404547e+00	-9.749773736690532e+00
1	 8.328158511824929e-01	 1.290282024676203e+00	-1.017465565280649e+01
1	 8.024319548764665e-01	 1.309394140139563e+00	-1.059393170605108e+01
1	 7.716952520525558e-01	 1.327741177421514e+00	-1.100705900890079e+01
1	 7.406341186206540e-01	 1.345314632028278e+00	-1.141351913839541e+01
1	 7.092771216364746e-01	 1.362107371959476e+00	-1.181281835517849e+01
1	 6.776529384206931e-01	 1.378113635644210e+00	-1.220448770304608e+01
1	 6.457902768098240e-01	 1.393329024335036e+00	-1.258808299624303e+01
1	 9.635269393516543e-01	 1.223234401468420e+00	-8.372472512189624e+00
1	 9.344309369370676e-01	 1.245602405994684e+00	-8.801142987604846e+00
1	 9.048657102875504e-01	 1.267242904341031e+00	-9.226857857084262e+00
1	 8.748584291207737e-01	 1.288141802162392e+00	-9.649153630146923e+00
1	 8.444367872091033e-01	 1.308286346813982e+00	-1.006759073552869e+01
1	 8.136289204483012e-01	 1.327665148689293e+00	-1.048175295500835e+01
1	 7.824633241821717e-01	 1.346268196644252e+00	-1.089124673528134e+01
1	 7.509687702720369e-01	 1.364086867515178e+00	-1.129570039334106e+01
1	 7.191742243922511e-01	 1.381113929783270e+00	-1.169476323133185e+01
1	 6.871087640207407e-01	 1.397343541481888e+00	-1.208810457707950e+01
1	 6.548014975770848e-01	 1.412771242484400e+00	-1.247541276649524e+01
1	 9.767867468543423e-01	 1.240068235617315e+00	-8.288818455057058e+00
1	 9.472903328110496e-01	 1.262744062812819e+00	-8.707592076162499e+00
1	 9.173182371907920e-01	 1.284682372077287e+00	-9.124313143816831e+00
1	 8.868980036138306e-01	 1.305868875102934e+00	-9.538673858346410e+00
1	 8.560577069670254e-01	 1.326290643746386e+00	-9.950391905265164e+00
1	 8.248258703450188e-01	 1.345936131660327e+00	-1.035920863104888e+01
1	 7.932313812371268e-01	 1.364795189929918e+00	-1.076488710748185e+01
1	 7.613034074555469e-01	 1.382859076721738e+00	-1.116721011178744e+01
1	 7.290713132927105e-01	 1.400120460998699e+00	-1.156597804976197e+01
1	 6.965645763832362e-01	 1.416573420398534e+00	-1.196100684873945e+01
1	 6.638127057292049e-01	 1.432213433415505e+00	-1.235212584643771e+01
1	 9.900465327000560e-01	 1.256902042271548e+00	-8.196115976643322e+00
1	 9.601497076820870e-01	 1.279885691633543e+00	-8.604596209865134e+00
1	 9.297707437556644e-01	 1.302121811329745e+00	-9.011955569880373e+00
1	 8.989375584430259e-01	 1.323595919089963e+00	-9.418047233860252e+00
1	 8.676786077449021e-01	 1.344294911272524e+00	-9.822752089821403e+00
1	 8.360228019541820e-01	 1.364207084789553e+00	-1.022597557662125e+01
1	 8.039994207050526e-01	 1.383322152955669e+00	-1.062764441937781e+01
1	 7.716380277599370e-01	 1.401631255267902e+00	-1.102770330016759e+01
1	 7.389683860286944e-01	 1.419126961171039e+00	-1.142611150338115e+01
1	 7.060203733019781e-01	 1.435803267907312e+00	-1.182283957408414e+01
1	 6.728238991637165e-01	 1.451655592591975e+00	-1.221786602618023e+01
1	 1.003306293795036e+00	 1.273735817503334e+00	-8.094173420653089e+00
1	 9.730090585498526e-01	 1.297027288457242e+00	-8.491932752249634e+00
1	 9.422232270767756e-01	 1.319561218029300e+00	-8.889535776320844e+00
1	 9.109770907993208e-01	 1.341322929987272e+00	-9.287001729013179e+00
1	 8.792994868313757e-01	 1.362299145191504e+00	-9.684380426496789e+00
1	 8.472197126633536e-01	 1.382478003813857e+00	-1.008174769266106e+01
1	 8.147674400735802e-01	 1.401849081398661e+00	-1.047920068548744e+01
1	 7.819726287739628e-01	 1.420403398773615e+00	-1.087685317547572e+01
1	 7.488654402910437e-01	 1.438133425865562e+00	-1.127483082855393e+01
1	 7.154761525707649e-01	 1.455033079521382e+00	-1.167326654423056e+01
1	 6.818350757781524e-01	 1.471097715477432e+00	-1.207229589740455e+01
1	 1.016566027045524e+00	 1.290569557384886e+00	-7.982809112459248e+00
1	 9.858683824140199e-01	 1.314168849284304e+00	-8.369390663230318e+00
1	 9.546756842487338e-01	 1.337000588106851e+00	-8.756817393160688e+00
1	 9.230165978736752e-01	 1.359049903658652e+00	-9.145279486258032e+00
1	 8.909203415150879e-01	 1.380303341302437e+00	-9.535001203930721e+00
1	 8.584165998600968e-01	 1.400748884470129e+00	-9.926234825005270e+00
1	 8.255354368303393e-01	 1.420375970936052e+00	-1.031925448414514e+01
1	 7.923072080863784e-01	 1.439175502858820e+00	-1.071434997643839e+01
1	 7.587624737706004e-01	 1.457139850647540e+00	-1.111182059451520e+01
1	 7.249319119833950e-01	 1.474262850753904e+00	-1.151196906224163e+01
1	 6.908462334700449e-01	 1.490539797535500e+00	-1.191509562588847e+01
1	 6.007340573327651e-01	 1.296117684087506e+00	-1.300614510433971e+01
1	 5.709013394500249e-01	 1.309532064160208e+00	-1.335638069415332e+01
1	 5.409000011996963e-01	 1.322206426034874e+00	-1.369068637829040e+01
1	 5.107563904847843e-01	 1.334140397546113e+00	-1.400743929783520e+01
1	 4.804966052107591e-01	 1.345334797636131e+00	-1.430506654109332e+01
1	 4.501464298671911e-01	 1.355791606544858e+00	-1.458205394430590e+01
1	 4.197312751560198e-01	 1.365513932254041e+00	-1.483695424485298e+01
1	 3.892761208955348e-01	 1.374505973497381e+00	-1.506839453892921e+01
1	 3.588054623961567e-01	 1.382772979661473e+00	-1.527508300501328e+01
1	 3.283432604707774e-01	 1.390321207911435e+00	-1.545581486383222e+01
1	 2.979128952091682e-01	 1.397157877880663e+00	-1.560947755479478e+01
1	 6.097453096387191e-01	 1.315559970282518e+00	-1.294045714484740e+01
1	 5.794650889974664e-01	 1.329175571447772e+00	-1.329550102601399e+01
1	 5.490137186153762e-01	 1.342040053844613e+00	-1.363613464834069e+01
1	 5.184179416245800e-01	 1.354153039725019e+00	-1.396077012614921e+01
1	 4.877042474096104e-01	 1.365515360315660e+00	-1.426786011320699e+01
1	 4.568988072377371e-01	 1.376129025560858e+00	-1.455590678356536e+01
1	 4.260274129816329e-01	 1.385997190063341e+00	-1.482347022121020e+01
1	 3.951154191668941e-01	 1.395124115539500e+00	-1.506917616615152e+01
1	 3.641876885434345e-01	 1.403515130118839e+00	-1.529172307358473e+01
1	 3.332685413459623e-01	 1.411176584826470e+00	-1.548988845187720e+01
1	 3.023817083749848e-01	 1.418115807593190e+00	-1.566253445422588e+01
1	 6.187565598418698e-01	 1.335002251941154e+00	-1.286626644581280e+01
1	 5.880288365465025e-01	 1.348819074152009e+00	-1.322628758476038e+01
1	 5.571274341376238e-01	 1.361873677026661e+00	-1.357345771972545e+01
1	 5.260794909764012e-01	 1.374165677234460e+00	-1.390620540635154e+01
1	 4.949118879263423e-01	 1.385695918286535e+00	-1.422299011862684e+01
1	 4.636511830323277e-01	 1.396466439831600e+00	-1.452231156462256e+01
1	 4.323235493376787e-01	 1.406480443093344e+00	-1.480271846198842e+01
1	 4.009547160752126e-01	 1.415742252770839e+00	-1.506281671533586e+01
1	 3.695699134342549e-01	 1.424257275736481e+00	-1.530127694643986e+01
1	 3.381938210712483e-01	 1.432031956875349e+00	-1.551684133718071e+01
1	 3.068505204973566e-01	 1.439073732415621e+00	-1.570832975419821e+01
1	 6.277678058397487e-01	 1.354444524527036e+00	-1.278310033698865e+01
1	 5.965925800990772e-01	 1.368462567689588e+00	-1.314826561783770e+01
1	 5.652411458733843e-01	 1.381707290953324e+00	-1.350217563624628e+01
1	 5.337410367526938e-01	 1.394178305404968e+00	-1.384325769237139e+01
1	 5.021195250793082e-01	 1.405876466840104e+00	-1.416996016692278e+01
1	 4.704035556755415e-01	 1.416803844611821e+00	-1.448076232301058e+01
1	 4.386196827551883e-01	 1.426963686564753e+00	-1.477418361347141e+01
1	 4.067940102581155e-01	 1.436360380380620e+00	-1.504879242919352e+01
1	 3.749521358128905e-01	 1.444999411674672e+00	-1.530321423266835e+01
1	 3.431190984975257e-01	 1.452887319191917e+00	-1.553613902999510e+01
1	 3.113193305336813e-01	 1.460031647457859e+00	-1.574632814369728e+01
1	 6.367790455298894e-01	 1.373886783503790e+00	-1.269051287882399e+01
1	 6.051563176571332e-01	 1.388106047477182e+00	-1.306098722117736e+01
1	 5.733548519296028e-01	 1.401540890996910e+00	-1.342183558487002e+01
1	 5.414025771659037e-01	 1.414190919567077e+00	-1.377146710557304e+01
1	 5.093271571868621e-01	 1.426057001267714e+00	-1.410830194185279e+01
1	 4.771559235919575e-01	 1.437141235156264e+00	-1.443078171096880e+01
1	 4.449158117651935e-01	 1.447446915698270e+00	-1.473737947080181e+01
1	 4.126333003532273e-01	 1.456978493558061e+00	-1.502660917571684e+01
1	 3.803343544236134e-01	 1.465741533093688e+00	-1.529703454291085e+01
1	 3.480443724756854e-01	 1.473742666910018e+00	-1.554727727491819e+01
1	 3.157881374413564e-01	 1.480989547829808e+00	-1.577602459329930e+01
1	 6.457902768098240e-01	 1.393329024335036e+00	-1.258808299624304e+01
1	 6.137200472226145e-01	 1.407749508931462e+00	-1.296402946474062e+01
1	 5.814685504132250e-01	 1.421374472529729e+00	-1.333201000070304e+01
1	 5.490641104284769e-01	 1.434203515051323e+00	-1.369039941012569e+01
1	 5.165347825673575e-01	 1.446237516860712e+00	-1.403757324137606e+01
1	 4.839082852061543e-01	 1.457478606719667e+00	-1.437191899960746e+01
1	 4.512119348987258e-01	 1.467930125714599e+00	-1.469184694301989e+01
1	 4.184725849981726e-01	 1.477596587492386e+00	-1.499580037998048e+01
1	 3.857165680106963e-01	 1.486483635153804e+00	-1.528226539490650e+01
1	 3.529696418566183e-01	 1.494597995163496e+00	-1.554977994019297e+01
1	 3.202569401777798e-01	 1.501947428641371e+00	-1.579694224116235e+01
1	 6.548014975770848e-01	 1.412771242484400e+00	-1.247541276649524e+01
1	 6.222837667974634e-01	 1.427392947469100e+00	-1.285699267281302e+01
1	 5.895822394311954e-01	 1.441208030924086e+00	-1.323229482841451e+01
1	 5.567256347528593e-01	 1.454216087188239e+00	-1.359964424726497e+01
1	 5.237423995391486e-01	 1.466418008910444e+00	-1.395735617947847e+01
1	 4.906606389427103e-01	 1.477815954556770e+00	-1.430374824600845e+01
1	 4.575080506868165e-01	 1.488413311834442e+00	-1.463715218610453e+01
1	 4.243118628305763e-01	 1.498214657372813e+00	-1.495592512668801e+01
1	 3.910987753184114e-01	 1.507225713015294e+00	-1.525846029195375e+01
1	 3.578949054912152e-01	 1.515453299086197e+00	-1.554319708126205e+01
1	 3.247257377003493e-01	 1.522905285002452e+00	-1.580863045354594e+01
1	 6.638127057292049e-01	 1.432213433415505e+00	-1.235212584643771e+01
1	 6.308474743836248e-01	 1.447036358506768e+00	-1.273949884434697e+01
1	 5.976959170904600e-01	 1.461041561552292e+00	-1.312230792524444e+01
1	 5.643871483514965e-01	 1.474228631308358e+00	-1.349881351335246e+01
1	 5.309500064205892e-01	 1.486598472708259e+00	-1.386725553443581e+01
1	 4.974129832262044e-01	 1.498153273922315e+00	-1.422586660959226e+01
1	 4.638041576604973e-01	 1.508896469278502e+00	-1.457288488805381e+01
1	 4.301511324880625e-01	 1.518832698388563e+00	-1.490656641724165e+01
1	 3.964809750910314e-01	 1.527967761838435e+00	-1.522519695785549e+01
1	 3.628201622303667e-01	 1.536308573811962e+00	-1.552710316202018e+01
1	 3.291945289664627e-01	 1.543863112022954e+00	-1.581066304327524e+01
1	 6.728238991637165e-01	 1.451655592591975e+00	-1.221786602618023e+01
1	 6.394111679830408e-01	 1.466679737461136e+00	-1.261119020022400e+01
1	 6.058095814979639e-01	 1.480875059786653e+00	-1.300168759232454e+01
1	 5.720486494368345e-01	 1.494241142742214e+00	-1.338753986825175e+01
1	 5.381576015300329e-01	 1.506778903545502e+00	-1.376689722978895e+01
1	 5.041653164812153e-01	 1.518490560071041e+00	-1.413789280375978e+01
1	 4.701002543507996e-01	 1.529379593267484e+00	-1.449865669175334e+01
1	 4.359903926082567e-01	 1.539450705728858e+00	-1.484732956685094e+01
1	 4.018631660728287e-01	 1.548709776783500e+00	-1.518207571368077e+01
1	 3.677454109249634e-01	 1.557163814474638e+00	-1.550109541898378e+01
1	 3.336633129335176e-01	 1.564820904812782e+00	-1.580263663134684e+01
1	 6.818350757781524e-01	 1.471097715477432e+00	-1.207229589740455e+01
1	 6.479748455976554e-01	 1.486323079748878e+00	-1.247172784569775e+01
1	 6.139232307606518e-01	 1.500708520999476e+00	-1.287009122244329e+01
1	 5.797101362213193e-01	 1.514253616820342e+00	-1.326547536196794e+01
1	 5.453651831858335e-01	 1.526959296713521e+00	-1.365592693575424e+01
1	 5.109176371323217e-01	 1.538827808257688e+00	-1.403946567029445e+01
1	 4.763963392887550e-01	 1.549862679022088e+00	-1.441409974288811e+01
1	 4.418296418287829e-01	 1.560068674582916e+00	-1.477784072872601e+01
1	 4.072453470080754e-01	 1.569451753010765e+00	-1.512871798322450e+01
1	 3.726706504258965e-01	 1.578019016208069e+00	-1.546479235515664e+01
1	 3.381320885589117e-01	 1.585778658481838e+00	-1.578416913843365e+01
1	 6.908462334700449e-01	 1.490539797535500e+00	-1.191509562588847e+01
1	 6.565385052294117e-01	 1.505966380786663e+00	-1.232079053750125e+01
1	 6.220368629854696e-01	 1.520541940563071e+00	-1.272719405362409e+01
1	 5.873716069173968e-01	 1.534266048873276e+00	-1.313229016875410e+01
1	 5.525727497063448e-01	 1.547139647503662e+00	-1.353400878007517e+01
1	 5.176699436041026e-01	 1.559165013736996e+00	-1.393024286531939e+01
1	 4.826924110053948e-01	 1.570345721763018e+00	-1.431886535148017e+01
1	 4.476688787872664e-01	 1.580686600139960e+00	-1.469774553375421e+01
1	 4.126275166410442e-01	 1.590193685680504e+00	-1.506476491541648e+01
1	 3.775958795840564e-01	 1.598874174146099e+00	-1.541783235175218e+01
1	 3.426008548000429e-01	 1.606736368140026e+00	-1.575489839443120e+01
1	 2.979128952091682e-01	 1.397157877880663e+00	-1.560947755479478e+01
1	 2.675350048748832e-01	 1.403291529282332e+00	-1.573699640544734e+01
1	 2.372338467516789e-01	 1.408730661711715e+00	-1.583796569906846e+01
1	 2.070308538101089e-01	 1.413485093941693e+00	-1.590949077986596e+01
1	 1.769467303984721e-01	 1.417565408701761e+00	-1.594883965558007e+01
1	 1.470014256685540e-01	 1.420982900168902e+00	-1.595345602529100e+01
1	 1.172141109034152e-01	 1.423749521003378e+00	-1.592097042656853e+01
1	 8.760316067295294e-02	 1.425877829224306e+00	-1.584920951401428e+01
1	 5.818613772109082e-02	 1.427380935204363e+00	-1.573620349930751e+01
1	 2.897978146882448e-02	 1.428272449045998e+00	-1.558019179925790e+01
1	 0.000000000000000e+00	 1.428566428583333e+00	-1.537962695300764e+01
1	 3.023817083749848e-01	 1.418115807593190e+00	-1.566253445422588e+01
1	 2.715481374762986e-01	 1.424341466231305e+00	-1.581046574421976e+01
1	 2.407924498026650e-01	 1.429862187833423e+00	-1.593304166138910e+01
1	 2.101363998278109e-01	 1.434687938457957e+00	-1.602716797772434e+01
1	 1.796010024735818e-01	 1.438829459579588e+00	-1.608991242454225e+01
1	 1.492065061370586e-01	 1.442298214792488e+00	-1.611851942103555e+01
1	 1.189723696782538e-01	 1.445106336051618e+00	-1.611042281458831e+01
1	 8.891724329299860e-02	 1.447266569751417e+00	-1.606325663780981e+01
1	 5.905895317343531e-02	 1.448792222925418e+00	-1.597486390696229e+01
1	 2.941448983860299e-02	 1.449697109833070e+00	-1.584330350445772e+01
1	 0.000000000000000e+00	 1.449995499181647e+00	-1.566685520426573e+01
1	 3.068505204973566e-01	 1.439073732415621e+00	-1.570832975419821e+01
1	 2.755612691405500e-01	 1.445391398268700e+00	-1.587641164252183e+01
1	 2.443510520225140e-01	 1.450993709024503e+00	-1.602023613299228e+01
1	 2.132419451200786e-01	 1.455890778026942e+00	-1.613655142795935e+01
1	 1.822552739285672e-01	 1.460093505495844e+00	-1.622226622634038e+01
1	 1.514115860902907e-01	 1.463613524442529e+00	-1.627446591375964e+01
1	 1.207306280421504e-01	 1.466463146116618e+00	-1.629042667685131e+01
1	 9.023132560585141e-02	 1.468655305287833e+00	-1.626762754021026e+01
1	 5.993176842169650e-02	 1.470203505650512e+00	-1.620376034561147e+01
1	 2.984919810671328e-02	 1.471121765621054e+00	-1.609673771249454e+01
1	 0.000000000000000e+00	 1.471424564779844e+00	-1.594469903618207e+01
1	 3.113193305336813e-01	 1.460031647457859e+00	-1.574632814369728e+01
1	 2.795743989313583e-01	 1.466441320482941e+00	-1.593430327912974e+01
1	 2.479096525810011e-01	 1.472125220354330e+00	-1.609902842924849e+01
1	 2.163474889623960e-01	 1.477093607701365e+00	-1.623713442500292e+01
1	 1.849095441442037e-01	 1.481357541488952e+00	-1.634541040083662e+01
1	 1.536166650138288e-01	 1.484928824145480e+00	-1.642082121342578e+01
1	 1.224888855849308e-01	 1.487819946215143e+00	-1.646052271646964e+01
1	 9.154540730496313e-02	 1.490044030842859e+00	-1.646187488416452e+01
1	 6.080458326226949e-02	 1.491614778383681e+00	-1.642245279830355e+01
1	 3.028390617175189e-02	 1.492546411410866e+00	-1.634005553446023e+01
1	 0.000000000000000e+00	 1.492853620377808e+00	-1.621271300128389e+01
1	 3.157881374413564e-01	 1.480989547829808e+00	-1.577602459329929e+01
1	 2.835875259124445e-01	 1.487491227962451e+00	-1.598363986098268e+01
1	 2.514682506479013e-01	 1.493256716892276e+00	-1.616892732061272e+01
1	 2.194530306302473e-01	 1.498296422533949e+00	-1.632843892781673e+01
1	 1.875638125012669e-01	 1.502621562597342e+00	-1.645888204496707e+01
1	 1.558217423932514e-01	 1.506244108927795e+00	-1.655713786133957e+01
1	 1.242471418964203e-01	 1.509176731363953e+00	-1.662027762024839e+01
1	 9.285948808378534e-02	 1.511432741425798e+00	-1.664557664053860e+01
1	 6.167739749154932e-02	 1.513026036128963e+00	-1.663052614306602e+01
1	 3.071861393231541e-02	 1.513971042203420e+00	-1.657284291422501e+01
1	 0.000000000000000e+00	 1.514282660975422e+00	-1.647047685804149e+01
1	 3.202569401777798e-01	 1.501947428641371e+00	-1.579694224116236e+01
1	 2.876006491475298e-01	 1.508541115795653e+00	-1.602394852683625e+01
1	 2.550268453929894e-01	 1.514388193707715e+00	-1.622946897623815e+01
1	 2.225585693991169e-01	 1.519499217577412e+00	-1.641001355863812e+01
1	 1.902180783805321e-01	 1.523885563859440e+00	-1.656224407477761e+01
1	 1.580268177141370e-01	 1.527559373815928e+00	-1.668299335675616e+01
1	 1.260053965664445e-01	 1.530533496579810e+00	-1.676928224442381e+01
1	 9.417356763576984e-02	 1.532821432045957e+00	-1.681833432100482e+01
1	 6.255021090593116e-02	 1.534437273890396e+00	-1.682758841462236e+01
1	 3.115332128700040e-02	 1.535395652999628e+00	-1.679470889452840e+01
1	 0.000000000000000e+00	 1.535711681572569e+00	-1.671759381097679e+01
1	 3.247257377003493e-01	 1.522905285002452e+00	-1.580863045354594e+01
1	 2.916137677003350e-01	 1.529590979070970e+00	-1.605478242398611e+01
1	 2.585854359860407e-01	 1.535519645870019e+00	-1.628021507736019e+01
1	 2.256641045444890e-01	 1.540701987884476e+00	-1.648143176694431e+01
1	 1.928723411627751e-01	 1.545149540313672e+00	-1.665508344745373e+01
1	 1.602318904620641e-01	 1.548874613836336e+00	-1.679798843814930e+01
1	 1.277636491848289e-01	 1.551890236879477e+00	-1.690714995018229e+01
1	 9.548764565436829e-02	 1.554210097712639e+00	-1.697977135681970e+01
1	 6.342302330180999e-02	 1.555848486672018e+00	-1.701326920961726e+01
1	 3.158802813440340e-02	 1.556820238800403e+00	-1.700528402621706e+01
1	 0.000000000000000e+00	 1.557140677169134e+00	-1.695368889606465e+01
1	 3.291945289664627e-01	 1.543863112022954e+00	-1.581066304327524e+01
1	 2.956268806345810e-01	 1.550640812876824e+00	-1.607571894161767e+01
1	 2.621440215968298e-01	 1.556651068448561e+00	-1.632075108432159e+01
1	 2.287696353418476e-01	 1.561904728507859e+00	-1.654229014293891e+01
1	 1.955266002287711e-01	 1.566413486998464e+00	-1.673700952814259e+01
1	 1.624369601226111e-01	 1.570189824015470e+00	-1.690174550444994e+01
1	 1.295218993413990e-01	 1.573246947279715e+00	-1.703351507473019e+01
1	 9.680172183303240e-02	 1.575598733435150e+00	-1.712953160962957e+01
1	 6.429583447558097e-02	 1.577259669477867e+00	-1.718721822171643e+01
1	 3.202273437312100e-02	 1.578244794606660e+00	-1.720421890703067e+01
1	 0.000000000000000e+00	 1.578569642764997e+00	-1.717840749762252e+01
1	 3.336633129335176e-01	 1.564820904812782e+00	-1.580263663134684e+01
1	 2.996399870139889e-01	 1.571690612301640e+00	-1.608635808609959e+01
1	 2.657026013951322e-01	 1.577782456512716e+00	-1.635068464283570e+01
1	 2.318751610666772e-01	 1.583107434500283e+00	-1.659220686654305e+01
1	 1.981808549592958e-01	 1.587677398952246e+00	-1.680765258799650e+01
1	 1.646420261813566e-01	 1.591504999379789e+00	-1.699390716313197e+01
1	 1.312801466259803e-01	 1.594603622797286e+00	-1.714803152520792e+01
1	 9.811579586521389e-02	 1.596987334222794e+00	-1.726727800192785e+01
1	 6.516864422363915e-02	 1.598670817311980e+00	-1.734910389440548e+01
1	 3.245743990174978e-02	 1.599669315419313e+00	-1.739118283779023e+01
1	 0.000000000000000e+00	 1.599998573360045e+00	-1.739141398436306e+01
1	 3.381320885589117e-01	 1.585778658481838e+00	-1.578416913843365e+01
1	 3.036530859022795e-01	 1.592740372433839e+00	-1.608632098509293e+01
1	 2.692611745507227e-01	 1.598913805131856e+00	-1.636964411660931e+01
1	 2.349806809944618e-01	 1.604310100914466e+00	-1.663082027935933e+01
1	 2.008351047351248e-01	 1.608941271213443e+00	-1.686666242129756e+01
1	 1.668470881238790e-01	 1.612820134955746e+00	-1.707413489341391e+01
1	 1.330383906283984e-01	 1.615960258448952e+00	-1.725037148408589e+01
1	 9.942986744436444e-02	 1.618375895084876e+00	-1.739269125609644e+01
1	 6.604145234237961e-02	 1.620081925178396e+00	-1.749861218060198e+01
1	 3.289214461888629e-02	 1.621093796239274e+00	-1.756586258513157e+01
1	 0.000000000000000e+00	 1.621427463954159e+00	-1.759239045358709e+01
1	 3.426008548000429e-01	 1.606736368140026e+00	-1.575489839443120e+01
1	 3.076661763631741e-01	 1.613790088361845e+00	-1.607524850871402e+01
1	 2.728197402333763e-01	 1.620045109375353e+00	-1.637727723478922e+01
1	 2.380861944006856e-01	 1.625512722803128e+00	-1.665778756837955e+01
1	 2.034893489370334e-01	 1.630205098820482e+00	-1.691370707079469e+01
1	 1.690521454357569e-01	 1.634135225769794e+00	-1.714210781406484e+01
1	 1.347966309384787e-01	 1.637316849251474e+00	-1.734022421586330e+01
1	 1.007439362639357e-01	 1.639764411030700e+00	-1.750546873211817e+01
1	 6.691425862819741e-02	 1.641492988081151e+00	-1.763544539932900e+01
1	 3.332684842312708e-02	 1.642518232067458e+00	-1.772796124105526e+01
1	 0.000000000000000e+00	 1.642856309547222e+00	-1.778103557364472e+01
1	 1.642856309547222e+00	 0.000000000000000e+00	 1.136464173004658e+01
1	 1.642518232067458e+00	 3.332684842312753e-02	 1.061689365455658e+01
1	 1.641492988081151e+00	 6.691425862819787e-02	 9.884770986499191e+00
1	 1.639764411030700e+00	 1.007439362639361e-01	 9.169730865209329e+00
1	 1.637316849251474e+00	 1.347966309384790e-01	 8.473231709072703e+00
1	 1.634135225769794e+00	 1.690521454357572e-01	 7.796724407281729e+00
1	 1.630205098820483e+00	 2.034893489370335e-01	 7.141642908296478e+00
1	 1.625512722803128e+00	 2.380861944006857e-01	 6.509394238820381e+00
1	 1.620045109375352e+00	 2.728197402333763e-01	 5.901347995768335e+00
1	 1.613790088361845e+00	 3.076661763631741e-01	 5.318825362580553e+00
1	 1.606736368140026e+00	 3.426008548000429e-01	 4.763087710202681e+00
1	 1.664285107639178e+00	 0.000000000000000e+00	 1.107774564850139e+01
1	 1.663942620404321e+00	 3.376155126378418e-02	 1.033266599462209e+01
1	 1.662904003522265e+00	 6.778706297931456e-02	 9.603588007650778e+00
1	 1.661152879564920e+00	 1.020580021706862e-01	 8.892020437466471e+00
1	 1.658673392713236e+00	 1.365548673511727e-01	 8.199469443655968e+00
1	 1.655450269335162e+00	 1.712571978598223e-01	 7.527429278182561e+00
1	 1.651468879292577e+00	 2.061435872554546e-01	 6.877372366488636e+00
1	 1.646715297692631e+00	 2.411917009231369e-01	 6.250738825377606e+00
1	 1.641176366777895e+00	 2.763782980280262e-01	 5.648925464959412e+00
1	 1.634839757629869e+00	 3.116792579285773e-01	 5.073274331049221e+00
1	 1.627694031342298e+00	 3.470696111356522e-01	 4.525060853559506e+00
1	 1.685713865730200e+00	 0.000000000000000e+00	 1.079861734501375e+01
1	 1.685366968748493e+00	 3.419625329302799e-02	 1.005681880601595e+01
1	 1.684314978995682e+00	 6.865986570125705e-02	 9.331336270302085e+00
1	 1.682541308173578e+00	 1.033720656245988e-01	 8.623733356207794e+00
1	 1.680029896309090e+00	 1.383131004819332e-01	 7.935567842642194e+00
1	 1.676765273112167e+00	 1.734622461679198e-01	 7.268381845088435e+00
1	 1.672732620072087e+00	 2.087978206194497e-01	 6.623691387358680e+00
1	 1.667917833003894e+00	 2.442972016488188e-01	 6.002975411709452e+00
1	 1.662307584735421e+00	 2.799368491802377e-01	 5.407664279160556e+00
1	 1.655889387605277e+00	 3.156923320031289e-01	 4.839127821232012e+00
1	 1.648651655423799e+00	 3.515383591298536e-01	 4.298663013686770e+00
1	 1.707142593820522e+00	 0.000000000000000e+00	 1.052668126864514e+01
1	 1.706791287098147e+00	 3.463095471374527e-02	 9.788746103415933e+00
1	 1.705725924493324e+00	 6.953266720137864e-02	 9.067383861682668e+00
1	 1.703929706838065e+00	 1.046861272389638e-01	 8.364216167480718e+00
1	 1.701386370005516e+00	 1.400713311513399e-01	 7.680856159156983e+00
1	 1.698080247047902e+00	 1.756672913891477e-01	 7.018898160871625e+00
1	 1.693996331082160e+00	 2.114520502677381e-01	 6.379906742851999e+00
1	 1.689120338631476e+00	 2.474026980270385e-01	 5.765405216995353e+00
1	 1.683438773109186e+00	 2.834953953507346e-01	 5.176863623982455e+00
1	 1.676938988111221e+00	 3.197054004596522e-01	 4.615686277734208e+00
1	 1.669609250164720e+00	 3.560071008681043e-01	 4.083198942680962e+00
1	 1.728571301910378e+00	 0.000000000000000e+00	 1.026139042113990e+01
1	 1.728215585451455e+00	 3.506565572882234e-02	 9.527871963614949e+00
1	 1.727136850007118e+00	 7.040546788703275e-02	 8.811130217104536e+00
1	 1.725318085539769e+00	 1.060001876270712e-01	 8.112847833884178e+00
1	 1.722742823768991e+00	 1.418295601799719e-01	 7.434696920673428e+00
1	 1.719395201089455e+00	 1.778723345526046e-01	 6.778328207571013e+00
1	 1.715260022245938e+00	 2.141062774390384e-01	 6.145359594497995e+00
1	 1.710322824469939e+00	 2.505081915071032e-01	 5.537364125472851e+00
1	 1.704569941760444e+00	 2.870539382002401e-01	 4.955857450964417e+00
1	 1.697988568970860e+00	 3.237184651709712e-01	 4.402284848572300e+00
1	 1.690566825345256e+00	 3.604758384358618e-01	 3.878007882223650e+00
1	 1.750000000000000e+00	 0.000000000000000e+00	 1.000222460868380e+01
1	 1.749639873806591e+00	 3.550035654114551e-02	 9.273648684825449e+00
1	 1.748547765528988e+00	 7.127826816557271e-02	 8.562004200499970e+00
1	 1.746706454260085e+00	 1.073142474022108e-01	 7.869037749661349e+00
1	 1.744099267565988e+00	 1.435877883884084e-01	 7.196483891562521e+00
1	 1.740710145183917e+00	 1.800773766873887e-01	 6.546053818830824e+00
1	 1.736523703486572e+00	 2.167605033720697e-01	 5.919423387642084e+00
1	 1.731525300413842e+00	 2.536136835383201e-01	 5.318220563787281e+00
1	 1.725701100550448e+00	 2.906124793894783e-01	 4.744012348732429e+00
1	 1.719038140007343e+00	 3.277315280099089e-01	 4.198291260142815e+00
1	 1.711524390745600e+00	 3.649445739185834e-01	 3.682461451622803e+00
1	 1.771428698089623e+00	 0.000000000000000e+00	 9.748688820616824e+00
1	 1.771064162161726e+00	 3.593505735360107e-02	 9.025555079651960e+00
1	 1.769958681050858e+00	 7.215106844435183e-02	 8.319462324347260e+00
1	 1.768094822980399e+00	 1.086283071776727e-01	 7.632223899932672e+00
1	 1.765455711362985e+00	 1.453460165972285e-01	 6.965640183599408e+00
1	 1.762025089278379e+00	 1.822824188225982e-01	 6.321486753208169e+00
1	 1.757787384727205e+00	 2.194147293055509e-01	 5.701501898594707e+00
1	 1.752727776357744e+00	 2.567191755699963e-01	 5.107373532484685e+00
1	 1.746832259340452e+00	 2.941710205791724e-01	 4.540725568749924e+00
1	 1.740087711043827e+00	 3.317445908492893e-01	 4.003103846507187e+00
1	 1.732481956145943e+00	 3.694133094017262e-01	 3.495961689220820e+00
1	 1.792857406179478e+00	 0.000000000000000e+00	 9.500311724473001e+00
1	 1.792488460515034e+00	 3.636975836907533e-02	 8.783094890542527e+00
1	 1.791369606564652e+00	 7.302386913072352e-02	 8.082987097316506e+00
1	 1.789483201682104e+00	 1.099423675667468e-01	 7.401871152003686e+00
1	 1.786812165126460e+00	 1.471042456270115e-01	 6.741616502040472e+00
1	 1.783340043319932e+00	 1.844874619873315e-01	 6.104066905720421e+00
1	 1.779051075890985e+00	 2.220689564782011e-01	 5.491027421897074e+00
1	 1.773930262196207e+00	 2.598246690514389e-01	 4.904250778744661e+00
1	 1.767963427991710e+00	 2.977295634300461e-01	 4.345423192720499e+00
1	 1.761137291903464e+00	 3.357576555619355e-01	 3.816149720074978e+00
1	 1.753439531326480e+00	 3.738820469707478e-01	 3.317939234331074e+00
1	 1.814286134269800e+00	 0.000000000000000e+00	 9.256644267724843e+00
1	 1.813912778864688e+00	 3.680445979045461e-02	 8.545795317587693e+00
1	 1.812780552062295e+00	 7.389667063204100e-02	 7.852085489070451e+00
1	 1.810871600346590e+00	 1.112564291827232e-01	 7.177469667822326e+00
1	 1.808168638822886e+00	 1.488624762983365e-01	 6.523889516057007e+00
1	 1.804655017255666e+00	 1.866925072106869e-01	 5.893260646197287e+00
1	 1.800314786901056e+00	 2.247231861287390e-01	 5.287459086113325e+00
1	 1.795132767823789e+00	 2.629301654319551e-01	 4.708307098669998e+00
1	 1.789094616365475e+00	 3.012881096028230e-01	 4.157558429925432e+00
1	 1.782186892409409e+00	 3.397707240206714e-01	 3.636883071989278e+00
1	 1.774397126067402e+00	 3.783507887111052e-01	 3.147851638078824e+00
1	 1.835714892360823e+00	 0.000000000000000e+00	 9.017258377509041e+00
1	 1.835337127208860e+00	 3.723916182062521e-02	 8.313205649482359e+00
1	 1.834191527535712e+00	 7.476947335565777e-02	 7.626287502642793e+00
1	 1.832260028955248e+00	 1.125704926388916e-01	 6.958533427681727e+00
1	 1.829525142418742e+00	 1.506207094317827e-01	 6.311960343358922e+00
1	 1.825970021032672e+00	 1.888975555217627e-01	 5.688559274071121e+00
1	 1.821578527680566e+00	 2.273774194958836e-01	 5.090281287641650e+00
1	 1.816335303135052e+00	 2.660356661608522e-01	 4.519022758541549e+00
1	 1.810225834323002e+00	 3.048466607582265e-01	 3.976610033873316e+00
1	 1.803236522384817e+00	 3.437837980983204e-01	 3.464783591610671e+00
1	 1.795354750148902e+00	 3.828195367082558e-01	 2.985181792607935e+00
1	 1.857143690452778e+00	 0.000000000000000e+00	 8.781745750415517e+00
1	 1.856761515545723e+00	 3.767386466247341e-02	 8.084895989314003e+00
1	 1.855602542976826e+00	 7.564227770892705e-02	 7.405144845700566e+00
1	 1.853648497489467e+00	 1.138845585485422e-01	 6.744598856178398e+00
1	 1.850881685880502e+00	 1.523789458479293e-01	 6.105353139780877e+00
1	 1.847285064598040e+00	 1.911026079496572e-01	 5.489477580196018e+00
1	 1.842842308152661e+00	 2.300316578183542e-01	 4.899002233007344e+00
1	 1.837537878024554e+00	 2.691411726874371e-01	 4.335902025424664e+00
1	 1.831357091725543e+00	 3.084052185569803e-01	 3.802080828620316e+00
1	 1.824286191652841e+00	 3.477968796677058e-01	 3.299354995475516e+00
1	 1.816312413351174e+00	 3.872882930476569e-01	 2.829436469088526e+00
1	 1.606736368140026e+00	 3.426008548000429e-01	 4.763087710202681e+00
1	 1.598874174146099e+00	 3.775958795840561e-01	 4.227028478234616e+00
1	 1.590193685680504e+00	 4.126275166410439e-01	 3.703114742760282e+00
1	 1.580686600139960e+00	 4.476688787872662e-01	 3.191957983648670e+00
1	 1.570345721763017e+00	 4.826924110053945e-01	 2.694067177921264e+00
1	 1.559165013736997e+00	 5.176699436041022e-01	 2.209841434231271e+00
1	 1.547139647503661e+00	 5.525727497063446e-01	 1.739563065620881e+00
1	 1.534266048873275e+00	 5.873716069173964e-01	 1.283391183017631e+00
1	 1.520541940563071e+00	 6.220368629854692e-01	 8.413558907461540e-01
1	 1.505966380786663e+00	 6.565385052294113e-01	 4.133531630039091e-01
1	 1.490539797535500e+00	 6.908462334700449e-01	-8.595232565238309e-04
1	 1.627694031342298e+00	 3.470696111356522e-01	 4.525060853559509e+00
1	 1.619729285855650e+00	 3.825210978249279e-01	 3.997099616464160e+00
1	 1.610935572372855e+00	 4.180096743439076e-01	 3.481774585823643e+00
1	 1.601304479994599e+00	 4.535081028025522e-01	 2.979688219642200e+00
1	 1.590828719100625e+00	 4.889884687662645e-01	 2.491327194372377e+00
1	 1.579502174136337e+00	 5.244222351088729e-01	 2.017054659577648e+00
1	 1.567319953561599e+00	 5.597803002507672e-01	 1.557103022052938e+00
1	 1.554278436566281e+00	 5.950330606313097e-01	 1.111567349147985e+00
1	 1.540375316163592e+00	 6.301504772259069e-01	 6.803994791363146e-01
1	 1.525609638282828e+00	 6.651021458792965e-01	 2.634029232951820e-01
1	 1.509981836497992e+00	 6.998573711881746e-01	-1.397713601193507e-01
1	 1.648651655423799e+00	 3.515383591298536e-01	 4.298663013686771e+00
1	 1.640584358635956e+00	 3.874463068723727e-01	 3.778995111273971e+00
1	 1.631677420347406e+00	 4.233918220004396e-01	 3.272406472112127e+00
1	 1.621922321363001e+00	 4.593473159183694e-01	 2.779486382886134e+00
1	 1.611311678203856e+00	 4.952845147749664e-01	 2.300695153395290e+00
1	 1.599839296573599e+00	 5.311745140098975e-01	 1.836356031746717e+00
1	 1.587500221950312e+00	 5.669878373416850e-01	 1.386647741626145e+00
1	 1.574290786903559e+00	 6.026945000444899e-01	 9.515977383619362e-01
1	 1.560208654742575e+00	 6.382640763216340e-01	 5.310762778465125e-01
1	 1.545252859112366e+00	 6.736657705444731e-01	 1.247913883236856e-01
1	 1.529423839169470e+00	 7.088684920863136e-01	-2.677151704315766e-01
1	 1.669609250164720e+00	 3.560071008681043e-01	 4.083198942680963e+00
1	 1.661439402219327e+00	 3.923715090248461e-01	 3.572026507773697e+00
1	 1.652419239283606e+00	 4.287739621223139e-01	 3.074330957489127e+00
1	 1.642540133866729e+00	 4.651865208596682e-01	 2.590684438577370e+00
1	 1.631794608631304e+00	 5.015805519696155e-01	 2.121517003094344e+00
1	 1.620176390539302e+00	 5.379267834581766e-01	 1.667108223498145e+00
1	 1.607680462087106e+00	 5.741953643425297e-01	 1.227579523883131e+00
1	 1.594303109224039e+00	 6.103559287321668e-01	 8.028873307333091e-01
1	 1.580041965555406e+00	 6.463776640588650e-01	 3.928171431438444e-01
1	 1.564896052441934e+00	 6.822293832211469e-01	-3.021382503271108e-03
1	 1.548865814622691e+00	 7.178796003694811e-01	-3.851982449315198e-01
1	 1.690566825345256e+00	 3.604758384358618e-01	 3.878007882223649e+00
1	 1.682294426338076e+00	 3.972967065808035e-01	 3.375539503422402e+00
1	 1.673161038860907e+00	 4.341560972212048e-01	 2.886902302806797e+00
1	 1.663157927127338e+00	 4.710257203513980e-01	 2.412647490460977e+00
1	 1.652277519941563e+00	 5.078765832883276e-01	 1.953171135938174e+00
1	 1.640513465523965e+00	 5.446790466047110e-01	 1.508705521705046e+00
1	 1.627860683389288e+00	 5.814028846167320e-01	 1.079311308226448e+00
1	 1.614315412866656e+00	 6.180173502695686e-01	 6.648706204398002e-01
1	 1.599875257857469e+00	 6.544912442238148e-01	 2.650811611234792e-01
1	 1.584539227438188e+00	 6.907929879055247e-01	-1.205485492349319e-01
1	 1.568307771930404e+00	 7.268907002426965e-01	-4.927027140242427e-01
1	 1.711524390745600e+00	 3.649445739185834e-01	 3.682461451622804e+00
1	 1.703149440724514e+00	 4.022219018387003e-01	 3.188911856695814e+00
1	 1.693902828758757e+00	 4.395382298087860e-01	 2.709506409940632e+00
1	 1.683775710766388e+00	 4.768649171185081e-01	 2.244771751522640e+00
1	 1.672760421693228e+00	 5.141726116692188e-01	 1.795066401931658e+00
1	 1.660850531018110e+00	 5.514313066005020e-01	 1.360571891337602e+00
1	 1.648040895274165e+00	 5.886104015277228e-01	 9.412847975327546e-01
1	 1.634327707170340e+00	 6.256787682319244e-01	 5.370098082865868e-01
1	 1.619708540904147e+00	 6.626048206026982e-01	 1.473539188509615e-01
1	 1.604182393267785e+00	 6.993565885938114e-01	-2.282781315085798e-01
1	 1.587749720165365e+00	 7.359017959109800e-01	-5.906870887163373e-01
1	 1.732481956145943e+00	 3.694133094017262e-01	 3.495961689220820e+00
1	 1.724004455110951e+00	 4.071470970969919e-01	 3.011551447622436e+00
1	 1.714644618656608e+00	 4.449203623967314e-01	 2.541558907705534e+00
1	 1.704393494405438e+00	 4.827041138859490e-01	 2.086482662045757e+00
1	 1.693243323444893e+00	 5.204686400504043e-01	 1.646640266067816e+00
1	 1.681187596512254e+00	 5.581835665965502e-01	 1.222159180036772e+00
1	 1.668221107159040e+00	 5.958179184389332e-01	 8.129687180268230e-01
1	 1.654340001474025e+00	 6.333401861944631e-01	 4.187931254856606e-01
1	 1.639541823950825e+00	 6.707183969817290e-01	 3.914590105114979e-02
1	 1.623825559097382e+00	 7.079201892822143e-01	-3.266745295775795e-01
1	 1.607191668400326e+00	 7.449128915793511e-01	-6.795876896507677e-01
1	 1.753439531326480e+00	 3.738820469707478e-01	 3.317939234331074e+00
1	 1.744859479229701e+00	 4.120722946541339e-01	 2.842894477475815e+00
1	 1.735386418233907e+00	 4.503024974967149e-01	 2.382503375107095e+00
1	 1.725011287666047e+00	 4.885433133786701e-01	 1.937233142697622e+00
1	 1.713726234755153e+00	 5.267646713699999e-01	 1.507357097982123e+00
1	 1.701524671496917e+00	 5.649358297438561e-01	 1.092945451509526e+00
1	 1.688401328461222e+00	 6.030254387137944e-01	 6.938572040092278e-01
1	 1.674352305116642e+00	 6.410016077324134e-01	 3.097332777036692e-01
1	 1.659375116252888e+00	 6.788319771471221e-01	-6.000899816558025e-02
1	 1.643468734093635e+00	 7.164837939669388e-01	-4.161799362059064e-01
1	 1.626633625708040e+00	 7.539239914528290e-01	-7.598199736087786e-01
1	 1.774397126067402e+00	 3.783507887111052e-01	 3.147851638078824e+00
1	 1.765714522813072e+00	 4.169974968085814e-01	 2.682403796112121e+00
1	 1.756128237170108e+00	 4.556846376204107e-01	 2.231809690567758e+00
1	 1.745629100169774e+00	 4.943825183216212e-01	 1.796501971475192e+00
1	 1.734209165182601e+00	 5.330607085661215e-01	 1.376706582873733e+00
1	 1.721861765462620e+00	 5.716880991934213e-01	 9.724334370895710e-01
1	 1.708581568598017e+00	 6.102329657157372e-01	 5.834682971100518e-01
1	 1.694364627437122e+00	 6.486630364210043e-01	 2.093659994298475e-01
1	 1.679208427065719e+00	 6.869455648850927e-01	-1.505548580555940e-01
1	 1.663111927423202e+00	 7.250474066441912e-01	-4.972156484565924e-01
1	 1.646075601161259e+00	 7.629350997364340e-01	-8.317797659600810e-01
1	 1.795354750148902e+00	 3.828195367082558e-01	 2.985181792607935e+00
1	 1.786569595593378e+00	 4.219227058587903e-01	 2.529567346517720e+00
1	 1.776870085144659e+00	 4.610667852794927e-01	 2.088972496829142e+00
1	 1.766246941538178e+00	 5.002217314397521e-01	 1.663792274384532e+00
1	 1.754692124285832e+00	 5.393567545768845e-01	 1.254202243779592e+00
1	 1.742198887899882e+00	 5.784403780962460e-01	 8.601490958032584e-01
1	 1.728761836986730e+00	 6.174405028081926e-01	 4.813425507056830e-01
1	 1.714376977774400e+00	 6.563244758354647e-01	 1.172487096449922e-01
1	 1.699041765644703e+00	 6.950591639818546e-01	-2.329150170994215e-01
1	 1.682755148252741e+00	 7.336110313101778e-01	-5.701832875579954e-01
1	 1.665517603832739e+00	 7.719462206351850e-01	-8.958444067505296e-01
1	 1.816312413351174e+00	 3.872882930476569e-01	 2.829436469088527e+00
1	 1.807424707302929e+00	 4.268479241032157e-01	 2.383896717094964e+00
1	 1.797611971837011e+00	 4.664489429856347e-01	 1.953509772182775e+00
1	 1.786864821392816e+00	 5.060609554580124e-01	 1.538630120663296e+00
1	 1.775175121623439e+00	 5.456528123404047e-01	 1.139380066203130e+00
1	 1.762536048299222e+00	 5.851926696033313e-01	 7.556402741724394e-01
1	 1.748942143044667e+00	 6.246480533545914e-01	 3.870417310005939e-01
1	 1.734389365467405e+00	 6.639859295510233e-01	 3.295926060547372e-02
1	 1.718875141245223e+00	 7.031727782236227e-01	-3.074932697943156e-01
1	 1.702398405748905e+00	 7.421746719611043e-01	-6.354659342761567e-01
1	 1.684959642795230e+00	 7.809573583541023e-01	-9.523738174060312e-01
1	 1.490539797535500e+00	 6.908462334700449e-01	-8.595232565238309e-04
1	 1.474262850753904e+00	 7.249319119833955e-01	-4.079467574004421e-01
1	 1.457139850647540e+00	 7.587624737706010e-01	-8.141550721274352e-01
1	 1.439175502858820e+00	 7.923072080863791e-01	-1.219303387437279e+00
1	 1.420375970936052e+00	 8.255354368303396e-01	-1.623227837608274e+00
1	 1.400748884470129e+00	 8.584165998600977e-01	-2.025783516336915e+00
1	 1.380303341302437e+00	 8.909203415150886e-01	-2.426846143486459e+00
1	 1.359049903658652e+00	 9.230165978736755e-01	-2.826313635578190e+00
1	 1.337000588106851e+00	 9.546756842487342e-01	-3.224107562634087e+00
1	 1.314168849284303e+00	 9.858683824140202e-01	-3.620174474708081e+00
1	 1.290569557384885e+00	 1.016566027045524e+00	-4.014487082422256e+00
1	 1.509981836497992e+00	 6.998573711881746e-01	-1.397713601193508e-01
1	 1.493492579361462e+00	 7.343876504367819e-01	-5.355823716775809e-01
1	 1.476146233299611e+00	 7.686594853127994e-01	-9.300399673582808e-01
1	 1.457947565333491e+00	 8.026417644915770e-01	-1.323030035697937e+00
1	 1.438902819406420e+00	 8.363034097191622e-01	-1.714454038170333e+00
1	 1.419019724626812e+00	 8.696134622382103e-01	-2.104230380895633e+00
1	 1.398307497504879e+00	 9.025411704403801e-01	-2.492295719506231e+00
1	 1.376776838036002e+00	 9.350560782615907e-01	-2.878606182810755e+00
1	 1.354439919527851e+00	 9.671281138188649e-01	-3.263138501276534e+00
1	 1.331310372114926e+00	 9.987276777744469e-01	-3.645891026934704e+00
1	 1.307403259952318e+00	 1.029825730904663e+00	-4.026884632099176e+00
1	 1.529423839169470e+00	 7.088684920863136e-01	-2.677151704315767e-01
1	 1.512722272074312e+00	 7.438433712402949e-01	-6.526570486836997e-01
1	 1.495152580473866e+00	 7.785564783814465e-01	-1.035761308695521e+00
1	 1.476719592767710e+00	 8.129763016064964e-01	-1.416973445056815e+00
1	 1.457429633294030e+00	 8.470713625086799e-01	-1.796252499059657e+00
1	 1.437290530678577e+00	 8.808103037164330e-01	-2.173572102041268e+00
1	 1.416311620100174e+00	 9.141619776743792e-01	-2.548921467568031e+00
1	 1.394503739323643e+00	 9.470955361767232e-01	-2.922306321267579e+00
1	 1.371879218395967e+00	 9.795805201453597e-01	-3.293749757344736e+00
1	 1.348451862948548e+00	 1.011586949131732e+00	-3.663293011205784e+00
1	 1.324236931097336e+00	 1.043085410013202e+00	-4.030996138162613e+00
1	 1.548865814622691e+00	 7.178796003694811e-01	-3.851982449315198e-01
1	 1.531951937866131e+00	 7.532990788064182e-01	-7.596427716783454e-01
1	 1.514158901039758e+00	 7.884534575949403e-01	-1.131754137065220e+00
1	 1.495491593921590e+00	 8.233108242537143e-01	-1.501530319032159e+00
1	 1.475956421244573e+00	 8.578393002237225e-01	-1.868980439840448e+00
1	 1.455561311151656e+00	 8.920071295197407e-01	-2.234125525146611e+00
1	 1.434315717490104e+00	 9.257827686399089e-01	-2.596999231667460e+00
1	 1.412230615794001e+00	 9.591349772372693e-01	-2.957648535073722e+00
1	 1.389318492849419e+00	 9.920329090391283e-01	-3.316134369774984e+00
1	 1.365593329784421e+00	 1.024446202486663e+00	-3.672532212401344e+00
1	 1.341070578675541e+00	 1.056345070558790e+00	-4.026932601050135e+00
1	 1.568307771930404e+00	 7.268907002426965e-01	-4.927027140242425e-01
1	 1.551181585710597e+00	 7.627547775476370e-01	-8.569881155819917e-01
1	 1.533165203866742e+00	 7.983504275716808e-01	-1.218431918125991e+00
1	 1.514263577555247e+00	 8.336453372558088e-01	-1.577077688145782e+00
1	 1.494483191903739e+00	 8.686072278891213e-01	-1.932977366240531e+00
1	 1.473832074572277e+00	 9.032039448731092e-01	-2.286191785102234e+00
1	 1.452319798076461e+00	 9.374035487597955e-01	-2.636791179837967e+00
1	 1.429957475719506e+00	 9.711744070614252e-01	-2.984855684771327e+00
1	 1.406757751026430e+00	 1.004485286311080e+00	-3.330475810630631e+00
1	 1.382734780621793e+00	 1.037305443840022e+00	-3.673752895879640e+00
1	 1.357904210542541e+00	 1.069604718729078e+00	-4.014799525879908e+00
1	 1.587749720165365e+00	 7.359017959109800e-01	-5.906870887163373e-01
1	 1.570411224581385e+00	 7.722104718764353e-01	-9.451196806420059e-01
1	 1.552171497824271e+00	 8.082473929300672e-01	-1.296187863701598e+00
1	 1.533035552428790e+00	 8.439798454353568e-01	-1.643974114886249e+00
1	 1.513009953917215e+00	 8.793751505297088e-01	-1.988566155164071e+00
1	 1.492102829466669e+00	 9.144007550015130e-01	-2.330057268676006e+00
1	 1.470323870261031e+00	 9.490243234568631e-01	-2.668546641953581e+00
1	 1.447684327372584e+00	 9.832138312673877e-01	-3.004139719477831e+00
1	 1.424197001065219e+00	 1.016937657772123e+00	-3.336948571358175e+00
1	 1.399876223459915e+00	 1.050164679192597e+00	-3.667092268412818e+00
1	 1.374737834553936e+00	 1.082864360711715e+00	-3.994697259493660e+00
1	 1.607191668400326e+00	 7.449128915793511e-01	-6.795876896507681e-01
1	 1.589640863452173e+00	 7.816661662052974e-01	-1.024443421988398e+00
1	 1.571177791781800e+00	 8.181443582884990e-01	-1.365396157253625e+00
1	 1.551807527302334e+00	 8.543143536149346e-01	-1.702560811170007e+00
1	 1.531536715930691e+00	 8.901430731703153e-01	-2.036054060912555e+00
1	 1.510373584361060e+00	 9.255975651299279e-01	-2.365994506987730e+00
1	 1.488327942445600e+00	 9.606450981539356e-01	-2.692502886691603e+00
1	 1.465411179025661e+00	 9.952532554733522e-01	-3.015702337328471e+00
1	 1.441636251104008e+00	 1.029390029233166e+00	-3.335718706470359e+00
1	 1.417017666298038e+00	 1.063023914545171e+00	-3.652680905650246e+00
1	 1.391571458565331e+00	 1.096124002694353e+00	-3.966721303024174e+00
1	 1.626633625708040e+00	 7.539239914528290e-01	-7.598199736087786e-01
1	 1.608870511296639e+00	 7.911218649467084e-01	-1.095345883794127e+00
1	 1.590184094608784e+00	 8.280413282653751e-01	-1.426413091426571e+00
1	 1.570579510935990e+00	 8.646488666171201e-01	-1.753162675624623e+00
1	 1.550063486589857e+00	 9.009110008357720e-01	-2.075733649209590e+00
1	 1.528644347781681e+00	 9.367943804833296e-01	-2.394263003948739e+00
1	 1.506332023031957e+00	 9.722658782738393e-01	-2.708885842748623e+00
1	 1.483138038951166e+00	 1.007292685297516e+00	-3.019735598532113e+00
1	 1.459075509281018e+00	 1.041842406505120e+00	-3.326944338220151e+00
1	 1.434159117135410e+00	 1.075883155898531e+00	-3.630643148911374e+00
1	 1.408405090432330e+00	 1.109383650864640e+00	-3.930962602035939e+00
1	 1.646075601161259e+00	 7.629350997364340e-01	-8.317797659600809e-01
1	 1.628100177088458e+00	 8.005775725131522e-01	-1.158195345930976e+00
1	 1.609190415174675e+00	 8.379383074790946e-01	-1.479578124938821e+00
1	 1.589351512089871e+00	 8.749833892644902e-01	-1.796089257326699e+00
1	 1.568590274540400e+00	 9.116789385509103e-01	-2.107883665001415e+00
1	 1.546915128254760e+00	 9.479912062866930e-01	-2.415110005963633e+00
1	 1.524336120421888e+00	 9.838866692393975e-01	-2.717910768920569e+00
1	 1.500864915421525e+00	 1.019332126358074e+00	-3.016422494960250e+00
1	 1.476514783734470e+00	 1.054294795398892e+00	-3.310776125492091e+00
1	 1.451300583971282e+00	 1.088742409253461e+00	-3.601097473845039e+00
1	 1.425238738010537e+00	 1.122643311410229e+00	-3.887507816094256e+00
1	 1.665517603832739e+00	 7.719462206351850e-01	-8.958444067505296e-01
1	 1.647329869801308e+00	 8.100332933171132e-01	-1.213342890274853e+00
1	 1.628196762348930e+00	 8.478353005480573e-01	-1.525214865413044e+00
1	 1.608123539524091e+00	 8.853179263796220e-01	-1.831635652006832e+00
1	 1.587117088428011e+00	 9.224468913405620e-01	-2.132769839447294e+00
1	 1.565185934306526e+00	 9.591880477649936e-01	-2.428771217695806e+00
1	 1.542340243017182e+00	 9.955074764734361e-01	-2.719782877227770e+00
1	 1.518591816709166e+00	 1.031371584273223e+00	-3.005937479822454e+00
1	 1.493954082602585e+00	 1.066747201725392e+00	-3.287357699836747e+00
1	 1.468442074804905e+00	 1.101601680610748e+00	-3.564156833255374e+00
1	 1.442072409155554e+00	 1.135902990518767e+00	-3.836439569444482e+00
1	 1.684959642795230e+00	 7.809573583541023e-01	-9.523738174060308e-01
1	 1.666559598408865e+00	 8.194890317710753e-01	-1.261123393153375e+00
1	 1.647203145001001e+00	 8.577323120906620e-01	-1.563631984130911e+00
1	 1.626895601998760e+00	 8.956524827850925e-01	-1.860083336178983e+00
1	 1.605643936898378e+00	 9.332148642295568e-01	-2.150645641013648e+00
1	 1.583456774463209e+00	 9.703849101432068e-01	-2.435471468255550e+00
1	 1.560344399219624e+00	 1.007128305398779e+00	-2.714697912879176e+00
1	 1.536318751086516e+00	 1.043411064661160e+00	-2.988446960653987e+00
1	 1.511393414023586e+00	 1.079199631295529e+00	-3.256826071303055e+00
1	 1.485583597635527e+00	 1.114460975971175e+00	-3.519928976181844e+00
1	 1.458906111722985e+00	 1.149162694377905e+00	-3.777836684327906e+00
1	 1.290569557384885e+00	 1.016566027045524e+00	-4.014487082422256e+00
1	 1.266218965851231e+00	 1.046740593699590e+00	-4.409439634924944e+00
1	 1.241134665769497e+00	 1.076364790635222e+00	-4.806951463996383e+00
1	 1.215335555907064e+00	 1.105412131231090e+00	-5.206272372463284e+00
1	 1.188841799801208e+00	 1.133857009260667e+00	-5.606615206991375e+00
1	 1.161674773704565e+00	 1.161674773704565e+00	-6.007161246437833e+00
1	 1.133857009260667e+00	 1.188841799801209e+00	-6.407065885805541e+00
1	 1.105412131231089e+00	 1.215335555907065e+00	-6.805464563317501e+00
1	 1.076364790635221e+00	 1.241134665769497e+00	-7.201478875084127e+00
1	 1.046740593699590e+00	 1.266218965851232e+00	-7.594222819553742e+00
1	 1.016566027045524e+00	 1.290569557384886e+00	-7.982809112459248e+00
1	 1.307403259952318e+00	 1.029825730904663e+00	-4.026884632099176e+00
1	 1.282735048486447e+00	 1.060393883225595e+00	-4.408398145269134e+00
1	 1.257323558254964e+00	 1.090404487013075e+00	-4.792265681075391e+00
1	 1.231187934533641e+00	 1.119830710164279e+00	-5.177828698505654e+00
1	 1.204348603865323e+00	 1.148646612454722e+00	-5.564392728949501e+00
1	 1.176827221326420e+00	 1.176827221326421e+00	-5.951232250867876e+00
1	 1.148646612454722e+00	 1.204348603865324e+00	-6.337595854430587e+00
1	 1.119830710164278e+00	 1.231187934533641e+00	-6.722711648199460e+00
1	 1.090404487013074e+00	 1.257323558254964e+00	-7.105792856912582e+00
1	 1.060393883225595e+00	 1.282735048486447e+00	-7.486043557106118e+00
1	 1.029825730904663e+00	 1.307403259952318e+00	-7.862664495732130e+00
1	 1.324236931097336e+00	 1.043085410013202e+00	-4.030996138162613e+00
1	 1.299251100292142e+00	 1.074047147266268e+00	-4.399036746587973e+00
1	 1.273512420521682e+00	 1.104444157184259e+00	-4.769193272447231e+00
1	 1.247040283569654e+00	 1.134249262183504e+00	-5.140914155268289e+00
1	 1.219855378983983e+00	 1.163436188042186e+00	-5.513614569365836e+00
1	 1.191979640664329e+00	 1.191979640664329e+00	-5.886680643277674e+00
1	 1.163436188042186e+00	 1.219855378983984e+00	-6.259473950319007e+00
1	 1.134249262183503e+00	 1.247040283569654e+00	-6.631336228369823e+00
1	 1.104444157184259e+00	 1.273512420521682e+00	-7.001594284153799e+00
1	 1.074047147266268e+00	 1.299251100292142e+00	-7.369565035030490e+00
1	 1.043085410013202e+00	 1.324236931097335e+00	-7.734560639742226e+00
1	 1.341070578675541e+00	 1.056345070558790e+00	-4.026932601050135e+00
1	 1.315767128975695e+00	 1.087700392192942e+00	-4.381430773264392e+00
1	 1.289701260124337e+00	 1.118483807700442e+00	-4.737783119280422e+00
1	 1.262892610412744e+00	 1.148667794017256e+00	-5.095559800033883e+00
1	 1.235362132393552e+00	 1.178225742924708e+00	-5.454301967785409e+00
1	 1.207132038789277e+00	 1.207132038789277e+00	-5.813525191522174e+00
1	 1.178225742924707e+00	 1.235362132393552e+00	-6.172723121655241e+00
1	 1.148667794017256e+00	 1.262892610412745e+00	-6.531371359618532e+00
1	 1.118483807700442e+00	 1.289701260124337e+00	-6.888931495425275e+00
1	 1.087700392192941e+00	 1.315767128975696e+00	-7.244855274201122e+00
1	 1.056345070558790e+00	 1.341070578675542e+00	-7.598588851223469e+00
1	 1.357904210542541e+00	 1.069604718729078e+00	-4.014799525879908e+00
1	 1.332283142244489e+00	 1.101353624376950e+00	-4.355651834910463e+00
1	 1.305890084617616e+00	 1.132523445113290e+00	-4.698081691803977e+00
1	 1.278744922460553e+00	 1.163086312394027e+00	-5.041795165142405e+00
1	 1.250868871330393e+00	 1.193015284003934e+00	-5.386475127818055e+00
1	 1.222284422772252e+00	 1.222284422772253e+00	-5.731783752211575e+00
1	 1.193015284003934e+00	 1.250868871330394e+00	-6.077365200103121e+00
1	 1.163086312394027e+00	 1.278744922460553e+00	-6.422848481843458e+00
1	 1.132523445113289e+00	 1.305890084617616e+00	-6.767850457208154e+00
1	 1.101353624376949e+00	 1.332283142244489e+00	-7.111978948636483e+00
1	 1.069604718729078e+00	 1.357904210542541e+00	-7.454835936249365e+00
1	 1.374737834553936e+00	 1.082864360711715e+00	-3.994697259493660e+00
1	 1.348799147805900e+00	 1.115006850189624e+00	-4.321768045057884e+00
1	 1.322078901556208e+00	 1.146563075974471e+00	-4.650133197615269e+00
1	 1.294597227110720e+00	 1.177504824042306e+00	-4.979648352115220e+00
1	 1.266375603030871e+00	 1.207804818181512e+00	-5.310153281385690e+00
1	 1.237436799684240e+00	 1.237436799684241e+00	-5.641473327384839e+00
1	 1.207804818181512e+00	 1.266375603030871e+00	-5.973420970101750e+00
1	 1.177504824042306e+00	 1.294597227110720e+00	-6.305797518965051e+00
1	 1.146563075974470e+00	 1.322078901556208e+00	-6.638394910093874e+00
1	 1.115006850189623e+00	 1.348799147805901e+00	-6.970997591435825e+00
1	 1.082864360711715e+00	 1.374737834553936e+00	-7.303384476801436e+00
1	 1.391571458565331e+00	 1.096124002694353e+00	-3.966721303024174e+00
1	 1.365315153367313e+00	 1.128660076002299e+00	-4.279844233241264e+00
1	 1.338267718494799e+00	 1.160602706835651e+00	-4.593979719218139e+00
1	 1.310449531760888e+00	 1.191923335690586e+00	-4.909146118943899e+00
1	 1.281882334731348e+00	 1.222594352359091e+00	-5.225354748303863e+00
1	 1.252589176596229e+00	 1.252589176596229e+00	-5.542610117067309e+00
1	 1.222594352359090e+00	 1.281882334731349e+00	-5.860910233129143e+00
1	 1.191923335690586e+00	 1.310449531760888e+00	-6.180246971585218e+00
1	 1.160602706835651e+00	 1.338267718494800e+00	-6.500606504410189e+00
1	 1.128660076002298e+00	 1.365315153367314e+00	-6.821969785760735e+00
1	 1.096124002694353e+00	 1.391571458565331e+00	-7.144313087253437e+00
1	 1.408405090432330e+00	 1.109383650864640e+00	-3.930962602035939e+00
1	 1.381831166636106e+00	 1.142313308186306e+00	-4.229942141864488e+00
1	 1.354456542988079e+00	 1.174642344248500e+00	-4.529661341692417e+00
1	 1.326301843808695e+00	 1.206341854067357e+00	-4.830313961116061e+00
1	 1.297389073668190e+00	 1.237383893438317e+00	-5.132096991588195e+00
1	 1.267741560579204e+00	 1.267741560579204e+00	-5.435209568057457e+00
1	 1.237383893438316e+00	 1.297389073668190e+00	-5.739851867354924e+00
1	 1.206341854067356e+00	 1.326301843808696e+00	-6.046224002997893e+00
1	 1.174642344248499e+00	 1.354456542988079e+00	-6.354524926116230e+00
1	 1.142313308186306e+00	 1.381831166636106e+00	-6.664951342113433e+00
1	 1.109383650864640e+00	 1.408405090432330e+00	-6.977696652452805e+00
1	 1.425238738010537e+00	 1.122643311410229e+00	-3.887507816094256e+00
1	 1.398347195319659e+00	 1.155966553112979e+00	-4.172120609108650e+00
1	 1.370645382590733e+00	 1.188681994764683e+00	-4.457216271311340e+00
1	 1.342154170651786e+00	 1.220760385901109e+00	-4.743176186896076e+00
1	 1.312895827077758e+00	 1.252173448320838e+00	-5.030396668839351e+00
1	 1.282893958704152e+00	 1.282893958704153e+00	-5.319286419254206e+00
1	 1.252173448320838e+00	 1.312895827077759e+00	-5.610263883063085e+00
1	 1.220760385901108e+00	 1.342154170651786e+00	-5.903754519100890e+00
1	 1.188681994764682e+00	 1.370645382590734e+00	-6.200188013770802e+00
1	 1.155966553112979e+00	 1.398347195319660e+00	-6.499995463045618e+00
1	 1.122643311410229e+00	 1.425238738010537e+00	-6.803606548921366e+00
1	 1.442072409155554e+00	 1.135902990518767e+00	-3.836439569444482e+00
1	 1.414863247125354e+00	 1.169619817153652e+00	-4.106435739022843e+00
1	 1.386834244857451e+00	 1.202721664935867e+00	-4.376680945846998e+00
1	 1.358006519687799e+00	 1.235178937920334e+00	-4.647755987330607e+00
1	 1.328402602196418e+00	 1.266963023908302e+00	-4.920269680027116e+00
1	 1.298046378042060e+00	 1.298046378042061e+00	-5.194854743807870e+00
1	 1.266963023908302e+00	 1.328402602196418e+00	-5.472163474191223e+00
1	 1.235178937920334e+00	 1.358006519687800e+00	-5.752863242707938e+00
1	 1.202721664935866e+00	 1.386834244857451e+00	-6.037631867304360e+00
1	 1.169619817153652e+00	 1.414863247125355e+00	-6.327152896325460e+00
1	 1.135902990518767e+00	 1.442072409155554e+00	-6.622110850555463e+00
1	 1.458906111722985e+00	 1.149162694377905e+00	-3.777836684327906e+00
1	 1.431379329760570e+00	 1.183273106679658e+00	-4.032941059833645e+00
1	 1.403023137342918e+00	 1.216761361313720e+00	-4.288090137235157e+00
1	 1.373858898314375e+00	 1.249597516853523e+00	-4.544075501404894e+00
1	 1.343909406260533e+00	 1.281752627102357e+00	-4.801731211964646e+00
1	 1.313198825663916e+00	 1.313198825663916e+00	-5.061927988351435e+00
1	 1.281752627102357e+00	 1.343909406260533e+00	-5.325567066299399e+00
1	 1.249597516853523e+00	 1.373858898314376e+00	-5.593573782713277e+00
1	 1.216761361313719e+00	 1.403023137342919e+00	-5.866890949256494e+00
1	 1.183273106679656e+00	 1.431379329760570e+00	-6.146472077494900e+00
1	 1.149162694377906e+00	 1.458906111722986e+00	-6.433274520078045e+00
1	 1.016566027045524e+00	 1.290569557384886e+00	-7.982809112459248e+00
1	 9.858683824140199e-01	 1.314168849284304e+00	-8.369390663230318e+00
1	 9.546756842487338e-01	 1.337000588106851e+00	-8.756817393160688e+00
1	 9.230165978736752e-01	 1.359049903658652e+00	-9.145279486258032e+00
1	 8.909203415150879e-01	 1.380303341302437e+00	-9.535001203930721e+00
1	 8.584165998600968e-01	 1.400748884470129e+00	-9.926234825005270e+00
1	 8.255354368303393e-01	 1.420375970936052e+00	-1.031925448414514e+01
1	 7.923072080863784e-01	 1.439175502858820e+00	-1.071434997643839e+01
1	 7.587624737706004e-01	 1.457139850647540e+00	-1.111182059451520e+01
1	 7.249319119833950e-01	 1.474262850753904e+00	-1.151196906224163e+01
1	 6.908462334700449e-01	 1.490539797535500e+00	-1.191509562588847e+01
1	 1.029825730904663e+00	 1.307403259952318e+00	-7.862664495732130e+00
1	 9.987276777744463e-01	 1.331310372114926e+00	-8.238075002969088e+00
1	 9.671281138188641e-01	 1.354439919527851e+00	-8.615433741434178e+00
1	 9.350560782615900e-01	 1.376776838036002e+00	-8.995083409573422e+00
1	 9.025411704403795e-01	 1.398307497504880e+00	-9.377403488158730e+00
1	 8.696134622382101e-01	 1.419019724626812e+00	-9.762802841710615e+00
1	 8.363034097191617e-01	 1.438902819406419e+00	-1.015171222034116e+01
1	 8.026417644915765e-01	 1.457947565333491e+00	-1.054457674272816e+01
1	 7.686594853127989e-01	 1.476146233299612e+00	-1.094184843908669e+01
1	 7.343876504367813e-01	 1.493492579361462e+00	-1.134397893009446e+01
1	 6.998573711881746e-01	 1.509981836497991e+00	-1.175141231383014e+01
1	 1.043085410013202e+00	 1.324236931097335e+00	-7.734560639742226e+00
1	 1.011586949131732e+00	 1.348451862948549e+00	-8.099300730079230e+00
1	 9.795805201453591e-01	 1.371879218395968e+00	-8.467244974658394e+00
1	 9.470955361767228e-01	 1.394503739323643e+00	-8.838848047246087e+00
1	 9.141619776743785e-01	 1.416311620100174e+00	-9.214601939995070e+00
1	 8.808103037164325e-01	 1.437290530678578e+00	-9.595027593492700e+00
1	 8.470713625086789e-01	 1.457429633294030e+00	-9.980666437226631e+00
1	 8.129763016064956e-01	 1.476719592767710e+00	-1.037207193041288e+01
1	 7.785564783814458e-01	 1.495152580473866e+00	-1.076980119088621e+01
1	 7.438433712402942e-01	 1.512722272074312e+00	-1.117440679633003e+01
1	 7.088684920863135e-01	 1.529423839169470e+00	-1.158642883761630e+01
1	 1.056345070558790e+00	 1.341070578675542e+00	-7.598588851223469e+00
1	 1.024446202486662e+00	 1.365593329784421e+00	-7.953175695873665e+00
1	 9.920329090391279e-01	 1.389318492849420e+00	-8.312359965318517e+00
1	 9.591349772372687e-01	 1.412230615794002e+00	-8.676669347110376e+00
1	 9.257827686399085e-01	 1.434315717490105e+00	-9.046667264080250e+00
1	 8.920071295197405e-01	 1.455561311151657e+00	-9.422943892154304e+00
1	 8.578393002237218e-01	 1.475956421244573e+00	-9.806107106431432e+00
1	 8.233108242537139e-01	 1.495491593921590e+00	-1.019677345105584e+01
1	 7.884534575949395e-01	 1.514158901039758e+00	-1.059555922581434e+01
1	 7.532990788064176e-01	 1.531951937866131e+00	-1.100307177853780e+01
1	 7.178796003694810e-01	 1.548865814622691e+00	-1.141990108739762e+01
1	 1.069604718729078e+00	 1.357904210542541e+00	-7.454835936249365e+00
1	 1.037305443840021e+00	 1.382734780621793e+00	-7.799802431035986e+00
1	 1.004485286311079e+00	 1.406757751026430e+00	-8.150882214666066e+00
1	 9.711744070614248e-01	 1.429957475719507e+00	-8.508638526381292e+00
1	 9.374035487597947e-01	 1.452319798076461e+00	-8.873666685662357e+00
1	 9.032039448731085e-01	 1.473832074572278e+00	-9.246584849281374e+00
1	 8.686072278891209e-01	 1.494483191903739e+00	-9.628024722174962e+00
1	 8.336453372558085e-01	 1.514263577555247e+00	-1.001862231968530e+01
1	 7.983504275716804e-01	 1.533165203866742e+00	-1.041900887578659e+01
1	 7.627547775476365e-01	 1.551181585710597e+00	-1.082980198772325e+01
1	 7.268907002426965e-01	 1.568307771930404e+00	-1.125159708214198e+01
1	 1.082864360711715e+00	 1.374737834553936e+00	-7.303384476801436e+00
1	 1.050164679192596e+00	 1.399876223459916e+00	-7.639278472354825e+00
1	 1.016937657772122e+00	 1.424197001065219e+00	-7.982910182491005e+00
1	 9.832138312673870e-01	 1.447684327372585e+00	-8.334842362126691e+00
1	 9.490243234568622e-01	 1.470323870261031e+00	-8.695664164374591e+00
1	 9.144007550015125e-01	 1.492102829466669e+00	-9.065981980998238e+00
1	 8.793751505297083e-01	 1.513009953917215e+00	-9.446410269841538e+00
1	 8.439798454353563e-01	 1.533035552428790e+00	-9.837562465278896e+00
1	 8.082473929300668e-01	 1.552171497824271e+00	-1.024004206451248e+01
1	 7.722104718764347e-01	 1.570411224581385e+00	-1.065443397809136e+01
1	 7.359017959109799e-01	 1.587749720165365e+00	-1.108129622745691e+01
1	 1.096124002694353e+00	 1.391571458565331e+00	-7.144313087253437e+00
1	 1.063023914545171e+00	 1.417017666298037e+00	-7.471696665731397e+00
1	 1.029390029233166e+00	 1.441636251104008e+00	-7.808537592946500e+00
1	 9.952532554733519e-01	 1.465411179025662e+00	-8.155363460646253e+00
1	 9.606450981539351e-01	 1.488327942445600e+00	-8.512720592488261e+00
1	 9.255975651299275e-01	 1.510373584361061e+00	-8.881165305115278e+00
1	 8.901430731703146e-01	 1.531536715930691e+00	-9.261255196837300e+00
1	 8.543143536149344e-01	 1.551807527302334e+00	-9.653540555010116e+00
1	 8.181443582884984e-01	 1.571177791781801e+00	-1.005855596972367e+01
1	 7.816661662052971e-01	 1.589640863452174e+00	-1.047681223678548e+01
1	 7.449128915793510e-01	 1.607191668400326e+00	-1.090878862730739e+01
1	 1.109383650864640e+00	 1.408405090432330e+00	-6.977696652452805e+00
1	 1.075883155898531e+00	 1.434159117135410e+00	-7.297145447445811e+00
1	 1.041842406505119e+00	 1.459075509281018e+00	-7.627853718430146e+00
1	 1.007292685297515e+00	 1.483138038951166e+00	-7.970280507521949e+00
1	 9.722658782738384e-01	 1.506332023031956e+00	-8.324893978941038e+00
1	 9.367943804833290e-01	 1.528644347781682e+00	-8.692163431306238e+00
1	 9.009110008357716e-01	 1.550063486589857e+00	-9.072551385538553e+00
1	 8.646488666171194e-01	 1.570579510935990e+00	-9.466505831104650e+00
1	 8.280413282653746e-01	 1.590184094608784e+00	-9.874452709636913e+00
1	 7.911218649467079e-01	 1.608870511296639e+00	-1.029678871023739e+01
1	 7.539239914528291e-01	 1.626633625708040e+00	-1.073387444511727e+01
1	 1.122643311410229e+00	 1.425238738010537e+00	-6.803606548921366e+00
1	 1.088742409253461e+00	 1.451300583971283e+00	-7.115709105481095e+00
1	 1.054294795398891e+00	 1.476514783734471e+00	-7.440943643337548e+00
1	 1.019332126358073e+00	 1.500864915421526e+00	-7.779668499939490e+00
1	 9.838866692393970e-01	 1.524336120421888e+00	-8.132239620316938e+00
1	 9.479912062866922e-01	 1.546915128254760e+00	-8.499003644891387e+00
1	 9.116789385509099e-01	 1.568590274540401e+00	-8.880291128157255e+00
1	 8.749833892644895e-01	 1.589351512089871e+00	-9.276409959264205e+00
1	 8.379383074790940e-01	 1.609190415174676e+00	-9.687639051647157e+00
1	 8.005775725131515e-01	 1.628100177088458e+00	-1.011422236409972e+01
1	 7.629350997364340e-01	 1.646075601161259e+00	-1.055636331017030e+01
1	 1.135902990518767e+00	 1.442072409155554e+00	-6.622110850555463e+00
1	 1.101601680610747e+00	 1.468442074804905e+00	-6.927468022534901e+00
1	 1.066747201725391e+00	 1.493954082602587e+00	-7.247888509333451e+00
1	 1.031371584273223e+00	 1.518591816709167e+00	-7.583598962729802e+00
1	 9.955074764734356e-01	 1.542340243017182e+00	-7.934810259845016e+00
1	 9.591880477649930e-01	 1.565185934306527e+00	-8.301711984749694e+00
1	 9.224468913405612e-01	 1.587117088428011e+00	-8.684467103368048e+00
1	 8.853179263796215e-01	 1.608123539524091e+00	-9.083206887711080e+00
1	 8.478353005480569e-01	 1.628196762348931e+00	-9.498026141433796e+00
1	 8.100332933171125e-01	 1.647329869801308e+00	-9.928978774015849e+00
1	 7.719462206351853e-01	 1.665517603832739e+00	-1.037607376560625e+01
1	 1.149162694377906e+00	 1.458906111722986e+00	-6.433274520078045e+00
1	 1.114460975971175e+00	 1.485583597635528e+00	-6.732498902198693e+00
1	 1.079199631295528e+00	 1.511393414023587e+00	-7.048765743633648e+00
1	 1.043411064661159e+00	 1.536318751086516e+00	-7.382140149446013e+00
1	 1.007128305398779e+00	 1.560344399219625e+00	-7.732656235384622e+00
1	 9.703849101432062e-01	 1.583456774463210e+00	-8.100313315833978e+00
1	 9.332148642295562e-01	 1.605643936898379e+00	-8.485072354553912e+00
1	 8.956524827850918e-01	 1.626895601998761e+00	-8.886852715996392e+00
1	 8.577323120906617e-01	 1.647203145001002e+00	-9.305529250829633e+00
1	 8.194890317710750e-01	 1.666559598408866e+00	-9.740929744734220e+00
1	 7.809573583541024e-01	 1.684959642795230e+00	-1.019283275465164e+01
1	 6.908462334700449e-01	 1.490539797535500e+00	-1.191509562588847e+01
1	 6.565385052294117e-01	 1.505966380786663e+00	-1.232079053750125e+01
1	 6.220368629854696e-01	 1.520541940563071e+00	-1.272719405362409e+01
1	 5.873716069173968e-01	 1.534266048873276e+00	-1.313229016875410e+01
1	 5.525727497063448e-01	 1.547139647503662e+00	-1.353400878007517e+01
1	 5.176699436041026e-01	 1.559165013736996e+00	-1.393024286531939e+01
1	 4.826924110053948e-01	 1.570345721763018e+00	-1.431886535148017e+01
1	 4.476688787872664e-01	 1.580686600139960e+00	-1.469774553375421e+01
1	 4.126275166410442e-01	 1.590193685680504e+00	-1.506476491541648e+01
1	 3.775958795840564e-01	 1.598874174146099e+00	-1.541783235175218e+01
1	 3.426008548000429e-01	 1.606736368140026e+00	-1.575489839443120e+01
1	 6.998573711881746e-01	 1.509981836497991e+00	-1.175141231383014e+01
1	 6.651021458792968e-01	 1.525609638282828e+00	-1.216347295281225e+01
1	 6.301504772259071e-01	 1.540375316163592e+00	-1.257789027843711e+01
1	 5.950330606313099e-01	 1.554278436566281e+00	-1.299256027815257e+01
1	 5.597803002507673e-01	 1.567319953561598e+00	-1.340531411679279e+01
1	 5.244222351088731e-01	 1.579502174136336e+00	-1.381393663003507e+01
1	 4.889884687662648e-01	 1.590828719100625e+00	-1.421618452287444e+01
1	 4.535081028025524e-01	 1.601304479994598e+00	-1.460980411973355e+01
1	 4.180096743439077e-01	 1.610935572372854e+00	-1.499254852477670e+01
1	 3.825210978249282e-01	 1.619729285855650e+00	-1.536219406416155e+01
1	 3.470696111356523e-01	 1.627694031342298e+00	-1.571655589607349e+01
1	 7.088684920863135e-01	 1.529423839169470e+00	-1.158642883761630e+01
1	 6.736657705444734e-01	 1.545252859112366e+00	-1.200486874061589e+01
1	 6.382640763216343e-01	 1.560208654742575e+00	-1.242704954324418e+01
1	 6.026945000444901e-01	 1.574290786903558e+00	-1.285082530417593e+01
1	 5.669878373416852e-01	 1.587500221950311e+00	-1.327397616781477e+01
1	 5.311745140098977e-01	 1.599839296573599e+00	-1.369422776099764e+01
1	 4.952845147749666e-01	 1.611311678203856e+00	-1.410927031555870e+01
1	 4.593473159183699e-01	 1.621922321363002e+00	-1.451677735398112e+01
1	 4.233918220004398e-01	 1.631677420347405e+00	-1.491442378766828e+01
1	 3.874463068723730e-01	 1.640584358635956e+00	-1.529990329098261e+01
1	 3.515383591298535e-01	 1.648651655423799e+00	-1.567094482885011e+01
1	 7.178796003694810e-01	 1.548865814622691e+00	-1.141990108739762e+01
1	 6.822293832211472e-01	 1.564896052441934e+00	-1.184467936365090e+01
1	 6.463776640588654e-01	 1.580041965555406e+00	-1.227433610919429e+01
1	 6.103559287321669e-01	 1.594303109224039e+00	-1.270672775081402e+01
1	 5.741953643425297e-01	 1.607680462087105e+00	-1.313962931158797e+01
1	 5.379267834581767e-01	 1.620176390539301e+00	-1.357075430731112e+01
1	 5.015805519696158e-01	 1.631794608631304e+00	-1.399777439614480e+01
1	 4.651865208596684e-01	 1.642540133866729e+00	-1.441833861263556e+01
1	 4.287739621223143e-01	 1.652419239283606e+00	-1.483009202964227e+01
1	 3.923715090248464e-01	 1.661439402219327e+00	-1.523069370549044e+01
1	 3.560071008681043e-01	 1.669609250164720e+00	-1.561783378854762e+01
1	 7.268907002426965e-01	 1.568307771930404e+00	-1.125159708214198e+01
1	 6.907929879055251e-01	 1.584539227438188e+00	-1.168262111293821e+01
1	 6.544912442238149e-01	 1.599875257857469e+00	-1.211943091137734e+01
1	 6.180173502695688e-01	 1.614315412866656e+00	-1.255992787608240e+01
1	 5.814028846167322e-01	 1.627860683389288e+00	-1.300192608488290e+01
1	 5.446790466047114e-01	 1.640513465523965e+00	-1.344317229582024e+01
1	 5.078765832883279e-01	 1.652277519941563e+00	-1.388136573511637e+01
1	 4.710257203513982e-01	 1.663157927127338e+00	-1.431417750041885e+01
1	 4.341560972212050e-01	 1.673161038860906e+00	-1.473926941985990e+01
1	 3.972967065808038e-01	 1.682294426338077e+00	-1.515431222112277e+01
1	 3.604758384358618e-01	 1.690566825345256e+00	-1.555700287951169e+01
1	 7.359017959109799e-01	 1.587749720165365e+00	-1.108129622745691e+01
1	 6.993565885938119e-01	 1.604182393267784e+00	-1.151842420037400e+01
1	 6.626048206026984e-01	 1.619708540904147e+00	-1.196203053850130e+01
1	 6.256787682319245e-01	 1.634327707170340e+00	-1.241010260568697e+01
1	 5.886104015277231e-01	 1.648040895274165e+00	-1.286053607184415e+01
1	 5.514313066005023e-01	 1.660850531018109e+00	-1.331115463137092e+01
1	 5.141726116692190e-01	 1.672760421693228e+00	-1.375972954850807e+01
1	 4.768649171185084e-01	 1.683775710766388e+00	-1.420399885831146e+01
1	 4.395382298087862e-01	 1.693902828758757e+00	-1.464168606371332e+01
1	 4.022219018387006e-01	 1.703149440724514e+00	-1.507051818240529e+01
1	 3.649445739185834e-01	 1.711524390745600e+00	-1.548824301169770e+01
1	 7.449128915793510e-01	 1.607191668400326e+00	-1.090878862730739e+01
1	 7.079201892822147e-01	 1.623825559097381e+00	-1.135183191721688e+01
1	 6.707183969817293e-01	 1.639541823950825e+00	-1.180184628666303e+01
1	 6.333401861944633e-01	 1.654340001474025e+00	-1.225694452557575e+01
1	 5.958179184389334e-01	 1.668221107159040e+00	-1.271514487371552e+01
1	 5.581835665965504e-01	 1.681187596512253e+00	-1.317439007693201e+01
1	 5.204686400504046e-01	 1.693243323444894e+00	-1.363256631643915e+01
1	 4.827041138859491e-01	 1.704393494405438e+00	-1.408752184328720e+01
1	 4.449203623967316e-01	 1.714644618656608e+00	-1.453708516133836e+01
1	 4.071470970969923e-01	 1.724004455110951e+00	-1.497908261463010e+01
1	 3.694133094017262e-01	 1.732481956145943e+00	-1.541135524876805e+01
1	 7.539239914528291e-01	 1.626633625708040e+00	-1.073387444511727e+01
1	 7.164837939669392e-01	 1.643468734093634e+00	-1.118259985295348e+01
1	 6.788319771471224e-01	 1.659375116252888e+00	-1.163860328101070e+01
1	 6.410016077324138e-01	 1.674352305116642e+00	-1.210016094677519e+01
1	 6.030254387137948e-01	 1.688401328461222e+00	-1.256545315248714e+01
1	 5.649358297438567e-01	 1.701524671496917e+00	-1.303258230689288e+01
1	 5.267646713700003e-01	 1.713726234755153e+00	-1.349959087206560e+01
1	 4.885433133786704e-01	 1.725011287666047e+00	-1.396447907407757e+01
1	 4.503024974967154e-01	 1.735386418233908e+00	-1.442522222650336e+01
1	 4.120722946541341e-01	 1.744859479229700e+00	-1.487978752736953e+01
1	 3.738820469707478e-01	 1.753439531326480e+00	-1.532615020296294e+01
1	 7.629350997364340e-01	 1.646075601161259e+00	-1.055636331017030e+01
1	 7.250474066441916e-01	 1.663111927423202e+00	-1.101049516954738e+01
1	 6.869455648850931e-01	 1.679208427065719e+00	-1.147203965968192e+01
1	 6.486630364210046e-01	 1.694364627437122e+00	-1.193947303653052e+01
1	 6.102329657157373e-01	 1.708581568598017e+00	-1.241117574234990e+01
1	 5.716880991934217e-01	 1.721861765462620e+00	-1.288544902748378e+01
1	 5.330607085661218e-01	 1.734209165182600e+00	-1.336053155512840e+01
1	 4.943825183216216e-01	 1.745629100169774e+00	-1.383461583750222e+01
1	 4.556846376204109e-01	 1.756128237170108e+00	-1.430586436088027e+01
1	 4.169974968085816e-01	 1.765714522813072e+00	-1.477242526737176e+01
1	 3.783507887111051e-01	 1.774397126067401e+00	-1.523244747287595e+01
1	 7.719462206351853e-01	 1.665517603832739e+00	-1.037607376560625e+01
1	 7.336110313101780e-01	 1.682755148252740e+00	-1.083529592654469e+01
1	 6.950591639818547e-01	 1.699041765644702e+00	-1.130190581492653e+01
1	 6.563244758354650e-01	 1.714376977774400e+00	-1.177461501033130e+01
1	 6.174405028081928e-01	 1.728761836986729e+00	-1.225204082341296e+01
1	 5.784403780962465e-01	 1.742198887899882e+00	-1.273272115883162e+01
1	 5.393567545768849e-01	 1.754692124285831e+00	-1.321512942481464e+01
1	 5.002217314397523e-01	 1.766246941538177e+00	-1.369768935041511e+01
1	 4.610667852794929e-01	 1.776870085144659e+00	-1.417878957917045e+01
1	 4.219227058587907e-01	 1.786569595593378e+00	-1.465679791680157e+01
1	 3.828195367082557e-01	 1.795354750148902e+00	-1.513007512062651e+01
1	 7.809573583541024e-01	 1.684959642795230e+00	-1.019283275465164e+01
1	 7.421746719611046e-01	 1.702398405748905e+00	-1.065679045292547e+01
1	 7.031727782236229e-01	 1.718875141245223e+00	-1.112796368679254e+01
1	 6.639859295510238e-01	 1.734389365467405e+00	-1.160533337990021e+01
1	 6.246480533545917e-01	 1.748942143044666e+00	-1.208778915265389e+01
1	 5.851926696033319e-01	 1.762536048299222e+00	-1.257414207367042e+01
1	 5.456528123404050e-01	 1.775175121623439e+00	-1.306313752714043e+01
1	 5.060609554580128e-01	 1.786864821392816e+00	-1.355346807277137e+01
1	 4.664489429856349e-01	 1.797611971837010e+00	-1.404378618097459e+01
1	 4.268479241032159e-01	 1.807424707302928e+00	-1.453271673316139e+01
1	 3.872882930476569e-01	 1.816312413351174e+00	-1.501886918524569e+01
1	 3.426008548000429e-01	 1.606736368140026e+00	-1.575489839443120e+01
1	 3.076661763631741e-01	 1.613790088361845e+00	-1.607524850871402e+01
1	 2.728197402333763e-01	 1.620045109375353e+00	-1.637727723478922e+01
1	 2.380861944006856e-01	 1.625512722803128e+00	-1.665778756837955e+01
1	 2.034893489370334e-01	 1.630205098820482e+00	-1.691370707079469e+01
1	 1.690521454357569e-01	 1.634135225769794e+00	-1.714210781406484e+01
1	 1.347966309384787e-01	 1.637316849251474e+00	-1.734022421586330e+01
1	 1.007439362639357e-01	 1.639764411030700e+00	-1.750546873211817e+01
1	 6.691425862819741e-02	 1.641492988081151e+00	-1.763544539932900e+01
1	 3.332684842312708e-02	 1.642518232067458e+00	-1.772796124105526e+01
1	 0.000000000000000e+00	 1.642856309547222e+00	-1.778103557364472e+01
1	 3.470696111356523e-01	 1.627694031342298e+00	-1.571655589607349e+01
1	 3.116792579285771e-01	 1.634839757629868e+00	-1.605475129715263e+01
1	 2.763782980280260e-01	 1.641176366777895e+00	-1.637517739826704e+01
1	 2.411917009231368e-01	 1.646715297692631e+00	-1.667475512943805e+01
1	 2.061435872554544e-01	 1.651468879292577e+00	-1.695052292925460e+01
1	 1.712571978598221e-01	 1.655450269335162e+00	-1.719965646814721e+01
1	 1.365548673511724e-01	 1.658673392713235e+00	-1.741948631941508e+01
1	 1.020580021706859e-01	 1.661152879564920e+00	-1.760751354369274e+01
1	 6.778706297931411e-02	 1.662904003522265e+00	-1.776142317626918e+01
1	 3.376155126378372e-02	 1.663942620404321e+00	-1.787909562879731e+01
1	 0.000000000000000e+00	 1.664285107639178e+00	-1.795861603726423e+01
1	 3.515383591298535e-01	 1.648651655423799e+00	-1.567094482885011e+01
1	 3.156923320031289e-01	 1.655889387605277e+00	-1.602653116136651e+01
1	 2.799368491802376e-01	 1.662307584735421e+00	-1.636504036397669e+01
1	 2.442972016488187e-01	 1.667917833003894e+00	-1.668347632660242e+01
1	 2.087978206194496e-01	 1.672732620072087e+00	-1.697895310378054e+01
1	 1.734622461679196e-01	 1.676765273112168e+00	-1.724871467707075e+01
1	 1.383131004819329e-01	 1.680029896309091e+00	-1.749015270897214e+01
1	 1.033720656245985e-01	 1.682541308173578e+00	-1.770082225060550e+01
1	 6.865986570125659e-02	 1.684314978995681e+00	-1.787845538899489e+01
1	 3.419625329302751e-02	 1.685366968748493e+00	-1.802097284181193e+01
1	 0.000000000000000e+00	 1.685713865730200e+00	-1.812649352773191e+01
1	 3.560071008681043e-01	 1.669609250164720e+00	-1.561783378854762e+01
1	 3.197054004596522e-01	 1.676938988111222e+00	-1.599038763095604e+01
1	 2.834953953507344e-01	 1.683438773109186e+00	-1.634668814968117e+01
1	 2.474026980270385e-01	 1.689120338631477e+00	-1.668378858025805e+01
1	 2.114520502677379e-01	 1.693996331082160e+00	-1.699884468555137e+01
1	 1.756672913891475e-01	 1.698080247047902e+00	-1.728913481299635e+01
1	 1.400713311513396e-01	 1.701386370005517e+00	-1.755207797320973e+01
1	 1.046861272389635e-01	 1.703929706838064e+00	-1.778524989760303e+01
1	 6.953266720137821e-02	 1.705725924493324e+00	-1.798639705628992e+01
1	 3.463095471374479e-02	 1.706791287098147e+00	-1.815344863974063e+01
1	 0.000000000000000e+00	 1.707142593820522e+00	-1.828452652809300e+01
1	 3.604758384358618e-01	 1.690566825345256e+00	-1.555700287951169e+01
1	 3.237184651709711e-01	 1.697988568970860e+00	-1.594613020971442e+01
1	 2.870539382002401e-01	 1.704569941760444e+00	-1.631995163126576e+01
1	 2.505081915071031e-01	 1.710322824469939e+00	-1.667553740377494e+01
1	 2.141062774390382e-01	 1.715260022245939e+00	-1.701005237748267e+01
1	 1.778723345526043e-01	 1.719395201089455e+00	-1.732077659600035e+01
1	 1.418295601799715e-01	 1.722742823768991e+00	-1.760512393668826e+01
1	 1.060001876270708e-01	 1.725318085539769e+00	-1.786065874049871e+01
1	 7.040546788703229e-02	 1.727136850007118e+00	-1.808511040708907e+01
1	 3.506565572882187e-02	 1.728215585451455e+00	-1.827638595351677e+01
1	 0.000000000000000e+00	 1.728571301910378e+00	-1.843258055567796e+01
1	 3.649445739185834e-01	 1.711524390745600e+00	-1.548824301169770e+01
1	 3.277315280099088e-01	 1.719038140007343e+00	-1.589357776669627e+01
1	 2.906124793894782e-01	 1.725701100550448e+00	-1.628467000218616e+01
1	 2.536136835383199e-01	 1.731525300413842e+00	-1.665857590982699e+01
1	 2.167605033720695e-01	 1.736523703486572e+00	-1.701243803001868e+01
1	 1.800773766873884e-01	 1.740710145183917e+00	-1.734350664601682e+01
1	 1.435877883884080e-01	 1.744099267565988e+00	-1.764915921864658e+01
1	 1.073142474022104e-01	 1.746706454260084e+00	-1.792691780647823e+01
1	 7.127826816557226e-02	 1.748547765528988e+00	-1.817446444083798e+01
1	 3.550035654114503e-02	 1.749639873806591e+00	-1.838965444811478e+01
1	 0.000000000000000e+00	 1.750000000000000e+00	-1.857052773326638e+01
1	 3.694133094017262e-01	 1.732481956145943e+00	-1.541135524876805e+01
1	 3.317445908492893e-01	 1.740087711043827e+00	-1.583255797150562e+01
1	 2.941710205791723e-01	 1.746832259340452e+00	-1.624069027217004e+01
1	 2.567191755699961e-01	 1.752727776357744e+00	-1.663276435256112e+01
1	 2.194147293055507e-01	 1.757787384727206e+00	-1.700587021063481e+01
1	 1.822824188225979e-01	 1.762025089278380e+00	-1.735719806731624e+01
1	 1.453460165972282e-01	 1.765455711362986e+00	-1.768405882383490e+01
1	 1.086283071776724e-01	 1.768094822980399e+00	-1.798390248633445e+01
1	 7.215106844435137e-02	 1.769958681050858e+00	-1.825433451977905e+01
1	 3.593505735360058e-02	 1.771064162161726e+00	-1.849313011705154e+01
1	 0.000000000000000e+00	 1.771428698089623e+00	-1.869824639139212e+01
1	 3.738820469707478e-01	 1.753439531326480e+00	-1.532615020296295e+01
1	 3.357576555619355e-01	 1.761137291903464e+00	-1.576290677010136e+01
1	 2.977295634300460e-01	 1.767963427991710e+00	-1.618786680188709e+01
1	 2.598246690514388e-01	 1.773930262196207e+00	-1.659796970261550e+01
1	 2.220689564782008e-01	 1.779051075890984e+00	-1.699022380422693e+01
1	 1.844874619873312e-01	 1.783340043319932e+00	-1.736173006279849e+01
1	 1.471042456270111e-01	 1.786812165126459e+00	-1.770970376270499e+01
1	 1.099423675667465e-01	 1.789483201682104e+00	-1.803149415595963e+01
1	 7.302386913072303e-02	 1.791369606564652e+00	-1.832460199049001e+01
1	 3.636975836907484e-02	 1.792488460515034e+00	-1.858669490598160e+01
1	 0.000000000000000e+00	 1.792857406179478e+00	-1.881562069918297e+01
1	 3.783507887111051e-01	 1.774397126067401e+00	-1.523244747287595e+01
1	 3.397707240206714e-01	 1.782186892409409e+00	-1.568446789776893e+01
1	 3.012881096028229e-01	 1.789094616365475e+00	-1.612606087061093e+01
1	 2.629301654319551e-01	 1.795132767823789e+00	-1.655406525226963e+01
1	 2.247231861287388e-01	 1.800314786901056e+00	-1.696537964183446e+01
1	 1.866925072106866e-01	 1.804655017255666e+00	-1.735698757563217e+01
1	 1.488624762983361e-01	 1.808168638822887e+00	-1.772598069852955e+01
1	 1.112564291827228e-01	 1.810871600346590e+00	-1.806957982467377e+01
1	 7.389667063204054e-02	 1.812780552062295e+00	-1.838515383225670e+01
1	 3.680445979045411e-02	 1.813912778864688e+00	-1.867023636298071e+01
1	 0.000000000000000e+00	 1.814286134269800e+00	-1.892254032137423e+01
1	 3.828195367082557e-01	 1.795354750148902e+00	-1.513007512062651e+01
1	 3.437837980983204e-01	 1.803236522384817e+00	-1.559709242622002e+01
1	 3.048466607582264e-01	 1.810225834323002e+00	-1.605514027417673e+01
1	 2.660356661608521e-01	 1.816335303135052e+00	-1.650093024826290e+01
1	 2.273774194958836e-01	 1.821578527680567e+00	-1.693122415537979e+01
1	 1.888975555217624e-01	 1.825970021032672e+00	-1.734286095600598e+01
1	 1.506207094317823e-01	 1.829525142418741e+00	-1.773278161924940e+01
1	 1.125704926388912e-01	 1.832260028955248e+00	-1.809805180819650e+01
1	 7.476947335565728e-02	 1.834191527535712e+00	-1.843588233008494e+01
1	 3.723916182062469e-02	 1.835337127208860e+00	-1.874364731333493e+01
1	 0.000000000000000e+00	 1.835714892360823e+00	-1.901890009935653e+01
1	 3.872882930476569e-01	 1.816312413351174e+00	-1.501886918524569e+01
1	 3.477968796677059e-01	 1.824286191652841e+00	-1.550063834206187e+01
1	 3.084052185569802e-01	 1.831357091725543e+00	-1.597497895078615e+01
1	 2.691411726874370e-01	 1.837537878024554e+00	-1.643844955004539e+01
1	 2.300316578183539e-01	 1.842842308152661e+00	-1.688764905632172e+01
1	 1.911026079496569e-01	 1.847285064598040e+00	-1.731924565096196e+01
1	 1.523789458479289e-01	 1.850881685880502e+00	-1.773000353204911e+01
1	 1.138845585485418e-01	 1.853648497489467e+00	-1.811680742426977e+01
1	 7.564227770892655e-02	 1.855602542976825e+00	-1.847668477036159e+01
1	 3.767386466247289e-02	 1.856761515545723e+00	-1.880682555685514e+01
1	 0.000000000000000e+00	 1.857143690452778e+00	-1.910459975431582e+01
1	 1.857143690452778e+00	 0.000000000000000e+00	 8.781745750415517e+00
1	 1.856761515545723e+00	 3.767386466247341e-02	 8.084895989314003e+00
1	 1.855602542976826e+00	 7.564227770892705e-02	 7.405144845700566e+00
1	 1.853648497489467e+00	 1.138845585485422e-01	 6.744598856178398e+00
1	 1.850881685880502e+00	 1.523789458479293e-01	 6.105353139780877e+00
1	 1.847285064598040e+00	 1.911026079496572e-01	 5.489477580196018e+00
1	 1.842842308152661e+00	 2.300316578183542e-01	 4.899002233007344e+00
1	 1.837537878024554e+00	 2.691411726874371e-01	 4.335902025424664e+00
1	 1.831357091725543e+00	 3.084052185569803e-01	 3.802080828620316e+00
1	 1.824286191652841e+00	 3.477968796677058e-01	 3.299354995475516e+00
1	 1.816312413351174e+00	 3.872882930476569e-01	 2.829436469088526e+00
1	 1.878572536045842e+00	 0.000000000000000e+00	 8.550324896918392e+00
1	 1.878185951373907e+00	 3.810856846815736e-02	 7.861034044576240e+00
1	 1.877013605879581e+00	 7.651508399735196e-02	 7.188799277171697e+00
1	 1.875037013435292e+00	 1.151986273716261e-01	 6.535806683008914e+00
1	 1.872238276683024e+00	 1.541371861621915e-01	 5.904231119792430e+00
1	 1.868600155412089e+00	 1.933076652661729e-01	 5.296221832741134e+00
1	 1.864106135759701e+00	 2.326859020251671e-01	 4.713887265981334e+00
1	 1.858740499913218e+00	 2.722466860986676e-01	 4.159279137779558e+00
1	 1.852488395969041e+00	 3.119637842446044e-01	 3.634375863355820e+00
1	 1.845335907580846e+00	 3.518099701334236e-01	 3.141065422241506e+00
1	 1.837270123009362e+00	 3.917570592933805e-01	 2.681127780216771e+00
1	 1.900001426639956e+00	 0.000000000000000e+00	 8.323166382553428e+00
1	 1.899610432193868e+00	 3.854327318692236e-02	 7.641809075466064e+00
1	 1.898424713745996e+00	 7.738789211903432e-02	 6.977470611370315e+00
1	 1.896425574297374e+00	 1.165126989547405e-01	 6.332419217426727e+00
1	 1.893594912334690e+00	 1.558954301693286e-01	 5.708909684050116e+00
1	 1.889915290988044e+00	 1.955127272139288e-01	 5.109168282496454e+00
1	 1.885370008020898e+00	 2.353401518065301e-01	 4.535376854599673e+00
1	 1.879943166327400e+00	 2.753522060321016e-01	 3.989656150163974e+00
1	 1.873619744588180e+00	 3.155223574058038e-01	 3.474048501241484e+00
1	 1.866385667713046e+00	 3.558230690271570e-01	 2.990499936267113e+00
1	 1.858227876678418e+00	 3.962258349239570e-01	 2.540841850574240e+00
1	 1.921430357235003e+00	 0.000000000000000e+00	 8.099819719754917e+00
1	 1.921034953006520e+00	 3.897797871728554e-02	 7.426851204344860e+00
1	 1.919835861580109e+00	 7.826070187022578e-02	 6.770853724467964e+00
1	 1.917814175085018e+00	 1.178267729911437e-01	 6.134180177138179e+00
1	 1.914951587852261e+00	 1.576536774589359e-01	 5.519165476425588e+00
1	 1.911230466352363e+00	 1.977177932782481e-01	 4.928110636613185e+00
1	 1.906633919974679e+00	 2.379944065429490e-01	 4.363266016810160e+00
1	 1.901145872319824e+00	 2.784577317629481e-01	 3.826813809300706e+00
1	 1.894751132652334e+00	 3.190809372100797e-01	 3.320849868183471e+00
1	 1.887435467137861e+00	 3.598361754123613e-01	 2.847364989100699e+00
1	 1.879185669468245e+00	 4.006946188965311e-01	 2.408225764848131e+00
1	 1.942859322830867e+00	 0.000000000000000e+00	 7.879854291108336e+00
1	 1.942459508812778e+00	 3.941268495776403e-02	 7.215806867131779e+00
1	 1.941247044385958e+00	 7.913351304717783e-02	 6.568656949190515e+00
1	 1.939202810807529e+00	 1.191408491740938e-01	 5.940844581477404e+00
1	 1.936308298252500e+00	 1.594119276206086e-01	 5.334784989711430e+00
1	 1.932545676531499e+00	 1.999228629444540e-01	 4.752851698364360e+00
1	 1.927897866659472e+00	 2.406486656149291e-01	 4.197358808920487e+00
1	 1.922348612943207e+00	 2.815632625664156e-01	 3.670542530024108e+00
1	 1.915882555230876e+00	 3.226395228269336e-01	 3.174542065203600e+00
1	 1.908485300943716e+00	 3.638492883524926e-01	 2.711379978591407e+00
1	 1.900143496488748e+00	 4.051634101682481e-01	 2.282942173449961e+00
1	 1.964288318427431e+00	 0.000000000000000e+00	 7.662858265580756e+00
1	 1.963884094613554e+00	 3.984739180687496e-02	 7.008337923527258e+00
1	 1.962658257167581e+00	 8.000632544614210e-02	 6.370601340878737e+00
1	 1.960591476474211e+00	 1.204549271968495e-01	 5.752178135012579e+00
1	 1.957665038552166e+00	 1.611701802439422e-01	 5.155564028474320e+00
1	 1.953860916551905e+00	 2.021279356978698e-01	 4.583202871071860e+00
1	 1.949161843113704e+00	 2.433029284029761e-01	 4.037467832691529e+00
1	 1.943551383250271e+00	 2.846687977177128e-01	 3.520641868041841e+00
1	 1.937014007393181e+00	 3.261981134258674e-01	 3.034897569930918e+00
1	 1.929535164219033e+00	 3.678624069110056e-01	 2.582276542883546e+00
1	 1.921101352849829e+00	 4.096322076962525e-01	 2.164668443654493e+00
1	 1.985717339024578e+00	 0.000000000000000e+00	 7.448437584898301e+00
1	 1.985308705409761e+00	 4.028209916313545e-02	 6.804120824827287e+00
1	 1.984069494929014e+00	 8.087913886337010e-02	 6.176419991053204e+00
1	 1.981980167094370e+00	 1.217690067526689e-01	 5.567956651048535e+00
1	 1.979021803768024e+00	 1.629284349185320e-01	 4.981307206675075e+00
1	 1.975176181440039e+00	 2.043330110238186e-01	 4.418983694141806e+00
1	 1.970425844375801e+00	 2.459571942875955e-01	 3.883413774334011e+00
1	 1.964754178293735e+00	 2.877743364920480e-01	 3.376920026822213e+00
1	 1.958145484208620e+00	 3.297567081763817e-01	 2.901698676831586e+00
1	 1.950585052052235e+00	 3.718755301513563e-01	 2.459797900107299e+00
1	 1.942059233661392e+00	 4.141010104376896e-01	 2.053095865681273e+00
1	 2.007146379622192e+00	 0.000000000000000e+00	 7.236215014830162e+00
1	 2.006733336202314e+00	 4.071680692506262e-02	 6.602845835026136e+00
1	 2.005480752674296e+00	 8.175195309511345e-02	 5.985857384934434e+00
1	 2.003368877677310e+00	 1.230830875348104e-01	 5.387965512044739e+00
1	 2.000378588916834e+00	 1.646866912339731e-01	 4.811827477458220e+00
1	 1.996491466222354e+00	 2.065380884076235e-01	 4.260021408809526e+00
1	 1.991689865484192e+00	 2.486114626492929e-01	 3.735024973025206e+00
1	 1.985956993126318e+00	 2.908798781646302e-01	 3.239193396057536e+00
1	 1.979276980746566e+00	 3.333153062479786e-01	 2.774736973283407e+00
1	 1.971634959531745e+00	 3.758886571369999e-01	 2.343698230351816e+00
1	 1.963017134033341e+00	 4.185698173497043e-01	 1.947928909614149e+00
1	 2.028575435220155e+00	 0.000000000000000e+00	 7.025829256581479e+00
1	 2.028157981992126e+00	 4.115151499117362e-02	 6.404216301268471e+00
1	 2.026892025407465e+00	 8.262476793762372e-02	 5.798668799669473e+00
1	 2.024757603232335e+00	 1.243971692365323e-01	 5.211999164220298e+00
1	 2.021735389015359e+00	 1.664449487798609e-01	 4.646945692733196e+00
1	 2.017806765925305e+00	 2.087431673346079e-01	 4.106150551398161e+00
1	 2.012953901477300e+00	 2.512657328685736e-01	 3.592137016763553e+00
1	 2.007159822800742e+00	 2.939854220106677e-01	 3.107286119369622e+00
1	 2.000408492076392e+00	 3.368739068101590e-01	 2.653812848845149e+00
1	 1.992684881745986e+00	 3.799017869313923e-01	 2.233742096795305e+00
1	 1.983975049075579e+00	 4.230386273894415e-01	 1.848884529400950e+00
1	 2.050004500818354e+00	 0.000000000000000e+00	 6.816934113898316e+00
1	 2.049582637780111e+00	 4.158622325998555e-02	 6.207947970041335e+00
1	 2.048303308132558e+00	 8.349758318715243e-02	 5.614619740287138e+00
1	 2.046146338768752e+00	 1.257112515510929e-01	 5.039860643845202e+00
1	 2.043092199080359e+00	 1.682032071457909e-01	 4.486490190368039e+00
1	 2.039122075575345e+00	 2.109482472900948e-01	 3.957212572078245e+00
1	 2.034217947393555e+00	 2.539200043259434e-01	 3.454592363561630e+00
1	 2.028362662369725e+00	 2.970909673053695e-01	 2.981029689118400e+00
1	 2.021540013267473e+00	 3.404325090324247e-01	 2.538735035292786e+00
1	 2.013734813783382e+00	 3.839149185979887e-01	 2.129703903128026e+00
1	 2.004932973898010e+00	 4.275074395140459e-01	 1.755691510489660e+00
1	 2.071433571416667e+00	 0.000000000000000e+00	 6.609197711851925e+00
1	 2.071007298567182e+00	 4.202093163001555e-02	 6.013768345794730e+00
1	 2.069714595853613e+00	 8.437039863995120e-02	 5.433485410651111e+00
1	 2.067535079295861e+00	 1.270253341717507e-01	 4.871361132924003e+00
1	 2.064449014128598e+00	 1.699614659213580e-01	 4.330296406996774e+00
1	 2.060437390198933e+00	 2.131533277594077e-01	 3.813055477282484e+00
1	 2.055481998271383e+00	 2.565742764019078e-01	 3.322239986143167e+00
1	 2.049565506885989e+00	 3.001965133239439e-01	 2.860262566351749e+00
1	 2.042671539389180e+00	 3.439911120842769e-01	 2.429320175195421e+00
1	 2.034784750732354e+00	 3.879280512002444e-01	 2.031367384640857e+00
1	 2.025890903610537e+00	 4.319762526806628e-01	 1.668089857942253e+00
1	 1.816312413351174e+00	 3.872882930476569e-01	 2.829436469088527e+00
1	 1.807424707302929e+00	 4.268479241032157e-01	 2.383896717094964e+00
1	 1.797611971837011e+00	 4.664489429856347e-01	 1.953509772182775e+00
1	 1.786864821392816e+00	 5.060609554580124e-01	 1.538630120663296e+00
1	 1.775175121623439e+00	 5.456528123404047e-01	 1.139380066203130e+00
1	 1.762536048299222e+00	 5.851926696033313e-01	 7.556402741724394e-01
1	 1.748942143044667e+00	 6.246480533545914e-01	 3.870417310005939e-01
1	 1.734389365467405e+00	 6.639859295510233e-01	 3.295926060547372e-02
1	 1.718875141245223e+00	 7.031727782236227e-01	-3.074932697943156e-01
1	 1.702398405748905e+00	 7.421746719611043e-01	-6.354659342761567e-01
1	 1.684959642795230e+00	 7.809573583541023e-01	-9.523738174060312e-01
1	 1.837270123009362e+00	 3.917570592933805e-01	 2.681127780216772e+00
1	 1.828279865240958e+00	 4.317731532656795e-01	 2.245920580096537e+00
1	 1.818353904506749e+00	 4.718311126225738e-01	 1.825940603722416e+00
1	 1.807482746949861e+00	 5.119001924200982e-01	 1.421501359051385e+00
1	 1.795658164364369e+00	 5.519488840602544e-01	 1.032672668711441e+00
1	 1.782873253778531e+00	 5.919449760779156e-01	 6.592712154975957e-01
1	 1.769122493834807e+00	 6.318556198774972e-01	 3.008525996616761e-01
1	 1.754401797520338e+00	 6.716474002490935e-01	-4.329494598393968e-02
1	 1.738708560808818e+00	 7.112864104500519e-01	-3.741550478293880e-01
1	 1.722041706786691e+00	 7.507383315941215e-01	-6.929857679204946e-01
1	 1.704401724853298e+00	 7.899685160469485e-01	-1.001320158447273e+00
1	 1.858227876678418e+00	 3.962258349239570e-01	 2.540841850574240e+00
1	 1.849135066974388e+00	 4.366983927714691e-01	 2.116197396528345e+00
1	 1.839095880734014e+00	 4.772132935623012e-01	 1.706778193789578e+00
1	 1.828100715803918e+00	 5.177394416446897e-01	 1.312858678364325e+00
1	 1.816141250118972e+00	 5.582449690018318e-01	 9.344604465309835e-01
1	 1.803210501965179e+00	 5.986972967321855e-01	 5.713428658108526e-01
1	 1.789302887002826e+00	 6.390632015359993e-01	 2.229952784825996e-01
1	 1.774414271598467e+00	 6.793088870358278e-01	-1.113690536369742e-01
1	 1.758542022021642e+00	 7.194000597145587e-01	-4.328171259413214e-01
1	 1.741685049074432e+00	 7.593020092101596e-01	-7.426983661410286e-01
1	 1.723843847738756e+00	 7.989796926624607e-01	-1.042644701036248e+00
1	 1.879185669468245e+00	 4.006946188965311e-01	 2.408225764848131e+00
1	 1.869990307637065e+00	 4.416236414712386e-01	 1.994314630493850e+00
1	 1.859837895679079e+00	 4.825954845488703e-01	 1.595564248583415e+00
1	 1.848718723144213e+00	 5.235787017692131e-01	 1.212211790048140e+00
1	 1.836624374107953e+00	 5.645410656959915e-01	 8.442347249644555e-01
1	 1.823547788113905e+00	 6.054496299905657e-01	 4.913415620921623e-01
1	 1.809483317840070e+00	 6.462707966483203e-01	 1.529642459570361e-01
1	 1.794426783032323e+00	 6.869703881235609e-01	-1.717476383277983e-01
1	 1.778375520256003e+00	 7.275137241239990e-01	-4.839307145177564e-01
1	 1.761328428028801e+00	 7.678657028110910e-01	-7.850095957639748e-01
1	 1.743286006915225e+00	 8.079908860981183e-01	-1.076696490270559e+00
1	 1.900143496488748e+00	 4.051634101682481e-01	 2.282942173449960e+00
1	 1.890845582362830e+00	 4.465488982156414e-01	 1.879877942449498e+00
1	 1.880579944502220e+00	 4.879776843263350e-01	 1.491860689688876e+00
1	 1.869336764159963e+00	 5.294179714310953e-01	 1.119092032761277e+00
1	 1.857107531552014e+00	 5.708371726735891e-01	 7.615092679661830e-01
1	 1.843885107479449e+00	 6.122019742774804e-01	 4.187763003273722e-01
1	 1.829663781637883e+00	 6.534784035326818e-01	 9.027628068186377e-02
1	 1.814439327152442e+00	 6.946319017246300e-01	-2.248938997052895e-01
1	 1.798209050884207e+00	 7.356274017852300e-01	-5.279271193249540e-01
1	 1.780971839066468e+00	 7.764294103987911e-01	-8.203074191085704e-01
1	 1.762728197846329e+00	 8.170020942514019e-01	-1.103809173201215e+00
1	 1.921101352849829e+00	 4.096322076962525e-01	 2.164668443654493e+00
1	 1.911700886285531e+00	 4.514741618553319e-01	 1.772510196874210e+00
1	 1.901322022363710e+00	 4.933598916387493e-01	 1.395248551631694e+00
1	 1.889954834040390e+00	 5.352572492677620e-01	 1.033051192930681e+00
1	 1.877590717671858e+00	 5.771332884654784e-01	 6.858190544432361e-01
1	 1.864222455316552e+00	 6.189543280173542e-01	 3.531774997913458e-01
1	 1.849844273687616e+00	 6.606860205073060e-01	 3.446924521462913e-02
1	 1.834451899289356e+00	 7.022934260513709e-01	-2.712508268525577e-01
1	 1.818042609278566e+00	 7.437410908051079e-01	-5.652188269991021e-01
1	 1.800615277604106e+00	 7.849931299751329e-01	-8.489628703883831e-01
1	 1.782170415995694e+00	 8.260133150197916e-01	-1.124301838524197e+00
1	 1.942059233661392e+00	 4.141010104376896e-01	 2.053095865681273e+00
1	 1.932556214539010e+00	 4.563994312409635e-01	 1.671850534167480e+00
1	 1.922064124423826e+00	 4.987421052301669e-01	 1.305326950789154e+00
1	 1.910572927974714e+00	 5.410965339166400e-01	 9.536604016474692e-01
1	 1.898073927688186e+00	 5.834294116025146e-01	 6.167191337605739e-01
1	 1.884559826879955e+00	 6.257066896346112e-01	 2.940958473129119e-01
1	 1.870024789280614e+00	 6.678936458904153e-01	-1.489905135409808e-02
1	 1.854464494773602e+00	 7.099549593161198e-01	-3.112422885925822e-01
1	 1.837876190811384e+00	 7.518547892904891e-01	-5.962005202791593e-01
1	 1.820258739058387e+00	 7.935568595419911e-01	-8.713309689149741e-01
1	 1.801612656826940e+00	 8.350245463007669e-01	-1.138479801923002e+00
1	 1.963017134033341e+00	 4.185698173497043e-01	 1.947928909614149e+00
1	 1.953411562257110e+00	 4.613247052231902e-01	 1.577553501977810e+00
1	 1.942806245842842e+00	 5.041243238446417e-01	 1.221712120325966e+00
1	 1.931191041152156e+00	 5.469358240151556e-01	 8.805091021991217e-01
1	 1.918557156821704e+00	 5.897255406155530e-01	 5.537835545330846e-01
1	 1.904897217424397e+00	 6.324590575536760e-01	 2.411012155465289e-01
1	 1.890205323708224e+00	 6.751012780002316e-01	-5.825191799398233e-02
1	 1.874477108935713e+00	 7.176164997312131e-01	-3.452740539769202e-01
1	 1.857709790854971e+00	 7.599684953482303e-01	-6.212500282299627e-01
1	 1.839902218845981e+00	 8.021205971012388e-01	-8.877515738252003e-01
1	 1.821054915803694e+00	 8.440357859918090e-01	-1.146635341122282e+00
1	 1.983975049075579e+00	 4.230386273894415e-01	 1.848884529400949e+00
1	 1.974266924573678e+00	 4.662499826526657e-01	 1.489288241568575e+00
1	 1.963548381781033e+00	 5.095065462262276e-01	 1.144036506274726e+00
1	 1.951809168761936e+00	 5.527751182007353e-01	 8.132040830168492e-01
1	 1.939040400293112e+00	 5.960216740354478e-01	 4.966043612873418e-01
1	 1.925234622204619e+00	 6.392114301989733e-01	 1.937816497801964e-01
1	 1.910385872261793e+00	 6.823089151549765e-01	-9.599477887757235e-02
1	 1.894489737106221e+00	 7.252780455089870e-01	-3.737347481181844e-01
1	 1.877543404781634e+00	 7.680822070851886e-01	-6.407292162609957e-01
1	 1.859545712383560e+00	 8.106843406547504e-01	-8.985501846546168e-01
1	 1.840497188389576e+00	 8.530470319903963e-01	-1.149048384369917e+00
1	 2.004932973898010e+00	 4.275074395140459e-01	 1.755691510489660e+00
1	 1.995122296622557e+00	 4.711752623800439e-01	 1.406737725195475e+00
1	 1.984290527398675e+00	 5.148887711189785e-01	 1.071947920288619e+00
1	 1.972427305993276e+00	 5.586144151108057e-01	 7.513685712533801e-01
1	 1.959523653323115e+00	 6.023178103930540e-01	 4.447906540287294e-01
1	 1.945572036475360e+00	 6.459638059949269e-01	 1.517424182665096e-01
1	 1.930566430232669e+00	 6.895165556728722e-01	-1.285161080060329e-01
1	 1.914502374615661e+00	 7.329395948617770e-01	-3.969967480955584e-01
1	 1.897377027963681e+00	 7.761959226082197e-01	-6.549848203444810e-01
1	 1.879189215087797e+00	 8.192480882044000e-01	-9.040386917180656e-01
1	 1.859939470048212e+00	 8.620582821940106e-01	-1.145987155753911e+00
1	 2.025890903610537e+00	 4.319762526806628e-01	 1.668089857942253e+00
1	 2.015977673537592e+00	 4.761005432559788e-01	 1.329598040803012e+00
1	 2.005032677856041e+00	 5.202709972669480e-01	 1.005108744963825e+00
1	 1.993045448035394e+00	 5.644537133827925e-01	 6.946413826021371e-01
1	 1.980006911132414e+00	 6.086139482192265e-01	 3.979677061602319e-01
1	 1.965909455491361e+00	 6.527161833659613e-01	 1.146051214785105e-01
1	 1.950746992912197e+00	 6.967241978721409e-01	-1.561883058434792e-01
1	 1.934515016794567e+00	 7.406011460019196e-01	-4.154170232714502e-01
1	 1.917210655773421e+00	 7.843096400241804e-01	-6.643492294721685e-01
1	 1.898832722375361e+00	 8.278118377520610e-01	-9.045160799308996e-01
1	 1.879381756243224e+00	 8.710695345001308e-01	-1.137708780478927e+00
1	 1.684959642795230e+00	 7.809573583541023e-01	-9.523738174060308e-01
1	 1.666559598408865e+00	 8.194890317710753e-01	-1.261123393153375e+00
1	 1.647203145001001e+00	 8.577323120906620e-01	-1.563631984130911e+00
1	 1.626895601998760e+00	 8.956524827850925e-01	-1.860083336178983e+00
1	 1.605643936898378e+00	 9.332148642295568e-01	-2.150645641013648e+00
1	 1.583456774463209e+00	 9.703849101432068e-01	-2.435471468255550e+00
1	 1.560344399219624e+00	 1.007128305398779e+00	-2.714697912879176e+00
1	 1.536318751086516e+00	 1.043411064661160e+00	-2.988446960653987e+00
1	 1.511393414023586e+00	 1.079199631295529e+00	-3.256826071303055e+00
1	 1.485583597635527e+00	 1.114460975971175e+00	-3.519928976181844e+00
1	 1.458906111722985e+00	 1.149162694377905e+00	-3.777836684327906e+00
1	 1.704401724853298e+00	 7.899685160469485e-01	-1.001320158447273e+00
1	 1.685789369641388e+00	 8.289447911844039e-01	-1.301486253985867e+00
1	 1.666209569782980e+00	 8.676293455707107e-01	-1.594750224187935e+00
1	 1.645667706083966e+00	 9.059870620978392e-01	-1.881307281613373e+00
1	 1.624170826435769e+00	 9.439828609865253e-01	-2.161333288933349e+00
1	 1.601727655119481e+00	 9.815817973400711e-01	-2.434984679177266e+00
1	 1.578348595330558e+00	 1.018749160082554e+00	-2.702398629373817e+00
1	 1.554045724757896e+00	 1.055450571735541e+00	-2.963693490784822e+00
1	 1.528832784101138e+00	 1.091652088467495e+00	-3.218969475623979e+00
1	 1.502725158462590e+00	 1.127320299835344e+00	-3.468309596751563e+00
1	 1.475739851604538e+00	 1.162422427628394e+00	-3.711780853398960e+00
1	 1.723843847738756e+00	 7.989796926624607e-01	-1.042644701036248e+00
1	 1.705019181255459e+00	 8.384005704539781e-01	-1.334367244465788e+00
1	 1.685216034477503e+00	 8.775263998336159e-01	-1.618462874559371e+00
1	 1.664439849589679e+00	 9.163216631122383e-01	-1.895149684940489e+00
1	 1.642697754878762e+00	 9.547508803552882e-01	-2.164624964151890e+00
1	 1.619998574143785e+00	 9.927787080493798e-01	-2.427065041260030e+00
1	 1.596352829249539e+00	 1.030370039169098e+00	-2.682625402396606e+00
1	 1.571772735655205e+00	 1.067490104091865e+00	-2.931441082314013e+00
1	 1.546272190800694e+00	 1.104104571788615e+00	-3.173627331506245e+00
1	 1.519866755286288e+00	 1.140179650703110e+00	-3.409280555811923e+00
1	 1.492573626836324e+00	 1.175682188723374e+00	-3.638479521732592e+00
1	 1.743286006915225e+00	 8.079908860981183e-01	-1.076696490270559e+00
1	 1.724249028764236e+00	 8.478563673735590e-01	-1.360059074569015e+00
1	 1.704222534649843e+00	 8.874234725701906e-01	-1.635018148425646e+00
1	 1.683212028135843e+00	 9.266562834170260e-01	-1.901825670238264e+00
1	 1.661224717904513e+00	 9.655189198234653e-01	-2.160713625203030e+00
1	 1.638269527273011e+00	 1.003975639658689e+00	-2.411893734565950e+00
1	 1.614357096775676e+00	 1.041990939947049e+00	-2.655557433276697e+00
1	 1.589499779642234e+00	 1.079529658921092e+00	-2.891876121246925e+00
1	 1.563711630053150e+00	 1.116557078353497e+00	-3.121001689910151e+00
1	 1.537008384107012e+00	 1.153039025574149e+00	-3.343067322151322e+00
1	 1.509407433490556e+00	 1.188941974569088e+00	-3.558188559981525e+00
1	 1.762728197846329e+00	 8.170020942514019e-01	-1.103809173201216e+00
1	 1.743478907680883e+00	 8.573121797369063e-01	-1.378841541148152e+00
1	 1.723229065865272e+00	 8.973205614712504e-01	-1.644653308412336e+00
1	 1.701984237342403e+00	 9.369909206009391e-01	-1.901540870255456e+00
1	 1.679751711190180e+00	 9.762869768786756e-01	-2.149783716549221e+00
1	 1.656540510244046e+00	 1.015172589555555e+00	-2.389643944062895e+00
1	 1.632361393708079e+00	 1.053611859705047e+00	-2.621366014878061e+00
1	 1.607226852582776e+00	 1.091569233414182e+00	-2.845176767501361e+00
1	 1.581151097789407e+00	 1.129009605256747e+00	-3.061285683997828e+00
1	 1.554150040925147e+00	 1.165898421448132e+00	-3.269885413080129e+00
1	 1.526241267639453e+00	 1.202201782071776e+00	-3.471152545619195e+00
1	 1.782170415995694e+00	 8.260133150197916e-01	-1.124301838524197e+00
1	 1.762708813518560e+00	 8.667680053377796e-01	-1.390982232085486e+00
1	 1.742235623689065e+00	 9.072176642276093e-01	-1.647595263691347e+00
1	 1.720756472829302e+00	 9.473255722527139e-01	-1.894491943911718e+00
1	 1.698278730412917e+00	 9.870550490085385e-01	-2.132011632766428e+00
1	 1.674811518793775e+00	 1.026369555127533e+00	-2.360481295489418e+00
1	 1.650365715845859e+00	 1.065232795731732e+00	-2.580214962726564e+00
1	 1.624953950340622e+00	 1.103608824762093e+00	-2.791513403347839e+00
1	 1.598590589940360e+00	 1.141462149592976e+00	-2.994664015294551e+00
1	 1.571291721741080e+00	 1.178757835324731e+00	-3.189940936970177e+00
1	 1.543075125355226e+00	 1.215461608137680e+00	-3.377605378665582e+00
1	 1.801612656826940e+00	 8.350245463007669e-01	-1.138479801923001e+00
1	 1.781938741790431e+00	 8.762238419699399e-01	-1.396737184869522e+00
1	 1.761242203686495e+00	 9.171147785300816e-01	-1.644061128434516e+00
1	 1.739528730216487e+00	 9.576602359610873e-01	-1.880867060302321e+00
1	 1.716805771249882e+00	 9.978231337006733e-01	-2.107566152684715e+00
1	 1.693082548659087e+00	 1.037566533762180e+00	-2.324564263008311e+00
1	 1.668370058988125e+00	 1.076853745315740e+00	-2.532261018232284e+00
1	 1.642681068779564e+00	 1.115648430155785e+00	-2.731049052824580e+00
1	 1.616030102436909e+00	 1.153914708456790e+00	-2.921313408382979e+00
1	 1.588433422555199e+00	 1.191617264203621e+00	-3.103431100678471e+00
1	 1.559909002710091e+00	 1.228721449673042e+00	-3.277770857560155e+00
1	 1.821054915803694e+00	 8.440357859918090e-01	-1.146635341122282e+00
1	 1.801168688009655e+00	 8.856796874271466e-01	-1.396351503000069e+00
1	 1.780248801422833e+00	 9.270119020694817e-01	-1.634258744507150e+00
1	 1.758301005123898e+00	 9.679949093147947e-01	-1.860846351710103e+00
1	 1.735332829378233e+00	 1.008591228442700e+00	-2.076608845728760e+00
1	 1.711353595576871e+00	 1.048763522847052e+00	-2.282044550756295e+00
1	 1.686374418933987e+00	 1.088474705745714e+00	-2.477654226091700e+00
1	 1.660408203763395e+00	 1.127688046786220e+00	-2.663939774295531e+00
1	 1.633469631209950e+00	 1.166367278942797e+00	-2.841403036481474e+00
1	 1.605575139367890e+00	 1.204476705084473e+00	-3.010544684478286e+00
1	 1.576742895776263e+00	 1.241981303584101e+00	-3.171863218159140e+00
1	 1.840497188389576e+00	 8.530470319903963e-01	-1.149048384369918e+00
1	 1.820398647689395e+00	 8.951355395031599e-01	-1.390059933339072e+00
1	 1.799255412463354e+00	 9.369090325366246e-01	-1.618387171044634e+00
1	 1.777073293171482e+00	 9.783295899025729e-01	-1.834602337915357e+00
1	 1.753859900475124e+00	 1.019359330722237e+00	-2.039294452513525e+00
1	 1.729624655284013e+00	 1.059960519769706e+00	-2.233067450219481e+00
1	 1.704378791482555e+00	 1.100095674310290e+00	-2.416538287778537e+00
1	 1.678135351155906e+00	 1.139727671844354e+00	-2.590335028136597e+00
1	 1.650909172190383e+00	 1.178819858145604e+00	-2.755094920058574e+00
1	 1.622716868179541e+00	 1.217336154966959e+00	-2.911462486899566e+00
1	 1.593576800625957e+00	 1.255241166777101e+00	-3.060087638582982e+00
1	 1.859939470048212e+00	 8.620582821940106e-01	-1.145987155753912e+00
1	 1.839628616342812e+00	 9.045913959917403e-01	-1.378087407263790e+00
1	 1.818262032373329e+00	 9.468061676223235e-01	-1.596637143334509e+00
1	 1.795845589979181e+00	 9.886642753131590e-01	-1.802300323903148e+00
1	 1.772386980217713e+00	 1.030127438026905e+00	-1.995771241578022e+00
1	 1.747895723517399e+00	 1.071157521917696e+00	-2.177772175202747e+00
1	 1.722383172432940e+00	 1.111716648298109e+00	-2.349050892871890e+00
1	 1.695862506820890e+00	 1.151767302521149e+00	-2.510378021369418e+00
1	 1.668348721309104e+00	 1.191272443159819e+00	-2.662544300455798e+00
1	 1.639858604990538e+00	 1.230195610850753e+00	-2.806357741679520e+00
1	 1.610410713331387e+00	 1.268501036158282e+00	-2.942640712411817e+00
1	 1.879381756243224e+00	 8.710695345001308e-01	-1.137708780478927e+00
1	 1.858858589483066e+00	 9.140472546866473e-01	-1.360649548242670e+00
1	 1.837268656718033e+00	 9.567033050173938e-01	-1.569191503225984e+00
1	 1.814617891166941e+00	 9.989989631352880e-01	-1.764098772893872e+00
1	 1.790914064283155e+00	 1.040895547844322e+00	-1.946181343984550e+00
1	 1.766166796013919e+00	 1.082354526678580e+00	-2.116292176015080e+00
1	 1.740387557584249e+00	 1.123337624997809e+00	-2.275324029826419e+00
1	 1.713589666622138e+00	 1.163806936007564e+00	-2.424206030911416e+00
1	 1.685788274497012e+00	 1.203725031080052e+00	-2.563899990328115e+00
1	 1.657000345801269e+00	 1.243055069735527e+00	-2.695396508842377e+00
1	 1.627244629964768e+00	 1.281760908633884e+00	-2.819710892520176e+00
1	 1.458906111722985e+00	 1.149162694377905e+00	-3.777836684327906e+00
1	 1.431379329760570e+00	 1.183273106679658e+00	-4.032941059833645e+00
1	 1.403023137342918e+00	 1.216761361313720e+00	-4.288090137235157e+00
1	 1.373858898314375e+00	 1.249597516853523e+00	-4.544075501404894e+00
1	 1.343909406260533e+00	 1.281752627102357e+00	-4.801731211964646e+00
1	 1.313198825663916e+00	 1.313198825663916e+00	-5.061927988351435e+00
1	 1.281752627102357e+00	 1.343909406260533e+00	-5.325567066299399e+00
1	 1.249597516853523e+00	 1.373858898314376e+00	-5.593573782713277e+00
1	 1.216761361313719e+00	 1.403023137342919e+00	-5.866890949256494e+00
1	 1.183273106679656e+00	 1.431379329760570e+00	-6.146472077494900e+00
1	 1.149162694377906e+00	 1.458906111722986e+00	-6.433274520078045e+00
1	 1.475739851604538e+00	 1.162422427628394e+00	-3.711780853398960e+00
1	 1.447895449005847e+00	 1.196926426469505e+00	-3.951995344331651e+00
1	 1.419212065713156e+00	 1.230801088812003e+00	-4.192160102072319e+00
1	 1.389711312079752e+00	 1.264016127747054e+00	-4.433269827287671e+00
1	 1.359416244697382e+00	 1.296542263079248e+00	-4.676375552433436e+00
1	 1.328351306872967e+00	 1.328351306872967e+00	-4.922577171459335e+00
1	 1.296542263079247e+00	 1.359416244697383e+00	-5.173015528197991e+00
1	 1.264016127747053e+00	 1.389711312079752e+00	-5.428864137096143e+00
1	 1.230801088812002e+00	 1.419212065713157e+00	-5.691320614485926e+00
1	 1.196926426469505e+00	 1.447895449005847e+00	-5.961597902053856e+00
1	 1.162422427628394e+00	 1.475739851604539e+00	-6.240915366484451e+00
1	 1.492573626836324e+00	 1.175682188723374e+00	-3.638479521732592e+00
1	 1.464411602934357e+00	 1.210579774930417e+00	-3.864117778141287e+00
1	 1.435401028079517e+00	 1.244840845792851e+00	-4.089788733467950e+00
1	 1.405563759134548e+00	 1.278434768918852e+00	-4.316664377233256e+00
1	 1.374923115697910e+00	 1.311331930113606e+00	-4.545984382324738e+00
1	 1.343503819901505e+00	 1.343503819901506e+00	-4.779047185585160e+00
1	 1.311331930113606e+00	 1.374923115697911e+00	-5.017200533575963e+00
1	 1.278434768918852e+00	 1.405563759134548e+00	-5.261831581763150e+00
1	 1.244840845792851e+00	 1.435401028079517e+00	-5.514356640900108e+00
1	 1.210579774930417e+00	 1.464411602934357e+00	-5.776210668611529e+00
1	 1.175682188723374e+00	 1.492573626836323e+00	-6.048836607043225e+00
1	 1.509407433490556e+00	 1.188941974569088e+00	-3.558188559981525e+00
1	 1.480927787692433e+00	 1.224233148876792e+00	-3.769590882958675e+00
1	 1.451590020664685e+00	 1.258880628980495e+00	-3.981271823839656e+00
1	 1.421416235779977e+00	 1.292853437004733e+00	-4.194555738588005e+00
1	 1.390430015643976e+00	 1.326121624754662e+00	-4.410843568891084e+00
1	 1.358656361214085e+00	 1.358656361214087e+00	-4.631602675616711e+00
1	 1.326121624754662e+00	 1.390430015643976e+00	-4.858356062814966e+00
1	 1.292853437004733e+00	 1.421416235779978e+00	-5.092671093044493e+00
1	 1.258880628980495e+00	 1.451590020664685e+00	-5.336147801116135e+00
1	 1.224233148876792e+00	 1.480927787692433e+00	-5.590406918178243e+00
1	 1.188941974569088e+00	 1.509407433490556e+00	-5.857077721333281e+00
1	 1.526241267639453e+00	 1.202201782071776e+00	-3.471152545619195e+00
1	 1.497443999426406e+00	 1.237886545123029e+00	-3.668684711203130e+00
1	 1.467779039691343e+00	 1.272920435099163e+00	-3.866892110663281e+00
1	 1.437268738317254e+00	 1.307272128640509e+00	-4.067227408601870e+00
1	 1.405936940917438e+00	 1.340911343551647e+00	-4.271226362238416e+00
1	 1.373808927275264e+00	 1.373808927275264e+00	-4.480496605648288e+00
1	 1.340911343551646e+00	 1.405936940917438e+00	-4.696705768466558e+00
1	 1.307272128640508e+00	 1.437268738317254e+00	-4.921569040345517e+00
1	 1.272920435099163e+00	 1.467779039691344e+00	-5.156836299358769e+00
1	 1.237886545123029e+00	 1.497443999426407e+00	-5.404278927809113e+00
1	 1.202201782071776e+00	 1.526241267639452e+00	-5.665676442435934e+00
1	 1.543075125355226e+00	 1.215461608137680e+00	-3.377605378665582e+00
1	 1.513960234282610e+00	 1.251539960483528e+00	-3.561657525906627e+00
1	 1.483968081382178e+00	 1.286960260873083e+00	-3.746919988332339e+00
1	 1.453121263047592e+00	 1.321690840461992e+00	-3.934950508239662e+00
1	 1.421443887900158e+00	 1.355701083053790e+00	-4.127394083382199e+00
1	 1.388961514549593e+00	 1.388961514549594e+00	-4.325970896011036e+00
1	 1.355701083053789e+00	 1.421443887900159e+00	-4.532463538535677e+00
1	 1.321690840461992e+00	 1.453121263047593e+00	-4.748703655615036e+00
1	 1.286960260873083e+00	 1.483968081382179e+00	-4.976558129786907e+00
1	 1.251539960483527e+00	 1.513960234282610e+00	-5.217914943280451e+00
1	 1.215461608137680e+00	 1.543075125355226e+00	-5.474668852335269e+00
1	 1.559909002710091e+00	 1.228721449673042e+00	-3.277770857560155e+00
1	 1.530476488407374e+00	 1.265193391772687e+00	-3.448756436597480e+00
1	 1.500157141959871e+00	 1.301000103026487e+00	-3.621614173942231e+00
1	 1.468973806272207e+00	 1.336109569104999e+00	-3.797984449790766e+00
1	 1.436950852973994e+00	 1.370490839810321e+00	-3.979596767769056e+00
1	 1.404114119501630e+00	 1.404114119501630e+00	-4.168257019071015e+00
1	 1.370490839810321e+00	 1.436950852973994e+00	-4.365834023305535e+00
1	 1.336109569104998e+00	 1.468973806272207e+00	-4.574245472427156e+00
1	 1.301000103026486e+00	 1.500157141959872e+00	-4.795443411627041e+00
1	 1.265193391772686e+00	 1.530476488407374e+00	-5.031399396706147e+00
1	 1.228721449673041e+00	 1.559909002710091e+00	-5.284089471143663e+00
1	 1.576742895776263e+00	 1.241981303584101e+00	-3.171863218159140e+00
1	 1.546992757947030e+00	 1.278846835804903e+00	-3.330217994465602e+00
1	 1.516346217647111e+00	 1.315039958283603e+00	-3.491222330441516e+00
1	 1.484826364292312e+00	 1.350528311205340e+00	-3.656577561728984e+00
1	 1.452457832520805e+00	 1.385280610370470e+00	-3.828073767590959e+00
1	 1.419266738595926e+00	 1.419266738595926e+00	-4.007576556876224e+00
1	 1.385280610370470e+00	 1.452457832520806e+00	-4.197013128427590e+00
1	 1.350528311205339e+00	 1.484826364292312e+00	-4.398357736946724e+00
1	 1.315039958283602e+00	 1.516346217647111e+00	-4.613616702846919e+00
1	 1.278846835804903e+00	 1.546992757947030e+00	-4.844813110219176e+00
1	 1.241981303584101e+00	 1.576742895776263e+00	-5.093971340613872e+00
1	 1.593576800625957e+00	 1.255241166777101e+00	-3.060087638582982e+00
1	 1.563509039047912e+00	 1.292500289394579e+00	-3.206268749819158e+00
1	 1.532535304666578e+00	 1.329079823368659e+00	-3.355981650301326e+00
1	 1.500678933409121e+00	 1.364947063398830e+00	-3.510967673982401e+00
1	 1.467964822922453e+00	 1.400070391283467e+00	-3.673054315937796e+00
1	 1.434419368297037e+00	 1.434419368297038e+00	-3.844141723471790e+00
1	 1.400070391283467e+00	 1.467964822922453e+00	-4.026188476770315e+00
1	 1.364947063398829e+00	 1.500678933409122e+00	-4.221196792856882e+00
1	 1.329079823368658e+00	 1.532535304666579e+00	-4.431197293955177e+00
1	 1.292500289394578e+00	 1.563509039047913e+00	-4.658233486748093e+00
1	 1.255241166777101e+00	 1.593576800625956e+00	-4.904346102359781e+00
1	 1.610410713331387e+00	 1.268501036158282e+00	-2.942640712411817e+00
1	 1.580025327856351e+00	 1.306153749356111e+00	-3.077125774590955e+00
1	 1.548724399240959e+00	 1.343119695005886e+00	-3.216119402591176e+00
1	 1.516531509923849e+00	 1.379365822321282e+00	-3.361382666509031e+00
1	 1.483471820560796e+00	 1.414860179098542e+00	-3.514758055579937e+00
1	 1.449572005069518e+00	 1.449572005069519e+00	-3.678155854468250e+00
1	 1.414860179098542e+00	 1.483471820560796e+00	-3.853539841311784e+00
1	 1.379365822321282e+00	 1.516531509923851e+00	-4.042912442153069e+00
1	 1.343119695005886e+00	 1.548724399240959e+00	-4.248299483381130e+00
1	 1.306153749356111e+00	 1.580025327856351e+00	-4.471734688832722e+00
1	 1.268501036158281e+00	 1.610410713331387e+00	-4.715244071173181e+00
1	 1.627244629964768e+00	 1.281760908633884e+00	-2.819710892520176e+00
1	 1.596541620518678e+00	 1.319807212503900e+00	-2.942997152424437e+00
1	 1.564913497592937e+00	 1.357159569919514e+00	-3.071853446109800e+00
1	 1.532384090137712e+00	 1.393784584608510e+00	-3.208040983834732e+00
1	 1.498978821817692e+00	 1.429649970364926e+00	-3.353395534940919e+00
1	 1.464724645377923e+00	 1.464724645377924e+00	-3.509813866233038e+00
1	 1.429649970364925e+00	 1.498978821817692e+00	-3.679239551172302e+00
1	 1.393784584608510e+00	 1.532384090137712e+00	-3.863648283550568e+00
1	 1.357159569919513e+00	 1.564913497592937e+00	-4.065032835767620e+00
1	 1.319807212503899e+00	 1.596541620518678e+00	-4.285387806344599e+00
1	 1.281760908633884e+00	 1.627244629964768e+00	-4.526694303791274e+00
1	 1.149162694377906e+00	 1.458906111722986e+00	-6.433274520078045e+00
1	 1.114460975971175e+00	 1.485583597635528e+00	-6.732498902198693e+00
1	 1.079199631295528e+00	 1.511393414023587e+00	-7.048765743633648e+00
1	 1.043411064661159e+00	 1.536318751086516e+00	-7.382140149446013e+00
1	 1.007128305398779e+00	 1.560344399219625e+00	-7.732656235384622e+00
1	 9.703849101432062e-01	 1.583456774463210e+00	-8.100313315833978e+00
1	 9.332148642295562e-01	 1.605643936898379e+00	-8.485072354553912e+00
1	 8.956524827850918e-01	 1.626895601998761e+00	-8.886852715996392e+00
1	 8.577323120906617e-01	 1.647203145001002e+00	-9.305529250829633e+00
1	 8.194890317710750e-01	 1.666559598408866e+00	-9.740929744734220e+00
1	 7.809573583541024e-01	 1.684959642795230e+00	-1.019283275465164e+01
1	 1.162422427628394e+00	 1.475739851604539e+00	-6.240915366484451e+00
1	 1.127320299835343e+00	 1.502725158462590e+00	-6.534650291078747e+00
1	 1.091652088467494e+00	 1.528832784101138e+00	-6.847320534319826e+00
1	 1.055450571735540e+00	 1.554045724757897e+00	-7.178822338845359e+00
1	 1.018749160082554e+00	 1.578348595330559e+00	-7.529005537545031e+00
1	 9.815817973400707e-01	 1.601727655119481e+00	-7.897671535659541e+00
1	 9.439828609865246e-01	 1.624170826435769e+00	-8.284571625229793e+00
1	 9.059870620978389e-01	 1.645667706083967e+00	-8.689405650544311e+00
1	 8.676293455707101e-01	 1.666209569782980e+00	-9.111821038982619e+00
1	 8.289447911844033e-01	 1.685789369641389e+00	-9.551412207258732e+00
1	 7.899685160469486e-01	 1.704401724853299e+00	-1.000772034860877e+01
1	 1.175682188723374e+00	 1.492573626836323e+00	-6.048836607043225e+00
1	 1.140179650703110e+00	 1.519866755286289e+00	-6.337710940917636e+00
1	 1.104104571788615e+00	 1.546272190800694e+00	-6.647206114339421e+00
1	 1.067490104091864e+00	 1.571772735655205e+00	-6.977063636132117e+00
1	 1.030370039169098e+00	 1.596352829249539e+00	-7.326964563483251e+00
1	 9.927787080493794e-01	 1.619998574143786e+00	-7.696529147024492e+00
1	 9.547508803552879e-01	 1.642697754878762e+00	-8.085316871030914e+00
1	 9.163216631122378e-01	 1.664439849589679e+00	-8.492826889652997e+00
1	 8.775263998336150e-01	 1.685216034477503e+00	-8.918498855776150e+00
1	 8.384005704539776e-01	 1.705019181255459e+00	-9.361714134887892e+00
1	 7.989796926624605e-01	 1.723843847738756e+00	-9.821797392283230e+00
1	 1.188941974569088e+00	 1.509407433490556e+00	-5.857077721333281e+00
1	 1.153039025574149e+00	 1.537008384107013e+00	-6.141665750426348e+00
1	 1.116557078353496e+00	 1.563711630053150e+00	-6.448361430823711e+00
1	 1.079529658921091e+00	 1.589499779642234e+00	-6.776765114980829e+00
1	 1.041990939947049e+00	 1.614357096775676e+00	-7.126404011963603e+00
1	 1.003975639658688e+00	 1.638269527273011e+00	-7.496733367348661e+00
1	 9.655189198234646e-01	 1.661224717904514e+00	-7.887138094331805e+00
1	 9.266562834170257e-01	 1.683212028135843e+00	-8.296934840600638e+00
1	 8.874234725701901e-01	 1.704222534649843e+00	-8.725374471167072e+00
1	 8.478563673735584e-01	 1.724249028764236e+00	-9.171644943323702e+00
1	 8.079908860981183e-01	 1.743286006915225e+00	-9.634874546236711e+00
1	 1.202201782071776e+00	 1.526241267639452e+00	-5.665676442435934e+00
1	 1.165898421448131e+00	 1.554150040925147e+00	-5.946500279755869e+00
1	 1.129009605256747e+00	 1.581151097789408e+00	-6.250728119492225e+00
1	 1.091569233414181e+00	 1.607226852582776e+00	-6.577832208333095e+00
1	 1.053611859705047e+00	 1.632361393708079e+00	-6.927200280801161e+00
1	 1.015172589555554e+00	 1.656540510244046e+00	-7.298138148687089e+00
1	 9.762869768786748e-01	 1.679751711190179e+00	-7.689872791206888e+00
1	 9.369909206009385e-01	 1.701984237342403e+00	-8.101555915432668e+00
1	 8.973205614712498e-01	 1.723229065865273e+00	-8.532267952170560e+00
1	 8.573121797369054e-01	 1.743478907680883e+00	-8.981022448615441e+00
1	 8.170020942514019e-01	 1.762728197846329e+00	-9.446770815847971e+00
1	 1.215461608137680e+00	 1.543075125355226e+00	-5.474668852335269e+00
1	 1.178757835324731e+00	 1.571291721741080e+00	-5.752200714584541e+00
1	 1.141462149592975e+00	 1.598590589940361e+00	-6.054250358184618e+00
1	 1.103608824762092e+00	 1.624953950340622e+00	-6.380174470805920e+00
1	 1.065232795731731e+00	 1.650365715845860e+00	-6.729235156184456e+00
1	 1.026369555127532e+00	 1.674811518793775e+00	-7.100603810549801e+00
1	 9.870550490085379e-01	 1.698278730412917e+00	-7.493365542821490e+00
1	 9.473255722527137e-01	 1.720756472829303e+00	-7.906524094443476e+00
1	 9.072176642276085e-01	 1.742235623689066e+00	-8.339007210358982e+00
1	 8.667680053377792e-01	 1.762708813518561e+00	-8.789672408979897e+00
1	 8.260133150197916e-01	 1.782170415995694e+00	-9.257313096112975e+00
1	 1.228721449673041e+00	 1.559909002710091e+00	-5.284089471143663e+00
1	 1.191617264203620e+00	 1.588433422555199e+00	-5.558753832529637e+00
1	 1.153914708456789e+00	 1.616030102436909e+00	-5.858874729872429e+00
1	 1.115648430155785e+00	 1.642681068779564e+00	-6.183705356478137e+00
1	 1.076853745315740e+00	 1.668370058988126e+00	-6.532395522106843e+00
1	 1.037566533762179e+00	 1.693082548659087e+00	-6.903996696487364e+00
1	 9.978231337006730e-01	 1.716805771249883e+00	-7.297467633270050e+00
1	 9.576602359610864e-01	 1.739528730216486e+00	-7.711680517911429e+00
1	 9.171147785300811e-01	 1.761242203686496e+00	-8.145427578648745e+00
1	 8.762238419699393e-01	 1.781938741790431e+00	-8.597428096276786e+00
1	 8.350245463007668e-01	 1.801612656826940e+00	-9.066335745907539e+00
1	 1.241981303584101e+00	 1.576742895776263e+00	-5.093971340613872e+00
1	 1.204476705084472e+00	 1.605575139367891e+00	-5.366146971709760e+00
1	 1.166367278942796e+00	 1.633469631209951e+00	-5.664550094443104e+00
1	 1.127688046786219e+00	 1.660408203763395e+00	-5.988342010905951e+00
1	 1.088474705745714e+00	 1.686374418933987e+00	-6.336573088403934e+00
1	 1.048763522847052e+00	 1.711353595576872e+00	-6.708188852666676e+00
1	 1.008591228442700e+00	 1.735332829378234e+00	-7.102036691885758e+00
1	 9.679949093147937e-01	 1.758301005123898e+00	-7.516873103977139e+00
1	 9.270119020694810e-01	 1.780248801422833e+00	-7.951371415187517e+00
1	 8.856796874271460e-01	 1.801168688009655e+00	-8.404129894924868e+00
1	 8.440357859918088e-01	 1.821054915803693e+00	-8.873680189512021e+00
1	 1.255241166777101e+00	 1.593576800625956e+00	-4.904346102359781e+00
1	 1.217336154966959e+00	 1.622716868179541e+00	-5.174368001299169e+00
1	 1.178819858145603e+00	 1.650909172190383e+00	-5.471227468607260e+00
1	 1.139727671844354e+00	 1.678135351155907e+00	-5.794005076316262e+00
1	 1.100095674310289e+00	 1.704378791482556e+00	-6.141664136022390e+00
1	 1.059960519769705e+00	 1.729624655284013e+00	-6.513057726811843e+00
1	 1.019359330722237e+00	 1.753859900475125e+00	-6.906936358212850e+00
1	 9.783295899025725e-01	 1.777073293171482e+00	-7.321956190732104e+00
1	 9.369090325366237e-01	 1.799255412463354e+00	-7.756687732338114e+00
1	 8.951355395031593e-01	 1.820398647689395e+00	-8.209624926229603e+00
1	 8.530470319903964e-01	 1.840497188389576e+00	-8.679194543382410e+00
1	 1.268501036158281e+00	 1.610410713331387e+00	-4.715244071173181e+00
1	 1.230195610850753e+00	 1.639858604990539e+00	-4.983405293928155e+00
1	 1.191272443159819e+00	 1.668348721309105e+00	-5.278859913335312e+00
1	 1.151767302521148e+00	 1.695862506820890e+00	-5.600618509013308e+00
1	 1.111716648298108e+00	 1.722383172432940e+00	-5.947569278259083e+00
1	 1.071157521917696e+00	 1.747895723517399e+00	-6.318485886019750e+00
1	 1.030127438026904e+00	 1.772386980217713e+00	-6.712035967983605e+00
1	 9.886642753131583e-01	 1.795845589979182e+00	-7.126790200746770e+00
1	 9.468061676223229e-01	 1.818262032373330e+00	-7.561231848923819e+00
1	 9.045913959917398e-01	 1.839628616342812e+00	-8.013766696264170e+00
1	 8.620582821940106e-01	 1.859939470048212e+00	-8.482733266321457e+00
1	 1.281760908633884e+00	 1.627244629964768e+00	-4.526694303791274e+00
1	 1.243055069735527e+00	 1.657000345801269e+00	-4.793247699795855e+00
1	 1.203725031080051e+00	 1.685788274497013e+00	-5.087402428278518e+00
1	 1.163806936007563e+00	 1.713589666622138e+00	-5.408109408114942e+00
1	 1.123337624997809e+00	 1.740387557584249e+00	-5.754193236814900e+00
1	 1.082354526678579e+00	 1.766166796013919e+00	-6.124360752085019e+00
1	 1.040895547844321e+00	 1.790914064283156e+00	-6.517210258579880e+00
1	 9.989989631352876e-01	 1.814617891166942e+00	-6.931241326414275e+00
1	 9.567033050173931e-01	 1.837268656718033e+00	-7.364865064050911e+00
1	 9.140472546866468e-01	 1.858858589483067e+00	-7.816414765598534e+00
1	 8.710695345001309e-01	 1.879381756243224e+00	-8.284156831355913e+00
1	 7.809573583541024e-01	 1.684959642795230e+00	-1.019283275465164e+01
1	 7.421746719611046e-01	 1.702398405748905e+00	-1.065679045292547e+01
1	 7.031727782236229e-01	 1.718875141245223e+00	-1.112796368679254e+01
1	 6.639859295510238e-01	 1.734389365467405e+00	-1.160533337990021e+01
1	 6.246480533545917e-01	 1.748942143044666e+00	-1.208778915265389e+01
1	 5.851926696033319e-01	 1.762536048299222e+00	-1.257414207367042e+01
1	 5.456528123404050e-01	 1.775175121623439e+00	-1.306313752714043e+01
1	 5.060609554580128e-01	 1.786864821392816e+00	-1.355346807277137e+01
1	 4.664489429856349e-01	 1.797611971837010e+00	-1.404378618097459e+01
1	 4.268479241032159e-01	 1.807424707302928e+00	-1.453271673316139e+01
1	 3.872882930476569e-01	 1.816312413351174e+00	-1.501886918524569e+01
1	 7.899685160469486e-01	 1.704401724853299e+00	-1.000772034860877e+01
1	 7.507383315941218e-01	 1.722041706786691e+00	-1.047590711085769e+01
1	 7.112864104500525e-01	 1.738708560808818e+00	-1.095108902787262e+01
1	 6.716474002490942e-01	 1.754401797520338e+00	-1.143253047161087e+01
1	 6.318556198774976e-01	 1.769122493834808e+00	-1.191940832852872e+01
1	 5.919449760779159e-01	 1.782873253778531e+00	-1.241082246471406e+01
1	 5.519488840602548e-01	 1.795658164364369e+00	-1.290580637788685e+01
1	 5.119001924200984e-01	 1.807482746949860e+00	-1.340333793009399e+01
1	 4.718311126225743e-01	 1.818353904506750e+00	-1.390235005916060e+01
1	 4.317731532656797e-01	 1.828279865240958e+00	-1.440174137230387e+01
1	 3.917570592933806e-01	 1.837270123009362e+00	-1.490038653161109e+01
1	 7.989796926624605e-01	 1.723843847738756e+00	-9.821797392283230e+00
1	 7.593020092101597e-01	 1.741685049074432e+00	-1.029358193347357e+01
1	 7.194000597145590e-01	 1.758542022021641e+00	-1.077218458984520e+01
1	 6.793088870358278e-01	 1.774414271598466e+00	-1.125714831631745e+01
1	 6.390632015359996e-01	 1.789302887002826e+00	-1.174793269414606e+01
1	 5.986972967321857e-01	 1.803210501965179e+00	-1.224392210816455e+01
1	 5.582449690018323e-01	 1.816141250118972e+00	-1.274443417969241e+01
1	 5.177394416446899e-01	 1.828100715803918e+00	-1.324872836626042e+01
1	 4.772132935623017e-01	 1.839095880734015e+00	-1.375601464180222e+01
1	 4.366983927714694e-01	 1.849135066974389e+00	-1.426546217444772e+01
1	 3.962258349239570e-01	 1.858227876678418e+00	-1.477620792342548e+01
1	 8.079908860981183e-01	 1.743286006915225e+00	-9.634874546236709e+00
1	 7.678657028110917e-01	 1.761328428028801e+00	-1.010962854747874e+01
1	 7.275137241239994e-01	 1.778375520256003e+00	-1.059106739907517e+01
1	 6.869703881235610e-01	 1.794426783032323e+00	-1.107900796580180e+01
1	 6.462707966483204e-01	 1.809483317840069e+00	-1.157318813966531e+01
1	 6.054496299905661e-01	 1.823547788113904e+00	-1.207327272699589e+01
1	 5.645410656959918e-01	 1.836624374107953e+00	-1.257885965789911e+01
1	 5.235787017692134e-01	 1.848718723144213e+00	-1.308948644671967e+01
1	 4.825954845488706e-01	 1.859837895679079e+00	-1.360463683293570e+01
1	 4.416236414712388e-01	 1.869990307637065e+00	-1.412374753354594e+01
1	 4.006946188965311e-01	 1.879185669468245e+00	-1.464621504045758e+01
1	 8.170020942514019e-01	 1.762728197846329e+00	-9.446770815847971e+00
1	 7.764294103987915e-01	 1.780971839066468e+00	-9.923868792894959e+00
1	 7.356274017852302e-01	 1.798209050884207e+00	-1.040756254459169e+01
1	 6.946319017246304e-01	 1.814439327152442e+00	-1.089793835624036e+01
1	 6.534784035326823e-01	 1.829663781637883e+00	-1.139500822550932e+01
1	 6.122019742774807e-01	 1.843885107479449e+00	-1.189871345646106e+01
1	 5.708371726735894e-01	 1.857107531552014e+00	-1.240892864058080e+01
1	 5.294179714310955e-01	 1.869336764159963e+00	-1.292546597113805e+01
1	 4.879776843263354e-01	 1.880579944502219e+00	-1.344807983625745e+01
1	 4.465488982156418e-01	 1.890845582362831e+00	-1.397647163588361e+01
1	 4.051634101682481e-01	 1.900143496488748e+00	-1.451029476834749e+01
1	 8.260133150197916e-01	 1.782170415995694e+00	-9.257313096112975e+00
1	 7.849931299751333e-01	 1.800615277604106e+00	-9.736132274982346e+00
1	 7.437410908051082e-01	 1.818042609278566e+00	-1.022150273817724e+01
1	 7.022934260513709e-01	 1.834451899289357e+00	-1.071377587796652e+01
1	 6.606860205073066e-01	 1.849844273687616e+00	-1.121323376375596e+01
1	 6.189543280173545e-01	 1.864222455316552e+00	-1.172009043950578e+01
1	 5.771332884654787e-01	 1.877590717671858e+00	-1.223449367079176e+01
1	 5.352572492677622e-01	 1.889954834040390e+00	-1.275652710569979e+01
1	 4.933598916387497e-01	 1.901322022363710e+00	-1.328621281107944e+01
1	 4.514741618553322e-01	 1.911700886285531e+00	-1.382351414365931e+01
1	 4.096322076962525e-01	 1.921101352849829e+00	-1.436833891413108e+01
1	 8.350245463007668e-01	 1.801612656826940e+00	-9.066335745907539e+00
1	 7.935568595419912e-01	 1.820258739058387e+00	-9.546255945163450e+00
1	 7.518547892904897e-01	 1.837876190811385e+00	-1.003272790293001e+01
1	 7.099549593161204e-01	 1.854464494773603e+00	-1.052636397308044e+01
1	 6.678936458904158e-01	 1.870024789280614e+00	-1.102771242662461e+01
1	 6.257066896346114e-01	 1.884559826879955e+00	-1.153725644836901e+01
1	 5.834294116025148e-01	 1.898073927688186e+00	-1.205541364391228e+01
1	 5.410965339166404e-01	 1.910572927974714e+00	-1.258253603920669e+01
1	 4.987421052301673e-01	 1.922064124423826e+00	-1.311891055055328e+01
1	 4.563994312409638e-01	 1.932556214539009e+00	-1.366475989904633e+01
1	 4.141010104376896e-01	 1.942059233661392e+00	-1.422024394017732e+01
1	 8.440357859918088e-01	 1.821054915803693e+00	-8.873680189512021e+00
1	 8.021205971012392e-01	 1.839902218845981e+00	-9.354083708782561e+00
1	 7.599684953482307e-01	 1.857709790854971e+00	-9.841084788172072e+00
1	 7.176164997312134e-01	 1.874477108935713e+00	-1.033555275882472e+01
1	 6.751012780002318e-01	 1.890205323708224e+00	-1.083829838003260e+01
1	 6.324590575536765e-01	 1.904897217424397e+00	-1.135007053041418e+01
1	 5.897255406155534e-01	 1.918557156821703e+00	-1.187155346821687e+01
1	 5.469358240151559e-01	 1.931191041152156e+00	-1.240336466119962e+01
1	 5.041243238446420e-01	 1.942806245842842e+00	-1.294605318049863e+01
1	 4.613247052231904e-01	 1.953411562257110e+00	-1.350009864720458e+01
1	 4.185698173497043e-01	 1.963017134033341e+00	-1.406591071516240e+01
1	 8.530470319903964e-01	 1.840497188389576e+00	-8.679194543382410e+00
1	 8.106843406547507e-01	 1.859545712383560e+00	-9.159466057716463e+00
1	 7.680822070851889e-01	 1.877543404781634e+00	-9.646426608756517e+00
1	 7.252780455089873e-01	 1.894489737106221e+00	-1.014119867482305e+01
1	 6.823089151549768e-01	 1.910385872261793e+00	-1.064485194036877e+01
1	 6.392114301989736e-01	 1.925234622204618e+00	-1.115839767639945e+01
1	 5.960216740354481e-01	 1.939040400293112e+00	-1.168278374694779e+01
1	 5.527751182007359e-01	 1.951809168761937e+00	-1.221889026047283e+01
1	 5.095065462262280e-01	 1.963548381781033e+00	-1.276752587731369e+01
1	 4.662499826526660e-01	 1.974266924573678e+00	-1.332942477684134e+01
1	 4.230386273894415e-01	 1.983975049075579e+00	-1.390524428082207e+01
1	 8.620582821940106e-01	 1.859939470048212e+00	-8.482733266321457e+00
1	 8.192480882044003e-01	 1.879189215087796e+00	-8.962259726019260e+00
1	 7.761959226082200e-01	 1.897377027963681e+00	-9.448612706988415e+00
1	 7.329395948617772e-01	 1.914502374615661e+00	-9.943164152435076e+00
1	 6.895165556728725e-01	 1.930566430232668e+00	-1.044723925278625e+01
1	 6.459638059949274e-01	 1.945572036475360e+00	-1.096210850954616e+01
1	 6.023178103930545e-01	 1.959523653323115e+00	-1.148898048032164e+01
1	 5.586144151108060e-01	 1.972427305993276e+00	-1.202899524249108e+01
1	 5.148887711189789e-01	 1.984290527398675e+00	-1.258321860357094e+01
1	 4.711752623800443e-01	 1.995122296622557e+00	-1.315263707703827e+01
1	 4.275074395140459e-01	 2.004932973898010e+00	-1.373815363332722e+01
1	 8.710695345001309e-01	 1.879381756243224e+00	-8.284156831355913e+00
1	 8.278118377520619e-01	 1.898832722375362e+00	-8.762327366933409e+00
1	 7.843096400241808e-01	 1.917210655773421e+00	-9.247508235522734e+00
1	 7.406011460019200e-01	 1.934515016794567e+00	-9.741317304627403e+00
1	 6.967241978721410e-01	 1.950746992912197e+00	-1.024533198945590e+01
1	 6.527161833659616e-01	 1.965909455491361e+00	-1.076107899390021e+01
1	 6.086139482192269e-01	 1.980006911132415e+00	-1.129002478602557e+01
1	 5.644537133827929e-01	 1.993045448035395e+00	-1.183356686433968e+01
1	 5.202709972669484e-01	 2.005032677856041e+00	-1.239302586001898e+01
1	 4.761005432559790e-01	 2.015977673537592e+00	-1.296963850916636e+01
1	 4.319762526806628e-01	 2.025890903610537e+00	-1.356455151822472e+01
1	 3.872882930476569e-01	 1.816312413351174e+00	-1.501886918524569e+01
1	 3.477968796677059e-01	 1.824286191652841e+00	-1.550063834206187e+01
1	 3.084052185569802e-01	 1.831357091725543e+00	-1.597497895078615e+01
1	 2.691411726874370e-01	 1.837537878024554e+00	-1.643844955004539e+01
1	 2.300316578183539e-01	 1.842842308152661e+00	-1.688764905632172e+01
1	 1.911026079496569e-01	 1.847285064598040e+00	-1.731924565096196e+01
1	 1.523789458479289e-01	 1.850881685880502e+00	-1.773000353204911e+01
1	 1.138845585485418e-01	 1.853648497489467e+00	-1.811680742426977e+01
1	 7.564227770892655e-02	 1.855602542976825e+00	-1.847668477036159e+01
1	 3.767386466247289e-02	 1.856761515545723e+00	-1.880682555685514e+01
1	 0.000000000000000e+00	 1.857143690452778e+00	-1.910459975431582e+01
1	 3.917570592933806e-01	 1.837270123009362e+00	-1.490038653161109e+01
1	 3.518099701334236e-01	 1.845335907580847e+00	-1.539657756040172e+01
1	 3.119637842446042e-01	 1.852488395969041e+00	-1.588689579442632e+01
1	 2.722466860986674e-01	 1.858740499913217e+00	-1.636774539757823e+01
1	 2.326859020251668e-01	 1.864106135759700e+00	-1.683556042521192e+01
1	 1.933076652661726e-01	 1.868600155412089e+00	-1.728683573557997e+01
1	 1.541371861621911e-01	 1.872238276683024e+00	-1.771815570639254e+01
1	 1.151986273716257e-01	 1.875037013435292e+00	-1.812622063648588e+01
1	 7.651508399735146e-02	 1.877013605879581e+00	-1.850787074469590e+01
1	 3.810856846815684e-02	 1.878185951373907e+00	-1.886010770883321e+01
1	 0.000000000000000e+00	 1.878572536045842e+00	-1.918011371681509e+01
1	 3.962258349239570e-01	 1.858227876678418e+00	-1.477620792342548e+01
1	 3.558230690271570e-01	 1.866385667713046e+00	-1.528640174274636e+01
1	 3.155223574058037e-01	 1.873619744588180e+00	-1.579222914697405e+01
1	 2.753522060321015e-01	 1.879943166327401e+00	-1.628996194196855e+01
1	 2.353401518065299e-01	 1.885370008020897e+00	-1.677589040225552e+01
1	 1.955127272139285e-01	 1.889915290988044e+00	-1.724635612126499e+01
1	 1.558954301693282e-01	 1.893594912334690e+00	-1.769778261875348e+01
1	 1.165126989547401e-01	 1.896425574297374e+00	-1.812670357214077e+01
1	 7.738789211903384e-02	 1.898424713745996e+00	-1.852978857215160e+01
1	 3.854327318692184e-02	 1.899610432193868e+00	-1.890386633552995e+01
1	 0.000000000000000e+00	 1.900001426639956e+00	-1.924594533832375e+01
1	 4.006946188965311e-01	 1.879185669468245e+00	-1.464621504045758e+01
1	 3.598361754123613e-01	 1.887435467137861e+00	-1.517000702746238e+01
1	 3.190809372100795e-01	 1.894751132652334e+00	-1.569088959773220e+01
1	 2.784577317629480e-01	 1.901145872319824e+00	-1.620502353348722e+01
1	 2.379944065429488e-01	 1.906633919974680e+00	-1.670857574485672e+01
1	 1.977177932782478e-01	 1.911230466352363e+00	-1.719775397528398e+01
1	 1.576536774589355e-01	 1.914951587852261e+00	-1.766883922776894e+01
1	 1.178267729911433e-01	 1.917814175085018e+00	-1.811821576531437e+01
1	 7.826070187022530e-02	 1.919835861580110e+00	-1.854239857404632e+01
1	 3.897797871728502e-02	 1.921034953006521e+00	-1.893805821133261e+01
1	 0.000000000000000e+00	 1.921430357235003e+00	-1.930204299344561e+01
1	 4.051634101682481e-01	 1.900143496488748e+00	-1.451029476834749e+01
1	 3.638492883524924e-01	 1.908485300943716e+00	-1.504729412070081e+01
1	 3.226395228269336e-01	 1.915882555230876e+00	-1.558279166616797e+01
1	 2.815632625664154e-01	 1.922348612943207e+00	-1.611285784552848e+01
1	 2.406486656149288e-01	 1.927897866659472e+00	-1.663355598637772e+01
1	 1.999228629444538e-01	 1.932545676531499e+00	-1.714097878196627e+01
1	 1.594119276206082e-01	 1.936308298252500e+00	-1.763128246592457e+01
1	 1.191408491740935e-01	 1.939202810807529e+00	-1.810071852276553e+01
1	 7.913351304717732e-02	 1.941247044385958e+00	-1.854566281049972e+01
1	 3.941268495776349e-02	 1.942459508812778e+00	-1.896264200693537e+01
1	 0.000000000000000e+00	 1.942859322830867e+00	-1.934835732486091e+01
1	 4.096322076962525e-01	 1.921101352849829e+00	-1.436833891413108e+01
1	 3.678624069110055e-01	 1.929535164219033e+00	-1.491816804668200e+01
1	 3.261981134258671e-01	 1.937014007393181e+00	-1.546785358693393e+01
1	 2.846687977177125e-01	 1.943551383250271e+00	-1.601339569270091e+01
1	 2.433029284029759e-01	 1.949161843113704e+00	-1.655077328403820e+01
1	 2.021279356978695e-01	 1.953860916551905e+00	-1.707598221560183e+01
1	 1.611701802439418e-01	 1.957665038552166e+00	-1.758507113114855e+01
1	 1.204549271968491e-01	 1.960591476474211e+00	-1.807417482648054e+01
1	 8.000632544614156e-02	 1.962658257167580e+00	-1.853954498482165e+01
1	 3.984739180687441e-02	 1.963884094613554e+00	-1.897757818513679e+01
1	 0.000000000000000e+00	 1.964288318427431e+00	-1.938484111885547e+01
1	 4.141010104376896e-01	 1.942059233661392e+00	-1.422024394017732e+01
1	 3.718755301513562e-01	 1.950585052052235e+00	-1.478253791414287e+01
1	 3.297567081763816e-01	 1.958145484208620e+00	-1.534599710880247e+01
1	 2.877743364920479e-01	 1.964754178293735e+00	-1.590657086069252e+01
1	 2.459571942875953e-01	 1.970425844375802e+00	-1.646017227665908e+01
1	 2.043330110238182e-01	 1.975176181440039e+00	-1.700271802156647e+01
1	 1.629284349185315e-01	 1.979021803768024e+00	-1.753016578542247e+01
1	 1.217690067526685e-01	 1.981980167094370e+00	-1.803854924253050e+01
1	 8.087913886336957e-02	 1.984069494929014e+00	-1.852401035408835e+01
1	 4.028209916313489e-02	 1.985308705409761e+00	-1.898282890338120e+01
1	 0.000000000000000e+00	 1.985717339024578e+00	-1.941144918890646e+01
1	 4.185698173497043e-01	 1.963017134033341e+00	-1.406591071516240e+01
1	 3.758886571370000e-01	 1.971634959531745e+00	-1.464031669773998e+01
1	 3.333153062479784e-01	 1.979276980746566e+00	-1.521714730647615e+01
1	 2.908798781646300e-01	 1.985956993126318e+00	-1.579231994702990e+01
1	 2.486114626492926e-01	 1.991689865484191e+00	-1.636169995151651e+01
1	 2.065380884076232e-01	 1.996491466222354e+00	-1.692114190505883e+01
1	 1.646866912339727e-01	 2.000378588916834e+00	-1.746652865988384e+01
1	 1.230830875348099e-01	 2.003368877677309e+00	-1.799380783576410e+01
1	 8.175195309511292e-02	 2.005480752674295e+00	-1.849902564544540e+01
1	 4.071680692506207e-02	 2.006733336202315e+00	-1.897835792254094e+01
1	 0.000000000000000e+00	 2.007146379622192e+00	-1.942813826672237e+01
1	 4.230386273894415e-01	 1.983975049075579e+00	-1.390524428082207e+01
1	 3.799017869313923e-01	 1.992684881745986e+00	-1.449142103330197e+01
1	 3.368739068101589e-01	 2.000408492076393e+00	-1.508123240432095e+01
1	 2.939854220106676e-01	 2.007159822800741e+00	-1.567058221192718e+01
1	 2.512657328685733e-01	 2.012953901477299e+00	-1.625530551963060e+01
1	 2.087431673346076e-01	 2.017806765925305e+00	-1.683121142688722e+01
1	 1.664449487798605e-01	 2.021735389015359e+00	-1.739412356594208e+01
1	 1.243971692365318e-01	 2.024757603232335e+00	-1.793991808990551e+01
1	 8.262476793762319e-02	 2.026892025407465e+00	-1.846455897771274e+01
1	 4.115151499117305e-02	 2.028157981992126e+00	-1.896413052147792e+01
1	 0.000000000000000e+00	 2.028575435220155e+00	-1.943486690018672e+01
1	 4.275074395140459e-01	 2.004932973898010e+00	-1.373815363332722e+01
1	 3.839149185979886e-01	 2.013734813783382e+00	-1.433577102591900e+01
1	 3.404325090324246e-01	 2.021540013267473e+00	-1.493818361115052e+01
1	 2.970909673053693e-01	 2.028362662369725e+00	-1.554129943848533e+01
1	 2.539200043259432e-01	 2.034217947393556e+00	-1.614094029887361e+01
1	 2.109482472900945e-01	 2.039122075575346e+00	-1.673288590578944e+01
1	 1.682032071457904e-01	 2.043092199080359e+00	-1.731291581196601e+01
1	 1.257112515510925e-01	 2.046146338768752e+00	-1.787684883266166e+01
1	 8.349758318715192e-02	 2.048303308132558e+00	-1.842057978790540e+01
1	 4.158622325998498e-02	 2.049582637780111e+00	-1.894011341696191e+01
1	 0.000000000000000e+00	 2.050004500818354e+00	-1.943159535769974e+01
1	 4.319762526806628e-01	 2.025890903610537e+00	-1.356455151822472e+01
1	 3.879280512002444e-01	 2.034784750732353e+00	-1.417329006993983e+01
1	 3.439911120842769e-01	 2.042671539389181e+00	-1.478793496526220e+01
1	 3.001965133239438e-01	 2.049565506885989e+00	-1.540441580156635e+01
1	 2.565742764019076e-01	 2.055481998271383e+00	-1.601855760433073e+01
1	 2.131533277594072e-01	 2.060437390198932e+00	-1.662612632681408e+01
1	 1.699614659213576e-01	 2.064449014128598e+00	-1.722287212514157e+01
1	 1.270253341717502e-01	 2.067535079295862e+00	-1.780457016547671e+01
1	 8.437039863995066e-02	 2.069714595853613e+00	-1.836705876231282e+01
1	 4.202093163001498e-02	 2.071007298567183e+00	-1.890627468855737e+01
1	 0.000000000000000e+00	 2.071433571416667e+00	-1.941828553845610e+01
1	 2.071433571416667e+00	 0.000000000000000e+00	 6.609197711851925e+00
1	 2.071007298567182e+00	 4.202093163001555e-02	 6.013768345794730e+00
1	 2.069714595853613e+00	 8.437039863995120e-02	 5.433485410651111e+00
1	 2.067535079295861e+00	 1.270253341717507e-01	 4.871361132924003e+00
1	 2.064449014128598e+00	 1.699614659213580e-01	 4.330296406996775e+00
1	 2.060437390198933e+00	 2.131533277594077e-01	 3.813055477282484e+00
1	 2.055481998271383e+00	 2.565742764019078e-01	 3.322239986143167e+00
1	 2.049565506885989e+00	 3.001965133239439e-01	 2.860262566351749e+00
1	 2.042671539389180e+00	 3.439911120842769e-01	 2.429320175195422e+00
1	 2.034784750732354e+00	 3.879280512002444e-01	 2.031367384640857e+00
1	 2.025890903610537e+00	 4.319762526806628e-01	 1.668089857942253e+00
1	 2.092861143259980e+00	 0.000000000000000e+00	 6.404033786209325e+00
1	 2.092430460907677e+00	 4.245560959617669e-02	 5.822475664301311e+00
1	 2.091124386063405e+00	 8.524315304735298e-02	 5.255609132811838e+00
1	 2.088922323888666e+00	 1.283393248845102e-01	 4.706531887474062e+00
1	 2.085804335475403e+00	 1.717196017231107e-01	 4.178207345331063e+00
1	 2.081751214023634e+00	 2.153582540039962e-01	 3.673437574152812e+00
1	 2.076744561935723e+00	 2.592283628365182e-01	 3.194835668978447e+00
1	 2.070766868469550e+00	 3.033018421389237e-01	 2.744797775238132e+00
1	 2.063801587566209e+00	 3.475494662456074e-01	 2.325474976700715e+00
1	 2.055833215443013e+00	 3.919409031220824e-01	 1.938745284043172e+00
1	 2.046847367519760e+00	 4.364447532964779e-01	 1.586185975765741e+00
1	 2.114288717603178e+00	 0.000000000000000e+00	 6.202908333978646e+00
1	 2.113853625747539e+00	 4.289028761283678e-02	 5.634927604599329e+00
1	 2.112534178771003e+00	 8.611590755618896e-02	 5.081395257085100e+00
1	 2.110309570976637e+00	 1.296533157500447e-01	 4.545461974075382e+00
1	 2.107159659313644e+00	 1.734777377293525e-01	 4.030116623767256e+00
1	 2.103065040334922e+00	 2.175631805051277e-01	 3.538157468206159e+00
1	 2.098007128080660e+00	 2.618824495800294e-01	 3.072162936872855e+00
1	 2.091968232526561e+00	 3.064071713154292e-01	 2.634462187643420e+00
1	 2.084931638208360e+00	 3.511078208213174e-01	 2.227105696186537e+00
1	 2.076881682609269e+00	 3.959537555113420e-01	 1.851836132326780e+00
1	 2.067803833873838e+00	 4.409132544329041e-01	 1.510059797441047e+00
1	 2.135716296946142e+00	 0.000000000000000e+00	 6.005627702632055e+00
1	 2.135276795586136e+00	 4.332496573075953e-02	 5.450993908552410e+00
1	 2.133943976474208e+00	 8.698866226837164e-02	 4.910757915414917e+00
1	 2.131696823054944e+00	 1.309673069217738e-01	 4.388092006470599e+00
1	 2.128514988134760e+00	 1.752358741453403e-01	 3.885974611910046e+00
1	 2.124378871619384e+00	 2.197681075201961e-01	 3.407159826840160e+00
1	 2.119269699186794e+00	 2.645365369422423e-01	 2.954146649019262e+00
1	 2.113169601530469e+00	 3.095125012159048e-01	 2.529148182966730e+00
1	 2.106061693780753e+00	 3.546661762266980e-01	 2.134061075980506e+00
1	 2.097930154686715e+00	 3.999666088363301e-01	 1.770435468665181e+00
1	 2.088760305117629e+00	 4.453817566113962e-01	 1.439445757370108e+00
1	 2.157143883788756e+00	 0.000000000000000e+00	 5.812005933779615e+00
1	 2.156699972922836e+00	 4.375964400070866e-02	 5.270549494334880e+00
1	 2.155353781670824e+00	 8.786141728581350e-02	 4.743614653053353e+00
1	 2.153084082618757e+00	 1.322812985531171e-01	 4.234364960004401e+00
1	 2.149870324430184e+00	 1.769940111763303e-01	 3.745733653603441e+00
1	 2.145692710363607e+00	 2.219730353065954e-01	 3.280391518325077e+00
1	 2.140532277734722e+00	 2.671906252329570e-01	 2.840714652423585e+00
1	 2.134370977954724e+00	 3.126178322027947e-01	 2.428752418711345e+00
1	 2.127191756748507e+00	 3.582245328770406e-01	 2.046195870029086e+00
1	 2.118978634130946e+00	 4.039794635653531e-01	 1.694346957410863e+00
1	 2.109716783695988e+00	 4.498502603534081e-01	 1.374088842653807e+00
1	 2.178571480630902e+00	 0.000000000000000e+00	 5.621864384716037e+00
1	 2.178123160257006e+00	 4.419432247344785e-02	 5.093474201833613e+00
1	 2.176763596858654e+00	 8.873417271042701e-02	 4.579886260686258e+00
1	 2.174471352163239e+00	 1.335952907974939e-01	 4.084226055483684e+00
1	 2.171225670691354e+00	 1.787521490275793e-01	 3.609347969846318e+00
1	 2.167006559054178e+00	 2.241779641217194e-01	 3.157801503572889e+00
1	 2.161794866205041e+00	 2.698447147619743e-01	 2.731797634967495e+00
1	 2.155572364272776e+00	 3.157231646385434e-01	 2.333175620083833e+00
1	 2.148321829576744e+00	 3.617828911876364e-01	 1.963370548234681e+00
1	 2.140027123397559e+00	 4.079923201667177e-01	 1.623381988480916e+00
1	 2.130673272053770e+00	 4.543187661803940e-01	 1.313744074088756e+00
1	 2.199999089972466e+00	 0.000000000000000e+00	 5.435031372087794e+00
1	 2.199546360088013e+00	 4.462900119974082e-02	 4.919652552930842e+00
1	 2.198173424535506e+00	 8.960692864412469e-02	 4.419496616371000e+00
1	 2.195858634183561e+00	 1.349092838083238e-01	 3.937622649826000e+00
1	 2.192581029409706e+00	 1.805102879043437e-01	 3.476773567382411e+00
1	 2.188320420177683e+00	 2.263828942229620e-01	 3.039340734232365e+00
1	 2.183057467078351e+00	 2.724988058390951e-01	 2.627328987059445e+00
1	 2.176773762958072e+00	 3.188284988855949e-01	 2.242322381890885e+00
1	 2.169451914730584e+00	 3.653412515737767e-01	 1.885451018073925e+00
1	 2.161075624942148e+00	 4.120051791087305e-01	 1.557359301099630e+00
1	 2.151629772635832e+00	 4.587872746138076e-01	 1.258176017499179e+00
1	 2.221426714313330e+00	 0.000000000000000e+00	 5.251341836186320e+00
1	 2.220969574915227e+00	 4.506368023035131e-02	 4.748973525662867e+00
1	 2.219583267199179e+00	 9.047968518881908e-02	 4.262372536623650e+00
1	 2.217245931174891e+00	 1.362232777390264e-01	 3.794504133037772e+00
1	 2.213936403076679e+00	 1.822684280118800e-01	 3.347968152581601e+00
1	 2.209634296220712e+00	 2.285878258677172e-01	 2.924962056682894e+00
1	 2.204320082835248e+00	 2.751528987741196e-01	 2.527244671294084e+00
1	 2.197975176484062e+00	 3.219338353063938e-01	 2.156100981903310e+00
1	 2.190582014675150e+00	 3.688996144507528e-01	 1.812308362330012e+00
1	 2.182124141220308e+00	 4.160180408596983e-01	 1.496104629320783e+00
1	 2.172586287887028e+00	 4.632557861751034e-01	 1.207158323355419e+00
1	 2.242854356153377e+00	 0.000000000000000e+00	 5.070637024488150e+00
1	 2.242392807238013e+00	 4.549835961604302e-02	 4.581330341326909e+00
1	 2.240993127347479e+00	 9.135244244642260e-02	 4.108443636043715e+00
1	 2.238633245632396e+00	 1.375372727430212e-01	 3.654821831099007e+00
1	 2.235291794183706e+00	 1.840265695554448e-01	 3.222891050258515e+00
1	 2.230948189669850e+00	 2.307927593133788e-01	 2.814620121532537e+00
1	 2.225582715956331e+00	 2.778069938768486e-01	 2.431483099584237e+00
1	 2.219176607324195e+00	 3.250391742633842e-01	 2.074423204920272e+00
1	 2.211712131875561e+00	 3.724579802338561e-01	 1.743818591861421e+00
1	 2.203172674687636e+00	 4.200309058879276e-01	 1.439450367872732e+00
1	 2.193542820252215e+00	 4.677243013857354e-01	 1.160473292786860e+00
1	 2.264282017992491e+00	 0.000000000000000e+00	 4.892764193166415e+00
1	 2.263816059555740e+00	 4.593303940757962e-02	 4.416620263677750e+00
1	 2.262403007478211e+00	 9.222520051884783e-02	 3.957642194910468e+00
1	 2.260020580051246e+00	 1.388512689737277e-01	 3.518528914363039e+00
1	 2.256647205222224e+00	 1.857847127402946e-01	 3.101503127101404e+00
1	 2.252262103011683e+00	 2.329976948173407e-01	 2.708271298255553e+00
1	 2.246845368922198e+00	 2.804610914570828e-01	 2.339985017270557e+00
1	 2.240378057951919e+00	 3.281445161190104e-01	 1.997204176824708e+00
1	 2.232842268796937e+00	 3.760163493383776e-01	 1.679862412410568e+00
1	 2.224221227799726e+00	 4.240437746617247e-01	 1.387235256979955e+00
1	 2.214499372176251e+00	 4.721928207671577e-01	 1.117911468240718e+00
1	 2.285709702330555e+00	 0.000000000000000e+00	 4.717576325394380e+00
1	 2.285239334367776e+00	 4.636771965572492e-02	 4.254744409421091e+00
1	 2.283812910089176e+00	 9.309795950800720e-02	 3.809903034228104e+00
1	 2.281407936926607e+00	 1.401652665845655e-01	 3.385580311109384e+00
1	 2.278002638683671e+00	 1.875428577716861e-01	 2.983766719408544e+00
1	 2.273576038732799e+00	 2.352026326369968e-01	 2.605873594632230e+00
1	 2.268108044213447e+00	 2.831151918246225e-01	 2.252693393750689e+00
1	 2.261579530840685e+00	 3.312498612357169e-01	 1.924362207974296e+00
1	 2.253972427904400e+00	 3.795747221796088e-01	 1.620325004531193e+00
1	 2.245269803012173e+00	 4.280566476493967e-01	 1.339304084915480e+00
1	 2.235455946103989e+00	 4.766613448408244e-01	 1.079271247169019e+00
1	 2.025890903610537e+00	 4.319762526806628e-01	 1.668089857942253e+00
1	 2.015977673537592e+00	 4.761005432559788e-01	 1.329598040803012e+00
1	 2.005032677856041e+00	 5.202709972669480e-01	 1.005108744963825e+00
1	 1.993045448035394e+00	 5.644537133827925e-01	 6.946413826021370e-01
1	 1.980006911132414e+00	 6.086139482192265e-01	 3.979677061602320e-01
1	 1.965909455491361e+00	 6.527161833659613e-01	 1.146051214785108e-01
1	 1.950746992912197e+00	 6.967241978721409e-01	-1.561883058434792e-01
1	 1.934515016794567e+00	 7.406011460019196e-01	-4.154170232714502e-01
1	 1.917210655773421e+00	 7.843096400241804e-01	-6.643492294721683e-01
1	 1.898832722375361e+00	 8.278118377520610e-01	-9.045160799308993e-01
1	 1.879381756243224e+00	 8.710695345001308e-01	-1.137708780478927e+00
1	 2.046847367519760e+00	 4.364447532964779e-01	 1.586185975765741e+00
1	 2.036831591821890e+00	 4.810254796556844e-01	 1.258045656393953e+00
1	 2.025773377601757e+00	 5.256528469798690e-01	 9.437468073681996e-01
1	 2.013662148039044e+00	 5.702926032520470e-01	 6.432822285642679e-01
1	 2.000488736337084e+00	 6.149096456912558e-01	 3.564071116007244e-01
1	 1.986245452102735e+00	 6.594680884734127e-01	 8.263295885839583e-02
1	 1.970926144157671e+00	 7.039313359665638e-01	-1.787768580518783e-01
1	 1.954526259283825e+00	 7.482621612907896e-01	-4.288097806837916e-01
1	 1.937042896413824e+00	 7.924227899643260e-01	-6.687048807799936e-01
1	 1.918474855790671e+00	 8.363749883486311e-01	-8.999517213635653e-01
1	 1.898822682639440e+00	 8.800801565567893e-01	-1.124287189096824e+00
1	 2.067803833873838e+00	 4.409132544329041e-01	 1.510059797441047e+00
1	 2.057685512539077e+00	 4.859504166292932e-01	 1.192220148777572e+00
1	 2.046514079767151e+00	 5.310346973200484e-01	 8.880441500153065e-01
1	 2.034278850447902e+00	 5.761314938019381e-01	 5.974976686132911e-01
1	 2.020970563931227e+00	 6.212053438972792e-01	 3.203214651790208e-01
1	 2.006581451086571e+00	 6.662199943681509e-01	 5.602579448112610e-02
1	 1.991105297757314e+00	 7.111384749014573e-01	-1.961134249992857e-01
1	 1.974537504107663e+00	 7.559231774731597e-01	-4.370567625967741e-01
1	 1.956875139367929e+00	 8.005359408508015e-01	-6.680016507532852e-01
1	 1.938116991497506e+00	 8.449381399441118e-01	-8.903809018918963e-01
1	 1.918263611303710e+00	 8.890907796646462e-01	-1.105859301774229e+00
1	 2.088760305117629e+00	 4.453817566113962e-01	 1.439445757370108e+00
1	 2.078539438122040e+00	 4.908753547514970e-01	 1.131797408940900e+00
1	 2.067254786771898e+00	 5.364165489154722e-01	 8.376299697964906e-01
1	 2.054895557667181e+00	 5.819703857137583e-01	 5.568819892829254e-01
1	 2.041452396304321e+00	 6.275010435718682e-01	 2.892818154602421e-01
1	 2.026917454815333e+00	 6.729719018379572e-01	 3.434295311212132e-02
1	 2.011284456065289e+00	 7.183456155176976e-01	-2.086390975090882e-01
1	 1.994548753600662e+00	 7.635841954428418e-01	-4.405884215199979e-01
1	 1.976707386949434e+00	 8.086490936301498e-01	-6.626486026861584e-01
1	 1.957759131787390e+00	 8.535012935375295e-01	-8.761808964442703e-01
1	 1.937704544504087e+00	 8.981014048749136e-01	-1.082760606187459e+00
1	 2.109716783695988e+00	 4.498502603534081e-01	 1.374088842653807e+00
1	 2.099393371003666e+00	 4.958002945969888e-01	 1.076466206362218e+00
1	 2.087995501035677e+00	 5.417984023941257e-01	 7.921481971259976e-01
1	 2.075512272102087e+00	 5.878092796688011e-01	 5.210455975079544e-01
1	 2.061934235845837e+00	 6.337967454495963e-01	 2.628762545589389e-01
1	 2.047253465661486e+00	 6.797238116706130e-01	 1.716126876857726e-02
1	 2.031463621435766e+00	 7.255527586561605e-01	-2.167774407181421e-01
1	 2.014560010097404e+00	 7.712452160936476e-01	-4.398181070121426e-01
1	 1.996539641472042e+00	 8.167622492489142e-01	-6.530385467980778e-01
1	 1.977401278951850e+00	 8.620644501279096e-01	-8.577139899269540e-01
1	 1.957145484508626e+00	 9.071120332388044e-01	-1.055313260329795e+00
1	 2.130673272053770e+00	 4.543187661803940e-01	 1.313744074088756e+00
1	 2.120247313616847e+00	 5.007252367404610e-01	 1.025927555624566e+00
1	 2.108736224978164e+00	 5.471802583839948e-01	 7.512567713238731e-01
1	 2.096128996157832e+00	 5.936481763483592e-01	 4.896142278011175e-01
1	 2.082416084945255e+00	 6.400924502650357e-01	 2.407090799168314e-01
1	 2.067589485997490e+00	 6.864757246539001e-01	 4.074223595829096e-03
1	 2.051642796222910e+00	 7.327599051577218e-01	-2.209353560064895e-01
1	 2.034571275932468e+00	 7.789062403193883e-01	-4.351429068183212e-01
1	 2.016371905249450e+00	 8.248754086536378e-01	-6.395488395724624e-01
1	 1.997043435282408e+00	 8.706276107142777e-01	-8.353282144447843e-01
1	 1.976586433585382e+00	 9.161226658075299e-01	-1.023826748077196e+00
1	 2.151629772635832e+00	 4.587872746138076e-01	 1.258176017499179e+00
1	 2.141101268394468e+00	 5.056501817566057e-01	 9.798941200499631e-01
1	 2.129476961019035e+00	 5.525621175130654e-01	 7.146269583519851e-01
1	 2.116745732239626e+00	 5.994870764337260e-01	 4.622281957695904e-01
1	 2.102897945992045e+00	 6.463881587527592e-01	 2.224000050736795e-01
1	 2.087925518195810e+00	 6.932276415755994e-01	-5.308862924594537e-03
1	 2.071821982780889e+00	 7.399670558632573e-01	-2.215038925482670e-01
1	 2.054582553440436e+00	 7.865672690138754e-01	-4.269444388439249e-01
1	 2.036204180595361e+00	 8.329885727908642e-01	-6.225421363748579e-01
1	 2.016685603070591e+00	 8.791907762956590e-01	-8.093580434321912e-01
1	 1.996027394002406e+00	 9.251333036323027e-01	-9.885984964369334e-01
1	 2.172586287887028e+00	 4.632557861751034e-01	 1.207158323355419e+00
1	 2.161955237769416e+00	 5.105751302201155e-01	 9.380896498542436e-01
1	 2.150217711577969e+00	 5.579439804093227e-01	 6.819427080427958e-01
1	 2.137362482752677e+00	 6.053259806061945e-01	 4.385416948416275e-01
1	 2.123379821375684e+00	 6.526838716473390e-01	 2.075834161226644e-01
1	 2.108261564628909e+00	 6.999795632234921e-01	-1.136359783428376e-02
1	 2.092001183463870e+00	 7.471742116136433e-01	-2.188590118860126e-01
1	 2.074593844955887e+00	 7.942283030709205e-01	-4.155895972850916e-01
1	 2.056036469823477e+00	 8.411017426071367e-01	-6.023671005058270e-01
1	 2.036327784607921e+00	 8.877539478710794e-01	-7.801250456044039e-01
1	 2.015468368027755e+00	 9.341439477643351e-01	-9.499144570667968e-01
1	 2.193542820252215e+00	 4.677243013857354e-01	 1.160473292786859e+00
1	 2.182809224174582e+00	 5.155000827056827e-01	 9.002484525135146e-01
1	 2.170958479074642e+00	 5.633258477007529e-01	 6.529000481794482e-01
1	 2.157979250102196e+00	 6.111648895470575e-01	 4.182221333132188e-01
1	 2.143861713485647e+00	 6.589795896833478e-01	 1.959076707945524e-01
1	 2.128597627669248e+00	 7.067314903853598e-01	-1.445123476374588e-02
1	 2.112180400626019e+00	 7.543813732497547e-01	-2.133623086705316e-01
1	 2.094605152813403e+00	 8.018893433843358e-01	-4.014312559821247e-01
1	 2.075868775247495e+00	 8.492149190489982e-01	-5.793590716025370e-01
1	 2.055969982185927e+00	 8.963171264395644e-01	-7.479385014164932e-01
1	 2.034909357929481e+00	 9.431545992548388e-01	-9.080496544547507e-01
1	 2.214499372176251e+00	 4.721928207671577e-01	 1.117911468240718e+00
1	 2.203663230042855e+00	 5.204250397879999e-01	 8.661148932081173e-01
1	 2.191699265928731e+00	 5.687077200153414e-01	 6.272065129855566e-01
1	 2.178596036693390e+00	 6.170038039376080e-01	 4.009495090432925e-01
1	 2.164343624711408e+00	 6.652753135953585e-01	 1.870344373463426e-01
1	 2.148933709689293e+00	 7.134834238489842e-01	-1.491935310624637e-02
1	 2.132359636621505e+00	 7.615885416124683e-01	-2.053616904704642e-01
1	 2.114616479347565e+00	 8.095503908479317e-01	-3.848089318300114e-01
1	 2.095701099181118e+00	 8.573281030629925e-01	-5.538406960823173e-01
1	 2.075612198096131e+00	 9.048803130001392e-01	-7.130959845141160e-01
1	 2.054350365975638e+00	 9.521652591550263e-01	-8.632687029678652e-01
1	 2.235455946103989e+00	 4.766613448408244e-01	 1.079271247169019e+00
1	 2.224517257807120e+00	 5.253500020417595e-01	 8.354429233699323e-01
1	 2.212440074559912e+00	 5.740895979810740e-01	 6.045806037663068e-01
1	 2.199212844931473e+00	 6.228427244591394e-01	 3.864158193265840e-01
1	 2.184825557442442e+00	 6.715710441179432e-01	 1.806380706418674e-01
1	 2.169269813061506e+00	 7.202353644021465e-01	-1.310249898353710e-02
1	 2.152538893804492e+00	 7.687957175426593e-01	-1.951920193380068e-01
1	 2.134627826892952e+00	 8.172114463555201e-01	-3.660494108676213e-01
1	 2.115533443938045e+00	 8.654412955956624e-01	-5.261225221195227e-01
1	 2.095254434630057e+00	 9.134435085518292e-01	-6.758839104737718e-01
1	 2.073791394434280e+00	 9.611759285161097e-01	-8.158262948137645e-01
1	 1.879381756243224e+00	 8.710695345001308e-01	-1.137708780478927e+00
1	 1.858858589483066e+00	 9.140472546866473e-01	-1.360649548242670e+00
1	 1.837268656718033e+00	 9.567033050173938e-01	-1.569191503225984e+00
1	 1.814617891166941e+00	 9.989989631352880e-01	-1.764098772893872e+00
1	 1.790914064283155e+00	 1.040895547844322e+00	-1.946181343984550e+00
1	 1.766166796013919e+00	 1.082354526678580e+00	-2.116292176015080e+00
1	 1.740387557584249e+00	 1.123337624997809e+00	-2.275324029826419e+00
1	 1.713589666622138e+00	 1.163806936007564e+00	-2.424206030911416e+00
1	 1.685788274497012e+00	 1.203725031080052e+00	-2.563899990328115e+00
1	 1.657000345801269e+00	 1.243055069735527e+00	-2.695396508842377e+00
1	 1.627244629964768e+00	 1.281760908633884e+00	-2.819710892520176e+00
1	 1.898822682639440e+00	 8.800801565567893e-01	-1.124287189096824e+00
1	 1.878087217673760e+00	 9.235024520362951e-01	-1.337948528048148e+00
1	 1.856273951734252e+00	 9.665997502041451e-01	-1.536407137517229e+00
1	 1.833388879414845e+00	 1.009332928146792e+00	-1.720529250082502e+00
1	 1.809439852559300e+00	 1.051662904537545e+00	-1.891244029841514e+00
1	 1.784436590626670e+00	 1.093550748318318e+00	-2.049540133326787e+00
1	 1.758390683503990e+00	 1.134957788923717e+00	-2.196461837212884e+00
1	 1.731315586581056e+00	 1.175845727439273e+00	-2.333104755229037e+00
1	 1.703226607957901e+00	 1.216176748063476e+00	-2.460611171517693e+00
1	 1.674140887714095e+00	 1.255913629226856e+00	-2.580165022280769e+00
1	 1.644077369229593e+00	 1.295019853711016e+00	-2.692986561853392e+00
1	 1.918263611303710e+00	 8.890907796646462e-01	-1.105859301774229e+00
1	 1.897315848107741e+00	 9.329576504890901e-01	-1.310244580668837e+00
1	 1.875279248967707e+00	 9.764961965456023e-01	-1.498691598239015e+00
1	 1.852159869852654e+00	 1.019666894364122e+00	-1.672164371119363e+00
1	 1.827965642996751e+00	 1.062430262487227e+00	-1.831708052960930e+00
1	 1.802706387370872e+00	 1.104746971264615e+00	-1.978444971644182e+00
1	 1.776393811524083e+00	 1.146577954205701e+00	-2.113570075255953e+00
1	 1.749041508608002e+00	 1.187884520275944e+00	-2.238345811491259e+00
1	 1.720664943453291e+00	 1.228628466500071e+00	-2.354096471844810e+00
1	 1.691281431626708e+00	 1.268772190218843e+00	-2.462202038436276e+00
1	 1.660910110458333e+00	 1.308278800335526e+00	-2.564091577457841e+00
1	 1.937704544504087e+00	 8.981014048749136e-01	-1.082760606187459e+00
1	 1.916544483028299e+00	 9.424128511480929e-01	-1.277828915025777e+00
1	 1.894284550635634e+00	 9.863926451962863e-01	-1.456296588173894e+00
1	 1.870930864670270e+00	 1.030000862992825e+00	-1.619221152320237e+00
1	 1.846491437756801e+00	 1.073197622949461e+00	-1.767760589946291e+00
1	 1.820976188377949e+00	 1.115943196823578e+00	-1.903168881196693e+00
1	 1.794396943744841e+00	 1.158198122199312e+00	-2.026790786822851e+00
1	 1.766767434770946e+00	 1.199923315921956e+00	-2.140055898689421e+00
1	 1.738103283017593e+00	 1.241080187842383e+00	-2.244471993024471e+00
1	 1.708421979538773e+00	 1.281630754211491e+00	-2.341617730068407e+00
1	 1.677742855614732e+00	 1.321537750054125e+00	-2.433134751890750e+00
1	 1.957145484508626e+00	 9.071120332388044e-01	-1.055313260329795e+00
1	 1.935773124678724e+00	 9.518680551163642e-01	-1.240981169703951e+00
1	 1.913289858955267e+00	 9.962890973107171e-01	-1.409463809499960e+00
1	 1.889701866057591e+00	 1.040334835238445e+00	-1.561907987642622e+00
1	 1.865017239000746e+00	 1.083964987180335e+00	-1.699581380725672e+00
1	 1.839245995779331e+00	 1.127139426301317e+00	-1.823867608393187e+00
1	 1.812400082266579e+00	 1.169818294260106e+00	-1.936260371551934e+00
1	 1.784493367137860e+00	 1.211962115781692e+00	-2.038356682320349e+00
1	 1.755541628685223e+00	 1.253531913542958e+00	-2.131849224407503e+00
1	 1.725562533449955e+00	 1.294489322704806e+00	-2.218517893200812e+00
1	 1.694575606662538e+00	 1.334796704413528e+00	-2.300220575046473e+00
1	 1.976586433585382e+00	 9.161226658075299e-01	-1.023826748077196e+00
1	 1.955001775302303e+00	 9.613232634969645e-01	-1.199969981994092e+00
1	 1.932295176143844e+00	 1.006185554043417e+00	-1.358425455632893e+00
1	 1.908472876204522e+00	 1.050668812306531e+00	-1.500425072744130e+00
1	 1.883543048889880e+00	 1.094732356435942e+00	-1.627343094295669e+00
1	 1.857515811706447e+00	 1.138335661003940e+00	-1.740690772733695e+00
1	 1.830403229189613e+00	 1.181438471743636e+00	-1.842109863386554e+00
1	 1.802219307776714e+00	 1.224000921259533e+00	-1.933365041927448e+00
1	 1.772979982490597e+00	 1.265983645054342e+00	-2.016335269802988e+00
1	 1.742703095359921e+00	 1.307347897198793e+00	-2.093004162346454e+00
1	 1.711408365565498e+00	 1.348055664960446e+00	-2.165449426711482e+00
1	 1.996027394002406e+00	 9.251333036323027e-01	-9.885984964369334e-01
1	 1.974230437142326e+00	 9.707784773929543e-01	-1.155053523674664e+00
1	 1.951300504418597e+00	 1.016082016548903e+00	-1.303404674320386e+00
1	 1.927243897300960e+00	 1.061002795402626e+00	-1.434964804255160e+00
1	 1.902068869585498e+00	 1.105499731972371e+00	-1.551211673088071e+00
1	 1.875785638290723e+00	 1.149531902237556e+00	-1.653782165197987e+00
1	 1.848406386614257e+00	 1.193058656005457e+00	-1.744465191887323e+00
1	 1.819945258755481e+00	 1.236039733759861e+00	-1.825193304173248e+00
1	 1.790418346468128e+00	 1.278435383829083e+00	-1.898033061043187e+00
1	 1.759843667268337e+00	 1.320206479193455e+00	-1.965174213153152e+00
1	 1.728241134287360e+00	 1.361314633241596e+00	-2.028917776695802e+00
1	 2.015468368027755e+00	 9.341439477643351e-01	-9.499144570667968e-01
1	 1.993459112442080e+00	 9.802336979073933e-01	-1.106480005780092e+00
1	 1.970305845996764e+00	 1.025978485981699e+00	-1.244616003930360e+00
1	 1.946014931536810e+00	 1.071336785732278e+00	-1.365712155939681e+00
1	 1.920594703248894e+00	 1.116267115045714e+00	-1.471346657402836e+00
1	 1.894055477663589e+00	 1.160728151308274e+00	-1.563280029361989e+00
1	 1.866409556640827e+00	 1.204678848401122e+00	-1.643447428418384e+00
1	 1.837671222142130e+00	 1.248078554687057e+00	-1.713949462420578e+00
1	 1.807856722652230e+00	 1.290887131319725e+00	-1.777041559186231e+00
1	 1.776984251174867e+00	 1.333065070188799e+00	-1.835121953318946e+00
1	 1.745073914791870e+00	 1.374573610803687e+00	-1.890718373379813e+00
1	 2.034909357929481e+00	 9.431545992548388e-01	-9.080496544547509e-01
1	 2.012687803444855e+00	 9.896889261433434e-01	-1.054488154429719e+00
1	 1.989311203095579e+00	 1.035874963496324e+00	-1.182265784725964e+00
1	 1.964785981101968e+00	 1.081670784501032e+00	-1.292845033290026e+00
1	 1.939120552041364e+00	 1.127034506912060e+00	-1.387901491240740e+00
1	 1.912325331956473e+00	 1.171924409522202e+00	-1.469317326397189e+00
1	 1.884412741369637e+00	 1.216299050286185e+00	-1.539173018219312e+00
1	 1.855397200004633e+00	 1.260117385445502e+00	-1.599737383724746e+00
1	 1.825295113077318e+00	 1.303338888978815e+00	-1.653455944183568e+00
1	 1.794124849079177e+00	 1.345923671684828e+00	-1.702937702561990e+00
1	 1.761906709042776e+00	 1.387832599193435e+00	-1.750940421451323e+00
1	 2.054350365975638e+00	 9.521652591550263e-01	-8.632687029678651e-01
1	 2.031916512393939e+00	 9.991441632038637e-01	-9.993076596347857e-01
1	 2.008316577932277e+00	 1.045771450247299e+00	-1.116552546784602e+00
1	 1.983557048186338e+00	 1.092004792914435e+00	-1.216534607984513e+00
1	 1.957646418124202e+00	 1.137801908827502e+00	-1.301023810768038e+00
1	 1.930595203300802e+00	 1.183120678185449e+00	-1.372021985021005e+00
1	 1.902415942901002e+00	 1.227919263016201e+00	-1.431753999297882e+00
1	 1.873123194410962e+00	 1.272156227439578e+00	-1.482657004070774e+00
1	 1.842733519777808e+00	 1.315790658258901e+00	-1.527367793776229e+00
1	 1.811265462980935e+00	 1.358782285181547e+00	-1.568708362370046e+00
1	 1.778739519003824e+00	 1.401091599957553e+00	-1.609669749549071e+00
1	 2.073791394434280e+00	 9.611759285161097e-01	-8.158262948137640e-01
1	 2.051145241532621e+00	 1.008599410192016e+00	-9.411595988570041e-01
1	 2.027321972724093e+00	 1.055667947389144e+00	-1.047667376093883e+00
1	 2.002328134979822e+00	 1.102338812178033e+00	-1.136945633529574e+00
1	 1.976172303658703e+00	 1.148569322048130e+00	-1.210855716553010e+00
1	 1.948865093828005e+00	 1.194316958604124e+00	-1.271517137385723e+00
1	 1.920419163335237e+00	 1.239539487946723e+00	-1.321298209008602e+00
1	 1.890849207429085e+00	 1.284195082073666e+00	-1.362804512627234e+00
1	 1.860171944788112e+00	 1.328242440612528e+00	-1.398865252327071e+00
1	 1.828406094879804e+00	 1.371640912178962e+00	-1.432517576200429e+00
1	 1.795572346638762e+00	 1.414350614642753e+00	-1.466988968475173e+00
1	 1.627244629964768e+00	 1.281760908633884e+00	-2.819710892520176e+00
1	 1.596541620518678e+00	 1.319807212503900e+00	-2.942997152424437e+00
1	 1.564913497592937e+00	 1.357159569919514e+00	-3.071853446109800e+00
1	 1.532384090137712e+00	 1.393784584608510e+00	-3.208040983834731e+00
1	 1.498978821817692e+00	 1.429649970364926e+00	-3.353395534940919e+00
1	 1.464724645377923e+00	 1.464724645377924e+00	-3.509813866233038e+00
1	 1.429649970364925e+00	 1.498978821817692e+00	-3.679239551172304e+00
1	 1.393784584608510e+00	 1.532384090137712e+00	-3.863648283550567e+00
1	 1.357159569919513e+00	 1.564913497592937e+00	-4.065032835767620e+00
1	 1.319807212503899e+00	 1.596541620518678e+00	-4.285387806344598e+00
1	 1.281760908633884e+00	 1.627244629964768e+00	-4.526694303791273e+00
1	 1.644077369229593e+00	 1.295019853711016e+00	-2.692986561853392e+00
1	 1.613056758027208e+00	 1.333459720725372e+00	-2.805625742469618e+00
1	 1.581101463675235e+00	 1.371198462881057e+00	-2.924930316415909e+00
1	 1.548235561618126e+00	 1.408202338444131e+00	-3.052648681978592e+00
1	 1.514484738511090e+00	 1.444438727229787e+00	-3.190595713777775e+00
1	 1.479876225906991e+00	 1.479876225906992e+00	-3.340639382944797e+00
1	 1.444438727229786e+00	 1.514484738511091e+00	-3.504686806994687e+00
1	 1.408202338444131e+00	 1.548235561618126e+00	-3.684669860851841e+00
1	 1.371198462881057e+00	 1.581101463675236e+00	-3.882530486302957e+00
1	 1.333459720725371e+00	 1.613056758027209e+00	-4.100205841060198e+00
1	 1.295019853711016e+00	 1.644077369229594e+00	-4.339613430551283e+00
1	 1.660910110458333e+00	 1.308278800335526e+00	-2.564091577457841e+00
1	 1.629571897462642e+00	 1.347112230540128e+00	-2.666675803688864e+00
1	 1.597289431646318e+00	 1.385237357480942e+00	-2.777009550532336e+00
1	 1.564087034948119e+00	 1.422620093962262e+00	-2.896821810711673e+00
1	 1.529990657013806e+00	 1.459227485820399e+00	-3.027899618931078e+00
1	 1.495027808204091e+00	 1.495027808204091e+00	-3.172074917721198e+00
1	 1.459227485820399e+00	 1.529990657013807e+00	-3.331210914805193e+00
1	 1.422620093962261e+00	 1.564087034948120e+00	-3.507188060577098e+00
1	 1.385237357480942e+00	 1.597289431646319e+00	-3.701889779430630e+00
1	 1.347112230540128e+00	 1.629571897462643e+00	-3.917188091964586e+00
1	 1.308278800335526e+00	 1.660910110458333e+00	-4.154929266462660e+00
1	 1.677742855614732e+00	 1.321537750054125e+00	-2.433134751890750e+00
1	 1.646087040751664e+00	 1.360764743540799e+00	-2.526256350503182e+00
1	 1.613477403394685e+00	 1.399276255356880e+00	-2.628199136019231e+00
1	 1.579938511976924e+00	 1.437037852844821e+00	-2.740666314922923e+00
1	 1.545496579134747e+00	 1.474016247861975e+00	-2.865410354915130e+00
1	 1.510179394036775e+00	 1.510179394036776e+00	-3.004220159300439e+00
1	 1.474016247861974e+00	 1.545496579134747e+00	-3.158907797633179e+00
1	 1.437037852844821e+00	 1.579938511976924e+00	-3.331294917699676e+00
1	 1.399276255356880e+00	 1.613477403394687e+00	-3.523198968359833e+00
1	 1.360764743540799e+00	 1.646087040751664e+00	-3.736419365419101e+00
1	 1.321537750054125e+00	 1.677742855614732e+00	-3.972723733501351e+00
1	 1.694575606662538e+00	 1.334796704413528e+00	-2.300220575046473e+00
1	 1.662602189820956e+00	 1.374417261320015e+00	-2.384472066645797e+00
1	 1.629665380808841e+00	 1.413315158146584e+00	-2.478602770515566e+00
1	 1.595789994553771e+00	 1.451455616773728e+00	-2.584283930683986e+00
1	 1.561002506682813e+00	 1.488805015079727e+00	-2.703226930208086e+00
1	 1.525330985172598e+00	 1.525330985172598e+00	-2.837170836016463e+00
1	 1.488805015079726e+00	 1.561002506682814e+00	-2.987869567634678e+00
1	 1.451455616773728e+00	 1.595789994553772e+00	-3.157078810713842e+00
1	 1.413315158146584e+00	 1.629665380808842e+00	-3.346542800000964e+00
1	 1.374417261320014e+00	 1.662602189820956e+00	-3.557981098376096e+00
1	 1.334796704413528e+00	 1.694575606662538e+00	-3.793075498800008e+00
1	 1.711408365565498e+00	 1.348055664960446e+00	-2.165449426711482e+00
1	 1.679117346597201e+00	 1.388069785470404e+00	-2.241423518099695e+00
1	 1.645853365777286e+00	 1.427354067487766e+00	-2.328320072659413e+00
1	 1.611641484527893e+00	 1.465873387430904e+00	-2.427772392168365e+00
1	 1.576508441466913e+00	 1.503593789198868e+00	-2.541444458612124e+00
1	 1.540482583379113e+00	 1.540482583379113e+00	-2.671018910476966e+00
1	 1.503593789198868e+00	 1.576508441466914e+00	-2.818184713405257e+00
1	 1.465873387430904e+00	 1.611641484527894e+00	-2.984624641344408e+00
1	 1.427354067487766e+00	 1.645853365777287e+00	-3.172002687280443e+00
1	 1.388069785470403e+00	 1.679117346597202e+00	-3.381951523954085e+00
1	 1.348055664960446e+00	 1.711408365565499e+00	-3.616060134583300e+00
1	 1.728241134287360e+00	 1.361314633241596e+00	-2.028917776695802e+00
1	 1.695632513007084e+00	 1.401722317584596e+00	-2.097207353589253e+00
1	 1.662041360188522e+00	 1.441392985018139e+00	-2.177446780680087e+00
1	 1.627492983748522e+00	 1.480291166498268e+00	-2.271225626476228e+00
1	 1.592014385295951e+00	 1.518382571944612e+00	-2.380154348844393e+00
1	 1.555634190423872e+00	 1.555634190423873e+00	-2.505852762862613e+00
1	 1.518382571944611e+00	 1.592014385295951e+00	-2.649938276344696e+00
1	 1.480291166498267e+00	 1.627492983748523e+00	-2.814014003752352e+00
1	 1.441392985018138e+00	 1.662041360188523e+00	-2.999656871383855e+00
1	 1.401722317584596e+00	 1.695632513007085e+00	-3.208405827335267e+00
1	 1.361314633241595e+00	 1.728241134287360e+00	-3.441750268755181e+00
1	 1.745073914791870e+00	 1.374573610803687e+00	-1.890718373379813e+00
1	 1.712147690977289e+00	 1.415374859255223e+00	-1.951916493466402e+00
1	 1.678229365931051e+00	 1.455431912375414e+00	-2.026074939494941e+00
1	 1.643344494064889e+00	 1.494708955657738e+00	-2.114733937181961e+00
1	 1.607520339978830e+00	 1.533171365042171e+00	-2.219444483153485e+00
1	 1.570785808074430e+00	 1.570785808074431e+00	-2.341757363616013e+00
1	 1.533171365042170e+00	 1.607520339978830e+00	-2.483212016812731e+00
1	 1.494708955657738e+00	 1.643344494064890e+00	-2.645325343946264e+00
1	 1.455431912375413e+00	 1.678229365931051e+00	-2.829580574607696e+00
1	 1.415374859255222e+00	 1.712147690977289e+00	-3.037416292638884e+00
1	 1.374573610803687e+00	 1.745073914791870e+00	-3.270215726769414e+00
1	 1.761906709042776e+00	 1.387832599193435e+00	-1.750940421451323e+00
1	 1.728662882434497e+00	 1.429027412074912e+00	-1.805640307767574e+00
1	 1.694417384893375e+00	 1.469470851197304e+00	-1.874293077079384e+00
1	 1.659196017326227e+00	 1.509126756591238e+00	-1.958384177358468e+00
1	 1.623026307324454e+00	 1.547960170216757e+00	-2.059399385695484e+00
1	 1.585937438098340e+00	 1.585937438098341e+00	-2.178814436230171e+00
1	 1.547960170216756e+00	 1.623026307324454e+00	-2.318084570758820e+00
1	 1.509126756591238e+00	 1.659196017326228e+00	-2.478634110054177e+00
1	 1.469470851197302e+00	 1.694417384893375e+00	-2.661846144447879e+00
1	 1.429027412074912e+00	 1.728662882434497e+00	-2.869052441374115e+00
1	 1.387832599193435e+00	 1.761906709042776e+00	-3.101523665366383e+00
1	 1.778739519003824e+00	 1.401091599957553e+00	-1.609669749549071e+00
1	 1.745178089305393e+00	 1.442679977636295e+00	-1.658464784158960e+00
1	 1.710605418963995e+00	 1.483509803121520e+00	-1.722186370821108e+00
1	 1.675047555381767e+00	 1.523544570980685e+00	-1.802259912775619e+00
1	 1.638532289141730e+00	 1.562748989193584e+00	-1.900100381348064e+00
1	 1.601089082263154e+00	 1.601089082263155e+00	-2.017102610792207e+00
1	 1.562748989193583e+00	 1.638532289141730e+00	-2.154631597457012e+00
1	 1.523544570980684e+00	 1.675047555381767e+00	-2.314012894061693e+00
1	 1.483509803121520e+00	 1.710605418963996e+00	-2.496523189505495e+00
1	 1.442679977636294e+00	 1.745178089305393e+00	-2.703381163030233e+00
1	 1.401091599957553e+00	 1.778739519003824e+00	-2.935738698715158e+00
1	 1.795572346638762e+00	 1.414350614642753e+00	-1.466988968475173e+00
1	 1.761693313516659e+00	 1.456332557532000e+00	-1.510472686433679e+00
1	 1.726793470031414e+00	 1.497548769785776e+00	-1.569836804515708e+00
1	 1.690899110080739e+00	 1.537962400507998e+00	-1.646441575917664e+00
1	 1.654038287239560e+00	 1.577537823697865e+00	-1.741625745590236e+00
1	 1.616240742336427e+00	 1.616240742336428e+00	-1.856697568889283e+00
1	 1.577537823697864e+00	 1.654038287239561e+00	-1.992925918929772e+00
1	 1.537962400507997e+00	 1.690899110080740e+00	-2.151531565576380e+00
1	 1.497548769785776e+00	 1.726793470031415e+00	-2.333678707746997e+00
1	 1.456332557532000e+00	 1.761693313516660e+00	-2.540466838320289e+00
1	 1.414350614642753e+00	 1.795572346638762e+00	-2.772923017459111e+00
1	 1.281760908633884e+00	 1.627244629964768e+00	-4.526694303791273e+00
1	 1.243055069735527e+00	 1.657000345801269e+00	-4.793247699795855e+00
1	 1.203725031080051e+00	 1.685788274497013e+00	-5.087402428278518e+00
1	 1.163806936007563e+00	 1.713589666622138e+00	-5.408109408114942e+00
1	 1.123337624997809e+00	 1.740387557584249e+00	-5.754193236814900e+00
1	 1.082354526678579e+00	 1.766166796013919e+00	-6.124360752085017e+00
1	 1.040895547844321e+00	 1.790914064283156e+00	-6.517210258579878e+00
1	 9.989989631352876e-01	 1.814617891166942e+00	-6.931241326414278e+00
1	 9.567033050173931e-01	 1.837268656718033e+00	-7.364865064050913e+00
1	 9.140472546866468e-01	 1.858858589483067e+00	-7.816414765598534e+00
1	 8.710695345001309e-01	 1.879381756243224e+00	-8.284156831355913e+00
1	 1.295019853711016e+00	 1.644077369229594e+00	-4.339613430551283e+00
1	 1.255913629226856e+00	 1.674140887714096e+00	-4.604752477828488e+00
1	 1.216176748063476e+00	 1.703226607957902e+00	-4.897694480378449e+00
1	 1.175845727439272e+00	 1.731315586581056e+00	-5.217339091486653e+00
1	 1.134957788923717e+00	 1.758390683503991e+00	-5.562455944426697e+00
1	 1.093550748318318e+00	 1.784436590626671e+00	-5.931693854555165e+00
1	 1.051662904537544e+00	 1.809439852559301e+00	-6.323590699129730e+00
1	 1.009332928146792e+00	 1.833388879414846e+00	-6.736583874690489e+00
1	 9.665997502041446e-01	 1.856273951734252e+00	-7.169021227984816e+00
1	 9.235024520362944e-01	 1.878087217673760e+00	-7.619172354026817e+00
1	 8.800801565567894e-01	 1.898822682639440e+00	-8.085240153954615e+00
1	 1.308278800335526e+00	 1.660910110458333e+00	-4.154929266462660e+00
1	 1.268772190218842e+00	 1.691281431626708e+00	-4.418811236154908e+00
1	 1.228628466500070e+00	 1.720664943453291e+00	-4.710627158537793e+00
1	 1.187884520275943e+00	 1.749041508608002e+00	-5.029231997000763e+00
1	 1.146577954205700e+00	 1.776393811524083e+00	-5.373346317506062e+00
1	 1.104746971264614e+00	 1.802706387370872e+00	-5.741566098676379e+00
1	 1.062430262487227e+00	 1.827965642996751e+00	-6.132373238971241e+00
1	 1.019666894364122e+00	 1.852159869852654e+00	-6.544146654151898e+00
1	 9.764961965456016e-01	 1.875279248967707e+00	-6.975173854393420e+00
1	 9.329576504890892e-01	 1.897315848107741e+00	-7.423662888120115e+00
1	 8.890907796646462e-01	 1.918263611303710e+00	-7.887754538910317e+00
1	 1.321537750054125e+00	 1.677742855614732e+00	-3.972723733501351e+00
1	 1.281630754211490e+00	 1.708421979538773e+00	-4.235502116008144e+00
1	 1.241080187842382e+00	 1.738103283017594e+00	-4.526272176791362e+00
1	 1.199923315921955e+00	 1.766767434770946e+00	-4.843850564936185e+00
1	 1.158198122199311e+00	 1.794396943744842e+00	-5.186914490800740e+00
1	 1.115943196823577e+00	 1.820976188377948e+00	-5.554012112228980e+00
1	 1.073197622949460e+00	 1.846491437756801e+00	-5.943573643940982e+00
1	 1.030000862992824e+00	 1.870930864670270e+00	-6.353923076752751e+00
1	 9.863926451962859e-01	 1.894284550635634e+00	-6.783290389370381e+00
1	 9.424128511480923e-01	 1.916544483028300e+00	-7.229824133252272e+00
1	 8.981014048749136e-01	 1.937704544504087e+00	-7.691604270419178e+00
1	 1.334796704413528e+00	 1.694575606662538e+00	-3.793075498800008e+00
1	 1.294489322704805e+00	 1.725562533449955e+00	-4.054900153990061e+00
1	 1.253531913542957e+00	 1.755541628685224e+00	-4.344698399938426e+00
1	 1.211962115781691e+00	 1.784493367137860e+00	-4.661254754863616e+00
1	 1.169818294260105e+00	 1.812400082266580e+00	-5.003208607366875e+00
1	 1.127139426301316e+00	 1.839245995779331e+00	-5.369065147547203e+00
1	 1.083964987180335e+00	 1.865017239000747e+00	-5.757207054004300e+00
1	 1.040334835238445e+00	 1.889701866057591e+00	-6.165906816921876e+00
1	 9.962890973107167e-01	 1.913289858955267e+00	-6.593339573371498e+00
1	 9.518680551163634e-01	 1.935773124678724e+00	-7.037596328676638e+00
1	 9.071120332388044e-01	 1.957145484508626e+00	-7.496697437107557e+00
1	 1.348055664960446e+00	 1.711408365565499e+00	-3.616060134583300e+00
1	 1.307347897198792e+00	 1.742703095359922e+00	-3.877077434616024e+00
1	 1.265983645054341e+00	 1.772979982490597e+00	-4.165971983526060e+00
1	 1.224000921259532e+00	 1.802219307776715e+00	-4.481502167505915e+00
1	 1.181438471743635e+00	 1.830403229189614e+00	-4.822274916382639e+00
1	 1.138335661003939e+00	 1.857515811706447e+00	-5.186757149031293e+00
1	 1.094732356435941e+00	 1.883543048889880e+00	-5.573288013910371e+00
1	 1.050668812306530e+00	 1.908472876204522e+00	-5.980091798538077e+00
1	 1.006185554043416e+00	 1.932295176143844e+00	-6.405291377452013e+00
1	 9.613232634969638e-01	 1.955001775302304e+00	-6.846922065767338e+00
1	 9.161226658075297e-01	 1.976586433585382e+00	-7.302945744851011e+00
1	 1.361314633241595e+00	 1.728241134287360e+00	-3.441750268755181e+00
1	 1.320206479193455e+00	 1.759843667268337e+00	-3.702103233943370e+00
1	 1.278435383829081e+00	 1.790418346468128e+00	-3.990156505650457e+00
1	 1.236039733759860e+00	 1.819945258755481e+00	-4.304648159475766e+00
1	 1.193058656005456e+00	 1.848406386614257e+00	-4.644157865244956e+00
1	 1.149531902237555e+00	 1.875785638290723e+00	-5.007118816713496e+00
1	 1.105499731972370e+00	 1.902068869585499e+00	-5.391830502055437e+00
1	 1.061002795402626e+00	 1.927243897300961e+00	-5.796472182666267e+00
1	 1.016082016548903e+00	 1.951300504418597e+00	-6.219116943231004e+00
1	 9.707784773929536e-01	 1.974230437142327e+00	-6.657746173377249e+00
1	 9.251333036323027e-01	 1.996027394002406e+00	-7.110264340533818e+00
1	 1.374573610803687e+00	 1.745073914791870e+00	-3.270215726769414e+00
1	 1.333065070188799e+00	 1.776984251174868e+00	-3.530044154885998e+00
1	 1.290887131319724e+00	 1.807856722652231e+00	-3.817313091129034e+00
1	 1.248078554687056e+00	 1.837671222142131e+00	-4.130745951371865e+00
1	 1.204678848401121e+00	 1.866409556640827e+00	-4.468900186335142e+00
1	 1.160728151308273e+00	 1.894055477663589e+00	-4.830179666144625e+00
1	 1.116267115045713e+00	 1.920594703248895e+00	-5.212847957675328e+00
1	 1.071336785732278e+00	 1.946014931536810e+00	-5.615042356003716e+00
1	 1.025978485981698e+00	 1.970305845996764e+00	-6.034788526330976e+00
1	 9.802336979073927e-01	 1.993459112442081e+00	-6.470015609832005e+00
1	 9.341439477643351e-01	 2.015468368027755e+00	-6.918571646010063e+00
1	 1.387832599193435e+00	 1.761906709042776e+00	-3.101523665366383e+00
1	 1.345923671684828e+00	 1.794124849079178e+00	-3.360964254771114e+00
1	 1.303338888978815e+00	 1.825295113077319e+00	-3.647500528553585e+00
1	 1.260117385445501e+00	 1.855397200004633e+00	-3.959846729677656e+00
1	 1.216299050286185e+00	 1.884412741369637e+00	-4.296542978810129e+00
1	 1.171924409522201e+00	 1.912325331956473e+00	-4.655968084847126e+00
1	 1.127034506912059e+00	 1.939120552041364e+00	-5.036353306479144e+00
1	 1.081670784501032e+00	 1.964785981101969e+00	-5.435796919988871e+00
1	 1.035874963496324e+00	 1.989311203095579e+00	-5.852279443060116e+00
1	 9.896889261433425e-01	 2.012687803444856e+00	-6.283679361116004e+00
1	 9.431545992548389e-01	 2.034909357929481e+00	-6.727789201584341e+00
1	 1.401091599957553e+00	 1.778739519003824e+00	-2.935738698715158e+00
1	 1.358782285181547e+00	 1.811265462980935e+00	-3.194925165652150e+00
1	 1.315790658258900e+00	 1.842733519777807e+00	-3.480775380695839e+00
1	 1.272156227439577e+00	 1.873123194410961e+00	-3.791999742873387e+00
1	 1.227919263016200e+00	 1.902415942901002e+00	-4.127125785748859e+00
1	 1.183120678185448e+00	 1.930595203300802e+00	-4.484511385562285e+00
1	 1.137801908827502e+00	 1.957646418124203e+00	-4.862358984826857e+00
1	 1.092004792914435e+00	 1.983557048186339e+00	-5.258730680528281e+00
1	 1.045771450247299e+00	 2.008316577932277e+00	-5.671564020122312e+00
1	 9.991441632038630e-01	 2.031916512393940e+00	-6.098688344840772e+00
1	 9.521652591550263e-01	 2.054350365975638e+00	-6.537841518380636e+00
1	 1.414350614642753e+00	 1.795572346638762e+00	-2.772923017459111e+00
1	 1.371640912178961e+00	 1.828406094879805e+00	-3.031986207853229e+00
1	 1.328242440612527e+00	 1.860171944788112e+00	-3.317192088702228e+00
1	 1.284195082073665e+00	 1.890849207429085e+00	-3.627252392141153e+00
1	 1.239539487946722e+00	 1.920419163335237e+00	-3.960686666958541e+00
1	 1.194316958604123e+00	 1.948865093828005e+00	-4.315835856501900e+00
1	 1.148569322048129e+00	 1.976172303658703e+00	-4.690876962547170e+00
1	 1.102338812178032e+00	 2.002328134979822e+00	-5.083838638301889e+00
1	 1.055667947389144e+00	 2.027321972724094e+00	-5.492617547156509e+00
1	 1.008599410192015e+00	 2.051145241532621e+00	-5.914995319615239e+00
1	 9.611759285161097e-01	 2.073791394434280e+00	-6.348655939016745e+00
1	 8.710695345001309e-01	 1.879381756243224e+00	-8.284156831355913e+00
1	 8.278118377520619e-01	 1.898832722375362e+00	-8.762327366933407e+00
1	 7.843096400241808e-01	 1.917210655773421e+00	-9.247508235522734e+00
1	 7.406011460019200e-01	 1.934515016794567e+00	-9.741317304627401e+00
1	 6.967241978721410e-01	 1.950746992912197e+00	-1.024533198945590e+01
1	 6.527161833659616e-01	 1.965909455491361e+00	-1.076107899390021e+01
1	 6.086139482192269e-01	 1.980006911132415e+00	-1.129002478602557e+01
1	 5.644537133827929e-01	 1.993045448035395e+00	-1.183356686433968e+01
1	 5.202709972669484e-01	 2.005032677856041e+00	-1.239302586001898e+01
1	 4.761005432559790e-01	 2.015977673537592e+00	-1.296963850916636e+01
1	 4.319762526806628e-01	 2.025890903610537e+00	-1.356455151822472e+01
1	 8.800801565567894e-01	 1.898822682639440e+00	-8.085240153954613e+00
1	 8.363749883486312e-01	 1.918474855790671e+00	-8.561608525243642e+00
1	 7.924227899643262e-01	 1.937042896413824e+00	-9.045196538743239e+00
1	 7.482621612907894e-01	 1.954526259283824e+00	-9.537850372472306e+00
1	 7.039313359665643e-01	 1.970926144157672e+00	-1.004138297282342e+01
1	 6.594680884734130e-01	 1.986245452102734e+00	-1.055756154646013e+01
1	 6.149096456912561e-01	 2.000488736337084e+00	-1.108809582977964e+01
1	 5.702926032520473e-01	 2.013662148039043e+00	-1.163462721089327e+01
1	 5.256528469798695e-01	 2.025773377601758e+00	-1.219871876643004e+01
1	 4.810254796556848e-01	 2.036831591821890e+00	-1.278184626266885e+01
1	 4.364447532964779e-01	 2.046847367519760e+00	-1.338539015774951e+01
1	 8.890907796646462e-01	 1.918263611303710e+00	-7.887754538910317e+00
1	 8.449381399441122e-01	 1.938116991497506e+00	-8.362014029268044e+00
1	 8.005359408508018e-01	 1.956875139367929e+00	-8.843709110079455e+00
1	 7.559231774731601e-01	 1.974537504107663e+00	-9.334883127152230e+00
1	 7.111384749014579e-01	 1.991105297757314e+00	-9.837554980046482e+00
1	 6.662199943681512e-01	 2.006581451086570e+00	-1.035370451676691e+01
1	 6.212053438972794e-01	 2.020970563931227e+00	-1.088525873044820e+01
1	 5.761314938019384e-01	 2.034278850447902e+00	-1.143407885126362e+01
1	 5.310346973200488e-01	 2.046514079767151e+00	-1.200194841280996e+01
1	 4.859504166292934e-01	 2.057685512539077e+00	-1.259056235793804e+01
1	 4.409132544329042e-01	 2.067803833873838e+00	-1.320151723463735e+01
1	 8.981014048749136e-01	 1.937704544504087e+00	-7.691604270419180e+00
1	 8.535012935375297e-01	 1.957759131787390e+00	-8.163414024726400e+00
1	 8.086490936301503e-01	 1.976707386949434e+00	-8.642885082547396e+00
1	 7.635841954428423e-01	 1.994548753600662e+00	-9.132227690008706e+00
1	 7.183456155176980e-01	 2.011284456065289e+00	-9.633637968621477e+00
1	 6.729719018379574e-01	 2.026917454815333e+00	-1.014928136168816e+01
1	 6.275010435718685e-01	 2.041452396304320e+00	-1.068127688878520e+01
1	 5.819703857137587e-01	 2.054895557667180e+00	-1.123168231943445e+01
1	 5.364165489154726e-01	 2.067254786771898e+00	-1.180248036198982e+01
1	 4.908753547514974e-01	 2.078539438122039e+00	-1.239556594820628e+01
1	 4.453817566113962e-01	 2.088760305117629e+00	-1.301273467819613e+01
1	 9.071120332388044e-01	 1.957145484508626e+00	-7.496697437107556e+00
1	 8.620644501279100e-01	 1.977401278951850e+00	-7.965683818467344e+00
1	 8.167622492489147e-01	 1.996539641472041e+00	-8.442569982836767e+00
1	 7.712452160936478e-01	 2.014560010097404e+00	-8.929703649684784e+00
1	 7.255527586561610e-01	 2.031463621435766e+00	-9.429430244424063e+00
1	 6.797238116706134e-01	 2.047253465661485e+00	-9.944074542611702e+00
1	 6.337967454495966e-01	 2.061934235845838e+00	-1.047592311023534e+01
1	 5.878092796688014e-01	 2.075512272102087e+00	-1.102720766869451e+01
1	 5.417984023941260e-01	 2.087995501035677e+00	-1.160008949710725e+01
1	 4.958002945969892e-01	 2.099393371003667e+00	-1.219664496794826e+01
1	 4.498502603534081e-01	 2.109716783695988e+00	-1.281885229505069e+01
1	 9.161226658075297e-01	 1.976586433585382e+00	-7.302945744851011e+00
1	 8.706276107142780e-01	 1.997043435282408e+00	-7.768703624580552e+00
1	 8.248754086536381e-01	 2.016371905249450e+00	-8.242615416822547e+00
1	 7.789062403193885e-01	 2.034571275932468e+00	-8.727137694853948e+00
1	 7.327599051577223e-01	 2.051642796222910e+00	-9.224738051127419e+00
1	 6.864757246539005e-01	 2.067589485997490e+00	-9.737875082618803e+00
1	 6.400924502650359e-01	 2.082416084945254e+00	-1.026897914245479e+01
1	 5.936481763483596e-01	 2.096128996157832e+00	-1.082043400355352e+01
1	 5.471802583839953e-01	 2.108736224978164e+00	-1.139455956334740e+01
1	 5.007252367404612e-01	 2.120247313616847e+00	-1.199359570117515e+01
1	 4.543187661803939e-01	 2.130673272053770e+00	-1.261968738194050e+01
1	 9.251333036323027e-01	 1.996027394002406e+00	-7.110264340533818e+00
1	 8.791907762956593e-01	 2.016685603070590e+00	-7.572358325347805e+00
1	 8.329885727908645e-01	 2.036204180595362e+00	-8.042878773458348e+00
1	 7.865672690138762e-01	 2.054582553440436e+00	-8.524363268415497e+00
1	 7.399670558632581e-01	 2.071821982780889e+00	-9.019375183618601e+00
1	 6.932276415755992e-01	 2.087925518195809e+00	-9.530482149540157e+00
1	 6.463881587527596e-01	 2.102897945992045e+00	-1.006023523986341e+01
1	 5.994870764337265e-01	 2.116745732239627e+00	-1.061114903901800e+01
1	 5.525621175130656e-01	 2.129476961019035e+00	-1.118568273646763e+01
1	 5.056501817566060e-01	 2.141101268394467e+00	-1.178622237496194e+01
1	 4.587872746138076e-01	 2.151629772635831e+00	-1.241506436114931e+01
1	 9.341439477643351e-01	 2.015468368027755e+00	-6.918571646010064e+00
1	 8.877539478710798e-01	 2.036327784607921e+00	-7.376537246031771e+00
1	 8.411017426071371e-01	 2.056036469823477e+00	-7.843222945809585e+00
1	 7.942283030709212e-01	 2.074593844955887e+00	-8.321220241707021e+00
1	 7.471742116136436e-01	 2.092001183463870e+00	-8.813162623791953e+00
1	 6.999795632234923e-01	 2.108261564628908e+00	-9.321702663146707e+00
1	 6.526838716473393e-01	 2.123379821375684e+00	-9.849489753402807e+00
1	 6.053259806061946e-01	 2.137362482752677e+00	-1.039914868537764e+01
1	 5.579439804093231e-01	 2.150217711577969e+00	-1.097325921629895e+01
1	 5.105751302201158e-01	 2.161955237769416e+00	-1.157433677650296e+01
1	 4.632557861751034e-01	 2.172586287887028e+00	-1.220481443703753e+01
1	 9.431545992548389e-01	 2.034909357929481e+00	-6.727789201584341e+00
1	 8.963171264395647e-01	 2.055969982185927e+00	-7.181133942576443e+00
1	 8.492149190489988e-01	 2.075868775247495e+00	-7.643516068080435e+00
1	 8.018893433843360e-01	 2.094605152813404e+00	-8.117554607394442e+00
1	 7.543813732497551e-01	 2.112180400626019e+00	-8.605928197223497e+00
1	 7.067314903853603e-01	 2.128597627669248e+00	-9.111350924860762e+00
1	 6.589795896833482e-01	 2.143861713485647e+00	-9.636548743814291e+00
1	 6.111648895470575e-01	 2.157979250102195e+00	-1.018423665679718e+01
1	 5.633258477007533e-01	 2.170958479074642e+00	-1.075709684355247e+01
1	 5.155000827056830e-01	 2.182809224174583e+00	-1.135775789212275e+01
1	 4.677243013857355e-01	 2.193542820252216e+00	-1.198877527226640e+01
1	 9.521652591550263e-01	 2.054350365975638e+00	-6.537841518380635e+00
1	 9.048803130001394e-01	 2.075612198096130e+00	-6.986046001363915e+00
1	 8.573281030629928e-01	 2.095701099181118e+00	-7.443631267574902e+00
1	 8.095503908479320e-01	 2.114616479347565e+00	-7.913218189803242e+00
1	 7.615885416124684e-01	 2.132359636621504e+00	-8.397506249342513e+00
1	 7.134834238489844e-01	 2.148933709689294e+00	-8.899248268495683e+00
1	 6.652753135953589e-01	 2.164343624711408e+00	-9.421225616878489e+00
1	 6.170038039376082e-01	 2.178596036693391e+00	-9.966224102135804e+00
1	 5.687077200153419e-01	 2.191699265928731e+00	-1.053701073838710e+01
1	 5.204250397880004e-01	 2.203663230042855e+00	-1.113631156678677e+01
1	 4.721928207671577e-01	 2.214499372176251e+00	-1.176679068240925e+01
1	 9.611759285161097e-01	 2.073791394434280e+00	-6.348655939016747e+00
1	 9.134435085518297e-01	 2.095254434630057e+00	-6.791174850236182e+00
1	 8.654412955956630e-01	 2.115533443938045e+00	-7.243446430611710e+00
1	 8.172114463555208e-01	 2.134627826892953e+00	-7.708068371544792e+00
1	 7.687957175426596e-01	 2.152538893804492e+00	-8.187737339820398e+00
1	 7.202353644021467e-01	 2.169269813061505e+00	-8.685222730643819e+00
1	 6.715710441179437e-01	 2.184825557442442e+00	-9.203340779175104e+00
1	 6.228427244591397e-01	 2.199212844931472e+00	-9.744929256535384e+00
1	 5.740895979810745e-01	 2.212440074559913e+00	-1.031282295931016e+01
1	 5.253500020417597e-01	 2.224517257807119e+00	-1.090983018276742e+01
1	 4.766613448408244e-01	 2.235455946103989e+00	-1.153871034774257e+01
1	 4.319762526806628e-01	 2.025890903610537e+00	-1.356455151822472e+01
1	 3.879280512002444e-01	 2.034784750732353e+00	-1.417329006993983e+01
1	 3.439911120842769e-01	 2.042671539389181e+00	-1.478793496526220e+01
1	 3.001965133239438e-01	 2.049565506885989e+00	-1.540441580156635e+01
1	 2.565742764019076e-01	 2.055481998271383e+00	-1.601855760433074e+01
1	 2.131533277594072e-01	 2.060437390198932e+00	-1.662612632681408e+01
1	 1.699614659213576e-01	 2.064449014128598e+00	-1.722287212514157e+01
1	 1.270253341717502e-01	 2.067535079295862e+00	-1.780457016547670e+01
1	 8.437039863995066e-02	 2.069714595853613e+00	-1.836705876231282e+01
1	 4.202093163001498e-02	 2.071007298567183e+00	-1.890627468855737e+01
1	 0.000000000000000e+00	 2.071433571416667e+00	-1.941828553845610e+01
1	 4.364447532964779e-01	 2.046847367519760e+00	-1.338539015774951e+01
1	 3.919409031220824e-01	 2.055833215443014e+00	-1.400436448015174e+01
1	 3.475494662456074e-01	 2.063801587566210e+00	-1.463028311506234e+01
1	 3.033018421389235e-01	 2.070766868469550e+00	-1.525920674959577e+01
1	 2.592283628365179e-01	 2.076744561935723e+00	-1.588707055593832e+01
1	 2.153582540039958e-01	 2.081751214023633e+00	-1.650973035828159e+01
1	 1.717196017231103e-01	 2.085804335475403e+00	-1.712300667402303e+01
1	 1.283393248845097e-01	 2.088922323888665e+00	-1.772272637323569e+01
1	 8.524315304735246e-02	 2.091124386063406e+00	-1.830476174279685e+01
1	 4.245560959617611e-02	 2.092430460907678e+00	-1.886506678338245e+01
1	 0.000000000000000e+00	 2.092861143259980e+00	-1.939971060821877e+01
1	 4.409132544329042e-01	 2.067803833873838e+00	-1.320151723463735e+01
1	 3.959537555113419e-01	 2.076881682609268e+00	-1.382929558848303e+01
1	 3.511078208213173e-01	 2.084931638208360e+00	-1.446496861339355e+01
1	 3.064071713154290e-01	 2.091968232526561e+00	-1.510492613544776e+01
1	 2.618824495800290e-01	 2.098007128080660e+00	-1.574540713292888e+01
1	 2.175631805051274e-01	 2.103065040334922e+00	-1.638254535235901e+01
1	 1.734777377293521e-01	 2.107159659313644e+00	-1.701241300457216e+01
1	 1.296533157500442e-01	 2.110309570976638e+00	-1.763106227520912e+01
1	 8.611590755618841e-02	 2.112534178771003e+00	-1.823456442511633e+01
1	 4.289028761283620e-02	 2.113853625747538e+00	-1.881904629687898e+01
1	 0.000000000000000e+00	 2.114288717603178e+00	-1.938072408356465e+01
1	 4.453817566113962e-01	 2.088760305117629e+00	-1.301273467819613e+01
1	 3.999666088363301e-01	 2.097930154686715e+00	-1.364792155122096e+01
1	 3.546661762266979e-01	 2.106061693780752e+00	-1.429187919247343e+01
1	 3.095125012159047e-01	 2.113169601530470e+00	-1.494151872867949e+01
1	 2.645365369422418e-01	 2.119269699186794e+00	-1.559357082000895e+01
1	 2.197681075201958e-01	 2.124378871619384e+00	-1.624462952663758e+01
1	 1.752358741453398e-01	 2.128514988134759e+00	-1.689119456642391e+01
1	 1.309673069217733e-01	 2.131696823054944e+00	-1.752971169147825e+01
1	 8.698866226837108e-02	 2.133943976474207e+00	-1.815661094991233e+01
1	 4.332496573075895e-02	 2.135276795586137e+00	-1.876834263751177e+01
1	 0.000000000000000e+00	 2.135716296946142e+00	-1.936141078193554e+01
1	 4.498502603534081e-01	 2.109716783695988e+00	-1.281885229505069e+01
1	 4.039794635653531e-01	 2.118978634130946e+00	-1.346008696369314e+01
1	 3.582245328770405e-01	 2.127191756748507e+00	-1.411090705486100e+01
1	 3.126178322027945e-01	 2.134370977954724e+00	-1.476893150385071e+01
1	 2.671906252329567e-01	 2.140532277734721e+00	-1.543156497456403e+01
1	 2.219730353065951e-01	 2.145692710363608e+00	-1.609603879683226e+01
1	 1.769940111763299e-01	 2.149870324430184e+00	-1.675945070968551e+01
1	 1.322812985531165e-01	 2.153084082618756e+00	-1.741880313471962e+01
1	 8.786141728581293e-02	 2.155353781670824e+00	-1.807103973834531e+01
1	 4.375964400070806e-02	 2.156699972922836e+00	-1.871308007665412e+01
1	 0.000000000000000e+00	 2.157143883788756e+00	-1.934185215139153e+01
1	 4.543187661803939e-01	 2.130673272053770e+00	-1.261968738194050e+01
1	 4.079923201667177e-01	 2.140027123397559e+00	-1.326564254385308e+01
1	 3.617828911876362e-01	 2.148321829576743e+00	-1.392194865391597e+01
1	 3.157231646385432e-01	 2.155572364272775e+00	-1.458711353243813e+01
1	 2.698447147619742e-01	 2.161794866205042e+00	-1.525939283331030e+01
1	 2.241779641217191e-01	 2.167006559054178e+00	-1.593682689039224e+01
1	 1.787521490275789e-01	 2.171225670691355e+00	-1.661727688694524e+01
1	 1.335952907974934e-01	 2.174471352163239e+00	-1.729846007157839e+01
1	 8.873417271042644e-02	 2.176763596858655e+00	-1.797798377365931e+01
1	 4.419432247344724e-02	 2.178123160257006e+00	-1.865337800139592e+01
1	 0.000000000000000e+00	 2.178571480630902e+00	-1.932212643632450e+01
1	 4.587872746138076e-01	 2.151629772635831e+00	-1.241506436114931e+01
1	 4.120051791087306e-01	 2.161075624942147e+00	-1.306444483435997e+01
1	 3.653412515737766e-01	 2.169451914730585e+00	-1.372490448708950e+01
1	 3.188284988855947e-01	 2.176773762958071e+00	-1.439601588106726e+01
1	 2.724988058390947e-01	 2.183057467078351e+00	-1.507705751855661e+01
1	 2.263828942229617e-01	 2.188320420177684e+00	-1.576704545347062e+01
1	 1.805102879043433e-01	 2.192581029409707e+00	-1.646476484347443e+01
1	 1.349092838083233e-01	 2.195858634183561e+00	-1.716880116876375e+01
1	 8.960692864412410e-02	 2.198173424535505e+00	-1.787757086628948e+01
1	 4.462900119974023e-02	 2.199546360088014e+00	-1.858935115257572e+01
1	 0.000000000000000e+00	 2.199999089972466e+00	-1.930230883348672e+01
1	 4.632557861751034e-01	 2.172586287887028e+00	-1.220481443703752e+01
1	 4.160180408596983e-01	 2.182124141220309e+00	-1.285635592190328e+01
1	 3.688996144507527e-01	 2.190582014675150e+00	-1.351967890118019e+01
1	 3.219338353063936e-01	 2.197975176484062e+00	-1.419559151563486e+01
1	 2.751528987741193e-01	 2.204320082835248e+00	-1.488456204410459e+01
1	 2.285878258677168e-01	 2.209634296220713e+00	-1.558674415170283e+01
1	 1.822684280118795e-01	 2.213936403076679e+00	-1.630200279641959e+01
1	 1.362232777390260e-01	 2.217245931174891e+00	-1.702994052489997e+01
1	 9.047968518881849e-02	 2.219583267199179e+00	-1.776992390362307e+01
1	 4.506368023035070e-02	 2.220969574915227e+00	-1.852110984903387e+01
1	 0.000000000000000e+00	 2.221426714313330e+00	-1.928247163898655e+01
1	 4.677243013857355e-01	 2.193542820252216e+00	-1.198877527226641e+01
1	 4.200309058879275e-01	 2.203172674687637e+00	-1.264124317261911e+01
1	 3.724579802338558e-01	 2.211712131875560e+00	-1.330617990875562e+01
1	 3.250391742633841e-01	 2.219176607324195e+00	-1.398579521092879e+01
1	 2.778069938768483e-01	 2.225582715956331e+00	-1.468190932081047e+01
1	 2.307927593133784e-01	 2.230948189669850e+00	-1.539597076520649e+01
1	 1.840265695554444e-01	 2.235291794183705e+00	-1.612907560372073e+01
1	 1.375372727430208e-01	 2.238633245632397e+00	-1.688198788908445e+01
1	 9.135244244642203e-02	 2.240993127347479e+00	-1.765516108544178e+01
1	 4.549835961604239e-02	 2.242392807238013e+00	-1.844876019900902e+01
1	 0.000000000000000e+00	 2.242854356153377e+00	-1.926268438685782e+01
1	 4.721928207671577e-01	 2.214499372176251e+00	-1.176679068240925e+01
1	 4.240437746617247e-01	 2.224221227799726e+00	-1.241897898253206e+01
1	 3.760163493383774e-01	 2.232842268796936e+00	-1.308431901499843e+01
1	 3.281445161190102e-01	 2.240378057951919e+00	-1.376658346537948e+01
1	 2.804610914570824e-01	 2.246845368922198e+00	-1.446910216183049e+01
1	 2.329976948173403e-01	 2.252262103011682e+00	-1.519477127818680e+01
1	 1.857847127402942e-01	 2.256647205222224e+00	-1.594606492343730e+01
1	 1.388512689737273e-01	 2.260020580051247e+00	-1.672504886703400e+01
1	 9.222520051884722e-02	 2.262403007478210e+00	-1.753339614599329e+01
1	 4.593303940757901e-02	 2.263816059555741e+00	-1.837240429952982e+01
1	 0.000000000000000e+00	 2.264282017992491e+00	-1.924301397975921e+01
1	 4.766613448408244e-01	 2.235455946103989e+00	-1.153871034774257e+01
1	 4.280566476493967e-01	 2.245269803012173e+00	-1.218944054203646e+01
1	 3.795747221796087e-01	 2.253972427904400e+00	-1.285401105429428e+01
1	 3.312498612357167e-01	 2.261579530840685e+00	-1.353791442060832e+01
1	 2.831151918246224e-01	 2.268108044213447e+00	-1.424614328757189e+01
1	 2.352026326369965e-01	 2.273576038732799e+00	-1.498318996350053e+01
1	 1.875428577716857e-01	 2.278002638683672e+00	-1.575304936411093e+01
1	 1.401652665845650e-01	 2.281407936926608e+00	-1.655922511563428e+01
1	 9.309795950800662e-02	 2.283812910089177e+00	-1.740473856356982e+01
1	 4.636771965572428e-02	 2.285239334367776e+00	-1.829214042458893e+01
1	 0.000000000000000e+00	 2.285709702330555e+00	-1.922352481232097e+01
1	 2.285709702330555e+00	 0.000000000000000e+00	 4.717576325394380e+00
1	 2.285239334367776e+00	 4.636771965572492e-02	 4.254744409421091e+00
1	 2.283812910089176e+00	 9.309795950800720e-02	 3.809903034228104e+00
1	 2.281407936926607e+00	 1.401652665845655e-01	 3.385580311109384e+00
1	 2.278002638683671e+00	 1.875428577716861e-01	 2.983766719408544e+00
1	 2.273576038732799e+00	 2.352026326369968e-01	 2.605873594632230e+00
1	 2.268108044213447e+00	 2.831151918246225e-01	 2.252693393750689e+00
1	 2.261579530840685e+00	 3.312498612357169e-01	 1.924362207974296e+00
1	 2.253972427904400e+00	 3.795747221796088e-01	 1.620325004531193e+00
1	 2.245269803012173e+00	 4.280566476493967e-01	 1.339304084915480e+00
1	 2.235455946103989e+00	 4.766613448408244e-01	 1.079271247169019e+00
1	 2.307138908349512e+00	 0.000000000000000e+00	 4.546677768511977e+00
1	 2.306664130547552e+00	 4.680243077277465e-02	 4.096219451841009e+00
1	 2.305224333118228e+00	 9.397078047626485e-02	 3.665151289434905e+00
1	 2.302796812618926e+00	 1.414793575090448e-01	 3.255670871983705e+00
1	 2.299359588694984e+00	 1.893011276577873e-01	 2.869387442345696e+00
1	 2.294891488056761e+00	 2.374077270402537e-01	 2.507280565097373e+00
1	 2.289372229467221e+00	 2.857694806729109e-01	 2.169660979068538e+00
1	 2.282782509345629e+00	 3.343554268781614e-01	 1.856134126277666e+00
1	 2.275104087563641e+00	 3.831333477181670e-01	 1.565566859040867e+00
1	 2.266319872982676e+00	 4.320698056105363e-01	 1.296057829591682e+00
1	 2.256414008256287e+00	 4.811301862458283e-01	 1.044912062767926e+00
1	 2.328568121870044e+00	 0.000000000000000e+00	 4.385023301205224e+00
1	 2.328088934227355e+00	 4.723714204207514e-02	 3.943822477074653e+00
1	 2.326635763642614e+00	 9.484360175019492e-02	 3.524619667395338e+00
1	 2.324185695798672e+00	 1.427934488937076e-01	 3.128991879245703e+00
1	 2.320716546182525e+00	 1.910593981595859e-01	 2.757902069539369e+00
1	 2.316206944842396e+00	 2.396128222156351e-01	 2.411661287450052e+00
1	 2.310636422164698e+00	 2.884237704505695e-01	 2.089893393503250e+00
1	 2.303985495272823e+00	 3.374609936079422e-01	 1.791502841870391e+00
1	 2.296235754620143e+00	 3.866919745026454e-01	 1.514646016075523e+00
1	 2.287369950321857e+00	 4.360829649766908e-01	 1.256706605966565e+00
1	 2.277372077745035e+00	 4.855990292153431e-01	 1.014275504918444e+00
1	 2.349997325391393e+00	 0.000000000000000e+00	 4.237326601839152e+00
1	 2.349513727910038e+00	 4.767185310843382e-02	 3.800725090669565e+00
1	 2.348047184176136e+00	 9.571642261668062e-02	 3.390124378027469e+00
1	 2.345574568998093e+00	 1.441075396649715e-01	 3.006198173726913e+00
1	 2.342073493704668e+00	 1.928176678406940e-01	 2.649004973239041e+00
1	 2.337522391682034e+00	 2.418179163618175e-01	 2.317956913758391e+00
1	 2.331900604940131e+00	 2.910780589894290e-01	 2.011791588647783e+00
1	 2.325188471306568e+00	 3.405665588883642e-01	 1.728547270296825e+00
1	 2.317367411816507e+00	 3.902505996263814e-01	 1.465541988634515e+00
1	 2.308420017839000e+00	 4.400961224700385e-01	 1.219356903735603e+00
1	 2.298330137454701e+00	 4.900678700994515e-01	 9.858243957567394e-01
1	 2.371426501412799e+00	 0.000000000000000e+00	 4.108130983407409e+00
1	 2.370938494098454e+00	 4.810656361665806e-02	 3.669984255276199e+00
1	 2.369458577232591e+00	 9.658924236260502e-02	 3.263415970223491e+00
1	 2.366963414749446e+00	 1.454216287492544e-01	 2.887920909305957e+00
1	 2.363430413819788e+00	 1.945759352647236e-01	 2.542401555120671e+00
1	 2.358837811167995e+00	 2.440230076774767e-01	 2.225146853455072e+00
1	 2.353164760427771e+00	 2.937323441213199e-01	 1.933814303199955e+00
1	 2.346391420131164e+00	 3.436721201827317e-01	 1.665415758806279e+00
1	 2.338499041895334e+00	 3.938092201827127e-01	 1.416307318543483e+00
1	 2.329470058343392e+00	 4.441092748127572e-01	 1.182183655067625e+00
1	 2.319288170269756e+00	 4.945367052482362e-01	 9.580771220871491e-01
1	 2.392855632433507e+00	 0.000000000000000e+00	 4.001817024075862e+00
1	 2.392363215295452e+00	 4.854127321155522e-02	 3.554547425110802e+00
1	 2.390869925325779e+00	 9.746206027485142e-02	 3.146182272376286e+00
1	 2.388352215584979e+00	 1.467357150729743e-01	 2.774768613542904e+00
1	 2.384787289086263e+00	 1.963341989952869e-01	 2.437807752203166e+00
1	 2.380153185892605e+00	 2.462280943612890e-01	 2.132247059989929e+00
1	 2.374428871261868e+00	 2.963866236780724e-01	 1.854475475150643e+00
1	 2.367594324430906e+00	 3.467776749543492e-01	 1.600322977208268e+00
1	 2.359630627599226e+00	 3.973678332649775e-01	 1.365064306346062e+00
1	 2.350520054644317e+00	 4.481224187270251e-01	 1.143427169970138e+00
1	 2.340246159074666e+00	 4.990055310117795e-01	 9.296051474805153e-01
1	 2.414284700952755e+00	 0.000000000000000e+00	 3.922609791974110e+00
1	 2.413787874003888e+00	 4.897598153793274e-02	 3.457257407394330e+00
1	 2.412281210969500e+00	 9.833487564030279e-02	 3.040051176543753e+00
1	 2.409740954036949e+00	 1.480497975625489e-01	 2.667328191914139e+00
1	 2.406144102062465e+00	 1.980924575959958e-01	 2.334949569037569e+00
1	 2.401468498448189e+00	 2.484331746119307e-01	 2.038308408589243e+00
1	 2.395692920076675e+00	 2.990408954915173e-01	 1.772341791578217e+00
1	 2.388797166890095e+00	 3.498832206665216e-01	 1.531546974055655e+00
1	 2.380762151670787e+00	 4.009264359665133e-01	 1.310001915082897e+00
1	 2.371569989551065e+00	 4.521355509350203e-01	 1.101390234615989e+00
1	 2.361204086753899e+00	 5.034743437401641e-01	 8.990306566661870e-01
1	 2.435713689469788e+00	 0.000000000000000e+00	 3.874585689185384e+00
1	 2.435212452726612e+00	 4.941068824059797e-02	 3.380856967556328e+00
1	 2.433692416677551e+00	 9.920768774584247e-02	 2.946593275866483e+00
1	 2.431129612637605e+00	 1.493638751443961e-01	 2.566165879116286e+00
1	 2.427500835306768e+00	 1.998507096304625e-01	 2.233562634553119e+00
1	 2.422783731427070e+00	 2.506382466280781e-01	 1.942415159519326e+00
1	 2.416956889506443e+00	 3.016951573934846e-01	 1.686030367587424e+00
1	 2.409999930193029e+00	 3.529887547825532e-01	 1.457426387989619e+00
1	 2.401893596852616e+00	 4.044850253806578e-01	 1.249372837265368e+00
1	 2.392619845872918e+00	 4.561486681589207e-01	 1.054435362610589e+00
1	 2.382161936191926e+00	 5.079431397834724e-01	 8.650243240827716e-01
1	 2.457142580483845e+00	 0.000000000000000e+00	 3.861678938147339e+00
1	 2.456636933966477e+00	 4.984539296435832e-02	 3.327993193823006e+00
1	 2.455103524963736e+00	 1.000804958783535e-01	 2.867324364183295e+00
1	 2.452518173919202e+00	 1.506779467449339e-01	 2.471828140665452e+00
1	 2.448857471377549e+00	 2.016089536622990e-01	 2.133391782057358e+00
1	 2.444098867421572e+00	 2.528433086084071e-01	 1.843683501642379e+00
1	 2.438220762185422e+00	 3.043494072158050e-01	 1.594206546520586e+00
1	 2.431202597024008e+00	 3.560942747657489e-01	 1.376357804788067e+00
1	 2.423024945887314e+00	 4.080435986007486e-01	 1.181490715096040e+00
1	 2.413669606419165e+00	 4.601617671209048e-01	 1.000982189876819e+00
1	 2.403119690273213e+00	 5.124119154917871e-01	 8.263031990192389e-01
1	 2.478571356494168e+00	 0.000000000000000e+00	 3.887687732072946e+00
1	 2.478061300226335e+00	 5.028009535402118e-02	 3.301221635729809e+00
1	 2.476514518341851e+00	 1.009532993247190e-01	 2.803707806172608e+00
1	 2.473906620413990e+00	 1.519920112905800e-01	 2.384842527795474e+00
1	 2.470213992833183e+00	 2.033671882551175e-01	 2.034190650990808e+00
1	 2.465413889024021e+00	 2.550483587515942e-01	 1.741260171412666e+00
1	 2.459484520747865e+00	 3.070036427903091e-01	 1.495581814112597e+00
1	 2.452405150067330e+00	 3.591997780794130e-01	 1.286793251312738e+00
1	 2.444156181517485e+00	 4.116021527201237e-01	 1.104727504675222e+00
1	 2.434719253999090e+00	 4.641748445431501e-01	 9.395050044789663e-01
1	 2.424077331882229e+00	 5.168806672151909e-01	 7.816287003008355e-01
1	 2.500000000000000e+00	 0.000000000000000e+00	 3.956280069521145e+00
1	 2.499485534009037e+00	 5.071479505439391e-02	 3.303010230103736e+00
1	 2.497925379325695e+00	 1.018260973718223e-01	 2.757156785776723e+00
1	 2.495294934654221e+00	 1.533060677077523e-01	 2.305718488453322e+00
1	 2.491570382232043e+00	 2.051254119725298e-01	 1.935721309133343e+00
1	 2.486728778826740e+00	 2.572533952563153e-01	 1.634321142792731e+00
1	 2.480748147828021e+00	 3.096578619488271e-01	 1.388911819762829e+00
1	 2.473607572007293e+00	 3.623052621868502e-01	 1.187237818152784e+00
1	 2.465287286485730e+00	 4.151606848321207e-01	 1.017510975566866e+00
1	 2.455768771421980e+00	 4.681878971478351e-01	 8.685304033007230e-01
1	 2.445034843903442e+00	 5.213493913037660e-01	 7.298047139566289e-01
1	 2.235455946103989e+00	 4.766613448408244e-01	 1.079271247169019e+00
1	 2.224517257807120e+00	 5.253500020417595e-01	 8.354429233699323e-01
1	 2.212440074559912e+00	 5.740895979810740e-01	 6.045806037663068e-01
1	 2.199212844931473e+00	 6.228427244591394e-01	 3.864158193265840e-01
1	 2.184825557442442e+00	 6.715710441179432e-01	 1.806380706418674e-01
1	 2.169269813061506e+00	 7.202353644021465e-01	-1.310249898353721e-02
1	 2.152538893804492e+00	 7.687957175426593e-01	-1.951920193380067e-01
1	 2.134627826892952e+00	 8.172114463555201e-01	-3.660494108676214e-01
1	 2.115533443938045e+00	 8.654412955956624e-01	-5.261225221195227e-01
1	 2.095254434630057e+00	 9.134435085518292e-01	-6.758839104737721e-01
1	 2.073791394434280e+00	 9.611759285161097e-01	-8.158262948137642e-01
1	 2.256414008256287e+00	 4.811301862458283e-01	 1.044912062767926e+00
1	 2.245372766513624e+00	 5.302753140406218e-01	 8.084747132490164e-01
1	 2.233182356093088e+00	 5.794718581395882e-01	 5.850906501482751e-01
1	 2.219831117265688e+00	 6.286820596301397e-01	 3.744936322364310e-01
1	 2.205308944691468e+00	 6.778672217301693e-01	 1.764018213838725e-01
1	 2.189607360595696e+00	 7.269877844425154e-01	-9.478660581156650e-03
1	 2.172719584011091e+00	 7.760034052884064e-01	-1.834499446230206e-01
1	 2.154640595537924e+00	 8.248730459107300e-01	-3.458184255112712e-01
1	 2.135367197082753e+00	 8.735550642842691e-01	-4.968906036294097e-01
1	 2.114898066051313e+00	 9.220073122162220e-01	-6.369687937507540e-01
1	 2.093233803491546e+00	 9.701872377670455e-01	-7.663467402696327e-01
1	 2.277372077745035e+00	 4.855990292153431e-01	 1.014275504918444e+00
1	 2.266228282520663e+00	 5.352006277637669e-01	 7.848666429684326e-01
1	 2.253924644887158e+00	 5.848541201823239e-01	 5.685066528536065e-01
1	 2.240449396817386e+00	 6.345213968453441e-01	 3.649991299826655e-01
1	 2.225792339110761e+00	 6.841634015464994e-01	 1.741482074946982e-01
1	 2.209944915249102e+00	 7.337402068466751e-01	-4.237804317626770e-03
1	 2.192900281282004e+00	 7.832110955572863e-01	-1.703426751333823e-01
1	 2.174653371188434e+00	 8.325346481479363e-01	-3.243384430934846e-01
1	 2.155200957170344e+00	 8.816688358131211e-01	-4.663815721818957e-01
1	 2.134541704348909e+00	 9.305711188783562e-01	-5.966091183530360e-01
1	 2.112676219354720e+00	 9.791985501723268e-01	-7.151349461446512e-01
1	 2.298330137454701e+00	 4.900678700994515e-01	 9.858243957567394e-01
1	 2.287083788796493e+00	 5.401259391885382e-01	 7.635255524707523e-01
1	 2.274666924002859e+00	 5.902363797134946e-01	 5.541229378055552e-01
1	 2.261067666748581e+00	 6.403607313357293e-01	 3.575561879750604e-01
1	 2.246275723972488e+00	 6.904595784248611e-01	 1.737715116012263e-01
1	 2.230282460412988e+00	 7.404926260999934e-01	 2.724622746041794e-03
1	 2.213080969136578e+00	 7.904187824629013e-01	-1.556162965432938e-01
1	 2.194666137500949e+00	 8.401962468100808e-01	-3.012676356528056e-01
1	 2.175034708003458e+00	 8.897826035559196e-01	-4.342274300030135e-01
1	 2.154185333480725e+00	 9.391349215444331e-01	-5.544725054145259e-01
1	 2.132118626145997e+00	 9.882098583727182e-01	-6.619557277539039e-01
1	 2.319288170269756e+00	 4.945367052482362e-01	 9.580771220871492e-01
1	 2.307939268309359e+00	 5.450512442922796e-01	 7.433977978273941e-01
1	 2.295409176500926e+00	 5.956186323373118e-01	 5.412593409547856e-01
1	 2.281685910221292e+00	 6.462000583322722e-01	 3.518022791011812e-01
1	 2.266759082548822e+00	 6.967557472231837e-01	 1.751698386880397e-01
1	 2.250619979478617e+00	 7.472450366878393e-01	 1.150939441084653e-02
1	 2.233261631094163e+00	 7.976264601188545e-01	-1.390260734425524e-01
1	 2.214678878131932e+00	 8.478578356401045e-01	-2.762765325961401e-01
1	 2.194868433384731e+00	 8.978963608863662e-01	-4.000734830438321e-01
1	 2.173828937404647e+00	 9.476987132206544e-01	-5.102385924260253e-01
1	 2.151561007987568e+00	 9.972211550089856e-01	-6.065824034515416e-01
1	 2.340246159074666e+00	 4.990055310117795e-01	 9.296051474805153e-01
1	 2.328794704027514e+00	 5.499765390523342e-01	 7.234674820122127e-01
1	 2.316151385442097e+00	 6.010008736579895e-01	 5.292600662278693e-01
1	 2.302304110397535e+00	 6.520393730659489e-01	 3.473878650754064e-01
1	 2.287242398111933e+00	 7.030519027993953e-01	 1.782449451203519e-01
1	 2.270957455837254e+00	 7.539974330955811e-01	 2.221367469956592e-02
1	 2.253442250674105e+00	 8.048341226387467e-01	-1.203360382272455e-01
1	 2.234691576737848e+00	 8.555194083809484e-01	-2.490474673001168e-01
1	 2.214702117116804e+00	 9.060101011781614e-01	-3.635777452327064e-01
1	 2.193472500078554e+00	 9.562624869132216e-01	-4.635984951520900e-01
1	 2.171003349001629e+00	 1.006232432721893e+00	-5.487964138814199e-01
1	 2.361204086753899e+00	 5.034743437401641e-01	 8.990306566661870e-01
1	 2.349650078919209e+00	 5.549018194460459e-01	 7.027547797533931e-01
1	 2.336893533887108e+00	 6.063830992797401e-01	 5.174926042041739e-01
1	 2.322922250439329e+00	 6.578786707677364e-01	 3.439758201528295e-01
1	 2.307725653933993e+00	 7.093480400114246e-01	 1.829020767586122e-01
1	 2.291294872880161e+00	 7.607498098085866e-01	 3.493117821086211e-02
1	 2.273622811395755e+00	 8.120417641361812e-01	-9.931860185112723e-02
1	 2.254704216975163e+00	 8.631809587755539e-01	-2.192740531393503e-01
1	 2.234535743002314e+00	 9.141238178050065e-01	-3.244103744063193e-01
1	 2.213116005460331e+00	 9.648262356283369e-01	-4.142542981603914e-01
1	 2.190445633310372e+00	 1.015243684152207e+00	-4.883869614740782e-01
1	 2.382161936191926e+00	 5.079431397834724e-01	 8.650243240827715e-01
1	 2.370505375952691e+00	 5.598270814507580e-01	 6.803143506785732e-01
1	 2.357635604896696e+00	 6.117653048067765e-01	 5.053467077868476e-01
1	 2.343540313508692e+00	 6.637179466686113e-01	 3.412408852179283e-01
1	 2.328208833287173e+00	 7.156441537172005e-01	 1.890498156057240e-01
1	 2.311632213998602e+00	 7.675021613122252e-01	 4.975232202145818e-02
1	 2.293803296778457e+00	 8.192493787247600e-01	-7.575418509342624e-02
1	 2.274716782500338e+00	 8.708424805668625e-01	-1.866606871320893e-01
1	 2.254369294843901e+00	 9.222375041406022e-01	-2.822531379715717e-01
1	 2.232759437507859e+00	 9.733899523722006e-01	-3.619185722041771e-01
1	 2.209887845035992e+00	 1.024254901940693e+00	-4.251506689450437e-01
1	 2.403119690273213e+00	 5.124119154917871e-01	 8.263031990192389e-01
1	 2.391360578096211e+00	 5.647523210438142e-01	 6.552338353711650e-01
1	 2.378377581531597e+00	 6.171474858433109e-01	 4.922334213937192e-01
1	 2.364158282767639e+00	 6.695571959995501e-01	 3.388691503964034e-01
1	 2.348691919443643e+00	 7.219402387746505e-01	 1.965999344667538e-01
1	 2.331969462583841e+00	 7.742544820918645e-01	 6.676436965162708e-02
1	 2.313983690341562e+00	 8.264569605180853e-01	-4.943086909246563e-02
1	 2.294729256969841e+00	 8.785039674978151e-01	-1.509220795197921e-01
1	 2.274202756444202e+00	 9.303511535586509e-01	-2.367989064859909e-01
1	 2.252402780179022e+00	 9.819536301510154e-01	-3.063139168209131e-01
1	 2.229329968300680e+00	 1.033266078728114e+00	-3.588912556362409e-01
1	 2.424077331882229e+00	 5.168806672151909e-01	 7.816287003008355e-01
1	 2.412215668318022e+00	 5.696775342025580e-01	 6.266324293274738e-01
1	 2.399119446852547e+00	 6.225296379935568e-01	 4.775841604338689e-01
1	 2.384776141378188e+00	 6.753964139915297e-01	 3.365575644665499e-01
1	 2.369174895675575e+00	 7.282362900417040e-01	 2.054672591369419e-01
1	 2.352306602027141e+00	 7.810067666328734e-01	 8.605156757357973e-02
1	 2.334163975604418e+00	 8.336645036297594e-01	-2.014406398085028e-02
1	 2.314741624040133e+00	 8.861654133113528e-01	-1.117828077134183e-01
1	 2.294036111605858e+00	 9.384647594328523e-01	-1.877511734695521e-01
1	 2.272046017431703e+00	 9.905172619709826e-01	-2.471725266233304e-01
1	 2.248771987226633e+00	 1.042277207155237e+00	-2.894192306221974e-01
1	 2.445034843903442e+00	 5.213493913037660e-01	 7.298047139566289e-01
1	 2.433070629586371e+00	 5.746027169043326e-01	 5.936595301473517e-01
1	 2.419861183920283e+00	 6.279117568617266e-01	 4.608498380571290e-01
1	 2.405393872502356e+00	 6.812355958755263e-01	 3.340134694645226e-01
1	 2.389657745255139e+00	 7.345323023762887e-01	 2.155695376669599e-01
1	 2.372643615719767e+00	 7.877590094206199e-01	 1.076952747095562e-01
1	 2.354344136086372e+00	 8.408720021733842e-01	 1.230380546229465e-02
1	 2.334753867367681e+00	 8.938268117504171e-01	-6.897689314655731e-02
1	 2.313869344131505e+00	 9.465783151369085e-01	-1.348235998763027e-01
1	 2.291689133223782e+00	 9.990808408383031e-01	-1.842357798633570e-01
1	 2.268213885936042e+00	 1.051288279862827e+00	-2.165516015766645e-01
1	 2.073791394434280e+00	 9.611759285161097e-01	-8.158262948137640e-01
1	 2.051145241532621e+00	 1.008599410192016e+00	-9.411595988570041e-01
1	 2.027321972724093e+00	 1.055667947389144e+00	-1.047667376093883e+00
1	 2.002328134979822e+00	 1.102338812178033e+00	-1.136945633529574e+00
1	 1.976172303658703e+00	 1.148569322048130e+00	-1.210855716553010e+00
1	 1.948865093828005e+00	 1.194316958604124e+00	-1.271517137385723e+00
1	 1.920419163335237e+00	 1.239539487946723e+00	-1.321298209008602e+00
1	 1.890849207429085e+00	 1.284195082073666e+00	-1.362804512627234e+00
1	 1.860171944788112e+00	 1.328242440612528e+00	-1.398865252327071e+00
1	 1.828406094879804e+00	 1.371640912178962e+00	-1.432517576200429e+00
1	 1.795572346638762e+00	 1.414350614642753e+00	-1.466988968475173e+00
1	 2.093233803491546e+00	 9.701872377670455e-01	-7.663467402696325e-01
1	 2.070375336193575e+00	 1.018055328641494e+00	-8.806231239126785e-01
1	 2.046328717178178e+00	 1.065565147327488e+00	-9.761511193078719e-01
1	 2.021100554796270e+00	 1.112673565308554e+00	-1.054594653437281e+00
1	 1.994699504803280e+00	 1.159337499912949e+00	-1.117908532338412e+00
1	 1.967136281785876e+00	 1.205514034122794e+00	-1.168330917710328e+00
1	 1.938423662262635e+00	 1.251160538083469e+00	-1.208373383789400e+00
1	 1.908576479254555e+00	 1.296234791642787e+00	-1.240808582137831e+00
1	 1.877611608182762e+00	 1.340695107225082e+00	-1.268655570234372e+00
1	 1.845547944015299e+00	 1.384500452327225e+00	-1.295162888092889e+00
1	 1.812406369651657e+00	 1.427610570912203e+00	-1.323789495093370e+00
1	 2.112676219354720e+00	 9.791985501723268e-01	-7.151349461446512e-01
1	 2.089605437586121e+00	 1.027511250400900e+00	-8.180639013576552e-01
1	 2.065335468285674e+00	 1.075462350730172e+00	-9.024246097072663e-01
1	 2.039872981184107e+00	 1.123008322056522e+00	-9.699591282296607e-01
1	 2.013226712433403e+00	 1.170105681546873e+00	-1.022722840707986e+00
1	 1.985407476139666e+00	 1.216711113560648e+00	-1.063076474665142e+00
1	 1.956428167492585e+00	 1.262781592287759e+00	-1.093675496605868e+00
1	 1.926303757285513e+00	 1.308274505425956e+00	-1.117456914147535e+00
1	 1.895051277682196e+00	 1.353147778196205e+00	-1.137623544336328e+00
1	 1.862689799151294e+00	 1.397359996976461e+00	-1.157625838219465e+00
1	 1.829240398557255e+00	 1.440870531822783e+00	-1.181141382125915e+00
1	 2.132118626145997e+00	 9.882098583727182e-01	-6.619557277539037e-01
1	 2.108835530005828e+00	 1.036967167747927e+00	-7.533672813312436e-01
1	 2.084342210524538e+00	 1.085359549514531e+00	-8.264790027344966e-01
1	 2.058645398812639e+00	 1.133343073981953e+00	-8.831211969057015e-01
1	 2.031753911418633e+00	 1.180873858155975e+00	-9.254569116591940e-01
1	 2.003678661968010e+00	 1.227908187773503e+00	-9.559733886680555e-01
1	 1.974432664321512e+00	 1.274402641069175e+00	-9.774707135077898e-01
1	 1.944031027044785e+00	 1.320314213590864e+00	-9.930476957889384e-01
1	 1.912490939044124e+00	 1.365600443356347e+00	-1.006085043238071e+00
1	 1.879831646288713e+00	 1.410219535624845e+00	-1.020225926533466e+00
1	 1.846074419607875e+00	 1.454130486545666e+00	-1.039354064222924e+00
1	 2.151561007987568e+00	 9.972211550089856e-01	-6.065824034515416e-01
1	 2.128065597748260e+00	 1.046423072960264e+00	-6.864227598939570e-01
1	 2.103348928372724e+00	 1.095256735597897e+00	-7.483057750201270e-01
1	 2.077417792351176e+00	 1.143677812644865e+00	-7.941600307103064e-01
1	 2.050281086628532e+00	 1.191642020946323e+00	-8.262632954594350e-01
1	 2.021949824349539e+00	 1.239105247617180e+00	-8.472333042915740e-01
1	 1.992437138045842e+00	 1.286023674937303e+00	-8.600155810209034e-01
1	 1.961758274055199e+00	 1.332353906305199e+00	-8.678683376627636e-01
1	 1.929930578026248e+00	 1.378053092535955e+00	-8.743445205586715e-01
1	 1.896973471428480e+00	 1.423079057770548e+00	-8.832711076383906e-01
1	 1.862908419055833e+00	 1.467390424252021e+00	-8.987257956222756e-01
1	 2.171003349001629e+00	 1.006232432721893e+00	-5.487964138814199e-01
1	 2.147295625108984e+00	 1.055878958315605e+00	-6.171237933972867e-01
1	 2.122355606308186e+00	 1.105153900897605e+00	-6.678967100384290e-01
1	 2.096190146469026e+00	 1.154012529605275e+00	-7.031519660924206e-01
1	 2.068808222932662e+00	 1.202410161123989e+00	-7.252890788729178e-01
1	 2.040220948362890e+00	 1.250302283947496e+00	-7.370602857754867e-01
1	 2.010441573962000e+00	 1.297644684401728e+00	-7.415574571165386e-01
1	 1.979485483839581e+00	 1.344393573736651e+00	-7.421959566938167e-01
1	 1.947370180386277e+00	 1.390505715565476e+00	-7.426955264656790e-01
1	 1.914115260571517e+00	 1.435938552911743e+00	-7.470583082605433e-01
1	 1.879742383153447e+00	 1.480650334113018e+00	-7.595441513904994e-01
1	 2.190445633310372e+00	 1.015243684152207e+00	-4.883869614740782e-01
1	 2.166525596383566e+00	 1.065334816091642e+00	-5.453676227243514e-01
1	 2.141362228808880e+00	 1.115051037330987e+00	-5.852438845257344e-01
1	 2.114962445835497e+00	 1.164347216423201e+00	-6.101706305931991e-01
1	 2.087335305200585e+00	 1.213178269895043e+00	-6.226761277627872e-01
1	 2.058492019086692e+00	 1.261499287620269e+00	-6.256511536353174e-01
1	 2.028445957366415e+00	 1.309265659972034e+00	-6.223349192645986e-01
1	 1.997212641920757e+00	 1.356433206052907e+00	-6.162978333112472e-01
1	 1.964809731881917e+00	 1.402958302275360e+00	-6.114211920089648e-01
1	 1.931256999718747e+00	 1.448798010546607e+00	-6.118739172052052e-01
1	 1.896576298153035e+00	 1.493910205299827e+00	-6.220865020104207e-01
1	 2.209887845035992e+00	 1.024254901940693e+00	-4.251506689450436e-01
1	 2.185755495867571e+00	 1.074790638566064e+00	-4.710551067945155e-01
1	 2.160368780352759e+00	 1.124948136815378e+00	-5.003396556147335e-01
1	 2.133734675119899e+00	 1.174681864658661e+00	-5.152870620989450e-01
1	 2.105862318301863e+00	 1.223946338465557e+00	-5.185613169063056e-01
1	 2.076763021599581e+00	 1.272696249491318e+00	-5.131958035289546e-01
1	 2.046450273555509e+00	 1.320886592157804e+00	-5.025781509790255e-01
1	 2.014939733821552e+00	 1.368472793421657e+00	-4.904318445319194e-01
1	 1.982249218270876e+00	 1.415410842496054e+00	-4.807946879265225e-01
1	 1.948398674871096e+00	 1.461657420173310e+00	-4.779942494884550e-01
1	 1.913410150306914e+00	 1.507170026983618e+00	-4.866204629544366e-01
1	 2.229329968300680e+00	 1.033266078728114e+00	-3.588912556362409e-01
1	 2.204985307856567e+00	 1.084246418016566e+00	-3.940905647671922e-01
1	 2.179375245417779e+00	 1.134845191268110e+00	-4.131766486410304e-01
1	 2.152506818991539e+00	 1.185016465871671e+00	-4.185698218633095e-01
1	 2.124389247106057e+00	 1.234714358041600e+00	-4.130767478025322e-01
1	 2.095033940980191e+00	 1.283893160416461e+00	-3.998775084629753e-01
1	 2.064454507825709e+00	 1.332507471468625e+00	-3.825093081668742e-01
1	 2.032666745064793e+00	 1.380512326010591e+00	-3.648468744158277e-01
1	 1.999688625310859e+00	 1.427863326058007e+00	-3.510796594783426e-01
1	 1.965540272029484e+00	 1.474516771290027e+00	-3.456859862187610e-01
1	 1.930243925867402e+00	 1.520429788335561e+00	-3.534043207682931e-01
1	 2.248771987226633e+00	 1.042277207155237e+00	-2.894192306221973e-01
1	 2.224215016646120e+00	 1.093702146720838e+00	-3.143816264192072e-01
1	 2.198381608481893e+00	 1.144742192606517e+00	-3.237477455813546e-01
1	 2.171278862119725e+00	 1.195351011622250e+00	-3.200851016752391e-01
1	 2.142916076482729e+00	 1.245482319829243e+00	-3.063499551981532e-01
1	 2.113304762307152e+00	 1.295090011251518e+00	-2.858732053454409e-01
1	 2.082458645473441e+00	 1.344128288414080e+00	-2.623428665013934e-01
1	 2.050393661173307e+00	 1.392551793987397e+00	-2.397832032609638e-01
1	 2.017127938759572e+00	 1.440315742791666e+00	-2.225306387569800e-01
1	 1.982681777194836e+00	 1.487376053394931e+00	-2.152065916938564e-01
1	 1.947077611086815e+00	 1.533689478526827e+00	-2.226874370848355e-01
1	 2.268213885936042e+00	 1.051288279862827e+00	-2.165516015766645e-01
1	 2.243444606531794e+00	 1.103157816956572e+00	-2.318390902060013e-01
1	 2.217387854023056e+00	 1.154639132747933e+00	-2.320460740855861e-01
1	 2.190050789173766e+00	 1.205685493470414e+00	-2.198968255234882e-01
1	 2.161442791301442e+00	 1.256250215034557e+00	-1.985041030073615e-01
1	 2.131575470659103e+00	 1.306286792852306e+00	-1.713537668230572e-01
1	 2.100462671795131e+00	 1.355749033503755e+00	-1.422859509560890e-01
1	 2.068120467669920e+00	 1.404591187519763e+00	-1.154728768114090e-01
1	 2.034567144374725e+00	 1.452768082527481e+00	-9.539343582430074e-02
1	 1.999823176368074e+00	 1.500235255986195e+00	-8.680470907799459e-02
1	 1.963911192217472e+00	 1.546949086728585e+00	-9.471063189002579e-02
1	 1.795572346638762e+00	 1.414350614642753e+00	-1.466988968475173e+00
1	 1.761693313516659e+00	 1.456332557532000e+00	-1.510472686433679e+00
1	 1.726793470031414e+00	 1.497548769785776e+00	-1.569836804515708e+00
1	 1.690899110080739e+00	 1.537962400507998e+00	-1.646441575917664e+00
1	 1.654038287239560e+00	 1.577537823697865e+00	-1.741625745590236e+00
1	 1.616240742336427e+00	 1.616240742336428e+00	-1.856697568889283e+00
1	 1.577537823697864e+00	 1.654038287239561e+00	-1.992925918929772e+00
1	 1.537962400507997e+00	 1.690899110080740e+00	-2.151531565576380e+00
1	 1.497548769785776e+00	 1.726793470031415e+00	-2.333678707746997e+00
1	 1.456332557532000e+00	 1.761693313516660e+00	-2.540466838320289e+00
1	 1.414350614642753e+00	 1.795572346638762e+00	-2.772923017459112e+00
1	 1.812406369651657e+00	 1.427610570912203e+00	-1.323789495093370e+00
1	 1.778209710551321e+00	 1.469986106960876e+00	-1.362643036387420e+00
1	 1.742982670688069e+00	 1.511588733422366e+00	-1.418300498710269e+00
1	 1.706751790472699e+00	 1.552381253912513e+00	-1.492049846871403e+00
1	 1.669545386490718e+00	 1.592327708426201e+00	-1.585145252129640e+00
1	 1.631393478399758e+00	 1.631393478399759e+00	-1.698798902393584e+00
1	 1.592327708426200e+00	 1.669545386490718e+00	-1.834172995801764e+00
1	 1.552381253912513e+00	 1.706751790472700e+00	-1.992371992035243e+00
1	 1.511588733422365e+00	 1.742982670688069e+00	-2.174435193442605e+00
1	 1.469986106960875e+00	 1.778209710551321e+00	-2.381329724790004e+00
1	 1.427610570912203e+00	 1.812406369651657e+00	-2.613943976238769e+00
1	 1.829240398557255e+00	 1.440870531822783e+00	-1.181141382125915e+00
1	 1.794726113367449e+00	 1.483639661168670e+00	-1.216119834244338e+00
1	 1.759171877011598e+00	 1.525628701973163e+00	-1.268779919766720e+00
1	 1.722604476413673e+00	 1.566800112363906e+00	-1.340328171449383e+00
1	 1.685052491169857e+00	 1.607117598331341e+00	-1.431922964231677e+00
1	 1.646546219766967e+00	 1.646546219766968e+00	-1.544667195370931e+00
1	 1.607117598331341e+00	 1.685052491169857e+00	-1.679601260345870e+00
1	 1.566800112363906e+00	 1.722604476413674e+00	-1.837696389441827e+00
1	 1.525628701973163e+00	 1.759171877011599e+00	-2.019848406439155e+00
1	 1.483639661168669e+00	 1.794726113367450e+00	-2.226871966489346e+00
1	 1.440870531822783e+00	 1.829240398557255e+00	-2.459495325150546e+00
1	 1.846074419607875e+00	 1.454130486545666e+00	-1.039354064222924e+00
1	 1.811242508476762e+00	 1.497293209005121e+00	-1.071191710129175e+00
1	 1.775361075780934e+00	 1.539668663972335e+00	-1.121534945544973e+00
1	 1.738457154957424e+00	 1.581218964086913e+00	-1.191499906899488e+00
1	 1.700559588612969e+00	 1.621907481335013e+00	-1.282138165564046e+00
1	 1.661698954063444e+00	 1.661698954063445e+00	-1.394430355448629e+00
1	 1.621907481335012e+00	 1.700559588612970e+00	-1.529280226243045e+00
1	 1.581218964086913e+00	 1.738457154957425e+00	-1.687509176925904e+00
1	 1.539668663972334e+00	 1.775361075780934e+00	-1.869851319252854e+00
1	 1.497293209005120e+00	 1.811242508476762e+00	-2.076949115342961e+00
1	 1.454130486545666e+00	 1.846074419607875e+00	-2.309349627297784e+00
1	 1.862908419055833e+00	 1.467390424252021e+00	-8.987257956222756e-01
1	 1.827758882390974e+00	 1.510946739319964e+00	-9.281368670546477e-01
1	 1.791550253775006e+00	 1.553708607954045e+00	-9.768160674926420e-01
1	 1.754309813157710e+00	 1.595637797306269e+00	-1.045780345606049e+00
1	 1.716066666156044e+00	 1.636697345358937e+00	-1.135963669464845e+00
1	 1.676851668914581e+00	 1.676851668914582e+00	-1.248211678297978e+00
1	 1.636697345358936e+00	 1.716066666156043e+00	-1.383276907043819e+00
1	 1.595637797306269e+00	 1.754309813157711e+00	-1.541814627182391e+00
1	 1.553708607954044e+00	 1.791550253775007e+00	-1.724379340809519e+00
1	 1.510946739319963e+00	 1.827758882390974e+00	-1.931421957880751e+00
1	 1.467390424252021e+00	 1.862908419055833e+00	-2.163287679129949e+00
1	 1.879742383153447e+00	 1.480650334113018e+00	-7.595441513904994e-01
1	 1.844275221621801e+00	 1.524600240962937e+00	-7.872235485431440e-01
1	 1.807739397772746e+00	 1.567748522452459e+00	-8.348648117749348e-01
1	 1.770162438068293e+00	 1.610056600246711e+00	-9.033770771462994e-01
1	 1.731573711135070e+00	 1.651487178324838e+00	-9.935661096931070e-01
1	 1.692004351945769e+00	 1.692004351945770e+00	-1.106130055252470e+00
1	 1.651487178324837e+00	 1.731573711135070e+00	-1.241655929289091e+00
1	 1.610056600246710e+00	 1.770162438068294e+00	-1.400616874244086e+00
1	 1.567748522452457e+00	 1.807739397772746e+00	-1.583370208583623e+00
1	 1.524600240962937e+00	 1.844275221621801e+00	-1.790156282070208e+00
1	 1.480650334113017e+00	 1.879742383153447e+00	-2.021098142953399e+00
1	 1.896576298153035e+00	 1.493910205299827e+00	-6.220865020104207e-01
1	 1.860791512680959e+00	 1.538253702783777e+00	-6.487104813828263e-01
1	 1.823928494553083e+00	 1.581788396001739e+00	-6.959141380112439e-01
1	 1.786015016742933e+00	 1.624475361132975e+00	-7.644903310946916e-01
1	 1.747080710886038e+00	 1.666276968154439e+00	-8.551062157188329e-01
1	 1.707156990782400e+00	 1.707156990782400e+00	-9.683001698860848e-01
1	 1.666276968154439e+00	 1.747080710886039e+00	-1.104479639615950e+00
1	 1.624475361132974e+00	 1.786015016742933e+00	-1.263919920841295e+00
1	 1.581788396001738e+00	 1.823928494553083e+00	-1.446763886472973e+00
1	 1.538253702783777e+00	 1.860791512680960e+00	-1.653022656547842e+00
1	 1.493910205299827e+00	 1.896576298153035e+00	-1.882577198983582e+00
1	 1.913410150306914e+00	 1.507170026983618e+00	-4.866204629544366e-01
1	 1.877307742080164e+00	 1.551907113632220e+00	-5.128472950472314e-01
1	 1.840117530894949e+00	 1.595828217136052e+00	-5.601888169953108e-01
1	 1.801867536235389e+00	 1.638894068189795e+00	-6.293133017589213e-01
1	 1.762587652744938e+00	 1.681066702769467e+00	-7.207390735032893e-01
1	 1.722309573049862e+00	 1.722309573049863e+00	-8.348326842305358e-01
1	 1.681066702769466e+00	 1.762587652744940e+00	-9.718082062183427e-01
1	 1.638894068189795e+00	 1.801867536235390e+00	-1.131727645373758e+00
1	 1.595828217136051e+00	 1.840117530894950e+00	-1.314502468056377e+00
1	 1.551907113632220e+00	 1.877307742080165e+00	-1.519896221486799e+00
1	 1.507170026983617e+00	 1.913410150306914e+00	-1.747528215736780e+00
1	 1.930243925867402e+00	 1.520429788335561e+00	-3.534043207682931e-01
1	 1.893823896331132e+00	 1.565560462358004e+00	-3.798749192008180e-01
1	 1.856306493577275e+00	 1.609867974389562e+00	-4.279057886801635e-01
1	 1.817719983599424e+00	 1.653312709641909e+00	-4.980324559491071e-01
1	 1.778094524047761e+00	 1.695856370091642e+00	-5.906143726540780e-01
1	 1.737462086373549e+00	 1.737462086373550e+00	-7.058344152631735e-01
1	 1.695856370091641e+00	 1.778094524047761e+00	-8.436997150068493e-01
1	 1.653312709641909e+00	 1.817719983599424e+00	-1.004043808518494e+00
1	 1.609867974389562e+00	 1.856306493577276e+00	-1.186530084906259e+00
1	 1.565560462358004e+00	 1.893823896331133e+00	-1.390656490391674e+00
1	 1.520429788335561e+00	 1.930243925867402e+00	-1.615761437643825e+00
1	 1.947077611086815e+00	 1.533689478526827e+00	-2.226874370848355e-01
1	 1.910339961945579e+00	 1.579213737810865e+00	-2.500259606148112e-01
1	 1.872495369378991e+00	 1.623907656296434e+00	-2.992745016204486e-01
1	 1.833572345888796e+00	 1.667731273714054e+00	-3.708278248053828e-01
1	 1.793601312130495e+00	 1.710645958042690e+00	-4.648766407783476e-01
1	 1.752614518378852e+00	 1.752614518378852e+00	-5.814085022533932e-01
1	 1.710645958042689e+00	 1.793601312130496e+00	-7.202102607877562e-01
1	 1.667731273714053e+00	 1.833572345888797e+00	-8.808720594956798e-01
1	 1.623907656296433e+00	 1.872495369378991e+00	-1.062792819650667e+00
1	 1.579213737810864e+00	 1.910339961945580e+00	-1.265187162160222e+00
1	 1.533689478526827e+00	 1.947077611086815e+00	-1.487093688844835e+00
1	 1.963911192217472e+00	 1.546949086728585e+00	-9.471063189002579e-02
1	 1.926855925435220e+00	 1.592866928840539e+00	-1.235250607269283e-01
1	 1.888684145079027e+00	 1.637947251390831e+00	-1.744972349830630e-01
1	 1.849424610157267e+00	 1.682149748630962e+00	-2.478732806390928e-01
1	 1.809108004329131e+00	 1.725435454544333e+00	-3.436654658011269e-01
1	 1.767766856691161e+00	 1.767766856691161e+00	-4.616545655153266e-01
1	 1.725435454544332e+00	 1.809108004329131e+00	-6.013940337599735e-01
1	 1.682149748630961e+00	 1.849424610157268e+00	-7.622159420129565e-01
1	 1.637947251390831e+00	 1.888684145079027e+00	-9.432386235002280e-01
1	 1.592866928840538e+00	 1.926855925435221e+00	-1.143375942796629e+00
1	 1.546949086728585e+00	 1.963911192217472e+00	-1.361348092195671e+00
1	 1.414350614642753e+00	 1.795572346638762e+00	-2.772923017459112e+00
1	 1.371640912178961e+00	 1.828406094879805e+00	-3.031986207853229e+00
1	 1.328242440612527e+00	 1.860171944788112e+00	-3.317192088702229e+00
1	 1.284195082073665e+00	 1.890849207429085e+00	-3.627252392141152e+00
1	 1.239539487946722e+00	 1.920419163335237e+00	-3.960686666958543e+00
1	 1.194316958604123e+00	 1.948865093828005e+00	-4.315835856501899e+00
1	 1.148569322048129e+00	 1.976172303658703e+00	-4.690876962547171e+00
1	 1.102338812178032e+00	 2.002328134979822e+00	-5.083838638301888e+00
1	 1.055667947389144e+00	 2.027321972724094e+00	-5.492617547156510e+00
1	 1.008599410192015e+00	 2.051145241532621e+00	-5.914995319615240e+00
1	 9.611759285161097e-01	 2.073791394434280e+00	-6.348655939016747e+00
1	 1.427610570912203e+00	 1.812406369651657e+00	-2.613943976238769e+00
1	 1.384500452327224e+00	 1.845547944015299e+00	-2.872808207810801e+00
1	 1.340695107225081e+00	 1.877611608182762e+00	-3.157161516760645e+00
1	 1.296234791642786e+00	 1.908576479254555e+00	-3.465736849293723e+00
1	 1.251160538083468e+00	 1.938423662262635e+00	-3.797069306453524e+00
1	 1.205514034122793e+00	 1.967136281785876e+00	-4.149509844004633e+00
1	 1.159337499912948e+00	 1.994699504803280e+00	-4.521240105697069e+00
1	 1.112673565308554e+00	 2.021100554796270e+00	-4.910288230145379e+00
1	 1.065565147327487e+00	 2.046328717178179e+00	-5.314545464553126e+00
1	 1.018055328641493e+00	 2.070375336193575e+00	-5.731783413939513e+00
1	 9.701872377670455e-01	 2.093233803491546e+00	-6.159671752381525e+00
1	 1.440870531822783e+00	 1.829240398557255e+00	-2.459495325150546e+00
1	 1.397359996976461e+00	 1.862689799151295e+00	-2.717833443802693e+00
1	 1.353147778196205e+00	 1.895051277682197e+00	-3.000855746416496e+00
1	 1.308274505425955e+00	 1.926303757285513e+00	-3.307350352910734e+00
1	 1.262781592287758e+00	 1.956428167492585e+00	-3.635909663151918e+00
1	 1.216711113560648e+00	 1.985407476139667e+00	-3.984943715591607e+00
1	 1.170105681546872e+00	 2.013226712433402e+00	-4.352694674956721e+00
1	 1.123008322056521e+00	 2.039872981184107e+00	-4.737252292243959e+00
1	 1.075462350730171e+00	 2.065335468285674e+00	-5.136570173200842e+00
1	 1.027511250400900e+00	 2.089605437586122e+00	-5.548482686803249e+00
1	 9.791985501723267e-01	 2.112676219354720e+00	-5.970722342960589e+00
1	 1.454130486545666e+00	 1.846074419607875e+00	-2.309349627297784e+00
1	 1.410219535624844e+00	 1.879831646288714e+00	-2.566766181146201e+00
1	 1.365600443356346e+00	 1.912490939044124e+00	-2.847944779829591e+00
1	 1.320314213590864e+00	 1.944031027044786e+00	-3.151761621721987e+00
1	 1.274402641069174e+00	 1.974432664321512e+00	-3.476906960140345e+00
1	 1.227908187773503e+00	 2.003678661968010e+00	-3.821897664643168e+00
1	 1.180873858155973e+00	 2.031753911418634e+00	-4.185090856004003e+00
1	 1.133343073981952e+00	 2.058645398812639e+00	-4.564698467004668e+00
1	 1.085359549514530e+00	 2.084342210524538e+00	-4.958802574440885e+00
1	 1.036967167747926e+00	 2.108835530005828e+00	-5.365371343243886e+00
1	 9.882098583727184e-01	 2.132118626145997e+00	-5.782275421397439e+00
1	 1.467390424252021e+00	 1.862908419055833e+00	-2.163287679129949e+00
1	 1.423079057770546e+00	 1.896973471428480e+00	-2.419321385397954e+00
1	 1.378053092535954e+00	 1.929930578026248e+00	-2.698110555340704e+00
1	 1.332353906305199e+00	 1.961758274055200e+00	-2.998651353930506e+00
1	 1.286023674937302e+00	 1.992437138045842e+00	-3.319771293915363e+00
1	 1.239105247617180e+00	 2.021949824349539e+00	-3.660140550556101e+00
1	 1.191642020946322e+00	 2.050281086628532e+00	-4.018284244280445e+00
1	 1.143677812644864e+00	 2.077417792351176e+00	-4.392595558095808e+00
1	 1.095256735597896e+00	 2.103348928372724e+00	-4.781349550542970e+00
1	 1.046423072960264e+00	 2.128065597748261e+00	-5.182717520949877e+00
1	 9.972211550089856e-01	 2.151561007987568e+00	-5.594781781758090e+00
1	 1.480650334113017e+00	 1.879742383153447e+00	-2.021098142953399e+00
1	 1.435938552911743e+00	 1.914115260571518e+00	-2.275224244323097e+00
1	 1.390505715565476e+00	 1.947370180386277e+00	-2.551046413991453e+00
1	 1.344393573736650e+00	 1.979485483839581e+00	-2.847711691667907e+00
1	 1.297644684401727e+00	 2.010441573962001e+00	-3.164223148229410e+00
1	 1.250302283947495e+00	 2.040220948362889e+00	-3.499449511295333e+00
1	 1.202410161123988e+00	 2.068808222932663e+00	-3.852135603226816e+00
1	 1.154012529605274e+00	 2.096190146469027e+00	-4.220913478822363e+00
1	 1.105153900897604e+00	 2.122355606308187e+00	-4.604314144986295e+00
1	 1.055878958315605e+00	 2.147295625108984e+00	-5.000779741367751e+00
1	 1.006232432721893e+00	 2.171003349001629e+00	-5.408676059401760e+00
1	 1.493910205299827e+00	 1.896576298153035e+00	-1.882577198983582e+00
1	 1.448798010546606e+00	 1.931256999718748e+00	-2.134209715283840e+00
1	 1.402958302275359e+00	 1.964809731881918e+00	-2.406456594412181e+00
1	 1.356433206052906e+00	 1.997212641920757e+00	-2.698645713927426e+00
1	 1.309265659972032e+00	 2.028445957366415e+00	-3.009992933788033e+00
1	 1.261499287620268e+00	 2.058492019086692e+00	-3.339609596548208e+00
1	 1.213178269895042e+00	 2.087335305200585e+00	-3.686510635374075e+00
1	 1.164347216423200e+00	 2.114962445835498e+00	-4.049623203246313e+00
1	 1.115051037330986e+00	 2.141362228808881e+00	-4.427795733153789e+00
1	 1.065334816091641e+00	 2.166525596383565e+00	-4.819807336821446e+00
1	 1.015243684152207e+00	 2.190445633310373e+00	-5.224377448551757e+00
1	 1.507170026983617e+00	 1.913410150306914e+00	-1.747528215736780e+00
1	 1.461657420173309e+00	 1.948398674871096e+00	-1.996022096484201e+00
1	 1.415410842496053e+00	 1.982249218270876e+00	-2.264055754333129e+00
1	 1.368472793421657e+00	 2.014939733821552e+00	-2.551166956223322e+00
1	 1.320886592157803e+00	 2.046450273555509e+00	-2.856820552208552e+00
1	 1.272696249491317e+00	 2.076763021599582e+00	-3.180413420214381e+00
1	 1.223946338465555e+00	 2.105862318301862e+00	-3.521279765499764e+00
1	 1.174681864658660e+00	 2.133734675119899e+00	-3.878696719883294e+00
1	 1.124948136815377e+00	 2.160368780352759e+00	-4.251890184029480e+00
1	 1.074790638566064e+00	 2.185755495867572e+00	-4.640040855119089e+00
1	 1.024254901940692e+00	 2.209887845035991e+00	-5.042290382044722e+00
1	 1.520429788335561e+00	 1.930243925867402e+00	-1.615761437643825e+00
1	 1.474516771290026e+00	 1.965540272029485e+00	-1.860414620617048e+00
1	 1.427863326058006e+00	 1.999688625310859e+00	-2.123568517096294e+00
1	 1.380512326010590e+00	 2.032666745064793e+00	-2.404998955347648e+00
1	 1.332507471468624e+00	 2.064454507825709e+00	-2.704454982761555e+00
1	 1.283893160416461e+00	 2.095033940980191e+00	-3.021660831052664e+00
1	 1.234714358041599e+00	 2.124389247106057e+00	-3.356317935114071e+00
1	 1.185016465871670e+00	 2.152506818991539e+00	-3.708106987818440e+00
1	 1.134845191268109e+00	 2.179375245417779e+00	-4.076690013447259e+00
1	 1.084246418016565e+00	 2.204985307856568e+00	-4.461712443019469e+00
1	 1.033266078728114e+00	 2.229329968300680e+00	-4.862805175563931e+00
1	 1.533689478526827e+00	 1.947077611086815e+00	-1.487093688844835e+00
1	 1.487376053394930e+00	 1.982681777194836e+00	-1.727149069559132e+00
1	 1.440315742791666e+00	 2.017127938759574e+00	-1.984729041657013e+00
1	 1.392551793987396e+00	 2.050393661173308e+00	-2.259874817707556e+00
1	 1.344128288414080e+00	 2.082458645473442e+00	-2.552653890518062e+00
1	 1.295090011251517e+00	 2.113304762307154e+00	-2.863158600387426e+00
1	 1.245482319829242e+00	 2.142916076482730e+00	-3.191504407591007e+00
1	 1.195351011622249e+00	 2.171278862119725e+00	-3.537827895095124e+00
1	 1.144742192606516e+00	 2.198381608481893e+00	-3.902284529401411e+00
1	 1.093702146720837e+00	 2.224215016646120e+00	-4.285046209835683e+00
1	 1.042277207155237e+00	 2.248771987226633e+00	-4.686298638502370e+00
1	 1.546949086728585e+00	 1.963911192217472e+00	-1.361348092195671e+00
1	 1.500235255986194e+00	 1.999823176368075e+00	-1.595995408853842e+00
1	 1.452768082527480e+00	 2.034567144374725e+00	-1.847280614668022e+00
1	 1.404591187519762e+00	 2.068120467669921e+00	-2.115536809830664e+00
1	 1.355749033503754e+00	 2.100462671795132e+00	-2.401183254620291e+00
1	 1.306286792852305e+00	 2.131575470659103e+00	-2.704720125853083e+00
1	 1.256250215034556e+00	 2.161442791301442e+00	-3.026722583306944e+00
1	 1.205685493470413e+00	 2.190050789173767e+00	-3.367834219240877e+00
1	 1.154639132747932e+00	 2.217387854023056e+00	-3.728759969895148e+00
1	 1.103157816956571e+00	 2.243444606531794e+00	-4.110258572366092e+00
1	 1.051288279862827e+00	 2.268213885936041e+00	-4.513134653455522e+00
1	 9.611759285161097e-01	 2.073791394434280e+00	-6.348655939016747e+00
1	 9.134435085518297e-01	 2.095254434630057e+00	-6.791174850236183e+00
1	 8.654412955956630e-01	 2.115533443938045e+00	-7.243446430611710e+00
1	 8.172114463555208e-01	 2.134627826892953e+00	-7.708068371544792e+00
1	 7.687957175426596e-01	 2.152538893804492e+00	-8.187737339820403e+00
1	 7.202353644021467e-01	 2.169269813061505e+00	-8.685222730643817e+00
1	 6.715710441179437e-01	 2.184825557442442e+00	-9.203340779175102e+00
1	 6.228427244591397e-01	 2.199212844931472e+00	-9.744929256535386e+00
1	 5.740895979810745e-01	 2.212440074559913e+00	-1.031282295931016e+01
1	 5.253500020417597e-01	 2.224517257807119e+00	-1.090983018276742e+01
1	 4.766613448408244e-01	 2.235455946103989e+00	-1.153871034774257e+01
1	 9.701872377670455e-01	 2.093233803491546e+00	-6.159671752381526e+00
1	 9.220073122162222e-01	 2.114898066051313e+00	-6.596415049017287e+00
1	 8.735550642842697e-01	 2.135367197082753e+00	-7.043478009196943e+00
1	 8.248730459107305e-01	 2.154640595537923e+00	-7.503363779744827e+00
1	 7.760034052884065e-01	 2.172719584011090e+00	-7.978687372914203e+00
1	 7.269877844425157e-01	 2.189607360595695e+00	-8.472149310868010e+00
1	 6.778672217301696e-01	 2.205308944691468e+00	-8.986509532377578e+00
1	 6.286820596301398e-01	 2.219831117265688e+00	-9.524561794168294e+00
1	 5.794718581395887e-01	 2.233182356093088e+00	-1.008910878304982e+01
1	 5.302753140406222e-01	 2.245372766513623e+00	-1.068293813668786e+01
1	 4.811301862458281e-01	 2.256414008256286e+00	-1.130879955100608e+01
1	 9.791985501723267e-01	 2.112676219354720e+00	-5.970722342960590e+00
1	 9.305711188783564e-01	 2.134541704348908e+00	-6.402180293592444e+00
1	 8.816688358131216e-01	 2.155200957170345e+00	-6.844827315705098e+00
1	 8.325346481479367e-01	 2.174653371188434e+00	-7.300956369336034e+00
1	 7.832110955572866e-01	 2.192900281282003e+00	-7.772969050547773e+00
1	 7.337402068466754e-01	 2.209944915249102e+00	-8.263350722690260e+00
1	 6.841634015464996e-01	 2.225792339110760e+00	-8.774645867706925e+00
1	 6.345213968453446e-01	 2.240449396817386e+00	-9.309433879041364e+00
1	 5.848541201823243e-01	 2.253924644887158e+00	-9.870305502479516e+00
1	 5.352006277637672e-01	 2.266228282520663e+00	-1.045984011412128e+01
1	 4.855990292153431e-01	 2.277372077745035e+00	-1.108058400599268e+01
1	 9.882098583727184e-01	 2.132118626145997e+00	-5.782275421397439e+00
1	 9.391349215444335e-01	 2.154185333480724e+00	-6.209095010562588e+00
1	 8.897826035559203e-01	 2.175034708003457e+00	-6.648191276028300e+00
1	 8.401962468100813e-01	 2.194666137500949e+00	-7.101534973800593e+00
1	 7.904187824629018e-01	 2.213080969136578e+00	-7.571186422662683e+00
1	 7.404926260999937e-01	 2.230282460412988e+00	-8.059273692959717e+00
1	 6.904595784248615e-01	 2.246275723972488e+00	-8.567971026676870e+00
1	 6.403607313357296e-01	 2.261067666748581e+00	-9.099477682390047e+00
1	 5.902363797134947e-01	 2.274666924002858e+00	-9.655997384921294e+00
1	 5.401259391885384e-01	 2.287083788796492e+00	-1.023971854413442e+01
1	 4.900678700994515e-01	 2.298330137454701e+00	-1.085279539058861e+01
1	 9.972211550089856e-01	 2.151561007987568e+00	-5.594781781758090e+00
1	 9.476987132206549e-01	 2.173828937404646e+00	-6.017761047746374e+00
1	 8.978963608863666e-01	 2.194868433384731e+00	-6.454241620607282e+00
1	 8.478578356401049e-01	 2.214678878131932e+00	-6.905763528412098e+00
1	 7.976264601188547e-01	 2.233261631094163e+00	-7.373921710482366e+00
1	 7.472450366878395e-01	 2.250619979478617e+00	-7.860348810736749e+00
1	 6.967557472231845e-01	 2.266759082548822e+00	-8.366698266350829e+00
1	 6.462000583322726e-01	 2.281685910221292e+00	-8.894627840434143e+00
1	 5.956186323373124e-01	 2.295409176500925e+00	-9.445783735564117e+00
1	 5.450512442922797e-01	 2.307939268309359e+00	-1.002178541195665e+01
1	 4.945367052482362e-01	 2.319288170269756e+00	-1.062421122007448e+01
1	 1.006232432721893e+00	 2.171003349001629e+00	-5.408676059401761e+00
1	 9.562624869132221e-01	 2.193472500078554e+00	-5.828758685737045e+00
1	 9.060101011781613e-01	 2.214702117116803e+00	-6.263626013352923e+00
1	 8.555194083809486e-01	 2.234691576737848e+00	-6.714282186068988e+00
1	 8.048341226387470e-01	 2.253442250674104e+00	-7.181736285118365e+00
1	 7.539974330955813e-01	 2.270957455837253e+00	-7.666991251255160e+00
1	 7.030519027993956e-01	 2.287242398111933e+00	-8.171033218329066e+00
1	 6.520393730659493e-01	 2.302304110397535e+00	-8.694821345469091e+00
1	 6.010008736579899e-01	 2.316151385442097e+00	-9.239278225429825e+00
1	 5.499765390523345e-01	 2.328794704027514e+00	-9.805280936523463e+00
1	 4.990055310117795e-01	 2.340246159074666e+00	-1.039365279507716e+01
1	 1.015243684152207e+00	 2.190445633310373e+00	-5.224377448551757e+00
1	 9.648262356283369e-01	 2.213116005460330e+00	-5.642647595669743e+00
1	 9.141238178050067e-01	 2.234535743002314e+00	-6.076969120537507e+00
1	 8.631809587755542e-01	 2.254704216975162e+00	-6.527708373793011e+00
1	 8.120417641361818e-01	 2.273622811395754e+00	-6.995171594139666e+00
1	 7.607498098085869e-01	 2.291294872880161e+00	-7.479601461388099e+00
1	 7.093480400114252e-01	 2.307725653933993e+00	-7.981174228647075e+00
1	 6.578786707677368e-01	 2.322922250439329e+00	-8.499997442748509e+00
1	 6.063830992797405e-01	 2.336893533887108e+00	-9.036108255075337e+00
1	 5.549018194460464e-01	 2.349650078919209e+00	-9.589472318341429e+00
1	 5.034743437401641e-01	 2.361204086753900e+00	-1.015998325863896e+01
1	 1.024254901940692e+00	 2.209887845035991e+00	-5.042290382044722e+00
1	 9.733899523722012e-01	 2.232759437507859e+00	-5.459967746507523e+00
1	 9.222375041406029e-01	 2.254369294843900e+00	-5.894873623347314e+00
1	 8.708424805668628e-01	 2.274716782500338e+00	-6.346637793542893e+00
1	 8.192493787247603e-01	 2.293803296778457e+00	-6.814750039304416e+00
1	 7.675021613122256e-01	 2.311632213998602e+00	-7.298565808984504e+00
1	 7.156441537172005e-01	 2.328208833287172e+00	-7.797312679758740e+00
1	 6.637179466686117e-01	 2.343540313508692e+00	-8.310097532802345e+00
1	 6.117653048067768e-01	 2.357635604896696e+00	-8.835914351831859e+00
1	 5.598270814507585e-01	 2.370505375952690e+00	-9.373652553350436e+00
1	 5.079431397834724e-01	 2.382161936191926e+00	-9.922105755693984e+00
1	 1.033266078728114e+00	 2.229329968300680e+00	-4.862805175563931e+00
1	 9.819536301510160e-01	 2.252402780179022e+00	-5.281240264922128e+00
1	 9.303511535586513e-01	 2.274202756444202e+00	-5.717921177530340e+00
1	 8.785039674978153e-01	 2.294729256969840e+00	-6.171645370736401e+00
1	 8.264569605180856e-01	 2.313983690341562e+00	-6.640975808432033e+00
1	 7.742544820918649e-01	 2.331969462583841e+00	-7.124257198279031e+00
1	 7.219402387746509e-01	 2.348691919443643e+00	-7.619633295696511e+00
1	 6.695571959995504e-01	 2.364158282767639e+00	-8.125065078858677e+00
1	 6.171474858433115e-01	 2.378377581531597e+00	-8.638349598538680e+00
1	 5.647523210438147e-01	 2.391360578096212e+00	-9.157139308760394e+00
1	 5.124119154917871e-01	 2.403119690273212e+00	-9.678961688709437e+00
1	 1.042277207155237e+00	 2.248771987226633e+00	-4.686298638502370e+00
1	 9.905172619709828e-01	 2.272046017431702e+00	-5.106968250635320e+00
1	 9.384647594328528e-01	 2.294036111605858e+00	-5.546673323336881e+00
1	 8.861654133113531e-01	 2.314741624040133e+00	-6.003286153641313e+00
1	 8.336645036297597e-01	 2.334163975604418e+00	-6.474335664185724e+00
1	 7.810067666328739e-01	 2.352306602027142e+00	-6.957035653425310e+00
1	 7.282362900417043e-01	 2.369174895675575e+00	-7.448314431425299e+00
1	 6.753964139915301e-01	 2.384776141378187e+00	-7.944845519061315e+00
1	 6.225296379935574e-01	 2.399119446852548e+00	-8.443079091866746e+00
1	 5.696775342025584e-01	 2.412215668318022e+00	-8.939273857116381e+00
1	 5.168806672151909e-01	 2.424077331882229e+00	-9.429529063680683e+00
1	 1.051288279862827e+00	 2.268213885936041e+00	-4.513134653455522e+00
1	 9.990808408383033e-01	 2.291689133223781e+00	-4.937637549888713e+00
1	 9.465783151369087e-01	 2.313869344131504e+00	-5.381672348730209e+00
1	 8.938268117504173e-01	 2.334753867367680e+00	-5.842096166578659e+00
1	 8.408720021733844e-01	 2.354344136086372e+00	-6.315299692348106e+00
1	 7.877590094206205e-01	 2.372643615719767e+00	-6.797248872062240e+00
1	 7.345323023762894e-01	 2.389657745255140e+00	-7.283528347337222e+00
1	 6.812355958755265e-01	 2.405393872502356e+00	-7.769386183195770e+00
1	 6.279117568617270e-01	 2.419861183920283e+00	-8.249779428460551e+00
1	 5.746027169043331e-01	 2.433070629586371e+00	-8.719420065105780e+00
1	 5.213493913037660e-01	 2.445034843903442e+00	-9.172820921066679e+00
1	 4.766613448408244e-01	 2.235455946103989e+00	-1.153871034774257e+01
1	 4.280566476493967e-01	 2.245269803012173e+00	-1.218944054203646e+01
1	 3.795747221796087e-01	 2.253972427904400e+00	-1.285401105429428e+01
1	 3.312498612357167e-01	 2.261579530840685e+00	-1.353791442060832e+01
1	 2.831151918246224e-01	 2.268108044213447e+00	-1.424614328757189e+01
1	 2.352026326369965e-01	 2.273576038732799e+00	-1.498318996350053e+01
1	 1.875428577716857e-01	 2.278002638683672e+00	-1.575304936411094e+01
1	 1.401652665845650e-01	 2.281407936926608e+00	-1.655922511563428e+01
1	 9.309795950800662e-02	 2.283812910089177e+00	-1.740473856356981e+01
1	 4.636771965572428e-02	 2.285239334367776e+00	-1.829214042458894e+01
1	 0.000000000000000e+00	 2.285709702330555e+00	-1.922352481232097e+01
1	 4.811301862458281e-01	 2.256414008256286e+00	-1.130879955100607e+01
1	 4.320698056105363e-01	 2.266319872982676e+00	-1.195609141003739e+01
1	 3.831333477181670e-01	 2.275104087563641e+00	-1.261757800411557e+01
1	 3.343554268781613e-01	 2.282782509345629e+00	-1.330075479060177e+01
1	 2.857694806729105e-01	 2.289372229467221e+00	-1.401257492020865e+01
1	 2.374077270402534e-01	 2.294891488056760e+00	-1.475943606536323e+01
1	 1.893011276577868e-01	 2.299359588694984e+00	-1.554717173618670e+01
1	 1.414793575090443e-01	 2.302796812618926e+00	-1.638104688101439e+01
1	 9.397078047626424e-02	 2.305224333118228e+00	-1.726575753987501e+01
1	 4.680243077277400e-02	 2.306664130547552e+00	-1.820543429570249e+01
1	 0.000000000000000e+00	 2.307138908349512e+00	-1.920364924919673e+01
1	 4.855990292153431e-01	 2.277372077745035e+00	-1.108058400599268e+01
1	 4.360829649766909e-01	 2.287369950321857e+00	-1.172139470410160e+01
1	 3.866919745026452e-01	 2.296235754620143e+00	-1.237623079558305e+01
1	 3.374609936079421e-01	 2.303985495272823e+00	-1.305499395148384e+01
1	 2.884237704505693e-01	 2.310636422164699e+00	-1.376703361808462e+01
1	 2.396128222156348e-01	 2.316206944842397e+00	-1.452111610410804e+01
1	 1.910593981595854e-01	 2.320716546182525e+00	-1.532539932310959e+01
1	 1.427934488937070e-01	 2.324185695798671e+00	-1.618741305968711e+01
1	 9.484360175019434e-02	 2.326635763642615e+00	-1.711404458223266e+01
1	 4.723714204207450e-02	 2.328088934227355e+00	-1.811152938452219e+01
1	 0.000000000000000e+00	 2.328568121870044e+00	-1.918544680362143e+01
1	 4.900678700994515e-01	 2.298330137454701e+00	-1.085279539058861e+01
1	 4.400961224700386e-01	 2.308420017839000e+00	-1.148372707560787e+01
1	 3.902505996263812e-01	 2.317367411816506e+00	-1.212822000705218e+01
1	 3.405665588883641e-01	 2.325188471306569e+00	-1.279897281827835e+01
1	 2.910780589894287e-01	 2.331900604940131e+00	-1.350815398654899e+01
1	 2.418179163618171e-01	 2.337522391682034e+00	-1.426734823463535e+01
1	 1.928176678406935e-01	 2.342073493704668e+00	-1.508750982847746e+01
1	 1.441075396649709e-01	 2.345574568998092e+00	-1.597892274856120e+01
1	 9.571642261668001e-02	 2.348047184176136e+00	-1.695116764571057e+01
1	 4.767185310843317e-02	 2.349513727910038e+00	-1.801309543100684e+01
1	 0.000000000000000e+00	 2.349997325391393e+00	-1.917280729491398e+01
1	 4.945367052482362e-01	 2.319288170269756e+00	-1.062421122007448e+01
1	 4.441092748127572e-01	 2.329470058343391e+00	-1.124152382901398e+01
1	 3.938092201827127e-01	 2.338499041895334e+00	-1.187185940623833e+01
1	 3.436721201827315e-01	 2.346391420131163e+00	-1.253109220815991e+01
1	 2.937323441213197e-01	 2.353164760427771e+00	-1.323461989698730e+01
1	 2.440230076774763e-01	 2.358837811167995e+00	-1.399728238341987e+01
1	 1.945759352647231e-01	 2.363430413819788e+00	-1.483328887852799e+01
1	 1.454216287492539e-01	 2.366963414749445e+00	-1.575615327837081e+01
1	 9.658924236260444e-02	 2.369458577232591e+00	-1.677863791329241e+01
1	 4.810656361665739e-02	 2.370938494098454e+00	-1.791270560855763e+01
1	 0.000000000000000e+00	 2.371426501412799e+00	-1.916947992473861e+01
1	 4.990055310117795e-01	 2.340246159074666e+00	-1.039365279507716e+01
1	 4.481224187270251e-01	 2.350520054644318e+00	-1.099327629518146e+01
1	 3.973678332649775e-01	 2.359630627599226e+00	-1.160552311953378e+01
1	 3.467776749543491e-01	 2.367594324430906e+00	-1.224981015606481e+01
1	 2.963866236780723e-01	 2.374428871261869e+00	-1.294516227787869e+01
1	 2.462280943612886e-01	 2.380153185892606e+00	-1.371009882230904e+01
1	 1.963341989952864e-01	 2.384787289086263e+00	-1.456252966352428e+01
1	 1.467357150729738e-01	 2.388352215584980e+00	-1.551966118456961e+01
1	 9.746206027485077e-02	 2.390869925325779e+00	-1.659791233491024e+01
1	 4.854127321155457e-02	 2.392363215295453e+00	-1.781284084627647e+01
1	 0.000000000000000e+00	 2.392855632433507e+00	-1.917907957397573e+01
1	 5.034743437401641e-01	 2.361204086753900e+00	-1.015998325863896e+01
1	 4.521355509350203e-01	 2.371569989551065e+00	-1.073752934437247e+01
1	 4.009264359665132e-01	 2.380762151670787e+00	-1.132764295184570e+01
1	 3.498832206665213e-01	 2.388797166890095e+00	-1.195363937304240e+01
1	 2.990408954915169e-01	 2.395692920076676e+00	-1.263855702331133e+01
1	 2.484331746119304e-01	 2.401468498448190e+00	-1.340500681815795e+01
1	 1.980924575959954e-01	 2.406144102062465e+00	-1.427503259820862e+01
1	 1.480497975625483e-01	 2.409740954036949e+00	-1.526998312659601e+01
1	 9.833487564030222e-02	 2.412281210969500e+00	-1.641039603146402e+01
1	 4.897598153793207e-02	 2.413787874003888e+00	-1.771589392138728e+01
1	 0.000000000000000e+00	 2.414284700952755e+00	-1.920509276475801e+01
1	 5.079431397834724e-01	 2.382161936191926e+00	-9.922105755693982e+00
1	 4.561486681589207e-01	 2.392619845872919e+00	-1.047287903033138e+01
1	 4.044850253806576e-01	 2.401893596852615e+00	-1.103670584769782e+01
1	 3.529887547825531e-01	 2.409999930193030e+00	-1.164114483857067e+01
1	 3.016951573934843e-01	 2.416956889506443e+00	-1.231362301173466e+01
1	 2.506382466280777e-01	 2.422783731427069e+00	-1.308124335363730e+01
1	 1.998507096304620e-01	 2.427500835306768e+00	-1.397060500015101e+01
1	 1.493638751443956e-01	 2.431129612637606e+00	-1.500763675868484e+01
1	 9.920768774584184e-02	 2.433692416677553e+00	-1.621744457212900e+01
1	 4.941068824059729e-02	 2.435212452726612e+00	-1.762417333595505e+01
1	 0.000000000000000e+00	 2.435713689469788e+00	-1.925088330826115e+01
1	 5.124119154917871e-01	 2.403119690273212e+00	-9.678961688709437e+00
1	 4.601617671209048e-01	 2.413669606419165e+00	-1.019797035745885e+01
1	 4.080435986007485e-01	 2.423024945887314e+00	-1.073125148498646e+01
1	 3.560942747657486e-01	 2.431202597024008e+00	-1.131094151866862e+01
1	 3.043494072158048e-01	 2.438220762185422e+00	-1.196922022822787e+01
1	 2.528433086084067e-01	 2.444098867421572e+00	-1.273807191487708e+01
1	 2.016089536622986e-01	 2.448857471377549e+00	-1.364906078490280e+01
1	 1.506779467449334e-01	 2.452518173919202e+00	-1.473312155517835e+01
1	 1.000804958783528e-01	 2.455103524963736e+00	-1.602036613267583e+01
1	 4.984539296435764e-02	 2.456636933966477e+00	-1.753990699105024e+01
1	 0.000000000000000e+00	 2.457142580483845e+00	-1.931969765740490e+01
1	 5.168806672151909e-01	 2.424077331882229e+00	-9.429529063680683e+00
1	 4.641748445431502e-01	 2.434719253999091e+00	-9.911495163641137e+00
1	 4.116021527201235e-01	 2.444156181517485e+00	-1.040986999337369e+01
1	 3.591997780794128e-01	 2.452405150067329e+00	-1.096169220220490e+01
1	 3.070036427903088e-01	 2.459484520747865e+00	-1.160424798402949e+01
1	 2.550483587515938e-01	 2.465413889024022e+00	-1.237478134190449e+01
1	 2.033671882551170e-01	 2.470213992833183e+00	-1.331022017693772e+01
1	 1.519920112905795e-01	 2.473906620413989e+00	-1.444691959308688e+01
1	 1.009532993247184e-01	 2.476514518341851e+00	-1.582042354199293e+01
1	 5.028009535402049e-02	 2.478061300226334e+00	-1.746524567059943e+01
1	 0.000000000000000e+00	 2.478571356494168e+00	-1.941466998229667e+01
1	 5.213493913037660e-01	 2.445034843903442e+00	-9.172820921066679e+00
1	 4.681878971478351e-01	 2.455768771421980e+00	-9.612190111805823e+00
1	 4.151606848321205e-01	 2.465287286485730e+00	-1.007119978984980e+01
1	 3.623052621868500e-01	 2.473607572007293e+00	-1.059210544831974e+01
1	 3.096578619488268e-01	 2.480748147828021e+00	-1.121764322749989e+01
1	 2.572533952563149e-01	 2.486728778826740e+00	-1.199068473811640e+01
1	 2.051254119725293e-01	 2.491570382232043e+00	-1.295390943543673e+01
1	 1.533060677077518e-01	 2.495294934654221e+00	-1.414949629445923e+01
1	 1.018260973718216e-01	 2.497925379325695e+00	-1.561883622351039e+01
1	 5.071479505439321e-02	 2.499485534009037e+00	-1.740226634632391e+01
1	 0.000000000000000e+00	 2.500000000000000e+00	-1.953882698502897e+01
