x	y	stress_yy
 0.000000000000000e+00	 0.000000000000000e+00	-3.089061220822787e-02
 0.000000000000000e+00	 0.000000000000000e+00	-1.479395261704824e-02
-2.828427124750000e+01	 0.000000000000000e+00	 1.050046920729926e+00
 0.000000000000000e+00	 0.000000000000000e+00	-3.089061221261833e-02
 0.000000000000000e+00	 0.000000000000000e+00	-1.479395260194613e-02
 2.828427124750000e+01	 0.000000000000000e+00	 1.050046920677761e+00
