x	y	stress_yy
 7.071067811900000e+00	 7.071067811900000e+00	 1.203096462939744e+00
 7.071067811900001e+00	 7.071067811900001e+00	 1.203096462939744e+00
 7.071067811900001e+00	 7.071067811900001e+00	 1.203096462939744e+00
 7.071067811900000e+00	 7.071067811900000e+00	 1.203096462939744e+00
 7.071067811899999e+00	 7.071067811899999e+00	 1.203096462939745e+00
 7.071067811900000e+00	 7.071067811900000e+00	 1.203096462939744e+00
 7.071067811900000e+00	 7.071067811900000e+00	 1.203096462939744e+00
 7.071067811900000e+00	 7.071067811900000e+00	 1.203096462939745e+00
 7.071067811900000e+00	 7.071067811900000e+00	 1.203096462939745e+00
 7.071067811900000e+00	 7.071067811900000e+00	 1.203096462939746e+00
 7.071067811900000e+00	 7.071067811900000e+00	 1.203096462939744e+00
 7.074603345806000e+00	 7.074603345806000e+00	 3.541176085062953e+01
 7.074249792415401e+00	 7.074956899196505e+00	 3.338670586731072e+01
 7.073896239024798e+00	 7.075310452587019e+00	 3.141364989372173e+01
 7.073542685634201e+00	 7.075664005977545e+00	 2.949259292984781e+01
 7.073189132243600e+00	 7.076017559368080e+00	 2.762353497568603e+01
 7.072835578853000e+00	 7.076371112758626e+00	 2.580647603122834e+01
 7.072482025462401e+00	 7.076724666149181e+00	 2.404141609646926e+01
 7.072128472071801e+00	 7.077078219539746e+00	 2.232835517139824e+01
 7.071774918681198e+00	 7.077431772930320e+00	 2.066729325602569e+01
 7.071421365290600e+00	 7.077785326320905e+00	 1.905823035032068e+01
 7.071067811900000e+00	 7.078138879711500e+00	 1.750116645430358e+01
 7.085209947524000e+00	 7.085209947524000e+00	 1.776978258083537e+01
 7.083795733961600e+00	 7.086624161086021e+00	 1.675862556635043e+01
 7.082381520399200e+00	 7.088038374648080e+00	 1.577346585792329e+01
 7.080967306836799e+00	 7.089452588210178e+00	 1.481430345556663e+01
 7.079553093274400e+00	 7.090866801772320e+00	 1.388113835929354e+01
 7.078138879711998e+00	 7.092281015334499e+00	 1.297397056911772e+01
 7.076724666149599e+00	 7.093695228896719e+00	 1.209280008505287e+01
 7.075310452587200e+00	 7.095109442458979e+00	 1.123762690711272e+01
 7.073896239024801e+00	 7.096523656021281e+00	 1.040845103531130e+01
 7.072482025462401e+00	 7.097937869583620e+00	 9.605272469663738e+00
 7.071067811900000e+00	 7.099352083146000e+00	 8.828091210183608e+00
 7.102887617053999e+00	 7.102887617053999e+00	 1.189791217948356e+01
 7.099705636538601e+00	 7.106069597568546e+00	 1.122257033775571e+01
 7.096523656023201e+00	 7.109251578083180e+00	 1.056468008501362e+01
 7.093341675507799e+00	 7.112433558597904e+00	 9.924241421448269e+00
 7.090159694992400e+00	 7.115615539112721e+00	 9.301254347250042e+00
 7.086977714477000e+00	 7.118797519627625e+00	 8.695718862609780e+00
 7.083795733961600e+00	 7.121979500142620e+00	 8.107634967718635e+00
 7.080613753446200e+00	 7.125161480657705e+00	 7.537002662767628e+00
 7.077431772930801e+00	 7.128343461172881e+00	 6.983821947948110e+00
 7.074249792415400e+00	 7.131525441688146e+00	 6.448092823451343e+00
 7.071067811899999e+00	 7.134707422203499e+00	 5.929815289469052e+00
 7.127636354396000e+00	 7.127636354396000e+00	 8.962813385924704e+00
 7.121979500146401e+00	 7.133293208644081e+00	 8.454948601566825e+00
 7.116322645896799e+00	 7.138950062892319e+00	 7.960285193558398e+00
 7.110665791647200e+00	 7.144606917140720e+00	 7.478823162982669e+00
 7.105008937397599e+00	 7.150263771389279e+00	 7.010562510923125e+00
 7.099352083148000e+00	 7.155920625638000e+00	 6.555503238463342e+00
 7.093695228898400e+00	 7.161577479886881e+00	 6.113645346687008e+00
 7.088038374648800e+00	 7.167234334135919e+00	 5.684988836677860e+00
 7.082381520399200e+00	 7.172891188385120e+00	 5.269533709519883e+00
 7.076724666149601e+00	 7.178548042634481e+00	 4.867279966297065e+00
 7.071067811900000e+00	 7.184204896884000e+00	 4.478227608093527e+00
 7.159456159549999e+00	 7.159456159549999e+00	 7.201306182299135e+00
 7.150617324785002e+00	 7.168294994312627e+00	 6.793765474029653e+00
 7.141778490019999e+00	 7.177133829075499e+00	 6.396883028214132e+00
 7.132939655255000e+00	 7.185972663838625e+00	 6.010658848991151e+00
 7.124100820490000e+00	 7.194811498602000e+00	 5.635092940499370e+00
 7.115261985725001e+00	 7.203650333365625e+00	 5.270185306877568e+00
 7.106423150960000e+00	 7.212489168129499e+00	 4.915935952264579e+00
 7.097584316194999e+00	 7.221328002893625e+00	 4.572344880799394e+00
 7.088745481430000e+00	 7.230166837658000e+00	 4.239412096621011e+00
 7.079906646665001e+00	 7.239005672422626e+00	 3.917137603868653e+00
 7.071067811900000e+00	 7.247844507187500e+00	 3.605521406681464e+00
 7.198347032516000e+00	 7.198347032516000e+00	 6.026156470257683e+00
 7.185619110454399e+00	 7.211074954574179e+00	 5.685409147789404e+00
 7.172891188392800e+00	 7.223802876632719e+00	 5.353627260371928e+00
 7.160163266331200e+00	 7.236530798691621e+00	 5.030810820366444e+00
 7.147435344269599e+00	 7.249258720750880e+00	 4.716959840134169e+00
 7.134707422208000e+00	 7.261986642810499e+00	 4.412074332036414e+00
 7.121979500146399e+00	 7.274714564870480e+00	 4.116154308434645e+00
 7.109251578084801e+00	 7.287442486930821e+00	 3.829199781690391e+00
 7.096523656023201e+00	 7.300170408991521e+00	 3.551210764165238e+00
 7.083795733961601e+00	 7.312898331052581e+00	 3.282187268220926e+00
 7.071067811899999e+00	 7.325626253114000e+00	 3.022129306219275e+00
 7.244308973294000e+00	 7.244308973294000e+00	 5.185821124562463e+00
 7.226984857154600e+00	 7.261633089428745e+00	 4.892720043366155e+00
 7.209660741015200e+00	 7.278957205563979e+00	 4.607376040645260e+00
 7.192336624875800e+00	 7.296281321699705e+00	 4.329789147572201e+00
 7.175012508736400e+00	 7.313605437835919e+00	 4.059959395319543e+00
 7.157688392597000e+00	 7.330929553972624e+00	 3.797886815059965e+00
 7.140364276457599e+00	 7.348253670109818e+00	 3.543571437966294e+00
 7.123040160318200e+00	 7.365577786247505e+00	 3.297013295211472e+00
 7.105716044178798e+00	 7.382901902385678e+00	 3.058212417968609e+00
 7.088391928039401e+00	 7.400226018524346e+00	 2.827168837410916e+00
 7.071067811900000e+00	 7.417550134663500e+00	 2.603882584711747e+00
 7.297341981884001e+00	 7.297341981884001e+00	 4.554578534825640e+00
 7.274714564885600e+00	 7.319969398876320e+00	 4.297159736414164e+00
 7.252087147887199e+00	 7.342596815869278e+00	 4.046591602915983e+00
 7.229459730888800e+00	 7.365224232862881e+00	 3.802874203790698e+00
 7.206832313890400e+00	 7.387851649857121e+00	 3.566007608498161e+00
 7.184204896891999e+00	 7.410479066851998e+00	 3.335991886498505e+00
 7.161577479893598e+00	 7.433106483847518e+00	 3.112827107252081e+00
 7.138950062895198e+00	 7.455733900843678e+00	 2.896513340219542e+00
 7.116322645896799e+00	 7.478361317840478e+00	 2.687050654861760e+00
 7.093695228898400e+00	 7.500988734837920e+00	 2.484439120639893e+00
 7.071067811900001e+00	 7.523616151836001e+00	 2.288678807015335e+00
 7.357446058286000e+00	 7.357446058286000e+00	 4.062610617843962e+00
 7.328808233647398e+00	 7.386083882916903e+00	 3.832897329529113e+00
 7.300170409008800e+00	 7.414721707548620e+00	 3.609328906383194e+00
 7.271532584370201e+00	 7.443359532181146e+00	 3.391905489222023e+00
 7.242894759731599e+00	 7.471997356814479e+00	 3.180627218861989e+00
 7.214256935093000e+00	 7.500635181448625e+00	 2.975494236120037e+00
 7.185619110454399e+00	 7.529273006083580e+00	 2.776506681813676e+00
 7.156981285815798e+00	 7.557910830719343e+00	 2.583664696760967e+00
 7.128343461177200e+00	 7.586548655355919e+00	 2.396968421780550e+00
 7.099705636538600e+00	 7.615186479993304e+00	 2.216417997691616e+00
 7.071067811899999e+00	 7.643824304631499e+00	 2.042013565313911e+00
 7.424621202500000e+00	 7.424621202500000e+00	 3.668046134330204e+00
 7.389265863440000e+00	 7.459976541550501e+00	 3.460452222500405e+00
 7.353910524380000e+00	 7.495331880602000e+00	 3.258437151687631e+00
 7.318555185319999e+00	 7.530687219654500e+00	 3.062001186862910e+00
 7.283199846260000e+00	 7.566042558707999e+00	 2.871144592998498e+00
 7.247844507200000e+00	 7.601397897762499e+00	 2.685867635067881e+00
 7.212489168139999e+00	 7.636753236818000e+00	 2.506170578045778e+00
 7.177133829080000e+00	 7.672108575874500e+00	 2.332053686908148e+00
 7.141778490020000e+00	 7.707463914931999e+00	 2.163517226632167e+00
 7.106423150960000e+00	 7.742819253990500e+00	 2.000561462196261e+00
 7.071067811900000e+00	 7.778174593050000e+00	 1.843186658580066e+00
 7.424621202500000e+00	 7.424621202500000e+00	 3.668046134330204e+00
 7.389265863440000e+00	 7.459976541550501e+00	 3.460452222500405e+00
 7.353910524380000e+00	 7.495331880602000e+00	 3.258437151687631e+00
 7.318555185319999e+00	 7.530687219654500e+00	 3.062001186862910e+00
 7.283199846260000e+00	 7.566042558707999e+00	 2.871144592998498e+00
 7.247844507200000e+00	 7.601397897762499e+00	 2.685867635067881e+00
 7.212489168139999e+00	 7.636753236818000e+00	 2.506170578045778e+00
 7.177133829080000e+00	 7.672108575874500e+00	 2.332053686908148e+00
 7.141778490020000e+00	 7.707463914931999e+00	 2.163517226632167e+00
 7.106423150960000e+00	 7.742819253990500e+00	 2.000561462196261e+00
 7.071067811900000e+00	 7.778174593050000e+00	 1.843186658580066e+00
 7.498867414525000e+00	 7.498867414525000e+00	 3.360154936210553e+00
 7.456087454262590e+00	 7.541647374776486e+00	 3.172487524126265e+00
 7.413307494000161e+00	 7.584427335029143e+00	 2.990689787648723e+00
 7.370527533737711e+00	 7.627207295282966e+00	 2.814762196191006e+00
 7.327747573475239e+00	 7.669987255537959e+00	 2.644705219168797e+00
 7.284967613212749e+00	 7.712767215794124e+00	 2.480519326000389e+00
 7.242187652950240e+00	 7.755547176051460e+00	 2.322204986106696e+00
 7.199407692687710e+00	 7.798327136309966e+00	 2.169762668911228e+00
 7.156627732425161e+00	 7.841107096569642e+00	 2.023192843840115e+00
 7.113847772162590e+00	 7.883887056830486e+00	 1.882495980322100e+00
 7.071067811900000e+00	 7.926667017092500e+00	 1.747672547788528e+00
 7.580184694360000e+00	 7.580184694360000e+00	 3.104223386243621e+00
 7.529273006114360e+00	 7.631096382594240e+00	 2.933391610774794e+00
 7.478361317868640e+00	 7.682008070829760e+00	 2.768412699526618e+00
 7.427449629622839e+00	 7.732919759066559e+00	 2.609287443701498e+00
 7.376537941376963e+00	 7.783831447304641e+00	 2.456016634507006e+00
 7.325626253130999e+00	 7.834743135544000e+00	 2.308601063155890e+00
 7.274714564884961e+00	 7.885654823784641e+00	 2.167041520866078e+00
 7.223802876638842e+00	 7.936566512026561e+00	 2.031338798860672e+00
 7.172891188392639e+00	 7.987478200269759e+00	 1.901493688367942e+00
 7.121979500146359e+00	 8.038389888514240e+00	 1.777506980621350e+00
 7.071067811900001e+00	 8.089301576760001e+00	 1.659379466859516e+00
 7.668573042005001e+00	 7.668573042005001e+00	 2.887903518704728e+00
 7.608822518995311e+00	 7.728323565003766e+00	 2.731467501010536e+00
 7.549071995985442e+00	 7.788074088003861e+00	 2.580684705552871e+00
 7.489321472975390e+00	 7.847824611005285e+00	 2.435556411304406e+00
 7.429570949965158e+00	 7.907575134008038e+00	 2.296083897247560e+00
 7.369820426954750e+00	 7.967325657012124e+00	 2.162268442374500e+00
 7.310069903944159e+00	 8.027076180017538e+00	 2.034111325687133e+00
 7.250319380933389e+00	 8.086826703024284e+00	 1.911613826197115e+00
 7.190568857922440e+00	 8.146577226032360e+00	 1.794777222925851e+00
 7.130818334911312e+00	 8.206327749041767e+00	 1.683602794904487e+00
 7.071067811900000e+00	 8.266078272052500e+00	 1.578091821173910e+00
 7.764032457460001e+00	 7.764032457460001e+00	 2.702480920659821e+00
 7.694735992905440e+00	 7.833328922005060e+00	 2.558480684934985e+00
 7.625439528350561e+00	 7.902625386551440e+00	 2.419825684144693e+00
 7.556143063795360e+00	 7.971921851099140e+00	 2.286517913415047e+00
 7.486846599239840e+00	 8.041218315648161e+00	 2.158559367889707e+00
 7.417550134684001e+00	 8.110514780198502e+00	 2.035952042729889e+00
 7.348253670127839e+00	 8.179811244750159e+00	 1.918697933114369e+00
 7.278957205571360e+00	 8.249107709303139e+00	 1.806799034239481e+00
 7.209660741014560e+00	 8.318404173857440e+00	 1.700257341319115e+00
 7.140364276457439e+00	 8.387700638413060e+00	 1.599074849584718e+00
 7.071067811900000e+00	 8.456997102970000e+00	 1.503253554285309e+00
 7.866562940725000e+00	 7.866562940725000e+00	 2.541637817017378e+00
 7.787013427844752e+00	 7.946112453598126e+00	 2.408474335318638e+00
 7.707463914963999e+00	 8.025661966472500e+00	 2.280285172660592e+00
 7.627914402082750e+00	 8.105211479348126e+00	 2.157073347261580e+00
 7.548364889201000e+00	 8.184760992225002e+00	 2.038841877370364e+00
 7.468815376318750e+00	 8.264310505103126e+00	 1.925593781266135e+00
 7.389265863436000e+00	 8.343860017982500e+00	 1.817332077258513e+00
 7.309716350552749e+00	 8.423409530863125e+00	 1.714059783687536e+00
 7.230166837669000e+00	 8.502959043745001e+00	 1.615779918923672e+00
 7.150617324784750e+00	 8.582508556628126e+00	 1.522495501367820e+00
 7.071067811900000e+00	 8.662058069512501e+00	 1.434209549451299e+00
 7.976164491800001e+00	 7.976164491800001e+00	 2.400689956777492e+00
 7.885654823813242e+00	 8.066674159782961e+00	 2.277040432907687e+00
 7.795145155825760e+00	 8.157183827767041e+00	 2.157959432189956e+00
 7.704635487837561e+00	 8.247693495752241e+00	 2.043451400158599e+00
 7.614125819848638e+00	 8.338203163738559e+00	 1.933520782398848e+00
 7.523616151859001e+00	 8.428712831726003e+00	 1.828172024546858e+00
 7.433106483868641e+00	 8.519222499714560e+00	 1.727409572289721e+00
 7.342596815877560e+00	 8.609732167704241e+00	 1.631237871365458e+00
 7.252087147885760e+00	 8.700241835695040e+00	 1.539661367563027e+00
 7.161577479893239e+00	 8.790751503686961e+00	 1.452684506722317e+00
 7.071067811900001e+00	 8.881261171680002e+00	 1.370311734734142e+00
 8.092837110685000e+00	 8.092837110685000e+00	 2.276098430939881e+00
 7.990660180810910e+00	 8.195014040559565e+00	 2.160854649113694e+00
 7.888483250935841e+00	 8.297190970435061e+00	 2.049756085510101e+00
 7.786306321059791e+00	 8.399367900311486e+00	 1.942809135983877e+00
 7.684129391182760e+00	 8.501544830188841e+00	 1.840020196472469e+00
 7.581952461304750e+00	 8.603721760067126e+00	 1.741395662995992e+00
 7.479775531425760e+00	 8.705898689946341e+00	 1.646941931657236e+00
 7.377598601545791e+00	 8.808075619826488e+00	 1.556665398641667e+00
 7.275421671664840e+00	 8.910252549707559e+00	 1.470572460217422e+00
 7.173244741782910e+00	 9.012429479589565e+00	 1.388669512735328e+00
 7.071067811900000e+00	 9.114606409472501e+00	 1.310962952628877e+00
 8.216580797380001e+00	 8.216580797380001e+00	 2.165147529102744e+00
 8.102029498837762e+00	 8.331132095927941e+00	 2.057370095710271e+00
 7.987478200294242e+00	 8.445683394476562e+00	 1.953307710948389e+00
 7.872926901749442e+00	 8.560234693025862e+00	 1.852969387231052e+00
 7.758375603203361e+00	 8.674785991575844e+00	 1.756364137102764e+00
 7.643824304656001e+00	 8.789337290126502e+00	 1.663500973238605e+00
 7.529273006107360e+00	 8.903888588677841e+00	 1.574388908444207e+00
 7.414721707557439e+00	 9.018439887229860e+00	 1.489036955655782e+00
 7.300170409006240e+00	 9.132991185782561e+00	 1.407454127940103e+00
 7.185619110453759e+00	 9.247542484335941e+00	 1.329649438494518e+00
 7.071067811900001e+00	 9.362093782890001e+00	 1.255631900646958e+00
 8.347395551885000e+00	 8.347395551885000e+00	 2.065726384307945e+00
 8.219762777893790e+00	 8.475028325888085e+00	 1.964610144647859e+00
 8.092130003900962e+00	 8.602661099891542e+00	 1.866778234730557e+00
 7.964497229906510e+00	 8.730293873895366e+00	 1.772243120603813e+00
 7.836864455910440e+00	 8.857926647899562e+00	 1.681017268516583e+00
 7.709231681912749e+00	 8.985559421904124e+00	 1.593113144919011e+00
 7.581598907913440e+00	 9.113192195909061e+00	 1.508543216462437e+00
 7.453966133912511e+00	 9.240824969914366e+00	 1.427319949999402e+00
 7.326333359909960e+00	 9.368457743920041e+00	 1.349455812583644e+00
 7.198700585905790e+00	 9.496090517926087e+00	 1.274963271470112e+00
 7.071067811900000e+00	 9.623723291932501e+00	 1.203854794114966e+00
 8.485281374200000e+00	 8.485281374200000e+00	 1.976177470132075e+00
 8.343860017978999e+00	 8.626702730440000e+00	 1.881024925318350e+00
 8.202438661756000e+00	 8.768124086679999e+00	 1.788728916835135e+00
 8.061017305530999e+00	 8.909545442920001e+00	 1.699306403215635e+00
 7.919595949304000e+00	 9.050966799160001e+00	 1.612774343296284e+00
 7.778174593075001e+00	 9.192388155400000e+00	 1.529149696216758e+00
 7.636753236844000e+00	 9.333809511640000e+00	 1.448449421419979e+00
 7.495331880611000e+00	 9.475230867880001e+00	 1.370690478652123e+00
 7.353910524375999e+00	 9.616652224119999e+00	 1.295889827962630e+00
 7.212489168138999e+00	 9.758073580360000e+00	 1.224064429704205e+00
 7.071067811900000e+00	 9.899494936600000e+00	 1.155231244532838e+00
 7.071067811900000e+00	 7.071067811900000e+00	 1.203096462939744e+00
 7.071067811900001e+00	 7.071067811900001e+00	 1.203096462939744e+00
 7.071067811900001e+00	 7.071067811900001e+00	 1.203096462939744e+00
 7.071067811900000e+00	 7.071067811900000e+00	 1.203096462939743e+00
 7.071067811899999e+00	 7.071067811899999e+00	 1.203096462939745e+00
 7.071067811900000e+00	 7.071067811900000e+00	 1.203096462939744e+00
 7.071067811900000e+00	 7.071067811900000e+00	 1.203096462939744e+00
 7.071067811900000e+00	 7.071067811900000e+00	 1.203096462939746e+00
 7.071067811900000e+00	 7.071067811900000e+00	 1.203096462939745e+00
 7.071067811900000e+00	 7.071067811900000e+00	 1.203096462939747e+00
 7.071067811900000e+00	 7.071067811900000e+00	 1.203096462939744e+00
 7.071067811900000e+00	 7.078138879711500e+00	 1.616323931963328e+01
 7.070714258509400e+00	 7.077785326320905e+00	 1.591964432049562e+01
 7.070360705118798e+00	 7.077431772930319e+00	 1.531613288364432e+01
 7.070007151728200e+00	 7.077078219539746e+00	 1.435270500907541e+01
 7.069653598337600e+00	 7.076724666149180e+00	 1.302936069678464e+01
 7.069300044947000e+00	 7.076371112758626e+00	 1.134609994676084e+01
 7.068946491556400e+00	 7.076017559368081e+00	 9.302922758995116e+00
 7.068592938165800e+00	 7.075664005977545e+00	 6.899829133473871e+00
 7.068239384775199e+00	 7.075310452587019e+00	 4.136819070151970e+00
 7.067885831384601e+00	 7.074956899196505e+00	 1.013892569074727e+00
 7.067532277994000e+00	 7.074603345806000e+00	-2.468950369862141e+00
 7.071067811900000e+00	 7.099352083146000e+00	 8.133628246088806e+00
 7.069653598337601e+00	 7.097937869583620e+00	 8.014413921745282e+00
 7.068239384775199e+00	 7.096523656021280e+00	 7.714078165043880e+00
 7.066825171212799e+00	 7.095109442458979e+00	 7.232620975965739e+00
 7.065410957650400e+00	 7.093695228896720e+00	 6.570042354491444e+00
 7.063996744087999e+00	 7.092281015334499e+00	 5.726342300598845e+00
 7.062582530525598e+00	 7.090866801772319e+00	 4.701520814265952e+00
 7.061168316963199e+00	 7.089452588210178e+00	 3.495577895467155e+00
 7.059754103400801e+00	 7.088038374648081e+00	 2.108513544178293e+00
 7.058339889838400e+00	 7.086624161086021e+00	 5.403277603676875e-01
 7.056925676275999e+00	 7.085209947524000e+00	-1.208979455990359e+00
 7.071067811899999e+00	 7.134707422203499e+00	 5.477001163273051e+00
 7.067885831384601e+00	 7.131525441688146e+00	 5.395935058241839e+00
 7.064703850869200e+00	 7.128343461172881e+00	 5.194120366258910e+00
 7.061521870353800e+00	 7.125161480657704e+00	 4.871557087127455e+00
 7.058339889838400e+00	 7.121979500142620e+00	 4.428245220650179e+00
 7.055157909322999e+00	 7.118797519627625e+00	 3.864184766628836e+00
 7.051975928807600e+00	 7.115615539112721e+00	 3.179375724863631e+00
 7.048793948292200e+00	 7.112433558597905e+00	 2.373818095154055e+00
 7.045611967776800e+00	 7.109251578083180e+00	 1.447511877298335e+00
 7.042429987261400e+00	 7.106069597568545e+00	 4.004570710945270e-01
 7.039248006745999e+00	 7.102887617053999e+00	-7.673463236616455e-01
 7.071067811900000e+00	 7.184204896884000e+00	 4.151330547292029e+00
 7.065410957650401e+00	 7.178548042634481e+00	 4.088797254551951e+00
 7.059754103400800e+00	 7.172891188385119e+00	 3.935847316769778e+00
 7.054097249151201e+00	 7.167234334135919e+00	 3.692480732845679e+00
 7.048440394901600e+00	 7.161577479886880e+00	 3.358697501679017e+00
 7.042783540652000e+00	 7.155920625638000e+00	 2.934497622168599e+00
 7.037126686402400e+00	 7.150263771389280e+00	 2.419881093212242e+00
 7.031469832152800e+00	 7.144606917140720e+00	 1.814847913707032e+00
 7.025812977903200e+00	 7.138950062892320e+00	 1.119398082549586e+00
 7.020156123653600e+00	 7.133293208644081e+00	 3.335315986353405e-01
 7.014499269404000e+00	 7.127636354396000e+00	-5.427515391407621e-01
 7.071067811900000e+00	 7.247844507187500e+00	 3.355804231979071e+00
 7.062228977135002e+00	 7.239005672422627e+00	 3.304286576067123e+00
 7.053390142370000e+00	 7.230166837658000e+00	 3.180598508807146e+00
 7.044551307605000e+00	 7.221328002893626e+00	 2.984740026005655e+00
 7.035712472839999e+00	 7.212489168129499e+00	 2.716711123468568e+00
 7.026873638075000e+00	 7.203650333365625e+00	 2.376511797001074e+00
 7.018034803310000e+00	 7.194811498602000e+00	 1.964142042407899e+00
 7.009195968545000e+00	 7.185972663838625e+00	 1.479601855493099e+00
 7.000357133779999e+00	 7.177133829075499e+00	 9.228912320602193e-01
 6.991518299015000e+00	 7.168294994312626e+00	 2.940101679119029e-01
 6.982679464249999e+00	 7.159456159549999e+00	-4.070413411492486e-01
 7.071067811899999e+00	 7.325626253114000e+00	 2.824544408442295e+00
 7.058339889838399e+00	 7.312898331052581e+00	 2.780386235178180e+00
 7.045611967776800e+00	 7.300170408991519e+00	 2.676242153705728e+00
 7.032884045715201e+00	 7.287442486930821e+00	 2.512112151504215e+00
 7.020156123653599e+00	 7.274714564870479e+00	 2.287996216052450e+00
 7.007428201592000e+00	 7.261986642810499e+00	 2.003894334828697e+00
 6.994700279530399e+00	 7.249258720750880e+00	 1.659806495310876e+00
 6.981972357468800e+00	 7.236530798691621e+00	 1.255732684976229e+00
 6.969244435407201e+00	 7.223802876632721e+00	 7.916728913016388e-01
 6.956516513345600e+00	 7.211074954574181e+00	 2.676271017634416e-01
 6.943788591283999e+00	 7.198347032516000e+00	-3.164046961624610e-01
 7.071067811900000e+00	 7.417550134663500e+00	 2.443867608588112e+00
 7.053743695760598e+00	 7.400226018524345e+00	 2.405023963766464e+00
 7.036419579621199e+00	 7.382901902385679e+00	 2.314908586116459e+00
 7.019095463481801e+00	 7.365577786247505e+00	 2.173521444066059e+00
 7.001771347342401e+00	 7.348253670109820e+00	 1.980862506042905e+00
 6.984447231202999e+00	 7.330929553972624e+00	 1.736931740474223e+00
 6.967123115063599e+00	 7.313605437835918e+00	 1.441729115786918e+00
 6.949798998924201e+00	 7.296281321699705e+00	 1.095254600407478e+00
 6.932474882784798e+00	 7.278957205563978e+00	 6.975081627620801e-01
 6.915150766645400e+00	 7.261633089428745e+00	 2.484897712765335e-01
 6.897826650506000e+00	 7.244308973294000e+00	-2.518006056238193e-01
 7.071067811900001e+00	 7.523616151836001e+00	 2.157023152361885e+00
 7.048440394901601e+00	 7.500988734837919e+00	 2.122239030352421e+00
 7.025812977903199e+00	 7.478361317840477e+00	 2.042726073215864e+00
 7.003185560904801e+00	 7.455733900843681e+00	 1.918484210603951e+00
 6.980558143906400e+00	 7.433106483847521e+00	 1.749513372168219e+00
 6.957930726907999e+00	 7.410479066852000e+00	 1.535813487560024e+00
 6.935303309909599e+00	 7.387851649857118e+00	 1.277384486430533e+00
 6.912675892911198e+00	 7.365224232862879e+00	 9.742262984307930e-01
 6.890048475912798e+00	 7.342596815869278e+00	 6.263388532116005e-01
 6.867421058914401e+00	 7.319969398876321e+00	 2.337220804235917e-01
 6.844793641916000e+00	 7.297341981884001e+00	-2.036240902827279e-01
 7.071067811899999e+00	 7.643824304631499e+00	 1.932522941569973e+00
 7.042429987261399e+00	 7.615186479993304e+00	 1.900974739035786e+00
 7.013792162622801e+00	 7.586548655355920e+00	 1.829792504212711e+00
 6.985154337984201e+00	 7.557910830719346e+00	 1.718976094484040e+00
 6.956516513345600e+00	 7.529273006083579e+00	 1.568525367233303e+00
 6.927878688707001e+00	 7.500635181448625e+00	 1.378440179844166e+00
 6.899240864068400e+00	 7.471997356814480e+00	 1.148720389700493e+00
 6.870603039429797e+00	 7.443359532181143e+00	 8.793658541863090e-01
 6.841965214791200e+00	 7.414721707548620e+00	 5.703764306858291e-01
 6.813327390152599e+00	 7.386083882916903e+00	 2.217519765834542e-01
 6.784689565513999e+00	 7.357446058286000e+00	-1.665076507362616e-01
 7.071067811900000e+00	 7.778174593050000e+00	 1.751495961516338e+00
 7.035712472840001e+00	 7.742819253990501e+00	 1.722614374212640e+00
 7.000357133780001e+00	 7.707463914932000e+00	 1.658180207417618e+00
 6.965001794719999e+00	 7.672108575874500e+00	 1.558193192771178e+00
 6.929646455659999e+00	 7.636753236817999e+00	 1.422653061914117e+00
 6.894291116599999e+00	 7.601397897762500e+00	 1.251559546488126e+00
 6.858935777540000e+00	 7.566042558708000e+00	 1.044912378135797e+00
 6.823580438480001e+00	 7.530687219654500e+00	 8.027112885006030e-01
 6.788225099420000e+00	 7.495331880602000e+00	 5.249560092269319e-01
 6.752869760359999e+00	 7.459976541550500e+00	 2.116462719600269e-01
 6.717514421300000e+00	 7.424621202500000e+00	-1.372181916539270e-01
 7.071067811900000e+00	 7.778174593050000e+00	 1.751495961516338e+00
 7.035712472840001e+00	 7.742819253990501e+00	 1.722614374212640e+00
 7.000357133780001e+00	 7.707463914932000e+00	 1.658180207417618e+00
 6.965001794719999e+00	 7.672108575874500e+00	 1.558193192771178e+00
 6.929646455659999e+00	 7.636753236817999e+00	 1.422653061914117e+00
 6.894291116599999e+00	 7.601397897762500e+00	 1.251559546488126e+00
 6.858935777540000e+00	 7.566042558708000e+00	 1.044912378135797e+00
 6.823580438480001e+00	 7.530687219654500e+00	 8.027112885006030e-01
 6.788225099420000e+00	 7.495331880602000e+00	 5.249560092269319e-01
 6.752869760359999e+00	 7.459976541550500e+00	 2.116462719600269e-01
 6.717514421300000e+00	 7.424621202500000e+00	-1.372181916539270e-01
 7.071067811900000e+00	 7.926667017092500e+00	 1.643068512746269e+00
 7.028287851637397e+00	 7.883887056830485e+00	 1.614507343777471e+00
 6.985507891374802e+00	 7.841107096569642e+00	 1.553689866844579e+00
 6.942727931112200e+00	 7.798327136309967e+00	 1.460615606527469e+00
 6.899947970849600e+00	 7.755547176051459e+00	 1.335284087408199e+00
 6.857168010586999e+00	 7.712767215794125e+00	 1.177694834071056e+00
 6.814388050324401e+00	 7.669987255537960e+00	 9.878473711025183e-01
 6.771608090061799e+00	 7.627207295282965e+00	 7.657412230912672e-01
 6.728828129799201e+00	 7.584427335029142e+00	 5.113759146281980e-01
 6.686048169536599e+00	 7.541647374776484e+00	 2.247509703064076e-01
 6.643268209274000e+00	 7.498867414525000e+00	-9.413408527880351e-02
 7.071067811900001e+00	 8.089301576760001e+00	 1.551953520465095e+00
 7.020156123653600e+00	 8.038389888514240e+00	 1.524377942867447e+00
 6.969244435407200e+00	 7.987478200269760e+00	 1.467316355174363e+00
 6.918332747160799e+00	 7.936566512026559e+00	 1.380767956053644e+00
 6.867421058914402e+00	 7.885654823784642e+00	 1.264731944177859e+00
 6.816509370668000e+00	 7.834743135544000e+00	 1.119207518224350e+00
 6.765597682421601e+00	 7.783831447304641e+00	 9.441938768752375e-01
 6.714685994175200e+00	 7.732919759066561e+00	 7.396902188174191e-01
 6.663774305928801e+00	 7.682008070829760e+00	 5.056957427425627e-01
 6.612862617682399e+00	 7.631096382594240e+00	 2.422096473471040e-01
 6.561950929436001e+00	 7.580184694360000e+00	-5.076886866772363e-02
 7.071067811900000e+00	 8.266078272052500e+00	 1.473915407987979e+00
 7.011317288888601e+00	 8.206327749041765e+00	 1.447696026418603e+00
 6.951566765877202e+00	 8.146577226032361e+00	 1.394354409366472e+00
 6.891816242865800e+00	 8.086826703024286e+00	 1.313889261475314e+00
 6.832065719854399e+00	 8.027076180017538e+00	 1.206299287398270e+00
 6.772315196842999e+00	 7.967325657012124e+00	 1.071583191797861e+00
 6.712564673831598e+00	 7.907575134008038e+00	 9.097396793460265e-01
 6.652814150820199e+00	 7.847824611005284e+00	 7.207674547240908e-01
 6.593063627808800e+00	 7.788074088003859e+00	 5.046652226227885e-01
 6.533313104797401e+00	 7.728323565003765e+00	 2.614316877422619e-01
 6.473562581786000e+00	 7.668573042005001e+00	-8.934445207985607e-03
 7.071067811900000e+00	 8.456997102970000e+00	 1.405975386514952e+00
 7.001771347342399e+00	 8.387700638413058e+00	 1.381306728760058e+00
 6.932474882784800e+00	 8.318404173857441e+00	 1.331559790203738e+00
 6.863178418227200e+00	 8.249107709303141e+00	 1.256732550146682e+00
 6.793881953669599e+00	 8.179811244750161e+00	 1.156822987906900e+00
 6.724585489112000e+00	 8.110514780198503e+00	 1.031829082819695e+00
 6.655289024554400e+00	 8.041218315648161e+00	 8.817488142377046e-01
 6.585992559996800e+00	 7.971921851099141e+00	 7.065801615308706e-01
 6.516696095439199e+00	 7.902625386551440e+00	 5.063211040864338e-01
 6.447399630881600e+00	 7.833328922005060e+00	 2.809696213089793e-01
 6.378103166323999e+00	 7.764032457460001e+00	 3.052369262036367e-02
 7.071067811900000e+00	 8.662058069512501e+00	 1.345980849697964e+00
 6.991518299015000e+00	 8.582508556628127e+00	 1.322948829875348e+00
 6.911968786129999e+00	 8.502959043744999e+00	 1.276627285821130e+00
 6.832419273244999e+00	 8.423409530863125e+00	 1.207013160603475e+00
 6.752869760360000e+00	 8.343860017982500e+00	 1.114103397320883e+00
 6.673320247475000e+00	 8.264310505103126e+00	 9.978949391021699e-01
 6.593770734590000e+00	 8.184760992225000e+00	 8.583847291065021e-01
 6.514221221704998e+00	 8.105211479348124e+00	 6.955697105233705e-01
 6.434671708820000e+00	 8.025661966472500e+00	 5.094468265725904e-01
 6.355122195934999e+00	 7.946112453598126e+00	 3.000130205043187e-01
 6.275572683050000e+00	 7.866562940725000e+00	 6.726523559903472e-02
 7.071067811900001e+00	 8.881261171680002e+00	 1.292340549136668e+00
 6.980558143906401e+00	 8.790751503686961e+00	 1.270962039120415e+00
 6.890048475912800e+00	 8.700241835695042e+00	 1.227876884317705e+00
 6.799538807919199e+00	 8.609732167704241e+00	 1.163080582130604e+00
 6.709029139925598e+00	 8.519222499714560e+00	 1.076568630012226e+00
 6.618519471932000e+00	 8.428712831726001e+00	 9.683365254667465e-01
 6.528009803938401e+00	 8.338203163738561e+00	 8.383797660493999e-01
 6.437500135944800e+00	 8.247693495752239e+00	 6.866938493664794e-01
 6.346990467951199e+00	 8.157183827767042e+00	 5.132742730753256e-01
 6.256480799957598e+00	 8.066674159782959e+00	 3.181165348843437e-01
 6.165971131964000e+00	 7.976164491800001e+00	 1.012161325529854e-01
 7.071067811900000e+00	 9.114606409472501e+00	 1.243855620143242e+00
 6.968890882016598e+00	 9.012429479589565e+00	 1.224102189802972e+00
 6.866713952133200e+00	 8.910252549707561e+00	 1.184057591026389e+00
 6.764537022249799e+00	 8.808075619826488e+00	 1.123715345794532e+00
 6.662360092366399e+00	 8.705898689946341e+00	 1.043068976171549e+00
 6.560183162483000e+00	 8.603721760067126e+00	 9.421120043047134e-01
 6.458006232599599e+00	 8.501544830188839e+00	 8.208379524244241e-01
 6.355829302716199e+00	 8.399367900311486e+00	 6.792403428441774e-01
 6.253652372832799e+00	 8.297190970435061e+00	 5.173126979606029e-01
 6.151475442949399e+00	 8.195014040559565e+00	 3.350485402534228e-01
 6.049298513065999e+00	 8.092837110685000e+00	 1.324413922854968e-01
 7.071067811900001e+00	 9.362093782890001e+00	 1.199608307527557e+00
 6.956516513345600e+00	 9.247542484335943e+00	 1.181420691421439e+00
 6.841965214791201e+00	 9.132991185782563e+00	 1.144220617536644e+00
 6.727413916236799e+00	 9.018439887229862e+00	 1.087998957582307e+00
 6.612862617682400e+00	 8.903888588677843e+00	 1.012746583399046e+00
 6.498311319128001e+00	 8.789337290126502e+00	 9.184543669589398e-01
 6.383760020573599e+00	 8.674785991575842e+00	 8.051131803655335e-01
 6.269208722019199e+00	 8.560234693025860e+00	 6.727138958538428e-01
 6.154657423464799e+00	 8.445683394476561e+00	 5.212473857903365e-01
 6.040106124910399e+00	 8.331132095927941e+00	 3.507045226729376e-01
 5.925554826355999e+00	 8.216580797380001e+00	 1.610761791310307e-01
 7.071067811900000e+00	 9.623723291932501e+00	 1.158886653505642e+00
 6.943435037893400e+00	 9.496090517926085e+00	 1.142183640017792e+00
 6.815802263886799e+00	 9.368457743920041e+00	 1.107635001424529e+00
 6.688169489880199e+00	 9.240824969914366e+00	 1.055228111250608e+00
 6.560536715873600e+00	 9.113192195909061e+00	 9.849503432235338e-01
 6.432903941866998e+00	 8.985559421904126e+00	 8.967890712735611e-01
 6.305271167860399e+00	 8.857926647899561e+00	 7.907316695336937e-01
 6.177638393853799e+00	 8.730293873895365e+00	 6.667655123396772e-01
 6.050005619847200e+00	 8.602661099891540e+00	 5.248779742299943e-01
 5.922372845840599e+00	 8.475028325888086e+00	 3.650564299458555e-01
 5.794740071833999e+00	 8.347395551885000e+00	 1.872882544312037e-01
 7.071067811900000e+00	 9.899494936600000e+00	 1.121132287392367e+00
 6.929646455660000e+00	 9.758073580360000e+00	 1.105816178747908e+00
 6.788225099420000e+00	 9.616652224120001e+00	 1.073730017920384e+00
 6.646803743180000e+00	 9.475230867880001e+00	 1.024856627925447e+00
 6.505382386939999e+00	 9.333809511640000e+00	 9.591788320844944e-01
 6.363961030700000e+00	 9.192388155400000e+00	 8.766794540246514e-01
 6.222539674460000e+00	 9.050966799159999e+00	 7.773413176787659e-01
 6.081118318220000e+00	 8.909545442919999e+00	 6.611472472854050e-01
 5.939696961979999e+00	 8.768124086680000e+00	 5.280800673888407e-01
 5.798275605740000e+00	 8.626702730439998e+00	 3.781226028390429e-01
 5.656854249500000e+00	 8.485281374200000e+00	 2.112576787916807e-01
 7.071067811900000e+00	 7.071067811900000e+00	 1.203096462939744e+00
 7.071067811900001e+00	 7.071067811900001e+00	 1.203096462939745e+00
 7.071067811900001e+00	 7.071067811900001e+00	 1.203096462939744e+00
 7.071067811900000e+00	 7.071067811900000e+00	 1.203096462939743e+00
 7.071067811899999e+00	 7.071067811899999e+00	 1.203096462939744e+00
 7.071067811900000e+00	 7.071067811900000e+00	 1.203096462939744e+00
 7.071067811900000e+00	 7.071067811900000e+00	 1.203096462939744e+00
 7.071067811900000e+00	 7.071067811900000e+00	 1.203096462939747e+00
 7.071067811900000e+00	 7.071067811900000e+00	 1.203096462939744e+00
 7.071067811900000e+00	 7.071067811900000e+00	 1.203096462939748e+00
 7.071067811900000e+00	 7.071067811900000e+00	 1.203096462939744e+00
 7.067532277994000e+00	 7.074603345806000e+00	-3.416916298407562e-01
 7.067178724603401e+00	 7.074249792415401e+00	-1.763363831658752e+00
 7.066825171212799e+00	 7.073896239024798e+00	-2.955931846752245e+00
 7.066471617822200e+00	 7.073542685634201e+00	-3.919395675082686e+00
 7.066118064431598e+00	 7.073189132243600e+00	-4.653755316670383e+00
 7.065764511041000e+00	 7.072835578853000e+00	-5.159010771513755e+00
 7.065410957650400e+00	 7.072482025462401e+00	-5.435162039610153e+00
 7.065057404259800e+00	 7.072128472071801e+00	-5.482209120945182e+00
 7.064703850869200e+00	 7.071774918681198e+00	-5.300152015603932e+00
 7.064350297478600e+00	 7.071421365290600e+00	-4.888990723416699e+00
 7.063996744088000e+00	 7.071067811900000e+00	-4.248725244565475e+00
 7.056925676275999e+00	 7.085209947524000e+00	-1.708899817829841e-01
 7.055511462713601e+00	 7.083795733961600e+00	-8.938406288971951e-01
 7.054097249151200e+00	 7.082381520399200e+00	-1.498389276497107e+00
 7.052683035588799e+00	 7.080967306836799e+00	-1.984535924598157e+00
 7.051268822026400e+00	 7.079553093274400e+00	-2.352280573215995e+00
 7.049854608463999e+00	 7.078138879711998e+00	-2.601623222370128e+00
 7.048440394901599e+00	 7.076724666149599e+00	-2.732563872075682e+00
 7.047026181339199e+00	 7.075310452587200e+00	-2.745102522351218e+00
 7.045611967776801e+00	 7.073896239024801e+00	-2.639239173210767e+00
 7.044197754214400e+00	 7.072482025462401e+00	-2.414973824679421e+00
 7.042783540652000e+00	 7.071067811900000e+00	-2.072306476766853e+00
 7.039248006745999e+00	 7.102887617053999e+00	-4.972565814208518e-02
 7.036066026230601e+00	 7.099705636538601e+00	-5.342713173493173e-01
 7.032884045715201e+00	 7.096523656023201e+00	-9.392674710340645e-01
 7.029702065199800e+00	 7.093341675507799e+00	-1.264714119394974e+00
 7.026520084684400e+00	 7.090159694992400e+00	-1.510611262625809e+00
 7.023338104169000e+00	 7.086977714477000e+00	-1.676958900922018e+00
 7.020156123653600e+00	 7.083795733961600e+00	-1.763757034480235e+00
 7.016974143138199e+00	 7.080613753446200e+00	-1.771005663495688e+00
 7.013792162622800e+00	 7.077431772930801e+00	-1.698704788164437e+00
 7.010610182107400e+00	 7.074249792415400e+00	-1.546854408680718e+00
 7.007428201591999e+00	 7.071067811899999e+00	-1.315454525241598e+00
 7.014499269404000e+00	 7.127636354396000e+00	 2.261989951931798e-02
 7.008842415154400e+00	 7.121979500146401e+00	-3.416097738891825e-01
 7.003185560904799e+00	 7.116322645896799e+00	-6.460818539884456e-01
 6.997528706655200e+00	 7.110665791647200e+00	-8.907963418770033e-01
 6.991871852405600e+00	 7.105008937397599e+00	-1.075753238654325e+00
 6.986214998156000e+00	 7.099352083148000e+00	-1.200952545419414e+00
 6.980558143906401e+00	 7.093695228898400e+00	-1.266394263271650e+00
 6.974901289656801e+00	 7.088038374648800e+00	-1.272078393310117e+00
 6.969244435407201e+00	 7.082381520399200e+00	-1.218004936633823e+00
 6.963587581157601e+00	 7.076724666149601e+00	-1.104173894342054e+00
 6.957930726908000e+00	 7.071067811900000e+00	-9.305852675339344e-01
 6.982679464249999e+00	 7.159456159549999e+00	 6.953581819016796e-02
 6.973840629485002e+00	 7.150617324785002e+00	-2.220738608180848e-01
 6.965001794720001e+00	 7.141778490019999e+00	-4.659176272209157e-01
 6.956162959955000e+00	 7.132939655255000e+00	-6.619954852112039e-01
 6.947324125190000e+00	 7.124100820490000e+00	-8.103074389818419e-01
 6.938485290425000e+00	 7.115261985725001e+00	-9.108534927259924e-01
 6.929646455659999e+00	 7.106423150960000e+00	-9.636336506364378e-01
 6.920807620894999e+00	 7.097584316194999e+00	-9.686479169062349e-01
 6.911968786130000e+00	 7.088745481430000e+00	-9.258962957280223e-01
 6.903129951365001e+00	 7.079906646665001e+00	-8.353787912952477e-01
 6.894291116600000e+00	 7.071067811900000e+00	-6.970954078001053e-01
 6.943788591283999e+00	 7.198347032516000e+00	 1.020409672944089e-01
 6.931060669222400e+00	 7.185619110454399e+00	-1.409098479885665e-01
 6.918332747160799e+00	 7.172891188392800e+00	-3.441370766087611e-01
 6.905604825099201e+00	 7.160163266331200e+00	-5.076407310865687e-01
 6.892876903037599e+00	 7.147435344269599e+00	-6.314208239419269e-01
 6.880148980976000e+00	 7.134707422208000e+00	-7.154773676948725e-01
 6.867421058914399e+00	 7.121979500146399e+00	-7.598103748653766e-01
 6.854693136852801e+00	 7.109251578084801e+00	-7.644198579736472e-01
 6.841965214791201e+00	 7.096523656023201e+00	-7.293058295394803e-01
 6.829237292729600e+00	 7.083795733961601e+00	-6.544683020829478e-01
 6.816509370667999e+00	 7.071067811899999e+00	-5.399072881239325e-01
 6.897826650506000e+00	 7.244308973294000e+00	 1.256440417527068e-01
 6.880502534366599e+00	 7.226984857154600e+00	-8.237065099425475e-02
 6.863178418227200e+00	 7.209660741015200e+00	-2.564288307293834e-01
 6.845854302087799e+00	 7.192336624875800e+00	-3.965305290236395e-01
 6.828530185948400e+00	 7.175012508736400e+00	-5.026757774479791e-01
 6.811206069809000e+00	 7.157688392597000e+00	-5.748646075732295e-01
 6.793881953669599e+00	 7.140364276457599e+00	-6.130970509701281e-01
 6.776557837530200e+00	 7.123040160318200e+00	-6.173731392093509e-01
 6.759233721390798e+00	 7.105716044178798e+00	-5.876929038615185e-01
 6.741909605251400e+00	 7.088391928039401e+00	-5.240563764971379e-01
 6.724585489112000e+00	 7.071067811900000e+00	-4.264635886868233e-01
 6.844793641916000e+00	 7.297341981884001e+00	 1.433549799436557e-01
 6.822166224917600e+00	 7.274714564885600e+00	-3.830530491866592e-02
 6.799538807919199e+00	 7.252087147887199e+00	-1.903456170101649e-01
 6.776911390920801e+00	 7.229459730888800e+00	-3.127660266767736e-01
 6.754283973922401e+00	 7.206832313890400e+00	-4.055666042642246e-01
 6.731656556923999e+00	 7.184204896891999e+00	-4.687474201181253e-01
 6.709029139925598e+00	 7.161577479893598e+00	-5.023085445837957e-01
 6.686401722927198e+00	 7.138950062895198e+00	-5.062500480063586e-01
 6.663774305928799e+00	 7.116322645896799e+00	-4.805720007308020e-01
 6.641146888930400e+00	 7.093695228898400e+00	-4.252744731019030e-01
 6.618519471932001e+00	 7.071067811900001e+00	-3.403575354641389e-01
 6.784689565513999e+00	 7.357446058286000e+00	 1.569449690608589e-01
 6.756051740875400e+00	 7.328808233647398e+00	-4.077775949837784e-03
 6.727413916236801e+00	 7.300170409008800e+00	-1.388587700445765e-01
 6.698776091598202e+00	 7.271532584370201e+00	-2.473981558345622e-01
 6.670138266959600e+00	 7.242894759731599e+00	-3.296960759305436e-01
 6.641500442321001e+00	 7.214256935093000e+00	-3.857526729427350e-01
 6.612862617682399e+00	 7.185619110454399e+00	-4.155680894808341e-01
 6.584224793043798e+00	 7.156981285815798e+00	-4.191424681540223e-01
 6.555586968405199e+00	 7.128343461177200e+00	-3.964759515710109e-01
 6.526949143766600e+00	 7.099705636538600e+00	-3.475686823399254e-01
 6.498311319128000e+00	 7.071067811899999e+00	-2.724208030683880e-01
 6.717514421300000e+00	 7.424621202500000e+00	 1.675197368329237e-01
 6.682159082240001e+00	 7.389265863440000e+00	 2.314061366800182e-02
 6.646803743180000e+00	 7.353910524380000e+00	-9.770122048911732e-02
 6.611448404120000e+00	 7.318555185319999e+00	-1.950060339863451e-01
 6.576093065059998e+00	 7.283199846260000e+00	-2.687740951703750e-01
 6.540737726000000e+00	 7.247844507200000e+00	-3.190056723866841e-01
 6.505382386940000e+00	 7.212489168139999e+00	-3.457010339795799e-01
 6.470027047880000e+00	 7.177133829080000e+00	-3.488604482921730e-01
 6.434671708820000e+00	 7.141778490020000e+00	-3.284841836663461e-01
 6.399316369760000e+00	 7.106423150960000e+00	-2.845725084428412e-01
 6.363961030700001e+00	 7.071067811900000e+00	-2.171256909611588e-01
 6.717514421300000e+00	 7.424621202500000e+00	 1.675197368329237e-01
 6.682159082240001e+00	 7.389265863440000e+00	 2.314061366800182e-02
 6.646803743180000e+00	 7.353910524380000e+00	-9.770122048911732e-02
 6.611448404120000e+00	 7.318555185319999e+00	-1.950060339863451e-01
 6.576093065059998e+00	 7.283199846260000e+00	-2.687740951703750e-01
 6.540737726000000e+00	 7.247844507200000e+00	-3.190056723866841e-01
 6.505382386940000e+00	 7.212489168139999e+00	-3.457010339795799e-01
 6.470027047880000e+00	 7.177133829080000e+00	-3.488604482921730e-01
 6.434671708820000e+00	 7.141778490020000e+00	-3.284841836663461e-01
 6.399316369760000e+00	 7.106423150960000e+00	-2.845725084428412e-01
 6.363961030700001e+00	 7.071067811900000e+00	-2.171256909611588e-01
 6.643268209274000e+00	 7.498867414525000e+00	 1.900469610862655e-01
 6.600488249011398e+00	 7.456087454262590e+00	 5.912956339535456e-02
 6.557708288748801e+00	 7.413307494000161e+00	-5.022543019275068e-02
 6.514928328486200e+00	 7.370527533737711e+00	-1.380184950722130e-01
 6.472148368223601e+00	 7.327747573475239e+00	-2.042501066346289e-01
 6.429368407961000e+00	 7.284967613212749e+00	-2.489207402689400e-01
 6.386588447698400e+00	 7.242187652950240e+00	-2.720308713615620e-01
 6.343808487435800e+00	 7.199407692687710e+00	-2.735809752962995e-01
 6.301028527173202e+00	 7.156627732425161e+00	-2.535715274543825e-01
 6.258248566910598e+00	 7.113847772162590e+00	-2.120030032144314e-01
 6.215468606648000e+00	 7.071067811900000e+00	-1.488758779524822e-01
 6.561950929436001e+00	 7.580184694360000e+00	 2.082093095899482e-01
 6.511039241189599e+00	 7.529273006114360e+00	 8.794156158584840e-02
 6.460127552943200e+00	 7.478361317868640e+00	-1.248801613819470e-02
 6.409215864696799e+00	 7.427449629622839e+00	-9.308022486262404e-02
 6.358304176450401e+00	 7.376537941376963e+00	-1.538358658627075e-01
 6.307392488204000e+00	 7.325626253130999e+00	-1.947557404085390e-01
 6.256480799957600e+00	 7.274714564884961e+00	-2.158406497650399e-01
 6.205569111711201e+00	 7.223802876638842e+00	-2.170913951919703e-01
 6.154657423464800e+00	 7.172891188392639e+00	-1.985087779438894e-01
 6.103745735218400e+00	 7.121979500146359e+00	-1.600935992702286e-01
 6.052834046971999e+00	 7.071067811900001e+00	-1.018466604151741e-01
 6.473562581786000e+00	 7.668573042005001e+00	 2.229865371899163e-01
 6.413812058774599e+00	 7.608822518995311e+00	 1.113640516397431e-01
 6.354061535763201e+00	 7.549071995985442e+00	 1.806699623160494e-02
 6.294311012751799e+00	 7.489321472975390e+00	-5.690592429294596e-02
 6.234560489740398e+00	 7.429570949965158e+00	-1.135560051825573e-01
 6.174809966728999e+00	 7.369820426954750e+00	-1.518845416761148e-01
 6.115059443717598e+00	 7.310069903944159e+00	-1.718928290026956e-01
 6.055308920706200e+00	 7.250319380933389e+00	-1.735821623816134e-01
 5.995558397694801e+00	 7.190568857922440e+00	-1.569538370223835e-01
 5.935807874683401e+00	 7.130818334911312e+00	-1.220091481247418e-01
 5.876057351671999e+00	 7.071067811900000e+00	-6.874939087867021e-02
 6.378103166323999e+00	 7.764032457460001e+00	 2.350709971022773e-01
 6.308806701766399e+00	 7.694735992905440e+00	 1.306276177853048e-01
 6.239510237208799e+00	 7.625439528350561e+00	 4.317588173631823e-02
 6.170213772651200e+00	 7.556143063795360e+00	-2.728623156733498e-02
 6.100917308093599e+00	 7.486846599239840e+00	-8.076074263065136e-02
 6.031620843536000e+00	 7.417550134684001e+00	-1.172496719409668e-01
 5.962324378978400e+00	 7.348253670127839e+00	-1.367550399679403e-01
 5.893027914420800e+00	 7.278957205571360e+00	-1.392788671635781e-01
 5.823731449863200e+00	 7.209660741014560e+00	-1.248231739622305e-01
 5.754434985305600e+00	 7.140364276457439e+00	-9.338998078055732e-02
 5.685138520748000e+00	 7.071067811900000e+00	-4.498130801757266e-02
 6.275572683050000e+00	 7.866562940725000e+00	 2.449662783930040e-01
 6.196023170165001e+00	 7.787013427844752e+00	 1.466067144259718e-01
 6.116473657279999e+00	 7.707463914963999e+00	 6.405727496102673e-02
 6.036924144394999e+00	 7.627914402082750e+00	-2.685096627182804e-03
 5.957374631510000e+00	 7.548364889201000e+00	-5.362345693336340e-02
 5.877825118625000e+00	 7.468815376318750e+00	-8.876086252158556e-02
 5.798275605740000e+00	 7.389265863436000e+00	-1.081003699252681e-01
 5.718726092854999e+00	 7.309716350552749e+00	-1.116450356471883e-01
 5.639176579970000e+00	 7.230166837669000e+00	-9.939791615948590e-02
 5.559627067084999e+00	 7.150617324784750e+00	-7.136206790364749e-02
 5.480077554199999e+00	 7.071067811900000e+00	-2.754054729052124e-02
 6.165971131964000e+00	 7.976164491800001e+00	 2.530483000364068e-01
 6.075461463970400e+00	 7.885654823813242e+00	 1.599403063143147e-01
 5.984951795976801e+00	 7.795145155825760e+00	 8.159136376599978e-02
 5.894442127983199e+00	 7.704635487837561e+00	 1.799697030690563e-02
 5.803932459989599e+00	 7.614125819848638e+00	-3.084737609622849e-02
 5.713422791995999e+00	 7.523616151859001e+00	-6.494617742530304e-02
 5.622913124002400e+00	 7.433106483868641e+00	-8.430393561091466e-02
 5.532403456008799e+00	 7.342596815877560e+00	-8.892515253231670e-02
 5.441893788015200e+00	 7.252087147885760e+00	-7.881433001744284e-02
 5.351384120021598e+00	 7.161577479893239e+00	-5.397596984290925e-02
 5.260874452027999e+00	 7.071067811900001e+00	-1.441457373398841e-02
 6.049298513065999e+00	 8.092837110685000e+00	 2.596046186514352e-01
 5.947121583182599e+00	 7.990660180810910e+00	 1.711073544359601e-01
 5.844944653299199e+00	 7.888483250935841e+00	 9.643062269414304e-02
 5.742767723415799e+00	 7.786306321059791e+00	 3.556794624062981e-02
 5.640590793532399e+00	 7.684129391182760e+00	-1.148715202659137e-02
 5.538413863648998e+00	 7.581952461304750e+00	-4.474114912620537e-02
 5.436236933765599e+00	 7.479775531425760e+00	-6.420052199353146e-02
 5.334060003882199e+00	 7.377598601545791e+00	-6.987174748054903e-02
 5.231883073998798e+00	 7.275421671664840e+00	-6.176130235590635e-02
 5.129706144115398e+00	 7.173244741782910e+00	-3.987566330491404e-02
 5.027529214231999e+00	 7.071067811900000e+00	-4.221306929521773e-03
 5.925554826355999e+00	 8.216580797380001e+00	 2.648605842564065e-01
 5.811003527801600e+00	 8.102029498837762e+00	 1.804757404171627e-01
 5.696452229247201e+00	 7.987478200294242e+00	 1.090707171772092e-01
 5.581900930692799e+00	 7.872926901749442e+00	 5.063638756241751e-02
 5.467349632138400e+00	 7.758375603203361e+00	 5.163624730321364e-03
 5.352798333583999e+00	 7.643824304656001e+00	-2.735669802990116e-02
 5.238247035029598e+00	 7.529273006107360e+00	-4.693370729742630e-02
 5.123695736475199e+00	 7.414721707557439e+00	-5.357652951978734e-02
 5.009144437920799e+00	 7.300170409006240e+00	-4.729429101287497e-02
 4.894593139366398e+00	 7.185619110453759e+00	-2.809611796094774e-02
 4.780041840811998e+00	 7.071067811900001e+00	 4.008863583373962e-03
 5.794740071833999e+00	 8.347395551885000e+00	 2.689972832354603e-01
 5.667107297827398e+00	 8.219762777893790e+00	 1.883349871192576e-01
 5.539474523820799e+00	 8.092130003900962e+00	 1.198973592383341e-01
 5.411841749814198e+00	 7.964497229906510e+00	 6.367177514664321e-02
 5.284208975807599e+00	 7.836864455910440e+00	 1.964561060102481e-02
 5.156576201800998e+00	 7.709231681912749e+00	-1.219375843881883e-02
 5.028943427794398e+00	 7.581598907913440e+00	-3.185895581028191e-02
 4.901310653787798e+00	 7.453966133912511e+00	-3.936260514791129e-02
 4.773677879781197e+00	 7.326333359909960e+00	-3.471732988338100e-02
 4.646045105774597e+00	 7.198700585905790e+00	-1.793575324550034e-02
 4.518412331767998e+00	 7.071067811900000e+00	 1.096950173977790e-02
 5.656854249500000e+00	 8.485281374200000e+00	 2.721642008739087e-01
 5.515432893260000e+00	 8.343860017978999e+00	 1.949187775713388e-01
 5.374011537020000e+00	 8.202438661756000e+00	 1.292181676766272e-01
 5.232590180780001e+00	 8.061017305530999e+00	 7.504519726404366e-02
 5.091168824540000e+00	 7.919595949304000e+00	 3.238269271369357e-02
 4.949747468300000e+00	 7.778174593075001e+00	 1.213480711463794e-03
 4.808326112060000e+00	 7.636753236844000e+00	-1.847961175095392e-02
 4.666904755820000e+00	 7.495331880611000e+00	-2.671375737609280e-02
 4.525483399580001e+00	 7.353910524375999e+00	-2.350612856069109e-02
 4.384062043340000e+00	 7.212489168138999e+00	-8.873897395738323e-03
 4.242640687100000e+00	 7.071067811900000e+00	 1.716576433355857e-02
 7.071067811900000e+00	 7.071067811900000e+00	 1.203096462939744e+00
 7.071067811900001e+00	 7.071067811900001e+00	 1.203096462939746e+00
 7.071067811900001e+00	 7.071067811900001e+00	 1.203096462939744e+00
 7.071067811900000e+00	 7.071067811900000e+00	 1.203096462939742e+00
 7.071067811899999e+00	 7.071067811899999e+00	 1.203096462939744e+00
 7.071067811900000e+00	 7.071067811900000e+00	 1.203096462939744e+00
 7.071067811900000e+00	 7.071067811900000e+00	 1.203096462939744e+00
 7.071067811900000e+00	 7.071067811900000e+00	 1.203096462939747e+00
 7.071067811900000e+00	 7.071067811900000e+00	 1.203096462939744e+00
 7.071067811900000e+00	 7.071067811900000e+00	 1.203096462939747e+00
 7.071067811900000e+00	 7.071067811900000e+00	 1.203096462939744e+00
 7.063996744088000e+00	 7.071067811900000e+00	-3.808381456605854e+00
 7.064350297478600e+00	 7.070714258509400e+00	-4.726259470052686e+00
 7.064703850869199e+00	 7.070360705118798e+00	-5.667258760755248e+00
 7.065057404259800e+00	 7.070007151728200e+00	-6.631379328656009e+00
 7.065410957650399e+00	 7.069653598337600e+00	-7.618621173788387e+00
 7.065764511041000e+00	 7.069300044947000e+00	-8.628984296143244e+00
 7.066118064431599e+00	 7.068946491556400e+00	-9.662468695724737e+00
 7.066471617822200e+00	 7.068592938165800e+00	-1.071907437251024e+01
 7.066825171212800e+00	 7.068239384775199e+00	-1.179880132658470e+01
 7.067178724603401e+00	 7.067885831384601e+00	-1.290164955779881e+01
 7.067532277994000e+00	 7.067532277994000e+00	-1.402761906630447e+01
 7.042783540652000e+00	 7.071067811900000e+00	-1.825757877214956e+00
 7.044197754214401e+00	 7.069653598337601e+00	-2.282849405665826e+00
 7.045611967776800e+00	 7.068239384775199e+00	-2.752361984354621e+00
 7.047026181339199e+00	 7.066825171212799e+00	-3.234295613294277e+00
 7.048440394901600e+00	 7.065410957650400e+00	-3.728650292501396e+00
 7.049854608463999e+00	 7.063996744087999e+00	-4.235426021994515e+00
 7.051268822026399e+00	 7.062582530525598e+00	-4.754622801790148e+00
 7.052683035588799e+00	 7.061168316963199e+00	-5.286240631904784e+00
 7.054097249151201e+00	 7.059754103400801e+00	-5.830279512353954e+00
 7.055511462713601e+00	 7.058339889838400e+00	-6.386739443160284e+00
 7.056925676275999e+00	 7.056925676275999e+00	-6.955620424334651e+00
 7.007428201591999e+00	 7.071067811899999e+00	-1.159285105371452e+00
 7.010610182107401e+00	 7.067885831384601e+00	-1.466334395430889e+00
 7.013792162622800e+00	 7.064703850869200e+00	-1.781526714694590e+00
 7.016974143138199e+00	 7.061521870353800e+00	-2.104862063359005e+00
 7.020156123653600e+00	 7.058339889838400e+00	-2.436340441615181e+00
 7.023338104169000e+00	 7.055157909322999e+00	-2.775961849656720e+00
 7.026520084684400e+00	 7.051975928807600e+00	-3.123726287677452e+00
 7.029702065199800e+00	 7.048793948292200e+00	-3.479633755870017e+00
 7.032884045715201e+00	 7.045611967776800e+00	-3.843684254428114e+00
 7.036066026230600e+00	 7.042429987261400e+00	-4.215877783543707e+00
 7.039248006745999e+00	 7.039248006745999e+00	-4.596214343411024e+00
 6.957930726908000e+00	 7.071067811900000e+00	-8.244393344195099e-01
 6.963587581157601e+00	 7.065410957650401e+00	-1.057105036361815e+00
 6.969244435407200e+00	 7.059754103400800e+00	-1.295641519481346e+00
 6.974901289656801e+00	 7.054097249151201e+00	-1.540048784862452e+00
 6.980558143906400e+00	 7.048440394901600e+00	-1.790326833590631e+00
 6.986214998155999e+00	 7.042783540652000e+00	-2.046475666751340e+00
 6.991871852405601e+00	 7.037126686402400e+00	-2.308495285429970e+00
 6.997528706655200e+00	 7.031469832152800e+00	-2.576385690711599e+00
 7.003185560904800e+00	 7.025812977903200e+00	-2.850146883681829e+00
 7.008842415154400e+00	 7.020156123653600e+00	-3.129778865425885e+00
 7.014499269404000e+00	 7.014499269404000e+00	-3.415281637029075e+00
 6.894291116600000e+00	 7.071067811900000e+00	-6.225104137517472e-01
 6.903129951365002e+00	 7.062228977135002e+00	-8.107232417752135e-01
 6.911968786130000e+00	 7.053390142370000e+00	-1.003401065783411e+00
 6.920807620895000e+00	 7.044551307605000e+00	-1.200543889916578e+00
 6.929646455659999e+00	 7.035712472839999e+00	-1.402151718314841e+00
 6.938485290425000e+00	 7.026873638075000e+00	-1.608224555118451e+00
 6.947324125190000e+00	 7.018034803310000e+00	-1.818762404467502e+00
 6.956162959954999e+00	 7.009195968545000e+00	-2.033765270502336e+00
 6.965001794720000e+00	 7.000357133779999e+00	-2.253233157362860e+00
 6.973840629485001e+00	 6.991518299015000e+00	-2.477166069189602e+00
 6.982679464249999e+00	 6.982679464249999e+00	-2.705564010122252e+00
 6.816509370667999e+00	 7.071067811899999e+00	-4.870074397083162e-01
 6.829237292729600e+00	 7.058339889838399e+00	-6.456338887696917e-01
 6.841965214791200e+00	 7.045611967776800e+00	-8.077707266142070e-01
 6.854693136852801e+00	 7.032884045715201e+00	-9.734179656048689e-01
 6.867421058914399e+00	 7.020156123653599e+00	-1.142575618104112e+00
 6.880148980976000e+00	 7.007428201592000e+00	-1.315243696474426e+00
 6.892876903037600e+00	 6.994700279530399e+00	-1.491422213078460e+00
 6.905604825099201e+00	 6.981972357468800e+00	-1.671111180278844e+00
 6.918332747160800e+00	 6.969244435407201e+00	-1.854310610437918e+00
 6.931060669222401e+00	 6.956516513345600e+00	-2.041020515918205e+00
 6.943788591283999e+00	 6.943788591283999e+00	-2.231240909082250e+00
 6.724585489112000e+00	 7.071067811900000e+00	-3.893688130726333e-01
 6.741909605251399e+00	 7.053743695760598e+00	-5.268624672351985e-01
 6.759233721390800e+00	 7.036419579621199e+00	-6.671764296558613e-01
 6.776557837530200e+00	 7.019095463481801e+00	-8.103107315086510e-01
 6.793881953669601e+00	 7.001771347342401e+00	-9.562654039676144e-01
 6.811206069809000e+00	 6.984447231202999e+00	-1.105040478206657e+00
 6.828530185948399e+00	 6.967123115063599e+00	-1.256635985399594e+00
 6.845854302087799e+00	 6.949798998924201e+00	-1.411051956720188e+00
 6.863178418227198e+00	 6.932474882784798e+00	-1.568288423342153e+00
 6.880502534366600e+00	 6.915150766645400e+00	-1.728345416439125e+00
 6.897826650506000e+00	 6.897826650506000e+00	-1.891222967184688e+00
 6.618519471932001e+00	 7.071067811900001e+00	-3.152892036265901e-01
 6.641146888930400e+00	 7.048440394901601e+00	-4.369109734678648e-01
 6.663774305928799e+00	 7.025812977903199e+00	-5.608313313671395e-01
 6.686401722927201e+00	 7.003185560904801e+00	-6.870503467863756e-01
 6.709029139925600e+00	 6.980558143906400e+00	-8.155680891873907e-01
 6.731656556923999e+00	 6.957930726907999e+00	-9.463846280318373e-01
 6.754283973922399e+00	 6.935303309909599e+00	-1.079500032781094e+00
 6.776911390920798e+00	 6.912675892911198e+00	-1.214914372896396e+00
 6.799538807919198e+00	 6.890048475912798e+00	-1.352627717838728e+00
 6.822166224917600e+00	 6.867421058914401e+00	-1.492640137068977e+00
 6.844793641916000e+00	 6.844793641916000e+00	-1.634951700047724e+00
 6.498311319128000e+00	 7.071067811899999e+00	-2.568086766426056e-01
 6.526949143766600e+00	 7.042429987261399e+00	-3.660509520023281e-01
 6.555586968405200e+00	 7.013792162622801e+00	-4.771838908415618e-01
 6.584224793043802e+00	 6.985154337984201e+00	-5.902076339805554e-01
 6.612862617682399e+00	 6.956516513345600e+00	-7.051223222391392e-01
 6.641500442321001e+00	 6.927878688707001e+00	-8.219280964366452e-01
 6.670138266959600e+00	 6.899240864068400e+00	-9.406250973918204e-01
 6.698776091598198e+00	 6.870603039429797e+00	-1.061213465922943e+00
 6.727413916236800e+00	 6.841965214791200e+00	-1.183693342847767e+00
 6.756051740875400e+00	 6.813327390152599e+00	-1.308064868983604e+00
 6.784689565513999e+00	 6.784689565513999e+00	-1.434328185147109e+00
 6.363961030700001e+00	 7.071067811900000e+00	-2.091429808236380e-01
 6.399316369760000e+00	 7.035712472840001e+00	-3.084392452754183e-01
 6.434671708820000e+00	 7.000357133780001e+00	-4.092987541492104e-01
 6.470027047880000e+00	 6.965001794719999e+00	-5.117217724252313e-01
 6.505382386939999e+00	 6.929646455659999e+00	-6.157085650824859e-01
 6.540737726000000e+00	 6.894291116599999e+00	-7.212593970987548e-01
 6.576093065059999e+00	 6.858935777540000e+00	-8.283745334506860e-01
 6.611448404120001e+00	 6.823580438480001e+00	-9.370542391137431e-01
 6.646803743180000e+00	 6.788225099420000e+00	-1.047298779062146e+00
 6.682159082240000e+00	 6.752869760359999e+00	-1.159108418269002e+00
 6.717514421300000e+00	 6.717514421300000e+00	-1.272483421706197e+00
 6.363961030700001e+00	 7.071067811900000e+00	-2.091429808236380e-01
 6.399316369760000e+00	 7.035712472840001e+00	-3.084392452754183e-01
 6.434671708820000e+00	 7.000357133780001e+00	-4.092987541492104e-01
 6.470027047880000e+00	 6.965001794719999e+00	-5.117217724252313e-01
 6.505382386939999e+00	 6.929646455659999e+00	-6.157085650824859e-01
 6.540737726000000e+00	 6.894291116599999e+00	-7.212593970987548e-01
 6.576093065059999e+00	 6.858935777540000e+00	-8.283745334506860e-01
 6.611448404120001e+00	 6.823580438480001e+00	-9.370542391137431e-01
 6.646803743180000e+00	 6.788225099420000e+00	-1.047298779062146e+00
 6.682159082240000e+00	 6.752869760359999e+00	-1.159108418269002e+00
 6.717514421300000e+00	 6.717514421300000e+00	-1.272483421706197e+00
 6.215468606648000e+00	 7.071067811900000e+00	-2.089010904350845e-01
 6.258248566910598e+00	 7.028287851637397e+00	-2.922600329528774e-01
 6.301028527173201e+00	 6.985507891374802e+00	-3.779328232344247e-01
 6.343808487435800e+00	 6.942727931112200e+00	-4.659199307120555e-01
 6.386588447698400e+00	 6.899947970849600e+00	-5.562218248155368e-01
 6.429368407961000e+00	 6.857168010586999e+00	-6.488389749721126e-01
 6.472148368223601e+00	 6.814388050324401e+00	-7.437718506064668e-01
 6.514928328486199e+00	 6.771608090061799e+00	-8.410209211407635e-01
 6.557708288748801e+00	 6.728828129799201e+00	-9.405866559946234e-01
 6.600488249011398e+00	 6.686048169536599e+00	-1.042469524585130e+00
 6.643268209274000e+00	 6.643268209274000e+00	-1.146669996326799e+00
 6.052834046971999e+00	 7.071067811900001e+00	-1.832654123456351e-01
 6.103745735218400e+00	 7.020156123653600e+00	-2.577453840612354e-01
 6.154657423464800e+00	 6.969244435407200e+00	-3.348183767056371e-01
 6.205569111711199e+00	 6.918332747160799e+00	-4.144851815186940e-01
 6.256480799957601e+00	 6.867421058914402e+00	-4.967465897351536e-01
 6.307392488204000e+00	 6.816509370668000e+00	-5.816033925846703e-01
 6.358304176450401e+00	 6.765597682421601e+00	-6.690563812918198e-01
 6.409215864696801e+00	 6.714685994175200e+00	-7.591063470760888e-01
 6.460127552943201e+00	 6.663774305928801e+00	-8.517540811518363e-01
 6.511039241189599e+00	 6.612862617682399e+00	-9.470003747283932e-01
 6.561950929436001e+00	 6.561950929436001e+00	-1.044846019009921e+00
 5.876057351671999e+00	 7.071067811900000e+00	-1.432196730622503e-01
 5.935807874683400e+00	 7.011317288888601e+00	-2.132951631807263e-01
 5.995558397694801e+00	 6.951566765877202e+00	-2.859537788969329e-01
 6.055308920706200e+00	 6.891816242865800e+00	-3.611967992532154e-01
 6.115059443717599e+00	 6.832065719854399e+00	-4.390255032822536e-01
 6.174809966728999e+00	 6.772315196842999e+00	-5.194411700070701e-01
 6.234560489740398e+00	 6.712564673831598e+00	-6.024450784410242e-01
 6.294311012751799e+00	 6.652814150820199e+00	-6.880385075878128e-01
 6.354061535763199e+00	 6.593063627808800e+00	-7.762227364414762e-01
 6.413812058774600e+00	 6.533313104797401e+00	-8.669990439863992e-01
 6.473562581786000e+00	 6.473562581786000e+00	-9.603687091972934e-01
 5.685138520748000e+00	 7.071067811900000e+00	-9.521897609669122e-02
 5.754434985305600e+00	 7.001771347342399e+00	-1.637713179663322e-01
 5.823731449863200e+00	 6.932474882784800e+00	-2.347182467058884e-01
 5.893027914420800e+00	 6.863178418227200e+00	-3.080617575661413e-01
 5.962324378978400e+00	 6.793881953669599e+00	-3.838038457803923e-01
 6.031620843536000e+00	 6.724585489112000e+00	-4.619465065644486e-01
 6.100917308093599e+00	 6.655289024554400e+00	-5.424917351166653e-01
 6.170213772651199e+00	 6.585992559996800e+00	-6.254415266178901e-01
 6.239510237208800e+00	 6.516696095439199e+00	-7.107978762315227e-01
 6.308806701766399e+00	 6.447399630881600e+00	-7.985627791034586e-01
 6.378103166323999e+00	 6.378103166323999e+00	-8.887382303621369e-01
 5.480077554199999e+00	 7.071067811900000e+00	-4.312995191912827e-02
 5.559627067084999e+00	 6.991518299015000e+00	-1.120297551338792e-01
 5.639176579969999e+00	 6.911968786129999e+00	-1.830254496805811e-01
 5.718726092854999e+00	 6.832419273244999e+00	-2.561200539928334e-01
 5.798275605740000e+00	 6.752869760360000e+00	-3.313165864738751e-01
 5.877825118625000e+00	 6.673320247475000e+00	-4.086180654965831e-01
 5.957374631510000e+00	 6.593770734590000e+00	-4.880275094034917e-01
 6.036924144394999e+00	 6.514221221704998e+00	-5.695479365067697e-01
 6.116473657279999e+00	 6.434671708820000e+00	-6.531823650882453e-01
 6.196023170165000e+00	 6.355122195934999e+00	-7.389338133993928e-01
 6.275572683050000e+00	 6.275572683050000e+00	-8.268052996613245e-01
 5.260874452027999e+00	 7.071067811900001e+00	 1.070817242690414e-02
 5.351384120021599e+00	 6.980558143906401e+00	-5.975385763102459e-02
 5.441893788015200e+00	 6.890048475912800e+00	-1.319460665677947e-01
 5.532403456008799e+00	 6.799538807919199e+00	-2.058729002773253e-01
 5.622913124002399e+00	 6.709029139925598e+00	-2.815388046026341e-01
 5.713422791996000e+00	 6.618519471932000e+00	-3.589482253358896e-01
 5.803932459989600e+00	 6.528009803938401e+00	-4.381056082183802e-01
 5.894442127983199e+00	 6.437500135944800e+00	-5.190153989405453e-01
 5.984951795976800e+00	 6.346990467951199e+00	-6.016820431419425e-01
 6.075461463970397e+00	 6.256480799957598e+00	-6.861099864112552e-01
 6.165971131964000e+00	 6.165971131964000e+00	-7.723036742863423e-01
 5.027529214231999e+00	 7.071067811900000e+00	 6.488088764614192e-02
 5.129706144115398e+00	 6.968890882016598e+00	-7.925251402640998e-03
 5.231883073998800e+00	 6.866713952133200e+00	-8.205616870108567e-02
 5.334060003882199e+00	 6.764537022249799e+00	-1.575182606870519e-01
 5.436236933765598e+00	 6.662360092366399e+00	-2.343179237157560e-01
 5.538413863649000e+00	 6.560183162483000e+00	-3.124615540598192e-01
 5.640590793532399e+00	 6.458006232599599e+00	-3.919555479092298e-01
 5.742767723415799e+00	 6.355829302716199e+00	-4.728063013713599e-01
 5.844944653299200e+00	 6.253652372832799e+00	-5.550202104709737e-01
 5.947121583182600e+00	 6.151475442949399e+00	-6.386036711502203e-01
 6.049298513065999e+00	 6.049298513065999e+00	-7.235630792686298e-01
 4.780041840811998e+00	 7.071067811900001e+00	 1.185450290281356e-01
 4.894593139366399e+00	 6.956516513345600e+00	 4.290189580895892e-02
 5.009144437920800e+00	 6.841965214791201e+00	-3.363810274903023e-02
 5.123695736475199e+00	 6.727413916236799e+00	-1.110839799800571e-01
 5.238247035029600e+00	 6.612862617682400e+00	-1.894447490878374e-01
 5.352798333583999e+00	 6.498311319128001e+00	-2.687294231455514e-01
 5.467349632138399e+00	 6.383760020573599e+00	-3.489470150958806e-01
 5.581900930692798e+00	 6.269208722019199e+00	-4.301065377509699e-01
 5.696452229247200e+00	 6.154657423464799e+00	-5.122170037924704e-01
 5.811003527801599e+00	 6.040106124910399e+00	-5.952874257715086e-01
 5.925554826355999e+00	 5.925554826355999e+00	-6.793268161087208e-01
 4.518412331767998e+00	 7.071067811900000e+00	 1.712159647103874e-01
 4.646045105774597e+00	 6.943435037893400e+00	 9.243683025406874e-02
 4.773677879781198e+00	 6.815802263886799e+00	 1.320078487029958e-02
 4.901310653787798e+00	 6.688169489880199e+00	-6.650463890629532e-02
 5.028943427794399e+00	 6.560536715873600e+00	-1.466919083399204e-01
 5.156576201800998e+00	 6.432903941866998e+00	-2.273734904936214e-01
 5.284208975807598e+00	 6.305271167860399e+00	-3.085618522293102e-01
 5.411841749814199e+00	 6.177638393853799e+00	-3.902694602077336e-01
 5.539474523820799e+00	 6.050005619847200e+00	-4.725087808885101e-01
 5.667107297827399e+00	 5.922372845840599e+00	-5.552922805301070e-01
 5.794740071833999e+00	 5.794740071833999e+00	-6.386324251898804e-01
 4.242640687100000e+00	 7.071067811900000e+00	 2.226365163766436e-01
 4.384062043340000e+00	 6.929646455660000e+00	 1.405519484806752e-01
 4.525483399580000e+00	 6.788225099420000e+00	 5.845655360742696e-02
 4.666904755820000e+00	 6.646803743180000e+00	-2.366662891250279e-02
 4.808326112060000e+00	 6.505382386939999e+00	-1.058345594453028e-01
 4.949747468300000e+00	 6.363961030700000e+00	-1.880641980539395e-01
 5.091168824540000e+00	 6.222539674460000e+00	-2.703725044981855e-01
 5.232590180780000e+00	 6.081118318220000e+00	-3.527764382346009e-01
 5.374011537019999e+00	 5.939696961979999e+00	-4.352929584165769e-01
 5.515432893260000e+00	 5.798275605740000e+00	-5.179390238942986e-01
 5.656854249500000e+00	 5.656854249500000e+00	-6.007315932147931e-01
 0.000000000000000e+00	 0.000000000000000e+00	-3.092605801075601e-02
-1.414213562400000e-01	 1.414213562400000e-01	 8.099719301399600e-03
-2.828427124800000e-01	 2.828427124800000e-01	 4.540228510522615e-02
-4.242640687200001e-01	 4.242640687200001e-01	 8.098163940095005e-02
-5.656854249600001e-01	 5.656854249600001e-01	 1.148377821887861e-01
-7.071067812000000e-01	 7.071067812000000e-01	 1.469707134689461e-01
-8.485281374400000e-01	 8.485281374400000e-01	 1.773804332416372e-01
-9.899494936800000e-01	 9.899494936800000e-01	 2.060669415070560e-01
-1.131370849920000e+00	 1.131370849920000e+00	 2.330302382653915e-01
-1.272792206160000e+00	 1.272792206160000e+00	 2.582703235168287e-01
-1.414213562400000e+00	 1.414213562400000e+00	 2.817871972615392e-01
 2.828427124795000e-01	 2.828427124795000e-01	-4.508724958273717e-02
 1.414213562395000e-01	 4.242640687193149e-01	-8.676087285765688e-03
-5.000333914290111e-13	 5.656854249587601e-01	 2.636657931711941e-02
-1.414213562405001e-01	 7.071067811978351e-01	 6.004075022611506e-02
-2.828427124805001e-01	 8.485281374365402e-01	 9.234642544141400e-02
-4.242640687205000e-01	 9.899494936748751e-01	 1.232836049632087e-01
-5.656854249605000e-01	 1.131370849912840e+00	 1.528522887916801e-01
-7.071067812005002e-01	 1.272792206150435e+00	 1.810524769270042e-01
-8.485281374405000e-01	 1.414213562387660e+00	 2.078841693693624e-01
-9.899494936804997e-01	 1.555634918624515e+00	 2.333473661189131e-01
-1.131370849920500e+00	 1.697056274861000e+00	 2.574420671758308e-01
 5.656854249580000e-01	 5.656854249580000e-01	-5.994999079602480e-02
 4.242640687180000e-01	 7.071067811976601e-01	-2.579526110472728e-02
 2.828427124780000e-01	 8.485281374366399e-01	 7.345688706708792e-03
 1.414213562380000e-01	 9.899494936749400e-01	 3.947285863846405e-02
-2.000007798264036e-12	 1.131370849912560e+00	 7.058624869070629e-02
-1.414213562419999e-01	 1.272792206149500e+00	 1.006858588636072e-01
-2.828427124819999e-01	 1.414213562385760e+00	 1.297716891573316e-01
-4.242640687220000e-01	 1.555634918621340e+00	 1.578437395720414e-01
-5.656854249619998e-01	 1.697056274856240e+00	 1.849020101078980e-01
-7.071067812020000e-01	 1.838477631090460e+00	 2.109465007650589e-01
-8.485281374420000e-01	 1.979898987324000e+00	 2.359772115436773e-01
 8.485281374355000e-01	 8.485281374355000e-01	-7.551428165017875e-02
 7.071067811955001e-01	 9.899494936750352e-01	-4.325780215504185e-02
 5.656854249555002e-01	 1.131370849913640e+00	-1.166038672554190e-02
 4.242640687155000e-01	 1.272792206151315e+00	 1.927796463847034e-02
 2.828427124755001e-01	 1.414213562388060e+00	 4.955725193715466e-02
 1.414213562355001e-01	 1.555634918623875e+00	 7.917747517065467e-02
-4.499872696683838e-12	 1.697056274858760e+00	 1.081386343391266e-01
-1.414213562444998e-01	 1.838477631092715e+00	 1.364407294427168e-01
-2.828427124845000e-01	 1.979898987325740e+00	 1.640837604815714e-01
-4.242640687244999e-01	 2.121320343557835e+00	 1.910677274558400e-01
-5.656854249644998e-01	 2.262741699789000e+00	 2.173926303656654e-01
 1.131370849912000e+00	 1.131370849912000e+00	-9.178012214477457e-02
 9.899494936720004e-01	 1.272792206151440e+00	-6.106371043626067e-02
 8.485281374320001e-01	 1.414213562389760e+00	-3.065164697918069e-02
 7.071067811920001e-01	 1.555634918626960e+00	-5.439317733909460e-04
 5.656854249520000e-01	 1.697056274863040e+00	 2.925943518124184e-02
 4.242640687120001e-01	 1.838477631098000e+00	 5.875845388485404e-02
 2.828427124720001e-01	 1.979898987331840e+00	 8.795312433758166e-02
 1.414213562320001e-01	 2.121320343564560e+00	 1.168434465395598e-01
-7.999850781814644e-12	 2.262741699796160e+00	 1.454294204909254e-01
-1.414213562479998e-01	 2.404163056026640e+00	 1.737110461918083e-01
-2.828427124880000e-01	 2.545584412256000e+00	 2.016883236423483e-01
 1.414213562387500e+00	 1.414213562387500e+00	-1.087475122793657e-01
 1.272792206147500e+00	 1.555634918626875e+00	-7.921298594794327e-02
 1.131370849907500e+00	 1.697056274865000e+00	-4.962809205374492e-02
 9.899494936675000e-01	 1.838477631101875e+00	-1.999283059665330e-02
 8.485281374274999e-01	 1.979898987337500e+00	 9.692798423456980e-03
 7.071067811875000e-01	 2.121320343571875e+00	 3.942879500670195e-02
 5.656854249475001e-01	 2.262741699805000e+00	 6.921515915320652e-02
 4.242640687075001e-01	 2.404163056036875e+00	 9.905189086309163e-02
 2.828427124675001e-01	 2.545584412267500e+00	 1.289389901364771e-01
 1.414213562275002e-01	 2.687005768496876e+00	 1.588764569734884e-01
-1.250000103425464e-11	 2.828427124725000e+00	 1.888642913742414e-01
 1.697056274862000e+00	 1.697056274862000e+00	-1.264164520535217e-01
 1.555634918622000e+00	 1.838477631101340e+00	-9.770562868963789e-02
 1.414213562382000e+00	 1.979898987339360e+00	-6.858972194877981e-02
 1.272792206142000e+00	 2.121320343576060e+00	-3.906873183084411e-02
 1.131370849902000e+00	 2.262741699811440e+00	-9.142658335722295e-03
 9.899494936619999e-01	 2.404163056045500e+00	 2.118849853668964e-02
 8.485281374220000e-01	 2.545584412278240e+00	 5.192473878649757e-02
 7.071067811820001e-01	 2.687005768509660e+00	 8.306606241380868e-02
 5.656854249420001e-01	 2.828427124739760e+00	 1.146124694187295e-01
 4.242640687020001e-01	 2.969848480968540e+00	 1.465639598013666e-01
 2.828427124619999e-01	 3.111269837196000e+00	 1.789205335618240e-01
 1.979898987335500e+00	 1.979898987335500e+00	-1.447869414668060e-01
 1.838477631095500e+00	 2.121320343574834e+00	-1.165416386609035e-01
 1.697056274855500e+00	 2.262741699812840e+00	-8.753653666382843e-02
 1.555634918615500e+00	 2.404163056049515e+00	-5.777163547549748e-02
 1.414213562375500e+00	 2.545584412284860e+00	-2.724693509581685e-02
 1.272792206135500e+00	 2.687005768518875e+00	 4.037564475301111e-03
 1.131370849895500e+00	 2.828427124751559e+00	 3.608186323794564e-02
 9.899494936554999e-01	 2.969848480982916e+00	 6.888596119220156e-02
 8.485281374154998e-01	 3.111269837212939e+00	 1.024498583381607e-01
 7.071067811755001e-01	 3.252691193441636e+00	 1.367735546759102e-01
 5.656854249354999e-01	 3.394112549669000e+00	 1.718570502055361e-01
 2.262741699808000e+00	 2.262741699808000e+00	-1.638589805187830e-01
 2.121320343568000e+00	 2.404163056047360e+00	-1.357210158612896e-01
 1.979898987327999e+00	 2.545584412285439e+00	-1.064685361984360e-01
 1.838477631088000e+00	 2.687005768522240e+00	-7.610154153014569e-02
 1.697056274848000e+00	 2.828427124757760e+00	-4.462003185635202e-02
 1.555634918607999e+00	 2.969848480991999e+00	-1.202400717698641e-02
 1.414213562368000e+00	 3.111269837224960e+00	 2.168653250801908e-02
 1.272792206128000e+00	 3.252691193456639e+00	 5.651158719873409e-02
 1.131370849888000e+00	 3.394112549687040e+00	 9.245115689522304e-02
 9.899494936480000e-01	 3.535533905916160e+00	 1.248825974895767e-01
 8.485281374079998e-01	 3.676955262144000e+00	 1.556857864550232e-01
 2.545584412279500e+00	 2.545584412279500e+00	-1.836325692090173e-01
 2.404163056039499e+00	 2.687005768518914e+00	-1.552437602903528e-01
 2.262741699799500e+00	 2.828427124757160e+00	-1.253857205521374e-01
 2.121320343559500e+00	 2.969848480994235e+00	-9.405844999432418e-02
 1.979898987319500e+00	 3.111269837230140e+00	-6.126194861686236e-02
 1.838477631079500e+00	 3.252691193464875e+00	-2.699621641970600e-02
 1.697056274839500e+00	 3.394112549698439e+00	 8.738746597189012e-03
 1.555634918599500e+00	 3.535533905930834e+00	 4.129776302872779e-02
 1.414213562359500e+00	 3.676955262162060e+00	 7.255345790701834e-02
 1.272792206119500e+00	 3.818376618392115e+00	 1.054236224263648e-01
 1.131370849879500e+00	 3.959797974621000e+00	 1.399175818621232e-01
 2.828427124750000e+00	 2.828427124750000e+00	-2.041077075370754e-01
 2.687005768510000e+00	 2.969848480989500e+00	-1.751098719476432e-01
 2.545584412270000e+00	 3.111269837227999e+00	-1.442880897244834e-01
 2.404163056029999e+00	 3.252691193465500e+00	-1.116423608675696e-01
 2.262741699790000e+00	 3.394112549702000e+00	-7.717268537687869e-02
 2.121320343550000e+00	 3.535533905937500e+00	-4.552924771538674e-02
 1.979898987310000e+00	 3.676955262172000e+00	-1.485332229755731e-02
 1.838477631070000e+00	 3.818376618405500e+00	 1.777224790794507e-02
 1.697056274830000e+00	 3.959797974638000e+00	 5.235678795060458e-02
 1.555634918590000e+00	 4.101219330869499e+00	 8.890962796976049e-02
 1.414213562350000e+00	 4.242640687100000e+00	 1.274400982473936e-01
 2.828427124750000e+00	 2.828427124750000e+00	-2.041077075370754e-01
 2.687005768510000e+00	 2.969848480989500e+00	-1.751098719476432e-01
 2.545584412270000e+00	 3.111269837227999e+00	-1.442880897244834e-01
 2.404163056029999e+00	 3.252691193465500e+00	-1.116423608675696e-01
 2.262741699790000e+00	 3.394112549702000e+00	-7.717268537687869e-02
 2.121320343550000e+00	 3.535533905937500e+00	-4.552924771538674e-02
 1.979898987310000e+00	 3.676955262172000e+00	-1.485332229755731e-02
 1.838477631070000e+00	 3.818376618405500e+00	 1.777224790794507e-02
 1.697056274830000e+00	 3.959797974638000e+00	 5.235678795060458e-02
 1.555634918590000e+00	 4.101219330869499e+00	 8.890962796976049e-02
 1.414213562350000e+00	 4.242640687100000e+00	 1.274400982473936e-01
 3.111269837220500e+00	 3.111269837220500e+00	-2.470914224104333e-01
 2.969848480980500e+00	 3.252691193460095e+00	-2.071879769864534e-01
 2.828427124740500e+00	 3.394112549698881e+00	-1.692147311432529e-01
 2.687005768500501e+00	 3.535533905936856e+00	-1.353252144864053e-01
 2.545584412260500e+00	 3.676955262174020e+00	-1.028298792216022e-01
 2.404163056020500e+00	 3.818376618410376e+00	-6.882308147705650e-02
 2.262741699780501e+00	 3.959797974645920e+00	-3.329549641305178e-02
 2.121320343540500e+00	 4.101219330880655e+00	 3.762205872112206e-03
 1.979898987300501e+00	 4.242640687114581e+00	 4.235935542277083e-02
 1.838477631060500e+00	 4.384062043347694e+00	 8.250528242590555e-02
 1.697056274820500e+00	 4.525483399580001e+00	 1.242093172111388e-01
 3.394112549692001e+00	 3.394112549692001e+00	-2.867944384654900e-01
 3.252691193452000e+00	 3.535533905931681e+00	-2.452328611038519e-01
 3.111269837212000e+00	 3.676955262170721e+00	-2.055332851030302e-01
 2.969848480972000e+00	 3.818376618409120e+00	-1.648021945889222e-01
 2.828427124732001e+00	 3.959797974646881e+00	-1.264956407679742e-01
 2.687005768492000e+00	 4.101219330884001e+00	-8.799319049104748e-02
 2.545584412252001e+00	 4.242640687120480e+00	-4.838947568824116e-02
 2.404163056012000e+00	 4.384062043356321e+00	-7.675166410219342e-03
 2.262741699772000e+00	 4.525483399591520e+00	 3.415906743498959e-02
 2.121320343532000e+00	 4.666904755826081e+00	 7.712255608201340e-02
 1.979898987292001e+00	 4.808326112060000e+00	 1.212246299081129e-01
 3.676955262164501e+00	 3.676955262164501e+00	-3.318730429547090e-01
 3.535533905924501e+00	 3.818376618404256e+00	-2.874942838693949e-01
 3.394112549684501e+00	 3.959797974643521e+00	-2.425310588119103e-01
 3.252691193444502e+00	 4.101219330882296e+00	-1.969664092265841e-01
 3.111269837204500e+00	 4.242640687120580e+00	-1.507833762545968e-01
 2.969848480964501e+00	 4.384062043358375e+00	-1.039650007339587e-01
 2.828427124724501e+00	 4.525483399595680e+00	-6.012467242576683e-02
 2.687005768484501e+00	 4.666904755832496e+00	-1.652928143209634e-02
 2.545584412244501e+00	 4.808326112068821e+00	 2.776651130380939e-02
 2.404163056004502e+00	 4.949747468304658e+00	 7.277203606421767e-02
 2.262741699764501e+00	 5.091168824540001e+00	 1.184966232740455e-01
 3.959797974638001e+00	 3.959797974638001e+00	-3.726041452617292e-01
 3.818376618398000e+00	 4.101219330877821e+00	-3.233173533717447e-01
 3.676955262158002e+00	 4.242640687117281e+00	-2.738761809613218e-01
 3.535533905918002e+00	 4.384062043356381e+00	-2.242636694760056e-01
 3.394112549678001e+00	 4.525483399595121e+00	-1.744628600581926e-01
 3.252691193438001e+00	 4.666904755833502e+00	-1.244567935471120e-01
 3.111269837198001e+00	 4.808326112071520e+00	-7.422851047882631e-02
 2.969848480958001e+00	 4.949747468309181e+00	-2.376105108620954e-02
 2.828427124718001e+00	 5.091168824546481e+00	 2.319227510433056e-02
 2.687005768478001e+00	 5.232590180783420e+00	 6.946431025721064e-02
 2.545584412238001e+00	 5.374011537020001e+00	 1.160358850031991e-01
 4.242640687112501e+00	 4.242640687112501e+00	-4.059738641171437e-01
 4.101219330872501e+00	 4.384062043352376e+00	-3.525647357770684e-01
 3.959797974632501e+00	 4.525483399592001e+00	-2.994313127740961e-01
 3.818376618392501e+00	 4.666904755831376e+00	-2.465566365550023e-01
 3.676955262152501e+00	 4.808326112070501e+00	-1.939237482634054e-01
 3.535533905912501e+00	 4.949747468309376e+00	-1.415156887397517e-01
 3.394112549672501e+00	 5.091168824548001e+00	-8.931549852131877e-02
 3.252691193432502e+00	 5.232590180786376e+00	-3.730621784219465e-02
 3.111269837192501e+00	 5.374011537024501e+00	 1.452911336672211e-02
 2.969848480952502e+00	 5.515432893262377e+00	 6.620745547772619e-02
 2.828427124712501e+00	 5.656854249500001e+00	 1.138530035484352e-01
 4.525483399588001e+00	 4.525483399588001e+00	-4.318448558635521e-01
 4.384062043348002e+00	 4.666904755827923e+00	-3.750990874229033e-01
 4.242640687108002e+00	 4.808326112067682e+00	-3.190591105827330e-01
 4.101219330868002e+00	 4.949747468307282e+00	-2.637079667910390e-01
 3.959797974628001e+00	 5.091168824546721e+00	-2.090286971926686e-01
 3.818376618388002e+00	 5.232590180786001e+00	-1.550043426292963e-01
 3.676955262148002e+00	 5.374011537025122e+00	-1.016179436394121e-01
 3.535533905908002e+00	 5.515432893264082e+00	-4.885254045832554e-02
 3.394112549668002e+00	 5.656854249502882e+00	 3.308826981849616e-03
 3.252691193428001e+00	 5.798275605741521e+00	 5.488311905220472e-02
 3.111269837188002e+00	 5.939696961980002e+00	 1.058872964270329e-01
 4.808326112064502e+00	 4.808326112064502e+00	-4.500797719530331e-01
 4.666904755824501e+00	 4.949747468304457e+00	-3.907830597562560e-01
 4.525483399584502e+00	 5.091168824544322e+00	-3.326222258291587e-01
 4.384062043344501e+00	 5.232590180784097e+00	-2.755803116209823e-01
 4.242640687104502e+00	 5.374011537023781e+00	-2.196403582778026e-01
 4.101219330864502e+00	 5.515432893263376e+00	-1.647854066425185e-01
 3.959797974624502e+00	 5.656854249502882e+00	-1.109984972548504e-01
 3.818376618384502e+00	 5.798275605742298e+00	-5.826267035132821e-02
 3.676955262144502e+00	 5.939696961981621e+00	-6.560965865284513e-03
 3.535533905904502e+00	 6.081118318220857e+00	 4.412357657315294e-02
 3.394112549664502e+00	 6.222539674460002e+00	 9.380791763706892e-02
 5.091168824542002e+00	 5.091168824542002e+00	-4.605412589469084e-01
 4.949747468302004e+00	 5.232590180781983e+00	-3.994792993333316e-01
 4.808326112062002e+00	 5.374011537021922e+00	-3.399833050644879e-01
 4.666904755822002e+00	 5.515432893261823e+00	-2.820363175908562e-01
 4.525483399582003e+00	 5.656854249501682e+00	-2.256213780597490e-01
 4.384062043342003e+00	 5.798275605741503e+00	-1.707215273153030e-01
 4.242640687102002e+00	 5.939696961981282e+00	-1.173198058984631e-01
 4.101219330862002e+00	 6.081118318221022e+00	-6.539925404699362e-02
 3.959797974622002e+00	 6.222539674460721e+00	-1.494291169544842e-02
 3.818376618382001e+00	 6.363961030700381e+00	 3.406618152482321e-02
 3.676955262142002e+00	 6.505382386940003e+00	 8.164498628568206e-02
 5.374011537020502e+00	 5.374011537020502e+00	-4.630919585154957e-01
 5.232590180780502e+00	 5.515432893260497e+00	-4.010504478193176e-01
 5.091168824540503e+00	 5.656854249500483e+00	-3.410049899487794e-01
 4.949747468300502e+00	 5.798275605740457e+00	-2.829386263556023e-01
 4.808326112060502e+00	 5.939696961980423e+00	-2.268343981883506e-01
 4.666904755820502e+00	 6.081118318220376e+00	-1.726753462923965e-01
 4.525483399580501e+00	 6.222539674460322e+00	-1.204445112099245e-01
 4.384062043340502e+00	 6.363961030700256e+00	-7.012493317992924e-02
 4.242640687100502e+00	 6.505382386940182e+00	-2.169965213819686e-02
 4.101219330860502e+00	 6.646803743180097e+00	 2.484829228269136e-02
 3.959797974620502e+00	 6.788225099420003e+00	 6.953586075337143e-02
 5.656854249500000e+00	 5.656854249500000e+00	-4.575945074378655e-01
 5.515432893260000e+00	 5.798275605740000e+00	-3.953591419881163e-01
 5.374011537020000e+00	 5.939696961980000e+00	-3.355499172507799e-01
 5.232590180780001e+00	 6.081118318220000e+00	-2.781498746788416e-01
 5.091168824540000e+00	 6.222539674460000e+00	-2.231420554220997e-01
 4.949747468300000e+00	 6.363961030700001e+00	-1.705095003271765e-01
 4.808326112060000e+00	 6.505382386939999e+00	-1.202352499375084e-01
 4.666904755820000e+00	 6.646803743180000e+00	-7.230234449331868e-02
 4.525483399580001e+00	 6.788225099420000e+00	-2.669382393164482e-02
 4.384062043340000e+00	 6.929646455659999e+00	 1.660727211369933e-02
 4.242640687100000e+00	 7.071067811900000e+00	 5.761790431212177e-02
 8.485281374200000e+00	 8.485281374200000e+00	 1.965952884402941e+00
 8.343860017978999e+00	 8.626702730440000e+00	 1.907025017304912e+00
 8.202438661756000e+00	 8.768124086679999e+00	 1.850178499559255e+00
 8.061017305530999e+00	 8.909545442920001e+00	 1.795430289700229e+00
 7.919595949304000e+00	 9.050966799160001e+00	 1.742797346565295e+00
 7.778174593075001e+00	 9.192388155400000e+00	 1.692296629295112e+00
 7.636753236844000e+00	 9.333809511640000e+00	 1.643945097333557e+00
 7.495331880611000e+00	 9.475230867880001e+00	 1.597759710427720e+00
 7.353910524375999e+00	 9.616652224119999e+00	 1.553757428627919e+00
 7.212489168138999e+00	 9.758073580360000e+00	 1.511955212287709e+00
 7.071067811900000e+00	 9.899494936600000e+00	 1.472370022063881e+00
 8.768124086680000e+00	 8.768124086680000e+00	 1.831191350262836e+00
 8.626702730455390e+00	 8.909545442919905e+00	 1.779365564098175e+00
 8.485281374229160e+00	 9.050966799159820e+00	 1.729215117235813e+00
 8.343860018001308e+00	 9.192388155399744e+00	 1.680756968208660e+00
 8.202438661771838e+00	 9.333809511639679e+00	 1.634008075852819e+00
 8.061017305540750e+00	 9.475230867879624e+00	 1.588985399307611e+00
 7.919595949308040e+00	 9.616652224119580e+00	 1.545705898015565e+00
 7.778174593073709e+00	 9.758073580359545e+00	 1.504186531722438e+00
 7.636753236837760e+00	 9.899494936599520e+00	 1.464444260477217e+00
 7.495331880600191e+00	 1.004091629283950e+01	 1.426496044632127e+00
 7.353910524361001e+00	 1.018233764907950e+01	 1.390358844842644e+00
 9.050966799159999e+00	 9.050966799159999e+00	 1.721085976430097e+00
 8.909545442932160e+00	 9.192388155399621e+00	 1.669582644144148e+00
 8.768124086703041e+00	 9.333809511639283e+00	 1.621897018304065e+00
 8.626702730472640e+00	 9.475230867878981e+00	 1.579679683652624e+00
 8.485281374240961e+00	 9.616652224118720e+00	 1.538765595213671e+00
 8.343860018008000e+00	 9.758073580358500e+00	 1.499171712125167e+00
 8.202438661773760e+00	 9.899494936598321e+00	 1.460914993828300e+00
 8.061017305538240e+00	 1.004091629283818e+01	 1.424012400067475e+00
 7.919595949301439e+00	 1.018233764907808e+01	 1.388480890890346e+00
 7.778174593063360e+00	 1.032375900531802e+01	 1.354337426647801e+00
 7.636753236823999e+00	 1.046518036155800e+01	 1.325092169455597e+00
 9.333809511640000e+00	 9.333809511640000e+00	 1.625643257133608e+00
 9.192388155409311e+00	 9.475230867879146e+00	 1.581856600447724e+00
 9.050966799177642e+00	 9.616652224118383e+00	 1.538753915154351e+00
 8.909545442944989e+00	 9.758073580357705e+00	 1.496327459115008e+00
 8.768124086711358e+00	 9.899494936597121e+00	 1.457207331498360e+00
 8.626702730476751e+00	 1.004091629283663e+01	 1.422992994603839e+00
 8.485281374241161e+00	 1.018233764907622e+01	 1.389709811633345e+00
 8.343860018004589e+00	 1.032375900531590e+01	 1.357374742329938e+00
 8.202438661767040e+00	 1.046518036155568e+01	 1.328738442116790e+00
 8.061017305528512e+00	 1.060660171779555e+01	 1.301901273398305e+00
 7.919595949289000e+00	 1.074802307403550e+01	 1.276423881028078e+00
 9.616652224120001e+00	 9.616652224120001e+00	 1.541786546525518e+00
 9.475230867886841e+00	 9.758073580358481e+00	 1.505700244927288e+00
 9.333809511652962e+00	 9.899494936597121e+00	 1.469921728396728e+00
 9.192388155418360e+00	 1.004091629283592e+01	 1.434443255057442e+00
 9.050966799183040e+00	 1.018233764907488e+01	 1.399257082813190e+00
 8.909545442946998e+00	 1.032375900531400e+01	 1.364355469347863e+00
 8.768124086710239e+00	 1.046518036155328e+01	 1.334130867697612e+00
 8.626702730472759e+00	 1.060660171779272e+01	 1.308936404823127e+00
 8.485281374234560e+00	 1.074802307403232e+01	 1.284708713650685e+00
 8.343860017995642e+00	 1.088944443027208e+01	 1.261445159886462e+00
 8.202438661756000e+00	 1.103086578651200e+01	 1.239143109236628e+00
 9.899494936600000e+00	 9.899494936600000e+00	 1.469295428730772e+00
 9.758073580364751e+00	 1.004091629283763e+01	 1.440893160659775e+00
 9.616652224129000e+00	 1.018233764907550e+01	 1.412422491589383e+00
 9.475230867892751e+00	 1.032375900531363e+01	 1.383875679905296e+00
 9.333809511655998e+00	 1.046518036155200e+01	 1.356332827281240e+00
 9.192388155418751e+00	 1.060660171779063e+01	 1.329244178176159e+00
 9.050966799181001e+00	 1.074802307402950e+01	 1.302457362476281e+00
 8.909545442942751e+00	 1.088944443026862e+01	 1.275977493263102e+00
 8.768124086704001e+00	 1.103086578650800e+01	 1.252157315697635e+00
 8.626702730464752e+00	 1.117228714274763e+01	 1.232444251897999e+00
 8.485281374225000e+00	 1.131370849898750e+01	 1.213294417978866e+00
 1.018233764908000e+01	 1.018233764908000e+01	 1.407949485203409e+00
 1.004091629284304e+01	 1.032375900531658e+01	 1.387214928051176e+00
 9.899494936605759e+00	 1.046518036155352e+01	 1.366437190602390e+00
 9.758073580368162e+00	 1.060660171779082e+01	 1.345585178136402e+00
 9.616652224130240e+00	 1.074802307402848e+01	 1.324619353484510e+00
 9.475230867892000e+00	 1.088944443026650e+01	 1.303544829602792e+00
 9.333809511653440e+00	 1.103086578650488e+01	 1.282366719466276e+00
 9.192388155414561e+00	 1.117228714274362e+01	 1.261090136068948e+00
 9.050966799175361e+00	 1.131370849898272e+01	 1.239720192423755e+00
 8.909545442935840e+00	 1.145512985522218e+01	 1.218262001562590e+00
 8.768124086695998e+00	 1.159655121146200e+01	 1.198922371152409e+00
 1.046518036156000e+01	 1.046518036156000e+01	 1.357372483588473e+00
 1.032375900532171e+01	 1.060660171779534e+01	 1.344365773428326e+00
 1.018233764908324e+01	 1.074802307403118e+01	 1.330829606008335e+00
 1.004091629284459e+01	 1.088944443026750e+01	 1.316769094159155e+00
 9.899494936605761e+00	 1.103086578650432e+01	 1.302189350730397e+00
 9.758073580366750e+00	 1.117228714274162e+01	 1.287095488590624e+00
 9.616652224127558e+00	 1.131370849897942e+01	 1.271492620627361e+00
 9.475230867888190e+00	 1.145512985521771e+01	 1.255385859747087e+00
 9.333809511648639e+00	 1.159655121145648e+01	 1.238780318875235e+00
 9.192388155408912e+00	 1.173797256769575e+01	 1.221681110956200e+00
 9.050966799169000e+00	 1.187939392393550e+01	 1.204093348953327e+00
 1.074802307404000e+01	 1.074802307404000e+01	 1.316513335725335e+00
 1.060660171780076e+01	 1.088944443027392e+01	 1.311075501210493e+00
 1.046518036156144e+01	 1.103086578650848e+01	 1.304702790308433e+00
 1.032375900532204e+01	 1.117228714274368e+01	 1.297400315762304e+00
 1.018233764908256e+01	 1.131370849897952e+01	 1.289173190334216e+00
 1.004091629284300e+01	 1.145512985521600e+01	 1.280026526805228e+00
 9.899494936603359e+00	 1.159655121145312e+01	 1.269965437975364e+00
 9.758073580363639e+00	 1.173797256769088e+01	 1.258995036663597e+00
 9.616652224123838e+00	 1.187939392392928e+01	 1.247120435707860e+00
 9.475230867883960e+00	 1.202081528016832e+01	 1.234346747965041e+00
 9.333809511644001e+00	 1.216223663640800e+01	 1.220679086310986e+00
 1.103086578652000e+01	 1.103086578652000e+01	 1.285332251074834e+00
 1.088944443028019e+01	 1.117228714275230e+01	 1.287429829059196e+00
 1.074802307404036e+01	 1.131370849898542e+01	 1.288187111620249e+00
 1.060660171780051e+01	 1.145512985521935e+01	 1.287609211413645e+00
 1.046518036156064e+01	 1.159655121145408e+01	 1.285701241113993e+00
 1.032375900532075e+01	 1.173797256768963e+01	 1.282468313414860e+00
 1.018233764908084e+01	 1.187939392392598e+01	 1.277915541028765e+00
 1.004091629284091e+01	 1.202081528016314e+01	 1.272048036687188e+00
 9.899494936600959e+00	 1.216223663640112e+01	 1.264870913140562e+00
 9.758073580360989e+00	 1.230365799263990e+01	 1.256389283158276e+00
 9.616652224120999e+00	 1.244507934887950e+01	 1.246608259528678e+00
 1.131370849900000e+01	 1.131370849900000e+01	 1.263959594556970e+00
 1.117228714276000e+01	 1.145512985523050e+01	 1.273559122244643e+00
 1.103086578652000e+01	 1.159655121146200e+01	 1.281412935564197e+00
 1.088944443028000e+01	 1.173797256769450e+01	 1.287526147083790e+00
 1.074802307404000e+01	 1.187939392392800e+01	 1.291903869390543e+00
 1.060660171780000e+01	 1.202081528016250e+01	 1.294551215090527e+00
 1.046518036156000e+01	 1.216223663639800e+01	 1.295473296808773e+00
 1.032375900532000e+01	 1.230365799263450e+01	 1.294675227189265e+00
 1.018233764908000e+01	 1.244507934887200e+01	 1.292162118894946e+00
 1.004091629284000e+01	 1.258650070511050e+01	 1.287939084607712e+00
 9.899494936600000e+00	 1.272792206135000e+01	 1.282011237028414e+00
 1.131370849900000e+01	 1.131370849900000e+01	 1.263959594556970e+00
 1.117228714276000e+01	 1.145512985523050e+01	 1.273559122244643e+00
 1.103086578652000e+01	 1.159655121146200e+01	 1.281412935564197e+00
 1.088944443028000e+01	 1.173797256769450e+01	 1.287526147083790e+00
 1.074802307404000e+01	 1.187939392392800e+01	 1.291903869390543e+00
 1.060660171780000e+01	 1.202081528016250e+01	 1.294551215090527e+00
 1.046518036156000e+01	 1.216223663639800e+01	 1.295473296808773e+00
 1.032375900532000e+01	 1.230365799263450e+01	 1.294675227189265e+00
 1.018233764908000e+01	 1.244507934887200e+01	 1.292162118894946e+00
 1.004091629284000e+01	 1.258650070511050e+01	 1.287939084607712e+00
 9.899494936600000e+00	 1.272792206135000e+01	 1.282011237028414e+00
 1.159655121147900e+01	 1.159655121147900e+01	 1.265311157848733e+00
 1.145512985523901e+01	 1.173797256770788e+01	 1.271462240461678e+00
 1.131370849899904e+01	 1.187939392393794e+01	 1.276093290077160e+00
 1.117228714275909e+01	 1.202081528016917e+01	 1.279209419175874e+00
 1.103086578651916e+01	 1.216223663640156e+01	 1.280815740257474e+00
 1.088944443027925e+01	 1.230365799263513e+01	 1.280917365840565e+00
 1.074802307403936e+01	 1.244507934886986e+01	 1.279519408462707e+00
 1.060660171779949e+01	 1.258650070510577e+01	 1.276626980680414e+00
 1.046518036155964e+01	 1.272792206134284e+01	 1.272245195069155e+00
 1.032375900531981e+01	 1.286934341758108e+01	 1.266379164223353e+00
 1.018233764908000e+01	 1.301076477382050e+01	 1.259034000756384e+00
 1.187939392395600e+01	 1.187939392395600e+01	 1.263721467639743e+00
 1.173797256771604e+01	 1.202081528018384e+01	 1.266864347594885e+00
 1.159655121147616e+01	 1.216223663641296e+01	 1.268712876014582e+00
 1.145512985523636e+01	 1.230365799264336e+01	 1.269272165292062e+00
 1.131370849899664e+01	 1.244507934887504e+01	 1.268547327839507e+00
 1.117228714275700e+01	 1.258650070510800e+01	 1.266543476088050e+00
 1.103086578651744e+01	 1.272792206134224e+01	 1.263265722487780e+00
 1.088944443027796e+01	 1.286934341757776e+01	 1.258719179507735e+00
 1.074802307403856e+01	 1.301076477381456e+01	 1.252908959635908e+00
 1.060660171779924e+01	 1.315218613005264e+01	 1.245840175379244e+00
 1.046518036156000e+01	 1.329360748629200e+01	 1.237517939263639e+00
 1.216223663643100e+01	 1.216223663643100e+01	 1.259320881358632e+00
 1.202081528019109e+01	 1.230365799265837e+01	 1.259895801423080e+00
 1.187939392395136e+01	 1.244507934888706e+01	 1.259402051505449e+00
 1.173797256771181e+01	 1.258650070511709e+01	 1.257844743911499e+00
 1.159655121147244e+01	 1.272792206134844e+01	 1.255228990965936e+00
 1.145512985523325e+01	 1.286934341758113e+01	 1.251559905012422e+00
 1.131370849899424e+01	 1.301076477381513e+01	 1.246842598413565e+00
 1.117228714275541e+01	 1.315218613005048e+01	 1.241082183550929e+00
 1.103086578651676e+01	 1.329360748628716e+01	 1.234283772825027e+00
 1.088944443027829e+01	 1.343502884252517e+01	 1.226452478655323e+00
 1.074802307404000e+01	 1.357645019876450e+01	 1.217593413480230e+00
 1.244507934890400e+01	 1.244507934890400e+01	 1.252239753937089e+00
 1.230365799266416e+01	 1.258650070513146e+01	 1.250686957228113e+00
 1.216223663642464e+01	 1.272792206136024e+01	 1.248291172181765e+00
 1.202081528018544e+01	 1.286934341759034e+01	 1.245057511016334e+00
 1.187939392394656e+01	 1.301076477382176e+01	 1.240991085969047e+00
 1.173797256770800e+01	 1.315218613005450e+01	 1.236097009296090e+00
 1.159655121146976e+01	 1.329360748628856e+01	 1.230380393272597e+00
 1.145512985523184e+01	 1.343502884252394e+01	 1.223846350192647e+00
 1.131370849899424e+01	 1.357645019876064e+01	 1.216499992369274e+00
 1.117228714275696e+01	 1.371787155499866e+01	 1.208346432134459e+00
 1.103086578652000e+01	 1.385929291123800e+01	 1.199390781839137e+00
 1.272792206137500e+01	 1.272792206137500e+01	 1.242608437809941e+00
 1.258650070513525e+01	 1.286934341760313e+01	 1.239368167794950e+00
 1.244507934889600e+01	 1.301076477383250e+01	 1.235510591178628e+00
 1.230365799265725e+01	 1.315218613006313e+01	 1.231040820091786e+00
 1.216223663641900e+01	 1.329360748629500e+01	 1.225963966684179e+00
 1.202081528018125e+01	 1.343502884252813e+01	 1.220285143124511e+00
 1.187939392394400e+01	 1.357645019876250e+01	 1.214009461600437e+00
 1.173797256770725e+01	 1.371787155499813e+01	 1.207142034318559e+00
 1.159655121147100e+01	 1.385929291123500e+01	 1.199687973504427e+00
 1.145512985523525e+01	 1.400071426747313e+01	 1.191652391402537e+00
 1.131370849900000e+01	 1.414213562371250e+01	 1.183040400276340e+00
 1.301076477384400e+01	 1.301076477384400e+01	 1.230557282915221e+00
 1.286934341760436e+01	 1.315218613007336e+01	 1.226069783411743e+00
 1.272792206136544e+01	 1.329360748630384e+01	 1.221190659134301e+00
 1.258650070512724e+01	 1.343502884253544e+01	 1.215925022126229e+00
 1.244507934888976e+01	 1.357645019876816e+01	 1.210277984449805e+00
 1.230365799265300e+01	 1.371787155500200e+01	 1.204254658186257e+00
 1.216223663641696e+01	 1.385929291123696e+01	 1.197860155435760e+00
 1.202081528018164e+01	 1.400071426747304e+01	 1.191099588317433e+00
 1.187939392394704e+01	 1.414213562371024e+01	 1.183978068969345e+00
 1.173797256771316e+01	 1.428355697994856e+01	 1.176500709548512e+00
 1.159655121148000e+01	 1.442497833618800e+01	 1.168672622230897e+00
 1.329360748631100e+01	 1.329360748631100e+01	 1.216216636694241e+00
 1.315218613007149e+01	 1.343502884254216e+01	 1.210922151869900e+00
 1.301076477383297e+01	 1.357645019877426e+01	 1.205461724190285e+00
 1.286934341759541e+01	 1.371787155500729e+01	 1.199840465611252e+00
 1.272792206135884e+01	 1.385929291124124e+01	 1.194063488107605e+00
 1.258650070512325e+01	 1.400071426747613e+01	 1.188135903673093e+00
 1.244507934888864e+01	 1.414213562371194e+01	 1.182062824320411e+00
 1.230365799265501e+01	 1.428355697994869e+01	 1.175849362081203e+00
 1.216223663642236e+01	 1.442497833618636e+01	 1.169500629006053e+00
 1.202081528019069e+01	 1.456639969242497e+01	 1.163021737164497e+00
 1.187939392396000e+01	 1.470782104866450e+01	 1.156417798645013e+00
 1.357645019877600e+01	 1.357645019877600e+01	 1.199716844091670e+00
 1.343502884253664e+01	 1.371787155500954e+01	 1.194055618464166e+00
 1.329360748629857e+01	 1.385929291124376e+01	 1.188454131991394e+00
 1.315218613006176e+01	 1.400071426747866e+01	 1.182917496541741e+00
 1.301076477382624e+01	 1.414213562371424e+01	 1.177450824002533e+00
 1.286934341759200e+01	 1.428355697995050e+01	 1.172059226280044e+00
 1.272792206135904e+01	 1.442497833618744e+01	 1.166747815299493e+00
 1.258650070512736e+01	 1.456639969242506e+01	 1.161521703005045e+00
 1.244507934889696e+01	 1.470782104866336e+01	 1.156386001359805e+00
 1.230365799266784e+01	 1.484924240490234e+01	 1.151345822345829e+00
 1.216223663644000e+01	 1.499066376114200e+01	 1.146406277964114e+00
 1.385929291123900e+01	 1.385929291123900e+01	 1.181188247555601e+00
 1.371787155499981e+01	 1.400071426747549e+01	 1.175600525992684e+00
 1.357645019876224e+01	 1.414213562371234e+01	 1.170298225685829e+00
 1.343502884252629e+01	 1.428355697994957e+01	 1.165286458415948e+00
 1.329360748629196e+01	 1.442497833618716e+01	 1.160570335982897e+00
 1.315218613005925e+01	 1.456639969242513e+01	 1.156154970205477e+00
 1.301076477382816e+01	 1.470782104866346e+01	 1.152045472921431e+00
 1.286934341759869e+01	 1.484924240490217e+01	 1.148246955987449e+00
 1.272792206137084e+01	 1.499066376114124e+01	 1.144764531279160e+00
 1.258650070514461e+01	 1.513208511738069e+01	 1.141603310691144e+00
 1.244507934892000e+01	 1.527350647362050e+01	 1.138768406136921e+00
 1.414213562370000e+01	 1.414213562370000e+01	 1.160761187037627e+00
 1.400071426746100e+01	 1.428355697994000e+01	 1.155687214757081e+00
 1.385929291122400e+01	 1.442497833618000e+01	 1.151124345925246e+00
 1.371787155498900e+01	 1.456639969242000e+01	 1.147077692235567e+00
 1.357645019875600e+01	 1.470782104866000e+01	 1.143552365400430e+00
 1.343502884252500e+01	 1.484924240490000e+01	 1.140553477151165e+00
 1.329360748629600e+01	 1.499066376114000e+01	 1.138086139238047e+00
 1.315218613006900e+01	 1.513208511738000e+01	 1.136155463430292e+00
 1.301076477384400e+01	 1.527350647362000e+01	 1.134766561516061e+00
 1.286934341762100e+01	 1.541492782986000e+01	 1.133924545302454e+00
 1.272792206140000e+01	 1.555634918610000e+01	 1.133634526615522e+00
-1.414213562400000e+00	 1.414213562400000e+00	 2.721731754280656e-01
-2.050609665460500e+00	 2.050609665460500e+00	 3.916996755664973e-01
-2.687005768522000e+00	 2.687005768522000e+00	 4.999007751811399e-01
-3.323401871584501e+00	 3.323401871584501e+00	 5.994724825712515e-01
-3.959797974648001e+00	 3.959797974648001e+00	 6.680747508247925e-01
-4.596194077712500e+00	 4.596194077712500e+00	 7.243700544673666e-01
-5.232590180777999e+00	 5.232590180777999e+00	 7.733149526278120e-01
-5.868986283844499e+00	 5.868986283844499e+00	 8.142413513195095e-01
-6.505382386912000e+00	 6.505382386912000e+00	 8.464811436741979e-01
-7.141778489980499e+00	 7.141778489980499e+00	 8.693662099427995e-01
-7.778174593050000e+00	 7.778174593050000e+00	 8.822284174962575e-01
-1.131370849920500e+00	 1.697056274861000e+00	 2.584819291130199e-01
-1.767766952981001e+00	 2.333452377925015e+00	 3.799160748954211e-01
-2.404163056042499e+00	 2.969848480989659e+00	 4.893914600607089e-01
-3.040559159105000e+00	 3.606244584054935e+00	 5.810435935372471e-01
-3.676955262168499e+00	 4.242640687120839e+00	 6.489504231195505e-01
-4.313351365233000e+00	 4.879036790187375e+00	 7.091895023304419e-01
-4.949747468298500e+00	 5.515432893254540e+00	 7.610927176889979e-01
-5.586143571365001e+00	 6.151828996322335e+00	 8.039919571044305e-01
-6.222539674432501e+00	 6.788225099390761e+00	 8.372190956031766e-01
-6.858935777500999e+00	 7.424621202459815e+00	 8.601059953297355e-01
-7.495331880570501e+00	 8.061017305529502e+00	 8.719845055474913e-01
-8.485281374420000e-01	 1.979898987324000e+00	 2.452943100910951e-01
-1.484924240502500e+00	 2.616295090390960e+00	 3.687546561956176e-01
-2.121320343564000e+00	 3.252691193458240e+00	 4.796228815896973e-01
-2.757716446626501e+00	 3.889087296525840e+00	 5.581738599762682e-01
-3.394112549690000e+00	 4.525483399593760e+00	 6.278990054576887e-01
-4.030508652754500e+00	 5.161879502662001e+00	 6.922444198635358e-01
-4.666904755819999e+00	 5.798275605730560e+00	 7.472685075314336e-01
-5.303300858886500e+00	 6.434671708799439e+00	 7.923031382658630e-01
-5.939696961953999e+00	 7.071067811868639e+00	 8.266801689873924e-01
-6.576093065022500e+00	 7.707463914938160e+00	 8.497314437335247e-01
-7.212489168092000e+00	 8.343860018007998e+00	 8.607887936595218e-01
-5.656854249644998e-01	 2.262741699789000e+00	 2.326103183626417e-01
-1.202081528025000e+00	 2.899137802858335e+00	 3.582154194674507e-01
-1.838477631086500e+00	 3.535533905927741e+00	 4.663479557249982e-01
-2.474873734149000e+00	 4.171930008997216e+00	 5.375806049513159e-01
-3.111269837212500e+00	 4.808326112066760e+00	 6.051291656189184e-01
-3.747665940277000e+00	 5.444722215136376e+00	 6.737434784230873e-01
-4.384062043342499e+00	 6.081118318206058e+00	 7.320509970882774e-01
-5.020458146409000e+00	 6.717514421275816e+00	 7.793835733136640e-01
-5.656854249476497e+00	 7.353910524345638e+00	 8.150730459133853e-01
-6.293250352545000e+00	 7.990306627415535e+00	 8.384512408173774e-01
-6.929646455614502e+00	 8.626702730485501e+00	 8.488499710722132e-01
-2.828427124880000e-01	 2.545584412256000e+00	 2.204299539280160e-01
-9.192388155484998e-01	 3.181980515327140e+00	 3.482983647112904e-01
-1.555634918610000e+00	 3.818376618398160e+00	 4.444494720391586e-01
-2.192031021672500e+00	 4.454772721469061e+00	 5.180256935999676e-01
-2.828427124736000e+00	 5.091168824539840e+00	 5.837019559085231e-01
-3.464823227800500e+00	 5.727564927610501e+00	 6.538953552210114e-01
-4.101219330866000e+00	 6.363961030681041e+00	 7.156488671483797e-01
-4.737615433932501e+00	 7.000357133751461e+00	 7.654419466136063e-01
-5.374011536999999e+00	 7.636753236821758e+00	 8.026064143238300e-01
-6.010407640068497e+00	 8.273149339891937e+00	 8.264740781008586e-01
-6.646803743138000e+00	 8.909545442962001e+00	 8.363767328820000e-01
-1.250000103425464e-11	 2.828427124725000e+00	 2.087532167875720e-01
-6.363961030729999e-01	 3.464823227797375e+00	 3.381534671239652e-01
-1.272792206134501e+00	 4.101219330869501e+00	 4.235373296236470e-01
-1.909188309197000e+00	 4.737615433941377e+00	 4.995197042201270e-01
-2.545584412260501e+00	 5.374011537013001e+00	 5.669509567324622e-01
-3.181980515325000e+00	 6.010407640084375e+00	 6.329087333249575e-01
-3.818376618390500e+00	 6.646803743155499e+00	 6.982708043565387e-01
-4.454772721457000e+00	 7.283199846226375e+00	 7.506869483876253e-01
-5.091168824524500e+00	 7.919595949296999e+00	 7.894889680177849e-01
-5.727564927592998e+00	 8.555992052367374e+00	 8.140086529601274e-01
-6.363961030662500e+00	 9.192388155437500e+00	 8.235777800421387e-01
 2.828427124619999e-01	 3.111269837196000e+00	 1.975801069416687e-01
-3.535533905984999e-01	 3.747665940269040e+00	 3.151183337120355e-01
-9.899494936600001e-01	 4.384062043341760e+00	 4.036221036994700e-01
-1.626345596722500e+00	 5.020458146414160e+00	 4.820732158678614e-01
-2.262741699786000e+00	 5.656854249486241e+00	 5.513220405556422e-01
-2.899137802850500e+00	 6.293250352557999e+00	 6.122190066124114e-01
-3.535533905915999e+00	 6.929646455629439e+00	 6.801255012137533e-01
-4.171930008982499e+00	 7.566042558700560e+00	 7.353272747140736e-01
-4.808326112050000e+00	 8.202438661771357e+00	 7.759294066509430e-01
-5.444722215118499e+00	 8.838834764841840e+00	 8.012636686282062e-01
-6.081118318188001e+00	 9.475230867912002e+00	 8.106618193629569e-01
 5.656854249354999e-01	 3.394112549669000e+00	 1.869106243906643e-01
-7.071067812500015e-02	 4.030508652742135e+00	 2.930281113946237e-01
-7.071067811865002e-01	 4.666904755814940e+00	 3.847143749380466e-01
-1.343502884249000e+00	 5.303300858887416e+00	 4.656968083574395e-01
-1.979898987312500e+00	 5.939696961959560e+00	 5.368257863350794e-01
-2.616295090377000e+00	 6.576093065031375e+00	 5.989517420652340e-01
-3.252691193442500e+00	 7.212489168102860e+00	 6.614216560774689e-01
-3.889087296509000e+00	 7.848885271174014e+00	 7.195716275279717e-01
-4.525483399576499e+00	 8.485281374244840e+00	 7.621364357358837e-01
-5.161879502644999e+00	 9.121677477315334e+00	 7.884478341952164e-01
-5.798275605714499e+00	 9.758073580385501e+00	 7.978375635121029e-01
 8.485281374079998e-01	 3.676955262144000e+00	 1.647567142841519e-01
 2.121320343474997e-01	 4.313351365216659e+00	 2.718933822830186e-01
-4.242640687140002e-01	 4.949747468289040e+00	 3.668247247690468e-01
-1.060660171776500e+00	 5.586143571361140e+00	 4.504010622613850e-01
-1.697056274840000e+00	 6.222539674432960e+00	 5.234727737860377e-01
-2.333452377904500e+00	 6.858935777504501e+00	 5.868902968818421e-01
-2.969848480970000e+00	 7.495331880575758e+00	 6.423679731618283e-01
-3.606244584036499e+00	 8.131727983646739e+00	 7.036287146212579e-01
-4.242640687103999e+00	 8.768124086717439e+00	 7.483187666423229e-01
-4.879036790172498e+00	 9.404520189787860e+00	 7.757698646086371e-01
-5.515432893242000e+00	 1.004091629285800e+01	 7.853137310148073e-01
 1.131370849879500e+00	 3.959797974621000e+00	 1.406292161739707e-01
 4.949747468189998e-01	 4.596194077692615e+00	 2.517247294222448e-01
-1.414213562425004e-01	 5.232590180764060e+00	 3.499637353804441e-01
-7.778174593050006e-01	 5.868986283835336e+00	 4.361965589105113e-01
-1.414213562368501e+00	 6.505382386906441e+00	 5.112735833820754e-01
-2.050609665433000e+00	 7.141778489977375e+00	 5.760452506784275e-01
-2.687005768498500e+00	 7.778174593048141e+00	 6.313620612024985e-01
-3.323401871565000e+00	 8.414570696118734e+00	 6.877072496430382e-01
-3.959797974632499e+00	 9.050966799189158e+00	 7.346851165973634e-01
-4.596194077701000e+00	 9.687362902259414e+00	 7.634384806735512e-01
-5.232590180770501e+00	 1.032375900532950e+01	 7.732990462541161e-01
 1.414213562350000e+00	 4.242640687100000e+00	 1.174157918807002e-01
 7.778174592895003e-01	 4.879036790170000e+00	 2.325327366156749e-01
 1.414213562280000e-01	 5.515432893240000e+00	 3.341419897185611e-01
-4.949747468345002e-01	 6.151828996310000e+00	 4.230938803939875e-01
-1.131370849898000e+00	 6.788225099380000e+00	 5.002387963550912e-01
-1.767766952962500e+00	 7.424621202449999e+00	 5.664271838295146e-01
-2.404163056028000e+00	 8.061017305520000e+00	 6.225095475653756e-01
-3.040559159094500e+00	 8.697413408590000e+00	 6.720159520998381e-01
-3.676955262162000e+00	 9.333809511660000e+00	 7.214442086857448e-01
-4.313351365230499e+00	 9.970205614729998e+00	 7.516624090528996e-01
-4.949747468300000e+00	 1.060660171780000e+01	 7.572494909561809e-01
-7.778174593050000e+00	 7.778174593050000e+00	 8.822284174962575e-01
-8.414570696119501e+00	 8.414570696119501e+00	 9.109079740943533e-01
-9.050966799188002e+00	 9.050966799188002e+00	 9.346407555661864e-01
-9.687362902255503e+00	 9.687362902255503e+00	 9.533275229089784e-01
-1.032375900532200e+01	 1.032375900532200e+01	 9.801429179781156e-01
-1.096015510838750e+01	 1.096015510838750e+01	 9.692319701179122e-01
-1.159655121145200e+01	 1.159655121145200e+01	 9.640799024394702e-01
-1.223294731451550e+01	 1.223294731451550e+01	 9.667348747792699e-01
-1.286934341757800e+01	 1.286934341757800e+01	 9.777523916078062e-01
-1.350573952063951e+01	 1.350573952063951e+01	 9.976879384348820e-01
-1.414213562370000e+01	 1.414213562370000e+01	 1.027096981810604e+00
-7.495331880570501e+00	 8.061017305529502e+00	 8.719845055474913e-01
-8.131727983640186e+00	 8.697413408599004e+00	 9.042862526442320e-01
-8.768124086709243e+00	 9.333809511667521e+00	 9.377375890646733e-01
-9.404520189777667e+00	 9.970205614735045e+00	 9.586369199194549e-01
-1.004091629284546e+01	 1.060660171780158e+01	 9.678792638835074e-01
-1.067731239591262e+01	 1.124299782086713e+01	 9.576396625257559e-01
-1.131370849897916e+01	 1.187939392393168e+01	 9.544293902776460e-01
-1.195010460204507e+01	 1.251579002699525e+01	 9.588039757669007e-01
-1.258650070511034e+01	 1.315218613005782e+01	 9.713189286592119e-01
-1.322289680817499e+01	 1.378858223311941e+01	 9.925297396592450e-01
-1.385929291123900e+01	 1.442497833618000e+01	 1.022991880511645e+00
-7.212489168092000e+00	 8.343860018007998e+00	 8.607887936595218e-01
-7.848885271161841e+00	 8.980256121077520e+00	 8.965937340529717e-01
-8.485281374231361e+00	 9.616652224146081e+00	 9.330798878308556e-01
-9.121677477300562e+00	 1.025304832721368e+01	 9.629769623815079e-01
-9.758073580369443e+00	 1.088944443028032e+01	 9.544918862768175e-01
-1.039446968343800e+01	 1.152584053334600e+01	 9.462167161812683e-01
-1.103086578650624e+01	 1.216223663641073e+01	 9.447486874280484e-01
-1.166726188957416e+01	 1.279863273947448e+01	 9.506433338404701e-01
-1.230365799264176e+01	 1.343502884253728e+01	 9.644561702794843e-01
-1.294005409570905e+01	 1.407142494559912e+01	 9.867426926446869e-01
-1.357645019877600e+01	 1.470782104866000e+01	 1.018058377875326e+00
-6.929646455614502e+00	 8.626702730485501e+00	 8.488499710722132e-01
-7.566042558684464e+00	 9.263098833555045e+00	 8.880391111370676e-01
-8.202438661754361e+00	 9.899494936623682e+00	 9.274410841282761e-01
-8.838834764824188e+00	 1.053589103969141e+01	 9.540759359190926e-01
-9.475230867893943e+00	 1.117228714275822e+01	 9.415362491134758e-01
-1.011162697096363e+01	 1.180868324582413e+01	 9.350259576093185e-01
-1.074802307403325e+01	 1.244507934888912e+01	 9.351006193892815e-01
-1.138441917710279e+01	 1.308147545195321e+01	 9.423157734723304e-01
-1.202081528017226e+01	 1.371787155501639e+01	 9.572269399147459e-01
-1.265721138324167e+01	 1.435426765807865e+01	 9.803896198111188e-01
-1.329360748631100e+01	 1.499066376114000e+01	 1.012359295295362e+00
-6.646803743138000e+00	 8.909545442962001e+00	 8.363767328820000e-01
-7.283199846208062e+00	 9.545941546031582e+00	 8.788310825698098e-01
-7.919595949278242e+00	 1.018233764910032e+01	 9.210298802070565e-01
-8.555992052348541e+00	 1.081873375216822e+01	 9.343379862676358e-01
-9.192388155418964e+00	 1.145512985523528e+01	 9.290751810292898e-01
-9.828784258489504e+00	 1.209152595830150e+01	 9.241302144193950e-01
-1.046518036156017e+01	 1.272792206136688e+01	 9.255480127445346e-01
-1.110157646463094e+01	 1.336431816443143e+01	 9.338841202193942e-01
-1.173797256770184e+01	 1.400071426749513e+01	 9.496940620956431e-01
-1.237436867077287e+01	 1.463711037055799e+01	 9.735333446629377e-01
-1.301076477384400e+01	 1.527350647362000e+01	 1.005957455249925e+00
-6.363961030662500e+00	 9.192388155437500e+00	 8.235777800421387e-01
-7.000357133732626e+00	 9.828784258507126e+00	 8.691783528815225e-01
-7.636753236802999e+00	 1.046518036157600e+01	 9.078662781169429e-01
-8.273149339873628e+00	 1.110157646464413e+01	 9.155545436126608e-01
-8.909545442944502e+00	 1.173797256771150e+01	 9.171715117447559e-01
-9.545941546015630e+00	 1.237436867077813e+01	 9.135923153056460e-01
-1.018233764908700e+01	 1.301076477384400e+01	 9.161536951616205e-01
-1.081873375215863e+01	 1.364716087690913e+01	 9.254112007231554e-01
-1.145512985523050e+01	 1.428355697997350e+01	 9.419203624373750e-01
-1.209152595830263e+01	 1.491995308303713e+01	 9.662366917890636e-01
-1.272792206137500e+01	 1.555634918610000e+01	 9.989156813016670e-01
-6.081118318188001e+00	 9.475230867912002e+00	 8.106618193629569e-01
-6.717514421258160e+00	 1.011162697098168e+01	 8.592896324598286e-01
-7.353910524328642e+00	 1.074802307405072e+01	 8.875154453410579e-01
-7.990306627399441e+00	 1.138441917711912e+01	 8.981451344640292e-01
-8.626702730470564e+00	 1.202081528018688e+01	 9.035184448923356e-01
-9.263098833542003e+00	 1.265721138325400e+01	 9.034750900468972e-01
-9.899494936613765e+00	 1.329360748632048e+01	 9.069804953930015e-01
-1.053589103968585e+01	 1.393000358938633e+01	 9.169598427097252e-01
-1.117228714275824e+01	 1.456639969245152e+01	 9.339686676397196e-01
-1.180868324583096e+01	 1.520279579551609e+01	 9.585624868629605e-01
-1.244507934890400e+01	 1.583919189858000e+01	 9.912967980977598e-01
-5.798275605714499e+00	 9.758073580385501e+00	 7.978375635121029e-01
-6.434671708784665e+00	 1.039446968345524e+01	 8.474890754632038e-01
-7.071067811855160e+00	 1.103086578652448e+01	 8.689786211654088e-01
-7.707463914925988e+00	 1.166726188959321e+01	 8.822074446882665e-01
-8.343860017997143e+00	 1.230365799266142e+01	 8.898988801152842e-01
-8.980256121068628e+00	 1.294005409572913e+01	 8.938413695066888e-01
-9.616652224140443e+00	 1.357645019879633e+01	 8.980912432758172e-01
-1.025304832721259e+01	 1.421284630186301e+01	 9.085928749898646e-01
-1.088944443028506e+01	 1.484924240492919e+01	 9.259018054870691e-01
-1.152584053335787e+01	 1.548563850799485e+01	 9.505735566426714e-01
-1.216223663643100e+01	 1.612203461106000e+01	 9.831636313699146e-01
-5.515432893242000e+00	 1.004091629285800e+01	 7.853137310148073e-01
-6.151828996312139e+00	 1.067731239592782e+01	 8.283260911806081e-01
-6.788225099382562e+00	 1.131370849899728e+01	 8.523534914565229e-01
-7.424621202453262e+00	 1.195010460206638e+01	 8.678391601519033e-01
-8.061017305524244e+00	 1.258650070513512e+01	 8.775064313502701e-01
-8.697413408595503e+00	 1.322289680820350e+01	 8.840786391351565e-01
-9.333809511667043e+00	 1.385929291127152e+01	 8.895487697319144e-01
-9.970205614738862e+00	 1.449568901433918e+01	 9.003731274589986e-01
-1.060660171781097e+01	 1.513208511740648e+01	 9.177826048484539e-01
-1.124299782088335e+01	 1.576848122047343e+01	 9.423327289708469e-01
-1.187939392395600e+01	 1.640487732354000e+01	 9.745790079344159e-01
-5.232590180770501e+00	 1.032375900532950e+01	 7.732990462541161e-01
-5.868986283840586e+00	 1.096015510839941e+01	 8.115147764586621e-01
-6.505382386910839e+00	 1.159655121146912e+01	 8.377377420809275e-01
-7.141778489981268e+00	 1.223294731453865e+01	 8.551379667214670e-01
-7.778174593051863e+00	 1.286934341760798e+01	 8.664387844638192e-01
-8.414570696122627e+00	 1.350573952067713e+01	 8.743635293915364e-01
-9.050966799193565e+00	 1.414213562374609e+01	 8.814159067678764e-01
-9.687362902264669e+00	 1.477853172681485e+01	 8.923634310972650e-01
-1.032375900533594e+01	 1.541492782988342e+01	 9.096738956775761e-01
-1.096015510840739e+01	 1.605132393295181e+01	 9.339028327747707e-01
-1.159655121147900e+01	 1.668772003602000e+01	 9.656057556921511e-01
-4.949747468300000e+00	 1.060660171780000e+01	 7.572494909561809e-01
-5.586143571370002e+00	 1.124299782087000e+01	 7.971528171638870e-01
-6.222539674440002e+00	 1.187939392394000e+01	 8.252290589051424e-01
-6.858935777510002e+00	 1.251579002701000e+01	 8.442015502634819e-01
-7.495331880580002e+00	 1.315218613008000e+01	 8.567936253224613e-01
-8.131727983650002e+00	 1.378858223315000e+01	 8.657286181656481e-01
-8.768124086720004e+00	 1.442497833622001e+01	 8.737298628766228e-01
-9.404520189790006e+00	 1.506137443929001e+01	 8.846266179695261e-01
-1.004091629286000e+01	 1.569777054236000e+01	 9.016385090128309e-01
-1.067731239593000e+01	 1.633416664543001e+01	 9.253466980663893e-01
-1.131370849900000e+01	 1.697056274850000e+01	 9.563067036286366e-01
 1.414213562350000e+00	 4.242640687100000e+00	 1.174157918807002e-01
 7.778174592895003e-01	 4.879036790170000e+00	 2.325327366156749e-01
 1.414213562280000e-01	 5.515432893240000e+00	 3.341419897185611e-01
-4.949747468345002e-01	 6.151828996310000e+00	 4.230938803939875e-01
-1.131370849898000e+00	 6.788225099380000e+00	 5.002387963550912e-01
-1.767766952962500e+00	 7.424621202449999e+00	 5.664271838295146e-01
-2.404163056028000e+00	 8.061017305520000e+00	 6.225095475653756e-01
-3.040559159094500e+00	 8.697413408590000e+00	 6.720159520998381e-01
-3.676955262162000e+00	 9.333809511660000e+00	 7.214442086857448e-01
-4.313351365230499e+00	 9.970205614729998e+00	 7.516624090528996e-01
-4.949747468300000e+00	 1.060660171780000e+01	 7.572494909561809e-01
 1.697056274820500e+00	 4.525483399580001e+00	 1.036223548243295e-01
 1.060660171760001e+00	 5.161879502648195e+00	 2.167097303740898e-01
 4.242640686985003e-01	 5.798275605716580e+00	 3.165533833015330e-01
-2.121320343639998e-01	 6.434671708785156e+00	 4.040036471539964e-01
-8.485281374274997e-01	 7.071067811853919e+00	 4.799109139881580e-01
-1.484924240492000e+00	 7.707463914922875e+00	 5.451256343760108e-01
-2.121320343557500e+00	 8.343860017992018e+00	 6.004983174108490e-01
-2.757716446623999e+00	 8.980256121061354e+00	 6.468795307132411e-01
-3.394112549691499e+00	 9.616652224130881e+00	 6.940157771068624e-01
-4.030508652759998e+00	 1.025304832720060e+01	 7.270690488086899e-01
-4.666904755829500e+00	 1.088944443027050e+01	 7.321840604047434e-01
 1.979898987292001e+00	 4.808326112060000e+00	 9.279822797669982e-02
 1.343502884231501e+00	 5.444722215126582e+00	 2.037641260916859e-01
 7.071067811700008e-01	 6.081118318193520e+00	 3.017502680291688e-01
 7.071067810750033e-02	 6.717514421260820e+00	 3.876069916790951e-01
-5.656854249559994e-01	 7.353910524328480e+00	 4.621846934415664e-01
-1.202081528020500e+00	 7.990306627396500e+00	 5.263338282328238e-01
-1.838477631085999e+00	 8.626702730464881e+00	 5.809049094912222e-01
-2.474873734152499e+00	 9.263098833533622e+00	 6.267485091832150e-01
-3.111269837219999e+00	 9.899494936602720e+00	 6.681956740180355e-01
-3.747665940288499e+00	 1.053589103967218e+01	 7.040873363888481e-01
-4.384062043358000e+00	 1.117228714274200e+01	 7.105947833088430e-01
 2.262741699764501e+00	 5.091168824540001e+00	 8.495399827358180e-02
 1.626345596704000e+00	 5.727564927605155e+00	 1.937065098472558e-01
 9.899494936425006e-01	 6.363961030670821e+00	 2.897432291231836e-01
 3.535533905800006e-01	 7.000357133736997e+00	 3.739144983338101e-01
-2.828427124834993e-01	 7.636753236803679e+00	 4.470707182225564e-01
-9.192388155479992e-01	 8.273149339870875e+00	 5.100623480497964e-01
-1.555634918613499e+00	 8.909545442938580e+00	 5.637399055988416e-01
-2.192031021679999e+00	 9.545941546006796e+00	 6.089539671819192e-01
-2.828427124747499e+00	 1.018233764907552e+01	 6.465551676461594e-01
-3.464823227815998e+00	 1.081873375214476e+01	 6.845655241326010e-01
-4.101219330885500e+00	 1.145512985521450e+01	 6.925793455350202e-01
 2.545584412238001e+00	 5.374011537020001e+00	 8.010025340927909e-02
 1.909188309177501e+00	 6.010407640083922e+00	 1.865474684781252e-01
 1.272792206116001e+00	 6.646803743148482e+00	 2.805428525638199e-01
 6.363961030535007e-01	 7.283199846213678e+00	 3.629367522412013e-01
-9.999320815801129e-12	 7.919595949279522e+00	 4.345795725968934e-01
-6.363961030744989e-01	 8.555992052346003e+00	 4.963217772352995e-01
-1.272792206139999e+00	 9.192388155413122e+00	 5.490138882845735e-01
-1.909188309206499e+00	 9.828784258480880e+00	 5.935064864026121e-01
-2.545584412273998e+00	 1.046518036154928e+01	 6.330715569505568e-01
-3.181980515342500e+00	 1.110157646461832e+01	 6.689304893373460e-01
-3.818376618411999e+00	 1.173797256768800e+01	 6.782354329498225e-01
 2.828427124712501e+00	 5.656854249500001e+00	 7.824758183669323e-02
 2.192031021652001e+00	 6.293250352562874e+00	 1.822975895802114e-01
 1.555634918590501e+00	 6.929646455626500e+00	 2.741597250899116e-01
 9.192388155280012e-01	 7.566042558690877e+00	 3.546843392829040e-01
 2.828427124645012e-01	 8.202438661756002e+00	 4.247218415889152e-01
-3.535533905999987e-01	 8.838834764821875e+00	 4.851226999562650e-01
-9.899494936654989e-01	 9.475230867888502e+00	 5.367374408578467e-01
-1.626345596731998e+00	 1.011162697095588e+01	 5.804166492971081e-01
-2.262741699799498e+00	 1.074802307402400e+01	 6.263607987821186e-01
-2.899137802867998e+00	 1.138441917709288e+01	 6.577780720955345e-01
-3.535533905937498e+00	 1.202081528016250e+01	 6.676607314197944e-01
 3.111269837188002e+00	 5.939696961980002e+00	 7.333530107313754e-02
 2.474873734127502e+00	 6.576093065042023e+00	 1.809674615080662e-01
 1.838477631066001e+00	 7.212489168104880e+00	 2.706044341989114e-01
 1.202081528003501e+00	 7.848885271168581e+00	 3.491678460991788e-01
 5.656854249400015e-01	 8.485281374233120e+00	 4.175081109815820e-01
-7.071067812449847e-02	 9.121677477298503e+00	 4.764757011382494e-01
-7.071067811899986e-01	 9.758073580364723e+00	 5.269211473867029e-01
-1.343502884256498e+00	 1.039446968343178e+01	 5.715564762904315e-01
-1.979898987323998e+00	 1.103086578649968e+01	 6.235404127537447e-01
-2.616295090392498e+00	 1.166726188956842e+01	 6.534820407936063e-01
-3.252691193461998e+00	 1.230365799263800e+01	 6.609529268114869e-01
 3.394112549664502e+00	 6.222539674460002e+00	 6.703256511672614e-02
 2.757716446604002e+00	 6.858935777521356e+00	 1.825676733749157e-01
 2.121320343542501e+00	 7.495331880583621e+00	 2.698875681469562e-01
 1.484924240480001e+00	 8.131727983646797e+00	 3.463978600889579e-01
 8.485281374165017e-01	 8.768124086710882e+00	 4.129489673165212e-01
 2.121320343520018e-01	 9.404520189775877e+00	 4.703913664654690e-01
-4.242640687134982e-01	 1.004091629284178e+01	 5.195755926978430e-01
-1.060660171779998e+00	 1.067731239590860e+01	 5.744098320116807e-01
-1.697056274847498e+00	 1.131370849897632e+01	 6.244309596856333e-01
-2.333452377915997e+00	 1.195010460204496e+01	 6.529943783762479e-01
-2.969848480985498e+00	 1.258650070511450e+01	 6.582097049914511e-01
 3.676955262142002e+00	 6.505382386940003e+00	 6.336949307463166e-02
 3.040559159081503e+00	 7.141778490000883e+00	 1.834262076358369e-01
 2.404163056020002e+00	 7.778174593062722e+00	 2.720197159488991e-01
 1.767766952957502e+00	 8.414570696125525e+00	 3.463849694098951e-01
 1.131370849894001e+00	 9.050966799189281e+00	 4.110549978940742e-01
 4.949747468295019e-01	 9.687362902254002e+00	 4.668802823808509e-01
-1.414213562359979e-01	 1.032375900531968e+01	 5.147113623766769e-01
-7.778174593024976e-01	 1.096015510838632e+01	 5.806972455890849e-01
-1.414213562369998e+00	 1.159655121145392e+01	 6.288530003979814e-01
-2.050609665438497e+00	 1.223294731452248e+01	 6.561356456636547e-01
-2.687005768507998e+00	 1.286934341759200e+01	 6.605195634823797e-01
 3.959797974620502e+00	 6.788225099420003e+00	 6.248344332738576e-02
 3.323401871560002e+00	 7.424621202480599e+00	 1.802719050925191e-01
 2.687005768498502e+00	 8.061017305542181e+00	 2.770114673783673e-01
 2.050609665436002e+00	 8.697413408604756e+00	 3.491397629784066e-01
 1.414213562372502e+00	 9.333809511668324e+00	 4.118367907733449e-01
 7.778174593080022e-01	 9.970205614732878e+00	 4.659530360860816e-01
 1.414213562425023e-01	 1.060660171779842e+01	 5.255885677752623e-01
-4.949747468239976e-01	 1.124299782086496e+01	 5.902392778428305e-01
-1.131370849891497e+00	 1.187939392393248e+01	 6.366270957109759e-01
-1.767766952959997e+00	 1.251579002700100e+01	 6.627264034760151e-01
-2.404163056029498e+00	 1.315218613007050e+01	 6.665115832342280e-01
 4.242640687100000e+00	 7.071067811900000e+00	 6.451177914700401e-02
 3.606244584039500e+00	 7.707463914960500e+00	 1.798942910913322e-01
 2.969848480978000e+00	 8.343860018021999e+00	 2.837830419831978e-01
 2.333452377915500e+00	 8.980256121084500e+00	 3.546728304697234e-01
 1.697056274852000e+00	 9.616652224148000e+00	 4.153049347722463e-01
 1.060660171787500e+00	 1.025304832721250e+01	 4.676202155416468e-01
 4.242640687219998e-01	 1.088944443027800e+01	 5.404608799820869e-01
-2.121320343444999e-01	 1.152584053334450e+01	 6.028564895930992e-01
-8.485281374119996e-01	 1.216223663641200e+01	 6.475738064448007e-01
-1.484924240480500e+00	 1.279863273948050e+01	 6.725872126335155e-01
-2.121320343550000e+00	 1.343502884255000e+01	 6.758710902555267e-01
-4.949747468300000e+00	 1.060660171780000e+01	 7.572494909561809e-01
-5.586143571370002e+00	 1.124299782087000e+01	 7.971528171638870e-01
-6.222539674440002e+00	 1.187939392394000e+01	 8.252290589051424e-01
-6.858935777510002e+00	 1.251579002701000e+01	 8.442015502634819e-01
-7.495331880580002e+00	 1.315218613008000e+01	 8.567936253224613e-01
-8.131727983650002e+00	 1.378858223315000e+01	 8.657286181656481e-01
-8.768124086720004e+00	 1.442497833622001e+01	 8.737298628766228e-01
-9.404520189790006e+00	 1.506137443929001e+01	 8.846266179695261e-01
-1.004091629286000e+01	 1.569777054236000e+01	 9.016385090128309e-01
-1.067731239593000e+01	 1.633416664543001e+01	 9.253466980663893e-01
-1.131370849900000e+01	 1.697056274850000e+01	 9.563067036286366e-01
-4.666904755829500e+00	 1.088944443027050e+01	 7.321840604047434e-01
-5.303300858899406e+00	 1.152584053334058e+01	 7.762966487450398e-01
-5.939696961969123e+00	 1.216223663641085e+01	 8.080036766042206e-01
-6.576093065038648e+00	 1.279863273948127e+01	 8.300284780658256e-01
-7.212489168107981e+00	 1.343502884255186e+01	 8.450943872134145e-01
-7.848885271177127e+00	 1.407142494562263e+01	 8.559247381305631e-01
-8.485281374246082e+00	 1.470782104869356e+01	 8.652428649008611e-01
-9.121677477314849e+00	 1.534421715176467e+01	 8.764410669631669e-01
-9.758073580383426e+00	 1.598061325483594e+01	 8.932898222604648e-01
-1.039446968345181e+01	 1.661700935790739e+01	 9.163152341573371e-01
-1.103086578652000e+01	 1.725340546097900e+01	 9.465902628829835e-01
-4.384062043358000e+00	 1.117228714274200e+01	 7.105947833088430e-01
-5.020458146427821e+00	 1.180868324581214e+01	 7.583910597542127e-01
-5.656854249497282e+00	 1.244507934888256e+01	 7.932032997038072e-01
-6.293250352566381e+00	 1.308147545195326e+01	 8.177548372411744e-01
-6.929646455635123e+00	 1.371787155502424e+01	 8.347690064498794e-01
-7.566042558703501e+00	 1.435426765809550e+01	 8.469691414135078e-01
-8.202438661771524e+00	 1.499066376116705e+01	 8.570785762156543e-01
-8.838834764839184e+00	 1.562705986423887e+01	 8.678602100418588e-01
-9.475230867906484e+00	 1.626345596731096e+01	 8.841629820121590e-01
-1.011162697097342e+01	 1.689985207038335e+01	 9.061227688808193e-01
-1.074802307404000e+01	 1.753624817345600e+01	 9.476155531848652e-01
-4.101219330885500e+00	 1.145512985521450e+01	 6.925793455350202e-01
-4.737615433955244e+00	 1.209152595828466e+01	 7.435337360579455e-01
-5.374011537024480e+00	 1.272792206135516e+01	 7.809256140704401e-01
-6.010407640093207e+00	 1.336431816442599e+01	 8.074783136560655e-01
-6.646803743161421e+00	 1.400071426749714e+01	 8.259151688983956e-01
-7.283199846229126e+00	 1.463711037056863e+01	 8.389595138810201e-01
-7.919595949296322e+00	 1.527350647364044e+01	 8.493346826875445e-01
-8.555992052363010e+00	 1.590990257671259e+01	 8.597640094015936e-01
-9.192388155429185e+00	 1.654629867978507e+01	 8.743208225605862e-01
-9.828784258494847e+00	 1.718269478285787e+01	 8.948321355029561e-01
-1.046518036156000e+01	 1.781909088593100e+01	 9.472933749746149e-01
-3.818376618411999e+00	 1.173797256768800e+01	 6.782354329498225e-01
-4.454772721481679e+00	 1.237436867075816e+01	 7.318223635227790e-01
-5.091168824550720e+00	 1.301076477382864e+01	 7.712683055706633e-01
-5.727564927619121e+00	 1.364716087689944e+01	 7.992965931770429e-01
-6.363961030686882e+00	 1.428355697997057e+01	 8.186305604255026e-01
-7.000357133754004e+00	 1.491995308304200e+01	 8.319935413996400e-01
-7.636753236820482e+00	 1.555634918611377e+01	 8.421088701830688e-01
-8.273149339886325e+00	 1.619274528918585e+01	 8.516998808594162e-01
-8.909545442951526e+00	 1.682914139225825e+01	 8.638261792832304e-01
-9.545941546016083e+00	 1.746553749533097e+01	 8.930586785105592e-01
-1.018233764908000e+01	 1.810193359840400e+01	 9.455846649356601e-01
-3.535533905937498e+00	 1.202081528016250e+01	 6.676607314197944e-01
-4.171930009007125e+00	 1.265721138323263e+01	 7.233546280152610e-01
-4.808326112076000e+00	 1.329360748630300e+01	 7.643290600710182e-01
-5.444722215144125e+00	 1.393000358937363e+01	 7.933073616706483e-01
-6.081118318211501e+00	 1.456639969244450e+01	 8.130128668977452e-01
-6.717514421278126e+00	 1.520279579551563e+01	 8.261689098359153e-01
-7.353910524344003e+00	 1.583919189858701e+01	 8.354988245687740e-01
-7.990306627409127e+00	 1.647558800165863e+01	 8.437259451799510e-01
-8.626702730473504e+00	 1.711198410473050e+01	 8.535736057530875e-01
-9.263098833537127e+00	 1.774838020780263e+01	 8.929657818790271e-01
-9.899494936599998e+00	 1.838477631087500e+01	 9.424503606724219e-01
-3.252691193461998e+00	 1.230365799263800e+01	 6.609529268114869e-01
-3.889087296531578e+00	 1.294005409570806e+01	 7.182282154019393e-01
-4.525483399600320e+00	 1.357645019877824e+01	 7.602055634380546e-01
-5.161879502668221e+00	 1.421284630184854e+01	 7.896083050034309e-01
-5.798275605735280e+00	 1.484924240491896e+01	 8.091597741816703e-01
-6.434671708801499e+00	 1.548563850798950e+01	 8.215833050563882e-01
-7.071067811866882e+00	 1.612203461106017e+01	 8.296022317112023e-01
-7.707463914931422e+00	 1.675843071413095e+01	 8.359398882297417e-01
-8.343860017995125e+00	 1.739482681720185e+01	 8.504767985856169e-01
-8.980256121057984e+00	 1.803122292027287e+01	 8.917127999975872e-01
-9.616652224119999e+00	 1.866761902334400e+01	 9.378514007102454e-01
-2.969848480985498e+00	 1.258650070511450e+01	 6.582097049914511e-01
-3.606244584055044e+00	 1.322289680818446e+01	 7.165408115493643e-01
-4.242640687123679e+00	 1.385929291125436e+01	 7.589955015383223e-01
-4.879036790191405e+00	 1.449568901432419e+01	 7.882971090419388e-01
-5.515432893258220e+00	 1.513208511739394e+01	 8.071689681438273e-01
-6.151828996324126e+00	 1.576848122046363e+01	 8.183344129276079e-01
-6.788225099389122e+00	 1.640487732353325e+01	 8.245167774769013e-01
-7.424621202453208e+00	 1.704127342660279e+01	 8.284393958753289e-01
-8.061017305516382e+00	 1.767766952967227e+01	 8.528278358017740e-01
-8.697413408578647e+00	 1.831406563274167e+01	 8.897776072836321e-01
-9.333809511639998e+00	 1.895046173581100e+01	 9.317487244953466e-01
-2.687005768507998e+00	 1.286934341759200e+01	 6.605195634823797e-01
-3.323401871577519e+00	 1.350573952066184e+01	 7.183901023240911e-01
-3.959797974646079e+00	 1.414213562373136e+01	 7.607965602383739e-01
-4.596194077713680e+00	 1.477853172680056e+01	 7.894714596527256e-01
-5.232590180780320e+00	 1.541492782986944e+01	 8.071381346507689e-01
-5.868986283846001e+00	 1.605132393293800e+01	 8.165199193161270e-01
-6.505382386910722e+00	 1.668772003600625e+01	 8.203401477324181e-01
-7.141778489974483e+00	 1.732411613907417e+01	 8.248243983990318e-01
-7.778174593037283e+00	 1.796051224214177e+01	 8.544235789813019e-01
-8.414570696099123e+00	 1.859690834520904e+01	 8.873598193447210e-01
-9.050966799159998e+00	 1.923330444827600e+01	 9.241032723947490e-01
-2.404163056029498e+00	 1.315218613007050e+01	 6.665115832342280e-01
-3.040559159099004e+00	 1.378858223314019e+01	 7.238737735926746e-01
-3.676955262167519e+00	 1.442497833620924e+01	 7.657064254047676e-01
-4.313351365235044e+00	 1.506137443927767e+01	 7.932290427023466e-01
-4.949747468301579e+00	 1.569777054234546e+01	 8.091649595690479e-01
-5.586143571367126e+00	 1.633416664541263e+01	 8.162375100884963e-01
-6.222539674431681e+00	 1.697056274847916e+01	 8.171700283443057e-01
-6.858935777495246e+00	 1.760695885154507e+01	 8.296089876249269e-01
-7.495331880557822e+00	 1.824335495461035e+01	 8.552366185370454e-01
-8.131727983619408e+00	 1.887975105767499e+01	 8.838339319868564e-01
-8.768124086679997e+00	 1.951614716073900e+01	 9.150840677471108e-01
-2.121320343550000e+00	 1.343502884255000e+01	 6.758710902555267e-01
-2.757716446619501e+00	 1.407142494561950e+01	 7.327435471262733e-01
-3.394112549688002e+00	 1.470782104868800e+01	 7.738227829040618e-01
-4.030508652755502e+00	 1.534421715175550e+01	 7.996675440573620e-01
-4.666904755822002e+00	 1.598061325482200e+01	 8.133471287652229e-01
-5.303300858887503e+00	 1.661700935788750e+01	 8.175848711112708e-01
-5.939696961952004e+00	 1.725340546095200e+01	 8.154973608701735e-01
-6.576093065015503e+00	 1.788980156401550e+01	 8.339088587581640e-01
-7.212489168078005e+00	 1.852619766707801e+01	 8.552395458622386e-01
-7.848885271139504e+00	 1.916259377013951e+01	 8.791725365975369e-01
-8.485281374200000e+00	 1.979898987320000e+01	 9.053909707657061e-01
 4.242640687100000e+00	 7.071067811900000e+00	 8.290250116210784e-02
 3.606244584039500e+00	 7.707463914960500e+00	 1.852847733547444e-01
 2.969848480978000e+00	 8.343860018021999e+00	 2.780535052679806e-01
 2.333452377915500e+00	 8.980256121084500e+00	 3.397034955489406e-01
 1.697056274852000e+00	 9.616652224148000e+00	 3.929760224189613e-01
 1.060660171787500e+00	 1.025304832721250e+01	 4.398119465289211e-01
 4.242640687219998e-01	 1.088944443027800e+01	 5.090534750829865e-01
-2.121320343444999e-01	 1.152584053334450e+01	 5.697301695806841e-01
-8.485281374119996e-01	 1.216223663641200e+01	 6.146087920921358e-01
-1.484924240480500e+00	 1.279863273948050e+01	 6.416637247136640e-01
-2.121320343550000e+00	 1.343502884255000e+01	 6.488693495415507e-01
 4.384062043340000e+00	 7.212489168139000e+00	 7.572862554628867e-02
 3.747665940279500e+00	 7.848885271199689e+00	 1.784490091955223e-01
 3.111269837218000e+00	 8.485281374261360e+00	 2.712915984817316e-01
 2.474873734155500e+00	 9.121677477324011e+00	 3.381017205521512e-01
 1.838477631092000e+00	 9.758073580387641e+00	 3.910322633974062e-01
 1.202081528027500e+00	 1.039446968345225e+01	 4.402315424141678e-01
 5.656854249619999e-01	 1.103086578651784e+01	 5.134438127561679e-01
-7.071067810449976e-02	 1.166726188958441e+01	 5.728866708346045e-01
-7.071067811719998e-01	 1.230365799265196e+01	 6.165344987458662e-01
-1.343502884240499e+00	 1.294005409572049e+01	 6.423616785863006e-01
-1.979898987310000e+00	 1.357645019879000e+01	 6.483425924522032e-01
 4.525483399580000e+00	 7.353910524375999e+00	 7.181056516837687e-02
 3.889087296519499e+00	 7.990306627437260e+00	 1.744922579207532e-01
 3.252691193458000e+00	 8.626702730499440e+00	 2.670319001712003e-01
 2.616295090395500e+00	 9.263098833562541e+00	 3.386470565933816e-01
 1.979898987331999e+00	 9.899494936626560e+00	 3.908702562858241e-01
 1.343502884267500e+00	 1.053589103969150e+01	 4.472753604189062e-01
 7.071067812020001e-01	 1.117228714275736e+01	 5.189327333979564e-01
 7.071067813550001e-02	 1.180868324582414e+01	 5.768237359324934e-01
-5.656854249319996e-01	 1.244507934889184e+01	 6.189227501189349e-01
-1.202081528000499e+00	 1.308147545196046e+01	 6.432041580536484e-01
-1.838477631070000e+00	 1.371787155503000e+01	 6.476423418329412e-01
 4.666904755820000e+00	 7.495331880611000e+00	 7.116549181324087e-02
 4.030508652759500e+00	 8.131727983673208e+00	 1.734316913181416e-01
 3.394112549698000e+00	 8.768124086736240e+00	 2.652915821269183e-01
 2.757716446635499e+00	 9.404520189800088e+00	 3.413408275954731e-01
 2.121320343572000e+00	 1.004091629286476e+01	 3.924913248998848e-01
 1.484924240507500e+00	 1.067731239593025e+01	 4.557133506194131e-01
 8.485281374420003e-01	 1.131370849899656e+01	 5.254978071108664e-01
 2.121320343755004e-01	 1.195010460206369e+01	 5.815189349768648e-01
-4.242640686919994e-01	 1.258650070513164e+01	 6.217511163138583e-01
-1.060660171760499e+00	 1.322289680820041e+01	 6.441687332182265e-01
-1.697056274830000e+00	 1.385929291127000e+01	 6.467461677862862e-01
 4.808326112060000e+00	 7.636753236843999e+00	 7.381057757150609e-02
 4.171930008999500e+00	 8.273149339907540e+00	 1.752844814811707e-01
 3.535533905938000e+00	 8.909545442971760e+00	 2.660878164451825e-01
 2.899137802875499e+00	 9.545941546036660e+00	 3.461843575287018e-01
 2.262741699812000e+00	 1.018233764910224e+01	 3.958967931026987e-01
 1.626345596747500e+00	 1.081873375216850e+01	 4.655230831182062e-01
 9.899494936820002e-01	 1.145512985523544e+01	 5.331166039974157e-01
 3.535533906155001e-01	 1.209152595830306e+01	 5.869498380702395e-01
-2.828427124519994e-01	 1.272792206137136e+01	 6.249971674331541e-01
-9.192388155204991e-01	 1.336431816444034e+01	 6.452329741825533e-01
-1.555634918590000e+00	 1.400071426751000e+01	 6.456316404147603e-01
 4.949747468300000e+00	 7.778174593075000e+00	 7.976299483956026e-02
 4.313351365239500e+00	 8.414570696140249e+00	 1.800678008090837e-01
 3.676955262178001e+00	 9.050966799206000e+00	 2.694377755280761e-01
 3.040559159115500e+00	 9.687362902272252e+00	 3.494186876994623e-01
 2.404163056052000e+00	 1.032375900533900e+01	 4.010879848047982e-01
 1.767766952987500e+00	 1.096015510840625e+01	 4.766821280178011e-01
 1.131370849922000e+00	 1.159655121147400e+01	 5.417666941601207e-01
 4.949747468555002e-01	 1.223294731454225e+01	 5.930940153151343e-01
-1.414213562119995e-01	 1.286934341761100e+01	 6.286384735793419e-01
-7.778174592804994e-01	 1.350573952068025e+01	 6.463744510491520e-01
-1.414213562350000e+00	 1.414213562375000e+01	 6.442763298208841e-01
 5.091168824540000e+00	 7.919595949304000e+00	 8.903991631956559e-02
 4.454772721479499e+00	 8.555992052371339e+00	 1.877988220069134e-01
 3.818376618417999e+00	 9.192388155438959e+00	 2.753586320834654e-01
 3.181980515355500e+00	 9.828784258506859e+00	 3.532651151958229e-01
 2.545584412291999e+00	 1.046518036157504e+01	 4.151818778751117e-01
 1.909188309227500e+00	 1.110157646464350e+01	 4.891680554207127e-01
 1.272792206162000e+00	 1.173797256771224e+01	 5.514256477014933e-01
 6.363961030955002e-01	 1.237436867078126e+01	 5.999290368140630e-01
 2.800060183716368e-11	 1.301076477385056e+01	 6.326526048549407e-01
-6.363961030404992e-01	 1.364716087692013e+01	 6.475707339205392e-01
-1.272792206110000e+00	 1.428355697999000e+01	 6.426578061071787e-01
 5.232590180780000e+00	 8.061017305530999e+00	 1.016585150194614e-01
 4.596194077719500e+00	 8.697413408600811e+00	 1.984947180854704e-01
 3.959797974658000e+00	 9.333809511670639e+00	 2.838675591250177e-01
 3.323401871595500e+00	 9.970205614740491e+00	 3.593228067282274e-01
 2.687005768531999e+00	 1.060660171781036e+01	 4.321202926891224e-01
 2.050609665467500e+00	 1.124299782088025e+01	 5.029584354294535e-01
 1.414213562402000e+00	 1.187939392395016e+01	 5.620710347240481e-01
 7.778174593355002e-01	 1.251579002702009e+01	 6.074324726695446e-01
 1.414213562680005e-01	 1.315218613009004e+01	 6.370171313624654e-01
-4.949747468004994e-01	 1.378858223316001e+01	 6.487993928992368e-01
-1.131370849870000e+00	 1.442497833623000e+01	 6.407536393761651e-01
 5.374011537019999e+00	 8.202438661756000e+00	 1.176359642529770e-01
 4.737615433959500e+00	 8.838834764828661e+00	 2.121726623613765e-01
 4.101219330898000e+00	 9.475230867901040e+00	 2.949817299722026e-01
 3.464823227835500e+00	 1.011162697097314e+01	 3.676089356189710e-01
 2.828427124772000e+00	 1.074802307404496e+01	 4.506587493361418e-01
 2.192031021707500e+00	 1.138441917711650e+01	 5.180308381465356e-01
 1.555634918642000e+00	 1.202081528018776e+01	 5.736804253303016e-01
 9.192388155755001e-01	 1.265721138325874e+01	 6.155818929840886e-01
 2.828427125080005e-01	 1.329360748632944e+01	 6.417096232044383e-01
-3.535533905604995e-01	 1.393000358939986e+01	 6.500379980877639e-01
-9.899494936300001e-01	 1.456639969247000e+01	 6.385413997303635e-01
 5.515432893260000e+00	 8.343860017978999e+00	 1.369894376396361e-01
 4.879036790199501e+00	 8.980256121054889e+00	 2.288498284570404e-01
 4.242640687138000e+00	 9.616652224130160e+00	 3.087183182502973e-01
 3.606244584075501e+00	 1.025304832720481e+01	 3.781406754961680e-01
 2.969848481012000e+00	 1.088944443027884e+01	 4.697015162423656e-01
 2.333452377947500e+00	 1.152584053335225e+01	 5.343628336744721e-01
 1.697056274882000e+00	 1.216223663642504e+01	 5.862313896227637e-01
 1.060660171815500e+00	 1.279863273949721e+01	 6.243548678602165e-01
 4.242640687480002e-01	 1.343502884256876e+01	 6.467076504833722e-01
-2.121320343204993e-01	 1.407142494563969e+01	 6.512641195886399e-01
-8.485281373900000e-01	 1.470782104871000e+01	 6.359986572722962e-01
 5.656854249500000e+00	 8.485281374200000e+00	 1.597361091047612e-01
 5.020458146439500e+00	 9.121677477279500e+00	 2.485433903006894e-01
 4.384062043378000e+00	 9.758073580358001e+00	 3.250944978904007e-01
 3.747665940315499e+00	 1.039446968343550e+01	 3.937631178802863e-01
 3.111269837252000e+00	 1.103086578651200e+01	 4.861959219609617e-01
 2.474873734187500e+00	 1.166726188958750e+01	 5.519319921157689e-01
 1.838477631122000e+00	 1.230365799266200e+01	 5.997014977039461e-01
 1.202081528055500e+00	 1.294005409573550e+01	 6.337289674004400e-01
 5.656854249880006e-01	 1.357645019880800e+01	 6.519887833017878e-01
-7.071067808049936e-02	 1.421284630187950e+01	 6.524553275043857e-01
-7.071067811500000e-01	 1.484924240495000e+01	 6.331029821044826e-01
-2.121320343550000e+00	 1.343502884255000e+01	 6.488693495415507e-01
-2.757716446619501e+00	 1.407142494561950e+01	 7.103874956530126e-01
-3.394112549688002e+00	 1.470782104868800e+01	 7.556800839679919e-01
-4.030508652755502e+00	 1.534421715175550e+01	 7.853058609547373e-01
-4.666904755822002e+00	 1.598061325482200e+01	 8.023341247920527e-01
-5.303300858887503e+00	 1.661700935788750e+01	 8.094882095633116e-01
-5.939696961952004e+00	 1.725340546095200e+01	 8.098847050429072e-01
-6.576093065015503e+00	 1.788980156401550e+01	 8.303478719467821e-01
-7.212489168078005e+00	 1.852619766707801e+01	 8.532978913616264e-01
-7.848885271139504e+00	 1.916259377013951e+01	 8.784178777022567e-01
-8.485281374200000e+00	 1.979898987320000e+01	 9.053909707699793e-01
-1.979898987310000e+00	 1.357645019879000e+01	 6.483425924522032e-01
-2.616295090379690e+00	 1.421284630185950e+01	 7.093545000624101e-01
-3.252691193448761e+00	 1.484924240492800e+01	 7.544523842568133e-01
-3.889087296517212e+00	 1.548563850799550e+01	 7.832789197148884e-01
-4.525483399585043e+00	 1.612203461106200e+01	 7.994117539976637e-01
-5.161879502652252e+00	 1.675843071412751e+01	 8.055742211885317e-01
-5.798275605718843e+00	 1.739482681719200e+01	 8.095176782059726e-01
-6.434671708784816e+00	 1.803122292025551e+01	 8.289030172234857e-01
-7.071067811850165e+00	 1.866761902331801e+01	 8.507845686420852e-01
-7.707463914914893e+00	 1.930401512637951e+01	 8.748454468912514e-01
-8.343860017978999e+00	 1.994041122944000e+01	 9.007687917868272e-01
-1.838477631070000e+00	 1.371787155503000e+01	 6.476423418329412e-01
-2.474873734139861e+00	 1.435426765809950e+01	 7.082745052497144e-01
-3.111269837209441e+00	 1.499066376116800e+01	 7.534742957050278e-01
-3.747665940278743e+00	 1.562705986423550e+01	 7.815499118930875e-01
-4.384062043347762e+00	 1.626345596730200e+01	 7.968356388799781e-01
-5.020458146416503e+00	 1.689985207036750e+01	 8.020548107491209e-01
-5.656854249484964e+00	 1.753624817343200e+01	 8.092307611239716e-01
-6.293250352553144e+00	 1.817264427649550e+01	 8.276366398997739e-01
-6.929646455621044e+00	 1.880904037955801e+01	 8.485480905510243e-01
-7.566042558688665e+00	 1.944543648261950e+01	 8.716482275218892e-01
-8.202438661756000e+00	 2.008183258568000e+01	 8.966201906427798e-01
-1.697056274830000e+00	 1.385929291127000e+01	 6.467461677862862e-01
-2.333452377900012e+00	 1.449568901433950e+01	 7.071250813174484e-01
-2.969848480970041e+00	 1.513208511740800e+01	 7.527580290459608e-01
-3.606244584040092e+00	 1.576848122047550e+01	 7.801310482226583e-01
-4.242640687110162e+00	 1.640487732354200e+01	 7.946179901723249e-01
-4.879036790180253e+00	 1.704127342660750e+01	 7.989421889784014e-01
-5.515432893250362e+00	 1.767766952967200e+01	 8.090205279982388e-01
-6.151828996320495e+00	 1.831406563273551e+01	 8.265453141762488e-01
-6.788225099390645e+00	 1.895046173579800e+01	 8.465850312883136e-01
-7.424621202460815e+00	 1.958685783885950e+01	 8.688227937933172e-01
-8.061017305530999e+00	 2.022325394192000e+01	 8.929417415362606e-01
-1.555634918590000e+00	 1.400071426751000e+01	 6.456316404147603e-01
-2.192031021660141e+00	 1.463711037057950e+01	 7.058837983681363e-01
-2.828427124730561e+00	 1.527350647364800e+01	 7.516682100524668e-01
-3.464823227801261e+00	 1.590990257671550e+01	 7.790345394369239e-01
-4.101219330872241e+00	 1.654629867978200e+01	 7.927710186080262e-01
-4.737615433943501e+00	 1.718269478284750e+01	 7.962485666097023e-01
-5.374011537015043e+00	 1.781909088591200e+01	 8.088835530913784e-01
-6.010407640086863e+00	 1.845548698897550e+01	 8.256256143147760e-01
-6.646803743158962e+00	 1.909188309203800e+01	 8.448919651150877e-01
-7.283199846231346e+00	 1.972827919509951e+01	 8.663657199659441e-01
-7.919595949304000e+00	 2.036467529816000e+01	 8.897300187269628e-01
-1.414213562350000e+00	 1.414213562375000e+01	 6.442763298208841e-01
-2.050609665420251e+00	 1.477853172681950e+01	 7.045282265043001e-01
-2.687005768491002e+00	 1.541492782988800e+01	 7.504500131506632e-01
-3.323401871562252e+00	 1.605132393295550e+01	 7.782725962692062e-01
-3.959797974634002e+00	 1.668772003602200e+01	 7.913069349204057e-01
-4.596194077706253e+00	 1.732411613908750e+01	 7.956092655203648e-01
-5.232590180779003e+00	 1.796051224215201e+01	 8.088164107272593e-01
-5.868986283852253e+00	 1.859690834521550e+01	 8.248741146384878e-01
-6.505382386926004e+00	 1.923330444827801e+01	 8.434654663537495e-01
-7.141778490000254e+00	 1.986970055133951e+01	 8.642735803614456e-01
-7.778174593075001e+00	 2.050609665440000e+01	 8.869815965358377e-01
-1.272792206110000e+00	 1.428355697999000e+01	 6.426578061071787e-01
-1.909188309180341e+00	 1.491995308305950e+01	 7.030359358284635e-01
-2.545584412251361e+00	 1.555634918612800e+01	 7.492215917446914e-01
-3.181980515323062e+00	 1.619274528919550e+01	 7.778574294528271e-01
-3.818376618395443e+00	 1.682914139226200e+01	 7.902379498427905e-01
-4.454772721468503e+00	 1.746553749532750e+01	 7.962038775510502e-01
-5.091168824542244e+00	 1.810193359839201e+01	 8.088156752910167e-01
-5.727564927616664e+00	 1.873832970145551e+01	 8.242873895317806e-01
-6.363961030691765e+00	 1.937472580451801e+01	 8.423021093879617e-01
-7.000357133767544e+00	 2.001112190757950e+01	 8.625429493627550e-01
-7.636753236844000e+00	 2.064751801064000e+01	 8.846930493450994e-01
-1.131370849870000e+00	 1.442497833623000e+01	 6.407536393761651e-01
-1.767766952940411e+00	 1.506137443929950e+01	 7.013844964431472e-01
-2.404163056011641e+00	 1.569777054236800e+01	 7.479605159370754e-01
-3.040559159083692e+00	 1.633416664543550e+01	 7.778012497211148e-01
-3.676955262156563e+00	 1.697056274850200e+01	 7.895762741085043e-01
-4.313351365230252e+00	 1.760695885156750e+01	 7.967631028992868e-01
-4.949747468304763e+00	 1.824335495463200e+01	 8.088779212290474e-01
-5.586143571380095e+00	 1.887975105769550e+01	 8.238620134403120e-01
-6.222539674456244e+00	 1.951614716075800e+01	 8.413984686626464e-01
-6.858935777533214e+00	 2.015254326381950e+01	 8.611704014140688e-01
-7.495331880611000e+00	 2.078893936688000e+01	 8.828609515982172e-01
-9.899494936300001e-01	 1.456639969247000e+01	 6.385413997303635e-01
-1.626345596700461e+00	 1.520279579553950e+01	 6.995514784508763e-01
-2.262741699771841e+00	 1.583919189860800e+01	 7.466443558303385e-01
-2.899137802844142e+00	 1.647558800167550e+01	 7.777944139649665e-01
-3.535533905917362e+00	 1.711198410474200e+01	 7.893341184508703e-01
-4.171930008991502e+00	 1.774838020780750e+01	 7.972835160734831e-01
-4.808326112066563e+00	 1.838477631087201e+01	 8.089997230490127e-01
-5.444722215142544e+00	 1.902117241393550e+01	 8.235945608710011e-01
-6.081118318219445e+00	 1.965756851699800e+01	 8.407511186839887e-01
-6.717514421297265e+00	 2.029396462005950e+01	 8.601525110208403e-01
-7.353910524375999e+00	 2.093036072312000e+01	 8.814818777999194e-01
-8.485281373900000e-01	 1.470782104871000e+01	 6.359986572722962e-01
-1.484924240460491e+00	 1.534421715177950e+01	 6.975144519541712e-01
-2.121320343531961e+00	 1.598061325484800e+01	 7.452506815270064e-01
-2.757716446604412e+00	 1.661700935791550e+01	 7.771817280870261e-01
-3.394112549677842e+00	 1.725340546098200e+01	 7.895506515939349e-01
-4.030508652752253e+00	 1.788980156404750e+01	 7.977616916433066e-01
-4.666904755827643e+00	 1.852619766711200e+01	 8.091776553198323e-01
-5.303300858904014e+00	 1.916259377017550e+01	 8.234816063920266e-01
-5.939696961981364e+00	 1.979898987323800e+01	 8.403566340194284e-01
-6.576093065059695e+00	 2.043538597629950e+01	 8.594858527497780e-01
-7.212489168138999e+00	 2.107178207936000e+01	 8.805524025161915e-01
-7.071067811500000e-01	 1.484924240495000e+01	 6.331029821044826e-01
-1.343502884220501e+00	 1.548563850801950e+01	 6.952509870555533e-01
-1.979898987292001e+00	 1.612203461108800e+01	 7.437570631296025e-01
-2.616295090364502e+00	 1.675843071415550e+01	 7.765955924228570e-01
-3.252691193438002e+00	 1.739482681722200e+01	 7.901943955531603e-01
-3.889087296512503e+00	 1.803122292028750e+01	 7.981942042396856e-01
-4.525483399588003e+00	 1.866761902335200e+01	 8.094082926716863e-01
-5.161879502664504e+00	 1.930401512641550e+01	 8.235197246328242e-01
-5.798275605742004e+00	 1.994041122947800e+01	 8.402115892976623e-01
-6.434671708820505e+00	 2.057680733253951e+01	 8.591670012288477e-01
-7.071067811900000e+00	 2.121320343560000e+01	 8.800691003742702e-01
 5.656854249500000e+00	 8.485281374200000e+00	 9.882958703203806e-02
 5.020458146439500e+00	 9.121677477279500e+00	 1.975566055686639e-01
 4.384062043378000e+00	 9.758073580358001e+00	 2.830924330408565e-01
 3.747665940315499e+00	 1.039446968343550e+01	 3.598107554524084e-01
 3.111269837252000e+00	 1.103086578651200e+01	 4.593582444915564e-01
 2.474873734187500e+00	 1.166726188958750e+01	 5.312739821395212e-01
 1.838477631122000e+00	 1.230365799266200e+01	 5.842881377536600e-01
 1.202081528055500e+00	 1.294005409573550e+01	 6.226252400072823e-01
 5.656854249880006e-01	 1.357645019880800e+01	 6.442596709955266e-01
-7.071067808049936e-02	 1.421284630187950e+01	 6.471658128136413e-01
-7.071067811500000e-01	 1.484924240495000e+01	 6.293180475569612e-01
 5.798275605740000e+00	 8.626702730440000e+00	 2.053307260116310e-01
 5.161879502675981e+00	 9.263098833519406e+00	 2.828423007905455e-01
 4.525483399611519e+00	 9.899494936597618e+00	 3.490500598754879e-01
 3.889087296546621e+00	 1.053589103967465e+01	 4.161252748622303e-01
 3.252691193481280e+00	 1.117228714275048e+01	 4.996362867636875e-01
 2.616295090415500e+00	 1.180868324582513e+01	 5.629908098411646e-01
 1.979898987349279e+00	 1.244507934889858e+01	 6.045606142044676e-01
 1.343502884282620e+00	 1.308147545197084e+01	 6.336080570356626e-01
 7.071067812155205e-01	 1.371787155504192e+01	 6.481075204300660e-01
 7.071067814798050e-02	 1.435426765811180e+01	 6.460333864830700e-01
-5.656854249200001e-01	 1.499066376118050e+01	 6.253600372901507e-01
 5.939696961980000e+00	 8.768124086679999e+00	 3.058513235781329e-01
 5.303300858912819e+00	 9.404520189759317e+00	 3.628377676291855e-01
 4.666904755845681e+00	 1.004091629283728e+01	 4.104077693012265e-01
 4.030508652778580e+00	 1.067731239591388e+01	 4.682578022852134e-01
 3.394112549711520e+00	 1.131370849898912e+01	 5.364520412152162e-01
 2.757716446644500e+00	 1.195010460206300e+01	 5.918274291745366e-01
 2.121320343577520e+00	 1.258650070513552e+01	 6.227019785169938e-01
 1.484924240510580e+00	 1.322289680820668e+01	 6.432088581557521e-01
 8.485281374436806e-01	 1.385929291127648e+01	 6.513224501863030e-01
 2.121320343768205e-01	 1.449568901434492e+01	 6.450171367041946e-01
-4.242640686900001e-01	 1.513208511741200e+01	 6.222672998050272e-01
 6.081118318220000e+00	 8.909545442920001e+00	 4.004085545743559e-01
 5.444722215150019e+00	 9.545941545999245e+00	 4.375601809303052e-01
 4.808326112080481e+00	 1.018233764907698e+01	 4.671827361666920e-01
 4.171930009011380e+00	 1.081873375215320e+01	 5.162139082085203e-01
 3.535533905942720e+00	 1.145512985522792e+01	 5.698110783332975e-01
 2.899137802874501e+00	 1.209152595830113e+01	 6.177614102421460e-01
 2.262741699806720e+00	 1.272792206137282e+01	 6.386898007937366e-01
 1.626345596739380e+00	 1.336431816444300e+01	 6.514052134700512e-01
 9.899494936724806e-01	 1.400071426751168e+01	 6.538820303667482e-01
 3.535533906060208e-01	 1.463711037057885e+01	 6.440946335795165e-01
-2.828427124600000e-01	 1.527350647364450e+01	 6.200174052040957e-01
 6.222539674460000e+00	 9.050966799160001e+00	 4.890195941489351e-01
 5.586143571387582e+00	 9.687362902239180e+00	 5.070267158454821e-01
 4.949747468315920e+00	 1.032375900531672e+01	 5.193921356263572e-01
 4.313351365245019e+00	 1.096015510839262e+01	 5.599991631193066e-01
 3.676955262174880e+00	 1.159655121146688e+01	 5.997189686050934e-01
 3.040559159105500e+00	 1.223294731453950e+01	 6.372602426428362e-01
 2.404163056036880e+00	 1.286934341761048e+01	 6.525016511372019e-01
 1.767766952969021e+00	 1.350573952067982e+01	 6.581746930810655e-01
 1.131370849901921e+00	 1.414213562374752e+01	 6.557638310738966e-01
 4.949747468355806e-01	 1.477853172681358e+01	 6.432434472115383e-01
-1.414213562300000e-01	 1.541492782987800e+01	 6.185879235898589e-01
 6.363961030700001e+00	 9.192388155400000e+00	 5.717016177563453e-01
 5.727564927625500e+00	 9.828784258479125e+00	 5.712545478321236e-01
 5.091168824552001e+00	 1.046518036155650e+01	 5.730842003098440e-01
 4.454772721479500e+00	 1.110157646463213e+01	 5.996191375047306e-01
 3.818376618408000e+00	 1.173797256770600e+01	 6.261812825177573e-01
 3.181980515337500e+00	 1.237436867077813e+01	 6.525305853144381e-01
 2.545584412268001e+00	 1.301076477384850e+01	 6.641150996498926e-01
 1.909188309199501e+00	 1.364716087691713e+01	 6.634948670912941e-01
 1.272792206132001e+00	 1.428355697998400e+01	 6.569454224102533e-01
 6.363961030655005e-01	 1.491995308304912e+01	 6.424411477027587e-01
 5.551115123125783e-17	 1.555634918611250e+01	 6.179564250648133e-01
 6.505382386939999e+00	 9.333809511640000e+00	 6.484718011569001e-01
 5.868986283863780e+00	 9.970205614719079e+00	 6.302608526534990e-01
 5.232590180788718e+00	 1.060660171779632e+01	 6.229481101951326e-01
 4.596194077714820e+00	 1.124299782087172e+01	 6.350794018519460e-01
 3.959797974642079e+00	 1.187939392394528e+01	 6.492035905584499e-01
 3.323401871570500e+00	 1.251579002701700e+01	 6.650806262803318e-01
 2.687005768500080e+00	 1.315218613008688e+01	 6.735077164343131e-01
 2.050609665430820e+00	 1.378858223315492e+01	 6.673433056032446e-01
 1.414213562362721e+00	 1.442497833622112e+01	 6.574043744783222e-01
 7.778174592957803e-01	 1.506137443928548e+01	 6.416653051556775e-01
 1.414213562300000e-01	 1.569777054234800e+01	 6.181004797314559e-01
 6.646803743180000e+00	 9.475230867880001e+00	 7.193473204167634e-01
 6.010407640102420e+00	 1.011162697095905e+01	 6.840628063787342e-01
 5.374011537026081e+00	 1.074802307403618e+01	 6.679381763631698e-01
 4.737615433950979e+00	 1.138441917711140e+01	 6.663855266481055e-01
 4.101219330877120e+00	 1.202081528018472e+01	 6.687914632143275e-01
 3.464823227804500e+00	 1.265721138325613e+01	 6.749159360276789e-01
 2.828427124733120e+00	 1.329360748632562e+01	 6.806570715929686e-01
 2.192031021662980e+00	 1.393000358939320e+01	 6.696975787194206e-01
 1.555634918594080e+00	 1.456639969245888e+01	 6.571182573806036e-01
 9.192388155264207e-01	 1.520279579552265e+01	 6.408934896727942e-01
 2.828427124599999e-01	 1.583919189858450e+01	 6.189976576922778e-01
 6.788225099420000e+00	 9.616652224119999e+00	 7.843453519079605e-01
 6.151828996341420e+00	 1.025304832719902e+01	 7.326775853828277e-01
 5.515432893264080e+00	 1.088944443027608e+01	 7.080599693010983e-01
 4.879036790187981e+00	 1.152584053335118e+01	 6.935430823803617e-01
 4.242640687113120e+00	 1.216223663642432e+01	 6.849504709725501e-01
 3.606244584039500e+00	 1.279863273949550e+01	 6.820420850436427e-01
 2.969848480967120e+00	 1.343502884256472e+01	 6.845778745596292e-01
 2.333452377895981e+00	 1.407142494563198e+01	 6.705352565423287e-01
 1.697056274826081e+00	 1.470782104869728e+01	 6.560646412196033e-01
 1.060660171757421e+00	 1.534421715176062e+01	 6.401032713566069e-01
 4.242640686899999e-01	 1.598061325482200e+01	 6.206255290497701e-01
 6.929646455659999e+00	 9.758073580360000e+00	 8.434830723083742e-01
 6.293250352580780e+00	 1.039446968343901e+01	 7.782104942347561e-01
 5.656854249502720e+00	 1.103086578651602e+01	 7.433190594960511e-01
 5.020458146425820e+00	 1.166726188959105e+01	 7.165576395358617e-01
 4.384062043350080e+00	 1.230365799266408e+01	 6.976861843202746e-01
 3.747665940275500e+00	 1.294005409573513e+01	 6.864646438153875e-01
 3.111269837202080e+00	 1.357645019880418e+01	 6.826529679873148e-01
 2.474873734129820e+00	 1.421284630187124e+01	 6.698339091744772e-01
 1.838477631058721e+00	 1.484924240493632e+01	 6.542210960978234e-01
 1.202081527988781e+00	 1.548563850799941e+01	 6.392722203096117e-01
 5.656854249199998e-01	 1.612203461106050e+01	 6.229616639064186e-01
 7.071067811900000e+00	 9.899494936600000e+00	 8.967776586017657e-01
 6.434671708820501e+00	 1.053589103967900e+01	 8.221029702787087e-01
 5.798275605742001e+00	 1.117228714275600e+01	 7.737210174351643e-01
 5.161879502664499e+00	 1.180868324583100e+01	 7.354347686017554e-01
 4.525483399588000e+00	 1.244507934890400e+01	 7.070041737446586e-01
 3.889087296512500e+00	 1.308147545197500e+01	 6.881891828300779e-01
 3.252691193438000e+00	 1.371787155504400e+01	 6.787497458242336e-01
 2.616295090364500e+00	 1.435426765811100e+01	 6.675711067183735e-01
 1.979898987292001e+00	 1.499066376117600e+01	 6.515651921177684e-01
 1.343502884220501e+00	 1.562705986423900e+01	 6.383779066343053e-01
 7.071067811500000e-01	 1.626345596730000e+01	 6.259836323647078e-01
-7.071067811500000e-01	 1.484924240495000e+01	 6.293180475569612e-01
-1.343502884220501e+00	 1.548563850801950e+01	 6.924372661201637e-01
-1.979898987292001e+00	 1.612203461108800e+01	 7.417828402166728e-01
-2.616295090364502e+00	 1.675843071415550e+01	 7.753291519423355e-01
-3.252691193438002e+00	 1.739482681722200e+01	 7.895040219146514e-01
-3.889087296512503e+00	 1.803122292028750e+01	 7.979481818524832e-01
-4.525483399588003e+00	 1.866761902335200e+01	 8.094749059448010e-01
-5.161879502664504e+00	 1.930401512641550e+01	 8.237672579750190e-01
-5.798275605742004e+00	 1.994041122947800e+01	 8.405083271174834e-01
-6.434671708820505e+00	 2.057680733253951e+01	 8.593812279346540e-01
-7.071067811900000e+00	 2.121320343560000e+01	 8.800691003742702e-01
-5.656854249200001e-01	 1.499066376118050e+01	 6.253600372901507e-01
-1.202081527988781e+00	 1.562705986424839e+01	 6.906822145421314e-01
-1.838477631058721e+00	 1.626345596731585e+01	 7.420462014153644e-01
-2.474873734129822e+00	 1.689985207038287e+01	 7.774263800057238e-01
-3.111269837202081e+00	 1.753624817344946e+01	 7.931572602139968e-01
-3.747665940275503e+00	 1.817264427651563e+01	 8.016440827939402e-01
-4.384062043350083e+00	 1.880904037958136e+01	 8.129006430869111e-01
-5.020458146425825e+00	 1.944543648264667e+01	 8.266100048915374e-01
-5.656854249502726e+00	 2.008183258571155e+01	 8.424552573972661e-01
-6.293250352580785e+00	 2.071822868877599e+01	 8.601195151815266e-01
-6.929646455660000e+00	 2.135462479184000e+01	 8.792859182069082e-01
-4.242640686900001e-01	 1.513208511741200e+01	 6.222672998050272e-01
-1.060660171757421e+00	 1.576848122047844e+01	 6.897123302314947e-01
-1.697056274826081e+00	 1.640487732354496e+01	 7.430146243671787e-01
-2.333452377895981e+00	 1.704127342661157e+01	 7.801485643079774e-01
-2.969848480967123e+00	 1.767766952967824e+01	 7.970962825147838e-01
-3.606244584039502e+00	 1.831406563274500e+01	 8.055175363835387e-01
-4.242640687113123e+00	 1.895046173581185e+01	 8.163957011081239e-01
-4.879036790187984e+00	 1.958685783887877e+01	 8.294138405024158e-01
-5.515432893264084e+00	 2.022325394194577e+01	 8.442550437709750e-01
-6.151828996341423e+00	 2.085965004501285e+01	 8.606024255062290e-01
-6.788225099420000e+00	 2.149604614808000e+01	 8.781391256856426e-01
-2.828427124600000e-01	 1.527350647364450e+01	 6.200174052040957e-01
-9.192388155264208e-01	 1.590990257670967e+01	 6.895051832907635e-01
-1.555634918594082e+00	 1.654629867977537e+01	 7.446656791746249e-01
-2.192031021662982e+00	 1.718269478284158e+01	 7.834732749516073e-01
-2.828427124733122e+00	 1.781909088590835e+01	 8.002962819445835e-01
-3.464823227804503e+00	 1.845548698897563e+01	 8.095651174359619e-01
-4.101219330877122e+00	 1.909188309204344e+01	 8.199566548223783e-01
-4.737615433950984e+00	 1.972827919511179e+01	 8.321753396208414e-01
-5.374011537026083e+00	 2.036467529818066e+01	 8.459042610510570e-01
-6.010407640102425e+00	 2.100107140125007e+01	 8.608265337204759e-01
-6.646803743180000e+00	 2.163746750432000e+01	 8.766252976214589e-01
-1.414213562300000e-01	 1.541492782987800e+01	 6.185879235898589e-01
-7.778174592957806e-01	 1.605132393294206e+01	 6.900383438224401e-01
-1.414213562362721e+00	 1.668772003600704e+01	 7.469769359402123e-01
-2.050609665430821e+00	 1.732411613907294e+01	 7.858169922743949e-01
-2.687005768500082e+00	 1.796051224213976e+01	 8.032129868753330e-01
-3.323401871570503e+00	 1.859690834520751e+01	 8.137834008271506e-01
-3.959797974642083e+00	 1.923330444827617e+01	 8.235800791048580e-01
-4.596194077714824e+00	 1.986970055134574e+01	 8.348910771212542e-01
-5.232590180788724e+00	 2.050609665441624e+01	 8.473994841112134e-01
-5.868986283863785e+00	 2.114249275748767e+01	 8.607884146972298e-01
-6.505382386939999e+00	 2.177888886056000e+01	 8.747410088865881e-01
 5.551115123125783e-17	 1.555634918611250e+01	 6.179564250648133e-01
-6.363961030655007e-01	 1.619274528917563e+01	 6.912893819290302e-01
-1.272792206132001e+00	 1.682914139224000e+01	 7.499259647664522e-01
-1.909188309199502e+00	 1.746553749530563e+01	 7.872318741233251e-01
-2.545584412268002e+00	 1.810193359837250e+01	 8.060896063057672e-01
-3.181980515337503e+00	 1.873832970144063e+01	 8.181689614942945e-01
-3.818376618408003e+00	 1.937472580451001e+01	 8.272625488920002e-01
-4.454772721479504e+00	 2.001112190758063e+01	 8.375576279393442e-01
-5.091168824552003e+00	 2.064751801065250e+01	 8.487372878863906e-01
-5.727564927625505e+00	 2.128391411372563e+01	 8.604846433707007e-01
-6.363961030700000e+00	 2.192031021680000e+01	 8.724828344145077e-01
 1.414213562300000e-01	 1.569777054234800e+01	 6.181004797314559e-01
-4.949747468355807e-01	 1.633416664541036e+01	 6.932358677130324e-01
-1.131370849901921e+00	 1.697056274847424e+01	 7.534903357558506e-01
-1.767766952969022e+00	 1.760695885153964e+01	 7.887560635507470e-01
-2.404163056036882e+00	 1.824335495460656e+01	 8.089422262798052e-01
-3.040559159105503e+00	 1.887975105767500e+01	 8.227183744358360e-01
-3.676955262174884e+00	 1.951614716074497e+01	 8.310006391814948e-01
-4.313351365245023e+00	 2.015254326381645e+01	 8.401715670720513e-01
-4.949747468315924e+00	 2.078893936688944e+01	 8.499142473727834e-01
-5.586143571387584e+00	 2.142533546996396e+01	 8.599117947363433e-01
-6.222539674460000e+00	 2.206173157304000e+01	 8.698473491999372e-01
 2.828427124599999e-01	 1.583919189858450e+01	 6.189976576922778e-01
-3.535533906060208e-01	 1.647558800164627e+01	 6.958553712769495e-01
-9.899494936724811e-01	 1.711198410470976e+01	 7.576476190109149e-01
-1.626345596739382e+00	 1.774838020777499e+01	 7.904056463601314e-01
-2.262741699806722e+00	 1.838477631084194e+01	 8.117869325627806e-01
-2.899137802874503e+00	 1.902117241391062e+01	 8.270686362730207e-01
-3.535533905942723e+00	 1.965756851698104e+01	 8.347909250322756e-01
-4.171930009011385e+00	 2.029396462005319e+01	 8.427294695775600e-01
-4.808326112080485e+00	 2.093036072312707e+01	 8.509269376278308e-01
-5.444722215150025e+00	 2.156675682620267e+01	 8.590664438508566e-01
-6.081118318220000e+00	 2.220315292928000e+01	 8.668311282988377e-01
 4.242640686899999e-01	 1.598061325482200e+01	 6.206255290497701e-01
-2.121320343768205e-01	 1.661700935788334e+01	 6.991254627232768e-01
-8.485281374436814e-01	 1.725340546094656e+01	 7.620031199121245e-01
-1.484924240510582e+00	 1.788980156401166e+01	 7.921967080763589e-01
-2.121320343577522e+00	 1.852619766707864e+01	 8.146398106414526e-01
-2.757716446644503e+00	 1.916259377014750e+01	 8.305388080829403e-01
-3.394112549711524e+00	 1.979898987321825e+01	 8.386299815645271e-01
-4.030508652778584e+00	 2.043538597629087e+01	 8.452279105753012e-01
-4.666904755845684e+00	 2.107178207936536e+01	 8.517719337702163e-01
-5.303300858912825e+00	 2.170817818244174e+01	 8.579451658321801e-01
-5.939696961979999e+00	 2.234457428552000e+01	 8.634307468284108e-01
 5.656854249199998e-01	 1.612203461106050e+01	 6.229616639064186e-01
-7.071067814798078e-02	 1.675843071412158e+01	 7.030237121545140e-01
-7.071067812155212e-01	 1.739482681718464e+01	 7.625787149311133e-01
-1.343502884282622e+00	 1.803122292024967e+01	 7.941453339457462e-01
-1.979898987349282e+00	 1.866761902331666e+01	 8.175169457240152e-01
-2.616295090415503e+00	 1.930401512638563e+01	 8.338999315133804e-01
-3.252691193481284e+00	 1.994041122945656e+01	 8.425143839596776e-01
-3.889087296546624e+00	 2.057680733252947e+01	 8.476634652459496e-01
-4.525483399611524e+00	 2.121320343560434e+01	 8.524458109798665e-01
-5.161879502675985e+00	 2.184959953868119e+01	 8.565445358594953e-01
-5.798275605740000e+00	 2.248599564176000e+01	 8.596427799670961e-01
 7.071067811500000e-01	 1.626345596730000e+01	 6.259836323647078e-01
 7.071067808049947e-02	 1.689985207036100e+01	 7.075276896731528e-01
-5.656854249880012e-01	 1.753624817342401e+01	 7.634612680243820e-01
-1.202081528055502e+00	 1.817264427648900e+01	 7.962676089360328e-01
-1.838477631122002e+00	 1.880904037955600e+01	 8.204344227400957e-01
-2.474873734187503e+00	 1.944543648262501e+01	 8.371680914558327e-01
-3.111269837252004e+00	 2.008183258569601e+01	 8.464407074603988e-01
-3.747665940315504e+00	 2.071822868876900e+01	 8.500327088314238e-01
-4.384062043378004e+00	 2.135462479184401e+01	 8.529451444979468e-01
-5.020458146439505e+00	 2.199102089492100e+01	 8.548611291732219e-01
-5.656854249500000e+00	 2.262741699800000e+01	 8.554638029545703e-01
 7.071067811900000e+00	 9.899494936600000e+00	 1.106561141188481e+00
 6.434671708820501e+00	 1.053589103967900e+01	 9.787322764101311e-01
 5.798275605742001e+00	 1.117228714275600e+01	 8.833470701588315e-01
 5.161879502664499e+00	 1.180868324583100e+01	 8.042084909653977e-01
 4.525483399588000e+00	 1.244507934890400e+01	 7.410764887961472e-01
 3.889087296512500e+00	 1.308147545197500e+01	 6.937110136173765e-01
 3.252691193438000e+00	 1.371787155504400e+01	 6.618720153953610e-01
 2.616295090364500e+00	 1.435426765811100e+01	 6.344447381213524e-01
 1.979898987292001e+00	 1.499066376117600e+01	 6.083411084005726e-01
 1.343502884220501e+00	 1.562705986423900e+01	 5.912070308448258e-01
 7.071067811500000e-01	 1.626345596730000e+01	 5.810168875506960e-01
 7.353910524361001e+00	 1.018233764907950e+01	 1.124049367842914e+00
 6.717514421285019e+00	 1.081873375215508e+01	 1.007827608119362e+00
 6.081118318209668e+00	 1.145512985522920e+01	 9.131862331863508e-01
 5.444722215134957e+00	 1.209152595830190e+01	 8.346297587890659e-01
 4.808326112060879e+00	 1.272792206137314e+01	 7.719181348937485e-01
 4.171930008987438e+00	 1.336431816444294e+01	 7.248113114666226e-01
 3.535533905914630e+00	 1.400071426751129e+01	 6.930692384738942e-01
 2.899137802842458e+00	 1.463711037057820e+01	 6.751616106823934e-01
 2.262741699770921e+00	 1.527350647364366e+01	 6.515261917164493e-01
 1.626345596700018e+00	 1.590990257670768e+01	 6.370766035857978e-01
 9.899494936297502e-01	 1.654629867977025e+01	 6.297872283869489e-01
 7.636753236823999e+00	 1.046518036155800e+01	 1.146411087599549e+00
 7.000357133750970e+00	 1.110157646463071e+01	 1.036166072224897e+00
 6.363961030678278e+00	 1.173797256770244e+01	 9.420842808975707e-01
 5.727564927605931e+00	 1.237436867077319e+01	 8.639256635837649e-01
 5.091168824533921e+00	 1.301076477384296e+01	 8.014501702496555e-01
 4.454772721462251e+00	 1.364716087691175e+01	 7.544177508614005e-01
 3.818376618390920e+00	 1.428355697997956e+01	 7.225883553851403e-01
 3.181980515319930e+00	 1.491995308304639e+01	 7.057219337869960e-01
 2.545584412249280e+00	 1.555634918611224e+01	 6.912348624229661e-01
 1.909188309178971e+00	 1.619274528917711e+01	 6.794030842592826e-01
 1.272792206109000e+00	 1.682914139224100e+01	 6.749477976975804e-01
 7.919595949289000e+00	 1.074802307403550e+01	 1.173500185583564e+00
 7.283199846218357e+00	 1.138441917710590e+01	 1.063792232624175e+00
 6.646803743147832e+00	 1.202081528017569e+01	 9.700857771899118e-01
 6.010407640077417e+00	 1.265721138324488e+01	 8.921407692469054e-01
 5.374011537007120e+00	 1.329360748631346e+01	 8.297171587612724e-01
 4.737615433936939e+00	 1.393000358938144e+01	 7.825748956991104e-01
 4.101219330866870e+00	 1.456639969244881e+01	 7.504739300265020e-01
 3.464823227796918e+00	 1.520279579551558e+01	 7.331742117095159e-01
 2.828427124727081e+00	 1.583919189858174e+01	 7.272876813403227e-01
 2.192031021657359e+00	 1.647558800164730e+01	 7.180070336854930e-01
 1.555634918587750e+00	 1.711198410471225e+01	 7.163191563028213e-01
 8.202438661756000e+00	 1.103086578651200e+01	 1.200105791471343e+00
 7.566042558687179e+00	 1.166726188958064e+01	 1.090750653214640e+00
 6.929646455618319e+00	 1.230365799264896e+01	 9.972352859608019e-01
 6.293250352549419e+00	 1.294005409571696e+01	 9.193196396759040e-01
 5.656854249480480e+00	 1.357645019878464e+01	 8.567636643260068e-01
 5.020458146411500e+00	 1.421284630185200e+01	 8.093273098771567e-01
 4.384062043342481e+00	 1.484924240491904e+01	 7.767705262953867e-01
 3.747665940273421e+00	 1.548563850798576e+01	 7.588532635467125e-01
 3.111269837204321e+00	 1.612203461105216e+01	 7.553354715971395e-01
 2.474873734135181e+00	 1.675843071411824e+01	 7.527090126846433e-01
 1.838477631066000e+00	 1.739482681718400e+01	 7.478034549084158e-01
 8.485281374225000e+00	 1.131370849898750e+01	 1.226272469160351e+00
 7.848885271157438e+00	 1.195010460205494e+01	 1.117085897893738e+00
 7.212489168089751e+00	 1.258650070512225e+01	 1.023577371107673e+00
 6.576093065021938e+00	 1.322289680818944e+01	 9.455068387681792e-01
 5.939696961954001e+00	 1.385929291125650e+01	 8.826342508412709e-01
 5.303300858885938e+00	 1.449568901432344e+01	 8.347195572929487e-01
 4.666904755817749e+00	 1.513208511739025e+01	 8.015227080891998e-01
 4.030508652749438e+00	 1.576848122045694e+01	 7.828036531960011e-01
 3.394112549681001e+00	 1.640487732352350e+01	 7.783223425793157e-01
 2.757716446612438e+00	 1.704127342658994e+01	 7.833295820769416e-01
 2.121320343543750e+00	 1.767766952965625e+01	 7.708718274255579e-01
 8.768124086695998e+00	 1.159655121146200e+01	 1.252044782548060e+00
 8.131727983629130e+00	 1.223294731452879e+01	 1.142842530558922e+00
 7.495331880562119e+00	 1.286934341759556e+01	 1.049156596527961e+00
 6.858935777494969e+00	 1.350573952066231e+01	 9.707469304211568e-01
 6.222539674427680e+00	 1.414213562372904e+01	 9.073734822044821e-01
 5.586143571360251e+00	 1.477853172679575e+01	 8.587962018438977e-01
 4.949747468292680e+00	 1.541492782986244e+01	 8.247750393053542e-01
 4.313351365224970e+00	 1.605132393292911e+01	 8.050699445547926e-01
 3.676955262157120e+00	 1.668772003599576e+01	 7.994408675581428e-01
 3.040559159089129e+00	 1.732411613906239e+01	 8.050427590342599e-01
 2.404163056021000e+00	 1.796051224212900e+01	 7.908582476872590e-01
 9.050966799169000e+00	 1.187939392393550e+01	 1.285489111830394e+00
 8.414570696102256e+00	 1.251579002700219e+01	 1.168065115107649e+00
 7.778174593035430e+00	 1.315218613006889e+01	 1.074017526119108e+00
 7.141778489968517e+00	 1.378858223313558e+01	 9.950844785322674e-01
 6.505382386901521e+00	 1.442497833620226e+01	 9.310259223130615e-01
 5.868986283834437e+00	 1.506137443926894e+01	 8.816018074274197e-01
 5.232590180767270e+00	 1.569777054233561e+01	 8.465720838412620e-01
 4.596194077700019e+00	 1.633416664540228e+01	 8.256967015205012e-01
 3.959797974632680e+00	 1.697056274846894e+01	 8.187356104310394e-01
 3.323401871565258e+00	 1.760695885153560e+01	 8.149144757516321e-01
 2.687005768497750e+00	 1.824335495460225e+01	 8.078913684951088e-01
 9.333809511644001e+00	 1.216223663640800e+01	 1.318477191936577e+00
 8.697413408576820e+00	 1.279863273947516e+01	 1.192798215437380e+00
 8.061017305509679e+00	 1.343502884254224e+01	 1.098204723778561e+00
 7.424621202442578e+00	 1.407142494560924e+01	 1.018564046998944e+00
 6.788225099375520e+00	 1.470782104867616e+01	 9.536361350644351e-01
 6.151828996308501e+00	 1.534421715174300e+01	 9.031809379409352e-01
 5.515432893241520e+00	 1.598061325480976e+01	 8.669584055943401e-01
 4.879036790174580e+00	 1.661700935787644e+01	 8.447284879905401e-01
 4.242640687107681e+00	 1.725340546094304e+01	 8.359874303190065e-01
 3.606244584040820e+00	 1.788980156400956e+01	 8.243260422912314e-01
 2.969848480974000e+00	 1.852619766707600e+01	 8.216107324649965e-01
 9.616652224120999e+00	 1.244507934887950e+01	 1.348937699169766e+00
 8.980256121052818e+00	 1.308147545194768e+01	 1.221915566937645e+00
 8.343860017984870e+00	 1.371787155501561e+01	 1.121762753403771e+00
 7.707463914917157e+00	 1.435426765808330e+01	 1.041230199718627e+00
 7.071067811849680e+00	 1.499066376115074e+01	 9.752486843560320e-01
 6.434671708782437e+00	 1.562705986421794e+01	 9.235781572818647e-01
 5.798275605715430e+00	 1.626345596728489e+01	 8.859785684620056e-01
 5.161879502648659e+00	 1.689985207035160e+01	 8.622098678623290e-01
 4.525483399582120e+00	 1.753624817341806e+01	 8.459892223519286e-01
 3.889087296515818e+00	 1.817264427648427e+01	 8.332001522319012e-01
 3.252691193449750e+00	 1.880904037955025e+01	 8.294010801536273e-01
 9.899494936600000e+00	 1.272792206135000e+01	 1.377001001951837e+00
 9.263098833530250e+00	 1.336431816441975e+01	 1.252812388170325e+00
 8.626702730461000e+00	 1.400071426748900e+01	 1.144736178892194e+00
 7.990306627392250e+00	 1.463711037055775e+01	 1.063127500588761e+00
 7.353910524324001e+00	 1.527350647362600e+01	 9.959081340852860e-01
 6.717514421256251e+00	 1.590990257669375e+01	 9.428380293476377e-01
 6.081118318189000e+00	 1.654629867976100e+01	 9.036771363416812e-01
 5.444722215122251e+00	 1.718269478282775e+01	 8.781854050332828e-01
 4.808326112056001e+00	 1.781909088589400e+01	 8.555478555226701e-01
 4.171930008990251e+00	 1.845548698895975e+01	 8.414595016774560e-01
 3.535533905925000e+00	 1.909188309202500e+01	 8.364050622444028e-01
 7.071067811500000e-01	 1.626345596730000e+01	 5.810168875506960e-01
 7.071067808049947e-02	 1.689985207036100e+01	 6.677622455604336e-01
-5.656854249880012e-01	 1.753624817342401e+01	 7.287405410075150e-01
-1.202081528055502e+00	 1.817264427648900e+01	 7.664350154101784e-01
-1.838477631122002e+00	 1.880904037955600e+01	 7.953333791008813e-01
-2.474873734187503e+00	 1.944543648262501e+01	 8.166420140992148e-01
-3.111269837252004e+00	 2.008183258569601e+01	 8.303330127825279e-01
-3.747665940315504e+00	 2.071822868876900e+01	 8.381868132285050e-01
-4.384062043378004e+00	 2.135462479184401e+01	 8.452044643661041e-01
-5.020458146439505e+00	 2.199102089492100e+01	 8.510690809083609e-01
-5.656854249500000e+00	 2.262741699800000e+01	 8.554638029522409e-01
 9.899494936297502e-01	 1.654629867977025e+01	 6.297872283869489e-01
 3.535533905602919e-01	 1.718269478283282e+01	 7.096697795598559e-01
-2.828427125081811e-01	 1.781909088589684e+01	 7.543762068168132e-01
-9.192388155756690e-01	 1.845548698896230e+01	 7.871631713740137e-01
-1.555634918642173e+00	 1.909188309202921e+01	 8.115647316685389e-01
-2.192031021707690e+00	 1.972827919509756e+01	 8.287872712631137e-01
-2.828427124772224e+00	 2.036467529816737e+01	 8.400370733945529e-01
-3.464823227835772e+00	 2.100107140123861e+01	 8.436602909895978e-01
-4.101219330898336e+00	 2.163746750431130e+01	 8.461251020114943e-01
-4.737615433959914e+00	 2.227386360738543e+01	 8.481109578108185e-01
-5.374011537020500e+00	 2.291025971046100e+01	 8.493009985146559e-01
 1.272792206109000e+00	 1.682914139224100e+01	 6.749477976975804e-01
 6.363961030396696e-01	 1.746553749530489e+01	 7.396332021030403e-01
-2.872141782218895e-11	 1.810193359836977e+01	 7.769724226042776e-01
-6.363961030961716e-01	 1.873832970143562e+01	 8.051304669139612e-01
-1.272792206162682e+00	 1.937472580450244e+01	 8.253138204738446e-01
-1.909188309228253e+00	 2.001112190757025e+01	 8.387288683893043e-01
-2.545584412292884e+00	 2.064751801063904e+01	 8.465818954407196e-01
-3.181980515356574e+00	 2.128391411370881e+01	 8.484262627602510e-01
-3.818376618419324e+00	 2.192031021677956e+01	 8.467171290999123e-01
-4.454772721481136e+00	 2.255670631985130e+01	 8.452031179273835e-01
-5.091168824542001e+00	 2.319310242292400e+01	 8.435673693999811e-01
 1.555634918587750e+00	 1.711198410471225e+01	 7.163191563028213e-01
 9.192388155186317e-01	 1.774838020777720e+01	 7.640796878766453e-01
 2.828427124503789e-01	 1.838477631084277e+01	 7.966578583887642e-01
-3.535533906170091e-01	 1.902117241390892e+01	 8.204655717443552e-01
-9.899494936835319e-01	 1.965756851697570e+01	 8.367093149264193e-01
-1.626345596749190e+00	 2.029396462004307e+01	 8.465954745824975e-01
-2.262741699813983e+00	 2.093036072311104e+01	 8.513303370360462e-01
-2.899137802877912e+00	 2.156675682617963e+01	 8.521200882978209e-01
-3.535533905940974e+00	 2.220315292924882e+01	 8.469531497652004e-01
-4.171930009003173e+00	 2.283954903231861e+01	 8.423181653858862e-01
-4.808326112064499e+00	 2.347594513538900e+01	 8.382355197300901e-01
 1.838477631066000e+00	 1.739482681718400e+01	 7.478034549084158e-01
 1.202081527997179e+00	 1.803122292024976e+01	 7.854654772842575e-01
 5.656854249291188e-01	 1.866761902331584e+01	 8.135611797325853e-01
-7.071067813818174e-02	 1.930401512638224e+01	 8.332971511230971e-01
-7.071067812047221e-01	 1.994041122944897e+01	 8.458798799795592e-01
-1.343502884270503e+00	 2.057680733251600e+01	 8.525157544911858e-01
-1.979898987335523e+00	 2.121320343558337e+01	 8.544110625240274e-01
-2.616295090399784e+00	 2.184959953865105e+01	 8.527719916323397e-01
-3.252691193463285e+00	 2.248599564171905e+01	 8.468057691209042e-01
-3.889087296526025e+00	 2.312239174478736e+01	 8.394287052938465e-01
-4.525483399588000e+00	 2.375878784785600e+01	 8.332780546065157e-01
 2.121320343543750e+00	 1.767766952965625e+01	 7.708718274255579e-01
 1.484924240475312e+00	 1.831406563272256e+01	 8.039192317359759e-01
 8.485281374074984e-01	 1.895046173578900e+01	 8.278110477417295e-01
 2.121320343403107e-01	 1.958685783885556e+01	 8.437538658518757e-01
-4.242640687262521e-01	 2.022325394192225e+01	 8.529541761304539e-01
-1.060660171792190e+00	 2.085965004498907e+01	 8.566183683078650e-01
-1.697056274857503e+00	 2.149604614805600e+01	 8.559527317922628e-01
-2.333452377922192e+00	 2.213244225112307e+01	 8.521634556809163e-01
-2.969848480986254e+00	 2.276883835419026e+01	 8.462475932602328e-01
-3.606244584049692e+00	 2.340523445725757e+01	 8.365073437384121e-01
-4.242640687112500e+00	 2.404163056032500e+01	 8.286675801104014e-01
 2.404163056021000e+00	 1.796051224212900e+01	 7.908582476872590e-01
 1.767766952953029e+00	 1.859690834519561e+01	 8.195696081856868e-01
 1.131370849885519e+00	 1.923330444826224e+01	 8.395361190660855e-01
 4.949747468184682e-01	 1.986970055132889e+01	 8.519643722763844e-01
-1.414213562481222e-01	 2.050609665439557e+01	 8.580608594204040e-01
-7.778174593142529e-01	 2.114249275746225e+01	 8.590319717692494e-01
-1.414213562379924e+00	 2.177888886052897e+01	 8.560840002726784e-01
-2.050609665445134e+00	 2.241528496359569e+01	 8.504231355704900e-01
-2.687005768509884e+00	 2.305168106666244e+01	 8.432554680038995e-01
-3.323401871574176e+00	 2.368807716972922e+01	 8.335266877863261e-01
-3.959797974638000e+00	 2.432447327279600e+01	 8.309167853755612e-01
 2.687005768497750e+00	 1.824335495460225e+01	 8.078913684951088e-01
 2.050609665430331e+00	 1.887975105766890e+01	 8.325452591312801e-01
 1.414213562363179e+00	 1.951614716073556e+01	 8.488650458996528e-01
 7.778174592962905e-01	 2.015254326380223e+01	 8.580573222865344e-01
 1.414213562296678e-01	 2.078893936686890e+01	 8.613285814350433e-01
-4.949747468366905e-01	 2.142533546993557e+01	 8.598852161564858e-01
-1.131370849902783e+00	 2.206173157300224e+01	 8.549335189417451e-01
-1.767766952968612e+00	 2.269812767606893e+01	 8.476796819726522e-01
-2.404163056034175e+00	 2.333452377913562e+01	 8.393297971333668e-01
-3.040559159099473e+00	 2.397091988220231e+01	 8.304593454838619e-01
-3.676955262164500e+00	 2.460731598526900e+01	 8.374265030994604e-01
 2.969848480974000e+00	 1.852619766707600e+01	 8.216107324649965e-01
 2.333452377907219e+00	 1.916259377014244e+01	 8.429748326148684e-01
 1.697056274840479e+00	 1.979898987320897e+01	 8.559264759807623e-01
 1.060660171773778e+00	 2.043538597627557e+01	 8.621613633166822e-01
 4.242640687071176e-01	 2.107178207934225e+01	 8.628859893045475e-01
-2.121320343595030e-01	 2.170817818240900e+01	 8.593067482953818e-01
-8.485281374260834e-01	 2.234457428547584e+01	 8.526299343206947e-01
-1.484924240492624e+00	 2.298097038854276e+01	 8.440617411038596e-01
-2.121320343559125e+00	 2.361736649160976e+01	 8.348082620714921e-01
-2.757716446625585e+00	 2.425376259467685e+01	 8.307332989130454e-01
-3.394112549692001e+00	 2.489015869774400e+01	 8.449223698495080e-01
 3.252691193449750e+00	 1.880904037955025e+01	 8.294010801536273e-01
 2.616295090383692e+00	 1.944543648261622e+01	 8.509869722230062e-01
 1.979898987317418e+00	 2.008183258568244e+01	 8.608490525922939e-01
 1.343502884250930e+00	 2.071822868874890e+01	 8.644051383458365e-01
 7.071067811842275e-01	 2.135462479181561e+01	 8.628617257038598e-01
 7.071067811730961e-02	 2.199102089488256e+01	 8.574252105566109e-01
-5.656854249498237e-01	 2.262741699794977e+01	 8.493018884757351e-01
-1.202081528017172e+00	 2.326381310101721e+01	 8.396979547256547e-01
-1.838477631084735e+00	 2.390020920408489e+01	 8.298195042749439e-01
-2.474873734152513e+00	 2.453660530715283e+01	 8.373549606206373e-01
-3.111269837220500e+00	 2.517300141022100e+01	 8.533858014954941e-01
 3.535533905925000e+00	 1.909188309202500e+01	 8.364050622444028e-01
 2.899137802859750e+00	 1.972827919509026e+01	 8.567103170869024e-01
 2.262741699793998e+00	 2.036467529815600e+01	 8.637614145618928e-01
 1.626345596727748e+00	 2.100107140122225e+01	 8.649172858978775e-01
 9.899494936609978e-01	 2.163746750428901e+01	 8.613844288529016e-01
 3.535533905937472e-01	 2.227386360735625e+01	 8.543692408559365e-01
-2.828427124740034e-01	 2.291025971042401e+01	 8.450780190182730e-01
-9.192388155422540e-01	 2.354665581349225e+01	 8.347169601448827e-01
-1.555634918611005e+00	 2.418305191656101e+01	 8.264785098757657e-01
-2.192031021680255e+00	 2.481944801963025e+01	 8.444692512950982e-01
-2.828427124750000e+00	 2.545584412270000e+01	 8.621757908687983e-01
 9.899494936600000e+00	 1.272792206135000e+01	 1.377001001951837e+00
 9.263098833530250e+00	 1.336431816441975e+01	 1.252812388170325e+00
 8.626702730461000e+00	 1.400071426748900e+01	 1.144736178892194e+00
 7.990306627392250e+00	 1.463711037055775e+01	 1.063127500588761e+00
 7.353910524324001e+00	 1.527350647362600e+01	 9.959081340852860e-01
 6.717514421256251e+00	 1.590990257669375e+01	 9.428380293476377e-01
 6.081118318189000e+00	 1.654629867976100e+01	 9.036771363416812e-01
 5.444722215122251e+00	 1.718269478282775e+01	 8.781854050332828e-01
 4.808326112056001e+00	 1.781909088589400e+01	 8.555478555226701e-01
 4.171930008990251e+00	 1.845548698895975e+01	 8.414595016774560e-01
 3.535533905925000e+00	 1.909188309202500e+01	 8.364050622444028e-01
 1.018233764908000e+01	 1.301076477382050e+01	 1.341126206854411e+00
 9.545941546008487e+00	 1.364716087689182e+01	 1.230945584698603e+00
 8.909545442937748e+00	 1.428355697996239e+01	 1.129573249652521e+00
 8.273149339867789e+00	 1.491995308303220e+01	 1.053800572292273e+00
 7.636753236798599e+00	 1.555634918610125e+01	 9.935199558485309e-01
 7.000357133730187e+00	 1.619274528916957e+01	 9.462120794150508e-01
 6.363961030662550e+00	 1.682914139223711e+01	 9.116368929577384e-01
 5.727564927595687e+00	 1.746553749530390e+01	 8.865099233872995e-01
 5.091168824529601e+00	 1.810193359836994e+01	 8.657423789563721e-01
 4.454772721464288e+00	 1.873832970143522e+01	 8.534700130292543e-01
 3.818376618399751e+00	 1.937472580449975e+01	 8.492606791822005e-01
 1.046518036156000e+01	 1.329360748629200e+01	 1.307467827054989e+00
 9.828784258486900e+00	 1.393000358936434e+01	 1.210776098151114e+00
 9.192388155414802e+00	 1.456639969243576e+01	 1.121571413738632e+00
 8.555992052343699e+00	 1.520279579550626e+01	 1.047281794802613e+00
 7.919595949273599e+00	 1.583919189857584e+01	 9.934673421940389e-01
 7.283199846204502e+00	 1.647558800164450e+01	 9.514491078401994e-01
 6.646803743136401e+00	 1.711198410471224e+01	 9.209870417070261e-01
 6.010407640069301e+00	 1.774838020777906e+01	 8.958259370280064e-01
 5.374011537003201e+00	 1.838477631084496e+01	 8.773853245589198e-01
 4.737615433938100e+00	 1.902117241390994e+01	 8.664690074594890e-01
 4.101219330874000e+00	 1.965756851697400e+01	 8.626448366383590e-01
 1.074802307404000e+01	 1.357645019876450e+01	 1.276156223483550e+00
 1.011162697096549e+01	 1.421284630183730e+01	 1.192434291033552e+00
 9.475230867892149e+00	 1.484924240490911e+01	 1.114878162306535e+00
 8.838834764819987e+00	 1.548563850797992e+01	 1.043953722496221e+00
 8.202438661748999e+00	 1.612203461104974e+01	 9.957948570192194e-01
 7.566042558679189e+00	 1.675843071411856e+01	 9.585936785204977e-01
 6.929646455610551e+00	 1.739482681718639e+01	 9.305322279022807e-01
 6.293250352543089e+00	 1.803122292025322e+01	 9.069730110821712e-01
 5.656854249476803e+00	 1.866761902331907e+01	 8.903993954813353e-01
 5.020458146411689e+00	 1.930401512638391e+01	 8.803791886461575e-01
 4.384062043347751e+00	 1.994041122944775e+01	 8.764802388179327e-01
 1.103086578652000e+01	 1.385929291123800e+01	 1.247321754572994e+00
 1.039446968344425e+01	 1.449568901431071e+01	 1.176050523354458e+00
 9.758073580369802e+00	 1.513208511738244e+01	 1.109623856940402e+00
 9.121677477296648e+00	 1.576848122045319e+01	 1.048507632552337e+00
 8.485281374224803e+00	 1.640487732352296e+01	 1.000547064221483e+00
 7.848885271154251e+00	 1.704127342659175e+01	 9.676903553533618e-01
 7.212489168085002e+00	 1.767766952965956e+01	 9.410551178102609e-01
 6.576093065017051e+00	 1.831406563272639e+01	 9.198738506985664e-01
 5.939696961950402e+00	 1.895046173579224e+01	 9.047072973992124e-01
 5.303300858885053e+00	 1.958685783885712e+01	 8.951232627917542e-01
 4.666904755821001e+00	 2.022325394192100e+01	 8.906895924504094e-01
 1.131370849900000e+01	 1.414213562371250e+01	 1.221094776259209e+00
 1.067731239592319e+01	 1.477853172678456e+01	 1.161755152625296e+00
 1.004091629284775e+01	 1.541492782985575e+01	 1.105938856727261e+00
 9.404520189773692e+00	 1.605132393292607e+01	 1.054111757814558e+00
 8.768124086701002e+00	 1.668772003599550e+01	 1.007768527698241e+00
 8.131727983629688e+00	 1.732411613906407e+01	 9.784537209189312e-01
 7.495331880559752e+00	 1.796051224213175e+01	 9.537144115238342e-01
 6.858935777491189e+00	 1.859690834519856e+01	 9.344511635504795e-01
 6.222539674424003e+00	 1.923330444826450e+01	 9.202317385125884e-01
 5.586143571358189e+00	 1.986970055132957e+01	 9.106239386231589e-01
 4.949747468293751e+00	 2.050609665439375e+01	 9.051956067895929e-01
 1.159655121148000e+01	 1.442497833618800e+01	 1.197605641981151e+00
 1.096015510840230e+01	 1.506137443925886e+01	 1.149678533860524e+00
 1.032375900532600e+01	 1.569777054232904e+01	 1.103953518257061e+00
 9.687362902251103e+00	 1.633416664539854e+01	 1.060896456448321e+00
 9.050966799177599e+00	 1.697056274846736e+01	 1.020973217481069e+00
 8.414570696105502e+00	 1.760695885153551e+01	 9.907431473336294e-01
 7.778174593034803e+00	 1.824335495460296e+01	 9.684328187140893e-01
 7.141778489965501e+00	 1.887975105766974e+01	 9.506276598355978e-01
 6.505382386897601e+00	 1.951614716073584e+01	 9.368954295458359e-01
 5.868986283831102e+00	 2.015254326380126e+01	 9.268039273915117e-01
 5.232590180766000e+00	 2.078893936686600e+01	 9.199209936134785e-01
 1.187939392396000e+01	 1.470782104866450e+01	 1.176984702680911e+00
 1.124299782088159e+01	 1.534421715173360e+01	 1.139951019577666e+00
 1.060660171780455e+01	 1.598061325480231e+01	 1.103798195622755e+00
 9.970205614728888e+00	 1.661700935787063e+01	 1.068992084121991e+00
 9.333809511654602e+00	 1.725340546093854e+01	 1.035983233554274e+00
 8.697413408581689e+00	 1.788980156400607e+01	 1.005474325467351e+00
 8.061017305510152e+00	 1.852619766707319e+01	 9.851330515764651e-01
 7.424621202439989e+00	 1.916259377013992e+01	 9.683260522758897e-01
 6.788225099371203e+00	 1.979898987320626e+01	 9.546210837475406e-01
 6.151828996303790e+00	 2.043538597627220e+01	 9.435859428720981e-01
 5.515432893237752e+00	 2.107178207933775e+01	 9.347884672241413e-01
 1.216223663644000e+01	 1.499066376114200e+01	 1.159362306803788e+00
 1.152584053336105e+01	 1.562705986420879e+01	 1.132702959797390e+00
 1.088944443028340e+01	 1.626345596727556e+01	 1.105603240420362e+00
 1.025304832720705e+01	 1.689985207034232e+01	 1.078528994006940e+00
 9.616652224132002e+00	 1.753624817340904e+01	 1.051659139510660e+00
 8.980256121058252e+00	 1.817264427647575e+01	 1.024419573781429e+00
 8.343860017985801e+00	 1.880904037954244e+01	 1.003737824830629e+00
 7.707463914914652e+00	 1.944543648260911e+01	 9.874690561174854e-01
 7.071067811844802e+00	 2.008183258567576e+01	 9.733314168903752e-01
 6.434671708776253e+00	 2.071822868874239e+01	 9.608927013642259e-01
 5.798275605709002e+00	 2.135462479180900e+01	 9.497207444476112e-01
 1.244507934892000e+01	 1.527350647362050e+01	 1.144868800298369e+00
 1.180868324584069e+01	 1.590990257668443e+01	 1.128064702043573e+00
 1.117228714276255e+01	 1.654629867974879e+01	 1.109499001749052e+00
 1.053589103968559e+01	 1.718269478281361e+01	 1.089637536777618e+00
 9.899494936609806e+00	 1.781909088587887e+01	 1.068517509840684e+00
 9.263098833535192e+00	 1.845548698894457e+01	 1.045917467201238e+00
 8.626702730461751e+00	 1.909188309201071e+01	 1.024169855720358e+00
 7.990306627389490e+00	 1.972827919507731e+01	 1.007979389130554e+00
 7.353910524318403e+00	 2.036467529814434e+01	 9.929491472709886e-01
 6.717514421248490e+00	 2.100107140121182e+01	 9.786469216911091e-01
 6.081118318179752e+00	 2.163746750427975e+01	 9.646405446337569e-01
 1.272792206140000e+01	 1.555634918610000e+01	 1.133634526616594e+00
 1.209152595832050e+01	 1.619274528916050e+01	 1.126166591343386e+00
 1.145512985524200e+01	 1.682914139222200e+01	 1.115615826211210e+00
 1.081873375216450e+01	 1.746553749528450e+01	 1.102415510923905e+00
 1.018233764908800e+01	 1.810193359834800e+01	 1.086585491014089e+00
 9.545941546012500e+00	 1.873832970141250e+01	 1.068132627416912e+00
 8.909545442937999e+00	 1.937472580447800e+01	 1.047116762715655e+00
 8.273149339864499e+00	 2.001112190754450e+01	 1.029779771609189e+00
 7.636753236792002e+00	 2.064751801061200e+01	 1.013396995709883e+00
 7.000357133720501e+00	 2.128391411368050e+01	 9.967713251997468e-01
 6.363961030650000e+00	 2.192031021675000e+01	 9.794705896561630e-01
 3.535533905925000e+00	 1.909188309202500e+01	 8.364050622444028e-01
 2.899137802859750e+00	 1.972827919509026e+01	 8.567103170869024e-01
 2.262741699793998e+00	 2.036467529815600e+01	 8.637614145618928e-01
 1.626345596727748e+00	 2.100107140122225e+01	 8.649172858978775e-01
 9.899494936609978e-01	 2.163746750428901e+01	 8.613844288529016e-01
 3.535533905937472e-01	 2.227386360735625e+01	 8.543692408559365e-01
-2.828427124740034e-01	 2.291025971042401e+01	 8.450780190182730e-01
-9.192388155422540e-01	 2.354665581349225e+01	 8.347169601448827e-01
-1.555634918611005e+00	 2.418305191656101e+01	 8.264785098757657e-01
-2.192031021680255e+00	 2.481944801963025e+01	 8.444692512950982e-01
-2.828427124750000e+00	 2.545584412270000e+01	 8.621757908687983e-01
 3.818376618399751e+00	 1.937472580449975e+01	 8.492606791822005e-01
 3.181980515335222e+00	 2.001112190756429e+01	 8.658658898242980e-01
 2.545584412269940e+00	 2.064751801062961e+01	 8.740211672833704e-01
 1.909188309203901e+00	 2.128391411369569e+01	 8.735601747228313e-01
 1.272792206137108e+00	 2.192031021676256e+01	 8.683198500535658e-01
 6.363961030695598e-01	 2.255670631983019e+01	 8.595065922427891e-01
 1.257084714101353e-12	 2.319310242289861e+01	 8.483266999409362e-01
-6.363961030678011e-01	 2.382949852596779e+01	 8.359863714930461e-01
-1.272792206137614e+00	 2.446589462903776e+01	 8.383306665654886e-01
-1.909188309208182e+00	 2.510229073210850e+01	 8.543294224999300e-01
-2.545584412279500e+00	 2.573868683518000e+01	 8.701368072590902e-01
 4.101219330874000e+00	 1.965756851697400e+01	 8.626448366383590e-01
 3.464823227809940e+00	 2.029396462003810e+01	 8.750606987265270e-01
 2.828427124744960e+00	 2.093036072310321e+01	 8.833949409909599e-01
 2.192031021679059e+00	 2.156675682616931e+01	 8.812944041204280e-01
 1.555634918612238e+00	 2.220315292923640e+01	 8.743239384750439e-01
 9.192388155444977e-01	 2.283954903230450e+01	 8.636899445597662e-01
 2.828427124758373e-01	 2.347594513537361e+01	 8.505987225636857e-01
-3.535533905937434e-01	 2.411234123844370e+01	 8.362564723714107e-01
-9.899494936642438e-01	 2.474873734151481e+01	 8.494294465879356e-01
-1.626345596735665e+00	 2.538513344458691e+01	 8.634801895261042e-01
-2.262741699807999e+00	 2.602152954766000e+01	 8.774323908458801e-01
 4.384062043347751e+00	 1.994041122944775e+01	 8.764802388179327e-01
 3.747665940283903e+00	 2.057680733251169e+01	 8.847919616600858e-01
 3.111269837219059e+00	 2.121320343557680e+01	 8.905194328964399e-01
 2.474873734153222e+00	 2.184959953864309e+01	 8.882485992504762e-01
 1.838477631086389e+00	 2.248599564171055e+01	 8.795253189735103e-01
 1.202081528018560e+00	 2.312239174477919e+01	 8.670479223592095e-01
 5.656854249497373e-01	 2.375878784784900e+01	 8.520227111348304e-01
-7.071067812008076e-02	 2.439518395091999e+01	 8.474480997070660e-01
-7.071067811908938e-01	 2.503158005399216e+01	 8.597947831028043e-01
-1.343502884262702e+00	 2.566797615706549e+01	 8.719414855718223e-01
-1.979898987335499e+00	 2.630437226014000e+01	 8.840824748658394e-01
 4.666904755821001e+00	 2.022325394192100e+01	 8.906895924504094e-01
 4.030508652757111e+00	 2.085965004498505e+01	 8.949823858815534e-01
 3.394112549692240e+00	 2.149604614805040e+01	 8.969478144596550e-01
 2.757716446626389e+00	 2.213244225111706e+01	 8.945513808185279e-01
 2.121320343559559e+00	 2.276883835418500e+01	 8.840526119509849e-01
 1.484924240491748e+00	 2.340523445725426e+01	 8.697091457394137e-01
 8.485281374229575e-01	 2.404163056032480e+01	 8.527272854487336e-01
 2.121320343531870e-01	 2.467802666339666e+01	 8.590528219963436e-01
-4.242640687175635e-01	 2.531442276646981e+01	 8.694466099638636e-01
-1.060660171789294e+00	 2.595081886954425e+01	 8.797332445293718e-01
-1.697056274861999e+00	 2.658721497262000e+01	 8.901069932497422e-01
 4.949747468293751e+00	 2.050609665439375e+01	 9.051956067895929e-01
 4.313351365229563e+00	 2.114249275745819e+01	 9.055546811717512e-01
 3.676955262164500e+00	 2.177888886052400e+01	 9.038432739847797e-01
 3.040559159098561e+00	 2.241528496359119e+01	 8.996293501900585e-01
 2.404163056031749e+00	 2.305168106665976e+01	 8.880344333555638e-01
 1.767766952964061e+00	 2.368807716972969e+01	 8.718022303448516e-01
 1.131370849895498e+00	 2.432447327280101e+01	 8.612265508867987e-01
 4.949747468260597e-01	 2.496086937587369e+01	 8.699199954620268e-01
-1.414213562442533e-01	 2.559726547894776e+01	 8.784048617189861e-01
-7.778174593154412e-01	 2.623366158202320e+01	 8.868754009851589e-01
-1.414213562387499e+00	 2.687005768510000e+01	 8.955258806224965e-01
 5.232590180766000e+00	 2.078893936686600e+01	 9.199209936134785e-01
 4.596194077701260e+00	 2.142533546993110e+01	 9.164315598356256e-01
 3.959797974635840e+00	 2.206173157299760e+01	 9.111285243037978e-01
 3.323401871569739e+00	 2.269812767606550e+01	 9.035798493120650e-01
 2.687005768502959e+00	 2.333452377913481e+01	 8.915993946816221e-01
 2.050609665435498e+00	 2.397091988220550e+01	 8.734557873663824e-01
 1.414213562367358e+00	 2.460731598527761e+01	 8.733338841794960e-01
 7.778174592985374e-01	 2.524371208835111e+01	 8.800695553075450e-01
 1.414213562290370e-01	 2.588010819142601e+01	 8.866894736101824e-01
-4.949747468411435e-01	 2.651650429450230e+01	 8.933878902197446e-01
-1.131370849911999e+00	 2.715290039758001e+01	 9.003590723031840e-01
 5.515432893237752e+00	 2.107178207933775e+01	 9.347884672241413e-01
 4.879036790172202e+00	 2.170817818240379e+01	 9.275357367021305e-01
 4.242640687106260e+00	 2.234457428547120e+01	 9.187262807726250e-01
 3.606244584039923e+00	 2.298097038853999e+01	 9.079280590626603e-01
 2.969848480973189e+00	 2.361736649161015e+01	 8.947090718736865e-01
 2.333452377906061e+00	 2.425376259468170e+01	 8.796605289019556e-01
 1.697056274838538e+00	 2.489015869775460e+01	 8.846995648413053e-01
 1.060660171770620e+00	 2.552655480082889e+01	 8.895214374304796e-01
 4.242640687023073e-01	 2.616295090390455e+01	 8.943203815736337e-01
-2.121320343664008e-01	 2.679934700698159e+01	 8.992906482078780e-01
-8.485281374354983e-01	 2.743574311006000e+01	 9.046265043050880e-01
 5.798275605709002e+00	 2.135462479180900e+01	 9.497207444476112e-01
 5.161879502642391e+00	 2.199102089487625e+01	 9.387899291241051e-01
 4.525483399575760e+00	 2.262741699794481e+01	 9.265592612709947e-01
 3.889087296509111e+00	 2.326381310101465e+01	 9.125966978485582e-01
 3.252691193442439e+00	 2.390020920408580e+01	 8.964702364912257e-01
 2.616295090375749e+00	 2.453660530715826e+01	 8.922671405392643e-01
 1.979898987309039e+00	 2.517300141023201e+01	 8.953435294253512e-01
 1.343502884242308e+00	 2.580939751330705e+01	 8.982955784226025e-01
 7.071067811755576e-01	 2.644579361638341e+01	 9.013175222397259e-01
 7.071067810878684e-02	 2.708218971946106e+01	 9.046036116185289e-01
-5.656854249579980e-01	 2.771858582254001e+01	 9.083481133357318e-01
 6.081118318179752e+00	 2.163746750427975e+01	 9.646405446337569e-01
 5.444722215111825e+00	 2.227386360734850e+01	 9.501168569781560e-01
 4.808326112044342e+00	 2.291025971041840e+01	 9.345501862023425e-01
 4.171930008977302e+00	 2.354665581348949e+01	 9.175084866000999e-01
 3.535533905910710e+00	 2.418305191656175e+01	 9.002389544366225e-01
 2.899137802844562e+00	 2.481944801963519e+01	 9.041279972470703e-01
 2.262741699778859e+00	 2.545584412270981e+01	 9.052857151789639e-01
 1.626345596713600e+00	 2.609224022578559e+01	 9.064119155699099e-01
 9.899494936487879e-01	 2.672863632886256e+01	 9.077008329330870e-01
 3.535533905844196e-01	 2.736503243194069e+01	 9.093467178149249e-01
-2.828427124794977e-01	 2.800142853502000e+01	 9.115438367969092e-01
 6.363961030650000e+00	 2.192031021675000e+01	 9.794705896561630e-01
 5.727564927580500e+00	 2.255670631982050e+01	 9.614392426645386e-01
 5.091168824511998e+00	 2.319310242289200e+01	 9.426217784936735e-01
 4.454772721444498e+00	 2.382949852596450e+01	 9.225861487711348e-01
 3.818376618377998e+00	 2.446589462903800e+01	 9.127171021878669e-01
 3.181980515312497e+00	 2.510229073211250e+01	 9.142368339221656e-01
 2.545584412247996e+00	 2.573868683518801e+01	 9.145460600437217e-01
 1.909188309184496e+00	 2.637508293826451e+01	 9.138903868526551e-01
 1.272792206121996e+00	 2.701147904134201e+01	 9.134902516726178e-01
 6.363961030604948e-01	 2.764787514442050e+01	 9.135399048545814e-01
 0.000000000000000e+00	 2.828427124750000e+01	 9.142336127847209e-01
-7.071067811900000e+00	-7.071067811900000e+00	 1.203096462780552e+00
-7.071067811900001e+00	-7.071067811900001e+00	 1.203096462780551e+00
-7.071067811900001e+00	-7.071067811900001e+00	 1.203096462780552e+00
-7.071067811900000e+00	-7.071067811900000e+00	 1.203096462780553e+00
-7.071067811899999e+00	-7.071067811899999e+00	 1.203096462780552e+00
-7.071067811900000e+00	-7.071067811900000e+00	 1.203096462780552e+00
-7.071067811900000e+00	-7.071067811900000e+00	 1.203096462780552e+00
-7.071067811900000e+00	-7.071067811900000e+00	 1.203096462780550e+00
-7.071067811900000e+00	-7.071067811900000e+00	 1.203096462780552e+00
-7.071067811900000e+00	-7.071067811900000e+00	 1.203096462780550e+00
-7.071067811900000e+00	-7.071067811900000e+00	 1.203096462780552e+00
-7.067532277994000e+00	-7.067532277994000e+00	 1.475940776401605e+01
-7.067885831384601e+00	-7.067178724603401e+00	 1.818517318331717e+01
-7.068239384775199e+00	-7.066825171212799e+00	 2.113609099552579e+01
-7.068592938165800e+00	-7.066471617822200e+00	 2.361216120060326e+01
-7.068946491556400e+00	-7.066118064431598e+00	 2.561338379857180e+01
-7.069300044947000e+00	-7.065764511041000e+00	 2.713975878942360e+01
-7.069653598337601e+00	-7.065410957650400e+00	 2.819128617316272e+01
-7.070007151728200e+00	-7.065057404259800e+00	 2.876796594977773e+01
-7.070360705118799e+00	-7.064703850869200e+00	 2.886979811929631e+01
-7.070714258509400e+00	-7.064350297478600e+00	 2.849678268167893e+01
-7.071067811900000e+00	-7.063996744088000e+00	 2.764891963695905e+01
-7.056925676275999e+00	-7.056925676275999e+00	 7.414378640941806e+00
-7.058339889838400e+00	-7.055511462713601e+00	 9.119531285054737e+00
-7.059754103400800e+00	-7.054097249151200e+00	 1.058794282488985e+01
-7.061168316963199e+00	-7.052683035588799e+00	 1.181961326042700e+01
-7.062582530525599e+00	-7.051268822026400e+00	 1.281454259164959e+01
-7.063996744087999e+00	-7.049854608463999e+00	 1.357273081854111e+01
-7.065410957650399e+00	-7.048440394901599e+00	 1.409417794108504e+01
-7.066825171212799e+00	-7.047026181339199e+00	 1.437888395926349e+01
-7.068239384775200e+00	-7.045611967776801e+00	 1.442684887305985e+01
-7.069653598337601e+00	-7.044197754214400e+00	 1.423807268245792e+01
-7.071067811900000e+00	-7.042783540652000e+00	 1.381255538743951e+01
-7.039248006745999e+00	-7.039248006745999e+00	 4.932389850114967e+00
-7.042429987261401e+00	-7.036066026230601e+00	 6.068874380194394e+00
-7.045611967776800e+00	-7.032884045715201e+00	 7.047422347873504e+00
-7.048793948292199e+00	-7.029702065199800e+00	 7.868033752960926e+00
-7.051975928807600e+00	-7.026520084684400e+00	 8.530708595262366e+00
-7.055157909322999e+00	-7.023338104169000e+00	 9.035446874585135e+00
-7.058339889838400e+00	-7.020156123653600e+00	 9.382248590736177e+00
-7.061521870353801e+00	-7.016974143138199e+00	 9.571113743522172e+00
-7.064703850869200e+00	-7.013792162622800e+00	 9.602042332750042e+00
-7.067885831384600e+00	-7.010610182107400e+00	 9.475034358226358e+00
-7.071067811899999e+00	-7.007428201591999e+00	 9.190089819758237e+00
-7.014499269404000e+00	-7.014499269404000e+00	 3.685927817483139e+00
-7.020156123653600e+00	-7.008842415154400e+00	 4.539018714995136e+00
-7.025812977903199e+00	-7.003185560904799e+00	 5.273469381263247e+00
-7.031469832152800e+00	-6.997528706655200e+00	 5.889279815201429e+00
-7.037126686402400e+00	-6.991871852405600e+00	 6.386450015724420e+00
-7.042783540652000e+00	-6.986214998156000e+00	 6.764979981747117e+00
-7.048440394901601e+00	-6.980558143906401e+00	 7.024869712184138e+00
-7.054097249151201e+00	-6.974901289656801e+00	 7.166119205950016e+00
-7.059754103400801e+00	-6.969244435407201e+00	 7.188728461959757e+00
-7.065410957650401e+00	-6.963587581157601e+00	 7.092697479127865e+00
-7.071067811900000e+00	-6.957930726908000e+00	 6.878026256369047e+00
-6.982679464249999e+00	-6.982679464249999e+00	 2.937065463976885e+00
-6.991518299015001e+00	-6.973840629485002e+00	 3.620445750658766e+00
-7.000357133780000e+00	-6.965001794720001e+00	 4.208729481804168e+00
-7.009195968545001e+00	-6.956162959955000e+00	 4.701916653273085e+00
-7.018034803310000e+00	-6.947324125190000e+00	 5.100007260925271e+00
-7.026873638075000e+00	-6.938485290425000e+00	 5.403001300620582e+00
-7.035712472839999e+00	-6.929646455659999e+00	 5.610898768218847e+00
-7.044551307604999e+00	-6.920807620894999e+00	 5.723699659580042e+00
-7.053390142370000e+00	-6.911968786130000e+00	 5.741403970563928e+00
-7.062228977135001e+00	-6.903129951365001e+00	 5.664011697030471e+00
-7.071067811900000e+00	-6.894291116600000e+00	 5.491522834839457e+00
-6.943788591283999e+00	-6.943788591283999e+00	 2.438108937655812e+00
-6.956516513345600e+00	-6.931060669222400e+00	 3.008506588048970e+00
-6.969244435407200e+00	-6.918332747160799e+00	 3.499488932691849e+00
-6.981972357468800e+00	-6.905604825099201e+00	 3.911055959222316e+00
-6.994700279530399e+00	-6.892876903037599e+00	 4.243207655277850e+00
-7.007428201592000e+00	-6.880148980976000e+00	 4.495944008496029e+00
-7.020156123653599e+00	-6.867421058914399e+00	 4.669265006514575e+00
-7.032884045715201e+00	-6.854693136852801e+00	 4.763170636971195e+00
-7.045611967776801e+00	-6.841965214791201e+00	 4.777660887503456e+00
-7.058339889838400e+00	-6.829237292729600e+00	 4.712735745749105e+00
-7.071067811899999e+00	-6.816509370667999e+00	 4.568395199345909e+00
-6.897826650506000e+00	-6.897826650506000e+00	 2.082489770824582e+00
-6.915150766645398e+00	-6.880502534366599e+00	 2.572282845655681e+00
-6.932474882784800e+00	-6.863178418227200e+00	 2.993853977081614e+00
-6.949798998924201e+00	-6.845854302087799e+00	 3.347203133929011e+00
-6.967123115063600e+00	-6.828530185948400e+00	 3.632330285024628e+00
-6.984447231202999e+00	-6.811206069809000e+00	 3.849235399195213e+00
-7.001771347342399e+00	-6.793881953669599e+00	 3.997918445267624e+00
-7.019095463481801e+00	-6.776557837530200e+00	 4.078379392068714e+00
-7.036419579621198e+00	-6.759233721390798e+00	 4.090618208425501e+00
-7.053743695760600e+00	-6.741909605251400e+00	 4.034634863165027e+00
-7.071067811900000e+00	-6.724585489112000e+00	 3.910429325114388e+00
-6.844793641916000e+00	-6.844793641916000e+00	 1.816794017016498e+00
-6.867421058914400e+00	-6.822166224917600e+00	 2.246205230344118e+00
-6.890048475912799e+00	-6.799538807919199e+00	 2.615784898282597e+00
-6.912675892911201e+00	-6.776911390920801e+00	 2.925532951371899e+00
-6.935303309909600e+00	-6.754283973922401e+00	 3.175449320152175e+00
-6.957930726907999e+00	-6.731656556923999e+00	 3.365533935163840e+00
-6.980558143906398e+00	-6.709029139925598e+00	 3.495786726947390e+00
-7.003185560904798e+00	-6.686401722927198e+00	 3.566207626043674e+00
-7.025812977903199e+00	-6.663774305928799e+00	 3.576796562993588e+00
-7.048440394901601e+00	-6.641146888930400e+00	 3.527553468338371e+00
-7.071067811900001e+00	-6.618519471932001e+00	 3.418478272619346e+00
-6.784689565513999e+00	-6.784689565513999e+00	 1.611301440427120e+00
-6.813327390152599e+00	-6.756051740875400e+00	 1.993808428481860e+00
-6.841965214791201e+00	-6.727413916236801e+00	 2.323006400910043e+00
-6.870603039429801e+00	-6.698776091598202e+00	 2.598895216896341e+00
-6.899240864068400e+00	-6.670138266959600e+00	 2.821474735626129e+00
-6.927878688707001e+00	-6.641500442321001e+00	 2.990744816285209e+00
-6.956516513345600e+00	-6.612862617682399e+00	 3.106705318059882e+00
-6.985154337984198e+00	-6.584224793043798e+00	 3.169356100136951e+00
-7.013792162622800e+00	-6.555586968405199e+00	 3.178697021703770e+00
-7.042429987261399e+00	-6.526949143766600e+00	 3.134727941948192e+00
-7.071067811899999e+00	-6.498311319128000e+00	 3.037448720058533e+00
-6.717514421300000e+00	-6.717514421300000e+00	 1.448164033300171e+00
-6.752869760360000e+00	-6.682159082240001e+00	 1.793201107049138e+00
-6.788225099420001e+00	-6.646803743180000e+00	 2.090144408739574e+00
-6.823580438480000e+00	-6.611448404120000e+00	 2.338993673403216e+00
-6.858935777539999e+00	-6.576093065059998e+00	 2.539748636072883e+00
-6.894291116600000e+00	-6.540737726000000e+00	 2.692409031782582e+00
-6.929646455660000e+00	-6.505382386940000e+00	 2.796974595567542e+00
-6.965001794720000e+00	-6.470027047880000e+00	 2.853445062464170e+00
-7.000357133780000e+00	-6.434671708820000e+00	 2.861820167510035e+00
-7.035712472840000e+00	-6.399316369760000e+00	 2.822099645743909e+00
-7.071067811900000e+00	-6.363961030700001e+00	 2.734283232205743e+00
-6.717514421300000e+00	-6.717514421300000e+00	 1.448164033300171e+00
-6.752869760360000e+00	-6.682159082240001e+00	 1.793201107049138e+00
-6.788225099420001e+00	-6.646803743180000e+00	 2.090144408739574e+00
-6.823580438480000e+00	-6.611448404120000e+00	 2.338993673403216e+00
-6.858935777539999e+00	-6.576093065059998e+00	 2.539748636072883e+00
-6.894291116600000e+00	-6.540737726000000e+00	 2.692409031782582e+00
-6.929646455660000e+00	-6.505382386940000e+00	 2.796974595567542e+00
-6.965001794720000e+00	-6.470027047880000e+00	 2.853445062464170e+00
-7.000357133780000e+00	-6.434671708820000e+00	 2.861820167510035e+00
-7.035712472840000e+00	-6.399316369760000e+00	 2.822099645743909e+00
-7.071067811900000e+00	-6.363961030700001e+00	 2.734283232205743e+00
-6.643268209274000e+00	-6.643268209274000e+00	 1.273871150586444e+00
-6.686048169536599e+00	-6.600488249011398e+00	 1.593366850347850e+00
-6.728828129799202e+00	-6.557708288748801e+00	 1.869438943491236e+00
-6.771608090061800e+00	-6.514928328486200e+00	 2.102086960609687e+00
-6.814388050324401e+00	-6.472148368223601e+00	 2.291310432298812e+00
-6.857168010586999e+00	-6.429368407961000e+00	 2.437108889156775e+00
-6.899947970849601e+00	-6.386588447698400e+00	 2.539481861784266e+00
-6.942727931112200e+00	-6.343808487435800e+00	 2.598428880784519e+00
-6.985507891374802e+00	-6.301028527173202e+00	 2.613949476763288e+00
-7.028287851637398e+00	-6.258248566910598e+00	 2.586043180328895e+00
-7.071067811900000e+00	-6.215468606648000e+00	 2.514709522092172e+00
-6.561950929436001e+00	-6.561950929436001e+00	 1.137542411738505e+00
-6.612862617682399e+00	-6.511039241189599e+00	 1.434496464214462e+00
-6.663774305928800e+00	-6.460127552943200e+00	 1.691778360004860e+00
-6.714685994175198e+00	-6.409215864696799e+00	 1.909387307920795e+00
-6.765597682421602e+00	-6.358304176450401e+00	 2.087322516778425e+00
-6.816509370668001e+00	-6.307392488204000e+00	 2.225583195399015e+00
-6.867421058914401e+00	-6.256480799957600e+00	 2.324168552608926e+00
-6.918332747160801e+00	-6.205569111711201e+00	 2.383077797239609e+00
-6.969244435407200e+00	-6.154657423464800e+00	 2.402310138127592e+00
-7.020156123653601e+00	-6.103745735218400e+00	 2.381864784114530e+00
-7.071067811900001e+00	-6.052834046971999e+00	 2.321740944047120e+00
-6.473562581786000e+00	-6.473562581786000e+00	 1.028981061538853e+00
-6.533313104797400e+00	-6.413812058774599e+00	 1.305983211439298e+00
-6.593063627808800e+00	-6.354061535763201e+00	 1.546386972899473e+00
-6.652814150820200e+00	-6.294311012751799e+00	 1.750191066973635e+00
-6.712564673831598e+00	-6.234560489740398e+00	 1.917394214725712e+00
-6.772315196843000e+00	-6.174809966728999e+00	 2.047995137229305e+00
-6.832065719854398e+00	-6.115059443717598e+00	 2.141992555567664e+00
-6.891816242865799e+00	-6.055308920706200e+00	 2.199385190833681e+00
-6.951566765877200e+00	-5.995558397694801e+00	 2.220171764129946e+00
-7.011317288888601e+00	-5.935807874683401e+00	 2.204350996568681e+00
-7.071067811900000e+00	-5.876057351671999e+00	 2.151921609271769e+00
-6.378103166323999e+00	-6.378103166323999e+00	 9.413332515581497e-01
-6.447399630881599e+00	-6.308806701766399e+00	 1.200607421411933e+00
-6.516696095439199e+00	-6.239510237208799e+00	 1.425843593647951e+00
-6.585992559996800e+00	-6.170213772651200e+00	 1.617039773190225e+00
-6.655289024554399e+00	-6.100917308093599e+00	 1.774193964980240e+00
-6.724585489112001e+00	-6.031620843536000e+00	 1.897304173976961e+00
-6.793881953669600e+00	-5.962324378978400e+00	 1.986368405156829e+00
-6.863178418227200e+00	-5.893027914420800e+00	 2.041384663513765e+00
-6.932474882784800e+00	-5.823731449863200e+00	 2.062350954059163e+00
-7.001771347342400e+00	-5.754434985305600e+00	 2.049265281821881e+00
-7.071067811900000e+00	-5.685138520748000e+00	 2.002125651848275e+00
-6.275572683050000e+00	-6.275572683050000e+00	 8.698419520437191e-01
-6.355122195935001e+00	-6.196023170165001e+00	 1.113298691971947e+00
-6.434671708819999e+00	-6.116473657279999e+00	 1.324880040410086e+00
-6.514221221704999e+00	-6.036924144394999e+00	 1.504582979228094e+00
-6.593770734590000e+00	-5.957374631510000e+00	 1.652404490326266e+00
-6.673320247474999e+00	-5.877825118625000e+00	 1.768341555635258e+00
-6.752869760360000e+00	-5.798275605740000e+00	 1.852391157116061e+00
-6.832419273244999e+00	-5.718726092854999e+00	 1.904550276760024e+00
-6.911968786130000e+00	-5.639176579970000e+00	 1.924815896588849e+00
-6.991518299015000e+00	-5.559627067084999e+00	 1.913184998654574e+00
-7.071067811900000e+00	-5.480077554199999e+00	 1.869654565039590e+00
-6.165971131964000e+00	-6.165971131964000e+00	 8.111141959720580e-01
-6.256480799957600e+00	-6.075461463970400e+00	 1.040400291158883e+00
-6.346990467951199e+00	-5.984951795976801e+00	 1.239659355869066e+00
-6.437500135944800e+00	-5.894442127983199e+00	 1.408886944717412e+00
-6.528009803938399e+00	-5.803932459989599e+00	 1.548078612369549e+00
-6.618519471932000e+00	-5.713422791995999e+00	 1.657229913541980e+00
-6.709029139925600e+00	-5.622913124002400e+00	 1.736336403002067e+00
-6.799538807919199e+00	-5.532403456008799e+00	 1.785393635568026e+00
-6.890048475912801e+00	-5.441893788015200e+00	 1.804397166108941e+00
-6.980558143906398e+00	-5.351384120021598e+00	 1.793342549544738e+00
-7.071067811900001e+00	-5.260874452027999e+00	 1.752225340846215e+00
-6.049298513065999e+00	-6.049298513065999e+00	 7.626723529593740e-01
-6.151475442949399e+00	-5.947121583182599e+00	 9.792141589688819e-01
-6.253652372832800e+00	-5.844944653299199e+00	 1.167324844797611e+00
-6.355829302716200e+00	-5.742767723415799e+00	 1.326998014833891e+00
-6.458006232599599e+00	-5.640590793532399e+00	 1.458227273548664e+00
-6.560183162483000e+00	-5.538413863648998e+00	 1.561006225495470e+00
-6.662360092366399e+00	-5.436236933765599e+00	 1.635328475310448e+00
-6.764537022249800e+00	-5.334060003882199e+00	 1.681187627712353e+00
-6.866713952133200e+00	-5.231883073998798e+00	 1.698577287502516e+00
-6.968890882016599e+00	-5.129706144115398e+00	 1.687491059564892e+00
-7.071067811900000e+00	-5.027529214231999e+00	 1.647922548866026e+00
-5.925554826355999e+00	-5.925554826355999e+00	 7.226695635728724e-01
-6.040106124910400e+00	-5.811003527801600e+00	 9.277096103623823e-01
-6.154657423464800e+00	-5.696452229247201e+00	 1.105708647032778e+00
-6.269208722019200e+00	-5.581900930692799e+00	 1.256657661554984e+00
-6.383760020573600e+00	-5.467349632138400e+00	 1.380547642030427e+00
-6.498311319128000e+00	-5.352798333583999e+00	 1.477369576691021e+00
-6.612862617682399e+00	-5.238247035029598e+00	 1.547114453899183e+00
-6.727413916236800e+00	-5.123695736475199e+00	 1.589773262147805e+00
-6.841965214791200e+00	-5.009144437920799e+00	 1.605336990060272e+00
-6.956516513345600e+00	-4.894593139366398e+00	 1.593796626390447e+00
-7.071067811900001e+00	-4.780041840811998e+00	 1.555143160022683e+00
-5.794740071833999e+00	-5.794740071833999e+00	 6.897036858765083e-01
-5.922372845840599e+00	-5.667107297827398e+00	 8.843311588398990e-01
-6.050005619847200e+00	-5.539474523820799e+00	 1.053137793856337e+00
-6.177638393853799e+00	-5.411841749814198e+00	 1.196111125471932e+00
-6.305271167860401e+00	-5.284208975807599e+00	 1.313238688433885e+00
-6.432903941866998e+00	-5.156576201800998e+00	 1.404508017690523e+00
-6.560536715873599e+00	-5.028943427794398e+00	 1.469906648391261e+00
-6.688169489880199e+00	-4.901310653787798e+00	 1.509422115886639e+00
-6.815802263886800e+00	-4.773677879781197e+00	 1.523041955728267e+00
-6.943435037893400e+00	-4.646045105774597e+00	 1.510753703668874e+00
-7.071067811900000e+00	-4.518412331767998e+00	 1.472544895662254e+00
-5.656854249500000e+00	-5.656854249500000e+00	 6.626923246559229e-01
-5.798275605740000e+00	-5.515432893260000e+00	 8.478683306435698e-01
-5.939696961980000e+00	-5.374011537020000e+00	 1.008301757914513e+00
-6.081118318220000e+00	-5.232590180780001e+00	 1.143975648831290e+00
-6.222539674460000e+00	-5.091168824540000e+00	 1.254873046059607e+00
-6.363961030700001e+00	-4.949747468300000e+00	 1.340976992568298e+00
-6.505382386939999e+00	-4.808326112060000e+00	 1.402270531629328e+00
-6.646803743180000e+00	-4.666904755820000e+00	 1.438736706817789e+00
-6.788225099420000e+00	-4.525483399580001e+00	 1.450358562011874e+00
-6.929646455659999e+00	-4.384062043340000e+00	 1.437119141392907e+00
-7.071067811900000e+00	-4.242640687100000e+00	 1.399001489445289e+00
-7.071067811900000e+00	-7.071067811900000e+00	 1.203096462780552e+00
-7.071067811900001e+00	-7.071067811900001e+00	 1.203096462780551e+00
-7.071067811900001e+00	-7.071067811900001e+00	 1.203096462780552e+00
-7.071067811900000e+00	-7.071067811900000e+00	 1.203096462780553e+00
-7.071067811899999e+00	-7.071067811899999e+00	 1.203096462780552e+00
-7.071067811900000e+00	-7.071067811900000e+00	 1.203096462780552e+00
-7.071067811900000e+00	-7.071067811900000e+00	 1.203096462780552e+00
-7.071067811900000e+00	-7.071067811900000e+00	 1.203096462780550e+00
-7.071067811900000e+00	-7.071067811900000e+00	 1.203096462780552e+00
-7.071067811900000e+00	-7.071067811900000e+00	 1.203096462780551e+00
-7.071067811900000e+00	-7.071067811900000e+00	 1.203096462780552e+00
-7.071067811900000e+00	-7.063996744088000e+00	 2.809202245235628e+01
-7.071421365290600e+00	-7.064350297478600e+00	 2.989448640444093e+01
-7.071774918681197e+00	-7.064703850869199e+00	 3.148075536991978e+01
-7.072128472071801e+00	-7.065057404259800e+00	 3.285082934879350e+01
-7.072482025462400e+00	-7.065410957650399e+00	 3.400470834106311e+01
-7.072835578853000e+00	-7.065764511041000e+00	 3.494239234672673e+01
-7.073189132243601e+00	-7.066118064431599e+00	 3.566388136578740e+01
-7.073542685634201e+00	-7.066471617822200e+00	 3.616917539824723e+01
-7.073896239024799e+00	-7.066825171212800e+00	 3.645827444408263e+01
-7.074249792415401e+00	-7.067178724603401e+00	 3.653117850334747e+01
-7.074603345806000e+00	-7.067532277994000e+00	 3.638788757598194e+01
-7.071067811900000e+00	-7.042783540652000e+00	 1.397994389398713e+01
-7.072482025462400e+00	-7.044197754214401e+00	 1.488910948669245e+01
-7.073896239024800e+00	-7.045611967776800e+00	 1.569145186838670e+01
-7.075310452587200e+00	-7.047026181339199e+00	 1.638697103908637e+01
-7.076724666149600e+00	-7.048440394901600e+00	 1.697566699880952e+01
-7.078138879711998e+00	-7.049854608463999e+00	 1.745753974757247e+01
-7.079553093274399e+00	-7.051268822026399e+00	 1.783258928539347e+01
-7.080967306836799e+00	-7.052683035588799e+00	 1.810081561228871e+01
-7.082381520399201e+00	-7.054097249151201e+00	 1.826221872827689e+01
-7.083795733961601e+00	-7.055511462713601e+00	 1.831679863337208e+01
-7.085209947524000e+00	-7.056925676275999e+00	 1.826455532759418e+01
-7.071067811899999e+00	-7.007428201591999e+00	 9.325901512615058e+00
-7.074249792415401e+00	-7.010610182107401e+00	 9.929973219472853e+00
-7.077431772930801e+00	-7.013792162622800e+00	 1.046339893952409e+01
-7.080613753446199e+00	-7.016974143138199e+00	 1.092617867296386e+01
-7.083795733961600e+00	-7.020156123653600e+00	 1.131831241998811e+01
-7.086977714477000e+00	-7.023338104169000e+00	 1.163980018079278e+01
-7.090159694992400e+00	-7.026520084684400e+00	 1.189064195557306e+01
-7.093341675507800e+00	-7.029702065199800e+00	 1.207083774452469e+01
-7.096523656023201e+00	-7.032884045715201e+00	 1.218038754784316e+01
-7.099705636538600e+00	-7.036066026230600e+00	 1.221929136572458e+01
-7.102887617053999e+00	-7.039248006745999e+00	 1.218754919836407e+01
-7.071067811900000e+00	-6.957930726908000e+00	 7.009361034116533e+00
-7.076724666149602e+00	-6.963587581157601e+00	 7.459426267684879e+00
-7.082381520399199e+00	-6.969244435407200e+00	 7.856881909712354e+00
-7.088038374648800e+00	-6.974901289656801e+00	 8.201727961298060e+00
-7.093695228898399e+00	-6.980558143906400e+00	 8.493964423541049e+00
-7.099352083148000e+00	-6.986214998155999e+00	 8.733591297540627e+00
-7.105008937397600e+00	-6.991871852405601e+00	 8.920608584395826e+00
-7.110665791647200e+00	-6.997528706655200e+00	 9.055016285205774e+00
-7.116322645896800e+00	-7.003185560904800e+00	 9.136814401069834e+00
-7.121979500146401e+00	-7.008842415154400e+00	 9.166002933086997e+00
-7.127636354396000e+00	-7.014499269404000e+00	 9.142581882356479e+00
-7.071067811900000e+00	-6.894291116600000e+00	 5.623791140876875e+00
-7.079906646665002e+00	-6.903129951365002e+00	 5.980906507562672e+00
-7.088745481430000e+00	-6.911968786130000e+00	 6.296217886721523e+00
-7.097584316195000e+00	-6.920807620895000e+00	 6.569725282546417e+00
-7.106423150960000e+00	-6.929646455659999e+00	 6.801428699230277e+00
-7.115261985725001e+00	-6.938485290425000e+00	 6.991328140965933e+00
-7.124100820490000e+00	-6.947324125190000e+00	 7.139423611946398e+00
-7.132939655254999e+00	-6.956162959954999e+00	 7.245715116364585e+00
-7.141778490019999e+00	-6.965001794720000e+00	 7.310202658413530e+00
-7.150617324785000e+00	-6.973840629485001e+00	 7.332886242286021e+00
-7.159456159549999e+00	-6.982679464249999e+00	 7.313765872175252e+00
-7.071067811899999e+00	-6.816509370667999e+00	 4.702794056474759e+00
-7.083795733961599e+00	-6.829237292729600e+00	 4.997642183902737e+00
-7.096523656023200e+00	-6.841965214791200e+00	 5.257883972060779e+00
-7.109251578084801e+00	-6.854693136852801e+00	 5.483519433468819e+00
-7.121979500146399e+00	-6.867421058914399e+00	 5.674548580646839e+00
-7.134707422208000e+00	-6.880148980976000e+00	 5.830971426114795e+00
-7.147435344269599e+00	-6.892876903037600e+00	 5.952787982392779e+00
-7.160163266331200e+00	-6.905604825099201e+00	 6.039998262000742e+00
-7.172891188392801e+00	-6.918332747160800e+00	 6.092602277458777e+00
-7.185619110454401e+00	-6.931060669222401e+00	 6.110600041286921e+00
-7.198347032516000e+00	-6.943788591283999e+00	 6.093991566005315e+00
-7.071067811900000e+00	-6.724585489112000e+00	 4.047088714115802e+00
-7.088391928039400e+00	-6.741909605251399e+00	 4.297244249984795e+00
-7.105716044178799e+00	-6.759233721390800e+00	 4.517932520384093e+00
-7.123040160318200e+00	-6.776557837530200e+00	 4.709153556884174e+00
-7.140364276457601e+00	-6.793881953669601e+00	 4.870907391055592e+00
-7.157688392597000e+00	-6.811206069809000e+00	 5.003194054468939e+00
-7.175012508736399e+00	-6.828530185948399e+00	 5.106013578694939e+00
-7.192336624875800e+00	-6.845854302087799e+00	 5.179365995304320e+00
-7.209660741015198e+00	-6.863178418227198e+00	 5.223251335867928e+00
-7.226984857154600e+00	-6.880502534366600e+00	 5.237669631956676e+00
-7.244308973294000e+00	-6.897826650506000e+00	 5.222620915141455e+00
-7.071067811900001e+00	-6.618519471932001e+00	 3.557237042372895e+00
-7.093695228898400e+00	-6.641146888930400e+00	 3.773689532017727e+00
-7.116322645896799e+00	-6.663774305928799e+00	 3.964528986445770e+00
-7.138950062895201e+00	-6.686401722927201e+00	 4.129755476001566e+00
-7.161577479893600e+00	-6.709029139925600e+00	 4.269369071029862e+00
-7.184204896891999e+00	-6.731656556923999e+00	 4.383369841875597e+00
-7.206832313890398e+00	-6.754283973922399e+00	 4.471757858883896e+00
-7.229459730888798e+00	-6.776911390920798e+00	 4.534533192400141e+00
-7.252087147887199e+00	-6.799538807919198e+00	 4.571695912769851e+00
-7.274714564885601e+00	-6.822166224917600e+00	 4.583246090338769e+00
-7.297341981884001e+00	-6.844793641916000e+00	 4.569183795452865e+00
-7.071067811899999e+00	-6.498311319128000e+00	 3.178079738158690e+00
-7.099705636538599e+00	-6.526949143766600e+00	 3.368146735865656e+00
-7.128343461177201e+00	-6.555586968405200e+00	 3.535599649923743e+00
-7.156981285815801e+00	-6.584224793043802e+00	 3.680438622940530e+00
-7.185619110454399e+00	-6.612862617682399e+00	 3.802663797524190e+00
-7.214256935093000e+00	-6.641500442321001e+00	 3.902275316283359e+00
-7.242894759731599e+00	-6.670138266959600e+00	 3.979273321827216e+00
-7.271532584370197e+00	-6.698776091598198e+00	 4.033657956765418e+00
-7.300170409008800e+00	-6.727413916236800e+00	 4.065429363708179e+00
-7.328808233647399e+00	-6.756051740875400e+00	 4.074587685266194e+00
-7.357446058286000e+00	-6.784689565513999e+00	 4.061133064050702e+00
-7.071067811900000e+00	-6.363961030700001e+00	 2.876562868872995e+00
-7.106423150960001e+00	-6.399316369760000e+00	 3.045351384784509e+00
-7.141778490020001e+00	-6.434671708820000e+00	 3.193927176898655e+00
-7.177133829080000e+00	-6.470027047880000e+00	 3.322290513554901e+00
-7.212489168139999e+00	-6.505382386939999e+00	 3.430441663093903e+00
-7.247844507199999e+00	-6.540737726000000e+00	 3.518380893857517e+00
-7.283199846260000e+00	-6.576093065059999e+00	 3.586108474188796e+00
-7.318555185320000e+00	-6.611448404120001e+00	 3.633624672431986e+00
-7.353910524380000e+00	-6.646803743180000e+00	 3.660929756932530e+00
-7.389265863440000e+00	-6.682159082240000e+00	 3.668023996037061e+00
-7.424621202500000e+00	-6.717514421300000e+00	 3.654907658093414e+00
-7.071067811900000e+00	-6.363961030700001e+00	 2.876562868872995e+00
-7.106423150960001e+00	-6.399316369760000e+00	 3.045351384784509e+00
-7.141778490020001e+00	-6.434671708820000e+00	 3.193927176898655e+00
-7.177133829080000e+00	-6.470027047880000e+00	 3.322290513554901e+00
-7.212489168139999e+00	-6.505382386939999e+00	 3.430441663093903e+00
-7.247844507199999e+00	-6.540737726000000e+00	 3.518380893857517e+00
-7.283199846260000e+00	-6.576093065059999e+00	 3.586108474188796e+00
-7.318555185320000e+00	-6.611448404120001e+00	 3.633624672431986e+00
-7.353910524380000e+00	-6.646803743180000e+00	 3.660929756932530e+00
-7.389265863440000e+00	-6.682159082240000e+00	 3.668023996037061e+00
-7.424621202500000e+00	-6.717514421300000e+00	 3.654907658093414e+00
-7.071067811900000e+00	-6.215468606648000e+00	 2.618636560683241e+00
-7.113847772162589e+00	-6.258248566910598e+00	 2.773798729183997e+00
-7.156627732425161e+00	-6.301028527173201e+00	 2.910440189119490e+00
-7.199407692687712e+00	-6.343808487435800e+00	 3.028561415865911e+00
-7.242187652950239e+00	-6.386588447698400e+00	 3.128162884801968e+00
-7.284967613212750e+00	-6.429368407961000e+00	 3.209245071308924e+00
-7.327747573475240e+00	-6.472148368223601e+00	 3.271808450770566e+00
-7.370527533737710e+00	-6.514928328486199e+00	 3.315853498573222e+00
-7.413307494000161e+00	-6.557708288748801e+00	 3.341380690105760e+00
-7.456087454262589e+00	-6.600488249011398e+00	 3.348390500759580e+00
-7.498867414525000e+00	-6.643268209274000e+00	 3.336883405928626e+00
-7.071067811900001e+00	-6.052834046971999e+00	 2.400983329067003e+00
-7.121979500146360e+00	-6.103745735218400e+00	 2.545493570073076e+00
-7.172891188392639e+00	-6.154657423464800e+00	 2.672990537664477e+00
-7.223802876638840e+00	-6.205569111711199e+00	 2.783475033085518e+00
-7.274714564884963e+00	-6.256480799957601e+00	 2.876947857585596e+00
-7.325626253130999e+00	-6.307392488204000e+00	 2.953409812419228e+00
-7.376537941376961e+00	-6.358304176450401e+00	 3.012861698846026e+00
-7.427449629622842e+00	-6.409215864696801e+00	 3.055304318130705e+00
-7.478361317868640e+00	-6.460127552943201e+00	 3.080738471543099e+00
-7.529273006114359e+00	-6.511039241189599e+00	 3.089164960358122e+00
-7.580184694360000e+00	-6.561950929436001e+00	 3.080584585855817e+00
-7.071067811900000e+00	-5.876057351671999e+00	 2.215443260080981e+00
-7.130818334911312e+00	-5.935807874683400e+00	 2.351379181672430e+00
-7.190568857922442e+00	-5.995558397694801e+00	 2.471648336640140e+00
-7.250319380933391e+00	-6.055308920706200e+00	 2.576252020173887e+00
-7.310069903944158e+00	-6.115059443717599e+00	 2.665191527473189e+00
-7.369820426954750e+00	-6.174809966728999e+00	 2.738468153747244e+00
-7.429570949965159e+00	-6.234560489740398e+00	 2.796083194214983e+00
-7.489321472975390e+00	-6.294311012751799e+00	 2.838037944105033e+00
-7.549071995985440e+00	-6.354061535763199e+00	 2.864333698655744e+00
-7.608822518995312e+00	-6.413812058774600e+00	 2.874971753115177e+00
-7.668573042005001e+00	-6.473562581786000e+00	 2.869953402741084e+00
-7.071067811900000e+00	-5.685138520748000e+00	 2.055941663589094e+00
-7.140364276457439e+00	-5.754434985305600e+00	 2.184787355650631e+00
-7.209660741014561e+00	-5.823731449863200e+00	 2.299174097379401e+00
-7.278957205571360e+00	-5.893027914420800e+00	 2.399103909173833e+00
-7.348253670127840e+00	-5.962324378978400e+00	 2.484578811449946e+00
-7.417550134684002e+00	-6.031620843536000e+00	 2.555600824641342e+00
-7.486846599239839e+00	-6.100917308093599e+00	 2.612171969199236e+00
-7.556143063795360e+00	-6.170213772651199e+00	 2.654294265592433e+00
-7.625439528350560e+00	-6.239510237208800e+00	 2.681969734307337e+00
-7.694735992905440e+00	-6.308806701766399e+00	 2.695200395847954e+00
-7.764032457460001e+00	-6.378103166323999e+00	 2.693988270735884e+00
-7.071067811900000e+00	-5.480077554199999e+00	 1.917873415644897e+00
-7.150617324784750e+00	-5.559627067084999e+00	 2.040706066076142e+00
-7.230166837669000e+00	-5.639176579969999e+00	 2.150168524292514e+00
-7.309716350552750e+00	-5.718726092854999e+00	 2.246263846703613e+00
-7.389265863436000e+00	-5.798275605740000e+00	 2.328995089749619e+00
-7.468815376318750e+00	-5.877825118625000e+00	 2.398365309901287e+00
-7.548364889201000e+00	-5.957374631510000e+00	 2.454377563659979e+00
-7.627914402082751e+00	-6.036924144394999e+00	 2.497034907557627e+00
-7.707463914964000e+00	-6.116473657279999e+00	 2.526340398156759e+00
-7.787013427844750e+00	-6.196023170165000e+00	 2.542297092050489e+00
-7.866562940725000e+00	-6.275572683050000e+00	 2.544908045862519e+00
-7.071067811900001e+00	-5.260874452027999e+00	 1.797690451165502e+00
-7.161577479893241e+00	-5.351384120021599e+00	 1.915299443092992e+00
-7.252087147885760e+00	-5.441893788015200e+00	 2.020524795240604e+00
-7.342596815877560e+00	-5.532403456008799e+00	 2.113371009331387e+00
-7.433106483868638e+00	-5.622913124002399e+00	 2.193842587139641e+00
-7.523616151859001e+00	-5.713422791996000e+00	 2.261944030490957e+00
-7.614125819848640e+00	-5.803932459989600e+00	 2.317679841262215e+00
-7.704635487837561e+00	-5.894442127983199e+00	 2.361054521381553e+00
-7.795145155825761e+00	-5.984951795976800e+00	 2.392072572828416e+00
-7.885654823813239e+00	-6.075461463970397e+00	 2.410738497633508e+00
-7.976164491800001e+00	-6.165971131964000e+00	 2.417056797878832e+00
-7.071067811900000e+00	-5.027529214231999e+00	 1.692619499965787e+00
-7.173244741782910e+00	-5.129706144115398e+00	 1.805584810849104e+00
-7.275421671664841e+00	-5.231883073998800e+00	 1.907065101531923e+00
-7.377598601545791e+00	-5.334060003882199e+00	 1.997066848612504e+00
-7.479775531425760e+00	-5.436236933765598e+00	 2.075596528772379e+00
-7.581952461304750e+00	-5.538413863649000e+00	 2.142660618776394e+00
-7.684129391182760e+00	-5.640590793532399e+00	 2.198265595472709e+00
-7.786306321059791e+00	-5.742767723415799e+00	 2.242417935792779e+00
-7.888483250935840e+00	-5.844944653299200e+00	 2.275124116751363e+00
-7.990660180810909e+00	-5.947121583182600e+00	 2.296390615446529e+00
-8.092837110685000e+00	-6.049298513065999e+00	 2.306223909059668e+00
-7.071067811900001e+00	-4.780041840811998e+00	 1.600465052814269e+00
-7.185619110453760e+00	-4.894593139366399e+00	 1.709210246234561e+00
-7.300170409006242e+00	-5.009144437920800e+00	 1.807293110656096e+00
-7.414721707557439e+00	-5.123695736475199e+00	 1.894722772125610e+00
-7.529273006107362e+00	-5.238247035029600e+00	 1.971508356821454e+00
-7.643824304656001e+00	-5.352798333583999e+00	 2.037658991053576e+00
-7.758375603203360e+00	-5.467349632138399e+00	 2.093183801263545e+00
-7.872926901749439e+00	-5.581900930692798e+00	 2.138091914024531e+00
-7.987478200294240e+00	-5.696452229247200e+00	 2.172392456041322e+00
-8.102029498837759e+00	-5.811003527801599e+00	 2.196094554150333e+00
-8.216580797380001e+00	-5.925554826355999e+00	 2.209207335319587e+00
-7.071067811900000e+00	-4.518412331767998e+00	 1.519469248658562e+00
-7.198700585905790e+00	-4.646045105774597e+00	 1.624298112855843e+00
-7.326333359909960e+00	-4.773677879781198e+00	 1.719221463783859e+00
-7.453966133912510e+00	-4.901310653787798e+00	 1.804251924459574e+00
-7.581598907913441e+00	-5.028943427794399e+00	 1.879402118102760e+00
-7.709231681912750e+00	-5.156576201800998e+00	 1.944684668136033e+00
-7.836864455910439e+00	-5.284208975807598e+00	 2.000112198184850e+00
-7.964497229906510e+00	-5.411841749814199e+00	 2.045697332077507e+00
-8.092130003900960e+00	-5.539474523820799e+00	 2.081452693845148e+00
-8.219762777893790e+00	-5.667107297827399e+00	 2.107390907721769e+00
-8.347395551885000e+00	-5.794740071833999e+00	 2.123524598144220e+00
-7.071067811900000e+00	-4.242640687100000e+00	 1.448210522868814e+00
-7.212489168139000e+00	-4.384062043340000e+00	 1.549332897230809e+00
-7.353910524375999e+00	-4.525483399580000e+00	 1.641249083190900e+00
-7.495331880611000e+00	-4.666904755820000e+00	 1.723976252520837e+00
-7.636753236843999e+00	-4.808326112060000e+00	 1.797531577298112e+00
-7.778174593075000e+00	-4.949747468300000e+00	 1.861932229905957e+00
-7.919595949304000e+00	-5.091168824540000e+00	 1.917195383033345e+00
-8.061017305530999e+00	-5.232590180780000e+00	 1.963338209675010e+00
-8.202438661756000e+00	-5.374011537019999e+00	 2.000377883131447e+00
-8.343860017978999e+00	-5.515432893260000e+00	 2.028331577008907e+00
-8.485281374200000e+00	-5.656854249500000e+00	 2.047216465219447e+00
-7.071067811900000e+00	-7.071067811900000e+00	 1.203096462780552e+00
-7.071067811900001e+00	-7.071067811900001e+00	 1.203096462780551e+00
-7.071067811900001e+00	-7.071067811900001e+00	 1.203096462780552e+00
-7.071067811900000e+00	-7.071067811900000e+00	 1.203096462780552e+00
-7.071067811899999e+00	-7.071067811899999e+00	 1.203096462780552e+00
-7.071067811900000e+00	-7.071067811900000e+00	 1.203096462780552e+00
-7.071067811900000e+00	-7.071067811900000e+00	 1.203096462780552e+00
-7.071067811900000e+00	-7.071067811900000e+00	 1.203096462780551e+00
-7.071067811900000e+00	-7.071067811900000e+00	 1.203096462780552e+00
-7.071067811900000e+00	-7.071067811900000e+00	 1.203096462780551e+00
-7.071067811900000e+00	-7.071067811900000e+00	 1.203096462780552e+00
-7.074603345806000e+00	-7.067532277994000e+00	 3.135518690821446e+01
-7.074956899196505e+00	-7.067885831384601e+00	 3.141515630126873e+01
-7.075310452587019e+00	-7.068239384775199e+00	 3.122596053590381e+01
-7.075664005977545e+00	-7.068592938165800e+00	 3.078759961214056e+01
-7.076017559368080e+00	-7.068946491556400e+00	 3.010007352997154e+01
-7.076371112758626e+00	-7.069300044947000e+00	 2.916338228939768e+01
-7.076724666149181e+00	-7.069653598337601e+00	 2.797752589041684e+01
-7.077078219539746e+00	-7.070007151728200e+00	 2.654250433302863e+01
-7.077431772930320e+00	-7.070360705118799e+00	 2.485831761720494e+01
-7.077785326320905e+00	-7.070714258509400e+00	 2.292496574297554e+01
-7.078138879711500e+00	-7.071067811900000e+00	 2.074244871029190e+01
-7.085209947524000e+00	-7.056925676275999e+00	 1.570920211493761e+01
-7.086624161086021e+00	-7.058339889838400e+00	 1.572244155849725e+01
-7.088038374648080e+00	-7.059754103400800e+00	 1.561289888412275e+01
-7.089452588210178e+00	-7.061168316963199e+00	 1.538057409183370e+01
-7.090866801772320e+00	-7.062582530525599e+00	 1.502546718164830e+01
-7.092281015334499e+00	-7.063996744087999e+00	 1.454757815358244e+01
-7.093695228896719e+00	-7.065410957650399e+00	 1.394690700765224e+01
-7.095109442458979e+00	-7.066825171212799e+00	 1.322345374387202e+01
-7.096523656021281e+00	-7.068239384775200e+00	 1.237721836225592e+01
-7.097937869583620e+00	-7.069653598337601e+00	 1.140820086281470e+01
-7.099352083146000e+00	-7.071067811900000e+00	 1.031640124556156e+01
-7.102887617053999e+00	-7.039248006745999e+00	 1.048972155609635e+01
-7.106069597568546e+00	-7.042429987261401e+00	 1.050257772082980e+01
-7.109251578083180e+00	-7.045611967776800e+00	 1.043429052554013e+01
-7.112433558597904e+00	-7.048793948292199e+00	 1.028485997042280e+01
-7.115615539112721e+00	-7.051975928807600e+00	 1.005428605567453e+01
-7.118797519627625e+00	-7.055157909322999e+00	 9.742568781490561e+00
-7.121979500142620e+00	-7.058339889838400e+00	 9.349708148065153e+00
-7.125161480657705e+00	-7.061521870353801e+00	 8.875704155592340e+00
-7.128343461172881e+00	-7.064703850869200e+00	 8.320556804265271e+00
-7.131525441688146e+00	-7.067885831384600e+00	 7.684266094276736e+00
-7.134707422203499e+00	-7.071067811899999e+00	 6.966832025818279e+00
-7.127636354396000e+00	-7.014499269404000e+00	 7.879468853786681e+00
-7.133293208644081e+00	-7.020156123653600e+00	 7.894899493125065e+00
-7.138950062892319e+00	-7.025812977903199e+00	 7.849914775891405e+00
-7.144606917140720e+00	-7.031469832152800e+00	 7.744514703185929e+00
-7.150263771389279e+00	-7.037126686402400e+00	 7.578699276107930e+00
-7.155920625638000e+00	-7.042783540652000e+00	 7.352468495756359e+00
-7.161577479886881e+00	-7.048440394901601e+00	 7.065822363229548e+00
-7.167234334135919e+00	-7.054097249151201e+00	 6.718760879625421e+00
-7.172891188385120e+00	-7.059754103400801e+00	 6.311284046041369e+00
-7.178548042634481e+00	-7.065410957650401e+00	 5.843391863574213e+00
-7.184204896884000e+00	-7.071067811900000e+00	 5.315084333320352e+00
-7.159456159549999e+00	-6.982679464249999e+00	 6.313386196945342e+00
-7.168294994312627e+00	-6.991518299015001e+00	 6.331172609860861e+00
-7.177133829075499e+00	-7.000357133780000e+00	 6.300951727267835e+00
-7.185972663838625e+00	-7.009195968545001e+00	 6.222723553359874e+00
-7.194811498602000e+00	-7.018034803310000e+00	 6.096488092330198e+00
-7.203650333365625e+00	-7.026873638075000e+00	 5.922245348371534e+00
-7.212489168129499e+00	-7.035712472839999e+00	 5.699995325676330e+00
-7.221328002893625e+00	-7.044551307604999e+00	 5.429738028436524e+00
-7.230166837658000e+00	-7.053390142370000e+00	 5.111473460843818e+00
-7.239005672422626e+00	-7.062228977135001e+00	 4.745201627089215e+00
-7.247844507187500e+00	-7.071067811900000e+00	 4.330922531363695e+00
-7.198347032516000e+00	-6.943788591283999e+00	 5.269561036802448e+00
-7.211074954574179e+00	-6.956516513345600e+00	 5.289189745294704e+00
-7.223802876632719e+00	-6.969244435407200e+00	 5.269071951639456e+00
-7.236530798691621e+00	-6.981972357468800e+00	 5.209207668357260e+00
-7.249258720750880e+00	-6.994700279530399e+00	 5.109596907968545e+00
-7.261986642810499e+00	-7.007428201592000e+00	 4.970239682993372e+00
-7.274714564870480e+00	-7.020156123653599e+00	 4.791136005951481e+00
-7.287442486930821e+00	-7.032884045715201e+00	 4.572285889362239e+00
-7.300170408991521e+00	-7.045611967776801e+00	 4.313689345744796e+00
-7.312898331052581e+00	-7.058339889838400e+00	 4.015346387617930e+00
-7.325626253114000e+00	-7.071067811899999e+00	 3.677257027500112e+00
-7.244308973294000e+00	-6.897826650506000e+00	 4.524257038227542e+00
-7.261633089428745e+00	-6.915150766645398e+00	 4.545275293252587e+00
-7.278957205563979e+00	-6.932474882784800e+00	 4.532443082486076e+00
-7.296281321699705e+00	-6.949798998924201e+00	 4.485760437499658e+00
-7.313605437835919e+00	-6.967123115063600e+00	 4.405227389864733e+00
-7.330929553972624e+00	-6.984447231202999e+00	 4.290843971152509e+00
-7.348253670109818e+00	-7.001771347342399e+00	 4.142610212933976e+00
-7.365577786247505e+00	-7.019095463481801e+00	 3.960526146779914e+00
-7.382901902385678e+00	-7.036419579621198e+00	 3.744591804260851e+00
-7.400226018524346e+00	-7.053743695760600e+00	 3.494807216947158e+00
-7.417550134663500e+00	-7.071067811900000e+00	 3.211172416408893e+00
-7.297341981884001e+00	-6.844793641916000e+00	 3.965582473059339e+00
-7.319969398876320e+00	-6.867421058914400e+00	 3.987629199777350e+00
-7.342596815869278e+00	-6.890048475912799e+00	 3.980246258924803e+00
-7.365224232862881e+00	-6.912675892911201e+00	 3.943433720848699e+00
-7.387851649857121e+00	-6.935303309909600e+00	 3.877191655895950e+00
-7.410479066851998e+00	-6.957930726907999e+00	 3.781520134413407e+00
-7.433106483847518e+00	-6.980558143906398e+00	 3.656419226747920e+00
-7.455733900843678e+00	-7.003185560904798e+00	 3.501889003246250e+00
-7.478361317840478e+00	-7.025812977903199e+00	 3.317929534255129e+00
-7.500988734837920e+00	-7.048440394901601e+00	 3.104540890121206e+00
-7.523616151836001e+00	-7.071067811900001e+00	 2.861723141191132e+00
-7.357446058286000e+00	-6.784689565513999e+00	 3.531361915353018e+00
-7.386083882916903e+00	-6.813327390152599e+00	 3.554151099030781e+00
-7.414721707548620e+00	-6.841965214791201e+00	 3.550949822818189e+00
-7.443359532181146e+00	-6.870603039429801e+00	 3.521758229328413e+00
-7.471997356814479e+00	-6.899240864068400e+00	 3.466576461174891e+00
-7.500635181448625e+00	-6.927878688707001e+00	 3.385404660971357e+00
-7.529273006083580e+00	-6.956516513345600e+00	 3.278242971331849e+00
-7.557910830719343e+00	-6.985154337984198e+00	 3.145091534870695e+00
-7.586548655355919e+00	-7.013792162622800e+00	 2.985950494202509e+00
-7.615186479993304e+00	-7.042429987261399e+00	 2.800819991942208e+00
-7.643824304631499e+00	-7.071067811899999e+00	 2.589700170705012e+00
-7.424621202500000e+00	-6.717514421300000e+00	 3.184280006065781e+00
-7.459976541550501e+00	-6.752869760360000e+00	 3.207581413233334e+00
-7.495331880602000e+00	-6.788225099420001e+00	 3.207646082260914e+00
-7.530687219654500e+00	-6.823580438480000e+00	 3.184474281500279e+00
-7.566042558707999e+00	-6.858935777539999e+00	 3.138066279304195e+00
-7.601397897762499e+00	-6.894291116600000e+00	 3.068422344026431e+00
-7.636753236818000e+00	-6.929646455660000e+00	 2.975542744021752e+00
-7.672108575874500e+00	-6.965001794720000e+00	 2.859427747645912e+00
-7.707463914931999e+00	-7.000357133780000e+00	 2.720077623255684e+00
-7.742819253990500e+00	-7.035712472840000e+00	 2.557492639208801e+00
-7.778174593050000e+00	-7.071067811900000e+00	 2.371673063864042e+00
-7.424621202500000e+00	-6.717514421300000e+00	 3.184280006065781e+00
-7.459976541550501e+00	-6.752869760360000e+00	 3.207581413233334e+00
-7.495331880602000e+00	-6.788225099420001e+00	 3.207646082260914e+00
-7.530687219654500e+00	-6.823580438480000e+00	 3.184474281500279e+00
-7.566042558707999e+00	-6.858935777539999e+00	 3.138066279304195e+00
-7.601397897762499e+00	-6.894291116600000e+00	 3.068422344026431e+00
-7.636753236818000e+00	-6.929646455660000e+00	 2.975542744021752e+00
-7.672108575874500e+00	-6.965001794720000e+00	 2.859427747645912e+00
-7.707463914931999e+00	-7.000357133780000e+00	 2.720077623255684e+00
-7.742819253990500e+00	-7.035712472840000e+00	 2.557492639208801e+00
-7.778174593050000e+00	-7.071067811900000e+00	 2.371673063864042e+00
-7.498867414525000e+00	-6.643268209274000e+00	 2.916078705790812e+00
-7.541647374776486e+00	-6.686048169536599e+00	 2.937194921827826e+00
-7.584427335029143e+00	-6.728828129799202e+00	 2.937927382935256e+00
-7.627207295282966e+00	-6.771608090061800e+00	 2.918276564515512e+00
-7.669987255537959e+00	-6.814388050324401e+00	 2.878242941973336e+00
-7.712767215794124e+00	-6.857168010586999e+00	 2.817826990715822e+00
-7.755547176051460e+00	-6.899947970849601e+00	 2.737029186152381e+00
-7.798327136309966e+00	-6.942727931112200e+00	 2.635850003694776e+00
-7.841107096569642e+00	-6.985507891374802e+00	 2.514289918757094e+00
-7.883887056830486e+00	-7.028287851637398e+00	 2.372349406755760e+00
-7.926667017092500e+00	-7.071067811900000e+00	 2.210028943109552e+00
-7.580184694360000e+00	-6.561950929436001e+00	 2.703443952546743e+00
-7.631096382594240e+00	-6.612862617682399e+00	 2.720649722359197e+00
-7.682008070829760e+00	-6.663774305928800e+00	 2.719651900720967e+00
-7.732919759066559e+00	-6.714685994175198e+00	 2.700451288928484e+00
-7.783831447304641e+00	-6.765597682421602e+00	 2.663048688283099e+00
-7.834743135544000e+00	-6.816509370668001e+00	 2.607444900091072e+00
-7.885654823784641e+00	-6.867421058914401e+00	 2.533640725663572e+00
-7.936566512026561e+00	-6.918332747160801e+00	 2.441636966316679e+00
-7.987478200269759e+00	-6.969244435407200e+00	 2.331434423371401e+00
-8.038389888514240e+00	-7.020156123653601e+00	 2.203033898153628e+00
-8.089301576760001e+00	-7.071067811900001e+00	 2.056436191994210e+00
-7.668573042005001e+00	-6.473562581786000e+00	 2.531282322017406e+00
-7.728323565003766e+00	-6.533313104797400e+00	 2.543658048797731e+00
-7.788074088003861e+00	-6.593063627808800e+00	 2.539537729584737e+00
-7.847824611005285e+00	-6.652814150820200e+00	 2.518922659666492e+00
-7.907575134008038e+00	-6.712564673831598e+00	 2.481814134340602e+00
-7.967325657012124e+00	-6.772315196843000e+00	 2.428213448914197e+00
-8.027076180017538e+00	-6.832065719854398e+00	 2.358121898703953e+00
-8.086826703024284e+00	-6.891816242865799e+00	 2.271540779036074e+00
-8.146577226032360e+00	-6.951566765877200e+00	 2.168471385246300e+00
-8.206327749041767e+00	-7.011317288888601e+00	 2.048915012679913e+00
-8.266078272052500e+00	-7.071067811900000e+00	 1.912872956691707e+00
-7.764032457460001e+00	-6.378103166323999e+00	 2.389402285765788e+00
-7.833328922005060e+00	-6.447399630881599e+00	 2.396492318933484e+00
-7.902625386551440e+00	-6.516696095439199e+00	 2.388453114518573e+00
-7.971921851099140e+00	-6.585992559996800e+00	 2.365286693096623e+00
-8.041218315648161e+00	-6.655289024554399e+00	 2.326995075260636e+00
-8.110514780198502e+00	-6.724585489112001e+00	 2.273580281621052e+00
-8.179811244750159e+00	-6.793881953669600e+00	 2.205044332805749e+00
-8.249107709303139e+00	-6.863178418227200e+00	 2.121389249460041e+00
-8.318404173857440e+00	-6.932474882784800e+00	 2.022617052246677e+00
-8.387700638413060e+00	-7.001771347342400e+00	 1.908729761845858e+00
-8.456997102970000e+00	-7.071067811900000e+00	 1.779729398955205e+00
-7.866562940725000e+00	-6.275572683050000e+00	 2.270692168386485e+00
-7.946112453598126e+00	-6.355122195935001e+00	 2.272311459170705e+00
-8.025661966472500e+00	-6.434671708819999e+00	 2.259917534505103e+00
-8.105211479348126e+00	-6.514221221704999e+00	 2.233513451106274e+00
-8.184760992225002e+00	-6.593770734590000e+00	 2.193102265721261e+00
-8.264310505103126e+00	-6.673320247474999e+00	 2.138687035127539e+00
-8.343860017982500e+00	-6.752869760360000e+00	 2.070270816133033e+00
-8.423409530863125e+00	-6.832419273244999e+00	 1.987856665576113e+00
-8.502959043745001e+00	-6.911968786130000e+00	 1.891447640325585e+00
-8.582508556628126e+00	-6.991518299015000e+00	 1.781046797280708e+00
-8.662058069512501e+00	-7.071067811900000e+00	 1.656657193371185e+00
-7.976164491800001e+00	-6.165971131964000e+00	 2.170046755783947e+00
-8.066674159782961e+00	-6.256480799957600e+00	 2.166168073377203e+00
-8.157183827767041e+00	-6.346990467951199e+00	 2.149204676102586e+00
-8.247693495752241e+00	-6.437500135944800e+00	 2.119161066197021e+00
-8.338203163738559e+00	-6.528009803938399e+00	 2.076041745948565e+00
-8.428712831726003e+00	-6.618519471932000e+00	 2.019851217696443e+00
-8.519222499714560e+00	-6.709029139925600e+00	 1.950593983831027e+00
-8.609732167704241e+00	-6.799538807919199e+00	 1.868274546793843e+00
-8.700241835695040e+00	-6.890048475912801e+00	 1.772897409077576e+00
-8.790751503686961e+00	-6.980558143906398e+00	 1.664467073226060e+00
-8.881261171680002e+00	-7.071067811900001e+00	 1.546083555759135e+00
-8.092837110685000e+00	-6.049298513065999e+00	 2.083708863776738e+00
-8.195014040559565e+00	-6.151475442949399e+00	 2.074395394133418e+00
-8.297190970435061e+00	-6.253652372832800e+00	 2.052783941382721e+00
-8.399367900311486e+00	-6.355829302716200e+00	 2.018880982956963e+00
-8.501544830188841e+00	-6.458006232599599e+00	 1.972692996371646e+00
-8.603721760067126e+00	-6.560183162483000e+00	 1.914226459225472e+00
-8.705898689946341e+00	-6.662360092366399e+00	 1.843487849200336e+00
-8.808075619826488e+00	-6.764537022249800e+00	 1.760483644061334e+00
-8.910252549707559e+00	-6.866713952133200e+00	 1.669882636239849e+00
-9.012429479589565e+00	-6.968890882016599e+00	 1.567773441187246e+00
-9.114606409472501e+00	-7.071067811900000e+00	 1.453291331772759e+00
-8.216580797380001e+00	-5.925554826355999e+00	 2.008851149012166e+00
-8.331132095927941e+00	-6.040106124910400e+00	 1.994215448728489e+00
-8.445683394476562e+00	-6.154657423464800e+00	 1.967960688973042e+00
-8.560234693025862e+00	-6.269208722019200e+00	 1.930095997109659e+00
-8.674785991575844e+00	-6.383760020573600e+00	 1.880630500633691e+00
-8.789337290126502e+00	-6.498311319128000e+00	 1.819573327172015e+00
-8.903888588677841e+00	-6.612862617682399e+00	 1.751268847894580e+00
-9.018439887229860e+00	-6.727413916236800e+00	 1.673154390137495e+00
-9.132991185782561e+00	-6.841965214791200e+00	 1.583336029214425e+00
-9.247542484335941e+00	-6.956516513345600e+00	 1.481799124404368e+00
-9.362093782890001e+00	-7.071067811900001e+00	 1.368529034914378e+00
-8.347395551885000e+00	-5.794740071833999e+00	 1.943302327765098e+00
-8.475028325888085e+00	-5.922372845840599e+00	 1.923480969955613e+00
-8.602661099891542e+00	-6.050005619847200e+00	 1.892637515520927e+00
-8.730293873895366e+00	-6.177638393853799e+00	 1.850784589507360e+00
-8.857926647899562e+00	-6.305271167860401e+00	 1.799791230106525e+00
-8.985559421904124e+00	-6.432903941866998e+00	 1.742824684714699e+00
-9.113192195909061e+00	-6.560536715873599e+00	 1.674749191977127e+00
-9.240824969914366e+00	-6.688169489880199e+00	 1.595544500999636e+00
-9.368457743920041e+00	-6.815802263886800e+00	 1.505190360777274e+00
-9.496090517926087e+00	-6.943435037893400e+00	 1.403666520194314e+00
-9.623723291932501e+00	-7.071067811900000e+00	 1.290952728024241e+00
-8.485281374200000e+00	-5.656854249500000e+00	 1.885363080677957e+00
-8.626702730440000e+00	-5.798275605740000e+00	 1.860500833405950e+00
-8.768124086679999e+00	-5.939696961980000e+00	 1.825151657420553e+00
-8.909545442920001e+00	-6.081118318220000e+00	 1.783982913807771e+00
-9.050966799160001e+00	-6.222539674460000e+00	 1.735286916918626e+00
-9.192388155400000e+00	-6.363961030700001e+00	 1.676001780152339e+00
-9.333809511640000e+00	-6.505382386939999e+00	 1.606099954921117e+00
-9.475230867880001e+00	-6.646803743180000e+00	 1.525553892470266e+00
-9.616652224119999e+00	-6.788225099420000e+00	 1.434336043878176e+00
-9.758073580360000e+00	-6.929646455659999e+00	 1.332418860056327e+00
-9.899494936600000e+00	-7.071067811900000e+00	 1.219774791749261e+00
-7.071067811900000e+00	-7.071067811900000e+00	 1.203096462780552e+00
-7.071067811900001e+00	-7.071067811900001e+00	 1.203096462780551e+00
-7.071067811900001e+00	-7.071067811900001e+00	 1.203096462780552e+00
-7.071067811900000e+00	-7.071067811900000e+00	 1.203096462780552e+00
-7.071067811899999e+00	-7.071067811899999e+00	 1.203096462780552e+00
-7.071067811900000e+00	-7.071067811900000e+00	 1.203096462780552e+00
-7.071067811900000e+00	-7.071067811900000e+00	 1.203096462780552e+00
-7.071067811900000e+00	-7.071067811900000e+00	 1.203096462780551e+00
-7.071067811900000e+00	-7.071067811900000e+00	 1.203096462780552e+00
-7.071067811900000e+00	-7.071067811900000e+00	 1.203096462780552e+00
-7.071067811900000e+00	-7.071067811900000e+00	 1.203096462780552e+00
-7.078138879711500e+00	-7.071067811900000e+00	 2.024808521819806e+01
-7.077785326320905e+00	-7.071421365290600e+00	 2.301849019166091e+01
-7.077431772930319e+00	-7.071774918681197e+00	 2.537377075867929e+01
-7.077078219539746e+00	-7.072128472071801e+00	 2.731392691927748e+01
-7.076724666149180e+00	-7.072482025462400e+00	 2.883895867346280e+01
-7.076371112758626e+00	-7.072835578853000e+00	 2.994886602124620e+01
-7.076017559368081e+00	-7.073189132243601e+00	 3.064364896263189e+01
-7.075664005977545e+00	-7.073542685634201e+00	 3.092330749762393e+01
-7.075310452587019e+00	-7.073896239024799e+00	 3.078784162621783e+01
-7.074956899196505e+00	-7.074249792415401e+00	 3.023725134840876e+01
-7.074603345806000e+00	-7.074603345806000e+00	 2.927153666419207e+01
-7.099352083146000e+00	-7.071067811900000e+00	 1.010124972628032e+01
-7.097937869583620e+00	-7.072482025462400e+00	 1.150343540499722e+01
-7.096523656021280e+00	-7.073896239024800e+00	 1.269650546243052e+01
-7.095109442458979e+00	-7.075310452587200e+00	 1.368045989860590e+01
-7.093695228896720e+00	-7.076724666149600e+00	 1.445529871354659e+01
-7.092281015334499e+00	-7.078138879711998e+00	 1.502102190727380e+01
-7.090866801772319e+00	-7.079553093274399e+00	 1.537762947980719e+01
-7.089452588210178e+00	-7.080967306836799e+00	 1.552512143116489e+01
-7.088038374648081e+00	-7.082381520399201e+00	 1.546349776136275e+01
-7.086624161086021e+00	-7.083795733961601e+00	 1.519275847041540e+01
-7.085209947524000e+00	-7.085209947524000e+00	 1.471290355833526e+01
-7.134707422203499e+00	-7.071067811899999e+00	 6.816330865713175e+00
-7.131525441688146e+00	-7.074249792415401e+00	 7.746127743349566e+00
-7.128343461172881e+00	-7.077431772930801e+00	 8.536719135426765e+00
-7.125161480657704e+00	-7.080613753446199e+00	 9.188105042142817e+00
-7.121979500142620e+00	-7.083795733961600e+00	 9.700285463695398e+00
-7.118797519627625e+00	-7.086977714477000e+00	 1.007326040028054e+01
-7.115615539112721e+00	-7.090159694992400e+00	 1.030702985209318e+01
-7.112433558597905e+00	-7.093341675507800e+00	 1.040159381932718e+01
-7.109251578083180e+00	-7.096523656023201e+00	 1.035695230217515e+01
-7.106069597568545e+00	-7.099705636538600e+00	 1.017310530082851e+01
-7.102887617053999e+00	-7.102887617053999e+00	 9.850052815477566e+00
-7.184204896884000e+00	-7.071067811900000e+00	 5.191579546848105e+00
-7.178548042634481e+00	-7.076724666149602e+00	 5.882097007570946e+00
-7.172891188385119e+00	-7.082381520399199e+00	 6.468596505622093e+00
-7.167234334135919e+00	-7.088038374648800e+00	 6.951078042091022e+00
-7.161577479886880e+00	-7.093695228898399e+00	 7.329541618066161e+00
-7.155920625638000e+00	-7.099352083148000e+00	 7.603987234635000e+00
-7.150263771389280e+00	-7.105008937397600e+00	 7.774414892884246e+00
-7.144606917140720e+00	-7.110665791647200e+00	 7.840824593899717e+00
-7.138950062892320e+00	-7.116322645896800e+00	 7.803216338766228e+00
-7.133293208644081e+00	-7.121979500146401e+00	 7.661590128567876e+00
-7.127636354396000e+00	-7.127636354396000e+00	 7.415945964387784e+00
-7.247844507187500e+00	-7.071067811900000e+00	 4.221910351165476e+00
-7.239005672422627e+00	-7.079906646665002e+00	 4.767851021884818e+00
-7.230166837658000e+00	-7.088745481430000e+00	 5.230960373650103e+00
-7.221328002893626e+00	-7.097584316195000e+00	 5.611238410604586e+00
-7.212489168129499e+00	-7.106423150960000e+00	 5.908685136890880e+00
-7.203650333365625e+00	-7.115261985725001e+00	 6.123300556650921e+00
-7.194811498602000e+00	-7.124100820490000e+00	 6.255084674025918e+00
-7.185972663838625e+00	-7.132939655254999e+00	 6.304037493156357e+00
-7.177133829075499e+00	-7.141778490019999e+00	 6.270159018182076e+00
-7.168294994312626e+00	-7.150617324785000e+00	 6.153449253242174e+00
-7.159456159549999e+00	-7.159456159549999e+00	 5.953908202475070e+00
-7.325626253114000e+00	-7.071067811899999e+00	 3.577196077357195e+00
-7.312898331052581e+00	-7.083795733961599e+00	 4.026313668411829e+00
-7.300170408991519e+00	-7.096523656023200e+00	 4.406754865283474e+00
-7.287442486930821e+00	-7.109251578084801e+00	 4.718519680336993e+00
-7.274714564870479e+00	-7.121979500146399e+00	 4.961608125936743e+00
-7.261986642810499e+00	-7.134707422208000e+00	 5.136020214446542e+00
-7.249258720750880e+00	-7.147435344269599e+00	 5.241755958229582e+00
-7.236530798691621e+00	-7.160163266331200e+00	 5.278815369648513e+00
-7.223802876632721e+00	-7.172891188392801e+00	 5.247198461065464e+00
-7.211074954574181e+00	-7.185619110454401e+00	 5.146905244841950e+00
-7.198347032516000e+00	-7.198347032516000e+00	 4.977935733338949e+00
-7.417550134663500e+00	-7.071067811900000e+00	 3.117157198365569e+00
-7.400226018524345e+00	-7.088391928039400e+00	 3.496886211810164e+00
-7.382901902385679e+00	-7.105716044178799e+00	 3.818063870445453e+00
-7.365577786247505e+00	-7.123040160318200e+00	 4.080690205446547e+00
-7.348253670109820e+00	-7.140364276457601e+00	 4.284765247988158e+00
-7.330929553972624e+00	-7.157688392597000e+00	 4.430289029244546e+00
-7.313605437835918e+00	-7.175012508736399e+00	 4.517261580389554e+00
-7.296281321699705e+00	-7.192336624875800e+00	 4.545682932596595e+00
-7.278957205563978e+00	-7.209660741015198e+00	 4.515553117038666e+00
-7.261633089428745e+00	-7.226984857154600e+00	 4.426872164888317e+00
-7.244308973294000e+00	-7.244308973294000e+00	 4.279640107317674e+00
-7.523616151836001e+00	-7.071067811900001e+00	 2.772051907724088e+00
-7.500988734837919e+00	-7.093695228898400e+00	 3.099603164028429e+00
-7.478361317840477e+00	-7.116322645896799e+00	 3.376203950611344e+00
-7.455733900843681e+00	-7.138950062895201e+00	 3.601854336933411e+00
-7.433106483847521e+00	-7.161577479893600e+00	 3.776554392454980e+00
-7.410479066852000e+00	-7.184204896891999e+00	 3.900304186636144e+00
-7.387851649857118e+00	-7.206832313890398e+00	 3.973103788936784e+00
-7.365224232862879e+00	-7.229459730888798e+00	 3.994953268816533e+00
-7.342596815869278e+00	-7.252087147887199e+00	 3.965852695734802e+00
-7.319969398876321e+00	-7.274714564885601e+00	 3.885802139150757e+00
-7.297341981884001e+00	-7.297341981884001e+00	 3.754801668523337e+00
-7.643824304631499e+00	-7.071067811899999e+00	 2.503294812946388e+00
-7.615186479993304e+00	-7.099705636538599e+00	 2.790175005846737e+00
-7.586548655355920e+00	-7.128343461177201e+00	 3.032019741933762e+00
-7.557910830719346e+00	-7.156981285815801e+00	 3.228829162020819e+00
-7.529273006083579e+00	-7.185619110454399e+00	 3.380603406921364e+00
-7.500635181448625e+00	-7.214256935093000e+00	 3.487342617448992e+00
-7.471997356814480e+00	-7.242894759731599e+00	 3.549046934417439e+00
-7.443359532181143e+00	-7.271532584370197e+00	 3.565716498640552e+00
-7.414721707548620e+00	-7.300170409008800e+00	 3.537351450932312e+00
-7.386083882916903e+00	-7.328808233647399e+00	 3.463951932106832e+00
-7.357446058286000e+00	-7.357446058286000e+00	 3.345518082978341e+00
-7.778174593050000e+00	-7.071067811900000e+00	 2.287809355926093e+00
-7.742819253990501e+00	-7.106423150960001e+00	 2.542092824542701e+00
-7.707463914932000e+00	-7.141778490020001e+00	 2.756073589199419e+00
-7.672108575874500e+00	-7.177133829080000e+00	 2.929751914857767e+00
-7.636753236817999e+00	-7.212489168139999e+00	 3.063128066480114e+00
-7.601397897762500e+00	-7.247844507199999e+00	 3.156202309029690e+00
-7.566042558708000e+00	-7.283199846260000e+00	 3.208974907470547e+00
-7.530687219654500e+00	-7.318555185320000e+00	 3.221446126767577e+00
-7.495331880602000e+00	-7.353910524380000e+00	 3.193616231886533e+00
-7.459976541550500e+00	-7.389265863440000e+00	 3.125485487793992e+00
-7.424621202500000e+00	-7.424621202500000e+00	 3.017054159457386e+00
-7.778174593050000e+00	-7.071067811900000e+00	 2.287809355926093e+00
-7.742819253990501e+00	-7.106423150960001e+00	 2.542092824542701e+00
-7.707463914932000e+00	-7.141778490020001e+00	 2.756073589199419e+00
-7.672108575874500e+00	-7.177133829080000e+00	 2.929751914857767e+00
-7.636753236817999e+00	-7.212489168139999e+00	 3.063128066480114e+00
-7.601397897762500e+00	-7.247844507199999e+00	 3.156202309029690e+00
-7.566042558708000e+00	-7.283199846260000e+00	 3.208974907470547e+00
-7.530687219654500e+00	-7.318555185320000e+00	 3.221446126767577e+00
-7.495331880602000e+00	-7.353910524380000e+00	 3.193616231886533e+00
-7.459976541550500e+00	-7.389265863440000e+00	 3.125485487793992e+00
-7.424621202500000e+00	-7.424621202500000e+00	 3.017054159457386e+00
-7.926667017092500e+00	-7.071067811900000e+00	 2.079649537841971e+00
-7.883887056830485e+00	-7.113847772162589e+00	 2.311640161779690e+00
-7.841107096569642e+00	-7.156627732425161e+00	 2.507353223110960e+00
-7.798327136309967e+00	-7.199407692687712e+00	 2.666789191226010e+00
-7.755547176051459e+00	-7.242187652950239e+00	 2.789948535517190e+00
-7.712767215794125e+00	-7.284967613212750e+00	 2.876831725378922e+00
-7.669987255537960e+00	-7.327747573475240e+00	 2.927439230207735e+00
-7.627207295282965e+00	-7.370527533737710e+00	 2.941771519402252e+00
-7.584427335029142e+00	-7.413307494000161e+00	 2.919829062363179e+00
-7.541647374776484e+00	-7.456087454262589e+00	 2.861612328493320e+00
-7.498867414525000e+00	-7.498867414525000e+00	 2.767121787197580e+00
-8.089301576760001e+00	-7.071067811900001e+00	 1.914516522299989e+00
-8.038389888514240e+00	-7.121979500146360e+00	 2.128001747594387e+00
-7.987478200269760e+00	-7.172891188392639e+00	 2.308508619748985e+00
-7.936566512026559e+00	-7.223802876638840e+00	 2.456037929917660e+00
-7.885654823784642e+00	-7.274714564884963e+00	 2.570590469258940e+00
-7.834743135544000e+00	-7.325626253130999e+00	 2.652167028935961e+00
-7.783831447304641e+00	-7.376537941376961e+00	 2.700768400116493e+00
-7.732919759066561e+00	-7.427449629622842e+00	 2.716395373972929e+00
-7.682008070829760e+00	-7.478361317868640e+00	 2.699048741682293e+00
-7.631096382594240e+00	-7.529273006114359e+00	 2.648729294426222e+00
-7.580184694360000e+00	-7.580184694360000e+00	 2.565437823390996e+00
-8.266078272052500e+00	-7.071067811900000e+00	 1.780518258528580e+00
-8.206327749041765e+00	-7.130818334911312e+00	 1.978402745203987e+00
-8.146577226032361e+00	-7.190568857922442e+00	 2.146058942985808e+00
-8.086826703024286e+00	-7.250319380933391e+00	 2.283488130752217e+00
-8.027076180017538e+00	-7.310069903944158e+00	 2.390691587390608e+00
-7.967325657012124e+00	-7.369820426954750e+00	 2.467670591797584e+00
-7.907575134008038e+00	-7.429570949965159e+00	 2.514426422878965e+00
-7.847824611005284e+00	-7.489321472975390e+00	 2.530960359549783e+00
-7.788074088003859e+00	-7.549071995985440e+00	 2.517273680734277e+00
-7.728323565003765e+00	-7.608822518995312e+00	 2.473367665365902e+00
-7.668573042005001e+00	-7.668573042005001e+00	 2.399243592387339e+00
-8.456997102970000e+00	-7.071067811900000e+00	 1.669676119882863e+00
-8.387700638413058e+00	-7.140364276457439e+00	 1.854241202025461e+00
-8.318404173857441e+00	-7.209660741014561e+00	 2.010901865509688e+00
-8.249107709303141e+00	-7.278957205571360e+00	 2.139660105288609e+00
-8.179811244750161e+00	-7.348253670127840e+00	 2.240517916332362e+00
-8.110514780198503e+00	-7.417550134684002e+00	 2.313477293628151e+00
-8.041218315648161e+00	-7.486846599239839e+00	 2.358540232180248e+00
-7.971921851099141e+00	-7.556143063795360e+00	 2.375708727009989e+00
-7.902625386551440e+00	-7.625439528350560e+00	 2.364984773155778e+00
-7.833328922005060e+00	-7.694735992905440e+00	 2.326370365673085e+00
-7.764032457460001e+00	-7.764032457460001e+00	 2.259867499634451e+00
-8.662058069512501e+00	-7.071067811900000e+00	 1.576461955318748e+00
-8.582508556628127e+00	-7.150617324784750e+00	 1.749537746327265e+00
-8.502959043744999e+00	-7.230166837669000e+00	 1.896694655754396e+00
-8.423409530863125e+00	-7.309716350552750e+00	 2.017935701516335e+00
-8.343860017982500e+00	-7.389265863436000e+00	 2.113263901559250e+00
-8.264310505103126e+00	-7.468815376318750e+00	 2.182682273859303e+00
-8.184760992225000e+00	-7.548364889201000e+00	 2.226193836422635e+00
-8.105211479348124e+00	-7.627914402082751e+00	 2.243801607285376e+00
-8.025661966472500e+00	-7.707463914964000e+00	 2.235508604513637e+00
-7.946112453598126e+00	-7.787013427844750e+00	 2.201317846203517e+00
-7.866562940725000e+00	-7.866562940725000e+00	 2.141232350481103e+00
-8.881261171680002e+00	-7.071067811900001e+00	 1.500035112085591e+00
-8.790751503686961e+00	-7.161577479893241e+00	 1.660023049544826e+00
-8.700241835695042e+00	-7.252087147885760e+00	 1.798898981521775e+00
-8.609732167704241e+00	-7.342596815877560e+00	 1.913571839118256e+00
-8.519222499714560e+00	-7.433106483868638e+00	 2.004046067411470e+00
-8.428712831726001e+00	-7.523616151859001e+00	 2.070326111529166e+00
-8.338203163738561e+00	-7.614125819848640e+00	 2.112416416649623e+00
-8.247693495752239e+00	-7.704635487837561e+00	 2.130321428001670e+00
-8.157183827767042e+00	-7.795145155825761e+00	 2.124045590864673e+00
-8.066674159782959e+00	-7.885654823813239e+00	 2.093593350568550e+00
-7.976164491800001e+00	-7.976164491800001e+00	 2.038969152493759e+00
-9.114606409472501e+00	-7.071067811900000e+00	 1.443589387987066e+00
-9.012429479589565e+00	-7.173244741782910e+00	 1.592597686310991e+00
-8.910252549707561e+00	-7.275421671664841e+00	 1.718818097233899e+00
-8.808075619826488e+00	-7.377598601545791e+00	 1.823093572674070e+00
-8.705898689946341e+00	-7.479775531425760e+00	 1.909282994726785e+00
-8.603721760067126e+00	-7.581952461304750e+00	 1.972768906460602e+00
-8.501544830188839e+00	-7.684129391182760e+00	 2.013557703151833e+00
-8.399367900311486e+00	-7.786306321059791e+00	 2.031655780159126e+00
-8.297190970435061e+00	-7.888483250935840e+00	 2.027069532923458e+00
-8.195014040559565e+00	-7.990660180810909e+00	 1.999805356968148e+00
-8.092837110685000e+00	-8.092837110685000e+00	 1.949869647898844e+00
-9.362093782890001e+00	-7.071067811900001e+00	 1.396028080955385e+00
-9.247542484335943e+00	-7.185619110453760e+00	 1.536898118893363e+00
-9.132991185782563e+00	-7.300170409006242e+00	 1.656278916050694e+00
-9.018439887229862e+00	-7.414721707557439e+00	 1.754166358366238e+00
-8.903888588677843e+00	-7.529273006107362e+00	 1.830556331684004e+00
-8.789337290126502e+00	-7.643824304656001e+00	 1.887290826334375e+00
-8.674785991575842e+00	-7.758375603203360e+00	 1.926889048209453e+00
-8.560234693025860e+00	-7.872926901749439e+00	 1.945103704271784e+00
-8.445683394476561e+00	-7.987478200294240e+00	 1.941943806281943e+00
-8.331132095927941e+00	-8.102029498837759e+00	 1.917418366130762e+00
-8.216580797380001e+00	-8.216580797380001e+00	 1.871536395839358e+00
-9.623723291932501e+00	-7.071067811900000e+00	 1.355640418976125e+00
-9.496090517926085e+00	-7.198700585905790e+00	 1.489274118362188e+00
-9.368457743920041e+00	-7.326333359909960e+00	 1.602562305617325e+00
-9.240824969914366e+00	-7.453966133912510e+00	 1.695499290367522e+00
-9.113192195909061e+00	-7.581598907913441e+00	 1.768079382092762e+00
-8.985559421904126e+00	-7.709231681912750e+00	 1.820296890127005e+00
-8.857926647899561e+00	-7.836864455910439e+00	 1.852146123658185e+00
-8.730293873895365e+00	-7.964497229906510e+00	 1.868616595241139e+00
-8.602661099891540e+00	-8.092130003900960e+00	 1.866668708815862e+00
-8.475028325888086e+00	-8.219762777893790e+00	 1.844509836513071e+00
-8.347395551885000e+00	-8.347395551885000e+00	 1.802152443775790e+00
-9.899494936600000e+00	-7.071067811900000e+00	 1.321084378736667e+00
-9.758073580360000e+00	-7.212489168139000e+00	 1.448265295710676e+00
-9.616652224120001e+00	-7.353910524375999e+00	 1.556113309930563e+00
-9.475230867880001e+00	-7.495331880611000e+00	 1.644620680668772e+00
-9.333809511640000e+00	-7.636753236843999e+00	 1.713779666977783e+00
-9.192388155400000e+00	-7.778174593075000e+00	 1.763582527690117e+00
-9.050966799159999e+00	-7.919595949304000e+00	 1.794021521418332e+00
-8.909545442919999e+00	-8.061017305530999e+00	 1.805088906555006e+00
-8.768124086680000e+00	-8.202438661756000e+00	 1.799710836068201e+00
-8.626702730439998e+00	-8.343860017978999e+00	 1.779606019467704e+00
-8.485281374200000e+00	-8.485281374200000e+00	 1.740325784223949e+00
-5.656854249500000e+00	-5.656854249500000e+00	 5.256992870859284e-01
-5.798275605740000e+00	-5.515432893260000e+00	 6.798770020438650e-01
-5.939696961980000e+00	-5.374011537020000e+00	 8.212571253008304e-01
-6.081118318220000e+00	-5.232590180780001e+00	 9.498226992193770e-01
-6.222539674460000e+00	-5.091168824540000e+00	 1.065556766465202e+00
-6.363961030700001e+00	-4.949747468300000e+00	 1.168442370007143e+00
-6.505382386939999e+00	-4.808326112060000e+00	 1.258462553117166e+00
-6.646803743180000e+00	-4.666904755820000e+00	 1.335600359370359e+00
-6.788225099420000e+00	-4.525483399580001e+00	 1.399838832644919e+00
-6.929646455659999e+00	-4.384062043340000e+00	 1.451161017122166e+00
-7.071067811900000e+00	-4.242640687100000e+00	 1.489549957286503e+00
-5.374011537020500e+00	-5.374011537020500e+00	 5.031415335894961e-01
-5.515432893260495e+00	-5.232590180780500e+00	 6.395638900690301e-01
-5.656854249500480e+00	-5.091168824540501e+00	 7.643944466382393e-01
-5.798275605740455e+00	-4.949747468300500e+00	 8.776162456584216e-01
-5.939696961980420e+00	-4.808326112060500e+00	 9.792123297940192e-01
-6.081118318220376e+00	-4.666904755820500e+00	 1.069165742012602e+00
-6.222539674460319e+00	-4.525483399580500e+00	 1.147459525584883e+00
-6.363961030700255e+00	-4.384062043340500e+00	 1.214076724084688e+00
-6.505382386940179e+00	-4.242640687100500e+00	 1.269000381388963e+00
-6.646803743180094e+00	-4.101219330860500e+00	 1.312213541677747e+00
-6.788225099420000e+00	-3.959797974620500e+00	 1.343699249434200e+00
-5.091168824542001e+00	-5.091168824542001e+00	 4.776549453928488e-01
-5.232590180781980e+00	-4.949747468302000e+00	 5.980753339262304e-01
-5.374011537021920e+00	-4.808326112062001e+00	 7.081097139340937e-01
-5.515432893261822e+00	-4.666904755822000e+00	 8.077411277764793e-01
-5.656854249501680e+00	-4.525483399582000e+00	 8.969526181165663e-01
-5.798275605741500e+00	-4.384062043342001e+00	 9.757272279206762e-01
-5.939696961981280e+00	-4.242640687102000e+00	 1.044048000458259e+00
-6.081118318221020e+00	-4.101219330862000e+00	 1.101897979301879e+00
-6.222539674460719e+00	-3.959797974622000e+00	 1.149260208327224e+00
-6.363961030700379e+00	-3.818376618382000e+00	 1.186117731713081e+00
-6.505382386940000e+00	-3.676955262142000e+00	 1.212453593941336e+00
-4.808326112064499e+00	-4.808326112064499e+00	 4.491021592755087e-01
-4.949747468304456e+00	-4.666904755824500e+00	 5.552739704002099e-01
-5.091168824544322e+00	-4.525483399584500e+00	 6.522655639783587e-01
-5.232590180784094e+00	-4.384062043344499e+00	 7.400599823687353e-01
-5.374011537023780e+00	-4.242640687104500e+00	 8.186402682332723e-01
-5.515432893263375e+00	-4.101219330864502e+00	 8.879894645370374e-01
-5.656854249502880e+00	-3.959797974624500e+00	 9.480906145482162e-01
-5.798275605742295e+00	-3.818376618384500e+00	 9.989267618381246e-01
-5.939696961981618e+00	-3.676955262144500e+00	 1.040480950281182e+00
-6.081118318220856e+00	-3.535533905904500e+00	 1.072736228611497e+00
-6.222539674460000e+00	-3.394112549664499e+00	 1.092924419317456e+00
-4.525483399588000e+00	-4.525483399588000e+00	 4.173458169082424e-01
-4.666904755827919e+00	-4.384062043348001e+00	 5.110224411669200e-01
-4.808326112067681e+00	-4.242640687108000e+00	 5.967246384521792e-01
-4.949747468307280e+00	-4.101219330868000e+00	 6.744354511215539e-01
-5.091168824546720e+00	-3.959797974628000e+00	 7.441379218357215e-01
-5.232590180786000e+00	-3.818376618388000e+00	 8.058150935584955e-01
-5.374011537025120e+00	-3.676955262148000e+00	 8.594500095568059e-01
-5.515432893264080e+00	-3.535533905908000e+00	 9.050257181366403e-01
-5.656854249502881e+00	-3.394112549668000e+00	 9.397456074677127e-01
-5.798275605741520e+00	-3.252691193428001e+00	 9.618809591752444e-01
-5.939696961980000e+00	-3.111269837188000e+00	 9.758939381722964e-01
-4.242640687112500e+00	-4.242640687112500e+00	 3.822485648528204e-01
-4.384062043352377e+00	-4.101219330872501e+00	 4.651833927933034e-01
-4.525483399592000e+00	-3.959797974632500e+00	 5.413495839276744e-01
-4.666904755831375e+00	-3.818376618392501e+00	 6.107301806122318e-01
-4.808326112070500e+00	-3.676955262152500e+00	 6.733082255064029e-01
-4.949747468309375e+00	-3.535533905912500e+00	 7.290667664365190e-01
-5.091168824548000e+00	-3.394112549672500e+00	 7.751824405771091e-01
-5.232590180786375e+00	-3.252691193432500e+00	 8.099012561674573e-01
-5.374011537024500e+00	-3.111269837192500e+00	 8.377244892631592e-01
-5.515432893262377e+00	-2.969848480952500e+00	 8.586440443175449e-01
-5.656854249500000e+00	-2.828427124712500e+00	 8.726518257839477e-01
-3.959797974638000e+00	-3.959797974638000e+00	 3.436730545617723e-01
-4.101219330877821e+00	-3.818376618398000e+00	 4.176194767370174e-01
-4.242640687117279e+00	-3.676955262158000e+00	 4.860030518676648e-01
-4.384062043356381e+00	-3.535533905918001e+00	 5.488068272488751e-01
-4.525483399595119e+00	-3.394112549677999e+00	 6.031823723834682e-01
-4.666904755833500e+00	-3.252691193438000e+00	 6.473514498545909e-01
-4.808326112071520e+00	-3.111269837198000e+00	 6.858517350469109e-01
-4.949747468309181e+00	-2.969848480958000e+00	 7.186751324137404e-01
-5.091168824546481e+00	-2.828427124718000e+00	 7.458135464084031e-01
-5.232590180783419e+00	-2.687005768478000e+00	 7.672588814842212e-01
-5.374011537019999e+00	-2.545584412238000e+00	 7.830030420945362e-01
-3.676955262164500e+00	-3.676955262164500e+00	 3.014819423781488e-01
-3.818376618404255e+00	-3.535533905924500e+00	 3.681933543112002e-01
-3.959797974643520e+00	-3.394112549684500e+00	 4.276928566242479e-01
-4.101219330882295e+00	-3.252691193444500e+00	 4.781789939740863e-01
-4.242640687120581e+00	-3.111269837204500e+00	 5.242231292610073e-01
-4.384062043358375e+00	-2.969848480964501e+00	 5.658171669383087e-01
-4.525483399595680e+00	-2.828427124724500e+00	 6.029530114592884e-01
-4.666904755832495e+00	-2.687005768484501e+00	 6.356225672772544e-01
-4.808326112068819e+00	-2.545584412244500e+00	 6.638177388455253e-01
-4.949747468304656e+00	-2.404163056004501e+00	 6.875304306174161e-01
-5.091168824540000e+00	-2.262741699764500e+00	 7.067525470462577e-01
-3.394112549692001e+00	-3.394112549692001e+00	 2.526613470368969e-01
-3.535533905931680e+00	-3.252691193452000e+00	 3.063313422632827e-01
-3.676955262170720e+00	-3.111269837212000e+00	 3.567861256426941e-01
-3.818376618409121e+00	-2.969848480972001e+00	 4.040176016284176e-01
-3.959797974646881e+00	-2.828427124732001e+00	 4.480176746737258e-01
-4.101219330884000e+00	-2.687005768492000e+00	 4.887782492319066e-01
-4.242640687120479e+00	-2.545584412252000e+00	 5.262912297562556e-01
-4.384062043356320e+00	-2.404163056012000e+00	 5.605485207000700e-01
-4.525483399591519e+00	-2.262741699772000e+00	 5.915420265166527e-01
-4.666904755826081e+00	-2.121320343532000e+00	 6.192636516593123e-01
-4.808326112060000e+00	-1.979898987292001e+00	 6.437053005813644e-01
-3.111269837220500e+00	-3.111269837220500e+00	 1.874881779293648e-01
-3.252691193460095e+00	-2.969848480980500e+00	 2.372238902212865e-01
-3.394112549698880e+00	-2.828427124740501e+00	 2.849549897887769e-01
-3.535533905936855e+00	-2.687005768500501e+00	 3.306733810851028e-01
-3.676955262174020e+00	-2.545584412260500e+00	 3.743709685635395e-01
-3.818376618410376e+00	-2.404163056020500e+00	 4.160396566773593e-01
-3.959797974645920e+00	-2.262741699780500e+00	 4.556713498798438e-01
-4.101219330880655e+00	-2.121320343540500e+00	 4.932579526242792e-01
-4.242640687114581e+00	-1.979898987300501e+00	 5.287913693639478e-01
-4.384062043347695e+00	-1.838477631060500e+00	 5.622635045521477e-01
-4.525483399580001e+00	-1.697056274820500e+00	 5.936662626421703e-01
-2.828427124750000e+00	-2.828427124750000e+00	 1.146187222931630e-01
-2.969848480989500e+00	-2.687005768510000e+00	 1.652554165740083e-01
-3.111269837227999e+00	-2.545584412270000e+00	 2.120044090043215e-01
-3.252691193465500e+00	-2.404163056030000e+00	 2.579512922860251e-01
-3.394112549702000e+00	-2.262741699790000e+00	 3.030879708723832e-01
-3.535533905937500e+00	-2.121320343550000e+00	 3.474063492166556e-01
-3.676955262172001e+00	-1.979898987310000e+00	 3.908983317721063e-01
-3.818376618405500e+00	-1.838477631070000e+00	 4.335558229920022e-01
-3.959797974638000e+00	-1.697056274830000e+00	 4.753707273296124e-01
-4.101219330869499e+00	-1.555634918590000e+00	 5.163349492382024e-01
-4.242640687100000e+00	-1.414213562350000e+00	 5.564403931710463e-01
-2.828427124750000e+00	-2.828427124750000e+00	 1.146187222931630e-01
-2.969848480989500e+00	-2.687005768510000e+00	 1.652554165740083e-01
-3.111269837227999e+00	-2.545584412270000e+00	 2.120044090043215e-01
-3.252691193465500e+00	-2.404163056030000e+00	 2.579512922860251e-01
-3.394112549702000e+00	-2.262741699790000e+00	 3.030879708723832e-01
-3.535533905937500e+00	-2.121320343550000e+00	 3.474063492166556e-01
-3.676955262172001e+00	-1.979898987310000e+00	 3.908983317721063e-01
-3.818376618405500e+00	-1.838477631070000e+00	 4.335558229920022e-01
-3.959797974638000e+00	-1.697056274830000e+00	 4.753707273296124e-01
-4.101219330869499e+00	-1.555634918590000e+00	 5.163349492382024e-01
-4.242640687100000e+00	-1.414213562350000e+00	 5.564403931710463e-01
-2.545584412279500e+00	-2.545584412279500e+00	 1.199817133678479e-01
-2.687005768518914e+00	-2.404163056039500e+00	 1.682687330125562e-01
-2.828427124757160e+00	-2.262741699799500e+00	 2.158884625656016e-01
-2.969848480994236e+00	-2.121320343559500e+00	 2.621034668095849e-01
-3.111269837230140e+00	-1.979898987319500e+00	 3.047589241609159e-01
-3.252691193464875e+00	-1.838477631079499e+00	 3.467015936228124e-01
-3.394112549698440e+00	-1.697056274839500e+00	 3.879233796485276e-01
-3.535533905930834e+00	-1.555634918599500e+00	 4.284161866913266e-01
-3.676955262162060e+00	-1.414213562359500e+00	 4.681719192044711e-01
-3.818376618392115e+00	-1.272792206119500e+00	 5.071824816412253e-01
-3.959797974621000e+00	-1.131370849879500e+00	 5.454397784548516e-01
-2.262741699807999e+00	-2.262741699807999e+00	 1.212769207353756e-01
-2.404163056047360e+00	-2.121320343567999e+00	 1.665038527215940e-01
-2.545584412285440e+00	-1.979898987327999e+00	 2.111527536305618e-01
-2.687005768522239e+00	-1.838477631087999e+00	 2.552236234623824e-01
-2.828427124757760e+00	-1.697056274847999e+00	 2.987164622171478e-01
-2.969848480992000e+00	-1.555634918607999e+00	 3.409641227030228e-01
-3.111269837224959e+00	-1.414213562367999e+00	 3.800149356122834e-01
-3.252691193456640e+00	-1.272792206128000e+00	 4.184422818912406e-01
-3.394112549687040e+00	-1.131370849887999e+00	 4.562380659931511e-01
-3.535533905916160e+00	-9.899494936479996e-01	 4.933941923712745e-01
-3.676955262144000e+00	-8.485281374079995e-01	 5.299025654788621e-01
-1.979898987335499e+00	-1.979898987335499e+00	 1.185043443961834e-01
-2.121320343574835e+00	-1.838477631095500e+00	 1.607596180747661e-01
-2.262741699812840e+00	-1.697056274855500e+00	 2.025261196904982e-01
-2.404163056049515e+00	-1.555634918615500e+00	 2.438038492434739e-01
-2.545584412284859e+00	-1.414213562375499e+00	 2.845928067337815e-01
-2.687005768518874e+00	-1.272792206135499e+00	 3.248929921615187e-01
-2.828427124751559e+00	-1.131370849895499e+00	 3.647044055267741e-01
-2.969848480982914e+00	-9.899494936554994e-01	 4.034390685329991e-01
-3.111269837212939e+00	-8.485281374154995e-01	 4.393741276368363e-01
-3.252691193441634e+00	-7.071067811754993e-01	 4.747750413694569e-01
-3.394112549668999e+00	-5.656854249354992e-01	 5.096337141841143e-01
-1.697056274861999e+00	-1.697056274861999e+00	 1.116639843507085e-01
-1.838477631101339e+00	-1.555634918621999e+00	 1.510360290724485e-01
-1.979898987339359e+00	-1.414213562381999e+00	 1.900085607457161e-01
-2.121320343576059e+00	-1.272792206141999e+00	 2.285815793705994e-01
-2.262741699811439e+00	-1.131370849901999e+00	 2.667550849471866e-01
-2.404163056045499e+00	-9.899494936619991e-01	 3.045290774755605e-01
-2.545584412278239e+00	-8.485281374219991e-01	 3.419035569558075e-01
-2.687005768509659e+00	-7.071067811819991e-01	 3.788785233880138e-01
-2.828427124739759e+00	-5.656854249419991e-01	 4.154539767722671e-01
-2.969848480968539e+00	-4.242640687019993e-01	 4.511299885769303e-01
-3.111269837195999e+00	-2.828427124619991e-01	 4.844381845117005e-01
-1.414213562387499e+00	-1.414213562387499e+00	 1.007558405993833e-01
-1.555634918626874e+00	-1.272792206147499e+00	 1.373330857150138e-01
-1.697056274864999e+00	-1.131370849907499e+00	 1.736000767965306e-01
-1.838477631101874e+00	-9.899494936674987e-01	 2.095568138440179e-01
-1.979898987337499e+00	-8.485281374274989e-01	 2.452032968575537e-01
-2.121320343571873e+00	-7.071067811874989e-01	 2.805395258372127e-01
-2.262741699804999e+00	-5.656854249474987e-01	 3.155655007830767e-01
-2.404163056036874e+00	-4.242640687074988e-01	 3.502812216952231e-01
-2.545584412267499e+00	-2.828427124674988e-01	 3.846866885737322e-01
-2.687005768496874e+00	-1.414213562274989e-01	 4.187819014186769e-01
-2.828427124724999e+00	 1.250122227958173e-11	 4.525668602301385e-01
-1.131370849911999e+00	-1.131370849911999e+00	 8.577991314264376e-02
-1.272792206151439e+00	-9.899494936719987e-01	 1.196507880028469e-01
-1.414213562389759e+00	-8.485281374319987e-01	 1.533006678432724e-01
-1.555634918626958e+00	-7.071067811919984e-01	 1.867295526640003e-01
-1.697056274863038e+00	-5.656854249519985e-01	 2.199374424650974e-01
-1.838477631097999e+00	-4.242640687119985e-01	 2.529243372466326e-01
-1.979898987331838e+00	-2.828427124719985e-01	 2.856902370086777e-01
-2.121320343564558e+00	-1.414213562319985e-01	 3.182351417513044e-01
-2.262741699796158e+00	 8.001432849624734e-12	 3.505590514745807e-01
-2.404163056026638e+00	 1.414213562480014e-01	 3.826619661785747e-01
-2.545584412255999e+00	 2.828427124880016e-01	 4.145438858633584e-01
-8.485281374354983e-01	-8.485281374354983e-01	 6.673620198092906e-02
-9.899494936750332e-01	-7.071067811954983e-01	 9.798913593633365e-02
-1.131370849913638e+00	-5.656854249554983e-01	 1.291103338862816e-01
-1.272792206151313e+00	-4.242640687154982e-01	 1.600997958308343e-01
-1.414213562388058e+00	-2.828427124754982e-01	 1.909575217700526e-01
-1.555634918623873e+00	-1.414213562354982e-01	 2.216835117039996e-01
-1.697056274858758e+00	 4.501760075825700e-12	 2.522777656327360e-01
-1.838477631092713e+00	 1.414213562445017e-01	 2.827402835563227e-01
-1.979898987325738e+00	 2.828427124845017e-01	 3.130710654748186e-01
-2.121320343557833e+00	 4.242640687245017e-01	 3.432701113882853e-01
-2.262741699788998e+00	 5.656854249645018e-01	 3.733374212967829e-01
-5.656854249579980e-01	-5.656854249579980e-01	 4.362470711467185e-02
-7.071067811976580e-01	-4.242640687179980e-01	 7.234812951586859e-02
-8.485281374366381e-01	-2.828427124779981e-01	 1.010290749259030e-01
-9.899494936749381e-01	-1.414213562379980e-01	 1.296675433448199e-01
-1.131370849912558e+00	 2.001981913579698e-12	 1.582635347726746e-01
-1.272792206149498e+00	 1.414213562420021e-01	 1.868170492095158e-01
-1.414213562385758e+00	 2.828427124820019e-01	 2.153280866553962e-01
-1.555634918621338e+00	 4.242640687220020e-01	 2.437966471103668e-01
-1.697056274856238e+00	 5.656854249620019e-01	 2.722227305744793e-01
-1.838477631090458e+00	 7.071067812020018e-01	 3.006063370477824e-01
-1.979898987323998e+00	 8.485281374420021e-01	 3.289474665303285e-01
-2.828427124794977e-01	-2.828427124794977e-01	 1.644542854430688e-02
-4.242640687193128e-01	-1.414213562394977e-01	 4.272776874184828e-02
-5.656854249587578e-01	 5.022510185526130e-13	 6.905689096249162e-02
-7.071067811978328e-01	 1.414213562405023e-01	 9.543279520627237e-02
-8.485281374365378e-01	 2.828427124805023e-01	 1.218554814732307e-01
-9.899494936748727e-01	 4.242640687205023e-01	 1.483249497634060e-01
-1.131370849912838e+00	 5.656854249605021e-01	 1.748412000768375e-01
-1.272792206150433e+00	 7.071067812005022e-01	 2.014042324135670e-01
-1.414213562387657e+00	 8.485281374405022e-01	 2.280140467736333e-01
-1.555634918624513e+00	 9.899494936805021e-01	 2.546706431570792e-01
-1.697056274860998e+00	 1.131370849920502e+00	 2.813740215639451e-01
 0.000000000000000e+00	 0.000000000000000e+00	-1.480163372972892e-02
-1.414213562400000e-01	 1.414213562400000e-01	 9.128053614677861e-03
-2.828427124800000e-01	 2.828427124800000e-01	 3.319378199641892e-02
-4.242640687200001e-01	 4.242640687200001e-01	 5.739555141552267e-02
-5.656854249600001e-01	 5.656854249600001e-01	 8.173336187201349e-02
-7.071067812000000e-01	 7.071067812000000e-01	 1.062072133659162e-01
-8.485281374400000e-01	 8.485281374400000e-01	 1.308171058972618e-01
-9.899494936800000e-01	 9.899494936800000e-01	 1.555630394660762e-01
-1.131370849920000e+00	 1.131370849920000e+00	 1.804450140723903e-01
-1.272792206160000e+00	 1.272792206160000e+00	 2.054630297162313e-01
-1.414213562400000e+00	 1.414213562400000e+00	 2.306170863976323e-01
-1.414213562370000e+01	-1.414213562370000e+01	 1.160761187038868e+00
-1.428355697994000e+01	-1.400071426746100e+01	 1.161751592391067e+00
-1.442497833618000e+01	-1.385929291122400e+01	 1.162039625554191e+00
-1.456639969242000e+01	-1.371787155498900e+01	 1.161620174891626e+00
-1.470782104866000e+01	-1.357645019875600e+01	 1.160493033449322e+00
-1.484924240490000e+01	-1.343502884252500e+01	 1.159045797473371e+00
-1.499066376114000e+01	-1.329360748629600e+01	 1.156970319031967e+00
-1.513208511738000e+01	-1.315218613006900e+01	 1.154270886210170e+00
-1.527350647362000e+01	-1.301076477384400e+01	 1.150951787110590e+00
-1.541492782986000e+01	-1.286934341762100e+01	 1.147017309853381e+00
-1.555634918610000e+01	-1.272792206140000e+01	 1.142471742576245e+00
-1.385929291123900e+01	-1.385929291123900e+01	 1.178695130668301e+00
-1.400071426747549e+01	-1.371787155499981e+01	 1.179760603162192e+00
-1.414213562371234e+01	-1.357645019876224e+01	 1.180147750798404e+00
-1.428355697994956e+01	-1.343502884252629e+01	 1.179851461852859e+00
-1.442497833618716e+01	-1.329360748629196e+01	 1.178866624620429e+00
-1.456639969242513e+01	-1.315218613005925e+01	 1.177188127414923e+00
-1.470782104866346e+01	-1.301076477382816e+01	 1.174811175738648e+00
-1.484924240490216e+01	-1.286934341759869e+01	 1.171797580272333e+00
-1.499066376114124e+01	-1.272792206137084e+01	 1.168168938296808e+00
-1.513208511738069e+01	-1.258650070514461e+01	 1.163929537862172e+00
-1.527350647362050e+01	-1.244507934892000e+01	 1.159083667036066e+00
-1.357645019877600e+01	-1.357645019877600e+01	 1.195322260225651e+00
-1.371787155500954e+01	-1.343502884253664e+01	 1.196392730642530e+00
-1.385929291124376e+01	-1.329360748629856e+01	 1.196808923624455e+00
-1.400071426747866e+01	-1.315218613006176e+01	 1.196565727359887e+00
-1.414213562371424e+01	-1.301076477382624e+01	 1.195658030056233e+00
-1.428355697995050e+01	-1.286934341759200e+01	 1.194080719939844e+00
-1.442497833618744e+01	-1.272792206135904e+01	 1.191828685256018e+00
-1.456639969242506e+01	-1.258650070512736e+01	 1.188896814268999e+00
-1.470782104866336e+01	-1.244507934889696e+01	 1.185275003207080e+00
-1.484924240490234e+01	-1.230365799266784e+01	 1.180648072856955e+00
-1.499066376114200e+01	-1.216223663644000e+01	 1.175419291813845e+00
-1.329360748631100e+01	-1.329360748631100e+01	 1.210512235759668e+00
-1.343502884254216e+01	-1.315218613007149e+01	 1.211517635230885e+00
-1.357645019877426e+01	-1.301076477383296e+01	 1.211892804781203e+00
-1.371787155500728e+01	-1.286934341759541e+01	 1.211632632511616e+00
-1.385929291124124e+01	-1.272792206135884e+01	 1.210732006542067e+00
-1.400071426747613e+01	-1.258650070512325e+01	 1.209185815011445e+00
-1.414213562371194e+01	-1.244507934888864e+01	 1.206988946077588e+00
-1.428355697994868e+01	-1.230365799265501e+01	 1.204136287917276e+00
-1.442497833618636e+01	-1.216223663642236e+01	 1.200622728726239e+00
-1.456639969242497e+01	-1.202081528019069e+01	 1.196443156719154e+00
-1.470782104866450e+01	-1.187939392396000e+01	 1.191581437119941e+00
-1.301076477384400e+01	-1.301076477384400e+01	 1.224134714822597e+00
-1.315218613007336e+01	-1.286934341760436e+01	 1.225004974829565e+00
-1.329360748630384e+01	-1.272792206136544e+01	 1.225269052521017e+00
-1.343502884253544e+01	-1.258650070512724e+01	 1.224921835910481e+00
-1.357645019876816e+01	-1.244507934888976e+01	 1.223958213030433e+00
-1.371787155500200e+01	-1.230365799265300e+01	 1.222373071932297e+00
-1.385929291123696e+01	-1.216223663641696e+01	 1.220161300686443e+00
-1.400071426747304e+01	-1.202081528018164e+01	 1.217317787382191e+00
-1.414213562371024e+01	-1.187939392394704e+01	 1.213837420127806e+00
-1.428355697994856e+01	-1.173797256771316e+01	 1.209715087050504e+00
-1.442497833618800e+01	-1.159655121148000e+01	 1.204945676296445e+00
-1.272792206137500e+01	-1.272792206137500e+01	 1.236059352470099e+00
-1.286934341760313e+01	-1.258650070513525e+01	 1.236724404844312e+00
-1.301076477383250e+01	-1.244507934889600e+01	 1.236807322599721e+00
-1.315218613006313e+01	-1.230365799265725e+01	 1.236302993662383e+00
-1.329360748629500e+01	-1.216223663641900e+01	 1.235206305977308e+00
-1.343502884252813e+01	-1.202081528018125e+01	 1.233512147508448e+00
-1.357645019876250e+01	-1.187939392394400e+01	 1.231215406238708e+00
-1.371787155499813e+01	-1.173797256770725e+01	 1.228310970169943e+00
-1.385929291123500e+01	-1.159655121147100e+01	 1.224793727322951e+00
-1.400071426747312e+01	-1.145512985523525e+01	 1.220658565737482e+00
-1.414213562371250e+01	-1.131370849900000e+01	 1.215900373472238e+00
-1.244507934890400e+01	-1.244507934890400e+01	 1.246155801261182e+00
-1.258650070513146e+01	-1.230365799266416e+01	 1.246545578184229e+00
-1.272792206136024e+01	-1.216223663642464e+01	 1.246377268276509e+00
-1.286934341759034e+01	-1.202081528018544e+01	 1.245645759376610e+00
-1.301076477382176e+01	-1.187939392394656e+01	 1.244345939342067e+00
-1.315218613005450e+01	-1.173797256770800e+01	 1.242472696049364e+00
-1.329360748628856e+01	-1.159655121146976e+01	 1.240020917393936e+00
-1.343502884252394e+01	-1.145512985523184e+01	 1.236985491290167e+00
-1.357645019876064e+01	-1.131370849899424e+01	 1.233361305671393e+00
-1.371787155499866e+01	-1.117228714275696e+01	 1.229143248489895e+00
-1.385929291123800e+01	-1.103086578652000e+01	 1.224326207716908e+00
-1.216223663643100e+01	-1.216223663643100e+01	 1.254293711258126e+00
-1.230365799265836e+01	-1.202081528019109e+01	 1.254338145261705e+00
-1.244507934888706e+01	-1.187939392395136e+01	 1.253848540313881e+00
-1.258650070511709e+01	-1.173797256771181e+01	 1.252819784165762e+00
-1.272792206134844e+01	-1.159655121147244e+01	 1.251246764587413e+00
-1.286934341758112e+01	-1.145512985523325e+01	 1.249124369367849e+00
-1.301076477381514e+01	-1.131370849899424e+01	 1.246447486315029e+00
-1.315218613005048e+01	-1.117228714275541e+01	 1.243211003255868e+00
-1.329360748628716e+01	-1.103086578651676e+01	 1.239409808036230e+00
-1.343502884252517e+01	-1.088944443027829e+01	 1.235038788520932e+00
-1.357645019876450e+01	-1.074802307404000e+01	 1.230092832593735e+00
-1.187939392395600e+01	-1.187939392395600e+01	 1.260342730026416e+00
-1.202081528018384e+01	-1.173797256771604e+01	 1.259971753992347e+00
-1.216223663641296e+01	-1.159655121147616e+01	 1.259090786977556e+00
-1.230365799264336e+01	-1.145512985523636e+01	 1.257694716645681e+00
-1.244507934887504e+01	-1.131370849899664e+01	 1.255778430679309e+00
-1.258650070510800e+01	-1.117228714275700e+01	 1.253336816779976e+00
-1.272792206134224e+01	-1.103086578651744e+01	 1.250364762668171e+00
-1.286934341757776e+01	-1.088944443027796e+01	 1.246857156083336e+00
-1.301076477381456e+01	-1.074802307403856e+01	 1.242808884783863e+00
-1.315218613005264e+01	-1.060660171779924e+01	 1.238214836547096e+00
-1.329360748629200e+01	-1.046518036156000e+01	 1.233069899169330e+00
-1.159655121147900e+01	-1.159655121147900e+01	 1.264172502634656e+00
-1.173797256770789e+01	-1.145512985523901e+01	 1.263316049794895e+00
-1.187939392393794e+01	-1.131370849899904e+01	 1.261973654036417e+00
-1.202081528016917e+01	-1.117228714275909e+01	 1.260140202935379e+00
-1.216223663640156e+01	-1.103086578651916e+01	 1.257810584086889e+00
-1.230365799263513e+01	-1.088944443027925e+01	 1.254979685105009e+00
-1.244507934886986e+01	-1.074802307403936e+01	 1.251642393622751e+00
-1.258650070510576e+01	-1.060660171779949e+01	 1.247793597292082e+00
-1.272792206134284e+01	-1.046518036155964e+01	 1.243428183783920e+00
-1.286934341758109e+01	-1.032375900531981e+01	 1.238351400964795e+00
-1.301076477382050e+01	-1.018233764908000e+01	 1.231609358038854e+00
-1.131370849900000e+01	-1.131370849900000e+01	 1.265652671654510e+00
-1.145512985523050e+01	-1.117228714276000e+01	 1.264240675591164e+00
-1.159655121146200e+01	-1.103086578652000e+01	 1.262366784762423e+00
-1.173797256769450e+01	-1.088944443028000e+01	 1.260025886656960e+00
-1.187939392392800e+01	-1.074802307404000e+01	 1.257212868782404e+00
-1.202081528016250e+01	-1.060660171780000e+01	 1.253922618665337e+00
-1.216223663639800e+01	-1.046518036156000e+01	 1.250150023851294e+00
-1.230365799263450e+01	-1.032375900532000e+01	 1.245703208475790e+00
-1.244507934887200e+01	-1.018233764908000e+01	 1.239610845135765e+00
-1.258650070511050e+01	-1.004091629284000e+01	 1.232932851851217e+00
-1.272792206135000e+01	-9.899494936600000e+00	 1.225676966727778e+00
-1.131370849900000e+01	-1.131370849900000e+01	 1.265652671654510e+00
-1.145512985523050e+01	-1.117228714276000e+01	 1.264240675591164e+00
-1.159655121146200e+01	-1.103086578652000e+01	 1.262366784762423e+00
-1.173797256769450e+01	-1.088944443028000e+01	 1.260025886656960e+00
-1.187939392392800e+01	-1.074802307404000e+01	 1.257212868782404e+00
-1.202081528016250e+01	-1.060660171780000e+01	 1.253922618665337e+00
-1.216223663639800e+01	-1.046518036156000e+01	 1.250150023851294e+00
-1.230365799263450e+01	-1.032375900532000e+01	 1.245703208475790e+00
-1.244507934887200e+01	-1.018233764908000e+01	 1.239610845135765e+00
-1.258650070511050e+01	-1.004091629284000e+01	 1.232932851851217e+00
-1.272792206135000e+01	-9.899494936600000e+00	 1.225676966727778e+00
-1.103086578652000e+01	-1.103086578652000e+01	 1.287464682076792e+00
-1.117228714275230e+01	-1.088944443028019e+01	 1.290959996007266e+00
-1.131370849898542e+01	-1.074802307404036e+01	 1.292930726989209e+00
-1.145512985521935e+01	-1.060660171780051e+01	 1.293371762423803e+00
-1.159655121145408e+01	-1.046518036156064e+01	 1.292277989731184e+00
-1.173797256768962e+01	-1.032375900532075e+01	 1.289482399572391e+00
-1.187939392392598e+01	-1.018233764908084e+01	 1.284103442163643e+00
-1.202081528016314e+01	-1.004091629284091e+01	 1.277031457600033e+00
-1.216223663640112e+01	-9.899494936600961e+00	 1.268274184688852e+00
-1.230365799263990e+01	-9.758073580360987e+00	 1.257839362017614e+00
-1.244507934887950e+01	-9.616652224120999e+00	 1.245734727954077e+00
-1.074802307404000e+01	-1.074802307404000e+01	 1.313708713918168e+00
-1.088944443027392e+01	-1.060660171780076e+01	 1.321324450098704e+00
-1.103086578650848e+01	-1.046518036156144e+01	 1.326352915238894e+00
-1.117228714274368e+01	-1.032375900532204e+01	 1.328673957321115e+00
-1.131370849897952e+01	-1.018233764908256e+01	 1.327603021036666e+00
-1.145512985521600e+01	-1.004091629284300e+01	 1.323731658717184e+00
-1.159655121145312e+01	-9.899494936603361e+00	 1.317067609871641e+00
-1.173797256769088e+01	-9.758073580363639e+00	 1.307618613789216e+00
-1.187939392392928e+01	-9.616652224123840e+00	 1.295392409539319e+00
-1.202081528016832e+01	-9.475230867883960e+00	 1.280396735971586e+00
-1.216223663640800e+01	-9.333809511643999e+00	 1.262639331715891e+00
-1.046518036156000e+01	-1.046518036156000e+01	 1.344254402258832e+00
-1.060660171779534e+01	-1.032375900532171e+01	 1.355157482746494e+00
-1.074802307403118e+01	-1.018233764908324e+01	 1.361989185088275e+00
-1.088944443026751e+01	-1.004091629284459e+01	 1.364913060844982e+00
-1.103086578650432e+01	-9.899494936605757e+00	 1.363936850227284e+00
-1.117228714274163e+01	-9.758073580366750e+00	 1.359068293226054e+00
-1.131370849897942e+01	-9.616652224127559e+00	 1.350315129612379e+00
-1.145512985521770e+01	-9.475230867888190e+00	 1.337685098937557e+00
-1.159655121145648e+01	-9.333809511648639e+00	 1.321185940533113e+00
-1.173797256769575e+01	-9.192388155408912e+00	 1.300825393510800e+00
-1.187939392393550e+01	-9.050966799169000e+00	 1.276611196762611e+00
-1.018233764908000e+01	-1.018233764908000e+01	 1.379141537647594e+00
-1.032375900531658e+01	-1.004091629284304e+01	 1.392455269621522e+00
-1.046518036155352e+01	-9.899494936605759e+00	 1.400761513702812e+00
-1.060660171779082e+01	-9.758073580368158e+00	 1.404068010584052e+00
-1.074802307402848e+01	-9.616652224130238e+00	 1.402382500738023e+00
-1.088944443026650e+01	-9.475230867892000e+00	 1.395712724417716e+00
-1.103086578650488e+01	-9.333809511653440e+00	 1.384066421656327e+00
-1.117228714274362e+01	-9.192388155414559e+00	 1.367451332267273e+00
-1.131370849898272e+01	-9.050966799175360e+00	 1.345875195844198e+00
-1.145512985522218e+01	-8.909545442935839e+00	 1.319345751760971e+00
-1.159655121146200e+01	-8.768124086695998e+00	 1.287870739171704e+00
-9.899494936599998e+00	-9.899494936599998e+00	 1.419421208240974e+00
-1.004091629283763e+01	-9.758073580364750e+00	 1.434497376114972e+00
-1.018233764907550e+01	-9.616652224129000e+00	 1.443474135476986e+00
-1.032375900531362e+01	-9.475230867892748e+00	 1.446359227281716e+00
-1.046518036155200e+01	-9.333809511655998e+00	 1.443160392264058e+00
-1.060660171779062e+01	-9.192388155418749e+00	 1.433885370939117e+00
-1.074802307402950e+01	-9.050966799180999e+00	 1.418541903602205e+00
-1.088944443026863e+01	-8.909545442942749e+00	 1.397137730328860e+00
-1.103086578650800e+01	-8.768124086703999e+00	 1.369680590974841e+00
-1.117228714274762e+01	-8.626702730464748e+00	 1.336178225176141e+00
-1.131370849898750e+01	-8.485281374224998e+00	 1.296638372348994e+00
-9.616652224119999e+00	-9.616652224119999e+00	 1.465469646385747e+00
-9.758073580358481e+00	-9.475230867886840e+00	 1.481504222395111e+00
-9.899494936597119e+00	-9.333809511652960e+00	 1.490347469530876e+00
-1.004091629283592e+01	-9.192388155418358e+00	 1.492007129009860e+00
-1.018233764907488e+01	-9.050966799183037e+00	 1.486490941829072e+00
-1.032375900531400e+01	-8.909545442947000e+00	 1.473806648765737e+00
-1.046518036155328e+01	-8.768124086710237e+00	 1.453961990377287e+00
-1.060660171779272e+01	-8.626702730472758e+00	 1.426964707001381e+00
-1.074802307403232e+01	-8.485281374234559e+00	 1.392822538755902e+00
-1.088944443027208e+01	-8.343860017995636e+00	 1.351543225538969e+00
-1.103086578651200e+01	-8.202438661755998e+00	 1.303134507028946e+00
-9.333809511639998e+00	-9.333809511639998e+00	 1.517507270627099e+00
-9.475230867879143e+00	-9.192388155409304e+00	 1.533696225958957e+00
-9.616652224118379e+00	-9.050966799177640e+00	 1.541601932313327e+00
-9.758073580357703e+00	-8.909545442944987e+00	 1.541232131169145e+00
-9.899494936597119e+00	-8.768124086711358e+00	 1.532594563785540e+00
-1.004091629283662e+01	-8.626702730476747e+00	 1.515696971201860e+00
-1.018233764907622e+01	-8.485281374241158e+00	 1.490547094237666e+00
-1.032375900531590e+01	-8.343860018004589e+00	 1.457152673492742e+00
-1.046518036155568e+01	-8.202438661767037e+00	 1.415521449347107e+00
-1.060660171779554e+01	-8.061017305528509e+00	 1.365661161961010e+00
-1.074802307403550e+01	-7.919595949288997e+00	 1.307579551274950e+00
-9.050966799159998e+00	-9.050966799159998e+00	 1.575754496839244e+00
-9.192388155399620e+00	-8.909545442932160e+00	 1.591293801632569e+00
-9.333809511639279e+00	-8.768124086703040e+00	 1.597457937602232e+00
-9.475230867878979e+00	-8.626702730472640e+00	 1.594254646489291e+00
-9.616652224118720e+00	-8.485281374240959e+00	 1.581691669815011e+00
-9.758073580358500e+00	-8.343860018008000e+00	 1.559776748880867e+00
-9.899494936598318e+00	-8.202438661773758e+00	 1.528517624768554e+00
-1.004091629283818e+01	-8.061017305538238e+00	 1.487922038339995e+00
-1.018233764907808e+01	-7.919595949301437e+00	 1.437997730237346e+00
-1.032375900531802e+01	-7.778174593063357e+00	 1.378752440883002e+00
-1.046518036155800e+01	-7.636753236823998e+00	 1.310193910479606e+00
-8.768124086679997e+00	-8.768124086679997e+00	 1.643287970871511e+00
-8.909545442919901e+00	-8.626702730455387e+00	 1.654517361571319e+00
-9.050966799159818e+00	-8.485281374229158e+00	 1.658135896504809e+00
-9.192388155399742e+00	-8.343860018001306e+00	 1.651295085029366e+00
-9.333809511639679e+00	-8.202438661771838e+00	 1.634002668928394e+00
-9.475230867879624e+00	-8.061017305540748e+00	 1.606266389765510e+00
-9.616652224119576e+00	-7.919595949308038e+00	 1.568093988884554e+00
-9.758073580359541e+00	-7.778174593073707e+00	 1.519493207409596e+00
-9.899494936599517e+00	-7.636753236837757e+00	 1.460471786244944e+00
-1.004091629283950e+01	-7.495331880600188e+00	 1.391037466075149e+00
-1.018233764907950e+01	-7.353910524360998e+00	 1.311197987365009e+00
-8.485281374200000e+00	-8.485281374200000e+00	 1.730101198501717e+00
-8.626702730440000e+00	-8.343860017978999e+00	 1.734115451203749e+00
-8.768124086679999e+00	-8.202438661756000e+00	 1.726790112253359e+00
-8.909545442920001e+00	-8.061017305530999e+00	 1.712573854178063e+00
-9.050966799160001e+00	-7.919595949304000e+00	 1.689747967466243e+00
-9.192388155400000e+00	-7.778174593075001e+00	 1.655386299148207e+00
-9.333809511640000e+00	-7.636753236844000e+00	 1.609496590829952e+00
-9.475230867880001e+00	-7.495331880611000e+00	 1.552086583897712e+00
-9.616652224119999e+00	-7.353910524375999e+00	 1.483164019517955e+00
-9.758073580360000e+00	-7.212489168138999e+00	 1.402736638637405e+00
-9.899494936600000e+00	-7.071067811900000e+00	 1.310812181983031e+00
-7.071067811900000e+00	-4.242640687100000e+00	 1.685524103674126e+00
-7.707463914960500e+00	-3.606244584039500e+00	 1.617442837924095e+00
-8.343860018021999e+00	-2.969848480978000e+00	 1.531441541399869e+00
-8.980256121084500e+00	-2.333452377915500e+00	 1.449816438316513e+00
-9.616652224148000e+00	-1.697056274852000e+00	 1.395484770661259e+00
-1.025304832721250e+01	-1.060660171787500e+00	 1.348267974926932e+00
-1.088944443027800e+01	-4.242640687219998e-01	 1.310070434703378e+00
-1.152584053334450e+01	 2.121320343444999e-01	 1.282796466178844e+00
-1.216223663641200e+01	 8.485281374119996e-01	 1.268350321249066e+00
-1.279863273948050e+01	 1.484924240480500e+00	 1.268636187520634e+00
-1.343502884255000e+01	 2.121320343550000e+00	 1.285558188314356e+00
-6.788225099420000e+00	-3.959797974620500e+00	 1.541244158638338e+00
-7.424621202480596e+00	-3.323401871560000e+00	 1.493172177012046e+00
-8.061017305542180e+00	-2.687005768498499e+00	 1.423458373421043e+00
-8.697413408604755e+00	-2.050609665435999e+00	 1.356796439842897e+00
-9.333809511668321e+00	-1.414213562372500e+00	 1.314848647513617e+00
-9.970205614732876e+00	-7.778174593079999e-01	 1.282824374077659e+00
-1.060660171779842e+01	-1.414213562425000e-01	 1.257211603393455e+00
-1.124299782086496e+01	 4.949747468239997e-01	 1.239914669777738e+00
-1.187939392393248e+01	 1.131370849891500e+00	 1.232837843253595e+00
-1.251579002700099e+01	 1.767766952960000e+00	 1.237885329553839e+00
-1.315218613007050e+01	 2.404163056029501e+00	 1.256961270124357e+00
-6.505382386940000e+00	-3.676955262142000e+00	 1.408445271388946e+00
-7.141778490000879e+00	-3.040559159081500e+00	 1.371287350324318e+00
-7.778174593062719e+00	-2.404163056019999e+00	 1.324530597890451e+00
-8.414570696125521e+00	-1.767766952957500e+00	 1.278922022725199e+00
-9.050966799189281e+00	-1.131370849894000e+00	 1.242837028760117e+00
-9.687362902254002e+00	-4.949747468295002e-01	 1.224734240187075e+00
-1.032375900531968e+01	 1.414213562359999e-01	 1.210435200469256e+00
-1.096015510838632e+01	 7.778174593024999e-01	 1.201844262052113e+00
-1.159655121145392e+01	 1.414213562369999e+00	 1.200865713086326e+00
-1.223294731452248e+01	 2.050609665438500e+00	 1.209403777431156e+00
-1.286934341759200e+01	 2.687005768508000e+00	 1.229362614657815e+00
-6.222539674460000e+00	-3.394112549664499e+00	 1.284238870435298e+00
-6.858935777521355e+00	-2.757716446604000e+00	 1.259359926981309e+00
-7.495331880583620e+00	-2.121320343542501e+00	 1.234463174749842e+00
-8.131727983646796e+00	-1.484924240480000e+00	 1.208810907042754e+00
-8.768124086710881e+00	-8.485281374164997e-01	 1.181665417161895e+00
-9.404520189775875e+00	-2.121320343519999e-01	 1.174219787391925e+00
-1.004091629284178e+01	 4.242640687134999e-01	 1.169963436485707e+00
-1.067731239590860e+01	 1.060660171780000e+00	 1.168807449975143e+00
-1.131370849897632e+01	 1.697056274847499e+00	 1.172656134138730e+00
-1.195010460204495e+01	 2.333452377915999e+00	 1.183413730962422e+00
-1.258650070511450e+01	 2.969848480985501e+00	 1.202984418142986e+00
-5.939696961980000e+00	-3.111269837188000e+00	 1.159407168386866e+00
-6.576093065042018e+00	-2.474873734127500e+00	 1.157194866924772e+00
-7.212489168104880e+00	-1.838477631066000e+00	 1.153061063940961e+00
-7.848885271168579e+00	-1.202081528003500e+00	 1.146268052737307e+00
-8.485281374233120e+00	-5.656854249399996e-01	 1.136078126615683e+00
-9.121677477298501e+00	 7.071067812450015e-02	 1.131503233687249e+00
-9.758073580364721e+00	 7.071067811900000e-01	 1.136018525855921e+00
-1.039446968343178e+01	 1.343502884256500e+00	 1.141026444378059e+00
-1.103086578649968e+01	 1.979898987324000e+00	 1.148431313660225e+00
-1.166726188956842e+01	 2.616295090392499e+00	 1.160137393815296e+00
-1.230365799263800e+01	 3.252691193462000e+00	 1.178048880665834e+00
-5.656854249500000e+00	-2.828427124712500e+00	 1.045239840521402e+00
-6.293250352562875e+00	-2.192031021652001e+00	 1.064597130096443e+00
-6.929646455626501e+00	-1.555634918590500e+00	 1.080129225405545e+00
-7.566042558690875e+00	-9.192388155280002e-01	 1.091098419750597e+00
-8.202438661756002e+00	-2.828427124644999e-01	 1.096767006433482e+00
-8.838834764821874e+00	 3.535533906000000e-01	 1.096806800838951e+00
-9.475230867888500e+00	 9.899494936654998e-01	 1.108822686851293e+00
-1.011162697095587e+01	 1.626345596732000e+00	 1.118723459950264e+00
-1.074802307402400e+01	 2.262741699799499e+00	 1.128413462758275e+00
-1.138441917709287e+01	 2.899137802867999e+00	 1.139796973515367e+00
-1.202081528016250e+01	 3.535533905937500e+00	 1.160034124934682e+00
-5.374011537019999e+00	-2.545584412238000e+00	 9.415418467806340e-01
-6.010407640083920e+00	-1.909188309177500e+00	 9.813716764380542e-01
-6.646803743148480e+00	-1.272792206116000e+00	 1.015472619085332e+00
-7.283199846213680e+00	-6.363961030534997e-01	 1.043106968024363e+00
-7.919595949279521e+00	 1.000022287200864e-11	 1.063537016557037e+00
-8.555992052346001e+00	 6.363961030744998e-01	 1.076025057985246e+00
-9.192388155413118e+00	 1.272792206140000e+00	 1.088598141601617e+00
-9.828784258480880e+00	 1.909188309206499e+00	 1.102120715239435e+00
-1.046518036154928e+01	 2.545584412273999e+00	 1.112824796398501e+00
-1.110157646461832e+01	 3.181980515342499e+00	 1.122614681446257e+00
-1.173797256768800e+01	 3.818376618412000e+00	 1.155160400766362e+00
-5.091168824540000e+00	-2.262741699764500e+00	 8.481181471062847e-01
-5.727564927605155e+00	-1.626345596704000e+00	 9.073234658913332e-01
-6.363961030670820e+00	-9.899494936425000e-01	 9.588962049220531e-01
-7.000357133736996e+00	-3.535533905800000e-01	 1.002098657500341e+00
-7.636753236803681e+00	 2.828427124835001e-01	 1.036193116928087e+00
-8.273149339870875e+00	 9.192388155480000e-01	 1.060441876507186e+00
-8.909545442938581e+00	 1.555634918613499e+00	 1.075567112416509e+00
-9.545941546006794e+00	 2.192031021680000e+00	 1.091440432651625e+00
-1.018233764907552e+01	 2.828427124747499e+00	 1.101887533404784e+00
-1.081873375214475e+01	 3.464823227815999e+00	 1.109705998748671e+00
-1.145512985521450e+01	 4.101219330885500e+00	 1.151203720551255e+00
-4.808326112060000e+00	-1.979898987292001e+00	 7.647737014400684e-01
-5.444722215126579e+00	-1.343502884231500e+00	 8.422574583980029e-01
-6.081118318193520e+00	-7.071067811700003e-01	 9.102049428574421e-01
-6.717514421260820e+00	-7.071067810750016e-02	 9.678784481202688e-01
-7.353910524328480e+00	 5.656854249559997e-01	 1.014540267488372e+00
-7.990306627396500e+00	 1.202081528020500e+00	 1.049452694263648e+00
-8.626702730464880e+00	 1.838477631085999e+00	 1.071878021747997e+00
-9.263098833533620e+00	 2.474873734152499e+00	 1.086904838451372e+00
-9.899494936602720e+00	 3.111269837219999e+00	 1.095823896459358e+00
-1.053589103967218e+01	 3.747665940288499e+00	 1.113671957151457e+00
-1.117228714274200e+01	 4.384062043358000e+00	 1.147883554533462e+00
-4.525483399580001e+00	-1.697056274820500e+00	 6.913134697236877e-01
-5.161879502648196e+00	-1.060660171760000e+00	 7.859786138997783e-01
-5.798275605716580e+00	-4.242640686985004e-01	 8.692037928332207e-01
-6.434671708785155e+00	 2.121320343639997e-01	 9.402512998258787e-01
-7.071067811853920e+00	 8.485281374274998e-01	 9.983834281796311e-01
-7.707463914922876e+00	 1.484924240492000e+00	 1.042862471196371e+00
-8.343860017992021e+00	 2.121320343557500e+00	 1.072950722178003e+00
-8.980256121061355e+00	 2.757716446623999e+00	 1.088736147712287e+00
-9.616652224130879e+00	 3.394112549691499e+00	 1.094856112102933e+00
-1.025304832720060e+01	 4.030508652759998e+00	 1.119033312609636e+00
-1.088944443027050e+01	 4.666904755829500e+00	 1.144919358618624e+00
-4.242640687100000e+00	-1.414213562350000e+00	 6.275424118988393e-01
-4.879036790170001e+00	-7.778174592895001e-01	 7.382918923383703e-01
-5.515432893240001e+00	-1.414213562280001e-01	 8.356977147911109e-01
-6.151828996310000e+00	 4.949747468345002e-01	 9.190221725589020e-01
-6.788225099380000e+00	 1.131370849898000e+00	 9.875275589436056e-01
-7.424621202449999e+00	 1.767766952962500e+00	 1.040476167247106e+00
-8.061017305520000e+00	 2.404163056028000e+00	 1.077130290771306e+00
-8.697413408590000e+00	 3.040559159094500e+00	 1.096752222818128e+00
-9.333809511660000e+00	 3.676955262161999e+00	 1.106814059724061e+00
-9.970205614729998e+00	 4.313351365230499e+00	 1.125509504666674e+00
-1.060660171780000e+01	 4.949747468300000e+00	 1.142030574373147e+00
-1.343502884255000e+01	 2.121320343550000e+00	 1.285558188314356e+00
-1.407142494561950e+01	 2.757716446619501e+00	 1.221802117909018e+00
-1.470782104868800e+01	 3.394112549688002e+00	 1.171643775088634e+00
-1.534421715175550e+01	 4.030508652755502e+00	 1.151160034391665e+00
-1.598061325482200e+01	 4.666904755822002e+00	 1.132209582178750e+00
-1.661700935788750e+01	 5.303300858887503e+00	 1.113652327616727e+00
-1.725340546095200e+01	 5.939696961952004e+00	 1.096704358585620e+00
-1.788980156401550e+01	 6.576093065015503e+00	 1.082581903692158e+00
-1.852619766707801e+01	 7.212489168078005e+00	 1.072501332287261e+00
-1.916259377013951e+01	 7.848885271139504e+00	 1.067679154483521e+00
-1.979898987320000e+01	 8.485281374200000e+00	 1.069332021172700e+00
-1.315218613007050e+01	 2.404163056029501e+00	 1.256961270124357e+00
-1.378858223314018e+01	 3.040559159099005e+00	 1.192334358578321e+00
-1.442497833620924e+01	 3.676955262167521e+00	 1.151747476003856e+00
-1.506137443927766e+01	 4.313351365235046e+00	 1.136318989493362e+00
-1.569777054234546e+01	 4.949747468301583e+00	 1.120042986637555e+00
-1.633416664541262e+01	 5.586143571367127e+00	 1.104056011113445e+00
-1.697056274847916e+01	 6.222539674431683e+00	 1.089574144816828e+00
-1.760695885154507e+01	 6.858935777495249e+00	 1.077813610370334e+00
-1.824335495461034e+01	 7.495331880557824e+00	 1.069990771140904e+00
-1.887975105767499e+01	 8.131727983619411e+00	 1.067322131257287e+00
-1.951614716073900e+01	 8.768124086680000e+00	 1.071024335627516e+00
-1.286934341759200e+01	 2.687005768508000e+00	 1.229362614657815e+00
-1.350573952066184e+01	 3.323401871577521e+00	 1.163806247614182e+00
-1.414213562373136e+01	 3.959797974646082e+00	 1.136864255150214e+00
-1.477853172680056e+01	 4.596194077713681e+00	 1.121735511876251e+00
-1.541492782986944e+01	 5.232590180780321e+00	 1.108120695570082e+00
-1.605132393293800e+01	 5.868986283846002e+00	 1.094690730173248e+00
-1.668772003600624e+01	 6.505382386910723e+00	 1.082661691596871e+00
-1.732411613907416e+01	 7.141778489974485e+00	 1.073249796479028e+00
-1.796051224214176e+01	 7.778174593037284e+00	 1.067671402202237e+00
-1.859690834520905e+01	 8.414570696099128e+00	 1.067143006910943e+00
-1.923330444827600e+01	 9.050966799159999e+00	 1.072881249529006e+00
-1.258650070511450e+01	 2.969848480985501e+00	 1.202984418142986e+00
-1.322289680818446e+01	 3.606244584055045e+00	 1.145597356574783e+00
-1.385929291125436e+01	 4.242640687123681e+00	 1.124366082272597e+00
-1.449568901432419e+01	 4.879036790191408e+00	 1.108346829757489e+00
-1.513208511739395e+01	 5.515432893258224e+00	 1.096514846313998e+00
-1.576848122046363e+01	 6.151828996324130e+00	 1.085628623316146e+00
-1.640487732353324e+01	 6.788225099389125e+00	 1.076039138628031e+00
-1.704127342660279e+01	 7.424621202453209e+00	 1.068962602902726e+00
-1.767766952967227e+01	 8.061017305516387e+00	 1.065615367537876e+00
-1.831406563274167e+01	 8.697413408578651e+00	 1.067213924693172e+00
-1.895046173581100e+01	 9.333809511640000e+00	 1.074974907307847e+00
-1.230365799263800e+01	 3.252691193462000e+00	 1.178048880665834e+00
-1.294005409570806e+01	 3.889087296531581e+00	 1.136380403063425e+00
-1.357645019877824e+01	 4.525483399600321e+00	 1.113972489009134e+00
-1.421284630184854e+01	 5.161879502668222e+00	 1.097267556251381e+00
-1.484924240491896e+01	 5.798275605735283e+00	 1.085297577949966e+00
-1.548563850798951e+01	 6.434671708801504e+00	 1.076941830805183e+00
-1.612203461106016e+01	 7.071067811866881e+00	 1.069778627355665e+00
-1.675843071413095e+01	 7.707463914931424e+00	 1.065024172269033e+00
-1.739482681720185e+01	 8.343860017995123e+00	 1.063894810957601e+00
-1.803122292027287e+01	 8.980256121057986e+00	 1.067607029595857e+00
-1.866761902334400e+01	 9.616652224120001e+00	 1.077377455137956e+00
-1.202081528016250e+01	 3.535533905937500e+00	 1.160034124934682e+00
-1.265721138323263e+01	 4.171930009007126e+00	 1.128814520444507e+00
-1.329360748630300e+01	 4.808326112076000e+00	 1.105402992662523e+00
-1.393000358937363e+01	 5.444722215144127e+00	 1.088185421271736e+00
-1.456639969244450e+01	 6.081118318211500e+00	 1.075547580034026e+00
-1.520279579551563e+01	 6.717514421278127e+00	 1.068702494646554e+00
-1.583919189858700e+01	 7.353910524344003e+00	 1.063952300968324e+00
-1.647558800165863e+01	 7.990306627409129e+00	 1.061506648948784e+00
-1.711198410473050e+01	 8.626702730473504e+00	 1.062581878014465e+00
-1.774838020780263e+01	 9.263098833537128e+00	 1.068394468354201e+00
-1.838477631087500e+01	 9.899494936600000e+00	 1.080161040936616e+00
-1.173797256768800e+01	 3.818376618412000e+00	 1.155160400766362e+00
-1.237436867075816e+01	 4.454772721481680e+00	 1.122619209660345e+00
-1.301076477382864e+01	 5.091168824550722e+00	 1.098377096199245e+00
-1.364716087689944e+01	 5.727564927619123e+00	 1.080819929809694e+00
-1.428355697997056e+01	 6.363961030686882e+00	 1.068333473996231e+00
-1.491995308304200e+01	 7.000357133754004e+00	 1.060982758589710e+00
-1.555634918611377e+01	 7.636753236820484e+00	 1.058632304397861e+00
-1.619274528918585e+01	 8.273149339886325e+00	 1.058482179056160e+00
-1.682914139225825e+01	 8.909545442951526e+00	 1.061748716004909e+00
-1.746553749533097e+01	 9.545941546016087e+00	 1.069648389446836e+00
-1.810193359840400e+01	 1.018233764908000e+01	 1.083397814364577e+00
-1.145512985521450e+01	 4.101219330885500e+00	 1.151203720551255e+00
-1.209152595828466e+01	 4.737615433955245e+00	 1.117513957316313e+00
-1.272792206135516e+01	 5.374011537024482e+00	 1.092614288248780e+00
-1.336431816442599e+01	 6.010407640093206e+00	 1.074890572519335e+00
-1.400071426749714e+01	 6.646803743161422e+00	 1.062728563375598e+00
-1.463711037056863e+01	 7.283199846229128e+00	 1.054513908128359e+00
-1.527350647364045e+01	 7.919595949296324e+00	 1.053890784319543e+00
-1.590990257671259e+01	 8.555992052363010e+00	 1.056022910448802e+00
-1.654629867978506e+01	 9.192388155429185e+00	 1.061467473968878e+00
-1.718269478285787e+01	 9.828784258494849e+00	 1.071440943095936e+00
-1.781909088593100e+01	 1.046518036156000e+01	 1.085081236629405e+00
-1.117228714274200e+01	 4.384062043358000e+00	 1.147883554533462e+00
-1.180868324581214e+01	 5.020458146427820e+00	 1.113218235680059e+00
-1.244507934888256e+01	 5.656854249497282e+00	 1.087834043102819e+00
-1.308147545195326e+01	 6.293250352566382e+00	 1.070116825716890e+00
-1.371787155502425e+01	 6.929646455635122e+00	 1.058452326513393e+00
-1.435426765809550e+01	 7.566042558703503e+00	 1.051226182545657e+00
-1.499066376116705e+01	 8.202438661771522e+00	 1.049799889152169e+00
-1.562705986423886e+01	 8.838834764839183e+00	 1.054200992727922e+00
-1.626345596731097e+01	 9.475230867906484e+00	 1.061810302689925e+00
-1.689985207038335e+01	 1.011162697097343e+01	 1.073844281267333e+00
-1.753624817345600e+01	 1.074802307404000e+01	 1.083854003852008e+00
-1.088944443027050e+01	 4.666904755829500e+00	 1.144919358618624e+00
-1.152584053334059e+01	 5.303300858899404e+00	 1.109451502680720e+00
-1.216223663641084e+01	 5.939696961969120e+00	 1.083755820714486e+00
-1.279863273948127e+01	 6.576093065038647e+00	 1.066218151379960e+00
-1.343502884255186e+01	 7.212489168107980e+00	 1.055224227412190e+00
-1.407142494562263e+01	 7.848885271177128e+00	 1.049159675607466e+00
-1.470782104869356e+01	 8.485281374246084e+00	 1.046431769058181e+00
-1.534421715176467e+01	 9.121677477314847e+00	 1.053088577238418e+00
-1.598061325483594e+01	 9.758073580383423e+00	 1.062849354695337e+00
-1.661700935790739e+01	 1.039446968345181e+01	 1.075602933867895e+00
-1.725340546097900e+01	 1.103086578652000e+01	 1.082176151209707e+00
-1.060660171780000e+01	 4.949747468300000e+00	 1.142030574373147e+00
-1.124299782087000e+01	 5.586143571370001e+00	 1.105933201908130e+00
-1.187939392394000e+01	 6.222539674440001e+00	 1.080099066697540e+00
-1.251579002701000e+01	 6.858935777510001e+00	 1.062913997146726e+00
-1.315218613008000e+01	 7.495331880580002e+00	 1.052763715735084e+00
-1.378858223315000e+01	 8.131727983650002e+00	 1.048033839002288e+00
-1.442497833622000e+01	 8.768124086720004e+00	 1.047109877534514e+00
-1.506137443929001e+01	 9.404520189790006e+00	 1.052757817068983e+00
-1.569777054236001e+01	 1.004091629286000e+01	 1.064656784256237e+00
-1.633416664543000e+01	 1.067731239593000e+01	 1.071103803511777e+00
-1.697056274850000e+01	 1.131370849900000e+01	 1.079985477576558e+00
-4.242640687100000e+00	-1.414213562350000e+00	 6.275424118988393e-01
-4.879036790170001e+00	-7.778174592895001e-01	 7.382918923383703e-01
-5.515432893240001e+00	-1.414213562280001e-01	 8.356977147911109e-01
-6.151828996310000e+00	 4.949747468345002e-01	 9.190221725589020e-01
-6.788225099380000e+00	 1.131370849898000e+00	 9.875275589436056e-01
-7.424621202449999e+00	 1.767766952962500e+00	 1.040476167247106e+00
-8.061017305520000e+00	 2.404163056028000e+00	 1.077130290771306e+00
-8.697413408590000e+00	 3.040559159094500e+00	 1.096752222818128e+00
-9.333809511660000e+00	 3.676955262161999e+00	 1.106814059724061e+00
-9.970205614729998e+00	 4.313351365230499e+00	 1.125509504666674e+00
-1.060660171780000e+01	 4.949747468300000e+00	 1.142030574373147e+00
-3.959797974621000e+00	-1.131370849879500e+00	 5.904381696979700e-01
-4.596194077692615e+00	-4.949747468189997e-01	 7.020590332908203e-01
-5.232590180764061e+00	 1.414213562425003e-01	 8.005551161110511e-01
-5.868986283835336e+00	 7.778174593050006e-01	 8.851887114604862e-01
-6.505382386906438e+00	 1.414213562368500e+00	 9.552221126409647e-01
-7.141778489977376e+00	 2.050609665433001e+00	 1.009917612954341e+00
-7.778174593048140e+00	 2.687005768498500e+00	 1.048537505702490e+00
-8.414570696118734e+00	 3.323401871564999e+00	 1.070344084187294e+00
-9.050966799189160e+00	 3.959797974632500e+00	 1.086447071476084e+00
-9.687362902259414e+00	 4.596194077700999e+00	 1.099362039416320e+00
-1.032375900532950e+01	 5.232590180770499e+00	 1.110465937382281e+00
-3.676955262144000e+00	-8.485281374079995e-01	 5.528044455527438e-01
-4.313351365216660e+00	-2.121320343474996e-01	 6.655334288246484e-01
-4.949747468289041e+00	 4.242640687140006e-01	 7.653565085380516e-01
-5.586143571361139e+00	 1.060660171776501e+00	 8.515359779947633e-01
-6.222539674432960e+00	 1.697056274840000e+00	 9.233341304966038e-01
-6.858935777504499e+00	 2.333452377904501e+00	 9.800132593454083e-01
-7.495331880575760e+00	 2.969848480970000e+00	 1.020835657843019e+00
-8.131727983646741e+00	 3.606244584036500e+00	 1.046661165334687e+00
-8.768124086717437e+00	 4.242640687103999e+00	 1.067615159069441e+00
-9.404520189787858e+00	 4.879036790172500e+00	 1.075943758434154e+00
-1.004091629285800e+01	 5.515432893242001e+00	 1.081924851255920e+00
-3.394112549668999e+00	-5.656854249354992e-01	 5.144461994050137e-01
-4.030508652742133e+00	 7.071067812500065e-02	 6.285200388816879e-01
-4.666904755814940e+00	 7.071067811865007e-01	 7.299068520139247e-01
-5.303300858887416e+00	 1.343502884249001e+00	 8.178689321035275e-01
-5.939696961959558e+00	 1.979898987312501e+00	 8.916685724523074e-01
-6.576093065031374e+00	 2.616295090377001e+00	 9.505680663620744e-01
-7.212489168102860e+00	 3.252691193442501e+00	 9.938297071346472e-01
-7.848885271174014e+00	 3.889087296509001e+00	 1.022537358188268e+00
-8.485281374244838e+00	 4.525483399576501e+00	 1.044690895205115e+00
-9.121677477315334e+00	 5.161879502645001e+00	 1.054974058241379e+00
-9.758073580385503e+00	 5.798275605714501e+00	 1.056126714538035e+00
-3.111269837195999e+00	-2.828427124619991e-01	 4.751683911966370e-01
-3.747665940269039e+00	 3.535533905985009e-01	 5.908238234037744e-01
-4.384062043341761e+00	 9.899494936600008e-01	 6.940111064804880e-01
-5.020458146414159e+00	 1.626345596722501e+00	 7.839925337285827e-01
-5.656854249486240e+00	 2.262741699786001e+00	 8.600303984498553e-01
-6.293250352558000e+00	 2.899137802850501e+00	 9.213869939461063e-01
-6.929646455629440e+00	 3.535533905916000e+00	 9.664655637022217e-01
-7.566042558700558e+00	 4.171930008982500e+00	 9.961121625487476e-01
-8.202438661771358e+00	 4.808326112050000e+00	 1.019697374253550e+00
-8.838834764841840e+00	 5.444722215118500e+00	 1.036172321016866e+00
-9.475230867912000e+00	 6.081118318188001e+00	 1.032790911430204e+00
-2.828427124724999e+00	 1.250122227958173e-11	 4.332219046968703e-01
-3.464823227797373e+00	 6.363961030730012e-01	 5.522497423327518e-01
-4.101219330869498e+00	 1.272792206134501e+00	 6.574742318795663e-01
-4.737615433941374e+00	 1.909188309197002e+00	 7.497117428117274e-01
-5.374011537012999e+00	 2.545584412260502e+00	 8.282245684310348e-01
-6.010407640084375e+00	 3.181980515325001e+00	 8.922750020392775e-01
-6.646803743155501e+00	 3.818376618390501e+00	 9.358214520616681e-01
-7.283199846226373e+00	 4.454772721457001e+00	 9.675942154540293e-01
-7.919595949296999e+00	 5.091168824524501e+00	 9.928432314611613e-01
-8.555992052367372e+00	 5.727564927593000e+00	 1.010900470856956e+00
-9.192388155437497e+00	 6.363961030662500e+00	 1.011636811790830e+00
-2.545584412255999e+00	 2.828427124880016e-01	 3.891308844303351e-01
-3.181980515327139e+00	 9.192388155485015e-01	 5.126027556104620e-01
-3.818376618398157e+00	 1.555634918610001e+00	 6.201011881529778e-01
-4.454772721469059e+00	 2.192031021672502e+00	 7.148315192947668e-01
-5.091168824539839e+00	 2.828427124736002e+00	 7.960560423376299e-01
-5.727564927610499e+00	 3.464823227800502e+00	 8.626119454161880e-01
-6.363961030681039e+00	 4.101219330866002e+00	 9.030610887565620e-01
-7.000357133751458e+00	 4.737615433932501e+00	 9.371921544295291e-01
-7.636753236821757e+00	 5.374011537000001e+00	 9.643371079284981e-01
-8.273149339891937e+00	 6.010407640068502e+00	 9.838279019238169e-01
-8.909545442961997e+00	 6.646803743138000e+00	 9.923837711343465e-01
-2.262741699788998e+00	 5.656854249645018e-01	 3.458634902831131e-01
-2.899137802858333e+00	 1.202081528025001e+00	 4.714267371459928e-01
-3.535533905927738e+00	 1.838477631086502e+00	 5.816969352425531e-01
-4.171930008997213e+00	 2.474873734149002e+00	 6.791568231195068e-01
-4.808326112066759e+00	 3.111269837212502e+00	 7.633297801114269e-01
-5.444722215136373e+00	 3.747665940277002e+00	 8.248911754621582e-01
-6.081118318206059e+00	 4.384062043342502e+00	 8.683931136199259e-01
-6.717514421275813e+00	 5.020458146409001e+00	 9.051146228548292e-01
-7.353910524345638e+00	 5.656854249476501e+00	 9.343876506104944e-01
-7.990306627415533e+00	 6.293250352545002e+00	 9.555441314531595e-01
-8.626702730485500e+00	 6.929646455614503e+00	 9.679159870725165e-01
-1.979898987323998e+00	 8.485281374420021e-01	 3.034197222557380e-01
-2.616295090390958e+00	 1.484924240502502e+00	 4.287336855014875e-01
-3.252691193458238e+00	 2.121320343564002e+00	 5.420664330901201e-01
-3.889087296525839e+00	 2.757716446626503e+00	 6.424926142277535e-01
-4.525483399593758e+00	 3.394112549690001e+00	 7.298507416942113e-01
-5.161879502661997e+00	 4.030508652754501e+00	 7.852392900153743e-01
-5.798275605730558e+00	 4.666904755820001e+00	 8.320261723101805e-01
-6.434671708799438e+00	 5.303300858886502e+00	 8.715702699639344e-01
-7.071067811868639e+00	 5.939696961954002e+00	 9.032035123167259e-01
-7.707463914938157e+00	 6.576093065022501e+00	 9.262578158301191e-01
-8.343860018007998e+00	 7.212489168092002e+00	 9.400650840879826e-01
-1.697056274860998e+00	 1.131370849920502e+00	 2.617995803487427e-01
-2.333452377925013e+00	 1.767766952981002e+00	 3.870524232218826e-01
-2.969848480989658e+00	 2.404163056042502e+00	 5.010146416375116e-01
-3.606244584054933e+00	 3.040559159105003e+00	 6.046438525613176e-01
-4.242640687120839e+00	 3.676955262168503e+00	 6.865238885875584e-01
-4.879036790187373e+00	 4.313351365233003e+00	 7.438649369597092e-01
-5.515432893254538e+00	 4.949747468298503e+00	 7.941689163401969e-01
-6.151828996322332e+00	 5.586143571365001e+00	 8.367677508455160e-01
-6.788225099390758e+00	 6.222539674432502e+00	 8.709933517116557e-01
-7.424621202459812e+00	 6.858935777501001e+00	 8.961776172949341e-01
-8.061017305529496e+00	 7.495331880570502e+00	 9.116524330728366e-01
-1.414213562400000e+00	 1.414213562400000e+00	 2.210030645626680e-01
-2.050609665460500e+00	 2.050609665460500e+00	 3.463829503077095e-01
-2.687005768522000e+00	 2.687005768522000e+00	 4.602884253745402e-01
-3.323401871584501e+00	 3.323401871584501e+00	 5.654154980620104e-01
-3.959797974648001e+00	 3.959797974648001e+00	 6.394241214576674e-01
-4.596194077712500e+00	 4.596194077712500e+00	 7.009767700867053e-01
-5.232590180777999e+00	 5.232590180777999e+00	 7.550300030775481e-01
-5.868986283844499e+00	 5.868986283844499e+00	 8.009157264431648e-01
-6.505382386912000e+00	 6.505382386912000e+00	 8.379658333148809e-01
-7.141778489980499e+00	 7.141778489980499e+00	 8.655122039432027e-01
-7.778174593050000e+00	 7.778174593050000e+00	 8.828867056986622e-01
-1.060660171780000e+01	 4.949747468300000e+00	 1.142030574373147e+00
-1.124299782087000e+01	 5.586143571370001e+00	 1.105933201908130e+00
-1.187939392394000e+01	 6.222539674440001e+00	 1.080099066697540e+00
-1.251579002701000e+01	 6.858935777510001e+00	 1.062913997146726e+00
-1.315218613008000e+01	 7.495331880580002e+00	 1.052763715735084e+00
-1.378858223315000e+01	 8.131727983650002e+00	 1.048033839002288e+00
-1.442497833622000e+01	 8.768124086720004e+00	 1.047109877534514e+00
-1.506137443929001e+01	 9.404520189790006e+00	 1.052757817068983e+00
-1.569777054236001e+01	 1.004091629286000e+01	 1.064656784256237e+00
-1.633416664543000e+01	 1.067731239593000e+01	 1.071103803511777e+00
-1.697056274850000e+01	 1.131370849900000e+01	 1.079985477576558e+00
-1.032375900532950e+01	 5.232590180770499e+00	 1.110465937382281e+00
-1.096015510839941e+01	 5.868986283840587e+00	 1.078887708864274e+00
-1.159655121146912e+01	 6.505382386910843e+00	 1.057591979553389e+00
-1.223294731453865e+01	 7.141778489981267e+00	 1.044964567600662e+00
-1.286934341760798e+01	 7.778174593051863e+00	 1.039391185230231e+00
-1.350573952067713e+01	 8.414570696122629e+00	 1.039257438725556e+00
-1.414213562374608e+01	 9.050966799193562e+00	 1.042948828415652e+00
-1.477853172681485e+01	 9.687362902264667e+00	 1.049731485389626e+00
-1.541492782988342e+01	 1.032375900533594e+01	 1.065428285193340e+00
-1.605132393295181e+01	 1.096015510840739e+01	 1.065212320968239e+00
-1.668772003602000e+01	 1.159655121147900e+01	 1.077273708676763e+00
-1.004091629285800e+01	 5.515432893242001e+00	 1.081924851255920e+00
-1.067731239592782e+01	 6.151828996312141e+00	 1.054698646578442e+00
-1.131370849899728e+01	 6.788225099382561e+00	 1.037774218648989e+00
-1.195010460206638e+01	 7.424621202453264e+00	 1.029537375364719e+00
-1.258650070513512e+01	 8.061017305524244e+00	 1.028373818694935e+00
-1.322289680820350e+01	 8.697413408595503e+00	 1.032669144667313e+00
-1.385929291127152e+01	 9.333809511667045e+00	 1.040808843354130e+00
-1.449568901433918e+01	 9.970205614738864e+00	 1.051178298858477e+00
-1.513208511740648e+01	 1.060660171781096e+01	 1.056685809200115e+00
-1.576848122047343e+01	 1.124299782088335e+01	 1.058989644659782e+00
-1.640487732354000e+01	 1.187939392395600e+01	 1.074032571096040e+00
-9.758073580385503e+00	 5.798275605714501e+00	 1.056126714538035e+00
-1.039446968345524e+01	 6.434671708784667e+00	 1.033085415617857e+00
-1.103086578652448e+01	 7.071067811855163e+00	 1.020365186575316e+00
-1.166726188959321e+01	 7.707463914925988e+00	 1.016351825054113e+00
-1.230365799266142e+01	 8.343860017997141e+00	 1.019431022769147e+00
-1.294005409572913e+01	 8.980256121068628e+00	 1.027988365492738e+00
-1.357645019879632e+01	 9.616652224140443e+00	 1.040409333040847e+00
-1.421284630186301e+01	 1.025304832721259e+01	 1.055079299259305e+00
-1.484924240492918e+01	 1.088944443028506e+01	 1.046937034679635e+00
-1.548563850799485e+01	 1.152584053335787e+01	 1.052373577538610e+00
-1.612203461106000e+01	 1.216223663643100e+01	 1.070199866293009e+00
-9.475230867912000e+00	 6.081118318188001e+00	 1.032790911430204e+00
-1.011162697098168e+01	 6.717514421258161e+00	 1.013767402207295e+00
-1.074802307405072e+01	 7.353910524328643e+00	 1.005084271580830e+00
-1.138441917711912e+01	 7.990306627399442e+00	 1.005127306941489e+00
-1.202081528018688e+01	 8.626702730470564e+00	 1.012282189750192e+00
-1.265721138325400e+01	 9.263098833542006e+00	 1.024934495524324e+00
-1.329360748632048e+01	 9.899494936613765e+00	 1.041469693823962e+00
-1.393000358938633e+01	 1.053589103968585e+01	 1.049128149000063e+00
-1.456639969245153e+01	 1.117228714275825e+01	 1.038504730616145e+00
-1.520279579551608e+01	 1.180868324583096e+01	 1.045301923418377e+00
-1.583919189858000e+01	 1.244507934890400e+01	 1.065713396587772e+00
-9.192388155437497e+00	 6.363961030662500e+00	 1.011636811790830e+00
-9.828784258507126e+00	 7.000357133732627e+00	 9.964639782282892e-01
-1.046518036157600e+01	 7.636753236803002e+00	 9.916508475707002e-01
-1.110157646464412e+01	 8.273149339873628e+00	 9.955831969561413e-01
-1.173797256771150e+01	 8.909545442944504e+00	 1.006646697591979e+00
-1.237436867077813e+01	 9.545941546015628e+00	 1.023226914741094e+00
-1.301076477384400e+01	 1.018233764908701e+01	 1.043709307708098e+00
-1.364716087690913e+01	 1.081873375215863e+01	 1.037703547540905e+00
-1.428355697997350e+01	 1.145512985523051e+01	 1.031075458040258e+00
-1.491995308303713e+01	 1.209152595830263e+01	 1.037712486974157e+00
-1.555634918610000e+01	 1.272792206137500e+01	 1.060510965161888e+00
-8.909545442961997e+00	 6.646803743138000e+00	 9.923837711343465e-01
-9.545941546031576e+00	 7.283199846208062e+00	 9.808945012183556e-01
-1.018233764910032e+01	 7.919595949278243e+00	 9.797842741060108e-01
-1.081873375216822e+01	 8.555992052348541e+00	 9.874388566832202e-01
-1.145512985523528e+01	 9.192388155418966e+00	 1.002243909904222e+00
-1.209152595830150e+01	 9.828784258489502e+00	 1.022584988777814e+00
-1.272792206136688e+01	 1.046518036156017e+01	 1.038561457677231e+00
-1.336431816443142e+01	 1.110157646463094e+01	 1.025915815621350e+00
-1.400071426749513e+01	 1.173797256770185e+01	 1.022973144646805e+00
-1.463711037055798e+01	 1.237436867077287e+01	 1.030288909484776e+00
-1.527350647362000e+01	 1.301076477384400e+01	 1.054530376058369e+00
-8.626702730485500e+00	 6.929646455614503e+00	 9.679159870725165e-01
-9.263098833555041e+00	 7.566042558684465e+00	 9.667783143701976e-01
-9.899494936623679e+00	 8.202438661754362e+00	 9.692038964029805e-01
-1.053589103969141e+01	 8.838834764824190e+00	 9.804136333629523e-01
-1.117228714275822e+01	 9.475230867893943e+00	 9.987931759516486e-01
-1.180868324582413e+01	 1.011162697096363e+01	 1.022728068924208e+00
-1.244507934888912e+01	 1.074802307403325e+01	 1.022537619011068e+00
-1.308147545195321e+01	 1.138441917710279e+01	 1.013827771207022e+00
-1.371787155501638e+01	 1.202081528017227e+01	 1.014260607375398e+00
-1.435426765807865e+01	 1.265721138324167e+01	 1.024391597441964e+00
-1.499066376114000e+01	 1.329360748631100e+01	 1.047709434181646e+00
-8.343860018007998e+00	 7.212489168092002e+00	 9.400650840879826e-01
-8.980256121077518e+00	 7.848885271161842e+00	 9.538347465309248e-01
-9.616652224146078e+00	 8.485281374231363e+00	 9.596290453321739e-01
-1.025304832721368e+01	 9.121677477300565e+00	 9.742268598898525e-01
-1.088944443028032e+01	 9.758073580369444e+00	 9.960138306532178e-01
-1.152584053334600e+01	 1.039446968343801e+01	 1.019697067181319e+00
-1.216223663641072e+01	 1.103086578650625e+01	 1.006586199018536e+00
-1.279863273947448e+01	 1.166726188957417e+01	 1.001502233347936e+00
-1.343502884253728e+01	 1.230365799264177e+01	 1.005000664249992e+00
-1.407142494559912e+01	 1.294005409570905e+01	 1.017636966845134e+00
-1.470782104866000e+01	 1.357645019877600e+01	 1.039985945297563e+00
-8.061017305529496e+00	 7.495331880570502e+00	 9.116524330728366e-01
-8.697413408599006e+00	 8.131727983640191e+00	 9.374626681347842e-01
-9.333809511667519e+00	 8.768124086709244e+00	 9.507790374177167e-01
-9.970205614735045e+00	 9.404520189777669e+00	 9.685978548119373e-01
-1.060660171780158e+01	 1.004091629284546e+01	 9.936251945813307e-01
-1.124299782086713e+01	 1.067731239591263e+01	 1.000004625148351e+00
-1.187939392393168e+01	 1.131370849897917e+01	 9.907700188601596e-01
-1.251579002699525e+01	 1.195010460204507e+01	 9.890020221785090e-01
-1.315218613005782e+01	 1.258650070511035e+01	 9.952561343789218e-01
-1.378858223311941e+01	 1.322289680817499e+01	 1.010087835776549e+00
-1.442497833618000e+01	 1.385929291123900e+01	 1.034052587727179e+00
-7.778174593050000e+00	 7.778174593050000e+00	 8.828867056986622e-01
-8.414570696119501e+00	 8.414570696119501e+00	 9.155536896252117e-01
-9.050966799188002e+00	 9.050966799188002e+00	 9.423731748365101e-01
-9.687362902255503e+00	 9.687362902255503e+00	 9.632459223299397e-01
-1.032375900532200e+01	 1.032375900532200e+01	 9.913465739610459e-01
-1.096015510838750e+01	 1.096015510838750e+01	 9.808201590742953e-01
-1.159655121145200e+01	 1.159655121145200e+01	 9.751519007809391e-01
-1.223294731451550e+01	 1.223294731451550e+01	 9.763899589176039e-01
-1.286934341757800e+01	 1.286934341757800e+01	 9.850898379549267e-01
-1.350573952063951e+01	 1.350573952063951e+01	 1.001807023402848e+00
-1.414213562370000e+01	 1.414213562370000e+01	 1.027096981811609e+00
-8.485281374200000e+00	-5.656854249500000e+00	 1.809820294164948e+00
-9.121677477279500e+00	-5.020458146439500e+00	 1.675574995623193e+00
-9.758073580358001e+00	-4.384062043378000e+00	 1.571456297410252e+00
-1.039446968343550e+01	-3.747665940315499e+00	 1.479617995318009e+00
-1.103086578651200e+01	-3.111269837252000e+00	 1.386222067967011e+00
-1.166726188958750e+01	-2.474873734187500e+00	 1.296339973676569e+00
-1.230365799266200e+01	-1.838477631122000e+00	 1.225451589218178e+00
-1.294005409573550e+01	-1.202081528055500e+00	 1.175461140140122e+00
-1.357645019880800e+01	-5.656854249880006e-01	 1.148272787703987e+00
-1.421284630187950e+01	 7.071067808049936e-02	 1.145790628888025e+00
-1.484924240495000e+01	 7.071067811500000e-01	 1.167391369655216e+00
-8.343860017978999e+00	-5.515432893260000e+00	 1.806073499522555e+00
-8.980256121054893e+00	-4.879036790199499e+00	 1.667639428639515e+00
-9.616652224130160e+00	-4.242640687138000e+00	 1.566803960676087e+00
-1.025304832720481e+01	-3.606244584075501e+00	 1.477977679249847e+00
-1.088944443027884e+01	-2.969848481012001e+00	 1.381072963683786e+00
-1.152584053335225e+01	-2.333452377947500e+00	 1.293784771704928e+00
-1.216223663642504e+01	-1.697056274882000e+00	 1.225217571266126e+00
-1.279863273949721e+01	-1.060660171815500e+00	 1.177275596979373e+00
-1.343502884256876e+01	-4.242640687480004e-01	 1.151863019169380e+00
-1.407142494563969e+01	 2.121320343204995e-01	 1.150883943876950e+00
-1.470782104871000e+01	 8.485281373900001e-01	 1.176211268764212e+00
-8.202438661756000e+00	-5.374011537020000e+00	 1.801934803869482e+00
-8.838834764828659e+00	-4.737615433959499e+00	 1.659379727161075e+00
-9.475230867901040e+00	-4.101219330898001e+00	 1.561825379252380e+00
-1.011162697097314e+01	-3.464823227835500e+00	 1.476009009601773e+00
-1.074802307404496e+01	-2.828427124772000e+00	 1.375507021165383e+00
-1.138441917711650e+01	-2.192031021707500e+00	 1.290790884424934e+00
-1.202081528018776e+01	-1.555634918642000e+00	 1.224523020648055e+00
-1.265721138325874e+01	-9.192388155754999e-01	 1.178607673510510e+00
-1.329360748632944e+01	-2.828427125080005e-01	 1.154949022400208e+00
-1.393000358939986e+01	 3.535533905604996e-01	 1.155451182420558e+00
-1.456639969247000e+01	 9.899494936300001e-01	 1.182018204393845e+00
-8.061017305530999e+00	-5.232590180780001e+00	 1.797387033293801e+00
-8.697413408600807e+00	-4.596194077719500e+00	 1.657482989488936e+00
-9.333809511670641e+00	-3.959797974658001e+00	 1.556548099548001e+00
-9.970205614740490e+00	-3.323401871595500e+00	 1.467989180947746e+00
-1.060660171781036e+01	-2.687005768532000e+00	 1.369552014853668e+00
-1.124299782088025e+01	-2.050609665467500e+00	 1.287386085830793e+00
-1.187939392395016e+01	-1.414213562402000e+00	 1.223395710910522e+00
-1.251579002702008e+01	-7.778174593355001e-01	 1.179485142832456e+00
-1.315218613009004e+01	-1.414213562680006e-01	 1.157558570047759e+00
-1.378858223316001e+01	 4.949747468004994e-01	 1.159520116722515e+00
-1.442497833623000e+01	 1.131370849870000e+00	 1.187273842741106e+00
-7.919595949304000e+00	-5.091168824540000e+00	 1.792413014189373e+00
-8.555992052371341e+00	-4.454772721479500e+00	 1.655993364319265e+00
-9.192388155438961e+00	-3.818376618418000e+00	 1.550999667805079e+00
-9.828784258506859e+00	-3.181980515355500e+00	 1.458871797566700e+00
-1.046518036157504e+01	-2.545584412292000e+00	 1.363235719431620e+00
-1.110157646464350e+01	-1.909188309227500e+00	 1.283598150157820e+00
-1.173797256771224e+01	-1.272792206162000e+00	 1.221863415841188e+00
-1.237436867078126e+01	-6.363961030955002e-01	 1.179935778285224e+00
-1.301076477385056e+01	-2.800071285946615e-11	 1.159719435004409e+00
-1.364716087692014e+01	 6.363961030404993e-01	 1.163118519227570e+00
-1.428355697999000e+01	 1.272792206110000e+00	 1.192037099901244e+00
-7.778174593075001e+00	-4.949747468300000e+00	 1.786995573255827e+00
-8.414570696140251e+00	-4.313351365239500e+00	 1.654095247144258e+00
-9.050966799206003e+00	-3.676955262178001e+00	 1.545207630099034e+00
-9.687362902272252e+00	-3.040559159115501e+00	 1.449442748131063e+00
-1.032375900533900e+01	-2.404163056052000e+00	 1.356585909823332e+00
-1.096015510840625e+01	-1.767766952987500e+00	 1.279454851882440e+00
-1.159655121147400e+01	-1.131370849922000e+00	 1.219953909468815e+00
-1.223294731454225e+01	-4.949747468555004e-01	 1.179987353449920e+00
-1.286934341761100e+01	 1.414213562119995e-01	 1.161459390403622e+00
-1.350573952068025e+01	 7.778174592804994e-01	 1.166274162621547e+00
-1.414213562375000e+01	 1.414213562350000e+00	 1.196335748112455e+00
-7.636753236844000e+00	-4.808326112060000e+00	 1.781117537498554e+00
-8.273149339907539e+00	-4.171930008999500e+00	 1.651771464972339e+00
-8.909545442971758e+00	-3.535533905937999e+00	 1.539199535042993e+00
-9.545941546036660e+00	-2.899137802875500e+00	 1.439729808253736e+00
-1.018233764910224e+01	-2.262741699812000e+00	 1.349630361194028e+00
-1.081873375216850e+01	-1.626345596747500e+00	 1.274983965722192e+00
-1.145512985523544e+01	-9.899494936820001e-01	 1.217694966063270e+00
-1.209152595830306e+01	-3.535533906155002e-01	 1.179667642148749e+00
-1.272792206137136e+01	 2.828427124519993e-01	 1.162806209619945e+00
-1.336431816444033e+01	 9.192388155204992e-01	 1.169014819831352e+00
-1.400071426751000e+01	 1.555634918590000e+00	 1.200197559854012e+00
-7.495331880611000e+00	-4.666904755820000e+00	 1.774761734228706e+00
-8.131727983673210e+00	-4.030508652759500e+00	 1.649004845117678e+00
-8.768124086736242e+00	-3.394112549698000e+00	 1.533145855376044e+00
-9.404520189800088e+00	-2.757716446635500e+00	 1.429760753788756e+00
-1.004091629286476e+01	-2.121320343572000e+00	 1.342396848950044e+00
-1.067731239593025e+01	-1.484924240507500e+00	 1.270213266635728e+00
-1.131370849899656e+01	-8.485281374420003e-01	 1.215114360135524e+00
-1.195010460206369e+01	-2.121320343755005e-01	 1.179004418445016e+00
-1.258650070513164e+01	 4.242640686919993e-01	 1.163787666269025e+00
-1.322289680820041e+01	 1.060660171760499e+00	 1.171368264024978e+00
-1.385929291127000e+01	 1.697056274830000e+00	 1.203650307846261e+00
-7.353910524375999e+00	-4.525483399580001e+00	 1.767910991063174e+00
-7.990306627437260e+00	-3.889087296519500e+00	 1.645778215200196e+00
-8.626702730499442e+00	-3.252691193458000e+00	 1.526744485537794e+00
-9.263098833562541e+00	-2.616295090395500e+00	 1.419563360831301e+00
-9.899494936626562e+00	-1.979898987332000e+00	 1.334913148738849e+00
-1.053589103969150e+01	-1.343502884267500e+00	 1.265170529822821e+00
-1.117228714275736e+01	-7.071067812020000e-01	 1.212239866437668e+00
-1.180868324582414e+01	-7.071067813550025e-02	 1.178025456643128e+00
-1.244507934889184e+01	 5.656854249319995e-01	 1.164431534207603e+00
-1.308147545196046e+01	 1.202081528000499e+00	 1.173362268611504e+00
-1.371787155503000e+01	 1.838477631070000e+00	 1.206721765050633e+00
-7.212489168138999e+00	-4.384062043340000e+00	 1.760548135924604e+00
-7.848885271199691e+00	-3.747665940279500e+00	 1.642074403145535e+00
-8.485281374261358e+00	-3.111269837218000e+00	 1.519845236967297e+00
-9.121677477324010e+00	-2.474873734155500e+00	 1.409165405717679e+00
-9.758073580387640e+00	-1.838477631092000e+00	 1.327207036449043e+00
-1.039446968345225e+01	-1.202081528027500e+00	 1.259883530724368e+00
-1.103086578651784e+01	-5.656854249620000e-01	 1.209099259962899e+00
-1.166726188958441e+01	 7.071067810449948e-02	 1.176758531288604e+00
-1.230365799265196e+01	 7.071067811719998e-01	 1.164765587533515e+00
-1.294005409572049e+01	 1.343502884240499e+00	 1.175024607241103e+00
-1.357645019879000e+01	 1.979898987310000e+00	 1.209439704669641e+00
-7.071067811900000e+00	-4.242640687100000e+00	 1.752655997041359e+00
-7.707463914960500e+00	-3.606244584039500e+00	 1.637876249436262e+00
-8.343860018021999e+00	-2.969848480978000e+00	 1.512423729657329e+00
-8.980256121084500e+00	-2.333452377915500e+00	 1.398594661919614e+00
-9.616652224148000e+00	-1.697056274852000e+00	 1.319306288210359e+00
-1.025304832721250e+01	-1.060660171787500e+00	 1.254380045022387e+00
-1.088944443027800e+01	-4.242640687219998e-01	 1.205720315945540e+00
-1.152584053334450e+01	 2.121320343444999e-01	 1.175231417168067e+00
-1.216223663641200e+01	 8.485281374119996e-01	 1.164817600585704e+00
-1.279863273948050e+01	 1.484924240480500e+00	 1.176383053805042e+00
-1.343502884255000e+01	 2.121320343550000e+00	 1.211831900146887e+00
-1.484924240495000e+01	 7.071067811500000e-01	 1.167391369655216e+00
-1.548563850801950e+01	 1.343502884220501e+00	 1.150616144360302e+00
-1.612203461108800e+01	 1.979898987292001e+00	 1.137908457318723e+00
-1.675843071415550e+01	 2.616295090364502e+00	 1.128458286605040e+00
-1.739482681722200e+01	 3.252691193438002e+00	 1.121455578678593e+00
-1.803122292028750e+01	 3.889087296512503e+00	 1.119794933076568e+00
-1.866761902335200e+01	 4.525483399588003e+00	 1.116758414942957e+00
-1.930401512641550e+01	 5.161879502664504e+00	 1.111012498448681e+00
-1.994041122947800e+01	 5.798275605742004e+00	 1.103773582857722e+00
-2.057680733253951e+01	 6.434671708820505e+00	 1.096258208195080e+00
-2.121320343560000e+01	 7.071067811900000e+00	 1.095272512622146e+00
-1.470782104871000e+01	 8.485281373900001e-01	 1.176211268764212e+00
-1.534421715177950e+01	 1.484924240460491e+00	 1.156695989903817e+00
-1.598061325484800e+01	 2.121320343531961e+00	 1.141612396471702e+00
-1.661700935791550e+01	 2.757716446604412e+00	 1.130150469449261e+00
-1.725340546098200e+01	 3.394112549677842e+00	 1.121500158202878e+00
-1.788980156404751e+01	 4.030508652752252e+00	 1.120344512102933e+00
-1.852619766711200e+01	 4.666904755827644e+00	 1.116293980116559e+00
-1.916259377017550e+01	 5.303300858904015e+00	 1.109791990965467e+00
-1.979898987323801e+01	 5.939696961981366e+00	 1.102054940922831e+00
-2.043538597629950e+01	 6.576093065059696e+00	 1.094299367022908e+00
-2.107178207936000e+01	 7.212489168139000e+00	 1.092088247138465e+00
-1.456639969247000e+01	 9.899494936300001e-01	 1.182018204393845e+00
-1.520279579553950e+01	 1.626345596700461e+00	 1.161854531053942e+00
-1.583919189860800e+01	 2.262741699771842e+00	 1.144475574046667e+00
-1.647558800167550e+01	 2.899137802844143e+00	 1.131082433620546e+00
-1.711198410474200e+01	 3.535533905917362e+00	 1.122220813841703e+00
-1.774838020780750e+01	 4.171930008991503e+00	 1.120613227238363e+00
-1.838477631087201e+01	 4.808326112066564e+00	 1.115595870601744e+00
-1.902117241393550e+01	 5.444722215142544e+00	 1.108384996470432e+00
-1.965756851699800e+01	 6.081118318219443e+00	 1.100196998126679e+00
-2.029396462005950e+01	 6.717514421297264e+00	 1.092248409613885e+00
-2.093036072312000e+01	 7.353910524375999e+00	 1.088854187256005e+00
-1.442497833623000e+01	 1.131370849870000e+00	 1.187273842741106e+00
-1.506137443929950e+01	 1.767766952940411e+00	 1.166085048868906e+00
-1.569777054236800e+01	 2.404163056011642e+00	 1.146491270958324e+00
-1.633416664543550e+01	 3.040559159083692e+00	 1.131247459890083e+00
-1.697056274850200e+01	 3.676955262156562e+00	 1.123395257583834e+00
-1.760695885156751e+01	 4.313351365230253e+00	 1.120610094545328e+00
-1.824335495463200e+01	 4.949747468304762e+00	 1.114673102608734e+00
-1.887975105769550e+01	 5.586143571380094e+00	 1.106800531321540e+00
-1.951614716075800e+01	 6.222539674456245e+00	 1.098208770974965e+00
-2.015254326381950e+01	 6.858935777533214e+00	 1.090114352621441e+00
-2.078893936688000e+01	 7.495331880611000e+00	 1.085570050496849e+00
-1.428355697999000e+01	 1.272792206110000e+00	 1.192037099901244e+00
-1.491995308305950e+01	 1.909188309180341e+00	 1.169380824457421e+00
-1.555634918612800e+01	 2.545584412251361e+00	 1.147652768171874e+00
-1.619274528919550e+01	 3.181980515323060e+00	 1.130638829079549e+00
-1.682914139226200e+01	 3.818376618395442e+00	 1.124259678645008e+00
-1.746553749532750e+01	 4.454772721468503e+00	 1.120344130195192e+00
-1.810193359839201e+01	 5.091168824542244e+00	 1.113534692456648e+00
-1.873832970145550e+01	 5.727564927616665e+00	 1.105047611985659e+00
-1.937472580451800e+01	 6.363961030691764e+00	 1.096099276082296e+00
-2.001112190757950e+01	 7.000357133767547e+00	 1.087906212807912e+00
-2.064751801064000e+01	 7.636753236843999e+00	 1.082235554370590e+00
-1.414213562375000e+01	 1.414213562350000e+00	 1.196335748112455e+00
-1.477853172681950e+01	 2.050609665420250e+00	 1.171735138978690e+00
-1.541492782988800e+01	 2.687005768491002e+00	 1.147953346703003e+00
-1.605132393295550e+01	 3.323401871562252e+00	 1.129249822061112e+00
-1.668772003602200e+01	 3.959797974634002e+00	 1.124823093157728e+00
-1.732411613908750e+01	 4.596194077706253e+00	 1.119824350468220e+00
-1.796051224215201e+01	 5.232590180779004e+00	 1.112189656573512e+00
-1.859690834521550e+01	 5.868986283852253e+00	 1.103135255038562e+00
-1.923330444827801e+01	 6.505382386926005e+00	 1.093877530172187e+00
-1.986970055133951e+01	 7.141778490000255e+00	 1.085633007044545e+00
-2.050609665440000e+01	 7.778174593075000e+00	 1.079618351504628e+00
-1.400071426751000e+01	 1.555634918590000e+00	 1.200197559854012e+00
-1.463711037057950e+01	 2.192031021660141e+00	 1.172492759372517e+00
-1.527350647364800e+01	 2.828427124730561e+00	 1.147386287617885e+00
-1.590990257671550e+01	 3.464823227801261e+00	 1.127535148478593e+00
-1.654629867978200e+01	 4.101219330872242e+00	 1.125094517363389e+00
-1.718269478284750e+01	 4.737615433943503e+00	 1.119059771753581e+00
-1.781909088591200e+01	 5.374011537015043e+00	 1.110647011496253e+00
-1.845548698897550e+01	 6.010407640086864e+00	 1.101072477164930e+00
-1.909188309203800e+01	 6.646803743158965e+00	 1.091552550077062e+00
-1.972827919509950e+01	 7.283199846231344e+00	 1.083303752311504e+00
-2.036467529816000e+01	 7.919595949304000e+00	 1.077542746726012e+00
-1.385929291127000e+01	 1.697056274830000e+00	 1.203650307846261e+00
-1.449568901433950e+01	 2.333452377900011e+00	 1.172047075546836e+00
-1.513208511740800e+01	 2.969848480970041e+00	 1.145944872033184e+00
-1.576848122047550e+01	 3.606244584040092e+00	 1.128770348204079e+00
-1.640487732354200e+01	 4.242640687110161e+00	 1.125082967612298e+00
-1.704127342660750e+01	 4.879036790180252e+00	 1.118059410549351e+00
-1.767766952967200e+01	 5.515432893250363e+00	 1.108915773870712e+00
-1.831406563273551e+01	 6.151828996320495e+00	 1.098868295158359e+00
-1.895046173579800e+01	 6.788225099390644e+00	 1.089133352738264e+00
-1.958685783885950e+01	 7.424621202460814e+00	 1.080927465697870e+00
-2.022325394192000e+01	 8.061017305530999e+00	 1.075467293903585e+00
-1.371787155503000e+01	 1.838477631070000e+00	 1.206721765050633e+00
-1.435426765809950e+01	 2.474873734139861e+00	 1.171255959163898e+00
-1.499066376116800e+01	 3.111269837209442e+00	 1.143622381116049e+00
-1.562705986423550e+01	 3.747665940278742e+00	 1.129684397291339e+00
-1.626345596730200e+01	 4.384062043347762e+00	 1.124797460363669e+00
-1.689985207036750e+01	 5.020458146416502e+00	 1.116832283462518e+00
-1.753624817343200e+01	 5.656854249484963e+00	 1.107004960451640e+00
-1.817264427649550e+01	 6.293250352553143e+00	 1.096531725921359e+00
-1.880904037955801e+01	 6.929646455621044e+00	 1.086628955206054e+00
-1.944543648261951e+01	 7.566042558688665e+00	 1.078513164401644e+00
-2.008183258568000e+01	 8.202438661756000e+00	 1.073401010383081e+00
-1.357645019879000e+01	 1.979898987310000e+00	 1.209439704669641e+00
-1.421284630185950e+01	 2.616295090379690e+00	 1.170147182978569e+00
-1.484924240492800e+01	 3.252691193448761e+00	 1.140412096084117e+00
-1.548563850799550e+01	 3.889087296517212e+00	 1.130286312160712e+00
-1.612203461106200e+01	 4.525483399585042e+00	 1.124247012185625e+00
-1.675843071412750e+01	 5.161879502652253e+00	 1.115387407208985e+00
-1.739482681719200e+01	 5.798275605718843e+00	 1.104923588102712e+00
-1.803122292025550e+01	 6.434671708784814e+00	 1.094071786465361e+00
-1.866761902331800e+01	 7.071067811850163e+00	 1.084048374639612e+00
-1.930401512637950e+01	 7.707463914914894e+00	 1.076069865729752e+00
-1.994041122944000e+01	 8.343860017978999e+00	 1.071352913619164e+00
-1.343502884255000e+01	 2.121320343550000e+00	 1.211831900146887e+00
-1.407142494561950e+01	 2.757716446619501e+00	 1.168748519986794e+00
-1.470782104868800e+01	 3.394112549688002e+00	 1.136307298205510e+00
-1.534421715175550e+01	 4.030508652755502e+00	 1.130585109341452e+00
-1.598061325482200e+01	 4.666904755822002e+00	 1.123440639755209e+00
-1.661700935788750e+01	 5.303300858887503e+00	 1.113733798613572e+00
-1.725340546095200e+01	 5.939696961952004e+00	 1.102680673796516e+00
-1.788980156401550e+01	 6.576093065015503e+00	 1.091497493910720e+00
-1.852619766707801e+01	 7.212489168078005e+00	 1.081400628307051e+00
-1.916259377013951e+01	 7.848885271139504e+00	 1.073606587098051e+00
-1.979898987320000e+01	 8.485281374200000e+00	 1.069332021175429e+00
-9.899494936600000e+00	-7.071067811900000e+00	 1.387875941129243e+00
-1.053589103967900e+01	-6.434671708820501e+00	 1.338825361176042e+00
-1.117228714275600e+01	-5.798275605742001e+00	 1.295187637779648e+00
-1.180868324583100e+01	-5.161879502664499e+00	 1.257667979439605e+00
-1.244507934890400e+01	-4.525483399588000e+00	 1.226971504557242e+00
-1.308147545197500e+01	-3.889087296512500e+00	 1.203803241448207e+00
-1.371787155504400e+01	-3.252691193438000e+00	 1.182536071345991e+00
-1.435426765811100e+01	-2.616295090364500e+00	 1.159916067674823e+00
-1.499066376117600e+01	-1.979898987292001e+00	 1.146132061686326e+00
-1.562705986423900e+01	-1.343502884220501e+00	 1.141285610415214e+00
-1.626345596730000e+01	-7.071067811500000e-01	 1.154732434710852e+00
-9.758073580360000e+00	-6.929646455660000e+00	 1.425774790563387e+00
-1.039446968343901e+01	-6.293250352580780e+00	 1.372633598866931e+00
-1.103086578651602e+01	-5.656854249502720e+00	 1.325031203613396e+00
-1.166726188959105e+01	-5.020458146425820e+00	 1.283672825241508e+00
-1.230365799266408e+01	-4.384062043350080e+00	 1.249263594091172e+00
-1.294005409573513e+01	-3.747665940275501e+00	 1.222508550415994e+00
-1.357645019880418e+01	-3.111269837202079e+00	 1.193049096569428e+00
-1.421284630187124e+01	-2.474873734129820e+00	 1.167412920122591e+00
-1.484924240493632e+01	-1.838477631058721e+00	 1.154720529942574e+00
-1.548563850799940e+01	-1.202081527988781e+00	 1.147568058220009e+00
-1.612203461106050e+01	-5.656854249200002e-01	 1.159066133729104e+00
-9.616652224120001e+00	-6.788225099420000e+00	 1.460545752583549e+00
-1.025304832719902e+01	-6.151828996341418e+00	 1.403617260156838e+00
-1.088944443027608e+01	-5.515432893264078e+00	 1.352353505363766e+00
-1.152584053335118e+01	-4.879036790187979e+00	 1.307459720582107e+00
-1.216223663642432e+01	-4.242640687113119e+00	 1.269641048090201e+00
-1.279863273949550e+01	-3.606244584039500e+00	 1.239602540079488e+00
-1.343502884256472e+01	-2.969848480967120e+00	 1.202125987258341e+00
-1.407142494563198e+01	-2.333452377895980e+00	 1.173757211487407e+00
-1.470782104869728e+01	-1.697056274826080e+00	 1.162241626750507e+00
-1.534421715176062e+01	-1.060660171757421e+00	 1.153111385480106e+00
-1.598061325482200e+01	-4.242640686900001e-01	 1.162988963196044e+00
-9.475230867880001e+00	-6.646803743180000e+00	 1.492216376445435e+00
-1.011162697095904e+01	-6.010407640102419e+00	 1.431803893711933e+00
-1.074802307403618e+01	-5.374011537026080e+00	 1.377182091107398e+00
-1.138441917711140e+01	-4.737615433950979e+00	 1.329056212948515e+00
-1.202081528018472e+01	-4.101219330877120e+00	 1.288131413451924e+00
-1.265721138325613e+01	-3.464823227804500e+00	 1.255112756746757e+00
-1.329360748632562e+01	-2.828427124733120e+00	 1.209794514548472e+00
-1.393000358939320e+01	-2.192031021662980e+00	 1.178976712457457e+00
-1.456639969245888e+01	-1.555634918594081e+00	 1.165186924930135e+00
-1.520279579552265e+01	-9.192388155264209e-01	 1.157908873035891e+00
-1.583919189858450e+01	-2.828427124599999e-01	 1.166494203808528e+00
-9.333809511640000e+00	-6.505382386939999e+00	 1.520814211237909e+00
-9.970205614719079e+00	-5.868986283863780e+00	 1.457221048031559e+00
-1.060660171779632e+01	-5.232590180788720e+00	 1.399544508754115e+00
-1.124299782087172e+01	-4.596194077714819e+00	 1.348489849661035e+00
-1.187939392394528e+01	-3.959797974642080e+00	 1.304762236907126e+00
-1.251579002701700e+01	-3.323401871570500e+00	 1.264314089627416e+00
-1.315218613008688e+01	-2.687005768500080e+00	 1.216082449816630e+00
-1.378858223315492e+01	-2.050609665430821e+00	 1.183099193961985e+00
-1.442497833622112e+01	-1.414213562362721e+00	 1.167268428949208e+00
-1.506137443928548e+01	-7.778174592957803e-01	 1.161953801778241e+00
-1.569777054234800e+01	-1.414213562300000e-01	 1.169575136313908e+00
-9.192388155400000e+00	-6.363961030700000e+00	 1.546366805883006e+00
-9.828784258479125e+00	-5.727564927625501e+00	 1.479896271448232e+00
-1.046518036155650e+01	-5.091168824552001e+00	 1.419468306046920e+00
-1.110157646463212e+01	-4.454772721479500e+00	 1.365788177873163e+00
-1.173797256770600e+01	-3.818376618408000e+00	 1.319561065019791e+00
-1.237436867077813e+01	-3.181980515337500e+00	 1.271255553077377e+00
-1.301076477384850e+01	-2.545584412268000e+00	 1.221017564680694e+00
-1.364716087691713e+01	-1.909188309199500e+00	 1.186152427171294e+00
-1.428355697998400e+01	-1.272792206132001e+00	 1.168564256497544e+00
-1.491995308304912e+01	-6.363961030655007e-01	 1.165239452648523e+00
-1.555634918611250e+01	 5.551115123125783e-17	 1.172225041510025e+00
-9.050966799159999e+00	-6.222539674460000e+00	 1.568901709135929e+00
-9.687362902239180e+00	-5.586143571387580e+00	 1.499857112127653e+00
-1.032375900531672e+01	-4.949747468315919e+00	 1.436981030562011e+00
-1.096015510839262e+01	-4.313351365245020e+00	 1.380978744571597e+00
-1.159655121146688e+01	-3.676955262174880e+00	 1.332555444187119e+00
-1.223294731453950e+01	-3.040559159105500e+00	 1.276588396036445e+00
-1.286934341761048e+01	-2.404163056036880e+00	 1.224627630999611e+00
-1.350573952067982e+01	-1.767766952969020e+00	 1.188164183496759e+00
-1.414213562374752e+01	-1.131370849901921e+00	 1.169102178538941e+00
-1.477853172681358e+01	-4.949747468355806e-01	 1.167759106638594e+00
-1.541492782987800e+01	 1.414213562300000e-01	 1.174437200245212e+00
-8.909545442919999e+00	-6.081118318220000e+00	 1.588446469585073e+00
-9.545941545999245e+00	-5.444722215150020e+00	 1.517131118068719e+00
-1.018233764907698e+01	-4.808326112080481e+00	 1.452110229708793e+00
-1.081873375215321e+01	-4.171930009011379e+00	 1.394089096576243e+00
-1.145512985522792e+01	-3.535533905942720e+00	 1.343772920639526e+00
-1.209152595830112e+01	-2.899137802874500e+00	 1.280340391052242e+00
-1.272792206137282e+01	-2.262741699806720e+00	 1.226940420873410e+00
-1.336431816444301e+01	-1.626345596739381e+00	 1.189162234590818e+00
-1.400071426751168e+01	-9.899494936724805e-01	 1.168909966278259e+00
-1.463711037057885e+01	-3.535533906060208e-01	 1.168087685727634e+00
-1.527350647364450e+01	 2.828427124599999e-01	 1.176204893418293e+00
-8.768124086680000e+00	-5.939696961979999e+00	 1.608062973831900e+00
-9.404520189759321e+00	-5.303300858912821e+00	 1.531745837103529e+00
-1.004091629283728e+01	-4.666904755845680e+00	 1.464883450729878e+00
-1.067731239591388e+01	-4.030508652778580e+00	 1.405146780540236e+00
-1.131370849898912e+01	-3.394112549711521e+00	 1.350936957735391e+00
-1.195010460206300e+01	-2.757716446644500e+00	 1.282539310913473e+00
-1.258650070513552e+01	-2.121320343577520e+00	 1.227983706643195e+00
-1.322289680820668e+01	-1.484924240510581e+00	 1.189174352346982e+00
-1.385929291127648e+01	-8.485281374436807e-01	 1.168015391161424e+00
-1.449568901434492e+01	-2.121320343768205e-01	 1.166410901940635e+00
-1.513208511741200e+01	 4.242640686900000e-01	 1.177521401978582e+00
-8.626702730439998e+00	-5.798275605740000e+00	 1.629458907526165e+00
-9.263098833519404e+00	-5.161879502675981e+00	 1.543728816897392e+00
-9.899494936597620e+00	-4.525483399611520e+00	 1.475328240701099e+00
-1.053589103967465e+01	-3.889087296546621e+00	 1.414179342949931e+00
-1.117228714275048e+01	-3.252691193481280e+00	 1.352607095690331e+00
-1.180868324582513e+01	-2.616295090415500e+00	 1.283212928649937e+00
-1.244507934889858e+01	-1.979898987349280e+00	 1.227785260891151e+00
-1.308147545197084e+01	-1.343502884282620e+00	 1.188228308899835e+00
-1.371787155504192e+01	-7.071067812155205e-01	 1.166446224875425e+00
-1.435426765811181e+01	-7.071067814798095e-02	 1.164343096734303e+00
-1.499066376118050e+01	 5.656854249199998e-01	 1.178380006925882e+00
-8.485281374200000e+00	-5.656854249500000e+00	 1.647966909582711e+00
-9.121677477279500e+00	-5.020458146439500e+00	 1.553107604948840e+00
-9.758073580358001e+00	-4.384062043378000e+00	 1.483472146531523e+00
-1.039446968343550e+01	-3.747665940315499e+00	 1.421214330124929e+00
-1.103086578651200e+01	-3.111269837252000e+00	 1.352496134351598e+00
-1.166726188958750e+01	-2.474873734187500e+00	 1.282389017532519e+00
-1.230365799266200e+01	-1.838477631122000e+00	 1.226372856440552e+00
-1.294005409573550e+01	-1.202081528055500e+00	 1.186351876625041e+00
-1.357645019880800e+01	-5.656854249880006e-01	 1.164230239348327e+00
-1.421284630187950e+01	 7.071067808049936e-02	 1.161912041589104e+00
-1.484924240495000e+01	 7.071067811500000e-01	 1.178773989310485e+00
-1.626345596730000e+01	-7.071067811500000e-01	 1.154732434710852e+00
-1.689985207036100e+01	-7.071067808049947e-02	 1.138652092265777e+00
-1.753624817342401e+01	 5.656854249880012e-01	 1.126157428975126e+00
-1.817264427648900e+01	 1.202081528055502e+00	 1.116438393844557e+00
-1.880904037955600e+01	 1.838477631122002e+00	 1.108684904262317e+00
-1.944543648262501e+01	 2.474873734187503e+00	 1.102086845997308e+00
-2.008183258569601e+01	 3.111269837252004e+00	 1.095834073197173e+00
-2.071822868876900e+01	 3.747665940315504e+00	 1.089653533453758e+00
-2.135462479184401e+01	 4.384062043378004e+00	 1.087289370153319e+00
-2.199102089492100e+01	 5.020458146439505e+00	 1.085632482233096e+00
-2.262741699800000e+01	 5.656854249500000e+00	 1.084429091994571e+00
-1.612203461106050e+01	-5.656854249200002e-01	 1.159066133729104e+00
-1.675843071412158e+01	 7.071067814798060e-02	 1.142235976787153e+00
-1.739482681718464e+01	 7.071067812155211e-01	 1.129160722668253e+00
-1.803122292024967e+01	 1.343502884282622e+00	 1.119030323285009e+00
-1.866761902331666e+01	 1.979898987349282e+00	 1.111034698932825e+00
-1.930401512638563e+01	 2.616295090415503e+00	 1.104363738287983e+00
-1.994041122945656e+01	 3.252691193481283e+00	 1.098207298405716e+00
-2.057680733252947e+01	 3.889087296546624e+00	 1.091025221540861e+00
-2.121320343560435e+01	 4.525483399611526e+00	 1.088797799996893e+00
-2.184959953868119e+01	 5.161879502675984e+00	 1.087497930613511e+00
-2.248599564176000e+01	 5.798275605740000e+00	 1.086777335477843e+00
-1.598061325482200e+01	-4.242640686900001e-01	 1.162988963196044e+00
-1.661700935788335e+01	 2.121320343768206e-01	 1.145413842869632e+00
-1.725340546094656e+01	 8.485281374436814e-01	 1.131762849124669e+00
-1.788980156401167e+01	 1.484924240510582e+00	 1.121225936780692e+00
-1.852619766707864e+01	 2.121320343577522e+00	 1.112993029040252e+00
-1.916259377014750e+01	 2.757716446644503e+00	 1.106254017486992e+00
-1.979898987321825e+01	 3.394112549711524e+00	 1.100198762083730e+00
-2.043538597629086e+01	 4.030508652778584e+00	 1.093223969249763e+00
-2.107178207936537e+01	 4.666904755845684e+00	 1.090034722044737e+00
-2.170817818244175e+01	 5.303300858912825e+00	 1.089087568012380e+00
-2.234457428552000e+01	 5.939696961980000e+00	 1.088845464978546e+00
-1.583919189858450e+01	-2.828427124599999e-01	 1.166494203808528e+00
-1.647558800164627e+01	 3.535533906060207e-01	 1.148178971066538e+00
-1.711198410470976e+01	 9.899494936724813e-01	 1.133957088754161e+00
-1.774838020777499e+01	 1.626345596739382e+00	 1.123018514597850e+00
-1.838477631084195e+01	 2.262741699806722e+00	 1.114553174707292e+00
-1.902117241391063e+01	 2.899137802874503e+00	 1.107750963573482e+00
-1.965756851698104e+01	 3.535533905942723e+00	 1.101807739904855e+00
-2.029396462005319e+01	 4.171930009011384e+00	 1.095149023094189e+00
-2.093036072312707e+01	 4.808326112080485e+00	 1.090999853876788e+00
-2.156675682620267e+01	 5.444722215150025e+00	 1.090401112043137e+00
-2.220315292928000e+01	 6.081118318220000e+00	 1.090633198143615e+00
-1.569777054234800e+01	-1.414213562300000e-01	 1.169575136313908e+00
-1.633416664541036e+01	 4.949747468355807e-01	 1.150524641981690e+00
-1.697056274847424e+01	 1.131370849901921e+00	 1.135736722017009e+00
-1.760695885153964e+01	 1.767766952969021e+00	 1.124401337053225e+00
-1.824335495460656e+01	 2.404163056036882e+00	 1.115708416107143e+00
-1.887975105767500e+01	 3.040559159105503e+00	 1.108847856577098e+00
-1.951614716074496e+01	 3.676955262174884e+00	 1.103155438099135e+00
-2.015254326381644e+01	 4.313351365245023e+00	 1.096809398452154e+00
-2.078893936688944e+01	 4.949747468315923e+00	 1.091692913060502e+00
-2.142533546996397e+01	 5.586143571387586e+00	 1.091438280306733e+00
-2.206173157304000e+01	 6.222539674460000e+00	 1.092140252607499e+00
-1.555634918611250e+01	 5.551115123125783e-17	 1.172225041510025e+00
-1.619274528917563e+01	 6.363961030655005e-01	 1.152444136269399e+00
-1.682914139224000e+01	 1.272792206132001e+00	 1.137095029423993e+00
-1.746553749530563e+01	 1.909188309199502e+00	 1.125367684514054e+00
-1.810193359837250e+01	 2.545584412268002e+00	 1.116452033463499e+00
-1.873832970144063e+01	 3.181980515337502e+00	 1.109537976577992e+00
-1.937472580451001e+01	 3.818376618408003e+00	 1.104275979699826e+00
-2.001112190758063e+01	 4.454772721479504e+00	 1.098214110810534e+00
-2.064751801065250e+01	 5.091168824552004e+00	 1.092113617150849e+00
-2.128391411372563e+01	 5.727564927625505e+00	 1.092198790391634e+00
-2.192031021680000e+01	 6.363961030700001e+00	 1.093366345992166e+00
-1.541492782987800e+01	 1.414213562300000e-01	 1.174437200245212e+00
-1.605132393294206e+01	 7.778174592957805e-01	 1.153930734634472e+00
-1.668772003600704e+01	 1.414213562362721e+00	 1.138025291536384e+00
-1.732411613907294e+01	 2.050609665430821e+00	 1.125910837398075e+00
-1.796051224213976e+01	 2.687005768500082e+00	 1.116777307050557e+00
-1.859690834520751e+01	 3.323401871570502e+00	 1.109814603706809e+00
-1.923330444827617e+01	 3.959797974642083e+00	 1.105178380154954e+00
-1.986970055134574e+01	 4.596194077714824e+00	 1.099372175765085e+00
-2.050609665441625e+01	 5.232590180788725e+00	 1.093031276259321e+00
-2.114249275748766e+01	 5.868986283863784e+00	 1.092682359873824e+00
-2.177888886056000e+01	 6.505382386939999e+00	 1.094311195907097e+00
-1.527350647364450e+01	 2.828427124599999e-01	 1.176204893418293e+00
-1.590990257670967e+01	 9.192388155264208e-01	 1.154977717832204e+00
-1.654629867977536e+01	 1.555634918594081e+00	 1.138520788965950e+00
-1.718269478284159e+01	 2.192031021662982e+00	 1.126024076173519e+00
-1.781909088590834e+01	 2.828427124733122e+00	 1.116677517193008e+00
-1.845548698897563e+01	 3.464823227804501e+00	 1.109762619371161e+00
-1.909188309204345e+01	 4.101219330877123e+00	 1.105871655021421e+00
-1.972827919511179e+01	 4.737615433950984e+00	 1.100292609020434e+00
-2.036467529818066e+01	 5.374011537026084e+00	 1.094241889603862e+00
-2.100107140125007e+01	 6.010407640102425e+00	 1.092888706316801e+00
-2.163746750432000e+01	 6.646803743180000e+00	 1.094974519949292e+00
-1.513208511741200e+01	 4.242640686900000e-01	 1.177521401978582e+00
-1.576848122047844e+01	 1.060660171757421e+00	 1.155578366668387e+00
-1.640487732354497e+01	 1.697056274826081e+00	 1.138574802374950e+00
-1.704127342661156e+01	 2.333452377895981e+00	 1.125700681359113e+00
-1.767766952967824e+01	 2.969848480967122e+00	 1.116145944266042e+00
-1.831406563274500e+01	 3.606244584039502e+00	 1.110120155053465e+00
-1.895046173581184e+01	 4.242640687113123e+00	 1.106364819965008e+00
-1.958685783887876e+01	 4.879036790187984e+00	 1.100984426390097e+00
-2.022325394194576e+01	 5.515432893264085e+00	 1.095195379573914e+00
-2.085965004501285e+01	 6.151828996341425e+00	 1.092817547271578e+00
-2.149604614808000e+01	 6.788225099420000e+00	 1.095356035703261e+00
-1.499066376118050e+01	 5.656854249199998e-01	 1.178380006925882e+00
-1.562705986424839e+01	 1.202081527988781e+00	 1.155725961999300e+00
-1.626345596731584e+01	 1.838477631058721e+00	 1.138180612476140e+00
-1.689985207038287e+01	 2.474873734129822e+00	 1.124933933524079e+00
-1.753624817344946e+01	 3.111269837202082e+00	 1.115175868695346e+00
-1.817264427651563e+01	 3.747665940275503e+00	 1.110315100876737e+00
-1.880904037958136e+01	 4.384062043350083e+00	 1.106666890760376e+00
-1.944543648264667e+01	 5.020458146425824e+00	 1.101456643796466e+00
-2.008183258571155e+01	 5.656854249502723e+00	 1.095900762239597e+00
-2.071822868877599e+01	 6.293250352580785e+00	 1.092468600276682e+00
-2.135462479184000e+01	 6.929646455659999e+00	 1.095455460741031e+00
-1.484924240495000e+01	 7.071067811500000e-01	 1.178773989310485e+00
-1.548563850801950e+01	 1.343502884220501e+00	 1.155413784731715e+00
-1.612203461108800e+01	 1.979898987292001e+00	 1.137331500032764e+00
-1.675843071415550e+01	 2.616295090364502e+00	 1.123717113288136e+00
-1.739482681722200e+01	 3.252691193438002e+00	 1.113760570957102e+00
-1.803122292028750e+01	 3.889087296512503e+00	 1.110356472576778e+00
-1.866761902335200e+01	 4.525483399588003e+00	 1.106786883291075e+00
-1.930401512641550e+01	 5.161879502664504e+00	 1.101718277270827e+00
-1.994041122947800e+01	 5.798275605742004e+00	 1.096367053779925e+00
-2.057680733253951e+01	 6.434671708820505e+00	 1.091949752843269e+00
-2.121320343560000e+01	 7.071067811900000e+00	 1.095272512622146e+00
-1.555634918610000e+01	-1.272792206140000e+01	 1.142471742575979e+00
-1.619274528916050e+01	-1.209152595832050e+01	 1.131814718006810e+00
-1.682914139222200e+01	-1.145512985524200e+01	 1.120072425938986e+00
-1.746553749528450e+01	-1.081873375216450e+01	 1.107635636111156e+00
-1.810193359834800e+01	-1.018233764908800e+01	 1.096911721455810e+00
-1.873832970141250e+01	-9.545941546012500e+00	 1.092104582100177e+00
-1.937472580447800e+01	-8.909545442937999e+00	 1.087335803308441e+00
-2.001112190754450e+01	-8.273149339864499e+00	 1.082572853174407e+00
-2.064751801061200e+01	-7.636753236792002e+00	 1.077794847606069e+00
-2.128391411368050e+01	-7.000357133720501e+00	 1.073136810665502e+00
-2.192031021675000e+01	-6.363961030650000e+00	 1.068686858923374e+00
-1.527350647362050e+01	-1.244507934892000e+01	 1.157462890546675e+00
-1.590990257668442e+01	-1.180868324584069e+01	 1.142992104914895e+00
-1.654629867974879e+01	-1.117228714276255e+01	 1.127835055755186e+00
-1.718269478281360e+01	-1.053589103968559e+01	 1.112382506421467e+00
-1.781909088587886e+01	-9.899494936609800e+00	 1.102006548400770e+00
-1.845548698894456e+01	-9.263098833535189e+00	 1.094437513198109e+00
-1.909188309201071e+01	-8.626702730461750e+00	 1.087571297537357e+00
-1.972827919507730e+01	-7.990306627389487e+00	 1.081375368683428e+00
-2.036467529814434e+01	-7.353910524318401e+00	 1.075817208585809e+00
-2.100107140121182e+01	-6.717514421248487e+00	 1.071219132123479e+00
-2.163746750427975e+01	-6.081118318179751e+00	 1.067586283053772e+00
-1.499066376114200e+01	-1.216223663644000e+01	 1.172338784534240e+00
-1.562705986420879e+01	-1.152584053336105e+01	 1.154236504922929e+00
-1.626345596727556e+01	-1.088944443028340e+01	 1.135846967172659e+00
-1.689985207034231e+01	-1.025304832720705e+01	 1.118393396530304e+00
-1.753624817340904e+01	-9.616652224132002e+00	 1.106872796402012e+00
-1.817264427647575e+01	-8.980256121058250e+00	 1.096752020248962e+00
-1.880904037954244e+01	-8.343860017985799e+00	 1.087998519821795e+00
-1.944543648260911e+01	-7.707463914914650e+00	 1.080579761556621e+00
-2.008183258567575e+01	-7.071067811844800e+00	 1.074463226574080e+00
-2.071822868874239e+01	-6.434671708776250e+00	 1.069794417752806e+00
-2.135462479180900e+01	-5.798275605709000e+00	 1.067171984870964e+00
-1.470782104866450e+01	-1.187939392396000e+01	 1.187202244748977e+00
-1.534421715173360e+01	-1.124299782088159e+01	 1.165650739501985e+00
-1.598061325480231e+01	-1.060660171780455e+01	 1.144210982923256e+00
-1.661700935787063e+01	-9.970205614728888e+00	 1.125982634721364e+00
-1.725340546093854e+01	-9.333809511654598e+00	 1.111455994483358e+00
-1.788980156400607e+01	-8.697413408581689e+00	 1.098993632439297e+00
-1.852619766707319e+01	-8.061017305510150e+00	 1.088562999511138e+00
-1.916259377013992e+01	-7.424621202439988e+00	 1.080131561306266e+00
-1.979898987320626e+01	-6.788225099371198e+00	 1.073666798116560e+00
-2.043538597627220e+01	-6.151828996303788e+00	 1.069136204917455e+00
-2.107178207933775e+01	-5.515432893237750e+00	 1.067440653570765e+00
-1.442497833618800e+01	-1.159655121148000e+01	 1.199428844532926e+00
-1.506137443925886e+01	-1.096015510840230e+01	 1.177337628162200e+00
-1.569777054232904e+01	-1.032375900532600e+01	 1.153108013281817e+00
-1.633416664539854e+01	-9.687362902251101e+00	 1.133024196738506e+00
-1.697056274846735e+01	-9.050966799177599e+00	 1.115701674406845e+00
-1.760695885153550e+01	-8.414570696105498e+00	 1.101107881693867e+00
-1.824335495460296e+01	-7.778174593034801e+00	 1.089210268692930e+00
-1.887975105766974e+01	-7.141778489965501e+00	 1.079976300182780e+00
-1.951614716073584e+01	-6.505382386897601e+00	 1.073373455626614e+00
-2.015254326380126e+01	-5.868986283831099e+00	 1.069369229171153e+00
-2.078893936686600e+01	-5.232590180766000e+00	 1.068388978331117e+00
-1.414213562371250e+01	-1.131370849900000e+01	 1.209406948014929e+00
-1.477853172678456e+01	-1.067731239592319e+01	 1.189399988452823e+00
-1.541492782985575e+01	-1.004091629284775e+01	 1.162797606836858e+00
-1.605132393292607e+01	-9.404520189773690e+00	 1.139463616919226e+00
-1.668772003599550e+01	-8.768124086700999e+00	 1.119555370672578e+00
-1.732411613906406e+01	-8.131727983629688e+00	 1.103040302675468e+00
-1.796051224213175e+01	-7.495331880559750e+00	 1.089885862192736e+00
-1.859690834519857e+01	-6.858935777491188e+00	 1.080059513174569e+00
-1.923330444826450e+01	-6.222539674424002e+00	 1.073528734255572e+00
-1.986970055132956e+01	-5.586143571358187e+00	 1.070261018753827e+00
-2.050609665439375e+01	-4.949747468293750e+00	 1.070223874669966e+00
-1.385929291123800e+01	-1.103086578652000e+01	 1.217017234264542e+00
-1.449568901431071e+01	-1.039446968344425e+01	 1.198228930766563e+00
-1.513208511738244e+01	-9.758073580369798e+00	 1.171620434495778e+00
-1.576848122045319e+01	-9.121677477296648e+00	 1.145246432338969e+00
-1.640487732352296e+01	-8.485281374224801e+00	 1.122962620518588e+00
-1.704127342659175e+01	-7.848885271154249e+00	 1.104736432784795e+00
-1.767766952965955e+01	-7.212489168085000e+00	 1.090535317573990e+00
-1.831406563272639e+01	-6.576093065017051e+00	 1.080326738007886e+00
-1.895046173579224e+01	-5.939696961950400e+00	 1.074078171892577e+00
-1.958685783885711e+01	-5.303300858885050e+00	 1.071757111717592e+00
-2.022325394192100e+01	-4.666904755821001e+00	 1.073331064654976e+00
-1.357645019876450e+01	-1.074802307404000e+01	 1.222129356845024e+00
-1.421284630183730e+01	-1.011162697096549e+01	 1.202484838464225e+00
-1.484924240490911e+01	-9.475230867892153e+00	 1.179522035909345e+00
-1.548563850797992e+01	-8.838834764819989e+00	 1.150318182810984e+00
-1.612203461104974e+01	-8.202438661748999e+00	 1.125868963920686e+00
-1.675843071411856e+01	-7.566042558679189e+00	 1.106141812160294e+00
-1.739482681718638e+01	-6.929646455610550e+00	 1.091104175137851e+00
-1.803122292025322e+01	-6.293250352543087e+00	 1.080723515146681e+00
-1.866761902331906e+01	-5.656854249476800e+00	 1.074967309164445e+00
-1.930401512638390e+01	-5.020458146411688e+00	 1.073803048852207e+00
-1.994041122944775e+01	-4.384062043347750e+00	 1.077198240553504e+00
-1.329360748629200e+01	-1.046518036156000e+01	 1.224612966822970e+00
-1.393000358936434e+01	-9.828784258486898e+00	 1.202982425750938e+00
-1.456639969243576e+01	-9.192388155414800e+00	 1.182972895059332e+00
-1.520279579550626e+01	-8.555992052343699e+00	 1.154624410886178e+00
-1.583919189857584e+01	-7.919595949273600e+00	 1.128219943592311e+00
-1.647558800164450e+01	-7.283199846204501e+00	 1.107201983678013e+00
-1.711198410471224e+01	-6.646803743136399e+00	 1.091537977923057e+00
-1.774838020777905e+01	-6.010407640069300e+00	 1.081195387792455e+00
-1.838477631084496e+01	-5.374011537003200e+00	 1.076141689435517e+00
-1.902117241390994e+01	-4.737615433938100e+00	 1.076344373684926e+00
-1.965756851697400e+01	-4.101219330874001e+00	 1.081770946055796e+00
-1.301076477382050e+01	-1.018233764908000e+01	 1.222820014793536e+00
-1.364716087689183e+01	-9.545941546008489e+00	 1.200114118943565e+00
-1.428355697996239e+01	-8.909545442937750e+00	 1.180233478340253e+00
-1.491995308303220e+01	-8.273149339867787e+00	 1.158110661852966e+00
-1.555634918610126e+01	-7.636753236798601e+00	 1.129961104984385e+00
-1.619274528916956e+01	-7.000357133730187e+00	 1.107862492951462e+00
-1.682914139223711e+01	-6.363961030662551e+00	 1.091782271705775e+00
-1.746553749530390e+01	-5.727564927595687e+00	 1.081687901884109e+00
-1.810193359836994e+01	-5.091168824529600e+00	 1.077546858807509e+00
-1.873832970143522e+01	-4.454772721464288e+00	 1.079326632480355e+00
-1.937472580449975e+01	-3.818376618399750e+00	 1.086994727589417e+00
-1.272792206135000e+01	-9.899494936600000e+00	 1.216716258282196e+00
-1.336431816441975e+01	-9.263098833530250e+00	 1.194100340091618e+00
-1.400071426748900e+01	-8.626702730461000e+00	 1.174510207126120e+00
-1.463711037055775e+01	-7.990306627392250e+00	 1.158650829073532e+00
-1.527350647362600e+01	-7.353910524324000e+00	 1.131037996285170e+00
-1.590990257669375e+01	-6.717514421256250e+00	 1.108068888331456e+00
-1.654629867976100e+01	-6.081118318189000e+00	 1.091782604999458e+00
-1.718269478282775e+01	-5.444722215122250e+00	 1.082146606097808e+00
-1.781909088589400e+01	-4.808326112056001e+00	 1.079128366119370e+00
-1.845548698895975e+01	-4.171930008990250e+00	 1.082695374240298e+00
-1.909188309202500e+01	-3.535533905925000e+00	 1.092815134319111e+00
-2.192031021675000e+01	-6.363961030650000e+00	 1.068686858923374e+00
-2.255670631982050e+01	-5.727564927580500e+00	 1.064177742657881e+00
-2.319310242289200e+01	-5.091168824511998e+00	 1.059342197735251e+00
-2.382949852596450e+01	-4.454772721444498e+00	 1.054403138773325e+00
-2.446589462903800e+01	-3.818376618377998e+00	 1.049583465980807e+00
-2.510229073211250e+01	-3.181980515312497e+00	 1.046657606741624e+00
-2.573868683518801e+01	-2.545584412247996e+00	 1.046786052568394e+00
-2.637508293826451e+01	-1.909188309184496e+00	 1.047726473815436e+00
-2.701147904134201e+01	-1.272792206121996e+00	 1.048850033728129e+00
-2.764787514442050e+01	-6.363961030604948e-01	 1.049611933329004e+00
-2.828427124750000e+01	 0.000000000000000e+00	 1.050046746768411e+00
-2.163746750427975e+01	-6.081118318179751e+00	 1.067586283053772e+00
-2.227386360734848e+01	-5.444722215111821e+00	 1.063355510003064e+00
-2.291025971041840e+01	-4.808326112044338e+00	 1.058726077295729e+00
-2.354665581348949e+01	-4.171930008977299e+00	 1.053920897998781e+00
-2.418305191656176e+01	-3.535533905910708e+00	 1.049162870770330e+00
-2.481944801963519e+01	-2.899137802844559e+00	 1.047871311244514e+00
-2.545584412270981e+01	-2.262741699778857e+00	 1.048135245562773e+00
-2.609224022578559e+01	-1.626345596713598e+00	 1.049183325715743e+00
-2.672863632886255e+01	-9.899494936487855e-01	 1.050570753693857e+00
-2.736503243194070e+01	-3.535533905844175e-01	 1.051565458265156e+00
-2.800142853502000e+01	 2.828427124795000e-01	 1.052153921612092e+00
-2.135462479180900e+01	-5.798275605709000e+00	 1.067171984870964e+00
-2.199102089487626e+01	-5.161879502642390e+00	 1.063152458594126e+00
-2.262741699794480e+01	-4.525483399575758e+00	 1.058662042150243e+00
-2.326381310101465e+01	-3.889087296509107e+00	 1.053923647055498e+00
-2.390020920408580e+01	-3.252691193442438e+00	 1.050123980683079e+00
-2.453660530715824e+01	-2.616295090375747e+00	 1.049406852280828e+00
-2.517300141023200e+01	-1.979898987309036e+00	 1.049775546237117e+00
-2.580939751330705e+01	-1.343502884242306e+00	 1.050900556442557e+00
-2.644579361638341e+01	-7.071067811755555e-01	 1.052452376787756e+00
-2.708218971946106e+01	-7.071067810878495e-02	 1.053634422689376e+00
-2.771858582254000e+01	 5.656854249580000e-01	 1.054321639990218e+00
-2.107178207933775e+01	-5.515432893237750e+00	 1.067440653570765e+00
-2.170817818240378e+01	-4.879036790172201e+00	 1.063565277932960e+00
-2.234457428547120e+01	-4.242640687106259e+00	 1.059146782106744e+00
-2.298097038854000e+01	-3.606244584039922e+00	 1.054408076057457e+00
-2.361736649161016e+01	-2.969848480973188e+00	 1.051849867041988e+00
-2.425376259468170e+01	-2.333452377906060e+00	 1.051234599009867e+00
-2.489015869775460e+01	-1.697056274838536e+00	 1.051677323750726e+00
-2.552655480082889e+01	-1.060660171770619e+00	 1.052848535155176e+00
-2.616295090390456e+01	-4.242640687023054e-01	 1.054418727113828e+00
-2.679934700698159e+01	 2.121320343664028e-01	 1.055819611990265e+00
-2.743574311006000e+01	 8.485281374355000e-01	 1.056550687253873e+00
-2.078893936686600e+01	-5.232590180766000e+00	 1.068388978331117e+00
-2.142533546993110e+01	-4.596194077701259e+00	 1.064590657503580e+00
-2.206173157299760e+01	-3.959797974635839e+00	 1.060176986955294e+00
-2.269812767606550e+01	-3.323401871569739e+00	 1.055772862918633e+00
-2.333452377913481e+01	-2.687005768502958e+00	 1.053869057106379e+00
-2.397091988220551e+01	-2.050609665435497e+00	 1.053324920590929e+00
-2.460731598527760e+01	-1.414213562367356e+00	 1.053810947262898e+00
-2.524371208835111e+01	-7.778174592985361e-01	 1.054997631012902e+00
-2.588010819142601e+01	-1.414213562290354e-01	 1.056555465731549e+00
-2.651650429450231e+01	 4.949747468411452e-01	 1.058121811559000e+00
-2.715290039758000e+01	 1.131370849912000e+00	 1.058841848756716e+00
-2.050609665439375e+01	-4.949747468293750e+00	 1.070223874669966e+00
-2.114249275745819e+01	-4.313351365229562e+00	 1.066225286772123e+00
-2.177888886052400e+01	-3.676955262164498e+00	 1.061749346468071e+00
-2.241528496359119e+01	-3.040559159098560e+00	 1.057987493599037e+00
-2.305168106665975e+01	-2.404163056031747e+00	 1.056151920035552e+00
-2.368807716972969e+01	-1.767766952964060e+00	 1.055648186183313e+00
-2.432447327280100e+01	-1.131370849895496e+00	 1.056146785932935e+00
-2.496086937587370e+01	-4.949747468260582e-01	 1.057318213175035e+00
-2.559726547894775e+01	 1.414213562442544e-01	 1.058832961800223e+00
-2.623366158202319e+01	 7.778174593154425e-01	 1.060361525699110e+00
-2.687005768510000e+01	 1.414213562387500e+00	 1.061195909854983e+00
-2.022325394192100e+01	-4.666904755821001e+00	 1.073331064654976e+00
-2.085965004498506e+01	-4.030508652757109e+00	 1.068465855186854e+00
-2.149604614805040e+01	-3.394112549692239e+00	 1.063898481560223e+00
-2.213244225111706e+01	-2.757716446626388e+00	 1.060466895156979e+00
-2.276883835418500e+01	-2.121320343559558e+00	 1.058668824988804e+00
-2.340523445725426e+01	-1.484924240491748e+00	 1.058174764946317e+00
-2.404163056032481e+01	-8.485281374229567e-01	 1.058655208920136e+00
-2.467802666339665e+01	-2.121320343531861e-01	 1.059780650800877e+00
-2.531442276646981e+01	 4.242640687175644e-01	 1.061221584479151e+00
-2.595081886954425e+01	 1.060660171789295e+00	 1.062648503845569e+00
-2.658721497262000e+01	 1.697056274862000e+00	 1.063613655907481e+00
-1.994041122944775e+01	-4.384062043347750e+00	 1.077198240553504e+00
-2.057680733251169e+01	-3.747665940283901e+00	 1.071343263305934e+00
-2.121320343557680e+01	-3.111269837219059e+00	 1.066578419027599e+00
-2.184959953864309e+01	-2.474873734153221e+00	 1.063181436751759e+00
-2.248599564171056e+01	-1.838477631086388e+00	 1.061390141125433e+00
-2.312239174477919e+01	-1.202081528018560e+00	 1.060875026039242e+00
-2.375878784784901e+01	-5.656854249497369e-01	 1.061306585383802e+00
-2.439518395091999e+01	 7.071067812008142e-02	 1.062355313049730e+00
-2.503158005399215e+01	 7.071067811908943e-01	 1.063691702927636e+00
-2.566797615706550e+01	 1.343502884262702e+00	 1.064986248908132e+00
-2.630437226014000e+01	 1.979898987335500e+00	 1.065909444881824e+00
-1.965756851697400e+01	-4.101219330874001e+00	 1.081770946055796e+00
-2.029396462003810e+01	-3.464823227809939e+00	 1.075672007429101e+00
-2.093036072310321e+01	-2.828427124744960e+00	 1.069494594544569e+00
-2.156675682616930e+01	-2.192031021679059e+00	 1.066101487542670e+00
-2.220315292923640e+01	-1.555634918612238e+00	 1.064286237604736e+00
-2.283954903230450e+01	-9.192388155444974e-01	 1.063719338621385e+00
-2.347594513537361e+01	-2.828427124758370e-01	 1.064071284483233e+00
-2.411234123844370e+01	 3.535533905937436e-01	 1.065012569080895e+00
-2.474873734151481e+01	 9.899494936642441e-01	 1.066213686304981e+00
-2.538513344458691e+01	 1.626345596735665e+00	 1.067345130046101e+00
-2.602152954766001e+01	 2.262741699808000e+00	 1.068077394194861e+00
-1.937472580449975e+01	-3.818376618399750e+00	 1.086994727589417e+00
-2.001112190756429e+01	-3.181980515335222e+00	 1.079737746380889e+00
-2.064751801062960e+01	-2.545584412269938e+00	 1.072617377270426e+00
-2.128391411369569e+01	-1.909188309203901e+00	 1.069197416689009e+00
-2.192031021676255e+01	-1.272792206137108e+00	 1.067327483586011e+00
-2.255670631983019e+01	-6.363961030695598e-01	 1.066678071852047e+00
-2.319310242289861e+01	-1.256994508480602e-12	 1.066919675377731e+00
-2.382949852596779e+01	 6.363961030678011e-01	 1.067722788053675e+00
-2.446589462903775e+01	 1.272792206137614e+00	 1.068757903770490e+00
-2.510229073210849e+01	 1.909188309208182e+00	 1.069695516418781e+00
-2.573868683518000e+01	 2.545584412279500e+00	 1.070206119889155e+00
-1.909188309202500e+01	-3.535533905925000e+00	 1.092815134319111e+00
-1.972827919509025e+01	-2.899137802859750e+00	 1.083958008214438e+00
-2.036467529815600e+01	-2.262741699793999e+00	 1.076688640057077e+00
-2.100107140122225e+01	-1.626345596727748e+00	 1.072439593350072e+00
-2.163746750428900e+01	-9.899494936609976e-01	 1.070484248228555e+00
-2.227386360735625e+01	-3.535533905937474e-01	 1.069721594890527e+00
-2.291025971042400e+01	 2.828427124740034e-01	 1.069822127226597e+00
-2.354665581349226e+01	 9.192388155422541e-01	 1.070456339127374e+00
-2.418305191656101e+01	 1.555634918611004e+00	 1.071294724483466e+00
-2.481944801963025e+01	 2.192031021680255e+00	 1.072007777185476e+00
-2.545584412270000e+01	 2.828427124750000e+00	 1.072265991124008e+00
-1.272792206135000e+01	-9.899494936600000e+00	 1.216716258282196e+00
-1.336431816441975e+01	-9.263098833530250e+00	 1.194100340091618e+00
-1.400071426748900e+01	-8.626702730461000e+00	 1.174510207126120e+00
-1.463711037055775e+01	-7.990306627392250e+00	 1.158650829073532e+00
-1.527350647362600e+01	-7.353910524324000e+00	 1.131037996285170e+00
-1.590990257669375e+01	-6.717514421256250e+00	 1.108068888331456e+00
-1.654629867976100e+01	-6.081118318189000e+00	 1.091782604999458e+00
-1.718269478282775e+01	-5.444722215122250e+00	 1.082146606097808e+00
-1.781909088589400e+01	-4.808326112056001e+00	 1.079128366119370e+00
-1.845548698895975e+01	-4.171930008990250e+00	 1.082695374240298e+00
-1.909188309202500e+01	-3.535533905925000e+00	 1.092815134319111e+00
-1.244507934887950e+01	-9.616652224120999e+00	 1.237868362915313e+00
-1.308147545194768e+01	-8.980256121052815e+00	 1.211949871165318e+00
-1.371787155501561e+01	-8.343860017984872e+00	 1.189514403473890e+00
-1.435426765808330e+01	-7.707463914917158e+00	 1.171266953412483e+00
-1.499066376115074e+01	-7.071067811849678e+00	 1.149062276334987e+00
-1.562705986421794e+01	-6.434671708782437e+00	 1.122905484534199e+00
-1.626345596728489e+01	-5.798275605715430e+00	 1.104352652032761e+00
-1.689985207035160e+01	-5.161879502648657e+00	 1.093371237811278e+00
-1.753624817341806e+01	-4.525483399582120e+00	 1.089928715534544e+00
-1.817264427648427e+01	-3.889087296515818e+00	 1.093992573550601e+00
-1.880904037955025e+01	-3.252691193449750e+00	 1.104076097899412e+00
-1.216223663640800e+01	-9.333809511643999e+00	 1.258237681600330e+00
-1.279863273947516e+01	-8.697413408576820e+00	 1.228832695989643e+00
-1.343502884254224e+01	-8.061017305509679e+00	 1.203367978489689e+00
-1.407142494560924e+01	-7.424621202442578e+00	 1.182548546555006e+00
-1.470782104867616e+01	-6.788225099375517e+00	 1.167014751002823e+00
-1.534421715174300e+01	-6.151828996308500e+00	 1.137534908680277e+00
-1.598061325480976e+01	-5.515432893241520e+00	 1.116580157541452e+00
-1.661700935787644e+01	-4.879036790174579e+00	 1.104117955739014e+00
-1.725340546094304e+01	-4.242640687107680e+00	 1.100115776109773e+00
-1.788980156400956e+01	-3.606244584040820e+00	 1.104541106173758e+00
-1.852619766707600e+01	-2.969848480974000e+00	 1.113467527427885e+00
-1.187939392393550e+01	-9.050966799169000e+00	 1.278044633086776e+00
-1.251579002700220e+01	-8.414570696102254e+00	 1.244969228597003e+00
-1.315218613006889e+01	-7.778174593035430e+00	 1.216291341488774e+00
-1.378858223313558e+01	-7.141778489968516e+00	 1.192716013099175e+00
-1.442497833620226e+01	-6.505382386901519e+00	 1.174948194675348e+00
-1.506137443926894e+01	-5.868986283834436e+00	 1.151902717331573e+00
-1.569777054233561e+01	-5.232590180767269e+00	 1.128410678249957e+00
-1.633416664540227e+01	-4.596194077700017e+00	 1.114332316768063e+00
-1.697056274846894e+01	-3.959797974632680e+00	 1.109635104894815e+00
-1.760695885153560e+01	-3.323401871565257e+00	 1.112739458106575e+00
-1.824335495460225e+01	-2.687005768497749e+00	 1.121522964851842e+00
-1.159655121146200e+01	-8.768124086695998e+00	 1.297509633452249e+00
-1.223294731452879e+01	-8.131727983629130e+00	 1.260579880347997e+00
-1.286934341759556e+01	-7.495331880562119e+00	 1.228504899114712e+00
-1.350573952066230e+01	-6.858935777494967e+00	 1.201989754971490e+00
-1.414213562372904e+01	-6.222539674427679e+00	 1.181739423046291e+00
-1.477853172679575e+01	-5.586143571360249e+00	 1.165954469786693e+00
-1.541492782986244e+01	-4.949747468292679e+00	 1.139789773619401e+00
-1.605132393292911e+01	-4.313351365224970e+00	 1.123959880522150e+00
-1.668772003599576e+01	-3.676955262157120e+00	 1.118432261676068e+00
-1.732411613906239e+01	-3.040559159089130e+00	 1.117800367609814e+00
-1.796051224212900e+01	-2.404163056020999e+00	 1.128188649080522e+00
-1.131370849898750e+01	-8.485281374224998e+00	 1.316853096102703e+00
-1.195010460205494e+01	-7.848885271157434e+00	 1.275885059931698e+00
-1.258650070512225e+01	-7.212489168089749e+00	 1.240229055339660e+00
-1.322289680818944e+01	-6.576093065021936e+00	 1.210590171427159e+00
-1.385929291125650e+01	-5.939696961954000e+00	 1.187673407202441e+00
-1.449568901432344e+01	-5.303300858885936e+00	 1.172183671593967e+00
-1.513208511739025e+01	-4.666904755817749e+00	 1.150663005847464e+00
-1.576848122045694e+01	-4.030508652749438e+00	 1.132946209361525e+00
-1.640487732352350e+01	-3.394112549680999e+00	 1.125472168867432e+00
-1.704127342658994e+01	-2.757716446612437e+00	 1.121501961358182e+00
-1.767766952965625e+01	-2.121320343543749e+00	 1.133410819831179e+00
-1.103086578651200e+01	-8.202438661755998e+00	 1.336295431772730e+00
-1.166726188958064e+01	-7.566042558687180e+00	 1.291105173365937e+00
-1.230365799264896e+01	-6.929646455618316e+00	 1.251684211464650e+00
-1.294005409571696e+01	-6.293250352549419e+00	 1.218737659050386e+00
-1.357645019878464e+01	-5.656854249480479e+00	 1.192970539011142e+00
-1.421284630185200e+01	-5.020458146411499e+00	 1.175087784153936e+00
-1.484924240491904e+01	-4.384062043342480e+00	 1.160975939868228e+00
-1.548563850798576e+01	-3.747665940273419e+00	 1.141236868382813e+00
-1.612203461105216e+01	-3.111269837204319e+00	 1.127244261970446e+00
-1.675843071411824e+01	-2.474873734135179e+00	 1.123790481025362e+00
-1.739482681718400e+01	-1.838477631065998e+00	 1.137135717629059e+00
-1.074802307403550e+01	-7.919595949288997e+00	 1.356057048525843e+00
-1.138441917710590e+01	-7.283199846218354e+00	 1.306460623997582e+00
-1.202081528017569e+01	-6.646803743147827e+00	 1.263090766119876e+00
-1.265721138324488e+01	-6.010407640077416e+00	 1.226652611754655e+00
-1.329360748631346e+01	-5.374011537007118e+00	 1.197851207669134e+00
-1.393000358938144e+01	-4.737615433936936e+00	 1.177391510548356e+00
-1.456639969244881e+01	-4.101219330866869e+00	 1.165978387007723e+00
-1.520279579551558e+01	-3.464823227796916e+00	 1.148777425418872e+00
-1.583919189858174e+01	-2.828427124727079e+00	 1.127633723853199e+00
-1.647558800164730e+01	-2.192031021657356e+00	 1.124612169092987e+00
-1.711198410471225e+01	-1.555634918587748e+00	 1.139309583807388e+00
-1.046518036155800e+01	-7.636753236823998e+00	 1.376358351754764e+00
-1.110157646463071e+01	-7.000357133750968e+00	 1.322171812502831e+00
-1.173797256770244e+01	-6.363961030678277e+00	 1.274669115264975e+00
-1.237436867077319e+01	-5.727564927605928e+00	 1.234555420783009e+00
-1.301076477384296e+01	-5.091168824533916e+00	 1.202535799702838e+00
-1.364716087691175e+01	-4.454772721462248e+00	 1.179315232586998e+00
-1.428355697997956e+01	-3.818376618390917e+00	 1.165598609927185e+00
-1.491995308304639e+01	-3.181980515319928e+00	 1.148709218595092e+00
-1.555634918611224e+01	-2.545584412249279e+00	 1.126586798953591e+00
-1.619274528917711e+01	-1.909188309178969e+00	 1.123913268850614e+00
-1.682914139224100e+01	-1.272792206108998e+00	 1.139878660507350e+00
-1.018233764907950e+01	-7.353910524360998e+00	 1.397419744181703e+00
-1.081873375215508e+01	-6.717514421285016e+00	 1.338459136887489e+00
-1.145512985522921e+01	-6.081118318209668e+00	 1.286639652189312e+00
-1.209152595830189e+01	-5.444722215134954e+00	 1.242666474708340e+00
-1.272792206137314e+01	-4.808326112060878e+00	 1.207244698968641e+00
-1.336431816444294e+01	-4.171930008987436e+00	 1.181079329409708e+00
-1.400071426751129e+01	-3.535533905914628e+00	 1.164875280399009e+00
-1.463711037057820e+01	-2.899137802842456e+00	 1.144763636290834e+00
-1.527350647364366e+01	-2.262741699770918e+00	 1.124049732517398e+00
-1.590990257670767e+01	-1.626345596700016e+00	 1.121640024395708e+00
-1.654629867977025e+01	-9.899494936297477e-01	 1.138789190678065e+00
-9.899494936600000e+00	-7.071067811900000e+00	 1.419461625858647e+00
-1.053589103967900e+01	-6.434671708820501e+00	 1.355542992487254e+00
-1.117228714275600e+01	-5.798275605742001e+00	 1.299222767512264e+00
-1.180868324583100e+01	-5.161879502664499e+00	 1.251206159433672e+00
-1.244507934890400e+01	-4.525483399588000e+00	 1.212198286653175e+00
-1.308147545197500e+01	-3.889087296512500e+00	 1.182904177486706e+00
-1.371787155504400e+01	-3.252691193438000e+00	 1.157696713167949e+00
-1.435426765811100e+01	-2.616295090364500e+00	 1.133321967121249e+00
-1.499066376117600e+01	-1.979898987292001e+00	 1.119968770598255e+00
-1.562705986423900e+01	-1.343502884220501e+00	 1.117738680633624e+00
-1.626345596730000e+01	-7.071067811500000e-01	 1.135987418076576e+00
-1.909188309202500e+01	-3.535533905925000e+00	 1.092815134319111e+00
-1.972827919509025e+01	-2.899137802859750e+00	 1.083958008214438e+00
-2.036467529815600e+01	-2.262741699793999e+00	 1.076688640057077e+00
-2.100107140122225e+01	-1.626345596727748e+00	 1.072439593350072e+00
-2.163746750428900e+01	-9.899494936609976e-01	 1.070484248228555e+00
-2.227386360735625e+01	-3.535533905937474e-01	 1.069721594890527e+00
-2.291025971042400e+01	 2.828427124740034e-01	 1.069822127226597e+00
-2.354665581349226e+01	 9.192388155422541e-01	 1.070456339127374e+00
-2.418305191656101e+01	 1.555634918611004e+00	 1.071294724483466e+00
-2.481944801963025e+01	 2.192031021680255e+00	 1.072007777185476e+00
-2.545584412270000e+01	 2.828427124750000e+00	 1.072265991124008e+00
-1.880904037955025e+01	-3.252691193449750e+00	 1.104076097899412e+00
-1.944543648261622e+01	-2.616295090383691e+00	 1.093831967128087e+00
-2.008183258568245e+01	-1.979898987317418e+00	 1.085823554521418e+00
-2.071822868874890e+01	-1.343502884250930e+00	 1.079764908232731e+00
-2.135462479181561e+01	-7.071067811842275e-01	 1.076993609464385e+00
-2.199102089488257e+01	-7.071067811730962e-02	 1.075434945705832e+00
-2.262741699794977e+01	 5.656854249498235e-01	 1.074759410847681e+00
-2.326381310101721e+01	 1.202081528017172e+00	 1.074637498780544e+00
-2.390020920408489e+01	 1.838477631084735e+00	 1.074739703395028e+00
-2.453660530715283e+01	 2.474873734152513e+00	 1.074736518581741e+00
-2.517300141022100e+01	 3.111269837220500e+00	 1.074298438231287e+00
-1.852619766707600e+01	-2.969848480974000e+00	 1.113467527427885e+00
-1.916259377014244e+01	-2.333452377907219e+00	 1.102576004810743e+00
-1.979898987320896e+01	-1.697056274840478e+00	 1.093980857088854e+00
-2.043538597627557e+01	-1.060660171773778e+00	 1.086871986755347e+00
-2.107178207934224e+01	-4.242640687071171e-01	 1.082793009179974e+00
-2.170817818240901e+01	 2.121320343595033e-01	 1.080558996288340e+00
-2.234457428547584e+01	 8.485281374260839e-01	 1.079228055523415e+00
-2.298097038854277e+01	 1.484924240492624e+00	 1.078470680775808e+00
-2.361736649160976e+01	 2.121320343559125e+00	 1.077957365936130e+00
-2.425376259467685e+01	 2.757716446625586e+00	 1.077358604894990e+00
-2.489015869774400e+01	 3.394112549692001e+00	 1.076344891542994e+00
-1.824335495460225e+01	-2.687005768497749e+00	 1.121522964851842e+00
-1.887975105766890e+01	-2.050609665430331e+00	 1.110136358215048e+00
-1.951614716073556e+01	-1.414213562363178e+00	 1.101106783563420e+00
-2.015254326380223e+01	-7.778174592962902e-01	 1.093624149204311e+00
-2.078893936686889e+01	-1.414213562296671e-01	 1.087852816534620e+00
-2.142533546993556e+01	 4.949747468366910e-01	 1.085064115797352e+00
-2.206173157300224e+01	 1.131370849902784e+00	 1.083198430413095e+00
-2.269812767606893e+01	 1.767766952968613e+00	 1.081926254272464e+00
-2.333452377913561e+01	 2.404163056034175e+00	 1.080918081266070e+00
-2.397091988220231e+01	 3.040559159099473e+00	 1.079844405284525e+00
-2.460731598526900e+01	 3.676955262164501e+00	 1.077330713431133e+00
-1.796051224212900e+01	-2.404163056020999e+00	 1.128188649080522e+00
-1.859690834519561e+01	-1.767766952953029e+00	 1.116459265101703e+00
-1.923330444826224e+01	-1.131370849885518e+00	 1.107147570557254e+00
-1.986970055132889e+01	-4.949747468184673e-01	 1.099443479568703e+00
-2.050609665439556e+01	 1.414213562481229e-01	 1.092536874637528e+00
-2.114249275746225e+01	 7.778174593142541e-01	 1.088920673392167e+00
-2.177888886052897e+01	 1.414213562379924e+00	 1.086640904676024e+00
-2.241528496359570e+01	 2.050609665445135e+00	 1.084974588429813e+00
-2.305168106666245e+01	 2.687005768509886e+00	 1.083592218544149e+00
-2.368807716972921e+01	 3.323401871574176e+00	 1.082164288909647e+00
-2.432447327279600e+01	 3.959797974638001e+00	 1.078134954725460e+00
-1.767766952965625e+01	-2.121320343543749e+00	 1.133410819831179e+00
-1.831406563272256e+01	-1.484924240475311e+00	 1.121490964039461e+00
-1.895046173578900e+01	-8.485281374074976e-01	 1.112049455490571e+00
-1.958685783885556e+01	-2.121320343403097e-01	 1.104276214120171e+00
-2.022325394192225e+01	 4.242640687262535e-01	 1.097361128244311e+00
-2.085965004498906e+01	 1.060660171792192e+00	 1.092099038232087e+00
-2.149604614805600e+01	 1.697056274857505e+00	 1.089525847471499e+00
-2.213244225112307e+01	 2.333452377922193e+00	 1.087586052407153e+00
-2.276883835419025e+01	 2.969848480986256e+00	 1.085950146929668e+00
-2.340523445725757e+01	 3.606244584049694e+00	 1.083621312817044e+00
-2.404163056032500e+01	 4.242640687112501e+00	 1.079012896575548e+00
-1.739482681718400e+01	-1.838477631065998e+00	 1.137135717629059e+00
-1.803122292024976e+01	-1.202081527997178e+00	 1.125177694405100e+00
-1.866761902331584e+01	-5.656854249291170e-01	 1.115758676591645e+00
-1.930401512638224e+01	 7.071067813818320e-02	 1.108068589938449e+00
-1.994041122944896e+01	 7.071067812047238e-01	 1.101297328576097e+00
-2.057680733251600e+01	 1.343502884270504e+00	 1.094634755014077e+00
-2.121320343558336e+01	 1.979898987335525e+00	 1.091823627958823e+00
-2.184959953865105e+01	 2.616295090399785e+00	 1.089731015363788e+00
-2.248599564171904e+01	 3.252691193463286e+00	 1.087962235581927e+00
-2.312239174478736e+01	 3.889087296526026e+00	 1.084469787191995e+00
-2.375878784785600e+01	 4.525483399588001e+00	 1.079962281404801e+00
-1.711198410471225e+01	-1.555634918587748e+00	 1.139309583807388e+00
-1.774838020777720e+01	-9.192388155186300e-01	 1.127465696383408e+00
-1.838477631084276e+01	-2.828427124503768e-01	 1.118221472896791e+00
-1.902117241390892e+01	 3.535533906170111e-01	 1.110766844911350e+00
-1.965756851697569e+01	 9.899494936835340e-01	 1.104291712372158e+00
-2.029396462004307e+01	 1.626345596749192e+00	 1.097985943603631e+00
-2.093036072311104e+01	 2.262741699813985e+00	 1.093504615297295e+00
-2.156675682617963e+01	 2.899137802877914e+00	 1.091379846459015e+00
-2.220315292924881e+01	 3.535533905940976e+00	 1.089290848368261e+00
-2.283954903231861e+01	 4.171930009003175e+00	 1.085271766365056e+00
-2.347594513538900e+01	 4.808326112064502e+00	 1.080980851436975e+00
-1.682914139224100e+01	-1.272792206108998e+00	 1.139878660507350e+00
-1.746553749530489e+01	-6.363961030396673e-01	 1.128301210967162e+00
-1.810193359836976e+01	 2.872324600389220e-11	 1.119384084250349e+00
-1.873832970143561e+01	 6.363961030961738e-01	 1.112317217734739e+00
-1.937472580450244e+01	 1.272792206162684e+00	 1.106290517179853e+00
-2.001112190757025e+01	 1.909188309228255e+00	 1.100493856724994e+00
-2.064751801063904e+01	 2.545584412292886e+00	 1.094539178646218e+00
-2.128391411370881e+01	 3.181980515356576e+00	 1.092502914852138e+00
-2.192031021677957e+01	 3.818376618419327e+00	 1.089685566199551e+00
-2.255670631985129e+01	 4.454772721481136e+00	 1.086024992092345e+00
-2.319310242292400e+01	 5.091168824542002e+00	 1.082066348696174e+00
-1.654629867977025e+01	-9.899494936297477e-01	 1.138789190678065e+00
-1.718269478283282e+01	-3.535533905602898e-01	 1.127630479957111e+00
-1.781909088589684e+01	 2.828427125081834e-01	 1.119192751304663e+00
-1.845548698896230e+01	 9.192388155756714e-01	 1.112665947912518e+00
-1.909188309202921e+01	 1.555634918642174e+00	 1.107239981354609e+00
-1.972827919509757e+01	 2.192031021707693e+00	 1.102104731585081e+00
-2.036467529816736e+01	 2.828427124772225e+00	 1.096450046936371e+00
-2.100107140123860e+01	 3.464823227835774e+00	 1.093029449378691e+00
-2.163746750431129e+01	 4.101219330898338e+00	 1.089913591939838e+00
-2.227386360738543e+01	 4.737615433959915e+00	 1.086727205930315e+00
-2.291025971046100e+01	 5.374011537020502e+00	 1.083216515006831e+00
-1.626345596730000e+01	-7.071067811500000e-01	 1.135987418076576e+00
-1.689985207036100e+01	-7.071067808049947e-02	 1.125399745961958e+00
-1.753624817342401e+01	 5.656854249880012e-01	 1.117593715520057e+00
-1.817264427648900e+01	 1.202081528055502e+00	 1.111759275756604e+00
-1.880904037955600e+01	 1.838477631122002e+00	 1.107086344059902e+00
-1.944543648262501e+01	 2.474873734187503e+00	 1.102764806198897e+00
-2.008183258569601e+01	 3.111269837252004e+00	 1.097984516321261e+00
-2.071822868876900e+01	 3.747665940315504e+00	 1.092472422018855e+00
-2.135462479184401e+01	 4.384062043378004e+00	 1.089972666677935e+00
-2.199102089492100e+01	 5.020458146439505e+00	 1.087376149235731e+00
-2.262741699800000e+01	 5.656854249500000e+00	 1.084429091993695e+00
-7.071067811900000e+00	-7.071067811900000e+00	 1.203096462780552e+00
-7.071067811900001e+00	-7.071067811900001e+00	 1.203096462780552e+00
-7.071067811900001e+00	-7.071067811900001e+00	 1.203096462780552e+00
-7.071067811900000e+00	-7.071067811900000e+00	 1.203096462780551e+00
-7.071067811899999e+00	-7.071067811899999e+00	 1.203096462780552e+00
-7.071067811900000e+00	-7.071067811900000e+00	 1.203096462780552e+00
-7.071067811900000e+00	-7.071067811900000e+00	 1.203096462780552e+00
-7.071067811900000e+00	-7.071067811900000e+00	 1.203096462780552e+00
-7.071067811900000e+00	-7.071067811900000e+00	 1.203096462780552e+00
-7.071067811900000e+00	-7.071067811900000e+00	 1.203096462780553e+00
-7.071067811900000e+00	-7.071067811900000e+00	 1.203096462780552e+00
-7.074603345806000e+00	-7.074603345806000e+00	 3.541176085058229e+01
-7.074249792415401e+00	-7.074956899196505e+00	 3.338670586726820e+01
-7.073896239024798e+00	-7.075310452587019e+00	 3.141364989368294e+01
-7.073542685634201e+00	-7.075664005977545e+00	 2.949259292981145e+01
-7.073189132243600e+00	-7.076017559368080e+00	 2.762353497565098e+01
-7.072835578853000e+00	-7.076371112758626e+00	 2.580647603119357e+01
-7.072482025462401e+00	-7.076724666149181e+00	 2.404141609643368e+01
-7.072128472071801e+00	-7.077078219539746e+00	 2.232835517136064e+01
-7.071774918681198e+00	-7.077431772930320e+00	 2.066729325598501e+01
-7.071421365290600e+00	-7.077785326320905e+00	 1.905823035027571e+01
-7.071067811900000e+00	-7.078138879711500e+00	 1.750116645425342e+01
-7.085209947524000e+00	-7.085209947524000e+00	 1.776978258073871e+01
-7.083795733961600e+00	-7.086624161086021e+00	 1.675862556625607e+01
-7.082381520399200e+00	-7.088038374648080e+00	 1.577346585783071e+01
-7.080967306836799e+00	-7.089452588210178e+00	 1.481430345547534e+01
-7.079553093274400e+00	-7.090866801772320e+00	 1.388113835920303e+01
-7.078138879711998e+00	-7.092281015334499e+00	 1.297397056902751e+01
-7.076724666149599e+00	-7.093695228896719e+00	 1.209280008496246e+01
-7.075310452587200e+00	-7.095109442458979e+00	 1.123762690702159e+01
-7.073896239024801e+00	-7.096523656021281e+00	 1.040845103521898e+01
-7.072482025462401e+00	-7.097937869583620e+00	 9.605272469569719e+00
-7.071067811900000e+00	-7.099352083146000e+00	 8.828091210087367e+00
-7.102887617053999e+00	-7.102887617053999e+00	 1.189791217937302e+01
-7.099705636538601e+00	-7.106069597568546e+00	 1.122257033764652e+01
-7.096523656023201e+00	-7.109251578083180e+00	 1.056468008490547e+01
-7.093341675507799e+00	-7.112433558597904e+00	 9.924241421340854e+00
-7.090159694992400e+00	-7.115615539112721e+00	 9.301254347143054e+00
-7.086977714477000e+00	-7.118797519627625e+00	 8.695718862502909e+00
-7.083795733961600e+00	-7.121979500142620e+00	 8.107634967611576e+00
-7.080613753446200e+00	-7.125161480657705e+00	 7.537002662660068e+00
-7.077431772930801e+00	-7.128343461172881e+00	 6.983821947839738e+00
-7.074249792415400e+00	-7.131525441688146e+00	 6.448092823341850e+00
-7.071067811899999e+00	-7.134707422203499e+00	 5.929815289358148e+00
-7.127636354396000e+00	-7.127636354396000e+00	 8.962813385808154e+00
-7.121979500146401e+00	-7.133293208644081e+00	 8.454948601451155e+00
-7.116322645896799e+00	-7.138950062892319e+00	 7.960285193443385e+00
-7.110665791647200e+00	-7.144606917140720e+00	 7.478823162868109e+00
-7.105008937397599e+00	-7.150263771389279e+00	 7.010562510808799e+00
-7.099352083148000e+00	-7.155920625638000e+00	 6.555503238349039e+00
-7.093695228898400e+00	-7.161577479886881e+00	 6.113645346572507e+00
-7.088038374648800e+00	-7.167234334135919e+00	 5.684988836562948e+00
-7.082381520399200e+00	-7.172891188385120e+00	 5.269533709404350e+00
-7.076724666149601e+00	-7.178548042634481e+00	 4.867279966180691e+00
-7.071067811900000e+00	-7.184204896884000e+00	 4.478227607976097e+00
-7.159456159549999e+00	-7.159456159549999e+00	 7.201306182179660e+00
-7.150617324785002e+00	-7.168294994312627e+00	 6.793765473910787e+00
-7.141778490019999e+00	-7.177133829075499e+00	 6.396883028095721e+00
-7.132939655255000e+00	-7.185972663838625e+00	 6.010658848873039e+00
-7.124100820490000e+00	-7.194811498602000e+00	 5.635092940381399e+00
-7.115261985725001e+00	-7.203650333365625e+00	 5.270185306759577e+00
-7.106423150960000e+00	-7.212489168129499e+00	 4.915935952146417e+00
-7.097584316194999e+00	-7.221328002893625e+00	 4.572344880680902e+00
-7.088745481430000e+00	-7.230166837658000e+00	 4.239412096502033e+00
-7.079906646665001e+00	-7.239005672422626e+00	 3.917137603749032e+00
-7.071067811900000e+00	-7.247844507187500e+00	 3.605521406561036e+00
-7.198347032516000e+00	-7.198347032516000e+00	 6.026156470136875e+00
-7.185619110454399e+00	-7.211074954574179e+00	 5.685409147669048e+00
-7.172891188392800e+00	-7.223802876632719e+00	 5.353627260251907e+00
-7.160163266331200e+00	-7.236530798691621e+00	 5.030810820246645e+00
-7.147435344269599e+00	-7.249258720750880e+00	 4.716959840014480e+00
-7.134707422208000e+00	-7.261986642810499e+00	 4.412074331916718e+00
-7.121979500146399e+00	-7.274714564870480e+00	 4.116154308314828e+00
-7.109251578084801e+00	-7.287442486930821e+00	 3.829199781570336e+00
-7.096523656023201e+00	-7.300170408991521e+00	 3.551210764044833e+00
-7.083795733961601e+00	-7.312898331052581e+00	 3.282187268100052e+00
-7.071067811899999e+00	-7.325626253114000e+00	 3.022129306097820e+00
-7.244308973294000e+00	-7.244308973294000e+00	 5.185821124441298e+00
-7.226984857154600e+00	-7.261633089428745e+00	 4.892720043245341e+00
-7.209660741015200e+00	-7.278957205563979e+00	 4.607376040524723e+00
-7.192336624875800e+00	-7.296281321699705e+00	 4.329789147451862e+00
-7.175012508736400e+00	-7.313605437835919e+00	 4.059959395199323e+00
-7.157688392597000e+00	-7.330929553972624e+00	 3.797886814939782e+00
-7.140364276457599e+00	-7.348253670109818e+00	 3.543571437846075e+00
-7.123040160318200e+00	-7.365577786247505e+00	 3.297013295091135e+00
-7.105716044178798e+00	-7.382901902385678e+00	 3.058212417848072e+00
-7.088391928039401e+00	-7.400226018524346e+00	 2.827168837290100e+00
-7.071067811900000e+00	-7.417550134663500e+00	 2.603882584590573e+00
-7.297341981884001e+00	-7.297341981884001e+00	 4.554578534704768e+00
-7.274714564885600e+00	-7.319969398876320e+00	 4.297159736293590e+00
-7.252087147887199e+00	-7.342596815869278e+00	 4.046591602795664e+00
-7.229459730888800e+00	-7.365224232862881e+00	 3.802874203670588e+00
-7.206832313890400e+00	-7.387851649857121e+00	 3.566007608378218e+00
-7.184204896891999e+00	-7.410479066851998e+00	 3.335991886378682e+00
-7.161577479893598e+00	-7.433106483847518e+00	 3.112827107132336e+00
-7.138950062895198e+00	-7.455733900843678e+00	 2.896513340099828e+00
-7.116322645896799e+00	-7.478361317840478e+00	 2.687050654742029e+00
-7.093695228898400e+00	-7.500988734837920e+00	 2.484439120520103e+00
-7.071067811900001e+00	-7.523616151836001e+00	 2.288678806895438e+00
-7.357446058286000e+00	-7.357446058286000e+00	 4.062610617723865e+00
-7.328808233647398e+00	-7.386083882916903e+00	 3.832897329409279e+00
-7.300170409008800e+00	-7.414721707548620e+00	 3.609328906263618e+00
-7.271532584370201e+00	-7.443359532181146e+00	 3.391905489102697e+00
-7.242894759731599e+00	-7.471997356814479e+00	 3.180627218742909e+00
-7.214256935093000e+00	-7.500635181448625e+00	 2.975494236001195e+00
-7.185619110454399e+00	-7.529273006083580e+00	 2.776506681695062e+00
-7.156981285815798e+00	-7.557910830719343e+00	 2.583664696642574e+00
-7.128343461177200e+00	-7.586548655355919e+00	 2.396968421662367e+00
-7.099705636538600e+00	-7.615186479993304e+00	 2.216417997573635e+00
-7.071067811899999e+00	-7.643824304631499e+00	 2.042013565196120e+00
-7.424621202500000e+00	-7.424621202500000e+00	 3.668046134211236e+00
-7.389265863440000e+00	-7.459976541550501e+00	 3.460452222381678e+00
-7.353910524380000e+00	-7.495331880602000e+00	 3.258437151569181e+00
-7.318555185319999e+00	-7.530687219654500e+00	 3.062001186744779e+00
-7.283199846260000e+00	-7.566042558707999e+00	 2.871144592880722e+00
-7.247844507200000e+00	-7.601397897762499e+00	 2.685867634950495e+00
-7.212489168139999e+00	-7.636753236818000e+00	 2.506170577928819e+00
-7.177133829080000e+00	-7.672108575874500e+00	 2.332053686791646e+00
-7.141778490020000e+00	-7.707463914931999e+00	 2.163517226516154e+00
-7.106423150960000e+00	-7.742819253990500e+00	 2.000561462080767e+00
-7.071067811900000e+00	-7.778174593050000e+00	 1.843186658465120e+00
-7.424621202500000e+00	-7.424621202500000e+00	 3.668046134211236e+00
-7.389265863440000e+00	-7.459976541550501e+00	 3.460452222381678e+00
-7.353910524380000e+00	-7.495331880602000e+00	 3.258437151569181e+00
-7.318555185319999e+00	-7.530687219654500e+00	 3.062001186744779e+00
-7.283199846260000e+00	-7.566042558707999e+00	 2.871144592880722e+00
-7.247844507200000e+00	-7.601397897762499e+00	 2.685867634950495e+00
-7.212489168139999e+00	-7.636753236818000e+00	 2.506170577928819e+00
-7.177133829080000e+00	-7.672108575874500e+00	 2.332053686791646e+00
-7.141778490020000e+00	-7.707463914931999e+00	 2.163517226516154e+00
-7.106423150960000e+00	-7.742819253990500e+00	 2.000561462080767e+00
-7.071067811900000e+00	-7.778174593050000e+00	 1.843186658465120e+00
-7.498867414525000e+00	-7.498867414525000e+00	 3.360154936092627e+00
-7.456087454262590e+00	-7.541647374776486e+00	 3.172487524008520e+00
-7.413307494000161e+00	-7.584427335029143e+00	 2.990689787531205e+00
-7.370527533737711e+00	-7.627207295282966e+00	 2.814762196073766e+00
-7.327747573475239e+00	-7.669987255537959e+00	 2.644705219051880e+00
-7.284967613212749e+00	-7.712767215794124e+00	 2.480519325883839e+00
-7.242187652950240e+00	-7.755547176051460e+00	 2.322204985990552e+00
-7.199407692687710e+00	-7.798327136309966e+00	 2.169762668795529e+00
-7.156627732425161e+00	-7.841107096569642e+00	 2.023192843724897e+00
-7.113847772162590e+00	-7.883887056830486e+00	 1.882495980207394e+00
-7.071067811900000e+00	-7.926667017092500e+00	 1.747672547674364e+00
-7.580184694360000e+00	-7.580184694360000e+00	 3.104223386127491e+00
-7.529273006114360e+00	-7.631096382594240e+00	 2.933391610658574e+00
-7.478361317868640e+00	-7.682008070829760e+00	 2.768412699410408e+00
-7.427449629622839e+00	-7.732919759066559e+00	 2.609287443585390e+00
-7.376537941376963e+00	-7.783831447304641e+00	 2.456016634391086e+00
-7.325626253130999e+00	-7.834743135544000e+00	 2.308601063040244e+00
-7.274714564884961e+00	-7.885654823784641e+00	 2.167041520750783e+00
-7.223802876638842e+00	-7.936566512026561e+00	 2.031338798745804e+00
-7.172891188392639e+00	-7.987478200269759e+00	 1.901493688253570e+00
-7.121979500146359e+00	-8.038389888514240e+00	 1.777506980507541e+00
-7.071067811900001e+00	-8.089301576760001e+00	 1.659379466746332e+00
-7.668573042005001e+00	-7.668573042005001e+00	 2.887903518590832e+00
-7.608822518995311e+00	-7.728323565003766e+00	 2.731467500896169e+00
-7.549071995985442e+00	-7.788074088003861e+00	 2.580684705438204e+00
-7.489321472975390e+00	-7.847824611005285e+00	 2.435556411189606e+00
-7.429570949965158e+00	-7.907575134008038e+00	 2.296083897132784e+00
-7.369820426954750e+00	-7.967325657012124e+00	 2.162268442259899e+00
-7.310069903944159e+00	-8.027076180017538e+00	 2.034111325572853e+00
-7.250319380933389e+00	-8.086826703024284e+00	 1.911613826083291e+00
-7.190568857922440e+00	-8.146577226032360e+00	 1.794777222812616e+00
-7.130818334911312e+00	-8.206327749041767e+00	 1.683602794791961e+00
-7.071067811900000e+00	-8.266078272052500e+00	 1.578091821062210e+00
-7.764032457460001e+00	-7.764032457460001e+00	 2.702480920548385e+00
-7.694735992905440e+00	-7.833328922005060e+00	 2.558480684822626e+00
-7.625439528350561e+00	-7.902625386551440e+00	 2.419825684031689e+00
-7.556143063795360e+00	-7.971921851099140e+00	 2.286517913301663e+00
-7.486846599239840e+00	-8.041218315648161e+00	 2.158559367776197e+00
-7.417550134684001e+00	-8.110514780198502e+00	 2.035952042616497e+00
-7.348253670127839e+00	-8.179811244750159e+00	 1.918697933001328e+00
-7.278957205571360e+00	-8.249107709303139e+00	 1.806799034127013e+00
-7.209660741014560e+00	-8.318404173857440e+00	 1.700257341207428e+00
-7.140364276457439e+00	-8.387700638413060e+00	 1.599074849474015e+00
-7.071067811900000e+00	-8.456997102970000e+00	 1.503253554175777e+00
-7.866562940725000e+00	-7.866562940725000e+00	 2.541637816908461e+00
-7.787013427844752e+00	-7.946112453598126e+00	 2.408474335208309e+00
-7.707463914963999e+00	-8.025661966472500e+00	 2.280285172549265e+00
-7.627914402082750e+00	-8.105211479348126e+00	 2.157073347149645e+00
-7.548364889201000e+00	-8.184760992225002e+00	 2.038841877258200e+00
-7.468815376318750e+00	-8.264310505103126e+00	 1.925593781154100e+00
-7.389265863436000e+00	-8.343860017982500e+00	 1.817332077146951e+00
-7.309716350552749e+00	-8.423409530863125e+00	 1.714059783576773e+00
-7.230166837669000e+00	-8.502959043745001e+00	 1.615779918814018e+00
-7.150617324784750e+00	-8.582508556628126e+00	 1.522495501259568e+00
-7.071067811900000e+00	-8.662058069512501e+00	 1.434209549344727e+00
-7.976164491800001e+00	-7.976164491800001e+00	 2.400689956671006e+00
-7.885654823813242e+00	-8.066674159782961e+00	 2.277040432799288e+00
-7.795145155825760e+00	-8.157183827767041e+00	 2.157959432080219e+00
-7.704635487837561e+00	-8.247693495752241e+00	 2.043451400048071e+00
-7.614125819848638e+00	-8.338203163738559e+00	 1.933520782288053e+00
-7.523616151859001e+00	-8.428712831726003e+00	 1.828172024436297e+00
-7.433106483868641e+00	-8.519222499714560e+00	 1.727409572179869e+00
-7.342596815877560e+00	-8.609732167704241e+00	 1.631237871256766e+00
-7.252087147885760e+00	-8.700241835695040e+00	 1.539661367455923e+00
-7.161577479893239e+00	-8.790751503686961e+00	 1.452684506617200e+00
-7.071067811900001e+00	-8.881261171680002e+00	 1.370311734631391e+00
-8.092837110685000e+00	-8.092837110685000e+00	 2.276098430835614e+00
-7.990660180810910e+00	-8.195014040559565e+00	 2.160854649007006e+00
-7.888483250935841e+00	-8.297190970435061e+00	 2.049756085401762e+00
-7.786306321059791e+00	-8.399367900311486e+00	 1.942809135874625e+00
-7.684129391182760e+00	-8.501544830188841e+00	 1.840020196363002e+00
-7.581952461304750e+00	-8.603721760067126e+00	 1.741395662886978e+00
-7.479775531425760e+00	-8.705898689946341e+00	 1.646941931549304e+00
-7.377598601545791e+00	-8.808075619826488e+00	 1.556665398535412e+00
-7.275421671664840e+00	-8.910252549707559e+00	 1.470572460113403e+00
-7.173244741782910e+00	-9.012429479589565e+00	 1.388669512634070e+00
-7.071067811900000e+00	-9.114606409472501e+00	 1.310962952530869e+00
-8.216580797380001e+00	-8.216580797380001e+00	 2.165147529000345e+00
-8.102029498837762e+00	-8.331132095927941e+00	 2.057370095604948e+00
-7.987478200294242e+00	-8.445683394476562e+00	 1.953307710841150e+00
-7.872926901749442e+00	-8.560234693025862e+00	 1.852969387122854e+00
-7.758375603203361e+00	-8.674785991575844e+00	 1.756364136994514e+00
-7.643824304656001e+00	-8.789337290126502e+00	 1.663500973131160e+00
-7.529273006107360e+00	-8.903888588677841e+00	 1.574388908338374e+00
-7.414721707557439e+00	-9.018439887229860e+00	 1.489036955552318e+00
-7.300170409006240e+00	-9.132991185782561e+00	 1.407454127839716e+00
-7.185619110453759e+00	-9.247542484335941e+00	 1.329649438397867e+00
-7.071067811900001e+00	-9.362093782890001e+00	 1.255631900554651e+00
-8.347395551885000e+00	-8.347395551885000e+00	 2.065726384206921e+00
-8.219762777893790e+00	-8.475028325888085e+00	 1.964610144543427e+00
-8.092130003900962e+00	-8.602661099891542e+00	 1.866778234624003e+00
-7.964497229906510e+00	-8.730293873895366e+00	 1.772243120496348e+00
-7.836864455910440e+00	-8.857926647899562e+00	 1.681017268409355e+00
-7.709231681912749e+00	-8.985559421904124e+00	 1.593113144813096e+00
-7.581598907913440e+00	-9.113192195909061e+00	 1.508543216358844e+00
-7.453966133912511e+00	-9.240824969914366e+00	 1.427319949899069e+00
-7.326333359909960e+00	-9.368457743920041e+00	 1.349455812487441e+00
-7.198700585905790e+00	-9.496090517926087e+00	 1.274963271378842e+00
-7.071067811900000e+00	-9.623723291932501e+00	 1.203854794029362e+00
-8.485281374200000e+00	-8.485281374200000e+00	 1.976177470031781e+00
-8.343860017978999e+00	-8.626702730440000e+00	 1.881024925214191e+00
-8.202438661756000e+00	-8.768124086679999e+00	 1.788728916728718e+00
-8.061017305530999e+00	-8.909545442920001e+00	 1.699306403108473e+00
-7.919595949304000e+00	-9.050966799160001e+00	 1.612774343189796e+00
-7.778174593075001e+00	-9.192388155400000e+00	 1.529149696112272e+00
-7.636753236844000e+00	-9.333809511640000e+00	 1.448449421318727e+00
-7.495331880611000e+00	-9.475230867880001e+00	 1.370690478555243e+00
-7.353910524375999e+00	-9.616652224119999e+00	 1.295889827871170e+00
-7.212489168138999e+00	-9.758073580360000e+00	 1.224064429619115e+00
-7.071067811900000e+00	-9.899494936600000e+00	 1.155231244454978e+00
-7.071067811900000e+00	-7.071067811900000e+00	 1.203096462780552e+00
-7.071067811900001e+00	-7.071067811900001e+00	 1.203096462780552e+00
-7.071067811900001e+00	-7.071067811900001e+00	 1.203096462780551e+00
-7.071067811900000e+00	-7.071067811900000e+00	 1.203096462780551e+00
-7.071067811899999e+00	-7.071067811899999e+00	 1.203096462780552e+00
-7.071067811900000e+00	-7.071067811900000e+00	 1.203096462780552e+00
-7.071067811900000e+00	-7.071067811900000e+00	 1.203096462780552e+00
-7.071067811900000e+00	-7.071067811900000e+00	 1.203096462780554e+00
-7.071067811900000e+00	-7.071067811900000e+00	 1.203096462780552e+00
-7.071067811900000e+00	-7.071067811900000e+00	 1.203096462780554e+00
-7.071067811900000e+00	-7.071067811900000e+00	 1.203096462780552e+00
-7.071067811900000e+00	-7.078138879711500e+00	 1.616323931955465e+01
-7.070714258509400e+00	-7.077785326320905e+00	 1.591964432042337e+01
-7.070360705118798e+00	-7.077431772930319e+00	 1.531613288357617e+01
-7.070007151728200e+00	-7.077078219539746e+00	 1.435270500900891e+01
-7.069653598337600e+00	-7.076724666149180e+00	 1.302936069671746e+01
-7.069300044947000e+00	-7.076371112758626e+00	 1.134609994669063e+01
-7.068946491556400e+00	-7.076017559368081e+00	 9.302922758919555e+00
-7.068592938165800e+00	-7.075664005977545e+00	 6.899829133390677e+00
-7.068239384775199e+00	-7.075310452587019e+00	 4.136819070058692e+00
-7.067885831384601e+00	-7.074956899196505e+00	 1.013892568968905e+00
-7.067532277994000e+00	-7.074603345806000e+00	-2.468950369982703e+00
-7.071067811900000e+00	-7.099352083146000e+00	 8.133628245974707e+00
-7.069653598337601e+00	-7.097937869583620e+00	 8.014413921635644e+00
-7.068239384775199e+00	-7.096523656021280e+00	 7.714078164937405e+00
-7.066825171212799e+00	-7.095109442458979e+00	 7.232620975861088e+00
-7.065410957650400e+00	-7.093695228896720e+00	 6.570042354387335e+00
-7.063996744087999e+00	-7.092281015334499e+00	 5.726342300493974e+00
-7.062582530525598e+00	-7.090866801772319e+00	 4.701520814159025e+00
-7.061168316963199e+00	-7.089452588210178e+00	 3.495577895356861e+00
-7.059754103400801e+00	-7.088038374648081e+00	 2.108513544063299e+00
-7.058339889838400e+00	-7.086624161086021e+00	 5.403277602467579e-01
-7.056925676275999e+00	-7.085209947524000e+00	-1.208979456118554e+00
-7.071067811899999e+00	-7.134707422203499e+00	 5.477001163152010e+00
-7.067885831384601e+00	-7.131525441688146e+00	 5.395935058123678e+00
-7.064703850869200e+00	-7.128343461172881e+00	 5.194120366142799e+00
-7.061521870353800e+00	-7.125161480657704e+00	 4.871557087012564e+00
-7.058339889838400e+00	-7.121979500142620e+00	 4.428245220535683e+00
-7.055157909322999e+00	-7.118797519627625e+00	 3.864184766513903e+00
-7.051975928807600e+00	-7.115615539112721e+00	 3.179375724747436e+00
-7.048793948292200e+00	-7.112433558597905e+00	 2.373818095035777e+00
-7.045611967776800e+00	-7.109251578083180e+00	 1.447511877177141e+00
-7.042429987261400e+00	-7.106069597568545e+00	 4.004570709695802e-01
-7.039248006745999e+00	-7.102887617053999e+00	-7.673463237911612e-01
-7.071067811900000e+00	-7.184204896884000e+00	 4.151330547169127e+00
-7.065410957650401e+00	-7.178548042634481e+00	 4.088797254430927e+00
-7.059754103400800e+00	-7.172891188385119e+00	 3.935847316650071e+00
-7.054097249151201e+00	-7.167234334135919e+00	 3.692480732726721e+00
-7.048440394901600e+00	-7.161577479886880e+00	 3.358697501560234e+00
-7.042783540652000e+00	-7.155920625638000e+00	 2.934497622049429e+00
-7.037126686402400e+00	-7.150263771389280e+00	 2.419881093092116e+00
-7.031469832152800e+00	-7.144606917140720e+00	 1.814847913585381e+00
-7.025812977903200e+00	-7.138950062892320e+00	 1.119398082425843e+00
-7.020156123653600e+00	-7.133293208644081e+00	 3.335315985089395e-01
-7.014499269404000e+00	-7.127636354396000e+00	-5.427515392703913e-01
-7.071067811900000e+00	-7.247844507187500e+00	 3.355804231856214e+00
-7.062228977135002e+00	-7.239005672422627e+00	 3.304286575945450e+00
-7.053390142370000e+00	-7.230166837658000e+00	 3.180598508686254e+00
-7.044551307605000e+00	-7.221328002893626e+00	 2.984740025885138e+00
-7.035712472839999e+00	-7.212489168129499e+00	 2.716711123348025e+00
-7.026873638075000e+00	-7.203650333365625e+00	 2.376511796880097e+00
-7.018034803310000e+00	-7.194811498602000e+00	 1.964142042286085e+00
-7.009195968545000e+00	-7.185972663838625e+00	 1.479601855370043e+00
-7.000357133779999e+00	-7.177133829075499e+00	 9.228912319355194e-01
-6.991518299015000e+00	-7.168294994312626e+00	 2.940101677851524e-01
-6.982679464249999e+00	-7.159456159549999e+00	-4.070413412784509e-01
-7.071067811899999e+00	-7.325626253114000e+00	 2.824544408320539e+00
-7.058339889838399e+00	-7.312898331052581e+00	 2.780386235057084e+00
-7.045611967776800e+00	-7.300170408991519e+00	 2.676242153584996e+00
-7.032884045715201e+00	-7.287442486930821e+00	 2.512112151383553e+00
-7.020156123653599e+00	-7.274714564870479e+00	 2.287996215931565e+00
-7.007428201592000e+00	-7.261986642810499e+00	 2.003894334707297e+00
-6.994700279530399e+00	-7.249258720750880e+00	 1.659806495188666e+00
-6.981972357468800e+00	-7.236530798691621e+00	 1.255732684852920e+00
-6.969244435407201e+00	-7.223802876632721e+00	 7.916728911769322e-01
-6.956516513345600e+00	-7.211074954574181e+00	 2.676271016370494e-01
-6.943788591283999e+00	-7.198347032516000e+00	-3.164046962908342e-01
-7.071067811900000e+00	-7.417550134663500e+00	 2.443867608468215e+00
-7.053743695760598e+00	-7.400226018524345e+00	 2.405023963646802e+00
-7.036419579621199e+00	-7.382901902385679e+00	 2.314908585996816e+00
-7.019095463481801e+00	-7.365577786247505e+00	 2.173521443946222e+00
-7.001771347342401e+00	-7.348253670109820e+00	 1.980862505922663e+00
-6.984447231202999e+00	-7.330929553972624e+00	 1.736931740353362e+00
-6.967123115063599e+00	-7.313605437835918e+00	 1.441729115665224e+00
-6.949798998924201e+00	-7.296281321699705e+00	 1.095254600284740e+00
-6.932474882784798e+00	-7.278957205563978e+00	 6.975081626380838e-01
-6.915150766645400e+00	-7.261633089428745e+00	 2.484897711510682e-01
-6.897826650506000e+00	-7.244308973294000e+00	-2.518006057509692e-01
-7.071067811900001e+00	-7.523616151836001e+00	 2.157023152244476e+00
-7.048440394901601e+00	-7.500988734837919e+00	 2.122239030234895e+00
-7.025812977903199e+00	-7.478361317840477e+00	 2.042726073098065e+00
-7.003185560904801e+00	-7.455733900843681e+00	 1.918484210485726e+00
-6.980558143906400e+00	-7.433106483847521e+00	 1.749513372049415e+00
-6.957930726907999e+00	-7.410479066852000e+00	 1.535813487440487e+00
-6.935303309909599e+00	-7.387851649857118e+00	 1.277384486310111e+00
-6.912675892911198e+00	-7.365224232862879e+00	 9.742262983093325e-01
-6.890048475912798e+00	-7.342596815869278e+00	 6.263388530889477e-01
-6.867421058914401e+00	-7.319969398876321e+00	 2.337220802995947e-01
-6.844793641916000e+00	-7.297341981884001e+00	-2.036240904082209e-01
-7.071067811899999e+00	-7.643824304631499e+00	 1.932522941455629e+00
-7.042429987261399e+00	-7.615186479993304e+00	 1.900974738921027e+00
-7.013792162622801e+00	-7.586548655355920e+00	 1.829792504097430e+00
-6.985154337984201e+00	-7.557910830719346e+00	 1.718976094368127e+00
-6.956516513345600e+00	-7.529273006083579e+00	 1.568525367116651e+00
-6.927878688707001e+00	-7.500635181448625e+00	 1.378440179726666e+00
-6.899240864068400e+00	-7.471997356814480e+00	 1.148720389582036e+00
-6.870603039429797e+00	-7.443359532181143e+00	 8.793658540667884e-01
-6.841965214791200e+00	-7.414721707548620e+00	 5.703764305651391e-01
-6.813327390152599e+00	-7.386083882916903e+00	 2.217519764614884e-01
-6.784689565513999e+00	-7.357446058286000e+00	-1.665076508596090e-01
-7.071067811900000e+00	-7.778174593050000e+00	 1.751495961405616e+00
-7.035712472840001e+00	-7.742819253990501e+00	 1.722614374101259e+00
-7.000357133780001e+00	-7.707463914932000e+00	 1.658180207305502e+00
-6.965001794719999e+00	-7.672108575874500e+00	 1.558193192658249e+00
-6.929646455659999e+00	-7.636753236817999e+00	 1.422653061800303e+00
-6.894291116599999e+00	-7.601397897762500e+00	 1.251559546373353e+00
-6.858935777540000e+00	-7.566042558708000e+00	 1.044912378019991e+00
-6.823580438480001e+00	-7.530687219654500e+00	 8.027112883836944e-01
-6.788225099420000e+00	-7.495331880602000e+00	 5.249560091088487e-01
-6.752869760359999e+00	-7.459976541550500e+00	 2.116462718406985e-01
-6.717514421300000e+00	-7.424621202500000e+00	-1.372181917745695e-01
-7.071067811900000e+00	-7.778174593050000e+00	 1.751495961405616e+00
-7.035712472840001e+00	-7.742819253990501e+00	 1.722614374101259e+00
-7.000357133780001e+00	-7.707463914932000e+00	 1.658180207305502e+00
-6.965001794719999e+00	-7.672108575874500e+00	 1.558193192658249e+00
-6.929646455659999e+00	-7.636753236817999e+00	 1.422653061800303e+00
-6.894291116599999e+00	-7.601397897762500e+00	 1.251559546373353e+00
-6.858935777540000e+00	-7.566042558708000e+00	 1.044912378019991e+00
-6.823580438480001e+00	-7.530687219654500e+00	 8.027112883836944e-01
-6.788225099420000e+00	-7.495331880602000e+00	 5.249560091088487e-01
-6.752869760359999e+00	-7.459976541550500e+00	 2.116462718406985e-01
-6.717514421300000e+00	-7.424621202500000e+00	-1.372181917745695e-01
-7.071067811900000e+00	-7.926667017092500e+00	 1.643068512632262e+00
-7.028287851637397e+00	-7.883887056830485e+00	 1.614507343662894e+00
-6.985507891374802e+00	-7.841107096569642e+00	 1.553689866729336e+00
-6.942727931112200e+00	-7.798327136309967e+00	 1.460615606411467e+00
-6.899947970849600e+00	-7.755547176051459e+00	 1.335284087291346e+00
-6.857168010586999e+00	-7.712767215794125e+00	 1.177694833953262e+00
-6.814388050324401e+00	-7.669987255537960e+00	 9.878473709836931e-01
-6.771608090061799e+00	-7.627207295282965e+00	 7.657412229713254e-01
-6.728828129799201e+00	-7.584427335029142e+00	 5.113759145070536e-01
-6.686048169536599e+00	-7.541647374776484e+00	 2.247509701839754e-01
-6.643268209274000e+00	-7.498867414525000e+00	-9.413408540260598e-02
-7.071067811900001e+00	-8.089301576760001e+00	 1.551953520350069e+00
-7.020156123653600e+00	-8.038389888514240e+00	 1.524377942751851e+00
-6.969244435407200e+00	-7.987478200269760e+00	 1.467316355058095e+00
-6.918332747160799e+00	-7.936566512026559e+00	 1.380767955936606e+00
-6.867421058914402e+00	-7.885654823784642e+00	 1.264731944059956e+00
-6.816509370668000e+00	-7.834743135544000e+00	 1.119207518105488e+00
-6.765597682421601e+00	-7.783831447304641e+00	 9.441938767553260e-01
-6.714685994175200e+00	-7.732919759066561e+00	 7.396902186963701e-01
-6.663774305928801e+00	-7.682008070829760e+00	 5.056957426202907e-01
-6.612862617682399e+00	-7.631096382594240e+00	 2.422096472235258e-01
-6.561950929436001e+00	-7.580184694360000e+00	-5.076886879268640e-02
-7.071067811900000e+00	-8.266078272052500e+00	 1.473915407873736e+00
-7.011317288888601e+00	-8.206327749041765e+00	 1.447696026303755e+00
-6.951566765877202e+00	-8.146577226032361e+00	 1.394354409250918e+00
-6.891816242865800e+00	-8.086826703024286e+00	 1.313889261358955e+00
-6.832065719854399e+00	-8.027076180017538e+00	 1.206299287281013e+00
-6.772315196842999e+00	-7.967325657012124e+00	 1.071583191679615e+00
-6.712564673831598e+00	-7.907575134008038e+00	 9.097396792267093e-01
-6.652814150820199e+00	-7.847824611005284e+00	 7.207674546036195e-01
-6.593063627808800e+00	-7.788074088003859e+00	 5.046652225010861e-01
-6.533313104797401e+00	-7.728323565003765e+00	 2.614316876192569e-01
-6.473562581786000e+00	-7.668573042005001e+00	-8.934445332361048e-03
-7.071067811900000e+00	-8.456997102970000e+00	 1.405975386402997e+00
-7.001771347342399e+00	-8.387700638413058e+00	 1.381306728647465e+00
-6.932474882784800e+00	-8.318404173857441e+00	 1.331559790090403e+00
-6.863178418227200e+00	-8.249107709303141e+00	 1.256732550032510e+00
-6.793881953669599e+00	-8.179811244750161e+00	 1.156822987791800e+00
-6.724585489112000e+00	-8.110514780198503e+00	 1.031829082703583e+00
-6.655289024554400e+00	-8.041218315648161e+00	 8.817488141205045e-01
-6.585992559996800e+00	-7.971921851099141e+00	 7.065801614125128e-01
-6.516696095439199e+00	-7.902625386551440e+00	 5.063211039668538e-01
-6.447399630881600e+00	-7.833328922005060e+00	 2.809696211881200e-01
-6.378103166323999e+00	-7.764032457460001e+00	 3.052369249817678e-02
-7.071067811900000e+00	-8.662058069512501e+00	 1.345980849589611e+00
-6.991518299015000e+00	-8.582508556628127e+00	 1.322948829766350e+00
-6.911968786129999e+00	-8.502959043744999e+00	 1.276627285711377e+00
-6.832419273244999e+00	-8.423409530863125e+00	 1.207013160492871e+00
-6.752869760360000e+00	-8.343860017982500e+00	 1.114103397209339e+00
-6.673320247475000e+00	-8.264310505103126e+00	 9.978949389896066e-01
-6.593770734590000e+00	-8.184760992225000e+00	 8.583847289928520e-01
-6.514221221704998e+00	-8.105211479348124e+00	 6.955697104085760e-01
-6.434671708820000e+00	-8.025661966472500e+00	 5.094468264566024e-01
-6.355122195934999e+00	-7.946112453598126e+00	 3.000130203870987e-01
-6.275572683050000e+00	-7.866562940725000e+00	 6.726523548055338e-02
-7.071067811900001e+00	-8.881261171680002e+00	 1.292340549033109e+00
-6.980558143906401e+00	-8.790751503686961e+00	 1.270962039016249e+00
-6.890048475912800e+00	-8.700241835695042e+00	 1.227876884212810e+00
-6.799538807919199e+00	-8.609732167704241e+00	 1.163080582024876e+00
-6.709029139925598e+00	-8.519222499714560e+00	 1.076568629905572e+00
-6.618519471932000e+00	-8.428712831726001e+00	 9.683365253590912e-01
-6.528009803938401e+00	-8.338203163738561e+00	 8.383797659406811e-01
-6.437500135944800e+00	-8.247693495752239e+00	 6.866938492566486e-01
-6.346990467951199e+00	-8.157183827767042e+00	 5.132742729643515e-01
-6.256480799957598e+00	-8.066674159782959e+00	 3.181165347722094e-01
-6.165971131964000e+00	-7.976164491800001e+00	 1.012161324396887e-01
-7.071067811900000e+00	-9.114606409472501e+00	 1.243855620045603e+00
-6.968890882016598e+00	-9.012429479589565e+00	 1.224102189704819e+00
-6.866713952133200e+00	-8.910252549707561e+00	 1.184057590927580e+00
-6.764537022249799e+00	-8.808075619826488e+00	 1.123715345694945e+00
-6.662360092366399e+00	-8.705898689946341e+00	 1.043068976071083e+00
-6.560183162483000e+00	-8.603721760067126e+00	 9.421120042032916e-01
-6.458006232599599e+00	-8.501544830188839e+00	 8.208379523219866e-01
-6.355829302716199e+00	-8.399367900311486e+00	 6.792403427406873e-01
-6.253652372832799e+00	-8.297190970435061e+00	 5.173126978560449e-01
-6.151475442949399e+00	-8.195014040559565e+00	 3.350485401478028e-01
-6.049298513065999e+00	-8.092837110685000e+00	 1.324413921788416e-01
-7.071067811900001e+00	-9.362093782890001e+00	 1.199608307436914e+00
-6.956516513345600e+00	-9.247542484335943e+00	 1.181420691330447e+00
-6.841965214791201e+00	-9.132991185782563e+00	 1.144220617445122e+00
-6.727413916236799e+00	-9.018439887229862e+00	 1.087998957490108e+00
-6.612862617682400e+00	-8.903888588677843e+00	 1.012746583306053e+00
-6.498311319128001e+00	-8.789337290126502e+00	 9.184543668650632e-01
-6.383760020573599e+00	-8.674785991575842e+00	 8.051131802707177e-01
-6.269208722019199e+00	-8.560234693025860e+00	 6.727138957580563e-01
-6.154657423464799e+00	-8.445683394476561e+00	 5.212473856935814e-01
-6.040106124910399e+00	-8.331132095927941e+00	 3.507045225752451e-01
-5.925554826355999e+00	-8.216580797380001e+00	 1.610761790324643e-01
-7.071067811900000e+00	-9.623723291932501e+00	 1.158886653423061e+00
-6.943435037893400e+00	-9.496090517926085e+00	 1.142183639935098e+00
-6.815802263886799e+00	-9.368457743920041e+00	 1.107635001341492e+00
-6.688169489880199e+00	-9.240824969914366e+00	 1.055228111167042e+00
-6.560536715873600e+00	-9.113192195909061e+00	 9.849503431392913e-01
-6.432903941866998e+00	-8.985559421904126e+00	 8.967890711885393e-01
-6.305271167860399e+00	-8.857926647899561e+00	 7.907316694478294e-01
-6.177638393853799e+00	-8.730293873895365e+00	 6.667655122529491e-01
-6.050005619847200e+00	-8.602661099891540e+00	 5.248779741424198e-01
-5.922372845840599e+00	-8.475028325888086e+00	 3.650564298574986e-01
-5.794740071833999e+00	-8.347395551885000e+00	 1.872882543421656e-01
-7.071067811900000e+00	-9.899494936600000e+00	 1.121132287318914e+00
-6.929646455660000e+00	-9.758073580360000e+00	 1.105816178674656e+00
-6.788225099420000e+00	-9.616652224120001e+00	 1.073730017847036e+00
-6.646803743180000e+00	-9.475230867880001e+00	 1.024856627851763e+00
-6.505382386939999e+00	-9.333809511640000e+00	 9.591788320102874e-01
-6.363961030700000e+00	-9.192388155400000e+00	 8.766794539497922e-01
-6.222539674460000e+00	-9.050966799159999e+00	 7.773413176031827e-01
-6.081118318220000e+00	-8.909545442919999e+00	 6.611472472090799e-01
-5.939696961979999e+00	-8.768124086680000e+00	 5.280800673118150e-01
-5.798275605740000e+00	-8.626702730439998e+00	 3.781226027614110e-01
-5.656854249500000e+00	-8.485281374200000e+00	 2.112576787135960e-01
-7.071067811900000e+00	-7.071067811900000e+00	 1.203096462780552e+00
-7.071067811900001e+00	-7.071067811900001e+00	 1.203096462780553e+00
-7.071067811900001e+00	-7.071067811900001e+00	 1.203096462780552e+00
-7.071067811900000e+00	-7.071067811900000e+00	 1.203096462780550e+00
-7.071067811899999e+00	-7.071067811899999e+00	 1.203096462780552e+00
-7.071067811900000e+00	-7.071067811900000e+00	 1.203096462780552e+00
-7.071067811900000e+00	-7.071067811900000e+00	 1.203096462780552e+00
-7.071067811900000e+00	-7.071067811900000e+00	 1.203096462780555e+00
-7.071067811900000e+00	-7.071067811900000e+00	 1.203096462780552e+00
-7.071067811900000e+00	-7.071067811900000e+00	 1.203096462780555e+00
-7.071067811900000e+00	-7.071067811900000e+00	 1.203096462780552e+00
-7.067532277994000e+00	-7.074603345806000e+00	-3.416916299590076e-01
-7.067178724603401e+00	-7.074249792415401e+00	-1.763363831784687e+00
-7.066825171212799e+00	-7.073896239024798e+00	-2.955931846886511e+00
-7.066471617822200e+00	-7.073542685634201e+00	-3.919395675225946e+00
-7.066118064431598e+00	-7.073189132243600e+00	-4.653755316823199e+00
-7.065764511041000e+00	-7.072835578853000e+00	-5.159010771676771e+00
-7.065410957650400e+00	-7.072482025462401e+00	-5.435162039784018e+00
-7.065057404259800e+00	-7.072128472071801e+00	-5.482209121130595e+00
-7.064703850869200e+00	-7.071774918681198e+00	-5.300152015801420e+00
-7.064350297478600e+00	-7.071421365290600e+00	-4.888990723626888e+00
-7.063996744088000e+00	-7.071067811900000e+00	-4.248725244789033e+00
-7.056925676275999e+00	-7.085209947524000e+00	-1.708899819131463e-01
-7.055511462713601e+00	-7.083795733961600e+00	-8.938406290313980e-01
-7.054097249151200e+00	-7.082381520399200e+00	-1.498389276635887e+00
-7.052683035588799e+00	-7.080967306836799e+00	-1.984535924742009e+00
-7.051268822026400e+00	-7.079553093274400e+00	-2.352280573365439e+00
-7.049854608463999e+00	-7.078138879711998e+00	-2.601623222525698e+00
-7.048440394901599e+00	-7.076724666149599e+00	-2.732563872237852e+00
-7.047026181339199e+00	-7.075310452587200e+00	-2.745102522520529e+00
-7.045611967776801e+00	-7.073896239024801e+00	-2.639239173387650e+00
-7.044197754214400e+00	-7.072482025462401e+00	-2.414973824864470e+00
-7.042783540652000e+00	-7.071067811900000e+00	-2.072306476960519e+00
-7.039248006745999e+00	-7.102887617053999e+00	-4.972565827365033e-02
-7.036066026230601e+00	-7.099705636538601e+00	-5.342713174832938e-01
-7.032884045715201e+00	-7.096523656023201e+00	-9.392674711707585e-01
-7.029702065199800e+00	-7.093341675507799e+00	-1.264714119534686e+00
-7.026520084684400e+00	-7.090159694992400e+00	-1.510611262768855e+00
-7.023338104169000e+00	-7.086977714477000e+00	-1.676958901068706e+00
-7.020156123653600e+00	-7.083795733961600e+00	-1.763757034630859e+00
-7.016974143138199e+00	-7.080613753446200e+00	-1.771005663650566e+00
-7.013792162622800e+00	-7.077431772930801e+00	-1.698704788323880e+00
-7.010610182107400e+00	-7.074249792415400e+00	-1.546854408845029e+00
-7.007428201591999e+00	-7.071067811899999e+00	-1.315454525411097e+00
-7.014499269404000e+00	-7.127636354396000e+00	 2.261989938781644e-02
-7.008842415154400e+00	-7.121979500146401e+00	-3.416097740222123e-01
-7.003185560904799e+00	-7.116322645896799e+00	-6.460818541231875e-01
-6.997528706655200e+00	-7.110665791647200e+00	-8.907963420136302e-01
-6.991871852405600e+00	-7.105008937397599e+00	-1.075753238793020e+00
-6.986214998156000e+00	-7.099352083148000e+00	-1.200952545560352e+00
-6.980558143906401e+00	-7.093695228898400e+00	-1.266394263415008e+00
-6.974901289656801e+00	-7.088038374648800e+00	-1.272078393456077e+00
-6.969244435407201e+00	-7.082381520399200e+00	-1.218004936782565e+00
-6.963587581157601e+00	-7.076724666149601e+00	-1.104173894493759e+00
-6.957930726908000e+00	-7.071067811900000e+00	-9.305852676887681e-01
-6.982679464249999e+00	-7.159456159549999e+00	 6.953581805928208e-02
-6.973840629485002e+00	-7.150617324785002e+00	-2.220738609499993e-01
-6.965001794720001e+00	-7.141778490019999e+00	-4.659176273539459e-01
-6.956162959955000e+00	-7.132939655255000e+00	-6.619954853454467e-01
-6.947324125190000e+00	-7.124100820490000e+00	-8.103074391173846e-01
-6.938485290425000e+00	-7.115261985725001e+00	-9.108534928629256e-01
-6.929646455659999e+00	-7.106423150960000e+00	-9.636336507748554e-01
-6.920807620894999e+00	-7.097584316194999e+00	-9.686479170462190e-01
-6.911968786130000e+00	-7.088745481430000e+00	-9.258962958696721e-01
-6.903129951365001e+00	-7.079906646665001e+00	-8.353787914386516e-01
-6.894291116600000e+00	-7.071067811900000e+00	-6.970954079453473e-01
-6.943788591283999e+00	-7.198347032516000e+00	 1.020409671645063e-01
-6.931060669222400e+00	-7.185619110454399e+00	-1.409098481191959e-01
-6.918332747160799e+00	-7.172891188392800e+00	-3.441370767401436e-01
-6.905604825099201e+00	-7.160163266331200e+00	-5.076407312187378e-01
-6.892876903037599e+00	-7.147435344269599e+00	-6.314208240749064e-01
-6.880148980976000e+00	-7.134707422208000e+00	-7.154773678286992e-01
-6.867421058914399e+00	-7.121979500146399e+00	-7.598103750000756e-01
-6.854693136852801e+00	-7.109251578084801e+00	-7.644198581092453e-01
-6.841965214791201e+00	-7.096523656023201e+00	-7.293058296760055e-01
-6.829237292729600e+00	-7.083795733961601e+00	-6.544683022204374e-01
-6.816509370667999e+00	-7.071067811899999e+00	-5.399072882624089e-01
-6.897826650506000e+00	-7.244308973294000e+00	 1.256440416241579e-01
-6.880502534366599e+00	-7.226984857154600e+00	-8.237065112335339e-02
-6.863178418227200e+00	-7.209660741015200e+00	-2.564288308590158e-01
-6.845854302087799e+00	-7.192336624875800e+00	-3.965305291537894e-01
-6.828530185948400e+00	-7.175012508736400e+00	-5.026757775786292e-01
-6.811206069809000e+00	-7.157688392597000e+00	-5.748646077043642e-01
-6.793881953669599e+00	-7.140364276457599e+00	-6.130970511017290e-01
-6.776557837530200e+00	-7.123040160318200e+00	-6.173731393414033e-01
-6.759233721390798e+00	-7.105716044178798e+00	-5.876929039940040e-01
-6.741909605251400e+00	-7.088391928039401e+00	-5.240563766300392e-01
-6.724585489112000e+00	-7.071067811900000e+00	-4.264635888201255e-01
-6.844793641916000e+00	-7.297341981884001e+00	 1.433549798168667e-01
-6.822166224917600e+00	-7.274714564885600e+00	-3.830530504590753e-02
-6.799538807919199e+00	-7.252087147887199e+00	-1.903456171378106e-01
-6.776911390920801e+00	-7.229459730888800e+00	-3.127660268047696e-01
-6.754283973922401e+00	-7.206832313890400e+00	-4.055666043925217e-01
-6.731656556923999e+00	-7.184204896891999e+00	-4.687474202466685e-01
-6.709029139925598e+00	-7.161577479893598e+00	-5.023085447125385e-01
-6.686401722927198e+00	-7.138950062895198e+00	-5.062500481352460e-01
-6.663774305928799e+00	-7.116322645896799e+00	-4.805720008597816e-01
-6.641146888930400e+00	-7.093695228898400e+00	-4.252744732309242e-01
-6.618519471932001e+00	-7.071067811900001e+00	-3.403575355931442e-01
-6.784689565513999e+00	-7.357446058286000e+00	 1.569449689363016e-01
-6.756051740875400e+00	-7.328808233647398e+00	-4.077776074805743e-03
-6.727413916236801e+00	-7.300170409008800e+00	-1.388587701698749e-01
-6.698776091598202e+00	-7.271532584370201e+00	-2.473981559601144e-01
-6.670138266959600e+00	-7.242894759731599e+00	-3.296960760562705e-01
-6.641500442321001e+00	-7.214256935093000e+00	-3.857526730685575e-01
-6.612862617682399e+00	-7.185619110454399e+00	-4.155680896066723e-01
-6.584224793043798e+00	-7.156981285815798e+00	-4.191424682797993e-01
-6.555586968405199e+00	-7.128343461177200e+00	-3.964759516966439e-01
-6.526949143766600e+00	-7.099705636538600e+00	-3.475686824653373e-01
-6.498311319128000e+00	-7.071067811899999e+00	-2.724208031934940e-01
-6.717514421300000e+00	-7.424621202500000e+00	 1.675197367111417e-01
-6.682159082240001e+00	-7.389265863440000e+00	 2.314061354582307e-02
-6.646803743180000e+00	-7.353910524380000e+00	-9.770122061159608e-02
-6.611448404120000e+00	-7.318555185319999e+00	-1.950060341090230e-01
-6.576093065059998e+00	-7.283199846260000e+00	-2.687740952931529e-01
-6.540737726000000e+00	-7.247844507200000e+00	-3.190056725094595e-01
-6.505382386940000e+00	-7.212489168139999e+00	-3.457010341022489e-01
-6.470027047880000e+00	-7.177133829080000e+00	-3.488604484146377e-01
-6.434671708820000e+00	-7.141778490020000e+00	-3.284841837884989e-01
-6.399316369760000e+00	-7.106423150960000e+00	-2.845725085645802e-01
-6.363961030700001e+00	-7.071067811900000e+00	-2.171256910823764e-01
-6.717514421300000e+00	-7.424621202500000e+00	 1.675197367111417e-01
-6.682159082240001e+00	-7.389265863440000e+00	 2.314061354582307e-02
-6.646803743180000e+00	-7.353910524380000e+00	-9.770122061159608e-02
-6.611448404120000e+00	-7.318555185319999e+00	-1.950060341090230e-01
-6.576093065059998e+00	-7.283199846260000e+00	-2.687740952931529e-01
-6.540737726000000e+00	-7.247844507200000e+00	-3.190056725094595e-01
-6.505382386940000e+00	-7.212489168139999e+00	-3.457010341022489e-01
-6.470027047880000e+00	-7.177133829080000e+00	-3.488604484146377e-01
-6.434671708820000e+00	-7.141778490020000e+00	-3.284841837884989e-01
-6.399316369760000e+00	-7.106423150960000e+00	-2.845725085645802e-01
-6.363961030700001e+00	-7.071067811900000e+00	-2.171256910823764e-01
-6.643268209274000e+00	-7.498867414525000e+00	 1.900469609615344e-01
-6.600488249011398e+00	-7.456087454262590e+00	 5.912956326980219e-02
-6.557708288748801e+00	-7.413307494000161e+00	-5.022543031905426e-02
-6.514928328486200e+00	-7.370527533737711e+00	-1.380184951991937e-01
-6.472148368223601e+00	-7.327747573475239e+00	-2.042501067622110e-01
-6.429368407961000e+00	-7.284967613212749e+00	-2.489207403970463e-01
-6.386588447698400e+00	-7.242187652950240e+00	-2.720308714901105e-01
-6.343808487435800e+00	-7.199407692687710e+00	-2.735809754252143e-01
-6.301028527173202e+00	-7.156627732425161e+00	-2.535715275835808e-01
-6.258248566910598e+00	-7.113847772162590e+00	-2.120030033438291e-01
-6.215468606648000e+00	-7.071067811900000e+00	-1.488758780819955e-01
-6.561950929436001e+00	-7.580184694360000e+00	 2.082093094644660e-01
-6.511039241189599e+00	-7.529273006114360e+00	 8.794156145924074e-02
-6.460127552943200e+00	-7.478361317868640e+00	-1.248801626586235e-02
-6.409215864696799e+00	-7.427449629622839e+00	-9.308022499128683e-02
-6.358304176450401e+00	-7.376537941376963e+00	-1.538358659922920e-01
-6.307392488204000e+00	-7.325626253130999e+00	-1.947557405389672e-01
-6.256480799957600e+00	-7.274714564884961e+00	-2.158406498962406e-01
-6.205569111711201e+00	-7.223802876638842e+00	-2.170913953238622e-01
-6.154657423464800e+00	-7.172891188392639e+00	-1.985087780763927e-01
-6.103745735218400e+00	-7.121979500146359e+00	-1.600935994032567e-01
-6.052834046971999e+00	-7.071067811900001e+00	-1.018466605486385e-01
-6.473562581786000e+00	-7.668573042005001e+00	 2.229865370655321e-01
-6.413812058774599e+00	-7.608822518995311e+00	 1.113640515140202e-01
-6.354061535763201e+00	-7.549071995985442e+00	 1.806699610461245e-02
-6.294311012751799e+00	-7.489321472975390e+00	-5.690592442113158e-02
-6.234560489740398e+00	-7.429570949965158e+00	-1.135560053118551e-01
-6.174809966728999e+00	-7.369820426954750e+00	-1.518845418064409e-01
-6.115059443717598e+00	-7.310069903944159e+00	-1.718928291339608e-01
-6.055308920706200e+00	-7.250319380933389e+00	-1.735821625137222e-01
-5.995558397694801e+00	-7.190568857922440e+00	-1.569538371552437e-01
-5.935807874683401e+00	-7.130818334911312e+00	-1.220091482582452e-01
-5.876057351671999e+00	-7.071067811900000e+00	-6.874939101271993e-02
-6.378103166323999e+00	-7.764032457460001e+00	 2.350709969806379e-01
-6.308806701766399e+00	-7.694735992905440e+00	 1.306276176621816e-01
-6.239510237208799e+00	-7.625439528350561e+00	 4.317588161180085e-02
-6.170213772651200e+00	-7.556143063795360e+00	-2.728623169315344e-02
-6.100917308093599e+00	-7.486846599239840e+00	-8.076074275767464e-02
-6.031620843536000e+00	-7.417550134684001e+00	-1.172496720690854e-01
-5.962324378978400e+00	-7.348253670127839e+00	-1.367550400970421e-01
-5.893027914420800e+00	-7.278957205571360e+00	-1.392788672935435e-01
-5.823731449863200e+00	-7.209660741014560e+00	-1.248231740929348e-01
-5.754434985305600e+00	-7.140364276457439e+00	-9.338998091186565e-02
-5.685138520748000e+00	-7.071067811900000e+00	-4.498130814934947e-02
-6.275572683050000e+00	-7.866562940725000e+00	 2.449662782756432e-01
-6.196023170165001e+00	-7.787013427844752e+00	 1.466067143070489e-01
-6.116473657279999e+00	-7.707463914963999e+00	 6.405727484065066e-02
-6.036924144394999e+00	-7.627914402082750e+00	-2.685096748894736e-03
-5.957374631510000e+00	-7.548364889201000e+00	-5.362345705628038e-02
-5.877825118625000e+00	-7.468815376318750e+00	-8.876086264557133e-02
-5.798275605740000e+00	-7.389265863436000e+00	-1.081003700501717e-01
-5.718726092854999e+00	-7.309716350552749e+00	-1.116450357728522e-01
-5.639176579970000e+00	-7.230166837669000e+00	-9.939791628574235e-02
-5.559627067084999e+00	-7.150617324784750e+00	-7.136206803031436e-02
-5.480077554199999e+00	-7.071067811900000e+00	-2.754054741741363e-02
-6.165971131964000e+00	-7.976164491800001e+00	 2.530482999247980e-01
-6.075461463970400e+00	-7.885654823813242e+00	 1.599403062011216e-01
-5.984951795976801e+00	-7.795145155825760e+00	 8.159136365136060e-02
-5.894442127983199e+00	-7.704635487837561e+00	 1.799697019097064e-02
-5.803932459989599e+00	-7.614125819848638e+00	-3.084737621329094e-02
-5.713422791995999e+00	-7.523616151859001e+00	-6.494617754331060e-02
-5.622913124002400e+00	-7.433106483868641e+00	-8.430393572967092e-02
-5.532403456008799e+00	-7.342596815877560e+00	-8.892515265160764e-02
-5.441893788015200e+00	-7.252087147885760e+00	-7.881433013704539e-02
-5.351384120021598e+00	-7.161577479893239e+00	-5.397596996257725e-02
-5.260874452027999e+00	-7.071067811900001e+00	-1.441457385346945e-02
-6.049298513065999e+00	-8.092837110685000e+00	 2.596046185470241e-01
-5.947121583182599e+00	-7.990660180810910e+00	 1.711073543299960e-01
-5.844944653299199e+00	-7.888483250935841e+00	 9.643062258680196e-02
-5.742767723415799e+00	-7.786306321059791e+00	 3.556794613210770e-02
-5.640590793532399e+00	-7.684129391182760e+00	-1.148715213607669e-02
-5.538413863648998e+00	-7.581952461304750e+00	-4.474114923641490e-02
-5.436236933765599e+00	-7.479775531425760e+00	-6.420052210420361e-02
-5.334060003882199e+00	-7.377598601545791e+00	-6.987174759140249e-02
-5.231883073998798e+00	-7.275421671664840e+00	-6.176130246664033e-02
-5.129706144115398e+00	-7.173244741782910e+00	-3.987566341520205e-02
-5.027529214231999e+00	-7.071067811900000e+00	-4.221307039023015e-03
-5.925554826355999e+00	-8.216580797380001e+00	 2.648605841606189e-01
-5.811003527801600e+00	-8.102029498837762e+00	 1.804757403199095e-01
-5.696452229247201e+00	-7.987478200294242e+00	 1.090707170787141e-01
-5.581900930692799e+00	-7.872926901749442e+00	 5.063638746293346e-02
-5.467349632138400e+00	-7.758375603203361e+00	 5.163624630129690e-03
-5.352798333583999e+00	-7.643824304656001e+00	-2.735669813048738e-02
-5.238247035029598e+00	-7.529273006107360e+00	-4.693370739806269e-02
-5.123695736475199e+00	-7.414721707557439e+00	-5.357652962010373e-02
-5.009144437920799e+00	-7.300170409006240e+00	-4.729429111246641e-02
-4.894593139366398e+00	-7.185619110453759e+00	-2.809611805938528e-02
-4.780041840811998e+00	-7.071067811900001e+00	 4.008863486555631e-03
-5.794740071833999e+00	-8.347395551885000e+00	 2.689972831497142e-01
-5.667107297827398e+00	-8.219762777893790e+00	 1.883349870321902e-01
-5.539474523820799e+00	-8.092130003900962e+00	 1.198973591502267e-01
-5.411841749814198e+00	-7.964497229906510e+00	 6.367177505782383e-02
-5.284208975807599e+00	-7.836864455910440e+00	 1.964561051185540e-02
-5.156576201800998e+00	-7.709231681912749e+00	-1.219375852792595e-02
-5.028943427794398e+00	-7.581598907913440e+00	-3.185895589888382e-02
-4.901310653787798e+00	-7.453966133912511e+00	-3.936260523551563e-02
-4.773677879781197e+00	-7.326333359909960e+00	-3.471732996945529e-02
-4.646045105774597e+00	-7.198700585905790e+00	-1.793575332947389e-02
-4.518412331767998e+00	-7.071067811900000e+00	 1.096950165851893e-02
-5.656854249500000e+00	-8.485281374200000e+00	 2.721642007996039e-01
-5.515432893260000e+00	-8.343860017978999e+00	 1.949187774959125e-01
-5.374011537020000e+00	-8.202438661756000e+00	 1.292181676004403e-01
-5.232590180780001e+00	-8.061017305530999e+00	 7.504519718751328e-02
-5.091168824540000e+00	-7.919595949304000e+00	 3.238269263728821e-02
-4.949747468300000e+00	-7.778174593075001e+00	 1.213480635713651e-03
-4.808326112060000e+00	-7.636753236844000e+00	-1.847961182546343e-02
-4.666904755820000e+00	-7.495331880611000e+00	-2.671375744872168e-02
-4.525483399580001e+00	-7.353910524375999e+00	-2.350612863074217e-02
-4.384062043340000e+00	-7.212489168138999e+00	-8.873897462460839e-03
-4.242640687100000e+00	-7.071067811900000e+00	 1.716576427097710e-02
-7.071067811900000e+00	-7.071067811900000e+00	 1.203096462780552e+00
-7.071067811900001e+00	-7.071067811900001e+00	 1.203096462780553e+00
-7.071067811900001e+00	-7.071067811900001e+00	 1.203096462780552e+00
-7.071067811900000e+00	-7.071067811900000e+00	 1.203096462780550e+00
-7.071067811899999e+00	-7.071067811899999e+00	 1.203096462780552e+00
-7.071067811900000e+00	-7.071067811900000e+00	 1.203096462780552e+00
-7.071067811900000e+00	-7.071067811900000e+00	 1.203096462780552e+00
-7.071067811900000e+00	-7.071067811900000e+00	 1.203096462780555e+00
-7.071067811900000e+00	-7.071067811900000e+00	 1.203096462780552e+00
-7.071067811900000e+00	-7.071067811900000e+00	 1.203096462780554e+00
-7.071067811900000e+00	-7.071067811900000e+00	 1.203096462780552e+00
-7.063996744088000e+00	-7.071067811900000e+00	-3.808381456668418e+00
-7.064350297478600e+00	-7.070714258509400e+00	-4.726259470124829e+00
-7.064703850869199e+00	-7.070360705118798e+00	-5.667258760837041e+00
-7.065057404259800e+00	-7.070007151728200e+00	-6.631379328747583e+00
-7.065410957650399e+00	-7.069653598337600e+00	-7.618621173889686e+00
-7.065764511041000e+00	-7.069300044947000e+00	-8.628984296254341e+00
-7.066118064431599e+00	-7.068946491556400e+00	-9.662468695845737e+00
-7.066471617822200e+00	-7.068592938165800e+00	-1.071907437264110e+01
-7.066825171212800e+00	-7.068239384775199e+00	-1.179880132672541e+01
-7.067178724603401e+00	-7.067885831384601e+00	-1.290164955794955e+01
-7.067532277994000e+00	-7.067532277994000e+00	-1.402761906646522e+01
-7.042783540652000e+00	-7.071067811900000e+00	-1.825757877304748e+00
-7.044197754214401e+00	-7.069653598337601e+00	-2.282849405761629e+00
-7.045611967776800e+00	-7.068239384775199e+00	-2.752361984456331e+00
-7.047026181339199e+00	-7.066825171212799e+00	-3.234295613401910e+00
-7.048440394901600e+00	-7.065410957650400e+00	-3.728650292614866e+00
-7.049854608463999e+00	-7.063996744087999e+00	-4.235426022113734e+00
-7.051268822026399e+00	-7.062582530525598e+00	-4.754622801915083e+00
-7.052683035588799e+00	-7.061168316963199e+00	-5.286240632035362e+00
-7.054097249151201e+00	-7.059754103400801e+00	-5.830279512490103e+00
-7.055511462713601e+00	-7.058339889838400e+00	-6.386739443301980e+00
-7.056925676275999e+00	-7.056925676275999e+00	-6.955620424481816e+00
-7.007428201591999e+00	-7.071067811899999e+00	-1.159285105480882e+00
-7.010610182107401e+00	-7.067885831384601e+00	-1.466334395543557e+00
-7.013792162622800e+00	-7.064703850869200e+00	-1.781526714810470e+00
-7.016974143138199e+00	-7.061521870353800e+00	-2.104862063478093e+00
-7.020156123653600e+00	-7.058339889838400e+00	-2.436340441737455e+00
-7.023338104169000e+00	-7.055157909322999e+00	-2.775961849782180e+00
-7.026520084684400e+00	-7.051975928807600e+00	-3.123726287806078e+00
-7.029702065199800e+00	-7.048793948292200e+00	-3.479633756001824e+00
-7.032884045715201e+00	-7.045611967776800e+00	-3.843684254563087e+00
-7.036066026230600e+00	-7.042429987261400e+00	-4.215877783681826e+00
-7.039248006745999e+00	-7.039248006745999e+00	-4.596214343552292e+00
-6.957930726908000e+00	-7.071067811900000e+00	-8.244393345408805e-01
-6.963587581157601e+00	-7.065410957650401e+00	-1.057105036484770e+00
-6.969244435407200e+00	-7.059754103400800e+00	-1.295641519605906e+00
-6.974901289656801e+00	-7.054097249151201e+00	-1.540048784988644e+00
-6.980558143906400e+00	-7.048440394901600e+00	-1.790326833718497e+00
-6.986214998155999e+00	-7.042783540652000e+00	-2.046475666880896e+00
-6.991871852405601e+00	-7.037126686402400e+00	-2.308495285561251e+00
-6.997528706655200e+00	-7.031469832152800e+00	-2.576385690844638e+00
-7.003185560904800e+00	-7.025812977903200e+00	-2.850146883816659e+00
-7.008842415154400e+00	-7.020156123653600e+00	-3.129778865562537e+00
-7.014499269404000e+00	-7.014499269404000e+00	-3.415281637167580e+00
-6.894291116600000e+00	-7.071067811900000e+00	-6.225104138809990e-01
-6.903129951365002e+00	-7.062228977135002e+00	-8.107232419050019e-01
-6.911968786130000e+00	-7.053390142370000e+00	-1.003401065913812e+00
-6.920807620895000e+00	-7.044551307605000e+00	-1.200543890047646e+00
-6.929646455659999e+00	-7.035712472839999e+00	-1.402151718446622e+00
-6.938485290425000e+00	-7.026873638075000e+00	-1.608224555251017e+00
-6.947324125190000e+00	-7.018034803310000e+00	-1.818762404600905e+00
-6.956162959954999e+00	-7.009195968545000e+00	-2.033765270636633e+00
-6.965001794720000e+00	-7.000357133779999e+00	-2.253233157498107e+00
-6.973840629485001e+00	-6.991518299015000e+00	-2.477166069325858e+00
-6.982679464249999e+00	-6.982679464249999e+00	-2.705564010259575e+00
-6.816509370667999e+00	-7.071067811899999e+00	-4.870074398430408e-01
-6.829237292729600e+00	-7.058339889838399e+00	-6.456338889043203e-01
-6.841965214791200e+00	-7.045611967776800e+00	-8.077707267488219e-01
-6.854693136852801e+00	-7.032884045715201e+00	-9.734179657395357e-01
-6.867421058914399e+00	-7.020156123653599e+00	-1.142575618238910e+00
-6.880148980976000e+00	-7.007428201592000e+00	-1.315243696609427e+00
-6.892876903037600e+00	-6.994700279530399e+00	-1.491422213213737e+00
-6.905604825099201e+00	-6.981972357468800e+00	-1.671111180414469e+00
-6.918332747160800e+00	-6.969244435407201e+00	-1.854310610573966e+00
-6.931060669222401e+00	-6.956516513345600e+00	-2.041020516054751e+00
-6.943788591283999e+00	-6.943788591283999e+00	-2.231240909219366e+00
-6.724585489112000e+00	-7.071067811900000e+00	-3.893688132112346e-01
-6.741909605251399e+00	-7.053743695760598e+00	-5.268624673733402e-01
-6.759233721390800e+00	-7.036419579621199e+00	-6.671764297936223e-01
-6.776557837530200e+00	-7.019095463481801e+00	-8.103107316461080e-01
-6.793881953669601e+00	-7.001771347342401e+00	-9.562654041048482e-01
-6.811206069809000e+00	-6.984447231202999e+00	-1.105040478343749e+00
-6.828530185948399e+00	-6.967123115063599e+00	-1.256635985536628e+00
-6.845854302087799e+00	-6.949798998924201e+00	-1.411051956857244e+00
-6.863178418227198e+00	-6.932474882784798e+00	-1.568288423479307e+00
-6.880502534366600e+00	-6.915150766645400e+00	-1.728345416576457e+00
-6.897826650506000e+00	-6.897826650506000e+00	-1.891222967322283e+00
-6.618519471932001e+00	-7.071067811900001e+00	-3.152892037678631e-01
-6.641146888930400e+00	-7.048440394901601e+00	-4.369109736085147e-01
-6.663774305928799e+00	-7.025812977903199e+00	-5.608313315072447e-01
-6.686401722927201e+00	-7.003185560904801e+00	-6.870503469260160e-01
-6.709029139925600e+00	-6.980558143906400e+00	-8.155680893266503e-01
-6.731656556923999e+00	-6.957930726907999e+00	-9.463846281707933e-01
-6.754283973922399e+00	-6.935303309909599e+00	-1.079500032919826e+00
-6.776911390920798e+00	-6.912675892911198e+00	-1.214914373034982e+00
-6.799538807919198e+00	-6.890048475912798e+00	-1.352627717977247e+00
-6.822166224917600e+00	-6.867421058914401e+00	-1.492640137207509e+00
-6.844793641916000e+00	-6.844793641916000e+00	-1.634951700186341e+00
-6.498311319128000e+00	-7.071067811899999e+00	-2.568086767854820e-01
-6.526949143766600e+00	-7.042429987261399e+00	-3.660509521446145e-01
-6.555586968405200e+00	-7.013792162622801e+00	-4.771838909833235e-01
-6.584224793043802e+00	-6.985154337984201e+00	-5.902076341218669e-01
-6.612862617682399e+00	-6.956516513345600e+00	-7.051223223800729e-01
-6.641500442321001e+00	-6.927878688707001e+00	-8.219280965772687e-01
-6.670138266959600e+00	-6.899240864068400e+00	-9.406250975322061e-01
-6.698776091598198e+00	-6.870603039429797e+00	-1.061213466063156e+00
-6.727413916236800e+00	-6.841965214791200e+00	-1.183693342987878e+00
-6.756051740875400e+00	-6.813327390152599e+00	-1.308064869123675e+00
-6.784689565513999e+00	-6.784689565513999e+00	-1.434328185287210e+00
-6.363961030700001e+00	-7.071067811900000e+00	-2.091429809671004e-01
-6.399316369760000e+00	-7.035712472840001e+00	-3.084392454185010e-01
-6.434671708820000e+00	-7.000357133780001e+00	-4.092987542919653e-01
-6.470027047880000e+00	-6.965001794719999e+00	-5.117217725677176e-01
-6.505382386939999e+00	-6.929646455659999e+00	-6.157085652247523e-01
-6.540737726000000e+00	-6.894291116599999e+00	-7.212593972408561e-01
-6.576093065059999e+00	-6.858935777540000e+00	-8.283745335926733e-01
-6.611448404120001e+00	-6.823580438480001e+00	-9.370542392556617e-01
-6.646803743180000e+00	-6.788225099420000e+00	-1.047298779204044e+00
-6.682159082240000e+00	-6.752869760359999e+00	-1.159108418410924e+00
-6.717514421300000e+00	-6.717514421300000e+00	-1.272483421848191e+00
-6.363961030700001e+00	-7.071067811900000e+00	-2.091429809671004e-01
-6.399316369760000e+00	-7.035712472840001e+00	-3.084392454185010e-01
-6.434671708820000e+00	-7.000357133780001e+00	-4.092987542919653e-01
-6.470027047880000e+00	-6.965001794719999e+00	-5.117217725677176e-01
-6.505382386939999e+00	-6.929646455659999e+00	-6.157085652247523e-01
-6.540737726000000e+00	-6.894291116599999e+00	-7.212593972408561e-01
-6.576093065059999e+00	-6.858935777540000e+00	-8.283745335926733e-01
-6.611448404120001e+00	-6.823580438480001e+00	-9.370542392556617e-01
-6.646803743180000e+00	-6.788225099420000e+00	-1.047298779204044e+00
-6.682159082240000e+00	-6.752869760359999e+00	-1.159108418410924e+00
-6.717514421300000e+00	-6.717514421300000e+00	-1.272483421848191e+00
-6.215468606648000e+00	-7.071067811900000e+00	-2.089010905737446e-01
-6.258248566910598e+00	-7.028287851637397e+00	-2.922600330916801e-01
-6.301028527173201e+00	-6.985507891374802e+00	-3.779328233734282e-01
-6.343808487435800e+00	-6.942727931112200e+00	-4.659199308513218e-01
-6.386588447698400e+00	-6.899947970849600e+00	-5.562218249551240e-01
-6.429368407961000e+00	-6.857168010586999e+00	-6.488389751120651e-01
-6.472148368223601e+00	-6.814388050324401e+00	-7.437718507468434e-01
-6.514928328486199e+00	-6.771608090061799e+00	-8.410209212816093e-01
-6.557708288748801e+00	-6.728828129799201e+00	-9.405866561359881e-01
-6.600488249011398e+00	-6.686048169536599e+00	-1.042469524727056e+00
-6.643268209274000e+00	-6.643268209274000e+00	-1.146669996469326e+00
-6.052834046971999e+00	-7.071067811900001e+00	-1.832654124807762e-01
-6.103745735218400e+00	-7.020156123653600e+00	-2.577453841971581e-01
-6.154657423464800e+00	-6.969244435407200e+00	-3.348183768423849e-01
-6.205569111711199e+00	-6.918332747160799e+00	-4.144851816563118e-01
-6.256480799957601e+00	-6.867421058914402e+00	-4.967465898736729e-01
-6.307392488204000e+00	-6.816509370668000e+00	-5.816033927241253e-01
-6.358304176450401e+00	-6.765597682421601e+00	-6.690563814322372e-01
-6.409215864696801e+00	-6.714685994175200e+00	-7.591063472174893e-01
-6.460127552943201e+00	-6.663774305928801e+00	-8.517540812942384e-01
-6.511039241189599e+00	-6.612862617682399e+00	-9.470003748718137e-01
-6.561950929436001e+00	-6.561950929436001e+00	-1.044846019154367e+00
-5.876057351671999e+00	-7.071067811900000e+00	-1.432196731940754e-01
-5.935807874683400e+00	-7.011317288888601e+00	-2.132951633141391e-01
-5.995558397694801e+00	-6.951566765877202e+00	-2.859537790319436e-01
-6.055308920706200e+00	-6.891816242865800e+00	-3.611967993898283e-01
-6.115059443717599e+00	-6.832065719854399e+00	-4.390255034204621e-01
-6.174809966728999e+00	-6.772315196842999e+00	-5.194411701468661e-01
-6.234560489740398e+00	-6.712564673831598e+00	-6.024450785823910e-01
-6.294311012751799e+00	-6.652814150820199e+00	-6.880385077307244e-01
-6.354061535763199e+00	-6.593063627808800e+00	-7.762227365858996e-01
-6.413812058774600e+00	-6.533313104797401e+00	-8.669990441322949e-01
-6.473562581786000e+00	-6.473562581786000e+00	-9.603687093446187e-01
-5.685138520748000e+00	-7.071067811900000e+00	-9.521897622468209e-02
-5.754434985305600e+00	-7.001771347342399e+00	-1.637713180969085e-01
-5.823731449863200e+00	-6.932474882784800e+00	-2.347182468390095e-01
-5.893027914420800e+00	-6.863178418227200e+00	-3.080617577017644e-01
-5.962324378978400e+00	-6.793881953669599e+00	-3.838038459184590e-01
-6.031620843536000e+00	-6.724585489112000e+00	-4.619465067048893e-01
-6.100917308093599e+00	-6.655289024554400e+00	-5.424917352594008e-01
-6.170213772651199e+00	-6.585992559996800e+00	-6.254415267628316e-01
-6.239510237208800e+00	-6.516696095439199e+00	-7.107978763785654e-01
-6.308806701766399e+00	-6.447399630881600e+00	-7.985627792524885e-01
-6.378103166323999e+00	-6.378103166323999e+00	-8.887382305130345e-01
-5.480077554199999e+00	-7.071067811900000e+00	-4.312995204221848e-02
-5.559627067084999e+00	-6.991518299015000e+00	-1.120297552607627e-01
-5.639176579969999e+00	-6.911968786129999e+00	-1.830254498111691e-01
-5.718726092854999e+00	-6.832419273244999e+00	-2.561200541270187e-01
-5.798275605740000e+00	-6.752869760360000e+00	-3.313165866115332e-01
-5.877825118625000e+00	-6.673320247475000e+00	-4.086180656375770e-01
-5.957374631510000e+00	-6.593770734590000e+00	-4.880275095476636e-01
-6.036924144394999e+00	-6.514221221704998e+00	-5.695479366539444e-01
-6.116473657279999e+00	-6.434671708820000e+00	-6.531823652382369e-01
-6.196023170165000e+00	-6.355122195934999e+00	-7.389338135519915e-01
-6.275572683050000e+00	-6.275572683050000e+00	-8.268052998163105e-01
-5.260874452027999e+00	-7.071067811900001e+00	 1.070817231023402e-02
-5.351384120021599e+00	-6.980558143906401e+00	-5.975385775293537e-02
-5.441893788015200e+00	-6.890048475912800e+00	-1.319460666947950e-01
-5.532403456008799e+00	-6.799538807919199e+00	-2.058729004092436e-01
-5.622913124002399e+00	-6.709029139925598e+00	-2.815388047392753e-01
-5.713422791996000e+00	-6.618519471932000e+00	-3.589482254770292e-01
-5.803932459989600e+00	-6.528009803938401e+00	-4.381056083637740e-01
-5.894442127983199e+00	-6.437500135944800e+00	-5.190153990899224e-01
-5.984951795976800e+00	-6.346990467951199e+00	-6.016820432950046e-01
-6.075461463970397e+00	-6.256480799957598e+00	-6.861099865676868e-01
-6.165971131964000e+00	-6.165971131964000e+00	-7.723036744457948e-01
-5.027529214231999e+00	-7.071067811900000e+00	 6.488088753779930e-02
-5.129706144115398e+00	-6.968890882016598e+00	-7.925251517918452e-03
-5.231883073998800e+00	-6.866713952133200e+00	-8.205616882309541e-02
-5.334060003882199e+00	-6.764537022249799e+00	-1.575182608155485e-01
-5.436236933765598e+00	-6.662360092366399e+00	-2.343179238504634e-01
-5.538413863649000e+00	-6.560183162483000e+00	-3.124615542004245e-01
-5.640590793532399e+00	-6.458006232599599e+00	-3.919555480553906e-01
-5.742767723415799e+00	-6.355829302716199e+00	-4.728063015226919e-01
-5.844944653299200e+00	-6.253652372832799e+00	-5.550202106270604e-01
-5.947121583182600e+00	-6.151475442949399e+00	-6.386036713106066e-01
-6.049298513065999e+00	-6.049298513065999e+00	-7.235630794328294e-01
-4.780041840811998e+00	-7.071067811900001e+00	 1.185450289303808e-01
-4.894593139366399e+00	-6.956516513345600e+00	 4.290189570231256e-02
-5.009144437920800e+00	-6.841965214791201e+00	-3.363810286430788e-02
-5.123695736475199e+00	-6.727413916236799e+00	-1.110839801036579e-01
-5.238247035029600e+00	-6.612862617682400e+00	-1.894447492194101e-01
-5.352798333583999e+00	-6.498311319128001e+00	-2.687294232846890e-01
-5.467349632138399e+00	-6.383760020573599e+00	-3.489470152421246e-01
-5.581900930692798e+00	-6.269208722019199e+00	-4.301065379038160e-01
-5.696452229247200e+00	-6.154657423464799e+00	-5.122170039513653e-01
-5.811003527801599e+00	-6.040106124910399e+00	-5.952874259358450e-01
-5.925554826355999e+00	-5.925554826355999e+00	-6.793268162778447e-01
-4.518412331767998e+00	-7.071067811900000e+00	 1.712159646258331e-01
-4.646045105774597e+00	-6.943435037893400e+00	 9.243683015840382e-02
-4.773677879781198e+00	-6.815802263886799e+00	 1.320078476381831e-02
-4.901310653787798e+00	-6.688169489880199e+00	-6.650463902322687e-02
-5.028943427794399e+00	-6.560536715873600e+00	-1.466919084668699e-01
-5.156576201800998e+00	-6.432903941866998e+00	-2.273734906300908e-01
-5.284208975807598e+00	-6.305271167860399e+00	-3.085618523747268e-01
-5.411841749814199e+00	-6.177638393853799e+00	-3.902694603614585e-01
-5.539474523820799e+00	-6.050005619847200e+00	-4.725087810498352e-01
-5.667107297827399e+00	-5.922372845840599e+00	-5.552922806982583e-01
-5.794740071833999e+00	-5.794740071833999e+00	-6.386324253640154e-01
-4.242640687100000e+00	-7.071067811900000e+00	 2.226365163082394e-01
-4.384062043340000e+00	-6.929646455660000e+00	 1.405519483986741e-01
-4.525483399580000e+00	-6.788225099420000e+00	 5.845655351214130e-02
-4.666904755820000e+00	-6.646803743180000e+00	-2.366662902066755e-02
-4.808326112060000e+00	-6.505382386939999e+00	-1.058345595658488e-01
-4.949747468300000e+00	-6.363961030700000e+00	-1.880641981862750e-01
-5.091168824540000e+00	-6.222539674460000e+00	-2.703725046416233e-01
-5.232590180780000e+00	-6.081118318220000e+00	-3.527764383883636e-01
-5.374011537019999e+00	-5.939696961979999e+00	-4.352929585797928e-01
-5.515432893260000e+00	-5.798275605740000e+00	-5.179390240659992e-01
-5.656854249500000e+00	-5.656854249500000e+00	-6.007315933939182e-01
 0.000000000000000e+00	 0.000000000000000e+00	-3.092605802206712e-02
 1.414213562400000e-01	-1.414213562400000e-01	 8.099719297204017e-03
 2.828427124800000e-01	-2.828427124800000e-01	 4.540228510794582e-02
 4.242640687200001e-01	-4.242640687200001e-01	 8.098163941019984e-02
 5.656854249600001e-01	-5.656854249600001e-01	 1.148377822040032e-01
 7.071067812000000e-01	-7.071067812000000e-01	 1.469707134893820e-01
 8.485281374400000e-01	-8.485281374400000e-01	 1.773804332663590e-01
 9.899494936800000e-01	-9.899494936800000e-01	 2.060669415349495e-01
 1.131370849920000e+00	-1.131370849920000e+00	 2.330302382951604e-01
 1.272792206160000e+00	-1.272792206160000e+00	 2.582703235469873e-01
 1.414213562400000e+00	-1.414213562400000e+00	 2.817871972904270e-01
-2.828427124795000e-01	-2.828427124795000e-01	-4.508724959032880e-02
-1.414213562395000e-01	-4.242640687193149e-01	-8.676087286442386e-03
 5.000333914290111e-13	-5.656854249587601e-01	 2.636657932321567e-02
 1.414213562405001e-01	-7.071067811978351e-01	 6.004075023865971e-02
 2.828427124805001e-01	-8.485281374365402e-01	 9.234642545990160e-02
 4.242640687205000e-01	-9.899494936748751e-01	 1.232836049869456e-01
 5.656854249605000e-01	-1.131370849912840e+00	 1.528522888197925e-01
 7.071067812005002e-01	-1.272792206150435e+00	 1.810524769584383e-01
 8.485281374405000e-01	-1.414213562387660e+00	 2.078841694028731e-01
 9.899494936804997e-01	-1.555634918624515e+00	 2.333473661530804e-01
 1.131370849920500e+00	-1.697056274861000e+00	 2.574420672090454e-01
-5.656854249580000e-01	-5.656854249580000e-01	-5.994999080113610e-02
-4.242640687180000e-01	-7.071067811976601e-01	-2.579526110283556e-02
-2.828427124780000e-01	-8.485281374366399e-01	 7.345688715522984e-03
-1.414213562380000e-01	-9.899494936749400e-01	 3.947285865393130e-02
 2.000007798264036e-12	-1.131370849912560e+00	 7.058624871237543e-02
 1.414213562419999e-01	-1.272792206149500e+00	 1.006858588908466e-01
 2.828427124819999e-01	-1.414213562385760e+00	 1.297716891893266e-01
 4.242640687220000e-01	-1.555634918621340e+00	 1.578437396077902e-01
 5.656854249619998e-01	-1.697056274856240e+00	 1.849020101462190e-01
 7.071067812020000e-01	-1.838477631090460e+00	 2.109465008045847e-01
 8.485281374420000e-01	-1.979898987324000e+00	 2.359772115828592e-01
-8.485281374355000e-01	-8.485281374355000e-01	-7.551428165491950e-02
-7.071067811955001e-01	-9.899494936750352e-01	-4.325780215239917e-02
-5.656854249555002e-01	-1.131370849913640e+00	-1.166038671554558e-02
-4.242640687155000e-01	-1.272792206151315e+00	 1.927796465561426e-02
-2.828427124755001e-01	-1.414213562388060e+00	 4.955725196105032e-02
-1.414213562355001e-01	-1.555634918623875e+00	 7.917747520072907e-02
 4.499872696683838e-12	-1.697056274858760e+00	 1.081386343746197e-01
 1.414213562444998e-01	-1.838477631092715e+00	 1.364407294826889e-01
 2.828427124845000e-01	-1.979898987325740e+00	 1.640837605248980e-01
 4.242640687244999e-01	-2.121320343557835e+00	 1.910677275012098e-01
 5.656854249644998e-01	-2.262741699789000e+00	 2.173926304115886e-01
-1.131370849912000e+00	-1.131370849912000e+00	-9.178012215211903e-02
-9.899494936720004e-01	-1.272792206151440e+00	-6.106371043556120e-02
-8.485281374320001e-01	-1.414213562389760e+00	-3.065164697040188e-02
-7.071067811920001e-01	-1.555634918626960e+00	-5.439317566870855e-04
-5.656854249520000e-01	-1.697056274863040e+00	 2.925943520553714e-02
-4.242640687120001e-01	-1.838477631098000e+00	 5.875845391622456e-02
-2.828427124720001e-01	-1.979898987331840e+00	 8.795312437532493e-02
-1.414213562320001e-01	-2.121320343564560e+00	 1.168434465827924e-01
 7.999850781814644e-12	-2.262741699796160e+00	 1.454294205385785e-01
 1.414213562479998e-01	-2.404163056026640e+00	 1.737110462426344e-01
 2.828427124880000e-01	-2.545584412256000e+00	 2.016883236949132e-01
-1.414213562387500e+00	-1.414213562387500e+00	-1.087475122931680e-01
-1.272792206147500e+00	-1.555634918626875e+00	-7.921298595274515e-02
-1.131370849907500e+00	-1.697056274865000e+00	-4.962809204945885e-02
-9.899494936675000e-01	-1.838477631101875e+00	-1.999283058337363e-02
-8.485281374274999e-01	-1.979898987337500e+00	 9.692798445453440e-03
-7.071067811875000e-01	-2.121320343571875e+00	 3.942879503695729e-02
-5.656854249475001e-01	-2.262741699805000e+00	 6.921515919107710e-02
-4.242640687075001e-01	-2.404163056036875e+00	 9.905189090774966e-02
-2.828427124675001e-01	-2.545584412267500e+00	 1.289389901869158e-01
-1.414213562275002e-01	-2.687005768496876e+00	 1.588764570285115e-01
 1.250000103425464e-11	-2.828427124725000e+00	 1.888642914324776e-01
-1.697056274862000e+00	-1.697056274862000e+00	-1.264164520785016e-01
-1.555634918622000e+00	-1.838477631101340e+00	-9.770562870437823e-02
-1.414213562382000e+00	-1.979898987339360e+00	-6.858972195313522e-02
-1.272792206142000e+00	-2.121320343576060e+00	-3.906873182484667e-02
-1.131370849902000e+00	-2.262741699811440e+00	-9.142658319593211e-03
-9.899494936619999e-01	-2.404163056045500e+00	 2.118849856254830e-02
-8.485281374220000e-01	-2.545584412278240e+00	 5.192473882150071e-02
-7.071067811820001e-01	-2.687005768509660e+00	 8.306606245718937e-02
-5.656854249420001e-01	-2.828427124739760e+00	 1.146124694695335e-01
-4.242640687020001e-01	-2.969848480968540e+00	 1.465639598584572e-01
-2.828427124619999e-01	-3.111269837196000e+00	 1.789205336238870e-01
-1.979898987335500e+00	-1.979898987335500e+00	-1.447869415085573e-01
-1.838477631095500e+00	-2.121320343574834e+00	-1.165416386908880e-01
-1.697056274855500e+00	-2.262741699812840e+00	-8.753653668183917e-02
-1.555634918615500e+00	-2.404163056049515e+00	-5.777163548151107e-02
-1.414213562375500e+00	-2.545584412284860e+00	-2.724693508999866e-02
-1.272792206135500e+00	-2.687005768518875e+00	 4.037564492610043e-03
-1.131370849895500e+00	-2.828427124751559e+00	 3.608186326621633e-02
-9.899494936554999e-01	-2.969848480982916e+00	 6.888596123072419e-02
-8.485281374154998e-01	-3.111269837212939e+00	 1.024498583860411e-01
-7.071067811755001e-01	-3.252691193441636e+00	 1.367735547320695e-01
-5.656854249354999e-01	-3.394112549669000e+00	 1.718570502687167e-01
-2.262741699808000e+00	-2.262741699808000e+00	-1.638589805837714e-01
-2.121320343568000e+00	-2.404163056047360e+00	-1.357210159126924e-01
-1.979898987327999e+00	-2.545584412285439e+00	-1.064685362359878e-01
-1.838477631088000e+00	-2.687005768522240e+00	-7.610154155377234e-02
-1.697056274848000e+00	-2.828427124757760e+00	-4.462003186615436e-02
-1.555634918607999e+00	-2.969848480991999e+00	-1.202400717325118e-02
-1.414213562368000e+00	-3.111269837224960e+00	 2.168653252482264e-02
-1.272792206128000e+00	-3.252691193456639e+00	 5.651158722795296e-02
-1.131370849888000e+00	-3.394112549687040e+00	 9.245115693602066e-02
-9.899494936480000e-01	-3.535533905916160e+00	 1.248825975364618e-01
-8.485281374079998e-01	-3.676955262144000e+00	 1.556857865033043e-01
-2.545584412279500e+00	-2.545584412279500e+00	-1.836325693045789e-01
-2.404163056039499e+00	-2.687005768518914e+00	-1.552437603702221e-01
-2.262741699799500e+00	-2.828427124757160e+00	-1.253857206159969e-01
-2.121320343559500e+00	-2.969848480994235e+00	-9.405845004203366e-02
-1.979898987319500e+00	-3.111269837230140e+00	-6.126194864846780e-02
-1.838477631079500e+00	-3.252691193464875e+00	-2.699621643543948e-02
-1.697056274839500e+00	-3.394112549698439e+00	 8.738746596918617e-03
-1.555634918599500e+00	-3.535533905930834e+00	 4.129776304030711e-02
-1.414213562359500e+00	-3.676955262162060e+00	 7.255345792655721e-02
-1.272792206119500e+00	-3.818376618392115e+00	 1.054236224516053e-01
-1.131370849879500e+00	-3.959797974621000e+00	 1.399175818909011e-01
-2.828427124750000e+00	-2.828427124750000e+00	-2.041077076714132e-01
-2.687005768510000e+00	-2.969848480989500e+00	-1.751098720638978e-01
-2.545584412270000e+00	-3.111269837227999e+00	-1.442880898222743e-01
-2.404163056029999e+00	-3.252691193465500e+00	-1.116423609467039e-01
-2.262741699790000e+00	-3.394112549702000e+00	-7.717268543734429e-02
-2.121320343550000e+00	-3.535533905937500e+00	-4.552924775819844e-02
-1.979898987310000e+00	-3.676955262172000e+00	-1.485332232536846e-02
-1.838477631070000e+00	-3.818376618405500e+00	 1.777224789264620e-02
-1.697056274830000e+00	-3.959797974638000e+00	 5.235678794541729e-02
-1.555634918590000e+00	-4.101219330869499e+00	 8.890962797238097e-02
-1.414213562350000e+00	-4.242640687100000e+00	 1.274400982556065e-01
-2.828427124750000e+00	-2.828427124750000e+00	-2.041077076714132e-01
-2.687005768510000e+00	-2.969848480989500e+00	-1.751098720638978e-01
-2.545584412270000e+00	-3.111269837227999e+00	-1.442880898222743e-01
-2.404163056029999e+00	-3.252691193465500e+00	-1.116423609467039e-01
-2.262741699790000e+00	-3.394112549702000e+00	-7.717268543734429e-02
-2.121320343550000e+00	-3.535533905937500e+00	-4.552924775819844e-02
-1.979898987310000e+00	-3.676955262172000e+00	-1.485332232536846e-02
-1.838477631070000e+00	-3.818376618405500e+00	 1.777224789264620e-02
-1.697056274830000e+00	-3.959797974638000e+00	 5.235678794541729e-02
-1.555634918590000e+00	-4.101219330869499e+00	 8.890962797238097e-02
-1.414213562350000e+00	-4.242640687100000e+00	 1.274400982556065e-01
-3.111269837220500e+00	-3.111269837220500e+00	-2.470914225656907e-01
-2.969848480980500e+00	-3.252691193460095e+00	-2.071879771305340e-01
-2.828427124740500e+00	-3.394112549698881e+00	-1.692147312683905e-01
-2.687005768500501e+00	-3.535533905936856e+00	-1.353252145888556e-01
-2.545584412260500e+00	-3.676955262174020e+00	-1.028298793022428e-01
-2.404163056020500e+00	-3.818376618410376e+00	-6.882308153851817e-02
-2.262741699780501e+00	-3.959797974645920e+00	-3.329549645787498e-02
-2.121320343540500e+00	-4.101219330880655e+00	 3.762205841482402e-03
-1.979898987300501e+00	-4.242640687114581e+00	 4.235935540397626e-02
-1.838477631060500e+00	-4.384062043347694e+00	 8.250528241668331e-02
-1.697056274820500e+00	-4.525483399580001e+00	 1.242093172093163e-01
-3.394112549692001e+00	-3.394112549692001e+00	-2.867944386418418e-01
-3.252691193452000e+00	-3.535533905931681e+00	-2.452328612661900e-01
-3.111269837212000e+00	-3.676955262170721e+00	-2.055332852465229e-01
-2.969848480972000e+00	-3.818376618409120e+00	-1.648021947127394e-01
-2.828427124732001e+00	-3.959797974646881e+00	-1.264956408692832e-01
-2.687005768492000e+00	-4.101219330884001e+00	-8.799319057155439e-02
-2.545584412252001e+00	-4.242640687120480e+00	-4.838947575044147e-02
-2.404163056012000e+00	-4.384062043356321e+00	-7.675166456518695e-03
-2.262741699772000e+00	-4.525483399591520e+00	 3.415906740228006e-02
-2.121320343532000e+00	-4.666904755826081e+00	 7.712255606067100e-02
-1.979898987292001e+00	-4.808326112060000e+00	 1.212246298960118e-01
-3.676955262164501e+00	-3.676955262164501e+00	-3.318730431374806e-01
-3.535533905924501e+00	-3.818376618404256e+00	-2.874942840373216e-01
-3.394112549684501e+00	-3.959797974643521e+00	-2.425310589639555e-01
-3.252691193444502e+00	-4.101219330882296e+00	-1.969664093618056e-01
-3.111269837204500e+00	-4.242640687120580e+00	-1.507833763721438e-01
-2.969848480964501e+00	-4.384062043358375e+00	-1.039650008330742e-01
-2.828427124724501e+00	-4.525483399595680e+00	-6.012467250531242e-02
-2.687005768484501e+00	-4.666904755832496e+00	-1.652928149400110e-02
-2.545584412244501e+00	-4.808326112068821e+00	 2.776651125727672e-02
-2.404163056004502e+00	-4.949747468304658e+00	 7.277203603087895e-02
-2.262741699764501e+00	-5.091168824540001e+00	 1.184966232518143e-01
-3.959797974638001e+00	-3.959797974638001e+00	-3.726041454439503e-01
-3.818376618398000e+00	-4.101219330877821e+00	-3.233173535419204e-01
-3.676955262158002e+00	-4.242640687117281e+00	-2.738761811183011e-01
-3.535533905918002e+00	-4.384062043356381e+00	-2.242636696187332e-01
-3.394112549678001e+00	-4.525483399595121e+00	-1.744628601857059e-01
-3.252691193438001e+00	-4.666904755833502e+00	-1.244567936585406e-01
-3.111269837198001e+00	-4.808326112071520e+00	-7.422851057339393e-02
-2.969848480958001e+00	-4.949747468309181e+00	-2.376105116323399e-02
-2.828427124718001e+00	-5.091168824546481e+00	 2.319227504445998e-02
-2.687005768478001e+00	-5.232590180783420e+00	 6.946431021239213e-02
-2.545584412238001e+00	-5.374011537020001e+00	 1.160358849713878e-01
-4.242640687112501e+00	-4.242640687112501e+00	-4.059738642961963e-01
-4.101219330872501e+00	-4.384062043352376e+00	-3.525647359465986e-01
-3.959797974632501e+00	-4.525483399592001e+00	-2.994313129328406e-01
-3.818376618392501e+00	-4.666904755831376e+00	-2.465566367017893e-01
-3.676955262152501e+00	-4.808326112070501e+00	-1.939237483971591e-01
-3.535533905912501e+00	-4.949747468309376e+00	-1.415156888594919e-01
-3.394112549672501e+00	-5.091168824548001e+00	-8.931549862615254e-02
-3.252691193432502e+00	-5.232590180786376e+00	-3.730621793132852e-02
-3.111269837192501e+00	-5.374011537024501e+00	 1.452911329399062e-02
-2.969848480952502e+00	-5.515432893262377e+00	 6.620745542200576e-02
-2.828427124712501e+00	-5.656854249500001e+00	 1.138530035079836e-01
-4.525483399588001e+00	-4.525483399588001e+00	-4.318448560372773e-01
-4.384062043348002e+00	-4.666904755827923e+00	-3.750990875893492e-01
-4.242640687108002e+00	-4.808326112067682e+00	-3.190591107405251e-01
-4.101219330868002e+00	-4.949747468307282e+00	-2.637079669388928e-01
-3.959797974628001e+00	-5.091168824546721e+00	-2.090286973293948e-01
-3.818376618388002e+00	-5.232590180786001e+00	-1.550043427537983e-01
-3.676955262148002e+00	-5.374011537025122e+00	-1.016179437506871e-01
-3.535533905908002e+00	-5.515432893264082e+00	-4.885254055546362e-02
-3.394112549668002e+00	-5.656854249502882e+00	 3.308826899665079e-03
-3.252691193428001e+00	-5.798275605741521e+00	 5.488311898569292e-02
-3.111269837188002e+00	-5.939696961980002e+00	 1.058872963768229e-01
-4.808326112064502e+00	-4.808326112064502e+00	-4.500797721197147e-01
-4.666904755824501e+00	-4.949747468304457e+00	-3.907830599176270e-01
-4.525483399584502e+00	-5.091168824544322e+00	-3.326222259837286e-01
-4.384062043344501e+00	-5.232590180784097e+00	-2.755803117673544e-01
-4.242640687104502e+00	-5.374011537023781e+00	-2.196403584146740e-01
-4.101219330864502e+00	-5.515432893263376e+00	-1.647854067686805e-01
-3.959797974624502e+00	-5.656854249502882e+00	-1.109984973691858e-01
-3.818376618384502e+00	-5.798275605742298e+00	-5.826267045281430e-02
-3.676955262144502e+00	-5.939696961981621e+00	-6.560965952991188e-03
-3.535533905904502e+00	-6.081118318220857e+00	 4.412357650006027e-02
-3.394112549664502e+00	-6.222539674460002e+00	 9.380791757933249e-02
-5.091168824542002e+00	-5.091168824542002e+00	-4.605412591052837e-01
-4.949747468302004e+00	-5.232590180781983e+00	-3.994792994880856e-01
-4.808326112062002e+00	-5.374011537021922e+00	-3.399833052140182e-01
-4.666904755822002e+00	-5.515432893261823e+00	-2.820363177336521e-01
-4.525483399582003e+00	-5.656854249501682e+00	-2.256213781943947e-01
-4.384062043342003e+00	-5.798275605741503e+00	-1.707215274404713e-01
-4.242640687102002e+00	-5.939696961981282e+00	-1.173198060129305e-01
-4.101219330862002e+00	-6.081118318221022e+00	-6.539925414962083e-02
-3.959797974622002e+00	-6.222539674460721e+00	-1.494291178519080e-02
-3.818376618382001e+00	-6.363961030700381e+00	 3.406618144890999e-02
-3.676955262142002e+00	-6.505382386940003e+00	 8.164498622445671e-02
-5.374011537020502e+00	-5.374011537020502e+00	-4.630919586647503e-01
-5.232590180780502e+00	-5.515432893260497e+00	-4.010504479663620e-01
-5.091168824540503e+00	-5.656854249500483e+00	-3.410049900918996e-01
-4.949747468300502e+00	-5.798275605740457e+00	-2.829386264931767e-01
-4.808326112060502e+00	-5.939696961980423e+00	-2.268343983188465e-01
-4.666904755820502e+00	-6.081118318220376e+00	-1.726753464143748e-01
-4.525483399580501e+00	-6.222539674460322e+00	-1.204445113220450e-01
-4.384062043340502e+00	-6.363961030700256e+00	-7.012493328094047e-02
-4.242640687100502e+00	-6.505382386940182e+00	-2.169965222694620e-02
-4.101219330860502e+00	-6.646803743180097e+00	 2.484829220726770e-02
-3.959797974620502e+00	-6.788225099420003e+00	 6.953586069224427e-02
-5.656854249500000e+00	-5.656854249500000e+00	-4.575945075776346e-01
-5.515432893260000e+00	-5.798275605740000e+00	-3.953591421268133e-01
-5.374011537020000e+00	-5.939696961980000e+00	-3.355499173865762e-01
-5.232590180780001e+00	-6.081118318220000e+00	-2.781498748099953e-01
-5.091168824540000e+00	-6.222539674460000e+00	-2.231420555469686e-01
-4.949747468300000e+00	-6.363961030700001e+00	-1.705095004442127e-01
-4.808326112060000e+00	-6.505382386939999e+00	-1.202352500452537e-01
-4.666904755820000e+00	-6.646803743180000e+00	-7.230234459041121e-02
-4.525483399580001e+00	-6.788225099420000e+00	-2.669382401681542e-02
-4.384062043340000e+00	-6.929646455659999e+00	 1.660727204162832e-02
-4.242640687100000e+00	-7.071067811900000e+00	 5.761790425423224e-02
-8.485281374200000e+00	-8.485281374200000e+00	 1.965952884307995e+00
-8.343860017978999e+00	-8.626702730440000e+00	 1.907025017207173e+00
-8.202438661756000e+00	-8.768124086679999e+00	 1.850178499459871e+00
-8.061017305530999e+00	-8.909545442920001e+00	 1.795430289600260e+00
-7.919595949304000e+00	-9.050966799160001e+00	 1.742797346465701e+00
-7.778174593075001e+00	-9.192388155400000e+00	 1.692296629196764e+00
-7.636753236844000e+00	-9.333809511640000e+00	 1.643945097237230e+00
-7.495331880611000e+00	-9.475230867880001e+00	 1.597759710334098e+00
-7.353910524375999e+00	-9.616652224119999e+00	 1.553757428537592e+00
-7.212489168138999e+00	-9.758073580360000e+00	 1.511955212201170e+00
-7.071067811900000e+00	-9.899494936600000e+00	 1.472370021981533e+00
-8.768124086680000e+00	-8.768124086680000e+00	 1.831191350170877e+00
-8.626702730455390e+00	-8.909545442919905e+00	 1.779365564002466e+00
-8.485281374229160e+00	-9.050966799159820e+00	 1.729215117137642e+00
-8.343860018001308e+00	-9.192388155399744e+00	 1.680756968109220e+00
-8.202438661771838e+00	-9.333809511639679e+00	 1.634008075753216e+00
-8.061017305540750e+00	-9.475230867879624e+00	 1.588985399208848e+00
-7.919595949308040e+00	-9.616652224119580e+00	 1.545705897918557e+00
-7.778174593073709e+00	-9.758073580359545e+00	 1.504186531628006e+00
-7.636753236837760e+00	-9.899494936599520e+00	 1.464444260386089e+00
-7.495331880600191e+00	-1.004091629283950e+01	 1.426496044544935e+00
-7.353910524361001e+00	-1.018233764907950e+01	 1.390358844759928e+00
-9.050966799159999e+00	-9.050966799159999e+00	 1.721085976346598e+00
-8.909545442932160e+00	-9.192388155399621e+00	 1.669582644050238e+00
-8.768124086703041e+00	-9.333809511639283e+00	 1.621897018203300e+00
-8.626702730472640e+00	-9.475230867878981e+00	 1.579679683550172e+00
-8.485281374240961e+00	-9.616652224118720e+00	 1.538765595110770e+00
-8.343860018008000e+00	-9.758073580358500e+00	 1.499171712022965e+00
-8.202438661773760e+00	-9.899494936598321e+00	 1.460914993727846e+00
-8.061017305538240e+00	-1.004091629283818e+01	 1.424012399969732e+00
-7.919595949301439e+00	-1.018233764907808e+01	 1.388480890796176e+00
-7.778174593063360e+00	-1.032375900531802e+01	 1.354337426557977e+00
-7.636753236823999e+00	-1.046518036155800e+01	 1.325092169370080e+00
-9.333809511640000e+00	-9.333809511640000e+00	 1.625643257056893e+00
-9.192388155409311e+00	-9.475230867879146e+00	 1.581856600360366e+00
-9.050966799177642e+00	-9.616652224118383e+00	 1.538753915057406e+00
-8.909545442944989e+00	-9.758073580357705e+00	 1.496327459009623e+00
-8.768124086711358e+00	-9.899494936597121e+00	 1.457207331388428e+00
-8.626702730476751e+00	-1.004091629283663e+01	 1.422992994494724e+00
-8.485281374241161e+00	-1.018233764907622e+01	 1.389709811526236e+00
-8.343860018004589e+00	-1.032375900531590e+01	 1.357374742225929e+00
-8.202438661767040e+00	-1.046518036155568e+01	 1.328738442017872e+00
-8.061017305528512e+00	-1.060660171779555e+01	 1.301901273304460e+00
-7.919595949289000e+00	-1.074802307403550e+01	 1.276423880939005e+00
-9.616652224120001e+00	-9.616652224120001e+00	 1.541786546452058e+00
-9.475230867886841e+00	-9.758073580358481e+00	 1.505700244842963e+00
-9.333809511652962e+00	-9.899494936597121e+00	 1.469921728302650e+00
-9.192388155418360e+00	-1.004091629283592e+01	 1.434443254954818e+00
-9.050966799183040e+00	-1.018233764907488e+01	 1.399257082703315e+00
-8.909545442946998e+00	-1.032375900531400e+01	 1.364355469232126e+00
-8.768124086710239e+00	-1.046518036155328e+01	 1.334130867583118e+00
-8.626702730472759e+00	-1.060660171779272e+01	 1.308936404714578e+00
-8.485281374234560e+00	-1.074802307403232e+01	 1.284708713547944e+00
-8.343860017995642e+00	-1.088944443027208e+01	 1.261445159789360e+00
-8.202438661756000e+00	-1.103086578651200e+01	 1.239143109144974e+00
-9.899494936600000e+00	-9.899494936600000e+00	 1.469295428657565e+00
-9.758073580364751e+00	-1.004091629283763e+01	 1.440893160575497e+00
-9.616652224129000e+00	-1.018233764907550e+01	 1.412422491495200e+00
-9.475230867892751e+00	-1.032375900531363e+01	 1.383875679802472e+00
-9.333809511655998e+00	-1.046518036155200e+01	 1.356332827175999e+00
-9.192388155418751e+00	-1.060660171779063e+01	 1.329244178069671e+00
-9.050966799181001e+00	-1.074802307402950e+01	 1.302457362368799e+00
-8.909545442942751e+00	-1.088944443026862e+01	 1.275977493154870e+00
-8.768124086704001e+00	-1.103086578650800e+01	 1.252157315591589e+00
-8.626702730464752e+00	-1.117228714274763e+01	 1.232444251798332e+00
-8.485281374225000e+00	-1.131370849898750e+01	 1.213294417885495e+00
-1.018233764908000e+01	-1.018233764908000e+01	 1.407949485127987e+00
-1.004091629284304e+01	-1.032375900531658e+01	 1.387214927964488e+00
-9.899494936605759e+00	-1.046518036155352e+01	 1.366437190512049e+00
-9.758073580368162e+00	-1.060660171779082e+01	 1.345585178043945e+00
-9.616652224130240e+00	-1.074802307402848e+01	 1.324619353390320e+00
-9.475230867892000e+00	-1.088944443026650e+01	 1.303544829507240e+00
-9.333809511653440e+00	-1.103086578650488e+01	 1.282366719369727e+00
-9.192388155414561e+00	-1.117228714274362e+01	 1.261090135971763e+00
-9.050966799175361e+00	-1.131370849898272e+01	 1.239720192326281e+00
-8.909545442935840e+00	-1.145512985522218e+01	 1.218262001465170e+00
-8.768124086695998e+00	-1.159655121146200e+01	 1.198922371058067e+00
-1.046518036156000e+01	-1.046518036156000e+01	 1.357372483516377e+00
-1.032375900532171e+01	-1.060660171779534e+01	 1.344365773352906e+00
-1.018233764908324e+01	-1.074802307403118e+01	 1.330829605930101e+00
-1.004091629284459e+01	-1.088944443026750e+01	 1.316769094078608e+00
-9.899494936605761e+00	-1.103086578650432e+01	 1.302189350648031e+00
-9.758073580366750e+00	-1.117228714274162e+01	 1.287095488506929e+00
-9.616652224127558e+00	-1.131370849897942e+01	 1.271492620542813e+00
-9.475230867888190e+00	-1.145512985521771e+01	 1.255385859662160e+00
-9.333809511648639e+00	-1.159655121145648e+01	 1.238780318790394e+00
-9.192388155408912e+00	-1.173797256769575e+01	 1.221681110871901e+00
-9.050966799169000e+00	-1.187939392393550e+01	 1.204093348870021e+00
-1.074802307404000e+01	-1.074802307404000e+01	 1.316513335666110e+00
-1.060660171780076e+01	-1.088944443027392e+01	 1.311075501147662e+00
-1.046518036156144e+01	-1.103086578650848e+01	 1.304702790242621e+00
-1.032375900532204e+01	-1.117228714274368e+01	 1.297400315694129e+00
-1.018233764908256e+01	-1.131370849897952e+01	 1.289173190264284e+00
-1.004091629284300e+01	-1.145512985521600e+01	 1.280026526734143e+00
-9.899494936603359e+00	-1.159655121145312e+01	 1.269965437903718e+00
-9.758073580363639e+00	-1.173797256769088e+01	 1.258995036591978e+00
-9.616652224123838e+00	-1.187939392392928e+01	 1.247120435636845e+00
-9.475230867883960e+00	-1.202081528016832e+01	 1.234346747895202e+00
-9.333809511644001e+00	-1.216223663640800e+01	 1.220679086242886e+00
-1.103086578652000e+01	-1.103086578652000e+01	 1.285332251028339e+00
-1.088944443028019e+01	-1.117228714275230e+01	 1.287429829008962e+00
-1.074802307404036e+01	-1.131370849898542e+01	 1.288187111567014e+00
-1.060660171780051e+01	-1.145512985521935e+01	 1.287609211358141e+00
-1.046518036156064e+01	-1.159655121145408e+01	 1.285701241056942e+00
-1.032375900532075e+01	-1.173797256768963e+01	 1.282468313356977e+00
-1.018233764908084e+01	-1.187939392392598e+01	 1.277915540970759e+00
-1.004091629284091e+01	-1.202081528016314e+01	 1.272048036629760e+00
-9.899494936600959e+00	-1.216223663640112e+01	 1.264870913084404e+00
-9.758073580360989e+00	-1.230365799263990e+01	 1.256389283104074e+00
-9.616652224120999e+00	-1.244507934887950e+01	 1.246608259477109e+00
-1.131370849900000e+01	-1.131370849900000e+01	 1.263959594522903e+00
-1.117228714276000e+01	-1.145512985523050e+01	 1.273559122206849e+00
-1.103086578652000e+01	-1.159655121146200e+01	 1.281412935523528e+00
-1.088944443028000e+01	-1.173797256769450e+01	 1.287526147041091e+00
-1.074802307404000e+01	-1.187939392392800e+01	 1.291903869346652e+00
-1.060660171780000e+01	-1.202081528016250e+01	 1.294551215046274e+00
-1.046518036156000e+01	-1.216223663639800e+01	 1.295473296764979e+00
-1.032375900532000e+01	-1.230365799263450e+01	 1.294675227146747e+00
-1.018233764908000e+01	-1.244507934887200e+01	 1.292162118854509e+00
-1.004091629284000e+01	-1.258650070511050e+01	 1.287939084570157e+00
-9.899494936600000e+00	-1.272792206135000e+01	 1.282011236994533e+00
-1.131370849900000e+01	-1.131370849900000e+01	 1.263959594522903e+00
-1.117228714276000e+01	-1.145512985523050e+01	 1.273559122206849e+00
-1.103086578652000e+01	-1.159655121146200e+01	 1.281412935523528e+00
-1.088944443028000e+01	-1.173797256769450e+01	 1.287526147041091e+00
-1.074802307404000e+01	-1.187939392392800e+01	 1.291903869346652e+00
-1.060660171780000e+01	-1.202081528016250e+01	 1.294551215046274e+00
-1.046518036156000e+01	-1.216223663639800e+01	 1.295473296764979e+00
-1.032375900532000e+01	-1.230365799263450e+01	 1.294675227146747e+00
-1.018233764908000e+01	-1.244507934887200e+01	 1.292162118854509e+00
-1.004091629284000e+01	-1.258650070511050e+01	 1.287939084570157e+00
-9.899494936600000e+00	-1.272792206135000e+01	 1.282011236994533e+00
-1.159655121147900e+01	-1.159655121147900e+01	 1.265311157819575e+00
-1.145512985523901e+01	-1.173797256770788e+01	 1.271462240429232e+00
-1.131370849899904e+01	-1.187939392393794e+01	 1.276093290042190e+00
-1.117228714275909e+01	-1.202081528016917e+01	 1.279209419139140e+00
-1.103086578651916e+01	-1.216223663640156e+01	 1.280815740219724e+00
-1.088944443027925e+01	-1.230365799263513e+01	 1.280917365802541e+00
-1.074802307403936e+01	-1.244507934886986e+01	 1.279519408425144e+00
-1.060660171779949e+01	-1.258650070510577e+01	 1.276626980644040e+00
-1.046518036155964e+01	-1.272792206134284e+01	 1.272245195034690e+00
-1.032375900531981e+01	-1.286934341758108e+01	 1.266379164191507e+00
-1.018233764908000e+01	-1.301076477382050e+01	 1.259034000727864e+00
-1.187939392395600e+01	-1.187939392395600e+01	 1.263721467615627e+00
-1.173797256771604e+01	-1.202081528018384e+01	 1.266864347567823e+00
-1.159655121147616e+01	-1.216223663641296e+01	 1.268712875985249e+00
-1.145512985523636e+01	-1.230365799264336e+01	 1.269272165261129e+00
-1.131370849899664e+01	-1.244507934887504e+01	 1.268547327807636e+00
-1.117228714275700e+01	-1.258650070510800e+01	 1.266543476055897e+00
-1.103086578651744e+01	-1.272792206134224e+01	 1.263265722455990e+00
-1.088944443027796e+01	-1.286934341757776e+01	 1.258719179476949e+00
-1.074802307403856e+01	-1.301076477381456e+01	 1.252908959606759e+00
-1.060660171779924e+01	-1.315218613005264e+01	 1.245840175352355e+00
-1.046518036156000e+01	-1.329360748629200e+01	 1.237517939239627e+00
-1.216223663643100e+01	-1.216223663643100e+01	 1.259320881339526e+00
-1.202081528019109e+01	-1.230365799265837e+01	 1.259895801401269e+00
-1.187939392395136e+01	-1.244507934888706e+01	 1.259402051481524e+00
-1.173797256771181e+01	-1.258650070511709e+01	 1.257844743886040e+00
-1.159655121147244e+01	-1.272792206134844e+01	 1.255228990939520e+00
-1.145512985523325e+01	-1.286934341758113e+01	 1.251559904985614e+00
-1.131370849899424e+01	-1.301076477381513e+01	 1.246842598386927e+00
-1.117228714275541e+01	-1.315218613005048e+01	 1.241082183525012e+00
-1.103086578651676e+01	-1.329360748628716e+01	 1.234283772800374e+00
-1.088944443027829e+01	-1.343502884252517e+01	 1.226452478632472e+00
-1.074802307404000e+01	-1.357645019876450e+01	 1.217593413459711e+00
-1.244507934890400e+01	-1.244507934890400e+01	 1.252239753922797e+00
-1.230365799266416e+01	-1.258650070513146e+01	 1.250686957211259e+00
-1.216223663642464e+01	-1.272792206136024e+01	 1.248291172162853e+00
-1.202081528018544e+01	-1.286934341759034e+01	 1.245057510995856e+00
-1.187939392394656e+01	-1.301076477382176e+01	 1.240991085947494e+00
-1.173797256770800e+01	-1.315218613005450e+01	 1.236097009273940e+00
-1.159655121146976e+01	-1.329360748628856e+01	 1.230380393250320e+00
-1.145512985523184e+01	-1.343502884252394e+01	 1.223846350170710e+00
-1.131370849899424e+01	-1.357645019876064e+01	 1.216499992348135e+00
-1.117228714275696e+01	-1.371787155499866e+01	 1.208346432114567e+00
-1.103086578652000e+01	-1.385929291123800e+01	 1.199390781820930e+00
-1.272792206137500e+01	-1.272792206137500e+01	 1.242608437800101e+00
-1.258650070513525e+01	-1.286934341760313e+01	 1.239368167782594e+00
-1.244507934889600e+01	-1.301076477383250e+01	 1.235510591164171e+00
-1.230365799265725e+01	-1.315218613006313e+01	 1.231040820075636e+00
-1.216223663641900e+01	-1.329360748629500e+01	 1.225963966666735e+00
-1.202081528018125e+01	-1.343502884252813e+01	 1.220285143106165e+00
-1.187939392394400e+01	-1.357645019876250e+01	 1.214009461581574e+00
-1.173797256770725e+01	-1.371787155499813e+01	 1.207142034299555e+00
-1.159655121147100e+01	-1.385929291123500e+01	 1.199687973485653e+00
-1.145512985523525e+01	-1.400071426747313e+01	 1.191652391384355e+00
-1.131370849900000e+01	-1.414213562371250e+01	 1.183040400259103e+00
-1.301076477384400e+01	-1.301076477384400e+01	 1.230557282909306e+00
-1.286934341760436e+01	-1.315218613007336e+01	 1.226069783403259e+00
-1.272792206136544e+01	-1.329360748630384e+01	 1.221190659123578e+00
-1.258650070512724e+01	-1.343502884253544e+01	 1.215925022113583e+00
-1.244507934888976e+01	-1.357645019876816e+01	 1.210277984435550e+00
-1.230365799265300e+01	-1.371787155500200e+01	 1.204254658170697e+00
-1.216223663641696e+01	-1.385929291123696e+01	 1.197860155419192e+00
-1.202081528018164e+01	-1.400071426747304e+01	 1.191099588300148e+00
-1.187939392394704e+01	-1.414213562371024e+01	 1.183978068951624e+00
-1.173797256771316e+01	-1.428355697994856e+01	 1.176500709530629e+00
-1.159655121148000e+01	-1.442497833618800e+01	 1.168672622213118e+00
-1.329360748631100e+01	-1.329360748631100e+01	 1.216216636691563e+00
-1.315218613007149e+01	-1.343502884254216e+01	 1.210922151864502e+00
-1.301076477383297e+01	-1.357645019877426e+01	 1.205461724182407e+00
-1.286934341759541e+01	-1.371787155500729e+01	 1.199840465601126e+00
-1.272792206135884e+01	-1.385929291124124e+01	 1.194063488095456e+00
-1.258650070512325e+01	-1.400071426747613e+01	 1.188135903659139e+00
-1.244507934888864e+01	-1.414213562371194e+01	 1.182062824304861e+00
-1.230365799265501e+01	-1.428355697994869e+01	 1.175849362064257e+00
-1.216223663642236e+01	-1.442497833618636e+01	 1.169500628987908e+00
-1.202081528019069e+01	-1.456639969242497e+01	 1.163021737145338e+00
-1.187939392396000e+01	-1.470782104866450e+01	 1.156417798625020e+00
-1.357645019877600e+01	-1.357645019877600e+01	 1.199716844091373e+00
-1.343502884253664e+01	-1.371787155500954e+01	 1.194055618460899e+00
-1.329360748629857e+01	-1.385929291124376e+01	 1.188454131985311e+00
-1.315218613006176e+01	-1.400071426747866e+01	 1.182917496532986e+00
-1.301076477382624e+01	-1.414213562371424e+01	 1.177450823991242e+00
-1.286934341759200e+01	-1.428355697995050e+01	 1.172059226266348e+00
-1.272792206135904e+01	-1.442497833618744e+01	 1.166747815283514e+00
-1.258650070512736e+01	-1.456639969242506e+01	 1.161521702986896e+00
-1.244507934889696e+01	-1.470782104866336e+01	 1.156386001339593e+00
-1.230365799266784e+01	-1.484924240490234e+01	 1.151345822323655e+00
-1.216223663644000e+01	-1.499066376114200e+01	 1.146406277940069e+00
-1.385929291123900e+01	-1.385929291123900e+01	 1.181188247556665e+00
-1.371787155499981e+01	-1.400071426747549e+01	 1.175600525990431e+00
-1.357645019876224e+01	-1.414213562371234e+01	 1.170298225680324e+00
-1.343502884252629e+01	-1.428355697994957e+01	 1.165286458407248e+00
-1.329360748629196e+01	-1.442497833618716e+01	 1.160570335971052e+00
-1.315218613005925e+01	-1.456639969242513e+01	 1.156154970190529e+00
-1.301076477382816e+01	-1.470782104866346e+01	 1.152045472903414e+00
-1.286934341759869e+01	-1.484924240490217e+01	 1.148246955966389e+00
-1.272792206137084e+01	-1.499066376114124e+01	 1.144764531255079e+00
-1.258650070514461e+01	-1.513208511738069e+01	 1.141603310664052e+00
-1.244507934892000e+01	-1.527350647362050e+01	 1.138768406106821e+00
-1.414213562370000e+01	-1.414213562370000e+01	 1.160761187038868e+00
-1.400071426746100e+01	-1.428355697994000e+01	 1.155687214754560e+00
-1.385929291122400e+01	-1.442497833618000e+01	 1.151124345918940e+00
-1.371787155498900e+01	-1.456639969242000e+01	 1.147077692225444e+00
-1.357645019875600e+01	-1.470782104866000e+01	 1.143552365386454e+00
-1.343502884252500e+01	-1.484924240490000e+01	 1.140553477133289e+00
-1.329360748629600e+01	-1.499066376114000e+01	 1.138086139216219e+00
-1.315218613006900e+01	-1.513208511738000e+01	 1.136155463404450e+00
-1.301076477384400e+01	-1.527350647362000e+01	 1.134766561486137e+00
-1.286934341762100e+01	-1.541492782986000e+01	 1.133924545268374e+00
-1.272792206140000e+01	-1.555634918610000e+01	 1.133634526577200e+00
 1.414213562400000e+00	-1.414213562400000e+00	 2.721731755125505e-01
 2.050609665460500e+00	-2.050609665460500e+00	 3.916996756409510e-01
 2.687005768522000e+00	-2.687005768522000e+00	 4.999007751928498e-01
 3.323401871584501e+00	-3.323401871584501e+00	 5.994724824486938e-01
 3.959797974648001e+00	-3.959797974648001e+00	 6.680747506172747e-01
 4.596194077712500e+00	-4.596194077712500e+00	 7.243700542382714e-01
 5.232590180777999e+00	-5.232590180777999e+00	 7.733149524183791e-01
 5.868986283844499e+00	-5.868986283844499e+00	 8.142413511593425e-01
 6.505382386912000e+00	-6.505382386912000e+00	 8.464811435812575e-01
 7.141778489980499e+00	-7.141778489980499e+00	 8.693662099234083e-01
 7.778174593050000e+00	-7.778174593050000e+00	 8.822284175450945e-01
 1.131370849920500e+00	-1.697056274861000e+00	 2.584819291999830e-01
 1.767766952981001e+00	-2.333452377925015e+00	 3.799160749784876e-01
 2.404163056042499e+00	-2.969848480989659e+00	 4.893914600882282e-01
 3.040559159105000e+00	-3.606244584054935e+00	 5.810435934503263e-01
 3.676955262168499e+00	-4.242640687120839e+00	 6.489504229498292e-01
 4.313351365233000e+00	-4.879036790187375e+00	 7.091895021311514e-01
 4.949747468298500e+00	-5.515432893254540e+00	 7.610927175017282e-01
 5.586143571365001e+00	-6.151828996322335e+00	 8.039919569591363e-01
 6.222539674432501e+00	-6.788225099390761e+00	 8.372190955181708e-01
 6.858935777500999e+00	-7.424621202459815e+00	 8.601059953116884e-01
 7.495331880570501e+00	-8.061017305529502e+00	 8.719845055914328e-01
 8.485281374420000e-01	-1.979898987324000e+00	 2.452943101819239e-01
 1.484924240502500e+00	-2.616295090390960e+00	 3.687546562897808e-01
 2.121320343564000e+00	-3.252691193458240e+00	 4.796228816366099e-01
 2.757716446626501e+00	-3.889087296525840e+00	 5.581738599300508e-01
 3.394112549690000e+00	-4.525483399593760e+00	 6.278990053244983e-01
 4.030508652754500e+00	-5.161879502662001e+00	 6.922444196935469e-01
 4.666904755819999e+00	-5.798275605730560e+00	 7.472685073665915e-01
 5.303300858886500e+00	-6.434671708799439e+00	 7.923031381364686e-01
 5.939696961953999e+00	-7.071067811868639e+00	 8.266801689121108e-01
 6.576093065022500e+00	-7.707463914938160e+00	 8.497314437193773e-01
 7.212489168092000e+00	-8.343860018007998e+00	 8.607887937018895e-01
 5.656854249644998e-01	-2.262741699789000e+00	 2.326103184578548e-01
 1.202081528025000e+00	-2.899137802858335e+00	 3.582154195743270e-01
 1.838477631086500e+00	-3.535533905927741e+00	 4.663479557929640e-01
 2.474873734149000e+00	-4.171930008997216e+00	 5.375806049388610e-01
 3.111269837212500e+00	-4.808326112066760e+00	 6.051291655205425e-01
 3.747665940277000e+00	-5.444722215136376e+00	 6.737434782814519e-01
 4.384062043342499e+00	-6.081118318206058e+00	 7.320509969456745e-01
 5.020458146409000e+00	-6.717514421275816e+00	 7.793835732007486e-01
 5.656854249476497e+00	-7.353910524345638e+00	 8.150730458491696e-01
 6.293250352545000e+00	-7.990306627415535e+00	 8.384512408092359e-01
 6.929646455614502e+00	-8.626702730485501e+00	 8.488499711158750e-01
 2.828427124880000e-01	-2.545584412256000e+00	 2.204299540272607e-01
 9.192388155484998e-01	-3.181980515327140e+00	 3.482983648316243e-01
 1.555634918610000e+00	-3.818376618398160e+00	 4.444494721235099e-01
 2.192031021672500e+00	-4.454772721469061e+00	 5.180256936159264e-01
 2.828427124736000e+00	-5.091168824539840e+00	 5.837019558450768e-01
 3.464823227800500e+00	-5.727564927610501e+00	 6.538953551063291e-01
 4.101219330866000e+00	-6.363961030681041e+00	 7.156488670273818e-01
 4.737615433932501e+00	-7.000357133751461e+00	 7.654419465172966e-01
 5.374011536999999e+00	-7.636753236821758e+00	 8.026064142715748e-01
 6.010407640068497e+00	-8.273149339891937e+00	 8.264740781003783e-01
 6.646803743138000e+00	-8.909545442962001e+00	 8.363767329293783e-01
 1.250000103425464e-11	-2.828427124725000e+00	 2.087532168896250e-01
 6.363961030729999e-01	-3.464823227797375e+00	 3.381534672567327e-01
 1.272792206134501e+00	-4.101219330869501e+00	 4.235373297199821e-01
 1.909188309197000e+00	-4.737615433941377e+00	 4.995197042595449e-01
 2.545584412260501e+00	-5.374011537013001e+00	 5.669509567028737e-01
 3.181980515325000e+00	-6.010407640084375e+00	 6.329087332353792e-01
 3.818376618390500e+00	-6.646803743155499e+00	 6.982708042560610e-01
 4.454772721457000e+00	-7.283199846226375e+00	 7.506869483076022e-01
 5.091168824524500e+00	-7.919595949296999e+00	 7.894889679779318e-01
 5.727564927592998e+00	-8.555992052367374e+00	 8.140086529685194e-01
 6.363961030662500e+00	-9.192388155437500e+00	 8.235777800952067e-01
-2.828427124619999e-01	-3.111269837196000e+00	 1.975801070444334e-01
 3.535533905984999e-01	-3.747665940269040e+00	 3.151183338407928e-01
 9.899494936600001e-01	-4.384062043341760e+00	 4.036221038037877e-01
 1.626345596722500e+00	-5.020458146414160e+00	 4.820732159261814e-01
 2.262741699786000e+00	-5.656854249486241e+00	 5.513220405547983e-01
 2.899137802850500e+00	-6.293250352557999e+00	 6.122190065476335e-01
 3.535533905915999e+00	-6.929646455629439e+00	 6.801255011322618e-01
 4.171930008982499e+00	-7.566042558700560e+00	 7.353272746495692e-01
 4.808326112050000e+00	-8.202438661771357e+00	 7.759294066234902e-01
 5.444722215118499e+00	-8.838834764841840e+00	 8.012636686462298e-01
 6.081118318188001e+00	-9.475230867912002e+00	 8.106618194232376e-01
-5.656854249354999e-01	-3.394112549669000e+00	 1.869106244911747e-01
 7.071067812500015e-02	-4.030508652742135e+00	 2.930281115163175e-01
 7.071067811865002e-01	-4.666904755814940e+00	 3.847143750467397e-01
 1.343502884249000e+00	-5.303300858887416e+00	 4.656968084305000e-01
 1.979898987312500e+00	-5.939696961959560e+00	 5.368257863582657e-01
 2.616295090377000e+00	-6.576093065031375e+00	 5.989517420326991e-01
 3.252691193442500e+00	-7.212489168102860e+00	 6.614216560129823e-01
 3.889087296509000e+00	-7.848885271174014e+00	 7.195716274777663e-01
 4.525483399576499e+00	-8.485281374244840e+00	 7.621364357203755e-01
 5.161879502644999e+00	-9.121677477315334e+00	 7.884478342231815e-01
 5.798275605714499e+00	-9.758073580385501e+00	 7.978375635806743e-01
-8.485281374079998e-01	-3.676955262144000e+00	 1.647567143661396e-01
-2.121320343474997e-01	-4.313351365216659e+00	 2.718933823949934e-01
 4.242640687140002e-01	-4.949747468289040e+00	 3.668247248789041e-01
 1.060660171776500e+00	-5.586143571361140e+00	 4.504010623454177e-01
 1.697056274840000e+00	-6.222539674432960e+00	 5.234727738289323e-01
 2.333452377904500e+00	-6.858935777504501e+00	 5.868902968766736e-01
 2.969848480970000e+00	-7.495331880575758e+00	 6.423679731119153e-01
 3.606244584036499e+00	-8.131727983646739e+00	 7.036287145836845e-01
 4.242640687103999e+00	-8.768124086717439e+00	 7.483187666378579e-01
 4.879036790172498e+00	-9.404520189787860e+00	 7.757698646464040e-01
 5.515432893242000e+00	-1.004091629285800e+01	 7.853137310922914e-01
-1.131370849879500e+00	-3.959797974621000e+00	 1.406292162325745e-01
-4.949747468189998e-01	-4.596194077692615e+00	 2.517247295222368e-01
 1.414213562425004e-01	-5.232590180764060e+00	 3.499637354886502e-01
 7.778174593050006e-01	-5.868986283835336e+00	 4.361965590021499e-01
 1.414213562368501e+00	-6.505382386906441e+00	 5.112735834407525e-01
 2.050609665433000e+00	-7.141778489977375e+00	 5.760452506961460e-01
 2.687005768498500e+00	-7.778174593048141e+00	 6.313620611796557e-01
 3.323401871565000e+00	-8.414570696118734e+00	 6.877072496159825e-01
 3.959797974632499e+00	-9.050966799189158e+00	 7.346851166025878e-01
 4.596194077701000e+00	-9.687362902259414e+00	 7.634384807205343e-01
 5.232590180770501e+00	-1.032375900532950e+01	 7.732990463406924e-01
-1.414213562350000e+00	-4.242640687100000e+00	 1.174157919146079e-01
-7.778174592895003e-01	-4.879036790170000e+00	 2.325327367018221e-01
-1.414213562280000e-01	-5.515432893240000e+00	 3.341419898226998e-01
 4.949747468345002e-01	-6.151828996310000e+00	 4.230938804902547e-01
 1.131370849898000e+00	-6.788225099380000e+00	 5.002387964260229e-01
 1.767766952962500e+00	-7.424621202449999e+00	 5.664271838660373e-01
 2.404163056028000e+00	-8.061017305520000e+00	 6.225095475668107e-01
 3.040559159094500e+00	-8.697413408590000e+00	 6.720159520807344e-01
 3.676955262162000e+00	-9.333809511660000e+00	 7.214442086988609e-01
 4.313351365230499e+00	-9.970205614729998e+00	 7.516624091080633e-01
 4.949747468300000e+00	-1.060660171780000e+01	 7.572494910282221e-01
 7.778174593050000e+00	-7.778174593050000e+00	 8.822284175450945e-01
 8.414570696119501e+00	-8.414570696119501e+00	 9.109079741870221e-01
 9.050966799188002e+00	-9.050966799188002e+00	 9.346407556586493e-01
 9.687362902255503e+00	-9.687362902255503e+00	 9.533275229494187e-01
 1.032375900532200e+01	-1.032375900532200e+01	 9.801429179483865e-01
 1.096015510838750e+01	-1.096015510838750e+01	 9.692319700685330e-01
 1.159655121145200e+01	-1.159655121145200e+01	 9.640799023870819e-01
 1.223294731451550e+01	-1.223294731451550e+01	 9.667348747337154e-01
 1.286934341757800e+01	-1.286934341757800e+01	 9.777523915737074e-01
 1.350573952063951e+01	-1.350573952063951e+01	 9.976879384116357e-01
 1.414213562370000e+01	-1.414213562370000e+01	 1.027096981792388e+00
 7.495331880570501e+00	-8.061017305529502e+00	 8.719845055914328e-01
 8.131727983640186e+00	-8.697413408599004e+00	 9.042862527259967e-01
 8.768124086709243e+00	-9.333809511667521e+00	 9.377375891536401e-01
 9.404520189777667e+00	-9.970205614735045e+00	 9.586369199528780e-01
 1.004091629284546e+01	-1.060660171780158e+01	 9.678792638587244e-01
 1.067731239591262e+01	-1.124299782086713e+01	 9.576396624798320e-01
 1.131370849897916e+01	-1.187939392393168e+01	 9.544293902267460e-01
 1.195010460204507e+01	-1.251579002699525e+01	 9.588039757219697e-01
 1.258650070511034e+01	-1.315218613005782e+01	 9.713189286259716e-01
 1.322289680817499e+01	-1.378858223311941e+01	 9.925297396381949e-01
 1.385929291123900e+01	-1.442497833618000e+01	 1.022991880498064e+00
 7.212489168092000e+00	-8.343860018007998e+00	 8.607887937018895e-01
 7.848885271161841e+00	-8.980256121077520e+00	 8.965937341280530e-01
 8.485281374231361e+00	-9.616652224146081e+00	 9.330798879094577e-01
 9.121677477300562e+00	-1.025304832721368e+01	 9.629769624125293e-01
 9.758073580369443e+00	-1.088944443028032e+01	 9.544918862586877e-01
 1.039446968343800e+01	-1.152584053334600e+01	 9.462167161394094e-01
 1.103086578650624e+01	-1.216223663641073e+01	 9.447486873797271e-01
 1.166726188957416e+01	-1.279863273947448e+01	 9.506433337977315e-01
 1.230365799264176e+01	-1.343502884253728e+01	 9.644561702491514e-01
 1.294005409570905e+01	-1.407142494559912e+01	 9.867426926283624e-01
 1.357645019877600e+01	-1.470782104866000e+01	 1.018058377869388e+00
 6.929646455614502e+00	-8.626702730485501e+00	 8.488499711158750e-01
 7.566042558684464e+00	-9.263098833555045e+00	 8.880391112092386e-01
 8.202438661754361e+00	-9.899494936623682e+00	 9.274410842011884e-01
 8.838834764824188e+00	-1.053589103969141e+01	 9.540759359569211e-01
 9.475230867893943e+00	-1.117228714275822e+01	 9.415362491018753e-01
 1.011162697096363e+01	-1.180868324582413e+01	 9.350259575718782e-01
 1.074802307403325e+01	-1.244507934888912e+01	 9.351006193443702e-01
 1.138441917710279e+01	-1.308147545195321e+01	 9.423157734330965e-01
 1.202081528017226e+01	-1.371787155501639e+01	 9.572269398891129e-01
 1.265721138324167e+01	-1.435426765807865e+01	 9.803896198017894e-01
 1.329360748631100e+01	-1.499066376114000e+01	 1.012359295299819e+00
 6.646803743138000e+00	-8.909545442962001e+00	 8.363767329293783e-01
 7.283199846208062e+00	-9.545941546031582e+00	 8.788310826423928e-01
 7.919595949278242e+00	-1.018233764910032e+01	 9.210298802785062e-01
 8.555992052348541e+00	-1.081873375216822e+01	 9.343379863048242e-01
 9.192388155418964e+00	-1.145512985523528e+01	 9.290751810238349e-01
 9.828784258489504e+00	-1.209152595830150e+01	 9.241302143864718e-01
 1.046518036156017e+01	-1.272792206136688e+01	 9.255480127036106e-01
 1.110157646463094e+01	-1.336431816443143e+01	 9.338841201847203e-01
 1.173797256770184e+01	-1.400071426749513e+01	 9.496940620762453e-01
 1.237436867077287e+01	-1.463711037055799e+01	 9.735333446626209e-01
 1.301076477384400e+01	-1.527350647362000e+01	 1.005957455267271e+00
 6.363961030662500e+00	-9.192388155437500e+00	 8.235777800952067e-01
 7.000357133732626e+00	-9.828784258507126e+00	 8.691783529573962e-01
 7.636753236802999e+00	-1.046518036157600e+01	 9.078662781868196e-01
 8.273149339873628e+00	-1.110157646464413e+01	 9.155545436473943e-01
 8.909545442944502e+00	-1.173797256771150e+01	 9.171715117448077e-01
 9.545941546015630e+00	-1.237436867077813e+01	 9.135923152770773e-01
 1.018233764908700e+01	-1.301076477384400e+01	 9.161536951250058e-01
 1.081873375215863e+01	-1.364716087690913e+01	 9.254112006938418e-01
 1.145512985523050e+01	-1.428355697997350e+01	 9.419203624254908e-01
 1.209152595830263e+01	-1.491995308303713e+01	 9.662366917995171e-01
 1.272792206137500e+01	-1.555634918610000e+01	 9.989156813341395e-01
 6.081118318188001e+00	-9.475230867912002e+00	 8.106618194232376e-01
 6.717514421258160e+00	-1.011162697098168e+01	 8.592896325414181e-01
 7.353910524328642e+00	-1.074802307405072e+01	 8.875154454042020e-01
 7.990306627399441e+00	-1.138441917711912e+01	 8.981451344949969e-01
 8.626702730470564e+00	-1.202081528018688e+01	 9.035184448936876e-01
 9.263098833542003e+00	-1.265721138325400e+01	 9.034750900222683e-01
 9.899494936613765e+00	-1.329360748632048e+01	 9.069804953607580e-01
 1.053589103968585e+01	-1.393000358938633e+01	 9.169598426863168e-01
 1.117228714275824e+01	-1.456639969245152e+01	 9.339686676363743e-01
 1.180868324583096e+01	-1.520279579551609e+01	 9.585624868856861e-01
 1.244507934890400e+01	-1.583919189858000e+01	 9.912967981473420e-01
 5.798275605714499e+00	-9.758073580385501e+00	 7.978375635806743e-01
 6.434671708784665e+00	-1.039446968345524e+01	 8.474890755490567e-01
 7.071067811855160e+00	-1.103086578652448e+01	 8.689786212204625e-01
 7.707463914925988e+00	-1.166726188959321e+01	 8.822074447141347e-01
 8.343860017997143e+00	-1.230365799266142e+01	 8.898988801152353e-01
 8.980256121068628e+00	-1.294005409572913e+01	 8.938413694853292e-01
 9.616652224140443e+00	-1.357645019879633e+01	 8.980912432477511e-01
 1.025304832721259e+01	-1.421284630186301e+01	 9.085928749726457e-01
 1.088944443028506e+01	-1.484924240492919e+01	 9.259018054930276e-01
 1.152584053335787e+01	-1.548563850799485e+01	 9.505735566789153e-01
 1.216223663643100e+01	-1.612203461106000e+01	 9.831636314383314e-01
 5.515432893242000e+00	-1.004091629285800e+01	 7.853137310922914e-01
 6.151828996312139e+00	-1.067731239592782e+01	 8.283260912546758e-01
 6.788225099382562e+00	-1.131370849899728e+01	 8.523534915021043e-01
 7.424621202453262e+00	-1.195010460206638e+01	 8.678391601713166e-01
 8.061017305524244e+00	-1.258650070513512e+01	 8.775064313474904e-01
 8.697413408595503e+00	-1.322289680820350e+01	 8.840786391158217e-01
 9.333809511667043e+00	-1.385929291127152e+01	 8.895487697075785e-01
 9.970205614738862e+00	-1.449568901433918e+01	 9.003731274480022e-01
 1.060660171781097e+01	-1.513208511740648e+01	 9.177826048642264e-01
 1.124299782088335e+01	-1.576848122047343e+01	 9.423327290215993e-01
 1.187939392395600e+01	-1.640487732354000e+01	 9.745790080231367e-01
 5.232590180770501e+00	-1.032375900532950e+01	 7.732990463406924e-01
 5.868986283840586e+00	-1.096015510839941e+01	 8.115147765195140e-01
 6.505382386910839e+00	-1.159655121146912e+01	 8.377377421156285e-01
 7.141778489981268e+00	-1.223294731453865e+01	 8.551379667330460e-01
 7.778174593051863e+00	-1.286934341760798e+01	 8.664387844569578e-01
 8.414570696122627e+00	-1.350573952067713e+01	 8.743635293725753e-01
 9.050966799193565e+00	-1.414213562374609e+01	 8.814159067465654e-01
 9.687362902264669e+00	-1.477853172681485e+01	 8.923634310922630e-01
 1.032375900533594e+01	-1.541492782988342e+01	 9.096738957034164e-01
 1.096015510840739e+01	-1.605132393295181e+01	 9.339028328407631e-01
 1.159655121147900e+01	-1.668772003602000e+01	 9.656057558023871e-01
 4.949747468300000e+00	-1.060660171780000e+01	 7.572494910282221e-01
 5.586143571370002e+00	-1.124299782087000e+01	 7.971528172100679e-01
 6.222539674440002e+00	-1.187939392394000e+01	 8.252290589275384e-01
 6.858935777510002e+00	-1.251579002701000e+01	 8.442015502658259e-01
 7.495331880580002e+00	-1.315218613008000e+01	 8.567936253101441e-01
 8.131727983650002e+00	-1.378858223315000e+01	 8.657286181457143e-01
 8.768124086720004e+00	-1.442497833622001e+01	 8.737298628577805e-01
 9.404520189790006e+00	-1.506137443929001e+01	 8.846266179700373e-01
 1.004091629286000e+01	-1.569777054236000e+01	 9.016385090487353e-01
 1.067731239593000e+01	-1.633416664543001e+01	 9.253466981481004e-01
 1.131370849900000e+01	-1.697056274850000e+01	 9.563067037613469e-01
-1.414213562350000e+00	-4.242640687100000e+00	 1.174157919146079e-01
-7.778174592895003e-01	-4.879036790170000e+00	 2.325327367018221e-01
-1.414213562280000e-01	-5.515432893240000e+00	 3.341419898226998e-01
 4.949747468345002e-01	-6.151828996310000e+00	 4.230938804902547e-01
 1.131370849898000e+00	-6.788225099380000e+00	 5.002387964260229e-01
 1.767766952962500e+00	-7.424621202449999e+00	 5.664271838660373e-01
 2.404163056028000e+00	-8.061017305520000e+00	 6.225095475668107e-01
 3.040559159094500e+00	-8.697413408590000e+00	 6.720159520807344e-01
 3.676955262162000e+00	-9.333809511660000e+00	 7.214442086988609e-01
 4.313351365230499e+00	-9.970205614729998e+00	 7.516624091080633e-01
 4.949747468300000e+00	-1.060660171780000e+01	 7.572494910282221e-01
-1.697056274820500e+00	-4.525483399580001e+00	 1.036223548440330e-01
-1.060660171760001e+00	-5.161879502648195e+00	 2.167097304543019e-01
-4.242640686985003e-01	-5.798275605716580e+00	 3.165533834074399e-01
 2.121320343639998e-01	-6.434671708785156e+00	 4.040036472591791e-01
 8.485281374274997e-01	-7.071067811853919e+00	 4.799109140745910e-01
 1.484924240492000e+00	-7.707463914922875e+00	 5.451256344340603e-01
 2.121320343557500e+00	-8.343860017992018e+00	 6.004983174392746e-01
 2.757716446623999e+00	-8.980256121061354e+00	 6.468795307192007e-01
 3.394112549691499e+00	-9.616652224130881e+00	 6.940157771352126e-01
 4.030508652759998e+00	-1.025304832720060e+01	 7.270690488822313e-01
 4.666904755829500e+00	-1.088944443027050e+01	 7.321840604732441e-01
-1.979898987292001e+00	-4.808326112060000e+00	 9.279822798213466e-02
-1.343502884231501e+00	-5.444722215126582e+00	 2.037641261652749e-01
-7.071067811700008e-01	-6.081118318193520e+00	 3.017502681355400e-01
-7.071067810750033e-02	-6.717514421260820e+00	 3.876069917912684e-01
 5.656854249559994e-01	-7.353910524328480e+00	 4.621846935409555e-01
 1.202081528020500e+00	-7.990306627396500e+00	 5.263338283092344e-01
 1.838477631085999e+00	-8.626702730464881e+00	 5.809049095428562e-01
 2.474873734152499e+00	-9.263098833533622e+00	 6.267485092166681e-01
 3.111269837219999e+00	-9.899494936602720e+00	 6.681956740588539e-01
 3.747665940288499e+00	-1.053589103967218e+01	 7.040873364619844e-01
 4.384062043358000e+00	-1.117228714274200e+01	 7.105947833720823e-01
-2.262741699764501e+00	-5.091168824540001e+00	 8.495399826507499e-02
-1.626345596704000e+00	-5.727564927605155e+00	 1.937065099139307e-01
-9.899494936425006e-01	-6.363961030670821e+00	 2.897432292291082e-01
-3.535533905800006e-01	-7.000357133736997e+00	 3.739144984514454e-01
 2.828427124834993e-01	-7.636753236803679e+00	 4.470707183327529e-01
 9.192388155479992e-01	-8.273149339870875e+00	 5.100623481418030e-01
 1.555634918613499e+00	-8.909545442938580e+00	 5.637399056702970e-01
 2.192031021679999e+00	-9.545941546006796e+00	 6.089539672388581e-01
 2.828427124747499e+00	-1.018233764907552e+01	 6.465551677030126e-01
 3.464823227815998e+00	-1.081873375214476e+01	 6.845655241956827e-01
 4.101219330885500e+00	-1.145512985521450e+01	 6.925793455912539e-01
-2.545584412238001e+00	-5.374011537020001e+00	 8.010025338755861e-02
-1.909188309177501e+00	-6.010407640083922e+00	 1.865474685379936e-01
-1.272792206116001e+00	-6.646803743148482e+00	 2.805428526687864e-01
-6.363961030535007e-01	-7.283199846213678e+00	 3.629367523631643e-01
 9.999320815801129e-12	-7.919595949279522e+00	 4.345795727161458e-01
 6.363961030744989e-01	-8.555992052346003e+00	 4.963217773405260e-01
 1.272792206139999e+00	-9.192388155413122e+00	 5.490138883728561e-01
 1.909188309206499e+00	-9.828784258480880e+00	 5.935064864794251e-01
 2.545584412273998e+00	-1.046518036154928e+01	 6.330715570214125e-01
 3.181980515342500e+00	-1.110157646461832e+01	 6.689304893887823e-01
 3.818376618411999e+00	-1.173797256768800e+01	 6.782354329972820e-01
-2.828427124712501e+00	-5.656854249500001e+00	 7.824758180287927e-02
-2.192031021652001e+00	-6.293250352562874e+00	 1.822975896337766e-01
-1.555634918590501e+00	-6.929646455626500e+00	 2.741597251938015e-01
-9.192388155280012e-01	-7.566042558690877e+00	 3.546843394084572e-01
-2.828427124645012e-01	-8.202438661756002e+00	 4.247218417158665e-01
 3.535533905999987e-01	-8.838834764821875e+00	 4.851227000727381e-01
 9.899494936654989e-01	-9.475230867888502e+00	 5.367374409603616e-01
 1.626345596731998e+00	-1.011162697095588e+01	 5.804166493905802e-01
 2.262741699799498e+00	-1.074802307402400e+01	 6.263607988532585e-01
 2.899137802867998e+00	-1.138441917709288e+01	 6.577780721356655e-01
 3.535533905937498e+00	-1.202081528016250e+01	 6.676607314566904e-01
-3.111269837188002e+00	-5.939696961980002e+00	 7.333530102629121e-02
-2.474873734127502e+00	-6.576093065042023e+00	 1.809674615562240e-01
-1.838477631066001e+00	-7.212489168104880e+00	 2.706044343020036e-01
-1.202081528003501e+00	-7.848885271168581e+00	 3.491678462279841e-01
-5.656854249400015e-01	-8.485281374233120e+00	 4.175081111152714e-01
 7.071067812449847e-02	-9.121677477298503e+00	 4.764757012643894e-01
 7.071067811899986e-01	-9.758073580364723e+00	 5.269211475012521e-01
 1.343502884256498e+00	-1.039446968343178e+01	 5.715564763951479e-01
 1.979898987323998e+00	-1.103086578649968e+01	 6.235404128234526e-01
 2.616295090392498e+00	-1.166726188956842e+01	 6.534820408319113e-01
 3.252691193461998e+00	-1.230365799263800e+01	 6.609529268360070e-01
-3.394112549664502e+00	-6.222539674460002e+00	 6.703256505925634e-02
-2.757716446604002e+00	-6.858935777521356e+00	 1.825676734189617e-01
-2.121320343542501e+00	-7.495331880583621e+00	 2.698875682499257e-01
-1.484924240480001e+00	-8.131727983646797e+00	 3.463978602210702e-01
-8.485281374165017e-01	-8.768124086710882e+00	 4.129489674563842e-01
-2.121320343520018e-01	-9.404520189775877e+00	 4.703913666000910e-01
 4.242640687134982e-01	-1.004091629284178e+01	 5.195755928226204e-01
 1.060660171779998e+00	-1.067731239590860e+01	 5.744098321138822e-01
 1.697056274847498e+00	-1.131370849897632e+01	 6.244309597524316e-01
 2.333452377915997e+00	-1.195010460204496e+01	 6.529943784109558e-01
 2.969848480985498e+00	-1.258650070511450e+01	 6.582097050017626e-01
-3.676955262142002e+00	-6.505382386940003e+00	 6.336949301075551e-02
-3.040559159081503e+00	-7.141778490000883e+00	 1.834262076737820e-01
-2.404163056020002e+00	-7.778174593062722e+00	 2.720197160528172e-01
-1.767766952957502e+00	-8.414570696125525e+00	 3.463849695457643e-01
-1.131370849894001e+00	-9.050966799189281e+00	 4.110549980399436e-01
-4.949747468295019e-01	-9.687362902254002e+00	 4.668802825231669e-01
 1.414213562359979e-01	-1.032375900531968e+01	 5.147113625102763e-01
 7.778174593024976e-01	-1.096015510838632e+01	 5.806972456878200e-01
 1.414213562369998e+00	-1.159655121145392e+01	 6.288530004606288e-01
 2.050609665438497e+00	-1.223294731452248e+01	 6.561356456932322e-01
 2.687005768507998e+00	-1.286934341759200e+01	 6.605195634853084e-01
-3.959797974620502e+00	-6.788225099420003e+00	 6.248344326086941e-02
-3.323401871560002e+00	-7.424621202480599e+00	 1.802719051210290e-01
-2.687005768498502e+00	-8.061017305542181e+00	 2.770114674847011e-01
-2.050609665436002e+00	-8.697413408604756e+00	 3.491397631188813e-01
-1.414213562372502e+00	-9.333809511668324e+00	 4.118367909254487e-01
-7.778174593080022e-01	-9.970205614732878e+00	 4.659530362356994e-01
-1.414213562425023e-01	-1.060660171779842e+01	 5.255885679062068e-01
 4.949747468239976e-01	-1.124299782086496e+01	 5.902392779373863e-01
 1.131370849891497e+00	-1.187939392393248e+01	 6.366270957684677e-01
 1.767766952959997e+00	-1.251579002700100e+01	 6.627264034991687e-01
 2.404163056029498e+00	-1.315218613007050e+01	 6.665115832291716e-01
-4.242640687100000e+00	-7.071067811900000e+00	 6.451177908116687e-02
-3.606244584039500e+00	-7.707463914960500e+00	 1.798942911142179e-01
-2.969848480978000e+00	-8.343860018021999e+00	 2.837830420923310e-01
-2.333452377915500e+00	-8.980256121084500e+00	 3.546728306160465e-01
-1.697056274852000e+00	-9.616652224148000e+00	 4.153049349312096e-01
-1.060660171787500e+00	-1.025304832721250e+01	 4.676202156985742e-01
-4.242640687219998e-01	-1.088944443027800e+01	 5.404608801093509e-01
 2.121320343444999e-01	-1.152584053334450e+01	 6.028564896829998e-01
 8.485281374119996e-01	-1.216223663641200e+01	 6.475738064963716e-01
 1.484924240480500e+00	-1.279863273948050e+01	 6.725872126491876e-01
 2.121320343550000e+00	-1.343502884255000e+01	 6.758710902411370e-01
 4.949747468300000e+00	-1.060660171780000e+01	 7.572494910282221e-01
 5.586143571370002e+00	-1.124299782087000e+01	 7.971528172100679e-01
 6.222539674440002e+00	-1.187939392394000e+01	 8.252290589275384e-01
 6.858935777510002e+00	-1.251579002701000e+01	 8.442015502658259e-01
 7.495331880580002e+00	-1.315218613008000e+01	 8.567936253101441e-01
 8.131727983650002e+00	-1.378858223315000e+01	 8.657286181457143e-01
 8.768124086720004e+00	-1.442497833622001e+01	 8.737298628577805e-01
 9.404520189790006e+00	-1.506137443929001e+01	 8.846266179700373e-01
 1.004091629286000e+01	-1.569777054236000e+01	 9.016385090487353e-01
 1.067731239593000e+01	-1.633416664543001e+01	 9.253466981481004e-01
 1.131370849900000e+01	-1.697056274850000e+01	 9.563067037613469e-01
 4.666904755829500e+00	-1.088944443027050e+01	 7.321840604732441e-01
 5.303300858899406e+00	-1.152584053334058e+01	 7.762966487917455e-01
 5.939696961969123e+00	-1.216223663641085e+01	 8.080036766310441e-01
 6.576093065038648e+00	-1.279863273948127e+01	 8.300284780763416e-01
 7.212489168107981e+00	-1.343502884255186e+01	 8.450943872128521e-01
 7.848885271177127e+00	-1.407142494562263e+01	 8.559247381258086e-01
 8.485281374246082e+00	-1.470782104869356e+01	 8.652428649004622e-01
 9.121677477314849e+00	-1.534421715176467e+01	 8.764410669811953e-01
 9.758073580383426e+00	-1.598061325483594e+01	 8.932898223152306e-01
 1.039446968345181e+01	-1.661700935790739e+01	 9.163152342594864e-01
 1.103086578652000e+01	-1.725340546097900e+01	 9.465902630370269e-01
 4.384062043358000e+00	-1.117228714274200e+01	 7.105947833720823e-01
 5.020458146427821e+00	-1.180868324581214e+01	 7.583910597995825e-01
 5.656854249497282e+00	-1.244507934888256e+01	 7.932032997330609e-01
 6.293250352566381e+00	-1.308147545195326e+01	 8.177548372577251e-01
 6.929646455635123e+00	-1.371787155502424e+01	 8.347690064587969e-01
 7.566042558703501e+00	-1.435426765809550e+01	 8.469691414215179e-01
 8.202438661771524e+00	-1.499066376116705e+01	 8.570785762311444e-01
 8.838834764839184e+00	-1.562705986423887e+01	 8.678602100750615e-01
 9.475230867906484e+00	-1.626345596731096e+01	 8.841629820837560e-01
 1.011162697097342e+01	-1.689985207038335e+01	 9.061227690016904e-01
 1.074802307404000e+01	-1.753624817345600e+01	 9.476155533371549e-01
 4.101219330885500e+00	-1.145512985521450e+01	 6.925793455912539e-01
 4.737615433955244e+00	-1.209152595828466e+01	 7.435337361000968e-01
 5.374011537024480e+00	-1.272792206135516e+01	 7.809256141001034e-01
 6.010407640093207e+00	-1.336431816442599e+01	 8.074783136764937e-01
 6.646803743161421e+00	-1.400071426749714e+01	 8.259151689144949e-01
 7.283199846229126e+00	-1.463711037056863e+01	 8.389595138993591e-01
 7.919595949296322e+00	-1.527350647364044e+01	 8.493346827163495e-01
 8.555992052363010e+00	-1.590990257671259e+01	 8.597640094507459e-01
 9.192388155429185e+00	-1.654629867978507e+01	 8.743208226467253e-01
 9.828784258494847e+00	-1.718269478285787e+01	 8.948321356405763e-01
 1.046518036156000e+01	-1.781909088593100e+01	 9.472933751234679e-01
 3.818376618411999e+00	-1.173797256768800e+01	 6.782354329972820e-01
 4.454772721481679e+00	-1.237436867075816e+01	 7.318223635598062e-01
 5.091168824550720e+00	-1.301076477382864e+01	 7.712683055986904e-01
 5.727564927619121e+00	-1.364716087689944e+01	 7.992965931991632e-01
 6.363961030686882e+00	-1.428355697997057e+01	 8.186305604464656e-01
 7.000357133754004e+00	-1.491995308304200e+01	 8.319935414258515e-01
 7.636753236820482e+00	-1.555634918611377e+01	 8.421088702225937e-01
 8.273149339886325e+00	-1.619274528918585e+01	 8.516998809219751e-01
 8.909545442951526e+00	-1.682914139225825e+01	 8.638261793813684e-01
 9.545941546016083e+00	-1.746553749533097e+01	 8.930586786463064e-01
 1.018233764908000e+01	-1.810193359840400e+01	 9.455846650794801e-01
 3.535533905937498e+00	-1.202081528016250e+01	 6.676607314566904e-01
 4.171930009007125e+00	-1.265721138323263e+01	 7.233546280452364e-01
 4.808326112076000e+00	-1.329360748630300e+01	 7.643290600953450e-01
 5.444722215144125e+00	-1.393000358937363e+01	 7.933073616922584e-01
 6.081118318211501e+00	-1.456639969244450e+01	 8.130128669212267e-01
 6.717514421278126e+00	-1.520279579551563e+01	 8.261689098675148e-01
 7.353910524344003e+00	-1.583919189858701e+01	 8.354988246163962e-01
 7.990306627409127e+00	-1.647558800165863e+01	 8.437259452531592e-01
 8.626702730473504e+00	-1.711198410473050e+01	 8.535736058630989e-01
 9.263098833537127e+00	-1.774838020780263e+01	 8.929657820070898e-01
 9.899494936599998e+00	-1.838477631087500e+01	 9.424503608096985e-01
 3.252691193461998e+00	-1.230365799263800e+01	 6.609529268360070e-01
 3.889087296531578e+00	-1.294005409570806e+01	 7.182282154229118e-01
 4.525483399600320e+00	-1.357645019877824e+01	 7.602055634565911e-01
 5.161879502668221e+00	-1.421284630184854e+01	 7.896083050223028e-01
 5.798275605735280e+00	-1.484924240491896e+01	 8.091597742053057e-01
 6.434671708801499e+00	-1.548563850798950e+01	 8.215833050908743e-01
 7.071067811866882e+00	-1.612203461106017e+01	 8.296022317642824e-01
 7.707463914931422e+00	-1.675843071413095e+01	 8.359398883108168e-01
 8.343860017995125e+00	-1.739482681720185e+01	 8.504767986970246e-01
 8.980256121057984e+00	-1.803122292027287e+01	 8.917128001166799e-01
 9.616652224119999e+00	-1.866761902334400e+01	 9.378514008395562e-01
 2.969848480985498e+00	-1.258650070511450e+01	 6.582097050017626e-01
 3.606244584055044e+00	-1.322289680818446e+01	 7.165408115593610e-01
 4.242640687123679e+00	-1.385929291125436e+01	 7.589955015489568e-01
 4.879036790191405e+00	-1.449568901432419e+01	 7.882971090558225e-01
 5.515432893258220e+00	-1.513208511739394e+01	 8.071689681652293e-01
 6.151828996324126e+00	-1.576848122046363e+01	 8.183344129624537e-01
 6.788225099389122e+00	-1.640487732353325e+01	 8.245167775327744e-01
 7.424621202453208e+00	-1.704127342660279e+01	 8.284393959614702e-01
 8.061017305516382e+00	-1.767766952967227e+01	 8.528278359057418e-01
 8.697413408578647e+00	-1.831406563274167e+01	 8.897776073939805e-01
 9.333809511639998e+00	-1.895046173581100e+01	 9.317487246153568e-01
 2.687005768507998e+00	-1.286934341759200e+01	 6.605195634853084e-01
 3.323401871577519e+00	-1.350573952066184e+01	 7.183901023211162e-01
 3.959797974646079e+00	-1.414213562373136e+01	 7.607965602389748e-01
 4.596194077713680e+00	-1.477853172680056e+01	 7.894714596593497e-01
 5.232590180780320e+00	-1.541492782986944e+01	 8.071381346675267e-01
 5.868986283846001e+00	-1.605132393293800e+01	 8.165199193487833e-01
 6.505382386910722e+00	-1.668772003600625e+01	 8.203401477883971e-01
 7.141778489974483e+00	-1.732411613907417e+01	 8.248243984843739e-01
 7.778174593037283e+00	-1.796051224214177e+01	 8.544235790769779e-01
 8.414570696099123e+00	-1.859690834520904e+01	 8.873598194470498e-01
 9.050966799159998e+00	-1.923330444827600e+01	 9.241032725042102e-01
 2.404163056029498e+00	-1.315218613007050e+01	 6.665115832291716e-01
 3.040559159099004e+00	-1.378858223314019e+01	 7.238737735747112e-01
 3.676955262167519e+00	-1.442497833620924e+01	 7.657064253931756e-01
 4.313351365235044e+00	-1.506137443927767e+01	 7.932290426994165e-01
 4.949747468301579e+00	-1.569777054234546e+01	 8.091649595787271e-01
 5.586143571367126e+00	-1.633416664541263e+01	 8.162375101163902e-01
 6.222539674431681e+00	-1.697056274847916e+01	 8.171700283976768e-01
 6.858935777495246e+00	-1.760695885154507e+01	 8.296089877007246e-01
 7.495331880557822e+00	-1.824335495461035e+01	 8.552366186237186e-01
 8.131727983619408e+00	-1.887975105767499e+01	 8.838339320802840e-01
 8.768124086679997e+00	-1.951614716073900e+01	 9.150840678453571e-01
 2.121320343550000e+00	-1.343502884255000e+01	 6.758710902411370e-01
 2.757716446619501e+00	-1.407142494561950e+01	 7.327435470954935e-01
 3.394112549688002e+00	-1.470782104868800e+01	 7.738227828780990e-01
 4.030508652755502e+00	-1.534421715175550e+01	 7.996675440425601e-01
 4.666904755822002e+00	-1.598061325482200e+01	 8.133471287653686e-01
 5.303300858887503e+00	-1.661700935788750e+01	 8.175848711318104e-01
 5.939696961952004e+00	-1.725340546095200e+01	 8.154973609180398e-01
 6.576093065015503e+00	-1.788980156401550e+01	 8.339088588240255e-01
 7.212489168078005e+00	-1.852619766707801e+01	 8.552395459393449e-01
 7.848885271139504e+00	-1.916259377013951e+01	 8.791725366813232e-01
 8.485281374200000e+00	-1.979898987320000e+01	 9.053909708537965e-01
-4.242640687100000e+00	-7.071067811900000e+00	 8.290250108492653e-02
-3.606244584039500e+00	-7.707463914960500e+00	 1.852847733667330e-01
-2.969848480978000e+00	-8.343860018021999e+00	 2.780535053669818e-01
-2.333452377915500e+00	-8.980256121084500e+00	 3.397034956862131e-01
-1.697056274852000e+00	-9.616652224148000e+00	 3.929760225702713e-01
-1.060660171787500e+00	-1.025304832721250e+01	 4.398119466799117e-01
-4.242640687219998e-01	-1.088944443027800e+01	 5.090534752063450e-01
 2.121320343444999e-01	-1.152584053334450e+01	 5.697301696690286e-01
 8.485281374119996e-01	-1.216223663641200e+01	 6.146087921448153e-01
 1.484924240480500e+00	-1.279863273948050e+01	 6.416637247334285e-01
 2.121320343550000e+00	-1.343502884255000e+01	 6.488693495345536e-01
-4.384062043340000e+00	-7.212489168139000e+00	 7.572862546670747e-02
-3.747665940279500e+00	-7.848885271199689e+00	 1.784490092018538e-01
-3.111269837218000e+00	-8.485281374261360e+00	 2.712915985723841e-01
-2.474873734155500e+00	-9.121677477324011e+00	 3.381017206886222e-01
-1.838477631092000e+00	-9.758073580387641e+00	 3.910322635483001e-01
-1.202081528027500e+00	-1.039446968345225e+01	 4.402315425631497e-01
-5.656854249619999e-01	-1.103086578651784e+01	 5.134438128741227e-01
 7.071067810449976e-02	-1.166726188958441e+01	 5.728866709174721e-01
 7.071067811719998e-01	-1.230365799265196e+01	 6.165344987929821e-01
 1.343502884240499e+00	-1.294005409572049e+01	 6.423616786004057e-01
 1.979898987310000e+00	-1.357645019879000e+01	 6.483425924394384e-01
-4.525483399580000e+00	-7.353910524375999e+00	 7.181056508698591e-02
-3.889087296519499e+00	-7.990306627437260e+00	 1.744922579221733e-01
-3.252691193458000e+00	-8.626702730499440e+00	 2.670319002544126e-01
-2.616295090395500e+00	-9.263098833562541e+00	 3.386470567295464e-01
-1.979898987331999e+00	-9.899494936626560e+00	 3.908702564366807e-01
-1.343502884267500e+00	-1.053589103969150e+01	 4.472753605627721e-01
-7.071067812020001e-01	-1.117228714275736e+01	 5.189327335106974e-01
-7.071067813550001e-02	-1.180868324582414e+01	 5.768237360100331e-01
 5.656854249319996e-01	-1.244507934889184e+01	 6.189227501606024e-01
 1.202081528000499e+00	-1.308147545196046e+01	 6.432041580621728e-01
 1.838477631070000e+00	-1.371787155503000e+01	 6.476423418144532e-01
-4.666904755820000e+00	-7.495331880611000e+00	 7.116549173057056e-02
-4.030508652759500e+00	-8.131727983673208e+00	 1.734316913153444e-01
-3.394112549698000e+00	-8.768124086736240e+00	 2.652915822035420e-01
-2.757716446635499e+00	-9.404520189800088e+00	 3.413408277318786e-01
-2.121320343572000e+00	-1.004091629286476e+01	 3.924913250511307e-01
-1.484924240507500e+00	-1.067731239593025e+01	 4.557133507584205e-01
-8.485281374420003e-01	-1.131370849899656e+01	 5.254978072186107e-01
-2.121320343755004e-01	-1.195010460206369e+01	 5.815189350492604e-01
 4.242640686919994e-01	-1.258650070513164e+01	 6.217511163502222e-01
 1.060660171760499e+00	-1.322289680820041e+01	 6.441687332212791e-01
 1.697056274830000e+00	-1.385929291127000e+01	 6.467461677621466e-01
-4.808326112060000e+00	-7.636753236843999e+00	 7.381057748803342e-02
-4.171930008999500e+00	-8.273149339907540e+00	 1.752844814747908e-01
-3.535533905938000e+00	-8.909545442971760e+00	 2.660878165160132e-01
-2.899137802875499e+00	-9.545941546036660e+00	 3.461843576659429e-01
-2.262741699812000e+00	-1.018233764910224e+01	 3.958967932548100e-01
-1.626345596747500e+00	-1.081873375216850e+01	 4.655230832526389e-01
-9.899494936820002e-01	-1.145512985523544e+01	 5.331166041004120e-01
-3.535533906155001e-01	-1.209152595830306e+01	 5.869498381377024e-01
 2.828427124519994e-01	-1.272792206137136e+01	 6.249971674643920e-01
 9.192388155204991e-01	-1.336431816444034e+01	 6.452329741802727e-01
 1.555634918590000e+00	-1.400071426751000e+01	 6.456316403850724e-01
-4.949747468300000e+00	-7.778174593075000e+00	 7.976299475570321e-02
-4.313351365239500e+00	-8.414570696140249e+00	 1.800678007997009e-01
-3.676955262178001e+00	-9.050966799206000e+00	 2.694377755938549e-01
-3.040559159115500e+00	-9.687362902272252e+00	 3.494186878325597e-01
-2.404163056052000e+00	-1.032375900533900e+01	 4.010879849583015e-01
-1.767766952987500e+00	-1.096015510840625e+01	 4.766821281479735e-01
-1.131370849922000e+00	-1.159655121147400e+01	 5.417666942586450e-01
-4.949747468555002e-01	-1.223294731454225e+01	 5.930940153779052e-01
 1.414213562119995e-01	-1.286934341761100e+01	 6.286384736056558e-01
 7.778174592804994e-01	-1.350573952068025e+01	 6.463744510417063e-01
 1.414213562350000e+00	-1.414213562375000e+01	 6.442763297857800e-01
-5.091168824540000e+00	-7.919595949304000e+00	 8.903991623568797e-02
-4.454772721479499e+00	-8.555992052371339e+00	 1.877988219950504e-01
-3.818376618417999e+00	-9.192388155438959e+00	 2.753586321448743e-01
-3.181980515355500e+00	-9.828784258506859e+00	 3.532651153232305e-01
-2.545584412291999e+00	-1.046518036157504e+01	 4.151818780257420e-01
-1.909188309227500e+00	-1.110157646464350e+01	 4.891680555469684e-01
-1.272792206162000e+00	-1.173797256771224e+01	 5.514256477958531e-01
-6.363961030955002e-01	-1.237436867078126e+01	 5.999290368724146e-01
-2.800060183716368e-11	-1.301076477385056e+01	 6.326526048765660e-01
 6.363961030404992e-01	-1.364716087692013e+01	 6.475707339081280e-01
 1.272792206110000e+00	-1.428355697999000e+01	 6.426578060668203e-01
-5.232590180780000e+00	-8.061017305530999e+00	 1.016585149358715e-01
-4.596194077719500e+00	-8.697413408600811e+00	 1.984947180715961e-01
-3.959797974658000e+00	-9.333809511670639e+00	 2.838675591826837e-01
-3.323401871595500e+00	-9.970205614740491e+00	 3.593228068507320e-01
-2.687005768531999e+00	-1.060660171781036e+01	 4.321202928364825e-01
-2.050609665467500e+00	-1.124299782088025e+01	 5.029584355521654e-01
-1.414213562402000e+00	-1.187939392395016e+01	 5.620710348145819e-01
-7.778174593355002e-01	-1.251579002702009e+01	 6.074324727237737e-01
-1.414213562680005e-01	-1.315218613009004e+01	 6.370171313796678e-01
 4.949747468004994e-01	-1.378858223316001e+01	 6.487993928820854e-01
 1.131370849870000e+00	-1.442497833623000e+01	 6.407536393307420e-01
-5.374011537019999e+00	-8.202438661756000e+00	 1.176359641699241e-01
-4.737615433959500e+00	-8.838834764828661e+00	 2.121726623459000e-01
-4.101219330898000e+00	-9.475230867901040e+00	 2.949817300266975e-01
-3.464823227835500e+00	-1.011162697097314e+01	 3.676089357373040e-01
-2.828427124772000e+00	-1.074802307404496e+01	 4.506587494806694e-01
-2.192031021707500e+00	-1.138441917711650e+01	 5.180308382661065e-01
-1.555634918642000e+00	-1.202081528018776e+01	 5.736804254173760e-01
-9.192388155755001e-01	-1.265721138325874e+01	 6.155818930345296e-01
-2.828427125080005e-01	-1.329360748632944e+01	 6.417096232175095e-01
 3.535533905604995e-01	-1.393000358939986e+01	 6.500379980661324e-01
 9.899494936300001e-01	-1.456639969247000e+01	 6.385413996800989e-01
-5.515432893260000e+00	-8.343860017978999e+00	 1.369894375573155e-01
-4.879036790199501e+00	-8.980256121054889e+00	 2.288498284403153e-01
-4.242640687138000e+00	-9.616652224130160e+00	 3.087183183021350e-01
-3.606244584075501e+00	-1.025304832720481e+01	 3.781406756110031e-01
-2.969848481012000e+00	-1.088944443027884e+01	 4.697015163829353e-01
-2.333452377947500e+00	-1.152584053335225e+01	 5.343628337913356e-01
-1.697056274882000e+00	-1.216223663642504e+01	 5.862313897067721e-01
-1.060660171815500e+00	-1.279863273949721e+01	 6.243548679072273e-01
-4.242640687480002e-01	-1.343502884256876e+01	 6.467076504926367e-01
 2.121320343204993e-01	-1.407142494563969e+01	 6.512641195628142e-01
 8.485281373900000e-01	-1.470782104871000e+01	 6.359986572174385e-01
-5.656854249500000e+00	-8.485281374200000e+00	 1.597361090233109e-01
-5.020458146439500e+00	-9.121677477279500e+00	 2.485433902830149e-01
-4.384062043378000e+00	-9.758073580358001e+00	 3.250944979400393e-01
-3.747665940315499e+00	-1.039446968343550e+01	 3.937631179899133e-01
-3.111269837252000e+00	-1.103086578651200e+01	 4.861959220918897e-01
-2.474873734187500e+00	-1.166726188958750e+01	 5.519319922303856e-01
-1.838477631122000e+00	-1.230365799266200e+01	 5.997014977853193e-01
-1.202081528055500e+00	-1.294005409573550e+01	 6.337289674444102e-01
-5.656854249880006e-01	-1.357645019880800e+01	 6.519887833075995e-01
 7.071067808049936e-02	-1.421284630187950e+01	 6.524553274746836e-01
 7.071067811500000e-01	-1.484924240495000e+01	 6.331029820453149e-01
 2.121320343550000e+00	-1.343502884255000e+01	 6.488693495345536e-01
 2.757716446619501e+00	-1.407142494561950e+01	 7.103874956326641e-01
 3.394112549688002e+00	-1.470782104868800e+01	 7.556800839546594e-01
 4.030508652755502e+00	-1.534421715175550e+01	 7.853058609539254e-01
 4.666904755822002e+00	-1.598061325482200e+01	 8.023341248067084e-01
 5.303300858887503e+00	-1.661700935788750e+01	 8.094882095980414e-01
 5.939696961952004e+00	-1.725340546095200e+01	 8.098847051038047e-01
 6.576093065015503e+00	-1.788980156401550e+01	 8.303478720236763e-01
 7.212489168078005e+00	-1.852619766707801e+01	 8.532978914469275e-01
 7.848885271139504e+00	-1.916259377013951e+01	 8.784178777905600e-01
 8.485281374200000e+00	-1.979898987320000e+01	 9.053909708580699e-01
 1.979898987310000e+00	-1.357645019879000e+01	 6.483425924394384e-01
 2.616295090379690e+00	-1.421284630185950e+01	 7.093545000363417e-01
 3.252691193448761e+00	-1.484924240492800e+01	 7.544523842361982e-01
 3.889087296517212e+00	-1.548563850799550e+01	 7.832789197084260e-01
 4.525483399585043e+00	-1.612203461106200e+01	 7.994117540080475e-01
 5.161879502652252e+00	-1.675843071412751e+01	 8.055742212201129e-01
 5.798275605718843e+00	-1.739482681719200e+01	 8.095176782628808e-01
 6.434671708784816e+00	-1.803122292025551e+01	 8.289030172964647e-01
 7.071067811850165e+00	-1.866761902331801e+01	 8.507845687231504e-01
 7.707463914914893e+00	-1.930401512637951e+01	 8.748454469746029e-01
 8.343860017978999e+00	-1.994041122944000e+01	 9.007687918688539e-01
 1.838477631070000e+00	-1.371787155503000e+01	 6.476423418144532e-01
 2.474873734139861e+00	-1.435426765809950e+01	 7.082745052178733e-01
 3.111269837209441e+00	-1.499066376116800e+01	 7.534742956768047e-01
 3.747665940278743e+00	-1.562705986423550e+01	 7.815499118805840e-01
 4.384062043347762e+00	-1.626345596730200e+01	 7.968356388856337e-01
 5.020458146416503e+00	-1.689985207036750e+01	 8.020548107770289e-01
 5.656854249484964e+00	-1.753624817343200e+01	 8.092307611769873e-01
 6.293250352553144e+00	-1.817264427649550e+01	 8.276366399688643e-01
 6.929646455621044e+00	-1.880904037955801e+01	 8.485480906278039e-01
 7.566042558688665e+00	-1.944543648261950e+01	 8.716482276001647e-01
 8.202438661756000e+00	-2.008183258568000e+01	 8.966201907185416e-01
 1.697056274830000e+00	-1.385929291127000e+01	 6.467461677621466e-01
 2.333452377900012e+00	-1.449568901433950e+01	 7.071250812798135e-01
 2.969848480970041e+00	-1.513208511740800e+01	 7.527580290098009e-01
 3.606244584040092e+00	-1.576848122047550e+01	 7.801310482037194e-01
 4.242640687110162e+00	-1.640487732354200e+01	 7.946179901727896e-01
 4.879036790180253e+00	-1.704127342660750e+01	 7.989421890021096e-01
 5.515432893250362e+00	-1.767766952967200e+01	 8.090205280474836e-01
 6.151828996320495e+00	-1.831406563273551e+01	 8.265453142414901e-01
 6.788225099390645e+00	-1.895046173579800e+01	 8.465850313607743e-01
 7.424621202460815e+00	-1.958685783885950e+01	 8.688227938664070e-01
 8.061017305530999e+00	-2.022325394192000e+01	 8.929417416055775e-01
 1.555634918590000e+00	-1.400071426751000e+01	 6.456316403850724e-01
 2.192031021660141e+00	-1.463711037057950e+01	 7.058837983247135e-01
 2.828427124730561e+00	-1.527350647364800e+01	 7.516682100094663e-01
 3.464823227801261e+00	-1.590990257671550e+01	 7.790345394111508e-01
 4.101219330872241e+00	-1.654629867978200e+01	 7.927710186028344e-01
 4.737615433943501e+00	-1.718269478284750e+01	 7.962485666286782e-01
 5.374011537015043e+00	-1.781909088591200e+01	 8.088835531369853e-01
 6.010407640086863e+00	-1.845548698897550e+01	 8.256256143762315e-01
 6.646803743158962e+00	-1.909188309203800e+01	 8.448919651832183e-01
 7.283199846231346e+00	-1.972827919509951e+01	 8.663657200337626e-01
 7.919595949304000e+00	-2.036467529816000e+01	 8.897300187896693e-01
 1.414213562350000e+00	-1.414213562375000e+01	 6.442763297857800e-01
 2.050609665420251e+00	-1.477853172681950e+01	 7.045282264551285e-01
 2.687005768491002e+00	-1.541492782988800e+01	 7.504500131011040e-01
 3.323401871562252e+00	-1.605132393295550e+01	 7.782725962361989e-01
 3.959797974634002e+00	-1.668772003602200e+01	 7.913069349090942e-01
 4.596194077706253e+00	-1.732411613908750e+01	 7.956092655351072e-01
 5.232590180779003e+00	-1.796051224215201e+01	 8.088164107693834e-01
 5.868986283852253e+00	-1.859690834521550e+01	 8.248741146962354e-01
 6.505382386926004e+00	-1.923330444827801e+01	 8.434654664175520e-01
 7.141778490000254e+00	-1.986970055133951e+01	 8.642735804239193e-01
 7.778174593075001e+00	-2.050609665440000e+01	 8.869815965917880e-01
 1.272792206110000e+00	-1.428355697999000e+01	 6.426578060668203e-01
 1.909188309180341e+00	-1.491995308305950e+01	 7.030359357736079e-01
 2.545584412251361e+00	-1.555634918612800e+01	 7.492215916885461e-01
 3.181980515323062e+00	-1.619274528919550e+01	 7.778574294121832e-01
 3.818376618395443e+00	-1.682914139226200e+01	 7.902379498248873e-01
 4.454772721468503e+00	-1.746553749532750e+01	 7.962038775623860e-01
 5.091168824542244e+00	-1.810193359839201e+01	 8.088156753298306e-01
 5.727564927616664e+00	-1.873832970145551e+01	 8.242873895859180e-01
 6.363961030691765e+00	-1.937472580451801e+01	 8.423021094474579e-01
 7.000357133767544e+00	-2.001112190757950e+01	 8.625429494198322e-01
 7.636753236844000e+00	-2.064751801064000e+01	 8.846930493941636e-01
 1.131370849870000e+00	-1.442497833623000e+01	 6.407536393307420e-01
 1.767766952940411e+00	-1.506137443929950e+01	 7.013844963827049e-01
 2.404163056011641e+00	-1.569777054236800e+01	 7.479605158743456e-01
 3.040559159083692e+00	-1.633416664543550e+01	 7.778012496724260e-01
 3.676955262156563e+00	-1.697056274850200e+01	 7.895762740835369e-01
 4.313351365230252e+00	-1.760695885156750e+01	 7.967631029074802e-01
 4.949747468304763e+00	-1.824335495463200e+01	 8.088779212647408e-01
 5.586143571380095e+00	-1.887975105769550e+01	 8.238620134909538e-01
 6.222539674456244e+00	-1.951614716075800e+01	 8.413984687178776e-01
 6.858935777533214e+00	-2.015254326381950e+01	 8.611704014657136e-01
 7.495331880611000e+00	-2.078893936688000e+01	 8.828609516402874e-01
 9.899494936300001e-01	-1.456639969247000e+01	 6.385413996800989e-01
 1.626345596700461e+00	-1.520279579553950e+01	 6.995514783849731e-01
 2.262741699771841e+00	-1.583919189860800e+01	 7.466443557610545e-01
 2.899137802844142e+00	-1.647558800167550e+01	 7.777944139079627e-01
 3.535533905917362e+00	-1.711198410474200e+01	 7.893341184183650e-01
 4.171930008991502e+00	-1.774838020780750e+01	 7.972835160788190e-01
 4.808326112066563e+00	-1.838477631087201e+01	 8.089997230817929e-01
 5.444722215142544e+00	-1.902117241393550e+01	 8.235945609182820e-01
 6.081118318219445e+00	-1.965756851699800e+01	 8.407511187350115e-01
 6.717514421297265e+00	-2.029396462005950e+01	 8.601525110670358e-01
 7.353910524375999e+00	-2.093036072312000e+01	 8.814818778349041e-01
 8.485281373900000e-01	-1.470782104871000e+01	 6.359986572174385e-01
 1.484924240460491e+00	-1.534421715177950e+01	 6.975144518829615e-01
 2.121320343531961e+00	-1.598061325484800e+01	 7.452506814512297e-01
 2.757716446604412e+00	-1.661700935791550e+01	 7.771817280218650e-01
 3.394112549677842e+00	-1.725340546098200e+01	 7.895506515538676e-01
 4.030508652752253e+00	-1.788980156404750e+01	 7.977616916460839e-01
 4.666904755827643e+00	-1.852619766711200e+01	 8.091776553499264e-01
 5.303300858904014e+00	-1.916259377017550e+01	 8.234816064360970e-01
 5.939696961981364e+00	-1.979898987323800e+01	 8.403566340663199e-01
 6.576093065059695e+00	-2.043538597629950e+01	 8.594858527905257e-01
 7.212489168138999e+00	-2.107178207936000e+01	 8.805524025440159e-01
 7.071067811500000e-01	-1.484924240495000e+01	 6.331029820453149e-01
 1.343502884220501e+00	-1.548563850801950e+01	 6.952509869792243e-01
 1.979898987292001e+00	-1.612203461108800e+01	 7.437570630474217e-01
 2.616295090364502e+00	-1.675843071415550e+01	 7.765955923495352e-01
 3.252691193438002e+00	-1.739482681722200e+01	 7.901943955106639e-01
 3.889087296512503e+00	-1.803122292028750e+01	 7.981942042402257e-01
 4.525483399588003e+00	-1.866761902335200e+01	 8.094082926993389e-01
 5.161879502664504e+00	-1.930401512641550e+01	 8.235197246738520e-01
 5.798275605742004e+00	-1.994041122947800e+01	 8.402115893405174e-01
 6.434671708820505e+00	-2.057680733253951e+01	 8.591670012641670e-01
 7.071067811900000e+00	-2.121320343560000e+01	 8.800691003948784e-01
-5.656854249500000e+00	-8.485281374200000e+00	 9.882958694680824e-02
-5.020458146439500e+00	-9.121677477279500e+00	 1.975566055473767e-01
-4.384062043378000e+00	-9.758073580358001e+00	 2.830924330870832e-01
-3.747665940315499e+00	-1.039446968343550e+01	 3.598107555588556e-01
-3.111269837252000e+00	-1.103086578651200e+01	 4.593582446195683e-01
-2.474873734187500e+00	-1.166726188958750e+01	 5.312739822515202e-01
-1.838477631122000e+00	-1.230365799266200e+01	 5.842881378327448e-01
-1.202081528055500e+00	-1.294005409573550e+01	 6.226252400493270e-01
-5.656854249880006e-01	-1.357645019880800e+01	 6.442596709998086e-01
 7.071067808049936e-02	-1.421284630187950e+01	 6.471658127828377e-01
 7.071067811500000e-01	-1.484924240495000e+01	 6.293180474971528e-01
-5.798275605740000e+00	-8.626702730440000e+00	 2.053307259272484e-01
-5.161879502675981e+00	-9.263098833519406e+00	 2.828423007685121e-01
-4.525483399611519e+00	-9.899494936597618e+00	 3.490500599198699e-01
-3.889087296546621e+00	-1.053589103967465e+01	 4.161252749596200e-01
-3.252691193481280e+00	-1.117228714275048e+01	 4.996362868823199e-01
-2.616295090415500e+00	-1.180868324582513e+01	 5.629908099509101e-01
-1.979898987349279e+00	-1.244507934889858e+01	 6.045606142805739e-01
-1.343502884282620e+00	-1.308147545197084e+01	 6.336080570739224e-01
-7.071067812155205e-01	-1.371787155504192e+01	 6.481075204296707e-01
-7.071067814798050e-02	-1.435426765811180e+01	 6.460333864466168e-01
 5.656854249200001e-01	-1.499066376118050e+01	 6.253600372236362e-01
-5.939696961980000e+00	-8.768124086679999e+00	 3.058513234944716e-01
-5.303300858912819e+00	-9.404520189759317e+00	 3.628377676064488e-01
-4.666904755845681e+00	-1.004091629283728e+01	 4.104077693439770e-01
-4.030508652778580e+00	-1.067731239591388e+01	 4.682578023738858e-01
-3.394112549711520e+00	-1.131370849898912e+01	 5.364520413248769e-01
-2.757716446644500e+00	-1.195010460206300e+01	 5.918274292824409e-01
-2.121320343577520e+00	-1.258650070513552e+01	 6.227019785905048e-01
-1.484924240510580e+00	-1.322289680820668e+01	 6.432088581905799e-01
-8.485281374436806e-01	-1.385929291127648e+01	 6.513224501815585e-01
-2.121320343768205e-01	-1.449568901434492e+01	 6.450171366623880e-01
 4.242640686900001e-01	-1.513208511741200e+01	 6.222672997320747e-01
-6.081118318220000e+00	-8.909545442920001e+00	 4.004085544912358e-01
-5.444722215150019e+00	-9.545941545999245e+00	 4.375601809068527e-01
-4.808326112080481e+00	-1.018233764907698e+01	 4.671827362079666e-01
-4.171930009011380e+00	-1.081873375215320e+01	 5.162139082888024e-01
-3.535533905942720e+00	-1.145512985522792e+01	 5.698110784343789e-01
-2.899137802874501e+00	-1.209152595830113e+01	 6.177614103486487e-01
-2.262741699806720e+00	-1.272792206137282e+01	 6.386898008650633e-01
-1.626345596739380e+00	-1.336431816444300e+01	 6.514052135018301e-01
-9.899494936724806e-01	-1.400071426751168e+01	 6.538820303580046e-01
-3.535533906060208e-01	-1.463711037057885e+01	 6.440946335326831e-01
 2.828427124600000e-01	-1.527350647364450e+01	 6.200174051250016e-01
-6.222539674460000e+00	-9.050966799160001e+00	 4.890195940661198e-01
-5.586143571387582e+00	-9.687362902239180e+00	 5.070267158212446e-01
-4.949747468315920e+00	-1.032375900531672e+01	 5.193921356662541e-01
-4.313351365245019e+00	-1.096015510839262e+01	 5.599991631915118e-01
-3.676955262174880e+00	-1.159655121146688e+01	 5.997189686979739e-01
-3.040559159105500e+00	-1.223294731453950e+01	 6.372602427433428e-01
-2.404163056036880e+00	-1.286934341761048e+01	 6.525016512067864e-01
-1.767766952969021e+00	-1.350573952067982e+01	 6.581746931102074e-01
-1.131370849901921e+00	-1.414213562374752e+01	 6.557638310615412e-01
-4.949747468355806e-01	-1.477853172681358e+01	 6.432434471600325e-01
 1.414213562300000e-01	-1.541492782987800e+01	 6.185879235049505e-01
-6.363961030700001e+00	-9.192388155400000e+00	 5.717016176735420e-01
-5.727564927625500e+00	-9.828784258479125e+00	 5.712545478069759e-01
-5.091168824552001e+00	-1.046518036155650e+01	 5.730842003431433e-01
-4.454772721479500e+00	-1.110157646463213e+01	 5.996191375691571e-01
-3.818376618408000e+00	-1.173797256770600e+01	 6.261812826028001e-01
-3.181980515337500e+00	-1.237436867077813e+01	 6.525305854072622e-01
-2.545584412268001e+00	-1.301076477384850e+01	 6.641150997182048e-01
-1.909188309199501e+00	-1.364716087691713e+01	 6.634948671182428e-01
-1.272792206132001e+00	-1.428355697998400e+01	 6.569454223946996e-01
-6.363961030655005e-01	-1.491995308304912e+01	 6.424411476469648e-01
-5.551115123125783e-17	-1.555634918611250e+01	 6.179564249744469e-01
-6.505382386939999e+00	-9.333809511640000e+00	 6.484718010737598e-01
-5.868986283863780e+00	-9.970205614719079e+00	 6.302608526272603e-01
-5.232590180788718e+00	-1.060660171779632e+01	 6.229481102211448e-01
-4.596194077714820e+00	-1.124299782087172e+01	 6.350794019088774e-01
-3.959797974642079e+00	-1.187939392394528e+01	 6.492035906360060e-01
-3.323401871570500e+00	-1.251579002701700e+01	 6.650806263658888e-01
-2.687005768500080e+00	-1.315218613008688e+01	 6.735077165018553e-01
-2.050609665430820e+00	-1.378858223315492e+01	 6.673433056284707e-01
-1.414213562362721e+00	-1.442497833622112e+01	 6.574043744600118e-01
-7.778174592957803e-01	-1.506137443928548e+01	 6.416653050960116e-01
-1.414213562300000e-01	-1.569777054234800e+01	 6.181004796360172e-01
-6.646803743180000e+00	-9.475230867880001e+00	 7.193473203328813e-01
-6.010407640102420e+00	-1.011162697095905e+01	 6.840628063511663e-01
-5.374011537026081e+00	-1.074802307403618e+01	 6.679381763820972e-01
-4.737615433950979e+00	-1.138441917711140e+01	 6.663855266978125e-01
-4.101219330877120e+00	-1.202081528018472e+01	 6.687914632847314e-01
-3.464823227804500e+00	-1.265721138325613e+01	 6.749159361063716e-01
-2.828427124733120e+00	-1.329360748632562e+01	 6.806570716602692e-01
-2.192031021662980e+00	-1.393000358939320e+01	 6.696975787434263e-01
-1.555634918594080e+00	-1.456639969245888e+01	 6.571182573600106e-01
-9.192388155264207e-01	-1.520279579552265e+01	 6.408934896096998e-01
-2.828427124599999e-01	-1.583919189858450e+01	 6.189976575921819e-01
-6.788225099420000e+00	-9.616652224119999e+00	 7.843453518228721e-01
-6.151828996341420e+00	-1.025304832719902e+01	 7.326775853536359e-01
-5.515432893264080e+00	-1.088944443027608e+01	 7.080599693131315e-01
-4.879036790187981e+00	-1.152584053335118e+01	 6.935430824231004e-01
-4.242640687113120e+00	-1.216223663642432e+01	 6.849504710361237e-01
-3.606244584039500e+00	-1.279863273949550e+01	 6.820420851158566e-01
-2.969848480967120e+00	-1.343502884256472e+01	 6.845778746259621e-01
-2.333452377895981e+00	-1.407142494563198e+01	 6.705352565656461e-01
-1.697056274826081e+00	-1.470782104869728e+01	 6.560646411972296e-01
-1.060660171757421e+00	-1.534421715176062e+01	 6.401032712905580e-01
-4.242640686899999e-01	-1.598061325482200e+01	 6.206255289454623e-01
-6.929646455659999e+00	-9.758073580360000e+00	 8.434830722215646e-01
-6.293250352580780e+00	-1.039446968343901e+01	 7.782104942020445e-01
-5.656854249502720e+00	-1.103086578651602e+01	 7.433190595013667e-01
-5.020458146425820e+00	-1.166726188959105e+01	 7.165576395718729e-01
-4.384062043350080e+00	-1.230365799266408e+01	 6.976861843773239e-01
-3.747665940275500e+00	-1.294005409573513e+01	 6.864646438814952e-01
-3.111269837202080e+00	-1.357645019880418e+01	 6.826529680481743e-01
-2.474873734129820e+00	-1.421284630187124e+01	 6.698339091976664e-01
-1.838477631058721e+00	-1.484924240493632e+01	 6.542210960742026e-01
-1.202081527988781e+00	-1.548563850799941e+01	 6.392722202411123e-01
-5.656854249199998e-01	-1.612203461106050e+01	 6.229616637983744e-01
-7.071067811900000e+00	-9.899494936600000e+00	 8.967776585126621e-01
-6.434671708820501e+00	-1.053589103967900e+01	 8.221029702395980e-01
-5.798275605742001e+00	-1.117228714275600e+01	 7.737210174339227e-01
-5.161879502664499e+00	-1.180868324583100e+01	 7.354347686312664e-01
-4.525483399588000e+00	-1.244507934890400e+01	 7.070041737954780e-01
-3.889087296512500e+00	-1.308147545197500e+01	 6.881891828904378e-01
-3.252691193438000e+00	-1.371787155504400e+01	 6.787497458800412e-01
-2.616295090364500e+00	-1.435426765811100e+01	 6.675711067420241e-01
-1.979898987292001e+00	-1.499066376117600e+01	 6.515651920934615e-01
-1.343502884220501e+00	-1.562705986423900e+01	 6.383779065638884e-01
-7.071067811500000e-01	-1.626345596730000e+01	 6.259836322534332e-01
 7.071067811500000e-01	-1.484924240495000e+01	 6.293180474971528e-01
 1.343502884220501e+00	-1.548563850801950e+01	 6.924372660436291e-01
 1.979898987292001e+00	-1.612203461108800e+01	 7.417828401346402e-01
 2.616295090364502e+00	-1.675843071415550e+01	 7.753291518694322e-01
 3.252691193438002e+00	-1.739482681722200e+01	 7.895040218727616e-01
 3.889087296512503e+00	-1.803122292028750e+01	 7.979481818537352e-01
 4.525483399588003e+00	-1.866761902335200e+01	 8.094749059731883e-01
 5.161879502664504e+00	-1.930401512641550e+01	 8.237672580167219e-01
 5.798275605742004e+00	-1.994041122947800e+01	 8.405083271608706e-01
 6.434671708820505e+00	-2.057680733253951e+01	 8.593812279702808e-01
 7.071067811900000e+00	-2.121320343560000e+01	 8.800691003948784e-01
 5.656854249200001e-01	-1.499066376118050e+01	 6.253600372236362e-01
 1.202081527988781e+00	-1.562705986424839e+01	 6.906822144574465e-01
 1.838477631058721e+00	-1.626345596731585e+01	 7.420462013234456e-01
 2.474873734129822e+00	-1.689985207038287e+01	 7.774263799209077e-01
 3.111269837202081e+00	-1.753624817344946e+01	 7.931572601663202e-01
 3.747665940275503e+00	-1.817264427651563e+01	 8.016440827897160e-01
 4.384062043350083e+00	-1.880904037958136e+01	 8.129006431099217e-01
 5.020458146425825e+00	-1.944543648264667e+01	 8.266100049277505e-01
 5.656854249502726e+00	-2.008183258571155e+01	 8.424552574348383e-01
 6.293250352580785e+00	-2.071822868877599e+01	 8.601195152108013e-01
 6.929646455660000e+00	-2.135462479184000e+01	 8.792859182204159e-01
 4.242640686900001e-01	-1.513208511741200e+01	 6.222672997320747e-01
 1.060660171757421e+00	-1.576848122047844e+01	 6.897123301388649e-01
 1.697056274826081e+00	-1.640487732354496e+01	 7.430146242655161e-01
 2.333452377895981e+00	-1.704127342661157e+01	 7.801485642113294e-01
 2.969848480967123e+00	-1.767766952967824e+01	 7.970962824618119e-01
 3.606244584039502e+00	-1.831406563274500e+01	 8.055175363742885e-01
 4.242640687113123e+00	-1.895046173581185e+01	 8.163957011261667e-01
 4.879036790187984e+00	-1.958685783887877e+01	 8.294138405335058e-01
 5.515432893264084e+00	-2.022325394194577e+01	 8.442550438030574e-01
 6.151828996341423e+00	-2.085965004501285e+01	 8.606024255294352e-01
 6.788225099420000e+00	-2.149604614808000e+01	 8.781391256922901e-01
 2.828427124600000e-01	-1.527350647364450e+01	 6.200174051250016e-01
 9.192388155264208e-01	-1.590990257670967e+01	 6.895051831904242e-01
 1.555634918594082e+00	-1.654629867977537e+01	 7.446656790633932e-01
 2.192031021662982e+00	-1.718269478284158e+01	 7.834732748432396e-01
 2.828427124733122e+00	-1.781909088590835e+01	 8.002962818863977e-01
 3.464823227804503e+00	-1.845548698897563e+01	 8.095651174221554e-01
 4.101219330877122e+00	-1.909188309204344e+01	 8.199566548358785e-01
 4.737615433950984e+00	-1.972827919511179e+01	 8.321753396471934e-01
 5.374011537026083e+00	-2.036467529818066e+01	 8.459042610779932e-01
 6.010407640102425e+00	-2.100107140125007e+01	 8.608265337379143e-01
 6.646803743180000e+00	-2.163746750432000e+01	 8.766252976215065e-01
 1.414213562300000e-01	-1.541492782987800e+01	 6.185879235049505e-01
 7.778174592957806e-01	-1.605132393294206e+01	 6.900383437146554e-01
 1.414213562362721e+00	-1.668772003600704e+01	 7.469769358196147e-01
 2.050609665430821e+00	-1.732411613907294e+01	 7.858169921600504e-01
 2.687005768500082e+00	-1.796051224213976e+01	 8.032129868126746e-01
 3.323401871570503e+00	-1.859690834520751e+01	 8.137834008092718e-01
 3.959797974642083e+00	-1.923330444827617e+01	 8.235800791142605e-01
 4.596194077714824e+00	-1.986970055134574e+01	 8.348910771432709e-01
 5.232590180788724e+00	-2.050609665441624e+01	 8.473994841333637e-01
 5.868986283863785e+00	-2.114249275748767e+01	 8.607884147092212e-01
 6.505382386939999e+00	-2.177888886056000e+01	 8.747410088803153e-01
-5.551115123125783e-17	-1.555634918611250e+01	 6.179564249744469e-01
 6.363961030655007e-01	-1.619274528917563e+01	 6.912893818140945e-01
 1.272792206132001e+00	-1.682914139224000e+01	 7.499259646367211e-01
 1.909188309199502e+00	-1.746553749530563e+01	 7.872318740076858e-01
 2.545584412268002e+00	-1.810193359837250e+01	 8.060896062394938e-01
 3.181980515337503e+00	-1.873832970144063e+01	 8.181689614728488e-01
 3.818376618408003e+00	-1.937472580451001e+01	 8.272625488977681e-01
 4.454772721479504e+00	-2.001112190758063e+01	 8.375576279574466e-01
 5.091168824552003e+00	-2.064751801065250e+01	 8.487372879041351e-01
 5.727564927625505e+00	-2.128391411372563e+01	 8.604846433775821e-01
 6.363961030700000e+00	-2.192031021680000e+01	 8.724828344022096e-01
-1.414213562300000e-01	-1.569777054234800e+01	 6.181004796360172e-01
 4.949747468355807e-01	-1.633416664541036e+01	 6.932358675912714e-01
 1.131370849901921e+00	-1.697056274847424e+01	 7.534903356172513e-01
 1.767766952969022e+00	-1.760695885153964e+01	 7.887560634345702e-01
 2.404163056036882e+00	-1.824335495460656e+01	 8.089422262107422e-01
 3.040559159105503e+00	-1.887975105767500e+01	 8.227183744113457e-01
 3.676955262174884e+00	-1.951614716074497e+01	 8.310006391841083e-01
 4.313351365245023e+00	-2.015254326381645e+01	 8.401715670866768e-01
 4.949747468315924e+00	-2.078893936688944e+01	 8.499142473865181e-01
 5.586143571387584e+00	-2.142533546996396e+01	 8.599117947384706e-01
 6.222539674460000e+00	-2.206173157304000e+01	 8.698473491819275e-01
-2.828427124599999e-01	-1.583919189858450e+01	 6.189976575921819e-01
 3.535533906060208e-01	-1.647558800164627e+01	 6.958553711487170e-01
 9.899494936724811e-01	-1.711198410470976e+01	 7.576476188637387e-01
 1.626345596739382e+00	-1.774838020777499e+01	 7.904056462441380e-01
 2.262741699806722e+00	-1.838477631084194e+01	 8.117869324917220e-01
 2.899137802874503e+00	-1.902117241391062e+01	 8.270686362455995e-01
 3.535533905942723e+00	-1.965756851698104e+01	 8.347909250322325e-01
 4.171930009011385e+00	-2.029396462005319e+01	 8.427294695891679e-01
 4.808326112080485e+00	-2.093036072312707e+01	 8.509269376379722e-01
 5.444722215150025e+00	-2.156675682620267e+01	 8.590664438486039e-01
 6.081118318220000e+00	-2.220315292928000e+01	 8.668311282754483e-01
-4.242640686899999e-01	-1.598061325482200e+01	 6.206255289454623e-01
 2.121320343768205e-01	-1.661700935788334e+01	 6.991254625889561e-01
 8.485281374436814e-01	-1.725340546094656e+01	 7.620031197576270e-01
 1.484924240510582e+00	-1.788980156401166e+01	 7.921967079612434e-01
 2.121320343577522e+00	-1.852619766707864e+01	 8.146398105691606e-01
 2.757716446644503e+00	-1.916259377014750e+01	 8.305388080522993e-01
 3.394112549711524e+00	-1.979898987321825e+01	 8.386299815623450e-01
 4.030508652778584e+00	-2.043538597629087e+01	 8.452279105843657e-01
 4.666904755845684e+00	-2.107178207936536e+01	 8.517719337771981e-01
 5.303300858912825e+00	-2.170817818244174e+01	 8.579451658259395e-01
 5.939696961979999e+00	-2.234457428552000e+01	 8.634307467999930e-01
-5.656854249199998e-01	-1.612203461106050e+01	 6.229616637983744e-01
 7.071067814798078e-02	-1.675843071412158e+01	 7.030237120145201e-01
 7.071067812155212e-01	-1.739482681718464e+01	 7.625787147803170e-01
 1.343502884282622e+00	-1.803122292024967e+01	 7.941453338321680e-01
 1.979898987349282e+00	-1.866761902331666e+01	 8.175169456512197e-01
 2.616295090415503e+00	-1.930401512638563e+01	 8.338999314803216e-01
 3.252691193481284e+00	-1.994041122945656e+01	 8.425143839558911e-01
 3.889087296546624e+00	-2.057680733252947e+01	 8.476634652529629e-01
 4.525483399611524e+00	-2.121320343560434e+01	 8.524458109841393e-01
 5.161879502675985e+00	-2.184959953868119e+01	 8.565445358496755e-01
 5.798275605740000e+00	-2.248599564176000e+01	 8.596427799340169e-01
-7.071067811500000e-01	-1.626345596730000e+01	 6.259836322534332e-01
-7.071067808049947e-02	-1.689985207036100e+01	 7.075276895279267e-01
 5.656854249880012e-01	-1.753624817342401e+01	 7.634612678778459e-01
 1.202081528055502e+00	-1.817264427648900e+01	 7.962676088246196e-01
 1.838477631122002e+00	-1.880904037955600e+01	 8.204344226674977e-01
 2.474873734187503e+00	-1.944543648262501e+01	 8.371680914211249e-01
 3.111269837252004e+00	-2.008183258569601e+01	 8.464407074555594e-01
 3.747665940315504e+00	-2.071822868876900e+01	 8.500327088368964e-01
 4.384062043378004e+00	-2.135462479184401e+01	 8.529451444999807e-01
 5.020458146439505e+00	-2.199102089492100e+01	 8.548611291602515e-01
 5.656854249500000e+00	-2.262741699800000e+01	 8.554638029172184e-01
-7.071067811900000e+00	-9.899494936600000e+00	 1.106561141097083e+00
-6.434671708820501e+00	-1.053589103967900e+01	 9.787322763656978e-01
-5.798275605742001e+00	-1.117228714275600e+01	 8.833470701498239e-01
-5.161879502664499e+00	-1.180868324583100e+01	 8.042084909852835e-01
-4.525483399588000e+00	-1.244507934890400e+01	 7.410764888360667e-01
-3.889087296512500e+00	-1.308147545197500e+01	 6.937110136661473e-01
-3.252691193438000e+00	-1.371787155504400e+01	 6.618720154394755e-01
-2.616295090364500e+00	-1.435426765811100e+01	 6.344447381337893e-01
-1.979898987292001e+00	-1.499066376117600e+01	 6.083411083661174e-01
-1.343502884220501e+00	-1.562705986423900e+01	 5.912070307659106e-01
-7.071067811500000e-01	-1.626345596730000e+01	 5.810168874331580e-01
-7.353910524361001e+00	-1.018233764907950e+01	 1.124049367750450e+00
-6.717514421285019e+00	-1.081873375215508e+01	 1.007827608068641e+00
-6.081118318209668e+00	-1.145512985522920e+01	 9.131862331714370e-01
-5.444722215134957e+00	-1.209152595830190e+01	 8.346297588035383e-01
-4.808326112060879e+00	-1.272792206137314e+01	 7.719181349288659e-01
-4.171930008987438e+00	-1.336431816444294e+01	 7.248113115113188e-01
-3.535533905914630e+00	-1.400071426751129e+01	 6.930692385147768e-01
-2.899137802842458e+00	-1.463711037057820e+01	 6.751616107022453e-01
-2.262741699770921e+00	-1.527350647364366e+01	 6.515261916856575e-01
-1.626345596700018e+00	-1.590990257670768e+01	 6.370766035063189e-01
-9.899494936297502e-01	-1.654629867977025e+01	 6.297872282641426e-01
-7.636753236823999e+00	-1.046518036155800e+01	 1.146411087502496e+00
-7.000357133750970e+00	-1.110157646463071e+01	 1.036166072168163e+00
-6.363961030678278e+00	-1.173797256770244e+01	 9.420842808771800e-01
-5.727564927605931e+00	-1.237436867077319e+01	 8.639256635934163e-01
-5.091168824533921e+00	-1.301076477384296e+01	 8.014501702807215e-01
-4.454772721462251e+00	-1.364716087691175e+01	 7.544177509029302e-01
-3.818376618390920e+00	-1.428355697997956e+01	 7.225883554238590e-01
-3.181980515319930e+00	-1.491995308304639e+01	 7.057219338073031e-01
-2.545584412249280e+00	-1.555634918611224e+01	 6.912348623977744e-01
-1.909188309178971e+00	-1.619274528917711e+01	 6.794030841809597e-01
-1.272792206109000e+00	-1.682914139224100e+01	 6.749477975710056e-01
-7.919595949289000e+00	-1.074802307403550e+01	 1.173500185480078e+00
-7.283199846218357e+00	-1.138441917710590e+01	 1.063792232561589e+00
-6.646803743147832e+00	-1.202081528017569e+01	 9.700857771643653e-01
-6.010407640077417e+00	-1.265721138324488e+01	 8.921407692522121e-01
-5.374011537007120e+00	-1.329360748631346e+01	 8.297171587889220e-01
-4.737615433936939e+00	-1.393000358938144e+01	 7.825748957382693e-01
-4.101219330866870e+00	-1.456639969244881e+01	 7.504739300640098e-01
-3.464823227796918e+00	-1.520279579551558e+01	 7.331742117298876e-01
-2.828427124727081e+00	-1.583919189858174e+01	 7.272876813229092e-01
-2.192031021657359e+00	-1.647558800164730e+01	 7.180070336102822e-01
-1.555634918587750e+00	-1.711198410471225e+01	 7.163191561742206e-01
-8.202438661756000e+00	-1.103086578651200e+01	 1.200105791361310e+00
-7.566042558687179e+00	-1.166726188958064e+01	 1.090750653146247e+00
-6.929646455618319e+00	-1.230365799264896e+01	 9.972352859303028e-01
-6.293250352549419e+00	-1.294005409571696e+01	 9.193196396772290e-01
-5.656854249480480e+00	-1.357645019878464e+01	 8.567636643507622e-01
-5.020458146411500e+00	-1.421284630185200e+01	 8.093273099146235e-01
-4.384062043342481e+00	-1.484924240491904e+01	 7.767705263325222e-01
-3.747665940273421e+00	-1.548563850798576e+01	 7.588532635681486e-01
-3.111269837204321e+00	-1.612203461105216e+01	 7.553354715851833e-01
-2.474873734135181e+00	-1.675843071411824e+01	 7.527090126147393e-01
-1.838477631066000e+00	-1.739482681718400e+01	 7.478034547896701e-01
-8.485281374225000e+00	-1.131370849898750e+01	 1.226272469043548e+00
-7.848885271157438e+00	-1.195010460205494e+01	 1.117085897819471e+00
-7.212489168089751e+00	-1.258650070512225e+01	 1.023577371072312e+00
-6.576093065021938e+00	-1.322289680818944e+01	 9.455068387657739e-01
-5.939696961954001e+00	-1.385929291125650e+01	 8.826342508635403e-01
-5.303300858885938e+00	-1.449568901432344e+01	 8.347195573292916e-01
-4.666904755817749e+00	-1.513208511739025e+01	 8.015227081266890e-01
-4.030508652749438e+00	-1.576848122045694e+01	 7.828036532193848e-01
-3.394112549681001e+00	-1.640487732352350e+01	 7.783223425710168e-01
-2.757716446612438e+00	-1.704127342658994e+01	 7.833295820147781e-01
-2.121320343543750e+00	-1.767766952965625e+01	 7.708718273252615e-01
-8.768124086695998e+00	-1.159655121146200e+01	 1.252044782424143e+00
-8.131727983629130e+00	-1.223294731452879e+01	 1.142842530478598e+00
-7.495331880562119e+00	-1.286934341759556e+01	 1.049156596487717e+00
-6.858935777494969e+00	-1.350573952066231e+01	 9.707469304151556e-01
-6.222539674427680e+00	-1.414213562372904e+01	 9.073734822245606e-01
-5.586143571360251e+00	-1.477853172679575e+01	 8.587962018795703e-01
-4.949747468292680e+00	-1.541492782986244e+01	 8.247750393438081e-01
-4.313351365224970e+00	-1.605132393292911e+01	 8.050699445808943e-01
-3.676955262157120e+00	-1.668772003599576e+01	 7.994408675544318e-01
-3.040559159089129e+00	-1.732411613906239e+01	 8.050427589839637e-01
-2.404163056021000e+00	-1.796051224212900e+01	 7.908582476048109e-01
-9.050966799169000e+00	-1.187939392393550e+01	 1.285489111710284e+00
-8.414570696102256e+00	-1.251579002700219e+01	 1.168065115020974e+00
-7.778174593035430e+00	-1.315218613006889e+01	 1.074017526073844e+00
-7.141778489968517e+00	-1.378858223313558e+01	 9.950844785226918e-01
-6.505382386901521e+00	-1.442497833620226e+01	 9.310259223311301e-01
-5.868986283834437e+00	-1.506137443926894e+01	 8.816018074627616e-01
-5.232590180767270e+00	-1.569777054233561e+01	 8.465720838811805e-01
-4.596194077700019e+00	-1.633416664540228e+01	 8.256967015499779e-01
-3.959797974632680e+00	-1.697056274846894e+01	 8.187356104327312e-01
-3.323401871565258e+00	-1.760695885153560e+01	 8.149144757168052e-01
-2.687005768497750e+00	-1.824335495460225e+01	 8.078913684296493e-01
-9.333809511644001e+00	-1.216223663640800e+01	 1.318477191823354e+00
-8.697413408576820e+00	-1.279863273947516e+01	 1.192798215343945e+00
-8.061017305509679e+00	-1.343502884254224e+01	 1.098204723728026e+00
-7.424621202442578e+00	-1.407142494560924e+01	 1.018564046985704e+00
-6.788225099375520e+00	-1.470782104867616e+01	 9.536361350805598e-01
-6.151828996308501e+00	-1.534421715174300e+01	 9.031809379761698e-01
-5.515432893241520e+00	-1.598061325480976e+01	 8.669584056361066e-01
-4.879036790174580e+00	-1.661700935787644e+01	 8.447284880239361e-01
-4.242640687107681e+00	-1.725340546094304e+01	 8.359874303268845e-01
-3.606244584040820e+00	-1.788980156400956e+01	 8.243260422691506e-01
-2.969848480974000e+00	-1.852619766707600e+01	 8.216107324153117e-01
-9.616652224120999e+00	-1.244507934887950e+01	 1.348937699063665e+00
-8.980256121052818e+00	-1.308147545194768e+01	 1.221915566844292e+00
-8.343860017984870e+00	-1.371787155501561e+01	 1.121762753347601e+00
-7.707463914917157e+00	-1.435426765808330e+01	 1.041230199701516e+00
-7.071067811849680e+00	-1.499066376115074e+01	 9.752486843701668e-01
-6.434671708782437e+00	-1.562705986421794e+01	 9.235781573171067e-01
-5.798275605715430e+00	-1.626345596728489e+01	 8.859785685058921e-01
-5.161879502648659e+00	-1.689985207035160e+01	 8.622098679000721e-01
-4.525483399582120e+00	-1.753624817341806e+01	 8.459892223669997e-01
-3.889087296515818e+00	-1.817264427648427e+01	 8.332001522199688e-01
-3.252691193449750e+00	-1.880904037955025e+01	 8.294010801167555e-01
-9.899494936600000e+00	-1.272792206135000e+01	 1.377001001852928e+00
-9.263098833530250e+00	-1.336431816441975e+01	 1.252812388082949e+00
-8.626702730461000e+00	-1.400071426748900e+01	 1.144736178829911e+00
-7.990306627392250e+00	-1.463711037055775e+01	 1.063127500567461e+00
-7.353910524324001e+00	-1.527350647362600e+01	 9.959081340972704e-01
-6.717514421256251e+00	-1.590990257669375e+01	 9.428380293828833e-01
-6.081118318189000e+00	-1.654629867976100e+01	 9.036771363878423e-01
-5.444722215122251e+00	-1.718269478282775e+01	 8.781854050756894e-01
-4.808326112056001e+00	-1.781909088589400e+01	 8.555478555426377e-01
-4.171930008990251e+00	-1.845548698895975e+01	 8.414595016732029e-01
-3.535533905925000e+00	-1.909188309202500e+01	 8.364050622177017e-01
-7.071067811500000e-01	-1.626345596730000e+01	 5.810168874331580e-01
-7.071067808049947e-02	-1.689985207036100e+01	 6.677622454112809e-01
 5.656854249880012e-01	-1.753624817342401e+01	 7.287405408590096e-01
 1.202081528055502e+00	-1.817264427648900e+01	 7.664350152983725e-01
 1.838477631122002e+00	-1.880904037955600e+01	 7.953333790290872e-01
 2.474873734187503e+00	-1.944543648262501e+01	 8.166420140661277e-01
 3.111269837252004e+00	-2.008183258569601e+01	 8.303330127797452e-01
 3.747665940315504e+00	-2.071822868876900e+01	 8.381868132360903e-01
 4.384062043378004e+00	-2.135462479184401e+01	 8.452044643699269e-01
 5.020458146439505e+00	-2.199102089492100e+01	 8.510690808964747e-01
 5.656854249500000e+00	-2.262741699800000e+01	 8.554638029148891e-01
-9.899494936297502e-01	-1.654629867977025e+01	 6.297872282641426e-01
-3.535533905602919e-01	-1.718269478283282e+01	 7.096697793990721e-01
 2.828427125081811e-01	-1.781909088589684e+01	 7.543762066740742e-01
 9.192388155756690e-01	-1.845548698896230e+01	 7.871631712628244e-01
 1.555634918642173e+00	-1.909188309202921e+01	 8.115647315929577e-01
 2.192031021707690e+00	-1.972827919509756e+01	 8.287872712225863e-01
 2.828427124772224e+00	-2.036467529816737e+01	 8.400370733839078e-01
 3.464823227835772e+00	-2.100107140123861e+01	 8.436602909905415e-01
 4.101219330898336e+00	-2.163746750431130e+01	 8.461251020084790e-01
 4.737615433959914e+00	-2.227386360738543e+01	 8.481109577919768e-01
 5.374011537020500e+00	-2.291025971046100e+01	 8.493009984703085e-01
-1.272792206109000e+00	-1.682914139224100e+01	 6.749477975710056e-01
-6.363961030396696e-01	-1.746553749530489e+01	 7.396332019499335e-01
 2.872141782218895e-11	-1.810193359836977e+01	 7.769724224685508e-01
 6.363961030961716e-01	-1.873832970143562e+01	 8.051304668050437e-01
 1.272792206162682e+00	-1.937472580450244e+01	 8.253138203965452e-01
 1.909188309228253e+00	-2.001112190757025e+01	 8.387288683438208e-01
 2.545584412292884e+00	-2.064751801063904e+01	 8.465818954226279e-01
 3.181980515356574e+00	-2.128391411370881e+01	 8.484262627568658e-01
 3.818376618419324e+00	-2.192031021677956e+01	 8.467171290923395e-01
 4.454772721481136e+00	-2.255670631985130e+01	 8.452031179038324e-01
 5.091168824542001e+00	-2.319310242292400e+01	 8.435673693508511e-01
-1.555634918587750e+00	-1.711198410471225e+01	 7.163191561742206e-01
-9.192388155186317e-01	-1.774838020777720e+01	 7.640796877366102e-01
-2.828427124503789e-01	-1.838477631084277e+01	 7.966578582610355e-01
 3.535533906170091e-01	-1.902117241390892e+01	 8.204655716391104e-01
 9.899494936835319e-01	-1.965756851697570e+01	 8.367093148492196e-01
 1.626345596749190e+00	-2.029396462004307e+01	 8.465954745342865e-01
 2.262741699813983e+00	-2.093036072311104e+01	 8.513303370131533e-01
 2.899137802877912e+00	-2.156675682617963e+01	 8.521200882919575e-01
 3.535533905940974e+00	-2.220315292924882e+01	 8.469531497554936e-01
 4.171930009003173e+00	-2.283954903231861e+01	 8.423181653600184e-01
 4.808326112064499e+00	-2.347594513538900e+01	 8.382355196785337e-01
-1.838477631066000e+00	-1.739482681718400e+01	 7.478034547896701e-01
-1.202081527997179e+00	-1.803122292024976e+01	 7.854654771576131e-01
-5.656854249291188e-01	-1.866761902331584e+01	 8.135611796135863e-01
 7.071067813818174e-02	-1.930401512638224e+01	 8.332971510226721e-01
 7.071067812047221e-01	-1.994041122944897e+01	 8.458798799040171e-01
 1.343502884270503e+00	-2.057680733251600e+01	 8.525157544422244e-01
 1.979898987335523e+00	-2.121320343558337e+01	 8.544110624987217e-01
 2.616295090399784e+00	-2.184959953865105e+01	 8.527719916231525e-01
 3.252691193463285e+00	-2.248599564171905e+01	 8.468057691116342e-01
 3.889087296526025e+00	-2.312239174478736e+01	 8.394287052681950e-01
 4.525483399588000e+00	-2.375878784785600e+01	 8.332780545550338e-01
-2.121320343543750e+00	-1.767766952965625e+01	 7.708718273252615e-01
-1.484924240475312e+00	-1.831406563272256e+01	 8.039192316227872e-01
-8.485281374074984e-01	-1.895046173578900e+01	 8.278110476319405e-01
-2.121320343403107e-01	-1.958685783885556e+01	 8.437538657571633e-01
 4.242640687262521e-01	-2.022325394192225e+01	 8.529541760578790e-01
 1.060660171792190e+00	-2.085965004498907e+01	 8.566183682598734e-01
 1.697056274857503e+00	-2.149604614805600e+01	 8.559527317666791e-01
 2.333452377922192e+00	-2.213244225112307e+01	 8.521634556709538e-01
 2.969848480986254e+00	-2.276883835419026e+01	 8.462475932541115e-01
 3.606244584049692e+00	-2.340523445725757e+01	 8.365073437156574e-01
 4.242640687112500e+00	-2.404163056032500e+01	 8.286675800616413e-01
-2.404163056021000e+00	-1.796051224212900e+01	 7.908582476048109e-01
-1.767766952953029e+00	-1.859690834519561e+01	 8.195696080857627e-01
-1.131370849885519e+00	-1.923330444826224e+01	 8.395361189657302e-01
-4.949747468184682e-01	-1.986970055132889e+01	 8.519643721880230e-01
 1.414213562481222e-01	-2.050609665439557e+01	 8.580608593518486e-01
 7.778174593142529e-01	-2.114249275746225e+01	 8.590319717236924e-01
 1.414213562379924e+00	-2.177888886052897e+01	 8.560840002486989e-01
 2.050609665445134e+00	-2.241528496359569e+01	 8.504231355620487e-01
 2.687005768509884e+00	-2.305168106666244e+01	 8.432554680003410e-01
 3.323401871574176e+00	-2.368807716972922e+01	 8.335266877692898e-01
 3.959797974638000e+00	-2.432447327279600e+01	 8.309167853346096e-01
-2.687005768497750e+00	-1.824335495460225e+01	 8.078913684296493e-01
-2.050609665430331e+00	-1.887975105766890e+01	 8.325452590441773e-01
-1.414213562363179e+00	-1.951614716073556e+01	 8.488650458087013e-01
-7.778174592962905e-01	-2.015254326380223e+01	 8.580573222049097e-01
-1.414213562296678e-01	-2.078893936686890e+01	 8.613285813713056e-01
 4.949747468366905e-01	-2.142533546993557e+01	 8.598852161145796e-01
 1.131370849902783e+00	-2.206173157300224e+01	 8.549335189209954e-01
 1.767766952968612e+00	-2.269812767606893e+01	 8.476796819677710e-01
 2.404163056034175e+00	-2.333452377913562e+01	 8.393297971344512e-01
 3.040559159099473e+00	-2.397091988220231e+01	 8.304593454755141e-01
 3.676955262164500e+00	-2.460731598526900e+01	 8.374265030683412e-01
-2.969848480974000e+00	-1.852619766707600e+01	 8.216107324153117e-01
-2.333452377907219e+00	-1.916259377014244e+01	 8.429748325398886e-01
-1.697056274840479e+00	-1.979898987320897e+01	 8.559264758989295e-01
-1.060660171773778e+00	-2.043538597627557e+01	 8.621613632419234e-01
-4.242640687071176e-01	-2.107178207934225e+01	 8.628859892461713e-01
 2.121320343595030e-01	-2.170817818240900e+01	 8.593067482580823e-01
 8.485281374260834e-01	-2.234457428547584e+01	 8.526299343045483e-01
 1.484924240492624e+00	-2.298097038854276e+01	 8.440617411043261e-01
 2.121320343559125e+00	-2.361736649160976e+01	 8.348082620794173e-01
 2.757716446625585e+00	-2.425376259467685e+01	 8.307332989133351e-01
 3.394112549692001e+00	-2.489015869774400e+01	 8.449223698285694e-01
-3.252691193449750e+00	-1.880904037955025e+01	 8.294010801167555e-01
-2.616295090383692e+00	-1.944543648261622e+01	 8.509869721591981e-01
-1.979898987317418e+00	-2.008183258568244e+01	 8.608490525190434e-01
-1.343502884250930e+00	-2.071822868874890e+01	 8.644051382778188e-01
-7.071067811842275e-01	-2.135462479181561e+01	 8.628617256511354e-01
-7.071067811730961e-02	-2.199102089488256e+01	 8.574252105246234e-01
 5.656854249498237e-01	-2.262741699794977e+01	 8.493018884653085e-01
 1.202081528017172e+00	-2.326381310101721e+01	 8.396979547330010e-01
 1.838477631084735e+00	-2.390020920408489e+01	 8.298195042916590e-01
 2.474873734152513e+00	-2.453660530715283e+01	 8.373549606271626e-01
 3.111269837220500e+00	-2.517300141022100e+01	 8.533858014850084e-01
-3.535533905925000e+00	-1.909188309202500e+01	 8.364050622177017e-01
-2.899137802859750e+00	-1.972827919509026e+01	 8.567103170330581e-01
-2.262741699793998e+00	-2.036467529815600e+01	 8.637614144964305e-01
-1.626345596727748e+00	-2.100107140122225e+01	 8.649172858362237e-01
-9.899494936609978e-01	-2.163746750428901e+01	 8.613844288058651e-01
-3.535533905937472e-01	-2.227386360735625e+01	 8.543692408297110e-01
 2.828427124740034e-01	-2.291025971042401e+01	 8.450780190144306e-01
 9.192388155422540e-01	-2.354665581349225e+01	 8.347169601603861e-01
 1.555634918611005e+00	-2.418305191656101e+01	 8.264785099015364e-01
 2.192031021680255e+00	-2.481944801963025e+01	 8.444692513074187e-01
 2.828427124750000e+00	-2.545584412270000e+01	 8.621757908684028e-01
-9.899494936600000e+00	-1.272792206135000e+01	 1.377001001852928e+00
-9.263098833530250e+00	-1.336431816441975e+01	 1.252812388082949e+00
-8.626702730461000e+00	-1.400071426748900e+01	 1.144736178829911e+00
-7.990306627392250e+00	-1.463711037055775e+01	 1.063127500567461e+00
-7.353910524324001e+00	-1.527350647362600e+01	 9.959081340972704e-01
-6.717514421256251e+00	-1.590990257669375e+01	 9.428380293828833e-01
-6.081118318189000e+00	-1.654629867976100e+01	 9.036771363878423e-01
-5.444722215122251e+00	-1.718269478282775e+01	 8.781854050756894e-01
-4.808326112056001e+00	-1.781909088589400e+01	 8.555478555426377e-01
-4.171930008990251e+00	-1.845548698895975e+01	 8.414595016732029e-01
-3.535533905925000e+00	-1.909188309202500e+01	 8.364050622177017e-01
-1.018233764908000e+01	-1.301076477382050e+01	 1.341126206751577e+00
-9.545941546008487e+00	-1.364716087689182e+01	 1.230945584610212e+00
-8.909545442937748e+00	-1.428355697996239e+01	 1.129573249583881e+00
-8.273149339867789e+00	-1.491995308303220e+01	 1.053800572266408e+00
-7.636753236798599e+00	-1.555634918610125e+01	 9.935199558610781e-01
-7.000357133730187e+00	-1.619274528916957e+01	 9.462120794557212e-01
-6.363961030662550e+00	-1.682914139223711e+01	 9.116368930139203e-01
-5.727564927595687e+00	-1.746553749530390e+01	 8.865099234398881e-01
-5.091168824529601e+00	-1.810193359836994e+01	 8.657423789899452e-01
-4.454772721464288e+00	-1.873832970143522e+01	 8.534700130422406e-01
-3.818376618399751e+00	-1.937472580449975e+01	 8.492606791756976e-01
-1.046518036156000e+01	-1.329360748629200e+01	 1.307467826950886e+00
-9.828784258486900e+00	-1.393000358936434e+01	 1.210776098064120e+00
-9.192388155414802e+00	-1.456639969243576e+01	 1.121571413673875e+00
-8.555992052343699e+00	-1.520279579550626e+01	 1.047281794773666e+00
-7.919595949273599e+00	-1.583919189857584e+01	 9.934673422084939e-01
-7.283199846204502e+00	-1.647558800164450e+01	 9.514491078875011e-01
-6.646803743136401e+00	-1.711198410471224e+01	 9.209870417742964e-01
-6.010407640069301e+00	-1.774838020777906e+01	 8.958259370888670e-01
-5.374011537003201e+00	-1.838477631084496e+01	 8.773853246046062e-01
-4.737615433938100e+00	-1.902117241390994e+01	 8.664690074877549e-01
-4.101219330874000e+00	-1.965756851697400e+01	 8.626448366496267e-01
-1.074802307404000e+01	-1.357645019876450e+01	 1.276156223380671e+00
-1.011162697096549e+01	-1.421284630183730e+01	 1.192434290950203e+00
-9.475230867892149e+00	-1.484924240490911e+01	 1.114878162247664e+00
-8.838834764819987e+00	-1.548563850797992e+01	 1.043953722466084e+00
-8.202438661748999e+00	-1.612203461104974e+01	 9.957948570368144e-01
-7.566042558679189e+00	-1.675843071411856e+01	 9.585936785755249e-01
-6.929646455610551e+00	-1.739482681718639e+01	 9.305322279767220e-01
-6.293250352543089e+00	-1.803122292025322e+01	 9.069730111504053e-01
-5.656854249476803e+00	-1.866761902331907e+01	 8.903993955377704e-01
-5.020458146411689e+00	-1.930401512638391e+01	 8.803791886878698e-01
-4.384062043347751e+00	-1.994041122944775e+01	 8.764802388446743e-01
-1.103086578652000e+01	-1.385929291123800e+01	 1.247321754473667e+00
-1.039446968344425e+01	-1.449568901431071e+01	 1.176050523276840e+00
-9.758073580369802e+00	-1.513208511738244e+01	 1.109623856889257e+00
-9.121677477296648e+00	-1.576848122045319e+01	 1.048507632531742e+00
-8.485281374224803e+00	-1.640487732352296e+01	 1.000547064243334e+00
-7.848885271154251e+00	-1.704127342659175e+01	 9.676903554170956e-01
-7.212489168085002e+00	-1.767766952965956e+01	 9.410551178877234e-01
-6.576093065017051e+00	-1.831406563272639e+01	 9.198738507734033e-01
-5.939696961950402e+00	-1.895046173579224e+01	 9.047072974651562e-01
-5.303300858885053e+00	-1.958685783885712e+01	 8.951232628452115e-01
-4.666904755821001e+00	-2.022325394192100e+01	 8.906895924904555e-01
-1.131370849900000e+01	-1.414213562371250e+01	 1.221094776165601e+00
-1.067731239592319e+01	-1.477853172678456e+01	 1.161755152555326e+00
-1.004091629284775e+01	-1.541492782985575e+01	 1.105938856685515e+00
-9.404520189773692e+00	-1.605132393292607e+01	 1.054111757804933e+00
-8.768124086701002e+00	-1.668772003599550e+01	 1.007768527725354e+00
-8.131727983629688e+00	-1.732411613906407e+01	 9.784537209891351e-01
-7.495331880559752e+00	-1.796051224213175e+01	 9.537144116041391e-01
-6.858935777491189e+00	-1.859690834519856e+01	 9.344511636312736e-01
-6.222539674424003e+00	-1.923330444826450e+01	 9.202317385869326e-01
-5.586143571358189e+00	-1.986970055132957e+01	 9.106239386867830e-01
-4.949747468293751e+00	-2.050609665439375e+01	 9.051956068408993e-01
-1.159655121148000e+01	-1.442497833618800e+01	 1.197605641895259e+00
-1.096015510840230e+01	-1.506137443925886e+01	 1.149678533799957e+00
-1.032375900532600e+01	-1.569777054232904e+01	 1.103953518226224e+00
-9.687362902251103e+00	-1.633416664539854e+01	 1.060896456450930e+00
-9.050966799177599e+00	-1.697056274846736e+01	 1.020973217520148e+00
-8.414570696105502e+00	-1.760695885153551e+01	 9.907431474033030e-01
-7.778174593034803e+00	-1.824335495460296e+01	 9.684328187971885e-01
-7.141778489965501e+00	-1.887975105766974e+01	 9.506276599218357e-01
-6.505382386897601e+00	-1.951614716073584e+01	 9.368954296275998e-01
-5.868986283831102e+00	-2.015254326380126e+01	 9.268039274638564e-01
-5.232590180766000e+00	-2.078893936686600e+01	 9.199209936741337e-01
-1.187939392396000e+01	-1.470782104866450e+01	 1.176984702604569e+00
-1.124299782088159e+01	-1.534421715173360e+01	 1.139951019528092e+00
-1.060660171780455e+01	-1.598061325480231e+01	 1.103798195604172e+00
-9.970205614728888e+00	-1.661700935787063e+01	 1.068992084137935e+00
-9.333809511654602e+00	-1.725340546093854e+01	 1.035983233607166e+00
-8.697413408581689e+00	-1.788980156400607e+01	 1.005474325537041e+00
-8.061017305510152e+00	-1.852619766707319e+01	 9.851330516624368e-01
-7.424621202439989e+00	-1.916259377013992e+01	 9.683260523671828e-01
-6.788225099371203e+00	-1.979898987320626e+01	 9.546210838358684e-01
-6.151828996303790e+00	-2.043538597627220e+01	 9.435859429518424e-01
-5.515432893237752e+00	-2.107178207933775e+01	 9.347884672923576e-01
-1.216223663644000e+01	-1.499066376114200e+01	 1.159362306738669e+00
-1.152584053336105e+01	-1.562705986420879e+01	 1.132702959760235e+00
-1.088944443028340e+01	-1.626345596727556e+01	 1.105603240415215e+00
-1.025304832720705e+01	-1.689985207034232e+01	 1.078528994037155e+00
-9.616652224132002e+00	-1.753624817340904e+01	 1.051659139568325e+00
-8.980256121058252e+00	-1.817264427647575e+01	 1.024419573854120e+00
-8.343860017985801e+00	-1.880904037954244e+01	 1.003737824919677e+00
-7.707463914914652e+00	-1.944543648260911e+01	 9.874690562135752e-01
-7.071067811844802e+00	-2.008183258567576e+01	 9.733314169845411e-01
-6.434671708776253e+00	-2.071822868874239e+01	 9.608927014501782e-01
-5.798275605709002e+00	-2.135462479180900e+01	 9.497207445217311e-01
-1.244507934892000e+01	-1.527350647362050e+01	 1.144868800245978e+00
-1.180868324584069e+01	-1.590990257668443e+01	 1.128064702020100e+00
-1.117228714276255e+01	-1.654629867974879e+01	 1.109499001758357e+00
-1.053589103968559e+01	-1.718269478281361e+01	 1.089637536822875e+00
-9.899494936609806e+00	-1.781909088587887e+01	 1.068517509904219e+00
-9.263098833535192e+00	-1.845548698894457e+01	 1.045917467279615e+00
-8.626702730461751e+00	-1.909188309201071e+01	 1.024169855812820e+00
-7.990306627389490e+00	-1.972827919507731e+01	 1.007979389231307e+00
-7.353910524318403e+00	-2.036467529814434e+01	 9.929491473703953e-01
-6.717514421248490e+00	-2.100107140121182e+01	 9.786469217822052e-01
-6.081118318179752e+00	-2.163746750427975e+01	 9.646405447122486e-01
-1.272792206140000e+01	-1.555634918610000e+01	 1.133634526578273e+00
-1.209152595832050e+01	-1.619274528916050e+01	 1.126166591334688e+00
-1.145512985524200e+01	-1.682914139222200e+01	 1.115615826235818e+00
-1.081873375216450e+01	-1.746553749528450e+01	 1.102415510977979e+00
-1.018233764908800e+01	-1.810193359834800e+01	 1.086585491084655e+00
-9.545941546012500e+00	-1.873832970141250e+01	 1.068132627501871e+00
-8.909545442937999e+00	-1.937472580447800e+01	 1.047116762812520e+00
-8.273149339864499e+00	-2.001112190754450e+01	 1.029779771714602e+00
-7.636753236792002e+00	-2.064751801061200e+01	 1.013396995814060e+00
-7.000357133720501e+00	-2.128391411368050e+01	 9.967713252950501e-01
-6.363961030650000e+00	-2.192031021675000e+01	 9.794705897376257e-01
-3.535533905925000e+00	-1.909188309202500e+01	 8.364050622177017e-01
-2.899137802859750e+00	-1.972827919509026e+01	 8.567103170330581e-01
-2.262741699793998e+00	-2.036467529815600e+01	 8.637614144964305e-01
-1.626345596727748e+00	-2.100107140122225e+01	 8.649172858362237e-01
-9.899494936609978e-01	-2.163746750428901e+01	 8.613844288058651e-01
-3.535533905937472e-01	-2.227386360735625e+01	 8.543692408297110e-01
 2.828427124740034e-01	-2.291025971042401e+01	 8.450780190144306e-01
 9.192388155422540e-01	-2.354665581349225e+01	 8.347169601603861e-01
 1.555634918611005e+00	-2.418305191656101e+01	 8.264785099015364e-01
 2.192031021680255e+00	-2.481944801963025e+01	 8.444692513074187e-01
 2.828427124750000e+00	-2.545584412270000e+01	 8.621757908684028e-01
-3.818376618399751e+00	-1.937472580449975e+01	 8.492606791756976e-01
-3.181980515335222e+00	-2.001112190756429e+01	 8.658658897926639e-01
-2.545584412269940e+00	-2.064751801062961e+01	 8.740211672374900e-01
-1.909188309203901e+00	-2.128391411369569e+01	 8.735601746793449e-01
-1.272792206137108e+00	-2.192031021676256e+01	 8.683198500236622e-01
-6.363961030695598e-01	-2.255670631983019e+01	 8.595065922330406e-01
-1.257084714101353e-12	-2.319310242289861e+01	 8.483266999532987e-01
 6.363961030678011e-01	-2.382949852596779e+01	 8.359863715248589e-01
 1.272792206137614e+00	-2.446589462903776e+01	 8.383306665981258e-01
 1.909188309208182e+00	-2.510229073210850e+01	 8.543294225199357e-01
 2.545584412279500e+00	-2.573868683518000e+01	 8.701368072670290e-01
-4.101219330874000e+00	-1.965756851697400e+01	 8.626448366496267e-01
-3.464823227809940e+00	-2.029396462003810e+01	 8.750606987146852e-01
-2.828427124744960e+00	-2.093036072310321e+01	 8.833949409630338e-01
-2.192031021679059e+00	-2.156675682616931e+01	 8.812944040937520e-01
-1.555634918612238e+00	-2.220315292923640e+01	 8.743239384611874e-01
-9.192388155444977e-01	-2.283954903230450e+01	 8.636899445656814e-01
-2.828427124758373e-01	-2.347594513537361e+01	 8.505987225917084e-01
 3.535533905937434e-01	-2.411234123844370e+01	 8.362564724192592e-01
 9.899494936642438e-01	-2.474873734151481e+01	 8.494294466259369e-01
 1.626345596735665e+00	-2.538513344458691e+01	 8.634801895521693e-01
 2.262741699807999e+00	-2.602152954766000e+01	 8.774323908604027e-01
-4.384062043347751e+00	-1.994041122944775e+01	 8.764802388446743e-01
-3.747665940283903e+00	-2.057680733251169e+01	 8.847919616655294e-01
-3.111269837219059e+00	-2.121320343557680e+01	 8.905194328861685e-01
-2.474873734153222e+00	-2.184959953864309e+01	 8.882485992389986e-01
-1.838477631086389e+00	-2.248599564171055e+01	 8.795253189743575e-01
-1.202081528018560e+00	-2.312239174477919e+01	 8.670479223797168e-01
-5.656854249497373e-01	-2.375878784784900e+01	 8.520227111777126e-01
 7.071067812008076e-02	-2.439518395091999e+01	 8.474480997591988e-01
 7.071067811908938e-01	-2.503158005399216e+01	 8.597947831447412e-01
 1.343502884262702e+00	-2.566797615706549e+01	 8.719414856023912e-01
 1.979898987335499e+00	-2.630437226014000e+01	 8.840824748852663e-01
-4.666904755821001e+00	-2.022325394192100e+01	 8.906895924904555e-01
-4.030508652757111e+00	-2.085965004498505e+01	 8.949823859019033e-01
-3.394112549692240e+00	-2.149604614805040e+01	 8.969478144656289e-01
-2.757716446626389e+00	-2.213244225111706e+01	 8.945513808203798e-01
-2.121320343559559e+00	-2.276883835418500e+01	 8.840526119649437e-01
-1.484924240491748e+00	-2.340523445725426e+01	 8.697091457731885e-01
-8.485281374229575e-01	-2.404163056032480e+01	 8.527272855054218e-01
-2.121320343531870e-01	-2.467802666339666e+01	 8.590528220504394e-01
 4.242640687175635e-01	-2.531442276646981e+01	 8.694466100083783e-01
 1.060660171789294e+00	-2.595081886954425e+01	 8.797332445629609e-01
 1.697056274861999e+00	-2.658721497262000e+01	 8.901069932724643e-01
-4.949747468293751e+00	-2.050609665439375e+01	 9.051956068408993e-01
-4.313351365229563e+00	-2.114249275745819e+01	 9.055546812047565e-01
-3.676955262164500e+00	-2.177888886052400e+01	 9.038432740045390e-01
-3.040559159098561e+00	-2.241528496359119e+01	 8.996293502042945e-01
-2.404163056031749e+00	-2.305168106665976e+01	 8.880344333807814e-01
-1.767766952964061e+00	-2.368807716972969e+01	 8.718022303903157e-01
-1.131370849895498e+00	-2.432447327280101e+01	 8.612265509478831e-01
-4.949747468260597e-01	-2.496086937587369e+01	 8.699199955169247e-01
 1.414213562442533e-01	-2.559726547894776e+01	 8.784048617647890e-01
 7.778174593154412e-01	-2.623366158202320e+01	 8.868754010203572e-01
 1.414213562387499e+00	-2.687005768510000e+01	 8.955258806469771e-01
-5.232590180766000e+00	-2.078893936686600e+01	 9.199209936741337e-01
-4.596194077701260e+00	-2.142533546993110e+01	 9.164315598791648e-01
-3.959797974635840e+00	-2.206173157299760e+01	 9.111285243350102e-01
-3.323401871569739e+00	-2.269812767606550e+01	 9.035798493384102e-01
-2.687005768502959e+00	-2.333452377913481e+01	 8.915993947159949e-01
-2.050609665435498e+00	-2.397091988220550e+01	 8.734557874217028e-01
-1.414213562367358e+00	-2.460731598527761e+01	 8.733338842397589e-01
-7.778174592985374e-01	-2.524371208835111e+01	 8.800695553621531e-01
-1.414213562290370e-01	-2.588010819142601e+01	 8.866894736560590e-01
 4.949747468411435e-01	-2.651650429450230e+01	 8.933878902552090e-01
 1.131370849911999e+00	-2.715290039758001e+01	 9.003590723279560e-01
-5.515432893237752e+00	-2.107178207933775e+01	 9.347884672923576e-01
-4.879036790172202e+00	-2.170817818240379e+01	 9.275357367542081e-01
-4.242640687106260e+00	-2.234457428547120e+01	 9.187262808130872e-01
-3.606244584039923e+00	-2.298097038853999e+01	 9.079280590987013e-01
-2.969848480973189e+00	-2.361736649161015e+01	 8.947090719151727e-01
-2.333452377906061e+00	-2.425376259468170e+01	 8.796605289611046e-01
-1.697056274838538e+00	-2.489015869775460e+01	 8.846995648998521e-01
-1.060660171770620e+00	-2.552655480082889e+01	 8.895214374837763e-01
-4.242640687023073e-01	-2.616295090390455e+01	 8.943203816184369e-01
 2.121320343664008e-01	-2.679934700698159e+01	 8.992906482423386e-01
 8.485281374354983e-01	-2.743574311006000e+01	 9.046265043287560e-01
-5.798275605709002e+00	-2.135462479180900e+01	 9.497207445217311e-01
-5.161879502642391e+00	-2.199102089487625e+01	 9.387899291828536e-01
-4.525483399575760e+00	-2.262741699794481e+01	 9.265592613186324e-01
-3.889087296509111e+00	-2.326381310101465e+01	 9.125966978920115e-01
-3.252691193442439e+00	-2.390020920408580e+01	 8.964702365400963e-01
-2.616295090375749e+00	-2.453660530715826e+01	 8.922671405954197e-01
-1.979898987309039e+00	-2.517300141023201e+01	 8.953435294813543e-01
-1.343502884242308e+00	-2.580939751330705e+01	 8.982955784736393e-01
-7.071067811755576e-01	-2.644579361638341e+01	 9.013175222823815e-01
-7.071067810878684e-02	-2.708218971946106e+01	 9.046036116507856e-01
 5.656854249579980e-01	-2.771858582254001e+01	 9.083481133569710e-01
-6.081118318179752e+00	-2.163746750427975e+01	 9.646405447122486e-01
-5.444722215111825e+00	-2.227386360734850e+01	 9.501168570418375e-01
-4.808326112044342e+00	-2.291025971041840e+01	 9.345501862552056e-01
-4.171930008977302e+00	-2.354665581348949e+01	 9.175084866488094e-01
-3.535533905910710e+00	-2.418305191656175e+01	 9.002389544897476e-01
-2.899137802844562e+00	-2.481944801963519e+01	 9.041279972996047e-01
-2.262741699778859e+00	-2.545584412270981e+01	 9.052857152316717e-01
-1.626345596713600e+00	-2.609224022578559e+01	 9.064119156178078e-01
-9.899494936487879e-01	-2.672863632886256e+01	 9.077008329725911e-01
-3.535533905844196e-01	-2.736503243194069e+01	 9.093467178438490e-01
 2.828427124794977e-01	-2.800142853502000e+01	 9.115438368144653e-01
-6.363961030650000e+00	-2.192031021675000e+01	 9.794705897376257e-01
-5.727564927580500e+00	-2.255670631982050e+01	 9.614392427315401e-01
-5.091168824511998e+00	-2.319310242289200e+01	 9.426217785499426e-01
-4.454772721444498e+00	-2.382949852596450e+01	 9.225861488230712e-01
-3.818376618377998e+00	-2.446589462903800e+01	 9.127171022400515e-01
-3.181980515312497e+00	-2.510229073211250e+01	 9.142368339723437e-01
-2.545584412247996e+00	-2.573868683518801e+01	 9.145460600924491e-01
-1.909188309184496e+00	-2.637508293826451e+01	 9.138903868966055e-01
-1.272792206121996e+00	-2.701147904134201e+01	 9.134902517080369e-01
-6.363961030604948e-01	-2.764787514442050e+01	 9.135399048791153e-01
 0.000000000000000e+00	-2.828427124750000e+01	 9.142336127974118e-01
 7.071067811900000e+00	 7.071067811900000e+00	 1.203096462939744e+00
 7.071067811900001e+00	 7.071067811900001e+00	 1.203096462939743e+00
 7.071067811900001e+00	 7.071067811900001e+00	 1.203096462939744e+00
 7.071067811900000e+00	 7.071067811900000e+00	 1.203096462939746e+00
 7.071067811899999e+00	 7.071067811899999e+00	 1.203096462939744e+00
 7.071067811900000e+00	 7.071067811900000e+00	 1.203096462939744e+00
 7.071067811900000e+00	 7.071067811900000e+00	 1.203096462939744e+00
 7.071067811900000e+00	 7.071067811900000e+00	 1.203096462939742e+00
 7.071067811900000e+00	 7.071067811900000e+00	 1.203096462939744e+00
 7.071067811900000e+00	 7.071067811900000e+00	 1.203096462939742e+00
 7.071067811900000e+00	 7.071067811900000e+00	 1.203096462939744e+00
 7.067532277994000e+00	 7.067532277994000e+00	 1.475940776415477e+01
 7.067885831384601e+00	 7.067178724603401e+00	 1.818517318345316e+01
 7.068239384775199e+00	 7.066825171212799e+00	 2.113609099565944e+01
 7.068592938165800e+00	 7.066471617822200e+00	 2.361216120073485e+01
 7.068946491556400e+00	 7.066118064431598e+00	 2.561338379870168e+01
 7.069300044947000e+00	 7.065764511041000e+00	 2.713975878955206e+01
 7.069653598337601e+00	 7.065410957650400e+00	 2.819128617329015e+01
 7.070007151728200e+00	 7.065057404259800e+00	 2.876796594990451e+01
 7.070360705118799e+00	 7.064703850869200e+00	 2.886979811942260e+01
 7.070714258509400e+00	 7.064350297478600e+00	 2.849678268180526e+01
 7.071067811900000e+00	 7.063996744088000e+00	 2.764891963708571e+01
 7.056925676275999e+00	 7.056925676275999e+00	 7.414378641071169e+00
 7.058339889838400e+00	 7.055511462713601e+00	 9.119531285184088e+00
 7.059754103400800e+00	 7.054097249151200e+00	 1.058794282501911e+01
 7.061168316963199e+00	 7.052683035588799e+00	 1.181961326055616e+01
 7.062582530525599e+00	 7.051268822026400e+00	 1.281454259177858e+01
 7.063996744087999e+00	 7.049854608463999e+00	 1.357273081866989e+01
 7.065410957650399e+00	 7.048440394901599e+00	 1.409417794121358e+01
 7.066825171212799e+00	 7.047026181339199e+00	 1.437888395939172e+01
 7.068239384775200e+00	 7.045611967776801e+00	 1.442684887318776e+01
 7.069653598337601e+00	 7.044197754214400e+00	 1.423807268258544e+01
 7.071067811900000e+00	 7.042783540652000e+00	 1.381255538756661e+01
 7.039248006745999e+00	 7.039248006745999e+00	 4.932389850244384e+00
 7.042429987261401e+00	 7.036066026230601e+00	 6.068874380323791e+00
 7.045611967776800e+00	 7.032884045715201e+00	 7.047422348002831e+00
 7.048793948292199e+00	 7.029702065199800e+00	 7.868033753090144e+00
 7.051975928807600e+00	 7.026520084684400e+00	 8.530708595391404e+00
 7.055157909322999e+00	 7.023338104169000e+00	 9.035446874713941e+00
 7.058339889838400e+00	 7.020156123653600e+00	 9.382248590864702e+00
 7.061521870353801e+00	 7.016974143138199e+00	 9.571113743650351e+00
 7.064703850869200e+00	 7.013792162622800e+00	 9.602042332877822e+00
 7.067885831384600e+00	 7.010610182107400e+00	 9.475034358353682e+00
 7.071067811899999e+00	 7.007428201591999e+00	 9.190089819885063e+00
 7.014499269404000e+00	 7.014499269404000e+00	 3.685927817613611e+00
 7.020156123653600e+00	 7.008842415154400e+00	 4.539018715125469e+00
 7.025812977903199e+00	 7.003185560904799e+00	 5.273469381393398e+00
 7.031469832152800e+00	 6.997528706655200e+00	 5.889279815331373e+00
 7.037126686402400e+00	 6.991871852405600e+00	 6.386450015854102e+00
 7.042783540652000e+00	 6.986214998156000e+00	 6.764979981876504e+00
 7.048440394901601e+00	 6.980558143906401e+00	 7.024869712313185e+00
 7.054097249151201e+00	 6.974901289656801e+00	 7.166119206078683e+00
 7.059754103400801e+00	 6.969244435407201e+00	 7.188728462087999e+00
 7.065410957650401e+00	 6.963587581157601e+00	 7.092697479255648e+00
 7.071067811900000e+00	 6.957930726908000e+00	 6.878026256496338e+00
 6.982679464249999e+00	 6.982679464249999e+00	 2.937065464108745e+00
 6.991518299015001e+00	 6.973840629485002e+00	 3.620445750790390e+00
 7.000357133780000e+00	 6.965001794720001e+00	 4.208729481935541e+00
 7.009195968545001e+00	 6.956162959955000e+00	 4.701916653404179e+00
 7.018034803310000e+00	 6.947324125190000e+00	 5.100007261056052e+00
 7.026873638075000e+00	 6.938485290425000e+00	 5.403001300751025e+00
 7.035712472839999e+00	 6.929646455659999e+00	 5.610898768348929e+00
 7.044551307604999e+00	 6.920807620894999e+00	 5.723699659709731e+00
 7.053390142370000e+00	 6.911968786130000e+00	 5.741403970693201e+00
 7.062228977135001e+00	 6.903129951365001e+00	 5.664011697159293e+00
 7.071067811900000e+00	 6.894291116600000e+00	 5.491522834967809e+00
 6.943788591283999e+00	 6.943788591283999e+00	 2.438108937789279e+00
 6.956516513345600e+00	 6.931060669222400e+00	 3.008506588182173e+00
 6.969244435407200e+00	 6.918332747160799e+00	 3.499488932824763e+00
 6.981972357468800e+00	 6.905604825099201e+00	 3.911055959354922e+00
 6.994700279530399e+00	 6.892876903037599e+00	 4.243207655410133e+00
 7.007428201592000e+00	 6.880148980976000e+00	 4.495944008627965e+00
 7.020156123653599e+00	 6.867421058914399e+00	 4.669265006646146e+00
 7.032884045715201e+00	 6.854693136852801e+00	 4.763170637102381e+00
 7.045611967776801e+00	 6.841965214791201e+00	 4.777660887634235e+00
 7.058339889838400e+00	 6.829237292729600e+00	 4.712735745879458e+00
 7.071067811899999e+00	 6.816509370667999e+00	 4.568395199475814e+00
 6.897826650506000e+00	 6.897826650506000e+00	 2.082489770959889e+00
 6.915150766645398e+00	 6.880502534366599e+00	 2.572282845790733e+00
 6.932474882784800e+00	 6.863178418227200e+00	 2.993853977216383e+00
 6.949798998924201e+00	 6.845854302087799e+00	 3.347203134063495e+00
 6.967123115063600e+00	 6.828530185948400e+00	 3.632330285158794e+00
 6.984447231202999e+00	 6.811206069809000e+00	 3.849235399329050e+00
 7.001771347342399e+00	 6.793881953669599e+00	 3.997918445401111e+00
 7.019095463481801e+00	 6.776557837530200e+00	 4.078379392201829e+00
 7.036419579621198e+00	 6.759233721390798e+00	 4.090618208558226e+00
 7.053743695760600e+00	 6.741909605251400e+00	 4.034634863297342e+00
 7.071067811900000e+00	 6.724585489112000e+00	 3.910429325246273e+00
 6.844793641916000e+00	 6.844793641916000e+00	 1.816794017153877e+00
 6.867421058914400e+00	 6.822166224917600e+00	 2.246205230481296e+00
 6.890048475912799e+00	 6.799538807919199e+00	 2.615784898419558e+00
 6.912675892911201e+00	 6.776911390920801e+00	 2.925532951508610e+00
 6.935303309909600e+00	 6.754283973922401e+00	 3.175449320288614e+00
 6.957930726907999e+00	 6.731656556923999e+00	 3.365533935299981e+00
 6.980558143906398e+00	 6.709029139925598e+00	 3.495786727083202e+00
 7.003185560904798e+00	 6.686401722927198e+00	 3.566207626179132e+00
 7.025812977903199e+00	 6.663774305928799e+00	 3.576796563128668e+00
 7.048440394901601e+00	 6.641146888930400e+00	 3.527553468473040e+00
 7.071067811900001e+00	 6.618519471932001e+00	 3.418478272753577e+00
 6.784689565513999e+00	 6.784689565513999e+00	 1.611301440566808e+00
 6.813327390152599e+00	 6.756051740875400e+00	 1.993808428621466e+00
 6.841965214791201e+00	 6.727413916236801e+00	 2.323006401049521e+00
 6.870603039429801e+00	 6.698776091598202e+00	 2.598895217035651e+00
 6.899240864068400e+00	 6.670138266959600e+00	 2.821474735765230e+00
 6.927878688707001e+00	 6.641500442321001e+00	 2.990744816424057e+00
 6.956516513345600e+00	 6.612862617682399e+00	 3.106705318198433e+00
 6.985154337984198e+00	 6.584224793043798e+00	 3.169356100275158e+00
 7.013792162622800e+00	 6.555586968405199e+00	 3.178697021841594e+00
 7.042429987261399e+00	 6.526949143766600e+00	 3.134727942085583e+00
 7.071067811899999e+00	 6.498311319128000e+00	 3.037448720195447e+00
 6.717514421300000e+00	 6.717514421300000e+00	 1.448164033442436e+00
 6.752869760360000e+00	 6.682159082240001e+00	 1.793201107191474e+00
 6.788225099420001e+00	 6.646803743180000e+00	 2.090144408881926e+00
 6.823580438480000e+00	 6.611448404120000e+00	 2.338993673545509e+00
 6.858935777539999e+00	 6.576093065059998e+00	 2.539748636215050e+00
 6.894291116600000e+00	 6.540737726000000e+00	 2.692409031924555e+00
 6.929646455660000e+00	 6.505382386940000e+00	 2.796974595709248e+00
 6.965001794720000e+00	 6.470027047880000e+00	 2.853445062605532e+00
 7.000357133780000e+00	 6.434671708820000e+00	 2.861820167650984e+00
 7.035712472840000e+00	 6.399316369760000e+00	 2.822099645884367e+00
 7.071067811900000e+00	 6.363961030700001e+00	 2.734283232345631e+00
 6.717514421300000e+00	 6.717514421300000e+00	 1.448164033442436e+00
 6.752869760360000e+00	 6.682159082240001e+00	 1.793201107191474e+00
 6.788225099420001e+00	 6.646803743180000e+00	 2.090144408881926e+00
 6.823580438480000e+00	 6.611448404120000e+00	 2.338993673545509e+00
 6.858935777539999e+00	 6.576093065059998e+00	 2.539748636215050e+00
 6.894291116600000e+00	 6.540737726000000e+00	 2.692409031924555e+00
 6.929646455660000e+00	 6.505382386940000e+00	 2.796974595709248e+00
 6.965001794720000e+00	 6.470027047880000e+00	 2.853445062605532e+00
 7.000357133780000e+00	 6.434671708820000e+00	 2.861820167650984e+00
 7.035712472840000e+00	 6.399316369760000e+00	 2.822099645884367e+00
 7.071067811900000e+00	 6.363961030700001e+00	 2.734283232345631e+00
 6.643268209274000e+00	 6.643268209274000e+00	 1.273871150728272e+00
 6.686048169536599e+00	 6.600488249011398e+00	 1.593366850490084e+00
 6.728828129799202e+00	 6.557708288748801e+00	 1.869438943633747e+00
 6.771608090061800e+00	 6.514928328486200e+00	 2.102086960752343e+00
 6.814388050324401e+00	 6.472148368223601e+00	 2.291310432441481e+00
 6.857168010586999e+00	 6.429368407961000e+00	 2.437108889299319e+00
 6.899947970849601e+00	 6.386588447698400e+00	 2.539481861926546e+00
 6.942727931112200e+00	 6.343808487435800e+00	 2.598428880926394e+00
 6.985507891374802e+00	 6.301028527173202e+00	 2.613949476904610e+00
 7.028287851637398e+00	 6.258248566910598e+00	 2.586043180469520e+00
 7.071067811900000e+00	 6.215468606648000e+00	 2.514709522231950e+00
 6.561950929436001e+00	 6.561950929436001e+00	 1.137542411880736e+00
 6.612862617682399e+00	 6.511039241189599e+00	 1.434496464357412e+00
 6.663774305928800e+00	 6.460127552943200e+00	 1.691778360148333e+00
 6.714685994175198e+00	 6.409215864696799e+00	 1.909387308064592e+00
 6.765597682421602e+00	 6.358304176450401e+00	 2.087322516922347e+00
 6.816509370668001e+00	 6.307392488204000e+00	 2.225583195542856e+00
 6.867421058914401e+00	 6.256480799957600e+00	 2.324168552752476e+00
 6.918332747160801e+00	 6.205569111711201e+00	 2.383077797382651e+00
 6.969244435407200e+00	 6.154657423464800e+00	 2.402310138269908e+00
 7.020156123653601e+00	 6.103745735218400e+00	 2.381864784255896e+00
 7.071067811900001e+00	 6.052834046971999e+00	 2.321740944187310e+00
 6.473562581786000e+00	 6.473562581786000e+00	 1.028981061682185e+00
 6.533313104797400e+00	 6.413812058774599e+00	 1.305983211583682e+00
 6.593063627808800e+00	 6.354061535763201e+00	 1.546386973044638e+00
 6.652814150820200e+00	 6.294311012751799e+00	 1.750191067119318e+00
 6.712564673831598e+00	 6.234560489740398e+00	 1.917394214871632e+00
 6.772315196843000e+00	 6.174809966728999e+00	 2.047995137375175e+00
 6.832065719854398e+00	 6.115059443717598e+00	 2.141992555713188e+00
 6.891816242865799e+00	 6.055308920706200e+00	 2.199385190978563e+00
 6.951566765877200e+00	 5.995558397694801e+00	 2.220171764273876e+00
 7.011317288888601e+00	 5.935807874683401e+00	 2.204350996711347e+00
 7.071067811900000e+00	 5.876057351671999e+00	 2.151921609412847e+00
 6.378103166323999e+00	 6.378103166323999e+00	 9.413332517031630e-01
 6.447399630881599e+00	 6.308806701766399e+00	 1.200607421558392e+00
 6.516696095439199e+00	 6.239510237208799e+00	 1.425843593795504e+00
 6.585992559996800e+00	 6.170213772651200e+00	 1.617039773338510e+00
 6.655289024554399e+00	 6.100917308093599e+00	 1.774193965128887e+00
 6.724585489112001e+00	 6.031620843536000e+00	 1.897304174125585e+00
 6.793881953669600e+00	 5.962324378978400e+00	 1.986368405305038e+00
 6.863178418227200e+00	 5.893027914420800e+00	 2.041384663661153e+00
 6.932474882784800e+00	 5.823731449863200e+00	 2.062350954205312e+00
 7.001771347342400e+00	 5.754434985305600e+00	 2.049265281966366e+00
 7.071067811900000e+00	 5.685138520748000e+00	 2.002125651990658e+00
 6.275572683050000e+00	 6.275572683050000e+00	 8.698419521909083e-01
 6.355122195935001e+00	 6.196023170165001e+00	 1.113298692121060e+00
 6.434671708819999e+00	 6.116473657279999e+00	 1.324880040560670e+00
 6.514221221704999e+00	 6.036924144394999e+00	 1.504582979379679e+00
 6.593770734590000e+00	 5.957374631510000e+00	 1.652404490478366e+00
 6.673320247474999e+00	 5.877825118625000e+00	 1.768341555787369e+00
 6.752869760360000e+00	 5.798275605740000e+00	 1.852391157267664e+00
 6.832419273244999e+00	 5.718726092854999e+00	 1.904550276910582e+00
 6.911968786130000e+00	 5.639176579970000e+00	 1.924815896737808e+00
 6.991518299015000e+00	 5.559627067084999e+00	 1.913184998801365e+00
 7.071067811900000e+00	 5.480077554199999e+00	 1.869654565183626e+00
 6.165971131964000e+00	 6.165971131964000e+00	 8.111141961218382e-01
 6.256480799957600e+00	 6.075461463970400e+00	 1.040400291311179e+00
 6.346990467951199e+00	 5.984951795976801e+00	 1.239659356023298e+00
 6.437500135944800e+00	 5.894442127983199e+00	 1.408886944872980e+00
 6.528009803938399e+00	 5.803932459989599e+00	 1.548078612525822e+00
 6.618519471932000e+00	 5.713422791995999e+00	 1.657229913698308e+00
 6.709029139925600e+00	 5.622913124002400e+00	 1.736336403157775e+00
 6.799538807919199e+00	 5.532403456008799e+00	 1.785393635722411e+00
 6.890048475912801e+00	 5.441893788015200e+00	 1.804397166261281e+00
 6.980558143906398e+00	 5.351384120021598e+00	 1.793342549694279e+00
 7.071067811900001e+00	 5.260874452027999e+00	 1.752225340992189e+00
 6.049298513065999e+00	 6.049298513065999e+00	 7.626723531120814e-01
 6.151475442949399e+00	 5.947121583182599e+00	 9.792141591248296e-01
 6.253652372832800e+00	 5.844944653299199e+00	 1.167324844956073e+00
 6.355829302716200e+00	 5.742767723415799e+00	 1.326998014994104e+00
 6.458006232599599e+00	 5.640590793532399e+00	 1.458227273709827e+00
 6.560183162483000e+00	 5.538413863648998e+00	 1.561006225656751e+00
 6.662360092366399e+00	 5.436236933765599e+00	 1.635328475470978e+00
 6.764537022249800e+00	 5.334060003882199e+00	 1.681187627871227e+00
 6.866713952133200e+00	 5.231883073998798e+00	 1.698577287658795e+00
 6.968890882016599e+00	 5.129706144115398e+00	 1.687491059717601e+00
 7.071067811900000e+00	 5.027529214231999e+00	 1.647922549014152e+00
 5.925554826355999e+00	 5.925554826355999e+00	 7.226695637287617e-01
 6.040106124910400e+00	 5.811003527801600e+00	 9.277096105224033e-01
 6.154657423464800e+00	 5.696452229247201e+00	 1.105708647196023e+00
 6.269208722019200e+00	 5.581900930692799e+00	 1.256657661720497e+00
 6.383760020573600e+00	 5.467349632138400e+00	 1.380547642197199e+00
 6.498311319128000e+00	 5.352798333583999e+00	 1.477369576858000e+00
 6.612862617682399e+00	 5.238247035029598e+00	 1.547114454065262e+00
 6.727413916236800e+00	 5.123695736475199e+00	 1.589773262311832e+00
 6.841965214791200e+00	 5.009144437920799e+00	 1.605336990221036e+00
 6.956516513345600e+00	 4.894593139366398e+00	 1.593796626546700e+00
 7.071067811900001e+00	 4.780041840811998e+00	 1.555143160173116e+00
 5.794740071833999e+00	 5.794740071833999e+00	 6.897036860357484e-01
 5.922372845840599e+00	 5.667107297827398e+00	 8.843311590043497e-01
 6.050005619847200e+00	 5.539474523820799e+00	 1.053137794024882e+00
 6.177638393853799e+00	 5.411841749814198e+00	 1.196111125643384e+00
 6.305271167860401e+00	 5.284208975807599e+00	 1.313238688606991e+00
 6.432903941866998e+00	 5.156576201800998e+00	 1.404508017863959e+00
 6.560536715873599e+00	 5.028943427794398e+00	 1.469906648563633e+00
 6.688169489880199e+00	 4.901310653787798e+00	 1.509422116056489e+00
 6.815802263886800e+00	 4.773677879781197e+00	 1.523041955894062e+00
 6.943435037893400e+00	 4.646045105774597e+00	 1.510753703829017e+00
 7.071067811900000e+00	 4.518412331767998e+00	 1.472544895815076e+00
 5.656854249500000e+00	 5.656854249500000e+00	 6.626923248185774e-01
 5.798275605740000e+00	 5.515432893260000e+00	 8.478683308127414e-01
 5.939696961980000e+00	 5.374011537020000e+00	 1.008301758088834e+00
 6.081118318220000e+00	 5.232590180780001e+00	 1.143975649009306e+00
 6.222539674460000e+00	 5.091168824540000e+00	 1.254873046239770e+00
 6.363961030700001e+00	 4.949747468300000e+00	 1.340976992748962e+00
 6.505382386939999e+00	 4.808326112060000e+00	 1.402270531808753e+00
 6.646803743180000e+00	 4.666904755820000e+00	 1.438736706994147e+00
 6.788225099420000e+00	 4.525483399580001e+00	 1.450358562183239e+00
 6.929646455659999e+00	 4.384062043340000e+00	 1.437119141557260e+00
 7.071067811900000e+00	 4.242640687100000e+00	 1.399001489600518e+00
 7.071067811900000e+00	 7.071067811900000e+00	 1.203096462939744e+00
 7.071067811900001e+00	 7.071067811900001e+00	 1.203096462939743e+00
 7.071067811900001e+00	 7.071067811900001e+00	 1.203096462939744e+00
 7.071067811900000e+00	 7.071067811900000e+00	 1.203096462939745e+00
 7.071067811899999e+00	 7.071067811899999e+00	 1.203096462939744e+00
 7.071067811900000e+00	 7.071067811900000e+00	 1.203096462939744e+00
 7.071067811900000e+00	 7.071067811900000e+00	 1.203096462939744e+00
 7.071067811900000e+00	 7.071067811900000e+00	 1.203096462939743e+00
 7.071067811900000e+00	 7.071067811900000e+00	 1.203096462939744e+00
 7.071067811900000e+00	 7.071067811900000e+00	 1.203096462939743e+00
 7.071067811900000e+00	 7.071067811900000e+00	 1.203096462939744e+00
 7.071067811900000e+00	 7.063996744088000e+00	 2.809202245245206e+01
 7.071421365290600e+00	 7.064350297478600e+00	 2.989448640454005e+01
 7.071774918681197e+00	 7.064703850869199e+00	 3.148075537002171e+01
 7.072128472071801e+00	 7.065057404259800e+00	 3.285082934889777e+01
 7.072482025462400e+00	 7.065410957650399e+00	 3.400470834116914e+01
 7.072835578853000e+00	 7.065764511041000e+00	 3.494239234683390e+01
 7.073189132243601e+00	 7.066118064431599e+00	 3.566388136589529e+01
 7.073542685634201e+00	 7.066471617822200e+00	 3.616917539835524e+01
 7.073896239024799e+00	 7.066825171212800e+00	 3.645827444419029e+01
 7.074249792415401e+00	 7.067178724603401e+00	 3.653117850345411e+01
 7.074603345806000e+00	 7.067532277994000e+00	 3.638788757608724e+01
 7.071067811900000e+00	 7.042783540652000e+00	 1.397994389409612e+01
 7.072482025462400e+00	 7.044197754214401e+00	 1.488910948680270e+01
 7.073896239024800e+00	 7.045611967776800e+00	 1.569145186849790e+01
 7.075310452587200e+00	 7.047026181339199e+00	 1.638697103919817e+01
 7.076724666149600e+00	 7.048440394901600e+00	 1.697566699892153e+01
 7.078138879711998e+00	 7.049854608463999e+00	 1.745753974768436e+01
 7.079553093274399e+00	 7.051268822026399e+00	 1.783258928550488e+01
 7.080967306836799e+00	 7.052683035588799e+00	 1.810081561239930e+01
 7.082381520399201e+00	 7.054097249151201e+00	 1.826221872838629e+01
 7.083795733961601e+00	 7.055511462713601e+00	 1.831679863347994e+01
 7.085209947524000e+00	 7.056925676275999e+00	 1.826455532770011e+01
 7.071067811899999e+00	 7.007428201591999e+00	 9.325901512731878e+00
 7.074249792415401e+00	 7.010610182107401e+00	 9.929973219589904e+00
 7.077431772930801e+00	 7.013792162622800e+00	 1.046339893964114e+01
 7.080613753446199e+00	 7.016974143138199e+00	 1.092617867308071e+01
 7.083795733961600e+00	 7.020156123653600e+00	 1.131831242010455e+01
 7.086977714477000e+00	 7.023338104169000e+00	 1.163980018090857e+01
 7.090159694992400e+00	 7.026520084684400e+00	 1.189064195568801e+01
 7.093341675507800e+00	 7.029702065199800e+00	 1.207083774463856e+01
 7.096523656023201e+00	 7.032884045715201e+00	 1.218038754795577e+01
 7.099705636538600e+00	 7.036066026230600e+00	 1.221929136583570e+01
 7.102887617053999e+00	 7.039248006745999e+00	 1.218754919847348e+01
 7.071067811900000e+00	 6.957930726908000e+00	 7.009361034238611e+00
 7.076724666149602e+00	 6.963587581157601e+00	 7.459426267806530e+00
 7.082381520399199e+00	 6.969244435407200e+00	 7.856881909833434e+00
 7.088038374648800e+00	 6.974901289656801e+00	 8.201727961418452e+00
 7.093695228898399e+00	 6.980558143906400e+00	 8.493964423660614e+00
 7.099352083148000e+00	 6.986214998155999e+00	 8.733591297659242e+00
 7.105008937397600e+00	 6.991871852405601e+00	 8.920608584513369e+00
 7.110665791647200e+00	 6.997528706655200e+00	 9.055016285322104e+00
 7.116322645896800e+00	 7.003185560904800e+00	 9.136814401184827e+00
 7.121979500146401e+00	 7.008842415154400e+00	 9.166002933200518e+00
 7.127636354396000e+00	 7.014499269404000e+00	 9.142581882468413e+00
 7.071067811900000e+00	 6.894291116600000e+00	 5.623791141003127e+00
 7.079906646665002e+00	 6.903129951365002e+00	 5.980906507688004e+00
 7.088745481430000e+00	 6.911968786130000e+00	 6.296217886845866e+00
 7.097584316195000e+00	 6.920807620895000e+00	 6.569725282669695e+00
 7.106423150960000e+00	 6.929646455659999e+00	 6.801428699352424e+00
 7.115261985725001e+00	 6.938485290425000e+00	 6.991328141086871e+00
 7.124100820490000e+00	 6.947324125190000e+00	 7.139423612066059e+00
 7.132939655254999e+00	 6.956162959954999e+00	 7.245715116482899e+00
 7.141778490019999e+00	 6.965001794720000e+00	 7.310202658530418e+00
 7.150617324785000e+00	 6.973840629485001e+00	 7.332886242401410e+00
 7.159456159549999e+00	 6.982679464249999e+00	 7.313765872289074e+00
 7.071067811899999e+00	 6.816509370667999e+00	 4.702794056604738e+00
 7.083795733961599e+00	 6.829237292729600e+00	 4.997642184031388e+00
 7.096523656023200e+00	 6.841965214791200e+00	 5.257883972188071e+00
 7.109251578084801e+00	 6.854693136852801e+00	 5.483519433594719e+00
 7.121979500146399e+00	 6.867421058914399e+00	 5.674548580771314e+00
 7.134707422208000e+00	 6.880148980976000e+00	 5.830971426237819e+00
 7.147435344269599e+00	 6.892876903037600e+00	 5.952787982514317e+00
 7.160163266331200e+00	 6.905604825099201e+00	 6.039998262120760e+00
 7.172891188392801e+00	 6.918332747160800e+00	 6.092602277577246e+00
 7.185619110454401e+00	 6.931060669222401e+00	 6.110600041403806e+00
 7.198347032516000e+00	 6.943788591283999e+00	 6.093991566120581e+00
 7.071067811900000e+00	 6.724585489112000e+00	 4.047088714249352e+00
 7.088391928039400e+00	 6.741909605251399e+00	 4.297244250116636e+00
 7.105716044178799e+00	 6.759233721390800e+00	 4.517932520514219e+00
 7.123040160318200e+00	 6.776557837530200e+00	 4.709153557012584e+00
 7.140364276457601e+00	 6.793881953669601e+00	 4.870907391182288e+00
 7.157688392597000e+00	 6.811206069809000e+00	 5.003194054593918e+00
 7.175012508736399e+00	 6.828530185948399e+00	 5.106013578818196e+00
 7.192336624875800e+00	 6.845854302087799e+00	 5.179365995425856e+00
 7.209660741015198e+00	 6.863178418227198e+00	 5.223251335987747e+00
 7.226984857154600e+00	 6.880502534366600e+00	 5.237669632074767e+00
 7.244308973294000e+00	 6.897826650506000e+00	 5.222620915257826e+00
 7.071067811900001e+00	 6.618519471932001e+00	 3.557237042510018e+00
 7.093695228898400e+00	 6.641146888930400e+00	 3.773689532152746e+00
 7.116322645896799e+00	 6.663774305928799e+00	 3.964528986578707e+00
 7.138950062895201e+00	 6.686401722927201e+00	 4.129755476132445e+00
 7.161577479893600e+00	 6.709029139925600e+00	 4.269369071158705e+00
 7.184204896891999e+00	 6.731656556923999e+00	 4.383369842002428e+00
 7.206832313890398e+00	 6.754283973922399e+00	 4.471757859008738e+00
 7.229459730888798e+00	 6.776911390920798e+00	 4.534533192523018e+00
 7.252087147887199e+00	 6.799538807919198e+00	 4.571695912890786e+00
 7.274714564885601e+00	 6.822166224917600e+00	 4.583246090457788e+00
 7.297341981884001e+00	 6.844793641916000e+00	 4.569183795569990e+00
 7.071067811899999e+00	 6.498311319128000e+00	 3.178079738299460e+00
 7.099705636538599e+00	 6.526949143766600e+00	 3.368146736003898e+00
 7.128343461177201e+00	 6.555586968405200e+00	 3.535599650059502e+00
 7.156981285815801e+00	 6.584224793043802e+00	 3.680438623073847e+00
 7.185619110454399e+00	 6.612862617682399e+00	 3.802663797655112e+00
 7.214256935093000e+00	 6.641500442321001e+00	 3.902275316411932e+00
 7.242894759731599e+00	 6.670138266959600e+00	 3.979273321953479e+00
 7.271532584370197e+00	 6.698776091598198e+00	 4.033657956889418e+00
 7.300170409008800e+00	 6.727413916236800e+00	 4.065429363829962e+00
 7.328808233647399e+00	 6.756051740875400e+00	 4.074587685385808e+00
 7.357446058286000e+00	 6.784689565513999e+00	 4.061133064168193e+00
 7.071067811900000e+00	 6.363961030700001e+00	 2.876562869017524e+00
 7.106423150960001e+00	 6.399316369760000e+00	 3.045351384926038e+00
 7.141778490020001e+00	 6.434671708820000e+00	 3.193927177037247e+00
 7.177133829080000e+00	 6.470027047880000e+00	 3.322290513690617e+00
 7.212489168139999e+00	 6.505382386939999e+00	 3.430441663226807e+00
 7.247844507199999e+00	 6.540737726000000e+00	 3.518380893987671e+00
 7.283199846260000e+00	 6.576093065059999e+00	 3.586108474316265e+00
 7.318555185320000e+00	 6.611448404120001e+00	 3.633624672556832e+00
 7.353910524380000e+00	 6.646803743180000e+00	 3.660929757054824e+00
 7.389265863440000e+00	 6.682159082240000e+00	 3.668023996156864e+00
 7.424621202500000e+00	 6.717514421300000e+00	 3.654907658210799e+00
 7.071067811900000e+00	 6.363961030700001e+00	 2.876562869017524e+00
 7.106423150960001e+00	 6.399316369760000e+00	 3.045351384926038e+00
 7.141778490020001e+00	 6.434671708820000e+00	 3.193927177037247e+00
 7.177133829080000e+00	 6.470027047880000e+00	 3.322290513690617e+00
 7.212489168139999e+00	 6.505382386939999e+00	 3.430441663226807e+00
 7.247844507199999e+00	 6.540737726000000e+00	 3.518380893987671e+00
 7.283199846260000e+00	 6.576093065059999e+00	 3.586108474316265e+00
 7.318555185320000e+00	 6.611448404120001e+00	 3.633624672556832e+00
 7.353910524380000e+00	 6.646803743180000e+00	 3.660929757054824e+00
 7.389265863440000e+00	 6.682159082240000e+00	 3.668023996156864e+00
 7.424621202500000e+00	 6.717514421300000e+00	 3.654907658210799e+00
 7.071067811900000e+00	 6.215468606648000e+00	 2.618636560823326e+00
 7.113847772162589e+00	 6.258248566910598e+00	 2.773798729322481e+00
 7.156627732425161e+00	 6.301028527173201e+00	 2.910440189256256e+00
 7.199407692687712e+00	 6.343808487435800e+00	 3.028561416000844e+00
 7.242187652950239e+00	 6.386588447698400e+00	 3.128162884934951e+00
 7.284967613212750e+00	 6.429368407961000e+00	 3.209245071439844e+00
 7.327747573475240e+00	 6.472148368223601e+00	 3.271808450899313e+00
 7.370527533737710e+00	 6.514928328486199e+00	 3.315853498699686e+00
 7.413307494000161e+00	 6.557708288748801e+00	 3.341380690229830e+00
 7.456087454262589e+00	 6.600488249011398e+00	 3.348390500881149e+00
 7.498867414525000e+00	 6.643268209274000e+00	 3.336883406047592e+00
 7.071067811900001e+00	 6.052834046971999e+00	 2.400983329205471e+00
 7.121979500146360e+00	 6.103745735218400e+00	 2.545493570210541e+00
 7.172891188392639e+00	 6.154657423464800e+00	 2.672990537800736e+00
 7.223802876638840e+00	 6.205569111711199e+00	 2.783475033220375e+00
 7.274714564884963e+00	 6.256480799957601e+00	 2.876947857718859e+00
 7.325626253130999e+00	 6.307392488204000e+00	 2.953409812550704e+00
 7.376537941376961e+00	 6.358304176450401e+00	 3.012861698975527e+00
 7.427449629622842e+00	 6.409215864696801e+00	 3.055304318258046e+00
 7.478361317868640e+00	 6.460127552943201e+00	 3.080738471668095e+00
 7.529273006114359e+00	 6.511039241189599e+00	 3.089164960480591e+00
 7.580184694360000e+00	 6.561950929436001e+00	 3.080584585975585e+00
 7.071067811900000e+00	 5.876057351671999e+00	 2.215443260219744e+00
 7.130818334911312e+00	 5.935807874683400e+00	 2.351379181810213e+00
 7.190568857922442e+00	 5.995558397694801e+00	 2.471648336776720e+00
 7.250319380933391e+00	 6.055308920706200e+00	 2.576252020309052e+00
 7.310069903944158e+00	 6.115059443717599e+00	 2.665191527606727e+00
 7.369820426954750e+00	 6.174809966728999e+00	 2.738468153878946e+00
 7.429570949965159e+00	 6.234560489740398e+00	 2.796083194344649e+00
 7.489321472975390e+00	 6.294311012751799e+00	 2.838037944232464e+00
 7.549071995985440e+00	 6.354061535763199e+00	 2.864333698780743e+00
 7.608822518995312e+00	 6.413812058774600e+00	 2.874971753237558e+00
 7.668573042005001e+00	 6.473562581786000e+00	 2.869953402860659e+00
 7.071067811900000e+00	 5.685138520748000e+00	 2.055941663729473e+00
 7.140364276457439e+00	 5.754434985305600e+00	 2.184787355789618e+00
 7.209660741014561e+00	 5.823731449863200e+00	 2.299174097516794e+00
 7.278957205571360e+00	 5.893027914420800e+00	 2.399103909309439e+00
 7.348253670127840e+00	 5.962324378978400e+00	 2.484578811583574e+00
 7.417550134684002e+00	 6.031620843536000e+00	 2.555600824772810e+00
 7.486846599239839e+00	 6.100917308093599e+00	 2.612171969328370e+00
 7.556143063795360e+00	 6.170213772651199e+00	 2.654294265719065e+00
 7.625439528350560e+00	 6.239510237208800e+00	 2.681969734431303e+00
 7.694735992905440e+00	 6.308806701766399e+00	 2.695200395969098e+00
 7.764032457460001e+00	 6.378103166323999e+00	 2.693988270854058e+00
 7.071067811900000e+00	 5.480077554199999e+00	 1.917873415787811e+00
 7.150617324784750e+00	 5.559627067084999e+00	 2.040706066216901e+00
 7.230166837669000e+00	 5.639176579969999e+00	 2.150168524430956e+00
 7.309716350552750e+00	 5.718726092854999e+00	 2.246263846839588e+00
 7.389265863436000e+00	 5.798275605740000e+00	 2.328995089882988e+00
 7.468815376318750e+00	 5.877825118625000e+00	 2.398365310031919e+00
 7.548364889201000e+00	 5.957374631510000e+00	 2.454377563787753e+00
 7.627914402082751e+00	 6.036924144394999e+00	 2.497034907682434e+00
 7.707463914964000e+00	 6.116473657279999e+00	 2.526340398278498e+00
 7.787013427844750e+00	 6.196023170165000e+00	 2.542297092169069e+00
 7.866562940725000e+00	 6.275572683050000e+00	 2.544908045977861e+00
 7.071067811900001e+00	 5.260874452027999e+00	 1.797690451311591e+00
 7.161577479893241e+00	 5.351384120021599e+00	 1.915299443235849e+00
 7.252087147885760e+00	 5.441893788015200e+00	 2.020524795380126e+00
 7.342596815877560e+00	 5.532403456008799e+00	 2.113371009467480e+00
 7.433106483868638e+00	 5.622913124002399e+00	 2.193842587272233e+00
 7.523616151859001e+00	 5.713422791996000e+00	 2.261944030619989e+00
 7.614125819848640e+00	 5.803932459989600e+00	 2.317679841387637e+00
 7.704635487837561e+00	 5.894442127983199e+00	 2.361054521503337e+00
 7.795145155825761e+00	 5.984951795976800e+00	 2.392072572946546e+00
 7.885654823813239e+00	 6.075461463970397e+00	 2.410738497747982e+00
 7.976164491800001e+00	 6.165971131964000e+00	 2.417056797989662e+00
 7.071067811900000e+00	 5.027529214231999e+00	 1.692619500115482e+00
 7.173244741782910e+00	 5.129706144115398e+00	 1.805584810994200e+00
 7.275421671664841e+00	 5.231883073998800e+00	 1.907065101672377e+00
 7.377598601545791e+00	 5.334060003882199e+00	 1.997066848748296e+00
 7.479775531425760e+00	 5.436236933765598e+00	 2.075596528903510e+00
 7.581952461304750e+00	 5.538413863649000e+00	 2.142660618902886e+00
 7.684129391182760e+00	 5.640590793532399e+00	 2.198265595594606e+00
 7.786306321059791e+00	 5.742767723415799e+00	 2.242417935910143e+00
 7.888483250935840e+00	 5.844944653299200e+00	 2.275124116864280e+00
 7.990660180810909e+00	 5.947121583182600e+00	 2.296390615555111e+00
 8.092837110685000e+00	 6.049298513065999e+00	 2.306223909164037e+00
 7.071067811900001e+00	 4.780041840811998e+00	 1.600465052967847e+00
 7.185619110453760e+00	 4.894593139366399e+00	 1.709210246381879e+00
 7.300170409006242e+00	 5.009144437920800e+00	 1.807293110797178e+00
 7.414721707557439e+00	 5.123695736475199e+00	 1.894722772260511e+00
 7.529273006107362e+00	 5.238247035029600e+00	 1.971508356950257e+00
 7.643824304656001e+00	 5.352798333583999e+00	 2.037658991176394e+00
 7.758375603203360e+00	 5.467349632138399e+00	 2.093183801380523e+00
 7.872926901749439e+00	 5.581900930692798e+00	 2.138091914135841e+00
 7.987478200294240e+00	 5.696452229247200e+00	 2.172392456147168e+00
 8.102029498837759e+00	 5.811003527801599e+00	 2.196094554250948e+00
 8.216580797380001e+00	 5.925554826355999e+00	 2.209207335415234e+00
 7.071067811900000e+00	 4.518412331767998e+00	 1.519469248816167e+00
 7.198700585905790e+00	 4.646045105774597e+00	 1.624298113005226e+00
 7.326333359909960e+00	 4.773677879781198e+00	 1.719221463925111e+00
 7.453966133912510e+00	 4.901310653787798e+00	 1.804251924592822e+00
 7.581598907913441e+00	 5.028943427794399e+00	 1.879402118228176e+00
 7.709231681912750e+00	 5.156576201800998e+00	 1.944684668253829e+00
 7.836864455910439e+00	 5.284208975807598e+00	 2.000112198295279e+00
 7.964497229906510e+00	 5.411841749814199e+00	 2.045697332180864e+00
 8.092130003900960e+00	 5.539474523820799e+00	 2.081452693941772e+00
 8.219762777893790e+00	 5.667107297827399e+00	 2.107390907812032e+00
 8.347395551885000e+00	 5.794740071833999e+00	 2.123524598228543e+00
 7.071067811900000e+00	 4.242640687100000e+00	 1.448210523030482e+00
 7.212489168139000e+00	 4.384062043340000e+00	 1.549332897381975e+00
 7.353910524375999e+00	 4.525483399580000e+00	 1.641249083331712e+00
 7.495331880611000e+00	 4.666904755820000e+00	 1.723976252651495e+00
 7.636753236843999e+00	 4.808326112060000e+00	 1.797531577418878e+00
 7.778174593075000e+00	 4.949747468300000e+00	 1.861932230017146e+00
 7.919595949304000e+00	 5.091168824540000e+00	 1.917195383135331e+00
 8.061017305530999e+00	 5.232590180780000e+00	 1.963338209768219e+00
 8.202438661756000e+00	 5.374011537019999e+00	 2.000377883216364e+00
 8.343860017978999e+00	 5.515432893260000e+00	 2.028331577086075e+00
 8.485281374200000e+00	 5.656854249500000e+00	 2.047216465289460e+00
 7.071067811900000e+00	 7.071067811900000e+00	 1.203096462939744e+00
 7.071067811900001e+00	 7.071067811900001e+00	 1.203096462939744e+00
 7.071067811900001e+00	 7.071067811900001e+00	 1.203096462939744e+00
 7.071067811900000e+00	 7.071067811900000e+00	 1.203096462939745e+00
 7.071067811899999e+00	 7.071067811899999e+00	 1.203096462939744e+00
 7.071067811900000e+00	 7.071067811900000e+00	 1.203096462939744e+00
 7.071067811900000e+00	 7.071067811900000e+00	 1.203096462939744e+00
 7.071067811900000e+00	 7.071067811900000e+00	 1.203096462939743e+00
 7.071067811900000e+00	 7.071067811900000e+00	 1.203096462939744e+00
 7.071067811900000e+00	 7.071067811900000e+00	 1.203096462939743e+00
 7.071067811900000e+00	 7.071067811900000e+00	 1.203096462939744e+00
 7.074603345806000e+00	 7.067532277994000e+00	 3.135518690831066e+01
 7.074956899196505e+00	 7.067885831384601e+00	 3.141515630136197e+01
 7.075310452587019e+00	 7.068239384775199e+00	 3.122596053599479e+01
 7.075664005977545e+00	 7.068592938165800e+00	 3.078759961222943e+01
 7.076017559368080e+00	 7.068946491556400e+00	 3.010007353005877e+01
 7.076371112758626e+00	 7.069300044947000e+00	 2.916338228948367e+01
 7.076724666149181e+00	 7.069653598337601e+00	 2.797752589050188e+01
 7.077078219539746e+00	 7.070007151728200e+00	 2.654250433311321e+01
 7.077431772930320e+00	 7.070360705118799e+00	 2.485831761728933e+01
 7.077785326320905e+00	 7.070714258509400e+00	 2.292496574306002e+01
 7.078138879711500e+00	 7.071067811900000e+00	 2.074244871037698e+01
 7.085209947524000e+00	 7.056925676275999e+00	 1.570920211504458e+01
 7.086624161086021e+00	 7.058339889838400e+00	 1.572244155860163e+01
 7.088038374648080e+00	 7.059754103400800e+00	 1.561289888422524e+01
 7.089452588210178e+00	 7.061168316963199e+00	 1.538057409193495e+01
 7.090866801772320e+00	 7.062582530525599e+00	 1.502546718174899e+01
 7.092281015334499e+00	 7.063996744087999e+00	 1.454757815368322e+01
 7.093695228896719e+00	 7.065410957650399e+00	 1.394690700775376e+01
 7.095109442458979e+00	 7.066825171212799e+00	 1.322345374397493e+01
 7.096523656021281e+00	 7.068239384775200e+00	 1.237721836236090e+01
 7.097937869583620e+00	 7.069653598337601e+00	 1.140820086292234e+01
 7.099352083146000e+00	 7.071067811900000e+00	 1.031640124567254e+01
 7.102887617053999e+00	 7.039248006745999e+00	 1.048972155620881e+01
 7.106069597568546e+00	 7.042429987261401e+00	 1.050257772094035e+01
 7.109251578083180e+00	 7.045611967776800e+00	 1.043429052564933e+01
 7.112433558597904e+00	 7.048793948292199e+00	 1.028485997053122e+01
 7.115615539112721e+00	 7.051975928807600e+00	 1.005428605578270e+01
 7.118797519627625e+00	 7.055157909322999e+00	 9.742568781599065e+00
 7.121979500142620e+00	 7.058339889838400e+00	 9.349708148174539e+00
 7.125161480657705e+00	 7.061521870353801e+00	 8.875704155703191e+00
 7.128343461172881e+00	 7.064703850869200e+00	 8.320556804378114e+00
 7.131525441688146e+00	 7.067885831384600e+00	 7.684266094392167e+00
 7.134707422203499e+00	 7.071067811899999e+00	 6.966832025936831e+00
 7.127636354396000e+00	 7.014499269404000e+00	 7.879468853902447e+00
 7.133293208644081e+00	 7.020156123653600e+00	 7.894899493239285e+00
 7.138950062892319e+00	 7.025812977903199e+00	 7.849914776004559e+00
 7.144606917140720e+00	 7.031469832152800e+00	 7.744514703298493e+00
 7.150263771389279e+00	 7.037126686402400e+00	 7.578699276220388e+00
 7.155920625638000e+00	 7.042783540652000e+00	 7.352468495869190e+00
 7.161577479886881e+00	 7.048440394901601e+00	 7.065822363343229e+00
 7.167234334135919e+00	 7.054097249151201e+00	 6.718760879740423e+00
 7.172891188385120e+00	 7.059754103400801e+00	 6.311284046158176e+00
 7.178548042634481e+00	 7.065410957650401e+00	 5.843391863693295e+00
 7.184204896884000e+00	 7.071067811900000e+00	 5.315084333442182e+00
 7.159456159549999e+00	 6.982679464249999e+00	 6.313386197063368e+00
 7.168294994312627e+00	 6.991518299015001e+00	 6.331172609977542e+00
 7.177133829075499e+00	 7.000357133780000e+00	 6.300951727383585e+00
 7.185972663838625e+00	 7.009195968545001e+00	 6.222723553475109e+00
 7.194811498602000e+00	 7.018034803310000e+00	 6.096488092445342e+00
 7.203650333365625e+00	 7.026873638075000e+00	 5.922245348486996e+00
 7.212489168129499e+00	 7.035712472839999e+00	 5.699995325792528e+00
 7.221328002893625e+00	 7.044551307604999e+00	 5.429738028553876e+00
 7.230166837658000e+00	 7.053390142370000e+00	 5.111473460962737e+00
 7.239005672422626e+00	 7.062228977135001e+00	 4.745201627210126e+00
 7.247844507187500e+00	 7.071067811900000e+00	 4.330922531487010e+00
 7.198347032516000e+00	 6.943788591283999e+00	 5.269561036922146e+00
 7.211074954574179e+00	 6.956516513345600e+00	 5.289189745413124e+00
 7.223802876632719e+00	 6.969244435407200e+00	 5.269071951756974e+00
 7.236530798691621e+00	 6.981972357468800e+00	 5.209207668474251e+00
 7.249258720750880e+00	 6.994700279530399e+00	 5.109596908085379e+00
 7.261986642810499e+00	 7.007428201592000e+00	 4.970239683110423e+00
 7.274714564870480e+00	 7.020156123653599e+00	 4.791136006069117e+00
 7.287442486930821e+00	 7.032884045715201e+00	 4.572285889480831e+00
 7.300170408991521e+00	 7.045611967776801e+00	 4.313689345864719e+00
 7.312898331052581e+00	 7.058339889838400e+00	 4.015346387739564e+00
 7.325626253114000e+00	 7.071067811899999e+00	 3.677257027623814e+00
 7.244308973294000e+00	 6.897826650506000e+00	 4.524257038348479e+00
 7.261633089428745e+00	 6.915150766645398e+00	 4.545275293372231e+00
 7.278957205563979e+00	 6.932474882784800e+00	 4.532443082604765e+00
 7.296281321699705e+00	 6.949798998924201e+00	 4.485760437617730e+00
 7.313605437835919e+00	 6.967123115063600e+00	 4.405227389982526e+00
 7.330929553972624e+00	 6.984447231202999e+00	 4.290843971270368e+00
 7.348253670109818e+00	 7.001771347342399e+00	 4.142610213052236e+00
 7.365577786247505e+00	 7.019095463481801e+00	 3.960526146898914e+00
 7.382901902385678e+00	 7.036419579621198e+00	 3.744591804380936e+00
 7.400226018524346e+00	 7.053743695760600e+00	 3.494807217068660e+00
 7.417550134663500e+00	 7.071067811900000e+00	 3.211172416532156e+00
 7.297341981884001e+00	 6.844793641916000e+00	 3.965582473181128e+00
 7.319969398876320e+00	 6.867421058914400e+00	 3.987629199897745e+00
 7.342596815869278e+00	 6.890048475912799e+00	 3.980246259044123e+00
 7.365224232862881e+00	 6.912675892911201e+00	 3.943433720967250e+00
 7.387851649857121e+00	 6.935303309909600e+00	 3.877191656014052e+00
 7.410479066851998e+00	 6.957930726907999e+00	 3.781520134531378e+00
 7.433106483847518e+00	 6.980558143906398e+00	 3.656419226866073e+00
 7.455733900843678e+00	 7.003185560904798e+00	 3.501889003364898e+00
 7.478361317840478e+00	 7.025812977903199e+00	 3.317929534374591e+00
 7.500988734837920e+00	 7.048440394901601e+00	 3.104540890241796e+00
 7.523616151836001e+00	 7.071067811900001e+00	 2.861723141313168e+00
 7.357446058286000e+00	 6.784689565513999e+00	 3.531361915475238e+00
 7.386083882916903e+00	 6.813327390152599e+00	 3.554151099151436e+00
 7.414721707548620e+00	 6.841965214791201e+00	 3.550949822937575e+00
 7.443359532181146e+00	 6.870603039429801e+00	 3.521758229446829e+00
 7.471997356814479e+00	 6.899240864068400e+00	 3.466576461292634e+00
 7.500635181448625e+00	 6.927878688707001e+00	 3.385404661088722e+00
 7.529273006083580e+00	 6.956516513345600e+00	 3.278242971449141e+00
 7.557910830719343e+00	 6.985154337984198e+00	 3.145091534988213e+00
 7.586548655355919e+00	 7.013792162622800e+00	 2.985950494320547e+00
 7.615186479993304e+00	 7.042429987261399e+00	 2.800819992061073e+00
 7.643824304631499e+00	 7.071067811899999e+00	 2.589700170825002e+00
 7.424621202500000e+00	 6.717514421300000e+00	 3.184280006187949e+00
 7.459976541550501e+00	 6.752869760360000e+00	 3.207581413353690e+00
 7.495331880602000e+00	 6.788225099420001e+00	 3.207646082379743e+00
 7.530687219654500e+00	 6.823580438480000e+00	 3.184474281617868e+00
 7.566042558707999e+00	 6.858935777539999e+00	 3.138066279420836e+00
 7.601397897762499e+00	 6.894291116600000e+00	 3.068422344142410e+00
 7.636753236818000e+00	 6.929646455660000e+00	 2.975542744137357e+00
 7.672108575874500e+00	 6.965001794720000e+00	 2.859427747761438e+00
 7.707463914931999e+00	 7.000357133780000e+00	 2.720077623371423e+00
 7.742819253990500e+00	 7.035712472840000e+00	 2.557492639325045e+00
 7.778174593050000e+00	 7.071067811900000e+00	 2.371673063981080e+00
 7.424621202500000e+00	 6.717514421300000e+00	 3.184280006187949e+00
 7.459976541550501e+00	 6.752869760360000e+00	 3.207581413353690e+00
 7.495331880602000e+00	 6.788225099420001e+00	 3.207646082379743e+00
 7.530687219654500e+00	 6.823580438480000e+00	 3.184474281617868e+00
 7.566042558707999e+00	 6.858935777539999e+00	 3.138066279420836e+00
 7.601397897762499e+00	 6.894291116600000e+00	 3.068422344142410e+00
 7.636753236818000e+00	 6.929646455660000e+00	 2.975542744137357e+00
 7.672108575874500e+00	 6.965001794720000e+00	 2.859427747761438e+00
 7.707463914931999e+00	 7.000357133780000e+00	 2.720077623371423e+00
 7.742819253990500e+00	 7.035712472840000e+00	 2.557492639325045e+00
 7.778174593050000e+00	 7.071067811900000e+00	 2.371673063981080e+00
 7.498867414525000e+00	 6.643268209274000e+00	 2.916078705914475e+00
 7.541647374776486e+00	 6.686048169536599e+00	 2.937194921949265e+00
 7.584427335029143e+00	 6.728828129799202e+00	 2.937927383054729e+00
 7.627207295282966e+00	 6.771608090061800e+00	 2.918276564633276e+00
 7.669987255537959e+00	 6.814388050324401e+00	 2.878242942089650e+00
 7.712767215794124e+00	 6.857168010586999e+00	 2.817826990830949e+00
 7.755547176051460e+00	 6.899947970849601e+00	 2.737029186266585e+00
 7.798327136309966e+00	 6.942727931112200e+00	 2.635850003808319e+00
 7.841107096569642e+00	 6.985507891374802e+00	 2.514289918870245e+00
 7.883887056830486e+00	 7.028287851637398e+00	 2.372349406868786e+00
 7.926667017092500e+00	 7.071067811900000e+00	 2.210028943222723e+00
 7.580184694360000e+00	 6.561950929436001e+00	 2.703443952670948e+00
 7.631096382594240e+00	 6.612862617682399e+00	 2.720649722480702e+00
 7.682008070829760e+00	 6.663774305928800e+00	 2.719651900840018e+00
 7.732919759066559e+00	 6.714685994175198e+00	 2.700451289045335e+00
 7.783831447304641e+00	 6.765597682421602e+00	 2.663048688397999e+00
 7.834743135544000e+00	 6.816509370668001e+00	 2.607444900204276e+00
 7.885654823784641e+00	 6.867421058914401e+00	 2.533640725775340e+00
 7.936566512026561e+00	 6.918332747160801e+00	 2.441636966427271e+00
 7.987478200269759e+00	 6.969244435407200e+00	 2.331434423481078e+00
 8.038389888514240e+00	 7.020156123653601e+00	 2.203033898262658e+00
 8.089301576760001e+00	 7.071067811900001e+00	 2.056436192102856e+00
 7.668573042005001e+00	 6.473562581786000e+00	 2.531282322141060e+00
 7.728323565003766e+00	 6.533313104797400e+00	 2.543658048918134e+00
 7.788074088003861e+00	 6.593063627808800e+00	 2.539537729702143e+00
 7.847824611005285e+00	 6.652814150820200e+00	 2.518922659781158e+00
 7.907575134008038e+00	 6.712564673831598e+00	 2.481814134452789e+00
 7.967325657012124e+00	 6.772315196843000e+00	 2.428213449024173e+00
 8.027076180017538e+00	 6.832065719854398e+00	 2.358121898811985e+00
 8.086826703024284e+00	 6.891816242865799e+00	 2.271540779142440e+00
 8.146577226032360e+00	 6.951566765877200e+00	 2.168471385351278e+00
 8.206327749041767e+00	 7.011317288888601e+00	 2.048915012783783e+00
 8.266078272052500e+00	 7.071067811900000e+00	 1.912872956794758e+00
 7.764032457460001e+00	 6.378103166323999e+00	 2.389402285887636e+00
 7.833328922005060e+00	 6.447399630881599e+00	 2.396492319051438e+00
 7.902625386551440e+00	 6.516696095439199e+00	 2.388453114632911e+00
 7.971921851099140e+00	 6.585992559996800e+00	 2.365286693207625e+00
 8.041218315648161e+00	 6.655289024554399e+00	 2.326995075368588e+00
 8.110514780198502e+00	 6.724585489112001e+00	 2.273580281726249e+00
 8.179811244750159e+00	 6.793881953669600e+00	 2.205044332908486e+00
 8.249107709303139e+00	 6.863178418227200e+00	 2.121389249560629e+00
 8.318404173857440e+00	 6.932474882784800e+00	 2.022617052345428e+00
 8.387700638413060e+00	 7.001771347342400e+00	 1.908729761943092e+00
 8.456997102970000e+00	 7.071067811900000e+00	 1.779729399051249e+00
 7.866562940725000e+00	 6.275572683050000e+00	 2.270692168505072e+00
 7.946112453598126e+00	 6.355122195935001e+00	 2.272311459284659e+00
 8.025661966472500e+00	 6.434671708819999e+00	 2.259917534614731e+00
 8.105211479348126e+00	 6.514221221704999e+00	 2.233513451211896e+00
 8.184760992225002e+00	 6.593770734590000e+00	 2.193102265823204e+00
 8.264310505103126e+00	 6.673320247474999e+00	 2.138687035226140e+00
 8.343860017982500e+00	 6.752869760360000e+00	 2.070270816228644e+00
 8.423409530863125e+00	 6.832419273244999e+00	 1.987856665669091e+00
 8.502959043745001e+00	 6.911968786130000e+00	 1.891447640416297e+00
 8.582508556628126e+00	 6.991518299015000e+00	 1.781046797369535e+00
 8.662058069512501e+00	 7.071067811900000e+00	 1.656657193458512e+00
 7.976164491800001e+00	 6.165971131964000e+00	 2.170046755897595e+00
 8.066674159782961e+00	 6.256480799957600e+00	 2.166168073485355e+00
 8.157183827767041e+00	 6.346990467951199e+00	 2.149204676205603e+00
 8.247693495752241e+00	 6.437500135944800e+00	 2.119161066295274e+00
 8.338203163738559e+00	 6.528009803938399e+00	 2.076041746042445e+00
 8.428712831726003e+00	 6.618519471932000e+00	 2.019851217786352e+00
 8.519222499714560e+00	 6.709029139925600e+00	 1.950593983917382e+00
 8.609732167704241e+00	 6.799538807919199e+00	 1.868274546877076e+00
 8.700241835695040e+00	 6.890048475912801e+00	 1.772897409158135e+00
 8.790751503686961e+00	 6.980558143906398e+00	 1.664467073304408e+00
 8.881261171680002e+00	 7.071067811900001e+00	 1.546083555834352e+00
 8.092837110685000e+00	 6.049298513065999e+00	 2.083708863883502e+00
 8.195014040559565e+00	 6.151475442949399e+00	 2.074395394233691e+00
 8.297190970435061e+00	 6.253652372832800e+00	 2.052783941476930e+00
 8.399367900311486e+00	 6.355829302716200e+00	 2.018880983045557e+00
 8.501544830188841e+00	 6.458006232599599e+00	 1.972692996455093e+00
 8.603721760067126e+00	 6.560183162483000e+00	 1.914226459304264e+00
 8.705898689946341e+00	 6.662360092366399e+00	 1.843487849274984e+00
 8.808075619826488e+00	 6.764537022249800e+00	 1.760483644132370e+00
 8.910252549707559e+00	 6.866713952133200e+00	 1.669882636306040e+00
 9.012429479589565e+00	 6.968890882016599e+00	 1.567773441249021e+00
 9.114606409472501e+00	 7.071067811900000e+00	 1.453291331830870e+00
 8.216580797380001e+00	 5.925554826355999e+00	 2.008851149109799e+00
 8.331132095927941e+00	 6.040106124910400e+00	 1.994215448818482e+00
 8.445683394476562e+00	 6.154657423464800e+00	 1.967960689055912e+00
 8.560234693025862e+00	 6.269208722019200e+00	 1.930095997185951e+00
 8.674785991575844e+00	 6.383760020573600e+00	 1.880630500703984e+00
 8.789337290126502e+00	 6.498311319128000e+00	 1.819573327236910e+00
 8.903888588677841e+00	 6.612862617682399e+00	 1.751268847953349e+00
 9.018439887229860e+00	 6.727413916236800e+00	 1.673154390190457e+00
 9.132991185782561e+00	 6.841965214791200e+00	 1.583336029262499e+00
 9.247542484335941e+00	 6.956516513345600e+00	 1.481799124448438e+00
 9.362093782890001e+00	 7.071067811900001e+00	 1.368529034955295e+00
 8.347395551885000e+00	 5.794740071833999e+00	 1.943302327851012e+00
 8.475028325888085e+00	 5.922372845840599e+00	 1.923480970032567e+00
 8.602661099891542e+00	 6.050005619847200e+00	 1.892637515589550e+00
 8.730293873895366e+00	 6.177638393853799e+00	 1.850784589568323e+00
 8.857926647899562e+00	 6.305271167860401e+00	 1.799791230160082e+00
 8.985559421904124e+00	 6.432903941866998e+00	 1.742824684760605e+00
 9.113192195909061e+00	 6.560536715873599e+00	 1.674749192016526e+00
 9.240824969914366e+00	 6.688169489880199e+00	 1.595544501033621e+00
 9.368457743920041e+00	 6.815802263886800e+00	 1.505190360806892e+00
 9.496090517926087e+00	 6.943435037893400e+00	 1.403666520220560e+00
 9.623723291932501e+00	 7.071067811900000e+00	 1.290952728048061e+00
 8.485281374200000e+00	 5.656854249500000e+00	 1.885363080749182e+00
 8.626702730440000e+00	 5.798275605740000e+00	 1.860500833466701e+00
 8.768124086679999e+00	 5.939696961980000e+00	 1.825151657471602e+00
 8.909545442920001e+00	 6.081118318220000e+00	 1.783982913849250e+00
 9.050966799160001e+00	 6.222539674460000e+00	 1.735286916951402e+00
 9.192388155400000e+00	 6.363961030700001e+00	 1.676001780177784e+00
 9.333809511640000e+00	 6.505382386939999e+00	 1.606099954940533e+00
 9.475230867880001e+00	 6.646803743180000e+00	 1.525553892484892e+00
 9.616652224119999e+00	 6.788225099420000e+00	 1.434336043889184e+00
 9.758073580360000e+00	 6.929646455659999e+00	 1.332418860064821e+00
 9.899494936600000e+00	 7.071067811900000e+00	 1.219774791756281e+00
 7.071067811900000e+00	 7.071067811900000e+00	 1.203096462939744e+00
 7.071067811900001e+00	 7.071067811900001e+00	 1.203096462939744e+00
 7.071067811900001e+00	 7.071067811900001e+00	 1.203096462939744e+00
 7.071067811900000e+00	 7.071067811900000e+00	 1.203096462939744e+00
 7.071067811899999e+00	 7.071067811899999e+00	 1.203096462939744e+00
 7.071067811900000e+00	 7.071067811900000e+00	 1.203096462939744e+00
 7.071067811900000e+00	 7.071067811900000e+00	 1.203096462939744e+00
 7.071067811900000e+00	 7.071067811900000e+00	 1.203096462939744e+00
 7.071067811900000e+00	 7.071067811900000e+00	 1.203096462939744e+00
 7.071067811900000e+00	 7.071067811900000e+00	 1.203096462939744e+00
 7.071067811900000e+00	 7.071067811900000e+00	 1.203096462939744e+00
 7.078138879711500e+00	 7.071067811900000e+00	 2.024808521835644e+01
 7.077785326320905e+00	 7.071421365290600e+00	 2.301849019181035e+01
 7.077431772930319e+00	 7.071774918681197e+00	 2.537377075881964e+01
 7.077078219539746e+00	 7.072128472071801e+00	 2.731392691940884e+01
 7.076724666149180e+00	 7.072482025462400e+00	 2.883895867358527e+01
 7.076371112758626e+00	 7.072835578853000e+00	 2.994886602135974e+01
 7.076017559368081e+00	 7.073189132243601e+00	 3.064364896273661e+01
 7.075664005977545e+00	 7.073542685634201e+00	 3.092330749771972e+01
 7.075310452587019e+00	 7.073896239024799e+00	 3.078784162630494e+01
 7.074956899196505e+00	 7.074249792415401e+00	 3.023725134848696e+01
 7.074603345806000e+00	 7.074603345806000e+00	 2.927153666426154e+01
 7.099352083146000e+00	 7.071067811900000e+00	 1.010124972643298e+01
 7.097937869583620e+00	 7.072482025462400e+00	 1.150343540514650e+01
 7.096523656021280e+00	 7.073896239024800e+00	 1.269650546257615e+01
 7.095109442458979e+00	 7.075310452587200e+00	 1.368045989874758e+01
 7.093695228896720e+00	 7.076724666149600e+00	 1.445529871368403e+01
 7.092281015334499e+00	 7.078138879711998e+00	 1.502102190740670e+01
 7.090866801772319e+00	 7.079553093274399e+00	 1.537762947993531e+01
 7.089452588210178e+00	 7.080967306836799e+00	 1.552512143128792e+01
 7.088038374648081e+00	 7.082381520399201e+00	 1.546349776148040e+01
 7.086624161086021e+00	 7.083795733961601e+00	 1.519275847052740e+01
 7.085209947524000e+00	 7.085209947524000e+00	 1.471290355844126e+01
 7.134707422203499e+00	 7.071067811899999e+00	 6.816330865854936e+00
 7.131525441688146e+00	 7.074249792415401e+00	 7.746127743489756e+00
 7.128343461172881e+00	 7.077431772930801e+00	 8.536719135565120e+00
 7.125161480657704e+00	 7.080613753446199e+00	 9.188105042279140e+00
 7.121979500142620e+00	 7.083795733961600e+00	 9.700285463829438e+00
 7.118797519627625e+00	 7.086977714477000e+00	 1.007326040041209e+01
 7.115615539112721e+00	 7.090159694992400e+00	 1.030702985222199e+01
 7.112433558597905e+00	 7.093341675507800e+00	 1.040159381945303e+01
 7.109251578083180e+00	 7.096523656023201e+00	 1.035695230229781e+01
 7.106069597568545e+00	 7.099705636538600e+00	 1.017310530094775e+01
 7.102887617053999e+00	 7.102887617053999e+00	 9.850052815593152e+00
 7.184204896884000e+00	 7.071067811900000e+00	 5.191579546982445e+00
 7.178548042634481e+00	 7.076724666149602e+00	 5.882097007704573e+00
 7.172891188385119e+00	 7.082381520399199e+00	 6.468596505754827e+00
 7.167234334135919e+00	 7.088038374648800e+00	 6.951078042222691e+00
 7.161577479886880e+00	 7.093695228898399e+00	 7.329541618196597e+00
 7.155920625638000e+00	 7.099352083148000e+00	 7.603987234764041e+00
 7.150263771389280e+00	 7.105008937397600e+00	 7.774414893011711e+00
 7.144606917140720e+00	 7.110665791647200e+00	 7.840824594025430e+00
 7.138950062892320e+00	 7.116322645896800e+00	 7.803216338890031e+00
 7.133293208644081e+00	 7.121979500146401e+00	 7.661590128689593e+00
 7.127636354396000e+00	 7.127636354396000e+00	 7.415945964507232e+00
 7.247844507187500e+00	 7.071067811900000e+00	 4.221910351294378e+00
 7.239005672422627e+00	 7.079906646665002e+00	 4.767851022013523e+00
 7.230166837658000e+00	 7.088745481430000e+00	 5.230960373778483e+00
 7.221328002893626e+00	 7.097584316195000e+00	 5.611238410732510e+00
 7.212489168129499e+00	 7.106423150960000e+00	 5.908685137018223e+00
 7.203650333365625e+00	 7.115261985725001e+00	 6.123300556777543e+00
 7.194811498602000e+00	 7.124100820490000e+00	 6.255084674151695e+00
 7.185972663838625e+00	 7.132939655254999e+00	 6.304037493281159e+00
 7.177133829075499e+00	 7.141778490019999e+00	 6.270159018305763e+00
 7.168294994312626e+00	 7.150617324785000e+00	 6.153449253364625e+00
 7.159456159549999e+00	 7.159456159549999e+00	 5.953908202596154e+00
 7.325626253114000e+00	 7.071067811899999e+00	 3.577196077481692e+00
 7.312898331052581e+00	 7.083795733961599e+00	 4.026313668536496e+00
 7.300170408991519e+00	 7.096523656023200e+00	 4.406754865408206e+00
 7.287442486930821e+00	 7.109251578084801e+00	 4.718519680461686e+00
 7.274714564870479e+00	 7.121979500146399e+00	 4.961608126061294e+00
 7.261986642810499e+00	 7.134707422208000e+00	 5.136020214570857e+00
 7.249258720750880e+00	 7.147435344269599e+00	 5.241755958353549e+00
 7.236530798691621e+00	 7.160163266331200e+00	 5.278815369772033e+00
 7.223802876632721e+00	 7.172891188392801e+00	 5.247198461188436e+00
 7.211074954574181e+00	 7.185619110454401e+00	 5.146905244964270e+00
 7.198347032516000e+00	 7.198347032516000e+00	 4.977935733460515e+00
 7.417550134663500e+00	 7.071067811900000e+00	 3.117157198486089e+00
 7.400226018524345e+00	 7.088391928039400e+00	 3.496886211931160e+00
 7.382901902385679e+00	 7.105716044178799e+00	 3.818063870566835e+00
 7.365577786247505e+00	 7.123040160318200e+00	 4.080690205568225e+00
 7.348253670109820e+00	 7.140364276457601e+00	 4.284765248110045e+00
 7.330929553972624e+00	 7.157688392597000e+00	 4.430289029366555e+00
 7.313605437835918e+00	 7.175012508736399e+00	 4.517261580511598e+00
 7.296281321699705e+00	 7.192336624875800e+00	 4.545682932718588e+00
 7.278957205563978e+00	 7.209660741015198e+00	 4.515553117160520e+00
 7.261633089428745e+00	 7.226984857154600e+00	 4.426872165009945e+00
 7.244308973294000e+00	 7.244308973294000e+00	 4.279640107438992e+00
 7.523616151836001e+00	 7.071067811900001e+00	 2.772051907840686e+00
 7.500988734837919e+00	 7.093695228898400e+00	 3.099603164145806e+00
 7.478361317840477e+00	 7.116322645896799e+00	 3.376203950729410e+00
 7.455733900843681e+00	 7.138950062895201e+00	 3.601854337052084e+00
 7.433106483847521e+00	 7.161577479893600e+00	 3.776554392574174e+00
 7.410479066852000e+00	 7.184204896891999e+00	 3.900304186755775e+00
 7.387851649857118e+00	 7.206832313890398e+00	 3.973103789056766e+00
 7.365224232862879e+00	 7.229459730888798e+00	 3.994953268936783e+00
 7.342596815869278e+00	 7.252087147887199e+00	 3.965852695855240e+00
 7.319969398876321e+00	 7.274714564885601e+00	 3.885802139271298e+00
 7.297341981884001e+00	 7.297341981884001e+00	 3.754801668643898e+00
 7.643824304631499e+00	 7.071067811899999e+00	 2.503294813058812e+00
 7.615186479993304e+00	 7.099705636538599e+00	 2.790175005960284e+00
 7.586548655355920e+00	 7.128343461177201e+00	 3.032019742048335e+00
 7.557910830719346e+00	 7.156981285815801e+00	 3.228829162136328e+00
 7.529273006083579e+00	 7.185619110454399e+00	 3.380603407037711e+00
 7.500635181448625e+00	 7.214256935093000e+00	 3.487342617566085e+00
 7.471997356814480e+00	 7.242894759731599e+00	 3.549046934535183e+00
 7.443359532181143e+00	 7.271532584370197e+00	 3.565716498758854e+00
 7.414721707548620e+00	 7.300170409008800e+00	 3.537351451051082e+00
 7.386083882916903e+00	 7.328808233647399e+00	 3.463951932225981e+00
 7.357446058286000e+00	 7.357446058286000e+00	 3.345518083097776e+00
 7.778174593050000e+00	 7.071067811900000e+00	 2.287809356033839e+00
 7.742819253990501e+00	 7.106423150960001e+00	 2.542092824652008e+00
 7.707463914932000e+00	 7.141778490020001e+00	 2.756073589310164e+00
 7.672108575874500e+00	 7.177133829080000e+00	 2.929751914969830e+00
 7.636753236817999e+00	 7.212489168139999e+00	 3.063128066593374e+00
 7.601397897762500e+00	 7.247844507199999e+00	 3.156202309144030e+00
 7.566042558708000e+00	 7.283199846260000e+00	 3.208974907585850e+00
 7.530687219654500e+00	 7.318555185320000e+00	 3.221446126883730e+00
 7.495331880602000e+00	 7.353910524380000e+00	 3.193616232003420e+00
 7.459976541550500e+00	 7.389265863440000e+00	 3.125485487911502e+00
 7.424621202500000e+00	 7.424621202500000e+00	 3.017054159575407e+00
 7.778174593050000e+00	 7.071067811900000e+00	 2.287809356033839e+00
 7.742819253990501e+00	 7.106423150960001e+00	 2.542092824652008e+00
 7.707463914932000e+00	 7.141778490020001e+00	 2.756073589310164e+00
 7.672108575874500e+00	 7.177133829080000e+00	 2.929751914969830e+00
 7.636753236817999e+00	 7.212489168139999e+00	 3.063128066593374e+00
 7.601397897762500e+00	 7.247844507199999e+00	 3.156202309144030e+00
 7.566042558708000e+00	 7.283199846260000e+00	 3.208974907585850e+00
 7.530687219654500e+00	 7.318555185320000e+00	 3.221446126883730e+00
 7.495331880602000e+00	 7.353910524380000e+00	 3.193616232003420e+00
 7.459976541550500e+00	 7.389265863440000e+00	 3.125485487911502e+00
 7.424621202500000e+00	 7.424621202500000e+00	 3.017054159575407e+00
 7.926667017092500e+00	 7.071067811900000e+00	 2.079649537943894e+00
 7.883887056830485e+00	 7.113847772162589e+00	 2.311640161883960e+00
 7.841107096569642e+00	 7.156627732425161e+00	 2.507353223217375e+00
 7.798327136309967e+00	 7.199407692687712e+00	 2.666789191334373e+00
 7.755547176051459e+00	 7.242187652950239e+00	 2.789948535627302e+00
 7.712767215794125e+00	 7.284967613212750e+00	 2.876831725490593e+00
 7.669987255537960e+00	 7.327747573475240e+00	 2.927439230320775e+00
 7.627207295282965e+00	 7.370527533737710e+00	 2.941771519516470e+00
 7.584427335029142e+00	 7.413307494000161e+00	 2.919829062478387e+00
 7.541647374776484e+00	 7.456087454262589e+00	 2.861612328609341e+00
 7.498867414525000e+00	 7.498867414525000e+00	 2.767121787314230e+00
 8.089301576760001e+00	 7.071067811900001e+00	 1.914516522397595e+00
 8.038389888514240e+00	 7.121979500146360e+00	 2.128001747694909e+00
 7.987478200269760e+00	 7.172891188392639e+00	 2.308508619852136e+00
 7.936566512026559e+00	 7.223802876638840e+00	 2.456037930023159e+00
 7.885654823784642e+00	 7.274714564884963e+00	 2.570590469366511e+00
 7.834743135544000e+00	 7.325626253130999e+00	 2.652167029045331e+00
 7.783831447304641e+00	 7.376537941376961e+00	 2.700768400227394e+00
 7.732919759066561e+00	 7.427449629622842e+00	 2.716395374085096e+00
 7.682008070829760e+00	 7.478361317868640e+00	 2.699048741795468e+00
 7.631096382594240e+00	 7.529273006114359e+00	 2.648729294540153e+00
 7.580184694360000e+00	 7.580184694360000e+00	 2.565437823505430e+00
 8.266078272052500e+00	 7.071067811900000e+00	 1.780518258622074e+00
 8.206327749041765e+00	 7.130818334911312e+00	 1.978402745300961e+00
 8.146577226032361e+00	 7.190568857922442e+00	 2.146058943085872e+00
 8.086826703024286e+00	 7.250319380933391e+00	 2.283488130854995e+00
 8.027076180017538e+00	 7.310069903944158e+00	 2.390691587495728e+00
 7.967325657012124e+00	 7.369820426954750e+00	 2.467670591904680e+00
 7.907575134008038e+00	 7.429570949965159e+00	 2.514426422987678e+00
 7.847824611005284e+00	 7.489321472975390e+00	 2.530960359659761e+00
 7.788074088003859e+00	 7.549071995985440e+00	 2.517273680845176e+00
 7.728323565003765e+00	 7.608822518995312e+00	 2.473367665477386e+00
 7.668573042005001e+00	 7.668573042005001e+00	 2.399243592499077e+00
 8.456997102970000e+00	 7.071067811900000e+00	 1.669676119971572e+00
 8.387700638413058e+00	 7.140364276457439e+00	 1.854241202118366e+00
 8.318404173857441e+00	 7.209660741014561e+00	 2.010901865606276e+00
 8.249107709303141e+00	 7.278957205571360e+00	 2.139660105388374e+00
 8.179811244750161e+00	 7.348253670127840e+00	 2.240517916434810e+00
 8.110514780198503e+00	 7.417550134684002e+00	 2.313477293732801e+00
 8.041218315648161e+00	 7.486846599239839e+00	 2.358540232286627e+00
 7.971921851099141e+00	 7.556143063795360e+00	 2.375708727117637e+00
 7.902625386551440e+00	 7.625439528350560e+00	 2.364984773264246e+00
 7.833328922005060e+00	 7.694735992905440e+00	 2.326370365781935e+00
 7.764032457460001e+00	 7.764032457460001e+00	 2.259867499743256e+00
 8.662058069512501e+00	 7.071067811900000e+00	 1.576461955401378e+00
 8.582508556628127e+00	 7.150617324784750e+00	 1.749537746415081e+00
 8.502959043744999e+00	 7.230166837669000e+00	 1.896694655846717e+00
 8.423409530863125e+00	 7.309716350552750e+00	 2.017935701612495e+00
 8.343860017982500e+00	 7.389265863436000e+00	 2.113263901658601e+00
 8.264310505103126e+00	 7.468815376318750e+00	 2.182682273961215e+00
 8.184760992225000e+00	 7.548364889201000e+00	 2.226193836526493e+00
 8.105211479348124e+00	 7.627914402082751e+00	 2.243801607390579e+00
 8.025661966472500e+00	 7.707463914964000e+00	 2.235508604619605e+00
 7.946112453598126e+00	 7.787013427844750e+00	 2.201317846309686e+00
 7.866562940725000e+00	 7.866562940725000e+00	 2.141232350586921e+00
 8.881261171680002e+00	 7.071067811900001e+00	 1.500035112158960e+00
 8.790751503686961e+00	 7.161577479893241e+00	 1.660023049626144e+00
 8.700241835695042e+00	 7.252087147885760e+00	 1.798898981608753e+00
 8.609732167704241e+00	 7.342596815877560e+00	 1.913571839210019e+00
 8.519222499714560e+00	 7.433106483868638e+00	 2.004046067507174e+00
 8.428712831726001e+00	 7.523616151859001e+00	 2.070326111627987e+00
 8.338203163738561e+00	 7.614125819848640e+00	 2.112416416750765e+00
 8.247693495752239e+00	 7.704635487837561e+00	 2.130321428104359e+00
 8.157183827767042e+00	 7.795145155825761e+00	 2.124045590968159e+00
 8.066674159782959e+00	 7.885654823813239e+00	 2.093593350672111e+00
 7.976164491800001e+00	 7.976164491800001e+00	 2.038969152596692e+00
 9.114606409472501e+00	 7.071067811900000e+00	 1.443589388046262e+00
 9.012429479589565e+00	 7.173244741782910e+00	 1.592597686379796e+00
 8.910252549707561e+00	 7.275421671664841e+00	 1.718818097311950e+00
 8.808075619826488e+00	 7.377598601545791e+00	 1.823093572760497e+00
 8.705898689946341e+00	 7.479775531425760e+00	 1.909282994818207e+00
 8.603721760067126e+00	 7.581952461304750e+00	 1.972768906555957e+00
 8.501544830188839e+00	 7.684129391182760e+00	 2.013557703250089e+00
 8.399367900311486e+00	 7.786306321059791e+00	 2.031655780259292e+00
 8.297190970435061e+00	 7.888483250935840e+00	 2.027069533024574e+00
 8.195014040559565e+00	 7.990660180810909e+00	 1.999805357069291e+00
 8.092837110685000e+00	 8.092837110685000e+00	 1.949869647999128e+00
 9.362093782890001e+00	 7.071067811900001e+00	 1.396028081000325e+00
 9.247542484335943e+00	 7.185619110453760e+00	 1.536898118948716e+00
 9.132991185782563e+00	 7.300170409006242e+00	 1.656278916116076e+00
 9.018439887229862e+00	 7.414721707557439e+00	 1.754166358441211e+00
 8.903888588677843e+00	 7.529273006107362e+00	 1.830556331768085e+00
 8.789337290126502e+00	 7.643824304656001e+00	 1.887290826425892e+00
 8.674785991575842e+00	 7.758375603203360e+00	 1.926889048304705e+00
 8.560234693025860e+00	 7.872926901749439e+00	 1.945103704369503e+00
 8.445683394476561e+00	 7.987478200294240e+00	 1.941943806380909e+00
 8.331132095927941e+00	 8.102029498837759e+00	 1.917418366229809e+00
 8.216580797380001e+00	 8.216580797380001e+00	 1.871536395937363e+00
 9.623723291932501e+00	 7.071067811900000e+00	 1.355640419006862e+00
 9.496090517926085e+00	 7.198700585905790e+00	 1.489274118404178e+00
 9.368457743920041e+00	 7.326333359909960e+00	 1.602562305670178e+00
 9.240824969914366e+00	 7.453966133912510e+00	 1.695499290430780e+00
 9.113192195909061e+00	 7.581598907913441e+00	 1.768079382165896e+00
 8.985559421904126e+00	 7.709231681912750e+00	 1.820296890209421e+00
 8.857926647899561e+00	 7.836864455910439e+00	 1.852146123749222e+00
 8.730293873895365e+00	 7.964497229906510e+00	 1.868616595336589e+00
 8.602661099891540e+00	 8.092130003900960e+00	 1.866668708913024e+00
 8.475028325888086e+00	 8.219762777893790e+00	 1.844509836610473e+00
 8.347395551885000e+00	 8.347395551885000e+00	 1.802152443872030e+00
 9.899494936600000e+00	 7.071067811900000e+00	 1.321084378753419e+00
 9.758073580360000e+00	 7.212489168139000e+00	 1.448265295739530e+00
 9.616652224120001e+00	 7.353910524375999e+00	 1.556113309971147e+00
 9.475230867880001e+00	 7.495331880611000e+00	 1.644620680720622e+00
 9.333809511640000e+00	 7.636753236843999e+00	 1.713779667040343e+00
 9.192388155400000e+00	 7.778174593075000e+00	 1.763582527762739e+00
 9.050966799159999e+00	 7.919595949304000e+00	 1.794021521500275e+00
 8.909545442919999e+00	 8.061017305530999e+00	 1.805088906645440e+00
 8.768124086680000e+00	 8.202438661756000e+00	 1.799710836164042e+00
 8.626702730439998e+00	 8.343860017978999e+00	 1.779606019564067e+00
 8.485281374200000e+00	 8.485281374200000e+00	 1.740325784319092e+00
 5.656854249500000e+00	 5.656854249500000e+00	 5.256992872557971e-01
 5.798275605740000e+00	 5.515432893260000e+00	 6.798770022131576e-01
 5.939696961980000e+00	 5.374011537020000e+00	 8.212571254687129e-01
 6.081118318220000e+00	 5.232590180780001e+00	 9.498226993849300e-01
 6.222539674460000e+00	 5.091168824540000e+00	 1.065556766627407e+00
 6.363961030700001e+00	 4.949747468300000e+00	 1.168442370164883e+00
 6.505382386939999e+00	 4.808326112060000e+00	 1.258462553269240e+00
 6.646803743180000e+00	 4.666904755820000e+00	 1.335600359515467e+00
 6.788225099420000e+00	 4.525483399580001e+00	 1.399838832781670e+00
 6.929646455659999e+00	 4.384062043340000e+00	 1.451161017249072e+00
 7.071067811900000e+00	 4.242640687100000e+00	 1.489549957401985e+00
 5.374011537020500e+00	 5.374011537020500e+00	 5.031415337601506e-01
 5.515432893260495e+00	 5.232590180780500e+00	 6.395638902426810e-01
 5.656854249500480e+00	 5.091168824540501e+00	 7.643944468139681e-01
 5.798275605740455e+00	 4.949747468300500e+00	 8.776162458352186e-01
 5.939696961980420e+00	 4.808326112060500e+00	 9.792123299707739e-01
 6.081118318220376e+00	 4.666904755820500e+00	 1.069165742188117e+00
 6.222539674460319e+00	 4.525483399580500e+00	 1.147459525757867e+00
 6.363961030700255e+00	 4.384062043340500e+00	 1.214076724253751e+00
 6.505382386940179e+00	 4.242640687100500e+00	 1.269000381552624e+00
 6.646803743180094e+00	 4.101219330860500e+00	 1.312213541834436e+00
 6.788225099420000e+00	 3.959797974620500e+00	 1.343699249582248e+00
 5.091168824542001e+00	 5.091168824542001e+00	 4.776549455642766e-01
 5.232590180781980e+00	 4.949747468302000e+00	 5.980753341041098e-01
 5.374011537021920e+00	 4.808326112062001e+00	 7.081097141174193e-01
 5.515432893261822e+00	 4.666904755822000e+00	 8.077411279641512e-01
 5.656854249501680e+00	 4.525483399582000e+00	 8.969526183073896e-01
 5.798275605741500e+00	 4.384062043342001e+00	 9.757272281133639e-01
 5.939696961981280e+00	 4.242640687102000e+00	 1.044048000651430e+00
 6.081118318221020e+00	 4.101219330862000e+00	 1.101897979494058e+00
 6.222539674460719e+00	 3.959797974622000e+00	 1.149260208516842e+00
 6.363961030700379e+00	 3.818376618382000e+00	 1.186117731898480e+00
 6.505382386940000e+00	 3.676955262142000e+00	 1.212453594120757e+00
 4.808326112064499e+00	 4.808326112064499e+00	 4.491021594472469e-01
 4.949747468304456e+00	 4.666904755824500e+00	 5.552739705817379e-01
 5.091168824544322e+00	 4.525483399584500e+00	 6.522655641685828e-01
 5.232590180784094e+00	 4.384062043344499e+00	 7.400599825664674e-01
 5.374011537023780e+00	 4.242640687104500e+00	 8.186402684372305e-01
 5.515432893263375e+00	 4.101219330864502e+00	 8.879894647458445e-01
 5.656854249502880e+00	 3.959797974624500e+00	 9.480906147604048e-01
 5.798275605742295e+00	 3.818376618384500e+00	 9.989267620521316e-01
 5.939696961981618e+00	 3.676955262144500e+00	 1.040480950495349e+00
 6.081118318220856e+00	 3.535533905904500e+00	 1.072736228824078e+00
 6.222539674460000e+00	 3.394112549664499e+00	 1.092924419519118e+00
 4.525483399588000e+00	 4.525483399588000e+00	 4.173458170793786e-01
 4.666904755827919e+00	 4.384062043348001e+00	 5.110224413510663e-01
 4.808326112067681e+00	 4.242640687108000e+00	 5.967246386481549e-01
 4.949747468307280e+00	 4.101219330868000e+00	 6.744354513280798e-01
 5.091168824546720e+00	 3.959797974628000e+00	 7.441379220514275e-01
 5.232590180786000e+00	 3.818376618388000e+00	 8.058150937819187e-01
 5.374011537025120e+00	 3.676955262148000e+00	 8.594500097863907e-01
 5.515432893264080e+00	 3.535533905908000e+00	 9.050257183707348e-01
 5.656854249502881e+00	 3.394112549668000e+00	 9.397456076968953e-01
 5.798275605741520e+00	 3.252691193428001e+00	 9.618809593853677e-01
 5.939696961980000e+00	 3.111269837188000e+00	 9.758939383617492e-01
 4.242640687112500e+00	 4.242640687112500e+00	 3.822485650219934e-01
 4.384062043352377e+00	 4.101219330872501e+00	 4.651833929785847e-01
 4.525483399592000e+00	 3.959797974632500e+00	 5.413495841278003e-01
 4.666904755831375e+00	 3.818376618392501e+00	 6.107301808258355e-01
 4.808326112070500e+00	 3.676955262152500e+00	 6.733082257320233e-01
 4.949747468309375e+00	 3.535533905912500e+00	 7.290667666726081e-01
 5.091168824548000e+00	 3.394112549672500e+00	 7.751824408146044e-01
 5.232590180786375e+00	 3.252691193432500e+00	 8.099012563922693e-01
 5.374011537024500e+00	 3.111269837192500e+00	 8.377244894731016e-01
 5.515432893262377e+00	 2.969848480952500e+00	 8.586440445106187e-01
 5.656854249500000e+00	 2.828427124712500e+00	 8.726518259583412e-01
 3.959797974638000e+00	 3.959797974638000e+00	 3.436730547271696e-01
 4.101219330877821e+00	 3.818376618398000e+00	 4.176194769215114e-01
 4.242640687117279e+00	 3.676955262158000e+00	 4.860030520698936e-01
 4.384062043356381e+00	 3.535533905918001e+00	 5.488068274673895e-01
 4.525483399595119e+00	 3.394112549677999e+00	 6.031823726100211e-01
 4.666904755833500e+00	 3.252691193438000e+00	 6.473514500758782e-01
 4.808326112071520e+00	 3.111269837198000e+00	 6.858517352601698e-01
 4.949747468309181e+00	 2.969848480958000e+00	 7.186751326164007e-01
 5.091168824546481e+00	 2.828427124718000e+00	 7.458135465980780e-01
 5.232590180783419e+00	 2.687005768478000e+00	 7.672588816587209e-01
 5.374011537019999e+00	 2.545584412238000e+00	 7.830030422518588e-01
 3.676955262164500e+00	 3.676955262164500e+00	 3.014819425375072e-01
 3.818376618404255e+00	 3.535533905924500e+00	 3.681933544925218e-01
 3.959797974643520e+00	 3.394112549684500e+00	 4.276928568205520e-01
 4.101219330882295e+00	 3.252691193444500e+00	 4.781789941735892e-01
 4.242640687120581e+00	 3.111269837204500e+00	 5.242231294603700e-01
 4.384062043358375e+00	 2.969848480964501e+00	 5.658171671343815e-01
 4.525483399595680e+00	 2.828427124724500e+00	 6.029530116491163e-01
 4.666904755832495e+00	 2.687005768484501e+00	 6.356225674580671e-01
 4.808326112068819e+00	 2.545584412244500e+00	 6.638177390147457e-01
 4.949747468304656e+00	 2.404163056004501e+00	 6.875304307726572e-01
 5.091168824540000e+00	 2.262741699764500e+00	 7.067525471853222e-01
 3.394112549692001e+00	 3.394112549692001e+00	 2.526613471836006e-01
 3.535533905931680e+00	 3.252691193452000e+00	 3.063313424226906e-01
 3.676955262170720e+00	 3.111269837212000e+00	 3.567861258108939e-01
 3.818376618409121e+00	 2.969848480972001e+00	 4.040176018016829e-01
 3.959797974646881e+00	 2.828427124732001e+00	 4.480176748485240e-01
 4.101219330884000e+00	 2.687005768492000e+00	 4.887782494048966e-01
 4.242640687120479e+00	 2.545584412252000e+00	 5.262912299242846e-01
 4.384062043356320e+00	 2.404163056012000e+00	 5.605485208601746e-01
 4.525483399591519e+00	 2.262741699772000e+00	 5.915420266660570e-01
 4.666904755826081e+00	 2.121320343532000e+00	 6.192636517954389e-01
 4.808326112060000e+00	 1.979898987292001e+00	 6.437053007018195e-01
 3.111269837220500e+00	 3.111269837220500e+00	 1.874881780490856e-01
 3.252691193460095e+00	 2.969848480980500e+00	 2.372238903554729e-01
 3.394112549698880e+00	 2.828427124740501e+00	 2.849549899333220e-01
 3.535533905936855e+00	 2.687005768500501e+00	 3.306733812360881e-01
 3.676955262174020e+00	 2.545584412260500e+00	 3.743709687172364e-01
 3.818376618410376e+00	 2.404163056020500e+00	 4.160396568302294e-01
 3.959797974645920e+00	 2.262741699780500e+00	 4.556713500285414e-01
 4.101219330880655e+00	 2.121320343540500e+00	 4.932579527656433e-01
 4.242640687114581e+00	 1.979898987300501e+00	 5.287913694950139e-01
 4.384062043347695e+00	 1.838477631060500e+00	 5.622635046701399e-01
 4.525483399580001e+00	 1.697056274820500e+00	 5.936662627444982e-01
 2.828427124750000e+00	 2.828427124750000e+00	 1.146187223864305e-01
 2.969848480989500e+00	 2.687005768510000e+00	 1.652554166887555e-01
 3.111269837227999e+00	 2.545584412270000e+00	 2.120044091304980e-01
 3.252691193465500e+00	 2.404163056030000e+00	 2.579512924195179e-01
 3.394112549702000e+00	 2.262741699790000e+00	 3.030879710092695e-01
 3.535533905937500e+00	 2.121320343550000e+00	 3.474063493532024e-01
 3.676955262172001e+00	 1.979898987310000e+00	 3.908983319047707e-01
 3.818376618405500e+00	 1.838477631070000e+00	 4.335558231174331e-01
 3.959797974638000e+00	 1.697056274830000e+00	 4.753707274446460e-01
 4.101219330869499e+00	 1.555634918590000e+00	 5.163349493398688e-01
 4.242640687100000e+00	 1.414213562350000e+00	 5.564403932565614e-01
 2.828427124750000e+00	 2.828427124750000e+00	 1.146187223864305e-01
 2.969848480989500e+00	 2.687005768510000e+00	 1.652554166887555e-01
 3.111269837227999e+00	 2.545584412270000e+00	 2.120044091304980e-01
 3.252691193465500e+00	 2.404163056030000e+00	 2.579512924195179e-01
 3.394112549702000e+00	 2.262741699790000e+00	 3.030879710092695e-01
 3.535533905937500e+00	 2.121320343550000e+00	 3.474063493532024e-01
 3.676955262172001e+00	 1.979898987310000e+00	 3.908983319047707e-01
 3.818376618405500e+00	 1.838477631070000e+00	 4.335558231174331e-01
 3.959797974638000e+00	 1.697056274830000e+00	 4.753707274446460e-01
 4.101219330869499e+00	 1.555634918590000e+00	 5.163349493398688e-01
 4.242640687100000e+00	 1.414213562350000e+00	 5.564403932565614e-01
 2.545584412279500e+00	 2.545584412279500e+00	 1.199817134298236e-01
 2.687005768518914e+00	 2.404163056039500e+00	 1.682687330939073e-01
 2.828427124757160e+00	 2.262741699799500e+00	 2.158884626649503e-01
 2.969848480994236e+00	 2.121320343559500e+00	 2.621034669232753e-01
 3.111269837230140e+00	 1.979898987319500e+00	 3.047589242778257e-01
 3.252691193464875e+00	 1.838477631079499e+00	 3.467015937392585e-01
 3.394112549698440e+00	 1.697056274839500e+00	 3.879233797610232e-01
 3.535533905930834e+00	 1.555634918599500e+00	 4.284161867965699e-01
 3.676955262162060e+00	 1.414213562359500e+00	 4.681719192993538e-01
 3.818376618392115e+00	 1.272792206119500e+00	 5.071824817228232e-01
 3.959797974621000e+00	 1.131370849879500e+00	 5.454397785204356e-01
 2.262741699807999e+00	 2.262741699807999e+00	 1.212769207739516e-01
 2.404163056047360e+00	 2.121320343567999e+00	 1.665038527761397e-01
 2.545584412285440e+00	 1.979898987327999e+00	 2.111527536998926e-01
 2.687005768522239e+00	 1.838477631087999e+00	 2.552236235451312e-01
 2.828427124757760e+00	 1.697056274847999e+00	 2.987164623117667e-01
 2.969848480992000e+00	 1.555634918607999e+00	 3.409641228054444e-01
 3.111269837224959e+00	 1.414213562367999e+00	 3.800149357106559e-01
 3.252691193456640e+00	 1.272792206128000e+00	 4.184422819823151e-01
 3.394112549687040e+00	 1.131370849887999e+00	 4.562380660738689e-01
 3.535533905916160e+00	 9.899494936479996e-01	 4.933941924387693e-01
 3.676955262144000e+00	 8.485281374079995e-01	 5.299025655304535e-01
 1.979898987335499e+00	 1.979898987335499e+00	 1.185043444183799e-01
 2.121320343574835e+00	 1.838477631095500e+00	 1.607596181099959e-01
 2.262741699812840e+00	 1.697056274855500e+00	 2.025261197377720e-01
 2.404163056049515e+00	 1.555634918615500e+00	 2.438038493016178e-01
 2.545584412284859e+00	 1.414213562375499e+00	 2.845928068014427e-01
 2.687005768518874e+00	 1.272792206135499e+00	 3.248929922371552e-01
 2.828427124751559e+00	 1.131370849895499e+00	 3.647044056086656e-01
 2.969848480982914e+00	 9.899494936554994e-01	 4.034390686167547e-01
 3.111269837212939e+00	 8.485281374154995e-01	 4.393741277102151e-01
 3.252691193441634e+00	 7.071067811754993e-01	 4.747750414296442e-01
 3.394112549668999e+00	 5.656854249354992e-01	 5.096337142284850e-01
 1.697056274861999e+00	 1.697056274861999e+00	 1.116639843626741e-01
 1.838477631101339e+00	 1.555634918621999e+00	 1.510360290949831e-01
 1.979898987339359e+00	 1.414213562381999e+00	 1.900085607780229e-01
 2.121320343576059e+00	 1.272792206141999e+00	 2.285815794117028e-01
 2.262741699811439e+00	 1.131370849901999e+00	 2.667550849959215e-01
 2.404163056045499e+00	 9.899494936619991e-01	 3.045290775305823e-01
 2.545584412278239e+00	 8.485281374219991e-01	 3.419035570155882e-01
 2.687005768509659e+00	 7.071067811819991e-01	 3.788785234508418e-01
 2.828427124739759e+00	 5.656854249419991e-01	 4.154539768362507e-01
 2.969848480968539e+00	 4.242640687019993e-01	 4.511299886374436e-01
 3.111269837195999e+00	 2.828427124619991e-01	 4.844381845564515e-01
 1.414213562387499e+00	 1.414213562387499e+00	 1.007558406063944e-01
 1.555634918626874e+00	 1.272792206147499e+00	 1.373330857306007e-01
 1.697056274864999e+00	 1.131370849907499e+00	 1.736000768200923e-01
 1.838477631101874e+00	 9.899494936674987e-01	 2.095568138747692e-01
 1.979898987337499e+00	 8.485281374274989e-01	 2.452032968945251e-01
 2.121320343571873e+00	 7.071067811874989e-01	 2.805395258792532e-01
 2.262741699804999e+00	 5.656854249474987e-01	 3.155655008288530e-01
 2.404163056036874e+00	 4.242640687074988e-01	 3.502812217432181e-01
 2.545584412267499e+00	 2.828427124674988e-01	 3.846866886222429e-01
 2.687005768496874e+00	 1.414213562274989e-01	 4.187819014658228e-01
 2.828427124724999e+00	-1.250122227958173e-11	 4.525668602738486e-01
 1.131370849911999e+00	 1.131370849911999e+00	 8.577991314910847e-02
 1.272792206151439e+00	 9.899494936719987e-01	 1.196507880163630e-01
 1.414213562389759e+00	 8.485281374319987e-01	 1.533006678634362e-01
 1.555634918626958e+00	 7.071067811919984e-01	 1.867295526902177e-01
 1.697056274863038e+00	 5.656854249519985e-01	 2.199374424965961e-01
 1.838477631097999e+00	 4.242640687119985e-01	 2.529243372824542e-01
 1.979898987331838e+00	 2.828427124719985e-01	 2.856902370476827e-01
 2.121320343564558e+00	 1.414213562319985e-01	 3.182351417921692e-01
 2.262741699796158e+00	-8.001432849624734e-12	 3.505590515157959e-01
 2.404163056026638e+00	-1.414213562480014e-01	 3.826619662184540e-01
 2.545584412255999e+00	-2.828427124880016e-01	 4.145438859000246e-01
 8.485281374354983e-01	 8.485281374354983e-01	 6.673620199038149e-02
 9.899494936750332e-01	 7.071067811954983e-01	 9.798913595178795e-02
 1.131370849913638e+00	 5.656854249554983e-01	 1.291103339075232e-01
 1.272792206151313e+00	 4.242640687154982e-01	 1.600997958574668e-01
 1.414213562388058e+00	 2.828427124754982e-01	 1.909575218014983e-01
 1.555634918623873e+00	 1.414213562354982e-01	 2.216835117394940e-01
 1.697056274858758e+00	-4.501760075825700e-12	 2.522777656713284e-01
 1.838477631092713e+00	-1.414213562445017e-01	 2.827402835968885e-01
 1.979898987325738e+00	-2.828427124845017e-01	 3.130710655160407e-01
 2.121320343557833e+00	-4.242640687245017e-01	 3.432701114286706e-01
 2.262741699788998e+00	-5.656854249645018e-01	 3.733374213346516e-01
 5.656854249579980e-01	 5.656854249579980e-01	 4.362470712977319e-02
 7.071067811976580e-01	 4.242640687179980e-01	 7.234812953639463e-02
 8.485281374366381e-01	 2.828427124779981e-01	 1.010290749518311e-01
 9.899494936749381e-01	 1.414213562379980e-01	 1.296675433759450e-01
 1.131370849912558e+00	-2.001981913579698e-12	 1.582635348086149e-01
 1.272792206149498e+00	-1.414213562420021e-01	 1.868170492496983e-01
 1.414213562385758e+00	-2.828427124820019e-01	 2.153280866990697e-01
 1.555634918621338e+00	-4.242640687220020e-01	 2.437966471565938e-01
 1.697056274856238e+00	-5.656854249620019e-01	 2.722227306221436e-01
 1.838477631090458e+00	-7.071067812020018e-01	 3.006063370955780e-01
 1.979898987323998e+00	-8.485281374420021e-01	 3.289474665767704e-01
 2.828427124794977e-01	 2.828427124794977e-01	 1.644542856685425e-02
 4.242640687193128e-01	 1.414213562394977e-01	 4.272776876970995e-02
 5.656854249587578e-01	-5.022510185526130e-13	 6.905689099584002e-02
 7.071067811978328e-01	-1.414213562405023e-01	 9.543279524509762e-02
 8.485281374365378e-01	-2.828427124805023e-01	 1.218554815173413e-01
 9.899494936748727e-01	-4.242640687205023e-01	 1.483249498124263e-01
 1.131370849912838e+00	-5.656854249605021e-01	 1.748412001302073e-01
 1.272792206150433e+00	-7.071067812005022e-01	 2.014042324705465e-01
 1.414213562387657e+00	-8.485281374405022e-01	 2.280140468332973e-01
 1.555634918624513e+00	-9.899494936805021e-01	 2.546706432183193e-01
 1.697056274860998e+00	-1.131370849920502e+00	 2.813740216254654e-01
 0.000000000000000e+00	 0.000000000000000e+00	-1.480163369881424e-02
 1.414213562400000e-01	-1.414213562400000e-01	 9.128053651267386e-03
 2.828427124800000e-01	-2.828427124800000e-01	 3.319378203905349e-02
 4.242640687200001e-01	-4.242640687200001e-01	 5.739555146438229e-02
 5.656854249600001e-01	-5.656854249600001e-01	 8.173336192710301e-02
 7.071067812000000e-01	-7.071067812000000e-01	 1.062072134270526e-01
 8.485281374400000e-01	-8.485281374400000e-01	 1.308171059640786e-01
 9.899494936800000e-01	-9.899494936800000e-01	 1.555630395380276e-01
 1.131370849920000e+00	-1.131370849920000e+00	 1.804450141487454e-01
 1.272792206160000e+00	-1.272792206160000e+00	 2.054630297960739e-01
 1.414213562400000e+00	-1.414213562400000e+00	 2.306170864798654e-01
 1.414213562370000e+01	 1.414213562370000e+01	 1.160761187037627e+00
 1.428355697994000e+01	 1.400071426746100e+01	 1.161751592385377e+00
 1.442497833618000e+01	 1.385929291122400e+01	 1.162039625544017e+00
 1.456639969242000e+01	 1.371787155498900e+01	 1.161620174876924e+00
 1.470782104866000e+01	 1.357645019875600e+01	 1.160493033430113e+00
 1.484924240490000e+01	 1.343502884252500e+01	 1.159045797454729e+00
 1.499066376114000e+01	 1.329360748629600e+01	 1.156970319014109e+00
 1.513208511738000e+01	 1.315218613006900e+01	 1.154270886193326e+00
 1.527350647362000e+01	 1.301076477384400e+01	 1.150951787094997e+00
 1.541492782986000e+01	 1.286934341762100e+01	 1.147017309839290e+00
 1.555634918610000e+01	 1.272792206140000e+01	 1.142471742563920e+00
 1.385929291123900e+01	 1.385929291123900e+01	 1.178695130666292e+00
 1.400071426747549e+01	 1.371787155499981e+01	 1.179760603156496e+00
 1.414213562371234e+01	 1.357645019876224e+01	 1.180147750788945e+00
 1.428355697994956e+01	 1.343502884252629e+01	 1.179851461839557e+00
 1.442497833618716e+01	 1.329360748629196e+01	 1.178866624603193e+00
 1.456639969242513e+01	 1.315218613005925e+01	 1.177188127393658e+00
 1.470782104866346e+01	 1.301076477382816e+01	 1.174811175713316e+00
 1.484924240490216e+01	 1.286934341759869e+01	 1.171797580247992e+00
 1.499066376114124e+01	 1.272792206137084e+01	 1.168168938273623e+00
 1.513208511738069e+01	 1.258650070514461e+01	 1.163929537840318e+00
 1.527350647362050e+01	 1.244507934892000e+01	 1.159083667015732e+00
 1.357645019877600e+01	 1.357645019877600e+01	 1.195322260224276e+00
 1.371787155500954e+01	 1.343502884253664e+01	 1.196392730638211e+00
 1.385929291124376e+01	 1.329360748629856e+01	 1.196808923617080e+00
 1.400071426747866e+01	 1.315218613006176e+01	 1.196565727349334e+00
 1.414213562371424e+01	 1.301076477382624e+01	 1.195658030042375e+00
 1.428355697995050e+01	 1.286934341759200e+01	 1.194080719922546e+00
 1.442497833618744e+01	 1.272792206135904e+01	 1.191828685235137e+00
 1.456639969242506e+01	 1.258650070512736e+01	 1.188896814244387e+00
 1.470782104866336e+01	 1.244507934889696e+01	 1.185275003178645e+00
 1.484924240490234e+01	 1.230365799266784e+01	 1.180648072829641e+00
 1.499066376114200e+01	 1.216223663644000e+01	 1.175419291787764e+00
 1.329360748631100e+01	 1.329360748631100e+01	 1.210512235760163e+00
 1.343502884254216e+01	 1.315218613007149e+01	 1.211517635229163e+00
 1.357645019877426e+01	 1.301076477383296e+01	 1.211892804777111e+00
 1.371787155500728e+01	 1.286934341759541e+01	 1.211632632504998e+00
 1.385929291124124e+01	 1.272792206135884e+01	 1.210732006532758e+00
 1.400071426747613e+01	 1.258650070512325e+01	 1.209185814999271e+00
 1.414213562371194e+01	 1.244507934888864e+01	 1.206988946062367e+00
 1.428355697994868e+01	 1.230365799265501e+01	 1.204136287898820e+00
 1.442497833618636e+01	 1.216223663642236e+01	 1.200622728704352e+00
 1.456639969242497e+01	 1.202081528019069e+01	 1.196443156693632e+00
 1.470782104866450e+01	 1.187939392396000e+01	 1.191581437090641e+00
 1.301076477384400e+01	 1.301076477384400e+01	 1.224134714826033e+00
 1.315218613007336e+01	 1.286934341760436e+01	 1.225004974831494e+00
 1.329360748630384e+01	 1.272792206136544e+01	 1.225269052521250e+00
 1.343502884253544e+01	 1.258650070512724e+01	 1.224921835908822e+00
 1.357645019876816e+01	 1.244507934888976e+01	 1.223958213026679e+00
 1.371787155500200e+01	 1.230365799265300e+01	 1.222373071926235e+00
 1.385929291123696e+01	 1.216223663641696e+01	 1.220161300677854e+00
 1.400071426747304e+01	 1.202081528018164e+01	 1.217317787370848e+00
 1.414213562371024e+01	 1.187939392394704e+01	 1.213837420113475e+00
 1.428355697994856e+01	 1.173797256771316e+01	 1.209715087032942e+00
 1.442497833618800e+01	 1.159655121148000e+01	 1.204945676275406e+00
 1.272792206137500e+01	 1.272792206137500e+01	 1.236059352477383e+00
 1.286934341760313e+01	 1.258650070513525e+01	 1.236724404850783e+00
 1.301076477383250e+01	 1.244507934889600e+01	 1.236807322605153e+00
 1.315218613006313e+01	 1.230365799265725e+01	 1.236302993666541e+00
 1.329360748629500e+01	 1.216223663641900e+01	 1.235206305979949e+00
 1.343502884252813e+01	 1.202081528018125e+01	 1.233512147509323e+00
 1.357645019876250e+01	 1.187939392394400e+01	 1.231215406237560e+00
 1.371787155499813e+01	 1.173797256770725e+01	 1.228310970166504e+00
 1.385929291123500e+01	 1.159655121147100e+01	 1.224793727316950e+00
 1.400071426747312e+01	 1.145512985523525e+01	 1.220658565728643e+00
 1.414213562371250e+01	 1.131370849900000e+01	 1.215900373460269e+00
 1.244507934890400e+01	 1.244507934890400e+01	 1.246155801273057e+00
 1.258650070513146e+01	 1.230365799266416e+01	 1.246545578195969e+00
 1.272792206136024e+01	 1.216223663642464e+01	 1.246377268287850e+00
 1.286934341759034e+01	 1.202081528018544e+01	 1.245645759387277e+00
 1.301076477382176e+01	 1.187939392394656e+01	 1.244345939351780e+00
 1.315218613005450e+01	 1.173797256770800e+01	 1.242472696057835e+00
 1.329360748628856e+01	 1.159655121146976e+01	 1.240020917400871e+00
 1.343502884252394e+01	 1.145512985523184e+01	 1.236985491295262e+00
 1.357645019876064e+01	 1.131370849899424e+01	 1.233361305674336e+00
 1.371787155499866e+01	 1.117228714275696e+01	 1.229143248490369e+00
 1.385929291123800e+01	 1.103086578652000e+01	 1.224326207714586e+00
 1.216223663643100e+01	 1.216223663643100e+01	 1.254293711275171e+00
 1.230365799265836e+01	 1.202081528019109e+01	 1.254338145279275e+00
 1.244507934888706e+01	 1.187939392395136e+01	 1.253848540331673e+00
 1.258650070511709e+01	 1.173797256771181e+01	 1.252819784183467e+00
 1.272792206134844e+01	 1.159655121147244e+01	 1.251246764604712e+00
 1.286934341758112e+01	 1.145512985523325e+01	 1.249124369384413e+00
 1.301076477381514e+01	 1.131370849899424e+01	 1.246447486330527e+00
 1.315218613005048e+01	 1.117228714275541e+01	 1.243211003269958e+00
 1.329360748628716e+01	 1.103086578651676e+01	 1.239409808048563e+00
 1.343502884252517e+01	 1.088944443027829e+01	 1.235038788531151e+00
 1.357645019876450e+01	 1.074802307404000e+01	 1.230092832601479e+00
 1.187939392395600e+01	 1.187939392395600e+01	 1.260342730049042e+00
 1.202081528018384e+01	 1.173797256771604e+01	 1.259971754016143e+00
 1.216223663641296e+01	 1.159655121147616e+01	 1.259090787002183e+00
 1.230365799264336e+01	 1.145512985523636e+01	 1.257694716670788e+00
 1.244507934887504e+01	 1.131370849899664e+01	 1.255778430704539e+00
 1.258650070510800e+01	 1.117228714275700e+01	 1.253336816804965e+00
 1.272792206134224e+01	 1.103086578651744e+01	 1.250364762692547e+00
 1.286934341757776e+01	 1.088944443027796e+01	 1.246857156106720e+00
 1.301076477381456e+01	 1.074802307403856e+01	 1.242808884805868e+00
 1.315218613005264e+01	 1.060660171779924e+01	 1.238214836567328e+00
 1.329360748629200e+01	 1.046518036156000e+01	 1.233069899187386e+00
 1.159655121147900e+01	 1.159655121147900e+01	 1.264172502663113e+00
 1.173797256770789e+01	 1.145512985523901e+01	 1.263316049825151e+00
 1.187939392393794e+01	 1.131370849899904e+01	 1.261973654068094e+00
 1.202081528016917e+01	 1.117228714275909e+01	 1.260140202968088e+00
 1.216223663640156e+01	 1.103086578651916e+01	 1.257810584120237e+00
 1.230365799263513e+01	 1.088944443027925e+01	 1.254979685138591e+00
 1.244507934886986e+01	 1.074802307403936e+01	 1.251642393656158e+00
 1.258650070510576e+01	 1.060660171779949e+01	 1.247793597324896e+00
 1.272792206134284e+01	 1.046518036155964e+01	 1.243428183815716e+00
 1.286934341758109e+01	 1.032375900531981e+01	 1.238351400993880e+00
 1.301076477382050e+01	 1.018233764908000e+01	 1.231609358057664e+00
 1.131370849900000e+01	 1.131370849900000e+01	 1.265652671688883e+00
 1.145512985523050e+01	 1.117228714276000e+01	 1.264240675627950e+00
 1.159655121146200e+01	 1.103086578652000e+01	 1.262366784801203e+00
 1.173797256769450e+01	 1.088944443028000e+01	 1.260025886697307e+00
 1.187939392392800e+01	 1.074802307404000e+01	 1.257212868823887e+00
 1.202081528016250e+01	 1.060660171780000e+01	 1.253922618707514e+00
 1.216223663639800e+01	 1.046518036156000e+01	 1.250150023893717e+00
 1.230365799263450e+01	 1.032375900532000e+01	 1.245703208516620e+00
 1.244507934887200e+01	 1.018233764908000e+01	 1.239610845166546e+00
 1.258650070511050e+01	 1.004091629284000e+01	 1.232932851871776e+00
 1.272792206135000e+01	 9.899494936600000e+00	 1.225676966738036e+00
 1.131370849900000e+01	 1.131370849900000e+01	 1.265652671688883e+00
 1.145512985523050e+01	 1.117228714276000e+01	 1.264240675627950e+00
 1.159655121146200e+01	 1.103086578652000e+01	 1.262366784801203e+00
 1.173797256769450e+01	 1.088944443028000e+01	 1.260025886697307e+00
 1.187939392392800e+01	 1.074802307404000e+01	 1.257212868823887e+00
 1.202081528016250e+01	 1.060660171780000e+01	 1.253922618707514e+00
 1.216223663639800e+01	 1.046518036156000e+01	 1.250150023893717e+00
 1.230365799263450e+01	 1.032375900532000e+01	 1.245703208516620e+00
 1.244507934887200e+01	 1.018233764908000e+01	 1.239610845166546e+00
 1.258650070511050e+01	 1.004091629284000e+01	 1.232932851871776e+00
 1.272792206135000e+01	 9.899494936600000e+00	 1.225676966738036e+00
 1.103086578652000e+01	 1.103086578652000e+01	 1.287464682124541e+00
 1.117228714275230e+01	 1.088944443028019e+01	 1.290959996058217e+00
 1.131370849898542e+01	 1.074802307404036e+01	 1.292930727042964e+00
 1.145512985521935e+01	 1.060660171780051e+01	 1.293371762479956e+00
 1.159655121145408e+01	 1.046518036156064e+01	 1.292277989789321e+00
 1.173797256768962e+01	 1.032375900532075e+01	 1.289482399630657e+00
 1.187939392392598e+01	 1.018233764908084e+01	 1.284103442213171e+00
 1.202081528016314e+01	 1.004091629284091e+01	 1.277031457640429e+00
 1.216223663640112e+01	 9.899494936600961e+00	 1.268274184719813e+00
 1.230365799263990e+01	 9.758073580360987e+00	 1.257839362038931e+00
 1.244507934887950e+01	 9.616652224120999e+00	 1.245734727965631e+00
 1.074802307404000e+01	 1.074802307404000e+01	 1.313708713979263e+00
 1.088944443027392e+01	 1.060660171780076e+01	 1.321324450163757e+00
 1.103086578650848e+01	 1.046518036156144e+01	 1.326352915307523e+00
 1.117228714274368e+01	 1.032375900532204e+01	 1.328673957391523e+00
 1.131370849897952e+01	 1.018233764908256e+01	 1.327603021100001e+00
 1.145512985521600e+01	 1.004091629284300e+01	 1.323731658772830e+00
 1.159655121145312e+01	 9.899494936603361e+00	 1.317067609919072e+00
 1.173797256769088e+01	 9.758073580363639e+00	 1.307618613827999e+00
 1.187939392392928e+01	 9.616652224123840e+00	 1.295392409569112e+00
 1.202081528016832e+01	 9.475230867883960e+00	 1.280396735992140e+00
 1.216223663640800e+01	 9.333809511643999e+00	 1.262639331727049e+00
 1.046518036156000e+01	 1.046518036156000e+01	 1.344254402333081e+00
 1.060660171779534e+01	 1.032375900532171e+01	 1.355157482824099e+00
 1.074802307403118e+01	 1.018233764908324e+01	 1.361989185160828e+00
 1.088944443026751e+01	 1.004091629284459e+01	 1.364913060911641e+00
 1.103086578650432e+01	 9.899494936605757e+00	 1.363936850287301e+00
 1.117228714274163e+01	 9.758073580366750e+00	 1.359068293278775e+00
 1.131370849897942e+01	 9.616652224127559e+00	 1.350315129657236e+00
 1.145512985521770e+01	 9.475230867888190e+00	 1.337685098974079e+00
 1.159655121145648e+01	 9.333809511648639e+00	 1.321185940560920e+00
 1.173797256769575e+01	 9.192388155408912e+00	 1.300825393529604e+00
 1.187939392393550e+01	 9.050966799169000e+00	 1.276611196772218e+00
 1.018233764908000e+01	 1.018233764908000e+01	 1.379141537725121e+00
 1.032375900531658e+01	 1.004091629284304e+01	 1.392455269695306e+00
 1.046518036155352e+01	 9.899494936605759e+00	 1.400761513771881e+00
 1.060660171779082e+01	 9.758073580368158e+00	 1.404068010647526e+00
 1.074802307402848e+01	 9.616652224130238e+00	 1.402382500795115e+00
 1.088944443026650e+01	 9.475230867892000e+00	 1.395712724467731e+00
 1.103086578650488e+01	 9.333809511653440e+00	 1.384066421698662e+00
 1.117228714274362e+01	 9.192388155414559e+00	 1.367451332301418e+00
 1.131370849898272e+01	 9.050966799175360e+00	 1.345875195869734e+00
 1.145512985522218e+01	 8.909545442935839e+00	 1.319345751777570e+00
 1.159655121146200e+01	 8.768124086695998e+00	 1.287870739179134e+00
 9.899494936599998e+00	 9.899494936599998e+00	 1.419421208315907e+00
 1.004091629283763e+01	 9.758073580364750e+00	 1.434497376186367e+00
 1.018233764907550e+01	 9.616652224129000e+00	 1.443474135543834e+00
 1.032375900531362e+01	 9.475230867892748e+00	 1.446359227343098e+00
 1.046518036155200e+01	 9.333809511655998e+00	 1.443160392319150e+00
 1.060660171779062e+01	 9.192388155418749e+00	 1.433885370987184e+00
 1.074802307402950e+01	 9.050966799180999e+00	 1.418541903642606e+00
 1.088944443026863e+01	 8.909545442942749e+00	 1.397137730361044e+00
 1.103086578650800e+01	 8.768124086703999e+00	 1.369680590998351e+00
 1.117228714274762e+01	 8.626702730464748e+00	 1.336178225190613e+00
 1.131370849898750e+01	 8.485281374224998e+00	 1.296638372354154e+00
 9.616652224119999e+00	 9.616652224119999e+00	 1.465469646460223e+00
 9.758073580358481e+00	 9.475230867886840e+00	 1.481504222466085e+00
 9.899494936597119e+00	 9.333809511652960e+00	 1.490347469597301e+00
 1.004091629283592e+01	 9.192388155418358e+00	 1.492007129070779e+00
 1.018233764907488e+01	 9.050966799183037e+00	 1.486490941883620e+00
 1.032375900531400e+01	 8.909545442947000e+00	 1.473806648813142e+00
 1.046518036155328e+01	 8.768124086710237e+00	 1.453961990416869e+00
 1.060660171779272e+01	 8.626702730472758e+00	 1.426964707032551e+00
 1.074802307403232e+01	 8.485281374234559e+00	 1.392822538778164e+00
 1.088944443027208e+01	 8.343860017995636e+00	 1.351543225551920e+00
 1.103086578651200e+01	 8.202438661755998e+00	 1.303134507032273e+00
 9.333809511639998e+00	 9.333809511639998e+00	 1.517507270703784e+00
 9.475230867879143e+00	 9.192388155409304e+00	 1.533696226032009e+00
 9.616652224118379e+00	 9.050966799177640e+00	 1.541601932381658e+00
 9.758073580357703e+00	 8.909545442944987e+00	 1.541232131231758e+00
 9.899494936597119e+00	 8.768124086711358e+00	 1.532594563841534e+00
 1.004091629283662e+01	 8.626702730476747e+00	 1.515696971250422e+00
 1.018233764907622e+01	 8.485281374241158e+00	 1.490547094278079e+00
 1.032375900531590e+01	 8.343860018004589e+00	 1.457152673524379e+00
 1.046518036155568e+01	 8.202438661767037e+00	 1.415521449369431e+00
 1.060660171779554e+01	 8.061017305528509e+00	 1.365661161973579e+00
 1.074802307403550e+01	 7.919595949288997e+00	 1.307579551277414e+00
 9.050966799159998e+00	 9.050966799159998e+00	 1.575754496921339e+00
 9.192388155399620e+00	 8.909545442932160e+00	 1.591293801710728e+00
 9.333809511639279e+00	 8.768124086703040e+00	 1.597457937675327e+00
 9.475230867878979e+00	 8.626702730472640e+00	 1.594254646556290e+00
 9.616652224118720e+00	 8.485281374240959e+00	 1.581691669874971e+00
 9.758073580358500e+00	 8.343860018008000e+00	 1.559776748932938e+00
 9.899494936598318e+00	 8.202438661773758e+00	 1.528517624811979e+00
 1.004091629283818e+01	 8.061017305538238e+00	 1.487922038374108e+00
 1.018233764907808e+01	 7.919595949301437e+00	 1.437997730261573e+00
 1.032375900531802e+01	 7.778174593063357e+00	 1.378752440896862e+00
 1.046518036155800e+01	 7.636753236823998e+00	 1.310193910482709e+00
 8.768124086679997e+00	 8.768124086679997e+00	 1.643287970960359e+00
 8.909545442919901e+00	 8.626702730455387e+00	 1.654517361658146e+00
 9.050966799159818e+00	 8.485281374229158e+00	 1.658135896586062e+00
 9.192388155399742e+00	 8.343860018001306e+00	 1.651295085103971e+00
 9.333809511639679e+00	 8.202438661771838e+00	 1.634002668995372e+00
 9.475230867879624e+00	 8.061017305540748e+00	 1.606266389823972e+00
 9.616652224119576e+00	 7.919595949308038e+00	 1.568093988933702e+00
 9.758073580359541e+00	 7.778174593073707e+00	 1.519493207448728e+00
 9.899494936599517e+00	 7.636753236837757e+00	 1.460471786273447e+00
 1.004091629283950e+01	 7.495331880600188e+00	 1.391037466092502e+00
 1.018233764907950e+01	 7.353910524360998e+00	 1.311197987370785e+00
 8.485281374200000e+00	 8.485281374200000e+00	 1.730101198591513e+00
 8.626702730440000e+00	 8.343860017978999e+00	 1.734115451295153e+00
 8.768124086679999e+00	 8.202438661756000e+00	 1.726790112344534e+00
 8.909545442920001e+00	 8.061017305530999e+00	 1.712573854264030e+00
 9.050966799160001e+00	 7.919595949304000e+00	 1.689747967543823e+00
 9.192388155400000e+00	 7.778174593075001e+00	 1.655386299216473e+00
 9.333809511640000e+00	 7.636753236844000e+00	 1.609496590888071e+00
 9.475230867880001e+00	 7.495331880611000e+00	 1.552086583944937e+00
 9.616652224119999e+00	 7.353910524375999e+00	 1.483164019553638e+00
 9.758073580360000e+00	 7.212489168138999e+00	 1.402736638660986e+00
 9.899494936600000e+00	 7.071067811900000e+00	 1.310812181994043e+00
 7.071067811900000e+00	 4.242640687100000e+00	 1.685524103901995e+00
 7.707463914960500e+00	 3.606244584039500e+00	 1.617442838077591e+00
 8.343860018021999e+00	 2.969848480978000e+00	 1.531441541403512e+00
 8.980256121084500e+00	 2.333452377915500e+00	 1.449816438178347e+00
 9.616652224148000e+00	 1.697056274852000e+00	 1.395484770465668e+00
 1.025304832721250e+01	 1.060660171787500e+00	 1.348267974727685e+00
 1.088944443027800e+01	 4.242640687219998e-01	 1.310070434540260e+00
 1.152584053334450e+01	-2.121320343444999e-01	 1.282796466077651e+00
 1.216223663641200e+01	-8.485281374119996e-01	 1.268350321221616e+00
 1.279863273948050e+01	-1.484924240480500e+00	 1.268636187564760e+00
 1.343502884255000e+01	-2.121320343550000e+00	 1.285558188413910e+00
 6.788225099420000e+00	 3.959797974620500e+00	 1.541244158901114e+00
 7.424621202480596e+00	 3.323401871560000e+00	 1.493172177195748e+00
 8.061017305542180e+00	 2.687005768498499e+00	 1.423458373451477e+00
 8.697413408604755e+00	 2.050609665435999e+00	 1.356796439729353e+00
 9.333809511668321e+00	 1.414213562372500e+00	 1.314848647330661e+00
 9.970205614732876e+00	 7.778174593079999e-01	 1.282824373889386e+00
 1.060660171779842e+01	 1.414213562425000e-01	 1.257211603241080e+00
 1.124299782086496e+01	-4.949747468239997e-01	 1.239914669688491e+00
 1.187939392393248e+01	-1.131370849891500e+00	 1.232837843240726e+00
 1.251579002700099e+01	-1.767766952960000e+00	 1.237885329616609e+00
 1.315218613007050e+01	-2.404163056029501e+00	 1.256961270248051e+00
 6.505382386940000e+00	 3.676955262142000e+00	 1.408445271685282e+00
 7.141778490000879e+00	 3.040559159081500e+00	 1.371287350517226e+00
 7.778174593062719e+00	 2.404163056019999e+00	 1.324530597939923e+00
 8.414570696125521e+00	 1.767766952957500e+00	 1.278922022639327e+00
 9.050966799189281e+00	 1.131370849894000e+00	 1.242837028584409e+00
 9.687362902254002e+00	 4.949747468295002e-01	 1.224734240005327e+00
 1.032375900531968e+01	-1.414213562359999e-01	 1.210435200324111e+00
 1.096015510838632e+01	-7.778174593024999e-01	 1.201844261972233e+00
 1.159655121145392e+01	-1.414213562369999e+00	 1.200865713086391e+00
 1.223294731452248e+01	-2.050609665438500e+00	 1.209403777511862e+00
 1.286934341759200e+01	-2.687005768508000e+00	 1.229362614805874e+00
 6.222539674460000e+00	 3.394112549664499e+00	 1.284238870755908e+00
 6.858935777521355e+00	 2.757716446604000e+00	 1.259359927177629e+00
 7.495331880583620e+00	 2.121320343542501e+00	 1.234463174811432e+00
 8.131727983646796e+00	 1.484924240480000e+00	 1.208810906976506e+00
 8.768124086710881e+00	 8.485281374164997e-01	 1.181665416992034e+00
 9.404520189775875e+00	 2.121320343519999e-01	 1.174219787211521e+00
 1.004091629284178e+01	-4.242640687134999e-01	 1.169963436343548e+00
 1.067731239590860e+01	-1.060660171780000e+00	 1.168807449901322e+00
 1.131370849897632e+01	-1.697056274847499e+00	 1.172656134149358e+00
 1.195010460204495e+01	-2.333452377915999e+00	 1.183413731059624e+00
 1.258650070511450e+01	-2.969848480985501e+00	 1.202984418314907e+00
 5.939696961980000e+00	 3.111269837188000e+00	 1.159407168697149e+00
 6.576093065042018e+00	 2.474873734127500e+00	 1.157194867119542e+00
 7.212489168104880e+00	 1.838477631066000e+00	 1.153061064008581e+00
 7.848885271168579e+00	 1.202081528003500e+00	 1.146268052683469e+00
 8.485281374233120e+00	 5.656854249399996e-01	 1.136078126463413e+00
 9.121677477298501e+00	-7.071067812450015e-02	 1.131503233502287e+00
 9.758073580364721e+00	-7.071067811900000e-01	 1.136018525711780e+00
 1.039446968343178e+01	-1.343502884256500e+00	 1.141026444306264e+00
 1.103086578649968e+01	-1.979898987324000e+00	 1.148431313678316e+00
 1.166726188956842e+01	-2.616295090392499e+00	 1.160137393926831e+00
 1.230365799263800e+01	-3.252691193462000e+00	 1.178048880860390e+00
 5.656854249500000e+00	 2.828427124712500e+00	 1.045239840818355e+00
 6.293250352562875e+00	 2.192031021652001e+00	 1.064597130285533e+00
 6.929646455626501e+00	 1.555634918590500e+00	 1.080129225473937e+00
 7.566042558690875e+00	 9.192388155280002e-01	 1.091098419702787e+00
 8.202438661756002e+00	 2.828427124644999e-01	 1.096767006291295e+00
 8.838834764821874e+00	-3.535533906000000e-01	 1.096806800642802e+00
 9.475230867888500e+00	-9.899494936654998e-01	 1.108822686699477e+00
 1.011162697095587e+01	-1.626345596732000e+00	 1.118723459875736e+00
 1.074802307402400e+01	-2.262741699799499e+00	 1.128413462780007e+00
 1.138441917709287e+01	-2.899137802867999e+00	 1.139796973638347e+00
 1.202081528016250e+01	-3.535533905937500e+00	 1.160034125138836e+00
 5.374011537019999e+00	 2.545584412238000e+00	 9.415418470620884e-01
 6.010407640083920e+00	 1.909188309177500e+00	 9.813716766181697e-01
 6.646803743148480e+00	 1.272792206116000e+00	 1.015472619150075e+00
 7.283199846213680e+00	 6.363961030534997e-01	 1.043106967977029e+00
 7.919595949279521e+00	-1.000022287200864e-11	 1.063537016418255e+00
 8.555992052346001e+00	-6.363961030744998e-01	 1.076025057792973e+00
 9.192388155413118e+00	-1.272792206140000e+00	 1.088598141435705e+00
 9.828784258480880e+00	-1.909188309206499e+00	 1.102120715156689e+00
 1.046518036154928e+01	-2.545584412273999e+00	 1.112824796419324e+00
 1.110157646461832e+01	-3.181980515342499e+00	 1.122614681577068e+00
 1.173797256768800e+01	-3.818376618412000e+00	 1.155160400953250e+00
 5.091168824540000e+00	 2.262741699764500e+00	 8.481181473709031e-01
 5.727564927605155e+00	 1.626345596704000e+00	 9.073234660600095e-01
 6.363961030670820e+00	 9.899494936425000e-01	 9.588962049795565e-01
 7.000357133736996e+00	 3.535533905800000e-01	 1.002098657448768e+00
 7.636753236803681e+00	-2.828427124835001e-01	 1.036193116786867e+00
 8.273149339870875e+00	-9.192388155480000e-01	 1.060441876313079e+00
 8.909545442938581e+00	-1.555634918613499e+00	 1.075567112229355e+00
 9.545941546006794e+00	-2.192031021680000e+00	 1.091440432554451e+00
 1.018233764907552e+01	-2.828427124747499e+00	 1.101887533419421e+00
 1.081873375214475e+01	-3.464823227815999e+00	 1.109705998881348e+00
 1.145512985521450e+01	-4.101219330885500e+00	 1.151203720719403e+00
 4.808326112060000e+00	 1.979898987292001e+00	 7.647737016873453e-01
 5.444722215126579e+00	 1.343502884231500e+00	 8.422574585536101e-01
 6.081118318193520e+00	 7.071067811700003e-01	 9.102049429049472e-01
 6.717514421260820e+00	 7.071067810750016e-02	 9.678784480605716e-01
 7.353910524328480e+00	-5.656854249559997e-01	 1.014540267339701e+00
 7.990306627396500e+00	-1.202081528020500e+00	 1.049452694061564e+00
 8.626702730464880e+00	-1.838477631085999e+00	 1.071878021545394e+00
 9.263098833533620e+00	-2.474873734152499e+00	 1.086904838332831e+00
 9.899494936602720e+00	-3.111269837219999e+00	 1.095823896461809e+00
 1.053589103967218e+01	-3.747665940288499e+00	 1.113671957257508e+00
 1.117228714274200e+01	-4.384062043358000e+00	 1.147883554681879e+00
 4.525483399580001e+00	 1.697056274820500e+00	 6.913134699539510e-01
 5.161879502648196e+00	 1.060660171760000e+00	 7.859786140415173e-01
 5.798275605716580e+00	 4.242640686985004e-01	 8.692037928688032e-01
 6.434671708785155e+00	-2.121320343639997e-01	 9.402512997550031e-01
 7.071067811853920e+00	-8.485281374274998e-01	 9.983834280193323e-01
 7.707463914922876e+00	-1.484924240492000e+00	 1.042862470981008e+00
 8.343860017992021e+00	-2.121320343557500e+00	 1.072950721959269e+00
 8.980256121061355e+00	-2.757716446623999e+00	 1.088736147564718e+00
 9.616652224130879e+00	-3.394112549691499e+00	 1.094856112086471e+00
 1.025304832720060e+01	-4.030508652759998e+00	 1.119033312689228e+00
 1.088944443027050e+01	-4.666904755829500e+00	 1.144919358746809e+00
 4.242640687100000e+00	 1.414213562350000e+00	 6.275424121132513e-01
 4.879036790170001e+00	 7.778174592895001e-01	 7.382918924662750e-01
 5.515432893240001e+00	 1.414213562280001e-01	 8.356977148136777e-01
 6.151828996310000e+00	-4.949747468345002e-01	 9.190221724746310e-01
 6.788225099380000e+00	-1.131370849898000e+00	 9.875275587683310e-01
 7.424621202449999e+00	-1.767766952962500e+00	 1.040476167013990e+00
 8.061017305520000e+00	-2.404163056028000e+00	 1.077130290530843e+00
 8.697413408590000e+00	-3.040559159094500e+00	 1.096752222638145e+00
 9.333809511660000e+00	-3.676955262161999e+00	 1.106814059677417e+00
 9.970205614729998e+00	-4.313351365230499e+00	 1.125509504720460e+00
 1.060660171780000e+01	-4.949747468300000e+00	 1.142030574481083e+00
 1.343502884255000e+01	-2.121320343550000e+00	 1.285558188413910e+00
 1.407142494561950e+01	-2.757716446619501e+00	 1.221802118041303e+00
 1.470782104868800e+01	-3.394112549688002e+00	 1.171643775207644e+00
 1.534421715175550e+01	-4.030508652755502e+00	 1.151160034435576e+00
 1.598061325482200e+01	-4.666904755822002e+00	 1.132209582172666e+00
 1.661700935788750e+01	-5.303300858887503e+00	 1.113652327583698e+00
 1.725340546095200e+01	-5.939696961952004e+00	 1.096704358543299e+00
 1.788980156401550e+01	-6.576093065015503e+00	 1.082581903652799e+00
 1.852619766707801e+01	-7.212489168078005e+00	 1.072501332257721e+00
 1.916259377013951e+01	-7.848885271139504e+00	 1.067679154465260e+00
 1.979898987320000e+01	-8.485281374200000e+00	 1.069332021161777e+00
 1.315218613007050e+01	-2.404163056029501e+00	 1.256961270248051e+00
 1.378858223314018e+01	-3.040559159099005e+00	 1.192334358739975e+00
 1.442497833620924e+01	-3.676955262167521e+00	 1.151747476141374e+00
 1.506137443927766e+01	-4.313351365235046e+00	 1.136318989554586e+00
 1.569777054234546e+01	-4.949747468301583e+00	 1.120042986644617e+00
 1.633416664541262e+01	-5.586143571367127e+00	 1.104056011090051e+00
 1.697056274847916e+01	-6.222539674431683e+00	 1.089574144781288e+00
 1.760695885154507e+01	-6.858935777495249e+00	 1.077813610335560e+00
 1.824335495461034e+01	-7.495331880557824e+00	 1.069990771114413e+00
 1.887975105767499e+01	-8.131727983619411e+00	 1.067322131241194e+00
 1.951614716073900e+01	-8.768124086680000e+00	 1.071024335618539e+00
 1.286934341759200e+01	-2.687005768508000e+00	 1.229362614805874e+00
 1.350573952066184e+01	-3.323401871577521e+00	 1.163806247806471e+00
 1.414213562373136e+01	-3.959797974646082e+00	 1.136864255297831e+00
 1.477853172680056e+01	-4.596194077713681e+00	 1.121735511952731e+00
 1.541492782986944e+01	-5.232590180780321e+00	 1.108120695588705e+00
 1.605132393293800e+01	-5.868986283846002e+00	 1.094690730158378e+00
 1.668772003600624e+01	-6.505382386910723e+00	 1.082661691567477e+00
 1.732411613907416e+01	-7.141778489974485e+00	 1.073249796448680e+00
 1.796051224214176e+01	-7.778174593037284e+00	 1.067671402179107e+00
 1.859690834520905e+01	-8.414570696099128e+00	 1.067143006897807e+00
 1.923330444827600e+01	-9.050966799159999e+00	 1.072881249523238e+00
 1.258650070511450e+01	-2.969848480985501e+00	 1.202984418314907e+00
 1.322289680818446e+01	-3.606244584055045e+00	 1.145597356779355e+00
 1.385929291125436e+01	-4.242640687123681e+00	 1.124366082425762e+00
 1.449568901432419e+01	-4.879036790191408e+00	 1.108346829845994e+00
 1.513208511739395e+01	-5.515432893258224e+00	 1.096514846342205e+00
 1.576848122046363e+01	-6.151828996324130e+00	 1.085628623308299e+00
 1.640487732353324e+01	-6.788225099389125e+00	 1.076039138603753e+00
 1.704127342660279e+01	-7.424621202453209e+00	 1.068962602876250e+00
 1.767766952967227e+01	-8.061017305516387e+00	 1.065615367518030e+00
 1.831406563274167e+01	-8.697413408578651e+00	 1.067213924683388e+00
 1.895046173581100e+01	-9.333809511640000e+00	 1.074974907306159e+00
 1.230365799263800e+01	-3.252691193462000e+00	 1.178048880860390e+00
 1.294005409570806e+01	-3.889087296531581e+00	 1.136380403262722e+00
 1.357645019877824e+01	-4.525483399600321e+00	 1.113972489163784e+00
 1.421284630184854e+01	-5.161879502668222e+00	 1.097267556347306e+00
 1.484924240491896e+01	-5.798275605735283e+00	 1.085297577985389e+00
 1.548563850798951e+01	-6.434671708801504e+00	 1.076941830802465e+00
 1.612203461106016e+01	-7.071067811866881e+00	 1.069778627335087e+00
 1.675843071413095e+01	-7.707463914931424e+00	 1.065024172245483e+00
 1.739482681720185e+01	-8.343860017995123e+00	 1.063894810940567e+00
 1.803122292027287e+01	-8.980256121057986e+00	 1.067607029589431e+00
 1.866761902334400e+01	-9.616652224120001e+00	 1.077377455140829e+00
 1.202081528016250e+01	-3.535533905937500e+00	 1.160034125138836e+00
 1.265721138323263e+01	-4.171930009007126e+00	 1.128814520635515e+00
 1.329360748630300e+01	-4.808326112076000e+00	 1.105402992815078e+00
 1.393000358937363e+01	-5.444722215144127e+00	 1.088185421370937e+00
 1.456639969244450e+01	-6.081118318211500e+00	 1.075547580075376e+00
 1.520279579551563e+01	-6.717514421278127e+00	 1.068702494646676e+00
 1.583919189858700e+01	-7.353910524344003e+00	 1.063952300949633e+00
 1.647558800165863e+01	-7.990306627409129e+00	 1.061506648926823e+00
 1.711198410473050e+01	-8.626702730473504e+00	 1.062581877999383e+00
 1.774838020780263e+01	-9.263098833537128e+00	 1.068394468350745e+00
 1.838477631087500e+01	-9.899494936600000e+00	 1.080161040944135e+00
 1.173797256768800e+01	-3.818376618412000e+00	 1.155160400953250e+00
 1.237436867075816e+01	-4.454772721481680e+00	 1.122619209840538e+00
 1.301076477382864e+01	-5.091168824550722e+00	 1.098377096346613e+00
 1.364716087689944e+01	-5.727564927619123e+00	 1.080819929908512e+00
 1.428355697997056e+01	-6.363961030686882e+00	 1.068333474041179e+00
 1.491995308304200e+01	-7.000357133754004e+00	 1.060982758589997e+00
 1.555634918611377e+01	-7.636753236820484e+00	 1.058632304378853e+00
 1.619274528918585e+01	-8.273149339886325e+00	 1.058482179034060e+00
 1.682914139225825e+01	-8.909545442951526e+00	 1.061748715990524e+00
 1.746553749533097e+01	-9.545941546016087e+00	 1.069648389445570e+00
 1.810193359840400e+01	-1.018233764908000e+01	 1.083397814376440e+00
 1.145512985521450e+01	-4.101219330885500e+00	 1.151203720719403e+00
 1.209152595828466e+01	-4.737615433955245e+00	 1.117513957483651e+00
 1.272792206135516e+01	-5.374011537024482e+00	 1.092614288388354e+00
 1.336431816442599e+01	-6.010407640093206e+00	 1.074890572614597e+00
 1.400071426749714e+01	-6.646803743161422e+00	 1.062728563420405e+00
 1.463711037056863e+01	-7.283199846229128e+00	 1.054513908126975e+00
 1.527350647364045e+01	-7.919595949296324e+00	 1.053890784297622e+00
 1.590990257671259e+01	-8.555992052363010e+00	 1.056022910424443e+00
 1.654629867978506e+01	-9.192388155429185e+00	 1.061467473953543e+00
 1.718269478285787e+01	-9.828784258494849e+00	 1.071440943095689e+00
 1.781909088593100e+01	-1.046518036156000e+01	 1.085081236641252e+00
 1.117228714274200e+01	-4.384062043358000e+00	 1.147883554681879e+00
 1.180868324581214e+01	-5.020458146427820e+00	 1.113218235832987e+00
 1.244507934888256e+01	-5.656854249497282e+00	 1.087834043232481e+00
 1.308147545195326e+01	-6.293250352566382e+00	 1.070116825805911e+00
 1.371787155502425e+01	-6.929646455635122e+00	 1.058452326554808e+00
 1.435426765809550e+01	-7.566042558703503e+00	 1.051226182542906e+00
 1.499066376116705e+01	-8.202438661771522e+00	 1.049799889124349e+00
 1.562705986423886e+01	-8.838834764839183e+00	 1.054200992698790e+00
 1.626345596731097e+01	-9.475230867906484e+00	 1.061810302671603e+00
 1.689985207038335e+01	-1.011162697097343e+01	 1.073844281266542e+00
 1.753624817345600e+01	-1.074802307404000e+01	 1.083854003858769e+00
 1.088944443027050e+01	-4.666904755829500e+00	 1.144919358746809e+00
 1.152584053334059e+01	-5.303300858899404e+00	 1.109451502818170e+00
 1.216223663641084e+01	-5.939696961969120e+00	 1.083755820832599e+00
 1.279863273948127e+01	-6.576093065038647e+00	 1.066218151460539e+00
 1.343502884255186e+01	-7.212489168107980e+00	 1.055224227447446e+00
 1.407142494562263e+01	-7.848885271177128e+00	 1.049159675600015e+00
 1.470782104869356e+01	-8.485281374246084e+00	 1.046431769021082e+00
 1.534421715176467e+01	-9.121677477314847e+00	 1.053088577201608e+00
 1.598061325483594e+01	-9.758073580383423e+00	 1.062849354671596e+00
 1.661700935790739e+01	-1.039446968345181e+01	 1.075602933863963e+00
 1.725340546097900e+01	-1.103086578652000e+01	 1.082176151211719e+00
 1.060660171780000e+01	-4.949747468300000e+00	 1.142030574481083e+00
 1.124299782087000e+01	-5.586143571370001e+00	 1.105933202029519e+00
 1.187939392394000e+01	-6.222539674440001e+00	 1.080099066802957e+00
 1.251579002701000e+01	-6.858935777510001e+00	 1.062913997217151e+00
 1.315218613008000e+01	-7.495331880580002e+00	 1.052763715761901e+00
 1.378858223315000e+01	-8.131727983650002e+00	 1.048033838987290e+00
 1.442497833622000e+01	-8.768124086720004e+00	 1.047109877489903e+00
 1.506137443929001e+01	-9.404520189790006e+00	 1.052757817021198e+00
 1.569777054236001e+01	-1.004091629286000e+01	 1.064656784224256e+00
 1.633416664543000e+01	-1.067731239593000e+01	 1.071103803501283e+00
 1.697056274850000e+01	-1.131370849900000e+01	 1.079985477574413e+00
 4.242640687100000e+00	 1.414213562350000e+00	 6.275424121132513e-01
 4.879036790170001e+00	 7.778174592895001e-01	 7.382918924662750e-01
 5.515432893240001e+00	 1.414213562280001e-01	 8.356977148136777e-01
 6.151828996310000e+00	-4.949747468345002e-01	 9.190221724746310e-01
 6.788225099380000e+00	-1.131370849898000e+00	 9.875275587683310e-01
 7.424621202449999e+00	-1.767766952962500e+00	 1.040476167013990e+00
 8.061017305520000e+00	-2.404163056028000e+00	 1.077130290530843e+00
 8.697413408590000e+00	-3.040559159094500e+00	 1.096752222638145e+00
 9.333809511660000e+00	-3.676955262161999e+00	 1.106814059677417e+00
 9.970205614729998e+00	-4.313351365230499e+00	 1.125509504720460e+00
 1.060660171780000e+01	-4.949747468300000e+00	 1.142030574481083e+00
 3.959797974621000e+00	 1.131370849879500e+00	 5.904381698925152e-01
 4.596194077692615e+00	 4.949747468189997e-01	 7.020590334029073e-01
 5.232590180764061e+00	-1.414213562425003e-01	 8.005551161203083e-01
 5.868986283835336e+00	-7.778174593050006e-01	 8.851887113638710e-01
 6.505382386906438e+00	-1.414213562368500e+00	 9.552221124527662e-01
 7.141778489977376e+00	-2.050609665433001e+00	 1.009917612706182e+00
 7.778174593048140e+00	-2.687005768498500e+00	 1.048537505443319e+00
 8.414570696118734e+00	-3.323401871564999e+00	 1.070344083983398e+00
 9.050966799189160e+00	-3.959797974632500e+00	 1.086447071408911e+00
 9.687362902259414e+00	-4.596194077700999e+00	 1.099362039455486e+00
 1.032375900532950e+01	-5.232590180770499e+00	 1.110465937480544e+00
 3.676955262144000e+00	 8.485281374079995e-01	 5.528044457317183e-01
 4.313351365216660e+00	 2.121320343474996e-01	 6.655334289239796e-01
 4.949747468289041e+00	-4.242640687140006e-01	 7.653565085358247e-01
 5.586143571361139e+00	-1.060660171776501e+00	 8.515359778863931e-01
 6.222539674432960e+00	-1.697056274840000e+00	 9.233341302948382e-01
 6.858935777504499e+00	-2.333452377904501e+00	 9.800132590803249e-01
 7.495331880575760e+00	-2.969848480970000e+00	 1.020835657562026e+00
 8.131727983646741e+00	-3.606244584036500e+00	 1.046661165115197e+00
 8.768124086717437e+00	-4.242640687103999e+00	 1.067615158984551e+00
 9.404520189787858e+00	-4.879036790172500e+00	 1.075943758460822e+00
 1.004091629285800e+01	-5.515432893242001e+00	 1.081924851345852e+00
 3.394112549668999e+00	 5.656854249354992e-01	 5.144461995735436e-01
 4.030508652742133e+00	-7.071067812500065e-02	 6.285200389721544e-01
 4.666904755814940e+00	-7.071067811865007e-01	 7.299068520028715e-01
 5.303300858887416e+00	-1.343502884249001e+00	 8.178689319848264e-01
 5.939696961959558e+00	-1.979898987312501e+00	 8.916685722371622e-01
 6.576093065031374e+00	-2.616295090377001e+00	 9.505680660790200e-01
 7.212489168102860e+00	-3.252691193442501e+00	 9.938297068295507e-01
 7.848885271174014e+00	-3.889087296509001e+00	 1.022537357966391e+00
 8.485281374244838e+00	-4.525483399576501e+00	 1.044690895106910e+00
 9.121677477315334e+00	-5.161879502645001e+00	 1.054974058258155e+00
 9.758073580385503e+00	-5.798275605714501e+00	 1.056126714621465e+00
 3.111269837195999e+00	 2.828427124619991e-01	 4.751683913606831e-01
 3.747665940269039e+00	-3.535533905985009e-01	 5.908238234901031e-01
 4.384062043341761e+00	-9.899494936600008e-01	 6.940111064640989e-01
 5.020458146414159e+00	-1.626345596722501e+00	 7.839925336018043e-01
 5.656854249486240e+00	-2.262741699786001e+00	 8.600303982223505e-01
 6.293250352558000e+00	-2.899137802850501e+00	 9.213869936448672e-01
 6.929646455629440e+00	-3.535533905916000e+00	 9.664655633840840e-01
 7.566042558700558e+00	-4.171930008982500e+00	 9.961121623293183e-01
 8.202438661771358e+00	-4.808326112050000e+00	 1.019697374147537e+00
 8.838834764841840e+00	-5.444722215118500e+00	 1.036172321026844e+00
 9.475230867912000e+00	-6.081118318188001e+00	 1.032790911509449e+00
 2.828427124724999e+00	-1.250122227958173e-11	 4.332219048533661e-01
 3.464823227797373e+00	-6.363961030730012e-01	 5.522497424204993e-01
 4.101219330869498e+00	-1.272792206134501e+00	 6.574742318621635e-01
 4.737615433941374e+00	-1.909188309197002e+00	 7.497117426799604e-01
 5.374011537012999e+00	-2.545584412260502e+00	 8.282245681930214e-01
 6.010407640084375e+00	-3.181980515325001e+00	 8.922750017204691e-01
 6.646803743155501e+00	-3.818376618390501e+00	 9.358214517605645e-01
 7.283199846226373e+00	-4.454772721457001e+00	 9.675942152414292e-01
 7.919595949296999e+00	-5.091168824524501e+00	 9.928432313523973e-01
 8.555992052367372e+00	-5.727564927593000e+00	 1.010900470855717e+00
 9.192388155437497e+00	-6.363961030662500e+00	 1.011636811868689e+00
 2.545584412255999e+00	-2.828427124880016e-01	 3.891308845716365e-01
 3.181980515327139e+00	-9.192388155485015e-01	 5.126027557060189e-01
 3.818376618398157e+00	-1.555634918610001e+00	 6.201011881397170e-01
 4.454772721469059e+00	-2.192031021672502e+00	 7.148315191619323e-01
 5.091168824539839e+00	-2.828427124736002e+00	 7.960560420917959e-01
 5.727564927610499e+00	-3.464823227800502e+00	 8.626119450839942e-01
 6.363961030681039e+00	-4.101219330866002e+00	 9.030610884757537e-01
 7.000357133751458e+00	-4.737615433932501e+00	 9.371921542276955e-01
 7.636753236821757e+00	-5.374011537000001e+00	 9.643371078215904e-01
 8.273149339891937e+00	-6.010407640068502e+00	 9.838279019161440e-01
 8.909545442961997e+00	-6.646803743138000e+00	 9.923837712141075e-01
 2.262741699788998e+00	-5.656854249645018e-01	 3.458634904158207e-01
 2.899137802858333e+00	-1.202081528025001e+00	 4.714267372532904e-01
 3.535533905927738e+00	-1.838477631086502e+00	 5.816969352394221e-01
 4.171930008997213e+00	-2.474873734149002e+00	 6.791568229903556e-01
 4.808326112066759e+00	-3.111269837212502e+00	 7.633297798612890e-01
 5.444722215136373e+00	-3.747665940277002e+00	 8.248911751625518e-01
 6.081118318206059e+00	-4.384062043342502e+00	 8.683931133622274e-01
 6.717514421275813e+00	-5.020458146409001e+00	 9.051146226672492e-01
 7.353910524345638e+00	-5.656854249476501e+00	 9.343876505096027e-01
 7.990306627415533e+00	-6.293250352545002e+00	 9.555441314438847e-01
 8.626702730485500e+00	-6.929646455614503e+00	 9.679159871481449e-01
 1.979898987323998e+00	-8.485281374420021e-01	 3.034197223855821e-01
 2.616295090390958e+00	-1.484924240502502e+00	 4.287336856085497e-01
 3.252691193458238e+00	-2.121320343564002e+00	 5.420664331039402e-01
 3.889087296525839e+00	-2.757716446626503e+00	 6.424926141078731e-01
 4.525483399593758e+00	-3.394112549690001e+00	 7.298507414441217e-01
 5.161879502661997e+00	-4.030508652754501e+00	 7.852392897500458e-01
 5.798275605730558e+00	-4.666904755820001e+00	 8.320261720779585e-01
 6.434671708799438e+00	-5.303300858886502e+00	 8.715702697936460e-01
 7.071067811868639e+00	-5.939696961954002e+00	 9.032035122255604e-01
 7.707463914938157e+00	-6.576093065022501e+00	 9.262578158236243e-01
 8.343860018007998e+00	-7.212489168092002e+00	 9.400650841600664e-01
 1.697056274860998e+00	-1.131370849920502e+00	 2.617995804805866e-01
 2.333452377925013e+00	-1.767766952981002e+00	 3.870524233345790e-01
 2.969848480989658e+00	-2.404163056042502e+00	 5.010146416759352e-01
 3.606244584054933e+00	-3.040559159105003e+00	 6.046438524571257e-01
 4.242640687120839e+00	-3.676955262168503e+00	 6.865238883738698e-01
 4.879036790187373e+00	-4.313351365233003e+00	 7.438649367299068e-01
 5.515432893254538e+00	-4.949747468298503e+00	 7.941689161353672e-01
 6.151828996322332e+00	-5.586143571365001e+00	 8.367677506951074e-01
 6.788225099390758e+00	-6.222539674432502e+00	 8.709933516334768e-01
 7.424621202459812e+00	-6.858935777501001e+00	 8.961776172951552e-01
 8.061017305529496e+00	-7.495331880570502e+00	 9.116524331459817e-01
 1.414213562400000e+00	-1.414213562400000e+00	 2.210030647004985e-01
 2.050609665460500e+00	-2.050609665460500e+00	 3.463829504310304e-01
 2.687005768522000e+00	-2.687005768522000e+00	 4.602884254311040e-01
 3.323401871584501e+00	-3.323401871584501e+00	 5.654154979807591e-01
 3.959797974648001e+00	-3.959797974648001e+00	 6.394241212883763e-01
 4.596194077712500e+00	-4.596194077712500e+00	 7.009767698932214e-01
 5.232590180777999e+00	-5.232590180777999e+00	 7.550300029015772e-01
 5.868986283844499e+00	-5.868986283844499e+00	 8.009157263147778e-01
 6.505382386912000e+00	-6.505382386912000e+00	 8.379658332525038e-01
 7.141778489980499e+00	-7.141778489980499e+00	 8.655122039536247e-01
 7.778174593050000e+00	-7.778174593050000e+00	 8.828867057770277e-01
 1.060660171780000e+01	-4.949747468300000e+00	 1.142030574481083e+00
 1.124299782087000e+01	-5.586143571370001e+00	 1.105933202029519e+00
 1.187939392394000e+01	-6.222539674440001e+00	 1.080099066802957e+00
 1.251579002701000e+01	-6.858935777510001e+00	 1.062913997217151e+00
 1.315218613008000e+01	-7.495331880580002e+00	 1.052763715761901e+00
 1.378858223315000e+01	-8.131727983650002e+00	 1.048033838987290e+00
 1.442497833622000e+01	-8.768124086720004e+00	 1.047109877489903e+00
 1.506137443929001e+01	-9.404520189790006e+00	 1.052757817021198e+00
 1.569777054236001e+01	-1.004091629286000e+01	 1.064656784224256e+00
 1.633416664543000e+01	-1.067731239593000e+01	 1.071103803501283e+00
 1.697056274850000e+01	-1.131370849900000e+01	 1.079985477574413e+00
 1.032375900532950e+01	-5.232590180770499e+00	 1.110465937480544e+00
 1.096015510839941e+01	-5.868986283840587e+00	 1.078887708979389e+00
 1.159655121146912e+01	-6.505382386910843e+00	 1.057591979654919e+00
 1.223294731453865e+01	-7.141778489981267e+00	 1.044964567668577e+00
 1.286934341760798e+01	-7.778174593051863e+00	 1.039391185254903e+00
 1.350573952067713e+01	-8.414570696122629e+00	 1.039257438707768e+00
 1.414213562374608e+01	-9.050966799193562e+00	 1.042948828366591e+00
 1.477853172681485e+01	-9.687362902264667e+00	 1.049731485331784e+00
 1.541492782988342e+01	-1.032375900533594e+01	 1.065428285152974e+00
 1.605132393295181e+01	-1.096015510840739e+01	 1.065212320953491e+00
 1.668772003602000e+01	-1.159655121147900e+01	 1.077273708670738e+00
 1.004091629285800e+01	-5.515432893242001e+00	 1.081924851345852e+00
 1.067731239592782e+01	-6.151828996312141e+00	 1.054698646687908e+00
 1.131370849899728e+01	-6.788225099382561e+00	 1.037774218746541e+00
 1.195010460206638e+01	-7.424621202453264e+00	 1.029537375429313e+00
 1.258650070513512e+01	-8.061017305524244e+00	 1.028373818715933e+00
 1.322289680820350e+01	-8.697413408595503e+00	 1.032669144644487e+00
 1.385929291127152e+01	-9.333809511667045e+00	 1.040808843297657e+00
 1.449568901433918e+01	-9.970205614738864e+00	 1.051178298788943e+00
 1.513208511740648e+01	-1.060660171781096e+01	 1.056685809154599e+00
 1.576848122047343e+01	-1.124299782088335e+01	 1.058989644641017e+00
 1.640487732354000e+01	-1.187939392395600e+01	 1.074032571086105e+00
 9.758073580385503e+00	-5.798275605714501e+00	 1.056126714621465e+00
 1.039446968345524e+01	-6.434671708784667e+00	 1.033085415722787e+00
 1.103086578652448e+01	-7.071067811855163e+00	 1.020365186669282e+00
 1.166726188959321e+01	-7.707463914925988e+00	 1.016351825115062e+00
 1.230365799266142e+01	-8.343860017997141e+00	 1.019431022785431e+00
 1.294005409572913e+01	-8.980256121068628e+00	 1.027988365463115e+00
 1.357645019879632e+01	-9.616652224140443e+00	 1.040409332974485e+00
 1.421284630186301e+01	-1.025304832721259e+01	 1.055079299175776e+00
 1.484924240492918e+01	-1.088944443028506e+01	 1.046937034630139e+00
 1.548563850799485e+01	-1.152584053335787e+01	 1.052373577516321e+00
 1.612203461106000e+01	-1.216223663643100e+01	 1.070199866279386e+00
 9.475230867912000e+00	-6.081118318188001e+00	 1.032790911509449e+00
 1.011162697098168e+01	-6.717514421258161e+00	 1.013767402309284e+00
 1.074802307405072e+01	-7.353910524328643e+00	 1.005084271672091e+00
 1.138441917711912e+01	-7.990306627399442e+00	 1.005127306998955e+00
 1.202081528018688e+01	-8.626702730470564e+00	 1.012282189761205e+00
 1.265721138325400e+01	-9.263098833542006e+00	 1.024934495486632e+00
 1.329360748632048e+01	-9.899494936613765e+00	 1.041469693745718e+00
 1.393000358938633e+01	-1.053589103968585e+01	 1.049128148913907e+00
 1.456639969245153e+01	-1.117228714275825e+01	 1.038504730564187e+00
 1.520279579551608e+01	-1.180868324583096e+01	 1.045301923393308e+00
 1.583919189858000e+01	-1.244507934890400e+01	 1.065713396570933e+00
 9.192388155437497e+00	-6.363961030662500e+00	 1.011636811868689e+00
 9.828784258507126e+00	-7.000357133732627e+00	 9.964639783294211e-01
 1.046518036157600e+01	-7.636753236803002e+00	 9.916508476606207e-01
 1.110157646464412e+01	-8.273149339873628e+00	 9.955831970107736e-01
 1.173797256771150e+01	-8.909545442944504e+00	 1.006646697597652e+00
 1.237436867077813e+01	-9.545941546015628e+00	 1.023226914694545e+00
 1.301076477384400e+01	-1.018233764908701e+01	 1.043709307616471e+00
 1.364716087690913e+01	-1.081873375215863e+01	 1.037703547460182e+00
 1.428355697997350e+01	-1.145512985523051e+01	 1.031075457988430e+00
 1.491995308303713e+01	-1.209152595830263e+01	 1.037712486947306e+00
 1.555634918610000e+01	-1.272792206137500e+01	 1.060510965142563e+00
 8.909545442961997e+00	-6.646803743138000e+00	 9.923837712141075e-01
 9.545941546031576e+00	-7.283199846208062e+00	 9.808945013211998e-01
 1.018233764910032e+01	-7.919595949278243e+00	 9.797842741964429e-01
 1.081873375216822e+01	-8.555992052348541e+00	 9.874388567361527e-01
 1.145512985523528e+01	-9.192388155418966e+00	 1.002243909904973e+00
 1.209152595830150e+01	-9.828784258489502e+00	 1.022584988722109e+00
 1.272792206136688e+01	-1.046518036156017e+01	 1.038561457582983e+00
 1.336431816443142e+01	-1.110157646463094e+01	 1.025915815547932e+00
 1.400071426749513e+01	-1.173797256770185e+01	 1.022973144597292e+00
 1.463711037055798e+01	-1.237436867077287e+01	 1.030288909457018e+00
 1.527350647362000e+01	-1.301076477384400e+01	 1.054530376037536e+00
 8.626702730485500e+00	-6.929646455614503e+00	 9.679159871481449e-01
 9.263098833555041e+00	-7.566042558684465e+00	 9.667783144778096e-01
 9.899494936623679e+00	-8.202438661754362e+00	 9.692038964962635e-01
 1.053589103969141e+01	-8.838834764824190e+00	 9.804136334158071e-01
 1.117228714275822e+01	-9.475230867893943e+00	 9.987931759483804e-01
 1.180868324582413e+01	-1.011162697096363e+01	 1.022728068859530e+00
 1.244507934888912e+01	-1.074802307403325e+01	 1.022537618930663e+00
 1.308147545195321e+01	-1.138441917710279e+01	 1.013827771142528e+00
 1.371787155501638e+01	-1.202081528017227e+01	 1.014260607330125e+00
 1.435426765807865e+01	-1.265721138324167e+01	 1.024391597414008e+00
 1.499066376114000e+01	-1.329360748631100e+01	 1.047709434160542e+00
 8.343860018007998e+00	-7.212489168092002e+00	 9.400650841600664e-01
 8.980256121077518e+00	-7.848885271161842e+00	 9.538347466468483e-01
 9.616652224146078e+00	-8.485281374231363e+00	 9.596290454311331e-01
 1.025304832721368e+01	-9.121677477300565e+00	 9.742268599447348e-01
 1.088944443028032e+01	-9.758073580369444e+00	 9.960138306473179e-01
 1.152584053334600e+01	-1.039446968343801e+01	 1.019697067113286e+00
 1.216223663641072e+01	-1.103086578650625e+01	 1.006586198953022e+00
 1.279863273947448e+01	-1.166726188957417e+01	 1.001502233293721e+00
 1.343502884253728e+01	-1.230365799264177e+01	 1.005000664210631e+00
 1.407142494559912e+01	-1.294005409570905e+01	 1.017636966818961e+00
 1.470782104866000e+01	-1.357645019877600e+01	 1.039985945277671e+00
 8.061017305529496e+00	-7.495331880570502e+00	 9.116524331459817e-01
 8.697413408599006e+00	-8.131727983640191e+00	 9.374626682558185e-01
 9.333809511667519e+00	-8.768124086709244e+00	 9.507790375256615e-01
 9.970205614735045e+00	-9.404520189777669e+00	 9.685978548714410e-01
 1.060660171780158e+01	-1.004091629284546e+01	 9.936251945746764e-01
 1.124299782086713e+01	-1.067731239591263e+01	 1.000004625100540e+00
 1.187939392393168e+01	-1.131370849897917e+01	 9.907700188103286e-01
 1.251579002699525e+01	-1.195010460204507e+01	 9.890020221356772e-01
 1.315218613005782e+01	-1.258650070511035e+01	 9.952561343468866e-01
 1.378858223311941e+01	-1.322289680817499e+01	 1.010087835753889e+00
 1.442497833618000e+01	-1.385929291123900e+01	 1.034052587707245e+00
 7.778174593050000e+00	-7.778174593050000e+00	 8.828867057770277e-01
 8.414570696119501e+00	-8.414570696119501e+00	 9.155536897470679e-01
 9.050966799188002e+00	-9.050966799188002e+00	 9.423731749572384e-01
 9.687362902255503e+00	-9.687362902255503e+00	 9.632459223971432e-01
 1.032375900532200e+01	-1.032375900532200e+01	 9.913465739559978e-01
 1.096015510838750e+01	-1.096015510838750e+01	 9.808201590469343e-01
 1.159655121145200e+01	-1.159655121145200e+01	 9.751519007473257e-01
 1.223294731451550e+01	-1.223294731451550e+01	 9.763899588870013e-01
 1.286934341757800e+01	-1.286934341757800e+01	 9.850898379313762e-01
 1.350573952063951e+01	-1.350573952063951e+01	 1.001807023385166e+00
 1.414213562370000e+01	-1.414213562370000e+01	 1.027096981793393e+00
 8.485281374200000e+00	 5.656854249500000e+00	 1.809820294323167e+00
 9.121677477279500e+00	 5.020458146439500e+00	 1.675574995681401e+00
 9.758073580358001e+00	 4.384062043378000e+00	 1.571456297359910e+00
 1.039446968343550e+01	 3.747665940315499e+00	 1.479617995164225e+00
 1.103086578651200e+01	 3.111269837252000e+00	 1.386222067760161e+00
 1.166726188958750e+01	 2.474873734187500e+00	 1.296339973487374e+00
 1.230365799266200e+01	 1.838477631122000e+00	 1.225451589079057e+00
 1.294005409573550e+01	 1.202081528055500e+00	 1.175461140069515e+00
 1.357645019880800e+01	 5.656854249880006e-01	 1.148272787706349e+00
 1.421284630187950e+01	-7.071067808049936e-02	 1.145790628953828e+00
 1.484924240495000e+01	-7.071067811500000e-01	 1.167391369754091e+00
 8.343860017978999e+00	 5.515432893260000e+00	 1.806073499689105e+00
 8.980256121054893e+00	 4.879036790199499e+00	 1.667639428705172e+00
 9.616652224130160e+00	 4.242640687138000e+00	 1.566803960628324e+00
 1.025304832720481e+01	 3.606244584075501e+00	 1.477977679093438e+00
 1.088944443027884e+01	 2.969848481012001e+00	 1.381072963482722e+00
 1.152584053335225e+01	 2.333452377947500e+00	 1.293784771518330e+00
 1.216223663642504e+01	 1.697056274882000e+00	 1.225217571127145e+00
 1.279863273949721e+01	 1.060660171815500e+00	 1.177275596907176e+00
 1.343502884256876e+01	 4.242640687480004e-01	 1.151863019169153e+00
 1.407142494563969e+01	-2.121320343204995e-01	 1.150883943939896e+00
 1.470782104871000e+01	-8.485281373900001e-01	 1.176211268867458e+00
 8.202438661756000e+00	 5.374011537020000e+00	 1.801934804044750e+00
 8.838834764828659e+00	 4.737615433959499e+00	 1.659379727235506e+00
 9.475230867901040e+00	 4.101219330898001e+00	 1.561825379208412e+00
 1.011162697097314e+01	 3.464823227835500e+00	 1.476009009443848e+00
 1.074802307404496e+01	 2.828427124772000e+00	 1.375507020969970e+00
 1.138441917711650e+01	 2.192031021707500e+00	 1.290790884241059e+00
 1.202081528018776e+01	 1.555634918642000e+00	 1.224523020509599e+00
 1.265721138325874e+01	 9.192388155754999e-01	 1.178607673437369e+00
 1.329360748632944e+01	 2.828427125080005e-01	 1.154949022398296e+00
 1.393000358939986e+01	-3.535533905604996e-01	 1.155451182481809e+00
 1.456639969247000e+01	-9.899494936300001e-01	 1.182018204496209e+00
 8.061017305530999e+00	 5.232590180780001e+00	 1.797387033478121e+00
 8.697413408600807e+00	 4.596194077719500e+00	 1.657482989575099e+00
 9.333809511670641e+00	 3.959797974658001e+00	 1.556548099509110e+00
 9.970205614740490e+00	 3.323401871595500e+00	 1.467989180797484e+00
 1.060660171781036e+01	 2.687005768532000e+00	 1.369552014663681e+00
 1.124299782088025e+01	 2.050609665467500e+00	 1.287386085649676e+00
 1.187939392395016e+01	 1.414213562402000e+00	 1.223395710772885e+00
 1.251579002702008e+01	 7.778174593355001e-01	 1.179485142758926e+00
 1.315218613009004e+01	 1.414213562680006e-01	 1.157558570044979e+00
 1.378858223316001e+01	-4.949747468004994e-01	 1.159520116783149e+00
 1.442497833623000e+01	-1.131370849870000e+00	 1.187273842843832e+00
 7.919595949304000e+00	 5.091168824540000e+00	 1.792413014383025e+00
 8.555992052371341e+00	 4.454772721479500e+00	 1.655993364417845e+00
 9.192388155438961e+00	 3.818376618418000e+00	 1.550999667772618e+00
 9.828784258506859e+00	 3.181980515355500e+00	 1.458871797424685e+00
 1.046518036157504e+01	 2.545584412292000e+00	 1.363235719246743e+00
 1.110157646464350e+01	 1.909188309227500e+00	 1.283598149979403e+00
 1.173797256771224e+01	 1.272792206162000e+00	 1.221863415704576e+00
 1.237436867078126e+01	 6.363961030955002e-01	 1.179935778211769e+00
 1.301076477385056e+01	 2.800071285946615e-11	 1.159719435001485e+00
 1.364716087692014e+01	-6.363961030404993e-01	 1.163118519288570e+00
 1.428355697999000e+01	-1.272792206110000e+00	 1.192037100005577e+00
 7.778174593075001e+00	 4.949747468300000e+00	 1.786995573459029e+00
 8.414570696140251e+00	 4.313351365239500e+00	 1.654095247255646e+00
 9.050966799206003e+00	 3.676955262178001e+00	 1.545207630074416e+00
 9.687362902272252e+00	 3.040559159115501e+00	 1.449442747996626e+00
 1.032375900533900e+01	 2.404163056052000e+00	 1.356585909643157e+00
 1.096015510840625e+01	 1.767766952987500e+00	 1.279454851706579e+00
 1.159655121147400e+01	 1.131370849922000e+00	 1.219953909333338e+00
 1.223294731454225e+01	 4.949747468555004e-01	 1.179987353376913e+00
 1.286934341761100e+01	-1.414213562119995e-01	 1.161459390401188e+00
 1.350573952068025e+01	-7.778174592804994e-01	 1.166274162683807e+00
 1.414213562375000e+01	-1.414213562350000e+00	 1.196335748219548e+00
 7.636753236844000e+00	 4.808326112060000e+00	 1.781117537711472e+00
 8.273149339907539e+00	 4.171930008999500e+00	 1.651771465096871e+00
 8.909545442971758e+00	 3.535533905937999e+00	 1.539199535027703e+00
 9.545941546036660e+00	 2.899137802875500e+00	 1.439729808126120e+00
 1.018233764910224e+01	 2.262741699812000e+00	 1.349630361018056e+00
 1.081873375216850e+01	 1.626345596747500e+00	 1.274983965548647e+00
 1.145512985523544e+01	 9.899494936820001e-01	 1.217694965928951e+00
 1.209152595830306e+01	 3.535533906155002e-01	 1.179667642076473e+00
 1.272792206137136e+01	-2.828427124519993e-01	 1.162806209618545e+00
 1.336431816444033e+01	-9.192388155204992e-01	 1.169014819895676e+00
 1.400071426751000e+01	-1.555634918590000e+00	 1.200197559964928e+00
 7.495331880611000e+00	 4.666904755820000e+00	 1.774761734451449e+00
 8.131727983673210e+00	 4.030508652759500e+00	 1.649004845255631e+00
 8.768124086736242e+00	 3.394112549698000e+00	 1.533145855373086e+00
 9.404520189800088e+00	 2.757716446635500e+00	 1.429760753667113e+00
 1.004091629286476e+01	 2.121320343572000e+00	 1.342396848777687e+00
 1.067731239593025e+01	 1.484924240507500e+00	 1.270213266464171e+00
 1.131370849899656e+01	 8.485281374420003e-01	 1.215114360002297e+00
 1.195010460206369e+01	 2.121320343755005e-01	 1.179004418373664e+00
 1.258650070513164e+01	-4.242640686919993e-01	 1.163787666269109e+00
 1.322289680820041e+01	-1.060660171760499e+00	 1.171368264092077e+00
 1.385929291127000e+01	-1.697056274830000e+00	 1.203650307961974e+00
 7.353910524375999e+00	 4.525483399580001e+00	 1.767910991295794e+00
 7.990306627437260e+00	 3.889087296519500e+00	 1.645778215351795e+00
 8.626702730499442e+00	 3.252691193458000e+00	 1.526744485548251e+00
 9.263098833562541e+00	 2.616295090395500e+00	 1.419563360714688e+00
 9.899494936626562e+00	 1.979898987332000e+00	 1.334913148569427e+00
 1.053589103969150e+01	 1.343502884267500e+00	 1.265170529652833e+00
 1.117228714275736e+01	 7.071067812020000e-01	 1.212239866305373e+00
 1.180868324582414e+01	 7.071067813550025e-02	 1.178025456572799e+00
 1.244507934889184e+01	-5.656854249319995e-01	 1.164431534209532e+00
 1.308147545196046e+01	-1.202081528000499e+00	 1.173362268682001e+00
 1.371787155503000e+01	-1.838477631070000e+00	 1.206721765172025e+00
 7.212489168138999e+00	 4.384062043340000e+00	 1.760548136167096e+00
 7.848885271199691e+00	 3.747665940279500e+00	 1.642074403310944e+00
 8.485281374261358e+00	 3.111269837218000e+00	 1.519845236988977e+00
 9.121677477324010e+00	 2.474873734155500e+00	 1.409165405605068e+00
 9.758073580387640e+00	 1.838477631092000e+00	 1.327207036281787e+00
 1.039446968345225e+01	 1.202081528027500e+00	 1.259883530555439e+00
 1.103086578651784e+01	 5.656854249620000e-01	 1.209099259831286e+00
 1.166726188958441e+01	-7.071067810449948e-02	 1.176758531219310e+00
 1.230365799265196e+01	-7.071067811719998e-01	 1.164765587537561e+00
 1.294005409572049e+01	-1.343502884240499e+00	 1.175024607315529e+00
 1.357645019879000e+01	-1.979898987310000e+00	 1.209439704797503e+00
 7.071067811900000e+00	 4.242640687100000e+00	 1.752655997293662e+00
 7.707463914960500e+00	 3.606244584039500e+00	 1.637876249615592e+00
 8.343860018021999e+00	 2.969848480978000e+00	 1.512423729688140e+00
 8.980256121084500e+00	 2.333452377915500e+00	 1.398594661809883e+00
 9.616652224148000e+00	 1.697056274852000e+00	 1.319306288044408e+00
 1.025304832721250e+01	 1.060660171787500e+00	 1.254380044853916e+00
 1.088944443027800e+01	 4.242640687219998e-01	 1.205720315814268e+00
 1.152584053334450e+01	-2.121320343444999e-01	 1.175231417099727e+00
 1.216223663641200e+01	-8.485281374119996e-01	 1.164817600592047e+00
 1.279863273948050e+01	-1.484924240480500e+00	 1.176383053883836e+00
 1.343502884255000e+01	-2.121320343550000e+00	 1.211831900281919e+00
 1.484924240495000e+01	-7.071067811500000e-01	 1.167391369754091e+00
 1.548563850801950e+01	-1.343502884220501e+00	 1.150616144454006e+00
 1.612203461108800e+01	-1.979898987292001e+00	 1.137908457387908e+00
 1.675843071415550e+01	-2.616295090364502e+00	 1.128458286637555e+00
 1.739482681722200e+01	-3.252691193438002e+00	 1.121455578669479e+00
 1.803122292028750e+01	-3.889087296512503e+00	 1.119794933048644e+00
 1.866761902335200e+01	-4.525483399588003e+00	 1.116758414917521e+00
 1.930401512641550e+01	-5.161879502664504e+00	 1.111012498434292e+00
 1.994041122947800e+01	-5.798275605742004e+00	 1.103773582857537e+00
 2.057680733253951e+01	-6.434671708820505e+00	 1.096258208206863e+00
 2.121320343560000e+01	-7.071067811900000e+00	 1.095272512638661e+00
 1.470782104871000e+01	-8.485281373900001e-01	 1.176211268867458e+00
 1.534421715177950e+01	-1.484924240460491e+00	 1.156695990001056e+00
 1.598061325484800e+01	-2.121320343531961e+00	 1.141612396543071e+00
 1.661700935791550e+01	-2.757716446604412e+00	 1.130150469482087e+00
 1.725340546098200e+01	-3.394112549677842e+00	 1.121500158191685e+00
 1.788980156404751e+01	-4.030508652752252e+00	 1.120344512076178e+00
 1.852619766711200e+01	-4.666904755827644e+00	 1.116293980090399e+00
 1.916259377017550e+01	-5.303300858904015e+00	 1.109791990948746e+00
 1.979898987323801e+01	-5.939696961981366e+00	 1.102054940918991e+00
 2.043538597629950e+01	-6.576093065059696e+00	 1.094299367029992e+00
 2.107178207936000e+01	-7.212489168139000e+00	 1.092088247149868e+00
 1.456639969247000e+01	-9.899494936300001e-01	 1.182018204496209e+00
 1.520279579553950e+01	-1.626345596700461e+00	 1.161854531156074e+00
 1.583919189860800e+01	-2.262741699771842e+00	 1.144475574121438e+00
 1.647558800167550e+01	-2.899137802844143e+00	 1.131082433654767e+00
 1.711198410474200e+01	-3.535533905917362e+00	 1.122220813832258e+00
 1.774838020780750e+01	-4.171930008991503e+00	 1.120613227213170e+00
 1.838477631087201e+01	-4.808326112066564e+00	 1.115595870575325e+00
 1.902117241393550e+01	-5.444722215142544e+00	 1.108384996451912e+00
 1.965756851699800e+01	-6.081118318219443e+00	 1.100196998119785e+00
 2.029396462005950e+01	-6.717514421297264e+00	 1.092248409616942e+00
 2.093036072312000e+01	-7.353910524375999e+00	 1.088854187262719e+00
 1.442497833623000e+01	-1.131370849870000e+00	 1.187273842843832e+00
 1.506137443929950e+01	-1.767766952940411e+00	 1.166085048977358e+00
 1.569777054236800e+01	-2.404163056011642e+00	 1.146491271037790e+00
 1.633416664543550e+01	-3.040559159083692e+00	 1.131247459926851e+00
 1.697056274850200e+01	-3.676955262156562e+00	 1.123395257578327e+00
 1.760695885156751e+01	-4.313351365230253e+00	 1.120610094522039e+00
 1.824335495463200e+01	-4.949747468304762e+00	 1.114673102582468e+00
 1.887975105769550e+01	-5.586143571380094e+00	 1.106800531301704e+00
 1.951614716075800e+01	-6.222539674456245e+00	 1.098208770965569e+00
 2.015254326381950e+01	-6.858935777533214e+00	 1.090114352621095e+00
 2.078893936688000e+01	-7.495331880611000e+00	 1.085570050499326e+00
 1.428355697999000e+01	-1.272792206110000e+00	 1.192037100005577e+00
 1.491995308305950e+01	-1.909188309180341e+00	 1.169380824573691e+00
 1.555634918612800e+01	-2.545584412251361e+00	 1.147652768257393e+00
 1.619274528919550e+01	-3.181980515323060e+00	 1.130638829120087e+00
 1.682914139226200e+01	-3.818376618395442e+00	 1.124259678643665e+00
 1.746553749532750e+01	-4.454772721468503e+00	 1.120344130174102e+00
 1.810193359839201e+01	-5.091168824542244e+00	 1.113534692430899e+00
 1.873832970145550e+01	-5.727564927616665e+00	 1.105047611964941e+00
 1.937472580451800e+01	-6.363961030691764e+00	 1.096099276070904e+00
 2.001112190757950e+01	-7.000357133767547e+00	 1.087906212804736e+00
 2.064751801064000e+01	-7.636753236843999e+00	 1.082235554369316e+00
 1.414213562375000e+01	-1.414213562350000e+00	 1.196335748219548e+00
 1.477853172681950e+01	-2.050609665420250e+00	 1.171735139104343e+00
 1.541492782988800e+01	-2.687005768491002e+00	 1.147953346796004e+00
 1.605132393295550e+01	-3.323401871562252e+00	 1.129249822106712e+00
 1.668772003602200e+01	-3.959797974634002e+00	 1.124823093160720e+00
 1.732411613908750e+01	-4.596194077706253e+00	 1.119824350449572e+00
 1.796051224215201e+01	-5.232590180779004e+00	 1.112189656548594e+00
 1.859690834521550e+01	-5.868986283852253e+00	 1.103135255017348e+00
 1.923330444827801e+01	-6.505382386926005e+00	 1.093877530159252e+00
 1.986970055133951e+01	-7.141778490000255e+00	 1.085633007039068e+00
 2.050609665440000e+01	-7.778174593075000e+00	 1.079618351500386e+00
 1.400071426751000e+01	-1.555634918590000e+00	 1.200197559964928e+00
 1.463711037057950e+01	-2.192031021660141e+00	 1.172492759506585e+00
 1.527350647364800e+01	-2.828427124730561e+00	 1.147386287719868e+00
 1.590990257671550e+01	-3.464823227801261e+00	 1.127535148530565e+00
 1.654629867978200e+01	-4.101219330872242e+00	 1.125094517370845e+00
 1.718269478284750e+01	-4.737615433943503e+00	 1.119059771737571e+00
 1.781909088591200e+01	-5.374011537015043e+00	 1.110647011472432e+00
 1.845548698897550e+01	-6.010407640086864e+00	 1.101072477143555e+00
 1.909188309203800e+01	-6.646803743158965e+00	 1.091552550062992e+00
 1.972827919509950e+01	-7.283199846231344e+00	 1.083303752304201e+00
 2.036467529816000e+01	-7.919595949304000e+00	 1.077542746719536e+00
 1.385929291127000e+01	-1.697056274830000e+00	 1.203650307961974e+00
 1.449568901433950e+01	-2.333452377900011e+00	 1.172047075687864e+00
 1.513208511740800e+01	-2.969848480970041e+00	 1.145944872145719e+00
 1.576848122047550e+01	-3.606244584040092e+00	 1.128770348262627e+00
 1.640487732354200e+01	-4.242640687110161e+00	 1.125082967624293e+00
 1.704127342660750e+01	-4.879036790180252e+00	 1.118059410536126e+00
 1.767766952967200e+01	-5.515432893250363e+00	 1.108915773848204e+00
 1.831406563273551e+01	-6.151828996320495e+00	 1.098868295137111e+00
 1.895046173579800e+01	-6.788225099390644e+00	 1.089133352723417e+00
 1.958685783885950e+01	-7.424621202460814e+00	 1.080927465689168e+00
 2.022325394192000e+01	-8.061017305530999e+00	 1.075467293895373e+00
 1.371787155503000e+01	-1.838477631070000e+00	 1.206721765172025e+00
 1.435426765809950e+01	-2.474873734139861e+00	 1.171255959312979e+00
 1.499066376116800e+01	-3.111269837209442e+00	 1.143622381240777e+00
 1.562705986423550e+01	-3.747665940278742e+00	 1.129684397356420e+00
 1.626345596730200e+01	-4.384062043347762e+00	 1.124797460380229e+00
 1.689985207036750e+01	-5.020458146416502e+00	 1.116832283452176e+00
 1.753624817343200e+01	-5.656854249484963e+00	 1.107004960430616e+00
 1.817264427649550e+01	-6.293250352553143e+00	 1.096531725900476e+00
 1.880904037955801e+01	-6.929646455621044e+00	 1.086628955190736e+00
 1.944543648261951e+01	-7.566042558688665e+00	 1.078513164391922e+00
 2.008183258568000e+01	-8.202438661756000e+00	 1.073401010373581e+00
 1.357645019879000e+01	-1.979898987310000e+00	 1.209439704797503e+00
 1.421284630185950e+01	-2.616295090379690e+00	 1.170147183136706e+00
 1.484924240492800e+01	-3.252691193448761e+00	 1.140412096222746e+00
 1.548563850799550e+01	-3.889087296517212e+00	 1.130286312232235e+00
 1.612203461106200e+01	-4.525483399585042e+00	 1.124247012206731e+00
 1.675843071412750e+01	-5.161879502652253e+00	 1.115387407201573e+00
 1.739482681719200e+01	-5.798275605718843e+00	 1.104923588083288e+00
 1.803122292025550e+01	-6.434671708784814e+00	 1.094071786445031e+00
 1.866761902331800e+01	-7.071067811850163e+00	 1.084048374624086e+00
 1.930401512637950e+01	-7.707463914914894e+00	 1.076069865719340e+00
 1.994041122944000e+01	-8.343860017978999e+00	 1.071352913608777e+00
 1.343502884255000e+01	-2.121320343550000e+00	 1.211831900281919e+00
 1.407142494561950e+01	-2.757716446619501e+00	 1.168748520154899e+00
 1.470782104868800e+01	-3.394112549688002e+00	 1.136307298359820e+00
 1.534421715175550e+01	-4.030508652755502e+00	 1.130585109419276e+00
 1.598061325482200e+01	-4.666904755822002e+00	 1.123440639780787e+00
 1.661700935788750e+01	-5.303300858887503e+00	 1.113733798609091e+00
 1.725340546095200e+01	-5.939696961952004e+00	 1.102680673778762e+00
 1.788980156401550e+01	-6.576093065015503e+00	 1.091497493891083e+00
 1.852619766707801e+01	-7.212489168078005e+00	 1.081400628291524e+00
 1.916259377013951e+01	-7.848885271139504e+00	 1.073606587087229e+00
 1.979898987320000e+01	-8.485281374200000e+00	 1.069332021164506e+00
 9.899494936600000e+00	 7.071067811900000e+00	 1.387875941201728e+00
 1.053589103967900e+01	 6.434671708820501e+00	 1.338825361179467e+00
 1.117228714275600e+01	 5.798275605742001e+00	 1.295187637713777e+00
 1.180868324583100e+01	 5.161879502664499e+00	 1.257667979312593e+00
 1.244507934890400e+01	 4.525483399588000e+00	 1.226971504385630e+00
 1.308147545197500e+01	 3.889087296512500e+00	 1.203803241256922e+00
 1.371787155504400e+01	 3.252691193438000e+00	 1.182536071187850e+00
 1.435426765811100e+01	 2.616295090364500e+00	 1.159916067611957e+00
 1.499066376117600e+01	 1.979898987292001e+00	 1.146132061700071e+00
 1.562705986423900e+01	 1.343502884220501e+00	 1.141285610457943e+00
 1.626345596730000e+01	 7.071067811500000e-01	 1.154732434753122e+00
 9.758073580360000e+00	 6.929646455660000e+00	 1.425774790640409e+00
 1.039446968343901e+01	 6.293250352580780e+00	 1.372633598871895e+00
 1.103086578651602e+01	 5.656854249502720e+00	 1.325031203545741e+00
 1.166726188959105e+01	 5.020458146425820e+00	 1.283672825109058e+00
 1.230365799266408e+01	 4.384062043350080e+00	 1.249263593910139e+00
 1.294005409573513e+01	 3.747665940275501e+00	 1.222508550210980e+00
 1.357645019880418e+01	 3.111269837202079e+00	 1.193049096408629e+00
 1.421284630187124e+01	 2.474873734129820e+00	 1.167412920053218e+00
 1.484924240493632e+01	 1.838477631058721e+00	 1.154720529954847e+00
 1.548563850799940e+01	 1.202081527988781e+00	 1.147568058262805e+00
 1.612203461106050e+01	 5.656854249200002e-01	 1.159066133772633e+00
 9.616652224120001e+00	 6.788225099420000e+00	 1.460545752665971e+00
 1.025304832719902e+01	 6.151828996341418e+00	 1.403617260164090e+00
 1.088944443027608e+01	 5.515432893264078e+00	 1.352353505294957e+00
 1.152584053335118e+01	 4.879036790187979e+00	 1.307459720444734e+00
 1.216223663642432e+01	 4.242640687113119e+00	 1.269641047900149e+00
 1.279863273949550e+01	 3.606244584039500e+00	 1.239602539861027e+00
 1.343502884256472e+01	 2.969848480967120e+00	 1.202125987096224e+00
 1.407142494563198e+01	 2.333452377895980e+00	 1.173757211413118e+00
 1.470782104869728e+01	 1.697056274826080e+00	 1.162241626762311e+00
 1.534421715176062e+01	 1.060660171757421e+00	 1.153111385523877e+00
 1.598061325482200e+01	 4.242640686900001e-01	 1.162988963241639e+00
 9.475230867880001e+00	 6.646803743180000e+00	 1.492216376534188e+00
 1.011162697095904e+01	 6.010407640102419e+00	 1.431803893722287e+00
 1.074802307403618e+01	 5.374011537026080e+00	 1.377182091038135e+00
 1.138441917711140e+01	 4.737615433950979e+00	 1.329056212806802e+00
 1.202081528018472e+01	 4.101219330877120e+00	 1.288131413253318e+00
 1.265721138325613e+01	 3.464823227804500e+00	 1.255112756515199e+00
 1.329360748632562e+01	 2.828427124733120e+00	 1.209794514386285e+00
 1.393000358939320e+01	 2.192031021662980e+00	 1.178976712379752e+00
 1.456639969245888e+01	 1.555634918594081e+00	 1.165186924936006e+00
 1.520279579552265e+01	 9.192388155264209e-01	 1.157908873081614e+00
 1.583919189858450e+01	 2.828427124599999e-01	 1.166494203857072e+00
 9.333809511640000e+00	 6.505382386939999e+00	 1.520814211333990e+00
 9.970205614719079e+00	 5.868986283863780e+00	 1.457221048045896e+00
 1.060660171779632e+01	 5.232590180788720e+00	 1.399544508685160e+00
 1.124299782087172e+01	 4.596194077714819e+00	 1.348489849515629e+00
 1.187939392394528e+01	 3.959797974642080e+00	 1.304762236700497e+00
 1.251579002701700e+01	 3.323401871570500e+00	 1.264314089398737e+00
 1.315218613008688e+01	 2.687005768500080e+00	 1.216082449655532e+00
 1.378858223315492e+01	 2.050609665430821e+00	 1.183099193882274e+00
 1.442497833622112e+01	 1.414213562362721e+00	 1.167268428950713e+00
 1.506137443928548e+01	 7.778174592957803e-01	 1.161953801826964e+00
 1.569777054234800e+01	 1.414213562300000e-01	 1.169575136366349e+00
 9.192388155400000e+00	 6.363961030700000e+00	 1.546366805987475e+00
 9.828784258479125e+00	 5.727564927625501e+00	 1.479896271467497e+00
 1.046518036155650e+01	 5.091168824552001e+00	 1.419468305979104e+00
 1.110157646463212e+01	 4.454772721479500e+00	 1.365788177724780e+00
 1.173797256770600e+01	 3.818376618408000e+00	 1.319561064805739e+00
 1.237436867077813e+01	 3.181980515337500e+00	 1.271255552854428e+00
 1.301076477384850e+01	 2.545584412268000e+00	 1.221017564521750e+00
 1.364716087691713e+01	 1.909188309199500e+00	 1.186152427090900e+00
 1.428355697998400e+01	 1.272792206132001e+00	 1.168564256496254e+00
 1.491995308304912e+01	 6.363961030655007e-01	 1.165239452701360e+00
 1.555634918611250e+01	-5.551115123125783e-17	 1.172225041567383e+00
 9.050966799159999e+00	 6.222539674460000e+00	 1.568901709249916e+00
 9.687362902239180e+00	 5.586143571387580e+00	 1.499857112152861e+00
 1.032375900531672e+01	 4.949747468315919e+00	 1.436981030496233e+00
 1.096015510839262e+01	 4.313351365245020e+00	 1.380978744421017e+00
 1.159655121146688e+01	 3.676955262174880e+00	 1.332555443966308e+00
 1.223294731453950e+01	 3.040559159105500e+00	 1.276588395819951e+00
 1.286934341761048e+01	 2.404163056036880e+00	 1.224627630843801e+00
 1.350573952067982e+01	 1.767766952969020e+00	 1.188164183416907e+00
 1.414213562374752e+01	 1.131370849901921e+00	 1.169102178536337e+00
 1.477853172681358e+01	 4.949747468355806e-01	 1.167759106696731e+00
 1.541492782987800e+01	-1.414213562300000e-01	 1.174437200308579e+00
 8.909545442919999e+00	 6.081118318220000e+00	 1.588446469709776e+00
 9.545941545999245e+00	 5.444722215150020e+00	 1.517131118100948e+00
 1.018233764907698e+01	 4.808326112080481e+00	 1.452110229646016e+00
 1.081873375215321e+01	 4.171930009011379e+00	 1.394089096424314e+00
 1.145512985522792e+01	 3.535533905942720e+00	 1.343772920412690e+00
 1.209152595830112e+01	 2.899137802874500e+00	 1.280340390842836e+00
 1.272792206137282e+01	 2.262741699806720e+00	 1.226940420721620e+00
 1.336431816444301e+01	 1.626345596739381e+00	 1.189162234512648e+00
 1.400071426751168e+01	 9.899494936724805e-01	 1.168909966275733e+00
 1.463711037057885e+01	 3.535533906060208e-01	 1.168087685788792e+00
 1.527350647364450e+01	-2.828427124599999e-01	 1.176204893488828e+00
 8.768124086680000e+00	 5.939696961979999e+00	 1.608062973968009e+00
 9.404520189759321e+00	 5.303300858912821e+00	 1.531745837143925e+00
 1.004091629283728e+01	 4.666904755845680e+00	 1.464883450671131e+00
 1.067731239591388e+01	 4.030508652778580e+00	 1.405146780387873e+00
 1.131370849898912e+01	 3.394112549711521e+00	 1.350936957509540e+00
 1.195010460206300e+01	 2.757716446644500e+00	 1.282539310711699e+00
 1.258650070513552e+01	 2.121320343577520e+00	 1.227983706496218e+00
 1.322289680820668e+01	 1.484924240510581e+00	 1.189174352271539e+00
 1.385929291127648e+01	 8.485281374436807e-01	 1.168015391160274e+00
 1.449568901434492e+01	 2.121320343768205e-01	 1.166410902002549e+00
 1.513208511741200e+01	-4.242640686900000e-01	 1.177521402057514e+00
 8.626702730439998e+00	 5.798275605740000e+00	 1.629458907673635e+00
 9.263098833519404e+00	 5.161879502675981e+00	 1.543728816947170e+00
 9.899494936597620e+00	 4.525483399611520e+00	 1.475328240647481e+00
 1.053589103967465e+01	 3.889087296546621e+00	 1.414179342798115e+00
 1.117228714275048e+01	 3.252691193481280e+00	 1.352607095475863e+00
 1.180868324582513e+01	 2.616295090415500e+00	 1.283212928456246e+00
 1.244507934889858e+01	 1.979898987349280e+00	 1.227785260749693e+00
 1.308147545197084e+01	 1.343502884282620e+00	 1.188228308828078e+00
 1.371787155504192e+01	 7.071067812155205e-01	 1.166446224876859e+00
 1.435426765811181e+01	 7.071067814798095e-02	 1.164343096798435e+00
 1.499066376118050e+01	-5.656854249199998e-01	 1.178380007014511e+00
 8.485281374200000e+00	 5.656854249500000e+00	 1.647966909742142e+00
 9.121677477279500e+00	 5.020458146439500e+00	 1.553107605009277e+00
 9.758073580358001e+00	 4.384062043378000e+00	 1.483472146484193e+00
 1.039446968343550e+01	 3.747665940315499e+00	 1.421214329974705e+00
 1.103086578651200e+01	 3.111269837252000e+00	 1.352496134148620e+00
 1.166726188958750e+01	 2.474873734187500e+00	 1.282389017347273e+00
 1.230365799266200e+01	 1.838477631122000e+00	 1.226372856305224e+00
 1.294005409573550e+01	 1.202081528055500e+00	 1.186351876557836e+00
 1.357645019880800e+01	 5.656854249880006e-01	 1.164230239353465e+00
 1.421284630187950e+01	-7.071067808049936e-02	 1.161912041656822e+00
 1.484924240495000e+01	-7.071067811500000e-01	 1.178773989410179e+00
 1.626345596730000e+01	 7.071067811500000e-01	 1.154732434753122e+00
 1.689985207036100e+01	 7.071067808049947e-02	 1.138652092296640e+00
 1.753624817342401e+01	-5.656854249880012e-01	 1.126157428983281e+00
 1.817264427648900e+01	-1.202081528055502e+00	 1.116438393825901e+00
 1.880904037955600e+01	-1.838477631122002e+00	 1.108684904219936e+00
 1.944543648262501e+01	-2.474873734187503e+00	 1.102086845941487e+00
 2.008183258569601e+01	-3.111269837252004e+00	 1.095834073145390e+00
 2.071822868876900e+01	-3.747665940315504e+00	 1.089653533434326e+00
 2.135462479184401e+01	-4.384062043378004e+00	 1.087289370171948e+00
 2.199102089492100e+01	-5.020458146439505e+00	 1.085632482278181e+00
 2.262741699800000e+01	-5.656854249500000e+00	 1.084429092057185e+00
 1.612203461106050e+01	 5.656854249200002e-01	 1.159066133772633e+00
 1.675843071412158e+01	-7.071067814798060e-02	 1.142235976820579e+00
 1.739482681718464e+01	-7.071067812155211e-01	 1.129160722679494e+00
 1.803122292024967e+01	-1.343502884282622e+00	 1.119030323269180e+00
 1.866761902331666e+01	-1.979898987349282e+00	 1.111034698892231e+00
 1.930401512638563e+01	-2.616295090415503e+00	 1.104363738232125e+00
 1.994041122945656e+01	-3.252691193481283e+00	 1.098207298351290e+00
 2.057680733252947e+01	-3.889087296546624e+00	 1.091025221518313e+00
 2.121320343560435e+01	-4.525483399611526e+00	 1.088797800012634e+00
 2.184959953868119e+01	-5.161879502675984e+00	 1.087497930655499e+00
 2.248599564176000e+01	-5.798275605740000e+00	 1.086777335536634e+00
 1.598061325482200e+01	 4.242640686900001e-01	 1.162988963241639e+00
 1.661700935788335e+01	-2.121320343768206e-01	 1.145413842906255e+00
 1.725340546094656e+01	-8.485281374436814e-01	 1.131762849139455e+00
 1.788980156401167e+01	-1.484924240510582e+00	 1.121225936767971e+00
 1.852619766707864e+01	-2.121320343577522e+00	 1.112993029001550e+00
 1.916259377014750e+01	-2.757716446644503e+00	 1.106254017431028e+00
 1.979898987321825e+01	-3.394112549711524e+00	 1.100198762026416e+00
 2.043538597629086e+01	-4.030508652778584e+00	 1.093223969225479e+00
 2.107178207936537e+01	-4.666904755845684e+00	 1.090034722057535e+00
 2.170817818244175e+01	-5.303300858912825e+00	 1.089087568051115e+00
 2.234457428552000e+01	-5.939696961980000e+00	 1.088845465033258e+00
 1.583919189858450e+01	 2.828427124599999e-01	 1.166494203857072e+00
 1.647558800164627e+01	-3.535533906060207e-01	 1.148178971107061e+00
 1.711198410470976e+01	-9.899494936724813e-01	 1.133957088773019e+00
 1.774838020777499e+01	-1.626345596739382e+00	 1.123018514588592e+00
 1.838477631084195e+01	-2.262741699806722e+00	 1.114553174670659e+00
 1.902117241391063e+01	-2.899137802874503e+00	 1.107750963517412e+00
 1.965756851698104e+01	-3.535533905942723e+00	 1.101807739847721e+00
 2.029396462005319e+01	-4.171930009011384e+00	 1.095149023068888e+00
 2.093036072312707e+01	-4.808326112080485e+00	 1.090999853886620e+00
 2.156675682620267e+01	-5.444722215150025e+00	 1.090401112078495e+00
 2.220315292928000e+01	-6.081118318220000e+00	 1.090633198194023e+00
 1.569777054234800e+01	 1.414213562300000e-01	 1.169575136366349e+00
 1.633416664541036e+01	-4.949747468355807e-01	 1.150524642026888e+00
 1.697056274847424e+01	-1.131370849901921e+00	 1.135736722040538e+00
 1.760695885153964e+01	-1.767766952969021e+00	 1.124401337047851e+00
 1.824335495460656e+01	-2.404163056036882e+00	 1.115708416072825e+00
 1.887975105767500e+01	-3.040559159105503e+00	 1.108847856520993e+00
 1.951614716074496e+01	-3.676955262174884e+00	 1.103155438044676e+00
 2.015254326381644e+01	-4.313351365245023e+00	 1.096809398426499e+00
 2.078893936688944e+01	-4.949747468315923e+00	 1.091692913067376e+00
 2.142533546996397e+01	-5.586143571387586e+00	 1.091438280338620e+00
 2.206173157304000e+01	-6.222539674460000e+00	 1.092140252653407e+00
 1.555634918611250e+01	-5.551115123125783e-17	 1.172225041567383e+00
 1.619274528917563e+01	-6.363961030655005e-01	 1.152444136320117e+00
 1.682914139224000e+01	-1.272792206132001e+00	 1.137095029452861e+00
 1.746553749530563e+01	-1.909188309199502e+00	 1.125367684513057e+00
 1.810193359837250e+01	-2.545584412268002e+00	 1.116452033431814e+00
 1.873832970144063e+01	-3.181980515337502e+00	 1.109537976521991e+00
 1.937472580451001e+01	-3.818376618408003e+00	 1.104275979648626e+00
 2.001112190758063e+01	-4.454772721479504e+00	 1.098214110785144e+00
 2.064751801065250e+01	-5.091168824552004e+00	 1.092113617154804e+00
 2.128391411372563e+01	-5.727564927625505e+00	 1.092198790419987e+00
 2.192031021680000e+01	-6.363961030700001e+00	 1.093366346033409e+00
 1.541492782987800e+01	-1.414213562300000e-01	 1.174437200308579e+00
 1.605132393294206e+01	-7.778174592957805e-01	 1.153930734691623e+00
 1.668772003600704e+01	-1.414213562362721e+00	 1.138025291571329e+00
 1.732411613907294e+01	-2.050609665430821e+00	 1.125910837402016e+00
 1.796051224213976e+01	-2.687005768500082e+00	 1.116777307021890e+00
 1.859690834520751e+01	-3.323401871570502e+00	 1.109814603651123e+00
 1.923330444827617e+01	-3.959797974642083e+00	 1.105178380107551e+00
 1.986970055134574e+01	-4.596194077714824e+00	 1.099372175740527e+00
 2.050609665441625e+01	-5.232590180788725e+00	 1.093031276260915e+00
 2.114249275748766e+01	-5.868986283863784e+00	 1.092682359898611e+00
 2.177888886056000e+01	-6.505382386939999e+00	 1.094311195943541e+00
 1.527350647364450e+01	-2.828427124599999e-01	 1.176204893488828e+00
 1.590990257670967e+01	-9.192388155264208e-01	 1.154977717896773e+00
 1.654629867977536e+01	-1.555634918594081e+00	 1.138520789007780e+00
 1.718269478284159e+01	-2.192031021662982e+00	 1.126024076183030e+00
 1.781909088590834e+01	-2.828427124733122e+00	 1.116677517167815e+00
 1.845548698897563e+01	-3.464823227804501e+00	 1.109762619316854e+00
 1.909188309204345e+01	-4.101219330877123e+00	 1.105871654978303e+00
 1.972827919511179e+01	-4.737615433950984e+00	 1.100292608997230e+00
 2.036467529818066e+01	-5.374011537026084e+00	 1.094241889603896e+00
 2.100107140125007e+01	-6.010407640102425e+00	 1.092888706338019e+00
 2.163746750432000e+01	-6.646803743180000e+00	 1.094974519980833e+00
 1.513208511741200e+01	-4.242640686900000e-01	 1.177521402057514e+00
 1.576848122047844e+01	-1.060660171757421e+00	 1.155578366741427e+00
 1.640487732354497e+01	-1.697056274826081e+00	 1.138574802424543e+00
 1.704127342661156e+01	-2.333452377895981e+00	 1.125700681374897e+00
 1.767766952967824e+01	-2.969848480967122e+00	 1.116145944244848e+00
 1.831406563274500e+01	-3.606244584039502e+00	 1.110120155006803e+00
 1.895046173581184e+01	-4.242640687113123e+00	 1.106364819926614e+00
 1.958685783887876e+01	-4.879036790187984e+00	 1.100984426368715e+00
 2.022325394194576e+01	-5.515432893264085e+00	 1.095195379572890e+00
 2.085965004501285e+01	-6.151828996341425e+00	 1.092817547289256e+00
 2.149604614808000e+01	-6.788225099420000e+00	 1.095356035729825e+00
 1.499066376118050e+01	-5.656854249199998e-01	 1.178380007014511e+00
 1.562705986424839e+01	-1.202081527988781e+00	 1.155725962081935e+00
 1.626345596731584e+01	-1.838477631058721e+00	 1.138180612534443e+00
 1.689985207038287e+01	-2.474873734129822e+00	 1.124933933546908e+00
 1.753624817344946e+01	-3.111269837202082e+00	 1.115175868678748e+00
 1.817264427651563e+01	-3.747665940275503e+00	 1.110315100838080e+00
 1.880904037958136e+01	-4.384062043350083e+00	 1.106666890727098e+00
 1.944543648264667e+01	-5.020458146425824e+00	 1.101456643777330e+00
 2.008183258571155e+01	-5.656854249502723e+00	 1.095900762237969e+00
 2.071822868877599e+01	-6.293250352580785e+00	 1.092468600290879e+00
 2.135462479184000e+01	-6.929646455659999e+00	 1.095455460762578e+00
 1.484924240495000e+01	-7.071067811500000e-01	 1.178773989410179e+00
 1.548563850801950e+01	-1.343502884220501e+00	 1.155413784825138e+00
 1.612203461108800e+01	-1.979898987292001e+00	 1.137331500100796e+00
 1.675843071415550e+01	-2.616295090364502e+00	 1.123717113318850e+00
 1.739482681722200e+01	-3.252691193438002e+00	 1.113760570945766e+00
 1.803122292028750e+01	-3.889087296512503e+00	 1.110356472546436e+00
 1.866761902335200e+01	-4.525483399588003e+00	 1.106786883263251e+00
 1.930401512641550e+01	-5.161879502664504e+00	 1.101718277254308e+00
 1.994041122947800e+01	-5.798275605742004e+00	 1.096367053778094e+00
 2.057680733253951e+01	-6.434671708820505e+00	 1.091949752854116e+00
 2.121320343560000e+01	-7.071067811900000e+00	 1.095272512638661e+00
 1.555634918610000e+01	 1.272792206140000e+01	 1.142471742563654e+00
 1.619274528916050e+01	 1.209152595832050e+01	 1.131814717998835e+00
 1.682914139222200e+01	 1.145512985524200e+01	 1.120072425932144e+00
 1.746553749528450e+01	 1.081873375216450e+01	 1.107635636103268e+00
 1.810193359834800e+01	 1.018233764908800e+01	 1.096911721453002e+00
 1.873832970141250e+01	 9.545941546012500e+00	 1.092104582124618e+00
 1.937472580447800e+01	 8.909545442937999e+00	 1.087335803358385e+00
 2.001112190754450e+01	 8.273149339864499e+00	 1.082572853243466e+00
 2.064751801061200e+01	 7.636753236792002e+00	 1.077794847684125e+00
 2.128391411368050e+01	 7.000357133720501e+00	 1.073136810750761e+00
 2.192031021675000e+01	 6.363961030650000e+00	 1.068686859009279e+00
 1.527350647362050e+01	 1.244507934892000e+01	 1.157462890535957e+00
 1.590990257668442e+01	 1.180868324584069e+01	 1.142992104904535e+00
 1.654629867974879e+01	 1.117228714276255e+01	 1.127835055741679e+00
 1.718269478281360e+01	 1.053589103968559e+01	 1.112382506402343e+00
 1.781909088587886e+01	 9.899494936609800e+00	 1.102006548394169e+00
 1.845548698894456e+01	 9.263098833535189e+00	 1.094437513215196e+00
 1.909188309201071e+01	 8.626702730461750e+00	 1.087571297577353e+00
 1.972827919507730e+01	 7.990306627389487e+00	 1.081375368740916e+00
 2.036467529814434e+01	 7.353910524318401e+00	 1.075817208650728e+00
 2.100107140121182e+01	 6.717514421248487e+00	 1.071219132190272e+00
 2.163746750427975e+01	 6.081118318179751e+00	 1.067586283118937e+00
 1.499066376114200e+01	 1.216223663644000e+01	 1.172338784526263e+00
 1.562705986420879e+01	 1.152584053336105e+01	 1.154236504911441e+00
 1.626345596727556e+01	 1.088944443028340e+01	 1.135846967153867e+00
 1.689985207034231e+01	 1.025304832720705e+01	 1.118393396504620e+00
 1.753624817340904e+01	 9.616652224132002e+00	 1.106872796392119e+00
 1.817264427647575e+01	 8.980256121058250e+00	 1.096752020259693e+00
 1.880904037954244e+01	 8.343860017985799e+00	 1.087998519853341e+00
 1.944543648260911e+01	 7.707463914914650e+00	 1.080579761604532e+00
 2.008183258567575e+01	 7.071067811844800e+00	 1.074463226629265e+00
 2.071822868874239e+01	 6.434671708776250e+00	 1.069794417804245e+00
 2.135462479180900e+01	 5.798275605709000e+00	 1.067171984918571e+00
 1.470782104866450e+01	 1.187939392396000e+01	 1.187202244745138e+00
 1.534421715173360e+01	 1.124299782088159e+01	 1.165650739490891e+00
 1.598061325480231e+01	 1.060660171780455e+01	 1.144210982900824e+00
 1.661700935787063e+01	 9.970205614728888e+00	 1.125982634695942e+00
 1.725340546093854e+01	 9.333809511654598e+00	 1.111455994470194e+00
 1.788980156400607e+01	 8.697413408581689e+00	 1.098993632444189e+00
 1.852619766707319e+01	 8.061017305510150e+00	 1.088562999535247e+00
 1.916259377013992e+01	 7.424621202439988e+00	 1.080131561346112e+00
 1.979898987320626e+01	 6.788225099371198e+00	 1.073666798164021e+00
 2.043538597627220e+01	 6.151828996303788e+00	 1.069136204959770e+00
 2.107178207933775e+01	 5.515432893237750e+00	 1.067440653604285e+00
 1.442497833618800e+01	 1.159655121148000e+01	 1.199428844543576e+00
 1.506137443925886e+01	 1.096015510840230e+01	 1.177337628153286e+00
 1.569777054232904e+01	 1.032375900532600e+01	 1.153108013257891e+00
 1.633416664539854e+01	 9.687362902251101e+00	 1.133024196712389e+00
 1.697056274846735e+01	 9.050966799177599e+00	 1.115701674389946e+00
 1.760695885153550e+01	 8.414570696105498e+00	 1.101107881692958e+00
 1.824335495460296e+01	 7.778174593034801e+00	 1.089210268710137e+00
 1.887975105766974e+01	 7.141778489965501e+00	 1.079976300215593e+00
 1.951614716073584e+01	 6.505382386897601e+00	 1.073373455667882e+00
 2.015254326380126e+01	 5.868986283831099e+00	 1.069369229209082e+00
 2.078893936686600e+01	 5.232590180766000e+00	 1.068388978354304e+00
 1.414213562371250e+01	 1.131370849900000e+01	 1.209406948039750e+00
 1.477853172678456e+01	 1.067731239592319e+01	 1.189399988448141e+00
 1.541492782985575e+01	 1.004091629284775e+01	 1.162797606814306e+00
 1.605132393292607e+01	 9.404520189773690e+00	 1.139463616890975e+00
 1.668772003599550e+01	 8.768124086700999e+00	 1.119555370651006e+00
 1.732411613906406e+01	 8.131727983629688e+00	 1.103040302668314e+00
 1.796051224213175e+01	 7.495331880559750e+00	 1.089885862203097e+00
 1.859690834519857e+01	 6.858935777491188e+00	 1.080059513200903e+00
 1.923330444826450e+01	 6.222539674424002e+00	 1.073528734291694e+00
 1.986970055132956e+01	 5.586143571358187e+00	 1.070261018788917e+00
 2.050609665439375e+01	 4.949747468293750e+00	 1.070223874688560e+00
 1.385929291123800e+01	 1.103086578652000e+01	 1.217017234302981e+00
 1.449568901431071e+01	 1.039446968344425e+01	 1.198228930773869e+00
 1.513208511738244e+01	 9.758073580369798e+00	 1.171620434472185e+00
 1.576848122045319e+01	 9.121677477296648e+00	 1.145246432306664e+00
 1.640487732352296e+01	 8.485281374224801e+00	 1.122962620490922e+00
 1.704127342659175e+01	 7.848885271154249e+00	 1.104736432770472e+00
 1.767766952965955e+01	 7.212489168085000e+00	 1.090535317577078e+00
 1.831406563272639e+01	 6.576093065017051e+00	 1.080326738027811e+00
 1.895046173579224e+01	 5.939696961950400e+00	 1.074078171924125e+00
 1.958685783885711e+01	 5.303300858885050e+00	 1.071757111750910e+00
 2.022325394192100e+01	 4.666904755821001e+00	 1.073331064675570e+00
 1.357645019876450e+01	 1.074802307404000e+01	 1.222129356896370e+00
 1.421284630183730e+01	 1.011162697096549e+01	 1.202484838477526e+00
 1.484924240490911e+01	 9.475230867892153e+00	 1.179522035881814e+00
 1.548563850797992e+01	 8.838834764819989e+00	 1.150318182772228e+00
 1.612203461104974e+01	 8.202438661748999e+00	 1.125868963885023e+00
 1.675843071411856e+01	 7.566042558679189e+00	 1.106141812137398e+00
 1.739482681718638e+01	 6.929646455610550e+00	 1.091104175132760e+00
 1.803122292025322e+01	 6.293250352543087e+00	 1.080723515159790e+00
 1.866761902331906e+01	 5.656854249476800e+00	 1.074967309191508e+00
 1.930401512638390e+01	 5.020458146411688e+00	 1.073803048884340e+00
 1.994041122944775e+01	 4.384062043347750e+00	 1.077198240577183e+00
 1.329360748629200e+01	 1.046518036156000e+01	 1.224612966886341e+00
 1.393000358936434e+01	 9.828784258486898e+00	 1.202982425763696e+00
 1.456639969243576e+01	 9.192388155414800e+00	 1.182972895027356e+00
 1.520279579550626e+01	 8.555992052343699e+00	 1.154624410838091e+00
 1.583919189857584e+01	 7.919595949273600e+00	 1.128219943546270e+00
 1.647558800164450e+01	 7.283199846204501e+00	 1.107201983644661e+00
 1.711198410471224e+01	 6.646803743136399e+00	 1.091537977908401e+00
 1.774838020777905e+01	 6.010407640069300e+00	 1.081195387797858e+00
 1.838477631084496e+01	 5.374011537003200e+00	 1.076141689457704e+00
 1.902117241390994e+01	 4.737615433938100e+00	 1.076344373715981e+00
 1.965756851697400e+01	 4.101219330874001e+00	 1.081770946083162e+00
 1.301076477382050e+01	 1.018233764908000e+01	 1.222820014858245e+00
 1.364716087689183e+01	 9.545941546008489e+00	 1.200114118950998e+00
 1.428355697996239e+01	 8.909545442937750e+00	 1.180233478302092e+00
 1.491995308303220e+01	 8.273149339867787e+00	 1.158110661792187e+00
 1.555634918610126e+01	 7.636753236798601e+00	 1.129961104925103e+00
 1.619274528916956e+01	 7.000357133730187e+00	 1.107862492905290e+00
 1.682914139223711e+01	 6.363961030662551e+00	 1.091782271679687e+00
 1.746553749530390e+01	 5.727564927595687e+00	 1.081687901880438e+00
 1.810193359836994e+01	 5.091168824529600e+00	 1.077546858823948e+00
 1.873832970143522e+01	 4.454772721464288e+00	 1.079326632509956e+00
 1.937472580449975e+01	 3.818376618399750e+00	 1.086994727620596e+00
 1.272792206135000e+01	 9.899494936600000e+00	 1.216716258337808e+00
 1.336431816441975e+01	 9.263098833530250e+00	 1.194100340089474e+00
 1.400071426748900e+01	 8.626702730461000e+00	 1.174510207077162e+00
 1.463711037055775e+01	 7.990306627392250e+00	 1.158650828997090e+00
 1.527350647362600e+01	 7.353910524324000e+00	 1.131037996209306e+00
 1.590990257669375e+01	 6.717514421256250e+00	 1.108068888269620e+00
 1.654629867976100e+01	 6.081118318189000e+00	 1.091782604959591e+00
 1.718269478282775e+01	 5.444722215122250e+00	 1.082146606083214e+00
 1.781909088589400e+01	 4.808326112056001e+00	 1.079128366128709e+00
 1.845548698895975e+01	 4.171930008990250e+00	 1.082695374267594e+00
 1.909188309202500e+01	 3.535533905925000e+00	 1.092815134353745e+00
 2.192031021675000e+01	 6.363961030650000e+00	 1.068686859009279e+00
 2.255670631982050e+01	 5.727564927580500e+00	 1.064177742738622e+00
 2.319310242289200e+01	 5.091168824511998e+00	 1.059342197805770e+00
 2.382949852596450e+01	 4.454772721444498e+00	 1.054403138830382e+00
 2.446589462903800e+01	 3.818376618377998e+00	 1.049583466022984e+00
 2.510229073211250e+01	 3.181980515312497e+00	 1.046657606779858e+00
 2.573868683518801e+01	 2.545584412247996e+00	 1.046786052616143e+00
 2.637508293826451e+01	 1.909188309184496e+00	 1.047726473867772e+00
 2.701147904134201e+01	 1.272792206121996e+00	 1.048850033772933e+00
 2.764787514442050e+01	 6.363961030604948e-01	 1.049611933355510e+00
 2.828427124750000e+01	 0.000000000000000e+00	 1.050046746767916e+00
 2.163746750427975e+01	 6.081118318179751e+00	 1.067586283118937e+00
 2.227386360734848e+01	 5.444722215111821e+00	 1.063355510062172e+00
 2.291025971041840e+01	 4.808326112044338e+00	 1.058726077343658e+00
 2.354665581348949e+01	 4.171930008977299e+00	 1.053920898032230e+00
 2.418305191656176e+01	 3.535533905910708e+00	 1.049162870787819e+00
 2.481944801963519e+01	 2.899137802844559e+00	 1.047871311268616e+00
 2.545584412270981e+01	 2.262741699778857e+00	 1.048135245596429e+00
 2.609224022578559e+01	 1.626345596713598e+00	 1.049183325755040e+00
 2.672863632886255e+01	 9.899494936487855e-01	 1.050570753730222e+00
 2.736503243194070e+01	 3.535533905844175e-01	 1.051565458287135e+00
 2.800142853502000e+01	-2.828427124795000e-01	 1.052153921611147e+00
 2.135462479180900e+01	 5.798275605709000e+00	 1.067171984918571e+00
 2.199102089487626e+01	 5.161879502642390e+00	 1.063152458634627e+00
 2.262741699794480e+01	 4.525483399575758e+00	 1.058662042178456e+00
 2.326381310101465e+01	 3.889087296509107e+00	 1.053923647068058e+00
 2.390020920408580e+01	 3.252691193442438e+00	 1.050123980686037e+00
 2.453660530715824e+01	 2.616295090375747e+00	 1.049406852293107e+00
 2.517300141023200e+01	 1.979898987309036e+00	 1.049775546259174e+00
 2.580939751330705e+01	 1.343502884242306e+00	 1.050900556471494e+00
 2.644579361638341e+01	 7.071067811755555e-01	 1.052452376817323e+00
 2.708218971946106e+01	 7.071067810878495e-02	 1.053634422708427e+00
 2.771858582254000e+01	-5.656854249580000e-01	 1.054321639990287e+00
 2.107178207933775e+01	 5.515432893237750e+00	 1.067440653604285e+00
 2.170817818240378e+01	 4.879036790172201e+00	 1.063565277958170e+00
 2.234457428547120e+01	 4.242640687106259e+00	 1.059146782118401e+00
 2.298097038854000e+01	 3.606244584039922e+00	 1.054408076052133e+00
 2.361736649161016e+01	 2.969848480973188e+00	 1.051849867035684e+00
 2.425376259468170e+01	 2.333452377906060e+00	 1.051234599012277e+00
 2.489015869775460e+01	 1.697056274838536e+00	 1.051677323763323e+00
 2.552655480082889e+01	 1.060660171770619e+00	 1.052848535176079e+00
 2.616295090390456e+01	 4.242640687023054e-01	 1.054418727137803e+00
 2.679934700698159e+01	-2.121320343664028e-01	 1.055819612008138e+00
 2.743574311006000e+01	-8.485281374355000e-01	 1.056550687256574e+00
 2.078893936686600e+01	 5.232590180766000e+00	 1.068388978354304e+00
 2.142533546993110e+01	 4.596194077701259e+00	 1.064590657517101e+00
 2.206173157299760e+01	 3.959797974635839e+00	 1.060176986953840e+00
 2.269812767606550e+01	 3.323401871569739e+00	 1.055772862902034e+00
 2.333452377913481e+01	 2.687005768502958e+00	 1.053869057092230e+00
 2.397091988220551e+01	 2.050609665435497e+00	 1.053324920585072e+00
 2.460731598527760e+01	 1.414213562367356e+00	 1.053810947267824e+00
 2.524371208835111e+01	 7.778174592985361e-01	 1.054997631027745e+00
 2.588010819142601e+01	 1.414213562290354e-01	 1.056555465752093e+00
 2.651650429450231e+01	-4.949747468411452e-01	 1.058121811577597e+00
 2.715290039758000e+01	-1.131370849912000e+00	 1.058841848763817e+00
 2.050609665439375e+01	 4.949747468293750e+00	 1.070223874688560e+00
 2.114249275745819e+01	 4.313351365229562e+00	 1.066225286777842e+00
 2.177888886052400e+01	 3.676955262164498e+00	 1.061749346457240e+00
 2.241528496359119e+01	 3.040559159098560e+00	 1.057987493576907e+00
 2.305168106665975e+01	 2.404163056031747e+00	 1.056151920014620e+00
 2.368807716972969e+01	 1.767766952964060e+00	 1.055648186170438e+00
 2.432447327280100e+01	 1.131370849895496e+00	 1.056146785931625e+00
 2.496086937587370e+01	 4.949747468260582e-01	 1.057318213185440e+00
 2.559726547894775e+01	-1.414213562442544e-01	 1.058832961819143e+00
 2.623366158202319e+01	-7.778174593154425e-01	 1.060361525719988e+00
 2.687005768510000e+01	-1.414213562387500e+00	 1.061195909868404e+00
 2.022325394192100e+01	 4.666904755821001e+00	 1.073331064675570e+00
 2.085965004498506e+01	 4.030508652757109e+00	 1.068465855188945e+00
 2.149604614805040e+01	 3.394112549692239e+00	 1.063898481544186e+00
 2.213244225111706e+01	 2.757716446626388e+00	 1.060466895129845e+00
 2.276883835418500e+01	 2.121320343559558e+00	 1.058668824961802e+00
 2.340523445725426e+01	 1.484924240491748e+00	 1.058174764927323e+00
 2.404163056032481e+01	 8.485281374229567e-01	 1.058655208913673e+00
 2.467802666339665e+01	 2.121320343531861e-01	 1.059780650808113e+00
 2.531442276646981e+01	-4.242640687175644e-01	 1.061221584497900e+00
 2.595081886954425e+01	-1.060660171789295e+00	 1.062648503870293e+00
 2.658721497262000e+01	-1.697056274862000e+00	 1.063613655929296e+00
 1.994041122944775e+01	 4.384062043347750e+00	 1.077198240577183e+00
 2.057680733251169e+01	 3.747665940283901e+00	 1.071343263309100e+00
 2.121320343557680e+01	 3.111269837219059e+00	 1.066578419008625e+00
 2.184959953864309e+01	 2.474873734153221e+00	 1.063181436719791e+00
 2.248599564171056e+01	 1.838477631086388e+00	 1.061390141092719e+00
 2.312239174477919e+01	 1.202081528018560e+00	 1.060875026014673e+00
 2.375878784784901e+01	 5.656854249497369e-01	 1.061306585372916e+00
 2.439518395091999e+01	-7.071067812008142e-02	 1.062355313054712e+00
 2.503158005399215e+01	-7.071067811908943e-01	 1.063691702947318e+00
 2.566797615706550e+01	-1.343502884262702e+00	 1.064986248937989e+00
 2.630437226014000e+01	-1.979898987335500e+00	 1.065909444913979e+00
 1.965756851697400e+01	 4.101219330874001e+00	 1.081770946083162e+00
 2.029396462003810e+01	 3.464823227809939e+00	 1.075672007441807e+00
 2.093036072310321e+01	 2.828427124744960e+00	 1.069494594522293e+00
 2.156675682616930e+01	 2.192031021679059e+00	 1.066101487505691e+00
 2.220315292923640e+01	 1.555634918612238e+00	 1.064286237566316e+00
 2.283954903230450e+01	 9.192388155444974e-01	 1.063719338591433e+00
 2.347594513537361e+01	 2.828427124758370e-01	 1.064071284468304e+00
 2.411234123844370e+01	-3.535533905937436e-01	 1.065012569084189e+00
 2.474873734151481e+01	-9.899494936642441e-01	 1.066213686326344e+00
 2.538513344458691e+01	-1.626345596735665e+00	 1.067345130082027e+00
 2.602152954766001e+01	-2.262741699808000e+00	 1.068077394238490e+00
 1.937472580449975e+01	 3.818376618399750e+00	 1.086994727620596e+00
 2.001112190756429e+01	 3.181980515335222e+00	 1.079737746393036e+00
 2.064751801062960e+01	 2.545584412269938e+00	 1.072617377244131e+00
 2.128391411369569e+01	 1.909188309203901e+00	 1.069197416646486e+00
 2.192031021676255e+01	 1.272792206137108e+00	 1.067327483541539e+00
 2.255670631983019e+01	 6.363961030695598e-01	 1.066678071816551e+00
 2.319310242289861e+01	 1.256994508480602e-12	 1.066919675358782e+00
 2.382949852596779e+01	-6.363961030678011e-01	 1.067722788055490e+00
 2.446589462903775e+01	-1.272792206137614e+00	 1.068757903793932e+00
 2.510229073210849e+01	-1.909188309208182e+00	 1.069695516461359e+00
 2.573868683518000e+01	-2.545584412279500e+00	 1.070206119945025e+00
 1.909188309202500e+01	 3.535533905925000e+00	 1.092815134353745e+00
 1.972827919509025e+01	 2.899137802859750e+00	 1.083958008221616e+00
 2.036467529815600e+01	 2.262741699793999e+00	 1.076688640029224e+00
 2.100107140122225e+01	 1.626345596727748e+00	 1.072439593301119e+00
 2.163746750428900e+01	 9.899494936609976e-01	 1.070484248177332e+00
 2.227386360735625e+01	 3.535533905937474e-01	 1.069721594848974e+00
 2.291025971042400e+01	-2.828427124740034e-01	 1.069822127203301e+00
 2.354665581349226e+01	-9.192388155422541e-01	 1.070456339127569e+00
 2.418305191656101e+01	-1.555634918611004e+00	 1.071294724509030e+00
 2.481944801963025e+01	-2.192031021680255e+00	 1.072007777234936e+00
 2.545584412270000e+01	-2.828427124750000e+00	 1.072265991192536e+00
 1.272792206135000e+01	 9.899494936600000e+00	 1.216716258337808e+00
 1.336431816441975e+01	 9.263098833530250e+00	 1.194100340089474e+00
 1.400071426748900e+01	 8.626702730461000e+00	 1.174510207077162e+00
 1.463711037055775e+01	 7.990306627392250e+00	 1.158650828997090e+00
 1.527350647362600e+01	 7.353910524324000e+00	 1.131037996209306e+00
 1.590990257669375e+01	 6.717514421256250e+00	 1.108068888269620e+00
 1.654629867976100e+01	 6.081118318189000e+00	 1.091782604959591e+00
 1.718269478282775e+01	 5.444722215122250e+00	 1.082146606083214e+00
 1.781909088589400e+01	 4.808326112056001e+00	 1.079128366128709e+00
 1.845548698895975e+01	 4.171930008990250e+00	 1.082695374267594e+00
 1.909188309202500e+01	 3.535533905925000e+00	 1.092815134353745e+00
 1.244507934887950e+01	 9.616652224120999e+00	 1.237868362971356e+00
 1.308147545194768e+01	 8.980256121052815e+00	 1.211949871164918e+00
 1.371787155501561e+01	 8.343860017984872e+00	 1.189514403426897e+00
 1.435426765808330e+01	 7.707463914917158e+00	 1.171266953337135e+00
 1.499066376115074e+01	 7.071067811849678e+00	 1.149062276258099e+00
 1.562705986421794e+01	 6.434671708782437e+00	 1.122905484473493e+00
 1.626345596728489e+01	 5.798275605715430e+00	 1.104352651996795e+00
 1.689985207035160e+01	 5.161879502648657e+00	 1.093371237803970e+00
 1.753624817341806e+01	 4.525483399582120e+00	 1.089928715555170e+00
 1.817264427648427e+01	 3.889087296515818e+00	 1.093992573593799e+00
 1.880904037955025e+01	 3.252691193449750e+00	 1.104076097944233e+00
 1.216223663640800e+01	 9.333809511643999e+00	 1.258237681655609e+00
 1.279863273947516e+01	 8.697413408576820e+00	 1.228832695989132e+00
 1.343502884254224e+01	 8.061017305509679e+00	 1.203367978442147e+00
 1.407142494560924e+01	 7.424621202442578e+00	 1.182548546477579e+00
 1.470782104867616e+01	 6.788225099375517e+00	 1.167014750921046e+00
 1.534421715174300e+01	 6.151828996308500e+00	 1.137534908617036e+00
 1.598061325480976e+01	 5.515432893241520e+00	 1.116580157505921e+00
 1.661700935787644e+01	 4.879036790174579e+00	 1.104117955735723e+00
 1.725340546094304e+01	 4.242640687107680e+00	 1.100115776138617e+00
 1.788980156400956e+01	 3.606244584040820e+00	 1.104541106229989e+00
 1.852619766707600e+01	 2.969848480974000e+00	 1.113467527474629e+00
 1.187939392393550e+01	 9.050966799169000e+00	 1.278044633140626e+00
 1.251579002700220e+01	 8.414570696102254e+00	 1.244969228595059e+00
 1.315218613006889e+01	 7.778174593035430e+00	 1.216291341438703e+00
 1.378858223313558e+01	 7.141778489968516e+00	 1.192716013017029e+00
 1.442497833620226e+01	 6.505382386901519e+00	 1.174948194585567e+00
 1.506137443926894e+01	 5.868986283834436e+00	 1.151902717261651e+00
 1.569777054233561e+01	 5.232590180767269e+00	 1.128410678210911e+00
 1.633416664540227e+01	 4.596194077700017e+00	 1.114332316765042e+00
 1.697056274846894e+01	 3.959797974632680e+00	 1.109635104928326e+00
 1.760695885153560e+01	 3.323401871565257e+00	 1.112739458166191e+00
 1.824335495460225e+01	 2.687005768497749e+00	 1.121522964897451e+00
 1.159655121146200e+01	 8.768124086695998e+00	 1.297509633504540e+00
 1.223294731452879e+01	 8.131727983629130e+00	 1.260579880343829e+00
 1.286934341759556e+01	 7.495331880562119e+00	 1.228504899060660e+00
 1.350573952066230e+01	 6.858935777494967e+00	 1.201989754882514e+00
 1.414213562372904e+01	 6.222539674427679e+00	 1.181739422945740e+00
 1.477853172679575e+01	 5.586143571360249e+00	 1.165954469705464e+00
 1.541492782986244e+01	 4.949747468292679e+00	 1.139789773572415e+00
 1.605132393292911e+01	 4.313351365224970e+00	 1.123959880515170e+00
 1.668772003599576e+01	 3.676955262157120e+00	 1.118432261710217e+00
 1.732411613906239e+01	 3.040559159089130e+00	 1.117800367662537e+00
 1.796051224212900e+01	 2.404163056020999e+00	 1.128188649122498e+00
 1.131370849898750e+01	 8.485281374224998e+00	 1.316853096153834e+00
 1.195010460205494e+01	 7.848885271157434e+00	 1.275885059925048e+00
 1.258650070512225e+01	 7.212489168089749e+00	 1.240229055280709e+00
 1.322289680818944e+01	 6.576093065021936e+00	 1.210590171329777e+00
 1.385929291125650e+01	 5.939696961954000e+00	 1.187673407088885e+00
 1.449568901432344e+01	 5.303300858885936e+00	 1.172183671494880e+00
 1.513208511739025e+01	 4.666904755817749e+00	 1.150663005787629e+00
 1.576848122045694e+01	 4.030508652749438e+00	 1.132946209345877e+00
 1.640487732352350e+01	 3.394112549680999e+00	 1.125472168896475e+00
 1.704127342658994e+01	 2.757716446612437e+00	 1.121501961402652e+00
 1.767766952965625e+01	 2.121320343543749e+00	 1.133410819867581e+00
 1.103086578651200e+01	 8.202438661755998e+00	 1.336295431823632e+00
 1.166726188958064e+01	 7.566042558687180e+00	 1.291105173357074e+00
 1.230365799264896e+01	 6.929646455618316e+00	 1.251684211400414e+00
 1.294005409571696e+01	 6.293250352549419e+00	 1.218737658943553e+00
 1.357645019878464e+01	 5.656854249480479e+00	 1.192970538882876e+00
 1.421284630185200e+01	 5.020458146411499e+00	 1.175087784033789e+00
 1.484924240491904e+01	 4.384062043342480e+00	 1.160975939790156e+00
 1.548563850798576e+01	 3.747665940273419e+00	 1.141236868353307e+00
 1.612203461105216e+01	 3.111269837204319e+00	 1.127244261987201e+00
 1.675843071411824e+01	 2.474873734135179e+00	 1.123790481060781e+00
 1.739482681718400e+01	 1.838477631065998e+00	 1.137135717658508e+00
 1.074802307403550e+01	 7.919595949288997e+00	 1.356057048577979e+00
 1.138441917710590e+01	 7.283199846218354e+00	 1.306460623987312e+00
 1.202081528017569e+01	 6.646803743147827e+00	 1.263090766050501e+00
 1.265721138324488e+01	 6.010407640077416e+00	 1.226652611637856e+00
 1.329360748631346e+01	 5.374011537007118e+00	 1.197851207524987e+00
 1.393000358938144e+01	 4.737615433936936e+00	 1.177391510405318e+00
 1.456639969244881e+01	 4.101219330866869e+00	 1.165978386902637e+00
 1.520279579551558e+01	 3.464823227796916e+00	 1.148777425369841e+00
 1.583919189858174e+01	 2.828427124727079e+00	 1.127633723858004e+00
 1.647558800164730e+01	 2.192031021657356e+00	 1.124612169119113e+00
 1.711198410471225e+01	 1.555634918587748e+00	 1.139309583829064e+00
 1.046518036155800e+01	 7.636753236823998e+00	 1.376358351810128e+00
 1.110157646463071e+01	 7.000357133750968e+00	 1.322171812492490e+00
 1.173797256770244e+01	 6.363961030678277e+00	 1.274669115191136e+00
 1.237436867077319e+01	 5.727564927605928e+00	 1.234555420656264e+00
 1.301076477384296e+01	 5.091168824533916e+00	 1.202535799542168e+00
 1.364716087691175e+01	 4.454772721462248e+00	 1.179315232419768e+00
 1.428355697997956e+01	 3.818376618390917e+00	 1.165598609789148e+00
 1.491995308304639e+01	 3.181980515319928e+00	 1.148709218531347e+00
 1.555634918611224e+01	 2.545584412249279e+00	 1.126586798947345e+00
 1.619274528917711e+01	 1.909188309178969e+00	 1.123913268867766e+00
 1.682914139224100e+01	 1.272792206108998e+00	 1.139878660520988e+00
 1.018233764907950e+01	 7.353910524360998e+00	 1.397419744242822e+00
 1.081873375215508e+01	 6.717514421285016e+00	 1.338459136878944e+00
 1.145512985522921e+01	 6.081118318209668e+00	 1.286639652112217e+00
 1.209152595830189e+01	 5.444722215134954e+00	 1.242666474572198e+00
 1.272792206137314e+01	 4.808326112060878e+00	 1.207244698791337e+00
 1.336431816444294e+01	 4.171930008987436e+00	 1.181079329217519e+00
 1.400071426751129e+01	 3.535533905914628e+00	 1.164875280226593e+00
 1.463711037057820e+01	 2.899137802842456e+00	 1.144763636212278e+00
 1.527350647364366e+01	 2.262741699770918e+00	 1.124049732501559e+00
 1.590990257670767e+01	 1.626345596700016e+00	 1.121640024404762e+00
 1.654629867977025e+01	 9.899494936297477e-01	 1.138789190683964e+00
 9.899494936600000e+00	 7.071067811900000e+00	 1.419461625928580e+00
 1.053589103967900e+01	 6.434671708820501e+00	 1.355542992482905e+00
 1.117228714275600e+01	 5.798275605742001e+00	 1.299222767433654e+00
 1.180868324583100e+01	 5.161879502664499e+00	 1.251206159289211e+00
 1.244507934890400e+01	 4.525483399588000e+00	 1.212198286459661e+00
 1.308147545197500e+01	 3.889087296512500e+00	 1.182904177269320e+00
 1.371787155504400e+01	 3.252691193438000e+00	 1.157696712979765e+00
 1.435426765811100e+01	 2.616295090364500e+00	 1.133321967024653e+00
 1.499066376117600e+01	 1.979898987292001e+00	 1.119968770574839e+00
 1.562705986423900e+01	 1.343502884220501e+00	 1.117738680636016e+00
 1.626345596730000e+01	 7.071067811500000e-01	 1.135987418075591e+00
 1.909188309202500e+01	 3.535533905925000e+00	 1.092815134353745e+00
 1.972827919509025e+01	 2.899137802859750e+00	 1.083958008221616e+00
 2.036467529815600e+01	 2.262741699793999e+00	 1.076688640029224e+00
 2.100107140122225e+01	 1.626345596727748e+00	 1.072439593301119e+00
 2.163746750428900e+01	 9.899494936609976e-01	 1.070484248177332e+00
 2.227386360735625e+01	 3.535533905937474e-01	 1.069721594848974e+00
 2.291025971042400e+01	-2.828427124740034e-01	 1.069822127203301e+00
 2.354665581349226e+01	-9.192388155422541e-01	 1.070456339127569e+00
 2.418305191656101e+01	-1.555634918611004e+00	 1.071294724509030e+00
 2.481944801963025e+01	-2.192031021680255e+00	 1.072007777234936e+00
 2.545584412270000e+01	-2.828427124750000e+00	 1.072265991192536e+00
 1.880904037955025e+01	 3.252691193449750e+00	 1.104076097944233e+00
 1.944543648261622e+01	 2.616295090383691e+00	 1.093831967144402e+00
 2.008183258568245e+01	 1.979898987317418e+00	 1.085823554505607e+00
 2.071822868874890e+01	 1.343502884250930e+00	 1.079764908190869e+00
 2.135462479181561e+01	 7.071067811842275e-01	 1.076993609418518e+00
 2.199102089488257e+01	 7.071067811730962e-02	 1.075434945668743e+00
 2.262741699794977e+01	-5.656854249498235e-01	 1.074759410828802e+00
 2.326381310101721e+01	-1.202081528017172e+00	 1.074637498785950e+00
 2.390020920408489e+01	-1.838477631084735e+00	 1.074739703427443e+00
 2.453660530715283e+01	-2.474873734152513e+00	 1.074736518640532e+00
 2.517300141022100e+01	-3.111269837220500e+00	 1.074298438312471e+00
 1.852619766707600e+01	 2.969848480974000e+00	 1.113467527474629e+00
 1.916259377014244e+01	 2.333452377907219e+00	 1.102576004832194e+00
 1.979898987320896e+01	 1.697056274840478e+00	 1.093980857080696e+00
 2.043538597627557e+01	 1.060660171773778e+00	 1.086871986720458e+00
 2.107178207934224e+01	 4.242640687071171e-01	 1.082793009137192e+00
 2.170817818240901e+01	-2.121320343595033e-01	 1.080558996253755e+00
 2.234457428547584e+01	-8.485281374260839e-01	 1.079228055507298e+00
 2.298097038854277e+01	-1.484924240492624e+00	 1.078470680785081e+00
 2.361736649160976e+01	-2.121320343559125e+00	 1.077957365974359e+00
 2.425376259467685e+01	-2.757716446625586e+00	 1.077358604962387e+00
 2.489015869774400e+01	-3.394112549692001e+00	 1.076344891636418e+00
 1.824335495460225e+01	 2.687005768497749e+00	 1.121522964897451e+00
 1.887975105766890e+01	 2.050609665430331e+00	 1.110136358238190e+00
 1.951614716073556e+01	 1.414213562363178e+00	 1.101106783559086e+00
 2.015254326380223e+01	 7.778174592962902e-01	 1.093624149174682e+00
 2.078893936686889e+01	 1.414213562296671e-01	 1.087852816492305e+00
 2.142533546993556e+01	-4.949747468366910e-01	 1.085064115762957e+00
 2.206173157300224e+01	-1.131370849902784e+00	 1.083198430397738e+00
 2.269812767606893e+01	-1.767766952968613e+00	 1.081926254283909e+00
 2.333452377913561e+01	-2.404163056034175e+00	 1.080918081308727e+00
 2.397091988220231e+01	-3.040559159099473e+00	 1.079844405359448e+00
 2.460731598526900e+01	-3.676955262164501e+00	 1.077330713525434e+00
 1.796051224212900e+01	 2.404163056020999e+00	 1.128188649122498e+00
 1.859690834519561e+01	 1.767766952953029e+00	 1.116459265123653e+00
 1.923330444826224e+01	 1.131370849885518e+00	 1.107147570553474e+00
 1.986970055132889e+01	 4.949747468184673e-01	 1.099443479540678e+00
 2.050609665439556e+01	-1.414213562481229e-01	 1.092536874593942e+00
 2.114249275746225e+01	-7.778174593142541e-01	 1.088920673355299e+00
 2.177888886052897e+01	-1.414213562379924e+00	 1.086640904659070e+00
 2.241528496359570e+01	-2.050609665445135e+00	 1.084974588441382e+00
 2.305168106666245e+01	-2.687005768509886e+00	 1.083592218589494e+00
 2.368807716972921e+01	-3.323401871574176e+00	 1.082164288990666e+00
 2.432447327279600e+01	-3.959797974638001e+00	 1.078134954816951e+00
 1.767766952965625e+01	 2.121320343543749e+00	 1.133410819867581e+00
 1.831406563272256e+01	 1.484924240475311e+00	 1.121490964057893e+00
 1.895046173578900e+01	 8.485281374074976e-01	 1.112049455484631e+00
 1.958685783885556e+01	 2.121320343403097e-01	 1.104276214090652e+00
 2.022325394192225e+01	-4.242640687262535e-01	 1.097361128199200e+00
 2.085965004498906e+01	-1.060660171792192e+00	 1.092099038189726e+00
 2.149604614805600e+01	-1.697056274857505e+00	 1.089525847450240e+00
 2.213244225112307e+01	-2.333452377922193e+00	 1.087586052416446e+00
 2.276883835419025e+01	-2.969848480986256e+00	 1.085950146975608e+00
 2.340523445725757e+01	-3.606244584049694e+00	 1.083621312895702e+00
 2.404163056032500e+01	-4.242640687112501e+00	 1.079012896663251e+00
 1.739482681718400e+01	 1.838477631065998e+00	 1.137135717658508e+00
 1.803122292024976e+01	 1.202081527997178e+00	 1.125177694418248e+00
 1.866761902331584e+01	 5.656854249291170e-01	 1.115758676581394e+00
 1.930401512638224e+01	-7.071067813818320e-02	 1.108068589904898e+00
 1.994041122944896e+01	-7.071067812047238e-01	 1.101297328526538e+00
 2.057680733251600e+01	-1.343502884270504e+00	 1.094634754962996e+00
 2.121320343558336e+01	-1.979898987335525e+00	 1.091823627930195e+00
 2.184959953865105e+01	-2.616295090399785e+00	 1.089731015368049e+00
 2.248599564171904e+01	-3.252691193463286e+00	 1.087962235626018e+00
 2.312239174478736e+01	-3.889087296526026e+00	 1.084469787262110e+00
 2.375878784785600e+01	-4.525483399588001e+00	 1.079962281487980e+00
 1.711198410471225e+01	 1.555634918587748e+00	 1.139309583829064e+00
 1.774838020777720e+01	 9.192388155186300e-01	 1.127465696390063e+00
 1.838477631084276e+01	 2.828427124503768e-01	 1.118221472880637e+00
 1.902117241390892e+01	-3.535533906170111e-01	 1.110766844871788e+00
 1.965756851697569e+01	-9.899494936835340e-01	 1.104291712315785e+00
 2.029396462004307e+01	-1.626345596749192e+00	 1.097985943544239e+00
 2.093036072311104e+01	-2.262741699813985e+00	 1.093504615257885e+00
 2.156675682617963e+01	-2.899137802877914e+00	 1.091379846455141e+00
 2.220315292924881e+01	-3.535533905940976e+00	 1.089290848405417e+00
 2.283954903231861e+01	-4.171930009003175e+00	 1.085271766426224e+00
 2.347594513538900e+01	-4.808326112064502e+00	 1.080980851515140e+00
 1.682914139224100e+01	 1.272792206108998e+00	 1.139878660520988e+00
 1.746553749530489e+01	 6.363961030396673e-01	 1.128301210966678e+00
 1.810193359836976e+01	-2.872324600389220e-11	 1.119384084227256e+00
 1.873832970143561e+01	-6.363961030961738e-01	 1.112317217687745e+00
 1.937472580450244e+01	-1.272792206162684e+00	 1.106290517114860e+00
 2.001112190757025e+01	-1.909188309228255e+00	 1.100493856655098e+00
 2.064751801063904e+01	-2.545584412292886e+00	 1.094539178592258e+00
 2.128391411370881e+01	-3.181980515356576e+00	 1.092502914836669e+00
 2.192031021677957e+01	-3.818376618419327e+00	 1.089685566223597e+00
 2.255670631985129e+01	-4.454772721481136e+00	 1.086024992144409e+00
 2.319310242292400e+01	-5.091168824542002e+00	 1.082066348769078e+00
 1.654629867977025e+01	 9.899494936297477e-01	 1.138789190683964e+00
 1.718269478283282e+01	 3.535533905602898e-01	 1.127630479949398e+00
 1.781909088589684e+01	-2.828427125081834e-01	 1.119192751274156e+00
 1.845548698896230e+01	-9.192388155756714e-01	 1.112665947857231e+00
 1.909188309202921e+01	-1.555634918642174e+00	 1.107239981279749e+00
 1.972827919509757e+01	-2.192031021707693e+00	 1.102104731503050e+00
 2.036467529816736e+01	-2.828427124772225e+00	 1.096450046866764e+00
 2.100107140123860e+01	-3.464823227835774e+00	 1.093029449347845e+00
 2.163746750431129e+01	-4.101219330898338e+00	 1.089913591950947e+00
 2.227386360738543e+01	-4.737615433959915e+00	 1.086727205973360e+00
 2.291025971046100e+01	-5.374011537020502e+00	 1.083216515074470e+00
 1.626345596730000e+01	 7.071067811500000e-01	 1.135987418075591e+00
 1.689985207036100e+01	 7.071067808049947e-02	 1.125399745947485e+00
 1.753624817342401e+01	-5.656854249880012e-01	 1.117593715482220e+00
 1.817264427648900e+01	-1.202081528055502e+00	 1.111759275692723e+00
 1.880904037955600e+01	-1.838477631122002e+00	 1.107086343974486e+00
 1.944543648262501e+01	-2.474873734187503e+00	 1.102764806103655e+00
 2.008183258569601e+01	-3.111269837252004e+00	 1.097984516235093e+00
 2.071822868876900e+01	-3.747665940315504e+00	 1.092472421971499e+00
 2.135462479184401e+01	-4.384062043378004e+00	 1.089972666676526e+00
 2.199102089492100e+01	-5.020458146439505e+00	 1.087376149270085e+00
 2.262741699800000e+01	-5.656854249500000e+00	 1.084429092056310e+00
