x	y	stress_yy
 7.071067811900000e+00	 7.071067811900000e+00	 1.203078214684597e+00
 7.071067811900001e+00	 7.071067811900001e+00	 1.203078214684597e+00
 7.071067811900001e+00	 7.071067811900001e+00	 1.203078214684597e+00
 7.071067811900000e+00	 7.071067811900000e+00	 1.203078214684597e+00
 7.071067811899999e+00	 7.071067811899999e+00	 1.203078214684598e+00
 7.071067811900000e+00	 7.071067811900000e+00	 1.203078214684597e+00
 7.071067811900000e+00	 7.071067811900000e+00	 1.203078214684597e+00
 7.071067811900000e+00	 7.071067811900000e+00	 1.203078214684598e+00
 7.071067811900000e+00	 7.071067811900000e+00	 1.203078214684598e+00
 7.071067811900000e+00	 7.071067811900000e+00	 1.203078214684598e+00
 7.071067811900000e+00	 7.071067811900000e+00	 1.203078214684597e+00
 7.074603345806000e+00	 7.074603345806000e+00	 3.542888006157628e+01
 7.074249792415401e+00	 7.074956899196505e+00	 3.338688580252611e+01
 7.073896239024798e+00	 7.075310452587019e+00	 3.139831611190768e+01
 7.073542685634201e+00	 7.075664005977545e+00	 2.946317098970561e+01
 7.073189132243600e+00	 7.076017559368080e+00	 2.758145043591717e+01
 7.072835578853000e+00	 7.076371112758626e+00	 2.575315445053412e+01
 7.072482025462401e+00	 7.076724666149181e+00	 2.397828303355096e+01
 7.072128472071801e+00	 7.077078219539746e+00	 2.225683618495677e+01
 7.071774918681198e+00	 7.077431772930320e+00	 2.058881390476207e+01
 7.071421365290600e+00	 7.077785326320905e+00	 1.897421619293605e+01
 7.071067811900000e+00	 7.078138879711500e+00	 1.741304304949865e+01
 7.085209947524000e+00	 7.085209947524000e+00	 1.776309407159210e+01
 7.083795733961600e+00	 7.086624161086021e+00	 1.674721454660643e+01
 7.082381520399200e+00	 7.088038374648080e+00	 1.575798398139049e+01
 7.080967306836799e+00	 7.089452588210178e+00	 1.479540237595688e+01
 7.079553093274400e+00	 7.090866801772320e+00	 1.385946973031869e+01
 7.078138879711998e+00	 7.092281015334499e+00	 1.295018604448960e+01
 7.076724666149599e+00	 7.093695228896719e+00	 1.206755131848325e+01
 7.075310452587200e+00	 7.095109442458979e+00	 1.121156555231337e+01
 7.073896239024801e+00	 7.096523656021281e+00	 1.038222874599398e+01
 7.072482025462401e+00	 7.097937869583620e+00	 9.579540899540198e+00
 7.071067811900000e+00	 7.099352083146000e+00	 8.803502012965625e+00
 7.102887617053999e+00	 7.102887617053999e+00	 1.189152596691462e+01
 7.099705636538601e+00	 7.106069597568546e+00	 1.121395305607849e+01
 7.096523656023201e+00	 7.109251578083180e+00	 1.055422986670188e+01
 7.093341675507799e+00	 7.112433558597904e+00	 9.912356398975787e+00
 7.090159694992400e+00	 7.115615539112721e+00	 9.288332653090626e+00
 7.086977714477000e+00	 7.118797519627625e+00	 8.682158629237263e+00
 7.083795733961600e+00	 7.121979500142620e+00	 8.093834327606897e+00
 7.080613753446200e+00	 7.125161480657705e+00	 7.523359748390579e+00
 7.077431772930801e+00	 7.128343461172881e+00	 6.970734891779720e+00
 7.074249792415400e+00	 7.131525441688146e+00	 6.435959757965586e+00
 7.071067811899999e+00	 7.134707422203499e+00	 5.919034347139993e+00
 7.127636354396000e+00	 7.127636354396000e+00	 8.958122755866626e+00
 7.121979500146401e+00	 7.133293208644081e+00	 8.448976219943599e+00
 7.116322645896799e+00	 7.138950062892319e+00	 7.953303266013664e+00
 7.110665791647200e+00	 7.144606917140720e+00	 7.471103895160319e+00
 7.105008937397599e+00	 7.150263771389279e+00	 7.002378108467283e+00
 7.099352083148000e+00	 7.155920625638000e+00	 6.547125907018405e+00
 7.093695228898400e+00	 7.161577479886881e+00	 6.105347291897615e+00
 7.088038374648800e+00	 7.167234334135919e+00	 5.677042264188906e+00
 7.082381520399200e+00	 7.172891188385120e+00	 5.262210824976526e+00
 7.076724666149601e+00	 7.178548042634481e+00	 4.860852975344718e+00
 7.071067811900000e+00	 7.184204896884000e+00	 4.472968716377874e+00
 7.159456159549999e+00	 7.159456159549999e+00	 7.198126918974167e+00
 7.150617324785002e+00	 7.168294994312627e+00	 6.789779200083823e+00
 7.141778490019999e+00	 7.177133829075499e+00	 6.392286659935895e+00
 7.132939655255000e+00	 7.185972663838625e+00	 6.005649302669948e+00
 7.124100820490000e+00	 7.194811498602000e+00	 5.629867132425630e+00
 7.115261985725001e+00	 7.203650333365625e+00	 5.264940153342700e+00
 7.106423150960000e+00	 7.212489168129499e+00	 4.910868369560991e+00
 7.097584316194999e+00	 7.221328002893625e+00	 4.567651785220479e+00
 7.088745481430000e+00	 7.230166837658000e+00	 4.235290404461159e+00
 7.079906646665001e+00	 7.239005672422626e+00	 3.913784231423241e+00
 7.071067811900000e+00	 7.247844507187500e+00	 3.603133270246865e+00
 7.198347032516000e+00	 7.198347032516000e+00	 6.024190449396078e+00
 7.185619110454399e+00	 7.211074954574179e+00	 5.682913089038050e+00
 7.172891188392800e+00	 7.223802876632719e+00	 5.350747998154935e+00
 7.160163266331200e+00	 7.236530798691621e+00	 5.027695189110880e+00
 7.147435344269599e+00	 7.249258720750880e+00	 4.713754674270064e+00
 7.134707422208000e+00	 7.261986642810499e+00	 4.408926465996758e+00
 7.121979500146399e+00	 7.274714564870480e+00	 4.113210576655387e+00
 7.109251578084801e+00	 7.287442486930821e+00	 3.826607018610447e+00
 7.096523656023201e+00	 7.300170408991521e+00	 3.549115804226485e+00
 7.083795733961601e+00	 7.312898331052581e+00	 3.280736945868205e+00
 7.071067811899999e+00	 7.325626253114000e+00	 3.021470455900402e+00
 7.244308973294000e+00	 7.244308973294000e+00	 5.184822286168742e+00
 7.226984857154600e+00	 7.261633089428745e+00	 4.891369646817495e+00
 7.209660741015200e+00	 7.278957205563979e+00	 4.605785201848843e+00
 7.192336624875800e+00	 7.296281321699705e+00	 4.328068982442682e+00
 7.175012508736400e+00	 7.313605437835919e+00	 4.058221019779043e+00
 7.157688392597000e+00	 7.330929553972624e+00	 3.796241345038080e+00
 7.140364276457599e+00	 7.348253670109818e+00	 3.542129989400093e+00
 7.123040160318200e+00	 7.365577786247505e+00	 3.295886984045495e+00
 7.105716044178798e+00	 7.382901902385678e+00	 3.057512360154871e+00
 7.088391928039401e+00	 7.400226018524346e+00	 2.827006148908908e+00
 7.071067811900000e+00	 7.417550134663500e+00	 2.604368381488441e+00
 7.297341981884001e+00	 7.297341981884001e+00	 4.554359955523799e+00
 7.274714564885600e+00	 7.319969398876320e+00	 4.296712871757907e+00
 7.252087147887199e+00	 7.342596815869278e+00	 4.046000809400910e+00
 7.229459730888800e+00	 7.365224232862881e+00	 3.802223837929058e+00
 7.206832313890400e+00	 7.387851649857121e+00	 3.565382026818861e+00
 7.184204896891999e+00	 7.410479066851998e+00	 3.335475445547098e+00
 7.161577479893598e+00	 7.433106483847518e+00	 3.112504163590777e+00
 7.138950062895198e+00	 7.455733900843678e+00	 2.896468250427201e+00
 7.116322645896799e+00	 7.478361317840478e+00	 2.687367775533895e+00
 7.093695228898400e+00	 7.500988734837920e+00	 2.485202808388680e+00
 7.071067811900001e+00	 7.523616151836001e+00	 2.289973418469597e+00
 7.357446058286000e+00	 7.357446058286000e+00	 4.063031308770492e+00
 7.328808233647398e+00	 7.386083882916903e+00	 3.833179339473664e+00
 7.300170409008800e+00	 7.414721707548620e+00	 3.609535796193611e+00
 7.271532584370201e+00	 7.443359532181146e+00	 3.392100819779906e+00
 7.242894759731599e+00	 7.471997356814479e+00	 3.180874551082704e+00
 7.214256935093000e+00	 7.500635181448625e+00	 2.975857130952704e+00
 7.185619110454399e+00	 7.529273006083580e+00	 2.777048700241178e+00
 7.156981285815798e+00	 7.557910830719343e+00	 2.584449399799945e+00
 7.128343461177200e+00	 7.586548655355919e+00	 2.398059370481413e+00
 7.099705636538600e+00	 7.615186479993304e+00	 2.217878753138535e+00
 7.071067811899999e+00	 7.643824304631499e+00	 2.043907688624816e+00
 7.424621202500000e+00	 7.424621202500000e+00	 3.668998556253463e+00
 7.389265863440000e+00	 7.459976541550501e+00	 3.461333693243111e+00
 7.353910524380000e+00	 7.495331880602000e+00	 3.259294606135452e+00
 7.318555185319999e+00	 7.530687219654500e+00	 3.062881559965040e+00
 7.283199846260000e+00	 7.566042558707999e+00	 2.872094819767655e+00
 7.247844507200000e+00	 7.601397897762499e+00	 2.686934650580312e+00
 7.212489168139999e+00	 7.636753236818000e+00	 2.507401317441257e+00
 7.177133829080000e+00	 7.672108575874500e+00	 2.333495085389974e+00
 7.141778490020000e+00	 7.707463914931999e+00	 2.165216219467170e+00
 7.106423150960000e+00	 7.742819253990500e+00	 2.002564984714800e+00
 7.071067811900000e+00	 7.778174593050000e+00	 1.845541646176031e+00
 7.424621202500000e+00	 7.424621202500000e+00	 3.668998556253463e+00
 7.389265863440000e+00	 7.459976541550501e+00	 3.461333693243111e+00
 7.353910524380000e+00	 7.495331880602000e+00	 3.259294606135452e+00
 7.318555185319999e+00	 7.530687219654500e+00	 3.062881559965040e+00
 7.283199846260000e+00	 7.566042558707999e+00	 2.872094819767655e+00
 7.247844507200000e+00	 7.601397897762499e+00	 2.686934650580312e+00
 7.212489168139999e+00	 7.636753236818000e+00	 2.507401317441257e+00
 7.177133829080000e+00	 7.672108575874500e+00	 2.333495085389974e+00
 7.141778490020000e+00	 7.707463914931999e+00	 2.165216219467170e+00
 7.106423150960000e+00	 7.742819253990500e+00	 2.002564984714800e+00
 7.071067811900000e+00	 7.778174593050000e+00	 1.845541646176031e+00
 7.498867414525000e+00	 7.498867414525000e+00	 3.360834126260754e+00
 7.456087454262590e+00	 7.541647374776486e+00	 3.173169690659539e+00
 7.413307494000161e+00	 7.584427335029143e+00	 2.991392132151249e+00
 7.370527533737711e+00	 7.627207295282966e+00	 2.815501920261506e+00
 7.327747573475239e+00	 7.669987255537959e+00	 2.645499524518530e+00
 7.284967613212749e+00	 7.712767215794124e+00	 2.481385414453160e+00
 7.242187652950240e+00	 7.755547176051460e+00	 2.323160059598847e+00
 7.199407692687710e+00	 7.798327136309966e+00	 2.170823929491647e+00
 7.156627732425161e+00	 7.841107096569642e+00	 2.024377493670233e+00
 7.113847772162590e+00	 7.883887056830486e+00	 1.883821221675892e+00
 7.071067811900000e+00	 7.926667017092500e+00	 1.749155583052517e+00
 7.580184694360000e+00	 7.580184694360000e+00	 3.104709051647845e+00
 7.529273006114360e+00	 7.631096382594240e+00	 2.933925703083949e+00
 7.478361317868640e+00	 7.682008070829760e+00	 2.768993125100274e+00
 7.427449629622839e+00	 7.732919759066559e+00	 2.609912109088907e+00
 7.376537941376963e+00	 7.783831447304641e+00	 2.456683446447112e+00
 7.325626253130999e+00	 7.834743135544000e+00	 2.309307928577326e+00
 7.274714564884961e+00	 7.885654823784641e+00	 2.167786346887167e+00
 7.223802876638842e+00	 7.936566512026561e+00	 2.032119492789429e+00
 7.172891188392639e+00	 7.987478200269759e+00	 1.902308157702080e+00
 7.121979500146359e+00	 8.038389888514240e+00	 1.778353133048277e+00
 7.071067811900001e+00	 8.089301576760001e+00	 1.660255210256336e+00
 7.668573042005001e+00	 7.668573042005001e+00	 2.888249639063203e+00
 7.608822518995311e+00	 7.728323565003766e+00	 2.731889033446207e+00
 7.549071995985442e+00	 7.788074088003861e+00	 2.581167122303627e+00
 7.489321472975390e+00	 7.847824611005285e+00	 2.436085184914763e+00
 7.429570949965158e+00	 7.907575134008038e+00	 2.296644500568663e+00
 7.369820426954750e+00	 7.967325657012124e+00	 2.162846348564129e+00
 7.310069903944159e+00	 8.027076180017538e+00	 2.034692008209701e+00
 7.250319380933389e+00	 8.086826703024284e+00	 1.912182758823671e+00
 7.190568857922440e+00	 8.146577226032360e+00	 1.795319879734088e+00
 7.130818334911312e+00	 8.206327749041767e+00	 1.684104650278738e+00
 7.071067811900000e+00	 8.266078272052500e+00	 1.578538349805156e+00
 7.764032457460001e+00	 7.764032457460001e+00	 2.702725050287682e+00
 7.694735992905440e+00	 7.833328922005060e+00	 2.558814984890522e+00
 7.625439528350561e+00	 7.902625386551440e+00	 2.420227808184480e+00
 7.556143063795360e+00	 7.971921851099140e+00	 2.286965515773979e+00
 7.486846599239840e+00	 8.041218315648161e+00	 2.159030103281001e+00
 7.417550134684001e+00	 8.110514780198502e+00	 2.036423566345093e+00
 7.348253670127839e+00	 8.179811244750159e+00	 1.919147900623362e+00
 7.278957205571360e+00	 8.249107709303139e+00	 1.807205101790485e+00
 7.209660741014560e+00	 8.318404173857440e+00	 1.700597165538691e+00
 7.140364276457439e+00	 8.387700638413060e+00	 1.599326087577779e+00
 7.071067811900000e+00	 8.456997102970000e+00	 1.503393863635122e+00
 7.866562940725000e+00	 7.866562940725000e+00	 2.541806682250617e+00
 7.787013427844752e+00	 7.946112453598126e+00	 2.408739908740898e+00
 7.707463914963999e+00	 8.025661966472500e+00	 2.280620451327599e+00
 7.627914402082750e+00	 8.105211479348126e+00	 2.157451328952651e+00
 7.548364889201000e+00	 8.184760992225002e+00	 2.039235560588426e+00
 7.468815376318750e+00	 8.264310505103126e+00	 1.925976165237727e+00
 7.389265863436000e+00	 8.343860017982500e+00	 1.817676161933794e+00
 7.309716350552749e+00	 8.423409530863125e+00	 1.714338569740299e+00
 7.230166837669000e+00	 8.502959043745001e+00	 1.615966407751349e+00
 7.150617324784750e+00	 8.582508556628126e+00	 1.522562695091493e+00
 7.071067811900000e+00	 8.662058069512501e+00	 1.434130450915706e+00
 7.976164491800001e+00	 7.976164491800001e+00	 2.400802950520767e+00
 7.885654823813242e+00	 8.066674159782961e+00	 2.277251090862122e+00
 7.795145155825760e+00	 8.157183827767041e+00	 2.158238290280689e+00
 7.704635487837561e+00	 8.247693495752241e+00	 2.043768995376548e+00
 7.614125819848638e+00	 8.338203163738559e+00	 1.933847652800726e+00
 7.523616151859001e+00	 8.428712831726003e+00	 1.828478709255190e+00
 7.433106483868641e+00	 8.519222499714560e+00	 1.727666611492858e+00
 7.342596815877560e+00	 8.609732167704241e+00	 1.631415806317587e+00
 7.252087147885760e+00	 8.700241835695040e+00	 1.539730740584195e+00
 7.161577479893239e+00	 8.790751503686961e+00	 1.452615861198440e+00
 7.071067811900001e+00	 8.881261171680002e+00	 1.370075615117021e+00
 8.092837110685000e+00	 8.092837110685000e+00	 2.276169864520076e+00
 7.990660180810910e+00	 8.195014040559565e+00	 2.161020895306665e+00
 7.888483250935841e+00	 8.297190970435061e+00	 2.049986758272179e+00
 7.786306321059791e+00	 8.399367900311486e+00	 1.943073850804742e+00
 7.684129391182760e+00	 8.501544830188841e+00	 1.840288570375172e+00
 7.581952461304750e+00	 8.603721760067126e+00	 1.741637314536981e+00
 7.479775531425760e+00	 8.705898689946341e+00	 1.647126480926380e+00
 7.377598601545791e+00	 8.808075619826488e+00	 1.556762467262283e+00
 7.275421671664840e+00	 8.910252549707559e+00	 1.470551671346297e+00
 7.173244741782910e+00	 9.012429479589565e+00	 1.388500491062743e+00
 7.071067811900000e+00	 9.114606409472501e+00	 1.310615324378634e+00
 8.216580797380001e+00	 8.216580797380001e+00	 2.165188123764206e+00
 8.102029498837762e+00	 8.331132095927941e+00	 2.057500057509447e+00
 7.987478200294242e+00	 8.445683394476562e+00	 1.953496816691482e+00
 7.872926901749442e+00	 8.560234693025862e+00	 1.853187415884901e+00
 7.758375603203361e+00	 8.674785991575844e+00	 1.756580869794886e+00
 7.643824304656001e+00	 8.789337290126502e+00	 1.663686193257227e+00
 7.529273006107360e+00	 8.903888588677841e+00	 1.574512401238308e+00
 7.414721707557439e+00	 9.018439887229860e+00	 1.489068508835134e+00
 7.300170409006240e+00	 9.132991185782561e+00	 1.407363531275307e+00
 7.185619110453759e+00	 9.247542484335941e+00	 1.329406483917049e+00
 7.071067811900001e+00	 9.362093782890001e+00	 1.255206382249194e+00
 8.347395551885000e+00	 8.347395551885000e+00	 2.065744283259330e+00
 8.219762777893790e+00	 8.475028325888085e+00	 1.964710213459947e+00
 8.092130003900962e+00	 8.602661099891542e+00	 1.866931178364631e+00
 7.964497229906510e+00	 8.730293873895366e+00	 1.772419647009749e+00
 7.836864455910440e+00	 8.857926647899562e+00	 1.681188088632916e+00
 7.709231681912749e+00	 8.985559421904124e+00	 1.593248972672995e+00
 7.581598907913440e+00	 9.113192195909061e+00	 1.508614768770104e+00
 7.453966133912511e+00	 9.240824969914366e+00	 1.427297946765622e+00
 7.326333359909960e+00	 9.368457743920041e+00	 1.349310976702186e+00
 7.198700585905790e+00	 9.496090517926087e+00	 1.274666328823708e+00
 7.071067811900000e+00	 9.623723291932501e+00	 1.203376473575366e+00
 8.485281374200000e+00	 8.485281374200000e+00	 1.976178940216708e+00
 8.343860017978999e+00	 8.626702730440000e+00	 1.881100206960388e+00
 8.202438661756000e+00	 8.768124086679999e+00	 1.788850180706965e+00
 8.061017305530999e+00	 8.909545442920001e+00	 1.699445824055244e+00
 7.919595949304000e+00	 9.050966799160001e+00	 1.612904099907355e+00
 7.778174593075001e+00	 9.192388155400000e+00	 1.529241971468762e+00
 7.636753236844000e+00	 9.333809511640000e+00	 1.448476402248265e+00
 7.495331880611000e+00	 9.475230867880001e+00	 1.370624356058009e+00
 7.353910524375999e+00	 9.616652224119999e+00	 1.295702797013496e+00
 7.212489168138999e+00	 9.758073580360000e+00	 1.223728689533581e+00
 7.071067811900000e+00	 9.899494936600000e+00	 1.154718998340500e+00
 7.071067811900000e+00	 7.071067811900000e+00	 1.203078214684597e+00
 7.071067811900001e+00	 7.071067811900001e+00	 1.203078214684597e+00
 7.071067811900001e+00	 7.071067811900001e+00	 1.203078214684597e+00
 7.071067811900000e+00	 7.071067811900000e+00	 1.203078214684596e+00
 7.071067811899999e+00	 7.071067811899999e+00	 1.203078214684598e+00
 7.071067811900000e+00	 7.071067811900000e+00	 1.203078214684597e+00
 7.071067811900000e+00	 7.071067811900000e+00	 1.203078214684597e+00
 7.071067811900000e+00	 7.071067811900000e+00	 1.203078214684599e+00
 7.071067811900000e+00	 7.071067811900000e+00	 1.203078214684598e+00
 7.071067811900000e+00	 7.071067811900000e+00	 1.203078214684600e+00
 7.071067811900000e+00	 7.071067811900000e+00	 1.203078214684597e+00
 7.071067811900000e+00	 7.078138879711500e+00	 1.624493602819920e+01
 7.070714258509400e+00	 7.077785326320905e+00	 1.597861544402883e+01
 7.070360705118798e+00	 7.077431772930319e+00	 1.535830747663496e+01
 7.070007151728200e+00	 7.077078219539746e+00	 1.438401212601313e+01
 7.069653598337600e+00	 7.076724666149180e+00	 1.305572939215904e+01
 7.069300044947000e+00	 7.076371112758626e+00	 1.137345927506140e+01
 7.068946491556400e+00	 7.076017559368081e+00	 9.337201774711282e+00
 7.068592938165800e+00	 7.075664005977545e+00	 6.946956891095029e+00
 7.068239384775199e+00	 7.075310452587019e+00	 4.202724624167745e+00
 7.067885831384601e+00	 7.074956899196505e+00	 1.104504973974446e+00
 7.067532277994000e+00	 7.074603345806000e+00	-2.347702059588541e+00
 7.071067811900000e+00	 7.099352083146000e+00	 8.130001085953893e+00
 7.069653598337601e+00	 7.097937869583620e+00	 8.008098259507895e+00
 7.068239384775199e+00	 7.096523656021280e+00	 7.706371259330011e+00
 7.066825171212799e+00	 7.095109442458979e+00	 7.224820085401257e+00
 7.065410957650400e+00	 7.093695228896720e+00	 6.563444737702252e+00
 7.063996744087999e+00	 7.092281015334499e+00	 5.722245216210786e+00
 7.062582530525598e+00	 7.090866801772319e+00	 4.701221520904907e+00
 7.061168316963199e+00	 7.089452588210178e+00	 3.500373651758969e+00
 7.059754103400801e+00	 7.088038374648081e+00	 2.119701608748840e+00
 7.058339889838400e+00	 7.086624161086021e+00	 5.592053918428777e-01
 7.056925676275999e+00	 7.085209947524000e+00	-1.181114998984585e+00
 7.071067811899999e+00	 7.134707422203499e+00	 5.467450452238038e+00
 7.067885831384601e+00	 7.131525441688146e+00	 5.386254616934301e+00
 7.064703850869200e+00	 7.128343461172881e+00	 5.184805178334334e+00
 7.061521870353800e+00	 7.125161480657704e+00	 4.863102136241213e+00
 7.058339889838400e+00	 7.121979500142620e+00	 4.421145490457510e+00
 7.055157909322999e+00	 7.118797519627625e+00	 3.858935240784864e+00
 7.051975928807600e+00	 7.115615539112721e+00	 3.176471387023374e+00
 7.048793948292200e+00	 7.112433558597905e+00	 2.373753928972421e+00
 7.045611967776800e+00	 7.109251578083180e+00	 1.450782866430116e+00
 7.042429987261400e+00	 7.106069597568545e+00	 4.075581991944260e-01
 7.039248006745999e+00	 7.102887617053999e+00	-7.559200729390300e-01
 7.071067811900000e+00	 7.184204896884000e+00	 4.143039900158414e+00
 7.065410957650401e+00	 7.178548042634481e+00	 4.080883737638471e+00
 7.059754103400800e+00	 7.172891188385119e+00	 3.928543837020361e+00
 7.054097249151201e+00	 7.167234334135919e+00	 3.686020197203580e+00
 7.048440394901600e+00	 7.161577479886880e+00	 3.353312817086824e+00
 7.042783540652000e+00	 7.155920625638000e+00	 2.930421695568239e+00
 7.037126686402400e+00	 7.150263771389280e+00	 2.417346831544971e+00
 7.031469832152800e+00	 7.144606917140720e+00	 1.814088223913443e+00
 7.025812977903200e+00	 7.138950062892320e+00	 1.120645871569623e+00
 7.020156123653600e+00	 7.133293208644081e+00	 3.370197734082746e-01
 7.014499269404000e+00	 7.127636354396000e+00	-5.367900716763110e-01
 7.071067811900000e+00	 7.247844507187500e+00	 3.349620401277709e+00
 7.062228977135002e+00	 7.239005672422627e+00	 3.298536803328863e+00
 7.053390142370000e+00	 7.230166837658000e+00	 3.175402954549523e+00
 7.044551307605000e+00	 7.221328002893626e+00	 2.980218850743653e+00
 7.035712472839999e+00	 7.212489168129499e+00	 2.712984487714615e+00
 7.026873638075000e+00	 7.203650333365625e+00	 2.373699861265044e+00
 7.018034803310000e+00	 7.194811498602000e+00	 1.962364967197116e+00
 7.009195968545000e+00	 7.185972663838625e+00	 1.478979801312329e+00
 7.000357133779999e+00	 7.177133829075499e+00	 9.235443594116892e-01
 6.991518299015000e+00	 7.168294994312626e+00	 2.960586372952790e-01
 6.982679464249999e+00	 7.159456159549999e+00	-4.034773692368406e-01
 7.071067811899999e+00	 7.325626253114000e+00	 2.820327760115126e+00
 7.058339889838399e+00	 7.312898331052581e+00	 2.776538618151367e+00
 7.045611967776800e+00	 7.300170408991519e+00	 2.672827105942328e+00
 7.032884045715201e+00	 7.287442486930821e+00	 2.509193210959650e+00
 7.020156123653599e+00	 7.274714564870479e+00	 2.285636920674512e+00
 7.007428201592000e+00	 7.261986642810499e+00	 2.002158222557544e+00
 6.994700279530399e+00	 7.249258720750880e+00	 1.658757104079030e+00
 6.981972357468800e+00	 7.236530798691621e+00	 1.255433552708583e+00
 6.969244435407201e+00	 7.223802876632721e+00	 7.921875559154500e-01
 6.956516513345600e+00	 7.211074954574181e+00	 2.690191011683428e-01
 6.943788591283999e+00	 7.198347032516000e+00	-3.140718240644729e-01
 7.071067811900000e+00	 7.417550134663500e+00	 2.441331503291831e+00
 7.053743695760598e+00	 7.400226018524345e+00	 2.402760017885532e+00
 7.036419579621199e+00	 7.382901902385679e+00	 2.312948974914772e+00
 7.019095463481801e+00	 7.365577786247505e+00	 2.171898342788260e+00
 7.001771347342401e+00	 7.348253670109820e+00	 1.979608089914384e+00
 6.984447231202999e+00	 7.330929553972624e+00	 1.736078184701110e+00
 6.967123115063599e+00	 7.313605437835918e+00	 1.441308595556095e+00
 6.949798998924201e+00	 7.296281321699705e+00	 1.095299290886568e+00
 6.932474882784798e+00	 7.278957205563978e+00	 6.980502390994529e-01
 6.915150766645400e+00	 7.261633089428745e+00	 2.495614086013040e-01
 6.897826650506000e+00	 7.244308973294000e+00	-2.501672322017879e-01
 7.071067811900001e+00	 7.523616151836001e+00	 2.155897923558323e+00
 7.048440394901601e+00	 7.500988734837919e+00	 2.121285743153274e+00
 7.025812977903199e+00	 7.478361317840477e+00	 2.041958347992550e+00
 7.003185560904801e+00	 7.455733900843681e+00	 1.917915667684984e+00
 6.980558143906400e+00	 7.433106483847521e+00	 1.749157631839200e+00
 6.957930726907999e+00	 7.410479066852000e+00	 1.535684170063647e+00
 6.935303309909599e+00	 7.387851649857118e+00	 1.277495211966585e+00
 6.912675892911198e+00	 7.365224232862879e+00	 9.745906871561504e-01
 6.890048475912798e+00	 7.342596815869278e+00	 6.269705252402346e-01
 6.867421058914401e+00	 7.319969398876321e+00	 2.346346558265662e-01
 6.844793641916000e+00	 7.297341981884001e+00	-2.024169914772583e-01
 7.071067811899999e+00	 7.643824304631499e+00	 1.932584096324418e+00
 7.042429987261399e+00	 7.615186479993304e+00	 1.901113563830405e+00
 7.013792162622801e+00	 7.586548655355920e+00	 1.830011131863552e+00
 6.985154337984201e+00	 7.557910830719346e+00	 1.719276657720158e+00
 6.956516513345600e+00	 7.529273006083579e+00	 1.568909998696764e+00
 6.927878688707001e+00	 7.500635181448625e+00	 1.378911012090040e+00
 6.899240864068400e+00	 7.471997356814480e+00	 1.149279555196865e+00
 6.870603039429797e+00	 7.443359532181143e+00	 8.800154853142694e-01
 6.841965214791200e+00	 7.414721707548620e+00	 5.711186597394815e-01
 6.813327390152599e+00	 7.386083882916903e+00	 2.225889357699091e-01
 6.784689565513999e+00	 7.357446058286000e+00	-1.655738292968834e-01
 7.071067811900000e+00	 7.778174593050000e+00	 1.752562196799364e+00
 7.035712472840001e+00	 7.742819253990501e+00	 1.723672585777110e+00
 7.000357133780001e+00	 7.707463914932000e+00	 1.659225193452138e+00
 6.965001794719999e+00	 7.672108575874500e+00	 1.559219751300663e+00
 6.929646455659999e+00	 7.636753236817999e+00	 1.423655990799787e+00
 6.894291116599999e+00	 7.601397897762500e+00	 1.252533643427511e+00
 6.858935777540000e+00	 7.566042558708000e+00	 1.045852440662734e+00
 6.823580438480001e+00	 7.530687219654500e+00	 8.036121139852385e-01
 6.788225099420000e+00	 7.495331880602000e+00	 5.258123948757212e-01
 6.752869760359999e+00	 7.459976541550500e+00	 2.124530148157379e-01
 6.717514421300000e+00	 7.424621202500000e+00	-1.364662947122184e-01
 7.071067811900000e+00	 7.778174593050000e+00	 1.752562196799364e+00
 7.035712472840001e+00	 7.742819253990501e+00	 1.723672585777110e+00
 7.000357133780001e+00	 7.707463914932000e+00	 1.659225193452138e+00
 6.965001794719999e+00	 7.672108575874500e+00	 1.559219751300663e+00
 6.929646455659999e+00	 7.636753236817999e+00	 1.423655990799787e+00
 6.894291116599999e+00	 7.601397897762500e+00	 1.252533643427511e+00
 6.858935777540000e+00	 7.566042558708000e+00	 1.045852440662734e+00
 6.823580438480001e+00	 7.530687219654500e+00	 8.036121139852385e-01
 6.788225099420000e+00	 7.495331880602000e+00	 5.258123948757212e-01
 6.752869760359999e+00	 7.459976541550500e+00	 2.124530148157379e-01
 6.717514421300000e+00	 7.424621202500000e+00	-1.364662947122184e-01
 7.071067811900000e+00	 7.926667017092500e+00	 1.644112857707170e+00
 7.028287851637397e+00	 7.883887056830485e+00	 1.615517122495691e+00
 6.985507891374802e+00	 7.841107096569642e+00	 1.554650826288893e+00
 6.942727931112200e+00	 7.798327136309967e+00	 1.461513493376652e+00
 6.899947970849600e+00	 7.755547176051459e+00	 1.336104648051031e+00
 6.857168010586999e+00	 7.712767215794125e+00	 1.178423814606322e+00
 6.814388050324401e+00	 7.669987255537960e+00	 9.884705173390096e-01
 6.771608090061799e+00	 7.627207295282965e+00	 7.662442805477833e-01
 6.728828129799201e+00	 7.584427335029142e+00	 5.117446285335465e-01
 6.686048169536599e+00	 7.541647374776484e+00	 2.249710855994072e-01
 6.643268209274000e+00	 7.498867414525000e+00	-9.407682394932373e-02
 7.071067811900001e+00	 8.089301576760001e+00	 1.552897252094020e+00
 7.020156123653600e+00	 8.038389888514240e+00	 1.525278108119904e+00
 6.969244435407200e+00	 7.987478200269760e+00	 1.468153455611429e+00
 6.918332747160799e+00	 7.936566512026559e+00	 1.381522492747596e+00
 6.867421058914402e+00	 7.885654823784642e+00	 1.265384417712178e+00
 6.816509370668000e+00	 7.834743135544000e+00	 1.119738428693726e+00
 6.765597682421601e+00	 7.783831447304641e+00	 9.445837238855672e-01
 6.714685994175200e+00	 7.732919759066561e+00	 7.399195014858112e-01
 6.663774305928801e+00	 7.682008070829760e+00	 5.057449596973401e-01
 6.612862617682399e+00	 7.631096382594240e+00	 2.420592967278060e-01
 6.561950929436001e+00	 7.580184694360000e+00	-5.113828921033820e-02
 7.071067811900000e+00	 8.266078272052500e+00	 1.474715429311513e+00
 7.011317288888601e+00	 8.206327749041765e+00	 1.448454183490843e+00
 6.951566765877202e+00	 8.146577226032361e+00	 1.395048397749307e+00
 6.891816242865800e+00	 8.086826703024286e+00	 1.314496775940486e+00
 6.832065719854399e+00	 8.027076180017538e+00	 1.206798021927381e+00
 6.772315196842999e+00	 7.967325657012124e+00	 1.071950839582378e+00
 6.712564673831598e+00	 7.907575134008038e+00	 9.099539327872844e-01
 6.652814150820199e+00	 7.847824611005284e+00	 7.208060054333019e-01
 6.593063627808800e+00	 7.788074088003859e+00	 5.045057614210419e-01
 6.533313104797401e+00	 7.728323565003765e+00	 2.610519046605327e-01
 6.473562581786000e+00	 7.668573042005001e+00	-9.556860928828119e-03
 7.071067811900000e+00	 8.456997102970000e+00	 1.406609411946638e+00
 7.001771347342399e+00	 8.387700638413058e+00	 1.381907147926851e+00
 6.932474882784800e+00	 8.318404173857441e+00	 1.332103085980554e+00
 6.863178418227200e+00	 8.249107709303141e+00	 1.257195204175843e+00
 6.793881953669599e+00	 8.179811244750161e+00	 1.157181480598143e+00
 6.724585489112000e+00	 8.110514780198503e+00	 1.032059893350186e+00
 6.655289024554400e+00	 8.041218315648161e+00	 8.818284205520409e-01
 6.585992559996800e+00	 7.971921851099141e+00	 7.064850403410964e-01
 6.516696095439199e+00	 7.902625386551440e+00	 5.060277308720468e-01
 6.447399630881600e+00	 7.833328922005060e+00	 2.804544703169397e-01
 6.378103166323999e+00	 7.764032457460001e+00	 2.976323686510553e-02
 7.071067811900000e+00	 8.662058069512501e+00	 1.346438971458256e+00
 6.991518299015000e+00	 8.582508556628127e+00	 1.323385578210115e+00
 6.911968786129999e+00	 8.502959043744999e+00	 1.277018984690732e+00
 6.832419273244999e+00	 8.423409530863125e+00	 1.207336132103593e+00
 6.752869760360000e+00	 8.343860017982500e+00	 1.114333961682538e+00
 6.673320247475000e+00	 8.264310505103126e+00	 9.980094146917370e-01
 6.593770734590000e+00	 8.184760992225000e+00	 8.583594324257294e-01
 6.514221221704998e+00	 8.105211479348124e+00	 6.953809562093914e-01
 6.434671708820000e+00	 8.025661966472500e+00	 5.090709273979441e-01
 6.355122195934999e+00	 7.946112453598126e+00	 2.994262873769668e-01
 6.275572683050000e+00	 7.866562940725000e+00	 6.644397756237361e-02
 7.071067811900001e+00	 8.881261171680002e+00	 1.292620284631180e+00
 6.980558143906401e+00	 8.790751503686961e+00	 1.271234969007266e+00
 6.890048475912800e+00	 8.700241835695042e+00	 1.228119875029474e+00
 6.799538807919199e+00	 8.609732167704241e+00	 1.163270497353361e+00
 6.709029139925598e+00	 8.519222499714560e+00	 1.076682330685558e+00
 6.618519471932000e+00	 8.428712831726001e+00	 9.683508697837838e-01
 6.528009803938401e+00	 8.338203163738561e+00	 8.382716094568463e-01
 6.437500135944800e+00	 8.247693495752239e+00	 6.864400445646383e-01
 6.346990467951199e+00	 8.157183827767042e+00	 5.128516700181305e-01
 6.256480799957598e+00	 8.066674159782959e+00	 3.175019807793822e-01
 6.165971131964000e+00	 7.976164491800001e+00	 1.003864718615303e-01
 7.071067811900000e+00	 9.114606409472501e+00	 1.243958930917424e+00
 6.968890882016598e+00	 9.012429479589565e+00	 1.224214539911838e+00
 6.866713952133200e+00	 8.910252549707561e+00	 1.184156856129200e+00
 6.764537022249799e+00	 8.808075619826488e+00	 1.123779397599060e+00
 6.662360092366399e+00	 8.705898689946341e+00	 1.043075682434127e+00
 6.560183162483000e+00	 8.603721760067126e+00	 9.420392288302772e-01
 6.458006232599599e+00	 8.501544830188839e+00	 8.206635550665600e-01
 6.355829302716199e+00	 8.399367900311486e+00	 6.789421795051676e-01
 6.253652372832799e+00	 8.297190970435061e+00	 5.168686205914713e-01
 6.151475442949399e+00	 8.195014040559565e+00	 3.344363968539783e-01
 6.049298513065999e+00	 8.092837110685000e+00	 1.316390269043810e-01
 7.071067811900001e+00	 9.362093782890001e+00	 1.199539770534163e+00
 6.956516513345600e+00	 9.247542484335943e+00	 1.181377626448828e+00
 6.841965214791201e+00	 9.132991185782563e+00	 1.144182217617473e+00
 6.727413916236799e+00	 9.018439887229862e+00	 1.087944410181119e+00
 6.612862617682400e+00	 8.903888588677843e+00	 1.012655070412351e+00
 6.498311319128001e+00	 8.789337290126502e+00	 9.183050647152778e-01
 6.383760020573599e+00	 8.674785991575842e+00	 8.048852596255511e-01
 6.269208722019199e+00	 8.560234693025860e+00	 6.723865218103651e-01
 6.154657423464799e+00	 8.445683394476561e+00	 5.207997180684366e-01
 6.040106124910399e+00	 8.331132095927941e+00	 3.501157153300105e-01
 5.925554826355999e+00	 8.216580797380001e+00	 1.603253806568672e-01
 7.071067811900000e+00	 9.623723291932501e+00	 1.158652323823244e+00
 6.943435037893400e+00	 9.496090517926085e+00	 1.141991351236785e+00
 6.815802263886799e+00	 9.368457743920041e+00	 1.107465463681001e+00
 6.688169489880199e+00	 9.240824969914366e+00	 1.055062026978701e+00
 6.560536715873600e+00	 9.113192195909061e+00	 9.847684071555500e-01
 6.432903941866998e+00	 8.985559421904126e+00	 8.965719704400774e-01
 6.305271167860399e+00	 8.857926647899561e+00	 7.904600832636721e-01
 6.177638393853799e+00	 8.730293873895365e+00	 6.664201122605755e-01
 6.050005619847200e+00	 8.602661099891540e+00	 5.244394242678775e-01
 5.922372845840599e+00	 8.475028325888086e+00	 3.645053863255069e-01
 5.794740071833999e+00	 8.347395551885000e+00	 1.866053656762365e-01
 7.071067811900000e+00	 9.899494936600000e+00	 1.120738985078432e+00
 6.929646455660000e+00	 9.758073580360000e+00	 1.105481326791456e+00
 6.788225099420000e+00	 9.616652224120001e+00	 1.073435968662175e+00
 6.646803743180000e+00	 9.475230867880001e+00	 1.024585723228555e+00
 6.505382386939999e+00	 9.333809511640000e+00	 9.589134033344712e-01
 6.363961030700000e+00	 9.192388155400000e+00	 8.764018221296948e-01
 6.222539674460000e+00	 9.050966799159999e+00	 7.770337930698861e-01
 6.081118318220000e+00	 8.909545442919999e+00	 6.607921299165939e-01
 5.939696961979999e+00	 8.768124086680000e+00	 5.276596467372419e-01
 5.798275605740000e+00	 8.626702730439998e+00	 3.776191579051133e-01
 5.656854249500000e+00	 8.485281374200000e+00	 2.106534780993643e-01
 7.071067811900000e+00	 7.071067811900000e+00	 1.203078214684597e+00
 7.071067811900001e+00	 7.071067811900001e+00	 1.203078214684598e+00
 7.071067811900001e+00	 7.071067811900001e+00	 1.203078214684597e+00
 7.071067811900000e+00	 7.071067811900000e+00	 1.203078214684596e+00
 7.071067811899999e+00	 7.071067811899999e+00	 1.203078214684598e+00
 7.071067811900000e+00	 7.071067811900000e+00	 1.203078214684597e+00
 7.071067811900000e+00	 7.071067811900000e+00	 1.203078214684597e+00
 7.071067811900000e+00	 7.071067811900000e+00	 1.203078214684600e+00
 7.071067811900000e+00	 7.071067811900000e+00	 1.203078214684598e+00
 7.071067811900000e+00	 7.071067811900000e+00	 1.203078214684600e+00
 7.071067811900000e+00	 7.071067811900000e+00	 1.203078214684597e+00
 7.067532277994000e+00	 7.074603345806000e+00	 2.863730184629665e-02
 7.067178724603401e+00	 7.074249792415401e+00	-1.347860001818628e+00
 7.066825171212799e+00	 7.073896239024798e+00	-2.509602283000602e+00
 7.066471617822200e+00	 7.073542685634201e+00	-3.456589541661584e+00
 7.066118064431598e+00	 7.073189132243600e+00	-4.188821777821654e+00
 7.065764511041000e+00	 7.072835578853000e+00	-4.706298991479217e+00
 7.065410957650400e+00	 7.072482025462401e+00	-5.009021182631711e+00
 7.065057404259800e+00	 7.072128472071801e+00	-5.096988351264724e+00
 7.064703850869200e+00	 7.071774918681198e+00	-4.970200497462923e+00
 7.064350297478600e+00	 7.071421365290600e+00	-4.628657621057648e+00
 7.063996744088000e+00	 7.071067811900000e+00	-4.072359722229750e+00
 7.056925676275999e+00	 7.085209947524000e+00	-1.311578472775392e-01
 7.055511462713601e+00	 7.083795733961600e+00	-8.449794722168724e-01
 7.054097249151200e+00	 7.082381520399200e+00	-1.443002631521904e+00
 7.052683035588799e+00	 7.080967306836799e+00	-1.925227325208173e+00
 7.051268822026400e+00	 7.079553093274400e+00	-2.291653553291274e+00
 7.049854608463999e+00	 7.078138879711998e+00	-2.542281315790770e+00
 7.048440394901599e+00	 7.076724666149599e+00	-2.677110612721751e+00
 7.047026181339199e+00	 7.075310452587200e+00	-2.696141444102801e+00
 7.045611967776801e+00	 7.073896239024801e+00	-2.599373809947981e+00
 7.044197754214400e+00	 7.072482025462401e+00	-2.386807710282345e+00
 7.042783540652000e+00	 7.071067811900000e+00	-2.058443145115669e+00
 7.039248006745999e+00	 7.102887617053999e+00	-5.087214162535114e-02
 7.036066026230601e+00	 7.099705636538601e+00	-5.323854318532317e-01
 7.032884045715201e+00	 7.096523656023201e+00	-9.351070838049316e-01
 7.029702065199800e+00	 7.093341675507799e+00	-1.259037097679219e+00
 7.026520084684400e+00	 7.090159694992400e+00	-1.504175473669984e+00
 7.023338104169000e+00	 7.086977714477000e+00	-1.670522211972786e+00
 7.020156123653600e+00	 7.083795733961600e+00	-1.758077312784373e+00
 7.016974143138199e+00	 7.080613753446200e+00	-1.766840776300116e+00
 7.013792162622800e+00	 7.077431772930801e+00	-1.696812602716173e+00
 7.010610182107400e+00	 7.074249792415400e+00	-1.547992792226907e+00
 7.007428201591999e+00	 7.071067811899999e+00	-1.320381345029525e+00
 7.014499269404000e+00	 7.127636354396000e+00	 1.403165872489048e-02
 7.008842415154400e+00	 7.121979500146401e+00	-3.491042041149484e-01
 7.003185560904799e+00	 7.116322645896799e+00	-6.527055468944285e-01
 6.997528706655200e+00	 7.110665791647200e+00	-8.967723707127263e-01
 6.991871852405600e+00	 7.105008937397599e+00	-1.081304676670006e+00
 6.986214998156000e+00	 7.099352083148000e+00	-1.206302465865922e+00
 6.980558143906401e+00	 7.093695228898400e+00	-1.271765739400535e+00
 6.974901289656801e+00	 7.088038374648800e+00	-1.277694498373600e+00
 6.969244435407201e+00	 7.082381520399200e+00	-1.224088743884791e+00
 6.963587581157601e+00	 7.076724666149601e+00	-1.110948477034064e+00
 6.957930726908000e+00	 7.071067811900000e+00	-9.382736989212198e-01
 6.982679464249999e+00	 7.159456159549999e+00	 6.064173158783723e-02
 6.973840629485002e+00	 7.150617324785002e+00	-2.306821250289617e-01
 6.965001794720001e+00	 7.141778490019999e+00	-4.742664383339555e-01
 6.956162959955000e+00	 7.132939655255000e+00	-6.701112125225817e-01
 6.947324125190000e+00	 7.124100820490000e+00	-8.182164517902937e-01
 6.938485290425000e+00	 7.115261985725001e+00	-9.185821603328070e-01
 6.929646455659999e+00	 7.106423150960000e+00	-9.712083423454636e-01
 6.920807620894999e+00	 7.097584316194999e+00	-9.760950020238761e-01
 6.911968786130000e+00	 7.088745481430000e+00	-9.332421435632459e-01
 6.903129951365001e+00	 7.079906646665001e+00	-8.426497711595727e-01
 6.894291116600000e+00	 7.071067811900000e+00	-7.043178890076046e-01
 6.943788591283999e+00	 7.198347032516000e+00	 9.467597828039670e-02
 6.931060669222400e+00	 7.185619110454399e+00	-1.483796766421401e-01
 6.918332747160799e+00	 7.172891188392800e+00	-3.516587165455268e-01
 6.905604825099201e+00	 7.160163266331200e+00	-5.151611539578036e-01
 6.892876903037599e+00	 7.147435344269599e+00	-6.388870014065391e-01
 6.880148980976000e+00	 7.134707422208000e+00	-7.228362714194054e-01
 6.867421058914399e+00	 7.121979500146399e+00	-7.670089765240180e-01
 6.854693136852801e+00	 7.109251578084801e+00	-7.714051292482162e-01
 6.841965214791201e+00	 7.096523656023201e+00	-7.360247421194314e-01
 6.829237292729600e+00	 7.083795733961601e+00	-6.608678276653764e-01
 6.816509370667999e+00	 7.071067811899999e+00	-5.459343984135734e-01
 6.897826650506000e+00	 7.244308973294000e+00	 1.202200693863135e-01
 6.880502534366599e+00	 7.226984857154600e+00	-8.810600201112986e-02
 6.863178418227200e+00	 7.209660741015200e+00	-2.623911603934604e-01
 6.845854302087799e+00	 7.192336624875800e+00	-4.026354373508972e-01
 6.828530185948400e+00	 7.175012508736400e+00	-5.088388644736521e-01
 6.811206069809000e+00	 7.157688392597000e+00	-5.810014733518085e-01
 6.793881953669599e+00	 7.140364276457599e+00	-6.191232955753623e-01
 6.776557837530200e+00	 7.123040160318200e+00	-6.232043627342507e-01
 6.759233721390798e+00	 7.105716044178798e+00	-5.932447064183500e-01
 6.741909605251400e+00	 7.088391928039401e+00	-5.292443582174201e-01
 6.724585489112000e+00	 7.071067811900000e+00	-4.312033497213384e-01
 6.844793641916000e+00	 7.297341981884001e+00	 1.398509491605155e-01
 6.822166224917600e+00	 7.274714564885600e+00	-4.223595165037747e-02
 6.799538807919199e+00	 7.252087147887199e+00	-1.946088089726077e-01
 6.776911390920801e+00	 7.229459730888800e+00	-3.172676931950158e-01
 6.754283973922401e+00	 7.206832313890400e+00	-4.102126747062425e-01
 6.731656556923999e+00	 7.184204896891999e+00	-4.734438238948078e-01
 6.709029139925598e+00	 7.161577479893598e+00	-5.069612111489388e-01
 6.686401722927198e+00	 7.138950062895198e+00	-5.107649068566698e-01
 6.663774305928799e+00	 7.116322645896799e+00	-4.848549814058939e-01
 6.641146888930400e+00	 7.093695228898400e+00	-4.292315051843030e-01
 6.618519471932001e+00	 7.071067811900001e+00	-3.438945485792823e-01
 6.784689565513999e+00	 7.357446058286000e+00	 1.552092837083099e-01
 6.756051740875400e+00	 7.328808233647398e+00	-6.306185467041182e-03
 6.727413916236801e+00	 7.300170409008800e+00	-1.414865231283138e-01
 6.698776091598202e+00	 7.271532584370201e+00	-2.503318719737099e-01
 6.670138266959600e+00	 7.242894759731599e+00	-3.328423747009638e-01
 6.641500442321001e+00	 7.214256935093000e+00	-3.890181740072832e-01
 6.612862617682399e+00	 7.185619110454399e+00	-4.188594125893570e-01
 6.584224793043798e+00	 7.156981285815798e+00	-4.223662331433581e-01
 6.555586968405199e+00	 7.128343461177200e+00	-3.995387783649791e-01
 6.526949143766600e+00	 7.099705636538600e+00	-3.503771909493382e-01
 6.498311319128000e+00	 7.071067811899999e+00	-2.748816135910493e-01
 6.717514421300000e+00	 7.424621202500000e+00	 1.673720016440436e-01
 6.682159082240001e+00	 7.389265863440000e+00	 2.246209935021955e-02
 6.646803743180000e+00	 7.353910524380000e+00	-9.882285843212343e-02
 6.611448404120000e+00	 7.318555185319999e+00	-1.964831402145898e-01
 6.576093065059998e+00	 7.283199846260000e+00	-2.705190145075587e-01
 6.540737726000000e+00	 7.247844507200000e+00	-3.209307498201921e-01
 6.505382386940000e+00	 7.212489168139999e+00	-3.477186146604875e-01
 6.470027047880000e+00	 7.177133829080000e+00	-3.508828775352412e-01
 6.434671708820000e+00	 7.141778490020000e+00	-3.304238069500187e-01
 6.399316369760000e+00	 7.106423150960000e+00	-2.863416714092478e-01
 6.363961030700001e+00	 7.071067811900000e+00	-2.186367394161131e-01
 6.717514421300000e+00	 7.424621202500000e+00	 1.673720016440436e-01
 6.682159082240001e+00	 7.389265863440000e+00	 2.246209935021955e-02
 6.646803743180000e+00	 7.353910524380000e+00	-9.882285843212343e-02
 6.611448404120000e+00	 7.318555185319999e+00	-1.964831402145898e-01
 6.576093065059998e+00	 7.283199846260000e+00	-2.705190145075587e-01
 6.540737726000000e+00	 7.247844507200000e+00	-3.209307498201921e-01
 6.505382386940000e+00	 7.212489168139999e+00	-3.477186146604875e-01
 6.470027047880000e+00	 7.177133829080000e+00	-3.508828775352412e-01
 6.434671708820000e+00	 7.141778490020000e+00	-3.304238069500187e-01
 6.399316369760000e+00	 7.106423150960000e+00	-2.863416714092478e-01
 6.363961030700001e+00	 7.071067811900000e+00	-2.186367394161131e-01
 6.643268209274000e+00	 7.498867414525000e+00	 1.904597525608514e-01
 6.600488249011398e+00	 7.456087454262590e+00	 5.918849101188356e-02
 6.557708288748801e+00	 7.413307494000161e+00	-5.045293433483253e-02
 6.514928328486200e+00	 7.370527533737711e+00	-1.384649991634449e-01
 6.472148368223601e+00	 7.327747573475239e+00	-2.048481791555299e-01
 6.429368407961000e+00	 7.284967613212749e+00	-2.496029499900170e-01
 6.386588447698400e+00	 7.242187652950240e+00	-2.727297873432930e-01
 6.343808487435800e+00	 7.199407692687710e+00	-2.742291668891491e-01
 6.301028527173202e+00	 7.156627732425161e+00	-2.541015642987863e-01
 6.258248566910598e+00	 7.113847772162590e+00	-2.123474552408048e-01
 6.215468606648000e+00	 7.071067811900000e+00	-1.489673153812104e-01
 6.561950929436001e+00	 7.580184694360000e+00	 2.088707776697900e-01
 6.511039241189599e+00	 7.529273006114360e+00	 8.837160272757270e-02
 6.460127552943200e+00	 7.478361317868640e+00	-1.223705852918681e-02
 6.409215864696799e+00	 7.427449629622839e+00	-9.295600786970293e-02
 6.358304176450401e+00	 7.376537941376963e+00	-1.537860470580130e-01
 6.307392488204000e+00	 7.325626253130999e+00	-1.947279778529740e-01
 6.256480799957600e+00	 7.274714564884961e+00	-2.157826020082723e-01
 6.205569111711201e+00	 7.223802876638842e+00	-2.169507212724262e-01
 6.154657423464800e+00	 7.172891188392639e+00	-1.982331373887520e-01
 6.103745735218400e+00	 7.121979500146359e+00	-1.596306520954327e-01
 6.052834046971999e+00	 7.071067811900001e+00	-1.011440671254114e-01
 6.473562581786000e+00	 7.668573042005001e+00	 2.237033121741966e-01
 6.413812058774599e+00	 7.608822518995311e+00	 1.119352658473714e-01
 6.354061535763201e+00	 7.549071995985442e+00	 1.853347891141794e-02
 6.294311012751799e+00	 7.489321472975390e+00	-5.650334468220401e-02
 6.234560489740398e+00	 7.429570949965158e+00	-1.131765009722310e-01
 6.174809966728999e+00	 7.369820426954750e+00	-1.514872859876290e-01
 6.115059443717598e+00	 7.310069903944159e+00	-1.714369957475508e-01
 6.055308920706200e+00	 7.250319380933389e+00	-1.730269262613837e-01
 5.995558397694801e+00	 7.190568857922440e+00	-1.562583735287059e-01
 5.935807874683401e+00	 7.130818334911312e+00	-1.211326335393106e-01
 5.876057351671999e+00	 7.071067811900000e+00	-6.765100227324272e-02
 6.378103166323999e+00	 7.764032457460001e+00	 2.357219951743288e-01
 6.308806701766399e+00	 7.694735992905440e+00	 1.311937274140382e-01
 6.239510237208799e+00	 7.625439528350561e+00	 4.368897780071989e-02
 6.170213772651200e+00	 7.556143063795360e+00	-2.679427542077244e-02
 6.100917308093599e+00	 7.486846599239840e+00	-8.025805398792651e-02
 6.031620843536000e+00	 7.417550134684001e+00	-1.167043796205508e-01
 5.962324378978400e+00	 7.348253670127839e+00	-1.361352740207721e-01
 5.893027914420800e+00	 7.278957205571360e+00	-1.385527588730589e-01
 5.823731449863200e+00	 7.209660741014560e+00	-1.239588558442041e-01
 5.754434985305600e+00	 7.140364276457439e+00	-9.235558658330847e-02
 5.685138520748000e+00	 7.071067811900000e+00	-4.374497272181166e-02
 6.275572683050000e+00	 7.866562940725000e+00	 2.454757453545368e-01
 6.196023170165001e+00	 7.787013427844752e+00	 1.470742347554671e-01
 6.116473657279999e+00	 7.707463914963999e+00	 6.450764681736137e-02
 6.036924144394999e+00	 7.627914402082750e+00	-2.227076949641985e-03
 5.957374631510000e+00	 7.548364889201000e+00	-5.313299500474478e-02
 5.877825118625000e+00	 7.468815376318750e+00	-8.821316577649224e-02
 5.798275605740000e+00	 7.389265863436000e+00	-1.074706476627624e-01
 5.718726092854999e+00	 7.309716350552749e+00	-1.109084990307790e-01
 5.639176579970000e+00	 7.230166837669000e+00	-9.852977821710418e-02
 5.559627067084999e+00	 7.150617324784750e+00	-7.033754352763211e-02
 5.480077554199999e+00	 7.071067811900000e+00	-2.633485323760509e-02
 6.165971131964000e+00	 7.976164491800001e+00	 2.533695290031051e-01
 6.075461463970400e+00	 7.885654823813242e+00	 1.602498305644917e-01
 5.984951795976801e+00	 7.795145155825760e+00	 8.190831075541839e-02
 5.894442127983199e+00	 7.704635487837561e+00	 1.834046474510104e-02
 5.803932459989599e+00	 7.614125819848638e+00	-3.045821224592338e-02
 5.713422791995999e+00	 7.523616151859001e+00	-6.449222494572729e-02
 5.622913124002400e+00	 7.433106483868641e+00	-8.376607803105322e-02
 5.532403456008799e+00	 7.342596815877560e+00	-8.828427612727274e-02
 5.441893788015200e+00	 7.252087147885760e+00	-7.805132380840596e-02
 5.351384120021598e+00	 7.161577479893239e+00	-5.307172559712844e-02
 5.260874452027999e+00	 7.071067811900001e+00	-1.334998596475179e-02
 6.049298513065999e+00	 8.092837110685000e+00	 2.597098270898118e-01
 5.947121583182599e+00	 7.990660180810910e+00	 1.712218707377338e-01
 5.844944653299199e+00	 7.888483250935841e+00	 9.656897551983928e-02
 5.742767723415799e+00	 7.786306321059791e+00	 3.574466029974809e-02
 5.640590793532399e+00	 7.684129391182760e+00	-1.125755597553747e-02
 5.538413863648998e+00	 7.581952461304750e+00	-4.444415427563896e-02
 5.436236933765599e+00	 7.479775531425760e+00	-6.382161548676764e-02
 5.334060003882199e+00	 7.377598601545791e+00	-6.939642041175031e-02
 5.231883073998798e+00	 7.275421671664840e+00	-6.117504977003307e-02
 5.129706144115398e+00	 7.173244741782910e+00	-3.916398419768249e-02
 5.027529214231999e+00	 7.071067811900000e+00	-3.369704247360716e-03
 5.925554826355999e+00	 8.216580797380001e+00	 2.647344659323390e-01
 5.811003527801600e+00	 8.102029498837762e+00	 1.803731560113958e-01
 5.696452229247201e+00	 7.987478200294242e+00	 1.090024267040711e-01
 5.581900930692799e+00	 7.872926901749442e+00	 5.061314546884922e-02
 5.467349632138400e+00	 7.758375603203361e+00	 5.196179895949421e-03
 5.352798333583999e+00	 7.643824304656001e+00	-2.725760229269765e-02
 5.238247035029598e+00	 7.529273006107360e+00	-4.675733324343488e-02
 5.123695736475199e+00	 7.414721707557439e+00	-5.331214497089865e-02
 5.009144437920799e+00	 7.300170409006240e+00	-4.693116935800362e-02
 4.894593139366398e+00	 7.185619110453759e+00	-2.762353815596702e-02
 4.780041840811998e+00	 7.071067811900001e+00	 4.601617015714460e-03
 5.794740071833999e+00	 8.347395551885000e+00	 2.686328165217134e-01
 5.667107297827398e+00	 8.219762777893790e+00	 1.880032435623406e-01
 5.539474523820799e+00	 8.092130003900962e+00	 1.196059821206264e-01
 5.411841749814198e+00	 7.964497229906510e+00	 6.342840004969078e-02
 5.284208975807599e+00	 7.836864455910440e+00	 1.945786540565027e-02
 5.156576201800998e+00	 7.709231681912749e+00	-1.231825355240423e-02
 5.028943427794398e+00	 7.581598907913440e+00	-3.191258836237236e-02
 4.901310653787798e+00	 7.453966133912511e+00	-3.933777035919045e-02
 4.773677879781197e+00	 7.326333359909960e+00	-3.460643067480412e-02
 4.646045105774597e+00	 7.198700585905790e+00	-1.773120023819355e-02
 4.518412331767998e+00	 7.071067811900000e+00	 1.127529022462784e-02
 5.656854249500000e+00	 8.485281374200000e+00	 2.715598771780461e-01
 5.515432893260000e+00	 8.343860017978999e+00	 1.943526020600217e-01
 5.374011537020000e+00	 8.202438661756000e+00	 1.286951852103235e-01
 5.232590180780001e+00	 8.061017305530999e+00	 7.457044222720979e-02
 5.091168824540000e+00	 7.919595949304000e+00	 3.196118901494417e-02
 4.949747468300000e+00	 7.778174593075001e+00	 8.502417837364940e-04
 4.808326112060000e+00	 7.636753236844000e+00	-1.877958295022730e-02
 4.666904755820000e+00	 7.495331880611000e+00	-2.694546836481937e-02
 4.525483399580001e+00	 7.353910524375999e+00	-2.366459733195250e-02
 4.384062043340000e+00	 7.212489168138999e+00	-8.954152417618461e-03
 4.242640687100000e+00	 7.071067811900000e+00	 1.716868411813807e-02
 7.071067811900000e+00	 7.071067811900000e+00	 1.203078214684597e+00
 7.071067811900001e+00	 7.071067811900001e+00	 1.203078214684599e+00
 7.071067811900001e+00	 7.071067811900001e+00	 1.203078214684597e+00
 7.071067811900000e+00	 7.071067811900000e+00	 1.203078214684595e+00
 7.071067811899999e+00	 7.071067811899999e+00	 1.203078214684597e+00
 7.071067811900000e+00	 7.071067811900000e+00	 1.203078214684597e+00
 7.071067811900000e+00	 7.071067811900000e+00	 1.203078214684597e+00
 7.071067811900000e+00	 7.071067811900000e+00	 1.203078214684600e+00
 7.071067811900000e+00	 7.071067811900000e+00	 1.203078214684597e+00
 7.071067811900000e+00	 7.071067811900000e+00	 1.203078214684600e+00
 7.071067811900000e+00	 7.071067811900000e+00	 1.203078214684597e+00
 7.063996744088000e+00	 7.071067811900000e+00	-3.770522840747810e+00
 7.064350297478600e+00	 7.070714258509400e+00	-4.716424020835240e+00
 7.064703850869199e+00	 7.070360705118798e+00	-5.680135735448530e+00
 7.065057404259800e+00	 7.070007151728200e+00	-6.661657984530126e+00
 7.065410957650399e+00	 7.069653598337600e+00	-7.660990768113264e+00
 7.065764511041000e+00	 7.069300044947000e+00	-8.678134086188919e+00
 7.066118064431599e+00	 7.068946491556400e+00	-9.713087938761328e+00
 7.066471617822200e+00	 7.068592938165800e+00	-1.076585232580765e+01
 7.066825171212800e+00	 7.068239384775199e+00	-1.183642724741317e+01
 7.067178724603401e+00	 7.067885831384601e+00	-1.292481270342838e+01
 7.067532277994000e+00	 7.067532277994000e+00	-1.403100869400519e+01
 7.042783540652000e+00	 7.071067811900000e+00	-1.820885020233307e+00
 7.044197754214401e+00	 7.069653598337601e+00	-2.282415964404702e+00
 7.045611967776800e+00	 7.068239384775199e+00	-2.755566443775417e+00
 7.047026181339199e+00	 7.066825171212799e+00	-3.240336458358500e+00
 7.048440394901600e+00	 7.065410957650400e+00	-3.736726008170520e+00
 7.049854608463999e+00	 7.063996744087999e+00	-4.244735093230000e+00
 7.051268822026399e+00	 7.062582530525598e+00	-4.764363713553479e+00
 7.052683035588799e+00	 7.061168316963199e+00	-5.295611869157448e+00
 7.054097249151201e+00	 7.059754103400801e+00	-5.838479560057428e+00
 7.055511462713601e+00	 7.058339889838400e+00	-6.392966786276084e+00
 7.056925676275999e+00	 7.056925676275999e+00	-6.959073547824302e+00
 7.007428201591999e+00	 7.071067811899999e+00	-1.158523411783843e+00
 7.010610182107401e+00	 7.067885831384601e+00	-1.466540983880620e+00
 7.013792162622800e+00	 7.064703850869200e+00	-1.782555874240781e+00
 7.016974143138199e+00	 7.061521870353800e+00	-2.106568083060839e+00
 7.020156123653600e+00	 7.058339889838400e+00	-2.438577610531881e+00
 7.023338104169000e+00	 7.055157909322999e+00	-2.778584456847561e+00
 7.026520084684400e+00	 7.051975928807600e+00	-3.126588622201758e+00
 7.029702065199800e+00	 7.048793948292200e+00	-3.482590106787147e+00
 7.032884045715201e+00	 7.045611967776800e+00	-3.846588910797485e+00
 7.036066026230600e+00	 7.042429987261400e+00	-4.218585034424775e+00
 7.039248006745999e+00	 7.039248006745999e+00	-4.598578477863306e+00
 6.957930726908000e+00	 7.071067811900000e+00	-8.244422251382949e-01
 6.963587581157601e+00	 7.065410957650401e+00	-1.057163788287336e+00
 6.969244435407200e+00	 7.059754103400800e+00	-1.295779460295260e+00
 6.974901289656801e+00	 7.054097249151201e+00	-1.540289242246673e+00
 6.980558143906400e+00	 7.048440394901600e+00	-1.790693135227334e+00
 6.986214998155999e+00	 7.042783540652000e+00	-2.046991140322957e+00
 6.991871852405601e+00	 7.037126686402400e+00	-2.309183258619195e+00
 6.997528706655200e+00	 7.031469832152800e+00	-2.577269491201387e+00
 7.003185560904800e+00	 7.025812977903200e+00	-2.851249839155401e+00
 7.008842415154400e+00	 7.020156123653600e+00	-3.131124303566715e+00
 7.014499269404000e+00	 7.014499269404000e+00	-3.416892885520893e+00
 6.894291116600000e+00	 7.071067811900000e+00	-6.225587272684308e-01
 6.903129951365002e+00	 7.062228977135002e+00	-8.105433697347835e-01
 6.911968786130000e+00	 7.053390142370000e+00	-1.003066922800552e+00
 6.920807620895000e+00	 7.044551307605000e+00	-1.200129390606946e+00
 6.929646455659999e+00	 7.035712472839999e+00	-1.401730777295088e+00
 6.938485290425000e+00	 7.026873638075000e+00	-1.607871087006230e+00
 6.947324125190000e+00	 7.018034803310000e+00	-1.818550323881446e+00
 6.956162959954999e+00	 7.009195968545000e+00	-2.033768492062080e+00
 6.965001794720000e+00	 7.000357133779999e+00	-2.253525595689024e+00
 6.973840629485001e+00	 6.991518299015000e+00	-2.477821638903807e+00
 6.982679464249999e+00	 6.982679464249999e+00	-2.706656625847102e+00
 6.816509370667999e+00	 7.071067811899999e+00	-4.869136265228453e-01
 6.829237292729600e+00	 7.058339889838399e+00	-6.452322767927441e-01
 6.841965214791200e+00	 7.045611967776800e+00	-8.071477733883576e-01
 6.854693136852801e+00	 7.032884045715201e+00	-9.726601286756390e-01
 6.867421058914399e+00	 7.020156123653599e+00	-1.141769355019997e+00
 6.880148980976000e+00	 7.007428201592000e+00	-1.314475464786883e+00
 6.892876903037600e+00	 6.994700279530399e+00	-1.490778470341903e+00
 6.905604825099201e+00	 6.981972357468800e+00	-1.670678384050659e+00
 6.918332747160800e+00	 6.969244435407201e+00	-1.854175218278449e+00
 6.931060669222401e+00	 6.956516513345600e+00	-2.041268985390766e+00
 6.943788591283999e+00	 6.943788591283999e+00	-2.231959697753118e+00
 6.724585489112000e+00	 7.071067811900000e+00	-3.890888637153873e-01
 6.741909605251399e+00	 7.053743695760598e+00	-5.262716070038139e-01
 6.759233721390800e+00	 7.036419579621199e+00	-6.663597007031589e-01
 6.776557837530200e+00	 7.019095463481801e+00	-8.093531759949303e-01
 6.793881953669601e+00	 7.001771347342401e+00	-9.552520640606575e-01
 6.811206069809000e+00	 6.984447231202999e+00	-1.104056396081709e+00
 6.828530185948399e+00	 6.967123115063599e+00	-1.255766203239384e+00
 6.845854302087799e+00	 6.949798998924201e+00	-1.410381516714911e+00
 6.863178418227198e+00	 6.932474882784798e+00	-1.567902367689477e+00
 6.880502534366600e+00	 6.915150766645400e+00	-1.728328787344200e+00
 6.897826650506000e+00	 6.897826650506000e+00	-1.891660806860130e+00
 6.618519471932001e+00	 7.071067811900001e+00	-3.148232185456945e-01
 6.641146888930400e+00	 7.048440394901601e+00	-4.361611391850129e-01
 6.663774305928799e+00	 7.025812977903199e+00	-5.598759549553434e-01
 6.686401722927201e+00	 7.003185560904801e+00	-6.859677353353013e-01
 6.709029139925600e+00	 6.980558143906400e+00	-8.144365498033637e-01
 6.731656556923999e+00	 6.957930726907999e+00	-9.452824678378303e-01
 6.754283973922399e+00	 6.935303309909599e+00	-1.078505558916738e+00
 6.776911390920798e+00	 6.912675892911198e+00	-1.214105892517967e+00
 6.799538807919198e+00	 6.890048475912798e+00	-1.352083538119172e+00
 6.822166224917600e+00	 6.867421058914401e+00	-1.492438565197878e+00
 6.844793641916000e+00	 6.844793641916000e+00	-1.635171043231324e+00
 6.498311319128000e+00	 7.071067811899999e+00	-2.561703332003897e-01
 6.526949143766600e+00	 7.042429987261399e+00	-3.651672257671882e-01
 6.555586968405200e+00	 7.013792162622801e+00	-4.761244884697304e-01
 6.584224793043802e+00	 6.985154337984201e+00	-5.890422621620214e-01
 6.612862617682399e+00	 6.956516513345600e+00	-7.039206876976576e-01
 6.641500442321001e+00	 6.927878688707001e+00	-8.207599059297335e-01
 6.670138266959600e+00	 6.899240864068400e+00	-9.395600577107523e-01
 6.698776091598198e+00	 6.870603039429797e+00	-1.060321283892755e+00
 6.727413916236800e+00	 6.841965214791200e+00	-1.183043725327265e+00
 6.756051740875400e+00	 6.813327390152599e+00	-1.307727522865343e+00
 6.784689565513999e+00	 6.784689565513999e+00	-1.434372817357408e+00
 6.363961030700001e+00	 7.071067811900000e+00	-2.083491835883663e-01
 6.399316369760000e+00	 7.035712472840001e+00	-3.074418108349147e-01
 6.434671708820000e+00	 7.000357133780001e+00	-4.081583908036204e-01
 6.470027047880000e+00	 6.965001794719999e+00	-5.104991885382376e-01
 6.505382386939999e+00	 6.929646455659999e+00	-6.144644690812922e-01
 6.540737726000000e+00	 6.894291116599999e+00	-7.200544974741023e-01
 6.576093065059999e+00	 6.858935777540000e+00	-8.272695387568401e-01
 6.611448404120001e+00	 6.823580438480001e+00	-9.361098579684963e-01
 6.646803743180000e+00	 6.788225099420000e+00	-1.046575720146820e+00
 6.682159082240000e+00	 6.752869760359999e+00	-1.158667390328449e+00
 6.717514421300000e+00	 6.717514421300000e+00	-1.272385133548794e+00
 6.363961030700001e+00	 7.071067811900000e+00	-2.083491835883663e-01
 6.399316369760000e+00	 7.035712472840001e+00	-3.074418108349147e-01
 6.434671708820000e+00	 7.000357133780001e+00	-4.081583908036204e-01
 6.470027047880000e+00	 6.965001794719999e+00	-5.104991885382376e-01
 6.505382386939999e+00	 6.929646455659999e+00	-6.144644690812922e-01
 6.540737726000000e+00	 6.894291116599999e+00	-7.200544974741023e-01
 6.576093065059999e+00	 6.858935777540000e+00	-8.272695387568401e-01
 6.611448404120001e+00	 6.823580438480001e+00	-9.361098579684963e-01
 6.646803743180000e+00	 6.788225099420000e+00	-1.046575720146820e+00
 6.682159082240000e+00	 6.752869760359999e+00	-1.158667390328449e+00
 6.717514421300000e+00	 6.717514421300000e+00	-1.272385133548794e+00
 6.215468606648000e+00	 7.071067811900000e+00	-2.088517409226089e-01
 6.258248566910598e+00	 7.028287851637397e+00	-2.920231264682103e-01
 6.301028527173201e+00	 6.985507891374802e+00	-3.775525746495789e-01
 6.343808487435800e+00	 6.942727931112200e+00	-4.654405550115948e-01
 6.386588447698400e+00	 6.899947970849600e+00	-5.556875370965744e-01
 6.429368407961000e+00	 6.857168010586999e+00	-6.482939904443015e-01
 6.472148368223601e+00	 6.814388050324401e+00	-7.432603845920135e-01
 6.514928328486199e+00	 6.771608090061799e+00	-8.405871890744157e-01
 6.557708288748801e+00	 6.728828129799201e+00	-9.402748734236733e-01
 6.600488249011398e+00	 6.686048169536599e+00	-1.042323907169414e+00
 6.643268209274000e+00	 6.643268209274000e+00	-1.146734759838698e+00
 6.052834046971999e+00	 7.071067811900001e+00	-1.836337007882922e-01
 6.103745735218400e+00	 7.020156123653600e+00	-2.579457583500089e-01
 6.154657423464800e+00	 6.969244435407200e+00	-3.348829690641756e-01
 6.205569111711199e+00	 6.918332747160799e+00	-4.144461243603510e-01
 6.256480799957601e+00	 6.867421058914402e+00	-4.966360156629794e-01
 6.307392488204000e+00	 6.816509370668000e+00	-5.814534343914249e-01
 6.358304176450401e+00	 6.765597682421601e+00	-6.688991719599535e-01
 6.409215864696801e+00	 6.714685994175200e+00	-7.589740197777506e-01
 6.460127552943201e+00	 6.663774305928801e+00	-8.516787692488736e-01
 6.511039241189599e+00	 6.612862617682399e+00	-9.470142117723461e-01
 6.561950929436001e+00	 6.561950929436001e+00	-1.044981138742025e+00
 5.876057351671999e+00	 7.071067811900000e+00	-1.437972726168143e-01
 5.935807874683400e+00	 7.011317288888601e+00	-2.137259018383337e-01
 5.995558397694801e+00	 6.951566765877202e+00	-2.862607450017174e-01
 6.055308920706200e+00	 6.891816242865800e+00	-3.614030814559654e-01
 6.115059443717599e+00	 6.832065719854399e+00	-4.391541905404124e-01
 6.174809966728999e+00	 6.772315196842999e+00	-5.195153515847367e-01
 6.234560489740398e+00	 6.712564673831598e+00	-6.024878439089448e-01
 6.294311012751799e+00	 6.652814150820199e+00	-6.880729468233793e-01
 6.354061535763199e+00	 6.593063627808800e+00	-7.762719396287268e-01
 6.413812058774600e+00	 6.533313104797401e+00	-8.670861016160085e-01
 6.473562581786000e+00	 6.473562581786000e+00	-9.605167120665796e-01
 5.685138520748000e+00	 7.071067811900000e+00	-9.587075237657350e-02
 5.754434985305600e+00	 7.001771347342399e+00	-1.642975132072373e-01
 5.823731449863200e+00	 6.932474882784800e+00	-2.351350579667349e-01
 5.893027914420800e+00	 6.863178418227200e+00	-3.083853823842307e-01
 5.962324378978400e+00	 6.793881953669599e+00	-3.840504821713911e-01
 6.031620843536000e+00	 6.724585489112000e+00	-4.621323530223916e-01
 6.100917308093599e+00	 6.655289024554400e+00	-5.426329906139462e-01
 6.170213772651199e+00	 6.585992559996800e+00	-6.255543906052585e-01
 6.239510237208800e+00	 6.516696095439199e+00	-7.108985486380772e-01
 6.308806701766399e+00	 6.447399630881600e+00	-7.986674603366446e-01
 6.378103166323999e+00	 6.378103166323999e+00	-8.888631213077369e-01
 5.480077554199999e+00	 7.071067811900000e+00	-4.376732710546066e-02
 5.559627067084999e+00	 6.991518299015000e+00	-1.125624077989597e-01
 5.639176579969999e+00	 6.911968786129999e+00	-1.834642466625158e-01
 5.718726092854999e+00	 6.832419273244999e+00	-2.564758628534218e-01
 5.798275605740000e+00	 6.752869760360000e+00	-3.316002754986069e-01
 5.877825118625000e+00	 6.673320247475000e+00	-4.088405036946239e-01
 5.957374631510000e+00	 6.593770734590000e+00	-4.881995665076764e-01
 6.036924144394999e+00	 6.514221221704998e+00	-5.696804829735929e-01
 6.116473657279999e+00	 6.434671708820000e+00	-6.532862720978559e-01
 6.196023170165000e+00	 6.355122195934999e+00	-7.390199528555746e-01
 6.275572683050000e+00	 6.275572683050000e+00	-8.268845441915003e-01
 5.260874452027999e+00	 7.071067811900001e+00	 1.014344719203331e-02
 5.351384120021599e+00	 6.980558143906401e+00	-6.023395385146751e-02
 5.441893788015200e+00	 6.890048475912800e+00	-1.323482253431954e-01
 5.532403456008799e+00	 6.799538807919199e+00	-2.062038142430179e-01
 5.622913124002399e+00	 6.709029139925598e+00	-2.818051674598891e-01
 5.713422791996000e+00	 6.618519471932000e+00	-3.591567318518957e-01
 5.803932459989600e+00	 6.528009803938401e+00	-4.382629542262335e-01
 5.894442127983199e+00	 6.437500135944800e+00	-5.191282813392247e-01
 5.984951795976800e+00	 6.346990467951199e+00	-6.017571598963039e-01
 6.075461463970397e+00	 6.256480799957598e+00	-6.861540365520102e-01
 6.165971131964000e+00	 6.165971131964000e+00	-7.723233579100444e-01
 5.027529214231999e+00	 7.071067811900000e+00	 6.442691759650698e-02
 5.129706144115398e+00	 6.968890882016598e+00	-8.313753059738693e-03
 5.231883073998800e+00	 6.866713952133200e+00	-8.238258752993238e-02
 5.334060003882199e+00	 6.764537022249799e+00	-1.577859837855525e-01
 5.436236933765598e+00	 6.662360092366399e+00	-2.345303397154178e-01
 5.538413863649000e+00	 6.560183162483000e+00	-3.126220531257224e-01
 5.640590793532399e+00	 6.458006232599599e+00	-3.920675217400084e-01
 5.742767723415799e+00	 6.355829302716199e+00	-4.728731431991661e-01
 5.844944653299200e+00	 6.253652372832799e+00	-5.550453150614640e-01
 5.947121583182600e+00	 6.151475442949399e+00	-6.385904348025242e-01
 6.049298513065999e+00	 6.049298513065999e+00	-7.235148998153247e-01
 4.780041840811998e+00	 7.071067811900001e+00	 1.182263326143519e-01
 4.894593139366399e+00	 6.956516513345600e+00	 4.263050541287222e-02
 5.009144437920800e+00	 6.841965214791201e+00	-3.386293063405110e-02
 5.123695736475199e+00	 6.727413916236799e+00	-1.112629910217153e-01
 5.238247035029600e+00	 6.612862617682400e+00	-1.895786911148732e-01
 5.352798333583999e+00	 6.498311319128001e+00	-2.688190461476974e-01
 5.467349632138399e+00	 6.383760020573599e+00	-3.489930712238261e-01
 5.581900930692798e+00	 6.269208722019199e+00	-4.301097813163213e-01
 5.696452229247200e+00	 6.154657423464799e+00	-5.121781912677075e-01
 5.811003527801599e+00	 6.040106124910399e+00	-5.952073157899488e-01
 5.925554826355999e+00	 5.925554826355999e+00	-6.792061694644818e-01
 4.518412331767998e+00	 7.071067811900000e+00	 1.710477869320345e-01
 4.646045105774597e+00	 6.943435037893400e+00	 9.229879994767706e-02
 4.773677879781198e+00	 6.815802263886799e+00	 1.309428702771442e-02
 4.901310653787798e+00	 6.688169489880199e+00	-6.657822228250229e-02
 5.028943427794399e+00	 6.560536715873600e+00	-1.467311982363926e-01
 5.156576201800998e+00	 6.432903941866998e+00	-2.273771108861539e-01
 5.284208975807598e+00	 6.305271167860399e+00	-3.085284300827875e-01
 5.411841749814199e+00	 6.177638393853799e+00	-3.901976254760690e-01
 5.539474523820799e+00	 6.050005619847200e+00	-4.723971665145925e-01
 5.667107297827399e+00	 5.922372845840599e+00	-5.551395224457316e-01
 5.794740071833999e+00	 5.794740071833999e+00	-6.384371623156899e-01
 4.242640687100000e+00	 7.071067811900000e+00	 2.226277193309608e-01
 4.384062043340000e+00	 6.929646455660000e+00	 1.405571153170572e-01
 4.525483399580000e+00	 6.788225099420000e+00	 5.847879632052877e-02
 4.666904755820000e+00	 6.646803743180000e+00	-2.362420239464921e-02
 4.808326112060000e+00	 6.505382386939999e+00	-1.057688452612020e-01
 4.949747468300000e+00	 6.363961030700000e+00	-1.879720964085379e-01
 5.091168824540000e+00	 6.222539674460000e+00	-2.702509196627799e-01
 5.232590180780000e+00	 6.081118318220000e+00	-3.526222785467446e-01
 5.374011537019999e+00	 5.939696961979999e+00	-4.351031362799923e-01
 5.515432893260000e+00	 5.798275605740000e+00	-5.177104557787851e-01
 5.656854249500000e+00	 5.656854249500000e+00	-6.004611996561304e-01
 0.000000000000000e+00	 0.000000000000000e+00	-3.089061220822787e-02
-1.414213562400000e-01	 1.414213562400000e-01	 8.125325886654294e-03
-2.828427124800000e-01	 2.828427124800000e-01	 4.541969588792624e-02
-4.242640687200001e-01	 4.242640687200001e-01	 8.099249779574444e-02
-5.656854249600001e-01	 5.656854249600001e-01	 1.148437316102483e-01
-7.071067812000000e-01	 7.071067812000000e-01	 1.469733973315790e-01
-8.485281374400000e-01	 8.485281374400000e-01	 1.773814949598634e-01
-9.899494936800000e-01	 9.899494936800000e-01	 2.060680244952244e-01
-1.131370849920000e+00	 1.131370849920000e+00	 2.330329859377776e-01
-1.272792206160000e+00	 1.272792206160000e+00	 2.582763792876306e-01
-1.414213562400000e+00	 1.414213562400000e+00	 2.817982045448870e-01
 2.828427124795000e-01	 2.828427124795000e-01	-4.507009115753869e-02
 1.414213562395000e-01	 4.242640687193149e-01	-8.664936123186447e-03
-5.000333914290111e-13	 5.656854249587601e-01	 2.637296752198046e-02
-1.414213562405001e-01	 7.071067811978351e-01	 6.004361977807814e-02
-2.828427124805001e-01	 8.485281374365402e-01	 9.234702064522760e-02
-4.242640687205000e-01	 9.899494936748751e-01	 1.232831701235457e-01
-5.656854249605000e-01	 1.131370849912840e+00	 1.528520682131348e-01
-7.071067812005002e-01	 1.272792206150435e+00	 1.810537149141054e-01
-8.485281374405000e-01	 1.414213562387660e+00	 2.078881102265572e-01
-9.899494936804997e-01	 1.555634918624515e+00	 2.333552541505768e-01
-1.131370849920500e+00	 1.697056274861000e+00	 2.574551466862603e-01
 5.656854249580000e-01	 5.656854249580000e-01	-5.994804007021978e-02
 4.242640687180000e-01	 7.071067811976601e-01	-2.579591826361951e-02
 2.828427124780000e-01	 8.485281374366399e-01	 7.343268858194141e-03
 1.414213562380000e-01	 9.899494936749400e-01	 3.946952129532142e-02
-2.000007798264036e-12	 1.131370849912560e+00	 7.058283904785626e-02
-1.414213562419999e-01	 1.272792206149500e+00	 1.006832221158958e-01
-2.828427124819999e-01	 1.414213562385760e+00	 1.297706704995325e-01
-4.242640687220000e-01	 1.555634918621340e+00	 1.578451841988494e-01
-5.656854249619998e-01	 1.697056274856240e+00	 1.849067632139380e-01
-7.071067812020000e-01	 1.838477631090460e+00	 2.109554075448783e-01
-8.485281374420000e-01	 1.979898987324000e+00	 2.359911171917481e-01
 8.485281374355000e-01	 8.485281374355000e-01	-7.552445894615430e-02
 7.071067811955001e-01	 9.899494936750352e-01	-4.326762053452453e-02
 5.656854249555002e-01	 1.131370849913640e+00	-1.166940010329211e-02
 4.242640687155000e-01	 1.272792206151315e+00	 1.927020234762409e-02
 2.828427124755001e-01	 1.414213562388060e+00	 4.955118681830414e-02
 1.414213562355001e-01	 1.555634918623875e+00	 7.917355330882329e-02
-4.499872696683838e-12	 1.697056274858760e+00	 1.081373018192586e-01
-1.414213562444998e-01	 1.838477631092715e+00	 1.364424323496836e-01
-2.828427124845000e-01	 1.979898987325740e+00	 1.640889449001698e-01
-4.242640687244999e-01	 2.121320343557835e+00	 1.910768394707910e-01
-5.656854249644998e-01	 2.262741699789000e+00	 2.174061160616166e-01
 1.131370849912000e+00	 1.131370849912000e+00	-9.179934778523163e-02
 9.899494936720004e-01	 1.272792206151440e+00	-6.108004293578333e-02
 8.485281374320001e-01	 1.414213562389760e+00	-3.066503936234953e-02
 7.071067811920001e-01	 1.555634918626960e+00	-5.543370648636164e-04
 5.656854249520000e-01	 1.697056274863040e+00	 2.925206395673458e-02
 4.242640687120001e-01	 1.838477631098000e+00	 5.875416370250450e-02
 2.828427124720001e-01	 1.979898987331840e+00	 8.795196217251100e-02
 1.414213562320001e-01	 2.121320343564560e+00	 1.168454593668123e-01
-7.999850781814644e-12	 2.262741699796160e+00	 1.454346552854693e-01
-1.414213562479998e-01	 2.404163056026640e+00	 1.737195499285422e-01
-2.828427124880000e-01	 2.545584412256000e+00	 2.017001432960920e-01
 1.414213562387500e+00	 1.414213562387500e+00	-1.087727065873399e-01
 1.272792206147500e+00	 1.555634918626875e+00	-7.923318546727257e-02
 1.131370849907500e+00	 1.697056274865000e+00	-4.964364891883990e-02
 9.899494936675000e-01	 1.838477631101875e+00	-2.000409694199645e-02
 8.485281374274999e-01	 1.979898987337500e+00	 9.685470463305271e-03
 7.071067811875000e-01	 2.121320343571875e+00	 3.942505329711435e-02
 5.656854249475001e-01	 2.262741699805000e+00	 6.921465155947429e-02
 4.242640687075001e-01	 2.404163056036875e+00	 9.905426525043262e-02
 2.828427124675001e-01	 2.545584412267500e+00	 1.289438943700359e-01
 1.414213562275002e-01	 2.687005768496876e+00	 1.588835389183317e-01
-1.250000103425464e-11	 2.828427124725000e+00	 1.888731988953662e-01
 1.697056274862000e+00	 1.697056274862000e+00	-1.264445353523679e-01
 1.555634918622000e+00	 1.838477631101340e+00	-9.772704812887142e-02
 1.414213562382000e+00	 1.979898987339360e+00	-6.860522877263499e-02
 1.272792206142000e+00	 2.121320343576060e+00	-3.907907728362885e-02
 1.131370849902000e+00	 2.262741699811440e+00	-9.148593661820956e-03
 9.899494936619999e-01	 2.404163056045500e+00	 2.118622209281844e-02
 8.485281374220000e-01	 2.545584412278240e+00	 5.192536998032098e-02
 7.071067811820001e-01	 2.687005768509660e+00	 8.306885000071842e-02
 5.656854249420001e-01	 2.828427124739760e+00	 1.146166621540421e-01
 4.242640687020001e-01	 2.969848480968540e+00	 1.465688064403241e-01
 2.828427124619999e-01	 3.111269837196000e+00	 1.789252828595959e-01
 1.979898987335500e+00	 1.979898987335500e+00	-1.448148340802055e-01
 1.838477631095500e+00	 2.121320343574834e+00	-1.165616309204546e-01
 1.697056274855500e+00	 2.262741699812840e+00	-8.754977892359687e-02
 1.555634918615500e+00	 2.404163056049515e+00	-5.777927808961460e-02
 1.414213562375500e+00	 2.545584412284860e+00	-2.725012841849488e-02
 1.272792206135500e+00	 2.687005768518875e+00	 4.037670089777373e-03
 1.131370849895500e+00	 2.828427124751559e+00	 3.608411743521575e-02
 9.899494936554999e-01	 2.969848480982916e+00	 6.888921361783326e-02
 8.485281374154998e-01	 3.111269837212939e+00	 1.024529586376447e-01
 7.071067811755001e-01	 3.252691193441636e+00	 1.367753524946622e-01
 5.656854249354999e-01	 3.394112549669000e+00	 1.718563951888992e-01
 2.262741699808000e+00	 2.262741699808000e+00	-1.638836027707372e-01
 2.121320343568000e+00	 2.404163056047360e+00	-1.357369338419028e-01
 1.979898987327999e+00	 2.545584412285439e+00	-1.064772993715948e-01
 1.838477631088000e+00	 2.687005768522240e+00	-7.610469935981326e-02
 1.697056274848000e+00	 2.828427124757760e+00	-4.461913380656522e-02
 1.555634918607999e+00	 2.969848480991999e+00	-1.202060271185626e-02
 1.414213562368000e+00	 3.111269837224960e+00	 2.169089392430792e-02
 1.272792206128000e+00	 3.252691193456639e+00	 5.651535610192115e-02
 1.131370849888000e+00	 3.394112549687040e+00	 9.245278382097188e-02
 9.899494936480000e-01	 3.535533905916160e+00	 1.248801127387368e-01
 8.485281374079998e-01	 3.676955262144000e+00	 1.556774361233710e-01
 2.545584412279500e+00	 2.545584412279500e+00	-1.836508414238546e-01
 2.404163056039499e+00	 2.687005768518914e+00	-1.552529568930920e-01
 2.262741699799500e+00	 2.828427124757160e+00	-1.253877901164925e-01
 2.121320343559500e+00	 2.969848480994235e+00	-9.405534109408351e-02
 1.979898987319500e+00	 3.111269837230140e+00	-6.125560982588868e-02
 1.838477631079500e+00	 3.252691193464875e+00	-2.698859631193599e-02
 1.697056274839500e+00	 3.394112549698439e+00	 8.745699447742394e-03
 1.555634918599500e+00	 3.535533905930834e+00	 4.130157303609758e-02
 1.414213562359500e+00	 3.676955262162060e+00	 7.255191091274552e-02
 1.272792206119500e+00	 3.818376618392115e+00	 1.054148445348858e-01
 1.131370849879500e+00	 3.959797974621000e+00	 1.398996975203381e-01
 2.828427124750000e+00	 2.828427124750000e+00	-2.041165500394455e-01
 2.687005768510000e+00	 2.969848480989500e+00	-1.751097000738972e-01
 2.545584412270000e+00	 3.111269837227999e+00	-1.442812511581600e-01
 2.404163056029999e+00	 3.252691193465500e+00	-1.116312032922835e-01
 2.262741699790000e+00	 3.394112549702000e+00	-7.715955647631949e-02
 2.121320343550000e+00	 3.535533905937500e+00	-4.551713918426051e-02
 1.979898987310000e+00	 3.676955262172000e+00	-1.484491489371892e-02
 1.838477631070000e+00	 3.818376618405500e+00	 1.777468753033090e-02
 1.697056274830000e+00	 3.959797974638000e+00	 5.235099147987091e-02
 1.555634918590000e+00	 4.101219330869499e+00	 8.889332543709866e-02
 1.414213562350000e+00	 4.242640687100000e+00	 1.274110180268182e-01
 2.828427124750000e+00	 2.828427124750000e+00	-2.041165500394455e-01
 2.687005768510000e+00	 2.969848480989500e+00	-1.751097000738972e-01
 2.545584412270000e+00	 3.111269837227999e+00	-1.442812511581600e-01
 2.404163056029999e+00	 3.252691193465500e+00	-1.116312032922835e-01
 2.262741699790000e+00	 3.394112549702000e+00	-7.715955647631949e-02
 2.121320343550000e+00	 3.535533905937500e+00	-4.551713918426051e-02
 1.979898987310000e+00	 3.676955262172000e+00	-1.484491489371892e-02
 1.838477631070000e+00	 3.818376618405500e+00	 1.777468753033090e-02
 1.697056274830000e+00	 3.959797974638000e+00	 5.235099147987091e-02
 1.555634918590000e+00	 4.101219330869499e+00	 8.889332543709866e-02
 1.414213562350000e+00	 4.242640687100000e+00	 1.274110180268182e-01
 3.111269837220500e+00	 3.111269837220500e+00	-2.470710569640088e-01
 2.969848480980500e+00	 3.252691193460095e+00	-2.071662054108764e-01
 2.828427124740500e+00	 3.394112549698881e+00	-1.691936929156463e-01
 2.687005768500501e+00	 3.535533905936856e+00	-1.353069850741802e-01
 2.545584412260500e+00	 3.676955262174020e+00	-1.028158822136402e-01
 2.404163056020500e+00	 3.818376618410376e+00	-6.881424617274261e-02
 2.262741699780501e+00	 3.959797974645920e+00	-3.329275376924351e-02
 2.121320343540500e+00	 4.101219330880655e+00	 3.757923241509947e-03
 1.979898987300501e+00	 4.242640687114581e+00	 4.234711324676796e-02
 1.838477631060500e+00	 4.384062043347694e+00	 8.248414477638777e-02
 1.697056274820500e+00	 4.525483399580001e+00	 1.241783465028311e-01
 3.394112549692001e+00	 3.394112549692001e+00	-2.867539064535283e-01
 3.252691193452000e+00	 3.535533905931681e+00	-2.451990793504033e-01
 3.111269837212000e+00	 3.676955262170721e+00	-2.055064382704391e-01
 2.969848480972000e+00	 3.818376618409120e+00	-1.647818885945408e-01
 2.828427124732001e+00	 3.959797974646881e+00	-1.264826780035456e-01
 2.687005768492000e+00	 4.101219330884001e+00	-8.798747546631222e-02
 2.545584412252001e+00	 4.242640687120480e+00	-4.839060531934040e-02
 2.404163056012000e+00	 4.384062043356321e+00	-7.682739270325284e-03
 2.262741699772000e+00	 4.525483399591520e+00	 3.414545111564124e-02
 2.121320343532000e+00	 4.666904755826081e+00	 7.710329441607411e-02
 1.979898987292001e+00	 4.808326112060000e+00	 1.212001193510946e-01
 3.676955262164501e+00	 3.676955262164501e+00	-3.318229627541134e-01
 3.535533905924501e+00	 3.818376618404256e+00	-2.874571788885906e-01
 3.394112549684501e+00	 3.959797974643521e+00	-2.425052150130692e-01
 3.252691193444502e+00	 4.101219330882296e+00	-1.969501085056259e-01
 3.111269837204500e+00	 4.242640687120580e+00	-1.507748964410983e-01
 2.969848480964501e+00	 4.384062043358375e+00	-1.039626155910635e-01
 2.828427124724501e+00	 4.525483399595680e+00	-6.012791829632458e-02
 2.687005768484501e+00	 4.666904755832496e+00	-1.653674894796300e-02
 2.545584412244501e+00	 4.808326112068821e+00	 2.775655595322396e-02
 2.404163056004502e+00	 4.949747468304658e+00	 7.276132503240804e-02
 2.262741699764501e+00	 5.091168824540001e+00	 1.184868870573831e-01
 3.959797974638001e+00	 3.959797974638001e+00	-3.725534725864722e-01
 3.818376618398000e+00	 4.101219330877821e+00	-3.232836742924944e-01
 3.676955262158002e+00	 4.242640687117281e+00	-2.738564574183869e-01
 3.535533905918002e+00	 4.384062043356381e+00	-2.242548593434833e-01
 3.394112549678001e+00	 4.525483399595121e+00	-1.744619171438755e-01
 3.252691193438001e+00	 4.666904755833502e+00	-1.244606675923961e-01
 3.111269837198001e+00	 4.808326112071520e+00	-7.423414715861712e-02
 2.969848480958001e+00	 4.949747468309181e+00	-2.376539200883915e-02
 2.828427124718001e+00	 5.091168824546481e+00	 2.319097938364012e-02
 2.687005768478001e+00	 5.232590180783420e+00	 6.946878805903775e-02
 2.545584412238001e+00	 5.374011537020001e+00	 1.160492008648442e-01
 4.242640687112501e+00	 4.242640687112501e+00	-4.059308962264866e-01
 4.101219330872501e+00	 4.384062043352376e+00	-3.525411479509932e-01
 3.959797974632501e+00	 4.525483399592001e+00	-2.994227429312235e-01
 3.818376618392501e+00	 4.666904755831376e+00	-2.465587185477767e-01
 3.676955262152501e+00	 4.808326112070501e+00	-1.939321118780067e-01
 3.535533905912501e+00	 4.949747468309376e+00	-1.415259596960017e-01
 3.394112549672501e+00	 5.091168824548001e+00	-8.932329847259023e-02
 3.252691193432502e+00	 5.232590180786376e+00	-3.730716437531828e-02
 3.111269837192501e+00	 5.374011537024501e+00	 1.453940673154747e-02
 2.969848480952502e+00	 5.515432893262377e+00	 6.623337928702608e-02
 2.828427124712501e+00	 5.656854249500001e+00	 1.138976127740620e-01
 4.525483399588001e+00	 4.525483399588001e+00	-4.318178062363772e-01
 4.384062043348002e+00	 4.666904755827923e+00	-3.750921724210914e-01
 4.242640687108002e+00	 4.808326112067682e+00	-3.190666441033899e-01
 4.101219330868002e+00	 4.949747468307282e+00	-2.637242586651318e-01
 3.959797974628001e+00	 5.091168824546721e+00	-2.090480531849372e-01
 3.818376618388002e+00	 5.232590180786001e+00	-1.550210644381601e-01
 3.676955262148002e+00	 5.374011537025122e+00	-1.016263288968802e-01
 3.535533905908002e+00	 5.515432893264082e+00	-4.884688272990276e-02
 3.394112549668002e+00	 5.656854249502882e+00	 3.334238197250899e-03
 3.252691193428001e+00	 5.798275605741521e+00	 5.493399832235782e-02
 3.111269837188002e+00	 5.939696961980002e+00	 1.059693623864886e-01
 4.808326112064502e+00	 4.808326112064502e+00	-4.500767702851550e-01
 4.666904755824501e+00	 4.949747468304457e+00	-3.907993153665774e-01
 4.525483399584502e+00	 5.091168824544322e+00	-3.326507285934421e-01
 4.384062043344501e+00	 5.232590180784097e+00	-2.756140473488902e-01
 4.242640687104502e+00	 5.374011537023781e+00	-2.196723087128070e-01
 4.101219330864502e+00	 5.515432893263376e+00	-1.648085494618116e-01
 3.959797974624502e+00	 5.656854249502882e+00	-1.110058060692506e-01
 3.818376618384502e+00	 5.798275605742298e+00	-5.824711470518876e-02
 3.676955262144502e+00	 5.939696961981621e+00	-6.515511236403149e-03
 3.535533905904502e+00	 6.081118318220857e+00	 4.420596877362640e-02
 3.394112549664502e+00	 6.222539674460002e+00	 9.393429006472537e-02
 5.091168824542002e+00	 5.091168824542002e+00	-4.605703511483914e-01
 4.949747468302004e+00	 5.232590180781983e+00	-3.995251395577546e-01
 4.808326112062002e+00	 5.374011537021922e+00	-3.400375591664392e-01
 4.666904755822002e+00	 5.515432893261823e+00	-2.820906473588669e-01
 4.525483399582003e+00	 5.656854249501682e+00	-2.256674412162008e-01
 4.384062043342003e+00	 5.798275605741503e+00	-1.707509775163303e-01
 4.242640687102002e+00	 5.939696961981282e+00	-1.173242927338670e-01
 4.101219330862002e+00	 6.081118318221022e+00	-6.537042304014881e-02
 3.959797974622002e+00	 6.222539674460721e+00	-1.487240430320952e-02
 3.818376618382001e+00	 6.363961030700381e+00	 3.418672791220800e-02
 3.676955262142002e+00	 6.505382386940003e+00	 8.182393834466989e-02
 5.374011537020502e+00	 5.374011537020502e+00	-4.631611067079695e-01
 5.232590180780502e+00	 5.515432893260497e+00	-4.011322028712161e-01
 5.091168824540503e+00	 5.656854249500483e+00	-3.410896936936988e-01
 4.949747468300502e+00	 5.798275605740457e+00	-2.830166165611154e-01
 4.808326112060502e+00	 5.939696961980423e+00	-2.268960085559147e-01
 4.666904755820502e+00	 6.081118318220376e+00	-1.727109064572648e-01
 4.525483399580501e+00	 6.222539674460322e+00	-1.204443467410539e-01
 4.384062043340502e+00	 6.363961030700256e+00	-7.007936557988659e-02
 4.242640687100502e+00	 6.505382386940182e+00	-2.159899884307148e-02
 4.101219330860502e+00	 6.646803743180097e+00	 2.501371790338369e-02
 3.959797974620502e+00	 6.788225099420003e+00	 6.977574939678016e-02
 5.656854249500000e+00	 5.656854249500000e+00	-4.577115899518374e-01
 5.515432893260000e+00	 5.798275605740000e+00	-3.954830582896000e-01
 5.374011537020000e+00	 5.939696961980000e+00	-3.356696851525461e-01
 5.232590180780001e+00	 6.081118318220000e+00	-2.782545079276744e-01
 5.091168824540000e+00	 6.222539674460000e+00	-2.232205636987135e-01
 4.949747468300000e+00	 6.363961030700001e+00	-1.705508892461120e-01
 4.808326112060000e+00	 6.505382386939999e+00	-1.202285210470488e-01
 4.666904755820000e+00	 6.646803743180000e+00	-7.223649527540221e-02
 4.525483399580001e+00	 6.788225099420000e+00	-2.655784780176262e-02
 4.384062043340000e+00	 6.929646455659999e+00	 1.682438580659135e-02
 4.242640687100000e+00	 7.071067811900000e+00	 5.792717028568861e-02
 8.485281374200000e+00	 8.485281374200000e+00	 1.965859904660740e+00
 8.343860017978999e+00	 8.626702730440000e+00	 1.906940714792194e+00
 8.202438661756000e+00	 8.768124086679999e+00	 1.850104301189020e+00
 8.061017305530999e+00	 8.909545442920001e+00	 1.795367626451084e+00
 7.919595949304000e+00	 9.050966799160001e+00	 1.742747653481537e+00
 7.778174593075001e+00	 9.192388155400000e+00	 1.692261345486827e+00
 7.636753236844000e+00	 9.333809511640000e+00	 1.643925665976706e+00
 7.495331880611000e+00	 9.475230867880001e+00	 1.597757578764235e+00
 7.353910524375999e+00	 9.616652224119999e+00	 1.553774047965792e+00
 7.212489168138999e+00	 9.758073580360000e+00	 1.511992038001084e+00
 7.071067811900000e+00	 9.899494936600000e+00	 1.472428513593145e+00
 8.768124086680000e+00	 8.768124086680000e+00	 1.831126252399119e+00
 8.626702730455390e+00	 8.909545442919905e+00	 1.779304768810632e+00
 8.485281374229160e+00	 9.050966799159820e+00	 1.729159911383888e+00
 8.343860018001308e+00	 9.192388155399744e+00	 1.680708642717358e+00
 8.202438661771838e+00	 9.333809511639679e+00	 1.633967925712805e+00
 8.061017305540750e+00	 9.475230867879624e+00	 1.588954723575296e+00
 7.919595949308040e+00	 9.616652224119580e+00	 1.545685999813199e+00
 7.778174593073709e+00	 9.758073580359545e+00	 1.504178718238201e+00
 7.636753236837760e+00	 9.899494936599520e+00	 1.464449842965315e+00
 7.495331880600191e+00	 1.004091629283950e+01	 1.426516338412877e+00
 7.353910524361001e+00	 1.018233764907950e+01	 1.390395169302569e+00
 9.050966799159999e+00	 9.050966799159999e+00	 1.721047586159868e+00
 8.909545442932160e+00	 9.192388155399621e+00	 1.669543286661908e+00
 8.768124086703041e+00	 9.333809511639283e+00	 1.621858468694142e+00
 8.626702730472640e+00	 9.475230867878981e+00	 1.579644052737697e+00
 8.485281374240961e+00	 9.616652224118720e+00	 1.538734037930596e+00
 8.343860018008000e+00	 9.758073580358500e+00	 1.499145387476508e+00
 8.202438661773760e+00	 9.899494936598321e+00	 1.460895064882422e+00
 8.061017305538240e+00	 1.004091629283818e+01	 1.424000033958639e+00
 7.919595949301439e+00	 1.018233764907808e+01	 1.388477258818792e+00
 7.778174593063360e+00	 1.032375900531802e+01	 1.354343703879849e+00
 7.636753236823999e+00	 1.046518036155800e+01	 1.325111140402127e+00
 9.333809511640000e+00	 9.333809511640000e+00	 1.625627920555510e+00
 9.192388155409311e+00	 9.475230867879146e+00	 1.581837468105279e+00
 9.050966799177642e+00	 9.616652224118383e+00	 1.538732012148137e+00
 8.909545442944989e+00	 9.758073580357705e+00	 1.496303808187035e+00
 8.768124086711358e+00	 9.899494936597121e+00	 1.457183500812063e+00
 8.626702730476751e+00	 1.004091629283663e+01	 1.422970847873321e+00
 8.485281374241161e+00	 1.018233764907622e+01	 1.389690371872913e+00
 8.343860018004589e+00	 1.032375900531590e+01	 1.357359036619755e+00
 8.202438661767040e+00	 1.046518036155568e+01	 1.328728884575700e+00
 8.061017305528512e+00	 1.060660171779555e+01	 1.301899236125556e+00
 7.919595949289000e+00	 1.074802307403550e+01	 1.276430506496019e+00
 9.616652224120001e+00	 9.616652224120001e+00	 1.541789858992843e+00
 9.475230867886841e+00	 9.758073580358481e+00	 1.505697634737243e+00
 9.333809511652962e+00	 9.899494936597121e+00	 1.469914093131069e+00
 9.192388155418360e+00	 1.004091629283592e+01	 1.434431489939439e+00
 9.050966799183040e+00	 1.018233764907488e+01	 1.399242080707560e+00
 8.909545442946998e+00	 1.032375900531400e+01	 1.364338120760701e+00
 8.768124086710239e+00	 1.046518036155328e+01	 1.334113626071945e+00
 8.626702730472759e+00	 1.060660171779272e+01	 1.308921179616455e+00
 8.485281374234560e+00	 1.074802307403232e+01	 1.284696524233841e+00
 8.343860017995642e+00	 1.088944443027208e+01	 1.261437023098563e+00
 8.202438661756000e+00	 1.103086578651200e+01	 1.239140039385084e+00
 9.899494936600000e+00	 9.899494936600000e+00	 1.469312919010387e+00
 9.758073580364751e+00	 1.004091629283763e+01	 1.440903303047991e+00
 9.616652224129000e+00	 1.018233764907550e+01	 1.412426056149214e+00
 9.475230867892751e+00	 1.032375900531363e+01	 1.383873434341350e+00
 9.333809511655998e+00	 1.046518036155200e+01	 1.356326350955093e+00
 9.192388155418751e+00	 1.060660171779063e+01	 1.329234487024767e+00
 9.050966799181001e+00	 1.074802307402950e+01	 1.302445343892572e+00
 8.909545442942751e+00	 1.088944443026862e+01	 1.275964035837998e+00
 8.768124086704001e+00	 1.103086578650800e+01	 1.252143681937174e+00
 8.626702730464752e+00	 1.117228714274763e+01	 1.232431905017356e+00
 8.485281374225000e+00	 1.131370849898750e+01	 1.213284244120504e+00
 1.018233764908000e+01	 1.018233764908000e+01	 1.407976615474947e+00
 1.004091629284304e+01	 1.032375900531658e+01	 1.387233986855965e+00
 9.899494936605759e+00	 1.046518036155352e+01	 1.366449380655277e+00
 9.758073580368162e+00	 1.060660171779082e+01	 1.345591334856499e+00
 9.616652224130240e+00	 1.074802307402848e+01	 1.324620225812029e+00
 9.475230867892000e+00	 1.088944443026650e+01	 1.303541167675907e+00
 9.333809511653440e+00	 1.103086578650488e+01	 1.282359274621134e+00
 9.192388155414561e+00	 1.117228714274362e+01	 1.261079660839673e+00
 9.050966799175361e+00	 1.131370849898272e+01	 1.239707440542442e+00
 8.909545442935840e+00	 1.145512985522218e+01	 1.218247727959317e+00
 8.768124086695998e+00	 1.159655121146200e+01	 1.198907625753462e+00
 1.046518036156000e+01	 1.046518036156000e+01	 1.357404993057786e+00
 1.032375900532171e+01	 1.060660171779534e+01	 1.344390676991946e+00
 1.018233764908324e+01	 1.074802307403118e+01	 1.330847514153886e+00
 1.004091629284459e+01	 1.088944443026750e+01	 1.316780618572199e+00
 9.899494936605761e+00	 1.103086578650432e+01	 1.302195104294438e+00
 9.758073580366750e+00	 1.117228714274162e+01	 1.287096085387110e+00
 9.616652224127558e+00	 1.131370849897942e+01	 1.271488675935686e+00
 9.475230867888190e+00	 1.145512985521771e+01	 1.255377990044598e+00
 9.333809511648639e+00	 1.159655121145648e+01	 1.238769141837231e+00
 9.192388155408912e+00	 1.173797256769575e+01	 1.221667245455936e+00
 9.050966799169000e+00	 1.187939392393550e+01	 1.204077415062018e+00
 1.074802307404000e+01	 1.074802307404000e+01	 1.316546636698459e+00
 1.060660171780076e+01	 1.088944443027392e+01	 1.311101814907540e+00
 1.046518036156144e+01	 1.103086578650848e+01	 1.304722591160395e+00
 1.032375900532204e+01	 1.117228714274368e+01	 1.297414079398088e+00
 1.018233764908256e+01	 1.131370849897952e+01	 1.289181393580646e+00
 1.004091629284300e+01	 1.145512985521600e+01	 1.280029647687051e+00
 9.899494936603359e+00	 1.159655121145312e+01	 1.269963955715249e+00
 9.758073580363639e+00	 1.173797256769088e+01	 1.258989431682140e+00
 9.616652224123838e+00	 1.187939392392928e+01	 1.247111189623590e+00
 9.475230867883960e+00	 1.202081528016832e+01	 1.234334343594418e+00
 9.333809511644001e+00	 1.216223663640800e+01	 1.220664007668407e+00
 1.103086578652000e+01	 1.103086578652000e+01	 1.285361160195450e+00
 1.088944443028019e+01	 1.117228714275230e+01	 1.287453066449436e+00
 1.074802307404036e+01	 1.131370849898542e+01	 1.288205015654499e+00
 1.060660171780051e+01	 1.145512985521935e+01	 1.287622121664184e+00
 1.046518036156064e+01	 1.159655121145408e+01	 1.285709498350994e+00
 1.032375900532075e+01	 1.173797256768963e+01	 1.282472259606392e+00
 1.018233764908084e+01	 1.187939392392598e+01	 1.277915519340801e+00
 1.004091629284091e+01	 1.202081528016314e+01	 1.272044391483602e+00
 9.899494936600959e+00	 1.216223663640112e+01	 1.264863989983138e+00
 9.758073580360989e+00	 1.230365799263990e+01	 1.256379428806706e+00
 9.616652224120999e+00	 1.244507934887950e+01	 1.246595821940567e+00
 1.131370849900000e+01	 1.131370849900000e+01	 1.263978964330004e+00
 1.117228714276000e+01	 1.145512985523050e+01	 1.273574832749181e+00
 1.103086578652000e+01	 1.159655121146200e+01	 1.281425189118047e+00
 1.088944443028000e+01	 1.173797256769450e+01	 1.287535147202628e+00
 1.074802307404000e+01	 1.187939392392800e+01	 1.291909820787915e+00
 1.060660171780000e+01	 1.202081528016250e+01	 1.294554323677856e+00
 1.046518036156000e+01	 1.216223663639800e+01	 1.295473769695360e+00
 1.032375900532000e+01	 1.230365799263450e+01	 1.294673272682290e+00
 1.018233764908000e+01	 1.244507934887200e+01	 1.292157946499472e+00
 1.004091629284000e+01	 1.258650070511050e+01	 1.287932905026691e+00
 9.899494936600000e+00	 1.272792206135000e+01	 1.282003262162688e+00
 1.131370849900000e+01	 1.131370849900000e+01	 1.263978964330004e+00
 1.117228714276000e+01	 1.145512985523050e+01	 1.273574832749181e+00
 1.103086578652000e+01	 1.159655121146200e+01	 1.281425189118047e+00
 1.088944443028000e+01	 1.173797256769450e+01	 1.287535147202628e+00
 1.074802307404000e+01	 1.187939392392800e+01	 1.291909820787915e+00
 1.060660171780000e+01	 1.202081528016250e+01	 1.294554323677856e+00
 1.046518036156000e+01	 1.216223663639800e+01	 1.295473769695360e+00
 1.032375900532000e+01	 1.230365799263450e+01	 1.294673272682290e+00
 1.018233764908000e+01	 1.244507934887200e+01	 1.292157946499472e+00
 1.004091629284000e+01	 1.258650070511050e+01	 1.287932905026691e+00
 9.899494936600000e+00	 1.272792206135000e+01	 1.282003262162688e+00
 1.159655121147900e+01	 1.159655121147900e+01	 1.265321739496105e+00
 1.145512985523901e+01	 1.173797256770788e+01	 1.271470874529988e+00
 1.131370849899904e+01	 1.187939392393794e+01	 1.276100136944528e+00
 1.117228714275909e+01	 1.202081528016917e+01	 1.279214640418268e+00
 1.103086578651916e+01	 1.216223663640156e+01	 1.280819498648706e+00
 1.088944443027925e+01	 1.230365799263513e+01	 1.280919825352302e+00
 1.074802307403936e+01	 1.244507934886986e+01	 1.279520734264470e+00
 1.060660171779949e+01	 1.258650070510577e+01	 1.276627339139580e+00
 1.046518036155964e+01	 1.272792206134284e+01	 1.272244753750963e+00
 1.032375900531981e+01	 1.286934341758108e+01	 1.266378091890906e+00
 1.018233764908000e+01	 1.301076477382050e+01	 1.259032467370650e+00
 1.187939392395600e+01	 1.187939392395600e+01	 1.263724642040323e+00
 1.173797256771604e+01	 1.202081528018384e+01	 1.266867003391160e+00
 1.159655121147616e+01	 1.216223663641296e+01	 1.268715131645015e+00
 1.145512985523636e+01	 1.230365799264336e+01	 1.269274140392936e+00
 1.131370849899664e+01	 1.244507934887504e+01	 1.268549143244930e+00
 1.117228714275700e+01	 1.258650070510800e+01	 1.266545253829958e+00
 1.103086578651744e+01	 1.272792206134224e+01	 1.263267585795942e+00
 1.088944443027796e+01	 1.286934341757776e+01	 1.258721252809753e+00
 1.074802307403856e+01	 1.301076477381456e+01	 1.252911368557221e+00
 1.060660171779924e+01	 1.315218613005264e+01	 1.245843046743132e+00
 1.046518036156000e+01	 1.329360748629200e+01	 1.237521401091225e+00
 1.216223663643100e+01	 1.216223663643100e+01	 1.259318065250454e+00
 1.202081528019109e+01	 1.230365799265837e+01	 1.259893612970775e+00
 1.187939392395136e+01	 1.244507934888706e+01	 1.259400567207846e+00
 1.173797256771181e+01	 1.258650070511709e+01	 1.257844041465225e+00
 1.159655121147244e+01	 1.272792206134844e+01	 1.255229149265420e+00
 1.145512985523325e+01	 1.286934341758113e+01	 1.251561004149897e+00
 1.131370849899424e+01	 1.301076477381513e+01	 1.246844719679075e+00
 1.117228714275541e+01	 1.315218613005048e+01	 1.241085409432326e+00
 1.103086578651676e+01	 1.329360748628716e+01	 1.234288187007978e+00
 1.088944443027829e+01	 1.343502884252517e+01	 1.226458166023312e+00
 1.074802307404000e+01	 1.357645019876450e+01	 1.217600460114564e+00
 1.244507934890400e+01	 1.244507934890400e+01	 1.252232399916665e+00
 1.230365799266416e+01	 1.258650070513146e+01	 1.250681094409249e+00
 1.216223663642464e+01	 1.272792206136024e+01	 1.248286835123686e+00
 1.202081528018544e+01	 1.286934341759034e+01	 1.245054735476034e+00
 1.187939392394656e+01	 1.301076477382176e+01	 1.240989908901307e+00
 1.173797256770800e+01	 1.315218613005450e+01	 1.236097468853466e+00
 1.159655121146976e+01	 1.329360748628856e+01	 1.230382528805432e+00
 1.145512985523184e+01	 1.343502884252394e+01	 1.223850202249074e+00
 1.131370849899424e+01	 1.357645019876064e+01	 1.216505602695214e+00
 1.117228714275696e+01	 1.371787155499866e+01	 1.208353843673628e+00
 1.103086578652000e+01	 1.385929291123800e+01	 1.199400038733048e+00
 1.272792206137500e+01	 1.272792206137500e+01	 1.242598034331561e+00
 1.258650070513525e+01	 1.286934341760313e+01	 1.239359836349423e+00
 1.244507934889600e+01	 1.301076477383250e+01	 1.235504324385598e+00
 1.230365799265725e+01	 1.315218613006313e+01	 1.231036611768647e+00
 1.216223663641900e+01	 1.329360748629500e+01	 1.225961811846083e+00
 1.202081528018125e+01	 1.343502884252813e+01	 1.220285037984368e+00
 1.187939392394400e+01	 1.357645019876250e+01	 1.214011403568918e+00
 1.173797256770725e+01	 1.371787155499813e+01	 1.207146022004099e+00
 1.159655121147100e+01	 1.385929291123500e+01	 1.199694006713229e+00
 1.145512985523525e+01	 1.400071426747313e+01	 1.191660471138577e+00
 1.131370849900000e+01	 1.414213562371250e+01	 1.183050528741366e+00
 1.301076477384400e+01	 1.301076477384400e+01	 1.230545354290264e+00
 1.286934341760436e+01	 1.315218613007336e+01	 1.226060224936627e+00
 1.272792206136544e+01	 1.329360748630384e+01	 1.221183421489117e+00
 1.258650070512724e+01	 1.343502884253544e+01	 1.215920057188799e+00
 1.244507934888976e+01	 1.357645019876816e+01	 1.210275245295680e+00
 1.230365799265300e+01	 1.371787155500200e+01	 1.204254099088725e+00
 1.216223663641696e+01	 1.385929291123696e+01	 1.197861731865846e+00
 1.202081528018164e+01	 1.400071426747304e+01	 1.191103256943905e+00
 1.187939392394704e+01	 1.414213562371024e+01	 1.183983787658715e+00
 1.173797256771316e+01	 1.428355697994856e+01	 1.176508437365040e+00
 1.159655121148000e+01	 1.442497833618800e+01	 1.168682319436593e+00
 1.329360748631100e+01	 1.329360748631100e+01	 1.216204743090477e+00
 1.315218613007149e+01	 1.343502884254216e+01	 1.210912643818757e+00
 1.301076477383297e+01	 1.357645019877426e+01	 1.205454510432327e+00
 1.286934341759541e+01	 1.371787155500729e+01	 1.199835456084751e+00
 1.272792206135884e+01	 1.385929291124124e+01	 1.194060593948541e+00
 1.258650070512325e+01	 1.400071426747613e+01	 1.188135037215159e+00
 1.244507934888864e+01	 1.414213562371194e+01	 1.182063899095015e+00
 1.230365799265501e+01	 1.428355697994869e+01	 1.175852292817470e+00
 1.216223663642236e+01	 1.442497833618636e+01	 1.169505331630831e+00
 1.202081528019069e+01	 1.456639969242497e+01	 1.163028128802357e+00
 1.187939392396000e+01	 1.470782104866450e+01	 1.156425797618255e+00
 1.357645019877600e+01	 1.357645019877600e+01	 1.199706581532570e+00
 1.343502884253664e+01	 1.371787155500954e+01	 1.194047474146346e+00
 1.329360748629857e+01	 1.385929291124376e+01	 1.188447972715923e+00
 1.315218613006176e+01	 1.400071426747866e+01	 1.182913190307368e+00
 1.301076477382624e+01	 1.414213562371424e+01	 1.177448240005693e+00
 1.286934341759200e+01	 1.428355697995050e+01	 1.172058234914861e+00
 1.272792206135904e+01	 1.442497833618744e+01	 1.166748288157784e+00
 1.258650070512736e+01	 1.456639969242506e+01	 1.161523512876320e+00
 1.244507934889696e+01	 1.470782104866336e+01	 1.156389022231274e+00
 1.230365799266784e+01	 1.484924240490234e+01	 1.151349929402402e+00
 1.216223663644000e+01	 1.499066376114200e+01	 1.146411347588407e+00
 1.385929291123900e+01	 1.385929291123900e+01	 1.181181247919641e+00
 1.371787155499981e+01	 1.400071426747549e+01	 1.175595094572643e+00
 1.357645019876224e+01	 1.414213562371234e+01	 1.170294187343300e+00
 1.343502884252629e+01	 1.428355697994957e+01	 1.165283639210187e+00
 1.329360748629196e+01	 1.442497833618716e+01	 1.160568563170820e+00
 1.315218613005925e+01	 1.456639969242513e+01	 1.156154072241668e+00
 1.301076477382816e+01	 1.470782104866346e+01	 1.152045279458141e+00
 1.286934341759869e+01	 1.484924240490217e+01	 1.148247297874601e+00
 1.272792206137084e+01	 1.499066376114124e+01	 1.144765240564352e+00
 1.258650070514461e+01	 1.513208511738069e+01	 1.141604220619653e+00
 1.244507934892000e+01	 1.527350647362050e+01	 1.138769351151704e+00
 1.414213562370000e+01	 1.414213562370000e+01	 1.160759118057596e+00
 1.400071426746100e+01	 1.428355697994000e+01	 1.155685881253674e+00
 1.385929291122400e+01	 1.442497833618000e+01	 1.151123530820613e+00
 1.371787155498900e+01	 1.456639969242000e+01	 1.147077179649493e+00
 1.357645019875600e+01	 1.470782104866000e+01	 1.143551940650341e+00
 1.343502884252500e+01	 1.484924240490000e+01	 1.140552926752129e+00
 1.329360748629600e+01	 1.499066376114000e+01	 1.138085250902777e+00
 1.315218613006900e+01	 1.513208511738000e+01	 1.136154026069152e+00
 1.301076477384400e+01	 1.527350647362000e+01	 1.134764365237064e+00
 1.286934341762100e+01	 1.541492782986000e+01	 1.133921381411269e+00
 1.272792206140000e+01	 1.555634918610000e+01	 1.133630187615474e+00
-1.414213562400000e+00	 1.414213562400000e+00	 2.721774659441317e-01
-2.050609665460500e+00	 2.050609665460500e+00	 3.917050404857421e-01
-2.687005768522000e+00	 2.687005768522000e+00	 4.999066824632866e-01
-3.323401871584501e+00	 3.323401871584501e+00	 5.994773154883458e-01
-3.959797974648001e+00	 3.959797974648001e+00	 6.680779111883828e-01
-4.596194077712500e+00	 4.596194077712500e+00	 7.243717917318525e-01
-5.232590180777999e+00	 5.232590180777999e+00	 7.733155047462870e-01
-5.868986283844499e+00	 5.868986283844499e+00	 8.142410274855704e-01
-6.505382386912000e+00	 6.505382386912000e+00	 8.464803243270635e-01
-7.141778489980499e+00	 7.141778489980499e+00	 8.693653467724208e-01
-7.778174593050000e+00	 7.778174593050000e+00	 8.822280334484387e-01
-1.131370849920500e+00	 1.697056274861000e+00	 2.584836807876818e-01
-1.767766952981001e+00	 2.333452377925015e+00	 3.799190213507915e-01
-2.404163056042499e+00	 2.969848480989659e+00	 4.893950511330598e-01
-3.040559159105000e+00	 3.606244584054935e+00	 5.810471227475755e-01
-3.676955262168499e+00	 4.242640687120839e+00	 6.489527023873841e-01
-4.313351365233000e+00	 4.879036790187375e+00	 7.091906763989122e-01
-4.949747468298500e+00	 5.515432893254540e+00	 7.610930025361109e-01
-5.586143571365001e+00	 6.151828996322335e+00	 8.039916399489681e-01
-6.222539674432501e+00	 6.788225099390761e+00	 8.372185349098096e-01
-6.858935777500999e+00	 7.424621202459815e+00	 8.601056208141391e-01
-7.495331880570501e+00	 8.061017305529502e+00	 8.719848181814598e-01
-8.485281374420000e-01	 1.979898987324000e+00	 2.452940461782381e-01
-1.484924240502500e+00	 2.616295090390960e+00	 3.687556789090650e-01
-2.121320343564000e+00	 3.252691193458240e+00	 4.796246226422702e-01
-2.757716446626501e+00	 3.889087296525840e+00	 5.581759003484874e-01
-3.394112549690000e+00	 4.525483399593760e+00	 6.279004645383199e-01
-4.030508652754500e+00	 5.161879502662001e+00	 6.922450584221131e-01
-4.666904755819999e+00	 5.798275605730560e+00	 7.472685195706228e-01
-5.303300858886500e+00	 6.434671708799439e+00	 7.923027890293709e-01
-5.939696961953999e+00	 7.071067811868639e+00	 8.266797949650874e-01
-6.576093065022500e+00	 7.707463914938160e+00	 8.497314526665452e-01
-7.212489168092000e+00	 8.343860018007998e+00	 8.607896645453967e-01
-5.656854249644998e-01	 2.262741699789000e+00	 2.326085621158279e-01
-1.202081528025000e+00	 2.899137802858335e+00	 3.582150131606031e-01
-1.838477631086500e+00	 3.535533905927741e+00	 4.663482732695685e-01
-2.474873734149000e+00	 4.171930008997216e+00	 5.375812256368288e-01
-3.111269837212500e+00	 4.808326112066760e+00	 6.051298677037504e-01
-3.747665940277000e+00	 5.444722215136376e+00	 6.737436114406937e-01
-4.384062043342499e+00	 6.081118318206058e+00	 7.320507330657220e-01
-5.020458146409000e+00	 6.717514421275816e+00	 7.793831555193256e-01
-5.656854249476497e+00	 7.353910524345638e+00	 8.150727888620688e-01
-6.293250352545000e+00	 7.990306627415535e+00	 8.384515302754318e-01
-6.929646455614502e+00	 8.626702730485501e+00	 8.488512640626440e-01
-2.828427124880000e-01	 2.545584412256000e+00	 2.204272286004833e-01
-9.192388155484998e-01	 3.181980515327140e+00	 3.482970241054541e-01
-1.555634918610000e+00	 3.818376618398160e+00	 4.444486218797550e-01
-2.192031021672500e+00	 4.454772721469061e+00	 5.180251649722941e-01
-2.828427124736000e+00	 5.091168824539840e+00	 5.837018287907972e-01
-3.464823227800500e+00	 5.727564927610501e+00	 6.538950149494656e-01
-4.101219330866000e+00	 6.363961030681041e+00	 7.156483260931068e-01
-4.737615433932501e+00	 7.000357133751461e+00	 7.654414260673975e-01
-5.374011536999999e+00	 7.636753236821758e+00	 8.026062068261726e-01
-6.010407640068497e+00	 8.273149339891937e+00	 8.264745474430517e-01
-6.646803743138000e+00	 8.909545442962001e+00	 8.363783141122698e-01
-1.250000103425464e-11	 2.828427124725000e+00	 2.087500456322356e-01
-6.363961030729999e-01	 3.464823227797375e+00	 3.381516548561086e-01
-1.272792206134501e+00	 4.101219330869501e+00	 4.235355642787335e-01
-1.909188309197000e+00	 4.737615433941377e+00	 4.995182602112060e-01
-2.545584412260501e+00	 5.374011537013001e+00	 5.669499574099480e-01
-3.181980515325000e+00	 6.010407640084375e+00	 6.329079542990842e-01
-3.818376618390500e+00	 6.646803743155499e+00	 6.982699875805272e-01
-4.454772721457000e+00	 7.283199846226375e+00	 7.506862931784214e-01
-5.091168824524500e+00	 7.919595949296999e+00	 7.894887449393015e-01
-5.727564927592998e+00	 8.555992052367374e+00	 8.140092038283573e-01
-6.363961030662500e+00	 9.192388155437500e+00	 8.235795179302718e-01
 2.828427124619999e-01	 3.111269837196000e+00	 1.975770132111191e-01
-3.535533905984999e-01	 3.747665940269040e+00	 3.151158844889634e-01
-9.899494936600001e-01	 4.384062043341760e+00	 4.036196392448641e-01
-1.626345596722500e+00	 5.020458146414160e+00	 4.820710539668853e-01
-2.262741699786000e+00	 5.656854249486241e+00	 5.513203479324028e-01
-2.899137802850500e+00	 6.293250352557999e+00	 6.122177989142998e-01
-3.535533905915999e+00	 6.929646455629439e+00	 6.801244123120398e-01
-4.171930008982499e+00	 7.566042558700560e+00	 7.353264552137566e-01
-4.808326112050000e+00	 8.202438661771357e+00	 7.759291051401003e-01
-5.444722215118499e+00	 8.838834764841840e+00	 8.012642049472689e-01
-6.081118318188001e+00	 9.475230867912002e+00	 8.106635846098208e-01
 5.656854249354999e-01	 3.394112549669000e+00	 1.869081313371666e-01
-7.071067812500015e-02	 4.030508652742135e+00	 2.930252234369931e-01
-7.071067811865002e-01	 4.666904755814940e+00	 3.847113910059659e-01
-1.343502884249000e+00	 5.303300858887416e+00	 4.656940896096912e-01
-1.979898987312500e+00	 5.939696961959560e+00	 5.368235428709608e-01
-2.616295090377000e+00	 6.576093065031375e+00	 5.989500329088956e-01
-3.252691193442500e+00	 7.212489168102860e+00	 6.614203009282529e-01
-3.889087296509000e+00	 7.848885271174014e+00	 7.195706163915294e-01
-4.525483399576499e+00	 8.485281374244840e+00	 7.621359952242053e-01
-5.161879502644999e+00	 9.121677477315334e+00	 7.884482621729115e-01
-5.798275605714499e+00	 9.758073580385501e+00	 7.978392291015169e-01
 8.485281374079998e-01	 3.676955262144000e+00	 1.647543002504300e-01
 2.121320343474997e-01	 4.313351365216659e+00	 2.718902173670308e-01
-4.242640687140002e-01	 4.949747468289040e+00	 3.668213645469487e-01
-1.060660171776500e+00	 5.586143571361140e+00	 4.503979112670767e-01
-1.697056274840000e+00	 6.222539674432960e+00	 5.234700854955040e-01
-2.333452377904500e+00	 6.858935777504501e+00	 5.868881736974895e-01
-2.969848480970000e+00	 7.495331880575758e+00	 6.423663599265770e-01
-3.606244584036499e+00	 8.131727983646739e+00	 7.036274867868948e-01
-4.242640687103999e+00	 8.768124086717439e+00	 7.483181288444922e-01
-4.879036790172498e+00	 9.404520189787860e+00	 7.757700927358709e-01
-5.515432893242000e+00	 1.004091629285800e+01	 7.853151722136442e-01
 1.131370849879500e+00	 3.959797974621000e+00	 1.406268118082269e-01
 4.949747468189998e-01	 4.596194077692615e+00	 2.517214128784833e-01
-1.414213562425004e-01	 5.232590180764060e+00	 3.499601056098630e-01
-7.778174593050006e-01	 5.868986283835336e+00	 4.361930638236229e-01
-1.414213562368501e+00	 6.505382386906441e+00	 5.112705198330459e-01
-2.050609665433000e+00	 7.141778489977375e+00	 5.760427644494174e-01
-2.687005768498500e+00	 7.778174593048141e+00	 6.313601469880019e-01
-3.323401871565000e+00	 8.414570696118734e+00	 6.877057823322781e-01
-3.959797974632499e+00	 9.050966799189158e+00	 7.346842255113304e-01
-4.596194077701000e+00	 9.687362902259414e+00	 7.634384197244448e-01
-5.232590180770501e+00	 1.032375900532950e+01	 7.733001406124079e-01
 1.414213562350000e+00	 4.242640687100000e+00	 1.174135046576046e-01
 7.778174592895003e-01	 4.879036790170000e+00	 2.325293573279513e-01
 1.414213562280000e-01	 5.515432893240000e+00	 3.341381606939473e-01
-4.949747468345002e-01	 6.151828996310000e+00	 4.230900929211008e-01
-1.131370849898000e+00	 6.788225099380000e+00	 5.002353906677793e-01
-1.767766952962500e+00	 7.424621202449999e+00	 5.664243490911889e-01
-2.404163056028000e+00	 8.061017305520000e+00	 6.225073218533503e-01
-3.040559159094500e+00	 8.697413408590000e+00	 6.720142248176284e-01
-3.676955262162000e+00	 9.333809511660000e+00	 7.214430105928323e-01
-4.313351365230499e+00	 9.970205614729998e+00	 7.516619720848914e-01
-4.949747468300000e+00	 1.060660171780000e+01	 7.572500765648360e-01
-7.778174593050000e+00	 7.778174593050000e+00	 8.822280334484387e-01
-8.414570696119501e+00	 8.414570696119501e+00	 9.109058873599015e-01
-9.050966799188002e+00	 9.050966799188002e+00	 9.346381557746074e-01
-9.687362902255503e+00	 9.687362902255503e+00	 9.533259266942308e-01
-1.032375900532200e+01	 1.032375900532200e+01	 9.801424954048024e-01
-1.096015510838750e+01	 1.096015510838750e+01	 9.692320211349725e-01
-1.159655121145200e+01	 1.159655121145200e+01	 9.640801909743443e-01
-1.223294731451550e+01	 1.223294731451550e+01	 9.667351988366325e-01
-1.286934341757800e+01	 1.286934341757800e+01	 9.777525615431336e-01
-1.350573952063951e+01	 1.350573952063951e+01	 9.976877769537746e-01
-1.414213562370000e+01	 1.414213562370000e+01	 1.027096323968109e+00
-7.495331880570501e+00	 8.061017305529502e+00	 8.719848181814598e-01
-8.131727983640186e+00	 8.697413408599004e+00	 9.042849819661121e-01
-8.768124086709243e+00	 9.333809511667521e+00	 9.377352714552423e-01
-9.404520189777667e+00	 9.970205614735045e+00	 9.586355417725766e-01
-1.004091629284546e+01	 1.060660171780158e+01	 9.678788721610054e-01
-1.067731239591262e+01	 1.124299782086713e+01	 9.576397475885617e-01
-1.131370849897916e+01	 1.187939392393168e+01	 9.544297395547725e-01
-1.195010460204507e+01	 1.251579002699525e+01	 9.588043890388440e-01
-1.258650070511034e+01	 1.315218613005782e+01	 9.713192180572721e-01
-1.322289680817499e+01	 1.378858223311941e+01	 9.925297296648492e-01
-1.385929291123900e+01	 1.442497833618000e+01	 1.022991407955666e+00
-7.212489168092000e+00	 8.343860018007998e+00	 8.607896645453967e-01
-7.848885271161841e+00	 8.980256121077520e+00	 8.965931375867446e-01
-8.485281374231361e+00	 9.616652224146081e+00	 9.330783565389361e-01
-9.121677477300562e+00	 1.025304832721368e+01	 9.629757550353333e-01
-9.758073580369443e+00	 1.088944443028032e+01	 9.544914715058668e-01
-1.039446968343800e+01	 1.152584053334600e+01	 9.462168035803420e-01
-1.103086578650624e+01	 1.216223663641073e+01	 9.447490662020254e-01
-1.166726188957416e+01	 1.279863273947448e+01	 9.506438055457129e-01
-1.230365799264176e+01	 1.343502884253728e+01	 9.644565488231615e-01
-1.294005409570905e+01	 1.407142494559912e+01	 9.867428042840958e-01
-1.357645019877600e+01	 1.470782104866000e+01	 1.018058061217209e+00
-6.929646455614502e+00	 8.626702730485501e+00	 8.488512640626440e-01
-7.566042558684464e+00	 9.263098833555045e+00	 8.880390493207710e-01
-8.202438661754361e+00	 9.899494936623682e+00	 9.274401961770375e-01
-8.838834764824188e+00	 1.053589103969141e+01	 9.540747154805049e-01
-9.475230867893943e+00	 1.117228714275822e+01	 9.415357780650384e-01
-1.011162697096363e+01	 1.180868324582413e+01	 9.350260145796548e-01
-1.074802307403325e+01	 1.244507934888912e+01	 9.351009953591791e-01
-1.138441917710279e+01	 1.308147545195321e+01	 9.423162717740641e-01
-1.202081528017226e+01	 1.371787155501639e+01	 9.572273762313960e-01
-1.265721138324167e+01	 1.435426765807865e+01	 9.803898221758953e-01
-1.329360748631100e+01	 1.499066376114000e+01	 1.012359104090925e+00
-6.646803743138000e+00	 8.909545442962001e+00	 8.363783141122698e-01
-7.283199846208062e+00	 9.545941546031582e+00	 8.788314181240623e-01
-7.919595949278242e+00	 1.018233764910032e+01	 9.210294949021967e-01
-8.555992052348541e+00	 1.081873375216822e+01	 9.343371500466546e-01
-9.192388155418964e+00	 1.145512985523528e+01	 9.290746194187758e-01
-9.828784258489504e+00	 1.209152595830150e+01	 9.241302071404351e-01
-1.046518036156017e+01	 1.272792206136688e+01	 9.255483525538708e-01
-1.110157646463094e+01	 1.336431816443143e+01	 9.338846122252555e-01
-1.173797256770184e+01	 1.400071426749513e+01	 9.496945237570676e-01
-1.237436867077287e+01	 1.463711037055799e+01	 9.735336057890926e-01
-1.301076477384400e+01	 1.527350647362000e+01	 1.005957357999429e+00
-6.363961030662500e+00	 9.192388155437500e+00	 8.235795179302718e-01
-7.000357133732626e+00	 9.828784258507126e+00	 8.691789508096309e-01
-7.636753236802999e+00	 1.046518036157600e+01	 9.078662098031092e-01
-8.273149339873628e+00	 1.110157646464413e+01	 9.155539957842629e-01
-8.909545442944502e+00	 1.173797256771150e+01	 9.171708242319956e-01
-9.545941546015630e+00	 1.237436867077813e+01	 9.135922089012517e-01
-1.018233764908700e+01	 1.301076477384400e+01	 9.161539643983323e-01
-1.081873375215863e+01	 1.364716087690913e+01	 9.254116524852021e-01
-1.145512985523050e+01	 1.428355697997350e+01	 9.419208159597950e-01
-1.209152595830263e+01	 1.491995308303713e+01	 9.662369786570268e-01
-1.272792206137500e+01	 1.555634918610000e+01	 9.989156454497962e-01
-6.081118318188001e+00	 9.475230867912002e+00	 8.106635846098208e-01
-6.717514421258160e+00	 1.011162697098168e+01	 8.592903600478896e-01
-7.353910524328642e+00	 1.074802307405072e+01	 8.875154994140229e-01
-7.990306627399441e+00	 1.138441917711912e+01	 8.981447512357510e-01
-8.626702730470564e+00	 1.202081528018688e+01	 9.035178407588629e-01
-9.263098833542003e+00	 1.265721138325400e+01	 9.034748485853252e-01
-9.899494936613765e+00	 1.329360748632048e+01	 9.069806585894212e-01
-1.053589103968585e+01	 1.393000358938633e+01	 9.169602192244086e-01
-1.117228714275824e+01	 1.456639969245152e+01	 9.339690784837501e-01
-1.180868324583096e+01	 1.520279579551609e+01	 9.585627653975550e-01
-1.244507934890400e+01	 1.583919189858000e+01	 9.912967900335889e-01
-5.798275605714499e+00	 9.758073580385501e+00	 7.978392291015169e-01
-6.434671708784665e+00	 1.039446968345524e+01	 8.474897922535336e-01
-7.071067811855160e+00	 1.103086578652448e+01	 8.689786708135784e-01
-7.707463914925988e+00	 1.166726188959321e+01	 8.822071048455493e-01
-8.343860017997143e+00	 1.230365799266142e+01	 8.898983628228720e-01
-8.980256121068628e+00	 1.294005409572913e+01	 8.938409560005650e-01
-9.616652224140443e+00	 1.357645019879633e+01	 8.980912639086446e-01
-1.025304832721259e+01	 1.421284630186301e+01	 9.085931401980032e-01
-1.088944443028506e+01	 1.484924240492919e+01	 9.259021380576941e-01
-1.152584053335787e+01	 1.548563850799485e+01	 9.505737917130883e-01
-1.216223663643100e+01	 1.612203461106000e+01	 9.831636164268875e-01
-5.515432893242000e+00	 1.004091629285800e+01	 7.853151722136442e-01
-6.151828996312139e+00	 1.067731239592782e+01	 8.283266215502023e-01
-6.788225099382562e+00	 1.131370849899728e+01	 8.523534124462102e-01
-7.424621202453262e+00	 1.195010460206638e+01	 8.678387450580977e-01
-8.061017305524244e+00	 1.258650070513512e+01	 8.775058878593054e-01
-8.697413408595503e+00	 1.322289680820350e+01	 8.840781093232885e-01
-9.333809511667043e+00	 1.385929291127152e+01	 8.895486102221931e-01
-9.970205614738862e+00	 1.449568901433918e+01	 9.003732442457562e-01
-1.060660171781097e+01	 1.513208511740648e+01	 9.177828224949977e-01
-1.124299782088335e+01	 1.576848122047343e+01	 9.423328843906192e-01
-1.187939392395600e+01	 1.640487732354000e+01	 9.745789503903163e-01
-5.232590180770501e+00	 1.032375900532950e+01	 7.733001406124079e-01
-5.868986283840586e+00	 1.096015510839941e+01	 8.115149931547055e-01
-6.505382386910839e+00	 1.159655121146912e+01	 8.377374127563512e-01
-7.141778489981268e+00	 1.223294731453865e+01	 8.551373603178291e-01
-7.778174593051863e+00	 1.286934341760798e+01	 8.664381043125980e-01
-8.414570696122627e+00	 1.350573952067713e+01	 8.743629132141290e-01
-9.050966799193565e+00	 1.414213562374609e+01	 8.814155284809650e-01
-9.687362902264669e+00	 1.477853172681485e+01	 8.923633612921189e-01
-1.032375900533594e+01	 1.541492782988342e+01	 9.096739606936799e-01
-1.096015510840739e+01	 1.605132393295181e+01	 9.339028713017458e-01
-1.159655121147900e+01	 1.668772003602000e+01	 9.656056187690791e-01
-4.949747468300000e+00	 1.060660171780000e+01	 7.572500765648360e-01
-5.586143571370002e+00	 1.124299782087000e+01	 7.971525955114691e-01
-6.222539674440002e+00	 1.187939392394000e+01	 8.252283601884310e-01
-6.858935777510002e+00	 1.251579002701000e+01	 8.442006390691784e-01
-7.495331880580002e+00	 1.315218613008000e+01	 8.567927006271872e-01
-8.131727983650002e+00	 1.378858223315000e+01	 8.657278133359421e-01
-8.768124086720004e+00	 1.442497833622001e+01	 8.737292456689438e-01
-9.404520189790006e+00	 1.506137443929001e+01	 8.846263223462443e-01
-1.004091629286000e+01	 1.569777054236000e+01	 9.016383826364255e-01
-1.067731239593000e+01	 1.633416664543001e+01	 9.253465814027056e-01
-1.131370849900000e+01	 1.697056274850000e+01	 9.563064494929809e-01
 1.414213562350000e+00	 4.242640687100000e+00	 1.174135046576046e-01
 7.778174592895003e-01	 4.879036790170000e+00	 2.325293573279513e-01
 1.414213562280000e-01	 5.515432893240000e+00	 3.341381606939473e-01
-4.949747468345002e-01	 6.151828996310000e+00	 4.230900929211008e-01
-1.131370849898000e+00	 6.788225099380000e+00	 5.002353906677793e-01
-1.767766952962500e+00	 7.424621202449999e+00	 5.664243490911889e-01
-2.404163056028000e+00	 8.061017305520000e+00	 6.225073218533503e-01
-3.040559159094500e+00	 8.697413408590000e+00	 6.720142248176284e-01
-3.676955262162000e+00	 9.333809511660000e+00	 7.214430105928323e-01
-4.313351365230499e+00	 9.970205614729998e+00	 7.516619720848914e-01
-4.949747468300000e+00	 1.060660171780000e+01	 7.572500765648360e-01
 1.697056274820500e+00	 4.525483399580001e+00	 1.036258572390555e-01
 1.060660171760001e+00	 5.161879502648195e+00	 2.167110964782356e-01
 4.242640686985003e-01	 5.798275605716580e+00	 3.165533875794011e-01
-2.121320343639998e-01	 6.434671708785156e+00	 4.040029130523436e-01
-8.485281374274997e-01	 7.071067811853919e+00	 4.799099139005391e-01
-1.484924240492000e+00	 7.707463914922875e+00	 5.451246896271160e-01
-2.121320343557500e+00	 8.343860017992018e+00	 6.004975982408418e-01
-2.757716446623999e+00	 8.980256121061354e+00	 6.468790562620956e-01
-3.394112549691499e+00	 9.616652224130881e+00	 6.940155416935103e-01
-4.030508652759998e+00	 1.025304832720060e+01	 7.270693367443675e-01
-4.666904755829500e+00	 1.088944443027050e+01	 7.321851454800540e-01
 1.979898987292001e+00	 4.808326112060000e+00	 9.280683553317651e-02
 1.343502884231501e+00	 5.444722215126582e+00	 2.037696054897901e-01
 7.071067811700008e-01	 6.081118318193520e+00	 3.017535259112646e-01
 7.071067810750033e-02	 6.717514421260820e+00	 3.876087836515733e-01
-5.656854249559994e-01	 7.353910524328480e+00	 4.621856240591865e-01
-1.202081528020500e+00	 7.990306627396500e+00	 5.263343509830516e-01
-1.838477631085999e+00	 8.626702730464881e+00	 5.809053267785682e-01
-2.474873734152499e+00	 9.263098833533622e+00	 6.267489723135705e-01
-3.111269837219999e+00	 9.899494936602720e+00	 6.681962009754154e-01
-3.747665940288499e+00	 1.053589103967218e+01	 7.040881391809657e-01
-4.384062043358000e+00	 1.117228714274200e+01	 7.105962335567455e-01
 2.262741699764501e+00	 5.091168824540001e+00	 8.496699002578426e-02
 1.626345596704000e+00	 5.727564927605155e+00	 1.937154339911419e-01
 9.899494936425006e-01	 6.363961030670821e+00	 2.897491244606778e-01
 3.535533905800006e-01	 7.000357133736997e+00	 3.739182526324323e-01
-2.828427124834993e-01	 7.636753236803679e+00	 4.470730681997677e-01
-9.192388155479992e-01	 8.273149339870875e+00	 5.100638793573351e-01
-1.555634918613499e+00	 8.909545442938580e+00	 5.637410528070614e-01
-2.192031021679999e+00	 9.545941546006796e+00	 6.089550137641260e-01
-2.828427124747499e+00	 1.018233764907552e+01	 6.465562459629433e-01
-3.464823227815998e+00	 1.081873375214476e+01	 6.845666436209925e-01
-4.101219330885500e+00	 1.145512985521450e+01	 6.925810292393603e-01
 2.545584412238001e+00	 5.374011537020001e+00	 8.011687196006628e-02
 1.909188309177501e+00	 6.010407640083922e+00	 1.865591323681923e-01
 1.272792206116001e+00	 6.646803743148482e+00	 2.805507327561454e-01
 6.363961030535007e-01	 7.283199846213678e+00	 3.629418686659330e-01
-9.999320815801129e-12	 7.919595949279522e+00	 4.345827941356891e-01
-6.363961030744989e-01	 8.555992052346003e+00	 4.963238217056666e-01
-1.272792206139999e+00	 9.192388155413122e+00	 5.490153224242074e-01
-1.909188309206499e+00	 9.828784258480880e+00	 5.935077258537300e-01
-2.545584412273998e+00	 1.046518036154928e+01	 6.330728175847935e-01
-3.181980515342500e+00	 1.110157646461832e+01	 6.689317496065013e-01
-3.818376618411999e+00	 1.173797256768800e+01	 6.782372209723511e-01
 2.828427124712501e+00	 5.656854249500001e+00	 7.826703333664628e-02
 2.192031021652001e+00	 6.293250352562874e+00	 1.823112517642687e-01
 1.555634918590501e+00	 6.929646455626500e+00	 2.741689010836032e-01
 9.192388155280012e-01	 7.566042558690877e+00	 3.546901811804994e-01
 2.828427124645012e-01	 8.202438661756002e+00	 4.247253504377682e-01
-3.535533905999987e-01	 8.838834764821875e+00	 4.851247257411496e-01
-9.899494936654989e-01	 9.475230867888502e+00	 5.367386824852950e-01
-1.626345596731998e+00	 1.011162697095588e+01	 5.804176545797453e-01
-2.262741699799498e+00	 1.074802307402400e+01	 6.263618402799319e-01
-2.899137802867998e+00	 1.138441917709288e+01	 6.577792914554241e-01
-3.535533905937498e+00	 1.202081528016250e+01	 6.676624972001727e-01
 3.111269837188002e+00	 5.939696961980002e+00	 7.335471375701377e-02
 2.474873734127502e+00	 6.576093065042023e+00	 1.809823440801709e-01
 1.838477631066001e+00	 7.212489168104880e+00	 2.706141804864388e-01
 1.202081528003501e+00	 7.848885271168581e+00	 3.491737403620206e-01
 5.656854249400015e-01	 8.485281374233120e+00	 4.175112864342820e-01
-7.071067812449847e-02	 9.121677477298503e+00	 4.764771399343449e-01
-7.071067811899986e-01	 9.758073580364723e+00	 5.269216806030596e-01
-1.343502884256498e+00	 1.039446968343178e+01	 5.715567938543646e-01
-1.979898987323998e+00	 1.103086578649968e+01	 6.235409321714973e-01
-2.616295090392498e+00	 1.166726188956842e+01	 6.534829466310159e-01
-3.252691193461998e+00	 1.230365799263800e+01	 6.609545463672809e-01
 3.394112549664502e+00	 6.222539674460002e+00	 6.704975358380313e-02
 2.757716446604002e+00	 6.858935777521356e+00	 1.825829619742082e-01
 2.121320343542501e+00	 7.495331880583621e+00	 2.698971227655661e-01
 1.484924240480001e+00	 8.131727983646797e+00	 3.464030971538918e-01
 8.485281374165017e-01	 8.768124086710882e+00	 4.129511522110111e-01
 2.121320343520018e-01	 9.404520189775877e+00	 4.703916135133115e-01
-4.242640687134982e-01	 1.004091629284178e+01	 5.195748651477355e-01
-1.060660171779998e+00	 1.067731239590860e+01	 5.744091348761116e-01
-1.697056274847498e+00	 1.131370849897632e+01	 6.244306847795286e-01
-2.333452377915997e+00	 1.195010460204496e+01	 6.529947291139974e-01
-2.969848480985498e+00	 1.258650070511450e+01	 6.582110569181372e-01
 3.676955262142002e+00	 6.505382386940003e+00	 6.338369535294786e-02
 3.040559159081503e+00	 7.141778490000883e+00	 1.834399000490156e-01
 2.404163056020002e+00	 7.778174593062722e+00	 2.720282804794476e-01
 1.767766952957502e+00	 8.414570696125525e+00	 3.463888032570674e-01
 1.131370849894001e+00	 9.050966799189281e+00	 4.110554986112864e-01
 4.949747468295019e-01	 9.687362902254002e+00	 4.668786964636562e-01
-1.414213562359979e-01	 1.032375900531968e+01	 5.147087852471016e-01
-7.778174593024976e-01	 1.096015510838632e+01	 5.806952615434381e-01
-1.414213562369998e+00	 1.159655121145392e+01	 6.288516896240627e-01
-2.050609665438497e+00	 1.223294731452248e+01	 6.561352304244067e-01
-2.687005768507998e+00	 1.286934341759200e+01	 6.605204451110818e-01
 3.959797974620502e+00	 6.788225099420003e+00	 6.249398123493902e-02
 3.323401871560002e+00	 7.424621202480599e+00	 1.802811679276062e-01
 2.687005768498502e+00	 8.061017305542181e+00	 2.770182069441601e-01
 2.050609665436002e+00	 8.697413408604756e+00	 3.491414111301004e-01
 1.414213562372502e+00	 9.333809511668324e+00	 4.118348772360385e-01
 7.778174593080022e-01	 9.970205614732878e+00	 4.659489395285819e-01
 1.414213562425023e-01	 1.060660171779842e+01	 5.255841623693546e-01
-4.949747468239976e-01	 1.124299782086496e+01	 5.902357653763731e-01
-1.131370849891497e+00	 1.187939392393248e+01	 6.366245382251282e-01
-1.767766952959997e+00	 1.251579002700100e+01	 6.627250420822736e-01
-2.404163056029498e+00	 1.315218613007050e+01	 6.665118381144236e-01
 4.242640687100000e+00	 7.071067811900000e+00	 6.451805829443963e-02
 3.606244584039500e+00	 7.707463914960500e+00	 1.798985480112483e-01
 2.969848480978000e+00	 8.343860018021999e+00	 2.837867833045362e-01
 2.333452377915500e+00	 8.980256121084500e+00	 3.546714739891974e-01
 1.697056274852000e+00	 9.616652224148000e+00	 4.152998404438452e-01
 1.060660171787500e+00	 1.025304832721250e+01	 4.676128942089288e-01
 4.242640687219998e-01	 1.088944443027800e+01	 5.404544418175289e-01
-2.121320343444999e-01	 1.152584053334450e+01	 6.028512378949393e-01
-8.485281374119996e-01	 1.216223663641200e+01	 6.475698221027517e-01
-1.484924240480500e+00	 1.279863273948050e+01	 6.725847556076248e-01
-2.121320343550000e+00	 1.343502884255000e+01	 6.758705995761793e-01
-4.949747468300000e+00	 1.060660171780000e+01	 7.572500765648360e-01
-5.586143571370002e+00	 1.124299782087000e+01	 7.971525955114691e-01
-6.222539674440002e+00	 1.187939392394000e+01	 8.252283601884310e-01
-6.858935777510002e+00	 1.251579002701000e+01	 8.442006390691784e-01
-7.495331880580002e+00	 1.315218613008000e+01	 8.567927006271872e-01
-8.131727983650002e+00	 1.378858223315000e+01	 8.657278133359421e-01
-8.768124086720004e+00	 1.442497833622001e+01	 8.737292456689438e-01
-9.404520189790006e+00	 1.506137443929001e+01	 8.846263223462443e-01
-1.004091629286000e+01	 1.569777054236000e+01	 9.016383826364255e-01
-1.067731239593000e+01	 1.633416664543001e+01	 9.253465814027056e-01
-1.131370849900000e+01	 1.697056274850000e+01	 9.563064494929809e-01
-4.666904755829500e+00	 1.088944443027050e+01	 7.321851454800540e-01
-5.303300858899406e+00	 1.152584053334058e+01	 7.762969615042293e-01
-5.939696961969123e+00	 1.216223663641085e+01	 8.080035275944144e-01
-6.576093065038648e+00	 1.279863273948127e+01	 8.300281122240692e-01
-7.212489168107981e+00	 1.343502884255186e+01	 8.450939838666722e-01
-7.848885271177127e+00	 1.407142494562263e+01	 8.559244109957188e-01
-8.485281374246082e+00	 1.470782104869356e+01	 8.652426620847182e-01
-9.121677477314849e+00	 1.534421715176467e+01	 8.764410151264740e-01
-9.758073580383426e+00	 1.598061325483594e+01	 8.932898235335807e-01
-1.039446968345181e+01	 1.661700935790739e+01	 9.163151154875752e-01
-1.103086578652000e+01	 1.725340546097900e+01	 9.465898721325097e-01
-4.384062043358000e+00	 1.117228714274200e+01	 7.105962335567455e-01
-5.020458146427821e+00	 1.180868324581214e+01	 7.583917813301222e-01
-5.656854249497282e+00	 1.244507934888256e+01	 7.932035835051940e-01
-6.293250352566381e+00	 1.308147545195326e+01	 8.177549085554272e-01
-6.929646455635123e+00	 1.371787155502424e+01	 8.347690249543073e-01
-7.566042558703501e+00	 1.435426765809550e+01	 8.469692011753389e-01
-8.202438661771524e+00	 1.499066376116705e+01	 8.570787056920369e-01
-8.838834764839184e+00	 1.562705986423887e+01	 8.678603731910595e-01
-9.475230867906484e+00	 1.626345596731096e+01	 8.841630857003990e-01
-1.011162697097342e+01	 1.689985207038335e+01	 9.061226265369279e-01
-1.074802307404000e+01	 1.753624817345600e+01	 9.476152226524036e-01
-4.101219330885500e+00	 1.145512985521450e+01	 6.925810292393603e-01
-4.737615433955244e+00	 1.209152595828466e+01	 7.435347434335959e-01
-5.374011537024480e+00	 1.272792206135516e+01	 7.809262163652151e-01
-6.010407640093207e+00	 1.336431816442599e+01	 8.074787165076986e-01
-6.646803743161421e+00	 1.400071426749714e+01	 8.259155123345394e-01
-7.283199846229126e+00	 1.463711037056863e+01	 8.389598723192480e-01
-7.919595949296322e+00	 1.527350647364044e+01	 8.493350649353484e-01
-8.555992052363010e+00	 1.590990257671259e+01	 8.597643586563857e-01
-9.192388155429185e+00	 1.654629867978507e+01	 8.743210023737668e-01
-9.828784258494847e+00	 1.718269478285787e+01	 8.948319467610932e-01
-1.046518036156000e+01	 1.781909088593100e+01	 9.472931122017457e-01
-3.818376618411999e+00	 1.173797256768800e+01	 6.782372209723511e-01
-4.454772721481679e+00	 1.237436867075816e+01	 7.318235362590972e-01
-5.091168824550720e+00	 1.301076477382864e+01	 7.712691146189289e-01
-5.727564927619121e+00	 1.364716087689944e+01	 7.992972245253339e-01
-6.363961030686882e+00	 1.428355697997057e+01	 8.186311344518165e-01
-7.000357133754004e+00	 1.491995308304200e+01	 8.319941128718937e-01
-7.636753236820482e+00	 1.555634918611377e+01	 8.421094282590988e-01
-8.273149339886325e+00	 1.619274528918585e+01	 8.517003490869790e-01
-8.909545442951526e+00	 1.682914139225825e+01	 8.638264078753538e-01
-9.545941546016083e+00	 1.746553749533097e+01	 8.930586189588459e-01
-1.018233764908000e+01	 1.810193359840400e+01	 9.455844780494900e-01
-3.535533905937498e+00	 1.202081528016250e+01	 6.676624972001727e-01
-4.171930009007125e+00	 1.265721138323263e+01	 7.233558482510822e-01
-4.808326112076000e+00	 1.329360748630300e+01	 7.643299667107853e-01
-5.444722215144125e+00	 1.393000358937363e+01	 7.933081210527828e-01
-6.081118318211501e+00	 1.456639969244450e+01	 8.130135797505902e-01
-6.717514421278126e+00	 1.520279579551563e+01	 8.261696112777313e-01
-7.353910524344003e+00	 1.583919189858701e+01	 8.354994841077419e-01
-7.990306627409127e+00	 1.647558800165863e+01	 8.437264667141713e-01
-8.626702730473504e+00	 1.711198410473050e+01	 8.535738275705798e-01
-9.263098833537127e+00	 1.774838020780263e+01	 8.929659062536213e-01
-9.899494936599998e+00	 1.838477631087500e+01	 9.424502583855692e-01
-3.252691193461998e+00	 1.230365799263800e+01	 6.609545463672809e-01
-3.889087296531578e+00	 1.294005409570806e+01	 7.182293678540064e-01
-4.525483399600320e+00	 1.357645019877824e+01	 7.602064610852414e-01
-5.161879502668221e+00	 1.421284630184854e+01	 7.896090945345032e-01
-5.798275605735280e+00	 1.484924240491896e+01	 8.091605366753148e-01
-6.434671708801499e+00	 1.548563850798950e+01	 8.215840559812102e-01
-7.071067811866882e+00	 1.612203461106017e+01	 8.296029209257271e-01
-7.707463914931422e+00	 1.675843071413095e+01	 8.359403999824137e-01
-8.343860017995125e+00	 1.739482681720185e+01	 8.504771065534370e-01
-8.980256121057984e+00	 1.803122292027287e+01	 8.917131138822323e-01
-9.616652224119999e+00	 1.866761902334400e+01	 9.378513923208270e-01
-2.969848480985498e+00	 1.258650070511450e+01	 6.582110569181372e-01
-3.606244584055044e+00	 1.322289680818446e+01	 7.165417835123276e-01
-4.242640687123679e+00	 1.385929291125436e+01	 7.589962861867541e-01
-4.879036790191405e+00	 1.449568901432419e+01	 7.882978334149496e-01
-5.515432893258220e+00	 1.513208511739394e+01	 8.071696936704478e-01
-6.151828996324126e+00	 1.576848122046363e+01	 8.183351354267874e-01
-6.788225099389122e+00	 1.640487732353325e+01	 8.245174271575101e-01
-7.424621202453208e+00	 1.704127342660279e+01	 8.284398373361550e-01
-8.061017305516382e+00	 1.767766952967227e+01	 8.528283367919500e-01
-8.697413408578647e+00	 1.831406563274167e+01	 8.897780921115388e-01
-9.333809511639998e+00	 1.895046173581100e+01	 9.317488198869636e-01
-2.687005768507998e+00	 1.286934341759200e+01	 6.605204451110818e-01
-3.323401871577519e+00	 1.350573952066184e+01	 7.183907836705080e-01
-3.959797974646079e+00	 1.414213562373136e+01	 7.607971304597843e-01
-4.596194077713680e+00	 1.477853172680056e+01	 7.894720261385835e-01
-5.232590180780320e+00	 1.541492782986944e+01	 8.071387391804488e-01
-5.868986283846001e+00	 1.605132393293800e+01	 8.165205380589240e-01
-6.505382386910722e+00	 1.668772003600625e+01	 8.203406912475455e-01
-7.141778489974483e+00	 1.732411613907417e+01	 8.248248123345467e-01
-7.778174593037283e+00	 1.796051224214177e+01	 8.544242603769285e-01
-8.414570696099123e+00	 1.859690834520904e+01	 8.873604396344679e-01
-9.050966799159998e+00	 1.923330444827600e+01	 9.241034820364697e-01
-2.404163056029498e+00	 1.315218613007050e+01	 6.665118381144236e-01
-3.040559159099004e+00	 1.378858223314019e+01	 7.238740567730115e-01
-3.676955262167519e+00	 1.442497833620924e+01	 7.657066823487970e-01
-4.313351365235044e+00	 1.506137443927767e+01	 7.932293611498678e-01
-4.949747468301579e+00	 1.569777054234546e+01	 8.091653616497790e-01
-5.586143571367126e+00	 1.633416664541263e+01	 8.162379523220766e-01
-6.222539674431681e+00	 1.697056274847916e+01	 8.171704016402928e-01
-6.858935777495246e+00	 1.760695885154507e+01	 8.296095933385680e-01
-7.495331880557822e+00	 1.824335495461035e+01	 8.552374721324963e-01
-8.131727983619408e+00	 1.887975105767499e+01	 8.838346821549377e-01
-8.768124086679997e+00	 1.951614716073900e+01	 9.150843898647161e-01
-2.121320343550000e+00	 1.343502884255000e+01	 6.758705995761793e-01
-2.757716446619501e+00	 1.407142494561950e+01	 7.327432803506941e-01
-3.394112549688002e+00	 1.470782104868800e+01	 7.738226302982587e-01
-4.030508652755502e+00	 1.534421715175550e+01	 7.996675268932701e-01
-4.666904755822002e+00	 1.598061325482200e+01	 8.133472495229048e-01
-5.303300858887503e+00	 1.661700935788750e+01	 8.175850666607100e-01
-5.939696961952004e+00	 1.725340546095200e+01	 8.154975202793282e-01
-6.576093065015503e+00	 1.788980156401550e+01	 8.339096498335545e-01
-7.212489168078005e+00	 1.852619766707801e+01	 8.552405678630254e-01
-7.848885271139504e+00	 1.916259377013951e+01	 8.791734154715546e-01
-8.485281374200000e+00	 1.979898987320000e+01	 9.053913591470024e-01
 4.242640687100000e+00	 7.071067811900000e+00	 8.269302440968837e-02
 3.606244584039500e+00	 7.707463914960500e+00	 1.851322721399962e-01
 2.969848480978000e+00	 8.343860018021999e+00	 2.779517693331411e-01
 2.333452377915500e+00	 8.980256121084500e+00	 3.396402258040134e-01
 1.697056274852000e+00	 9.616652224148000e+00	 3.929448619312306e-01
 1.060660171787500e+00	 1.025304832721250e+01	 4.398066892552375e-01
 4.242640687219998e-01	 1.088944443027800e+01	 5.090695143091200e-01
-2.121320343444999e-01	 1.152584053334450e+01	 5.697600917181660e-01
-8.485281374119996e-01	 1.216223663641200e+01	 6.146449611439702e-01
-1.484924240480500e+00	 1.279863273948050e+01	 6.416986837531933e-01
-2.121320343550000e+00	 1.343502884255000e+01	 6.488958207124527e-01
 4.384062043340000e+00	 7.212489168139000e+00	 7.556874649374026e-02
 3.747665940279500e+00	 7.848885271199689e+00	 1.783340120259218e-01
 3.111269837218000e+00	 8.485281374261360e+00	 2.712165293479347e-01
 2.474873734155500e+00	 9.121677477324011e+00	 3.380572486185667e-01
 1.838477631092000e+00	 9.758073580387641e+00	 3.910119808180733e-01
 1.202081528027500e+00	 1.039446968345225e+01	 4.402308449494846e-01
 5.656854249619999e-01	 1.103086578651784e+01	 5.134596942182362e-01
-7.071067810449976e-02	 1.166726188958441e+01	 5.729126173715506e-01
-7.071067811719998e-01	 1.230365799265196e+01	 6.165641755761554e-01
-1.343502884240499e+00	 1.294005409572049e+01	 6.423889299987321e-01
-1.979898987310000e+00	 1.357645019879000e+01	 6.483614418059134e-01
 4.525483399580000e+00	 7.353910524375999e+00	 7.169687463982480e-02
 3.889087296519499e+00	 7.990306627437260e+00	 1.744117753353102e-01
 3.252691193458000e+00	 8.626702730499440e+00	 2.669809280914695e-01
 2.616295090395500e+00	 9.263098833562541e+00	 3.386191176669818e-01
 1.979898987331999e+00	 9.899494936626560e+00	 3.908590151122158e-01
 1.343502884267500e+00	 1.053589103969150e+01	 4.472783517243049e-01
 7.071067812020001e-01	 1.117228714275736e+01	 5.189476074463943e-01
 7.071067813550001e-02	 1.180868324582414e+01	 5.768452800875564e-01
-5.656854249319996e-01	 1.244507934889184e+01	 6.189459308145453e-01
-1.202081528000499e+00	 1.308147545196046e+01	 6.432241207940650e-01
-1.838477631070000e+00	 1.371787155503000e+01	 6.476544111927596e-01
 4.666904755820000e+00	 7.495331880611000e+00	 7.109459110764524e-02
 4.030508652759500e+00	 8.131727983673208e+00	 1.733827443307910e-01
 3.394112549698000e+00	 8.768124086736240e+00	 2.652621478292878e-01
 2.757716446635499e+00	 9.404520189800088e+00	 3.413271523143945e-01
 2.121320343572000e+00	 1.004091629286476e+01	 3.924872840715866e-01
 1.484924240507500e+00	 1.067731239593025e+01	 4.557187620145955e-01
 8.485281374420003e-01	 1.131370849899656e+01	 5.255108279335911e-01
 2.121320343755004e-01	 1.195010460206369e+01	 5.815356538061756e-01
-4.242640686919994e-01	 1.258650070513164e+01	 6.217678007991368e-01
-1.060660171760499e+00	 1.322289680820041e+01	 6.441818300791915e-01
-1.697056274830000e+00	 1.385929291127000e+01	 6.467523028129913e-01
 4.808326112060000e+00	 7.636753236843999e+00	 7.377907846283104e-02
 4.171930008999500e+00	 8.273149339907540e+00	 1.752641015809352e-01
 3.535533905938000e+00	 8.909545442971760e+00	 2.660773711328575e-01
 2.899137802875499e+00	 9.545941546036660e+00	 3.461826719733025e-01
 2.262741699812000e+00	 1.018233764910224e+01	 3.958981070014772e-01
 1.626345596747500e+00	 1.081873375216850e+01	 4.655296497603519e-01
 9.899494936820002e-01	 1.145512985523544e+01	 5.331269296198224e-01
 3.535533906155001e-01	 1.209152595830306e+01	 5.869613124674113e-01
-2.828427124519994e-01	 1.272792206137136e+01	 6.250073594699305e-01
-9.192388155204991e-01	 1.336431816444034e+01	 6.452396317941109e-01
-1.555634918590000e+00	 1.400071426751000e+01	 6.456326906066128e-01
 4.949747468300000e+00	 7.778174593075000e+00	 7.976751957694010e-02
 4.313351365239500e+00	 8.414570696140249e+00	 1.800730299602442e-01
 3.676955262178001e+00	 9.050966799206000e+00	 2.694437808796076e-01
 3.040559159115500e+00	 9.687362902272252e+00	 3.494259116693771e-01
 2.404163056052000e+00	 1.032375900533900e+01	 4.010928032545303e-01
 1.767766952987500e+00	 1.096015510840625e+01	 4.766885889015702e-01
 1.131370849922000e+00	 1.159655121147400e+01	 5.417734864450862e-01
 4.949747468555002e-01	 1.223294731454225e+01	 5.930998300112583e-01
-1.414213562119995e-01	 1.286934341761100e+01	 6.286421807669229e-01
-7.778174592804994e-01	 1.350573952068025e+01	 6.463750998788259e-01
-1.414213562350000e+00	 1.414213562375000e+01	 6.442731485136231e-01
 5.091168824540000e+00	 7.919595949304000e+00	 8.907709762747497e-02
 4.454772721479499e+00	 8.555992052371339e+00	 1.878267126491760e-01
 3.818376618417999e+00	 9.192388155438959e+00	 2.753785602529130e-01
 3.181980515355500e+00	 9.828784258506859e+00	 3.532787797149777e-01
 2.545584412291999e+00	 1.046518036157504e+01	 4.151894622973824e-01
 1.909188309227500e+00	 1.110157646464350e+01	 4.891731533782464e-01
 1.272792206162000e+00	 1.173797256771224e+01	 5.514280723493730e-01
 6.363961030955002e-01	 1.237436867078126e+01	 5.999287803777121e-01
 2.800060183716368e-11	 1.301076477385056e+01	 6.326498386301149e-01
-6.363961030404992e-01	 1.364716087692013e+01	 6.475658082733335e-01
-1.272792206110000e+00	 1.428355697999000e+01	 6.426512504740249e-01
 5.232590180780000e+00	 8.061017305530999e+00	 1.017249960978825e-01
 4.596194077719500e+00	 8.697413408600811e+00	 1.985423331341324e-01
 3.959797974658000e+00	 9.333809511670639e+00	 2.838988927421217e-01
 3.323401871595500e+00	 9.970205614740491e+00	 3.593408141399254e-01
 2.687005768531999e+00	 1.060660171781036e+01	 4.321291439128702e-01
 2.050609665467500e+00	 1.124299782088025e+01	 5.029609171303721e-01
 1.414213562402000e+00	 1.187939392395016e+01	 5.620682612726807e-01
 7.778174593355002e-01	 1.251579002702009e+01	 6.074257375067700e-01
 1.414213562680005e-01	 1.315218613009004e+01	 6.370079069995016e-01
-4.949747468004994e-01	 1.378858223316001e+01	 6.487893309176360e-01
-1.131370849870000e+00	 1.442497833623000e+01	 6.407445704278177e-01
 5.374011537019999e+00	 8.202438661756000e+00	 1.177283987775656e-01
 4.737615433959500e+00	 8.838834764828661e+00	 2.122370752074977e-01
 4.101219330898000e+00	 9.475230867901040e+00	 2.950219621425482e-01
 3.464823227835500e+00	 1.011162697097314e+01	 3.676291987424498e-01
 2.828427124772000e+00	 1.074802307404496e+01	 4.506671950002513e-01
 2.192031021707500e+00	 1.138441917711650e+01	 5.180294540979392e-01
 1.555634918642000e+00	 1.202081528018776e+01	 5.736716271550019e-01
 9.192388155755001e-01	 1.265721138325874e+01	 6.155682753384247e-01
 2.828427125080005e-01	 1.329360748632944e+01	 6.416939598150848e-01
-3.535533905604995e-01	 1.393000358939986e+01	 6.500232417517328e-01
-9.899494936300001e-01	 1.456639969247000e+01	 6.385306823150043e-01
 5.515432893260000e+00	 8.343860017978999e+00	 1.371044897618901e-01
 4.879036790199501e+00	 8.980256121054889e+00	 2.289281229676064e-01
 4.242640687138000e+00	 9.616652224130160e+00	 3.087649525554860e-01
 3.606244584075501e+00	 1.025304832720481e+01	 3.781611176267650e-01
 2.969848481012000e+00	 1.088944443027884e+01	 4.697077281977445e-01
 2.333452377947500e+00	 1.152584053335225e+01	 5.343563382209431e-01
 1.697056274882000e+00	 1.216223663642504e+01	 5.862157439363294e-01
 1.060660171815500e+00	 1.279863273949721e+01	 6.243339678126767e-01
 4.242640687480002e-01	 1.343502884256876e+01	 6.466855710168576e-01
-2.121320343204993e-01	 1.407142494563969e+01	 6.512451147156231e-01
-8.485281373900000e-01	 1.470782104871000e+01	 6.359871600755841e-01
 5.656854249500000e+00	 8.485281374200000e+00	 1.598704534521919e-01
 5.020458146439500e+00	 9.121677477279500e+00	 2.486326608187854e-01
 4.384062043378000e+00	 9.758073580358001e+00	 3.251450483882128e-01
 3.747665940315499e+00	 1.039446968343550e+01	 3.937823447912953e-01
 3.111269837252000e+00	 1.103086578651200e+01	 4.861977208994462e-01
 2.474873734187500e+00	 1.166726188958750e+01	 5.519191434393674e-01
 1.838477631122000e+00	 1.230365799266200e+01	 5.996781855566544e-01
 1.202081528055500e+00	 1.294005409573550e+01	 6.337003888695150e-01
 5.656854249880006e-01	 1.357645019880800e+01	 6.519603145448218e-01
-7.071067808049936e-02	 1.421284630187950e+01	 6.524325237493074e-01
-7.071067811500000e-01	 1.484924240495000e+01	 6.330915776495587e-01
-2.121320343550000e+00	 1.343502884255000e+01	 6.488958207124527e-01
-2.757716446619501e+00	 1.407142494561950e+01	 7.104010397165087e-01
-3.394112549688002e+00	 1.470782104868800e+01	 7.556829144847893e-01
-4.030508652755502e+00	 1.534421715175550e+01	 7.853003224914711e-01
-4.666904755822002e+00	 1.598061325482200e+01	 8.023225431234855e-01
-5.303300858887503e+00	 1.661700935788750e+01	 8.094728448541264e-01
-5.939696961952004e+00	 1.725340546095200e+01	 8.098677696557623e-01
-6.576093065015503e+00	 1.788980156401550e+01	 8.303323569828976e-01
-7.212489168078005e+00	 1.852619766707801e+01	 8.532857193748633e-01
-7.848885271139504e+00	 1.916259377013951e+01	 8.784109979351491e-01
-8.485281374200000e+00	 1.979898987320000e+01	 9.053913591512757e-01
-1.979898987310000e+00	 1.357645019879000e+01	 6.483614418059134e-01
-2.616295090379690e+00	 1.421284630185950e+01	 7.093632683939183e-01
-3.252691193448761e+00	 1.484924240492800e+01	 7.544528807036399e-01
-3.889087296517212e+00	 1.548563850799550e+01	 7.832730384564893e-01
-4.525483399585043e+00	 1.612203461106200e+01	 7.994014049868329e-01
-5.161879502652252e+00	 1.675843071412751e+01	 8.055612487679836e-01
-5.798275605718843e+00	 1.739482681719200e+01	 8.095041047883537e-01
-6.434671708784816e+00	 1.803122292025551e+01	 8.288911951605791e-01
-7.071067811850165e+00	 1.866761902331801e+01	 8.507760031191247e-01
-7.707463914914893e+00	 1.930401512637951e+01	 8.748416697822128e-01
-8.343860017978999e+00	 1.994041122944000e+01	 9.007713616519704e-01
-1.838477631070000e+00	 1.371787155503000e+01	 6.476544111927596e-01
-2.474873734139861e+00	 1.435426765809950e+01	 7.082791928609479e-01
-3.111269837209441e+00	 1.499066376116800e+01	 7.534730050766649e-01
-3.747665940278743e+00	 1.562705986423550e+01	 7.815440920504118e-01
-4.384062043347762e+00	 1.626345596730200e+01	 7.968267839538146e-01
-5.020458146416503e+00	 1.689985207036750e+01	 8.020443492602133e-01
-5.656854249484964e+00	 1.753624817343200e+01	 8.092205393317937e-01
-6.293250352553144e+00	 1.817264427649550e+01	 8.276283560904534e-01
-6.929646455621044e+00	 1.880904037955801e+01	 8.485428325412155e-01
-7.566042558688665e+00	 1.944543648261950e+01	 8.716471098170608e-01
-8.202438661756000e+00	 2.008183258568000e+01	 8.966243544347542e-01
-1.697056274830000e+00	 1.385929291127000e+01	 6.467523028129913e-01
-2.333452377900012e+00	 1.449568901433950e+01	 7.071263870575994e-01
-2.969848480970041e+00	 1.513208511740800e+01	 7.527554986594284e-01
-3.606244584040092e+00	 1.576848122047550e+01	 7.801256943287995e-01
-4.242640687110162e+00	 1.640487732354200e+01	 7.946108910799959e-01
-4.879036790180253e+00	 1.704127342660750e+01	 7.989343573863767e-01
-5.515432893250362e+00	 1.767766952967200e+01	 8.090136480387773e-01
-6.151828996320495e+00	 1.831406563273551e+01	 8.265404145244755e-01
-6.788225099390645e+00	 1.895046173579800e+01	 8.465827823923573e-01
-7.424621202460815e+00	 1.958685783885950e+01	 8.688238927901891e-01
-8.061017305530999e+00	 2.022325394192000e+01	 8.929469122493977e-01
-1.555634918590000e+00	 1.400071426751000e+01	 6.456326906066128e-01
-2.192031021660141e+00	 1.463711037057950e+01	 7.058824249238782e-01
-2.828427124730561e+00	 1.527350647364800e+01	 7.516649716543693e-01
-3.464823227801261e+00	 1.590990257671550e+01	 7.790300563472148e-01
-4.101219330872241e+00	 1.654629867978200e+01	 7.927659374209386e-01
-4.737615433943501e+00	 1.718269478284750e+01	 7.962434842020421e-01
-5.374011537015043e+00	 1.781909088591200e+01	 8.088800057232566e-01
-6.010407640086863e+00	 1.845548698897550e+01	 8.256239452758570e-01
-6.646803743158962e+00	 1.909188309203800e+01	 8.448924274850260e-01
-7.283199846231346e+00	 1.972827919509951e+01	 8.663685935133454e-01
-7.919595949304000e+00	 2.036467529816000e+01	 8.897356099069269e-01
-1.414213562350000e+00	 1.414213562375000e+01	 6.442731485136231e-01
-2.050609665420251e+00	 1.477853172681950e+01	 7.045248803997867e-01
-2.687005768491002e+00	 1.541492782988800e+01	 7.504466213813151e-01
-3.323401871562252e+00	 1.605132393295550e+01	 7.782693891612180e-01
-3.959797974634002e+00	 1.668772003602200e+01	 7.913041340322051e-01
-4.596194077706253e+00	 1.732411613908750e+01	 7.956072190258925e-01
-5.232590180779003e+00	 1.796051224215201e+01	 8.088161872604399e-01
-5.868986283852253e+00	 1.859690834521550e+01	 8.248755232190685e-01
-6.505382386926004e+00	 1.923330444827801e+01	 8.434683426929583e-01
-7.141778490000254e+00	 1.986970055133951e+01	 8.642777868595333e-01
-7.778174593075001e+00	 2.050609665440000e+01	 8.869870222796202e-01
-1.272792206110000e+00	 1.428355697999000e+01	 6.426512504740249e-01
-1.909188309180341e+00	 1.491995308305950e+01	 7.030313274253255e-01
-2.545584412251361e+00	 1.555634918612800e+01	 7.492186101541388e-01
-3.181980515323062e+00	 1.619274528919550e+01	 7.778559038263693e-01
-3.818376618395443e+00	 1.682914139226200e+01	 7.902376919693602e-01
-4.454772721468503e+00	 1.746553749532750e+01	 7.962051200358575e-01
-5.091168824542244e+00	 1.810193359839201e+01	 8.088187675867942e-01
-5.727564927616664e+00	 1.873832970145551e+01	 8.242917232898310e-01
-6.363961030691765e+00	 1.937472580451801e+01	 8.423071029511402e-01
-7.000357133767544e+00	 2.001112190757950e+01	 8.625480477630081e-01
-7.636753236844000e+00	 2.064751801064000e+01	 8.846977243010086e-01
-1.131370849870000e+00	 1.442497833623000e+01	 6.407445704278177e-01
-1.767766952940411e+00	 1.506137443929950e+01	 7.013793399404991e-01
-2.404163056011641e+00	 1.569777054236800e+01	 7.479585119128441e-01
-3.040559159083692e+00	 1.633416664543550e+01	 7.778018113982342e-01
-3.676955262156563e+00	 1.697056274850200e+01	 7.895788222879658e-01
-4.313351365230252e+00	 1.760695885156750e+01	 7.967677710793664e-01
-4.949747468304763e+00	 1.824335495463200e+01	 8.088843217000380e-01
-5.586143571380095e+00	 1.887975105769550e+01	 8.238691204851227e-01
-6.222539674456244e+00	 1.951614716075800e+01	 8.414052832558088e-01
-6.858935777533214e+00	 2.015254326381950e+01	 8.611759512192770e-01
-7.495331880611000e+00	 2.078893936688000e+01	 8.828642909658698e-01
-9.899494936300001e-01	 1.456639969247000e+01	 6.385306823150043e-01
-1.626345596700461e+00	 1.520279579553950e+01	 6.995464918853112e-01
-2.262741699771841e+00	 1.583919189860800e+01	 7.466439005974360e-01
-2.899137802844142e+00	 1.647558800167550e+01	 7.777974696179299e-01
-3.535533905917362e+00	 1.711198410474200e+01	 7.893397360435850e-01
-4.171930008991502e+00	 1.774838020780750e+01	 7.972917472161447e-01
-4.808326112066563e+00	 1.838477631087201e+01	 8.090094246591448e-01
-5.444722215142544e+00	 1.902117241393550e+01	 8.236042898631715e-01
-6.081118318219445e+00	 1.965756851699800e+01	 8.407594586644562e-01
-6.717514421297265e+00	 2.029396462005950e+01	 8.601580722850964e-01
-7.353910524375999e+00	 2.093036072312000e+01	 8.814832973302303e-01
-8.485281373900000e-01	 1.470782104871000e+01	 6.359871600755841e-01
-1.484924240460491e+00	 1.534421715177950e+01	 6.975103571997625e-01
-2.121320343531961e+00	 1.598061325484800e+01	 7.452523501479182e-01
-2.757716446604412e+00	 1.661700935791550e+01	 7.771877000866109e-01
-3.394112549677842e+00	 1.725340546098200e+01	 7.895596320292045e-01
-4.030508652752253e+00	 1.788980156404750e+01	 7.977736235671655e-01
-4.666904755827643e+00	 1.852619766711200e+01	 8.091906515843383e-01
-5.303300858904014e+00	 1.916259377017550e+01	 8.234938065434554e-01
-5.939696961981364e+00	 1.979898987323800e+01	 8.403662042958174e-01
-6.576093065059695e+00	 2.043538597629950e+01	 8.594909860784676e-01
-7.212489168138999e+00	 2.107178207936000e+01	 8.805513185113658e-01
-7.071067811500000e-01	 1.484924240495000e+01	 6.330915776495587e-01
-1.343502884220501e+00	 1.548563850801950e+01	 6.952485098238548e-01
-1.979898987292001e+00	 1.612203461108800e+01	 7.437614345042952e-01
-2.616295090364502e+00	 1.675843071415550e+01	 7.766049128574439e-01
-3.252691193438002e+00	 1.739482681722200e+01	 7.902073482014438e-01
-3.889087296512503e+00	 1.803122292028750e+01	 7.982099753146576e-01
-4.525483399588003e+00	 1.866761902335200e+01	 8.094245776570940e-01
-5.161879502664504e+00	 1.930401512641550e+01	 8.235342457067025e-01
-5.798275605742004e+00	 1.994041122947800e+01	 8.402220953298791e-01
-6.434671708820505e+00	 2.057680733253951e+01	 8.591712677786409e-01
-7.071067811900000e+00	 2.121320343560000e+01	 8.800649296877940e-01
 5.656854249500000e+00	 8.485281374200000e+00	 9.896405438295508e-02
 5.020458146439500e+00	 9.121677477279500e+00	 1.976498253139910e-01
 4.384062043378000e+00	 9.758073580358001e+00	 2.831499752849134e-01
 3.747665940315499e+00	 1.039446968343550e+01	 3.598392329239439e-01
 3.111269837252000e+00	 1.103086578651200e+01	 4.593707691001178e-01
 2.474873734187500e+00	 1.166726188958750e+01	 5.312725505380194e-01
 1.838477631122000e+00	 1.230365799266200e+01	 5.842761503813603e-01
 1.202081528055500e+00	 1.294005409573550e+01	 6.226071102467112e-01
 5.656854249880006e-01	 1.357645019880800e+01	 6.442399912995488e-01
-7.071067808049936e-02	 1.421284630187950e+01	 6.471493547054563e-01
-7.071067811500000e-01	 1.484924240495000e+01	 6.293097616301060e-01
 5.798275605740000e+00	 8.626702730440000e+00	 2.054376018078592e-01
 5.161879502675981e+00	 9.263098833519406e+00	 2.829147862314875e-01
 4.525483399611519e+00	 9.899494936597618e+00	 3.490927083998508e-01
 3.889087296546621e+00	 1.053589103967465e+01	 4.161456656971016e-01
 3.252691193481280e+00	 1.117228714275048e+01	 4.996447134741048e-01
 2.616295090415500e+00	 1.180868324582513e+01	 5.629892562394709e-01
 1.979898987349279e+00	 1.244507934889858e+01	 6.045510028771184e-01
 1.343502884282620e+00	 1.308147545197084e+01	 6.335938295131688e-01
 7.071067812155205e-01	 1.371787155504192e+01	 6.480922973132746e-01
 7.071067814798050e-02	 1.435426765811180e+01	 6.460209674431665e-01
-5.656854249200001e-01	 1.499066376118050e+01	 6.253544010686539e-01
 5.939696961980000e+00	 8.768124086679999e+00	 3.059311753927873e-01
 5.303300858912819e+00	 9.404520189759317e+00	 3.628900222585562e-01
 4.666904755845681e+00	 1.004091629283728e+01	 4.104359635175349e-01
 4.030508652778580e+00	 1.067731239591388e+01	 4.682705975171161e-01
 3.394112549711520e+00	 1.131370849898912e+01	 5.364568068785822e-01
 2.757716446644500e+00	 1.195010460206300e+01	 5.918259724425253e-01
 2.121320343577520e+00	 1.258650070513552e+01	 6.226949011766404e-01
 1.484924240510580e+00	 1.322289680820668e+01	 6.431986298855518e-01
 8.485281374436806e-01	 1.385929291127648e+01	 6.513117197350859e-01
 2.121320343768205e-01	 1.449568901434492e+01	 6.450087318911291e-01
-4.242640686900001e-01	 1.513208511741200e+01	 6.222642275196162e-01
 6.081118318220000e+00	 8.909545442920001e+00	 4.004619604570647e-01
 5.444722215150019e+00	 9.545941545999245e+00	 4.375927187175193e-01
 4.808326112080481e+00	 1.018233764907698e+01	 4.671969259632716e-01
 4.171930009011380e+00	 1.081873375215320e+01	 5.162195915153454e-01
 3.535533905942720e+00	 1.145512985522792e+01	 5.698126124449029e-01
 2.899137802874501e+00	 1.209152595830113e+01	 6.177602730871723e-01
 2.262741699806720e+00	 1.272792206137282e+01	 6.386854192199047e-01
 1.626345596739380e+00	 1.336431816444300e+01	 6.513990853038403e-01
 9.899494936724806e-01	 1.400071426751168e+01	 6.538758325049712e-01
 3.535533906060208e-01	 1.463711037057885e+01	 6.440902219893270e-01
-2.828427124600000e-01	 1.527350647364450e+01	 6.200168149229794e-01
 6.222539674460000e+00	 9.050966799160001e+00	 4.890471426260088e-01
 5.586143571387582e+00	 9.687362902239180e+00	 5.070400612367226e-01
 4.949747468315920e+00	 1.032375900531672e+01	 5.193927813683864e-01
 4.313351365245019e+00	 1.096015510839262e+01	 5.599982108231408e-01
 3.676955262174880e+00	 1.159655121146688e+01	 5.997176933044200e-01
 3.040559159105500e+00	 1.223294731453950e+01	 6.372593659579497e-01
 2.404163056036880e+00	 1.286934341761048e+01	 6.525001309468971e-01
 1.767766952969021e+00	 1.350573952067982e+01	 6.581727697080182e-01
 1.131370849901921e+00	 1.414213562374752e+01	 6.557622095629070e-01
 4.949747468355806e-01	 1.477853172681358e+01	 6.432430116777399e-01
-1.414213562300000e-01	 1.541492782987800e+01	 6.185897372187238e-01
 6.363961030700001e+00	 9.192388155400000e+00	 5.717039078309444e-01
 5.727564927625500e+00	 9.828784258479125e+00	 5.712492357505096e-01
 5.091168824552001e+00	 1.046518036155650e+01	 5.730736883985145e-01
 4.454772721479500e+00	 1.110157646463213e+01	 5.996120185718559e-01
 3.818376618408000e+00	 1.173797256770600e+01	 6.261776125884859e-01
 3.181980515337500e+00	 1.237436867077813e+01	 6.525301897117196e-01
 2.545584412268001e+00	 1.301076477384850e+01	 6.641166102976001e-01
 1.909188309199501e+00	 1.364716087691713e+01	 6.634972570380696e-01
 1.272792206132001e+00	 1.428355697998400e+01	 6.569484248488775e-01
 6.363961030655005e-01	 1.491995308304912e+01	 6.424446748963508e-01
 5.551115123125783e-17	 1.555634918611250e+01	 6.179605683468281e-01
 6.505382386939999e+00	 9.333809511640000e+00	 6.484494423092030e-01
 5.868986283863780e+00	 9.970205614719079e+00	 6.302374284992522e-01
 5.232590180788718e+00	 1.060660171779632e+01	 6.229272791347205e-01
 4.596194077714820e+00	 1.124299782087172e+01	 6.350665778928406e-01
 3.959797974642079e+00	 1.187939392394528e+01	 6.491979334284562e-01
 3.323401871570500e+00	 1.251579002701700e+01	 6.650810650050533e-01
 2.687005768500080e+00	 1.315218613008688e+01	 6.735124312119980e-01
 2.050609665430820e+00	 1.378858223315492e+01	 6.673501212339767e-01
 1.414213562362721e+00	 1.442497833622112e+01	 6.574120523028664e-01
 7.778174592957803e-01	 1.506137443928548e+01	 6.416727855851370e-01
 1.414213562300000e-01	 1.569777054234800e+01	 6.181068822472682e-01
 6.646803743180000e+00	 9.475230867880001e+00	 7.193009326041354e-01
 6.010407640102420e+00	 1.011162697095905e+01	 6.840218260293484e-01
 5.374011537026081e+00	 1.074802307403618e+01	 6.679075345909495e-01
 4.737615433950979e+00	 1.138441917711140e+01	 6.663674519174427e-01
 4.101219330877120e+00	 1.202081528018472e+01	 6.687842189556816e-01
 3.464823227804500e+00	 1.265721138325613e+01	 6.749175549693092e-01
 2.828427124733120e+00	 1.329360748632562e+01	 6.806651676300779e-01
 2.192031021662980e+00	 1.393000358939320e+01	 6.697089362357271e-01
 1.555634918594080e+00	 1.456639969245888e+01	 6.571306658648559e-01
 9.192388155264207e-01	 1.520279579552265e+01	 6.409049176840781e-01
 2.828427124599999e-01	 1.583919189858450e+01	 6.190062528600158e-01
 6.788225099420000e+00	 9.616652224119999e+00	 7.842755655651185e-01
 6.151828996341420e+00	 1.025304832719902e+01	 7.326196151932368e-01
 5.515432893264080e+00	 1.088944443027608e+01	 7.080200178985414e-01
 4.879036790187981e+00	 1.152584053335118e+01	 6.935202037770111e-01
 4.242640687113120e+00	 1.216223663642432e+01	 6.849420323015185e-01
 3.606244584039500e+00	 1.279863273949550e+01	 6.820452227358450e-01
 2.969848480967120e+00	 1.343502884256472e+01	 6.845894943437818e-01
 2.333452377895981e+00	 1.407142494563198e+01	 6.705512759833054e-01
 1.697056274826081e+00	 1.470782104869728e+01	 6.560818394748307e-01
 1.060660171757421e+00	 1.534421715176062e+01	 6.401186451331533e-01
 4.242640686899999e-01	 1.598061325482200e+01	 6.206362541250421e-01
 6.929646455659999e+00	 9.758073580360000e+00	 8.433905283475586e-01
 6.293250352580780e+00	 1.039446968343901e+01	 7.781369040912459e-01
 5.656854249502720e+00	 1.103086578651602e+01	 7.432702921888249e-01
 5.020458146425820e+00	 1.166726188959105e+01	 7.165303966028862e-01
 4.384062043350080e+00	 1.230365799266408e+01	 6.976769365973190e-01
 3.747665940275500e+00	 1.294005409573513e+01	 6.864696314360219e-01
 3.111269837202080e+00	 1.357645019880418e+01	 6.826682003829105e-01
 2.474873734129820e+00	 1.421284630187124e+01	 6.698547144167005e-01
 1.838477631058721e+00	 1.484924240493632e+01	 6.542431470727722e-01
 1.202081527988781e+00	 1.548563850799941e+01	 6.392915418723391e-01
 5.656854249199998e-01	 1.612203461106050e+01	 6.229744599823137e-01
 7.071067811900000e+00	 9.899494936600000e+00	 8.966630084129049e-01
 6.434671708820501e+00	 1.053589103967900e+01	 8.220157569106027e-01
 5.798275605742001e+00	 1.117228714275600e+01	 7.736639205931302e-01
 5.161879502664499e+00	 1.180868324583100e+01	 7.354035935264155e-01
 4.525483399588000e+00	 1.244507934890400e+01	 7.069944949744366e-01
 3.889087296512500e+00	 1.308147545197500e+01	 6.881963442011990e-01
 3.252691193438000e+00	 1.371787155504400e+01	 6.787688604707235e-01
 2.616295090364500e+00	 1.435426765811100e+01	 6.675968254759010e-01
 1.979898987292001e+00	 1.499066376117600e+01	 6.515921625986668e-01
 1.343502884220501e+00	 1.562705986423900e+01	 6.384011818416119e-01
 7.071067811500000e-01	 1.626345596730000e+01	 6.259984443717947e-01
-7.071067811500000e-01	 1.484924240495000e+01	 6.293097616301060e-01
-1.343502884220501e+00	 1.548563850801950e+01	 6.924346191571827e-01
-1.979898987292001e+00	 1.612203461108800e+01	 7.417844150244093e-01
-2.616295090364502e+00	 1.675843071415550e+01	 7.753337103979679e-01
-3.252691193438002e+00	 1.739482681722200e+01	 7.895109085956590e-01
-3.889087296512503e+00	 1.803122292028750e+01	 7.979572443955343e-01
-4.525483399588003e+00	 1.866761902335200e+01	 8.094845012573187e-01
-5.161879502664504e+00	 1.930401512641550e+01	 8.237757696587151e-01
-5.798275605742004e+00	 1.994041122947800e+01	 8.405141654659020e-01
-6.434671708820505e+00	 2.057680733253951e+01	 8.593828299307096e-01
-7.071067811900000e+00	 2.121320343560000e+01	 8.800649296877940e-01
-5.656854249200001e-01	 1.499066376118050e+01	 6.253544010686539e-01
-1.202081527988781e+00	 1.562705986424839e+01	 6.906806147682273e-01
-1.838477631058721e+00	 1.626345596731585e+01	 7.420474950681014e-01
-2.474873734129822e+00	 1.689985207038287e+01	 7.774296031344868e-01
-3.111269837202081e+00	 1.753624817344946e+01	 7.931624433254861e-01
-3.747665940275503e+00	 1.817264427651563e+01	 8.016510388047403e-01
-4.384062043350083e+00	 1.880904037958136e+01	 8.129080252582408e-01
-5.020458146425825e+00	 1.944543648264667e+01	 8.266164931789760e-01
-5.656854249502726e+00	 2.008183258571155e+01	 8.424595584482945e-01
-6.293250352580785e+00	 2.071822868877599e+01	 8.601203623330663e-01
-6.929646455660000e+00	 2.135462479184000e+01	 8.792820714828671e-01
-4.242640686900001e-01	 1.513208511741200e+01	 6.222642275196162e-01
-1.060660171757421e+00	 1.576848122047844e+01	 6.897117065612114e-01
-1.697056274826081e+00	 1.640487732354496e+01	 7.430155804632765e-01
-2.333452377895981e+00	 1.704127342661157e+01	 7.801504103920489e-01
-2.969848480967123e+00	 1.767766952967824e+01	 7.970997258469241e-01
-3.606244584039502e+00	 1.831406563274500e+01	 8.055223668442164e-01
-4.242640687113123e+00	 1.895046173581185e+01	 8.164008683124052e-01
-4.879036790187984e+00	 1.958685783887877e+01	 8.294183207597973e-01
-5.515432893264084e+00	 2.022325394194577e+01	 8.442578400829240e-01
-6.151828996341423e+00	 2.085965004501285e+01	 8.606025675637260e-01
-6.788225099420000e+00	 2.149604614808000e+01	 8.781356698667224e-01
-2.828427124600000e-01	 1.527350647364450e+01	 6.200168149229794e-01
-9.192388155264208e-01	 1.590990257670967e+01	 6.895054684761258e-01
-1.555634918594082e+00	 1.654629867977537e+01	 7.446662451499264e-01
-2.192031021662982e+00	 1.718269478284158e+01	 7.834737061106449e-01
-2.828427124733122e+00	 1.781909088590835e+01	 8.002979824802019e-01
-3.464823227804503e+00	 1.845548698897563e+01	 8.095678038799186e-01
-4.101219330877122e+00	 1.909188309204344e+01	 8.199596057850180e-01
-4.737615433950984e+00	 1.972827919511179e+01	 8.321778277656282e-01
-5.374011537026083e+00	 2.036467529818066e+01	 8.459055857334992e-01
-6.010407640102425e+00	 2.100107140125007e+01	 8.608260209856602e-01
-6.646803743180000e+00	 2.163746750432000e+01	 8.766223002015989e-01
-1.414213562300000e-01	 1.541492782987800e+01	 6.185897372187238e-01
-7.778174592957806e-01	 1.605132393294206e+01	 6.900394744529517e-01
-1.414213562362721e+00	 1.668772003600704e+01	 7.469770630680377e-01
-2.050609665430821e+00	 1.732411613907294e+01	 7.858162294727705e-01
-2.687005768500082e+00	 1.796051224213976e+01	 8.032129396603845e-01
-3.323401871570503e+00	 1.859690834520751e+01	 8.137839253390480e-01
-3.959797974642083e+00	 1.923330444827617e+01	 8.235808131025207e-01
-4.596194077714824e+00	 1.986970055134574e+01	 8.348915896221663e-01
-5.232590180788724e+00	 2.050609665441624e+01	 8.473993708249710e-01
-5.868986283863785e+00	 2.114249275748767e+01	 8.607872980230802e-01
-6.505382386939999e+00	 2.177888886056000e+01	 8.747385379109732e-01
 5.551115123125783e-17	 1.555634918611250e+01	 6.179605683468281e-01
-6.363961030655007e-01	 1.619274528917563e+01	 6.912912984316761e-01
-1.272792206132001e+00	 1.682914139224000e+01	 7.499256081576033e-01
-1.909188309199502e+00	 1.746553749530563e+01	 7.872300697702224e-01
-2.545584412268002e+00	 1.810193359837250e+01	 8.060877993431057e-01
-3.181980515337503e+00	 1.873832970144063e+01	 8.181673067100490e-01
-3.818376618408003e+00	 1.937472580451001e+01	 8.272610657526008e-01
-4.454772721479504e+00	 2.001112190758063e+01	 8.375561818163466e-01
-5.091168824552003e+00	 2.064751801065250e+01	 8.487357708435292e-01
-5.727564927625505e+00	 2.128391411372563e+01	 8.604829741614343e-01
-6.363961030700000e+00	 2.192031021680000e+01	 8.724809584795583e-01
 1.414213562300000e-01	 1.569777054234800e+01	 6.181068822472682e-01
-4.949747468355807e-01	 1.633416664541036e+01	 6.932385143522795e-01
-1.131370849901921e+00	 1.697056274847424e+01	 7.534894543586110e-01
-1.767766952969022e+00	 1.760695885153964e+01	 7.887531857471384e-01
-2.404163056036882e+00	 1.824335495460656e+01	 8.089386463191591e-01
-3.040559159105503e+00	 1.887975105767500e+01	 8.227145235426057e-01
-3.676955262174884e+00	 1.951614716074497e+01	 8.309969392841887e-01
-4.313351365245023e+00	 2.015254326381645e+01	 8.401681798963443e-01
-4.949747468315924e+00	 2.078893936688944e+01	 8.499113613366023e-01
-5.586143571387584e+00	 2.142533546996396e+01	 8.599096249474065e-01
-6.222539674460000e+00	 2.206173157304000e+01	 8.698461374532986e-01
 2.828427124599999e-01	 1.583919189858450e+01	 6.190062528600158e-01
-3.535533906060208e-01	 1.647558800164627e+01	 6.958586961547418e-01
-9.899494936724811e-01	 1.711198410470976e+01	 7.576461756110452e-01
-1.626345596739382e+00	 1.774838020777499e+01	 7.904016619538734e-01
-2.262741699806722e+00	 1.838477631084194e+01	 8.117815651007710e-01
-2.899137802874503e+00	 1.902117241391062e+01	 8.270625905409841e-01
-3.535533905942723e+00	 1.965756851698104e+01	 8.347850093074480e-01
-4.171930009011385e+00	 2.029396462005319e+01	 8.427241594715735e-01
-4.808326112080485e+00	 2.093036072312707e+01	 8.509227179128527e-01
-5.444722215150025e+00	 2.156675682620267e+01	 8.590638259889178e-01
-6.081118318220000e+00	 2.220315292928000e+01	 8.668306504393730e-01
 4.242640686899999e-01	 1.598061325482200e+01	 6.206362541250421e-01
-2.121320343768205e-01	 1.661700935788334e+01	 6.991294177790393e-01
-8.485281374436814e-01	 1.725340546094656e+01	 7.620011149256412e-01
-1.484924240510582e+00	 1.788980156401166e+01	 7.921915826622145e-01
-2.121320343577522e+00	 1.852619766707864e+01	 8.146326399216164e-01
-2.757716446644503e+00	 1.916259377014750e+01	 8.305306053763213e-01
-3.394112549711524e+00	 1.979898987321825e+01	 8.386218514937864e-01
-4.030508652778584e+00	 2.043538597629087e+01	 8.452206962126827e-01
-4.666904755845684e+00	 2.107178207936536e+01	 8.517664162421807e-01
-5.303300858912825e+00	 2.170817818244174e+01	 8.579421529551189e-01
-5.939696961979999e+00	 2.234457428552000e+01	 8.634310731061925e-01
 5.656854249199998e-01	 1.612203461106050e+01	 6.229744599823137e-01
-7.071067814798078e-02	 1.675843071412158e+01	 7.030282531651523e-01
-7.071067812155212e-01	 1.739482681718464e+01	 7.625764854128189e-01
-1.343502884282622e+00	 1.803122292024967e+01	 7.941390318654062e-01
-1.979898987349282e+00	 1.866761902331666e+01	 8.175079547368219e-01
-2.616295090415503e+00	 1.930401512638563e+01	 8.338895734713127e-01
-3.252691193481284e+00	 1.994041122945656e+01	 8.425040415758452e-01
-3.889087296546624e+00	 2.057680733252947e+01	 8.476543658515565e-01
-4.525483399611524e+00	 2.121320343560434e+01	 8.524390320557158e-01
-5.161879502675985e+00	 2.184959953868119e+01	 8.565411815763948e-01
-5.798275605740000e+00	 2.248599564176000e+01	 8.596439811833954e-01
 7.071067811500000e-01	 1.626345596730000e+01	 6.259984443717947e-01
 7.071067808049947e-02	 1.689985207036100e+01	 7.075327762530528e-01
-5.656854249880012e-01	 1.753624817342401e+01	 7.634587584140116e-01
-1.202081528055502e+00	 1.817264427648900e+01	 7.962600932781344e-01
-1.838477631122002e+00	 1.880904037955600e+01	 8.204235932229720e-01
-2.474873734187503e+00	 1.944543648262501e+01	 8.371555784644142e-01
-3.111269837252004e+00	 2.008183258569601e+01	 8.464281553474995e-01
-3.747665940315504e+00	 2.071822868876900e+01	 8.500217441813138e-01
-4.384062043378004e+00	 2.135462479184401e+01	 8.529371411458246e-01
-5.020458146439505e+00	 2.199102089492100e+01	 8.548574876443575e-01
-5.656854249500000e+00	 2.262741699800000e+01	 8.554659504618486e-01
 7.071067811900000e+00	 9.899494936600000e+00	 1.106570811893403e+00
 6.434671708820501e+00	 1.053589103967900e+01	 9.787341033371874e-01
 5.798275605742001e+00	 1.117228714275600e+01	 8.833484891963431e-01
 5.161879502664499e+00	 1.180868324583100e+01	 8.042100635369910e-01
 4.525483399588000e+00	 1.244507934890400e+01	 7.410785456232498e-01
 3.889087296512500e+00	 1.308147545197500e+01	 6.937136547192175e-01
 3.252691193438000e+00	 1.371787155504400e+01	 6.618751100889709e-01
 2.616295090364500e+00	 1.435426765811100e+01	 6.344476934254022e-01
 1.979898987292001e+00	 1.499066376117600e+01	 6.083433281104018e-01
 1.343502884220501e+00	 1.562705986423900e+01	 5.912083241464745e-01
 7.071067811500000e-01	 1.626345596730000e+01	 5.810172427005417e-01
 7.353910524361001e+00	 1.018233764907950e+01	 1.124053140269498e+00
 6.717514421285019e+00	 1.081873375215508e+01	 1.007827692970921e+00
 6.081118318209668e+00	 1.145512985522920e+01	 9.131857688075090e-01
 5.444722215134957e+00	 1.209152595830190e+01	 8.346293537929811e-01
 4.808326112060879e+00	 1.272792206137314e+01	 7.719181671913817e-01
 4.171930008987438e+00	 1.336431816444294e+01	 7.248119282667371e-01
 3.535533905914630e+00	 1.400071426751129e+01	 6.930703562830520e-01
 2.899137802842458e+00	 1.463711037057820e+01	 6.751629033762526e-01
 2.262741699770921e+00	 1.527350647364366e+01	 6.515270505466029e-01
 1.626345596700018e+00	 1.590990257670768e+01	 6.370767338184761e-01
 9.899494936297502e-01	 1.654629867977025e+01	 6.297865143587192e-01
 7.636753236823999e+00	 1.046518036155800e+01	 1.146411435582241e+00
 7.000357133750970e+00	 1.110157646463071e+01	 1.036164860862781e+00
 6.363961030678278e+00	 1.173797256770244e+01	 9.420823966955374e-01
 5.727564927605931e+00	 1.237436867077319e+01	 8.639237623445073e-01
 5.091168824533921e+00	 1.301076477384296e+01	 8.014486770736675e-01
 4.454772721462251e+00	 1.364716087691175e+01	 7.544168601469773e-01
 3.818376618390920e+00	 1.428355697997956e+01	 7.225880308283780e-01
 3.181980515319930e+00	 1.491995308304639e+01	 7.057219083817926e-01
 2.545584412249280e+00	 1.555634918611224e+01	 6.912346867219942e-01
 1.909188309178971e+00	 1.619274528917711e+01	 6.794023685219758e-01
 1.272792206109000e+00	 1.682914139224100e+01	 6.749463223406952e-01
 7.919595949289000e+00	 1.074802307403550e+01	 1.173499777435672e+00
 7.283199846218357e+00	 1.138441917710590e+01	 1.063790112063769e+00
 6.646803743147832e+00	 1.202081528017569e+01	 9.700828779114157e-01
 6.010407640077417e+00	 1.265721138324488e+01	 8.921377942425445e-01
 5.374011537007120e+00	 1.329360748631346e+01	 8.297145803210738e-01
 4.737615433936939e+00	 1.393000358938144e+01	 7.825729554109021e-01
 4.101219330866870e+00	 1.456639969244881e+01	 7.504726387759139e-01
 3.464823227796918e+00	 1.520279579551558e+01	 7.331733496799793e-01
 2.828427124727081e+00	 1.583919189858174e+01	 7.272868281566186e-01
 2.192031021657359e+00	 1.647558800164730e+01	 7.180058197770266e-01
 1.555634918587750e+00	 1.711198410471225e+01	 7.163172581665417e-01
 8.202438661756000e+00	 1.103086578651200e+01	 1.200104937630474e+00
 7.566042558687179e+00	 1.166726188958064e+01	 1.090747951624893e+00
 6.929646455618319e+00	 1.230365799264896e+01	 9.972317175061327e-01
 6.293250352549419e+00	 1.294005409571696e+01	 9.193159545380721e-01
 5.656854249480480e+00	 1.357645019878464e+01	 8.567603819845718e-01
 5.020458146411500e+00	 1.421284630185200e+01	 8.093247191094807e-01
 4.384062043342481e+00	 1.484924240491904e+01	 7.767686851766314e-01
 3.747665940273421e+00	 1.548563850798576e+01	 7.588519994498432e-01
 3.111269837204321e+00	 1.612203461105216e+01	 7.553343811929210e-01
 2.474873734135181e+00	 1.675843071411824e+01	 7.527076791036854e-01
 1.838477631066000e+00	 1.739482681718400e+01	 7.478015186437142e-01
 8.485281374225000e+00	 1.131370849898750e+01	 1.226271421217677e+00
 7.848885271157438e+00	 1.195010460205494e+01	 1.117082884597163e+00
 7.212489168089751e+00	 1.258650070512225e+01	 1.023573420530686e+00
 6.576093065021938e+00	 1.322289680818944e+01	 9.455027482820737e-01
 5.939696961954001e+00	 1.385929291125650e+01	 8.826305871151383e-01
 5.303300858885938e+00	 1.449568901432344e+01	 8.347166562936850e-01
 4.666904755817749e+00	 1.513208511739025e+01	 8.015206750814999e-01
 4.030508652749438e+00	 1.576848122045694e+01	 7.828023627423624e-01
 3.394112549681001e+00	 1.640487732352350e+01	 7.783214385400368e-01
 2.757716446612438e+00	 1.704127342658994e+01	 7.833285380220012e-01
 2.121320343543750e+00	 1.767766952965625e+01	 7.708700036363345e-01
 8.768124086695998e+00	 1.159655121146200e+01	 1.252043733248316e+00
 8.131727983629130e+00	 1.223294731452879e+01	 1.142839416031596e+00
 7.495331880562119e+00	 1.286934341759556e+01	 1.049152492036076e+00
 6.858935777494969e+00	 1.350573952066231e+01	 9.707426805255384e-01
 6.222539674427680e+00	 1.414213562372904e+01	 9.073697007637556e-01
 5.586143571360251e+00	 1.477853172679575e+01	 8.587932720144907e-01
 4.949747468292680e+00	 1.541492782986244e+01	 8.247731135414956e-01
 4.313351365224970e+00	 1.605132393292911e+01	 8.050689446085136e-01
 3.676955262157120e+00	 1.668772003599576e+01	 7.994404844792747e-01
 3.040559159089129e+00	 1.732411613906239e+01	 8.050422740751572e-01
 2.404163056021000e+00	 1.796051224212900e+01	 7.908565918873562e-01
 9.050966799169000e+00	 1.187939392393550e+01	 1.285489104500307e+00
 8.414570696102256e+00	 1.251579002700219e+01	 1.168062050979213e+00
 7.778174593035430e+00	 1.315218613006889e+01	 1.074013437073308e+00
 7.141778489968517e+00	 1.378858223313558e+01	 9.950802563194603e-01
 6.505382386901521e+00	 1.442497833620226e+01	 9.310222279814065e-01
 5.868986283834437e+00	 1.506137443926894e+01	 8.815990713228781e-01
 5.232590180767270e+00	 1.569777054233561e+01	 8.465705056075961e-01
 4.596194077700019e+00	 1.633416664540228e+01	 8.256962500992735e-01
 3.959797974632680e+00	 1.697056274846894e+01	 8.187360240616157e-01
 3.323401871565258e+00	 1.760695885153560e+01	 8.149142207788189e-01
 2.687005768497750e+00	 1.824335495460225e+01	 8.078899261758313e-01
 9.333809511644001e+00	 1.216223663640800e+01	 1.318477930595742e+00
 8.697413408576820e+00	 1.279863273947516e+01	 1.192795294491039e+00
 8.061017305509679e+00	 1.343502884254224e+01	 1.098200760693392e+00
 7.424621202442578e+00	 1.407142494560924e+01	 1.018559980714837e+00
 6.788225099375520e+00	 1.470782104867616e+01	 9.536326738190823e-01
 6.151828996308501e+00	 1.534421715174300e+01	 9.031785592698311e-01
 5.515432893241520e+00	 1.598061325480976e+01	 8.669573563307796e-01
 4.879036790174580e+00	 1.661700935787644e+01	 8.447287842656203e-01
 4.242640687107681e+00	 1.725340546094304e+01	 8.359888093709550e-01
 3.606244584040820e+00	 1.788980156400956e+01	 8.243259209749876e-01
 2.969848480974000e+00	 1.852619766707600e+01	 8.216095328813400e-01
 9.616652224120999e+00	 1.244507934887950e+01	 1.348938629902423e+00
 8.980256121052818e+00	 1.308147545194768e+01	 1.221913125564089e+00
 8.343860017984870e+00	 1.371787155501561e+01	 1.121758967947343e+00
 7.707463914917157e+00	 1.435426765808330e+01	 1.041226358762673e+00
 7.071067811849680e+00	 1.499066376115074e+01	 9.752455433277758e-01
 6.434671708782437e+00	 1.562705986421794e+01	 9.235762409063345e-01
 5.798275605715430e+00	 1.626345596728489e+01	 8.859781707620293e-01
 5.161879502648659e+00	 1.689985207035160e+01	 8.622110521585373e-01
 4.525483399582120e+00	 1.753624817341806e+01	 8.459904720515830e-01
 3.889087296515818e+00	 1.817264427648427e+01	 8.332000754003643e-01
 3.252691193449750e+00	 1.880904037955025e+01	 8.294000347002778e-01
 9.899494936600000e+00	 1.272792206135000e+01	 1.377001606704406e+00
 9.263098833530250e+00	 1.336431816441975e+01	 1.252810270072063e+00
 8.626702730461000e+00	 1.400071426748900e+01	 1.144732563886182e+00
 7.990306627392250e+00	 1.463711037055775e+01	 1.063123895513974e+00
 7.353910524324001e+00	 1.527350647362600e+01	 9.959053415584844e-01
 6.717514421256251e+00	 1.590990257669375e+01	 9.428366212833811e-01
 6.081118318189000e+00	 1.654629867976100e+01	 9.036774539523307e-01
 5.444722215122251e+00	 1.718269478282775e+01	 8.781875588290012e-01
 4.808326112056001e+00	 1.781909088589400e+01	 8.555488923309411e-01
 4.171930008990251e+00	 1.845548698895975e+01	 8.414593873163988e-01
 3.535533905925000e+00	 1.909188309202500e+01	 8.364040904322528e-01
 7.071067811500000e-01	 1.626345596730000e+01	 5.810172427005417e-01
 7.071067808049947e-02	 1.689985207036100e+01	 6.677619326775918e-01
-5.656854249880012e-01	 1.753624817342401e+01	 7.287399978380631e-01
-1.202081528055502e+00	 1.817264427648900e+01	 7.664351406060200e-01
-1.838477631122002e+00	 1.880904037955600e+01	 7.953341733594801e-01
-2.474873734187503e+00	 1.944543648262501e+01	 8.166434163146625e-01
-3.111269837252004e+00	 2.008183258569601e+01	 8.303349758167993e-01
-3.747665940315504e+00	 2.071822868876900e+01	 8.381892721750315e-01
-4.384062043378004e+00	 2.135462479184401e+01	 8.452071015692452e-01
-5.020458146439505e+00	 2.199102089492100e+01	 8.510716054025474e-01
-5.656854249500000e+00	 2.262741699800000e+01	 8.554659504595195e-01
 9.899494936297502e-01	 1.654629867977025e+01	 6.297865143587192e-01
 3.535533905602919e-01	 1.718269478283282e+01	 7.096684148905914e-01
-2.828427125081811e-01	 1.781909088589684e+01	 7.543752167770108e-01
-9.192388155756690e-01	 1.845548698896230e+01	 7.871627688607457e-01
-1.555634918642173e+00	 1.909188309202921e+01	 8.115649425058347e-01
-2.192031021707690e+00	 1.972827919509756e+01	 8.287880594713199e-01
-2.828427124772224e+00	 2.036467529816737e+01	 8.400383411959974e-01
-3.464823227835772e+00	 2.100107140123861e+01	 8.436620974986433e-01
-4.101219330898336e+00	 2.163746750431130e+01	 8.461271904978310e-01
-4.737615433959914e+00	 2.227386360738543e+01	 8.481130380786579e-01
-5.374011537020500e+00	 2.291025971046100e+01	 8.493028070559642e-01
 1.272792206109000e+00	 1.682914139224100e+01	 6.749463223406952e-01
 6.363961030396696e-01	 1.746553749530489e+01	 7.396314699210012e-01
-2.872141782218895e-11	 1.810193359836977e+01	 7.769710873976305e-01
-6.363961030961716e-01	 1.873832970143562e+01	 8.051296414424939e-01
-1.272792206162682e+00	 1.937472580450244e+01	 8.253135556876869e-01
-1.909188309228253e+00	 2.001112190757025e+01	 8.387291534345933e-01
-2.545584412292884e+00	 2.064751801063904e+01	 8.465826576652620e-01
-3.181980515356574e+00	 2.128391411370881e+01	 8.484274837894803e-01
-3.818376618419324e+00	 2.192031021677956e+01	 8.467187330470999e-01
-4.454772721481136e+00	 2.255670631985130e+01	 8.452048153667229e-01
-5.091168824542001e+00	 2.319310242292400e+01	 8.435688975935600e-01
 1.555634918587750e+00	 1.711198410471225e+01	 7.163172581665417e-01
 9.192388155186317e-01	 1.774838020777720e+01	 7.640778020773665e-01
 2.828427124503789e-01	 1.838477631084277e+01	 7.966562696950413e-01
-3.535533906170091e-01	 1.902117241390892e+01	 8.204644180419229e-01
-9.899494936835319e-01	 1.965756851697570e+01	 8.367086722910445e-01
-1.626345596749190e+00	 2.029396462004307e+01	 8.465953572856419e-01
-2.262741699813983e+00	 2.093036072311104e+01	 8.513306975505286e-01
-2.899137802877912e+00	 2.156675682617963e+01	 8.521208173034809e-01
-3.535533905940974e+00	 2.220315292924882e+01	 8.469543377601425e-01
-4.171930009003173e+00	 2.283954903231861e+01	 8.423195458037944e-01
-4.808326112064499e+00	 2.347594513538900e+01	 8.382368306033771e-01
 1.838477631066000e+00	 1.739482681718400e+01	 7.478015186437142e-01
 1.202081527997179e+00	 1.803122292024976e+01	 7.854635164761085e-01
 5.656854249291188e-01	 1.866761902331584e+01	 8.135594192081484e-01
-7.071067813818174e-02	 1.930401512638224e+01	 8.332957538935903e-01
-7.071067812047221e-01	 1.994041122944897e+01	 8.458789472459204e-01
-1.343502884270503e+00	 2.057680733251600e+01	 8.525153256497355e-01
-1.979898987335523e+00	 2.121320343558337e+01	 8.544111151721333e-01
-2.616295090399784e+00	 2.184959953865105e+01	 8.527724415740764e-01
-3.252691193463285e+00	 2.248599564171905e+01	 8.468066141596119e-01
-3.889087296526025e+00	 2.312239174478736e+01	 8.394298389064703e-01
-4.525483399588000e+00	 2.375878784785600e+01	 8.332792155959974e-01
 2.121320343543750e+00	 1.767766952965625e+01	 7.708700036363345e-01
 1.484924240475312e+00	 1.831406563272256e+01	 8.039172645041877e-01
 8.485281374074984e-01	 1.895046173578900e+01	 8.278091870198649e-01
 2.121320343403107e-01	 1.958685783885556e+01	 8.437522997761703e-01
-4.242640687262521e-01	 2.022325394192225e+01	 8.529530310265500e-01
-1.060660171792190e+00	 2.085965004498907e+01	 8.566177086964792e-01
-1.697056274857503e+00	 2.149604614805600e+01	 8.559525603948446e-01
-2.333452377922192e+00	 2.213244225112307e+01	 8.521637134253122e-01
-2.969848480986254e+00	 2.276883835419026e+01	 8.462481727476754e-01
-3.606244584049692e+00	 2.340523445725757e+01	 8.365083051708309e-01
-4.242640687112500e+00	 2.404163056032500e+01	 8.286686630614710e-01
 2.404163056021000e+00	 1.796051224212900e+01	 7.908565918873562e-01
 1.767766952953029e+00	 1.859690834519561e+01	 8.195676930926830e-01
 1.131370849885519e+00	 1.923330444826224e+01	 8.395342197573332e-01
 4.949747468184682e-01	 1.986970055132889e+01	 8.519627020126708e-01
-1.414213562481222e-01	 2.050609665439557e+01	 8.580595696516126e-01
-7.778174593142529e-01	 2.114249275746225e+01	 8.590311521400246e-01
-1.414213562379924e+00	 2.177888886052897e+01	 8.560836786280883e-01
-2.050609665445134e+00	 2.241528496359569e+01	 8.504232779616889e-01
-2.687005768509884e+00	 2.305168106666244e+01	 8.432559786937855e-01
-3.323401871574176e+00	 2.368807716972922e+01	 8.335275560724061e-01
-3.959797974638000e+00	 2.432447327279600e+01	 8.309177300448271e-01
 2.687005768497750e+00	 1.824335495460225e+01	 8.078899261758313e-01
 2.050609665430331e+00	 1.887975105766890e+01	 8.325434447170086e-01
 1.414213562363179e+00	 1.951614716073556e+01	 8.488631595921382e-01
 7.778174592962905e-01	 2.015254326380223e+01	 8.580556024706505e-01
 1.414213562296678e-01	 2.078893936686890e+01	 8.613272046844482e-01
-4.949747468366905e-01	 2.142533546993557e+01	 8.598842972392895e-01
-1.131370849902783e+00	 2.206173157300224e+01	 8.549331108261673e-01
-1.767766952968612e+00	 2.269812767606893e+01	 8.476797758326875e-01
-2.404163056034175e+00	 2.333452377913562e+01	 8.393303223544467e-01
-3.040559159099473e+00	 2.397091988220231e+01	 8.304602040661146e-01
-3.676955262164500e+00	 2.460731598526900e+01	 8.374272723780816e-01
 2.969848480974000e+00	 1.852619766707600e+01	 8.216095328813400e-01
 2.333452377907219e+00	 1.916259377014244e+01	 8.429731573971302e-01
 1.697056274840479e+00	 1.979898987320897e+01	 8.559246442405254e-01
 1.060660171773778e+00	 2.043538597627557e+01	 8.621596385624407e-01
 4.242640687071176e-01	 2.107178207934225e+01	 8.628845732332719e-01
-2.121320343595030e-01	 2.170817818240900e+01	 8.593057807981797e-01
-8.485281374260834e-01	 2.234457428547584e+01	 8.526294934884738e-01
-1.484924240492624e+00	 2.298097038854276e+01	 8.440618432329913e-01
-2.121320343559125e+00	 2.361736649160976e+01	 8.348088616694710e-01
-2.757716446625585e+00	 2.425376259467685e+01	 8.307341577220448e-01
-3.394112549692001e+00	 2.489015869774400e+01	 8.449229867374082e-01
 3.252691193449750e+00	 1.880904037955025e+01	 8.294000347002778e-01
 2.616295090383692e+00	 1.944543648261622e+01	 8.509854646977855e-01
 1.979898987317418e+00	 2.008183258568244e+01	 8.608473069636188e-01
 1.343502884250930e+00	 2.071822868874890e+01	 8.644034432453580e-01
 7.071067811842275e-01	 2.135462479181561e+01	 8.628603079513931e-01
 7.071067811730961e-02	 2.199102089488256e+01	 8.574242351657979e-01
-5.656854249498237e-01	 2.262741699794977e+01	 8.493014586597064e-01
-1.202081528017172e+00	 2.326381310101721e+01	 8.396981119026933e-01
-1.838477631084735e+00	 2.390020920408489e+01	 8.298202280741430e-01
-2.474873734152513e+00	 2.453660530715283e+01	 8.373556773065649e-01
-3.111269837220500e+00	 2.517300141022100e+01	 8.533862876936330e-01
 3.535533905925000e+00	 1.909188309202500e+01	 8.364040904322528e-01
 2.899137802859750e+00	 1.972827919509026e+01	 8.567089957286979e-01
 2.262741699793998e+00	 2.036467529815600e+01	 8.637597765676397e-01
 1.626345596727748e+00	 2.100107140122225e+01	 8.649156450219193e-01
 9.899494936609978e-01	 2.163746750428901e+01	 8.613830370374332e-01
 3.535533905937472e-01	 2.227386360735625e+01	 8.543682882366692e-01
-2.828427124740034e-01	 2.291025971042401e+01	 8.450776339300944e-01
-9.192388155422540e-01	 2.354665581349225e+01	 8.347172091275212e-01
-1.555634918611005e+00	 2.418305191656101e+01	 8.264793324439244e-01
-2.192031021680255e+00	 2.481944801963025e+01	 8.444698202699261e-01
-2.828427124750000e+00	 2.545584412270000e+01	 8.621761834155349e-01
 9.899494936600000e+00	 1.272792206135000e+01	 1.377001606704406e+00
 9.263098833530250e+00	 1.336431816441975e+01	 1.252810270072063e+00
 8.626702730461000e+00	 1.400071426748900e+01	 1.144732563886182e+00
 7.990306627392250e+00	 1.463711037055775e+01	 1.063123895513974e+00
 7.353910524324001e+00	 1.527350647362600e+01	 9.959053415584844e-01
 6.717514421256251e+00	 1.590990257669375e+01	 9.428366212833811e-01
 6.081118318189000e+00	 1.654629867976100e+01	 9.036774539523307e-01
 5.444722215122251e+00	 1.718269478282775e+01	 8.781875588290012e-01
 4.808326112056001e+00	 1.781909088589400e+01	 8.555488923309411e-01
 4.171930008990251e+00	 1.845548698895975e+01	 8.414593873163988e-01
 3.535533905925000e+00	 1.909188309202500e+01	 8.364040904322528e-01
 1.018233764908000e+01	 1.301076477382050e+01	 1.341127804583891e+00
 9.545941546008487e+00	 1.364716087689182e+01	 1.230944792099852e+00
 8.909545442937748e+00	 1.428355697996239e+01	 1.129570990804606e+00
 8.273149339867789e+00	 1.491995308303220e+01	 1.053798121666992e+00
 7.636753236798599e+00	 1.555634918610125e+01	 9.935182380006629e-01
 7.000357133730187e+00	 1.619274528916957e+01	 9.462117474354794e-01
 6.363961030662550e+00	 1.682914139223711e+01	 9.116383692351485e-01
 5.727564927595687e+00	 1.746553749530390e+01	 8.865121895867791e-01
 5.091168824529601e+00	 1.810193359836994e+01	 8.657433826103209e-01
 4.454772721464288e+00	 1.873832970143522e+01	 8.534700022122760e-01
 3.818376618399751e+00	 1.937472580449975e+01	 8.492599174084301e-01
 1.046518036156000e+01	 1.329360748629200e+01	 1.307469991614986e+00
 9.828784258486900e+00	 1.393000358936434e+01	 1.210776196640784e+00
 9.192388155414802e+00	 1.456639969243576e+01	 1.121570291602460e+00
 8.555992052343699e+00	 1.520279579550626e+01	 1.047280400827182e+00
 7.919595949273599e+00	 1.583919189857584e+01	 9.934666153418887e-01
 7.283199846204502e+00	 1.647558800164450e+01	 9.514497823785351e-01
 6.646803743136401e+00	 1.711198410471224e+01	 9.209896212008556e-01
 6.010407640069301e+00	 1.774838020777906e+01	 8.958279273020818e-01
 5.374011537003201e+00	 1.838477631084496e+01	 8.773862170999056e-01
 4.737615433938100e+00	 1.902117241390994e+01	 8.664690201377515e-01
 4.101219330874000e+00	 1.965756851697400e+01	 8.626442027641915e-01
 1.074802307404000e+01	 1.357645019876450e+01	 1.276158564587770e+00
 1.011162697096549e+01	 1.421284630183730e+01	 1.192434882061069e+00
 9.475230867892149e+00	 1.484924240490911e+01	 1.114877770067797e+00
 8.838834764819987e+00	 1.548563850797992e+01	 1.043953222955369e+00
 8.202438661748999e+00	 1.612203461104974e+01	 9.957949786331349e-01
 7.566042558679189e+00	 1.675843071411856e+01	 9.585952311635266e-01
 6.929646455610551e+00	 1.739482681718639e+01	 9.305349807750172e-01
 6.293250352543089e+00	 1.803122292025322e+01	 9.069746567197827e-01
 5.656854249476803e+00	 1.866761902331907e+01	 8.904001061077667e-01
 5.020458146411689e+00	 1.930401512638391e+01	 8.803791519277973e-01
 4.384062043347751e+00	 1.994041122944775e+01	 8.764796578614866e-01
 1.103086578652000e+01	 1.385929291123800e+01	 1.247323917794544e+00
 1.039446968344425e+01	 1.449568901431071e+01	 1.176051244229070e+00
 9.758073580369802e+00	 1.513208511738244e+01	 1.109623823645027e+00
 9.121677477296648e+00	 1.576848122045319e+01	 1.048507642415506e+00
 8.485281374224803e+00	 1.640487732352296e+01	 1.000547832925375e+00
 7.848885271154251e+00	 1.704127342659175e+01	 9.676925988414348e-01
 7.212489168085002e+00	 1.767766952965956e+01	 9.410572736569608e-01
 6.576093065017051e+00	 1.831406563272639e+01	 9.198750901455605e-01
 5.939696961950402e+00	 1.895046173579224e+01	 9.047077624663292e-01
 5.303300858885053e+00	 1.958685783885712e+01	 8.951231109416601e-01
 4.666904755821001e+00	 2.022325394192100e+01	 8.906889965864788e-01
 1.131370849900000e+01	 1.414213562371250e+01	 1.221096443029906e+00
 1.067731239592319e+01	 1.477853172678456e+01	 1.161755676515376e+00
 1.004091629284775e+01	 1.541492782985575e+01	 1.105938847280723e+00
 9.404520189773692e+00	 1.605132393292607e+01	 1.054111933724866e+00
 8.768124086701002e+00	 1.668772003599550e+01	 1.007769683269587e+00
 8.131727983629688e+00	 1.732411613906407e+01	 9.784560514589172e-01
 7.495331880559752e+00	 1.796051224213175e+01	 9.537159180379732e-01
 6.858935777491189e+00	 1.859690834519856e+01	 9.344519424093898e-01
 6.222539674424003e+00	 1.923330444826450e+01	 9.202319015322400e-01
 5.586143571358189e+00	 1.986970055132957e+01	 9.106236130627497e-01
 4.949747468293751e+00	 2.050609665439375e+01	 9.051949353494241e-01
 1.159655121148000e+01	 1.442497833618800e+01	 1.197606529590827e+00
 1.096015510840230e+01	 1.506137443925886e+01	 1.149678569792878e+00
 1.032375900532600e+01	 1.569777054232904e+01	 1.103953233423687e+00
 9.687362902251103e+00	 1.633416664539854e+01	 1.060896490908157e+00
 9.050966799177599e+00	 1.697056274846736e+01	 1.020974320441665e+00
 8.414570696105502e+00	 1.760695885153551e+01	 9.907445665336180e-01
 7.778174593034803e+00	 1.824335495460296e+01	 9.684336307456870e-01
 7.141778489965501e+00	 1.887975105766974e+01	 9.506279308654251e-01
 6.505382386897601e+00	 1.951614716073584e+01	 9.368952411862591e-01
 5.868986283831102e+00	 2.015254326380126e+01	 9.268033766985182e-01
 5.232590180766000e+00	 2.078893936686600e+01	 9.199201930845531e-01
 1.187939392396000e+01	 1.470782104866450e+01	 1.176984564276720e+00
 1.124299782088159e+01	 1.534421715173360e+01	 1.139950312436844e+00
 1.060660171780455e+01	 1.598061325480231e+01	 1.103797372025028e+00
 9.970205614728888e+00	 1.661700935787063e+01	 1.068991705492319e+00
 9.333809511654602e+00	 1.725340546093854e+01	 1.035983940573497e+00
 8.697413408581689e+00	 1.788980156400607e+01	 1.005474797425038e+00
 8.061017305510152e+00	 1.852619766707319e+01	 9.851331311318617e-01
 7.424621202439989e+00	 1.916259377013992e+01	 9.683257753918781e-01
 6.788225099371203e+00	 1.979898987320626e+01	 9.546205018331398e-01
 6.151828996303790e+00	 2.043538597627220e+01	 9.435851227803413e-01
 5.515432893237752e+00	 2.107178207933775e+01	 9.347874912499514e-01
 1.216223663644000e+01	 1.499066376114200e+01	 1.159360931389515e+00
 1.152584053336105e+01	 1.562705986420879e+01	 1.132701290324984e+00
 1.088944443028340e+01	 1.626345596727556e+01	 1.105601650538230e+00
 1.025304832720705e+01	 1.689985207034232e+01	 1.078527966506606e+00
 9.616652224132002e+00	 1.753624817340904e+01	 1.051658654921681e+00
 8.980256121058252e+00	 1.817264427647575e+01	 1.024419046077196e+00
 8.343860017985801e+00	 1.880904037954244e+01	 1.003737141072268e+00
 7.707463914914652e+00	 1.944543648260911e+01	 9.874681983909044e-01
 7.071067811844802e+00	 2.008183258567576e+01	 9.733304064015015e-01
 6.434671708776253e+00	 2.071822868874239e+01	 9.608915747633948e-01
 5.798275605709002e+00	 2.135462479180900e+01	 9.497195538274411e-01
 1.244507934892000e+01	 1.527350647362050e+01	 1.144866012733729e+00
 1.180868324584069e+01	 1.590990257668443e+01	 1.128061886837530e+00
 1.117228714276255e+01	 1.654629867974879e+01	 1.109496453919234e+00
 1.053589103968559e+01	 1.718269478281361e+01	 1.089635660482657e+00
 9.899494936609806e+00	 1.781909088587887e+01	 1.068515891058612e+00
 9.263098833535192e+00	 1.845548698894457e+01	 1.045915958001399e+00
 8.626702730461751e+00	 1.909188309201071e+01	 1.024168384966565e+00
 7.990306627389490e+00	 1.972827919507731e+01	 1.007977924788477e+00
 7.353910524318403e+00	 2.036467529814434e+01	 9.929476803437192e-01
 6.717514421248490e+00	 2.100107140121182e+01	 9.786454586265415e-01
 6.081118318179752e+00	 2.163746750427975e+01	 9.646391073224606e-01
 1.272792206140000e+01	 1.555634918610000e+01	 1.133630187616547e+00
 1.209152595832050e+01	 1.619274528916050e+01	 1.126162482857311e+00
 1.145512985524200e+01	 1.682914139222200e+01	 1.115612164626502e+00
 1.081873375216450e+01	 1.746553749528450e+01	 1.102412456032378e+00
 1.018233764908800e+01	 1.810193359834800e+01	 1.086582792431072e+00
 9.545941546012500e+00	 1.873832970141250e+01	 1.068130189433435e+00
 8.909545442937999e+00	 1.937472580447800e+01	 1.047114498828462e+00
 8.273149339864499e+00	 2.001112190754450e+01	 1.029777682034270e+00
 7.636753236792002e+00	 2.064751801061200e+01	 1.013395051635799e+00
 7.000357133720501e+00	 2.128391411368050e+01	 9.967695028722071e-01
 6.363961030650000e+00	 2.192031021675000e+01	 9.794688807639450e-01
 3.535533905925000e+00	 1.909188309202500e+01	 8.364040904322528e-01
 2.899137802859750e+00	 1.972827919509026e+01	 8.567089957286979e-01
 2.262741699793998e+00	 2.036467529815600e+01	 8.637597765676397e-01
 1.626345596727748e+00	 2.100107140122225e+01	 8.649156450219193e-01
 9.899494936609978e-01	 2.163746750428901e+01	 8.613830370374332e-01
 3.535533905937472e-01	 2.227386360735625e+01	 8.543682882366692e-01
-2.828427124740034e-01	 2.291025971042401e+01	 8.450776339300944e-01
-9.192388155422540e-01	 2.354665581349225e+01	 8.347172091275212e-01
-1.555634918611005e+00	 2.418305191656101e+01	 8.264793324439244e-01
-2.192031021680255e+00	 2.481944801963025e+01	 8.444698202699261e-01
-2.828427124750000e+00	 2.545584412270000e+01	 8.621761834155349e-01
 3.818376618399751e+00	 1.937472580449975e+01	 8.492599174084301e-01
 3.181980515335222e+00	 2.001112190756429e+01	 8.658648467668282e-01
 2.545584412269940e+00	 2.064751801062961e+01	 8.740198714384400e-01
 1.909188309203901e+00	 2.128391411369569e+01	 8.735588219651977e-01
 1.272792206137108e+00	 2.192031021676256e+01	 8.683187105732402e-01
 6.363961030695598e-01	 2.255670631983019e+01	 8.595058744229896e-01
 1.257084714101353e-12	 2.319310242289861e+01	 8.483265503637454e-01
-6.363961030678011e-01	 2.382949852596779e+01	 8.359868749450753e-01
-1.272792206137614e+00	 2.446589462903776e+01	 8.383313545680536e-01
-1.909188309208182e+00	 2.510229073210850e+01	 8.543298928318592e-01
-2.545584412279500e+00	 2.573868683518000e+01	 8.701371355830279e-01
 4.101219330874000e+00	 1.965756851697400e+01	 8.626442027641915e-01
 3.464823227809940e+00	 2.029396462003810e+01	 8.750598337342786e-01
 2.828427124744960e+00	 2.093036072310321e+01	 8.833939764794397e-01
 2.192031021679059e+00	 2.156675682616931e+01	 8.812933335468304e-01
 1.555634918612238e+00	 2.220315292923640e+01	 8.743230502767335e-01
 9.192388155444977e-01	 2.283954903230450e+01	 8.636894653670015e-01
 2.828427124758373e-01	 2.347594513537361e+01	 8.505988172052785e-01
-3.535533905937434e-01	 2.411234123844370e+01	 8.362572438803915e-01
-9.899494936642438e-01	 2.474873734151481e+01	 8.494299970632687e-01
-1.626345596735665e+00	 2.538513344458691e+01	 8.634805595305262e-01
-2.262741699807999e+00	 2.602152954766000e+01	 8.774326545394060e-01
 4.384062043347751e+00	 1.994041122944775e+01	 8.764796578614866e-01
 3.747665940283903e+00	 2.057680733251169e+01	 8.847911995464538e-01
 3.111269837219059e+00	 2.121320343557680e+01	 8.905186718889058e-01
 2.474873734153222e+00	 2.184959953864309e+01	 8.882477949062546e-01
 1.838477631086389e+00	 2.248599564171055e+01	 8.795246709837753e-01
 1.202081528018560e+00	 2.312239174477919e+01	 8.670476756007959e-01
 5.656854249497373e-01	 2.375878784784900e+01	 8.520230486828144e-01
-7.071067812008076e-02	 2.439518395091999e+01	 8.474487331037535e-01
-7.071067811908938e-01	 2.503158005399216e+01	 8.597951947718574e-01
-1.343502884262702e+00	 2.566797615706549e+01	 8.719417552467477e-01
-1.979898987335499e+00	 2.630437226014000e+01	 8.840826752039914e-01
 4.666904755821001e+00	 2.022325394192100e+01	 8.906889965864788e-01
 4.030508652757111e+00	 2.085965004498505e+01	 8.949816586165316e-01
 3.394112549692240e+00	 2.149604614805040e+01	 8.969471273183142e-01
 2.757716446626389e+00	 2.213244225111706e+01	 8.945508167289810e-01
 2.121320343559559e+00	 2.276883835418500e+01	 8.840521830764065e-01
 1.484924240491748e+00	 2.340523445725426e+01	 8.697091152027495e-01
 8.485281374229575e-01	 2.404163056032480e+01	 8.527278545708604e-01
 2.121320343531870e-01	 2.467802666339666e+01	 8.590532757339252e-01
-4.242640687175635e-01	 2.531442276646981e+01	 8.694468832302205e-01
-1.060660171789294e+00	 2.595081886954425e+01	 8.797334155554755e-01
-1.697056274861999e+00	 2.658721497262000e+01	 8.901071331902533e-01
 4.949747468293751e+00	 2.050609665439375e+01	 9.051949353494241e-01
 4.313351365229563e+00	 2.114249275745819e+01	 9.055539278817080e-01
 3.676955262164500e+00	 2.177888886052400e+01	 9.038425996313788e-01
 3.040559159098561e+00	 2.241528496359119e+01	 8.996289309945511e-01
 2.404163056031749e+00	 2.305168106665976e+01	 8.880341924830721e-01
 1.767766952964061e+00	 2.368807716972969e+01	 8.718023897977456e-01
 1.131370849895498e+00	 2.432447327280101e+01	 8.612270475166974e-01
 4.949747468260597e-01	 2.496086937587369e+01	 8.699202703496152e-01
-1.414213562442533e-01	 2.559726547894776e+01	 8.784049986689131e-01
-7.778174593154412e-01	 2.623366158202320e+01	 8.868754767258260e-01
-1.414213562387499e+00	 2.687005768510000e+01	 8.955259648058425e-01
 5.232590180766000e+00	 2.078893936686600e+01	 9.199201930845531e-01
 4.596194077701260e+00	 2.142533546993110e+01	 9.164307268030852e-01
 3.959797974635840e+00	 2.206173157299760e+01	 9.111278088161611e-01
 3.323401871569739e+00	 2.269812767606550e+01	 9.035794168529777e-01
 2.687005768502959e+00	 2.333452377913481e+01	 8.915993006788259e-01
 2.050609665435498e+00	 2.397091988220550e+01	 8.734561005573844e-01
 1.414213562367358e+00	 2.460731598527761e+01	 8.733341591380177e-01
 7.778174592985374e-01	 2.524371208835111e+01	 8.800696538369466e-01
 1.414213562290370e-01	 2.588010819142601e+01	 8.866894780126697e-01
-4.949747468411435e-01	 2.651650429450230e+01	 8.933878757211192e-01
-1.131370849911999e+00	 2.715290039758001e+01	 9.003591070526260e-01
 5.515432893237752e+00	 2.107178207933775e+01	 9.347874912499514e-01
 4.879036790172202e+00	 2.170817818240379e+01	 9.275347773655533e-01
 4.242640687106260e+00	 2.234457428547120e+01	 9.187254773844340e-01
 3.606244584039923e+00	 2.298097038853999e+01	 9.079275663691525e-01
 2.969848480973189e+00	 2.361736649161015e+01	 8.947090600545544e-01
 2.333452377906061e+00	 2.425376259468170e+01	 8.796608028011560e-01
 1.697056274838538e+00	 2.489015869775460e+01	 8.846996210257523e-01
 1.060660171770620e+00	 2.552655480082889e+01	 8.895213637762441e-01
 4.242640687023073e-01	 2.616295090390455e+01	 8.943202588804454e-01
-2.121320343664008e-01	 2.679934700698159e+01	 8.992905501989056e-01
-8.485281374354983e-01	 2.743574311006000e+01	 9.046264976267248e-01
 5.798275605709002e+00	 2.135462479180900e+01	 9.497195538274411e-01
 5.161879502642391e+00	 2.199102089487625e+01	 9.387888040776620e-01
 4.525483399575760e+00	 2.262741699794481e+01	 9.265583303715681e-01
 3.889087296509111e+00	 2.326381310101465e+01	 9.125961051053486e-01
 3.252691193442439e+00	 2.390020920408580e+01	 8.964701413472269e-01
 2.616295090375749e+00	 2.453660530715826e+01	 8.922671508743829e-01
 1.979898987309039e+00	 2.517300141023201e+01	 8.953433714157828e-01
 1.343502884242308e+00	 2.580939751330705e+01	 8.982953384420678e-01
 7.071067811755576e-01	 2.644579361638341e+01	 9.013172795854453e-01
 7.071067810878684e-02	 2.708218971946106e+01	 9.046034385110077e-01
-5.656854249579980e-01	 2.771858582254001e+01	 9.083480749185411e-01
 6.081118318179752e+00	 2.163746750427975e+01	 9.646391073224606e-01
 5.444722215111825e+00	 2.227386360734850e+01	 9.501155339715134e-01
 4.808326112044342e+00	 2.291025971041840e+01	 9.345490953364108e-01
 4.171930008977302e+00	 2.354665581348949e+01	 9.175077611472455e-01
 3.535533905910710e+00	 2.418305191656175e+01	 9.002387033233372e-01
 2.899137802844562e+00	 2.481944801963519e+01	 9.041277490036312e-01
 2.262741699778859e+00	 2.545584412270981e+01	 9.052853492382467e-01
 1.626345596713600e+00	 2.609224022578559e+01	 9.064115168032485e-01
 9.899494936487879e-01	 2.672863632886256e+01	 9.077004791351635e-01
 3.535533905844196e-01	 2.736503243194069e+01	 9.093464797035464e-01
-2.828427124794977e-01	 2.800142853502000e+01	 9.115437780127964e-01
 6.363961030650000e+00	 2.192031021675000e+01	 9.794688807639450e-01
 5.727564927580500e+00	 2.255670631982050e+01	 9.614376966026339e-01
 5.091168824511998e+00	 2.319310242289200e+01	 9.426205023611658e-01
 4.454772721444498e+00	 2.382949852596450e+01	 9.225852651038083e-01
 3.818376618377998e+00	 2.446589462903800e+01	 9.127164944362124e-01
 3.181980515312497e+00	 2.510229073211250e+01	 9.142362815215456e-01
 2.545584412247996e+00	 2.573868683518801e+01	 9.145454941175681e-01
 1.909188309184496e+00	 2.637508293826451e+01	 9.138898385229207e-01
 1.272792206121996e+00	 2.701147904134201e+01	 9.134897972314110e-01
 6.363961030604948e-01	 2.764787514442050e+01	 9.135396135169822e-01
 0.000000000000000e+00	 2.828427124750000e+01	 9.142335466885652e-01
-7.071067811900000e+00	-7.071067811900000e+00	 1.203078214720412e+00
-7.071067811900001e+00	-7.071067811900001e+00	 1.203078214720411e+00
-7.071067811900001e+00	-7.071067811900001e+00	 1.203078214720412e+00
-7.071067811900000e+00	-7.071067811900000e+00	 1.203078214720413e+00
-7.071067811899999e+00	-7.071067811899999e+00	 1.203078214720412e+00
-7.071067811900000e+00	-7.071067811900000e+00	 1.203078214720412e+00
-7.071067811900000e+00	-7.071067811900000e+00	 1.203078214720412e+00
-7.071067811900000e+00	-7.071067811900000e+00	 1.203078214720410e+00
-7.071067811900000e+00	-7.071067811900000e+00	 1.203078214720412e+00
-7.071067811900000e+00	-7.071067811900000e+00	 1.203078214720410e+00
-7.071067811900000e+00	-7.071067811900000e+00	 1.203078214720412e+00
-7.067532277994000e+00	-7.067532277994000e+00	 1.452842883392409e+01
-7.067885831384601e+00	-7.067178724603401e+00	 1.798562397948121e+01
-7.068239384775199e+00	-7.066825171212799e+00	 2.096442283072973e+01
-7.068592938165800e+00	-7.066471617822200e+00	 2.346482538763086e+01
-7.068946491556400e+00	-7.066118064431598e+00	 2.548683165020688e+01
-7.069300044947000e+00	-7.065764511041000e+00	 2.703044161844993e+01
-7.069653598337601e+00	-7.065410957650400e+00	 2.809565529236411e+01
-7.070007151728200e+00	-7.065057404259800e+00	 2.868247267193806e+01
-7.070360705118799e+00	-7.064703850869200e+00	 2.879089375719946e+01
-7.070714258509400e+00	-7.064350297478600e+00	 2.842091854810856e+01
-7.071067811900000e+00	-7.063996744088000e+00	 2.757254704469907e+01
-7.056925676275999e+00	-7.056925676275999e+00	 7.379685988232463e+00
-7.058339889838400e+00	-7.055511462713601e+00	 9.088939013697667e+00
-7.059754103400800e+00	-7.054097249151200e+00	 1.056107942139210e+01
-7.061168316963199e+00	-7.052683035588799e+00	 1.179610721129569e+01
-7.062582530525599e+00	-7.051268822026400e+00	 1.279402238339180e+01
-7.063996744087999e+00	-7.049854608463999e+00	 1.355482493766390e+01
-7.065410957650399e+00	-7.048440394901599e+00	 1.407851487409550e+01
-7.066825171212799e+00	-7.047026181339199e+00	 1.436509219266867e+01
-7.068239384775200e+00	-7.045611967776801e+00	 1.441455689336685e+01
-7.069653598337601e+00	-7.044197754214400e+00	 1.422690897617378e+01
-7.071067811900000e+00	-7.042783540652000e+00	 1.380214844107131e+01
-7.039248006745999e+00	-7.039248006745999e+00	 4.925781314021468e+00
-7.042429987261401e+00	-7.036066026230601e+00	 6.062641164095757e+00
-7.045611967776800e+00	-7.032884045715201e+00	 7.041598846186070e+00
-7.048793948292199e+00	-7.029702065199800e+00	 7.862654360101001e+00
-7.051975928807600e+00	-7.026520084684400e+00	 8.525807705646184e+00
-7.055157909322999e+00	-7.023338104169000e+00	 9.031058882628908e+00
-7.058339889838400e+00	-7.020156123653600e+00	 9.378407890856067e+00
-7.061521870353801e+00	-7.016974143138199e+00	 9.567854730134275e+00
-7.064703850869200e+00	-7.013792162622800e+00	 9.599399400270434e+00
-7.067885831384600e+00	-7.010610182107400e+00	 9.473041901071056e+00
-7.071067811899999e+00	-7.007428201591999e+00	 9.188782232343209e+00
-7.014499269404000e+00	-7.014499269404000e+00	 3.686359456737279e+00
-7.020156123653600e+00	-7.008842415154400e+00	 4.538972779104176e+00
-7.025812977903199e+00	-7.003185560904799e+00	 5.273060752935505e+00
-7.031469832152800e+00	-6.997528706655200e+00	 5.888623377144959e+00
-7.037126686402400e+00	-6.991871852405600e+00	 6.385660650647009e+00
-7.042783540652000e+00	-6.986214998156000e+00	 6.764172572356297e+00
-7.048440394901601e+00	-6.980558143906401e+00	 7.024159141187174e+00
-7.054097249151201e+00	-6.974901289656801e+00	 7.165620356053926e+00
-7.059754103400801e+00	-6.969244435407201e+00	 7.188556215871285e+00
-7.065410957650401e+00	-6.963587581157601e+00	 7.092966719553505e+00
-7.071067811900000e+00	-6.957930726908000e+00	 6.878851866015028e+00
-6.982679464249999e+00	-6.982679464249999e+00	 2.939480821821792e+00
-6.991518299015001e+00	-6.973840629485002e+00	 3.622194880052371e+00
-7.000357133780000e+00	-6.965001794720001e+00	 4.209936369356578e+00
-7.009195968545001e+00	-6.956162959955000e+00	 4.702705285593386e+00
-7.018034803310000e+00	-6.947324125190000e+00	 5.100501624621576e+00
-7.026873638075000e+00	-6.938485290425000e+00	 5.403325382300005e+00
-7.035712472839999e+00	-6.929646455659999e+00	 5.611176554487514e+00
-7.044551307604999e+00	-6.920807620894999e+00	 5.724055137043080e+00
-7.053390142370000e+00	-6.911968786130000e+00	 5.741961125825478e+00
-7.062228977135001e+00	-6.903129951365001e+00	 5.664894516693673e+00
-7.071067811900000e+00	-6.894291116600000e+00	 5.492855305506467e+00
-6.943788591283999e+00	-6.943788591283999e+00	 2.440913476517163e+00
-6.956516513345600e+00	-6.931060669222400e+00	 3.010653748160491e+00
-6.969244435407200e+00	-6.918332747160799e+00	 3.501092441065821e+00
-6.981972357468800e+00	-6.905604825099201e+00	 3.912229542868069e+00
-6.994700279530399e+00	-6.892876903037599e+00	 4.244065041201747e+00
-7.007428201592000e+00	-6.880148980976000e+00	 4.496598923701463e+00
-7.020156123653599e+00	-6.867421058914399e+00	 4.669831178001980e+00
-7.032884045715201e+00	-6.854693136852801e+00	 4.763761791738041e+00
-7.045611967776801e+00	-6.841965214791201e+00	 4.778390752544246e+00
-7.058339889838400e+00	-6.829237292729600e+00	 4.713718048055386e+00
-7.071067811899999e+00	-6.816509370667999e+00	 4.569743665906253e+00
-6.897826650506000e+00	-6.897826650506000e+00	 2.085115350734637e+00
-6.915150766645398e+00	-6.880502534366599e+00	 2.574323303930994e+00
-6.932474882784800e+00	-6.863178418227200e+00	 2.995407714531446e+00
-6.949798998924201e+00	-6.845854302087799e+00	 3.348368551355149e+00
-6.967123115063600e+00	-6.828530185948400e+00	 3.633205783221378e+00
-6.984447231202999e+00	-6.811206069809000e+00	 3.849919378949414e+00
-7.001771347342399e+00	-6.793881953669599e+00	 3.998509307358641e+00
-7.019095463481801e+00	-6.776557837530200e+00	 4.078975537268435e+00
-7.036419579621198e+00	-6.759233721390798e+00	 4.091318037498341e+00
-7.053743695760600e+00	-6.741909605251400e+00	 4.035536776867930e+00
-7.071067811900000e+00	-6.724585489112000e+00	 3.911631724196821e+00
-6.844793641916000e+00	-6.844793641916000e+00	 1.819035652658499e+00
-6.867421058914400e+00	-6.822166224917600e+00	 2.247951996114048e+00
-6.890048475912799e+00	-6.799538807919199e+00	 2.617119326349590e+00
-6.912675892911201e+00	-6.776911390920801e+00	 2.926537573888417e+00
-6.935303309909600e+00	-6.754283973922401e+00	 3.176206669254048e+00
-6.957930726907999e+00	-6.731656556923999e+00	 3.366126542970229e+00
-6.980558143906398e+00	-6.709029139925598e+00	 3.496297125560810e+00
-7.003185560904798e+00	-6.686401722927198e+00	 3.566718347549986e+00
-7.025812977903199e+00	-6.663774305928799e+00	 3.577390139462003e+00
-7.048440394901601e+00	-6.641146888930400e+00	 3.528312431821445e+00
-7.071067811900001e+00	-6.618519471932001e+00	 3.419485155152977e+00
-6.784689565513999e+00	-6.784689565513999e+00	 1.613096623607114e+00
-6.813327390152599e+00	-6.756051740875400e+00	 1.995200306067147e+00
-6.841965214791201e+00	-6.727413916236801e+00	 2.324062570661019e+00
-6.870603039429801e+00	-6.698776091598202e+00	 2.599683276539642e+00
-6.899240864068400e+00	-6.670138266959600e+00	 2.822062282854633e+00
-6.927878688707001e+00	-6.641500442321001e+00	 2.991199448758033e+00
-6.956516513345600e+00	-6.612862617682399e+00	 3.107094633402383e+00
-6.985154337984198e+00	-6.584224793043798e+00	 3.169747695940722e+00
-7.013792162622800e+00	-6.555586968405199e+00	 3.179158495526648e+00
-7.042429987261399e+00	-6.526949143766600e+00	 3.135326891314255e+00
-7.071067811899999e+00	-6.498311319128000e+00	 3.038252742458096e+00
-6.717514421300000e+00	-6.717514421300000e+00	 1.449509069107799e+00
-6.752869760360000e+00	-6.682159082240001e+00	 1.794229551023694e+00
-6.788225099420001e+00	-6.646803743180000e+00	 2.090910277921820e+00
-6.823580438480000e+00	-6.611448404120000e+00	 2.339550984770378e+00
-6.858935777539999e+00	-6.576093065059998e+00	 2.540151406538663e+00
-6.894291116600000e+00	-6.540737726000000e+00	 2.692711278197160e+00
-6.929646455660000e+00	-6.505382386940000e+00	 2.797230334717569e+00
-6.965001794720000e+00	-6.470027047880000e+00	 2.853708311072770e+00
-7.000357133780000e+00	-6.434671708820000e+00	 2.862144942236811e+00
-7.035712472840000e+00	-6.399316369760000e+00	 2.822539963184937e+00
-7.071067811900000e+00	-6.363961030700001e+00	 2.734893108893576e+00
-6.717514421300000e+00	-6.717514421300000e+00	 1.449509069107799e+00
-6.752869760360000e+00	-6.682159082240001e+00	 1.794229551023694e+00
-6.788225099420001e+00	-6.646803743180000e+00	 2.090910277921820e+00
-6.823580438480000e+00	-6.611448404120000e+00	 2.339550984770378e+00
-6.858935777539999e+00	-6.576093065059998e+00	 2.540151406538663e+00
-6.894291116600000e+00	-6.540737726000000e+00	 2.692711278197160e+00
-6.929646455660000e+00	-6.505382386940000e+00	 2.797230334717569e+00
-6.965001794720000e+00	-6.470027047880000e+00	 2.853708311072770e+00
-7.000357133780000e+00	-6.434671708820000e+00	 2.862144942236811e+00
-7.035712472840000e+00	-6.399316369760000e+00	 2.822539963184937e+00
-7.071067811900000e+00	-6.363961030700001e+00	 2.734893108893576e+00
-6.643268209274000e+00	-6.643268209274000e+00	 1.274331107965734e+00
-6.686048169536599e+00	-6.600488249011398e+00	 1.593695163573537e+00
-6.728828129799202e+00	-6.557708288748801e+00	 1.869658737729347e+00
-6.771608090061800e+00	-6.514928328486200e+00	 2.102221360913690e+00
-6.814388050324401e+00	-6.472148368223601e+00	 2.291382563609645e+00
-6.857168010586999e+00	-6.429368407961000e+00	 2.437141876302832e+00
-6.899947970849601e+00	-6.386588447698400e+00	 2.539498829481400e+00
-6.942727931112200e+00	-6.343808487435800e+00	 2.598452953636047e+00
-6.985507891374802e+00	-6.301028527173202e+00	 2.614003779259989e+00
-7.028287851637398e+00	-6.258248566910598e+00	 2.586150836849013e+00
-7.071067811900000e+00	-6.215468606648000e+00	 2.514893656901412e+00
-6.561950929436001e+00	-6.561950929436001e+00	 1.137466143166075e+00
-6.612862617682399e+00	-6.511039241189599e+00	 1.434408300859621e+00
-6.663774305928800e+00	-6.460127552943200e+00	 1.691681290107836e+00
-6.714685994175198e+00	-6.409215864696799e+00	 1.909284319532125e+00
-6.765597682421602e+00	-6.358304176450401e+00	 2.087216597758956e+00
-6.816509370668001e+00	-6.307392488204000e+00	 2.225477333419913e+00
-6.867421058914401e+00	-6.256480799957600e+00	 2.324065735151666e+00
-6.918332747160801e+00	-6.205569111711201e+00	 2.382981011595983e+00
-6.969244435407200e+00	-6.154657423464800e+00	 2.402222371399714e+00
-7.020156123653601e+00	-6.103745735218400e+00	 2.381789023214829e+00
-7.071067811900001e+00	-6.052834046971999e+00	 2.321680175698348e+00
-6.473562581786000e+00	-6.473562581786000e+00	 1.028594152057174e+00
-6.533313104797400e+00	-6.413812058774599e+00	 1.305661326563387e+00
-6.593063627808800e+00	-6.354061535763201e+00	 1.546120042610217e+00
-6.652814150820200e+00	-6.294311012751799e+00	 1.749969020945295e+00
-6.712564673831598e+00	-6.234560489740398e+00	 1.917206982325908e+00
-6.772315196843000e+00	-6.174809966728999e+00	 2.047832647519038e+00
-6.832065719854398e+00	-6.115059443717598e+00	 2.141844737301309e+00
-6.891816242865799e+00	-6.055308920706200e+00	 2.199241972458995e+00
-6.951566765877200e+00	-5.995558397694801e+00	 2.220023073788067e+00
-7.011317288888601e+00	-5.935807874683401e+00	 2.204186762094134e+00
-7.071067811900000e+00	-5.876057351671999e+00	 2.151731758192467e+00
-6.378103166323999e+00	-6.378103166323999e+00	 9.407845946654756e-01
-6.447399630881599e+00	-6.308806701766399e+00	 1.200171913338871e+00
-6.516696095439199e+00	-6.239510237208799e+00	 1.425502875747820e+00
-6.585992559996800e+00	-6.170213772651200e+00	 1.616775486338012e+00
-6.655289024554399e+00	-6.100917308093599e+00	 1.773987749572613e+00
-6.724585489112001e+00	-6.031620843536000e+00	 1.897137669932268e+00
-6.793881953669600e+00	-5.962324378978400e+00	 1.986223251915108e+00
-6.863178418227200e+00	-5.893027914420800e+00	 2.041242500036743e+00
-6.932474882784800e+00	-5.823731449863200e+00	 2.062193418830270e+00
-7.001771347342400e+00	-5.754434985305600e+00	 2.049074012846248e+00
-7.071067811900000e+00	-5.685138520748000e+00	 2.001882286652744e+00
-6.275572683050000e+00	-6.275572683050000e+00	 8.692312668139840e-01
-6.355122195935001e+00	-6.196023170165001e+00	 1.112829568148637e+00
-6.434671708819999e+00	-6.116473657279999e+00	 1.324529104245624e+00
-6.514221221704999e+00	-6.036924144394999e+00	 1.504326856251289e+00
-6.593770734590000e+00	-5.957374631510000e+00	 1.652219805342331e+00
-6.673320247474999e+00	-5.877825118625000e+00	 1.768204932725808e+00
-6.752869760360000e+00	-5.798275605740000e+00	 1.852279219639129e+00
-6.832419273244999e+00	-5.718726092854999e+00	 1.904439647350067e+00
-6.911968786130000e+00	-5.639176579970000e+00	 1.924683197156759e+00
-6.991518299015000e+00	-5.559627067084999e+00	 1.913006850387684e+00
-7.071067811900000e+00	-5.480077554199999e+00	 1.869407588401687e+00
-6.165971131964000e+00	-6.165971131964000e+00	 8.105088744076570e-01
-6.256480799957600e+00	-6.075461463970400e+00	 1.039951265682591e+00
-6.346990467951199e+00	-5.984951795976801e+00	 1.239340516193418e+00
-6.437500135944800e+00	-5.894442127983199e+00	 1.408672179489133e+00
-6.528009803938399e+00	-5.803932459989599e+00	 1.547941809169572e+00
-6.618519471932000e+00	-5.713422791995999e+00	 1.657144958885464e+00
-6.709029139925600e+00	-5.622913124002400e+00	 1.736277182338411e+00
-6.799538807919199e+00	-5.532403456008799e+00	 1.785334033280883e+00
-6.890048475912801e+00	-5.441893788015200e+00	 1.804311065516236e+00
-6.980558143906398e+00	-5.351384120021598e+00	 1.793203832898680e+00
-7.071067811900001e+00	-5.260874452027999e+00	 1.752007889333315e+00
-6.049298513065999e+00	-6.049298513065999e+00	 7.621180909182637e-01
-6.151475442949399e+00	-5.947121583182599e+00	 9.788213463999275e-01
-6.253652372832800e+00	-5.844944653299199e+00	 1.167066237050766e+00
-6.355829302716200e+00	-5.742767723415799e+00	 1.326846365725716e+00
-6.458006232599599e+00	-5.640590793532399e+00	 1.458155335362361e+00
-6.560183162483000e+00	-5.538413863648998e+00	 1.560986748980896e+00
-6.662360092366399e+00	-5.436236933765599e+00	 1.635334209684147e+00
-6.764537022249800e+00	-5.334060003882199e+00	 1.681191320657582e+00
-6.866713952133200e+00	-5.231883073998798e+00	 1.698551685169264e+00
-6.968890882016599e+00	-5.129706144115398e+00	 1.687408906569909e+00
-7.071067811900000e+00	-5.027529214231999e+00	 1.647756588292849e+00
-5.925554826355999e+00	-5.925554826355999e+00	 7.221972441843580e-01
-6.040106124910400e+00	-5.811003527801600e+00	 9.273971459438261e-01
-6.154657423464800e+00	-5.696452229247201e+00	 1.105528792318281e+00
-6.269208722019200e+00	-5.581900930692799e+00	 1.256583169117958e+00
-6.383760020573600e+00	-5.467349632138400e+00	 1.380551262283615e+00
-6.498311319128000e+00	-5.352798333583999e+00	 1.477424057886549e+00
-6.612862617682399e+00	-5.238247035029598e+00	 1.547192542128596e+00
-6.727413916236800e+00	-5.123695736475199e+00	 1.589847701342106e+00
-6.841965214791200e+00	-5.009144437920799e+00	 1.605380521989957e+00
-6.956516513345600e+00	-4.894593139366398e+00	 1.593781990665556e+00
-7.071067811900001e+00	-4.780041840811998e+00	 1.555043094092825e+00
-5.794740071833999e+00	-5.794740071833999e+00	 6.893339362271192e-01
-5.922372845840599e+00	-5.667107297827398e+00	 8.841149124710838e-01
-6.050005619847200e+00	-5.539474523820799e+00	 1.053048609090258e+00
-6.177638393853799e+00	-5.411841749814198e+00	 1.196122557642059e+00
-6.305271167860401e+00	-5.284208975807599e+00	 1.313324289885057e+00
-6.432903941866998e+00	-5.156576201800998e+00	 1.404641337779003e+00
-6.560536715873599e+00	-5.028943427794398e+00	 1.470061233484801e+00
-6.688169489880199e+00	-4.901310653787798e+00	 1.509571509364539e+00
-6.815802263886800e+00	-4.773677879781197e+00	 1.523159697981435e+00
-6.943435037893400e+00	-4.646045105774597e+00	 1.510813332099889e+00
-7.071067811900000e+00	-4.518412331767998e+00	 1.472519944685425e+00
-5.656854249500000e+00	-5.656854249500000e+00	 6.624385902868150e-01
-5.798275605740000e+00	-5.515432893260000e+00	 8.477584079242622e-01
-5.939696961980000e+00	-5.374011537020000e+00	 1.008310578051927e+00
-6.081118318220000e+00	-5.232590180780001e+00	 1.144078138966605e+00
-6.222539674460000e+00	-5.091168824540000e+00	 1.255044129268346e+00
-6.363961030700001e+00	-4.949747468300000e+00	 1.341191587860414e+00
-6.505382386939999e+00	-4.808326112060000e+00	 1.402503553949301e+00
-6.646803743180000e+00	-4.666904755820000e+00	 1.438963067044720e+00
-6.788225099420000e+00	-4.525483399580001e+00	 1.450553166959574e+00
-6.929646455659999e+00	-4.384062043340000e+00	 1.437256893809987e+00
-7.071067811900000e+00	-4.242640687100000e+00	 1.399057288015255e+00
-7.071067811900000e+00	-7.071067811900000e+00	 1.203078214720412e+00
-7.071067811900001e+00	-7.071067811900001e+00	 1.203078214720411e+00
-7.071067811900001e+00	-7.071067811900001e+00	 1.203078214720412e+00
-7.071067811900000e+00	-7.071067811900000e+00	 1.203078214720413e+00
-7.071067811899999e+00	-7.071067811899999e+00	 1.203078214720412e+00
-7.071067811900000e+00	-7.071067811900000e+00	 1.203078214720412e+00
-7.071067811900000e+00	-7.071067811900000e+00	 1.203078214720412e+00
-7.071067811900000e+00	-7.071067811900000e+00	 1.203078214720410e+00
-7.071067811900000e+00	-7.071067811900000e+00	 1.203078214720412e+00
-7.071067811900000e+00	-7.071067811900000e+00	 1.203078214720411e+00
-7.071067811900000e+00	-7.071067811900000e+00	 1.203078214720412e+00
-7.071067811900000e+00	-7.063996744088000e+00	 2.838775529759556e+01
-7.071421365290600e+00	-7.064350297478600e+00	 3.014247537860481e+01
-7.071774918681197e+00	-7.064703850869199e+00	 3.167868063435558e+01
-7.072128472071801e+00	-7.065057404259800e+00	 3.299637106484857e+01
-7.072482025462400e+00	-7.065410957650399e+00	 3.409554667008494e+01
-7.072835578853000e+00	-7.065764511041000e+00	 3.497620745006270e+01
-7.073189132243601e+00	-7.066118064431599e+00	 3.563835340478491e+01
-7.073542685634201e+00	-7.066471617822200e+00	 3.608198453425371e+01
-7.073896239024799e+00	-7.066825171212800e+00	 3.630710083844563e+01
-7.074249792415401e+00	-7.067178724603401e+00	 3.631370231741403e+01
-7.074603345806000e+00	-7.067532277994000e+00	 3.610178897109989e+01
-7.071067811900000e+00	-7.042783540652000e+00	 1.400980889953874e+01
-7.072482025462400e+00	-7.044197754214401e+00	 1.491357192763372e+01
-7.073896239024800e+00	-7.045611967776800e+00	 1.571012188990322e+01
-7.075310452587200e+00	-7.047026181339199e+00	 1.639945878636374e+01
-7.076724666149600e+00	-7.048440394901600e+00	 1.698158261703329e+01
-7.078138879711998e+00	-7.049854608463999e+00	 1.745649338192826e+01
-7.079553093274399e+00	-7.051268822026399e+00	 1.782419108106689e+01
-7.080967306836799e+00	-7.052683035588799e+00	 1.808467571446539e+01
-7.082381520399201e+00	-7.054097249151201e+00	 1.823794728214245e+01
-7.083795733961601e+00	-7.055511462713601e+00	 1.828400578411214e+01
-7.085209947524000e+00	-7.056925676275999e+00	 1.822285122039443e+01
-7.071067811899999e+00	-7.007428201591999e+00	 9.323231467392571e+00
-7.074249792415401e+00	-7.010610182107401e+00	 9.927339773281314e+00
-7.077431772930801e+00	-7.013792162622800e+00	 1.046070561282282e+01
-7.080613753446199e+00	-7.016974143138199e+00	 1.092332898621231e+01
-7.083795733961600e+00	-7.020156123653600e+00	 1.131520989364580e+01
-7.086977714477000e+00	-7.023338104169000e+00	 1.163634833531938e+01
-7.090159694992400e+00	-7.026520084684400e+00	 1.188674431142835e+01
-7.093341675507800e+00	-7.029702065199800e+00	 1.206639782216858e+01
-7.096523656023201e+00	-7.032884045715201e+00	 1.217530886773571e+01
-7.099705636538600e+00	-7.036066026230600e+00	 1.221347744832591e+01
-7.102887617053999e+00	-7.039248006745999e+00	 1.218090356413443e+01
-7.071067811900000e+00	-6.957930726908000e+00	 7.000940122116250e+00
-7.076724666149602e+00	-6.963587581157601e+00	 7.452135023959601e+00
-7.082381520399199e+00	-6.969244435407200e+00	 7.850704926313972e+00
-7.088038374648800e+00	-6.974901289656801e+00	 8.196649830279163e+00
-7.093695228898399e+00	-6.980558143906400e+00	 8.489969736954873e+00
-7.099352083148000e+00	-6.986214998155999e+00	 8.730664647441095e+00
-7.105008937397600e+00	-6.991871852405601e+00	 8.918734562837527e+00
-7.110665791647200e+00	-6.997528706655200e+00	 9.054179484243960e+00
-7.116322645896800e+00	-7.003185560904800e+00	 9.136999412760424e+00
-7.121979500146401e+00	-7.008842415154400e+00	 9.167194349486593e+00
-7.127636354396000e+00	-7.014499269404000e+00	 9.144764295522362e+00
-7.071067811900000e+00	-6.894291116600000e+00	 5.615285256722302e+00
-7.079906646665002e+00	-6.903129951365002e+00	 5.973665627022401e+00
-7.088745481430000e+00	-6.911968786130000e+00	 6.290254247800286e+00
-7.097584316195000e+00	-6.920807620895000e+00	 6.565051123251494e+00
-7.106423150960000e+00	-6.929646455659999e+00	 6.798056257571512e+00
-7.115261985725001e+00	-6.938485290425000e+00	 6.989269654955726e+00
-7.124100820490000e+00	-6.947324125190000e+00	 7.138691319599703e+00
-7.132939655254999e+00	-6.956162959954999e+00	 7.246321255698922e+00
-7.141778490019999e+00	-6.965001794720000e+00	 7.312159467448969e+00
-7.150617324785000e+00	-6.973840629485001e+00	 7.336205959045194e+00
-7.159456159549999e+00	-6.982679464249999e+00	 7.318460734683335e+00
-7.071067811899999e+00	-6.816509370667999e+00	 4.695634031566616e+00
-7.083795733961599e+00	-6.829237292729600e+00	 4.991620488093133e+00
-7.096523656023200e+00	-6.841965214791200e+00	 5.253022525419171e+00
-7.109251578084801e+00	-6.854693136852801e+00	 5.479840156072288e+00
-7.121979500146399e+00	-6.867421058914399e+00	 5.672073392580113e+00
-7.134707422208000e+00	-6.880148980976000e+00	 5.829722247470238e+00
-7.147435344269599e+00	-6.892876903037600e+00	 5.952786733270392e+00
-7.160163266331200e+00	-6.905604825099201e+00	 6.041266862508156e+00
-7.172891188392801e+00	-6.918332747160800e+00	 6.095162647711270e+00
-7.185619110454401e+00	-6.931060669222401e+00	 6.114474101407401e+00
-7.198347032516000e+00	-6.943788591283999e+00	 6.099201236124328e+00
-7.071067811900000e+00	-6.724585489112000e+00	 4.041577137416233e+00
-7.088391928039400e+00	-6.741909605251399e+00	 4.292674265647795e+00
-7.105716044178799e+00	-6.759233721390800e+00	 4.514328679450212e+00
-7.123040160318200e+00	-6.776557837530200e+00	 4.706540410413225e+00
-7.140364276457601e+00	-6.793881953669601e+00	 4.869309490126644e+00
-7.157688392597000e+00	-6.811206069809000e+00	 5.002635950180318e+00
-7.175012508736399e+00	-6.828530185948399e+00	 5.106519822164232e+00
-7.192336624875800e+00	-6.845854302087799e+00	 5.180961137668366e+00
-7.209660741015198e+00	-6.863178418227198e+00	 5.225959928282832e+00
-7.226984857154600e+00	-6.880502534366600e+00	 5.241516225597788e+00
-7.244308973294000e+00	-6.897826650506000e+00	 5.227630061203395e+00
-7.071067811900001e+00	-6.618519471932001e+00	 3.553337733783140e+00
-7.093695228898400e+00	-6.641146888930400e+00	 3.770526136954944e+00
-7.116322645896799e+00	-6.663774305928799e+00	 3.962125686194428e+00
-7.138950062895201e+00	-6.686401722927201e+00	 4.128136451889048e+00
-7.161577479893600e+00	-6.709029139925600e+00	 4.268558504426459e+00
-7.184204896891999e+00	-6.731656556923999e+00	 4.383391914194505e+00
-7.206832313890398e+00	-6.754283973922399e+00	 4.472636751581222e+00
-7.229459730888798e+00	-6.776911390920798e+00	 4.536293086974905e+00
-7.252087147887199e+00	-6.799538807919198e+00	 4.574360990763980e+00
-7.274714564885601e+00	-6.822166224917600e+00	 4.586840533337099e+00
-7.297341981884001e+00	-6.844793641916000e+00	 4.573731785083142e+00
-7.071067811899999e+00	-6.498311319128000e+00	 3.175657341439706e+00
-7.099705636538599e+00	-6.526949143766600e+00	 3.366265817717592e+00
-7.128343461177201e+00	-6.555586968405200e+00	 3.534282715890447e+00
-7.156981285815801e+00	-6.584224793043802e+00	 3.679708178652841e+00
-7.185619110454399e+00	-6.612862617682399e+00	 3.802542348699935e+00
-7.214256935093000e+00	-6.641500442321001e+00	 3.902785368727353e+00
-7.242894759731599e+00	-6.670138266959600e+00	 3.980437381431261e+00
-7.271532584370197e+00	-6.698776091598198e+00	 4.035498529508309e+00
-7.300170409008800e+00	-6.727413916236800e+00	 4.067968955655700e+00
-7.328808233647399e+00	-6.756051740875400e+00	 4.077848802571116e+00
-7.357446058286000e+00	-6.784689565513999e+00	 4.065138212952788e+00
-7.071067811900000e+00	-6.363961030700001e+00	 2.875462585926487e+00
-7.106423150960001e+00	-6.399316369760000e+00	 3.044615304335848e+00
-7.141778490020001e+00	-6.434671708820000e+00	 3.193575589653304e+00
-7.177133829080000e+00	-6.470027047880000e+00	 3.322343710382007e+00
-7.212489168139999e+00	-6.505382386939999e+00	 3.430919935026295e+00
-7.247844507199999e+00	-6.540737726000000e+00	 3.519304532091706e+00
-7.283199846260000e+00	-6.576093065059999e+00	 3.587497770084979e+00
-7.318555185320000e+00	-6.611448404120001e+00	 3.635499917514044e+00
-7.353910524380000e+00	-6.646803743180000e+00	 3.663311242888032e+00
-7.389265863440000e+00	-6.682159082240000e+00	 3.670932014717257e+00
-7.424621202500000e+00	-6.717514421300000e+00	 3.658362501513249e+00
-7.071067811900000e+00	-6.363961030700001e+00	 2.875462585926487e+00
-7.106423150960001e+00	-6.399316369760000e+00	 3.044615304335848e+00
-7.141778490020001e+00	-6.434671708820000e+00	 3.193575589653304e+00
-7.177133829080000e+00	-6.470027047880000e+00	 3.322343710382007e+00
-7.212489168139999e+00	-6.505382386939999e+00	 3.430919935026295e+00
-7.247844507199999e+00	-6.540737726000000e+00	 3.519304532091706e+00
-7.283199846260000e+00	-6.576093065059999e+00	 3.587497770084979e+00
-7.318555185320000e+00	-6.611448404120001e+00	 3.635499917514044e+00
-7.353910524380000e+00	-6.646803743180000e+00	 3.663311242888032e+00
-7.389265863440000e+00	-6.682159082240000e+00	 3.670932014717257e+00
-7.424621202500000e+00	-6.717514421300000e+00	 3.658362501513249e+00
-7.071067811900000e+00	-6.215468606648000e+00	 2.618592853158341e+00
-7.113847772162589e+00	-6.258248566910598e+00	 2.773876053524372e+00
-7.156627732425161e+00	-6.301028527173201e+00	 2.910654391490290e+00
-7.199407692687712e+00	-6.343808487435800e+00	 3.028928342722256e+00
-7.242187652950239e+00	-6.386588447698400e+00	 3.128698382888952e+00
-7.284967613212750e+00	-6.429368407961000e+00	 3.209964987661615e+00
-7.327747573475240e+00	-6.472148368223601e+00	 3.272728632714005e+00
-7.370527533737710e+00	-6.514928328486199e+00	 3.316989793722431e+00
-7.413307494000161e+00	-6.557708288748801e+00	 3.342748946365734e+00
-7.456087454262589e+00	-6.600488249011398e+00	 3.350006566325296e+00
-7.498867414525000e+00	-6.643268209274000e+00	 3.338763129285045e+00
-7.071067811900001e+00	-6.052834046971999e+00	 2.401524215685617e+00
-7.121979500146360e+00	-6.103745735218400e+00	 2.546010532732555e+00
-7.172891188392639e+00	-6.154657423464800e+00	 2.673496019374030e+00
-7.223802876638840e+00	-6.205569111711199e+00	 2.783981477343100e+00
-7.274714564884963e+00	-6.256480799957601e+00	 2.877467708377910e+00
-7.325626253130999e+00	-6.307392488204000e+00	 2.953955514221726e+00
-7.376537941376961e+00	-6.358304176450401e+00	 3.013445696622914e+00
-7.427449629622842e+00	-6.409215864696801e+00	 3.055939057334947e+00
-7.478361317868640e+00	-6.460127552943201e+00	 3.081436398116414e+00
-7.529273006114359e+00	-6.511039241189599e+00	 3.089938520730995e+00
-7.580184694360000e+00	-6.561950929436001e+00	 3.081446226947496e+00
-7.071067811900000e+00	-5.876057351671999e+00	 2.216268827639365e+00
-7.130818334911312e+00	-5.935807874683400e+00	 2.352099115534558e+00
-7.190568857922442e+00	-5.995558397694801e+00	 2.472272413878310e+00
-7.250319380933391e+00	-6.055308920706200e+00	 2.576790018650438e+00
-7.310069903944158e+00	-6.115059443717599e+00	 2.665653225840511e+00
-7.369820426954750e+00	-6.174809966728999e+00	 2.738863331447778e+00
-7.429570949965159e+00	-6.234560489740398e+00	 2.796421631481233e+00
-7.489321472975390e+00	-6.294311012751799e+00	 2.838329421959563e+00
-7.549071995985440e+00	-6.354061535763199e+00	 2.864587998911189e+00
-7.608822518995312e+00	-6.413812058774600e+00	 2.875198658374247e+00
-7.668573042005001e+00	-6.473562581786000e+00	 2.870162696396570e+00
-7.071067811900000e+00	-5.685138520748000e+00	 2.056858162582159e+00
-7.140364276457439e+00	-5.754434985305600e+00	 2.185558042042376e+00
-7.209660741014561e+00	-5.823731449863200e+00	 2.299806619147284e+00
-7.278957205571360e+00	-5.893027914420800e+00	 2.399605915527721e+00
-7.348253670127840e+00	-5.962324378978400e+00	 2.484957952832123e+00
-7.417550134684002e+00	-6.031620843536000e+00	 2.555864752726515e+00
-7.486846599239839e+00	-6.100917308093599e+00	 2.612328336894553e+00
-7.556143063795360e+00	-6.170213772651199e+00	 2.654350727037487e+00
-7.625439528350560e+00	-6.239510237208800e+00	 2.681933944874172e+00
-7.694735992905440e+00	-6.308806701766399e+00	 2.695080012141085e+00
-7.764032457460001e+00	-6.378103166323999e+00	 2.693790950592297e+00
-7.071067811900000e+00	-5.480077554199999e+00	 1.918754533268738e+00
-7.150617324784750e+00	-5.559627067084999e+00	 2.041428828362435e+00
-7.230166837669000e+00	-5.639176579969999e+00	 2.150738850480337e+00
-7.309716350552750e+00	-5.718726092854999e+00	 2.246687657896400e+00
-7.389265863436000e+00	-5.798275605740000e+00	 2.329278308915175e+00
-7.468815376318750e+00	-5.877825118625000e+00	 2.398513861871808e+00
-7.548364889201000e+00	-5.957374631510000e+00	 2.454397375132062e+00
-7.627914402082751e+00	-6.036924144394999e+00	 2.496931907092298e+00
-7.707463914964000e+00	-6.116473657279999e+00	 2.526120516179479e+00
-7.787013427844750e+00	-6.196023170165000e+00	 2.541966260851174e+00
-7.866562940725000e+00	-6.275572683050000e+00	 2.544472199595561e+00
-7.071067811900001e+00	-5.260874452027999e+00	 1.798453738846158e+00
-7.161577479893241e+00	-5.351384120021599e+00	 1.915910356124284e+00
-7.252087147885760e+00	-5.441893788015200e+00	 2.020987828798356e+00
-7.342596815877560e+00	-5.532403456008799e+00	 2.113690661337390e+00
-7.433106483868638e+00	-5.622913124002399e+00	 2.194023358261691e+00
-7.523616151859001e+00	-5.713422791996000e+00	 2.261990424142871e+00
-7.614125819848640e+00	-5.803932459989600e+00	 2.317596363603864e+00
-7.704635487837561e+00	-5.894442127983199e+00	 2.360845681318895e+00
-7.795145155825761e+00	-5.984951795976800e+00	 2.391742882013518e+00
-7.885654823813239e+00	-6.075461463970397e+00	 2.410292470464577e+00
-7.976164491800001e+00	-6.165971131964000e+00	 2.416498951500237e+00
-7.071067811900000e+00	-5.027529214231999e+00	 1.693211592869909e+00
-7.173244741782910e+00	-5.129706144115398e+00	 1.806042933772150e+00
-7.275421671664841e+00	-5.231883073998800e+00	 1.907392561466932e+00
-7.377598601545791e+00	-5.334060003882199e+00	 1.997266956503122e+00
-7.479775531425760e+00	-5.436236933765598e+00	 2.075672599512906e+00
-7.581952461304750e+00	-5.538413863649000e+00	 2.142615971211831e+00
-7.684129391182760e+00	-5.640590793532399e+00	 2.198103552398799e+00
-7.786306321059791e+00	-5.742767723415799e+00	 2.242141823956056e+00
-7.888483250935840e+00	-5.844944653299200e+00	 2.274737266849198e+00
-7.990660180810909e+00	-5.947121583182600e+00	 2.295896362127177e+00
-8.092837110685000e+00	-6.049298513065999e+00	 2.305625590922308e+00
-7.071067811900001e+00	-4.780041840811998e+00	 1.600852165504965e+00
-7.185619110453760e+00	-4.894593139366399e+00	 1.709490066410365e+00
-7.300170409006242e+00	-5.009144437920800e+00	 1.807467942408393e+00
-7.414721707557439e+00	-5.123695736475199e+00	 1.894794925112509e+00
-7.529273006107362e+00	-5.238247035029600e+00	 1.971480146267857e+00
-7.643824304656001e+00	-5.352798333583999e+00	 2.037532737751251e+00
-7.758375603203360e+00	-5.467349632138399e+00	 2.092961831571198e+00
-7.872926901749439e+00	-5.581900930692798e+00	 2.137776559867883e+00
-7.987478200294240e+00	-5.696452229247200e+00	 2.171986054913172e+00
-8.102029498837759e+00	-5.811003527801599e+00	 2.195599449110638e+00
-8.216580797380001e+00	-5.925554826355999e+00	 2.208625874995529e+00
-7.071067811900000e+00	-4.518412331767998e+00	 1.519630930612232e+00
-7.198700585905790e+00	-4.646045105774597e+00	 1.624384589168086e+00
-7.326333359909960e+00	-4.773677879781198e+00	 1.719234182923868e+00
-7.453966133912510e+00	-4.901310653787798e+00	 1.804192342596353e+00
-7.581598907913441e+00	-5.028943427794399e+00	 1.879271699105231e+00
-7.709231681912750e+00	-5.156576201800998e+00	 1.944484883573147e+00
-7.836864455910439e+00	-5.284208975807598e+00	 1.999844527325702e+00
-7.964497229906510e+00	-5.411841749814199e+00	 2.045363261891445e+00
-8.092130003900960e+00	-5.539474523820799e+00	 2.081053719001885e+00
-8.219762777893790e+00	-5.667107297827399e+00	 2.106928530591490e+00
-8.347395551885000e+00	-5.794740071833999e+00	 2.123000328797700e+00
-7.071067811900000e+00	-4.242640687100000e+00	 1.448135479687511e+00
-7.212489168139000e+00	-4.384062043340000e+00	 1.549218148902872e+00
-7.353910524375999e+00	-4.525483399580000e+00	 1.641095340733896e+00
-7.495331880611000e+00	-4.666904755820000e+00	 1.723784237426794e+00
-7.636753236843999e+00	-4.808326112060000e+00	 1.797302021533689e+00
-7.778174593075000e+00	-4.949747468300000e+00	 1.861665875912610e+00
-7.919595949304000e+00	-5.091168824540000e+00	 1.916892983727494e+00
-8.061017305530999e+00	-5.232590180780000e+00	 1.963000528448207e+00
-8.202438661756000e+00	-5.374011537019999e+00	 2.000005693850546e+00
-8.343860017978999e+00	-5.515432893260000e+00	 2.027925664016232e+00
-8.485281374200000e+00	-5.656854249500000e+00	 2.046777623332953e+00
-7.071067811900000e+00	-7.071067811900000e+00	 1.203078214720412e+00
-7.071067811900001e+00	-7.071067811900001e+00	 1.203078214720411e+00
-7.071067811900001e+00	-7.071067811900001e+00	 1.203078214720412e+00
-7.071067811900000e+00	-7.071067811900000e+00	 1.203078214720412e+00
-7.071067811899999e+00	-7.071067811899999e+00	 1.203078214720412e+00
-7.071067811900000e+00	-7.071067811900000e+00	 1.203078214720412e+00
-7.071067811900000e+00	-7.071067811900000e+00	 1.203078214720412e+00
-7.071067811900000e+00	-7.071067811900000e+00	 1.203078214720411e+00
-7.071067811900000e+00	-7.071067811900000e+00	 1.203078214720412e+00
-7.071067811900000e+00	-7.071067811900000e+00	 1.203078214720411e+00
-7.071067811900000e+00	-7.071067811900000e+00	 1.203078214720412e+00
-7.074603345806000e+00	-7.067532277994000e+00	 3.128408054625205e+01
-7.074956899196505e+00	-7.067885831384601e+00	 3.144605372595473e+01
-7.075310452587019e+00	-7.068239384775199e+00	 3.135488508128245e+01
-7.075664005977545e+00	-7.068592938165800e+00	 3.101057461225685e+01
-7.076017559368080e+00	-7.068946491556400e+00	 3.041312231887128e+01
-7.076371112758626e+00	-7.069300044947000e+00	 2.956252820112737e+01
-7.076724666149181e+00	-7.069653598337601e+00	 2.845879225902350e+01
-7.077078219539746e+00	-7.070007151728200e+00	 2.710191449256032e+01
-7.077431772930320e+00	-7.070360705118799e+00	 2.549189490170940e+01
-7.077785326320905e+00	-7.070714258509400e+00	 2.362873348650271e+01
-7.078138879711500e+00	-7.071067811900000e+00	 2.151243024689077e+01
-7.085209947524000e+00	-7.056925676275999e+00	 1.569638751947502e+01
-7.086624161086021e+00	-7.058339889838400e+00	 1.572328740778700e+01
-7.088038374648080e+00	-7.059754103400800e+00	 1.562637588180856e+01
-7.089452588210178e+00	-7.061168316963199e+00	 1.540565294155952e+01
-7.090866801772320e+00	-7.062582530525599e+00	 1.506111858705812e+01
-7.092281015334499e+00	-7.063996744087999e+00	 1.459277281832038e+01
-7.093695228896719e+00	-7.065410957650399e+00	 1.400061563536254e+01
-7.095109442458979e+00	-7.066825171212799e+00	 1.328464703819900e+01
-7.096523656021281e+00	-7.068239384775200e+00	 1.244486702684398e+01
-7.097937869583620e+00	-7.069653598337601e+00	 1.148127560130835e+01
-7.099352083146000e+00	-7.071067811900000e+00	 1.039387276160533e+01
-7.102887617053999e+00	-7.039248006745999e+00	 1.048649166321128e+01
-7.106069597568546e+00	-7.042429987261401e+00	 1.050102758135088e+01
-7.109251578083180e+00	-7.045611967776800e+00	 1.043396037237067e+01
-7.112433558597904e+00	-7.048793948292199e+00	 1.028529003646628e+01
-7.115615539112721e+00	-7.051975928807600e+00	 1.005501657383449e+01
-7.118797519627625e+00	-7.055157909322999e+00	 9.743139984670755e+00
-7.121979500142620e+00	-7.058339889838400e+00	 9.349660269169433e+00
-7.125161480657705e+00	-7.061521870353801e+00	 8.874577427524700e+00
-7.128343461172881e+00	-7.064703850869200e+00	 8.317891459929774e+00
-7.131525441688146e+00	-7.067885831384600e+00	 7.679602366577655e+00
-7.134707422203499e+00	-7.071067811899999e+00	 6.959710147659938e+00
-7.127636354396000e+00	-7.014499269404000e+00	 7.879185211851124e+00
-7.133293208644081e+00	-7.020156123653600e+00	 7.893580314897697e+00
-7.138950062892319e+00	-7.025812977903199e+00	 7.847307635128054e+00
-7.144606917140720e+00	-7.031469832152800e+00	 7.740367173643103e+00
-7.150263771389279e+00	-7.037126686402400e+00	 7.572758931542783e+00
-7.155920625638000e+00	-7.042783540652000e+00	 7.344482909926726e+00
-7.161577479886881e+00	-7.048440394901601e+00	 7.055539109893919e+00
-7.167234334135919e+00	-7.054097249151201e+00	 6.705927532542953e+00
-7.172891188385120e+00	-7.059754103400801e+00	 6.295648178971855e+00
-7.178548042634481e+00	-7.065410957650401e+00	 5.824701050278118e+00
-7.184204896884000e+00	-7.071067811900000e+00	 5.293086147558776e+00
-7.159456159549999e+00	-6.982679464249999e+00	 6.314279554884473e+00
-7.168294994312627e+00	-6.991518299015001e+00	 6.330449254796051e+00
-7.177133829075499e+00	-7.000357133780000e+00	 6.298458862003122e+00
-7.185972663838625e+00	-7.009195968545001e+00	 6.218308380701828e+00
-7.194811498602000e+00	-7.018034803310000e+00	 6.089997815087955e+00
-7.203650333365625e+00	-7.026873638075000e+00	 5.913527169356752e+00
-7.212489168129499e+00	-7.035712472839999e+00	 5.688896447703224e+00
-7.221328002893625e+00	-7.044551307604999e+00	 5.416105654321856e+00
-7.230166837658000e+00	-7.053390142370000e+00	 5.095154793406864e+00
-7.239005672422626e+00	-7.062228977135001e+00	 4.726043869151836e+00
-7.247844507187500e+00	-7.071067811900000e+00	 4.308772885750247e+00
-7.198347032516000e+00	-6.943788591283999e+00	 5.270992914540870e+00
-7.211074954574179e+00	-6.956516513345600e+00	 5.289054105809144e+00
-7.223802876632719e+00	-6.969244435407200e+00	 5.267272094202074e+00
-7.236530798691621e+00	-6.981972357468800e+00	 5.205646892247848e+00
-7.249258720750880e+00	-6.994700279530399e+00	 5.104178512474506e+00
-7.261986642810499e+00	-7.007428201592000e+00	 4.962866967409742e+00
-7.274714564870480e+00	-7.020156123653599e+00	 4.781712269580912e+00
-7.287442486930821e+00	-7.032884045715201e+00	 4.560714431515009e+00
-7.300170408991521e+00	-7.045611967776801e+00	 4.299873465738808e+00
-7.312898331052581e+00	-7.058339889838400e+00	 3.999189384778694e+00
-7.325626253114000e+00	-7.071067811899999e+00	 3.658662201160764e+00
-7.244308973294000e+00	-6.897826650506000e+00	 4.525953008451618e+00
-7.261633089428745e+00	-6.915150766645398e+00	 4.545652737350810e+00
-7.278957205563979e+00	-6.932474882784800e+00	 4.531440312809346e+00
-7.296281321699705e+00	-6.949798998924201e+00	 4.483315766418121e+00
-7.313605437835919e+00	-6.967123115063600e+00	 4.401279129767775e+00
-7.330929553972624e+00	-6.984447231202999e+00	 4.285330434448768e+00
-7.348253670109818e+00	-7.001771347342399e+00	 4.135469712051327e+00
-7.365577786247505e+00	-7.019095463481801e+00	 3.951696994165472e+00
-7.382901902385678e+00	-7.036419579621198e+00	 3.734012312380989e+00
-7.400226018524346e+00	-7.053743695760600e+00	 3.482415698287479e+00
-7.417550134663500e+00	-7.071067811900000e+00	 3.196907183474243e+00
-7.297341981884001e+00	-6.844793641916000e+00	 3.967410573857019e+00
-7.319969398876320e+00	-6.867421058914400e+00	 3.988442452637629e+00
-7.342596815869278e+00	-6.890048475912799e+00	 3.980006471467659e+00
-7.365224232862881e+00	-6.912675892911201e+00	 3.942102700737003e+00
-7.387851649857121e+00	-6.935303309909600e+00	 3.874731210835486e+00
-7.410479066851998e+00	-6.957930726907999e+00	 3.777892072152845e+00
-7.433106483847518e+00	-6.980558143906398e+00	 3.651585355078830e+00
-7.455733900843678e+00	-7.003185560904798e+00	 3.495811130003102e+00
-7.478361317840478e+00	-7.025812977903199e+00	 3.310569467315292e+00
-7.500988734837920e+00	-7.048440394901601e+00	 3.095860437404940e+00
-7.523616151836001e+00	-7.071067811900001e+00	 2.851684110661597e+00
-7.357446058286000e+00	-6.784689565513999e+00	 3.533253702114438e+00
-7.386083882916903e+00	-6.813327390152599e+00	 3.555333512996797e+00
-7.414721707548620e+00	-6.841965214791201e+00	 3.551401307912017e+00
-7.443359532181146e+00	-6.870603039429801e+00	 3.521457229560254e+00
-7.471997356814479e+00	-6.899240864068400e+00	 3.465501420641923e+00
-7.500635181448625e+00	-6.927878688707001e+00	 3.383534023857743e+00
-7.529273006083580e+00	-6.956516513345600e+00	 3.275555181908734e+00
-7.557910830719343e+00	-6.985154337984198e+00	 3.141565037496203e+00
-7.586548655355919e+00	-7.013792162622800e+00	 2.981563733321740e+00
-7.615186479993304e+00	-7.042429987261399e+00	 2.795551412087252e+00
-7.643824304631499e+00	-7.071067811899999e+00	 2.583528216494936e+00
-7.424621202500000e+00	-6.717514421300000e+00	 3.186198109881840e+00
-7.459976541550501e+00	-6.752869760360000e+00	 3.209078158717840e+00
-7.495331880602000e+00	-6.788225099420001e+00	 3.208712191111606e+00
-7.530687219654500e+00	-6.823580438480000e+00	 3.185100475578572e+00
-7.566042558707999e+00	-6.858935777539999e+00	 3.138243280635188e+00
-7.601397897762499e+00	-6.894291116600000e+00	 3.068140874798899e+00
-7.636753236818000e+00	-6.929646455660000e+00	 2.974793526588155e+00
-7.672108575874500e+00	-6.965001794720000e+00	 2.858201504522394e+00
-7.707463914931999e+00	-7.000357133780000e+00	 2.718365077122070e+00
-7.742819253990500e+00	-7.035712472840000e+00	 2.555284512908599e+00
-7.778174593050000e+00	-7.071067811900000e+00	 2.368960080404439e+00
-7.424621202500000e+00	-6.717514421300000e+00	 3.186198109881840e+00
-7.459976541550501e+00	-6.752869760360000e+00	 3.209078158717840e+00
-7.495331880602000e+00	-6.788225099420001e+00	 3.208712191111606e+00
-7.530687219654500e+00	-6.823580438480000e+00	 3.185100475578572e+00
-7.566042558707999e+00	-6.858935777539999e+00	 3.138243280635188e+00
-7.601397897762499e+00	-6.894291116600000e+00	 3.068140874798899e+00
-7.636753236818000e+00	-6.929646455660000e+00	 2.974793526588155e+00
-7.672108575874500e+00	-6.965001794720000e+00	 2.858201504522394e+00
-7.707463914931999e+00	-7.000357133780000e+00	 2.718365077122070e+00
-7.742819253990500e+00	-7.035712472840000e+00	 2.555284512908599e+00
-7.778174593050000e+00	-7.071067811900000e+00	 2.368960080404439e+00
-7.498867414525000e+00	-6.643268209274000e+00	 2.916896137640105e+00
-7.541647374776486e+00	-6.686048169536599e+00	 2.937874794988074e+00
-7.584427335029143e+00	-6.728828129799202e+00	 2.938485328062343e+00
-7.627207295282966e+00	-6.771608090061800e+00	 2.918728212555299e+00
-7.669987255537959e+00	-6.814388050324401e+00	 2.878603924161664e+00
-7.712767215794124e+00	-6.857168010586999e+00	 2.818112938578518e+00
-7.755547176051460e+00	-6.899947970849601e+00	 2.737255731505255e+00
-7.798327136309966e+00	-6.942727931112200e+00	 2.636032778643619e+00
-7.841107096569642e+00	-6.985507891374802e+00	 2.514444555697688e+00
-7.883887056830486e+00	-7.028287851637398e+00	 2.372491538373881e+00
-7.926667017092500e+00	-7.071067811900000e+00	 2.210174202380955e+00
-7.580184694360000e+00	-6.561950929436001e+00	 2.703591970197373e+00
-7.631096382594240e+00	-6.612862617682399e+00	 2.720814832897939e+00
-7.682008070829760e+00	-6.663774305928800e+00	 2.719864747178127e+00
-7.732919759066559e+00	-6.714685994175198e+00	 2.700742514823143e+00
-7.783831447304641e+00	-6.765597682421602e+00	 2.663448937623105e+00
-7.834743135544000e+00	-6.816509370668001e+00	 2.607984817373048e+00
-7.885654823784641e+00	-6.867421058914401e+00	 2.534350955872926e+00
-7.936566512026561e+00	-6.918332747160801e+00	 2.442548154927594e+00
-7.987478200269759e+00	-6.969244435407200e+00	 2.332577216346848e+00
-8.038389888514240e+00	-7.020156123653601e+00	 2.204438941945369e+00
-8.089301576760001e+00	-7.071067811900001e+00	 2.058134133542791e+00
-7.668573042005001e+00	-6.473562581786000e+00	 2.531039855496406e+00
-7.728323565003766e+00	-6.533313104797400e+00	 2.543505406568136e+00
-7.788074088003861e+00	-6.593063627808800e+00	 2.539514178960969e+00
-7.847824611005285e+00	-6.652814150820200e+00	 2.519067468753066e+00
-7.907575134008038e+00	-6.712564673831598e+00	 2.482166572032133e+00
-7.967325657012124e+00	-6.772315196843000e+00	 2.428812784895407e+00
-8.027076180017538e+00	-6.832065719854398e+00	 2.359007403449673e+00
-8.086826703024284e+00	-6.891816242865799e+00	 2.272751723811254e+00
-8.146577226032360e+00	-6.951566765877200e+00	 2.170047042106010e+00
-8.206327749041767e+00	-7.011317288888601e+00	 2.050894654469353e+00
-8.266078272052500e+00	-7.071067811900000e+00	 1.915295857046215e+00
-7.764032457460001e+00	-6.378103166323999e+00	 2.388953463809407e+00
-7.833328922005060e+00	-6.447399630881599e+00	 2.396153242800394e+00
-7.902625386551440e+00	-6.516696095439199e+00	 2.388267469112490e+00
-7.971921851099140e+00	-6.585992559996800e+00	 2.365298164553758e+00
-8.041218315648161e+00	-6.655289024554399e+00	 2.327247350949715e+00
-8.110514780198502e+00	-6.724585489112001e+00	 2.274117050143321e+00
-8.179811244750159e+00	-6.793881953669600e+00	 2.205909283994988e+00
-8.249107709303139e+00	-6.863178418227200e+00	 2.122626074382573e+00
-8.318404173857440e+00	-6.932474882784800e+00	 2.024269443201376e+00
-8.387700638413060e+00	-7.001771347342400e+00	 1.910841412364163e+00
-8.456997102970000e+00	-7.071067811900000e+00	 1.782344003801128e+00
-7.866562940725000e+00	-6.275572683050000e+00	 2.270160311310819e+00
-7.946112453598126e+00	-6.355122195935001e+00	 2.271874929906823e+00
-8.025661966472500e+00	-6.434671708819999e+00	 2.259621626571657e+00
-8.105211479348126e+00	-6.514221221704999e+00	 2.233403459886446e+00
-8.184760992225002e+00	-6.593770734590000e+00	 2.193223488462761e+00
-8.264310505103126e+00	-6.673320247474999e+00	 2.139084770942644e+00
-8.343860017982500e+00	-6.752869760360000e+00	 2.070990365998588e+00
-8.423409530863125e+00	-6.832419273244999e+00	 1.988943332333551e+00
-8.502959043745001e+00	-6.911968786130000e+00	 1.892946728680954e+00
-8.582508556628126e+00	-6.991518299015000e+00	 1.783003613804678e+00
-8.662058069512501e+00	-7.071067811900000e+00	 1.659117046499067e+00
-7.976164491800001e+00	-6.165971131964000e+00	 2.169515191828075e+00
-8.066674159782961e+00	-6.256480799957600e+00	 2.165695077813869e+00
-8.157183827767041e+00	-6.346990467951199e+00	 2.148835260254856e+00
-8.247693495752241e+00	-6.437500135944800e+00	 2.118940244134209e+00
-8.338203163738559e+00	-6.528009803938399e+00	 2.076014534486266e+00
-8.428712831726003e+00	-6.618519471932000e+00	 2.020062636396558e+00
-8.519222499714560e+00	-6.709029139925600e+00	 1.951089055001791e+00
-8.609732167704241e+00	-6.799538807919199e+00	 1.869098295489859e+00
-8.700241835695040e+00	-6.890048475912801e+00	 1.774094863099839e+00
-8.790751503686961e+00	-6.980558143906398e+00	 1.666083263121988e+00
-8.881261171680002e+00	-7.071067811900001e+00	 1.548164328988045e+00
-8.092837110685000e+00	-6.049298513065999e+00	 2.083234067581314e+00
-8.195014040559565e+00	-6.151475442949399e+00	 2.073928008254954e+00
-8.297190970435061e+00	-6.253652372832800e+00	 2.052367419862852e+00
-8.399367900311486e+00	-6.355829302716200e+00	 2.018558783788388e+00
-8.501544830188841e+00	-6.458006232599599e+00	 1.972508581498173e+00
-8.603721760067126e+00	-6.560183162483000e+00	 1.914223294542065e+00
-8.705898689946341e+00	-6.662360092366399e+00	 1.843709404553160e+00
-8.808075619826488e+00	-6.764537022249800e+00	 1.760973393247801e+00
-8.910252549707559e+00	-6.866713952133200e+00	 1.670685290267180e+00
-9.012429479589565e+00	-6.968890882016599e+00	 1.568932688139538e+00
-9.114606409472501e+00	-7.071067811900000e+00	 1.454850631531685e+00
-8.216580797380001e+00	-5.925554826355999e+00	 2.008471251006152e+00
-8.331132095927941e+00	-6.040106124910400e+00	 1.993782741274952e+00
-8.445683394476562e+00	-6.154657423464800e+00	 1.967516213761177e+00
-8.560234693025862e+00	-6.269208722019200e+00	 1.929680801396104e+00
-8.674785991575844e+00	-6.383760020573600e+00	 1.880285637242600e+00
-8.789337290126502e+00	-6.498311319128000e+00	 1.819339854495128e+00
-8.903888588677841e+00	-6.612862617682399e+00	 1.751188980179992e+00
-9.018439887229860e+00	-6.727413916236800e+00	 1.673269679265002e+00
-9.132991185782561e+00	-6.841965214791200e+00	 1.583687526928563e+00
-9.247542484335941e+00	-6.956516513345600e+00	 1.482427878026805e+00
-9.362093782890001e+00	-7.071067811900001e+00	 1.369476087343899e+00
-8.347395551885000e+00	-5.794740071833999e+00	 1.943042749137956e+00
-8.475028325888085e+00	-5.922372845840599e+00	 1.923102926743853e+00
-8.602661099891542e+00	-6.050005619847200e+00	 1.892179072530570e+00
-8.730293873895366e+00	-6.177638393853799e+00	 1.850283819245345e+00
-8.857926647899562e+00	-6.305271167860401e+00	 1.799286704747255e+00
-8.985559421904124e+00	-6.432903941866998e+00	 1.742355837491140e+00
-9.113192195909061e+00	-6.560536715873599e+00	 1.674354105622140e+00
-9.240824969914366e+00	-6.688169489880199e+00	 1.595261252128416e+00
-9.368457743920041e+00	-6.815802263886800e+00	 1.505057019887320e+00
-9.496090517926087e+00	-6.943435037893400e+00	 1.403721151665394e+00
-9.623723291932501e+00	-7.071067811900000e+00	 1.291233390118360e+00
-8.485281374200000e+00	-5.656854249500000e+00	 1.885240337084380e+00
-8.626702730440000e+00	-5.798275605740000e+00	 1.860191017260276e+00
-8.768124086679999e+00	-5.939696961980000e+00	 1.824689495353162e+00
-8.909545442920001e+00	-6.081118318220000e+00	 1.783404378601805e+00
-9.050966799160001e+00	-6.222539674460000e+00	 1.734627564494059e+00
-9.192388155400000e+00	-6.363961030700001e+00	 1.675296360305177e+00
-9.333809511640000e+00	-6.505382386939999e+00	 1.605383209125115e+00
-9.475230867880001e+00	-6.646803743180000e+00	 1.524860553876882e+00
-9.616652224119999e+00	-6.788225099420000e+00	 1.433700837316511e+00
-9.758073580360000e+00	-6.929646455659999e+00	 1.331876502033083e+00
-9.899494936600000e+00	-7.071067811900000e+00	 1.219359990448689e+00
-7.071067811900000e+00	-7.071067811900000e+00	 1.203078214720412e+00
-7.071067811900001e+00	-7.071067811900001e+00	 1.203078214720411e+00
-7.071067811900001e+00	-7.071067811900001e+00	 1.203078214720412e+00
-7.071067811900000e+00	-7.071067811900000e+00	 1.203078214720412e+00
-7.071067811899999e+00	-7.071067811899999e+00	 1.203078214720412e+00
-7.071067811900000e+00	-7.071067811900000e+00	 1.203078214720412e+00
-7.071067811900000e+00	-7.071067811900000e+00	 1.203078214720412e+00
-7.071067811900000e+00	-7.071067811900000e+00	 1.203078214720412e+00
-7.071067811900000e+00	-7.071067811900000e+00	 1.203078214720412e+00
-7.071067811900000e+00	-7.071067811900000e+00	 1.203078214720412e+00
-7.071067811900000e+00	-7.071067811900000e+00	 1.203078214720412e+00
-7.078138879711500e+00	-7.071067811900000e+00	 2.085552346299923e+01
-7.077785326320905e+00	-7.071421365290600e+00	 2.351736396075190e+01
-7.077431772930319e+00	-7.071774918681197e+00	 2.577285512039704e+01
-7.077078219539746e+00	-7.072128472071801e+00	 2.762199694195892e+01
-7.076724666149180e+00	-7.072482025462400e+00	 2.906478942544389e+01
-7.076371112758626e+00	-7.072835578853000e+00	 3.010123257086236e+01
-7.076017559368081e+00	-7.073189132243601e+00	 3.073132637821818e+01
-7.075664005977545e+00	-7.073542685634201e+00	 3.095507084751483e+01
-7.075310452587019e+00	-7.073896239024799e+00	 3.077246597874756e+01
-7.074956899196505e+00	-7.074249792415401e+00	 3.018351177191101e+01
-7.074603345806000e+00	-7.074603345806000e+00	 2.918820822700069e+01
-7.099352083146000e+00	-7.071067811900000e+00	 1.016491895989403e+01
-7.097937869583620e+00	-7.072482025462400e+00	 1.155475520988333e+01
-7.096523656021280e+00	-7.073896239024800e+00	 1.273652317666369e+01
-7.095109442458979e+00	-7.075310452587200e+00	 1.371022286026077e+01
-7.093695228896720e+00	-7.076724666149600e+00	 1.447585426069761e+01
-7.092281015334499e+00	-7.078138879711998e+00	 1.503341737799549e+01
-7.090866801772319e+00	-7.079553093274399e+00	 1.538291221217390e+01
-7.089452588210178e+00	-7.080967306836799e+00	 1.552433876325091e+01
-7.088038374648081e+00	-7.082381520399201e+00	 1.545769703124233e+01
-7.086624161086021e+00	-7.083795733961601e+00	 1.518298701616280e+01
-7.085209947524000e+00	-7.085209947524000e+00	 1.470020871802465e+01
-7.134707422203499e+00	-7.071067811899999e+00	 6.812887002342525e+00
-7.131525441688146e+00	-7.074249792415401e+00	 7.742715612242202e+00
-7.128343461172881e+00	-7.077431772930801e+00	 8.533355859007539e+00
-7.125161480657704e+00	-7.080613753446199e+00	 9.184807742836625e+00
-7.121979500142620e+00	-7.083795733961600e+00	 9.697071263927159e+00
-7.118797519627625e+00	-7.086977714477000e+00	 1.007014642247523e+01
-7.115615539112721e+00	-7.090159694992400e+00	 1.030403321867579e+01
-7.112433558597905e+00	-7.093341675507800e+00	 1.039873165272276e+01
-7.109251578083180e+00	-7.096523656023201e+00	 1.035424172480876e+01
-7.106069597568545e+00	-7.099705636538600e+00	 1.017056343512527e+01
-7.102887617053999e+00	-7.102887617053999e+00	 9.847696783862615e+00
-7.184204896884000e+00	-7.071067811900000e+00	 5.175980767126005e+00
-7.178548042634481e+00	-7.076724666149602e+00	 5.869028567687329e+00
-7.172891188385119e+00	-7.082381520399199e+00	 6.457850237841366e+00
-7.167234334135919e+00	-7.088038374648800e+00	 6.942445778677858e+00
-7.161577479886880e+00	-7.093695228898399e+00	 7.322815191285533e+00
-7.155920625638000e+00	-7.099352083148000e+00	 7.598958476752133e+00
-7.150263771389280e+00	-7.105008937397600e+00	 7.770875636164619e+00
-7.144606917140720e+00	-7.110665791647200e+00	 7.838566670609075e+00
-7.138950062892320e+00	-7.116322645896800e+00	 7.802031581170592e+00
-7.133293208644081e+00	-7.121979500146401e+00	 7.661270368933529e+00
-7.127636354396000e+00	-7.127636354396000e+00	 7.416283034981246e+00
-7.247844507187500e+00	-7.071067811900000e+00	 4.205866943988259e+00
-7.239005672422627e+00	-7.079906646665002e+00	 4.754655687909735e+00
-7.230166837658000e+00	-7.088745481430000e+00	 5.220362512622929e+00
-7.221328002893626e+00	-7.097584316195000e+00	 5.602987422272106e+00
-7.212489168129499e+00	-7.106423150960000e+00	 5.902530421000898e+00
-7.203650333365625e+00	-7.115261985725001e+00	 6.118991512952229e+00
-7.194811498602000e+00	-7.124100820490000e+00	 6.252370702268316e+00
-7.185972663838625e+00	-7.132939655254999e+00	 6.302667993090650e+00
-7.177133829075499e+00	-7.141778490019999e+00	 6.269883389560047e+00
-7.168294994312626e+00	-7.150617324785000e+00	 6.154016895816635e+00
-7.159456159549999e+00	-7.159456159549999e+00	 5.955068515999805e+00
-7.325626253114000e+00	-7.071067811899999e+00	 3.563709543404315e+00
-7.312898331052581e+00	-7.083795733961599e+00	 4.015394767443870e+00
-7.300170408991519e+00	-7.096523656023200e+00	 4.398163350908392e+00
-7.287442486930821e+00	-7.109251578084801e+00	 4.712015306165718e+00
-7.274714564870479e+00	-7.121979500146399e+00	 4.956950645583196e+00
-7.261986642810499e+00	-7.134707422208000e+00	 5.132969381527613e+00
-7.249258720750880e+00	-7.147435344269599e+00	 5.240071526365136e+00
-7.236530798691621e+00	-7.160163266331200e+00	 5.278257092461382e+00
-7.223802876632721e+00	-7.172891188392801e+00	 5.247526092181463e+00
-7.211074954574181e+00	-7.185619110454401e+00	 5.147878537889851e+00
-7.198347032516000e+00	-7.198347032516000e+00	 4.979314441950498e+00
-7.417550134663500e+00	-7.071067811900000e+00	 3.106894377505439e+00
-7.400226018524345e+00	-7.088391928039400e+00	 3.488749602320837e+00
-7.382901902385679e+00	-7.105716044178799e+00	 3.811839548179503e+00
-7.365577786247505e+00	-7.123040160318200e+00	 4.076164246264041e+00
-7.348253670109820e+00	-7.140364276457601e+00	 4.281723727756646e+00
-7.330929553972624e+00	-7.157688392597000e+00	 4.428518023839073e+00
-7.313605437835918e+00	-7.175012508736399e+00	 4.516547165692645e+00
-7.296281321699705e+00	-7.192336624875800e+00	 4.545811184498255e+00
-7.278957205563978e+00	-7.209660741015198e+00	 4.516310111436378e+00
-7.261633089428745e+00	-7.226984857154600e+00	 4.428043977687049e+00
-7.244308973294000e+00	-7.244308973294000e+00	 4.281012814429868e+00
-7.523616151836001e+00	-7.071067811900001e+00	 2.764970923415226e+00
-7.500988734837919e+00	-7.093695228898400e+00	 3.094185470869491e+00
-7.478361317840477e+00	-7.116322645896799e+00	 3.372265716409280e+00
-7.455733900843681e+00	-7.138950062895201e+00	 3.599211729511839e+00
-7.433106483847521e+00	-7.161577479893600e+00	 3.775023579654186e+00
-7.410479066852000e+00	-7.184204896891999e+00	 3.899701336313075e+00
-7.387851649857118e+00	-7.206832313890398e+00	 3.973245068965050e+00
-7.365224232862879e+00	-7.229459730888798e+00	 3.995654847086400e+00
-7.342596815869278e+00	-7.252087147887199e+00	 3.966930740153205e+00
-7.319969398876321e+00	-7.274714564885601e+00	 3.887072817641281e+00
-7.297341981884001e+00	-7.297341981884001e+00	 3.756081149026226e+00
-7.643824304631499e+00	-7.071067811899999e+00	 2.499141239295907e+00
-7.615186479993304e+00	-7.099705636538599e+00	 2.787246540634889e+00
-7.586548655355920e+00	-7.128343461177201e+00	 3.030162091010025e+00
-7.557910830719346e+00	-7.156981285815801e+00	 3.227888031268455e+00
-7.529273006083579e+00	-7.185619110454399e+00	 3.380424502257394e+00
-7.500635181448625e+00	-7.214256935093000e+00	 3.487771644824216e+00
-7.471997356814480e+00	-7.242894759731599e+00	 3.549929599816417e+00
-7.443359532181143e+00	-7.271532584370197e+00	 3.566898508081611e+00
-7.414721707548620e+00	-7.300170409008800e+00	 3.538678510467548e+00
-7.386083882916903e+00	-7.328808233647399e+00	 3.465269747822105e+00
-7.357446058286000e+00	-7.357446058286000e+00	 3.346672360993271e+00
-7.778174593050000e+00	-7.071067811900000e+00	 2.286282770399121e+00
-7.742819253990501e+00	-7.106423150960001e+00	 2.541391579821155e+00
-7.707463914932000e+00	-7.141778490020001e+00	 2.756070885080400e+00
-7.672108575874500e+00	-7.177133829080000e+00	 2.930320951201913e+00
-7.636753236817999e+00	-7.212489168139999e+00	 3.064142043211594e+00
-7.601397897762500e+00	-7.247844507199999e+00	 3.157534426136204e+00
-7.566042558708000e+00	-7.283199846260000e+00	 3.210498365003327e+00
-7.530687219654500e+00	-7.318555185320000e+00	 3.223034124841385e+00
-7.495331880602000e+00	-7.353910524380000e+00	 3.195141970679662e+00
-7.459976541550500e+00	-7.389265863440000e+00	 3.126822167548260e+00
-7.424621202500000e+00	-7.424621202500000e+00	 3.018074980478144e+00
-7.778174593050000e+00	-7.071067811900000e+00	 2.286282770399121e+00
-7.742819253990501e+00	-7.106423150960001e+00	 2.541391579821155e+00
-7.707463914932000e+00	-7.141778490020001e+00	 2.756070885080400e+00
-7.672108575874500e+00	-7.177133829080000e+00	 2.930320951201913e+00
-7.636753236817999e+00	-7.212489168139999e+00	 3.064142043211594e+00
-7.601397897762500e+00	-7.247844507199999e+00	 3.157534426136204e+00
-7.566042558708000e+00	-7.283199846260000e+00	 3.210498365003327e+00
-7.530687219654500e+00	-7.318555185320000e+00	 3.223034124841385e+00
-7.495331880602000e+00	-7.353910524380000e+00	 3.195141970679662e+00
-7.459976541550500e+00	-7.389265863440000e+00	 3.126822167548260e+00
-7.424621202500000e+00	-7.424621202500000e+00	 3.018074980478144e+00
-7.926667017092500e+00	-7.071067811900000e+00	 2.079674523345174e+00
-7.883887056830485e+00	-7.113847772162589e+00	 2.311997932024767e+00
-7.841107096569642e+00	-7.156627732425161e+00	 2.507975748652593e+00
-7.798327136309967e+00	-7.199407692687712e+00	 2.667608442731419e+00
-7.755547176051459e+00	-7.242187652950239e+00	 2.790896483766135e+00
-7.712767215794125e+00	-7.284967613212750e+00	 2.877840341263701e+00
-7.669987255537960e+00	-7.327747573475240e+00	 2.928440484733189e+00
-7.627207295282965e+00	-7.370527533737710e+00	 2.942697383685752e+00
-7.584427335029142e+00	-7.413307494000161e+00	 2.920611507634638e+00
-7.541647374776484e+00	-7.456087454262589e+00	 2.862183326095197e+00
-7.498867414525000e+00	-7.498867414525000e+00	 2.767413308584862e+00
-8.089301576760001e+00	-7.071067811900001e+00	 1.915378469795779e+00
-8.038389888514240e+00	-7.121979500146360e+00	 2.128895105269748e+00
-7.987478200269760e+00	-7.172891188392639e+00	 2.309404640187255e+00
-7.936566512026559e+00	-7.223802876638840e+00	 2.456907865891860e+00
-7.885654823784642e+00	-7.274714564884963e+00	 2.571405573731762e+00
-7.834743135544000e+00	-7.325626253130999e+00	 2.652898555059778e+00
-7.783831447304641e+00	-7.376537941376961e+00	 2.701387601233356e+00
-7.732919759066561e+00	-7.427449629622842e+00	 2.716873503614567e+00
-7.682008070829760e+00	-7.478361317868640e+00	 2.699357053570119e+00
-7.631096382594240e+00	-7.529273006114359e+00	 2.648839042471331e+00
-7.580184694360000e+00	-7.580184694360000e+00	 2.565320261694164e+00
-8.266078272052500e+00	-7.071067811900000e+00	 1.781764530127549e+00
-8.206327749041765e+00	-7.130818334911312e+00	 1.979502882714630e+00
-8.146577226032361e+00	-7.190568857922442e+00	 2.147010553818823e+00
-8.086826703024286e+00	-7.250319380933391e+00	 2.284288822624911e+00
-8.027076180017538e+00	-7.310069903944158e+00	 2.391338968326886e+00
-7.967325657012124e+00	-7.369820426954750e+00	 2.468162270127954e+00
-7.907575134008038e+00	-7.429570949965159e+00	 2.514760007240548e+00
-7.847824611005284e+00	-7.489321472975390e+00	 2.531133458886309e+00
-7.788074088003859e+00	-7.549071995985440e+00	 2.517283904296092e+00
-7.728323565003765e+00	-7.608822518995312e+00	 2.473212622709970e+00
-7.668573042005001e+00	-7.668573042005001e+00	 2.398920893377240e+00
-8.456997102970000e+00	-7.071067811900000e+00	 1.671015446799174e+00
-8.387700638413058e+00	-7.140364276457439e+00	 1.855338738508814e+00
-8.318404173857441e+00	-7.209660741014561e+00	 2.011772785495517e+00
-8.249107709303141e+00	-7.278957205571360e+00	 2.140319583190613e+00
-8.179811244750161e+00	-7.348253670127840e+00	 2.240981127042512e+00
-8.110514780198503e+00	-7.417550134684002e+00	 2.313759412516705e+00
-8.041218315648161e+00	-7.486846599239839e+00	 2.358656435095743e+00
-7.971921851099141e+00	-7.556143063795360e+00	 2.375674190279256e+00
-7.902625386551440e+00	-7.625439528350560e+00	 2.364814673583944e+00
-7.833328922005060e+00	-7.694735992905440e+00	 2.326079880543578e+00
-7.764032457460001e+00	-7.764032457460001e+00	 2.259471806709004e+00
-8.662058069512501e+00	-7.071067811900000e+00	 1.577705382725935e+00
-8.582508556628127e+00	-7.150617324784750e+00	 1.750498694051447e+00
-8.502959043744999e+00	-7.230166837669000e+00	 1.897399770148008e+00
-8.423409530863125e+00	-7.309716350552750e+00	 2.018411629655315e+00
-8.343860017982500e+00	-7.389265863436000e+00	 2.113537291243058e+00
-8.264310505103126e+00	-7.468815376318750e+00	 2.182779773610927e+00
-8.184760992225000e+00	-7.548364889201000e+00	 2.226142095488599e+00
-8.105211479348124e+00	-7.627914402082751e+00	 2.243627275635749e+00
-8.025661966472500e+00	-7.707463914964000e+00	 2.235238332842050e+00
-7.946112453598126e+00	-7.787013427844750e+00	 2.200978285927163e+00
-7.866562940725000e+00	-7.866562940725000e+00	 2.140850153740750e+00
-8.881261171680002e+00	-7.071067811900001e+00	 1.501060907976443e+00
-8.790751503686961e+00	-7.161577479893241e+00	 1.660762112372818e+00
-8.700241835695042e+00	-7.252087147885760e+00	 1.799385950892693e+00
-8.609732167704241e+00	-7.342596815877560e+00	 1.913840541538067e+00
-8.519222499714560e+00	-7.433106483868638e+00	 2.004130330451795e+00
-8.428712831726001e+00	-7.523616151859001e+00	 2.070259763827289e+00
-8.338203163738561e+00	-7.614125819848640e+00	 2.112233287908512e+00
-8.247693495752239e+00	-7.704635487837561e+00	 2.130055348989990e+00
-8.157183827767042e+00	-7.795145155825761e+00	 2.123730393416804e+00
-8.066674159782959e+00	-7.885654823813239e+00	 2.093262867584599e+00
-7.976164491800001e+00	-7.976164491800001e+00	 2.038657217939579e+00
-9.114606409472501e+00	-7.071067811900000e+00	 1.444321387717050e+00
-9.012429479589565e+00	-7.173244741782910e+00	 1.593064232803644e+00
-8.910252549707561e+00	-7.275421671664841e+00	 1.719057138621967e+00
-8.808075619826488e+00	-7.377598601545791e+00	 1.823143276014270e+00
-8.705898689946341e+00	-7.479775531425760e+00	 1.909182516490289e+00
-8.603721760067126e+00	-7.581952461304750e+00	 1.972556193350296e+00
-8.501544830188839e+00	-7.684129391182760e+00	 2.013270703403792e+00
-8.399367900311486e+00	-7.786306321059791e+00	 2.031332443542634e+00
-8.297190970435061e+00	-7.888483250935840e+00	 2.026747810741039e+00
-8.195014040559565e+00	-7.990660180810909e+00	 1.999523202055587e+00
-8.092837110685000e+00	-8.092837110685000e+00	 1.949665014625218e+00
-9.362093782890001e+00	-7.071067811900001e+00	 1.396417286728675e+00
-9.247542484335943e+00	-7.185619110453760e+00	 1.537060809917011e+00
-9.132991185782563e+00	-7.300170409006242e+00	 1.656254960737247e+00
-9.018439887229862e+00	-7.414721707557439e+00	 1.753995623874932e+00
-8.903888588677843e+00	-7.529273006107362e+00	 1.830278683920738e+00
-8.789337290126502e+00	-7.643824304656001e+00	 1.886946604697704e+00
-8.674785991575842e+00	-7.758375603203360e+00	 1.926519220285391e+00
-8.560234693025860e+00	-7.872926901749439e+00	 1.944748134780179e+00
-8.445683394476561e+00	-7.987478200294240e+00	 1.941642362103099e+00
-8.331132095927941e+00	-8.102029498837759e+00	 1.917210916305487e+00
-8.216580797380001e+00	-8.216580797380001e+00	 1.871462811568994e+00
-9.623723291932501e+00	-7.071067811900000e+00	 1.355657834468282e+00
-9.496090517926085e+00	-7.198700585905790e+00	 1.489115503820879e+00
-9.368457743920041e+00	-7.326333359909960e+00	 1.602267856265527e+00
-9.240824969914366e+00	-7.453966133912510e+00	 1.695109199694694e+00
-9.113192195909061e+00	-7.581598907913441e+00	 1.767633841854799e+00
-8.985559421904126e+00	-7.709231681912750e+00	 1.819836090346198e+00
-8.857926647899561e+00	-7.836864455910439e+00	 1.851710252623175e+00
-8.730293873895365e+00	-7.964497229906510e+00	 1.868247102447793e+00
-8.602661099891540e+00	-8.092130003900960e+00	 1.866406241853305e+00
-8.475028325888086e+00	-8.219762777893790e+00	 1.844394584451119e+00
-8.347395551885000e+00	-8.347395551885000e+00	 1.802224598672707e+00
-9.899494936600000e+00	-7.071067811900000e+00	 1.320714680365016e+00
-9.758073580360000e+00	-7.212489168139000e+00	 1.447777639355121e+00
-9.616652224120001e+00	-7.353910524375999e+00	 1.555547061374795e+00
-9.475230867880001e+00	-7.495331880611000e+00	 1.644015203338343e+00
-9.333809511640000e+00	-7.636753236843999e+00	 1.713174321940038e+00
-9.192388155400000e+00	-7.778174593075000e+00	 1.763016673654132e+00
-9.050966799159999e+00	-7.919595949304000e+00	 1.793534514734842e+00
-8.909545442919999e+00	-8.061017305530999e+00	 1.804720101216343e+00
-8.768124086680000e+00	-8.202438661756000e+00	 1.799500316571301e+00
-8.626702730439998e+00	-8.343860017978999e+00	 1.779594265337744e+00
-8.485281374200000e+00	-8.485281374200000e+00	 1.740552148783453e+00
-5.656854249500000e+00	-5.656854249500000e+00	 5.259352439427168e-01
-5.798275605740000e+00	-5.515432893260000e+00	 6.800586176394290e-01
-5.939696961980000e+00	-5.374011537020000e+00	 8.213902969802070e-01
-6.081118318220000e+00	-5.232590180780001e+00	 9.499133202618606e-01
-6.222539674460000e+00	-5.091168824540000e+00	 1.065610726084423e+00
-6.363961030700001e+00	-4.949747468300000e+00	 1.168465553351172e+00
-6.505382386939999e+00	-4.808326112060000e+00	 1.258460841268598e+00
-6.646803743180000e+00	-4.666904755820000e+00	 1.335579629346409e+00
-6.788225099420000e+00	-4.525483399580001e+00	 1.399804957397510e+00
-6.929646455659999e+00	-4.384062043340000e+00	 1.451119865538023e+00
-7.071067811900000e+00	-4.242640687100000e+00	 1.489507394187246e+00
-5.374011537020500e+00	-5.374011537020500e+00	 5.033279115606091e-01
-5.515432893260495e+00	-5.232590180780500e+00	 6.397060807796305e-01
-5.656854249500480e+00	-5.091168824540501e+00	 7.644976274972229e-01
-5.798275605740455e+00	-4.949747468300500e+00	 8.776855900088926e-01
-5.939696961980420e+00	-4.808326112060500e+00	 9.792530069133869e-01
-6.081118318220376e+00	-4.666904755820500e+00	 1.069182917112674e+00
-6.222539674460319e+00	-4.525483399580500e+00	 1.147458359811956e+00
-6.363961030700255e+00	-4.384062043340500e+00	 1.214062374519636e+00
-6.505382386940179e+00	-4.242640687100500e+00	 1.268978001047337e+00
-6.646803743180094e+00	-4.101219330860500e+00	 1.312188279509857e+00
-6.788225099420000e+00	-3.959797974620500e+00	 1.343676250325213e+00
-5.091168824542001e+00	-5.091168824542001e+00	 4.777972145158815e-01
-5.232590180781980e+00	-4.949747468302000e+00	 5.981827797311695e-01
-5.374011537021920e+00	-4.808326112062001e+00	 7.081867938935125e-01
-5.515432893261822e+00	-4.666904755822000e+00	 8.077922952971213e-01
-5.656854249501680e+00	-4.525483399582000e+00	 8.969823225394458e-01
-5.798275605741500e+00	-4.384062043342001e+00	 9.757399145211694e-01
-5.939696961981280e+00	-4.242640687102000e+00	 1.044048110446187e+00
-6.081118318221020e+00	-4.101219330862000e+00	 1.101889949821608e+00
-6.222539674460719e+00	-3.959797974622000e+00	 1.149248472457752e+00
-6.363961030700379e+00	-3.818376618382000e+00	 1.186106718468134e+00
-6.505382386940000e+00	-3.676955262142000e+00	 1.212447728269454e+00
-4.808326112064499e+00	-4.808326112064499e+00	 4.492057057968886e-01
-4.949747468304456e+00	-4.666904755824500e+00	 5.553512674877694e-01
-5.091168824544322e+00	-4.525483399584500e+00	 6.523203491681722e-01
-5.232590180784094e+00	-4.384062043344499e+00	 7.400959891310219e-01
-5.374011537023780e+00	-4.242640687104500e+00	 8.186612259724766e-01
-5.515432893263375e+00	-4.101219330864502e+00	 8.879990985919223e-01
-5.656854249502880e+00	-3.959797974624500e+00	 9.480926461919608e-01
-5.798275605742295e+00	-3.818376618384500e+00	 9.989249082784102e-01
-5.939696961981618e+00	-3.676955262144500e+00	 1.040478924660286e+00
-6.081118318220856e+00	-3.535533905904500e+00	 1.072737740007289e+00
-6.222539674460000e+00	-3.394112549664499e+00	 1.092932490308835e+00
-4.525483399588000e+00	-4.525483399588000e+00	 4.174159432859156e-01
-4.666904755827919e+00	-4.384062043348001e+00	 5.110741019370484e-01
-4.808326112067681e+00	-4.242640687108000e+00	 5.967608512141739e-01
-4.949747468307280e+00	-4.101219330868000e+00	 6.744592294089299e-01
-5.091168824546720e+00	-3.959797974628000e+00	 7.441522751161799e-01
-5.232590180786000e+00	-3.818376618388000e+00	 8.058230272340210e-01
-5.374011537025120e+00	-3.676955262148000e+00	 8.594545249637574e-01
-5.515432893264080e+00	-3.535533905908000e+00	 9.050298125467249e-01
-5.656854249502881e+00	-3.394112549668000e+00	 9.397515746745607e-01
-5.798275605741520e+00	-3.252691193428001e+00	 9.618906651234566e-01
-5.939696961980000e+00	-3.111269837188000e+00	 9.759103774812529e-01
-4.242640687112500e+00	-4.242640687112500e+00	 3.822904897589278e-01
-4.384062043352377e+00	-4.101219330872501e+00	 4.652138458603031e-01
-4.525483399592000e+00	-3.959797974632500e+00	 5.413708628181445e-01
-4.666904755831375e+00	-3.818376618392501e+00	 6.107445789228030e-01
-4.808326112070500e+00	-3.676955262152500e+00	 6.733180327678613e-01
-4.949747468309375e+00	-3.535533905912500e+00	 7.290742681147341e-01
-5.091168824548000e+00	-3.394112549672500e+00	 7.751892209453860e-01
-5.232590180786375e+00	-3.252691193432500e+00	 8.099084592567253e-01
-5.374011537024500e+00	-3.111269837192500e+00	 8.377343779449267e-01
-5.515432893262377e+00	-2.969848480952500e+00	 8.586588829228725e-01
-5.656854249500000e+00	-2.828427124712500e+00	 8.726738801034430e-01
-3.959797974638000e+00	-3.959797974638000e+00	 3.436919128853452e-01
-4.101219330877821e+00	-3.818376618398000e+00	 4.176330669322342e-01
-4.242640687117279e+00	-3.676955262158000e+00	 4.860129516600862e-01
-4.384062043356381e+00	-3.535533905918001e+00	 5.488146102988518e-01
-4.525483399595119e+00	-3.394112549677999e+00	 6.031889327089354e-01
-4.666904755833500e+00	-3.252691193438000e+00	 6.473572406084240e-01
-4.808326112071520e+00	-3.111269837198000e+00	 6.858582873527466e-01
-4.949747468309181e+00	-2.969848480958000e+00	 7.186839788547666e-01
-5.091168824546481e+00	-2.828427124718000e+00	 7.458262210273576e-01
-5.232590180783419e+00	-2.687005768478000e+00	 7.672769197833933e-01
-5.374011537019999e+00	-2.545584412238000e+00	 7.830279810357621e-01
-3.676955262164500e+00	-3.676955262164500e+00	 3.014827852277857e-01
-3.818376618404255e+00	-3.535533905924500e+00	 3.681943426863738e-01
-3.959797974643520e+00	-3.394112549684500e+00	 4.276942135524603e-01
-4.101219330882295e+00	-3.252691193444500e+00	 4.781805127657892e-01
-4.242640687120581e+00	-3.111269837204500e+00	 5.242256092919665e-01
-4.384062043358375e+00	-2.969848480964501e+00	 5.658214090438396e-01
-4.525483399595680e+00	-2.828427124724500e+00	 6.029598179342575e-01
-4.666904755832495e+00	-2.687005768484501e+00	 6.356327418760771e-01
-4.808326112068819e+00	-2.545584412244500e+00	 6.638320867821663e-01
-4.949747468304656e+00	-2.404163056004501e+00	 6.875497585653892e-01
-5.091168824540000e+00	-2.262741699764500e+00	 7.067776631386278e-01
-3.394112549692001e+00	-3.394112549692001e+00	 2.526485670632087e-01
-3.535533905931680e+00	-3.252691193452000e+00	 3.063217793159595e-01
-3.676955262170720e+00	-3.111269837212000e+00	 3.567798473496325e-01
-3.818376618409121e+00	-2.969848480972001e+00	 4.040146770770541e-01
-3.959797974646881e+00	-2.828427124732001e+00	 4.480181744110594e-01
-4.101219330884000e+00	-2.687005768492000e+00	 4.887822452644784e-01
-4.242640687120479e+00	-2.545584412252000e+00	 5.262987955501607e-01
-4.384062043356320e+00	-2.404163056012000e+00	 5.605597311809495e-01
-4.525483399591519e+00	-2.262741699772000e+00	 5.915569580696999e-01
-4.666904755826081e+00	-2.121320343532000e+00	 6.192823821292712e-01
-4.808326112060000e+00	-1.979898987292001e+00	 6.437279092725264e-01
-3.111269837220500e+00	-3.111269837220500e+00	 1.874645051129278e-01
-3.252691193460095e+00	-2.969848480980500e+00	 2.372072865414318e-01
-3.394112549698880e+00	-2.828427124740501e+00	 2.849447940446249e-01
-3.535533905936855e+00	-2.687005768500501e+00	 3.306689335353242e-01
-3.676955262174020e+00	-2.545584412260500e+00	 3.743716109263559e-01
-3.818376618410376e+00	-2.404163056020500e+00	 4.160447321305430e-01
-3.959797974645920e+00	-2.262741699780500e+00	 4.556802030607161e-01
-4.101219330880655e+00	-2.121320343540500e+00	 4.932699296297093e-01
-4.242640687114581e+00	-1.979898987300501e+00	 5.288058177503563e-01
-4.384062043347695e+00	-1.838477631060500e+00	 5.622797733355052e-01
-4.525483399580001e+00	-1.697056274820500e+00	 5.936837022979961e-01
-2.828427124750000e+00	-2.828427124750000e+00	 1.145884636159872e-01
-2.969848480989500e+00	-2.687005768510000e+00	 1.652363102755778e-01
-3.111269837227999e+00	-2.545584412270000e+00	 2.119940364974980e-01
-3.252691193465500e+00	-2.404163056030000e+00	 2.579482650007084e-01
-3.394112549702000e+00	-2.262741699790000e+00	 3.030909016980217e-01
-3.535533905937500e+00	-2.121320343550000e+00	 3.474138525022489e-01
-3.676955262172001e+00	-1.979898987310000e+00	 3.909090233262035e-01
-3.818376618405500e+00	-1.838477631070000e+00	 4.335683200827004e-01
-3.959797974638000e+00	-1.697056274830000e+00	 4.753836486845577e-01
-4.101219330869499e+00	-1.555634918590000e+00	 5.163469150445948e-01
-4.242640687100000e+00	-1.414213562350000e+00	 5.564500250756339e-01
-2.828427124750000e+00	-2.828427124750000e+00	 1.145884636159872e-01
-2.969848480989500e+00	-2.687005768510000e+00	 1.652363102755778e-01
-3.111269837227999e+00	-2.545584412270000e+00	 2.119940364974980e-01
-3.252691193465500e+00	-2.404163056030000e+00	 2.579482650007084e-01
-3.394112549702000e+00	-2.262741699790000e+00	 3.030909016980217e-01
-3.535533905937500e+00	-2.121320343550000e+00	 3.474138525022489e-01
-3.676955262172001e+00	-1.979898987310000e+00	 3.909090233262035e-01
-3.818376618405500e+00	-1.838477631070000e+00	 4.335683200827004e-01
-3.959797974638000e+00	-1.697056274830000e+00	 4.753836486845577e-01
-4.101219330869499e+00	-1.555634918590000e+00	 5.163469150445948e-01
-4.242640687100000e+00	-1.414213562350000e+00	 5.564500250756339e-01
-2.545584412279500e+00	-2.545584412279500e+00	 1.199609032039029e-01
-2.687005768518914e+00	-2.404163056039500e+00	 1.682564745408403e-01
-2.828427124757160e+00	-2.262741699799500e+00	 2.158835845154651e-01
-2.969848480994236e+00	-2.121320343559500e+00	 2.621045544002853e-01
-3.111269837230140e+00	-1.979898987319500e+00	 3.047638558647125e-01
-3.252691193464875e+00	-1.838477631079499e+00	 3.467091941539419e-01
-3.394112549698440e+00	-1.697056274839500e+00	 3.879324751807791e-01
-3.535533905930834e+00	-1.555634918599500e+00	 4.284256048580377e-01
-3.676955262162060e+00	-1.414213562359500e+00	 4.681804890985291e-01
-3.818376618392115e+00	-1.272792206119500e+00	 5.071890338150692e-01
-3.959797974621000e+00	-1.131370849879500e+00	 5.454431449204686e-01
-2.262741699807999e+00	-2.262741699807999e+00	 1.212643025223597e-01
-2.404163056047360e+00	-2.121320343567999e+00	 1.664972207172681e-01
-2.545584412285440e+00	-1.979898987327999e+00	 2.111511488393983e-01
-2.687005768522239e+00	-1.838477631087999e+00	 2.552260868887742e-01
-2.828427124757760e+00	-1.697056274847999e+00	 2.987220348654174e-01
-2.969848480992000e+00	-1.555634918607999e+00	 3.409716229416657e-01
-3.111269837224959e+00	-1.414213562367999e+00	 3.800225359921027e-01
-3.252691193456640e+00	-1.272792206128000e+00	 4.184490204108155e-01
-3.394112549687040e+00	-1.131370849887999e+00	 4.562429821106054e-01
-3.535533905916160e+00	-9.899494936479996e-01	 4.933963270042876e-01
-3.676955262144000e+00	-8.485281374079995e-01	 5.299009610046614e-01
-1.979898987335499e+00	-1.979898987335499e+00	 1.184986615714693e-01
-2.121320343574835e+00	-1.838477631095500e+00	 1.607576563288095e-01
-2.262741699812840e+00	-1.697056274855500e+00	 2.025271323028857e-01
-2.404163056049515e+00	-1.555634918615500e+00	 2.438070894937191e-01
-2.545584412284859e+00	-1.414213562375499e+00	 2.845975279013254e-01
-2.687005768518874e+00	-1.272792206135499e+00	 3.248984475257267e-01
-2.828427124751559e+00	-1.131370849895499e+00	 3.647098483669354e-01
-2.969848480982914e+00	-9.899494936554994e-01	 4.034435496005129e-01
-3.111269837212939e+00	-8.485281374154995e-01	 4.393761105802002e-01
-3.252691193441634e+00	-7.071067811754993e-01	 4.747737774715903e-01
-3.394112549668999e+00	-5.656854249354992e-01	 5.096284561874849e-01
-1.697056274861999e+00	-1.697056274861999e+00	 1.116639803513470e-01
-1.838477631101339e+00	-1.555634918621999e+00	 1.510377813755086e-01
-1.979898987339359e+00	-1.414213562381999e+00	 1.900115349059052e-01
-2.121320343576059e+00	-1.272792206141999e+00	 2.285852409425525e-01
-2.262741699811439e+00	-1.131370849901999e+00	 2.667588994854616e-01
-2.404163056045499e+00	-9.899494936619991e-01	 3.045325105346408e-01
-2.545584412278239e+00	-8.485281374219991e-01	 3.419060740901015e-01
-2.687005768509659e+00	-7.071067811819991e-01	 3.788795901518569e-01
-2.828427124739759e+00	-5.656854249419991e-01	 4.154530587199172e-01
-2.969848480968539e+00	-4.242640687019993e-01	 4.511263680763595e-01
-3.111269837195999e+00	-2.828427124619991e-01	 4.844306133282505e-01
-1.414213562387499e+00	-1.414213562387499e+00	 1.007602588621015e-01
-1.555634918626874e+00	-1.272792206147499e+00	 1.373375958574208e-01
-1.697056274864999e+00	-1.131370849907499e+00	 1.736043566484567e-01
-1.838477631101874e+00	-9.899494936674987e-01	 2.095605412352121e-01
-1.979898987337499e+00	-8.485281374274989e-01	 2.452061496176942e-01
-2.121320343571873e+00	-7.071067811874989e-01	 2.805411817959034e-01
-2.262741699804999e+00	-5.656854249474987e-01	 3.155656377698450e-01
-2.404163056036874e+00	-4.242640687074988e-01	 3.502795175395227e-01
-2.545584412267499e+00	-2.828427124674988e-01	 3.846828211049403e-01
-2.687005768496874e+00	-1.414213562274989e-01	 4.187755484660986e-01
-2.828427124724999e+00	 1.250122227958173e-11	 4.525576996230030e-01
-1.131370849911999e+00	-1.131370849911999e+00	 8.578749710384496e-02
-1.272792206151439e+00	-9.899494936719987e-01	 1.196570997746069e-01
-1.414213562389759e+00	-8.485281374319987e-01	 1.533055975305401e-01
-1.555634918626958e+00	-7.071067811919984e-01	 1.867329903716431e-01
-1.697056274863038e+00	-5.656854249519985e-01	 2.199392782979152e-01
-1.838477631097999e+00	-4.242640687119985e-01	 2.529244613093461e-01
-1.979898987331838e+00	-2.828427124719985e-01	 2.856885394059341e-01
-2.121320343564558e+00	-1.414213562319985e-01	 3.182315125876739e-01
-2.262741699796158e+00	 8.001432849624734e-12	 3.505533808545631e-01
-2.404163056026638e+00	 1.414213562480014e-01	 3.826541442065936e-01
-2.545584412255999e+00	 2.828427124880016e-01	 4.145338026437584e-01
-8.485281374354983e-01	-8.485281374354983e-01	 6.674569507668854e-02
-9.899494936750332e-01	-7.071067811954983e-01	 9.799629312712710e-02
-1.131370849913638e+00	-5.656854249554983e-01	 1.291152575521726e-01
-1.272792206151313e+00	-4.242640687154982e-01	 1.601025883518135e-01
-1.414213562388058e+00	-2.828427124754982e-01	 1.909582855260340e-01
-1.555634918623873e+00	-1.414213562354982e-01	 2.216823490748244e-01
-1.697056274858758e+00	 4.501760075825700e-12	 2.522747789981699e-01
-1.838477631092713e+00	 1.414213562445017e-01	 2.827355752960555e-01
-1.979898987325738e+00	 2.828427124845017e-01	 3.130647379684697e-01
-2.121320343557833e+00	 4.242640687245017e-01	 3.432622670153958e-01
-2.262741699788998e+00	 5.656854249645018e-01	 3.733281624368200e-01
-5.656854249579980e-01	-5.656854249579980e-01	 4.363485278074813e-02
-7.071067811976580e-01	-4.242640687179980e-01	 7.235517591505347e-02
-8.485281374366381e-01	-2.828427124779981e-01	 1.010333367133768e-01
-9.899494936749381e-01	-1.414213562379980e-01	 1.296693351756938e-01
-1.131370849912558e+00	 2.001981913579698e-12	 1.582631713019820e-01
-1.272792206149498e+00	 1.414213562420021e-01	 1.868148450922155e-01
-1.414213562385758e+00	 2.828427124820019e-01	 2.153243565463756e-01
-1.555634918621338e+00	 4.242640687220020e-01	 2.437917056644350e-01
-1.697056274856238e+00	 5.656854249620019e-01	 2.722168924463681e-01
-1.838477631090458e+00	 7.071067812020018e-01	 3.005999168921571e-01
-1.979898987323998e+00	 8.485281374420021e-01	 3.289407790017731e-01
-2.828427124794977e-01	-2.828427124794977e-01	 1.645497021613193e-02
-4.242640687193128e-01	-1.414213562394977e-01	 4.273374813845623e-02
-5.656854249587578e-01	 5.022510185526130e-13	 6.905983501418615e-02
-7.071067811978328e-01	 1.414213562405023e-01	 9.543323084327959e-02
-8.485281374365378e-01	 2.828427124805023e-01	 1.218539356257046e-01
-9.899494936748727e-01	 4.242640687205023e-01	 1.483219493614235e-01
-1.131370849912838e+00	 5.656854249605021e-01	 1.748372720504049e-01
-1.272792206150433e+00	 7.071067812005022e-01	 2.013999036926130e-01
-1.414213562387657e+00	 8.485281374405022e-01	 2.280098442880111e-01
-1.555634918624513e+00	 9.899494936805021e-01	 2.546670938365677e-01
-1.697056274860998e+00	 1.131370849920502e+00	 2.813716523382485e-01
 0.000000000000000e+00	 0.000000000000000e+00	-1.479395261704824e-02
-1.414213562400000e-01	 1.414213562400000e-01	 9.132009797420680e-03
-2.828427124800000e-01	 2.828427124800000e-01	 3.319475245464346e-02
-4.242640687200001e-01	 4.242640687200001e-01	 5.739427535457746e-02
-5.656854249600001e-01	 5.656854249600001e-01	 8.173057849716728e-02
-7.071067812000000e-01	 7.071067812000000e-01	 1.062036618823695e-01
-8.485281374400000e-01	 8.485281374400000e-01	 1.308135255101368e-01
-9.899494936800000e-01	 9.899494936800000e-01	 1.555601693804204e-01
-1.131370849920000e+00	 1.131370849920000e+00	 1.804435934931765e-01
-1.272792206160000e+00	 1.272792206160000e+00	 2.054637978483599e-01
-1.414213562400000e+00	 1.414213562400000e+00	 2.306207824459268e-01
-1.414213562370000e+01	-1.414213562370000e+01	 1.160759118078325e+00
-1.428355697994000e+01	-1.400071426746100e+01	 1.161748778581516e+00
-1.442497833618000e+01	-1.385929291122400e+01	 1.162036217678120e+00
-1.456639969242000e+01	-1.371787155498900e+01	 1.161616322533932e+00
-1.470782104866000e+01	-1.357645019875600e+01	 1.160488883835102e+00
-1.484924240490000e+01	-1.343502884252500e+01	 1.159041414032103e+00
-1.499066376114000e+01	-1.329360748629600e+01	 1.156965848495389e+00
-1.513208511738000e+01	-1.315218613006900e+01	 1.154266475633897e+00
-1.527350647362000e+01	-1.301076477384400e+01	 1.150947583874116e+00
-1.541492782986000e+01	-1.286934341762100e+01	 1.147013461660078e+00
-1.555634918610000e+01	-1.272792206140000e+01	 1.142468397453366e+00
-1.385929291123900e+01	-1.385929291123900e+01	 1.178699234083619e+00
-1.400071426747549e+01	-1.371787155499981e+01	 1.179763421095271e+00
-1.414213562371234e+01	-1.357645019876224e+01	 1.180149404380040e+00
-1.428355697994956e+01	-1.343502884252629e+01	 1.179852071016231e+00
-1.442497833618716e+01	-1.329360748629196e+01	 1.178866308101108e+00
-1.456639969242513e+01	-1.315218613005925e+01	 1.177187002750870e+00
-1.470782104866346e+01	-1.301076477382816e+01	 1.174809357288924e+00
-1.484924240490216e+01	-1.286934341759869e+01	 1.171795040165820e+00
-1.499066376114124e+01	-1.272792206137084e+01	 1.168165790580318e+00
-1.513208511738069e+01	-1.258650070514461e+01	 1.163925896906389e+00
-1.527350647362050e+01	-1.244507934892000e+01	 1.159079647535550e+00
-1.357645019877600e+01	-1.357645019877600e+01	 1.195330998008632e+00
-1.371787155500954e+01	-1.343502884253664e+01	 1.196399842413286e+00
-1.385929291124376e+01	-1.329360748629856e+01	 1.196814500862111e+00
-1.400071426747866e+01	-1.315218613006176e+01	 1.196569860345933e+00
-1.414213562371424e+01	-1.301076477382624e+01	 1.195660807874523e+00
-1.428355697995050e+01	-1.286934341759200e+01	 1.194082230476606e+00
-1.442497833618744e+01	-1.272792206135904e+01	 1.191829015199848e+00
-1.456639969242506e+01	-1.258650070512736e+01	 1.188896049110872e+00
-1.470782104866336e+01	-1.244507934889696e+01	 1.185273224293737e+00
-1.484924240490234e+01	-1.230365799266784e+01	 1.180645150495911e+00
-1.499066376114200e+01	-1.216223663644000e+01	 1.175415307366971e+00
-1.329360748631100e+01	-1.329360748631100e+01	 1.210524034048022e+00
-1.343502884254216e+01	-1.315218613007149e+01	 1.211527667080358e+00
-1.357645019877426e+01	-1.301076477383296e+01	 1.211901132019282e+00
-1.371787155500728e+01	-1.286934341759541e+01	 1.211639315768126e+00
-1.385929291124124e+01	-1.272792206135884e+01	 1.210737105249177e+00
-1.400071426747613e+01	-1.258650070512325e+01	 1.209189387403671e+00
-1.414213562371194e+01	-1.244507934888864e+01	 1.206991049191793e+00
-1.428355697994868e+01	-1.230365799265501e+01	 1.204136977592676e+00
-1.442497833618636e+01	-1.216223663642236e+01	 1.200622059604409e+00
-1.456639969242497e+01	-1.202081528019069e+01	 1.196441182244023e+00
-1.470782104866450e+01	-1.187939392396000e+01	 1.191578205479650e+00
-1.301076477384400e+01	-1.301076477384400e+01	 1.224147963899247e+00
-1.315218613007336e+01	-1.286934341760436e+01	 1.225016517144108e+00
-1.329360748630384e+01	-1.272792206136544e+01	 1.225278920249325e+00
-1.343502884253544e+01	-1.258650070512724e+01	 1.224930060030742e+00
-1.357645019876816e+01	-1.244507934888976e+01	 1.223964823323156e+00
-1.371787155500200e+01	-1.230365799265300e+01	 1.222378096980314e+00
-1.385929291123696e+01	-1.216223663641696e+01	 1.220164767874910e+00
-1.400071426747304e+01	-1.202081528018164e+01	 1.217319722898595e+00
-1.414213562371024e+01	-1.187939392394704e+01	 1.213837848961969e+00
-1.428355697994856e+01	-1.173797256771316e+01	 1.209714032994578e+00
-1.442497833618800e+01	-1.159655121148000e+01	 1.204943161944925e+00
-1.272792206137500e+01	-1.272792206137500e+01	 1.236072406762490e+00
-1.286934341760313e+01	-1.258650070513525e+01	 1.236736012154889e+00
-1.301076477383250e+01	-1.244507934889600e+01	 1.236817485452769e+00
-1.315218613006313e+01	-1.230365799265725e+01	 1.236311713384480e+00
-1.329360748629500e+01	-1.216223663641900e+01	 1.235213582697328e+00
-1.343502884252813e+01	-1.202081528018125e+01	 1.233517980157567e+00
-1.357645019876250e+01	-1.187939392394400e+01	 1.231219792550403e+00
-1.371787155499813e+01	-1.173797256770725e+01	 1.228313906679998e+00
-1.385929291123500e+01	-1.159655121147100e+01	 1.224795209369459e+00
-1.400071426747312e+01	-1.145512985523525e+01	 1.220658587460850e+00
-1.414213562371250e+01	-1.131370849900000e+01	 1.215898927815186e+00
-1.244507934890400e+01	-1.244507934890400e+01	 1.246166979340585e+00
-1.258650070513146e+01	-1.230365799266416e+01	 1.246555769165723e+00
-1.272792206136024e+01	-1.216223663642464e+01	 1.246386445032820e+00
-1.286934341759034e+01	-1.202081528018544e+01	 1.245653893582731e+00
-1.301076477382176e+01	-1.187939392394656e+01	 1.244353001475267e+00
-1.315218613005450e+01	-1.173797256770800e+01	 1.242478655389188e+00
-1.329360748628856e+01	-1.159655121146976e+01	 1.240025742022210e+00
-1.343502884252394e+01	-1.145512985523184e+01	 1.236989148090998e+00
-1.357645019876064e+01	-1.131370849899424e+01	 1.233363760331173e+00
-1.371787155499866e+01	-1.117228714275696e+01	 1.229144465497309e+00
-1.385929291123800e+01	-1.103086578652000e+01	 1.224326150362929e+00
-1.216223663643100e+01	-1.216223663643100e+01	 1.254301295838946e+00
-1.230365799265836e+01	-1.202081528019109e+01	 1.254345402732227e+00
-1.244507934888706e+01	-1.187939392395136e+01	 1.253855413895296e+00
-1.258650070511709e+01	-1.173797256771181e+01	 1.252826215881510e+00
-1.272792206134844e+01	-1.159655121147244e+01	 1.251252695263182e+00
-1.286934341758112e+01	-1.145512985523325e+01	 1.249129738631580e+00
-1.301076477381514e+01	-1.131370849899424e+01	 1.246452232596921e+00
-1.315218613005048e+01	-1.117228714275541e+01	 1.243215063788380e+00
-1.329360748628716e+01	-1.103086578651676e+01	 1.239413118854083e+00
-1.343502884252517e+01	-1.088944443027829e+01	 1.235041284461112e+00
-1.357645019876450e+01	-1.074802307404000e+01	 1.230094447295500e+00
-1.187939392395600e+01	-1.187939392395600e+01	 1.260344967965495e+00
-1.202081528018384e+01	-1.173797256771604e+01	 1.259974524912538e+00
-1.216223663641296e+01	-1.159655121147616e+01	 1.259094004448545e+00
-1.230365799264336e+01	-1.145512985523636e+01	 1.257698293039376e+00
-1.244507934887504e+01	-1.131370849899664e+01	 1.255782277169845e+00
-1.258650070510800e+01	-1.117228714275700e+01	 1.253340843343718e+00
-1.272792206134224e+01	-1.103086578651744e+01	 1.250368878083720e+00
-1.286934341757776e+01	-1.088944443027796e+01	 1.246861267931527e+00
-1.301076477381456e+01	-1.074802307403856e+01	 1.242812899447771e+00
-1.315218613005264e+01	-1.060660171779924e+01	 1.238218659212040e+00
-1.329360748629200e+01	-1.046518036156000e+01	 1.233073433822873e+00
-1.159655121147900e+01	-1.159655121147900e+01	 1.264167604930587e+00
-1.173797256770789e+01	-1.145512985523901e+01	 1.263312745267239e+00
-1.187939392393794e+01	-1.131370849899904e+01	 1.261971826603380e+00
-1.202081528016917e+01	-1.117228714275909e+01	 1.260139735317365e+00
-1.216223663640156e+01	-1.103086578651916e+01	 1.257811357806509e+00
-1.230365799263513e+01	-1.088944443027925e+01	 1.254981580487079e+00
-1.244507934886986e+01	-1.074802307403936e+01	 1.251645289794298e+00
-1.258650070510576e+01	-1.060660171779949e+01	 1.247797372182345e+00
-1.272792206134284e+01	-1.046518036155964e+01	 1.243432714124357e+00
-1.286934341758109e+01	-1.032375900531981e+01	 1.238356534830894e+00
-1.301076477382050e+01	-1.018233764908000e+01	 1.231614794262427e+00
-1.131370849900000e+01	-1.131370849900000e+01	 1.265638813446932e+00
-1.145512985523050e+01	-1.117228714276000e+01	 1.264229670859287e+00
-1.159655121146200e+01	-1.103086578652000e+01	 1.262358487772996e+00
-1.173797256769450e+01	-1.088944443028000e+01	 1.260020150478913e+00
-1.187939392392800e+01	-1.074802307404000e+01	 1.257209545286849e+00
-1.202081528016250e+01	-1.060660171780000e+01	 1.253921558525566e+00
-1.216223663639800e+01	-1.046518036156000e+01	 1.250151076542790e+00
-1.230365799263450e+01	-1.032375900532000e+01	 1.245706205153305e+00
-1.244507934887200e+01	-1.018233764908000e+01	 1.239615509139228e+00
-1.258650070511050e+01	-1.004091629284000e+01	 1.232938991214318e+00
-1.272792206135000e+01	-9.899494936600000e+00	 1.225684391841555e+00
-1.131370849900000e+01	-1.131370849900000e+01	 1.265638813446932e+00
-1.145512985523050e+01	-1.117228714276000e+01	 1.264229670859287e+00
-1.159655121146200e+01	-1.103086578652000e+01	 1.262358487772996e+00
-1.173797256769450e+01	-1.088944443028000e+01	 1.260020150478913e+00
-1.187939392392800e+01	-1.074802307404000e+01	 1.257209545286849e+00
-1.202081528016250e+01	-1.060660171780000e+01	 1.253921558525566e+00
-1.216223663639800e+01	-1.046518036156000e+01	 1.250151076542790e+00
-1.230365799263450e+01	-1.032375900532000e+01	 1.245706205153305e+00
-1.244507934887200e+01	-1.018233764908000e+01	 1.239615509139228e+00
-1.258650070511050e+01	-1.004091629284000e+01	 1.232938991214318e+00
-1.272792206135000e+01	-9.899494936600000e+00	 1.225684391841555e+00
-1.103086578652000e+01	-1.103086578652000e+01	 1.287445528093862e+00
-1.117228714275230e+01	-1.088944443028019e+01	 1.290944912857122e+00
-1.131370849898542e+01	-1.074802307404036e+01	 1.292919497399302e+00
-1.145512985521935e+01	-1.060660171780051e+01	 1.293364167923738e+00
-1.159655121145408e+01	-1.046518036156064e+01	 1.292273810652720e+00
-1.173797256768962e+01	-1.032375900532075e+01	 1.289481414607481e+00
-1.187939392392598e+01	-1.018233764908084e+01	 1.284105394556805e+00
-1.202081528016314e+01	-1.004091629284091e+01	 1.277036070593167e+00
-1.216223663640112e+01	-9.899494936600961e+00	 1.268281183881418e+00
-1.230365799263990e+01	-9.758073580360987e+00	 1.257848475366565e+00
-1.244507934887950e+01	-9.616652224120999e+00	 1.245745685773795e+00
-1.074802307404000e+01	-1.074802307404000e+01	 1.313688149414210e+00
-1.088944443027392e+01	-1.060660171780076e+01	 1.321308467026657e+00
-1.103086578650848e+01	-1.046518036156144e+01	 1.326341224786933e+00
-1.117228714274368e+01	-1.032375900532204e+01	 1.328666292064349e+00
-1.131370849897952e+01	-1.018233764908256e+01	 1.327599181409480e+00
-1.145512985521600e+01	-1.004091629284300e+01	 1.323731283169179e+00
-1.159655121145312e+01	-9.899494936603361e+00	 1.317070339210189e+00
-1.173797256769088e+01	-9.758073580363639e+00	 1.307624091179399e+00
-1.187939392392928e+01	-9.616652224123840e+00	 1.295400280503858e+00
-1.202081528016832e+01	-9.475230867883960e+00	 1.280406648390778e+00
-1.216223663640800e+01	-9.333809511643999e+00	 1.262650935827537e+00
-1.046518036156000e+01	-1.046518036156000e+01	 1.344236276627144e+00
-1.060660171779534e+01	-1.032375900532171e+01	 1.355143794345540e+00
-1.074802307403118e+01	-1.018233764908324e+01	 1.361979828828487e+00
-1.088944443026751e+01	-1.004091629284459e+01	 1.364907590383155e+00
-1.103086578650432e+01	-9.899494936605757e+00	 1.363934821578200e+00
-1.117228714274163e+01	-9.758073580366750e+00	 1.359069264762417e+00
-1.131370849897942e+01	-9.616652224127559e+00	 1.350318662064743e+00
-1.145512985521770e+01	-9.475230867888190e+00	 1.337690755394266e+00
-1.159655121145648e+01	-9.333809511648639e+00	 1.321193286440227e+00
-1.173797256769575e+01	-9.192388155408912e+00	 1.300833996672038e+00
-1.187939392393550e+01	-9.050966799169000e+00	 1.276620627339271e+00
-1.018233764908000e+01	-1.018233764908000e+01	 1.379130295940742e+00
-1.032375900531658e+01	-1.004091629284304e+01	 1.392447953671683e+00
-1.046518036155352e+01	-9.899494936605759e+00	 1.400757594731673e+00
-1.060660171779082e+01	-9.758073580368158e+00	 1.404066962171428e+00
-1.074802307402848e+01	-9.616652224130238e+00	 1.402383798821802e+00
-1.088944443026650e+01	-9.475230867892000e+00	 1.395715847293779e+00
-1.103086578650488e+01	-9.333809511653440e+00	 1.384070849978492e+00
-1.117228714274362e+01	-9.192388155414559e+00	 1.367456549047222e+00
-1.131370849898272e+01	-9.050966799175360e+00	 1.345880686451411e+00
-1.145512985522218e+01	-8.909545442935839e+00	 1.319351003922663e+00
-1.159655121146200e+01	-8.768124086695998e+00	 1.287875242972753e+00
-9.899494936599998e+00	-9.899494936599998e+00	 1.419421622412543e+00
-1.004091629283763e+01	-9.758073580364750e+00	 1.434500149458087e+00
-1.018233764907550e+01	-9.616652224129000e+00	 1.443478659136354e+00
-1.032375900531362e+01	-9.475230867892748e+00	 1.446364894760257e+00
-1.046518036155200e+01	-9.333809511655998e+00	 1.443166599422838e+00
-1.060660171779062e+01	-9.192388155418749e+00	 1.433891515997277e+00
-1.074802307402950e+01	-9.050966799180999e+00	 1.418547387136902e+00
-1.088944443026863e+01	-8.909545442942749e+00	 1.397141955275195e+00
-1.103086578650800e+01	-8.768124086703999e+00	 1.369682962625790e+00
-1.117228714274762e+01	-8.626702730464748e+00	 1.336178151182495e+00
-1.131370849898750e+01	-8.485281374224998e+00	 1.296635262719287e+00
-9.616652224119999e+00	-9.616652224119999e+00	 1.465486211365469e+00
-9.758073580358481e+00	-9.475230867886840e+00	 1.481520868460538e+00
-9.899494936597119e+00	-9.333809511652960e+00	 1.490363507749817e+00
-1.004091629283592e+01	-9.192388155418358e+00	 1.492021872808414e+00
-1.018233764907488e+01	-9.050966799183037e+00	 1.486503706991563e+00
-1.032375900531400e+01	-8.909545442947000e+00	 1.473816753434646e+00
-1.046518036155328e+01	-8.768124086710237e+00	 1.453968755053186e+00
-1.060660171779272e+01	-8.626702730472758e+00	 1.426967454542867e+00
-1.074802307403232e+01	-8.485281374234559e+00	 1.392820594379529e+00
-1.088944443027208e+01	-8.343860017995636e+00	 1.351535916819181e+00
-1.103086578651200e+01	-8.202438661755998e+00	 1.303121163898010e+00
-9.333809511639998e+00	-9.333809511639998e+00	 1.517544547931735e+00
-9.475230867879143e+00	-9.192388155409304e+00	 1.533730594762770e+00
-9.616652224118379e+00	-9.050966799177640e+00	 1.541632623607302e+00
-9.758073580357703e+00	-8.909545442944987e+00	 1.541258378302639e+00
-9.899494936597119e+00	-8.768124086711358e+00	 1.532615602466216e+00
-1.004091629283662e+01	-8.626702730476747e+00	 1.515712039495615e+00
-1.018233764907622e+01	-8.485281374241158e+00	 1.490555432568567e+00
-1.032375900531590e+01	-8.343860018004589e+00	 1.457153524642961e+00
-1.046518036155568e+01	-8.202438661767037e+00	 1.415514058456850e+00
-1.060660171779554e+01	-8.061017305528509e+00	 1.365644776528454e+00
-1.074802307403550e+01	-7.919595949288997e+00	 1.307553421156174e+00
-9.050966799159998e+00	-9.050966799159998e+00	 1.575817114571774e+00
-9.192388155399620e+00	-8.909545442932160e+00	 1.591349809776740e+00
-9.333809511639279e+00	-8.768124086703040e+00	 1.597506487072287e+00
-9.475230867878979e+00	-8.626702730472640e+00	 1.594294890557924e+00
-9.616652224118720e+00	-8.485281374240959e+00	 1.581722764113298e+00
-9.758073580358500e+00	-8.343860018008000e+00	 1.559797851398200e+00
-9.899494936598318e+00	-8.202438661773758e+00	 1.528527895852575e+00
-1.004091629283818e+01	-8.061017305538238e+00	 1.487920640696529e+00
-1.018233764907808e+01	-7.919595949301437e+00	 1.437983828930330e+00
-1.032375900531802e+01	-7.778174593063357e+00	 1.378725203334425e+00
-1.046518036155800e+01	-7.636753236823998e+00	 1.310152506469437e+00
-8.768124086679997e+00	-8.768124086679997e+00	 1.643381307877597e+00
-8.909545442919901e+00	-8.626702730455387e+00	 1.654598992242919e+00
-9.050966799159818e+00	-8.485281374229158e+00	 1.658205575836771e+00
-9.192388155399742e+00	-8.343860018001306e+00	 1.651351886217798e+00
-9.333809511639679e+00	-8.202438661771838e+00	 1.634045667527867e+00
-9.475230867879624e+00	-8.061017305540748e+00	 1.606294663688987e+00
-9.616652224119576e+00	-7.919595949308038e+00	 1.568106618403329e+00
-9.758073580359541e+00	-7.778174593073707e+00	 1.519489275153225e+00
-9.899494936599517e+00	-7.636753236837757e+00	 1.460450377201177e+00
-1.004091629283950e+01	-7.495331880600188e+00	 1.390997667589861e+00
-1.018233764907950e+01	-7.353910524360998e+00	 1.311138889142141e+00
-8.485281374200000e+00	-8.485281374200000e+00	 1.730233113234558e+00
-8.626702730440000e+00	-8.343860017978999e+00	 1.734229350150141e+00
-8.768124086679999e+00	-8.202438661756000e+00	 1.726884992580100e+00
-8.909545442920001e+00	-8.061017305530999e+00	 1.712649839254608e+00
-9.050966799160001e+00	-7.919595949304000e+00	 1.689804785633810e+00
-9.192388155400000e+00	-7.778174593075001e+00	 1.655422948243411e+00
-9.333809511640000e+00	-7.636753236844000e+00	 1.609512071047819e+00
-9.475230867880001e+00	-7.495331880611000e+00	 1.552079897791604e+00
-9.616652224119999e+00	-7.353910524375999e+00	 1.483134171999512e+00
-9.758073580360000e+00	-7.212489168138999e+00	 1.402682636976471e+00
-9.899494936600000e+00	-7.071067811900000e+00	 1.310733035807592e+00
-7.071067811900000e+00	-4.242640687100000e+00	 1.685496226947306e+00
-7.707463914960500e+00	-3.606244584039500e+00	 1.617423820725408e+00
-8.343860018021999e+00	-2.969848480978000e+00	 1.531424698085682e+00
-8.980256121084500e+00	-2.333452377915500e+00	 1.449800780835306e+00
-9.616652224148000e+00	-1.697056274852000e+00	 1.395474147991440e+00
-1.025304832721250e+01	-1.060660171787500e+00	 1.348261657662212e+00
-1.088944443027800e+01	-4.242640687219998e-01	 1.310067654576393e+00
-1.152584053334450e+01	 2.121320343444999e-01	 1.282796416058483e+00
-1.216223663641200e+01	 8.485281374119996e-01	 1.268352155138794e+00
-1.279863273948050e+01	 1.484924240480500e+00	 1.268639020556813e+00
-1.343502884255000e+01	 2.121320343550000e+00	 1.285561096764565e+00
-6.788225099420000e+00	-3.959797974620500e+00	 1.541224137996270e+00
-7.424621202480596e+00	-3.323401871560000e+00	 1.493159662654874e+00
-8.061017305542180e+00	-2.687005768498499e+00	 1.423446342827539e+00
-8.697413408604755e+00	-2.050609665435999e+00	 1.356783985364497e+00
-9.333809511668321e+00	-1.414213562372500e+00	 1.314839413671431e+00
-9.970205614732876e+00	-7.778174593079999e-01	 1.282818817856652e+00
-1.060660171779842e+01	-1.414213562425000e-01	 1.257209059800054e+00
-1.124299782086496e+01	 4.949747468239997e-01	 1.239914434952928e+00
-1.187939392393248e+01	 1.131370849891500e+00	 1.232839174471236e+00
-1.251579002700099e+01	 1.767766952960000e+00	 1.237887445218985e+00
-1.315218613007050e+01	 2.404163056029501e+00	 1.256963349771584e+00
-6.505382386940000e+00	-3.676955262142000e+00	 1.408432692442518e+00
-7.141778490000879e+00	-3.040559159081500e+00	 1.371278997640440e+00
-7.778174593062719e+00	-2.404163056019999e+00	 1.324522647454678e+00
-8.414570696125521e+00	-1.767766952957500e+00	 1.278913575644984e+00
-9.050966799189281e+00	-1.131370849894000e+00	 1.242829083954502e+00
-9.687362902254002e+00	-4.949747468295002e-01	 1.224729393197932e+00
-1.032375900531968e+01	 1.414213562359999e-01	 1.210432889577421e+00
-1.096015510838632e+01	 7.778174593024999e-01	 1.201843886671277e+00
-1.159655121145392e+01	 1.414213562369999e+00	 1.200866633761356e+00
-1.223294731452248e+01	 2.050609665438500e+00	 1.209405315836417e+00
-1.286934341759200e+01	 2.687005768508000e+00	 1.229364053595491e+00
-6.222539674460000e+00	-3.394112549664499e+00	 1.284232552574722e+00
-6.858935777521355e+00	-2.757716446604000e+00	 1.259354989658644e+00
-7.495331880583620e+00	-2.121320343542501e+00	 1.234458594827081e+00
-8.131727983646796e+00	-1.484924240480000e+00	 1.208805794383363e+00
-8.768124086710881e+00	-8.485281374164997e-01	 1.181659014630822e+00
-9.404520189775875e+00	-2.121320343519999e-01	 1.174215564735477e+00
-1.004091629284178e+01	 4.242640687134999e-01	 1.169961321376430e+00
-1.067731239590860e+01	 1.060660171780000e+00	 1.168806945100049e+00
-1.131370849897632e+01	 1.697056274847499e+00	 1.172656703314311e+00
-1.195010460204495e+01	 2.333452377915999e+00	 1.183414799132965e+00
-1.258650070511450e+01	 2.969848480985501e+00	 1.202985371378897e+00
-5.939696961980000e+00	-3.111269837188000e+00	 1.159403559430512e+00
-6.576093065042018e+00	-2.474873734127500e+00	 1.157192621569469e+00
-7.212489168104880e+00	-1.838477631066000e+00	 1.153059167804715e+00
-7.848885271168579e+00	-1.202081528003500e+00	 1.146265624439603e+00
-8.485281374233120e+00	-5.656854249399996e-01	 1.136074417777482e+00
-9.121677477298501e+00	 7.071067812450015e-02	 1.131499517376340e+00
-9.758073580364721e+00	 7.071067811900000e-01	 1.136016536522545e+00
-1.039446968343178e+01	 1.343502884256500e+00	 1.141025787983164e+00
-1.103086578649968e+01	 1.979898987324000e+00	 1.148431557292539e+00
-1.166726188956842e+01	 2.616295090392499e+00	 1.160138065689644e+00
-1.230365799263800e+01	 3.252691193462000e+00	 1.178049470121460e+00
-5.656854249500000e+00	-2.828427124712500e+00	 1.045238203326286e+00
-6.293250352562875e+00	-2.192031021652001e+00	 1.064596876232875e+00
-6.929646455626501e+00	-1.555634918590500e+00	 1.080129349247549e+00
-7.566042558690875e+00	-9.192388155280002e-01	 1.091098048673672e+00
-8.202438661756002e+00	-2.828427124644999e-01	 1.096765400814606e+00
-8.838834764821874e+00	 3.535533906000000e-01	 1.096803439797771e+00
-9.475230867888500e+00	 9.899494936654998e-01	 1.108820720198851e+00
-1.011162697095587e+01	 1.626345596732000e+00	 1.118722596922051e+00
-1.074802307402400e+01	 2.262741699799499e+00	 1.128413373715867e+00
-1.138441917709287e+01	 2.899137802867999e+00	 1.139797289944741e+00
-1.202081528016250e+01	 3.535533905937500e+00	 1.160034455002458e+00
-5.374011537019999e+00	-2.545584412238000e+00	 9.415414671219999e-01
-6.010407640083920e+00	-1.909188309177500e+00	 9.813727365088248e-01
-6.646803743148480e+00	-1.272792206116000e+00	 1.015474122015546e+00
-7.283199846213680e+00	-6.363961030534997e-01	 1.043108049945535e+00
-7.919595949279521e+00	 1.000022287200864e-11	 1.063536946602162e+00
-8.555992052346001e+00	 6.363961030744998e-01	 1.076023238288793e+00
-9.192388155413118e+00	 1.272792206140000e+00	 1.088596061446167e+00
-9.828784258480880e+00	 1.909188309206499e+00	 1.102119557375745e+00
-1.046518036154928e+01	 2.545584412273999e+00	 1.112824334461612e+00
-1.110157646461832e+01	 3.181980515342499e+00	 1.122614650193910e+00
-1.173797256768800e+01	 3.818376618412000e+00	 1.155160544675651e+00
-5.091168824540000e+00	-2.262741699764500e+00	 8.481183336776048e-01
-5.727564927605155e+00	-1.626345596704000e+00	 9.073251852572713e-01
-6.363961030670820e+00	-9.899494936425000e-01	 9.588984689686643e-01
-7.000357133736996e+00	-3.535533905800000e-01	 1.002100611115157e+00
-7.636753236803681e+00	 2.828427124835001e-01	 1.036194038000117e+00
-8.273149339870875e+00	 9.192388155480000e-01	 1.060441175926917e+00
-8.909545442938581e+00	 1.555634918613499e+00	 1.075564749484233e+00
-9.545941546006794e+00	 2.192031021680000e+00	 1.091438858661001e+00
-1.018233764907552e+01	 2.828427124747499e+00	 1.101886625264689e+00
-1.081873375214475e+01	 3.464823227815999e+00	 1.109705596727332e+00
-1.145512985521450e+01	 4.101219330885500e+00	 1.151203699971123e+00
-4.808326112060000e+00	-1.979898987292001e+00	 7.647737858530400e-01
-5.444722215126579e+00	-1.343502884231500e+00	 8.422592053381670e-01
-6.081118318193520e+00	-7.071067811700003e-01	 9.102073729668667e-01
-6.717514421260820e+00	-7.071067810750016e-02	 9.678807150425018e-01
-7.353910524328480e+00	 5.656854249559997e-01	 1.014541657868440e+00
-7.990306627396500e+00	 1.202081528020500e+00	 1.049452627748051e+00
-8.626702730464880e+00	 1.838477631085999e+00	 1.071876050984718e+00
-9.263098833533620e+00	 2.474873734152499e+00	 1.086902693952394e+00
-9.899494936602720e+00	 3.111269837219999e+00	 1.095822435717709e+00
-1.053589103967218e+01	 3.747665940288499e+00	 1.113671182957646e+00
-1.117228714274200e+01	 4.384062043358000e+00	 1.147883391300169e+00
-4.525483399580001e+00	-1.697056274820500e+00	 6.913128065082390e-01
-5.161879502648196e+00	-1.060660171760000e+00	 7.859797796114512e-01
-5.798275605716580e+00	-4.242640686985004e-01	 8.692058168701031e-01
-6.434671708785155e+00	 2.121320343639997e-01	 9.402533445875321e-01
-7.071067811853920e+00	 8.485281374274998e-01	 9.983847890670966e-01
-7.707463914922876e+00	 1.484924240492000e+00	 1.042862576612168e+00
-8.343860017992021e+00	 2.121320343557500e+00	 1.072949133526126e+00
-8.980256121061355e+00	 2.757716446623999e+00	 1.088733245232291e+00
-9.616652224130879e+00	 3.394112549691499e+00	 1.094853959271091e+00
-1.025304832720060e+01	 4.030508652759998e+00	 1.119032137225202e+00
-1.088944443027050e+01	 4.666904755829500e+00	 1.144919074735616e+00
-4.242640687100000e+00	-1.414213562350000e+00	 6.275403785031231e-01
-4.879036790170001e+00	-7.778174592895001e-01	 7.382918909370658e-01
-5.515432893240001e+00	-1.414213562280001e-01	 8.356987835383204e-01
-6.151828996310000e+00	 4.949747468345002e-01	 9.190234826102035e-01
-6.788225099380000e+00	 1.131370849898000e+00	 9.875284144560561e-01
-7.424621202449999e+00	 1.767766952962500e+00	 1.040476005379240e+00
-8.061017305520000e+00	 2.404163056028000e+00	 1.077128681683134e+00
-8.697413408590000e+00	 3.040559159094500e+00	 1.096748869671143e+00
-9.333809511660000e+00	 3.676955262161999e+00	 1.106811171872697e+00
-9.970205614729998e+00	 4.313351365230499e+00	 1.125507899240479e+00
-1.060660171780000e+01	 4.949747468300000e+00	 1.142030192011053e+00
-1.343502884255000e+01	 2.121320343550000e+00	 1.285561096764565e+00
-1.407142494561950e+01	 2.757716446619501e+00	 1.221802810752651e+00
-1.470782104868800e+01	 3.394112549688002e+00	 1.171642476827616e+00
-1.534421715175550e+01	 4.030508652755502e+00	 1.151159261808158e+00
-1.598061325482200e+01	 4.666904755822002e+00	 1.132209336211679e+00
-1.661700935788750e+01	 5.303300858887503e+00	 1.113652532273696e+00
-1.725340546095200e+01	 5.939696961952004e+00	 1.096704939327567e+00
-1.788980156401550e+01	 6.576093065015503e+00	 1.082582787433222e+00
-1.852619766707801e+01	 7.212489168078005e+00	 1.072502447394651e+00
-1.916259377013951e+01	 7.848885271139504e+00	 1.067680430777382e+00
-1.979898987320000e+01	 8.485281374200000e+00	 1.069333389925977e+00
-1.315218613007050e+01	 2.404163056029501e+00	 1.256963349771584e+00
-1.378858223314018e+01	 3.040559159099005e+00	 1.192334448660134e+00
-1.442497833620924e+01	 3.676955262167521e+00	 1.151746088438688e+00
-1.506137443927766e+01	 4.313351365235046e+00	 1.136317633591178e+00
-1.569777054234546e+01	 4.949747468301583e+00	 1.120042234422613e+00
-1.633416664541262e+01	 5.586143571367127e+00	 1.104055775987379e+00
-1.697056274847916e+01	 6.222539674431683e+00	 1.089574341635321e+00
-1.760695885154507e+01	 6.858935777495249e+00	 1.077814155442989e+00
-1.824335495461034e+01	 7.495331880557824e+00	 1.069991582231107e+00
-1.887975105767499e+01	 8.131727983619411e+00	 1.067323127582076e+00
-1.951614716073900e+01	 8.768124086680000e+00	 1.071025437857447e+00
-1.286934341759200e+01	 2.687005768508000e+00	 1.229364053595491e+00
-1.350573952066184e+01	 3.323401871577521e+00	 1.163805916830890e+00
-1.414213562373136e+01	 3.959797974646082e+00	 1.136862876155486e+00
-1.477853172680056e+01	 4.596194077713681e+00	 1.121733696437591e+00
-1.541492782986944e+01	 5.232590180780321e+00	 1.108119552039499e+00
-1.605132393293800e+01	 5.868986283846002e+00	 1.094690161346459e+00
-1.668772003600624e+01	 6.505382386910723e+00	 1.082661601724360e+00
-1.732411613907416e+01	 7.141778489974485e+00	 1.073250091265911e+00
-1.796051224214176e+01	 7.778174593037284e+00	 1.067671988808131e+00
-1.859690834520905e+01	 8.414570696099128e+00	 1.067143793949830e+00
-1.923330444827600e+01	 9.050966799159999e+00	 1.072882147069105e+00
-1.258650070511450e+01	 2.969848480985501e+00	 1.202985371378897e+00
-1.322289680818446e+01	 3.606244584055045e+00	 1.145596834117537e+00
-1.385929291125436e+01	 4.242640687123681e+00	 1.124364726530668e+00
-1.449568901432419e+01	 4.879036790191408e+00	 1.108345011620858e+00
-1.513208511739395e+01	 5.515432893258224e+00	 1.096513420162168e+00
-1.576848122046363e+01	 6.151828996324130e+00	 1.085627820632971e+00
-1.640487732353324e+01	 6.788225099389125e+00	 1.076038853058845e+00
-1.704127342660279e+01	 7.424621202453209e+00	 1.068962729548213e+00
-1.767766952967227e+01	 8.061017305516387e+00	 1.065615802953934e+00
-1.831406563274167e+01	 8.697413408578651e+00	 1.067214566890782e+00
-1.895046173581100e+01	 9.333809511640000e+00	 1.074975655752942e+00
-1.230365799263800e+01	 3.252691193462000e+00	 1.178049470121460e+00
-1.294005409570806e+01	 3.889087296531581e+00	 1.136379795865203e+00
-1.357645019877824e+01	 4.525483399600321e+00	 1.113971171369916e+00
-1.421284630184854e+01	 5.161879502668222e+00	 1.097265877649935e+00
-1.484924240491896e+01	 5.798275605735283e+00	 1.085295971633389e+00
-1.548563850798951e+01	 6.434671708801504e+00	 1.076940887871923e+00
-1.612203461106016e+01	 7.071067811866881e+00	 1.069778230845958e+00
-1.675843071413095e+01	 7.707463914931424e+00	 1.065024206679183e+00
-1.739482681720185e+01	 8.343860017995123e+00	 1.063895162239839e+00
-1.803122292027287e+01	 8.980256121057986e+00	 1.067607585158217e+00
-1.866761902334400e+01	 9.616652224120001e+00	 1.077378103844135e+00
-1.202081528016250e+01	 3.535533905937500e+00	 1.160034455002458e+00
-1.265721138323263e+01	 4.171930009007126e+00	 1.128813846681342e+00
-1.329360748630300e+01	 4.808326112076000e+00	 1.105401728143477e+00
-1.393000358937363e+01	 5.444722215144127e+00	 1.088183894064425e+00
-1.456639969244450e+01	 6.081118318211500e+00	 1.075546033196881e+00
-1.520279579551563e+01	 6.717514421278127e+00	 1.068701498831418e+00
-1.583919189858700e+01	 7.353910524344003e+00	 1.063951872036018e+00
-1.647558800165863e+01	 7.990306627409129e+00	 1.061506660791280e+00
-1.711198410473050e+01	 8.626702730473504e+00	 1.062582205980385e+00
-1.774838020780263e+01	 9.263098833537128e+00	 1.068394989248679e+00
-1.838477631087500e+01	 9.899494936600000e+00	 1.080161633021167e+00
-1.173797256768800e+01	 3.818376618412000e+00	 1.155160544675651e+00
-1.237436867075816e+01	 4.454772721481680e+00	 1.122618487675639e+00
-1.301076477382864e+01	 5.091168824550722e+00	 1.098375899985373e+00
-1.364716087689944e+01	 5.727564927619123e+00	 1.080818566023179e+00
-1.428355697997056e+01	 6.363961030686882e+00	 1.068332164283559e+00
-1.491995308304200e+01	 7.000357133754004e+00	 1.060981791022761e+00
-1.555634918611377e+01	 7.636753236820484e+00	 1.058631915322586e+00
-1.619274528918585e+01	 8.273149339886325e+00	 1.058482231760258e+00
-1.682914139225825e+01	 8.909545442951526e+00	 1.061749075233438e+00
-1.746553749533097e+01	 9.545941546016087e+00	 1.069648921402085e+00
-1.810193359840400e+01	 1.018233764908000e+01	 1.083398386705934e+00
-1.145512985521450e+01	 4.101219330885500e+00	 1.151203699971123e+00
-1.209152595828466e+01	 4.737615433955245e+00	 1.117513205620840e+00
-1.272792206135516e+01	 5.374011537024482e+00	 1.092613175692621e+00
-1.336431816442599e+01	 6.010407640093206e+00	 1.074889384347985e+00
-1.400071426749714e+01	 6.646803743161422e+00	 1.062727499823658e+00
-1.463711037056863e+01	 7.283199846229128e+00	 1.054513084417799e+00
-1.527350647364045e+01	 7.919595949296324e+00	 1.053890501142585e+00
-1.590990257671259e+01	 8.555992052363010e+00	 1.056023061205267e+00
-1.654629867978506e+01	 9.192388155429185e+00	 1.061467912800315e+00
-1.718269478285787e+01	 9.828784258494849e+00	 1.071441525601842e+00
-1.781909088593100e+01	 1.046518036156000e+01	 1.085081665839220e+00
-1.117228714274200e+01	 4.384062043358000e+00	 1.147883391300169e+00
-1.180868324581214e+01	 5.020458146427820e+00	 1.113217472951953e+00
-1.244507934888256e+01	 5.656854249497282e+00	 1.087833029724444e+00
-1.308147545195326e+01	 6.293250352566382e+00	 1.070115825522774e+00
-1.371787155502425e+01	 6.929646455635122e+00	 1.058451518326313e+00
-1.435426765809550e+01	 7.566042558703503e+00	 1.051225660174904e+00
-1.499066376116705e+01	 8.202438661771522e+00	 1.049799771676411e+00
-1.562705986423886e+01	 8.838834764839183e+00	 1.054201292488975e+00
-1.626345596731097e+01	 9.475230867906484e+00	 1.061810863225884e+00
-1.689985207038335e+01	 1.011162697097343e+01	 1.073844947574953e+00
-1.753624817345600e+01	 1.074802307404000e+01	 1.083854086648191e+00
-1.088944443027050e+01	 4.666904755829500e+00	 1.144919074735616e+00
-1.152584053334059e+01	 5.303300858899404e+00	 1.109450747765469e+00
-1.216223663641084e+01	 5.939696961969120e+00	 1.083754922201490e+00
-1.279863273948127e+01	 6.576093065038647e+00	 1.066217351692841e+00
-1.343502884255186e+01	 7.212489168107980e+00	 1.055223683961963e+00
-1.407142494562263e+01	 7.848885271177128e+00	 1.049159460790802e+00
-1.470782104869356e+01	 8.485281374246084e+00	 1.046431870848044e+00
-1.534421715176467e+01	 9.121677477314847e+00	 1.053089070717680e+00
-1.598061325483594e+01	 9.758073580383423e+00	 1.062850072798688e+00
-1.661700935790739e+01	 1.039446968345181e+01	 1.075603640432045e+00
-1.725340546097900e+01	 1.103086578652000e+01	 1.082175880132609e+00
-1.060660171780000e+01	 4.949747468300000e+00	 1.142030192011053e+00
-1.124299782087000e+01	 5.586143571370001e+00	 1.105932473818579e+00
-1.187939392394000e+01	 6.222539674440001e+00	 1.080098298905041e+00
-1.251579002701000e+01	 6.858935777510001e+00	 1.062913410664058e+00
-1.315218613008000e+01	 7.495331880580002e+00	 1.052763446561562e+00
-1.378858223315000e+01	 8.131727983650002e+00	 1.048033938122026e+00
-1.442497833622000e+01	 8.768124086720004e+00	 1.047110310914693e+00
-1.506137443929001e+01	 9.404520189790006e+00	 1.052758542741417e+00
-1.569777054236001e+01	 1.004091629286000e+01	 1.064657689551052e+00
-1.633416664543000e+01	 1.067731239593000e+01	 1.071104232508393e+00
-1.697056274850000e+01	 1.131370849900000e+01	 1.079984844020572e+00
-4.242640687100000e+00	-1.414213562350000e+00	 6.275403785031231e-01
-4.879036790170001e+00	-7.778174592895001e-01	 7.382918909370658e-01
-5.515432893240001e+00	-1.414213562280001e-01	 8.356987835383204e-01
-6.151828996310000e+00	 4.949747468345002e-01	 9.190234826102035e-01
-6.788225099380000e+00	 1.131370849898000e+00	 9.875284144560561e-01
-7.424621202449999e+00	 1.767766952962500e+00	 1.040476005379240e+00
-8.061017305520000e+00	 2.404163056028000e+00	 1.077128681683134e+00
-8.697413408590000e+00	 3.040559159094500e+00	 1.096748869671143e+00
-9.333809511660000e+00	 3.676955262161999e+00	 1.106811171872697e+00
-9.970205614729998e+00	 4.313351365230499e+00	 1.125507899240479e+00
-1.060660171780000e+01	 4.949747468300000e+00	 1.142030192011053e+00
-3.959797974621000e+00	-1.131370849879500e+00	 5.904366214363113e-01
-4.596194077692615e+00	-4.949747468189997e-01	 7.020595157114684e-01
-5.232590180764061e+00	 1.414213562425003e-01	 8.005566809102844e-01
-5.868986283835336e+00	 7.778174593050006e-01	 8.851905433360621e-01
-6.505382386906438e+00	 1.414213562368500e+00	 9.552235292921163e-01
-7.141778489977376e+00	 2.050609665433001e+00	 1.009918065081782e+00
-7.778174593048140e+00	 2.687005768498500e+00	 1.048536577008409e+00
-8.414570696118734e+00	 3.323401871564999e+00	 1.070341491375359e+00
-9.050966799189160e+00	 3.959797974632500e+00	 1.086444050052415e+00
-9.687362902259414e+00	 4.596194077700999e+00	 1.099360433093226e+00
-1.032375900532950e+01	 5.232590180770499e+00	 1.110465738736600e+00
-3.676955262144000e+00	-8.485281374079995e-01	 5.528032867643604e-01
-4.313351365216660e+00	-2.121320343474996e-01	 6.655342747915762e-01
-4.949747468289041e+00	 4.242640687140006e-01	 7.653584244987497e-01
-5.586143571361139e+00	 1.060660171776501e+00	 8.515381621891643e-01
-6.222539674432960e+00	 1.697056274840000e+00	 9.233359141661204e-01
-6.858935777504499e+00	 2.333452377904501e+00	 9.800141067329304e-01
-7.495331880575760e+00	 2.969848480970000e+00	 1.020835166192913e+00
-8.131727983646741e+00	 3.606244584036500e+00	 1.046659238251535e+00
-8.768124086717437e+00	 4.242640687103999e+00	 1.067612147027931e+00
-9.404520189787858e+00	 4.879036790172500e+00	 1.075942052211420e+00
-1.004091629285800e+01	 5.515432893242001e+00	 1.081924727063768e+00
-3.394112549668999e+00	-5.656854249354992e-01	 5.144453573473486e-01
-4.030508652742133e+00	 7.071067812500065e-02	 6.285211510374531e-01
-4.666904755814940e+00	 7.071067811865007e-01	 7.299089971637555e-01
-5.303300858887416e+00	 1.343502884249001e+00	 8.178713220295342e-01
-5.939696961959558e+00	 1.979898987312501e+00	 8.916705519380794e-01
-6.576093065031374e+00	 2.616295090377001e+00	 9.505691131926801e-01
-7.212489168102860e+00	 3.252691193442501e+00	 9.938294320966319e-01
-7.848885271174014e+00	 3.889087296509001e+00	 1.022536070640822e+00
-8.485281374244838e+00	 4.525483399576501e+00	 1.044688708822725e+00
-9.121677477315334e+00	 5.161879502645001e+00	 1.054972153283260e+00
-9.758073580385503e+00	 5.798275605714501e+00	 1.056126555703693e+00
-3.111269837195999e+00	-2.828427124619991e-01	 4.751678160453638e-01
-3.747665940269039e+00	 3.535533905985009e-01	 5.908251273091610e-01
-4.384062043341761e+00	 9.899494936600008e-01	 6.940133817653453e-01
-5.020458146414159e+00	 1.626345596722501e+00	 7.839950057172009e-01
-5.656854249486240e+00	 2.262741699786001e+00	 8.600324254680016e-01
-6.293250352558000e+00	 2.899137802850501e+00	 9.213880673210255e-01
-6.929646455629440e+00	 3.535533905916000e+00	 9.664654290909300e-01
-7.566042558700558e+00	 4.171930008982500e+00	 9.961113798001515e-01
-8.202438661771358e+00	 4.808326112050000e+00	 1.019695858245256e+00
-8.838834764841840e+00	 5.444722215118500e+00	 1.036170118654606e+00
-9.475230867912000e+00	 6.081118318188001e+00	 1.032790609025115e+00
-2.828427124724999e+00	 1.250122227958173e-11	 4.332209300551819e-01
-3.464823227797373e+00	 6.363961030730012e-01	 5.522511864667692e-01
-4.101219330869498e+00	 1.272792206134501e+00	 6.574765611635739e-01
-4.737615433941374e+00	 1.909188309197002e+00	 7.497141961121913e-01
-5.374011537012999e+00	 2.545584412260502e+00	 8.282265176159003e-01
-6.010407640084375e+00	 3.181980515325001e+00	 8.922759519779662e-01
-6.646803743155501e+00	 3.818376618390501e+00	 9.358215931343935e-01
-7.283199846226373e+00	 4.454772721457001e+00	 9.675938050490926e-01
-7.919595949296999e+00	 5.091168824524501e+00	 9.928422328237363e-01
-8.555992052367372e+00	 5.727564927593000e+00	 1.010898918481604e+00
-9.192388155437497e+00	 6.363961030662500e+00	 1.011636257053588e+00
-2.545584412255999e+00	 2.828427124880016e-01	 3.891287869495163e-01
-3.181980515327139e+00	 9.192388155485015e-01	 5.126043113703510e-01
-3.818376618398157e+00	 1.555634918610001e+00	 6.201035182184862e-01
-4.454772721469059e+00	 2.192031021672502e+00	 7.148338760745381e-01
-5.091168824539839e+00	 2.828427124736002e+00	 7.960578112417880e-01
-5.727564927610499e+00	 3.464823227800502e+00	 8.626126682816603e-01
-6.363961030681039e+00	 4.101219330866002e+00	 9.030613958880125e-01
-7.000357133751458e+00	 4.737615433932501e+00	 9.371919861950158e-01
-7.636753236821757e+00	 5.374011537000001e+00	 9.643364759406154e-01
-8.273149339891937e+00	 6.010407640068502e+00	 9.838268890448171e-01
-8.909545442961997e+00	 6.646803743138000e+00	 9.923828554706970e-01
-2.262741699788998e+00	 5.656854249645018e-01	 3.458606267753229e-01
-2.899137802858333e+00	 1.202081528025001e+00	 4.714282113434461e-01
-3.535533905927738e+00	 1.838477631086502e+00	 5.816992357901394e-01
-4.171930008997213e+00	 2.474873734149002e+00	 6.791590284642751e-01
-4.808326112066759e+00	 3.111269837212502e+00	 7.633312892056779e-01
-5.444722215136373e+00	 3.747665940277002e+00	 8.248919498461420e-01
-6.081118318206059e+00	 4.384062043342502e+00	 8.683934794668100e-01
-6.717514421275813e+00	 5.020458146409001e+00	 9.051145688995610e-01
-7.353910524345638e+00	 5.656854249476501e+00	 9.343872368328332e-01
-7.990306627415533e+00	 6.293250352545002e+00	 9.555434890827912e-01
-8.626702730485500e+00	 6.929646455614503e+00	 9.679153185941700e-01
-1.979898987323998e+00	 8.485281374420021e-01	 3.034164495328107e-01
-2.616295090390958e+00	 1.484924240502502e+00	 4.287341958105522e-01
-3.252691193458238e+00	 2.121320343564002e+00	 5.420686967385906e-01
-3.889087296525839e+00	 2.757716446626503e+00	 6.424946361414369e-01
-4.525483399593758e+00	 3.394112549690001e+00	 7.298519343675857e-01
-5.161879502661997e+00	 4.030508652754501e+00	 7.852400314044830e-01
-5.798275605730558e+00	 4.666904755820001e+00	 8.320264918114237e-01
-6.434671708799438e+00	 5.303300858886502e+00	 8.715702046788971e-01
-7.071067811868639e+00	 5.939696961954002e+00	 9.032031705920753e-01
-7.707463914938157e+00	 6.576093065022501e+00	 9.262573772627184e-01
-8.343860018007998e+00	 7.212489168092002e+00	 9.400647995300085e-01
-1.697056274860998e+00	 1.131370849920502e+00	 2.617962552221914e-01
-2.333452377925013e+00	 1.767766952981002e+00	 3.870523105969301e-01
-2.969848480989658e+00	 2.404163056042502e+00	 5.010168839238983e-01
-3.606244584054933e+00	 3.040559159105003e+00	 6.046456819660593e-01
-4.242640687120839e+00	 3.676955262168503e+00	 6.865249847648752e-01
-4.879036790187373e+00	 4.313351365233003e+00	 7.438655631229267e-01
-5.515432893254538e+00	 4.949747468298503e+00	 7.941690867170464e-01
-6.151828996322332e+00	 5.586143571365001e+00	 8.367675509039643e-01
-6.788225099390758e+00	 6.222539674432502e+00	 8.709929381650208e-01
-7.424621202459812e+00	 6.858935777501001e+00	 8.961772181070008e-01
-8.061017305529496e+00	 7.495331880570502e+00	 9.116523474629685e-01
-1.414213562400000e+00	 1.414213562400000e+00	 2.210000438436807e-01
-2.050609665460500e+00	 2.050609665460500e+00	 3.463825557027838e-01
-2.687005768522000e+00	 2.687005768522000e+00	 4.602899494838951e-01
-3.323401871584501e+00	 3.323401871584501e+00	 5.654171487981834e-01
-3.959797974648001e+00	 3.959797974648001e+00	 6.394251252727015e-01
-4.596194077712500e+00	 4.596194077712500e+00	 7.009772010754940e-01
-5.232590180777999e+00	 5.232590180777999e+00	 7.550299238336777e-01
-5.868986283844499e+00	 5.868986283844499e+00	 8.009152708007277e-01
-6.505382386912000e+00	 6.505382386912000e+00	 8.379652063535894e-01
-7.141778489980499e+00	 7.141778489980499e+00	 8.655116819935020e-01
-7.778174593050000e+00	 7.778174593050000e+00	 8.828866363468499e-01
-1.060660171780000e+01	 4.949747468300000e+00	 1.142030192011053e+00
-1.124299782087000e+01	 5.586143571370001e+00	 1.105932473818579e+00
-1.187939392394000e+01	 6.222539674440001e+00	 1.080098298905041e+00
-1.251579002701000e+01	 6.858935777510001e+00	 1.062913410664058e+00
-1.315218613008000e+01	 7.495331880580002e+00	 1.052763446561562e+00
-1.378858223315000e+01	 8.131727983650002e+00	 1.048033938122026e+00
-1.442497833622000e+01	 8.768124086720004e+00	 1.047110310914693e+00
-1.506137443929001e+01	 9.404520189790006e+00	 1.052758542741417e+00
-1.569777054236001e+01	 1.004091629286000e+01	 1.064657689551052e+00
-1.633416664543000e+01	 1.067731239593000e+01	 1.071104232508393e+00
-1.697056274850000e+01	 1.131370849900000e+01	 1.079984844020572e+00
-1.032375900532950e+01	 5.232590180770499e+00	 1.110465738736600e+00
-1.096015510839941e+01	 5.868986283840587e+00	 1.078887145795314e+00
-1.159655121146912e+01	 6.505382386910843e+00	 1.057591363148319e+00
-1.223294731453865e+01	 7.141778489981267e+00	 1.044964123934067e+00
-1.286934341760798e+01	 7.778174593051863e+00	 1.039391055362371e+00
-1.350573952067713e+01	 8.414570696122629e+00	 1.039257678700638e+00
-1.414213562374608e+01	 9.050966799193562e+00	 1.042949409260089e+00
-1.477853172681485e+01	 9.687362902264667e+00	 1.049732305372556e+00
-1.541492782988342e+01	 1.032375900533594e+01	 1.065429275411022e+00
-1.605132393295181e+01	 1.096015510840739e+01	 1.065212416965047e+00
-1.668772003602000e+01	 1.159655121147900e+01	 1.077272745584520e+00
-1.004091629285800e+01	 5.515432893242001e+00	 1.081924727063768e+00
-1.067731239592782e+01	 6.151828996312141e+00	 1.054698157825360e+00
-1.131370849899728e+01	 6.788225099382561e+00	 1.037773681484870e+00
-1.195010460206638e+01	 7.424621202453264e+00	 1.029537020926011e+00
-1.258650070513512e+01	 8.061017305524244e+00	 1.028373793102908e+00
-1.322289680820350e+01	 8.697413408595503e+00	 1.032669509026327e+00
-1.385929291127152e+01	 9.333809511667045e+00	 1.040809573749893e+00
-1.449568901433918e+01	 9.970205614738864e+00	 1.051179286356317e+00
-1.513208511740648e+01	 1.060660171781096e+01	 1.056686549925960e+00
-1.576848122047343e+01	 1.124299782088335e+01	 1.058989469467443e+00
-1.640487732354000e+01	 1.187939392395600e+01	 1.074031352958435e+00
-9.758073580385503e+00	 5.798275605714501e+00	 1.056126555703693e+00
-1.039446968345524e+01	 6.434671708784667e+00	 1.033084910643276e+00
-1.103086578652448e+01	 7.071067811855163e+00	 1.020364656673169e+00
-1.166726188959321e+01	 7.707463914925988e+00	 1.016351506422779e+00
-1.230365799266142e+01	 8.343860017997141e+00	 1.019431066590967e+00
-1.294005409572913e+01	 8.980256121068628e+00	 1.027988837932283e+00
-1.357645019879632e+01	 9.616652224140443e+00	 1.040410215243187e+00
-1.421284630186301e+01	 1.025304832721259e+01	 1.055080487348265e+00
-1.484924240492918e+01	 1.088944443028506e+01	 1.046937543333270e+00
-1.548563850799485e+01	 1.152584053335787e+01	 1.052373191821913e+00
-1.612203461106000e+01	 1.216223663643100e+01	 1.070198466455057e+00
-9.475230867912000e+00	 6.081118318188001e+00	 1.032790609025115e+00
-1.011162697098168e+01	 6.717514421258161e+00	 1.013766790641163e+00
-1.074802307405072e+01	 7.353910524328643e+00	 1.005083677129179e+00
-1.138441917711912e+01	 7.990306627399442e+00	 1.005126970864684e+00
-1.202081528018688e+01	 8.626702730470564e+00	 1.012282268291707e+00
-1.265721138325400e+01	 9.263098833542006e+00	 1.024935059909007e+00
-1.329360748632048e+01	 9.899494936613765e+00	 1.041470730256302e+00
-1.393000358938633e+01	 1.053589103968585e+01	 1.049129269404755e+00
-1.456639969245153e+01	 1.117228714275825e+01	 1.038505073406022e+00
-1.520279579551608e+01	 1.180868324583096e+01	 1.045301386696260e+00
-1.583919189858000e+01	 1.244507934890400e+01	 1.065711887248630e+00
-9.192388155437497e+00	 6.363961030662500e+00	 1.011636257053588e+00
-9.828784258507126e+00	 7.000357133732627e+00	 9.964631698678835e-01
-1.046518036157600e+01	 7.636753236803002e+00	 9.916501169255594e-01
-1.110157646464412e+01	 8.273149339873628e+00	 9.955827903486829e-01
-1.173797256771150e+01	 8.909545442944504e+00	 1.006646776326871e+00
-1.237436867077813e+01	 9.545941546015628e+00	 1.023227555103523e+00
-1.301076477384400e+01	 1.018233764908701e+01	 1.043710500962033e+00
-1.364716087690913e+01	 1.081873375215863e+01	 1.037704481413311e+00
-1.428355697997350e+01	 1.145512985523051e+01	 1.031075689493458e+00
-1.491995308303713e+01	 1.209152595830263e+01	 1.037711857619737e+00
-1.555634918610000e+01	 1.272792206137500e+01	 1.060509417374885e+00
-8.909545442961997e+00	 6.646803743138000e+00	 9.923828554706970e-01
-9.545941546031576e+00	 7.283199846208062e+00	 9.808934060282674e-01
-1.018233764910032e+01	 7.919595949278243e+00	 9.797833357908832e-01
-1.081873375216822e+01	 8.555992052348541e+00	 9.874383266275828e-01
-1.145512985523528e+01	 9.192388155418966e+00	 1.002243954473998e+00
-1.209152595830150e+01	 9.828784258489502e+00	 1.022585689318591e+00
-1.272792206136688e+01	 1.046518036156017e+01	 1.038562636142901e+00
-1.336431816443142e+01	 1.110157646463094e+01	 1.025916580602796e+00
-1.400071426749513e+01	 1.173797256770185e+01	 1.022973294552450e+00
-1.463711037055798e+01	 1.237436867077287e+01	 1.030288255073160e+00
-1.527350647362000e+01	 1.301076477384400e+01	 1.054528859731026e+00
-8.626702730485500e+00	 6.929646455614503e+00	 9.679153185941700e-01
-9.263098833555041e+00	 7.566042558684465e+00	 9.667768424823331e-01
-9.899494936623679e+00	 8.202438661754362e+00	 9.692026791088505e-01
-1.053589103969141e+01	 8.838834764824190e+00	 9.804129271092603e-01
-1.117228714275822e+01	 9.475230867893943e+00	 9.987931521656372e-01
-1.180868324582413e+01	 1.011162697096363e+01	 1.022728814011924e+00
-1.244507934888912e+01	 1.074802307403325e+01	 1.022538552803971e+00
-1.308147545195321e+01	 1.138441917710279e+01	 1.013828383883463e+00
-1.371787155501638e+01	 1.202081528017227e+01	 1.014260704467236e+00
-1.435426765807865e+01	 1.265721138324167e+01	 1.024390996831182e+00
-1.499066376114000e+01	 1.329360748631100e+01	 1.047708018075706e+00
-8.343860018007998e+00	 7.212489168092002e+00	 9.400647995300085e-01
-8.980256121077518e+00	 7.848885271161842e+00	 9.538328082444975e-01
-9.616652224146078e+00	 8.485281374231363e+00	 9.596274779175027e-01
-1.025304832721368e+01	 9.121677477300565e+00	 9.742259248558769e-01
-1.088944443028032e+01	 9.758073580369444e+00	 9.960137044885613e-01
-1.152584053334600e+01	 1.039446968343801e+01	 1.019697776589747e+00
-1.216223663641072e+01	 1.103086578650625e+01	 1.006586891521474e+00
-1.279863273947448e+01	 1.166726188957417e+01	 1.001502709249926e+00
-1.343502884253728e+01	 1.230365799264177e+01	 1.005000736206376e+00
-1.407142494559912e+01	 1.294005409570905e+01	 1.017636459861379e+00
-1.470782104866000e+01	 1.357645019877600e+01	 1.039984697029011e+00
-8.061017305529496e+00	 7.495331880570502e+00	 9.116523474629685e-01
-8.697413408599006e+00	 8.131727983640191e+00	 9.374605824022315e-01
-9.333809511667519e+00	 8.768124086709244e+00	 9.507770489084362e-01
-9.970205614735045e+00	 9.404520189777669e+00	 9.685966385830900e-01
-1.060660171780158e+01	 1.004091629284546e+01	 9.936249321829809e-01
-1.124299782086713e+01	 1.067731239591263e+01	 1.000004986054456e+00
-1.187939392393168e+01	 1.131370849897917e+01	 9.907704724005135e-01
-1.251579002699525e+01	 1.195010460204507e+01	 9.890023757811799e-01
-1.315218613005782e+01	 1.258650070511035e+01	 9.952562078227807e-01
-1.378858223311941e+01	 1.322289680817499e+01	 1.010087461190589e+00
-1.442497833618000e+01	 1.385929291123900e+01	 1.034051609589837e+00
-7.778174593050000e+00	 7.778174593050000e+00	 8.828866363468499e-01
-8.414570696119501e+00	 8.414570696119501e+00	 9.155518116558246e-01
-9.050966799188002e+00	 9.050966799188002e+00	 9.423706944260186e-01
-9.687362902255503e+00	 9.687362902255503e+00	 9.632443726592674e-01
-1.032375900532200e+01	 1.032375900532200e+01	 9.913461416417602e-01
-1.096015510838750e+01	 1.096015510838750e+01	 9.808201606022997e-01
-1.159655121145200e+01	 1.159655121145200e+01	 9.751521166306387e-01
-1.223294731451550e+01	 1.223294731451550e+01	 9.763902036406387e-01
-1.286934341757800e+01	 1.286934341757800e+01	 9.850899384537375e-01
-1.350573952063951e+01	 1.350573952063951e+01	 1.001806818930000e+00
-1.414213562370000e+01	 1.414213562370000e+01	 1.027096323969114e+00
-8.485281374200000e+00	-5.656854249500000e+00	 1.809819780863792e+00
-9.121677477279500e+00	-5.020458146439500e+00	 1.675567215336419e+00
-9.758073580358001e+00	-4.384062043378000e+00	 1.571446169484052e+00
-1.039446968343550e+01	-3.747665940315499e+00	 1.479605896011051e+00
-1.103086578651200e+01	-3.111269837252000e+00	 1.386208426523230e+00
-1.166726188958750e+01	-2.474873734187500e+00	 1.296326396711629e+00
-1.230365799266200e+01	-1.838477631122000e+00	 1.225440118561253e+00
-1.294005409573550e+01	-1.202081528055500e+00	 1.175453778765138e+00
-1.357645019880800e+01	-5.656854249880006e-01	 1.148271499727942e+00
-1.421284630187950e+01	 7.071067808049936e-02	 1.145797339569311e+00
-1.484924240495000e+01	 7.071067811500000e-01	 1.167408379003817e+00
-8.343860017978999e+00	-5.515432893260000e+00	 1.806068200713721e+00
-8.980256121054893e+00	-4.879036790199499e+00	 1.667628766503251e+00
-9.616652224130160e+00	-4.242640687138000e+00	 1.566793961502315e+00
-1.025304832720481e+01	-3.606244584075501e+00	 1.477967937162198e+00
-1.088944443027884e+01	-2.969848481012001e+00	 1.381062905844603e+00
-1.152584053335225e+01	-2.333452377947500e+00	 1.293775467653569e+00
-1.216223663642504e+01	-1.697056274882000e+00	 1.225210364787282e+00
-1.279863273949721e+01	-1.060660171815500e+00	 1.177271793001638e+00
-1.343502884256876e+01	-4.242640687480004e-01	 1.151863883763572e+00
-1.407142494563969e+01	 2.121320343204995e-01	 1.150890704254429e+00
-1.470782104871000e+01	 8.485281373900001e-01	 1.176225119119201e+00
-8.202438661756000e+00	-5.374011537020000e+00	 1.801922812008332e+00
-8.838834764828659e+00	-4.737615433959499e+00	 1.659364616014469e+00
-9.475230867901040e+00	-4.101219330898001e+00	 1.561814196326464e+00
-1.011162697097314e+01	-3.464823227835500e+00	 1.476000566885536e+00
-1.074802307404496e+01	-2.828427124772000e+00	 1.375499635663044e+00
-1.138441917711650e+01	-2.192031021707500e+00	 1.290785200853118e+00
-1.202081528018776e+01	-1.555634918642000e+00	 1.224519684747126e+00
-1.265721138325874e+01	-9.192388155754999e-01	 1.178607292163885e+00
-1.329360748632944e+01	-2.828427125080005e-01	 1.154952163632674e+00
-1.393000358939986e+01	 3.535533905604996e-01	 1.155458375396599e+00
-1.456639969247000e+01	 9.899494936300001e-01	 1.182029939415958e+00
-8.061017305530999e+00	-5.232590180780001e+00	 1.797366430360066e+00
-8.697413408600807e+00	-4.596194077719500e+00	 1.657463534065359e+00
-9.333809511670641e+00	-3.959797974658001e+00	 1.556534428686962e+00
-9.970205614740490e+00	-3.323401871595500e+00	 1.467980630024338e+00
-1.060660171781036e+01	-2.687005768532000e+00	 1.369546386284937e+00
-1.124299782088025e+01	-2.050609665467500e+00	 1.287383366169045e+00
-1.187939392395016e+01	-1.414213562402000e+00	 1.223395847851946e+00
-1.251579002702008e+01	-7.778174593355001e-01	 1.179488045215444e+00
-1.315218613009004e+01	-1.414213562680006e-01	 1.157564107851225e+00
-1.378858223316001e+01	 4.949747468004994e-01	 1.159528121064219e+00
-1.442497833623000e+01	 1.131370849870000e+00	 1.187284105875971e+00
-7.919595949304000e+00	-5.091168824540000e+00	 1.792381871687316e+00
-8.555992052371341e+00	-4.454772721479500e+00	 1.655968104033706e+00
-9.192388155438961e+00	-3.818376618418000e+00	 1.550982213147479e+00
-9.828784258506859e+00	-3.181980515355500e+00	 1.458861920184709e+00
-1.046518036157504e+01	-2.545584412292000e+00	 1.363230928257739e+00
-1.110157646464350e+01	-1.909188309227500e+00	 1.283597733701183e+00
-1.173797256771224e+01	-1.272792206162000e+00	 1.221866623753964e+00
-1.237436867078126e+01	-6.363961030955002e-01	 1.179941821360933e+00
-1.301076477385056e+01	-2.800071285946615e-11	 1.159727485176246e+00
-1.364716087692014e+01	 6.363961030404993e-01	 1.163127709566723e+00
-1.428355697999000e+01	 1.272792206110000e+00	 1.192046524615218e+00
-7.778174593075001e+00	-4.949747468300000e+00	 1.786951952214410e+00
-8.414570696140251e+00	-4.313351365239500e+00	 1.654062507317071e+00
-9.050966799206003e+00	-3.676955262178001e+00	 1.545185104104924e+00
-9.687362902272252e+00	-3.040559159115501e+00	 1.449430361782475e+00
-1.032375900533900e+01	-2.404163056052000e+00	 1.356581032369978e+00
-1.096015510840625e+01	-1.767766952987500e+00	 1.279456073790436e+00
-1.159655121147400e+01	-1.131370849922000e+00	 1.219959782346462e+00
-1.223294731454225e+01	-4.949747468555004e-01	 1.179996390046020e+00
-1.286934341761100e+01	 1.414213562119995e-01	 1.161470064605803e+00
-1.350573952068025e+01	 7.778174592804994e-01	 1.166284909454582e+00
-1.414213562375000e+01	 1.414213562350000e+00	 1.196344963736582e+00
-7.636753236844000e+00	-4.808326112060000e+00	 1.781059488471608e+00
-8.273149339907539e+00	-4.171930008999500e+00	 1.651729560448830e+00
-8.909545442971758e+00	-3.535533905937999e+00	 1.539170658494276e+00
-9.545941546036660e+00	-2.899137802875500e+00	 1.439713726294890e+00
-1.018233764910224e+01	-2.262741699812000e+00	 1.349624469651272e+00
-1.081873375216850e+01	-1.626345596747500e+00	 1.274986157018779e+00
-1.145512985523544e+01	-9.899494936820001e-01	 1.217703093763783e+00
-1.209152595830306e+01	-3.535533906155002e-01	 1.179679520957431e+00
-1.272792206137136e+01	 2.828427124519993e-01	 1.162819615379008e+00
-1.336431816444033e+01	 9.192388155204992e-01	 1.169027489519306e+00
-1.400071426751000e+01	 1.555634918590000e+00	 1.200207191583980e+00
-7.495331880611000e+00	-4.666904755820000e+00	 1.774687297295095e+00
-8.131727983673210e+00	-4.030508652759500e+00	 1.648952080268275e+00
-8.768124086736242e+00	-3.394112549698000e+00	 1.533109612229631e+00
-9.404520189800088e+00	-2.757716446635500e+00	 1.429739785440304e+00
-1.004091629286476e+01	-2.121320343572000e+00	 1.342389011372312e+00
-1.067731239593025e+01	-1.484924240507500e+00	 1.270215754209257e+00
-1.131370849899656e+01	-8.485281374420003e-01	 1.215124328381340e+00
-1.195010460206369e+01	-2.121320343755005e-01	 1.179018984022948e+00
-1.258650070513164e+01	 4.242640686919993e-01	 1.163803906976028e+00
-1.322289680820041e+01	 1.060660171760499e+00	 1.171383218793449e+00
-1.385929291127000e+01	 1.697056274830000e+00	 1.203660976742367e+00
-7.353910524375999e+00	-4.525483399580001e+00	 1.767818195826971e+00
-7.990306627437260e+00	-3.889087296519500e+00	 1.645712883920618e+00
-8.626702730499442e+00	-3.252691193458000e+00	 1.526699729325269e+00
-9.263098833562541e+00	-2.616295090395500e+00	 1.419536311178163e+00
-9.899494936626562e+00	-1.979898987332000e+00	 1.334902429044877e+00
-1.053589103969150e+01	-1.343502884267500e+00	 1.265172636426000e+00
-1.117228714275736e+01	-7.071067812020000e-01	 1.212251256815616e+00
-1.180868324582414e+01	-7.071067813550025e-02	 1.178042549411417e+00
-1.244507934889184e+01	 5.656854249319995e-01	 1.164450709118080e+00
-1.308147545196046e+01	 1.202081528000499e+00	 1.173379866550613e+00
-1.371787155503000e+01	 1.838477631070000e+00	 1.206734088037735e+00
-7.212489168138999e+00	-4.384062043340000e+00	 1.760435001515248e+00
-7.848885271199691e+00	-3.747665940279500e+00	 1.641994788856958e+00
-8.485281374261358e+00	-3.111269837218000e+00	 1.519790347597488e+00
-9.121677477324010e+00	-2.474873734155500e+00	 1.409131075709005e+00
-9.758073580387640e+00	-1.838477631092000e+00	 1.327192494421840e+00
-1.039446968345225e+01	-1.202081528027500e+00	 1.259884574974216e+00
-1.103086578651784e+01	-5.656854249620000e-01	 1.209111649924163e+00
-1.166726188958441e+01	 7.071067810449948e-02	 1.176777987532754e+00
-1.230365799265196e+01	 7.071067811719998e-01	 1.164787791767444e+00
-1.294005409572049e+01	 1.343502884240499e+00	 1.175045202305453e+00
-1.357645019879000e+01	 1.979898987310000e+00	 1.209454294537120e+00
-7.071067811900000e+00	-4.242640687100000e+00	 1.752520532113834e+00
-7.707463914960500e+00	-3.606244584039500e+00	 1.637780625088257e+00
-8.343860018021999e+00	-2.969848480978000e+00	 1.512357089903840e+00
-8.980256121084500e+00	-2.333452377915500e+00	 1.398551848367750e+00
-9.616652224148000e+00	-1.697056274852000e+00	 1.319286979497160e+00
-1.025304832721250e+01	-1.060660171787500e+00	 1.254379341400193e+00
-1.088944443027800e+01	-4.242640687219998e-01	 1.205733278805617e+00
-1.152584053334450e+01	 2.121320343444999e-01	 1.175253069037933e+00
-1.216223663641200e+01	 8.485281374119996e-01	 1.164842925127456e+00
-1.279863273948050e+01	 1.484924240480500e+00	 1.176406995813672e+00
-1.343502884255000e+01	 2.121320343550000e+00	 1.211849365548603e+00
-1.484924240495000e+01	 7.071067811500000e-01	 1.167408379003817e+00
-1.548563850801950e+01	 1.343502884220501e+00	 1.150629712217721e+00
-1.612203461108800e+01	 1.979898987292001e+00	 1.137918430080072e+00
-1.675843071415550e+01	 2.616295090364502e+00	 1.128464522922427e+00
-1.739482681722200e+01	 3.252691193438002e+00	 1.121457949459065e+00
-1.803122292028750e+01	 3.889087296512503e+00	 1.119794454304351e+00
-1.866761902335200e+01	 4.525483399588003e+00	 1.116755438093409e+00
-1.930401512641550e+01	 5.161879502664504e+00	 1.111006866473842e+00
-1.994041122947800e+01	 5.798275605742004e+00	 1.103765140159120e+00
-2.057680733253951e+01	 6.434671708820505e+00	 1.096246800623601e+00
-2.121320343560000e+01	 7.071067811900000e+00	 1.095257183344542e+00
-1.470782104871000e+01	 8.485281373900001e-01	 1.176225119119201e+00
-1.534421715177950e+01	 1.484924240460491e+00	 1.156706408997564e+00
-1.598061325484800e+01	 2.121320343531961e+00	 1.141619356351750e+00
-1.661700935791550e+01	 2.757716446604412e+00	 1.130153954419541e+00
-1.725340546098200e+01	 3.394112549677842e+00	 1.121500164821652e+00
-1.788980156404751e+01	 4.030508652752252e+00	 1.120342535920773e+00
-1.852619766711200e+01	 4.666904755827644e+00	 1.116290153846721e+00
-1.916259377017550e+01	 5.303300858904015e+00	 1.109786309586070e+00
-1.979898987323801e+01	 5.939696961981366e+00	 1.102047400861843e+00
-2.043538597629950e+01	 6.576093065059696e+00	 1.094289966158011e+00
-2.107178207936000e+01	 7.212489168139000e+00	 1.092076396860420e+00
-1.456639969247000e+01	 9.899494936300001e-01	 1.182029939415958e+00
-1.520279579553950e+01	 1.626345596700461e+00	 1.161862312249507e+00
-1.583919189860800e+01	 2.262741699771842e+00	 1.144479935215473e+00
-1.647558800167550e+01	 2.899137802844143e+00	 1.131083484718472e+00
-1.711198410474200e+01	 3.535533905917362e+00	 1.122218897214976e+00
-1.774838020780750e+01	 4.171930008991503e+00	 1.120609866442456e+00
-1.838477631087201e+01	 4.808326112066564e+00	 1.115591211190529e+00
-1.902117241393550e+01	 5.444722215142544e+00	 1.108379185448123e+00
-1.965756851699800e+01	 6.081118318219443e+00	 1.100190183947697e+00
-2.029396462005950e+01	 6.717514421297264e+00	 1.092240742182720e+00
-2.093036072312000e+01	 7.353910524375999e+00	 1.088845425057676e+00
-1.442497833623000e+01	 1.131370849870000e+00	 1.187284105875971e+00
-1.506137443929950e+01	 1.767766952940411e+00	 1.166090706159344e+00
-1.569777054236800e+01	 2.404163056011642e+00	 1.146493450713544e+00
-1.633416664543550e+01	 3.040559159083692e+00	 1.131246397718033e+00
-1.697056274850200e+01	 3.676955262156562e+00	 1.123391765430520e+00
-1.760695885156751e+01	 4.313351365230253e+00	 1.120605461152159e+00
-1.824335495463200e+01	 4.949747468304762e+00	 1.114667625555332e+00
-1.887975105769550e+01	 5.586143571380094e+00	 1.106794509638226e+00
-1.951614716075800e+01	 6.222539674456245e+00	 1.098202505142622e+00
-2.015254326381950e+01	 6.858935777533214e+00	 1.090108144571385e+00
-2.078893936688000e+01	 7.495331880611000e+00	 1.085563986008933e+00
-1.428355697999000e+01	 1.272792206110000e+00	 1.192046524615218e+00
-1.491995308305950e+01	 1.909188309180341e+00	 1.169384874963322e+00
-1.555634918612800e+01	 2.545584412251361e+00	 1.147653186938727e+00
-1.619274528919550e+01	 3.181980515323060e+00	 1.130635977367495e+00
-1.682914139226200e+01	 3.818376618395442e+00	 1.124254818719213e+00
-1.746553749532750e+01	 4.454772721468503e+00	 1.120338335441537e+00
-1.810193359839201e+01	 5.091168824542244e+00	 1.113528412480520e+00
-1.873832970145550e+01	 5.727564927616665e+00	 1.105041297843497e+00
-1.937472580451800e+01	 6.363961030691764e+00	 1.096093380281464e+00
-2.001112190757950e+01	 7.000357133767547e+00	 1.087901189306559e+00
-2.064751801064000e+01	 7.636753236843999e+00	 1.082231797774334e+00
-1.414213562375000e+01	 1.414213562350000e+00	 1.196344963736582e+00
-1.477853172681950e+01	 2.050609665420250e+00	 1.171738102948145e+00
-1.541492782988800e+01	 2.687005768491002e+00	 1.147952428034238e+00
-1.605132393295550e+01	 3.323401871562252e+00	 1.129245507666589e+00
-1.668772003602200e+01	 3.959797974634002e+00	 1.124817072433858e+00
-1.732411613908750e+01	 4.596194077706253e+00	 1.119817504811142e+00
-1.796051224215201e+01	 5.232590180779004e+00	 1.112182587614388e+00
-1.859690834521550e+01	 5.868986283852253e+00	 1.103128565859964e+00
-1.923330444827801e+01	 6.505382386926005e+00	 1.093871825307968e+00
-1.986970055133951e+01	 7.141778490000255e+00	 1.085628892479706e+00
-2.050609665440000e+01	 7.778174593075000e+00	 1.079616434675181e+00
-1.400071426751000e+01	 1.555634918590000e+00	 1.200207191583980e+00
-1.463711037057950e+01	 2.192031021660141e+00	 1.172495374179598e+00
-1.527350647364800e+01	 2.828427124730561e+00	 1.147384458193755e+00
-1.590990257671550e+01	 3.464823227801261e+00	 1.127529736912325e+00
-1.654629867978200e+01	 4.101219330872242e+00	 1.125087542036155e+00
-1.718269478284750e+01	 4.737615433943503e+00	 1.119051984870427e+00
-1.781909088591200e+01	 5.374011537015043e+00	 1.110639166714127e+00
-1.845548698897550e+01	 6.010407640086864e+00	 1.101065329592553e+00
-1.909188309203800e+01	 6.646803743158965e+00	 1.091546856274790e+00
-1.972827919509950e+01	 7.283199846231344e+00	 1.083300270291201e+00
-2.036467529816000e+01	 7.919595949304000e+00	 1.077542235950909e+00
-1.385929291127000e+01	 1.697056274830000e+00	 1.203660976742367e+00
-1.449568901433950e+01	 2.333452377900011e+00	 1.172050091870191e+00
-1.513208511740800e+01	 2.969848480970041e+00	 1.145942561661408e+00
-1.576848122047550e+01	 3.606244584040092e+00	 1.128764422614989e+00
-1.640487732354200e+01	 4.242640687110161e+00	 1.125075243096706e+00
-1.704127342660750e+01	 4.879036790180252e+00	 1.118050791337744e+00
-1.767766952967200e+01	 5.515432893250363e+00	 1.108907165645842e+00
-1.831406563273551e+01	 6.151828996320495e+00	 1.098860605055105e+00
-1.895046173579800e+01	 6.788225099390644e+00	 1.089127489343500e+00
-1.958685783885950e+01	 7.424621202460814e+00	 1.080924339050333e+00
-2.022325394192000e+01	 8.061017305530999e+00	 1.075467815493740e+00
-1.371787155503000e+01	 1.838477631070000e+00	 1.206734088037735e+00
-1.435426765809950e+01	 2.474873734139861e+00	 1.171259898073988e+00
-1.499066376116800e+01	 3.111269837209442e+00	 1.143620022731785e+00
-1.562705986423550e+01	 3.747665940278742e+00	 1.129678258832140e+00
-1.626345596730200e+01	 4.384062043347762e+00	 1.124789191295017e+00
-1.689985207036750e+01	 5.020458146416502e+00	 1.116822940040361e+00
-1.753624817343200e+01	 5.656854249484963e+00	 1.106995600384541e+00
-1.817264427649550e+01	 6.293250352553143e+00	 1.096523408370370e+00
-1.880904037955801e+01	 6.929646455621044e+00	 1.086622740784579e+00
-1.944543648261951e+01	 7.566042558688665e+00	 1.078510115175308e+00
-2.008183258568000e+01	 8.202438661756000e+00	 1.073402189869598e+00
-1.357645019879000e+01	 1.979898987310000e+00	 1.209454294537120e+00
-1.421284630185950e+01	 2.616295090379690e+00	 1.170152561410419e+00
-1.484924240492800e+01	 3.252691193448761e+00	 1.140410125749928e+00
-1.548563850799550e+01	 3.889087296517212e+00	 1.130280261204423e+00
-1.612203461106200e+01	 4.525483399585042e+00	 1.124238402419504e+00
-1.675843071412750e+01	 5.161879502652253e+00	 1.115377446914449e+00
-1.739482681719200e+01	 5.798275605718843e+00	 1.104913487014153e+00
-1.803122292025550e+01	 6.434671708784814e+00	 1.094062755770016e+00
-1.866761902331800e+01	 7.071067811850163e+00	 1.084041626977430e+00
-1.930401512637950e+01	 7.707463914914894e+00	 1.076066615193257e+00
-1.994041122944000e+01	 8.343860017978999e+00	 1.071354375753328e+00
-1.343502884255000e+01	 2.121320343550000e+00	 1.211849365548603e+00
-1.407142494561950e+01	 2.757716446619501e+00	 1.168755850739953e+00
-1.470782104868800e+01	 3.394112549688002e+00	 1.136306155111333e+00
-1.534421715175550e+01	 4.030508652755502e+00	 1.130579445481395e+00
-1.598061325482200e+01	 4.666904755822002e+00	 1.123431892367494e+00
-1.661700935788750e+01	 5.303300858887503e+00	 1.113723328005099e+00
-1.725340546095200e+01	 5.939696961952004e+00	 1.102669841727518e+00
-1.788980156401550e+01	 6.576093065015503e+00	 1.091487663594631e+00
-1.852619766707801e+01	 7.212489168078005e+00	 1.081393164410377e+00
-1.916259377013951e+01	 7.848885271139504e+00	 1.073602855740232e+00
-1.979898987320000e+01	 8.485281374200000e+00	 1.069333389928707e+00
-9.899494936600000e+00	-7.071067811900000e+00	 1.387566094848305e+00
-1.053589103967900e+01	-6.434671708820501e+00	 1.338601387425146e+00
-1.117228714275600e+01	-5.798275605742001e+00	 1.295037512354129e+00
-1.180868324583100e+01	-5.161879502664499e+00	 1.257579892970005e+00
-1.244507934890400e+01	-4.525483399588000e+00	 1.226933862481892e+00
-1.308147545197500e+01	-3.889087296512500e+00	 1.203804663985806e+00
-1.371787155504400e+01	-3.252691193438000e+00	 1.182565642614591e+00
-1.435426765811100e+01	-2.616295090364500e+00	 1.159963312743850e+00
-1.499066376117600e+01	-1.979898987292001e+00	 1.146185968938548e+00
-1.562705986423900e+01	-1.343502884220501e+00	 1.141335346612893e+00
-1.626345596730000e+01	-7.071067811500000e-01	 1.154767185120419e+00
-9.758073580360000e+00	-6.929646455660000e+00	 1.425549220662380e+00
-1.039446968343901e+01	-6.293250352580780e+00	 1.372473069057467e+00
-1.103086578651602e+01	-5.656854249502720e+00	 1.324926151555522e+00
-1.166726188959105e+01	-5.020458146425820e+00	 1.283613903434085e+00
-1.230365799266408e+01	-4.384062043350080e+00	 1.249241669844454e+00
-1.294005409573513e+01	-3.747665940275501e+00	 1.222514705824209e+00
-1.357645019880418e+01	-3.111269837202079e+00	 1.193075104111561e+00
-1.421284630187124e+01	-2.474873734129820e+00	 1.167450691779844e+00
-1.484924240493632e+01	-1.838477631058721e+00	 1.154761628096755e+00
-1.548563850799940e+01	-1.202081527988781e+00	 1.147604344766295e+00
-1.612203461106050e+01	-5.656854249200002e-01	 1.159089290865379e+00
-9.616652224120001e+00	-6.788225099420000e+00	 1.460399501525385e+00
-1.025304832719902e+01	-6.151828996341418e+00	 1.403515844352868e+00
-1.088944443027608e+01	-5.515432893264078e+00	 1.352289824339146e+00
-1.152584053335118e+01	-4.879036790187979e+00	 1.307426888704414e+00
-1.216223663642432e+01	-4.242640687113119e+00	 1.269632394542008e+00
-1.279863273949550e+01	-3.606244584039500e+00	 1.239611608830947e+00
-1.343502884256472e+01	-2.969848480967120e+00	 1.202147263988364e+00
-1.407142494563198e+01	-2.333452377895980e+00	 1.173784974424336e+00
-1.470782104869728e+01	-1.697056274826080e+00	 1.162269907153896e+00
-1.534421715176062e+01	-1.060660171757421e+00	 1.153134844658922e+00
-1.598061325482200e+01	-4.242640686900001e-01	 1.163001780279746e+00
-9.475230867880001e+00	-6.646803743180000e+00	 1.492144495015478e+00
-1.011162697095904e+01	-6.010407640102419e+00	 1.431757270299793e+00
-1.074802307403618e+01	-5.374011537026080e+00	 1.377156087103739e+00
-1.138441917711140e+01	-4.737615433950979e+00	 1.329046404590023e+00
-1.202081528018472e+01	-4.101219330877120e+00	 1.288133591793888e+00
-1.265721138325613e+01	-3.464823227804500e+00	 1.255122927635647e+00
-1.329360748632562e+01	-2.828427124733120e+00	 1.209809889245757e+00
-1.393000358939320e+01	-2.192031021662980e+00	 1.178993927230568e+00
-1.456639969245888e+01	-1.555634918594081e+00	 1.165202555245304e+00
-1.520279579552265e+01	-9.192388155264209e-01	 1.157920130258983e+00
-1.583919189858450e+01	-2.828427124599999e-01	 1.166497937188229e+00
-9.333809511640000e+00	-6.505382386939999e+00	 1.520811758543923e+00
-9.970205614719079e+00	-5.868986283863780e+00	 1.457224903719810e+00
-1.060660171779632e+01	-5.232590180788720e+00	 1.399552496081167e+00
-1.124299782087172e+01	-4.596194077714819e+00	 1.348500006733083e+00
-1.187939392394528e+01	-3.959797974642080e+00	 1.304772816652568e+00
-1.251579002701700e+01	-3.323401871570500e+00	 1.264323721492512e+00
-1.315218613008688e+01	-2.687005768500080e+00	 1.216090747125527e+00
-1.378858223315492e+01	-2.050609665430821e+00	 1.183105316992804e+00
-1.442497833622112e+01	-1.414213562362721e+00	 1.167271499128244e+00
-1.506137443928548e+01	-7.778174592957803e-01	 1.161953485585145e+00
-1.569777054234800e+01	-1.414213562300000e-01	 1.169571045466000e+00
-9.192388155400000e+00	-6.363961030700000e+00	 1.546428849355109e+00
-9.828784258479125e+00	-5.727564927625501e+00	 1.479946301267608e+00
-1.046518036155650e+01	-5.091168824552001e+00	 1.419506607336431e+00
-1.110157646463212e+01	-4.454772721479500e+00	 1.365815250608906e+00
-1.173797256770600e+01	-3.818376618408000e+00	 1.319577624003674e+00
-1.237436867077813e+01	-3.181980515337500e+00	 1.271262856601114e+00
-1.301076477384850e+01	-2.545584412268000e+00	 1.221017605110482e+00
-1.364716087691713e+01	-1.909188309199500e+00	 1.186146910746323e+00
-1.428355697998400e+01	-1.272792206132001e+00	 1.168554850604321e+00
-1.491995308304912e+01	-6.363961030655007e-01	 1.165228194706532e+00
-1.555634918611250e+01	 5.551115123125783e-17	 1.172214389038692e+00
-9.050966799159999e+00	-6.222539674460000e+00	 1.569023324526539e+00
-9.687362902239180e+00	-5.586143571387580e+00	 1.499949019431011e+00
-1.032375900531672e+01	-4.949747468315919e+00	 1.437045976767673e+00
-1.096015510839262e+01	-4.313351365245020e+00	 1.381019691525959e+00
-1.159655121146688e+01	-3.676955262174880e+00	 1.332575568565993e+00
-1.223294731453950e+01	-3.040559159105500e+00	 1.276591555815888e+00
-1.286934341761048e+01	-2.404163056036880e+00	 1.224618230924466e+00
-1.350573952067982e+01	-1.767766952969020e+00	 1.188146475767432e+00
-1.414213562374752e+01	-1.131370849901921e+00	 1.169080376502307e+00
-1.477853172681358e+01	-4.949747468355806e-01	 1.167737541742730e+00
-1.541492782987800e+01	 1.414213562300000e-01	 1.174421251882392e+00
-8.909545442919999e+00	-6.081118318220000e+00	 1.588622740968859e+00
-9.545941545999245e+00	-5.444722215150020e+00	 1.517260614530988e+00
-1.018233764907698e+01	-4.808326112080481e+00	 1.452198160106193e+00
-1.081873375215321e+01	-4.171930009011379e+00	 1.394140884625864e+00
-1.145512985522792e+01	-3.535533905942720e+00	 1.343794204891480e+00
-1.209152595830112e+01	-2.899137802874500e+00	 1.280337587549268e+00
-1.272792206137282e+01	-2.262741699806720e+00	 1.226920392532356e+00
-1.336431816444301e+01	-1.626345596739381e+00	 1.189131779573461e+00
-1.400071426751168e+01	-9.899494936724805e-01	 1.168875843892000e+00
-1.463711037057885e+01	-3.535533906060208e-01	 1.168056616423812e+00
-1.527350647364450e+01	 2.828427124599999e-01	 1.176184918023650e+00
-8.768124086680000e+00	-5.939696961979999e+00	 1.608289791407494e+00
-9.404520189759321e+00	-5.303300858912821e+00	 1.531908642721661e+00
-1.004091629283728e+01	-4.666904755845680e+00	 1.464990712916445e+00
-1.067731239591388e+01	-4.030508652778580e+00	 1.405206384883422e+00
-1.131370849898912e+01	-3.394112549711521e+00	 1.350957008297872e+00
-1.195010460206300e+01	-2.757716446644500e+00	 1.282528720454723e+00
-1.258650070513552e+01	-2.121320343577520e+00	 1.227951858140065e+00
-1.322289680820668e+01	-1.484924240510581e+00	 1.189130589922775e+00
-1.385929291127648e+01	-8.485281374436807e-01	 1.167969020084217e+00
-1.449568901434492e+01	-2.121320343768205e-01	 1.166371188621593e+00
-1.513208511741200e+01	 4.242640686900000e-01	 1.177498671539476e+00
-8.626702730439998e+00	-5.798275605740000e+00	 1.629732578355372e+00
-9.263098833519404e+00	-5.161879502675981e+00	 1.543920659990310e+00
-9.899494936597620e+00	-4.525483399611520e+00	 1.475451190596059e+00
-1.053589103967465e+01	-3.889087296546621e+00	 1.414243747106604e+00
-1.117228714275048e+01	-3.252691193481280e+00	 1.352623478880002e+00
-1.180868324582513e+01	-2.616295090415500e+00	 1.283192723426781e+00
-1.244507934889858e+01	-1.979898987349280e+00	 1.227740396194548e+00
-1.308147545197084e+01	-1.343502884282620e+00	 1.188170674814768e+00
-1.371787155504192e+01	-7.071067812155205e-01	 1.166387672630801e+00
-1.435426765811181e+01	-7.071067814798095e-02	 1.164295438701264e+00
-1.499066376118050e+01	 5.656854249199998e-01	 1.178355796557333e+00
-8.485281374200000e+00	-5.656854249500000e+00	 1.648282494574568e+00
-9.121677477279500e+00	-5.020458146439500e+00	 1.553324222157389e+00
-9.758073580358001e+00	-4.384062043378000e+00	 1.483607148375843e+00
-1.039446968343550e+01	-3.747665940315499e+00	 1.421280525936574e+00
-1.103086578651200e+01	-3.111269837252000e+00	 1.352506386447390e+00
-1.166726188958750e+01	-2.474873734187500e+00	 1.282357365601011e+00
-1.230365799266200e+01	-1.838477631122000e+00	 1.226313775383805e+00
-1.294005409573550e+01	-1.202081528055500e+00	 1.186279802489872e+00
-1.357645019880800e+01	-5.656854249880006e-01	 1.164159569324623e+00
-1.421284630187950e+01	 7.071067808049936e-02	 1.161857134008145e+00
-1.484924240495000e+01	 7.071067811500000e-01	 1.178749577255144e+00
-1.626345596730000e+01	-7.071067811500000e-01	 1.154767185120419e+00
-1.689985207036100e+01	-7.071067808049947e-02	 1.138668688299915e+00
-1.753624817342401e+01	 5.656854249880012e-01	 1.126159221970771e+00
-1.817264427648900e+01	 1.202081528055502e+00	 1.116428747401720e+00
-1.880904037955600e+01	 1.838477631122002e+00	 1.108667194242019e+00
-1.944543648262501e+01	 2.474873734187503e+00	 1.102064460519528e+00
-2.008183258569601e+01	 3.111269837252004e+00	 1.095810412638789e+00
-2.071822868876900e+01	 3.747665940315504e+00	 1.089632173237392e+00
-2.135462479184401e+01	 4.384062043378004e+00	 1.087272832791813e+00
-2.199102089492100e+01	 5.020458146439505e+00	 1.085624070597212e+00
-2.262741699800000e+01	 5.656854249500000e+00	 1.084432116806644e+00
-1.612203461106050e+01	-5.656854249200002e-01	 1.159089290865379e+00
-1.675843071412158e+01	 7.071067814798060e-02	 1.142245802936725e+00
-1.739482681718464e+01	 7.071067812155211e-01	 1.129159773248233e+00
-1.803122292024967e+01	 1.343502884282622e+00	 1.119021165974971e+00
-1.866761902331666e+01	 1.979898987349282e+00	 1.111019913672750e+00
-1.930401512638563e+01	 2.616295090415503e+00	 1.104345917276199e+00
-1.994041122945656e+01	 3.252691193481283e+00	 1.098189046096843e+00
-2.057680733252947e+01	 3.889087296546624e+00	 1.091009959600126e+00
-2.121320343560435e+01	 4.525483399611526e+00	 1.088786752068462e+00
-2.184959953868119e+01	 5.161879502675984e+00	 1.087493592507849e+00
-2.248599564176000e+01	 5.798275605740000e+00	 1.086782239395211e+00
-1.598061325482200e+01	-4.242640686900001e-01	 1.163001780279746e+00
-1.661700935788335e+01	 2.121320343768206e-01	 1.145417944916751e+00
-1.725340546094656e+01	 8.485281374436814e-01	 1.131759995632613e+00
-1.788980156401167e+01	 1.484924240510582e+00	 1.121217899508723e+00
-1.852619766707864e+01	 2.121320343577522e+00	 1.112981592007434e+00
-1.916259377014750e+01	 2.757716446644503e+00	 1.106240976970128e+00
-1.979898987321825e+01	 3.394112549711524e+00	 1.100185926615306e+00
-2.043538597629086e+01	 4.030508652778584e+00	 1.093214286428453e+00
-2.107178207936537e+01	 4.666904755845684e+00	 1.090028751365053e+00
-2.170817818244175e+01	 5.303300858912825e+00	 1.089086683887027e+00
-2.234457428552000e+01	 5.939696961980000e+00	 1.088851421085673e+00
-1.583919189858450e+01	-2.828427124599999e-01	 1.166497937188229e+00
-1.647558800164627e+01	 3.535533906060207e-01	 1.148178397921199e+00
-1.711198410470976e+01	 9.899494936724813e-01	 1.133953172661610e+00
-1.774838020777499e+01	 1.626345596739382e+00	 1.123012231397165e+00
-1.838477631084195e+01	 2.262741699806722e+00	 1.114545512496740e+00
-1.902117241391063e+01	 2.899137802874503e+00	 1.107742922708465e+00
-1.965756851698104e+01	 3.535533905942723e+00	 1.101800527905715e+00
-2.029396462005319e+01	 4.171930009011384e+00	 1.095144747908976e+00
-2.093036072312707e+01	 4.808326112080485e+00	 1.090998548811966e+00
-2.156675682620267e+01	 5.444722215150025e+00	 1.090403062898631e+00
-2.220315292928000e+01	 6.081118318220000e+00	 1.090639380075421e+00
-1.569777054234800e+01	-1.414213562300000e-01	 1.169571045466000e+00
-1.633416664541036e+01	 4.949747468355807e-01	 1.150520445681739e+00
-1.697056274847424e+01	 1.131370849901921e+00	 1.135732587923387e+00
-1.760695885153964e+01	 1.767766952969021e+00	 1.124397445084947e+00
-1.824335495460656e+01	 2.404163056036882e+00	 1.115704958441805e+00
-1.887975105767500e+01	 3.040559159105503e+00	 1.108845037648825e+00
-1.951614716074496e+01	 3.676955262174884e+00	 1.103154001289723e+00
-2.015254326381644e+01	 4.313351365245023e+00	 1.096810358639994e+00
-2.078893936688944e+01	 4.949747468315923e+00	 1.091695862527112e+00
-2.142533546996397e+01	 5.586143571387586e+00	 1.091442447694069e+00
-2.206173157304000e+01	 6.222539674460000e+00	 1.092145834549368e+00
-1.555634918611250e+01	 5.551115123125783e-17	 1.172214389038692e+00
-1.619274528917563e+01	 6.363961030655005e-01	 1.152437371980501e+00
-1.682914139224000e+01	 1.272792206132001e+00	 1.137091525056573e+00
-1.746553749530563e+01	 1.909188309199502e+00	 1.125366824067186e+00
-1.810193359837250e+01	 2.545584412268002e+00	 1.116453213194234e+00
-1.873832970144063e+01	 3.181980515337502e+00	 1.109540604999298e+00
-1.937472580451001e+01	 3.818376618408003e+00	 1.104280352297283e+00
-2.001112190758063e+01	 4.454772721479504e+00	 1.098220133328675e+00
-2.064751801065250e+01	 5.091168824552004e+00	 1.092120410615921e+00
-2.128391411372563e+01	 5.727564927625505e+00	 1.092204556412276e+00
-2.192031021680000e+01	 6.363961030700001e+00	 1.093370502679956e+00
-1.541492782987800e+01	 1.414213562300000e-01	 1.174421251882392e+00
-1.605132393294206e+01	 7.778174592957805e-01	 1.153922460650080e+00
-1.668772003600704e+01	 1.414213562362721e+00	 1.138023267750254e+00
-1.732411613907294e+01	 2.050609665430821e+00	 1.125913651889467e+00
-1.796051224213976e+01	 2.687005768500082e+00	 1.116783560156099e+00
-1.859690834520751e+01	 3.323401871570502e+00	 1.109822908018440e+00
-1.923330444827617e+01	 3.959797974642083e+00	 1.105188595596722e+00
-1.986970055134574e+01	 4.596194077714824e+00	 1.099383086791057e+00
-2.050609665441625e+01	 5.232590180788725e+00	 1.093041351198606e+00
-2.114249275748766e+01	 5.868986283863784e+00	 1.092689107179709e+00
-2.177888886056000e+01	 6.505382386939999e+00	 1.094313102627146e+00
-1.527350647364450e+01	 2.828427124599999e-01	 1.176184918023650e+00
-1.590990257670967e+01	 9.192388155264208e-01	 1.154968995573526e+00
-1.654629867977536e+01	 1.555634918594081e+00	 1.138521099743985e+00
-1.718269478284159e+01	 2.192031021662982e+00	 1.126031212147836e+00
-1.781909088590834e+01	 2.828427124733122e+00	 1.116689282779938e+00
-1.845548698897563e+01	 3.464823227804501e+00	 1.109776873663246e+00
-1.909188309204345e+01	 4.101219330877123e+00	 1.105887745965240e+00
-1.972827919511179e+01	 4.737615433950984e+00	 1.100308233952046e+00
-2.036467529818066e+01	 5.374011537026084e+00	 1.094254747307742e+00
-2.100107140125007e+01	 6.010407640102425e+00	 1.092895818110350e+00
-2.163746750432000e+01	 6.646803743180000e+00	 1.094973352538428e+00
-1.513208511741200e+01	 4.242640686900000e-01	 1.177498671539476e+00
-1.576848122047844e+01	 1.060660171757421e+00	 1.155570260684353e+00
-1.640487732354497e+01	 1.697056274826081e+00	 1.138578304827780e+00
-1.704127342661156e+01	 2.333452377895981e+00	 1.125712788488806e+00
-1.767766952967824e+01	 2.969848480967122e+00	 1.116163664568753e+00
-1.831406563274500e+01	 3.606244584039502e+00	 1.110140916037016e+00
-1.895046173581184e+01	 4.242640687113123e+00	 1.106386818288911e+00
-1.958685783887876e+01	 4.879036790187984e+00	 1.101004589845431e+00
-2.022325394194576e+01	 5.515432893264085e+00	 1.095210637400538e+00
-2.085965004501285e+01	 6.151828996341425e+00	 1.092824407305704e+00
-2.149604614808000e+01	 6.788225099420000e+00	 1.095350970548812e+00
-1.499066376118050e+01	 5.656854249199998e-01	 1.178355796557333e+00
-1.562705986424839e+01	 1.202081527988781e+00	 1.155719539966536e+00
-1.626345596731584e+01	 1.838477631058721e+00	 1.138188166842115e+00
-1.689985207038287e+01	 2.474873734129822e+00	 1.124951664609351e+00
-1.753624817344946e+01	 3.111269837202082e+00	 1.115199989076016e+00
-1.817264427651563e+01	 3.747665940275503e+00	 1.110342606910058e+00
-1.880904037958136e+01	 4.384062043350083e+00	 1.106694827562685e+00
-1.944543648264667e+01	 5.020458146425824e+00	 1.101481169613881e+00
-2.008183258571155e+01	 5.656854249502723e+00	 1.095918036767369e+00
-2.071822868877599e+01	 6.293250352580785e+00	 1.092474592854800e+00
-2.135462479184000e+01	 6.929646455659999e+00	 1.095445674780831e+00
-1.484924240495000e+01	 7.071067811500000e-01	 1.178749577255144e+00
-1.548563850801950e+01	 1.343502884220501e+00	 1.155410117454505e+00
-1.612203461108800e+01	 1.979898987292001e+00	 1.137343969677927e+00
-1.675843071415550e+01	 2.616295090364502e+00	 1.123741124256908e+00
-1.739482681722200e+01	 3.252691193438002e+00	 1.113791539905659e+00
-1.803122292028750e+01	 3.889087296512503e+00	 1.110390961238474e+00
-1.866761902335200e+01	 4.525483399588003e+00	 1.106820788890399e+00
-1.930401512641550e+01	 5.161879502664504e+00	 1.101746988508947e+00
-1.994041122947800e+01	 5.798275605742004e+00	 1.096385960807499e+00
-2.057680733253951e+01	 6.434671708820505e+00	 1.091954247260314e+00
-2.121320343560000e+01	 7.071067811900000e+00	 1.095257183344542e+00
-1.555634918610000e+01	-1.272792206140000e+01	 1.142468397453100e+00
-1.619274528916050e+01	-1.209152595832050e+01	 1.131812092503770e+00
-1.682914139222200e+01	-1.145512985524200e+01	 1.120070284002642e+00
-1.746553749528450e+01	-1.081873375216450e+01	 1.107633771202865e+00
-1.810193359834800e+01	-1.018233764908800e+01	 1.096910196168790e+00
-1.873832970141250e+01	-9.545941546012500e+00	 1.092103951619621e+00
-1.937472580447800e+01	-8.909545442937999e+00	 1.087335902190027e+00
-2.001112190754450e+01	-8.273149339864499e+00	 1.082573480342422e+00
-2.064751801061200e+01	-7.636753236792002e+00	 1.077795803634943e+00
-2.128391411368050e+01	-7.000357133720501e+00	 1.073138135376725e+00
-2.192031021675000e+01	-6.363961030650000e+00	 1.068688208230968e+00
-1.527350647362050e+01	-1.244507934892000e+01	 1.157461315878656e+00
-1.590990257668442e+01	-1.180868324584069e+01	 1.142990818236361e+00
-1.654629867974879e+01	-1.117228714276255e+01	 1.127833855153957e+00
-1.718269478281360e+01	-1.053589103968559e+01	 1.112381219499359e+00
-1.781909088587886e+01	-9.899494936609800e+00	 1.102005626661553e+00
-1.845548698894456e+01	-9.263098833535189e+00	 1.094437154531626e+00
-1.909188309201071e+01	-8.626702730461750e+00	 1.087571424560932e+00
-1.972827919507730e+01	-7.990306627389487e+00	 1.081375868382852e+00
-2.036467529814434e+01	-7.353910524318401e+00	 1.075817932322159e+00
-2.100107140121182e+01	-6.717514421248487e+00	 1.071220072553926e+00
-2.163746750427975e+01	-6.081118318179751e+00	 1.067587253737846e+00
-1.499066376114200e+01	-1.216223663644000e+01	 1.172338949072126e+00
-1.562705986420879e+01	-1.152584053336105e+01	 1.154236543522877e+00
-1.626345596727556e+01	-1.088944443028340e+01	 1.135846712063574e+00
-1.689985207034231e+01	-1.025304832720705e+01	 1.118392802589703e+00
-1.753624817340904e+01	-9.616652224132002e+00	 1.106872409478112e+00
-1.817264427647575e+01	-8.980256121058250e+00	 1.096751886658003e+00
-1.880904037954244e+01	-8.343860017985799e+00	 1.087998650241519e+00
-1.944543648260911e+01	-7.707463914914650e+00	 1.080580131033090e+00
-2.008183258567575e+01	-7.071067811844800e+00	 1.074463774528502e+00
-2.071822868874239e+01	-6.434671708776250e+00	 1.069795082789117e+00
-2.135462479180900e+01	-5.798275605709000e+00	 1.067172702755789e+00
-1.470782104866450e+01	-1.187939392396000e+01	 1.187204125565471e+00
-1.534421715173360e+01	-1.124299782088159e+01	 1.165652098156153e+00
-1.598061325480231e+01	-1.060660171780455e+01	 1.144211685785205e+00
-1.661700935787063e+01	-9.970205614728888e+00	 1.125982859040245e+00
-1.725340546093854e+01	-9.333809511654598e+00	 1.111456050013785e+00
-1.788980156400607e+01	-8.697413408581689e+00	 1.098993653556840e+00
-1.852619766707319e+01	-8.061017305510150e+00	 1.088563084952723e+00
-1.916259377013992e+01	-7.424621202439988e+00	 1.080131774177000e+00
-1.979898987320626e+01	-6.788225099371198e+00	 1.073667165896550e+00
-2.043538597627220e+01	-6.151828996303788e+00	 1.069136719468631e+00
-2.107178207933775e+01	-5.515432893237750e+00	 1.067441249452057e+00
-1.442497833618800e+01	-1.159655121148000e+01	 1.199431665429981e+00
-1.506137443925886e+01	-1.096015510840230e+01	 1.177340309967926e+00
-1.569777054232904e+01	-1.032375900532600e+01	 1.153109698554323e+00
-1.633416664539854e+01	-9.687362902251101e+00	 1.133025101333346e+00
-1.697056274846735e+01	-9.050966799177599e+00	 1.115702056403300e+00
-1.760695885153550e+01	-8.414570696105498e+00	 1.101107963525607e+00
-1.824335495460296e+01	-7.778174593034801e+00	 1.089210237154837e+00
-1.887975105766974e+01	-7.141778489965501e+00	 1.079976306437773e+00
-1.951614716073584e+01	-6.505382386897601e+00	 1.073373615212472e+00
-2.015254326380126e+01	-5.868986283831099e+00	 1.069369622007330e+00
-2.078893936686600e+01	-5.232590180766000e+00	 1.068389587975869e+00
-1.414213562371250e+01	-1.131370849900000e+01	 1.209410319718007e+00
-1.477853172678456e+01	-1.067731239592319e+01	 1.189404004828885e+00
-1.541492782985575e+01	-1.004091629284775e+01	 1.162800230647344e+00
-1.605132393292607e+01	-9.404520189773690e+00	 1.139465040180355e+00
-1.668772003599550e+01	-8.768124086700999e+00	 1.119555939520644e+00
-1.732411613906406e+01	-8.131727983629688e+00	 1.103040327601009e+00
-1.796051224213175e+01	-7.495331880559750e+00	 1.089885618047363e+00
-1.859690834519857e+01	-6.858935777491188e+00	 1.080059239177783e+00
-1.923330444826450e+01	-6.222539674424002e+00	 1.073528634001589e+00
-1.986970055132956e+01	-5.586143571358187e+00	 1.070261260218403e+00
-2.050609665439375e+01	-4.949747468293750e+00	 1.070224590217214e+00
-1.385929291123800e+01	-1.103086578652000e+01	 1.217020735702013e+00
-1.449568901431071e+01	-1.039446968344425e+01	 1.198233410796052e+00
-1.513208511738244e+01	-9.758073580369798e+00	 1.171623789613109e+00
-1.576848122045319e+01	-9.121677477296648e+00	 1.145248189031763e+00
-1.640487732352296e+01	-8.485281374224801e+00	 1.122963212978920e+00
-1.704127342659175e+01	-7.848885271154249e+00	 1.104736259558845e+00
-1.767766952965955e+01	-7.212489168085000e+00	 1.090534741568863e+00
-1.831406563272639e+01	-6.576093065017051e+00	 1.080326086498437e+00
-1.895046173579224e+01	-5.939696961950400e+00	 1.074077736528234e+00
-1.958685783885711e+01	-5.303300858885050e+00	 1.071757148529179e+00
-2.022325394192100e+01	-4.666904755821001e+00	 1.073331794061528e+00
-1.357645019876450e+01	-1.074802307404000e+01	 1.222132531089321e+00
-1.421284630183730e+01	-1.011162697096549e+01	 1.202488779442277e+00
-1.484924240490911e+01	-9.475230867892153e+00	 1.179525891478592e+00
-1.548563850797992e+01	-8.838834764819989e+00	 1.150320064077052e+00
-1.612203461104974e+01	-8.202438661748999e+00	 1.125869393130204e+00
-1.675843071411856e+01	-7.566042558679189e+00	 1.106141275913849e+00
-1.739482681718638e+01	-6.929646455610550e+00	 1.091103124396817e+00
-1.803122292025322e+01	-6.293250352543087e+00	 1.080722365240037e+00
-1.866761902331906e+01	-5.656854249476800e+00	 1.074966439795599e+00
-1.930401512638390e+01	-5.020458146411688e+00	 1.073802804105819e+00
-1.994041122944775e+01	-4.384062043347750e+00	 1.077198928902307e+00
-1.329360748629200e+01	-1.046518036156000e+01	 1.224615321089895e+00
-1.393000358936434e+01	-9.828784258486898e+00	 1.202985175006400e+00
-1.456639969243576e+01	-9.192388155414800e+00	 1.182976232353384e+00
-1.520279579550626e+01	-8.555992052343699e+00	 1.154626184244558e+00
-1.583919189857584e+01	-7.919595949273600e+00	 1.128219999065389e+00
-1.647558800164450e+01	-7.283199846204501e+00	 1.107200895919556e+00
-1.711198410471224e+01	-6.646803743136399e+00	 1.091536285947474e+00
-1.774838020777905e+01	-6.010407640069300e+00	 1.081193594981620e+00
-1.838477631084496e+01	-5.374011537003200e+00	 1.076140263545591e+00
-1.902117241390994e+01	-4.737615433938100e+00	 1.076343746853176e+00
-1.965756851697400e+01	-4.101219330874001e+00	 1.081771514807419e+00
-1.301076477382050e+01	-1.018233764908000e+01	 1.222820790021103e+00
-1.364716087689183e+01	-9.545941546008489e+00	 1.200115141914357e+00
-1.428355697996239e+01	-8.909545442937750e+00	 1.180235057791653e+00
-1.491995308303220e+01	-8.273149339867787e+00	 1.158112071201314e+00
-1.555634918610126e+01	-7.636753236798601e+00	 1.129960552614043e+00
-1.619274528916956e+01	-7.000357133730187e+00	 1.107860641568147e+00
-1.682914139223711e+01	-6.363961030662551e+00	 1.091779748375705e+00
-1.746553749530390e+01	-5.727564927595687e+00	 1.081685298040822e+00
-1.810193359836994e+01	-5.091168824529600e+00	 1.077544730258686e+00
-1.873832970143522e+01	-4.454772721464288e+00	 1.079325499414642e+00
-1.937472580449975e+01	-3.818376618399750e+00	 1.086995074583249e+00
-1.272792206135000e+01	-9.899494936600000e+00	 1.216714801110345e+00
-1.336431816441975e+01	-9.263098833530250e+00	 1.194099168803760e+00
-1.400071426748900e+01	-8.626702730461000e+00	 1.174509566272673e+00
-1.463711037055775e+01	-7.990306627392250e+00	 1.158651177968018e+00
-1.527350647362600e+01	-7.353910524324000e+00	 1.131036578344264e+00
-1.590990257669375e+01	-6.717514421256250e+00	 1.108066037590304e+00
-1.654629867976100e+01	-6.081118318189000e+00	 1.091779036574855e+00
-1.718269478282775e+01	-5.444722215122250e+00	 1.082142999473726e+00
-1.781909088589400e+01	-4.808326112056001e+00	 1.079125365153782e+00
-1.845548698895975e+01	-4.171930008990250e+00	 1.082693587172001e+00
-1.909188309202500e+01	-3.535533905925000e+00	 1.092815133774543e+00
-2.192031021675000e+01	-6.363961030650000e+00	 1.068688208230968e+00
-2.255670631982050e+01	-5.727564927580500e+00	 1.064178894119047e+00
-2.319310242289200e+01	-5.091168824511998e+00	 1.059343050546860e+00
-2.382949852596450e+01	-4.454772721444498e+00	 1.054403633242810e+00
-2.446589462903800e+01	-3.818376618377998e+00	 1.049583583522652e+00
-2.510229073211250e+01	-3.181980515312497e+00	 1.046657373579938e+00
-2.573868683518801e+01	-2.545584412247996e+00	 1.046785563817668e+00
-2.637508293826451e+01	-1.909188309184496e+00	 1.047725812193083e+00
-2.701147904134201e+01	-1.272792206121996e+00	 1.048849607088588e+00
-2.764787514442050e+01	-6.363961030604948e-01	 1.049611803789838e+00
-2.828427124750000e+01	 0.000000000000000e+00	 1.050046920729926e+00
-2.163746750427975e+01	-6.081118318179751e+00	 1.067587253737846e+00
-2.227386360734848e+01	-5.444722215111821e+00	 1.063356375985006e+00
-2.291025971041840e+01	-4.808326112044338e+00	 1.058726726844793e+00
-2.354665581348949e+01	-4.171930008977299e+00	 1.053921260494873e+00
-2.418305191656176e+01	-3.535533905910708e+00	 1.049162916700500e+00
-2.481944801963519e+01	-2.899137802844559e+00	 1.047871024254024e+00
-2.545584412270981e+01	-2.262741699778857e+00	 1.048134739085309e+00
-2.609224022578559e+01	-1.626345596713598e+00	 1.049182693505687e+00
-2.672863632886255e+01	-9.899494936487855e-01	 1.050570234961318e+00
-2.736503243194070e+01	-3.535533905844175e-01	 1.051565323338659e+00
-2.800142853502000e+01	 2.828427124795000e-01	 1.052154174090272e+00
-2.135462479180900e+01	-5.798275605709000e+00	 1.067172702755789e+00
-2.199102089487626e+01	-5.161879502642390e+00	 1.063153154531276e+00
-2.262741699794480e+01	-4.525483399575758e+00	 1.058662593481613e+00
-2.326381310101465e+01	-3.889087296509107e+00	 1.053923972233726e+00
-2.390020920408580e+01	-3.252691193442438e+00	 1.050123990324073e+00
-2.453660530715824e+01	-2.616295090375747e+00	 1.049406535917196e+00
-2.517300141023200e+01	-1.979898987309036e+00	 1.049775040931005e+00
-2.580939751330705e+01	-1.343502884242306e+00	 1.050899966985314e+00
-2.644579361638341e+01	-7.071067811755555e-01	 1.052451775699934e+00
-2.708218971946106e+01	-7.071067810878495e-02	 1.053634265950705e+00
-2.771858582254000e+01	 5.656854249580000e-01	 1.054321946130706e+00
-2.107178207933775e+01	-5.515432893237750e+00	 1.067441249452057e+00
-2.170817818240378e+01	-4.879036790172201e+00	 1.063565924231178e+00
-2.234457428547120e+01	-4.242640687106259e+00	 1.059147345236682e+00
-2.298097038854000e+01	-3.606244584039922e+00	 1.054408463544742e+00
-2.361736649161016e+01	-2.969848480973188e+00	 1.051849849771512e+00
-2.425376259468170e+01	-2.333452377906060e+00	 1.051234269684719e+00
-2.489015869775460e+01	-1.697056274838536e+00	 1.051676830470020e+00
-2.552655480082889e+01	-1.060660171770619e+00	 1.052847993747229e+00
-2.616295090390456e+01	-4.242640687023054e-01	 1.054418221136159e+00
-2.679934700698159e+01	 2.121320343664028e-01	 1.055819417171179e+00
-2.743574311006000e+01	 8.485281374355000e-01	 1.056551022358902e+00
-2.078893936686600e+01	-5.232590180766000e+00	 1.068389587975869e+00
-2.142533546993110e+01	-4.596194077701259e+00	 1.064591379539984e+00
-2.206173157299760e+01	-3.959797974635839e+00	 1.060177676871299e+00
-2.269812767606550e+01	-3.323401871569739e+00	 1.055773327731022e+00
-2.333452377913481e+01	-2.687005768502958e+00	 1.053869026849599e+00
-2.397091988220551e+01	-2.050609665435497e+00	 1.053324586671860e+00
-2.460731598527760e+01	-1.414213562367356e+00	 1.053810468817621e+00
-2.524371208835111e+01	-7.778174592985361e-01	 1.054997134906701e+00
-2.588010819142601e+01	-1.414213562290354e-01	 1.056555046558911e+00
-2.651650429450231e+01	 4.949747468411452e-01	 1.058121562547857e+00
-2.715290039758000e+01	 1.131370849912000e+00	 1.058842188285110e+00
-2.050609665439375e+01	-4.949747468293750e+00	 1.070224590217214e+00
-2.114249275745819e+01	-4.313351365229562e+00	 1.066226214894918e+00
-2.177888886052400e+01	-3.676955262164498e+00	 1.061750283128714e+00
-2.241528496359119e+01	-3.040559159098560e+00	 1.057987959508411e+00
-2.305168106665975e+01	-2.404163056031747e+00	 1.056151882673600e+00
-2.368807716972969e+01	-1.767766952964060e+00	 1.055647847993882e+00
-2.432447327280100e+01	-1.131370849895496e+00	 1.056146317089075e+00
-2.496086937587370e+01	-4.949747468260582e-01	 1.057317751578996e+00
-2.559726547894775e+01	 1.414213562442544e-01	 1.058832613083458e+00
-2.623366158202319e+01	 7.778174593154425e-01	 1.060361363222274e+00
-2.687005768510000e+01	 1.414213562387500e+00	 1.061196229422156e+00
-2.022325394192100e+01	-4.666904755821001e+00	 1.073331794061528e+00
-2.085965004498506e+01	-4.030508652757109e+00	 1.068467124715165e+00
-2.149604614805040e+01	-3.394112549692239e+00	 1.063899714743920e+00
-2.213244225111706e+01	-2.757716446626388e+00	 1.060467365558010e+00
-2.276883835418500e+01	-2.121320343559558e+00	 1.058668778358780e+00
-2.340523445725426e+01	-1.484924240491748e+00	 1.058174414766052e+00
-2.404163056032481e+01	-8.485281374229567e-01	 1.058654736399647e+00
-2.467802666339665e+01	-2.121320343531861e-01	 1.059780204879381e+00
-2.531442276646981e+01	 4.242640687175644e-01	 1.061221281825070e+00
-2.595081886954425e+01	 1.060660171789295e+00	 1.062648428856524e+00
-2.658721497262000e+01	 1.697056274862000e+00	 1.063613931285436e+00
-1.994041122944775e+01	-4.384062043347750e+00	 1.077198928902307e+00
-2.057680733251169e+01	-3.747665940283901e+00	 1.071344998098796e+00
-2.121320343557680e+01	-3.111269837219059e+00	 1.066579682407858e+00
-2.184959953864309e+01	-2.474873734153221e+00	 1.063181906995083e+00
-2.248599564171056e+01	-1.838477631086388e+00	 1.061390075020401e+00
-2.312239174477919e+01	-1.202081528018560e+00	 1.060874648103635e+00
-2.375878784784901e+01	-5.656854249497369e-01	 1.061306087864604e+00
-2.439518395091999e+01	 7.071067812008142e-02	 1.062354855923126e+00
-2.503158005399215e+01	 7.071067811908943e-01	 1.063691413899014e+00
-2.566797615706550e+01	 1.343502884262702e+00	 1.064986223412081e+00
-2.630437226014000e+01	 1.979898987335500e+00	 1.065909746082136e+00
-1.965756851697400e+01	-4.101219330874001e+00	 1.081771514807419e+00
-2.029396462003810e+01	-3.464823227809939e+00	 1.075673829562320e+00
-2.093036072310321e+01	-2.828427124744960e+00	 1.069495880985566e+00
-2.156675682616930e+01	-2.192031021679059e+00	 1.066101944934891e+00
-2.220315292923640e+01	-1.555634918612238e+00	 1.064286133773727e+00
-2.283954903230450e+01	-9.192388155444974e-01	 1.063718909121896e+00
-2.347594513537361e+01	-2.828427124758370e-01	 1.064070732599214e+00
-2.411234123844370e+01	 3.535533905937436e-01	 1.065012065825498e+00
-2.474873734151481e+01	 9.899494936642441e-01	 1.066213370420561e+00
-2.538513344458691e+01	 1.626345596735665e+00	 1.067345108004215e+00
-2.602152954766001e+01	 2.262741699808000e+00	 1.068077740196268e+00
-1.937472580449975e+01	-3.818376618399750e+00	 1.086995074583249e+00
-2.001112190756429e+01	-3.181980515335222e+00	 1.079738900245190e+00
-2.064751801062960e+01	-2.545584412269938e+00	 1.072618671592304e+00
-2.128391411369569e+01	-1.909188309203901e+00	 1.069197840492698e+00
-2.192031021676255e+01	-1.272792206137108e+00	 1.067327315734024e+00
-2.255670631983019e+01	-6.363961030695598e-01	 1.066677558936101e+00
-2.319310242289861e+01	-1.256994508480602e-12	 1.066919031718744e+00
-2.382949852596779e+01	 6.363961030678011e-01	 1.067722195701767e+00
-2.446589462903775e+01	 1.272792206137614e+00	 1.068757512504981e+00
-2.510229073210849e+01	 1.909188309208182e+00	 1.069695443748196e+00
-2.573868683518000e+01	 2.545584412279500e+00	 1.070206451051221e+00
-1.909188309202500e+01	-3.535533905925000e+00	 1.092815133774543e+00
-1.972827919509025e+01	-2.899137802859750e+00	 1.083958246638758e+00
-2.036467529815600e+01	-2.262741699793999e+00	 1.076689307175283e+00
-2.100107140122225e+01	-1.626345596727748e+00	 1.072439954783765e+00
-2.163746750428900e+01	-9.899494936609976e-01	 1.070483982016555e+00
-2.227386360735625e+01	-3.535533905937474e-01	 1.069720958661516e+00
-2.291025971042400e+01	 2.828427124740034e-01	 1.069821346338462e+00
-2.354665581349226e+01	 9.192388155422541e-01	 1.070455606667201e+00
-2.418305191656101e+01	 1.555634918611004e+00	 1.071294201267543e+00
-2.481944801963025e+01	 2.192031021680255e+00	 1.072007591759296e+00
-2.545584412270000e+01	 2.828427124750000e+00	 1.072266239762263e+00
-1.272792206135000e+01	-9.899494936600000e+00	 1.216714801110345e+00
-1.336431816441975e+01	-9.263098833530250e+00	 1.194099168803760e+00
-1.400071426748900e+01	-8.626702730461000e+00	 1.174509566272673e+00
-1.463711037055775e+01	-7.990306627392250e+00	 1.158651177968018e+00
-1.527350647362600e+01	-7.353910524324000e+00	 1.131036578344264e+00
-1.590990257669375e+01	-6.717514421256250e+00	 1.108066037590304e+00
-1.654629867976100e+01	-6.081118318189000e+00	 1.091779036574855e+00
-1.718269478282775e+01	-5.444722215122250e+00	 1.082142999473726e+00
-1.781909088589400e+01	-4.808326112056001e+00	 1.079125365153782e+00
-1.845548698895975e+01	-4.171930008990250e+00	 1.082693587172001e+00
-1.909188309202500e+01	-3.535533905925000e+00	 1.092815133774543e+00
-1.244507934887950e+01	-9.616652224120999e+00	 1.237867297362959e+00
-1.308147545194768e+01	-8.980256121052815e+00	 1.211949210419391e+00
-1.371787155501561e+01	-8.343860017984872e+00	 1.189514288603705e+00
-1.435426765808330e+01	-7.707463914917158e+00	 1.171267740257669e+00
-1.499066376115074e+01	-7.071067811849678e+00	 1.149062807708992e+00
-1.562705986421794e+01	-6.434671708782437e+00	 1.122904389404865e+00
-1.626345596728489e+01	-5.798275605715430e+00	 1.104350694270506e+00
-1.689985207035160e+01	-5.161879502648657e+00	 1.093369145653557e+00
-1.753624817341806e+01	-4.525483399582120e+00	 1.089927181592666e+00
-1.817264427648427e+01	-3.889087296515818e+00	 1.093992254816557e+00
-1.880904037955025e+01	-3.252691193449750e+00	 1.104077072872322e+00
-1.216223663640800e+01	-9.333809511643999e+00	 1.258237022340059e+00
-1.279863273947516e+01	-8.697413408576820e+00	 1.228832512216953e+00
-1.343502884254224e+01	-8.061017305509679e+00	 1.203368307794379e+00
-1.407142494560924e+01	-7.424621202442578e+00	 1.182549641304398e+00
-1.470782104867616e+01	-6.788225099375517e+00	 1.167017066713466e+00
-1.534421715174300e+01	-6.151828996308500e+00	 1.137535372430077e+00
-1.598061325480976e+01	-5.515432893241520e+00	 1.116579581953221e+00
-1.661700935787644e+01	-4.879036790174579e+00	 1.104117117802457e+00
-1.725340546094304e+01	-4.242640687107680e+00	 1.100115417188310e+00
-1.788980156400956e+01	-3.606244584040820e+00	 1.104541932011345e+00
-1.852619766707600e+01	-2.969848480974000e+00	 1.113468902555645e+00
-1.187939392393550e+01	-9.050966799169000e+00	 1.278044461378269e+00
-1.251579002700220e+01	-8.414570696102254e+00	 1.244969554814532e+00
-1.315218613006889e+01	-7.778174593035430e+00	 1.216292099744204e+00
-1.378858223313558e+01	-7.141778489968516e+00	 1.192717352289105e+00
-1.442497833620226e+01	-6.505382386901519e+00	 1.174950478453693e+00
-1.506137443926894e+01	-5.868986283834436e+00	 1.151904519611261e+00
-1.569777054233561e+01	-5.232590180767269e+00	 1.128411232730892e+00
-1.633416664540227e+01	-4.596194077700017e+00	 1.114332449190971e+00
-1.697056274846894e+01	-3.959797974632680e+00	 1.109635605373996e+00
-1.760695885153560e+01	-3.323401871565257e+00	 1.112740758600243e+00
-1.824335495460225e+01	-2.687005768497749e+00	 1.121524431075607e+00
-1.159655121146200e+01	-8.768124086695998e+00	 1.297510097141479e+00
-1.223294731452879e+01	-8.131727983629130e+00	 1.260580816157590e+00
-1.286934341759556e+01	-7.495331880562119e+00	 1.228506137680185e+00
-1.350573952066230e+01	-6.858935777494967e+00	 1.201991341720303e+00
-1.414213562372904e+01	-6.222539674427679e+00	 1.181741618170435e+00
-1.477853172679575e+01	-5.586143571360249e+00	 1.165957366631651e+00
-1.541492782986244e+01	-4.949747468292679e+00	 1.139791182449300e+00
-1.605132393292911e+01	-4.313351365224970e+00	 1.123960675827507e+00
-1.668772003599576e+01	-3.676955262157120e+00	 1.118433282320833e+00
-1.732411613906239e+01	-3.040559159089130e+00	 1.117801458117490e+00
-1.796051224212900e+01	-2.404163056020999e+00	 1.128189922368450e+00
-1.131370849898750e+01	-8.485281374224998e+00	 1.316854409621121e+00
-1.195010460205494e+01	-7.848885271157434e+00	 1.275886771519257e+00
-1.258650070512225e+01	-7.212489168089749e+00	 1.240230892157111e+00
-1.322289680818944e+01	-6.576093065021936e+00	 1.210592075434412e+00
-1.385929291125650e+01	-5.939696961954000e+00	 1.187675535131143e+00
-1.449568901432344e+01	-5.303300858885936e+00	 1.172186394920087e+00
-1.513208511739025e+01	-4.666904755817749e+00	 1.150664969691972e+00
-1.576848122045694e+01	-4.030508652749438e+00	 1.132947336458191e+00
-1.640487732352350e+01	-3.394112549680999e+00	 1.125473246330439e+00
-1.704127342658994e+01	-2.757716446612437e+00	 1.121502617788302e+00
-1.767766952965625e+01	-2.121320343543749e+00	 1.133411641177920e+00
-1.103086578651200e+01	-8.202438661755998e+00	 1.336297876136459e+00
-1.166726188958064e+01	-7.566042558687180e+00	 1.291107893500609e+00
-1.230365799264896e+01	-6.929646455618316e+00	 1.251686831057839e+00
-1.294005409571696e+01	-6.293250352549419e+00	 1.218740016596032e+00
-1.357645019878464e+01	-5.656854249480479e+00	 1.192972687782135e+00
-1.421284630185200e+01	-5.020458146411499e+00	 1.175089992174695e+00
-1.484924240491904e+01	-4.384062043342480e+00	 1.160978135780028e+00
-1.548563850798576e+01	-3.747665940273419e+00	 1.141237972566712e+00
-1.612203461105216e+01	-3.111269837204319e+00	 1.127244725732722e+00
-1.675843071411824e+01	-2.474873734135179e+00	 1.123790504312110e+00
-1.739482681718400e+01	-1.838477631065998e+00	 1.137135853055254e+00
-1.074802307403550e+01	-7.919595949288997e+00	 1.356060971334871e+00
-1.138441917710590e+01	-7.283199846218354e+00	 1.306464652030956e+00
-1.202081528017569e+01	-6.646803743147827e+00	 1.263094419593575e+00
-1.265721138324488e+01	-6.010407640077416e+00	 1.226655625698238e+00
-1.329360748631346e+01	-5.374011537007118e+00	 1.197853531898317e+00
-1.393000358938144e+01	-4.737615433936936e+00	 1.177393309637595e+00
-1.456639969244881e+01	-4.101219330866869e+00	 1.165980040262801e+00
-1.520279579551558e+01	-3.464823227796916e+00	 1.148778128374188e+00
-1.583919189858174e+01	-2.828427124727079e+00	 1.127633434787967e+00
-1.647558800164730e+01	-2.192031021657356e+00	 1.124611385195786e+00
-1.711198410471225e+01	-1.555634918587748e+00	 1.139308824359158e+00
-1.046518036155800e+01	-7.636753236823998e+00	 1.376364167192131e+00
-1.110157646463071e+01	-7.000357133750968e+00	 1.322177514368125e+00
-1.173797256770244e+01	-6.363961030678277e+00	 1.274674120304166e+00
-1.237436867077319e+01	-5.727564927605928e+00	 1.234559360562855e+00
-1.301076477384296e+01	-5.091168824533916e+00	 1.202538520583468e+00
-1.364716087691175e+01	-4.454772721462248e+00	 1.179316795694487e+00
-1.428355697997956e+01	-3.818376618390917e+00	 1.165599291126149e+00
-1.491995308304639e+01	-3.181980515319928e+00	 1.148709120377763e+00
-1.555634918611224e+01	-2.545584412249279e+00	 1.126585642958565e+00
-1.619274528917711e+01	-1.909188309178969e+00	 1.123911528753621e+00
-1.682914139224100e+01	-1.272792206108998e+00	 1.139876822255789e+00
-1.018233764907950e+01	-7.353910524360998e+00	 1.397427933012700e+00
-1.081873375215508e+01	-6.717514421285016e+00	 1.338466945098744e+00
-1.145512985522921e+01	-6.081118318209668e+00	 1.286646393058372e+00
-1.209152595830189e+01	-5.444722215134954e+00	 1.242671676340750e+00
-1.272792206137314e+01	-4.808326112060878e+00	 1.207248104270524e+00
-1.336431816444294e+01	-4.171930008987436e+00	 1.181080896060348e+00
-1.400071426751129e+01	-3.535533905914628e+00	 1.164875180823432e+00
-1.463711037057820e+01	-2.899137802842456e+00	 1.144762612173275e+00
-1.527350647364366e+01	-2.262741699770918e+00	 1.124047620514281e+00
-1.590990257670767e+01	-1.626345596700016e+00	 1.121637204107306e+00
-1.654629867977025e+01	-9.899494936297477e-01	 1.138786114718734e+00
-9.899494936600000e+00	-7.071067811900000e+00	 1.419472735430001e+00
-1.053589103967900e+01	-6.434671708820501e+00	 1.355553406138526e+00
-1.117228714275600e+01	-5.798275605742001e+00	 1.299231695054161e+00
-1.180868324583100e+01	-5.161879502664499e+00	 1.251213025512112e+00
-1.244507934890400e+01	-4.525483399588000e+00	 1.212202730721861e+00
-1.308147545197500e+01	-3.889087296512500e+00	 1.182906053779710e+00
-1.371787155504400e+01	-3.252691193438000e+00	 1.157696339818698e+00
-1.435426765811100e+01	-2.616295090364500e+00	 1.133320103214540e+00
-1.499066376117600e+01	-1.979898987292001e+00	 1.119965638532229e+00
-1.562705986423900e+01	-1.343502884220501e+00	 1.117734681185917e+00
-1.626345596730000e+01	-7.071067811500000e-01	 1.135982970528995e+00
-1.909188309202500e+01	-3.535533905925000e+00	 1.092815133774543e+00
-1.972827919509025e+01	-2.899137802859750e+00	 1.083958246638758e+00
-2.036467529815600e+01	-2.262741699793999e+00	 1.076689307175283e+00
-2.100107140122225e+01	-1.626345596727748e+00	 1.072439954783765e+00
-2.163746750428900e+01	-9.899494936609976e-01	 1.070483982016555e+00
-2.227386360735625e+01	-3.535533905937474e-01	 1.069720958661516e+00
-2.291025971042400e+01	 2.828427124740034e-01	 1.069821346338462e+00
-2.354665581349226e+01	 9.192388155422541e-01	 1.070455606667201e+00
-2.418305191656101e+01	 1.555634918611004e+00	 1.071294201267543e+00
-2.481944801963025e+01	 2.192031021680255e+00	 1.072007591759296e+00
-2.545584412270000e+01	 2.828427124750000e+00	 1.072266239762263e+00
-1.880904037955025e+01	-3.252691193449750e+00	 1.104077072872322e+00
-1.944543648261622e+01	-2.616295090383691e+00	 1.093832871303562e+00
-2.008183258568245e+01	-1.979898987317418e+00	 1.085824786234066e+00
-2.071822868874890e+01	-1.343502884250930e+00	 1.079766474979673e+00
-2.135462479181561e+01	-7.071067811842275e-01	 1.076994294277060e+00
-2.199102089488257e+01	-7.071067811730962e-02	 1.075435029350550e+00
-2.262741699794977e+01	 5.656854249498235e-01	 1.074759141819957e+00
-2.326381310101721e+01	 1.202081528017172e+00	 1.074637093305093e+00
-2.390020920408489e+01	 1.838477631084735e+00	 1.074739345425767e+00
-2.453660530715283e+01	 2.474873734152513e+00	 1.074736359801788e+00
-2.517300141022100e+01	 3.111269837220500e+00	 1.074298598052964e+00
-1.852619766707600e+01	-2.969848480974000e+00	 1.113468902555645e+00
-1.916259377014244e+01	-2.333452377907219e+00	 1.102577264295676e+00
-1.979898987320896e+01	-1.697056274840478e+00	 1.093982366599396e+00
-2.043538597627557e+01	-1.060660171773778e+00	 1.086874124232726e+00
-2.107178207934224e+01	-4.242640687071171e-01	 1.082794540635113e+00
-2.170817818240901e+01	 2.121320343595033e-01	 1.080559722004769e+00
-2.234457428547584e+01	 8.485281374260839e-01	 1.079228247134274e+00
-2.298097038854277e+01	 1.484924240492624e+00	 1.078470577643440e+00
-2.361736649160976e+01	 2.121320343559125e+00	 1.077957175152083e+00
-2.425376259467685e+01	 2.757716446625586e+00	 1.077358501280009e+00
-2.489015869774400e+01	 3.394112549692001e+00	 1.076345017647031e+00
-1.824335495460225e+01	-2.687005768497749e+00	 1.121524431075607e+00
-1.887975105766890e+01	-2.050609665430331e+00	 1.110137687595490e+00
-1.951614716073556e+01	-1.414213562363178e+00	 1.101108309103300e+00
-2.015254326380223e+01	-7.778174592962902e-01	 1.093626216177964e+00
-2.078893936686889e+01	-1.414213562296671e-01	 1.087855082205982e+00
-2.142533546993556e+01	 4.949747468366910e-01	 1.085065397739438e+00
-2.206173157300224e+01	 1.131370849902784e+00	 1.083199023396676e+00
-2.269812767606893e+01	 1.767766952968613e+00	 1.081926420797511e+00
-2.333452377913561e+01	 2.404163056034175e+00	 1.080918051561757e+00
-2.397091988220231e+01	 3.040559159099473e+00	 1.079844377309228e+00
-2.460731598526900e+01	 3.676955262164501e+00	 1.077330875221474e+00
-1.796051224212900e+01	-2.404163056020999e+00	 1.128189922368450e+00
-1.859690834519561e+01	-1.767766952953029e+00	 1.116460403990949e+00
-1.923330444826224e+01	-1.131370849885518e+00	 1.107148875385397e+00
-1.986970055132889e+01	-4.949747468184673e-01	 1.099445262943682e+00
-2.050609665439556e+01	 1.414213562481229e-01	 1.092539461435589e+00
-2.114249275746225e+01	 7.778174593142541e-01	 1.088922417669824e+00
-2.177888886052897e+01	 1.414213562379924e+00	 1.086641831722430e+00
-2.241528496359570e+01	 2.050609665445135e+00	 1.084974983882569e+00
-2.305168106666245e+01	 2.687005768509886e+00	 1.083592335770057e+00
-2.368807716972921e+01	 3.323401871574176e+00	 1.082164349004711e+00
-2.432447327279600e+01	 3.959797974638001e+00	 1.078135237996628e+00
-1.767766952965625e+01	-2.121320343543749e+00	 1.133411641177920e+00
-1.831406563272256e+01	-1.484924240475311e+00	 1.121491677077538e+00
-1.895046173578900e+01	-8.485281374074976e-01	 1.112050327892877e+00
-1.958685783885556e+01	-2.121320343403097e-01	 1.104277525828744e+00
-2.022325394192225e+01	 4.242640687262535e-01	 1.097363171468280e+00
-2.085965004498906e+01	 1.060660171792192e+00	 1.092101142911194e+00
-2.149604614805600e+01	 1.697056274857505e+00	 1.089527033226802e+00
-2.213244225112307e+01	 2.333452377922193e+00	 1.087586628013880e+00
-2.276883835419025e+01	 2.969848480986256e+00	 1.085950388892250e+00
-2.340523445725757e+01	 3.606244584049694e+00	 1.083621527223165e+00
-2.404163056032500e+01	 4.242640687112501e+00	 1.079013389830070e+00
-1.739482681718400e+01	-1.838477631065998e+00	 1.137135853055254e+00
-1.803122292024976e+01	-1.202081527997178e+00	 1.125177771258266e+00
-1.866761902331584e+01	-5.656854249291170e-01	 1.115758929880482e+00
-1.930401512638224e+01	 7.071067813818320e-02	 1.108069266939593e+00
-1.994041122944896e+01	 7.071067812047238e-01	 1.101298688832054e+00
-2.057680733251600e+01	 1.343502884270504e+00	 1.094637070331173e+00
-2.121320343558336e+01	 1.979898987335525e+00	 1.091824989025060e+00
-2.184959953865105e+01	 2.616295090399785e+00	 1.089731714306714e+00
-2.248599564171904e+01	 3.252691193463286e+00	 1.087962572043602e+00
-2.312239174478736e+01	 3.889087296526026e+00	 1.084470259167173e+00
-2.375878784785600e+01	 4.525483399588001e+00	 1.079963077548007e+00
-1.711198410471225e+01	-1.555634918587748e+00	 1.139308824359158e+00
-1.774838020777720e+01	-9.192388155186300e-01	 1.127464951743639e+00
-1.838477631084276e+01	-2.828427124503768e-01	 1.118220945410490e+00
-1.902117241390892e+01	 3.535533906170111e-01	 1.110766749190240e+00
-1.965756851697569e+01	 9.899494936835340e-01	 1.104292275292623e+00
-2.029396462004307e+01	 1.626345596749192e+00	 1.097987404304656e+00
-2.093036072311104e+01	 2.262741699813985e+00	 1.093506060232470e+00
-2.156675682617963e+01	 2.899137802877914e+00	 1.091380603876336e+00
-2.220315292924881e+01	 3.535533905940976e+00	 1.089291315196311e+00
-2.283954903231861e+01	 4.171930009003175e+00	 1.085272569278917e+00
-2.347594513538900e+01	 4.808326112064502e+00	 1.080982047777136e+00
-1.682914139224100e+01	-1.272792206108998e+00	 1.139876822255789e+00
-1.746553749530489e+01	-6.363961030396673e-01	 1.128299484551649e+00
-1.810193359836976e+01	 2.872324600389220e-11	 1.119382639352692e+00
-1.873832970143561e+01	 6.363961030961738e-01	 1.112316236302248e+00
-1.937472580450244e+01	 1.272792206162684e+00	 1.106290193423281e+00
-2.001112190757025e+01	 1.909188309228255e+00	 1.100494397116480e+00
-2.064751801063904e+01	 2.545584412292886e+00	 1.094540607964300e+00
-2.128391411370881e+01	 3.181980515356576e+00	 1.092503657838014e+00
-2.192031021677957e+01	 3.818376618419327e+00	 1.089686350676057e+00
-2.255670631985129e+01	 4.454772721481136e+00	 1.086026203717540e+00
-2.319310242292400e+01	 5.091168824542002e+00	 1.082068046944637e+00
-1.654629867977025e+01	-9.899494936297477e-01	 1.138786114718734e+00
-1.718269478283282e+01	-3.535533905602898e-01	 1.127627636507752e+00
-1.781909088589684e+01	 2.828427125081834e-01	 1.119190277384380e+00
-1.845548698896230e+01	 9.192388155756714e-01	 1.112663992804702e+00
-1.909188309202921e+01	 1.555634918642174e+00	 1.107238706604880e+00
-1.972827919509757e+01	 2.192031021707693e+00	 1.102104310999230e+00
-2.036467529816736e+01	 2.828427124772225e+00	 1.096450666578299e+00
-2.100107140123860e+01	 3.464823227835774e+00	 1.093030121346783e+00
-2.163746750431129e+01	 4.101219330898338e+00	 1.089914752301712e+00
-2.227386360738543e+01	 4.737615433959915e+00	 1.086728908442654e+00
-2.291025971046100e+01	 5.374011537020502e+00	 1.083218821278149e+00
-1.626345596730000e+01	-7.071067811500000e-01	 1.135982970528995e+00
-1.689985207036100e+01	-7.071067808049947e-02	 1.125395675244851e+00
-1.753624817342401e+01	 5.656854249880012e-01	 1.117590125990319e+00
-1.817264427648900e+01	 1.202081528055502e+00	 1.111756284034203e+00
-1.880904037955600e+01	 1.838477631122002e+00	 1.107084079025817e+00
-1.944543648262501e+01	 2.474873734187503e+00	 1.102763408993066e+00
-2.008183258569601e+01	 3.111269837252004e+00	 1.097984140340519e+00
-2.071822868876900e+01	 3.747665940315504e+00	 1.092473395705783e+00
-2.135462479184401e+01	 4.384062043378004e+00	 1.089974265565335e+00
-2.199102089492100e+01	 5.020458146439505e+00	 1.087378429214320e+00
-2.262741699800000e+01	 5.656854249500000e+00	 1.084432116805768e+00
-7.071067811900000e+00	-7.071067811900000e+00	 1.203078214720412e+00
-7.071067811900001e+00	-7.071067811900001e+00	 1.203078214720412e+00
-7.071067811900001e+00	-7.071067811900001e+00	 1.203078214720412e+00
-7.071067811900000e+00	-7.071067811900000e+00	 1.203078214720411e+00
-7.071067811899999e+00	-7.071067811899999e+00	 1.203078214720412e+00
-7.071067811900000e+00	-7.071067811900000e+00	 1.203078214720412e+00
-7.071067811900000e+00	-7.071067811900000e+00	 1.203078214720412e+00
-7.071067811900000e+00	-7.071067811900000e+00	 1.203078214720412e+00
-7.071067811900000e+00	-7.071067811900000e+00	 1.203078214720412e+00
-7.071067811900000e+00	-7.071067811900000e+00	 1.203078214720413e+00
-7.071067811900000e+00	-7.071067811900000e+00	 1.203078214720412e+00
-7.074603345806000e+00	-7.074603345806000e+00	 3.542888006165256e+01
-7.074249792415401e+00	-7.074956899196505e+00	 3.338688580260396e+01
-7.073896239024798e+00	-7.075310452587019e+00	 3.139831611198626e+01
-7.073542685634201e+00	-7.075664005977545e+00	 2.946317098978447e+01
-7.073189132243600e+00	-7.076017559368080e+00	 2.758145043599572e+01
-7.072835578853000e+00	-7.076371112758626e+00	 2.575315445061170e+01
-7.072482025462401e+00	-7.076724666149181e+00	 2.397828303362684e+01
-7.072128472071801e+00	-7.077078219539746e+00	 2.225683618503056e+01
-7.071774918681198e+00	-7.077431772930320e+00	 2.058881390483294e+01
-7.071421365290600e+00	-7.077785326320905e+00	 1.897421619300348e+01
-7.071067811900000e+00	-7.078138879711500e+00	 1.741304304956205e+01
-7.085209947524000e+00	-7.085209947524000e+00	 1.776309407163858e+01
-7.083795733961600e+00	-7.086624161086021e+00	 1.674721454665351e+01
-7.082381520399200e+00	-7.088038374648080e+00	 1.575798398143789e+01
-7.080967306836799e+00	-7.089452588210178e+00	 1.479540237600438e+01
-7.079553093274400e+00	-7.090866801772320e+00	 1.385946973036604e+01
-7.078138879711998e+00	-7.092281015334499e+00	 1.295018604453655e+01
-7.076724666149599e+00	-7.093695228896719e+00	 1.206755131852956e+01
-7.075310452587200e+00	-7.095109442458979e+00	 1.121156555235880e+01
-7.073896239024801e+00	-7.096523656021281e+00	 1.038222874603828e+01
-7.072482025462401e+00	-7.097937869583620e+00	 9.579540899583128e+00
-7.071067811900000e+00	-7.099352083146000e+00	 8.803502013006913e+00
-7.102887617053999e+00	-7.102887617053999e+00	 1.189152596695382e+01
-7.099705636538601e+00	-7.106069597568546e+00	 1.121395305611797e+01
-7.096523656023201e+00	-7.109251578083180e+00	 1.055422986674151e+01
-7.093341675507799e+00	-7.112433558597904e+00	 9.912356399015428e+00
-7.090159694992400e+00	-7.115615539112721e+00	 9.288332653130134e+00
-7.086977714477000e+00	-7.118797519627625e+00	 8.682158629276504e+00
-7.083795733961600e+00	-7.121979500142620e+00	 8.093834327645737e+00
-7.080613753446200e+00	-7.125161480657705e+00	 7.523359748428875e+00
-7.077431772930801e+00	-7.128343461172881e+00	 6.970734891817317e+00
-7.074249792415400e+00	-7.131525441688146e+00	 6.435959758002371e+00
-7.071067811899999e+00	-7.134707422203499e+00	 5.919034347175804e+00
-7.127636354396000e+00	-7.127636354396000e+00	 8.958122755902924e+00
-7.121979500146401e+00	-7.133293208644081e+00	 8.448976219980052e+00
-7.116322645896799e+00	-7.138950062892319e+00	 7.953303266050179e+00
-7.110665791647200e+00	-7.144606917140720e+00	 7.471103895196809e+00
-7.105008937397599e+00	-7.150263771389279e+00	 7.002378108503666e+00
-7.099352083148000e+00	-7.155920625638000e+00	 6.547125907054586e+00
-7.093695228898400e+00	-7.161577479886881e+00	 6.105347291933501e+00
-7.088038374648800e+00	-7.167234334135919e+00	 5.677042264224410e+00
-7.082381520399200e+00	-7.172891188385120e+00	 5.262210825011560e+00
-7.076724666149601e+00	-7.178548042634481e+00	 4.860852975379190e+00
-7.071067811900000e+00	-7.184204896884000e+00	 4.472968716411700e+00
-7.159456159549999e+00	-7.159456159549999e+00	 7.198126919009161e+00
-7.150617324785002e+00	-7.168294994312627e+00	 6.789779200118911e+00
-7.141778490019999e+00	-7.177133829075499e+00	 6.392286659971019e+00
-7.132939655255000e+00	-7.185972663838625e+00	 6.005649302705047e+00
-7.124100820490000e+00	-7.194811498602000e+00	 5.629867132460644e+00
-7.115261985725001e+00	-7.203650333365625e+00	 5.264940153377569e+00
-7.106423150960000e+00	-7.212489168129499e+00	 4.910868369595654e+00
-7.097584316194999e+00	-7.221328002893625e+00	 4.567651785254876e+00
-7.088745481430000e+00	-7.230166837658000e+00	 4.235290404495226e+00
-7.079906646665001e+00	-7.239005672422626e+00	 3.913784231456920e+00
-7.071067811900000e+00	-7.247844507187500e+00	 3.603133270280097e+00
-7.198347032516000e+00	-7.198347032516000e+00	 6.024190449430558e+00
-7.185619110454399e+00	-7.211074954574179e+00	 5.682913089072609e+00
-7.172891188392800e+00	-7.223802876632719e+00	 5.350747998189527e+00
-7.160163266331200e+00	-7.236530798691621e+00	 5.027695189145469e+00
-7.147435344269599e+00	-7.249258720750880e+00	 4.713754674304605e+00
-7.134707422208000e+00	-7.261986642810499e+00	 4.408926466031211e+00
-7.121979500146399e+00	-7.274714564870480e+00	 4.113210576689713e+00
-7.109251578084801e+00	-7.287442486930821e+00	 3.826607018644602e+00
-7.096523656023201e+00	-7.300170408991521e+00	 3.549115804260429e+00
-7.083795733961601e+00	-7.312898331052581e+00	 3.280736945901898e+00
-7.071067811899999e+00	-7.325626253114000e+00	 3.021470455933802e+00
-7.244308973294000e+00	-7.244308973294000e+00	 5.184822286203159e+00
-7.226984857154600e+00	-7.261633089428745e+00	 4.891369646851997e+00
-7.209660741015200e+00	-7.278957205563979e+00	 4.605785201883405e+00
-7.192336624875800e+00	-7.296281321699705e+00	 4.328068982477274e+00
-7.175012508736400e+00	-7.313605437835919e+00	 4.058221019813643e+00
-7.157688392597000e+00	-7.330929553972624e+00	 3.796241345072659e+00
-7.140364276457599e+00	-7.348253670109818e+00	 3.542129989434624e+00
-7.123040160318200e+00	-7.365577786247505e+00	 3.295886984079949e+00
-7.105716044178798e+00	-7.382901902385678e+00	 3.057512360189226e+00
-7.088391928039401e+00	-7.400226018524346e+00	 2.827006148943135e+00
-7.071067811900000e+00	-7.417550134663500e+00	 2.604368381522511e+00
-7.297341981884001e+00	-7.297341981884001e+00	 4.554359955558438e+00
-7.274714564885600e+00	-7.319969398876320e+00	 4.296712871792661e+00
-7.252087147887199e+00	-7.342596815869278e+00	 4.046000809435762e+00
-7.229459730888800e+00	-7.365224232862881e+00	 3.802223837963995e+00
-7.206832313890400e+00	-7.387851649857121e+00	 3.565382026853870e+00
-7.184204896891999e+00	-7.410479066851998e+00	 3.335475445582163e+00
-7.161577479893598e+00	-7.433106483847518e+00	 3.112504163625883e+00
-7.138950062895198e+00	-7.455733900843678e+00	 2.896468250462331e+00
-7.116322645896799e+00	-7.478361317840478e+00	 2.687367775569037e+00
-7.093695228898400e+00	-7.500988734837920e+00	 2.485202808423815e+00
-7.071067811900001e+00	-7.523616151836001e+00	 2.289973418504710e+00
-7.357446058286000e+00	-7.357446058286000e+00	 4.063031308805528e+00
-7.328808233647398e+00	-7.386083882916903e+00	 3.833179339508862e+00
-7.300170409008800e+00	-7.414721707548620e+00	 3.609535796228965e+00
-7.271532584370201e+00	-7.443359532181146e+00	 3.392100819815415e+00
-7.242894759731599e+00	-7.471997356814479e+00	 3.180874551118361e+00
-7.214256935093000e+00	-7.500635181448625e+00	 2.975857130988508e+00
-7.185619110454399e+00	-7.529273006083580e+00	 2.777048700277122e+00
-7.156981285815798e+00	-7.557910830719343e+00	 2.584449399836028e+00
-7.128343461177200e+00	-7.586548655355919e+00	 2.398059370517626e+00
-7.099705636538600e+00	-7.615186479993304e+00	 2.217878753174872e+00
-7.071067811899999e+00	-7.643824304631499e+00	 2.043907688661273e+00
-7.424621202500000e+00	-7.424621202500000e+00	 3.668998556288997e+00
-7.389265863440000e+00	-7.459976541550501e+00	 3.461333693278868e+00
-7.353910524380000e+00	-7.495331880602000e+00	 3.259294606171439e+00
-7.318555185319999e+00	-7.530687219654500e+00	 3.062881560001268e+00
-7.283199846260000e+00	-7.566042558707999e+00	 2.872094819804129e+00
-7.247844507200000e+00	-7.601397897762499e+00	 2.686934650617037e+00
-7.212489168139999e+00	-7.636753236818000e+00	 2.507401317478239e+00
-7.177133829080000e+00	-7.672108575874500e+00	 2.333495085427217e+00
-7.141778490020000e+00	-7.707463914931999e+00	 2.165216219504677e+00
-7.106423150960000e+00	-7.742819253990500e+00	 2.002564984752575e+00
-7.071067811900000e+00	-7.778174593050000e+00	 1.845541646214073e+00
-7.424621202500000e+00	-7.424621202500000e+00	 3.668998556288997e+00
-7.389265863440000e+00	-7.459976541550501e+00	 3.461333693278868e+00
-7.353910524380000e+00	-7.495331880602000e+00	 3.259294606171439e+00
-7.318555185319999e+00	-7.530687219654500e+00	 3.062881560001268e+00
-7.283199846260000e+00	-7.566042558707999e+00	 2.872094819804129e+00
-7.247844507200000e+00	-7.601397897762499e+00	 2.686934650617037e+00
-7.212489168139999e+00	-7.636753236818000e+00	 2.507401317478239e+00
-7.177133829080000e+00	-7.672108575874500e+00	 2.333495085427217e+00
-7.141778490020000e+00	-7.707463914931999e+00	 2.165216219504677e+00
-7.106423150960000e+00	-7.742819253990500e+00	 2.002564984752575e+00
-7.071067811900000e+00	-7.778174593050000e+00	 1.845541646214073e+00
-7.498867414525000e+00	-7.498867414525000e+00	 3.360834126297420e+00
-7.456087454262590e+00	-7.541647374776486e+00	 3.173169690696191e+00
-7.413307494000161e+00	-7.584427335029143e+00	 2.991392132187863e+00
-7.370527533737711e+00	-7.627207295282966e+00	 2.815501920298059e+00
-7.327747573475239e+00	-7.669987255537959e+00	 2.645499524554997e+00
-7.284967613212749e+00	-7.712767215794124e+00	 2.481385414489513e+00
-7.242187652950240e+00	-7.755547176051460e+00	 2.323160059635057e+00
-7.199407692687710e+00	-7.798327136309966e+00	 2.170823929527685e+00
-7.156627732425161e+00	-7.841107096569642e+00	 2.024377493706068e+00
-7.113847772162590e+00	-7.883887056830486e+00	 1.883821221711491e+00
-7.071067811900000e+00	-7.926667017092500e+00	 1.749155583087844e+00
-7.580184694360000e+00	-7.580184694360000e+00	 3.104709051685395e+00
-7.529273006114360e+00	-7.631096382594240e+00	 2.933925703121234e+00
-7.478361317868640e+00	-7.682008070829760e+00	 2.768993125137263e+00
-7.427449629622839e+00	-7.732919759066559e+00	 2.609912109125570e+00
-7.376537941376963e+00	-7.783831447304641e+00	 2.456683446483413e+00
-7.325626253130999e+00	-7.834743135544000e+00	 2.309307928613229e+00
-7.274714564884961e+00	-7.885654823784641e+00	 2.167786346922632e+00
-7.223802876638842e+00	-7.936566512026561e+00	 2.032119492824417e+00
-7.172891188392639e+00	-7.987478200269759e+00	 1.902308157736543e+00
-7.121979500146359e+00	-8.038389888514240e+00	 1.778353133082166e+00
-7.071067811900001e+00	-8.089301576760001e+00	 1.660255210289605e+00
-7.668573042005001e+00	-7.668573042005001e+00	 2.888249639101391e+00
-7.608822518995311e+00	-7.728323565003766e+00	 2.731889033483895e+00
-7.549071995985442e+00	-7.788074088003861e+00	 2.581167122340793e+00
-7.489321472975390e+00	-7.847824611005285e+00	 2.436085184951384e+00
-7.429570949965158e+00	-7.907575134008038e+00	 2.296644500604712e+00
-7.369820426954750e+00	-7.967325657012124e+00	 2.162846348599571e+00
-7.310069903944159e+00	-8.027076180017538e+00	 2.034692008244502e+00
-7.250319380933389e+00	-8.086826703024284e+00	 1.912182758857790e+00
-7.190568857922440e+00	-8.146577226032360e+00	 1.795319879767482e+00
-7.130818334911312e+00	-8.206327749041767e+00	 1.684104650311355e+00
-7.071067811900000e+00	-8.266078272052500e+00	 1.578538349836944e+00
-7.764032457460001e+00	-7.764032457460001e+00	 2.702725050326239e+00
-7.694735992905440e+00	-7.833328922005060e+00	 2.558814984928371e+00
-7.625439528350561e+00	-7.902625386551440e+00	 2.420227808221624e+00
-7.556143063795360e+00	-7.971921851099140e+00	 2.286965515810413e+00
-7.486846599239840e+00	-8.041218315648161e+00	 2.159030103316717e+00
-7.417550134684001e+00	-8.110514780198502e+00	 2.036423566380070e+00
-7.348253670127839e+00	-8.179811244750159e+00	 1.919147900657579e+00
-7.278957205571360e+00	-8.249107709303139e+00	 1.807205101823910e+00
-7.209660741014560e+00	-8.318404173857440e+00	 1.700597165571289e+00
-7.140364276457439e+00	-8.387700638413060e+00	 1.599326087609508e+00
-7.071067811900000e+00	-8.456997102970000e+00	 1.503393863665931e+00
-7.866562940725000e+00	-7.866562940725000e+00	 2.541806682289222e+00
-7.787013427844752e+00	-7.946112453598126e+00	 2.408739908778629e+00
-7.707463914963999e+00	-8.025661966472500e+00	 2.280620451364492e+00
-7.627914402082750e+00	-8.105211479348126e+00	 2.157451328988730e+00
-7.548364889201000e+00	-8.184760992225002e+00	 2.039235560623706e+00
-7.468815376318750e+00	-8.264310505103126e+00	 1.925976165272213e+00
-7.389265863436000e+00	-8.343860017982500e+00	 1.817676161967483e+00
-7.309716350552749e+00	-8.423409530863125e+00	 1.714338569773174e+00
-7.230166837669000e+00	-8.502959043745001e+00	 1.615966407783388e+00
-7.150617324784750e+00	-8.582508556628126e+00	 1.522562695122662e+00
-7.071067811900000e+00	-8.662058069512501e+00	 1.434130450945962e+00
-7.976164491800001e+00	-7.976164491800001e+00	 2.400802950559024e+00
-7.885654823813242e+00	-8.066674159782961e+00	 2.277251090899389e+00
-7.795145155825760e+00	-8.157183827767041e+00	 2.158238290317041e+00
-7.704635487837561e+00	-8.247693495752241e+00	 2.043768995412049e+00
-7.614125819848638e+00	-8.338203163738559e+00	 1.933847652835422e+00
-7.523616151859001e+00	-8.428712831726003e+00	 1.828478709289114e+00
-7.433106483868641e+00	-8.519222499714560e+00	 1.727666611526029e+00
-7.342596815877560e+00	-8.609732167704241e+00	 1.631415806350010e+00
-7.252087147885760e+00	-8.700241835695040e+00	 1.539730740615862e+00
-7.161577479893239e+00	-8.790751503686961e+00	 1.452615861229325e+00
-7.071067811900001e+00	-8.881261171680002e+00	 1.370075615147085e+00
-8.092837110685000e+00	-8.092837110685000e+00	 2.276169864557503e+00
-7.990660180810910e+00	-8.195014040559565e+00	 2.161020895343039e+00
-7.888483250935841e+00	-8.297190970435061e+00	 2.049986758307629e+00
-7.786306321059791e+00	-8.399367900311486e+00	 1.943073850839374e+00
-7.684129391182760e+00	-8.501544830188841e+00	 1.840288570409071e+00
-7.581952461304750e+00	-8.603721760067126e+00	 1.741637314570215e+00
-7.479775531425760e+00	-8.705898689946341e+00	 1.647126480958996e+00
-7.377598601545791e+00	-8.808075619826488e+00	 1.556762467294303e+00
-7.275421671664840e+00	-8.910252549707559e+00	 1.470551671377725e+00
-7.173244741782910e+00	-9.012429479589565e+00	 1.388500491093563e+00
-7.071067811900000e+00	-9.114606409472501e+00	 1.310615324408808e+00
-8.216580797380001e+00	-8.216580797380001e+00	 2.165188123800211e+00
-8.102029498837762e+00	-8.331132095927941e+00	 2.057500057544399e+00
-7.987478200294242e+00	-8.445683394476562e+00	 1.953496816725572e+00
-7.872926901749442e+00	-8.560234693025862e+00	 1.853187415918292e+00
-7.758375603203361e+00	-8.674785991575844e+00	 1.756580869827706e+00
-7.643824304656001e+00	-8.789337290126502e+00	 1.663686193289577e+00
-7.529273006107360e+00	-8.903888588677841e+00	 1.574512401270264e+00
-7.414721707557439e+00	-9.018439887229860e+00	 1.489068508866739e+00
-7.300170409006240e+00	-9.132991185782561e+00	 1.407363531306576e+00
-7.185619110453759e+00	-9.247542484335941e+00	 1.329406483947966e+00
-7.071067811900001e+00	-9.362093782890001e+00	 1.255206382279718e+00
-8.347395551885000e+00	-8.347395551885000e+00	 2.065744283293189e+00
-8.219762777893790e+00	-8.475028325888085e+00	 1.964710213492829e+00
-8.092130003900962e+00	-8.602661099891542e+00	 1.866931178396798e+00
-7.964497229906510e+00	-8.730293873895366e+00	 1.772419647041424e+00
-7.836864455910440e+00	-8.857926647899562e+00	 1.681188088664280e+00
-7.709231681912749e+00	-8.985559421904124e+00	 1.593248972704191e+00
-7.581598907913440e+00	-9.113192195909061e+00	 1.508614768801232e+00
-7.453966133912511e+00	-9.240824969914366e+00	 1.427297946796742e+00
-7.326333359909960e+00	-9.368457743920041e+00	 1.349310976733320e+00
-7.198700585905790e+00	-9.496090517926087e+00	 1.274666328854836e+00
-7.071067811900000e+00	-9.623723291932501e+00	 1.203376473606430e+00
-8.485281374200000e+00	-8.485281374200000e+00	 1.976178940247554e+00
-8.343860017978999e+00	-8.626702730440000e+00	 1.881100206990416e+00
-8.202438661756000e+00	-8.768124086679999e+00	 1.788850180736520e+00
-8.061017305530999e+00	-8.909545442920001e+00	 1.699445824084622e+00
-7.919595949304000e+00	-9.050966799160001e+00	 1.612904099936792e+00
-7.778174593075001e+00	-9.192388155400000e+00	 1.529241971498444e+00
-7.636753236844000e+00	-9.333809511640000e+00	 1.448476402278319e+00
-7.495331880611000e+00	-9.475230867880001e+00	 1.370624356088510e+00
-7.353910524375999e+00	-9.616652224119999e+00	 1.295702797044464e+00
-7.212489168138999e+00	-9.758073580360000e+00	 1.223728689564981e+00
-7.071067811900000e+00	-9.899494936600000e+00	 1.154718998372243e+00
-7.071067811900000e+00	-7.071067811900000e+00	 1.203078214720412e+00
-7.071067811900001e+00	-7.071067811900001e+00	 1.203078214720412e+00
-7.071067811900001e+00	-7.071067811900001e+00	 1.203078214720411e+00
-7.071067811900000e+00	-7.071067811900000e+00	 1.203078214720411e+00
-7.071067811899999e+00	-7.071067811899999e+00	 1.203078214720412e+00
-7.071067811900000e+00	-7.071067811900000e+00	 1.203078214720412e+00
-7.071067811900000e+00	-7.071067811900000e+00	 1.203078214720412e+00
-7.071067811900000e+00	-7.071067811900000e+00	 1.203078214720414e+00
-7.071067811900000e+00	-7.071067811900000e+00	 1.203078214720412e+00
-7.071067811900000e+00	-7.071067811900000e+00	 1.203078214720414e+00
-7.071067811900000e+00	-7.071067811900000e+00	 1.203078214720412e+00
-7.071067811900000e+00	-7.078138879711500e+00	 1.624493602826207e+01
-7.070714258509400e+00	-7.077785326320905e+00	 1.597861544409283e+01
-7.070360705118798e+00	-7.077431772930319e+00	 1.535830747669933e+01
-7.070007151728200e+00	-7.077078219539746e+00	 1.438401212607732e+01
-7.069653598337600e+00	-7.076724666149180e+00	 1.305572939222262e+01
-7.069300044947000e+00	-7.076371112758626e+00	 1.137345927512379e+01
-7.068946491556400e+00	-7.076017559368081e+00	 9.337201774772028e+00
-7.068592938165800e+00	-7.075664005977545e+00	 6.946956891153556e+00
-7.068239384775199e+00	-7.075310452587019e+00	 4.202724624223506e+00
-7.067885831384601e+00	-7.074956899196505e+00	 1.104504974026943e+00
-7.067532277994000e+00	-7.074603345806000e+00	-2.347702059539960e+00
-7.071067811900000e+00	-7.099352083146000e+00	 8.130001085992747e+00
-7.069653598337601e+00	-7.097937869583620e+00	 8.008098259548216e+00
-7.068239384775199e+00	-7.096523656021280e+00	 7.706371259371255e+00
-7.066825171212799e+00	-7.095109442458979e+00	 7.224820085442955e+00
-7.065410957650400e+00	-7.093695228896720e+00	 6.563444737743859e+00
-7.063996744087999e+00	-7.092281015334499e+00	 5.722245216251818e+00
-7.062582530525598e+00	-7.090866801772319e+00	 4.701221520944835e+00
-7.061168316963199e+00	-7.089452588210178e+00	 3.500373651797292e+00
-7.059754103400801e+00	-7.088038374648081e+00	 2.119701608785030e+00
-7.058339889838400e+00	-7.086624161086021e+00	 5.592053918764457e-01
-7.056925676275999e+00	-7.085209947524000e+00	-1.181114998954171e+00
-7.071067811899999e+00	-7.134707422203499e+00	 5.467450452272196e+00
-7.067885831384601e+00	-7.131525441688146e+00	 5.386254616969459e+00
-7.064703850869200e+00	-7.128343461172881e+00	 5.184805178370134e+00
-7.061521870353800e+00	-7.125161480657704e+00	 4.863102136277287e+00
-7.058339889838400e+00	-7.121979500142620e+00	 4.421145490493497e+00
-7.055157909322999e+00	-7.118797519627625e+00	 3.858935240820406e+00
-7.051975928807600e+00	-7.115615539112721e+00	 3.176471387058101e+00
-7.048793948292200e+00	-7.112433558597905e+00	 2.373753929005962e+00
-7.045611967776800e+00	-7.109251578083180e+00	 1.450782866462126e+00
-7.042429987261400e+00	-7.106069597568545e+00	 4.075581992245374e-01
-7.039248006745999e+00	-7.102887617053999e+00	-7.559200729111799e-01
-7.071067811900000e+00	-7.184204896884000e+00	 4.143039900191249e+00
-7.065410957650401e+00	-7.178548042634481e+00	 4.080883737671949e+00
-7.059754103400800e+00	-7.172891188385119e+00	 3.928543837054211e+00
-7.054097249151201e+00	-7.167234334135919e+00	 3.686020197237539e+00
-7.048440394901600e+00	-7.161577479886880e+00	 3.353312817120634e+00
-7.042783540652000e+00	-7.155920625638000e+00	 2.930421695601631e+00
-7.037126686402400e+00	-7.150263771389280e+00	 2.417346831577687e+00
-7.031469832152800e+00	-7.144606917140720e+00	 1.814088223945220e+00
-7.025812977903200e+00	-7.138950062892320e+00	 1.120645871600192e+00
-7.020156123653600e+00	-7.133293208644081e+00	 3.370197734373820e-01
-7.014499269404000e+00	-7.127636354396000e+00	-5.367900716489311e-01
-7.071067811900000e+00	-7.247844507187500e+00	 3.349620401310450e+00
-7.062228977135002e+00	-7.239005672422627e+00	 3.298536803361958e+00
-7.053390142370000e+00	-7.230166837658000e+00	 3.175402954582777e+00
-7.044551307605000e+00	-7.221328002893626e+00	 2.980218850776871e+00
-7.035712472839999e+00	-7.212489168129499e+00	 2.712984487747603e+00
-7.026873638075000e+00	-7.203650333365625e+00	 2.373699861297605e+00
-7.018034803310000e+00	-7.194811498602000e+00	 1.962364967229054e+00
-7.009195968545000e+00	-7.185972663838625e+00	 1.478979801343454e+00
-7.000357133779999e+00	-7.177133829075499e+00	 9.235443594418027e-01
-6.991518299015000e+00	-7.168294994312626e+00	 2.960586373241871e-01
-6.982679464249999e+00	-7.159456159549999e+00	-4.034773692093320e-01
-7.071067811899999e+00	-7.325626253114000e+00	 2.820327760148407e+00
-7.058339889838399e+00	-7.312898331052581e+00	 2.776538618184772e+00
-7.045611967776800e+00	-7.300170408991519e+00	 2.672827105975710e+00
-7.032884045715201e+00	-7.287442486930821e+00	 2.509193210992865e+00
-7.020156123653599e+00	-7.274714564870479e+00	 2.285636920707408e+00
-7.007428201592000e+00	-7.261986642810499e+00	 2.002158222589978e+00
-6.994700279530399e+00	-7.249258720750880e+00	 1.658757104110854e+00
-6.981972357468800e+00	-7.236530798691621e+00	 1.255433552739650e+00
-6.969244435407201e+00	-7.223802876632721e+00	 7.921875559456149e-01
-6.956516513345600e+00	-7.211074954574181e+00	 2.690191011974561e-01
-6.943788591283999e+00	-7.198347032516000e+00	-3.140718240365573e-01
-7.071067811900000e+00	-7.417550134663500e+00	 2.441331503326061e+00
-7.053743695760598e+00	-7.400226018524345e+00	 2.402760017919696e+00
-7.036419579621199e+00	-7.382901902385679e+00	 2.312948974948756e+00
-7.019095463481801e+00	-7.365577786247505e+00	 2.171898342821952e+00
-7.001771347342401e+00	-7.348253670109820e+00	 1.979608089947671e+00
-6.984447231202999e+00	-7.330929553972624e+00	 1.736078184733880e+00
-6.967123115063599e+00	-7.313605437835918e+00	 1.441308595588235e+00
-6.949798998924201e+00	-7.296281321699705e+00	 1.095299290917965e+00
-6.932474882784798e+00	-7.278957205563978e+00	 6.980502391299956e-01
-6.915150766645400e+00	-7.261633089428745e+00	 2.495614086308811e-01
-6.897826650506000e+00	-7.244308973294000e+00	-2.501672321732913e-01
-7.071067811900001e+00	-7.523616151836001e+00	 2.155897923593816e+00
-7.048440394901601e+00	-7.500988734837919e+00	 2.121285743188537e+00
-7.025812977903199e+00	-7.478361317840477e+00	 2.041958348027494e+00
-7.003185560904801e+00	-7.455733900843681e+00	 1.917915667719519e+00
-6.980558143906400e+00	-7.433106483847521e+00	 1.749157631873239e+00
-6.957930726907999e+00	-7.410479066852000e+00	 1.535684170097101e+00
-6.935303309909599e+00	-7.387851649857118e+00	 1.277495211999367e+00
-6.912675892911198e+00	-7.365224232862879e+00	 9.745906871881751e-01
-6.890048475912798e+00	-7.342596815869278e+00	 6.269705252714116e-01
-6.867421058914401e+00	-7.319969398876321e+00	 2.346346558568078e-01
-6.844793641916000e+00	-7.297341981884001e+00	-2.024169914480359e-01
-7.071067811899999e+00	-7.643824304631499e+00	 1.932584096361430e+00
-7.042429987261399e+00	-7.615186479993304e+00	 1.901113563867043e+00
-7.013792162622801e+00	-7.586548655355920e+00	 1.830011131899746e+00
-6.985154337984201e+00	-7.557910830719346e+00	 1.719276657755834e+00
-6.956516513345600e+00	-7.529273006083579e+00	 1.568909998731851e+00
-6.927878688707001e+00	-7.500635181448625e+00	 1.378911012124470e+00
-6.899240864068400e+00	-7.471997356814480e+00	 1.149279555230563e+00
-6.870603039429797e+00	-7.443359532181143e+00	 8.800154853471676e-01
-6.841965214791200e+00	-7.414721707548620e+00	 5.711186597715082e-01
-6.813327390152599e+00	-7.386083882916903e+00	 2.225889358009953e-01
-6.784689565513999e+00	-7.357446058286000e+00	-1.655738292668036e-01
-7.071067811900000e+00	-7.778174593050000e+00	 1.752562196838109e+00
-7.035712472840001e+00	-7.742819253990501e+00	 1.723672585815363e+00
-7.000357133780001e+00	-7.707463914932000e+00	 1.659225193489836e+00
-6.965001794719999e+00	-7.672108575874500e+00	 1.559219751337740e+00
-6.929646455659999e+00	-7.636753236817999e+00	 1.423655990836184e+00
-6.894291116599999e+00	-7.601397897762500e+00	 1.252533643463167e+00
-6.858935777540000e+00	-7.566042558708000e+00	 1.045852440697588e+00
-6.823580438480001e+00	-7.530687219654500e+00	 8.036121140192323e-01
-6.788225099420000e+00	-7.495331880602000e+00	 5.258123949087957e-01
-6.752869760359999e+00	-7.459976541550500e+00	 2.124530148478329e-01
-6.717514421300000e+00	-7.424621202500000e+00	-1.364662946811560e-01
-7.071067811900000e+00	-7.778174593050000e+00	 1.752562196838109e+00
-7.035712472840001e+00	-7.742819253990501e+00	 1.723672585815363e+00
-7.000357133780001e+00	-7.707463914932000e+00	 1.659225193489836e+00
-6.965001794719999e+00	-7.672108575874500e+00	 1.559219751337740e+00
-6.929646455659999e+00	-7.636753236817999e+00	 1.423655990836184e+00
-6.894291116599999e+00	-7.601397897762500e+00	 1.252533643463167e+00
-6.858935777540000e+00	-7.566042558708000e+00	 1.045852440697588e+00
-6.823580438480001e+00	-7.530687219654500e+00	 8.036121140192323e-01
-6.788225099420000e+00	-7.495331880602000e+00	 5.258123949087957e-01
-6.752869760359999e+00	-7.459976541550500e+00	 2.124530148478329e-01
-6.717514421300000e+00	-7.424621202500000e+00	-1.364662946811560e-01
-7.071067811900000e+00	-7.926667017092500e+00	 1.644112857742206e+00
-7.028287851637397e+00	-7.883887056830485e+00	 1.615517122530534e+00
-6.985507891374802e+00	-7.841107096569642e+00	 1.554650826323463e+00
-6.942727931112200e+00	-7.798327136309967e+00	 1.461513493410872e+00
-6.899947970849600e+00	-7.755547176051459e+00	 1.336104648084825e+00
-6.857168010586999e+00	-7.712767215794125e+00	 1.178423814639616e+00
-6.814388050324401e+00	-7.669987255537960e+00	 9.884705173717298e-01
-6.771608090061799e+00	-7.627207295282965e+00	 7.662442805798589e-01
-6.728828129799201e+00	-7.584427335029142e+00	 5.117446285649087e-01
-6.686048169536599e+00	-7.541647374776484e+00	 2.249710856299844e-01
-6.643268209274000e+00	-7.498867414525000e+00	-9.407682391959904e-02
-7.071067811900001e+00	-8.089301576760001e+00	 1.552897252126579e+00
-7.020156123653600e+00	-8.038389888514240e+00	 1.525278108152444e+00
-6.969244435407200e+00	-7.987478200269760e+00	 1.468153455643856e+00
-6.918332747160799e+00	-7.936566512026559e+00	 1.381522492779821e+00
-6.867421058914402e+00	-7.885654823784642e+00	 1.265384417744114e+00
-6.816509370668000e+00	-7.834743135544000e+00	 1.119738428725285e+00
-6.765597682421601e+00	-7.783831447304641e+00	 9.445837239166652e-01
-6.714685994175200e+00	-7.732919759066561e+00	 7.399195015163685e-01
-6.663774305928801e+00	-7.682008070829760e+00	 5.057449597272772e-01
-6.612862617682399e+00	-7.631096382594240e+00	 2.420592967570455e-01
-6.561950929436001e+00	-7.580184694360000e+00	-5.113828918186816e-02
-7.071067811900000e+00	-8.266078272052500e+00	 1.474715429342531e+00
-7.011317288888601e+00	-8.206327749041765e+00	 1.448454183521948e+00
-6.951566765877202e+00	-8.146577226032361e+00	 1.395048397780390e+00
-6.891816242865800e+00	-8.086826703024286e+00	 1.314496775971439e+00
-6.832065719854399e+00	-8.027076180017538e+00	 1.206798021958103e+00
-6.772315196842999e+00	-7.967325657012124e+00	 1.071950839612769e+00
-6.712564673831598e+00	-7.907575134008038e+00	 9.099539328172508e-01
-6.652814150820199e+00	-7.847824611005284e+00	 7.208060054627511e-01
-6.593063627808800e+00	-7.788074088003859e+00	 5.045057614498870e-01
-6.533313104797401e+00	-7.728323565003765e+00	 2.610519046886914e-01
-6.473562581786000e+00	-7.668573042005001e+00	-9.556860901439132e-03
-7.071067811900000e+00	-8.456997102970000e+00	 1.406609411976837e+00
-7.001771347342399e+00	-8.387700638413058e+00	 1.381907147957213e+00
-6.932474882784800e+00	-8.318404173857441e+00	 1.332103086010945e+00
-6.863178418227200e+00	-8.249107709303141e+00	 1.257195204206137e+00
-6.793881953669599e+00	-8.179811244750161e+00	 1.157181480628216e+00
-6.724585489112000e+00	-8.110514780198503e+00	 1.032059893379922e+00
-6.655289024554400e+00	-8.041218315648161e+00	 8.818284205813314e-01
-6.585992559996800e+00	-7.971921851099141e+00	 7.064850403698368e-01
-6.516696095439199e+00	-7.902625386551440e+00	 5.060277309001384e-01
-6.447399630881600e+00	-7.833328922005060e+00	 2.804544703442884e-01
-6.378103166323999e+00	-7.764032457460001e+00	 2.976323689162862e-02
-7.071067811900000e+00	-8.662058069512501e+00	 1.346438971488201e+00
-6.991518299015000e+00	-8.582508556628127e+00	 1.323385578240294e+00
-6.911968786129999e+00	-8.502959043744999e+00	 1.277018984720979e+00
-6.832419273244999e+00	-8.423409530863125e+00	 1.207336132133751e+00
-6.752869760360000e+00	-8.343860017982500e+00	 1.114333961712457e+00
-6.673320247475000e+00	-8.264310505103126e+00	 9.980094147212781e-01
-6.593770734590000e+00	-8.184760992225000e+00	 8.583594324547611e-01
-6.514221221704998e+00	-8.105211479348124e+00	 6.953809562377928e-01
-6.434671708820000e+00	-8.025661966472500e+00	 5.090709274256018e-01
-6.355122195934999e+00	-7.946112453598126e+00	 2.994262874037757e-01
-6.275572683050000e+00	-7.866562940725000e+00	 6.644397758823928e-02
-7.071067811900001e+00	-8.881261171680002e+00	 1.292620284661315e+00
-6.980558143906401e+00	-8.790751503686961e+00	 1.271234969037721e+00
-6.890048475912800e+00	-8.700241835695042e+00	 1.228119875060039e+00
-6.799538807919199e+00	-8.609732167704241e+00	 1.163270497383837e+00
-6.709029139925598e+00	-8.519222499714560e+00	 1.076682330715758e+00
-6.618519471932000e+00	-8.428712831726001e+00	 9.683508698135378e-01
-6.528009803938401e+00	-8.338203163738561e+00	 8.382716094859950e-01
-6.437500135944800e+00	-8.247693495752239e+00	 6.864400445930351e-01
-6.346990467951199e+00	-8.157183827767042e+00	 5.128516700456414e-01
-6.256480799957598e+00	-8.066674159782959e+00	 3.175019808058897e-01
-6.165971131964000e+00	-7.976164491800001e+00	 1.003864718869269e-01
-7.071067811900000e+00	-9.114606409472501e+00	 1.243958930948099e+00
-6.968890882016598e+00	-9.012429479589565e+00	 1.224214539942950e+00
-6.866713952133200e+00	-8.910252549707561e+00	 1.184156856160475e+00
-6.764537022249799e+00	-8.808075619826488e+00	 1.123779397630247e+00
-6.662360092366399e+00	-8.705898689946341e+00	 1.043075682464991e+00
-6.560183162483000e+00	-8.603721760067126e+00	 9.420392288606048e-01
-6.458006232599599e+00	-8.501544830188839e+00	 8.206635550961536e-01
-6.355829302716199e+00	-8.399367900311486e+00	 6.789421795338499e-01
-6.253652372832799e+00	-8.297190970435061e+00	 5.168686206190841e-01
-6.151475442949399e+00	-8.195014040559565e+00	 3.344363968803820e-01
-6.049298513065999e+00	-8.092837110685000e+00	 1.316390269294555e-01
-7.071067811900001e+00	-9.362093782890001e+00	 1.199539770565646e+00
-6.956516513345600e+00	-9.247542484335943e+00	 1.181377626480906e+00
-6.841965214791201e+00	-9.132991185782563e+00	 1.144182217649793e+00
-6.727413916236799e+00	-9.018439887229862e+00	 1.087944410213360e+00
-6.612862617682400e+00	-8.903888588677843e+00	 1.012655070444213e+00
-6.498311319128001e+00	-8.789337290126502e+00	 9.183050647464908e-01
-6.383760020573599e+00	-8.674785991575842e+00	 8.048852596558732e-01
-6.269208722019199e+00	-8.560234693025860e+00	 6.723865218395756e-01
-6.154657423464799e+00	-8.445683394476561e+00	 5.207997180963460e-01
-6.040106124910399e+00	-8.331132095927941e+00	 3.501157153564542e-01
-5.925554826355999e+00	-8.216580797380001e+00	 1.603253806817089e-01
-7.071067811900000e+00	-9.623723291932501e+00	 1.158652323855734e+00
-6.943435037893400e+00	-9.496090517926085e+00	 1.141991351270080e+00
-6.815802263886799e+00	-9.368457743920041e+00	 1.107465463714650e+00
-6.688169489880199e+00	-9.240824969914366e+00	 1.055062027012288e+00
-6.560536715873600e+00	-9.113192195909061e+00	 9.847684071886955e-01
-6.432903941866998e+00	-8.985559421904126e+00	 8.965719704724426e-01
-6.305271167860399e+00	-8.857926647899561e+00	 7.904600832949502e-01
-6.177638393853799e+00	-8.730293873895365e+00	 6.664201122905006e-01
-6.050005619847200e+00	-8.602661099891540e+00	 5.244394242962155e-01
-5.922372845840599e+00	-8.475028325888086e+00	 3.645053863520676e-01
-5.794740071833999e+00	-8.347395551885000e+00	 1.866053657008616e-01
-7.071067811900000e+00	-9.899494936600000e+00	 1.120738985112069e+00
-6.929646455660000e+00	-9.758073580360000e+00	 1.105481326826170e+00
-6.788225099420000e+00	-9.616652224120001e+00	 1.073435968697389e+00
-6.646803743180000e+00	-9.475230867880001e+00	 1.024585723263739e+00
-6.505382386939999e+00	-9.333809511640000e+00	 9.589134033691437e-01
-6.363961030700000e+00	-9.192388155400000e+00	 8.764018221634259e-01
-6.222539674460000e+00	-9.050966799159999e+00	 7.770337931022976e-01
-6.081118318220000e+00	-8.909545442919999e+00	 6.607921299473560e-01
-5.939696961979999e+00	-8.768124086680000e+00	 5.276596467660732e-01
-5.798275605740000e+00	-8.626702730439998e+00	 3.776191579317870e-01
-5.656854249500000e+00	-8.485281374200000e+00	 2.106534781237018e-01
-7.071067811900000e+00	-7.071067811900000e+00	 1.203078214720412e+00
-7.071067811900001e+00	-7.071067811900001e+00	 1.203078214720413e+00
-7.071067811900001e+00	-7.071067811900001e+00	 1.203078214720412e+00
-7.071067811900000e+00	-7.071067811900000e+00	 1.203078214720410e+00
-7.071067811899999e+00	-7.071067811899999e+00	 1.203078214720412e+00
-7.071067811900000e+00	-7.071067811900000e+00	 1.203078214720412e+00
-7.071067811900000e+00	-7.071067811900000e+00	 1.203078214720412e+00
-7.071067811900000e+00	-7.071067811900000e+00	 1.203078214720415e+00
-7.071067811900000e+00	-7.071067811900000e+00	 1.203078214720412e+00
-7.071067811900000e+00	-7.071067811900000e+00	 1.203078214720415e+00
-7.071067811900000e+00	-7.071067811900000e+00	 1.203078214720412e+00
-7.067532277994000e+00	-7.074603345806000e+00	 2.863730189559366e-02
-7.067178724603401e+00	-7.074249792415401e+00	-1.347860001773137e+00
-7.066825171212799e+00	-7.073896239024798e+00	-2.509602282958316e+00
-7.066471617822200e+00	-7.073542685634201e+00	-3.456589541622086e+00
-7.066118064431598e+00	-7.073189132243600e+00	-4.188821777784491e+00
-7.065764511041000e+00	-7.072835578853000e+00	-4.706298991443855e+00
-7.065410957650400e+00	-7.072482025462401e+00	-5.009021182597756e+00
-7.065057404259800e+00	-7.072128472071801e+00	-5.096988351231779e+00
-7.064703850869200e+00	-7.071774918681198e+00	-4.970200497430417e+00
-7.064350297478600e+00	-7.071421365290600e+00	-4.628657621025051e+00
-7.063996744088000e+00	-7.071067811900000e+00	-4.072359722196693e+00
-7.056925676275999e+00	-7.085209947524000e+00	-1.311578472395314e-01
-7.055511462713601e+00	-7.083795733961600e+00	-8.449794721804739e-01
-7.054097249151200e+00	-7.082381520399200e+00	-1.443002631487314e+00
-7.052683035588799e+00	-7.080967306836799e+00	-1.925227325175503e+00
-7.051268822026400e+00	-7.079553093274400e+00	-2.291653553260682e+00
-7.049854608463999e+00	-7.078138879711998e+00	-2.542281315762418e+00
-7.048440394901599e+00	-7.076724666149599e+00	-2.677110612695794e+00
-7.047026181339199e+00	-7.075310452587200e+00	-2.696141444079407e+00
-7.045611967776801e+00	-7.073896239024801e+00	-2.599373809927231e+00
-7.044197754214400e+00	-7.072482025462401e+00	-2.386807710264517e+00
-7.042783540652000e+00	-7.071067811900000e+00	-2.058443145100774e+00
-7.039248006745999e+00	-7.102887617053999e+00	-5.087214159214581e-02
-7.036066026230601e+00	-7.099705636538601e+00	-5.323854318208906e-01
-7.032884045715201e+00	-7.096523656023201e+00	-9.351070837736040e-01
-7.029702065199800e+00	-7.093341675507799e+00	-1.259037097649057e+00
-7.026520084684400e+00	-7.090159694992400e+00	-1.504175473641124e+00
-7.023338104169000e+00	-7.086977714477000e+00	-1.670522211945389e+00
-7.020156123653600e+00	-7.083795733961600e+00	-1.758077312758579e+00
-7.016974143138199e+00	-7.080613753446200e+00	-1.766840776276069e+00
-7.013792162622800e+00	-7.077431772930801e+00	-1.696812602694035e+00
-7.010610182107400e+00	-7.074249792415400e+00	-1.547992792206815e+00
-7.007428201591999e+00	-7.071067811899999e+00	-1.320381345011625e+00
-7.014499269404000e+00	-7.127636354396000e+00	 1.403165875566759e-02
-7.008842415154400e+00	-7.121979500146401e+00	-3.491042040846709e-01
-7.003185560904799e+00	-7.116322645896799e+00	-6.527055468647502e-01
-6.997528706655200e+00	-7.110665791647200e+00	-8.967723706837679e-01
-6.991871852405600e+00	-7.105008937397599e+00	-1.081304676641859e+00
-6.986214998156000e+00	-7.099352083148000e+00	-1.206302465838697e+00
-6.980558143906401e+00	-7.093695228898400e+00	-1.271765739374340e+00
-6.974901289656801e+00	-7.088038374648800e+00	-1.277694498348537e+00
-6.969244435407201e+00	-7.082381520399200e+00	-1.224088743860980e+00
-6.963587581157601e+00	-7.076724666149601e+00	-1.110948477011603e+00
-6.957930726908000e+00	-7.071067811900000e+00	-9.382736989002184e-01
-6.982679464249999e+00	-7.159456159549999e+00	 6.064173161730224e-02
-6.973840629485002e+00	-7.150617324785002e+00	-2.306821249997992e-01
-6.965001794720001e+00	-7.141778490019999e+00	-4.742664383051666e-01
-6.956162959955000e+00	-7.132939655255000e+00	-6.701112124942380e-01
-6.947324125190000e+00	-7.124100820490000e+00	-8.182164517624620e-01
-6.938485290425000e+00	-7.115261985725001e+00	-9.185821603055573e-01
-6.929646455659999e+00	-7.106423150960000e+00	-9.712083423188658e-01
-6.920807620894999e+00	-7.097584316194999e+00	-9.760950019980024e-01
-6.911968786130000e+00	-7.088745481430000e+00	-9.332421435381617e-01
-6.903129951365001e+00	-7.079906646665001e+00	-8.426497711353486e-01
-6.894291116600000e+00	-7.071067811900000e+00	-7.043178889843102e-01
-6.943788591283999e+00	-7.198347032516000e+00	 9.467597830919006e-02
-6.931060669222400e+00	-7.185619110454399e+00	-1.483796766135513e-01
-6.918332747160799e+00	-7.172891188392800e+00	-3.516587165171865e-01
-6.905604825099201e+00	-7.160163266331200e+00	-5.151611539297494e-01
-6.892876903037599e+00	-7.147435344269599e+00	-6.388870013788115e-01
-6.880148980976000e+00	-7.134707422208000e+00	-7.228362713920504e-01
-6.867421058914399e+00	-7.121979500146399e+00	-7.670089764970714e-01
-6.854693136852801e+00	-7.109251578084801e+00	-7.714051292217217e-01
-6.841965214791201e+00	-7.096523656023201e+00	-7.360247420934306e-01
-6.829237292729600e+00	-7.083795733961601e+00	-6.608678276399079e-01
-6.816509370667999e+00	-7.071067811899999e+00	-5.459343983886783e-01
-6.897826650506000e+00	-7.244308973294000e+00	 1.202200694148655e-01
-6.880502534366599e+00	-7.226984857154600e+00	-8.810600198275001e-02
-6.863178418227200e+00	-7.209660741015200e+00	-2.623911603652693e-01
-6.845854302087799e+00	-7.192336624875800e+00	-4.026354373229158e-01
-6.828530185948400e+00	-7.175012508736400e+00	-5.088388644458954e-01
-6.811206069809000e+00	-7.157688392597000e+00	-5.810014733242973e-01
-6.793881953669599e+00	-7.140364276457599e+00	-6.191232955481176e-01
-6.776557837530200e+00	-7.123040160318200e+00	-6.232043627072875e-01
-6.759233721390798e+00	-7.105716044178798e+00	-5.932447063916885e-01
-6.741909605251400e+00	-7.088391928039401e+00	-5.292443581910756e-01
-6.724585489112000e+00	-7.071067811900000e+00	-4.312033496953390e-01
-6.844793641916000e+00	-7.297341981884001e+00	 1.398509491891435e-01
-6.822166224917600e+00	-7.274714564885600e+00	-4.223595162193083e-02
-6.799538807919199e+00	-7.252087147887199e+00	-1.946088089443450e-01
-6.776911390920801e+00	-7.229459730888800e+00	-3.172676931669377e-01
-6.754283973922401e+00	-7.206832313890400e+00	-4.102126746783531e-01
-6.731656556923999e+00	-7.184204896891999e+00	-4.734438238671077e-01
-6.709029139925598e+00	-7.161577479893598e+00	-5.069612111214306e-01
-6.686401722927198e+00	-7.138950062895198e+00	-5.107649068293555e-01
-6.663774305928799e+00	-7.116322645896799e+00	-4.848549813787770e-01
-6.641146888930400e+00	-7.093695228898400e+00	-4.292315051573827e-01
-6.618519471932001e+00	-7.071067811900001e+00	-3.438945485525590e-01
-6.784689565513999e+00	-7.357446058286000e+00	 1.552092837372717e-01
-6.756051740875400e+00	-7.328808233647398e+00	-6.306185438303920e-03
-6.727413916236801e+00	-7.300170409008800e+00	-1.414865230997959e-01
-6.698776091598202e+00	-7.271532584370201e+00	-2.503318719453996e-01
-6.670138266959600e+00	-7.242894759731599e+00	-3.328423746728528e-01
-6.641500442321001e+00	-7.214256935093000e+00	-3.890181739793626e-01
-6.612862617682399e+00	-7.185619110454399e+00	-4.188594125616152e-01
-6.584224793043798e+00	-7.156981285815798e+00	-4.223662331157845e-01
-6.555586968405199e+00	-7.128343461177200e+00	-3.995387783375632e-01
-6.526949143766600e+00	-7.099705636538600e+00	-3.503771909220699e-01
-6.498311319128000e+00	-7.071067811899999e+00	-2.748816135639126e-01
-6.717514421300000e+00	-7.424621202500000e+00	 1.673720016735588e-01
-6.682159082240001e+00	-7.389265863440000e+00	 2.246209937943512e-02
-6.646803743180000e+00	-7.353910524380000e+00	-9.882285840319706e-02
-6.611448404120000e+00	-7.318555185319999e+00	-1.964831401859309e-01
-6.576093065059998e+00	-7.283199846260000e+00	-2.705190144791531e-01
-6.540737726000000e+00	-7.247844507200000e+00	-3.209307497920215e-01
-6.505382386940000e+00	-7.212489168139999e+00	-3.477186146325310e-01
-6.470027047880000e+00	-7.177133829080000e+00	-3.508828775074821e-01
-6.434671708820000e+00	-7.141778490020000e+00	-3.304238069224334e-01
-6.399316369760000e+00	-7.106423150960000e+00	-2.863416713818172e-01
-6.363961030700001e+00	-7.071067811900000e+00	-2.186367393888125e-01
-6.717514421300000e+00	-7.424621202500000e+00	 1.673720016735588e-01
-6.682159082240001e+00	-7.389265863440000e+00	 2.246209937943512e-02
-6.646803743180000e+00	-7.353910524380000e+00	-9.882285840319706e-02
-6.611448404120000e+00	-7.318555185319999e+00	-1.964831401859309e-01
-6.576093065059998e+00	-7.283199846260000e+00	-2.705190144791531e-01
-6.540737726000000e+00	-7.247844507200000e+00	-3.209307497920215e-01
-6.505382386940000e+00	-7.212489168139999e+00	-3.477186146325310e-01
-6.470027047880000e+00	-7.177133829080000e+00	-3.508828775074821e-01
-6.434671708820000e+00	-7.141778490020000e+00	-3.304238069224334e-01
-6.399316369760000e+00	-7.106423150960000e+00	-2.863416713818172e-01
-6.363961030700001e+00	-7.071067811900000e+00	-2.186367393888125e-01
-6.643268209274000e+00	-7.498867414525000e+00	 1.904597525888836e-01
-6.600488249011398e+00	-7.456087454262590e+00	 5.918849103939325e-02
-6.557708288748801e+00	-7.413307494000161e+00	-5.045293430787931e-02
-6.514928328486200e+00	-7.370527533737711e+00	-1.384649991370743e-01
-6.472148368223601e+00	-7.327747573475239e+00	-2.048481791297737e-01
-6.429368407961000e+00	-7.284967613212749e+00	-2.496029499648969e-01
-6.386588447698400e+00	-7.242187652950240e+00	-2.727297873188377e-01
-6.343808487435800e+00	-7.199407692687710e+00	-2.742291668653826e-01
-6.301028527173202e+00	-7.156627732425161e+00	-2.541015642757307e-01
-6.258248566910598e+00	-7.113847772162590e+00	-2.123474552184815e-01
-6.215468606648000e+00	-7.071067811900000e+00	-1.489673153596418e-01
-6.561950929436001e+00	-7.580184694360000e+00	 2.088707776967653e-01
-6.511039241189599e+00	-7.529273006114360e+00	 8.837160275387385e-02
-6.460127552943200e+00	-7.478361317868640e+00	-1.223705850361788e-02
-6.409215864696799e+00	-7.427449629622839e+00	-9.295600784491929e-02
-6.358304176450401e+00	-7.376537941376963e+00	-1.537860470340641e-01
-6.307392488204000e+00	-7.325626253130999e+00	-1.947279778299074e-01
-6.256480799957600e+00	-7.274714564884961e+00	-2.157826019861356e-01
-6.205569111711201e+00	-7.223802876638842e+00	-2.169507212512606e-01
-6.154657423464800e+00	-7.172891188392639e+00	-1.982331373686033e-01
-6.103745735218400e+00	-7.121979500146359e+00	-1.596306520763373e-01
-6.052834046971999e+00	-7.071067811900001e+00	-1.011440671074017e-01
-6.473562581786000e+00	-7.668573042005001e+00	 2.237033122004873e-01
-6.413812058774599e+00	-7.608822518995311e+00	 1.119352658728681e-01
-6.354061535763201e+00	-7.549071995985442e+00	 1.853347893605058e-02
-6.294311012751799e+00	-7.489321472975390e+00	-5.650334465849760e-02
-6.234560489740398e+00	-7.429570949965158e+00	-1.131765009495104e-01
-6.174809966728999e+00	-7.369820426954750e+00	-1.514872859659498e-01
-6.115059443717598e+00	-7.310069903944159e+00	-1.714369957269645e-01
-6.055308920706200e+00	-7.250319380933389e+00	-1.730269262419367e-01
-5.995558397694801e+00	-7.190568857922440e+00	-1.562583735104448e-01
-5.935807874683401e+00	-7.130818334911312e+00	-1.211326335222751e-01
-5.876057351671999e+00	-7.071067811900000e+00	-6.765100225747073e-02
-6.378103166323999e+00	-7.764032457460001e+00	 2.357219952002572e-01
-6.308806701766399e+00	-7.694735992905440e+00	 1.311937274390565e-01
-6.239510237208799e+00	-7.625439528350561e+00	 4.368897782475894e-02
-6.170213772651200e+00	-7.556143063795360e+00	-2.679427539777808e-02
-6.100917308093599e+00	-7.486846599239840e+00	-8.025805396603797e-02
-6.031620843536000e+00	-7.417550134684001e+00	-1.167043795998208e-01
-5.962324378978400e+00	-7.348253670127839e+00	-1.361352740012478e-01
-5.893027914420800e+00	-7.278957205571360e+00	-1.385527588547803e-01
-5.823731449863200e+00	-7.209660741014560e+00	-1.239588558272102e-01
-5.754434985305600e+00	-7.140364276457439e+00	-9.235558656762366e-02
-5.685138520748000e+00	-7.071067811900000e+00	-4.374497270746364e-02
-6.275572683050000e+00	-7.866562940725000e+00	 2.454757453803683e-01
-6.196023170165001e+00	-7.787013427844752e+00	 1.470742347802661e-01
-6.116473657279999e+00	-7.707463914963999e+00	 6.450764684105793e-02
-6.036924144394999e+00	-7.627914402082750e+00	-2.227076927112312e-03
-5.957374631510000e+00	-7.548364889201000e+00	-5.313299498343176e-02
-5.877825118625000e+00	-7.468815376318750e+00	-8.821316575644152e-02
-5.798275605740000e+00	-7.389265863436000e+00	-1.074706476440082e-01
-5.718726092854999e+00	-7.309716350552749e+00	-1.109084990133462e-01
-5.639176579970000e+00	-7.230166837669000e+00	-9.852977820100978e-02
-5.559627067084999e+00	-7.150617324784750e+00	-7.033754351288538e-02
-5.480077554199999e+00	-7.071067811900000e+00	-2.633485322420687e-02
-6.165971131964000e+00	-7.976164491800001e+00	 2.533695290290533e-01
-6.075461463970400e+00	-7.885654823813242e+00	 1.602498305892611e-01
-5.984951795976801e+00	-7.795145155825760e+00	 8.190831077894185e-02
-5.894442127983199e+00	-7.704635487837561e+00	 1.834046476732275e-02
-5.803932459989599e+00	-7.614125819848638e+00	-3.045821222504350e-02
-5.713422791995999e+00	-7.523616151859001e+00	-6.449222492621676e-02
-5.622913124002400e+00	-7.433106483868641e+00	-8.376607801292721e-02
-5.532403456008799e+00	-7.342596815877560e+00	-8.828427611053163e-02
-5.441893788015200e+00	-7.252087147885760e+00	-7.805132379304150e-02
-5.351384120021598e+00	-7.161577479893239e+00	-5.307172558311243e-02
-5.260874452027999e+00	-7.071067811900001e+00	-1.334998595204784e-02
-6.049298513065999e+00	-8.092837110685000e+00	 2.597098271160267e-01
-5.947121583182599e+00	-7.990660180810910e+00	 1.712218707625904e-01
-5.844944653299199e+00	-7.888483250935841e+00	 9.656897554327637e-02
-5.742767723415799e+00	-7.786306321059791e+00	 3.574466032172115e-02
-5.640590793532399e+00	-7.684129391182760e+00	-1.125755595505182e-02
-5.538413863648998e+00	-7.581952461304750e+00	-4.444415425664720e-02
-5.436236933765599e+00	-7.479775531425760e+00	-6.382161546925397e-02
-5.334060003882199e+00	-7.377598601545791e+00	-6.939642039568217e-02
-5.231883073998798e+00	-7.275421671664840e+00	-6.117504975536203e-02
-5.129706144115398e+00	-7.173244741782910e+00	-3.916398418433487e-02
-5.027529214231999e+00	-7.071067811900000e+00	-3.369704235248849e-03
-5.925554826355999e+00	-8.216580797380001e+00	 2.647344659589023e-01
-5.811003527801600e+00	-8.102029498837762e+00	 1.803731560363793e-01
-5.696452229247201e+00	-7.987478200294242e+00	 1.090024267274200e-01
-5.581900930692799e+00	-7.872926901749442e+00	 5.061314549053730e-02
-5.467349632138400e+00	-7.758375603203361e+00	 5.196179915973029e-03
-5.352798333583999e+00	-7.643824304656001e+00	-2.725760227431077e-02
-5.238247035029598e+00	-7.529273006107360e+00	-4.675733322663417e-02
-5.123695736475199e+00	-7.414721707557439e+00	-5.331214495560443e-02
-5.009144437920799e+00	-7.300170409006240e+00	-4.693116934411040e-02
-4.894593139366398e+00	-7.185619110453759e+00	-2.762353814334315e-02
-4.780041840811998e+00	-7.071067811900001e+00	 4.601617027228139e-03
-5.794740071833999e+00	-8.347395551885000e+00	 2.686328165486269e-01
-5.667107297827398e+00	-8.219762777893790e+00	 1.880032435874008e-01
-5.539474523820799e+00	-8.092130003900962e+00	 1.196059821437891e-01
-5.411841749814198e+00	-7.964497229906510e+00	 6.342840007095175e-02
-5.284208975807599e+00	-7.836864455910440e+00	 1.945786542503540e-02
-5.156576201800998e+00	-7.709231681912749e+00	-1.231825353482502e-02
-5.028943427794398e+00	-7.581598907913440e+00	-3.191258834649795e-02
-4.901310653787798e+00	-7.453966133912511e+00	-3.933777034487704e-02
-4.773677879781197e+00	-7.326333359909960e+00	-3.460643066187771e-02
-4.646045105774597e+00	-7.198700585905790e+00	-1.773120022643951e-02
-4.518412331767998e+00	-7.071067811900000e+00	 1.127529023546156e-02
-5.656854249500000e+00	-8.485281374200000e+00	 2.715598772052182e-01
-5.515432893260000e+00	-8.343860017978999e+00	 1.943526020850068e-01
-5.374011537020000e+00	-8.202438661756000e+00	 1.286951852330928e-01
-5.232590180780001e+00	-8.061017305530999e+00	 7.457044224778531e-02
-5.091168824540000e+00	-7.919595949304000e+00	 3.196118903339390e-02
-4.949747468300000e+00	-7.778174593075001e+00	 8.502418001848228e-04
-4.808326112060000e+00	-7.636753236844000e+00	-1.877958293560922e-02
-4.666904755820000e+00	-7.495331880611000e+00	-2.694546835181039e-02
-4.525483399580001e+00	-7.353910524375999e+00	-2.366459732028087e-02
-4.384062043340000e+00	-7.212489168138999e+00	-8.954152406960653e-03
-4.242640687100000e+00	-7.071067811900000e+00	 1.716868412815439e-02
-7.071067811900000e+00	-7.071067811900000e+00	 1.203078214720412e+00
-7.071067811900001e+00	-7.071067811900001e+00	 1.203078214720414e+00
-7.071067811900001e+00	-7.071067811900001e+00	 1.203078214720412e+00
-7.071067811900000e+00	-7.071067811900000e+00	 1.203078214720410e+00
-7.071067811899999e+00	-7.071067811899999e+00	 1.203078214720412e+00
-7.071067811900000e+00	-7.071067811900000e+00	 1.203078214720412e+00
-7.071067811900000e+00	-7.071067811900000e+00	 1.203078214720412e+00
-7.071067811900000e+00	-7.071067811900000e+00	 1.203078214720415e+00
-7.071067811900000e+00	-7.071067811900000e+00	 1.203078214720412e+00
-7.071067811900000e+00	-7.071067811900000e+00	 1.203078214720414e+00
-7.071067811900000e+00	-7.071067811900000e+00	 1.203078214720412e+00
-7.063996744088000e+00	-7.071067811900000e+00	-3.770522840709507e+00
-7.064350297478600e+00	-7.070714258509400e+00	-4.716424020798407e+00
-7.064703850869199e+00	-7.070360705118798e+00	-5.680135735413093e+00
-7.065057404259800e+00	-7.070007151728200e+00	-6.661657984495959e+00
-7.065410957650399e+00	-7.069653598337600e+00	-7.660990768080328e+00
-7.065764511041000e+00	-7.069300044947000e+00	-8.678134086157083e+00
-7.066118064431599e+00	-7.068946491556400e+00	-9.713087938730432e+00
-7.066471617822200e+00	-7.068592938165800e+00	-1.076585232577766e+01
-7.066825171212800e+00	-7.068239384775199e+00	-1.183642724738380e+01
-7.067178724603401e+00	-7.067885831384601e+00	-1.292481270339968e+01
-7.067532277994000e+00	-7.067532277994000e+00	-1.403100869397690e+01
-7.042783540652000e+00	-7.071067811900000e+00	-1.820885020186297e+00
-7.044197754214401e+00	-7.069653598337601e+00	-2.282415964359367e+00
-7.045611967776800e+00	-7.068239384775199e+00	-2.755566443731827e+00
-7.047026181339199e+00	-7.066825171212799e+00	-3.240336458316643e+00
-7.048440394901600e+00	-7.065410957650400e+00	-3.736726008130414e+00
-7.049854608463999e+00	-7.063996744087999e+00	-4.244735093191668e+00
-7.051268822026399e+00	-7.062582530525598e+00	-4.764363713516944e+00
-7.052683035588799e+00	-7.061168316963199e+00	-5.295611869122728e+00
-7.054097249151201e+00	-7.059754103400801e+00	-5.838479560024501e+00
-7.055511462713601e+00	-7.058339889838400e+00	-6.392966786245028e+00
-7.056925676275999e+00	-7.056925676275999e+00	-6.959073547795088e+00
-7.007428201591999e+00	-7.071067811899999e+00	-1.158523411744043e+00
-7.010610182107401e+00	-7.067885831384601e+00	-1.466540983841697e+00
-7.013792162622800e+00	-7.064703850869200e+00	-1.782555874202799e+00
-7.016974143138199e+00	-7.061521870353800e+00	-2.106568083023827e+00
-7.020156123653600e+00	-7.058339889838400e+00	-2.438577610495894e+00
-7.023338104169000e+00	-7.055157909322999e+00	-2.778584456812635e+00
-7.026520084684400e+00	-7.051975928807600e+00	-3.126588622167946e+00
-7.029702065199800e+00	-7.048793948292200e+00	-3.482590106754511e+00
-7.032884045715201e+00	-7.045611967776800e+00	-3.846588910766060e+00
-7.036066026230600e+00	-7.042429987261400e+00	-4.218585034394621e+00
-7.039248006745999e+00	-7.039248006745999e+00	-4.598578477834444e+00
-6.957930726908000e+00	-7.071067811900000e+00	-8.244422251040965e-01
-6.963587581157601e+00	-7.065410957650401e+00	-1.057163788253475e+00
-6.969244435407200e+00	-7.059754103400800e+00	-1.295779460261778e+00
-6.974901289656801e+00	-7.054097249151201e+00	-1.540289242213631e+00
-6.980558143906400e+00	-7.048440394901600e+00	-1.790693135194797e+00
-6.986214998155999e+00	-7.042783540652000e+00	-2.046991140290973e+00
-6.991871852405601e+00	-7.037126686402400e+00	-2.309183258587828e+00
-6.997528706655200e+00	-7.031469832152800e+00	-2.577269491170699e+00
-7.003185560904800e+00	-7.025812977903200e+00	-2.851249839125447e+00
-7.008842415154400e+00	-7.020156123653600e+00	-3.131124303537554e+00
-7.014499269404000e+00	-7.014499269404000e+00	-3.416892885492591e+00
-6.894291116600000e+00	-7.071067811900000e+00	-6.225587272383425e-01
-6.903129951365002e+00	-7.062228977135002e+00	-8.105433697046585e-01
-6.911968786130000e+00	-7.053390142370000e+00	-1.003066922770452e+00
-6.920807620895000e+00	-7.044551307605000e+00	-1.200129390576934e+00
-6.929646455659999e+00	-7.035712472839999e+00	-1.401730777265227e+00
-6.938485290425000e+00	-7.026873638075000e+00	-1.607871086976588e+00
-6.947324125190000e+00	-7.018034803310000e+00	-1.818550323852086e+00
-6.956162959954999e+00	-7.009195968545000e+00	-2.033768492033067e+00
-6.965001794720000e+00	-7.000357133779999e+00	-2.253525595660426e+00
-6.973840629485001e+00	-6.991518299015000e+00	-2.477821638875677e+00
-6.982679464249999e+00	-6.982679464249999e+00	-2.706656625819515e+00
-6.816509370667999e+00	-7.071067811899999e+00	-4.869136264958973e-01
-6.829237292729600e+00	-7.058339889838399e+00	-6.452322767655253e-01
-6.841965214791200e+00	-7.045611967776800e+00	-8.071477733609184e-01
-6.854693136852801e+00	-7.032884045715201e+00	-9.726601286480521e-01
-6.867421058914399e+00	-7.020156123653599e+00	-1.141769354992331e+00
-6.880148980976000e+00	-7.007428201592000e+00	-1.314475464759207e+00
-6.892876903037600e+00	-6.994700279530399e+00	-1.490778470314285e+00
-6.905604825099201e+00	-6.981972357468800e+00	-1.670678384023163e+00
-6.918332747160800e+00	-6.969244435407201e+00	-1.854175218251148e+00
-6.931060669222401e+00	-6.956516513345600e+00	-2.041268985363727e+00
-6.943788591283999e+00	-6.943788591283999e+00	-2.231959697726408e+00
-6.724585489112000e+00	-7.071067811900000e+00	-3.890888636909673e-01
-6.741909605251399e+00	-7.053743695760598e+00	-5.262716069789537e-01
-6.759233721390800e+00	-7.036419579621199e+00	-6.663597006779318e-01
-6.776557837530200e+00	-7.019095463481801e+00	-8.093531759694086e-01
-6.793881953669601e+00	-7.001771347342401e+00	-9.552520640349015e-01
-6.811206069809000e+00	-6.984447231202999e+00	-1.104056396055799e+00
-6.828530185948399e+00	-6.967123115063599e+00	-1.255766203213384e+00
-6.845854302087799e+00	-6.949798998924201e+00	-1.410381516688890e+00
-6.863178418227198e+00	-6.932474882784798e+00	-1.567902367663505e+00
-6.880502534366600e+00	-6.915150766645400e+00	-1.728328787318346e+00
-6.897826650506000e+00	-6.897826650506000e+00	-1.891660806834464e+00
-6.618519471932001e+00	-7.071067811900001e+00	-3.148232185234018e-01
-6.641146888930400e+00	-7.048440394901601e+00	-4.361611391621869e-01
-6.663774305928799e+00	-7.025812977903199e+00	-5.598759549320582e-01
-6.686401722927201e+00	-7.003185560904801e+00	-6.859677353116299e-01
-6.709029139925600e+00	-6.980558143906400e+00	-8.144365497793746e-01
-6.731656556923999e+00	-6.957930726907999e+00	-9.452824678135963e-01
-6.754283973922399e+00	-6.935303309909599e+00	-1.078505558892325e+00
-6.776911390920798e+00	-6.912675892911198e+00	-1.214105892493448e+00
-6.799538807919198e+00	-6.890048475912798e+00	-1.352083538094610e+00
-6.822166224917600e+00	-6.867421058914401e+00	-1.492438565173348e+00
-6.844793641916000e+00	-6.844793641916000e+00	-1.635171043206892e+00
-6.498311319128000e+00	-7.071067811899999e+00	-2.561703331799675e-01
-6.526949143766600e+00	-7.042429987261399e+00	-3.651672257461885e-01
-6.555586968405200e+00	-7.013792162622801e+00	-4.761244884482333e-01
-6.584224793043802e+00	-6.985154337984201e+00	-5.890422621400949e-01
-6.612862617682399e+00	-6.956516513345600e+00	-7.039206876753711e-01
-6.641500442321001e+00	-6.927878688707001e+00	-8.207599059071546e-01
-6.670138266959600e+00	-6.899240864068400e+00	-9.395600576879527e-01
-6.698776091598198e+00	-6.870603039429797e+00	-1.060321283869807e+00
-6.727413916236800e+00	-6.841965214791200e+00	-1.183043725304232e+00
-6.756051740875400e+00	-6.813327390152599e+00	-1.307727522842293e+00
-6.784689565513999e+00	-6.784689565513999e+00	-1.434372817334416e+00
-6.363961030700001e+00	-7.071067811900000e+00	-2.083491835696593e-01
-6.399316369760000e+00	-7.035712472840001e+00	-3.074418108156256e-01
-6.434671708820000e+00	-7.000357133780001e+00	-4.081583907838244e-01
-6.470027047880000e+00	-6.965001794719999e+00	-5.104991885180095e-01
-6.505382386939999e+00	-6.929646455659999e+00	-6.144644690607002e-01
-6.540737726000000e+00	-6.894291116599999e+00	-7.200544974532151e-01
-6.576093065059999e+00	-6.858935777540000e+00	-8.272695387357285e-01
-6.611448404120001e+00	-6.823580438480001e+00	-9.361098579472266e-01
-6.646803743180000e+00	-6.788225099420000e+00	-1.046575720125464e+00
-6.682159082240000e+00	-6.752869760359999e+00	-1.158667390307069e+00
-6.717514421300000e+00	-6.717514421300000e+00	-1.272385133527458e+00
-6.363961030700001e+00	-7.071067811900000e+00	-2.083491835696593e-01
-6.399316369760000e+00	-7.035712472840001e+00	-3.074418108156256e-01
-6.434671708820000e+00	-7.000357133780001e+00	-4.081583907838244e-01
-6.470027047880000e+00	-6.965001794719999e+00	-5.104991885180095e-01
-6.505382386939999e+00	-6.929646455659999e+00	-6.144644690607002e-01
-6.540737726000000e+00	-6.894291116599999e+00	-7.200544974532151e-01
-6.576093065059999e+00	-6.858935777540000e+00	-8.272695387357285e-01
-6.611448404120001e+00	-6.823580438480001e+00	-9.361098579472266e-01
-6.646803743180000e+00	-6.788225099420000e+00	-1.046575720125464e+00
-6.682159082240000e+00	-6.752869760359999e+00	-1.158667390307069e+00
-6.717514421300000e+00	-6.717514421300000e+00	-1.272385133527458e+00
-6.215468606648000e+00	-7.071067811900000e+00	-2.088517409038972e-01
-6.258248566910598e+00	-7.028287851637397e+00	-2.920231264488280e-01
-6.301028527173201e+00	-6.985507891374802e+00	-3.775525746296201e-01
-6.343808487435800e+00	-6.942727931112200e+00	-4.654405549911621e-01
-6.386588447698400e+00	-6.899947970849600e+00	-5.556875370757568e-01
-6.429368407961000e+00	-6.857168010586999e+00	-6.482939904231930e-01
-6.472148368223601e+00	-6.814388050324401e+00	-7.432603845707050e-01
-6.514928328486199e+00	-6.771608090061799e+00	-8.405871890529960e-01
-6.557708288748801e+00	-6.728828129799201e+00	-9.402748734022313e-01
-6.600488249011398e+00	-6.686048169536599e+00	-1.042323907148037e+00
-6.643268209274000e+00	-6.643268209274000e+00	-1.146734759817470e+00
-6.052834046971999e+00	-7.071067811900001e+00	-1.836337007701052e-01
-6.103745735218400e+00	-7.020156123653600e+00	-2.579457583311378e-01
-6.154657423464800e+00	-6.969244435407200e+00	-3.348829690447322e-01
-6.205569111711199e+00	-6.918332747160799e+00	-4.144461243404498e-01
-6.256480799957601e+00	-6.867421058914402e+00	-4.966360156427262e-01
-6.307392488204000e+00	-6.816509370668000e+00	-5.814534343709219e-01
-6.358304176450401e+00	-6.765597682421601e+00	-6.688991719393055e-01
-6.409215864696801e+00	-6.714685994175200e+00	-7.589740197570571e-01
-6.460127552943201e+00	-6.663774305928801e+00	-8.516787692282356e-01
-6.511039241189599e+00	-6.612862617682399e+00	-9.470142117518574e-01
-6.561950929436001e+00	-6.561950929436001e+00	-1.044981138721776e+00
-5.876057351671999e+00	-7.071067811900000e+00	-1.437972725995227e-01
-5.935807874683400e+00	-7.011317288888601e+00	-2.137259018203941e-01
-5.995558397694801e+00	-6.951566765877202e+00	-2.862607449832539e-01
-6.055308920706200e+00	-6.891816242865800e+00	-3.614030814371026e-01
-6.115059443717599e+00	-6.832065719854399e+00	-4.391541905212679e-01
-6.174809966728999e+00	-6.772315196842999e+00	-5.195153515654201e-01
-6.234560489740398e+00	-6.712564673831598e+00	-6.024878438895658e-01
-6.294311012751799e+00	-6.652814150820199e+00	-6.880729468040492e-01
-6.354061535763199e+00	-6.593063627808800e+00	-7.762719396095420e-01
-6.413812058774600e+00	-6.533313104797401e+00	-8.670861015970648e-01
-6.473562581786000e+00	-6.473562581786000e+00	-9.605167120479714e-01
-5.685138520748000e+00	-7.071067811900000e+00	-9.587075236045911e-02
-5.754434985305600e+00	-7.001771347342399e+00	-1.642975131905378e-01
-5.823731449863200e+00	-6.932474882784800e+00	-2.351350579495896e-01
-5.893027914420800e+00	-6.863178418227200e+00	-3.083853823667724e-01
-5.962324378978400e+00	-6.793881953669599e+00	-3.840504821537500e-01
-6.031620843536000e+00	-6.724585489112000e+00	-4.621323530046853e-01
-6.100917308093599e+00	-6.655289024554400e+00	-5.426329905962899e-01
-6.170213772651199e+00	-6.585992559996800e+00	-6.255543905877639e-01
-6.239510237208800e+00	-6.516696095439199e+00	-7.108985486208419e-01
-6.308806701766399e+00	-6.447399630881600e+00	-7.986674603197634e-01
-6.378103166323999e+00	-6.378103166323999e+00	-8.888631212913022e-01
-5.480077554199999e+00	-7.071067811900000e+00	-4.376732709075692e-02
-5.559627067084999e+00	-6.991518299015000e+00	-1.125624077837383e-01
-5.639176579969999e+00	-6.911968786129999e+00	-1.834642466469368e-01
-5.718726092854999e+00	-6.832419273244999e+00	-2.564758628376368e-01
-5.798275605740000e+00	-6.752869760360000e+00	-3.316002754827549e-01
-5.877825118625000e+00	-6.673320247475000e+00	-4.088405036788396e-01
-5.957374631510000e+00	-6.593770734590000e+00	-4.881995664920816e-01
-6.036924144394999e+00	-6.514221221704998e+00	-5.696804829582973e-01
-6.116473657279999e+00	-6.434671708820000e+00	-6.532862720829632e-01
-6.196023170165000e+00	-6.355122195934999e+00	-7.390199528411754e-01
-6.275572683050000e+00	-6.275572683050000e+00	-8.268845441776783e-01
-5.260874452027999e+00	-7.071067811900001e+00	 1.014344720512850e-02
-5.351384120021599e+00	-6.980558143906401e+00	-6.023395383791072e-02
-5.441893788015200e+00	-6.890048475912800e+00	-1.323482253293657e-01
-5.532403456008799e+00	-6.799538807919199e+00	-2.062038142290952e-01
-5.622913124002399e+00	-6.709029139925598e+00	-2.818051674460369e-01
-5.713422791996000e+00	-6.618519471932000e+00	-3.591567318382590e-01
-5.803932459989600e+00	-6.528009803938401e+00	-4.382629542129461e-01
-5.894442127983199e+00	-6.437500135944800e+00	-5.191282813264086e-01
-5.984951795976800e+00	-6.346990467951199e+00	-6.017571598840618e-01
-6.075461463970397e+00	-6.256480799957598e+00	-6.861540365404348e-01
-6.165971131964000e+00	-6.165971131964000e+00	-7.723233578992116e-01
-5.027529214231999e+00	-7.071067811900000e+00	 6.442691760780567e-02
-5.129706144115398e+00	-6.968890882016598e+00	-8.313753047998029e-03
-5.231883073998800e+00	-6.866713952133200e+00	-8.238258751798858e-02
-5.334060003882199e+00	-6.764537022249799e+00	-1.577859837736211e-01
-5.436236933765598e+00	-6.662360092366399e+00	-2.345303397036950e-01
-5.538413863649000e+00	-6.560183162483000e+00	-3.126220531143823e-01
-5.640590793532399e+00	-6.458006232599599e+00	-3.920675217292047e-01
-5.742767723415799e+00	-6.355829302716199e+00	-4.728731431890338e-01
-5.844944653299200e+00	-6.253652372832799e+00	-5.550453150521162e-01
-5.947121583182600e+00	-6.151475442949399e+00	-6.385904347940505e-01
-6.049298513065999e+00	-6.049298513065999e+00	-7.235148998077986e-01
-4.780041840811998e+00	-7.071067811900001e+00	 1.182263326236712e-01
-4.894593139366399e+00	-6.956516513345600e+00	 4.263050542267000e-02
-5.009144437920800e+00	-6.841965214791201e+00	-3.386293062407775e-02
-5.123695736475199e+00	-6.727413916236799e+00	-1.112629910118412e-01
-5.238247035029600e+00	-6.612862617682400e+00	-1.895786911053434e-01
-5.352798333583999e+00	-6.498311319128001e+00	-2.688190461387288e-01
-5.467349632138399e+00	-6.383760020573599e+00	-3.489930712156037e-01
-5.581900930692798e+00	-6.269208722019199e+00	-4.301097813090019e-01
-5.696452229247200e+00	-6.154657423464799e+00	-5.121781912614211e-01
-5.811003527801599e+00	-6.040106124910399e+00	-5.952073157847948e-01
-5.925554826355999e+00	-5.925554826355999e+00	-6.792061694605285e-01
-4.518412331767998e+00	-7.071067811900000e+00	 1.710477869391878e-01
-4.646045105774597e+00	-6.943435037893400e+00	 9.229879995543366e-02
-4.773677879781198e+00	-6.815802263886799e+00	 1.309428703567428e-02
-4.901310653787798e+00	-6.688169489880199e+00	-6.657822227469343e-02
-5.028943427794399e+00	-6.560536715873600e+00	-1.467311982290488e-01
-5.156576201800998e+00	-6.432903941866998e+00	-2.273771108795511e-01
-5.284208975807598e+00	-6.305271167860399e+00	-3.085284300771608e-01
-5.411841749814199e+00	-6.177638393853799e+00	-3.901976254716155e-01
-5.539474523820799e+00	-6.050005619847200e+00	-4.723971665114651e-01
-5.667107297827399e+00	-5.922372845840599e+00	-5.551395224440456e-01
-5.794740071833999e+00	-5.794740071833999e+00	-6.384371623155216e-01
-4.242640687100000e+00	-7.071067811900000e+00	 2.226277193357578e-01
-4.384062043340000e+00	-6.929646455660000e+00	 1.405571153226985e-01
-4.525483399580000e+00	-6.788225099420000e+00	 5.847879632648978e-02
-4.666904755820000e+00	-6.646803743180000e+00	-2.362420238883675e-02
-4.808326112060000e+00	-6.505382386939999e+00	-1.057688452559516e-01
-4.949747468300000e+00	-6.363961030700000e+00	-1.879720964042108e-01
-5.091168824540000e+00	-6.222539674460000e+00	-2.702509196596781e-01
-5.232590180780000e+00	-6.081118318220000e+00	-3.526222785451217e-01
-5.374011537019999e+00	-5.939696961979999e+00	-4.351031362800420e-01
-5.515432893260000e+00	-5.798275605740000e+00	-5.177104557806480e-01
-5.656854249500000e+00	-5.656854249500000e+00	-6.004611996598922e-01
 0.000000000000000e+00	 0.000000000000000e+00	-3.089061221261833e-02
 1.414213562400000e-01	-1.414213562400000e-01	 8.125325881739968e-03
 2.828427124800000e-01	-2.828427124800000e-01	 4.541969588238510e-02
 4.242640687200001e-01	-4.242640687200001e-01	 8.099249778943216e-02
 5.656854249600001e-01	-5.656854249600001e-01	 1.148437316029929e-01
 7.071067812000000e-01	-7.071067812000000e-01	 1.469733973231691e-01
 8.485281374400000e-01	-8.485281374400000e-01	 1.773814949500582e-01
 9.899494936800000e-01	-9.899494936800000e-01	 2.060680244837474e-01
 1.131370849920000e+00	-1.131370849920000e+00	 2.330329859243189e-01
 1.272792206160000e+00	-1.272792206160000e+00	 2.582763792718487e-01
 1.414213562400000e+00	-1.414213562400000e+00	 2.817982045264006e-01
-2.828427124795000e-01	-2.828427124795000e-01	-4.507009115923619e-02
-1.414213562395000e-01	-4.242640687193149e-01	-8.664936125605384e-03
 5.000333914290111e-13	-5.656854249587601e-01	 2.637296751875490e-02
 1.414213562405001e-01	-7.071067811978351e-01	 6.004361977392393e-02
 2.828427124805001e-01	-8.485281374365402e-01	 9.234702063999467e-02
 4.242640687205000e-01	-9.899494936748751e-01	 1.232831701170442e-01
 5.656854249605000e-01	-1.131370849912840e+00	 1.528520682051510e-01
 7.071067812005002e-01	-1.272792206150435e+00	 1.810537149043792e-01
 8.485281374405000e-01	-1.414213562387660e+00	 2.078881102148001e-01
 9.899494936804997e-01	-1.555634918624515e+00	 2.333552541364692e-01
 1.131370849920500e+00	-1.697056274861000e+00	 2.574551466694465e-01
-5.656854249580000e-01	-5.656854249580000e-01	-5.994804006939485e-02
-4.242640687180000e-01	-7.071067811976601e-01	-2.579591826362116e-02
-2.828427124780000e-01	-8.485281374366399e-01	 7.343268857301556e-03
-1.414213562380000e-01	-9.899494936749400e-01	 3.946952129344116e-02
 2.000007798264036e-12	-1.131370849912560e+00	 7.058283904485713e-02
 1.414213562419999e-01	-1.272792206149500e+00	 1.006832221116158e-01
 2.828427124819999e-01	-1.414213562385760e+00	 1.297706704937699e-01
 4.242640687220000e-01	-1.555634918621340e+00	 1.578451841913732e-01
 5.656854249619998e-01	-1.697056274856240e+00	 1.849067632044801e-01
 7.071067812020000e-01	-1.838477631090460e+00	 2.109554075331385e-01
 8.485281374420000e-01	-1.979898987324000e+00	 2.359911171773965e-01
-8.485281374355000e-01	-8.485281374355000e-01	-7.552445894320595e-02
-7.071067811955001e-01	-9.899494936750352e-01	-4.326762053241311e-02
-5.656854249555002e-01	-1.131370849913640e+00	-1.166940010205583e-02
-4.242640687155000e-01	-1.272792206151315e+00	 1.927020234790781e-02
-2.828427124755001e-01	-1.414213562388060e+00	 4.955118681752647e-02
-1.414213562355001e-01	-1.555634918623875e+00	 7.917355330684199e-02
 4.499872696683838e-12	-1.697056274858760e+00	 1.081373018158966e-01
 1.414213562444998e-01	-1.838477631092715e+00	 1.364424323447309e-01
 2.828427124845000e-01	-1.979898987325740e+00	 1.640889448933816e-01
 4.242640687244999e-01	-2.121320343557835e+00	 1.910768394618891e-01
 5.656854249644998e-01	-2.262741699789000e+00	 2.174061160502871e-01
-1.131370849912000e+00	-1.131370849912000e+00	-9.179934778078216e-02
-9.899494936720004e-01	-1.272792206151440e+00	-6.108004293208331e-02
-8.485281374320001e-01	-1.414213562389760e+00	-3.066503935941504e-02
-7.071067811920001e-01	-1.555634918626960e+00	-5.543370627492383e-04
-5.656854249520000e-01	-1.697056274863040e+00	 2.925206395794110e-02
-4.242640687120001e-01	-1.838477631098000e+00	 5.875416370268327e-02
-2.828427124720001e-01	-1.979898987331840e+00	 8.795196217150671e-02
-1.414213562320001e-01	-2.121320343564560e+00	 1.168454593644364e-01
 7.999850781814644e-12	-2.262741699796160e+00	 1.454346552814982e-01
 1.414213562479998e-01	-2.404163056026640e+00	 1.737195499227205e-01
 2.828427124880000e-01	-2.545584412256000e+00	 2.017001432881292e-01
-1.414213562387500e+00	-1.414213562387500e+00	-1.087727065822345e-01
-1.272792206147500e+00	-1.555634918626875e+00	-7.923318546273038e-02
-1.131370849907500e+00	-1.697056274865000e+00	-4.964364891485894e-02
-9.899494936675000e-01	-1.838477631101875e+00	-2.000409693860868e-02
-8.485281374274999e-01	-1.979898987337500e+00	 9.685470466037821e-03
-7.071067811875000e-01	-2.121320343571875e+00	 3.942505329908857e-02
-5.656854249475001e-01	-2.262741699805000e+00	 6.921465156055973e-02
-4.242640687075001e-01	-2.404163056036875e+00	 9.905426525046050e-02
-2.828427124675001e-01	-2.545584412267500e+00	 1.289438943688071e-01
-1.414213562275002e-01	-2.687005768496876e+00	 1.588835389156117e-01
 1.250000103425464e-11	-2.828427124725000e+00	 1.888731988908863e-01
-1.697056274862000e+00	-1.697056274862000e+00	-1.264445353476759e-01
-1.555634918622000e+00	-1.838477631101340e+00	-9.772704812446140e-02
-1.414213562382000e+00	-1.979898987339360e+00	-6.860522876848453e-02
-1.272792206142000e+00	-2.121320343576060e+00	-3.907907727974459e-02
-1.131370849902000e+00	-2.262741699811440e+00	-9.148593658249229e-03
-9.899494936619999e-01	-2.404163056045500e+00	 2.118622209600127e-02
-8.485281374220000e-01	-2.545584412278240e+00	 5.192536998300373e-02
-7.071067811820001e-01	-2.687005768509660e+00	 8.306885000275696e-02
-5.656854249420001e-01	-2.828427124739760e+00	 1.146166621552586e-01
-4.242640687020001e-01	-2.969848480968540e+00	 1.465688064405034e-01
-2.828427124619999e-01	-3.111269837196000e+00	 1.789252828584938e-01
-1.979898987335500e+00	-1.979898987335500e+00	-1.448148340772193e-01
-1.838477631095500e+00	-2.121320343574834e+00	-1.165616309173760e-01
-1.697056274855500e+00	-2.262741699812840e+00	-8.754977892037658e-02
-1.555634918615500e+00	-2.404163056049515e+00	-5.777927808624093e-02
-1.414213562375500e+00	-2.545584412284860e+00	-2.725012841499062e-02
-1.272792206135500e+00	-2.687005768518875e+00	 4.037670093357829e-03
-1.131370849895500e+00	-2.828427124751559e+00	 3.608411743878256e-02
-9.899494936554999e-01	-2.969848480982916e+00	 6.888921362126424e-02
-8.485281374154998e-01	-3.111269837212939e+00	 1.024529586407810e-01
-7.071067811755001e-01	-3.252691193441636e+00	 1.367753524973144e-01
-5.656854249354999e-01	-3.394112549669000e+00	 1.718563951908435e-01
-2.262741699808000e+00	-2.262741699808000e+00	-1.638836027709729e-01
-2.121320343568000e+00	-2.404163056047360e+00	-1.357369338415721e-01
-1.979898987327999e+00	-2.545584412285439e+00	-1.064772993706256e-01
-1.838477631088000e+00	-2.687005768522240e+00	-7.610469935817676e-02
-1.697056274848000e+00	-2.828427124757760e+00	-4.461913380425810e-02
-1.555634918607999e+00	-2.969848480991999e+00	-1.202060270891242e-02
-1.414213562368000e+00	-3.111269837224960e+00	 2.169089392782078e-02
-1.272792206128000e+00	-3.252691193456639e+00	 5.651535610590208e-02
-1.131370849888000e+00	-3.394112549687040e+00	 9.245278382528466e-02
-9.899494936480000e-01	-3.535533905916160e+00	 1.248801127402540e-01
-8.485281374079998e-01	-3.676955262144000e+00	 1.556774361197173e-01
-2.545584412279500e+00	-2.545584412279500e+00	-1.836508414290517e-01
-2.404163056039499e+00	-2.687005768518914e+00	-1.552529568971521e-01
-2.262741699799500e+00	-2.828427124757160e+00	-1.253877901193259e-01
-2.121320343559500e+00	-2.969848480994235e+00	-9.405534109563328e-02
-1.979898987319500e+00	-3.111269837230140e+00	-6.125560982613294e-02
-1.838477631079500e+00	-3.252691193464875e+00	-2.698859631088843e-02
-1.697056274839500e+00	-3.394112549698439e+00	 8.745699450037947e-03
-1.555634918599500e+00	-3.535533905930834e+00	 4.130157303720772e-02
-1.414213562359500e+00	-3.676955262162060e+00	 7.255191091060550e-02
-1.272792206119500e+00	-3.818376618392115e+00	 1.054148445288115e-01
-1.131370849879500e+00	-3.959797974621000e+00	 1.398996975096928e-01
-2.828427124750000e+00	-2.828427124750000e+00	-2.041165500515673e-01
-2.687005768510000e+00	-2.969848480989500e+00	-1.751097000842175e-01
-2.545584412270000e+00	-3.111269837227999e+00	-1.442812511665643e-01
-2.404163056029999e+00	-3.252691193465500e+00	-1.116312032986953e-01
-2.262741699790000e+00	-3.394112549702000e+00	-7.715955648069497e-02
-2.121320343550000e+00	-3.535533905937500e+00	-4.551713918810189e-02
-1.979898987310000e+00	-3.676955262172000e+00	-1.484491489864542e-02
-1.838477631070000e+00	-3.818376618405500e+00	 1.777468752352054e-02
-1.697056274830000e+00	-3.959797974638000e+00	 5.235099147042463e-02
-1.555634918590000e+00	-4.101219330869499e+00	 8.889332542431813e-02
-1.414213562350000e+00	-4.242640687100000e+00	 1.274110180100478e-01
-2.828427124750000e+00	-2.828427124750000e+00	-2.041165500515673e-01
-2.687005768510000e+00	-2.969848480989500e+00	-1.751097000842175e-01
-2.545584412270000e+00	-3.111269837227999e+00	-1.442812511665643e-01
-2.404163056029999e+00	-3.252691193465500e+00	-1.116312032986953e-01
-2.262741699790000e+00	-3.394112549702000e+00	-7.715955648069497e-02
-2.121320343550000e+00	-3.535533905937500e+00	-4.551713918810189e-02
-1.979898987310000e+00	-3.676955262172000e+00	-1.484491489864542e-02
-1.838477631070000e+00	-3.818376618405500e+00	 1.777468752352054e-02
-1.697056274830000e+00	-3.959797974638000e+00	 5.235099147042463e-02
-1.555634918590000e+00	-4.101219330869499e+00	 8.889332542431813e-02
-1.414213562350000e+00	-4.242640687100000e+00	 1.274110180100478e-01
-3.111269837220500e+00	-3.111269837220500e+00	-2.470710569812993e-01
-2.969848480980500e+00	-3.252691193460095e+00	-2.071662054233384e-01
-2.828427124740500e+00	-3.394112549698881e+00	-1.691936929252520e-01
-2.687005768500501e+00	-3.535533905936856e+00	-1.353069850818893e-01
-2.545584412260500e+00	-3.676955262174020e+00	-1.028158822204591e-01
-2.404163056020500e+00	-3.818376618410376e+00	-6.881424617956453e-02
-2.262741699780501e+00	-3.959797974645920e+00	-3.329275377691250e-02
-2.121320343540500e+00	-4.101219330880655e+00	 3.757923232199034e-03
-1.979898987300501e+00	-4.242640687114581e+00	 4.234711323506701e-02
-1.838477631060500e+00	-4.384062043347694e+00	 8.248414476160071e-02
-1.697056274820500e+00	-4.525483399580001e+00	 1.241783464843046e-01
-3.394112549692001e+00	-3.394112549692001e+00	-2.867539064786243e-01
-3.252691193452000e+00	-3.535533905931681e+00	-2.451990793708495e-01
-3.111269837212000e+00	-3.676955262170721e+00	-2.055064382858288e-01
-2.969848480972000e+00	-3.818376618409120e+00	-1.647818886051934e-01
-2.828427124732001e+00	-3.959797974646881e+00	-1.264826780124815e-01
-2.687005768492000e+00	-4.101219330884001e+00	-8.798747547504851e-02
-2.545584412252001e+00	-4.242640687120480e+00	-4.839060532871578e-02
-2.404163056012000e+00	-4.384062043356321e+00	-7.682739281131196e-03
-2.262741699772000e+00	-4.525483399591520e+00	 3.414545110266085e-02
-2.121320343532000e+00	-4.666904755826081e+00	 7.710329440022404e-02
-1.979898987292001e+00	-4.808326112060000e+00	 1.212001193317311e-01
-3.676955262164501e+00	-3.676955262164501e+00	-3.318229627825885e-01
-3.535533905924501e+00	-3.818376618404256e+00	-2.874571789128312e-01
-3.394112549684501e+00	-3.959797974643521e+00	-2.425052150332843e-01
-3.252691193444502e+00	-4.101219330882296e+00	-1.969501085220811e-01
-3.111269837204500e+00	-4.242640687120580e+00	-1.507748964541144e-01
-2.969848480964501e+00	-4.384062043358375e+00	-1.039626156010110e-01
-2.828427124724501e+00	-4.525483399595680e+00	-6.012791830613122e-02
-2.687005768484501e+00	-4.666904755832496e+00	-1.653674895901769e-02
-2.545584412244501e+00	-4.808326112068821e+00	 2.775655594018095e-02
-2.404163056004502e+00	-4.949747468304658e+00	 7.276132501668423e-02
-2.262741699764501e+00	-5.091168824540001e+00	 1.184868870383366e-01
-3.959797974638001e+00	-3.959797974638001e+00	-3.725534726144994e-01
-3.818376618398000e+00	-4.101219330877821e+00	-3.232836743172711e-01
-3.676955262158002e+00	-4.242640687117281e+00	-2.738564574400654e-01
-3.535533905918002e+00	-4.384062043356381e+00	-2.242548593622697e-01
-3.394112549678001e+00	-4.525483399595121e+00	-1.744619171600315e-01
-3.252691193438001e+00	-4.666904755833502e+00	-1.244606676062388e-01
-3.111269837198001e+00	-4.808326112071520e+00	-7.423414717051931e-02
-2.969848480958001e+00	-4.949747468309181e+00	-2.376539201922662e-02
-2.828427124718001e+00	-5.091168824546481e+00	 2.319097937198825e-02
-2.687005768478001e+00	-5.232590180783420e+00	 6.946878804486553e-02
-2.545584412238001e+00	-5.374011537020001e+00	 1.160492008475142e-01
-4.242640687112501e+00	-4.242640687112501e+00	-4.059308962513187e-01
-4.101219330872501e+00	-4.384062043352376e+00	-3.525411479734499e-01
-3.959797974632501e+00	-4.525483399592001e+00	-2.994227429513977e-01
-3.818376618392501e+00	-4.666904755831376e+00	-2.465587185658195e-01
-3.676955262152501e+00	-4.808326112070501e+00	-1.939321118941221e-01
-3.535533905912501e+00	-4.949747468309376e+00	-1.415259597104530e-01
-3.394112549672501e+00	-5.091168824548001e+00	-8.932329848568658e-02
-3.252691193432502e+00	-5.232590180786376e+00	-3.730716438743301e-02
-3.111269837192501e+00	-5.374011537024501e+00	 1.453940671999251e-02
-2.969848480952502e+00	-5.515432893262377e+00	 6.623337927555006e-02
-2.828427124712501e+00	-5.656854249500001e+00	 1.138976127600813e-01
-4.525483399588001e+00	-4.525483399588001e+00	-4.318178062556673e-01
-4.384062043348002e+00	-4.666904755827923e+00	-3.750921724387721e-01
-4.242640687108002e+00	-4.808326112067682e+00	-3.190666441194988e-01
-4.101219330868002e+00	-4.949747468307282e+00	-2.637242586797613e-01
-3.959797974628001e+00	-5.091168824546721e+00	-2.090480531982376e-01
-3.818376618388002e+00	-5.232590180786001e+00	-1.550210644503325e-01
-3.676955262148002e+00	-5.374011537025122e+00	-1.016263289081817e-01
-3.535533905908002e+00	-5.515432893264082e+00	-4.884688274064641e-02
-3.394112549668002e+00	-5.656854249502882e+00	 3.334238186701255e-03
-3.252691193428001e+00	-5.798275605741521e+00	 5.493399831157797e-02
-3.111269837188002e+00	-5.939696961980002e+00	 1.059693623750053e-01
-4.808326112064502e+00	-4.808326112064502e+00	-4.500767702969583e-01
-4.666904755824501e+00	-4.949747468304457e+00	-3.907993153774306e-01
-4.525483399584502e+00	-5.091168824544322e+00	-3.326507286033255e-01
-4.384062043344501e+00	-5.232590180784097e+00	-2.756140473578391e-01
-4.242640687104502e+00	-5.374011537023781e+00	-2.196723087209143e-01
-4.101219330864502e+00	-5.515432893263376e+00	-1.648085494692220e-01
-3.959797974624502e+00	-5.656854249502882e+00	-1.110058060761635e-01
-3.818376618384502e+00	-5.798275605742298e+00	-5.824711471186036e-02
-3.676955262144502e+00	-5.939696961981621e+00	-6.515511243139760e-03
-3.535533905904502e+00	-6.081118318220857e+00	 4.420596876645963e-02
-3.394112549664502e+00	-6.222539674460002e+00	 9.393429005670717e-02
-5.091168824542002e+00	-5.091168824542002e+00	-4.605703511511653e-01
-4.949747468302004e+00	-5.232590180781983e+00	-3.995251395601279e-01
-4.808326112062002e+00	-5.374011537021922e+00	-3.400375591683365e-01
-4.666904755822002e+00	-5.515432893261823e+00	-2.820906473602693e-01
-4.525483399582003e+00	-5.656854249501682e+00	-2.256674412171396e-01
-4.384062043342003e+00	-5.798275605741503e+00	-1.707509775168948e-01
-4.242640687102002e+00	-5.939696961981282e+00	-1.173242927342014e-01
-4.101219330862002e+00	-6.081118318221022e+00	-6.537042304044818e-02
-3.959797974622002e+00	-6.222539674460721e+00	-1.487240430372611e-02
-3.818376618382001e+00	-6.363961030700381e+00	 3.418672791116606e-02
-3.676955262142002e+00	-6.505382386940003e+00	 8.182393834274088e-02
-5.374011537020502e+00	-5.374011537020502e+00	-4.631611067005682e-01
-5.232590180780502e+00	-5.515432893260497e+00	-4.011322028638590e-01
-5.091168824540503e+00	-5.656854249500483e+00	-3.410896936862535e-01
-4.949747468300502e+00	-5.798275605740457e+00	-2.830166165535049e-01
-4.808326112060502e+00	-5.939696961980423e+00	-2.268960085481136e-01
-4.666904755820502e+00	-6.081118318220376e+00	-1.727109064493042e-01
-4.525483399580501e+00	-6.222539674460322e+00	-1.204443467330192e-01
-4.384062043340502e+00	-6.363961030700256e+00	-7.007936557191799e-02
-4.242640687100502e+00	-6.505382386940182e+00	-2.159899883536476e-02
-4.101219330860502e+00	-6.646803743180097e+00	 2.501371791057955e-02
-3.959797974620502e+00	-6.788225099420003e+00	 6.977574940315923e-02
-5.656854249500000e+00	-5.656854249500000e+00	-4.577115899335220e-01
-5.515432893260000e+00	-5.798275605740000e+00	-3.954830582716650e-01
-5.374011537020000e+00	-5.939696961980000e+00	-3.356696851348016e-01
-5.232590180780001e+00	-6.081118318220000e+00	-2.782545079099861e-01
-5.091168824540000e+00	-6.222539674460000e+00	-2.232205636809967e-01
-4.949747468300000e+00	-6.363961030700001e+00	-1.705508892283459e-01
-4.808326112060000e+00	-6.505382386939999e+00	-1.202285210292582e-01
-4.666904755820000e+00	-6.646803743180000e+00	-7.223649525767201e-02
-4.525483399580001e+00	-6.788225099420000e+00	-2.655784778422909e-02
-4.384062043340000e+00	-6.929646455659999e+00	 1.682438582373519e-02
-4.242640687100000e+00	-7.071067811900000e+00	 5.792717030219408e-02
-8.485281374200000e+00	-8.485281374200000e+00	 1.965859904697112e+00
-8.343860017978999e+00	-8.626702730440000e+00	 1.906940714828331e+00
-8.202438661756000e+00	-8.768124086679999e+00	 1.850104301224955e+00
-8.061017305530999e+00	-8.909545442920001e+00	 1.795367626486800e+00
-7.919595949304000e+00	-9.050966799160001e+00	 1.742747653516957e+00
-7.778174593075001e+00	-9.192388155400000e+00	 1.692261345521823e+00
-7.636753236844000e+00	-9.333809511640000e+00	 1.643925666011094e+00
-7.495331880611000e+00	-9.475230867880001e+00	 1.597757578797776e+00
-7.353910524375999e+00	-9.616652224119999e+00	 1.553774047998194e+00
-7.212489168138999e+00	-9.758073580360000e+00	 1.511992038031998e+00
-7.071067811900000e+00	-9.899494936600000e+00	 1.472428513622170e+00
-8.768124086680000e+00	-8.768124086680000e+00	 1.831126252429930e+00
-8.626702730455390e+00	-8.909545442919905e+00	 1.779304768841141e+00
-8.485281374229160e+00	-9.050966799159820e+00	 1.729159911414218e+00
-8.343860018001308e+00	-9.192388155399744e+00	 1.680708642747581e+00
-8.202438661771838e+00	-9.333809511639679e+00	 1.633967925742937e+00
-8.061017305540750e+00	-9.475230867879624e+00	 1.588954723605296e+00
-7.919595949308040e+00	-9.616652224119580e+00	 1.545685999842974e+00
-7.778174593073709e+00	-9.758073580359545e+00	 1.504178718267604e+00
-7.636753236837760e+00	-9.899494936599520e+00	 1.464449842994142e+00
-7.495331880600191e+00	-1.004091629283950e+01	 1.426516338440871e+00
-7.353910524361001e+00	-1.018233764907950e+01	 1.390395169329418e+00
-9.050966799159999e+00	-9.050966799159999e+00	 1.721047586181712e+00
-8.909545442932160e+00	-9.192388155399621e+00	 1.669543286683020e+00
-8.768124086703041e+00	-9.333809511639283e+00	 1.621858468715333e+00
-8.626702730472640e+00	-9.475230867878981e+00	 1.579644052759066e+00
-8.485281374240961e+00	-9.616652224118720e+00	 1.538734037952248e+00
-8.343860018008000e+00	-9.758073580358500e+00	 1.499145387498495e+00
-8.202438661773760e+00	-9.899494936598321e+00	 1.460895064904739e+00
-8.061017305538240e+00	-1.004091629283818e+01	 1.424000033981229e+00
-7.919595949301439e+00	-1.018233764907808e+01	 1.388477258841542e+00
-7.778174593063360e+00	-1.032375900531802e+01	 1.354343703902592e+00
-7.636753236823999e+00	-1.046518036155800e+01	 1.325111140422362e+00
-9.333809511640000e+00	-9.333809511640000e+00	 1.625627920566661e+00
-9.192388155409311e+00	-9.475230867879146e+00	 1.581837468114508e+00
-9.050966799177642e+00	-9.616652224118383e+00	 1.538732012156463e+00
-8.909545442944989e+00	-9.758073580357705e+00	 1.496303808195569e+00
-8.768124086711358e+00	-9.899494936597121e+00	 1.457183500821645e+00
-8.626702730476751e+00	-1.004091629283663e+01	 1.422970847883875e+00
-8.485281374241161e+00	-1.018233764907622e+01	 1.389690371884525e+00
-8.343860018004589e+00	-1.032375900531590e+01	 1.357359036632455e+00
-8.202438661767040e+00	-1.046518036155568e+01	 1.328728884588674e+00
-8.061017305528512e+00	-1.060660171779555e+01	 1.301899236137757e+00
-7.919595949289000e+00	-1.074802307403550e+01	 1.276430506506512e+00
-9.616652224120001e+00	-9.616652224120001e+00	 1.541789858992388e+00
-9.475230867886841e+00	-9.758073580358481e+00	 1.505697634733657e+00
-9.333809511652962e+00	-9.899494936597121e+00	 1.469914093125369e+00
-9.192388155418360e+00	-1.004091629283592e+01	 1.434431489932731e+00
-9.050966799183040e+00	-1.018233764907488e+01	 1.399242080701031e+00
-8.909545442946998e+00	-1.032375900531400e+01	 1.364338120755630e+00
-8.768124086710239e+00	-1.046518036155328e+01	 1.334113626070296e+00
-8.626702730472759e+00	-1.060660171779272e+01	 1.308921179617105e+00
-8.485281374234560e+00	-1.074802307403232e+01	 1.284696524235803e+00
-8.343860017995642e+00	-1.088944443027208e+01	 1.261437023100894e+00
-8.202438661756000e+00	-1.103086578651200e+01	 1.239140039386882e+00
-9.899494936600000e+00	-9.899494936600000e+00	 1.469312918998148e+00
-9.758073580364751e+00	-1.004091629283763e+01	 1.440903303031401e+00
-9.616652224129000e+00	-1.018233764907550e+01	 1.412426056129282e+00
-9.475230867892751e+00	-1.032375900531363e+01	 1.383873434319176e+00
-9.333809511655998e+00	-1.046518036155200e+01	 1.356326350934842e+00
-9.192388155418751e+00	-1.060660171779063e+01	 1.329234487007356e+00
-9.050966799181001e+00	-1.074802307402950e+01	 1.302445343878303e+00
-8.909545442942751e+00	-1.088944443026862e+01	 1.275964035827132e+00
-8.768124086704001e+00	-1.103086578650800e+01	 1.252143681929335e+00
-8.626702730464752e+00	-1.117228714274763e+01	 1.232431905011069e+00
-8.485281374225000e+00	-1.131370849898750e+01	 1.213284244114904e+00
-1.018233764908000e+01	-1.018233764908000e+01	 1.407976615451487e+00
-1.004091629284304e+01	-1.032375900531658e+01	 1.387233986826912e+00
-9.899494936605759e+00	-1.046518036155352e+01	 1.366449380625893e+00
-9.758073580368162e+00	-1.060660171779082e+01	 1.345591334828068e+00
-9.616652224130240e+00	-1.074802307402848e+01	 1.324620225785031e+00
-9.475230867892000e+00	-1.088944443026650e+01	 1.303541167650781e+00
-9.333809511653440e+00	-1.103086578650488e+01	 1.282359274598272e+00
-9.192388155414561e+00	-1.117228714274362e+01	 1.261079660819424e+00
-9.050966799175361e+00	-1.131370849898272e+01	 1.239707440525107e+00
-8.909545442935840e+00	-1.145512985522218e+01	 1.218247727945157e+00
-8.768124086695998e+00	-1.159655121146200e+01	 1.198907625742004e+00
-1.046518036156000e+01	-1.046518036156000e+01	 1.357404993029308e+00
-1.032375900532171e+01	-1.060660171779534e+01	 1.344390676962161e+00
-1.018233764908324e+01	-1.074802307403118e+01	 1.330847514123453e+00
-1.004091629284459e+01	-1.088944443026750e+01	 1.316780618541732e+00
-9.899494936605761e+00	-1.103086578650432e+01	 1.302195104264506e+00
-9.758073580366750e+00	-1.117228714274162e+01	 1.287096085358239e+00
-9.616652224127558e+00	-1.131370849897942e+01	 1.271488675908359e+00
-9.475230867888190e+00	-1.145512985521771e+01	 1.255377990019249e+00
-9.333809511648639e+00	-1.159655121145648e+01	 1.238769141814253e+00
-9.192388155408912e+00	-1.173797256769575e+01	 1.221667245435678e+00
-9.050966799169000e+00	-1.187939392393550e+01	 1.204077415044784e+00
-1.074802307404000e+01	-1.074802307404000e+01	 1.316546636673968e+00
-1.060660171780076e+01	-1.088944443027392e+01	 1.311101814880734e+00
-1.046518036156144e+01	-1.103086578650848e+01	 1.304722591132021e+00
-1.032375900532204e+01	-1.117228714274368e+01	 1.297414079368852e+00
-1.018233764908256e+01	-1.131370849897952e+01	 1.289181393551206e+00
-1.004091629284300e+01	-1.145512985521600e+01	 1.280029647658020e+00
-9.899494936603359e+00	-1.159655121145312e+01	 1.269963955687196e+00
-9.758073580363639e+00	-1.173797256769088e+01	 1.258989431655593e+00
-9.616652224123838e+00	-1.187939392392928e+01	 1.247111189599027e+00
-9.475230867883960e+00	-1.202081528016832e+01	 1.234334343572277e+00
-9.333809511644001e+00	-1.216223663640800e+01	 1.220664007649079e+00
-1.103086578652000e+01	-1.103086578652000e+01	 1.285361160177353e+00
-1.088944443028019e+01	-1.117228714275230e+01	 1.287453066428176e+00
-1.074802307404036e+01	-1.131370849898542e+01	 1.288205015630913e+00
-1.060660171780051e+01	-1.145512985521935e+01	 1.287622121639064e+00
-1.046518036156064e+01	-1.159655121145408e+01	 1.285709498325086e+00
-1.032375900532075e+01	-1.173797256768963e+01	 1.282472259580399e+00
-1.018233764908084e+01	-1.187939392392598e+01	 1.277915519315382e+00
-1.004091629284091e+01	-1.202081528016314e+01	 1.272044391459371e+00
-9.899494936600959e+00	-1.216223663640112e+01	 1.264863989960664e+00
-9.758073580360989e+00	-1.230365799263990e+01	 1.256379428786514e+00
-9.616652224120999e+00	-1.244507934887950e+01	 1.246595821923139e+00
-1.131370849900000e+01	-1.131370849900000e+01	 1.263978964320327e+00
-1.117228714276000e+01	-1.145512985523050e+01	 1.273574832735650e+00
-1.103086578652000e+01	-1.159655121146200e+01	 1.281425189101587e+00
-1.088944443028000e+01	-1.173797256769450e+01	 1.287535147184120e+00
-1.074802307404000e+01	-1.187939392392800e+01	 1.291909820768196e+00
-1.060660171780000e+01	-1.202081528016250e+01	 1.294554323657717e+00
-1.046518036156000e+01	-1.216223663639800e+01	 1.295473769675546e+00
-1.032375900532000e+01	-1.230365799263450e+01	 1.294673272663506e+00
-1.018233764908000e+01	-1.244507934887200e+01	 1.292157946482376e+00
-1.004091629284000e+01	-1.258650070511050e+01	 1.287932905011895e+00
-9.899494936600000e+00	-1.272792206135000e+01	 1.282003262150763e+00
-1.131370849900000e+01	-1.131370849900000e+01	 1.263978964320327e+00
-1.117228714276000e+01	-1.145512985523050e+01	 1.273574832735650e+00
-1.103086578652000e+01	-1.159655121146200e+01	 1.281425189101587e+00
-1.088944443028000e+01	-1.173797256769450e+01	 1.287535147184120e+00
-1.074802307404000e+01	-1.187939392392800e+01	 1.291909820768196e+00
-1.060660171780000e+01	-1.202081528016250e+01	 1.294554323657717e+00
-1.046518036156000e+01	-1.216223663639800e+01	 1.295473769675546e+00
-1.032375900532000e+01	-1.230365799263450e+01	 1.294673272663506e+00
-1.018233764908000e+01	-1.244507934887200e+01	 1.292157946482376e+00
-1.004091629284000e+01	-1.258650070511050e+01	 1.287932905011895e+00
-9.899494936600000e+00	-1.272792206135000e+01	 1.282003262150763e+00
-1.159655121147900e+01	-1.159655121147900e+01	 1.265321739490027e+00
-1.145512985523901e+01	-1.173797256770788e+01	 1.271470874519263e+00
-1.131370849899904e+01	-1.187939392393794e+01	 1.276100136930077e+00
-1.117228714275909e+01	-1.202081528016917e+01	 1.279214640400969e+00
-1.103086578651916e+01	-1.216223663640156e+01	 1.280819498629392e+00
-1.088944443027925e+01	-1.230365799263513e+01	 1.280919825331761e+00
-1.074802307403936e+01	-1.244507934886986e+01	 1.279520734243446e+00
-1.060660171779949e+01	-1.258650070510577e+01	 1.276627339118773e+00
-1.046518036155964e+01	-1.272792206134284e+01	 1.272244753731030e+00
-1.032375900531981e+01	-1.286934341758108e+01	 1.266378091872453e+00
-1.018233764908000e+01	-1.301076477382050e+01	 1.259032467354246e+00
-1.187939392395600e+01	-1.187939392395600e+01	 1.263724642038744e+00
-1.173797256771604e+01	-1.202081528018384e+01	 1.266867003384192e+00
-1.159655121147616e+01	-1.216223663641296e+01	 1.268715131633575e+00
-1.145512985523636e+01	-1.230365799264336e+01	 1.269274140377897e+00
-1.131370849899664e+01	-1.244507934887504e+01	 1.268549143227123e+00
-1.117228714275700e+01	-1.258650070510800e+01	 1.266545253810171e+00
-1.103086578651744e+01	-1.272792206134224e+01	 1.263267585774912e+00
-1.088944443027796e+01	-1.286934341757776e+01	 1.258721252788179e+00
-1.074802307403856e+01	-1.301076477381456e+01	 1.252911368535754e+00
-1.060660171779924e+01	-1.315218613005264e+01	 1.245843046722379e+00
-1.046518036156000e+01	-1.329360748629200e+01	 1.237521401071751e+00
-1.216223663643100e+01	-1.216223663643100e+01	 1.259318065253893e+00
-1.202081528019109e+01	-1.230365799265837e+01	 1.259893612968130e+00
-1.187939392395136e+01	-1.244507934888706e+01	 1.259400567200034e+00
-1.173797256771181e+01	-1.258650070511709e+01	 1.257844041453115e+00
-1.159655121147244e+01	-1.272792206134844e+01	 1.255229149249841e+00
-1.145512985523325e+01	-1.286934341758113e+01	 1.251561004131631e+00
-1.131370849899424e+01	-1.301076477381513e+01	 1.246844719658858e+00
-1.117228714275541e+01	-1.315218613005048e+01	 1.241085409410854e+00
-1.103086578651676e+01	-1.329360748628716e+01	 1.234288186985898e+00
-1.088944443027829e+01	-1.343502884252517e+01	 1.226458166001230e+00
-1.074802307404000e+01	-1.357645019876450e+01	 1.217600460093037e+00
-1.244507934890400e+01	-1.244507934890400e+01	 1.252232399925254e+00
-1.230365799266416e+01	-1.258650070513146e+01	 1.250681094411112e+00
-1.216223663642464e+01	-1.272792206136024e+01	 1.248286835119735e+00
-1.202081528018544e+01	-1.286934341759034e+01	 1.245054735467139e+00
-1.187939392394656e+01	-1.301076477382176e+01	 1.240989908888289e+00
-1.173797256770800e+01	-1.315218613005450e+01	 1.236097468837107e+00
-1.159655121146976e+01	-1.329360748628856e+01	 1.230382528786464e+00
-1.145512985523184e+01	-1.343502884252394e+01	 1.223850202228188e+00
-1.131370849899424e+01	-1.357645019876064e+01	 1.216505602673057e+00
-1.117228714275696e+01	-1.371787155499866e+01	 1.208353843650803e+00
-1.103086578652000e+01	-1.385929291123800e+01	 1.199400038710107e+00
-1.272792206137500e+01	-1.272792206137500e+01	 1.242598034345048e+00
-1.258650070513525e+01	-1.286934341760313e+01	 1.239359836355590e+00
-1.244507934889600e+01	-1.301076477383250e+01	 1.235504324385357e+00
-1.230365799265725e+01	-1.315218613006313e+01	 1.231036611762863e+00
-1.216223663641900e+01	-1.329360748629500e+01	 1.225961811835577e+00
-1.202081528018125e+01	-1.343502884252813e+01	 1.220285037969915e+00
-1.187939392394400e+01	-1.357645019876250e+01	 1.214011403551249e+00
-1.173797256770725e+01	-1.371787155499813e+01	 1.207146021983901e+00
-1.159655121147100e+01	-1.385929291123500e+01	 1.199694006691147e+00
-1.145512985523525e+01	-1.400071426747313e+01	 1.191660471115209e+00
-1.131370849900000e+01	-1.414213562371250e+01	 1.183050528717265e+00
-1.301076477384400e+01	-1.301076477384400e+01	 1.230545354308010e+00
-1.286934341760436e+01	-1.315218613007336e+01	 1.226060224946513e+00
-1.272792206136544e+01	-1.329360748630384e+01	 1.221183421492052e+00
-1.258650070512724e+01	-1.343502884253544e+01	 1.215920057185641e+00
-1.244507934888976e+01	-1.357645019876816e+01	 1.210275245287249e+00
-1.230365799265300e+01	-1.371787155500200e+01	 1.204254099075793e+00
-1.216223663641696e+01	-1.385929291123696e+01	 1.197861731849141e+00
-1.202081528018164e+01	-1.400071426747304e+01	 1.191103256924113e+00
-1.187939392394704e+01	-1.414213562371024e+01	 1.183983787636475e+00
-1.173797256771316e+01	-1.428355697994856e+01	 1.176508437340946e+00
-1.159655121148000e+01	-1.442497833618800e+01	 1.168682319411197e+00
-1.329360748631100e+01	-1.329360748631100e+01	 1.216204743111462e+00
-1.315218613007149e+01	-1.343502884254216e+01	 1.210912643831391e+00
-1.301076477383297e+01	-1.357645019877426e+01	 1.205454510437515e+00
-1.286934341759541e+01	-1.371787155500729e+01	 1.199835456083350e+00
-1.272792206135884e+01	-1.385929291124124e+01	 1.194060593941366e+00
-1.258650070512325e+01	-1.400071426747613e+01	 1.188135037202980e+00
-1.244507934888864e+01	-1.414213562371194e+01	 1.182063899078557e+00
-1.230365799265501e+01	-1.428355697994869e+01	 1.175852292797415e+00
-1.216223663642236e+01	-1.442497833618636e+01	 1.169505331607814e+00
-1.202081528019069e+01	-1.456639969242497e+01	 1.163028128776971e+00
-1.187939392396000e+01	-1.470782104866450e+01	 1.156425797591047e+00
-1.357645019877600e+01	-1.357645019877600e+01	 1.199706581555388e+00
-1.343502884253664e+01	-1.371787155500954e+01	 1.194047474160374e+00
-1.329360748629857e+01	-1.385929291124376e+01	 1.188447972722060e+00
-1.315218613006176e+01	-1.400071426747866e+01	 1.182913190306469e+00
-1.301076477382624e+01	-1.414213562371424e+01	 1.177448239998570e+00
-1.286934341759200e+01	-1.428355697995050e+01	 1.172058234902282e+00
-1.272792206135904e+01	-1.442497833618744e+01	 1.166748288140469e+00
-1.258650070512736e+01	-1.456639969242506e+01	 1.161523512854947e+00
-1.244507934889696e+01	-1.470782104866336e+01	 1.156389022206478e+00
-1.230365799266784e+01	-1.484924240490234e+01	 1.151349929374772e+00
-1.216223663644000e+01	-1.499066376114200e+01	 1.146411347558487e+00
-1.385929291123900e+01	-1.385929291123900e+01	 1.181181247942502e+00
-1.371787155499981e+01	-1.400071426747549e+01	 1.175595094586321e+00
-1.357645019876224e+01	-1.414213562371234e+01	 1.170294187348695e+00
-1.343502884252629e+01	-1.428355697994957e+01	 1.165283639208151e+00
-1.329360748629196e+01	-1.442497833618716e+01	 1.160568563162161e+00
-1.315218613005925e+01	-1.456639969242513e+01	 1.156154072227149e+00
-1.301076477382816e+01	-1.470782104866346e+01	 1.152045279438481e+00
-1.286934341759869e+01	-1.484924240490217e+01	 1.148247297850474e+00
-1.272792206137084e+01	-1.499066376114124e+01	 1.144765240536392e+00
-1.258650070514461e+01	-1.513208511738069e+01	 1.141604220588442e+00
-1.244507934892000e+01	-1.527350647362050e+01	 1.138769351117785e+00
-1.414213562370000e+01	-1.414213562370000e+01	 1.160759118078325e+00
-1.400071426746100e+01	-1.428355697994000e+01	 1.155685881264882e+00
-1.385929291122400e+01	-1.442497833618000e+01	 1.151123530823193e+00
-1.371787155498900e+01	-1.456639969242000e+01	 1.147077179644295e+00
-1.357645019875600e+01	-1.470782104866000e+01	 1.143551940638170e+00
-1.343502884252500e+01	-1.484924240490000e+01	 1.140552926733748e+00
-1.329360748629600e+01	-1.499066376114000e+01	 1.138085250878901e+00
-1.315218613006900e+01	-1.513208511738000e+01	 1.136154026040450e+00
-1.301076477384400e+01	-1.527350647362000e+01	 1.134764365204164e+00
-1.286934341762100e+01	-1.541492782986000e+01	 1.133921381374756e+00
-1.272792206140000e+01	-1.555634918610000e+01	 1.133630187575887e+00
 1.414213562400000e+00	-1.414213562400000e+00	 2.721774659524705e-01
 2.050609665460500e+00	-2.050609665460500e+00	 3.917050404885315e-01
 2.687005768522000e+00	-2.687005768522000e+00	 4.999066824515285e-01
 3.323401871584501e+00	-3.323401871584501e+00	 5.994773154590201e-01
 3.959797974648001e+00	-3.959797974648001e+00	 6.680779111458111e-01
 4.596194077712500e+00	-4.596194077712500e+00	 7.243717916857134e-01
 5.232590180777999e+00	-5.232590180777999e+00	 7.733155047044167e-01
 5.868986283844499e+00	-5.868986283844499e+00	 8.142410274537486e-01
 6.505382386912000e+00	-6.505382386912000e+00	 8.464803243090080e-01
 7.141778489980499e+00	-7.141778489980499e+00	 8.693653467697939e-01
 7.778174593050000e+00	-7.778174593050000e+00	 8.822280334608400e-01
 1.131370849920500e+00	-1.697056274861000e+00	 2.584836807999951e-01
 1.767766952981001e+00	-2.333452377925015e+00	 3.799190213598771e-01
 2.404163056042499e+00	-2.969848480989659e+00	 4.893950511300574e-01
 3.040559159105000e+00	-3.606244584054935e+00	 5.810471227214873e-01
 3.676955262168499e+00	-4.242640687120839e+00	 6.489527023476267e-01
 4.313351365233000e+00	-4.879036790187375e+00	 7.091906763554492e-01
 4.949747468298500e+00	-5.515432893254540e+00	 7.610930024968483e-01
 5.586143571365001e+00	-6.151828996322335e+00	 8.039916399197538e-01
 6.222539674432501e+00	-6.788225099390761e+00	 8.372185348944321e-01
 6.858935777500999e+00	-7.424621202459815e+00	 8.601056208143261e-01
 7.495331880570501e+00	-8.061017305529502e+00	 8.719848181968826e-01
 8.485281374420000e-01	-1.979898987324000e+00	 2.452940461949937e-01
 1.484924240502500e+00	-2.616295090390960e+00	 3.687556789250624e-01
 2.121320343564000e+00	-3.252691193458240e+00	 4.796246226487817e-01
 2.757716446626501e+00	-3.889087296525840e+00	 5.581759003280959e-01
 3.394112549690000e+00	-4.525483399593760e+00	 6.279004645009086e-01
 4.030508652754500e+00	-5.161879502662001e+00	 6.922450583809345e-01
 4.666904755819999e+00	-5.798275605730560e+00	 7.472685195336530e-01
 5.303300858886500e+00	-6.434671708799439e+00	 7.923027890025247e-01
 5.939696961953999e+00	-7.071067811868639e+00	 8.266797949522224e-01
 6.576093065022500e+00	-7.707463914938160e+00	 8.497314526694593e-01
 7.212489168092000e+00	-8.343860018007998e+00	 8.607896645638301e-01
 5.656854249644998e-01	-2.262741699789000e+00	 2.326085621372701e-01
 1.202081528025000e+00	-2.899137802858335e+00	 3.582150131839001e-01
 1.838477631086500e+00	-3.535533905927741e+00	 4.663482732835806e-01
 2.474873734149000e+00	-4.171930008997216e+00	 5.375812256219986e-01
 3.111269837212500e+00	-4.808326112066760e+00	 6.051298676680307e-01
 3.747665940277000e+00	-5.444722215136376e+00	 6.737436114012223e-01
 4.384062043342499e+00	-6.081118318206058e+00	 7.320507330305432e-01
 5.020458146409000e+00	-6.717514421275816e+00	 7.793831554944242e-01
 5.656854249476497e+00	-7.353910524345638e+00	 8.150727888513706e-01
 6.293250352545000e+00	-7.990306627415535e+00	 8.384515302808030e-01
 6.929646455614502e+00	-8.626702730485501e+00	 8.488512640838921e-01
 2.828427124880000e-01	-2.545584412256000e+00	 2.204272286266342e-01
 9.192388155484998e-01	-3.181980515327140e+00	 3.482970241362160e-01
 1.555634918610000e+00	-3.818376618398160e+00	 4.444486218946964e-01
 2.192031021672500e+00	-4.454772721469061e+00	 5.180251649610829e-01
 2.828427124736000e+00	-5.091168824539840e+00	 5.837018287576956e-01
 3.464823227800500e+00	-5.727564927610501e+00	 6.538950149109404e-01
 4.101219330866000e+00	-6.363961030681041e+00	 7.156483260590345e-01
 4.737615433932501e+00	-7.000357133751461e+00	 7.654414260438314e-01
 5.374011536999999e+00	-7.636753236821758e+00	 8.026062068171074e-01
 6.010407640068497e+00	-8.273149339891937e+00	 8.264745474504218e-01
 6.646803743138000e+00	-8.909545442962001e+00	 8.363783141359534e-01
 1.250000103425464e-11	-2.828427124725000e+00	 2.087500456628937e-01
 6.363961030729999e-01	-3.464823227797375e+00	 3.381516548936241e-01
 1.272792206134501e+00	-4.101219330869501e+00	 4.235355642932506e-01
 1.909188309197000e+00	-4.737615433941377e+00	 4.995182602019074e-01
 2.545584412260501e+00	-5.374011537013001e+00	 5.669499573804510e-01
 3.181980515325000e+00	-6.010407640084375e+00	 6.329079542605605e-01
 3.818376618390500e+00	-6.646803743155499e+00	 6.982699875466927e-01
 4.454772721457000e+00	-7.283199846226375e+00	 7.506862931553974e-01
 5.091168824524500e+00	-7.919595949296999e+00	 7.894887449311523e-01
 5.727564927592998e+00	-8.555992052367374e+00	 8.140092038370867e-01
 6.363961030662500e+00	-9.192388155437500e+00	 8.235795179558250e-01
-2.828427124619999e-01	-3.111269837196000e+00	 1.975770132458573e-01
 3.535533905984999e-01	-3.747665940269040e+00	 3.151158845223091e-01
 9.899494936600001e-01	-4.384062043341760e+00	 4.036196392578436e-01
 1.626345596722500e+00	-5.020458146414160e+00	 4.820710539580378e-01
 2.262741699786000e+00	-5.656854249486241e+00	 5.513203479046948e-01
 2.899137802850500e+00	-6.293250352557999e+00	 6.122177988751307e-01
 3.535533905915999e+00	-6.929646455629439e+00	 6.801244122773873e-01
 4.171930008982499e+00	-7.566042558700560e+00	 7.353264551902953e-01
 4.808326112050000e+00	-8.202438661771357e+00	 7.759291051319651e-01
 5.444722215118499e+00	-8.838834764841840e+00	 8.012642049565315e-01
 6.081118318188001e+00	-9.475230867912002e+00	 8.106635846364945e-01
-5.656854249354999e-01	-3.394112549669000e+00	 1.869081313753371e-01
 7.071067812500015e-02	-4.030508652742135e+00	 2.930252234656463e-01
 7.071067811865002e-01	-4.666904755814940e+00	 3.847113910165360e-01
 1.343502884249000e+00	-5.303300858887416e+00	 4.656940896000714e-01
 1.979898987312500e+00	-5.939696961959560e+00	 5.368235428434691e-01
 2.616295090377000e+00	-6.576093065031375e+00	 5.989500328702817e-01
 3.252691193442500e+00	-7.212489168102860e+00	 6.614203008915430e-01
 3.889087296509000e+00	-7.848885271174014e+00	 7.195706163664692e-01
 4.525483399576499e+00	-8.485281374244840e+00	 7.621359952149960e-01
 5.161879502644999e+00	-9.121677477315334e+00	 7.884482621816966e-01
 5.798275605714499e+00	-9.758073580385501e+00	 7.978392291283787e-01
-8.485281374079998e-01	-3.676955262144000e+00	 1.647543002830667e-01
-2.121320343474997e-01	-4.313351365216659e+00	 2.718902173907081e-01
 4.242640687140002e-01	-4.949747468289040e+00	 3.668213645544757e-01
 1.060660171776500e+00	-5.586143571361140e+00	 4.503979112556988e-01
 1.697056274840000e+00	-6.222539674432960e+00	 5.234700854668924e-01
 2.333452377904500e+00	-6.858935777504501e+00	 5.868881736577439e-01
 2.969848480970000e+00	-7.495331880575758e+00	 6.423663598863848e-01
 3.606244584036499e+00	-8.131727983646739e+00	 7.036274867588865e-01
 4.242640687103999e+00	-8.768124086717439e+00	 7.483181288329386e-01
 4.879036790172498e+00	-9.404520189787860e+00	 7.757700927429824e-01
 5.515432893242000e+00	-1.004091629285800e+01	 7.853151722395715e-01
-1.131370849879500e+00	-3.959797974621000e+00	 1.406268118336175e-01
-4.949747468189998e-01	-4.596194077692615e+00	 2.517214128971417e-01
 1.414213562425004e-01	-5.232590180764060e+00	 3.499601056139559e-01
 7.778174593050006e-01	-5.868986283835336e+00	 4.361930638097452e-01
 1.414213562368501e+00	-6.505382386906441e+00	 5.112705198022202e-01
 2.050609665433000e+00	-7.141778489977375e+00	 5.760427644070965e-01
 2.687005768498500e+00	-7.778174593048141e+00	 6.313601469440687e-01
 3.323401871565000e+00	-8.414570696118734e+00	 6.877057822997894e-01
 3.959797974632499e+00	-9.050966799189158e+00	 7.346842254959747e-01
 4.596194077701000e+00	-9.687362902259414e+00	 7.634384197285029e-01
 5.232590180770501e+00	-1.032375900532950e+01	 7.733001406360996e-01
-1.414213562350000e+00	-4.242640687100000e+00	 1.174135046762954e-01
-7.778174592895003e-01	-4.879036790170000e+00	 2.325293573417905e-01
-1.414213562280000e-01	-5.515432893240000e+00	 3.341381606944522e-01
 4.949747468345002e-01	-6.151828996310000e+00	 4.230900929042178e-01
 1.131370849898000e+00	-6.788225099380000e+00	 5.002353906338846e-01
 1.767766952962500e+00	-7.424621202449999e+00	 5.664243490450850e-01
 2.404163056028000e+00	-8.061017305520000e+00	 6.225073218042743e-01
 3.040559159094500e+00	-8.697413408590000e+00	 6.720142247789429e-01
 3.676955262162000e+00	-9.333809511660000e+00	 7.214430105720352e-01
 4.313351365230499e+00	-9.970205614729998e+00	 7.516619720843314e-01
 4.949747468300000e+00	-1.060660171780000e+01	 7.572500765811375e-01
 7.778174593050000e+00	-7.778174593050000e+00	 8.822280334608400e-01
 8.414570696119501e+00	-8.414570696119501e+00	 9.109058873812605e-01
 9.050966799188002e+00	-9.050966799188002e+00	 9.346381557984893e-01
 9.687362902255503e+00	-9.687362902255503e+00	 9.533259267160685e-01
 1.032375900532200e+01	-1.032375900532200e+01	 9.801424954207247e-01
 1.096015510838750e+01	-1.096015510838750e+01	 9.692320211452444e-01
 1.159655121145200e+01	-1.159655121145200e+01	 9.640801909804875e-01
 1.223294731451550e+01	-1.223294731451550e+01	 9.667351988389777e-01
 1.286934341757800e+01	-1.286934341757800e+01	 9.777525615408618e-01
 1.350573952063951e+01	-1.350573952063951e+01	 9.976877769449140e-01
 1.414213562370000e+01	-1.414213562370000e+01	 1.027096323949540e+00
 7.495331880570501e+00	-8.061017305529502e+00	 8.719848181968826e-01
 8.131727983640186e+00	-8.697413408599004e+00	 9.042849819904701e-01
 8.768124086709243e+00	-9.333809511667521e+00	 9.377352714825612e-01
 9.404520189777667e+00	-9.970205614735045e+00	 9.586355417976231e-01
 1.004091629284546e+01	-1.060660171780158e+01	 9.678788721799718e-01
 1.067731239591262e+01	-1.124299782086713e+01	 9.576397476020404e-01
 1.131370849897916e+01	-1.187939392393168e+01	 9.544297395647875e-01
 1.195010460204507e+01	-1.251579002699525e+01	 9.588043890462725e-01
 1.258650070511034e+01	-1.315218613005782e+01	 9.713192180618390e-01
 1.322289680817499e+01	-1.378858223311941e+01	 9.925297296651301e-01
 1.385929291123900e+01	-1.442497833618000e+01	 1.022991407949085e+00
 7.212489168092000e+00	-8.343860018007998e+00	 8.607896645638301e-01
 7.848885271161841e+00	-8.980256121077520e+00	 8.965931376143180e-01
 8.485281374231361e+00	-9.616652224146081e+00	 9.330783565703397e-01
 9.121677477300562e+00	-1.025304832721368e+01	 9.629757550644280e-01
 9.758073580369443e+00	-1.088944443028032e+01	 9.544914715269956e-01
 1.039446968343800e+01	-1.152584053334600e+01	 9.462168035962698e-01
 1.103086578650624e+01	-1.216223663641073e+01	 9.447490662153235e-01
 1.166726188957416e+01	-1.279863273947448e+01	 9.506438055578025e-01
 1.230365799264176e+01	-1.343502884253728e+01	 9.644565488343130e-01
 1.294005409570905e+01	-1.407142494559912e+01	 9.867428042934299e-01
 1.357645019877600e+01	-1.470782104866000e+01	 1.018058061222697e+00
 6.929646455614502e+00	-8.626702730485501e+00	 8.488512640838921e-01
 7.566042558684464e+00	-9.263098833555045e+00	 8.880390493515919e-01
 8.202438661754361e+00	-9.899494936623682e+00	 9.274401962127824e-01
 8.838834764824188e+00	-1.053589103969141e+01	 9.540747155117772e-01
 9.475230867893943e+00	-1.117228714275822e+01	 9.415357780872948e-01
 1.011162697096363e+01	-1.180868324582413e+01	 9.350260145971627e-01
 1.074802307403325e+01	-1.244507934888912e+01	 9.351009953750553e-01
 1.138441917710279e+01	-1.308147545195321e+01	 9.423162717902775e-01
 1.202081528017226e+01	-1.371787155501639e+01	 9.572273762487615e-01
 1.265721138324167e+01	-1.435426765807865e+01	 9.803898221940794e-01
 1.329360748631100e+01	-1.499066376114000e+01	 1.012359104108445e+00
 6.646803743138000e+00	-8.909545442962001e+00	 8.363783141359534e-01
 7.283199846208062e+00	-9.545941546031582e+00	 8.788314181579751e-01
 7.919595949278242e+00	-1.018233764910032e+01	 9.210294949423565e-01
 8.555992052348541e+00	-1.081873375216822e+01	 9.343371500784889e-01
 9.192388155418964e+00	-1.145512985523528e+01	 9.290746194410069e-01
 9.828784258489504e+00	-1.209152595830150e+01	 9.241302071585396e-01
 1.046518036156017e+01	-1.272792206136688e+01	 9.255483525715074e-01
 1.110157646463094e+01	-1.336431816443143e+01	 9.338846122449409e-01
 1.173797256770184e+01	-1.400071426749513e+01	 9.496945237801628e-01
 1.237436867077287e+01	-1.463711037055799e+01	 9.735336058158107e-01
 1.301076477384400e+01	-1.527350647362000e+01	 1.005957358028831e+00
 6.363961030662500e+00	-9.192388155437500e+00	 8.235795179558250e-01
 7.000357133732626e+00	-9.828784258507126e+00	 8.691789508463008e-01
 7.636753236802999e+00	-1.046518036157600e+01	 9.078662098446482e-01
 8.273149339873628e+00	-1.110157646464413e+01	 9.155539958150587e-01
 8.909545442944502e+00	-1.173797256771150e+01	 9.171708242529348e-01
 9.545941546015630e+00	-1.237436867077813e+01	 9.135922089188482e-01
 1.018233764908700e+01	-1.301076477384400e+01	 9.161539644167975e-01
 1.081873375215863e+01	-1.364716087690913e+01	 9.254116525075925e-01
 1.145512985523050e+01	-1.428355697997350e+01	 9.419208159880202e-01
 1.209152595830263e+01	-1.491995308303713e+01	 9.662369786918448e-01
 1.272792206137500e+01	-1.555634918610000e+01	 9.989156454908139e-01
 6.081118318188001e+00	-9.475230867912002e+00	 8.106635846364945e-01
 6.717514421258160e+00	-1.011162697098168e+01	 8.592903600867923e-01
 7.353910524328642e+00	-1.074802307405072e+01	 8.875154994520366e-01
 7.990306627399441e+00	-1.138441917711912e+01	 8.981447512640360e-01
 8.626702730470564e+00	-1.202081528018688e+01	 9.035178407779694e-01
 9.263098833542003e+00	-1.265721138325400e+01	 9.034748486012001e-01
 9.899494936613765e+00	-1.329360748632048e+01	 9.069806586076644e-01
 1.053589103968585e+01	-1.393000358938633e+01	 9.169602192486244e-01
 1.117228714275824e+01	-1.456639969245152e+01	 9.339690785163920e-01
 1.180868324583096e+01	-1.520279579551609e+01	 9.585627654399252e-01
 1.244507934890400e+01	-1.583919189858000e+01	 9.912967900858416e-01
 5.798275605714499e+00	-9.758073580385501e+00	 7.978392291283787e-01
 6.434671708784665e+00	-1.039446968345524e+01	 8.474897922927132e-01
 7.071067811855160e+00	-1.103086578652448e+01	 8.689786708469230e-01
 7.707463914925988e+00	-1.166726188959321e+01	 8.822071048700306e-01
 8.343860017997143e+00	-1.230365799266142e+01	 8.898983628390934e-01
 8.980256121068628e+00	-1.294005409572913e+01	 8.938409560133894e-01
 9.616652224140443e+00	-1.357645019879633e+01	 8.980912639255034e-01
 1.025304832721259e+01	-1.421284630186301e+01	 9.085931402230478e-01
 1.088944443028506e+01	-1.484924240492919e+01	 9.259021380939216e-01
 1.152584053335787e+01	-1.548563850799485e+01	 9.505737917623484e-01
 1.216223663643100e+01	-1.612203461106000e+01	 9.831636164898783e-01
 5.515432893242000e+00	-1.004091629285800e+01	 7.853151722395715e-01
 6.151828996312139e+00	-1.067731239592782e+01	 8.283266215830806e-01
 6.788225099382562e+00	-1.131370849899728e+01	 8.523534124739183e-01
 7.424621202453262e+00	-1.195010460206638e+01	 8.678387450776597e-01
 8.061017305524244e+00	-1.258650070513512e+01	 8.775058878713766e-01
 8.697413408595503e+00	-1.322289680820350e+01	 8.840781093321625e-01
 9.333809511667043e+00	-1.385929291127152e+01	 8.895486102363892e-01
 9.970205614738862e+00	-1.449568901433918e+01	 9.003732442705178e-01
 1.060660171781097e+01	-1.513208511740648e+01	 9.177828225338678e-01
 1.124299782088335e+01	-1.576848122047343e+01	 9.423328844459924e-01
 1.187939392395600e+01	-1.640487732354000e+01	 9.745789504634360e-01
 5.232590180770501e+00	-1.032375900532950e+01	 7.733001406360996e-01
 5.868986283840586e+00	-1.096015510839941e+01	 8.115149931806388e-01
 6.505382386910839e+00	-1.159655121146912e+01	 8.377374127776311e-01
 7.141778489981268e+00	-1.223294731453865e+01	 8.551373603315331e-01
 7.778174593051863e+00	-1.286934341760798e+01	 8.664381043194329e-01
 8.414570696122627e+00	-1.350573952067713e+01	 8.743629132184378e-01
 9.050966799193565e+00	-1.414213562374609e+01	 8.814155284911076e-01
 9.687362902264669e+00	-1.477853172681485e+01	 8.923633613153703e-01
 1.032375900533594e+01	-1.541492782988342e+01	 9.096739607341320e-01
 1.096015510840739e+01	-1.605132393295181e+01	 9.339028713623376e-01
 1.159655121147900e+01	-1.668772003602000e+01	 9.656056188516008e-01
 4.949747468300000e+00	-1.060660171780000e+01	 7.572500765811375e-01
 5.586143571370002e+00	-1.124299782087000e+01	 7.971525955299934e-01
 6.222539674440002e+00	-1.187939392394000e+01	 8.252283602026724e-01
 6.858935777510002e+00	-1.251579002701000e+01	 8.442006390762635e-01
 7.495331880580002e+00	-1.315218613008000e+01	 8.567927006278766e-01
 8.131727983650002e+00	-1.378858223315000e+01	 8.657278133346296e-01
 8.768124086720004e+00	-1.442497833622001e+01	 8.737292456736631e-01
 9.404520189790006e+00	-1.506137443929001e+01	 8.846263223666465e-01
 1.004091629286000e+01	-1.569777054236000e+01	 9.016383826772859e-01
 1.067731239593000e+01	-1.633416664543001e+01	 9.253465814675115e-01
 1.131370849900000e+01	-1.697056274850000e+01	 9.563064495840665e-01
-1.414213562350000e+00	-4.242640687100000e+00	 1.174135046762954e-01
-7.778174592895003e-01	-4.879036790170000e+00	 2.325293573417905e-01
-1.414213562280000e-01	-5.515432893240000e+00	 3.341381606944522e-01
 4.949747468345002e-01	-6.151828996310000e+00	 4.230900929042178e-01
 1.131370849898000e+00	-6.788225099380000e+00	 5.002353906338846e-01
 1.767766952962500e+00	-7.424621202449999e+00	 5.664243490450850e-01
 2.404163056028000e+00	-8.061017305520000e+00	 6.225073218042743e-01
 3.040559159094500e+00	-8.697413408590000e+00	 6.720142247789429e-01
 3.676955262162000e+00	-9.333809511660000e+00	 7.214430105720352e-01
 4.313351365230499e+00	-9.970205614729998e+00	 7.516619720843314e-01
 4.949747468300000e+00	-1.060660171780000e+01	 7.572500765811375e-01
-1.697056274820500e+00	-4.525483399580001e+00	 1.036258572553597e-01
-1.060660171760001e+00	-5.161879502648195e+00	 2.167110964907153e-01
-4.242640686985003e-01	-5.798275605716580e+00	 3.165533875791534e-01
 2.121320343639998e-01	-6.434671708785156e+00	 4.040029130349008e-01
 8.485281374274997e-01	-7.071067811853919e+00	 4.799099138658596e-01
 1.484924240492000e+00	-7.707463914922875e+00	 5.451246895795883e-01
 2.121320343557500e+00	-8.343860017992018e+00	 6.004975981892844e-01
 2.757716446623999e+00	-8.980256121061354e+00	 6.468790562197578e-01
 3.394112549691499e+00	-9.616652224130881e+00	 6.940155416714301e-01
 4.030508652759998e+00	-1.025304832720060e+01	 7.270693367447741e-01
 4.666904755829500e+00	-1.088944443027050e+01	 7.321851454974100e-01
-1.979898987292001e+00	-4.808326112060000e+00	 9.280683554821834e-02
-1.343502884231501e+00	-5.444722215126582e+00	 2.037696055016933e-01
-7.071067811700008e-01	-6.081118318193520e+00	 3.017535259107124e-01
-7.071067810750033e-02	-6.717514421260820e+00	 3.876087836336802e-01
 5.656854249559994e-01	-7.353910524328480e+00	 4.621856240234945e-01
 1.202081528020500e+00	-7.990306627396500e+00	 5.263343509335319e-01
 1.838477631085999e+00	-8.626702730464881e+00	 5.809053267236256e-01
 2.474873734152499e+00	-9.263098833533622e+00	 6.267489722660360e-01
 3.111269837219999e+00	-9.899494936602720e+00	 6.681962009502361e-01
 3.747665940288499e+00	-1.053589103967218e+01	 7.040881391817437e-01
 4.384062043358000e+00	-1.117228714274200e+01	 7.105962335754186e-01
-2.262741699764501e+00	-5.091168824540001e+00	 8.496699004092470e-02
-1.626345596704000e+00	-5.727564927605155e+00	 1.937154340034929e-01
-9.899494936425006e-01	-6.363961030670821e+00	 2.897491244605061e-01
-3.535533905800006e-01	-7.000357133736997e+00	 3.739182526144366e-01
 2.828427124834993e-01	-7.636753236803679e+00	 4.470730681630715e-01
 9.192388155479992e-01	-8.273149339870875e+00	 5.100638793054962e-01
 1.555634918613499e+00	-8.909545442938580e+00	 5.637410527480665e-01
 2.192031021679999e+00	-9.545941546006796e+00	 6.089550137103898e-01
 2.828427124747499e+00	-1.018233764907552e+01	 6.465562459313124e-01
 3.464823227815998e+00	-1.081873375214476e+01	 6.845666436230110e-01
 4.101219330885500e+00	-1.145512985521450e+01	 6.925810292597882e-01
-2.545584412238001e+00	-5.374011537020001e+00	 8.011687197691167e-02
-1.909188309177501e+00	-6.010407640083922e+00	 1.865591323822572e-01
-1.272792206116001e+00	-6.646803743148482e+00	 2.805507327572824e-01
-6.363961030535007e-01	-7.283199846213678e+00	 3.629418686484221e-01
 9.999320815801129e-12	-7.919595949279522e+00	 4.345827940982406e-01
 6.363961030744989e-01	-8.555992052346003e+00	 4.963238216514202e-01
 1.272792206139999e+00	-9.192388155413122e+00	 5.490153223607335e-01
 1.909188309206499e+00	-9.828784258480880e+00	 5.935077257930275e-01
 2.545584412273998e+00	-1.046518036154928e+01	 6.330728175473874e-01
 3.181980515342500e+00	-1.110157646461832e+01	 6.689317496106623e-01
 3.818376618411999e+00	-1.173797256768800e+01	 6.782372209951498e-01
-2.828427124712501e+00	-5.656854249500001e+00	 7.826703335703702e-02
-2.192031021652001e+00	-6.293250352562874e+00	 1.823112517815527e-01
-1.555634918590501e+00	-6.929646455626500e+00	 2.741689010872139e-01
-9.192388155280012e-01	-7.566042558690877e+00	 3.546901811643030e-01
-2.828427124645012e-01	-8.202438661756002e+00	 4.247253504000583e-01
 3.535533905999987e-01	-8.838834764821875e+00	 4.851247256846488e-01
 9.899494936654989e-01	-9.475230867888502e+00	 5.367386824171559e-01
 1.626345596731998e+00	-1.011162697095588e+01	 5.804176545115540e-01
 2.262741699799498e+00	-1.074802307402400e+01	 6.263618402432927e-01
 2.899137802867998e+00	-1.138441917709288e+01	 6.577792914618790e-01
 3.535533905937498e+00	-1.202081528016250e+01	 6.676624972261349e-01
-3.111269837188002e+00	-5.939696961980002e+00	 7.335471378030239e-02
-2.474873734127502e+00	-6.576093065042023e+00	 1.809823441024175e-01
-1.838477631066001e+00	-7.212489168104880e+00	 2.706141804939325e-01
-1.202081528003501e+00	-7.848885271168581e+00	 3.491737403482079e-01
-5.656854249400015e-01	-8.485281374233120e+00	 4.175112863970408e-01
 7.071067812449847e-02	-9.121677477298503e+00	 4.764771398759817e-01
 7.071067811899986e-01	-9.758073580364723e+00	 5.269216805303122e-01
 1.343502884256498e+00	-1.039446968343178e+01	 5.715567937810710e-01
 1.979898987323998e+00	-1.103086578649968e+01	 6.235409321373283e-01
 2.616295090392498e+00	-1.166726188956842e+01	 6.534829466360408e-01
 3.252691193461998e+00	-1.230365799263800e+01	 6.609545463973796e-01
-3.394112549664502e+00	-6.222539674460002e+00	 6.704975361116502e-02
-2.757716446604002e+00	-6.858935777521356e+00	 1.825829620034042e-01
-2.121320343542501e+00	-7.495331880583621e+00	 2.698971227785887e-01
-1.484924240480001e+00	-8.131727983646797e+00	 3.464030971437723e-01
-8.485281374165017e-01	-8.768124086710882e+00	 4.129511521752079e-01
-2.121320343520018e-01	-9.404520189775877e+00	 4.703916134537189e-01
 4.242640687134982e-01	-1.004091629284178e+01	 5.195748650706720e-01
 1.060660171779998e+00	-1.067731239590860e+01	 5.744091348107299e-01
 1.697056274847498e+00	-1.131370849897632e+01	 6.244306847493249e-01
 2.333452377915997e+00	-1.195010460204496e+01	 6.529947291193836e-01
 2.969848480985498e+00	-1.258650070511450e+01	 6.582110569535204e-01
-3.676955262142002e+00	-6.505382386940003e+00	 6.338369538721178e-02
-3.040559159081503e+00	-7.141778490000883e+00	 1.834399000862799e-01
-2.404163056020002e+00	-7.778174593062722e+00	 2.720282804998851e-01
-1.767766952957502e+00	-8.414570696125525e+00	 3.463888032521883e-01
-1.131370849894001e+00	-9.050966799189281e+00	 4.110554985781338e-01
-4.949747468295019e-01	-9.687362902254002e+00	 4.668786964037062e-01
 1.414213562359979e-01	-1.032375900531968e+01	 5.147087851662555e-01
 7.778174593024976e-01	-1.096015510838632e+01	 5.806952614869564e-01
 1.414213562369998e+00	-1.159655121145392e+01	 6.288516895991096e-01
 2.050609665438497e+00	-1.223294731452248e+01	 6.561352304317342e-01
 2.687005768507998e+00	-1.286934341759200e+01	 6.605204451462401e-01
-3.959797974620502e+00	-6.788225099420003e+00	 6.249398127853198e-02
-3.323401871560002e+00	-7.424621202480599e+00	 1.802811679734404e-01
-2.687005768498502e+00	-8.061017305542181e+00	 2.770182069741398e-01
-2.050609665436002e+00	-8.697413408604756e+00	 3.491414111322519e-01
-1.414213562372502e+00	-9.333809511668324e+00	 4.118348772069869e-01
-7.778174593080022e-01	-9.970205614732878e+00	 4.659489394693861e-01
-1.414213562425023e-01	-1.060660171779842e+01	 5.255841623006789e-01
 4.949747468239976e-01	-1.124299782086496e+01	 5.902357653295716e-01
 1.131370849891497e+00	-1.187939392393248e+01	 6.366245382065008e-01
 1.767766952959997e+00	-1.251579002700100e+01	 6.627250420929138e-01
 2.404163056029498e+00	-1.315218613007050e+01	 6.665118381502257e-01
-4.242640687100000e+00	-7.071067811900000e+00	 6.451805834938529e-02
-3.606244584039500e+00	-7.707463914960500e+00	 1.798985480679606e-01
-2.969848480978000e+00	-8.343860018021999e+00	 2.837867833463332e-01
-2.333452377915500e+00	-8.980256121084500e+00	 3.546714740004067e-01
-1.697056274852000e+00	-9.616652224148000e+00	 4.152998404205859e-01
-1.060660171787500e+00	-1.025304832721250e+01	 4.676128941518418e-01
-4.242640687219998e-01	-1.088944443027800e+01	 5.404544417625039e-01
 2.121320343444999e-01	-1.152584053334450e+01	 6.028512378583876e-01
 8.485281374119996e-01	-1.216223663641200e+01	 6.475698220913153e-01
 1.484924240480500e+00	-1.279863273948050e+01	 6.725847556227407e-01
 2.121320343550000e+00	-1.343502884255000e+01	 6.758705996140830e-01
 4.949747468300000e+00	-1.060660171780000e+01	 7.572500765811375e-01
 5.586143571370002e+00	-1.124299782087000e+01	 7.971525955299934e-01
 6.222539674440002e+00	-1.187939392394000e+01	 8.252283602026724e-01
 6.858935777510002e+00	-1.251579002701000e+01	 8.442006390762635e-01
 7.495331880580002e+00	-1.315218613008000e+01	 8.567927006278766e-01
 8.131727983650002e+00	-1.378858223315000e+01	 8.657278133346296e-01
 8.768124086720004e+00	-1.442497833622001e+01	 8.737292456736631e-01
 9.404520189790006e+00	-1.506137443929001e+01	 8.846263223666465e-01
 1.004091629286000e+01	-1.569777054236000e+01	 9.016383826772859e-01
 1.067731239593000e+01	-1.633416664543001e+01	 9.253465814675115e-01
 1.131370849900000e+01	-1.697056274850000e+01	 9.563064495840665e-01
 4.666904755829500e+00	-1.088944443027050e+01	 7.321851454974100e-01
 5.303300858899406e+00	-1.152584053334058e+01	 7.762969615253378e-01
 5.939696961969123e+00	-1.216223663641085e+01	 8.080035276123043e-01
 6.576093065038648e+00	-1.279863273948127e+01	 8.300281122354058e-01
 7.212489168107981e+00	-1.343502884255186e+01	 8.450939838717539e-01
 7.848885271177127e+00	-1.407142494562263e+01	 8.559244109984786e-01
 8.485281374246082e+00	-1.470782104869356e+01	 8.652426620927258e-01
 9.121677477314849e+00	-1.534421715176467e+01	 8.764410151501999e-01
 9.758073580383426e+00	-1.598061325483594e+01	 8.932898235789484e-01
 1.039446968345181e+01	-1.661700935790739e+01	 9.163151155581031e-01
 1.103086578652000e+01	-1.725340546097900e+01	 9.465898722302256e-01
 4.384062043358000e+00	-1.117228714274200e+01	 7.105962335754186e-01
 5.020458146427821e+00	-1.180868324581214e+01	 7.583917813537772e-01
 5.656854249497282e+00	-1.244507934888256e+01	 7.932035835263966e-01
 6.293250352566381e+00	-1.308147545195326e+01	 8.177549085703818e-01
 6.929646455635123e+00	-1.371787155502424e+01	 8.347690249628500e-01
 7.566042558703501e+00	-1.435426765809550e+01	 8.469692011809402e-01
 8.202438661771524e+00	-1.499066376116705e+01	 8.570787057018021e-01
 8.838834764839184e+00	-1.562705986423887e+01	 8.678603732157129e-01
 9.475230867906484e+00	-1.626345596731096e+01	 8.841630857478947e-01
 1.011162697097342e+01	-1.689985207038335e+01	 9.061226266108127e-01
 1.074802307404000e+01	-1.753624817345600e+01	 9.476152227470274e-01
 4.101219330885500e+00	-1.145512985521450e+01	 6.925810292597882e-01
 4.737615433955244e+00	-1.209152595828466e+01	 7.435347434599361e-01
 5.374011537024480e+00	-1.272792206135516e+01	 7.809262163895739e-01
 6.010407640093207e+00	-1.336431816442599e+01	 8.074787165258162e-01
 6.646803743161421e+00	-1.400071426749714e+01	 8.259155123457885e-01
 7.283199846229126e+00	-1.463711037056863e+01	 8.389598723266372e-01
 7.919595949296322e+00	-1.527350647364044e+01	 8.493350649455224e-01
 8.555992052363010e+00	-1.590990257671259e+01	 8.597643586796200e-01
 9.192388155429185e+00	-1.654629867978507e+01	 8.743210024208921e-01
 9.828784258494847e+00	-1.718269478285787e+01	 8.948319468358560e-01
 1.046518036156000e+01	-1.781909088593100e+01	 9.472931122920895e-01
 3.818376618411999e+00	-1.173797256768800e+01	 6.782372209951498e-01
 4.454772721481679e+00	-1.237436867075816e+01	 7.318235362884425e-01
 5.091168824550720e+00	-1.301076477382864e+01	 7.712691146464625e-01
 5.727564927619121e+00	-1.364716087689944e+01	 7.992972245463350e-01
 6.363961030686882e+00	-1.428355697997057e+01	 8.186311344651964e-01
 7.000357133754004e+00	-1.491995308304200e+01	 8.319941128801990e-01
 7.636753236820482e+00	-1.555634918611377e+01	 8.421094282685085e-01
 8.273149339886325e+00	-1.619274528918585e+01	 8.517003491073074e-01
 8.909545442951526e+00	-1.682914139225825e+01	 8.638264079194968e-01
 9.545941546016083e+00	-1.746553749533097e+01	 8.930586190285338e-01
 1.018233764908000e+01	-1.810193359840400e+01	 9.455844781344984e-01
 3.535533905937498e+00	-1.202081528016250e+01	 6.676624972261349e-01
 4.171930009007125e+00	-1.265721138323263e+01	 7.233558482839273e-01
 4.808326112076000e+00	-1.329360748630300e+01	 7.643299667416921e-01
 5.444722215144125e+00	-1.393000358937363e+01	 7.933081210765673e-01
 6.081118318211501e+00	-1.456639969244450e+01	 8.130135797657001e-01
 6.717514421278126e+00	-1.520279579551563e+01	 8.261696112862514e-01
 7.353910524344003e+00	-1.583919189858701e+01	 8.354994841153892e-01
 7.990306627409127e+00	-1.647558800165863e+01	 8.437264667303008e-01
 8.626702730473504e+00	-1.711198410473050e+01	 8.535738276081765e-01
 9.263098833537127e+00	-1.774838020780263e+01	 8.929659063164023e-01
 9.899494936599998e+00	-1.838477631087500e+01	 9.424502584643176e-01
 3.252691193461998e+00	-1.230365799263800e+01	 6.609545463973796e-01
 3.889087296531578e+00	-1.294005409570806e+01	 7.182293678910241e-01
 4.525483399600320e+00	-1.357645019877824e+01	 7.602064611198946e-01
 5.161879502668221e+00	-1.421284630184854e+01	 7.896090945611464e-01
 5.798275605735280e+00	-1.484924240491896e+01	 8.091605366919341e-01
 6.434671708801499e+00	-1.548563850798950e+01	 8.215840559894281e-01
 7.071067811866882e+00	-1.612203461106017e+01	 8.296029209307979e-01
 7.707463914931422e+00	-1.675843071413095e+01	 8.359403999932266e-01
 8.343860017995125e+00	-1.739482681720185e+01	 8.504771065827600e-01
 8.980256121057984e+00	-1.803122292027287e+01	 8.917131139374858e-01
 9.616652224119999e+00	-1.866761902334400e+01	 9.378513923925238e-01
 2.969848480985498e+00	-1.258650070511450e+01	 6.582110569535204e-01
 3.606244584055044e+00	-1.322289680818446e+01	 7.165417835543683e-01
 4.242640687123679e+00	-1.385929291125436e+01	 7.589962862257081e-01
 4.879036790191405e+00	-1.449568901432419e+01	 7.882978334447064e-01
 5.515432893258220e+00	-1.513208511739394e+01	 8.071696936885332e-01
 6.151828996324126e+00	-1.576848122046363e+01	 8.183351354343608e-01
 6.788225099389122e+00	-1.640487732353325e+01	 8.245174271593622e-01
 7.424621202453208e+00	-1.704127342660279e+01	 8.284398373407157e-01
 8.061017305516382e+00	-1.767766952967227e+01	 8.528283368134083e-01
 8.697413408578647e+00	-1.831406563274167e+01	 8.897780921574712e-01
 9.333809511639998e+00	-1.895046173581100e+01	 9.317488199509469e-01
 2.687005768507998e+00	-1.286934341759200e+01	 6.605204451462401e-01
 3.323401871577519e+00	-1.350573952066184e+01	 7.183907837186003e-01
 3.959797974646079e+00	-1.414213562373136e+01	 7.607971305037682e-01
 4.596194077713680e+00	-1.477853172680056e+01	 7.894720261718861e-01
 5.232590180780320e+00	-1.541492782986944e+01	 8.071387392001338e-01
 5.868986283846001e+00	-1.605132393293800e+01	 8.165205380656866e-01
 6.505382386910722e+00	-1.668772003600625e+01	 8.203406912457174e-01
 7.141778489974483e+00	-1.732411613907417e+01	 8.248248123330744e-01
 7.778174593037283e+00	-1.796051224214177e+01	 8.544242603911121e-01
 8.414570696099123e+00	-1.859690834520904e+01	 8.873604396698525e-01
 9.050966799159998e+00	-1.923330444827600e+01	 9.241034820922122e-01
 2.404163056029498e+00	-1.315218613007050e+01	 6.665118381502257e-01
 3.040559159099004e+00	-1.378858223314019e+01	 7.238740568283605e-01
 3.676955262167519e+00	-1.442497833620924e+01	 7.657066823987174e-01
 4.313351365235044e+00	-1.506137443927767e+01	 7.932293611873252e-01
 4.949747468301579e+00	-1.569777054234546e+01	 8.091653616713725e-01
 5.586143571367126e+00	-1.633416664541263e+01	 8.162379523280416e-01
 6.222539674431681e+00	-1.697056274847916e+01	 8.171704016344958e-01
 6.858935777495246e+00	-1.760695885154507e+01	 8.296095933334592e-01
 7.495331880557822e+00	-1.824335495461035e+01	 8.552374721399110e-01
 8.131727983619408e+00	-1.887975105767499e+01	 8.838346821804004e-01
 8.768124086679997e+00	-1.951614716073900e+01	 9.150843899110226e-01
 2.121320343550000e+00	-1.343502884255000e+01	 6.758705996140830e-01
 2.757716446619501e+00	-1.407142494561950e+01	 7.327432804095672e-01
 3.394112549688002e+00	-1.470782104868800e+01	 7.738226303552014e-01
 4.030508652755502e+00	-1.534421715175550e+01	 7.996675269356692e-01
 4.666904755822002e+00	-1.598061325482200e+01	 8.133472495468965e-01
 5.303300858887503e+00	-1.661700935788750e+01	 8.175850666660676e-01
 5.939696961952004e+00	-1.725340546095200e+01	 8.154975202696113e-01
 6.576093065015503e+00	-1.788980156401550e+01	 8.339096498251091e-01
 7.212489168078005e+00	-1.852619766707801e+01	 8.552405678640900e-01
 7.848885271139504e+00	-1.916259377013951e+01	 8.791734154876367e-01
 8.485281374200000e+00	-1.979898987320000e+01	 9.053913591808773e-01
-4.242640687100000e+00	-7.071067811900000e+00	 8.269302445295670e-02
-3.606244584039500e+00	-7.707463914960500e+00	 1.851322721835566e-01
-2.969848480978000e+00	-8.343860018021999e+00	 2.779517693608170e-01
-2.333452377915500e+00	-8.980256121084500e+00	 3.396402258006391e-01
-1.697056274852000e+00	-9.616652224148000e+00	 3.929448618934265e-01
-1.060660171787500e+00	-1.025304832721250e+01	 4.398066891841517e-01
-4.242640687219998e-01	-1.088944443027800e+01	 5.090695142411463e-01
 2.121320343444999e-01	-1.152584053334450e+01	 5.697600916702208e-01
 8.485281374119996e-01	-1.216223663641200e+01	 6.146449611232015e-01
 1.484924240480500e+00	-1.279863273948050e+01	 6.416986837615420e-01
 2.121320343550000e+00	-1.343502884255000e+01	 6.488958207466599e-01
-4.384062043340000e+00	-7.212489168139000e+00	 7.556874654000140e-02
-3.747665940279500e+00	-7.848885271199689e+00	 1.783340120715046e-01
-3.111269837218000e+00	-8.485281374261360e+00	 2.712165293771756e-01
-2.474873734155500e+00	-9.121677477324011e+00	 3.380572486152647e-01
-1.838477631092000e+00	-9.758073580387641e+00	 3.910119807782822e-01
-1.202081528027500e+00	-1.039446968345225e+01	 4.402308448767451e-01
-5.656854249619999e-01	-1.103086578651784e+01	 5.134596941514731e-01
 7.071067810449976e-02	-1.166726188958441e+01	 5.729126173234673e-01
 7.071067811719998e-01	-1.230365799265196e+01	 6.165641755542477e-01
 1.343502884240499e+00	-1.294005409572049e+01	 6.423889300052952e-01
 1.979898987310000e+00	-1.357645019879000e+01	 6.483614418380357e-01
-4.525483399580000e+00	-7.353910524375999e+00	 7.169687468914940e-02
-3.889087296519499e+00	-7.990306627437260e+00	 1.744117753831050e-01
-3.252691193458000e+00	-8.626702730499440e+00	 2.669809281225862e-01
-2.616295090395500e+00	-9.263098833562541e+00	 3.386191176642129e-01
-1.979898987331999e+00	-9.899494936626560e+00	 3.908590150708640e-01
-1.343502884267500e+00	-1.053589103969150e+01	 4.472783516543526e-01
-7.071067812020001e-01	-1.117228714275736e+01	 5.189476073808443e-01
-7.071067813550001e-02	-1.180868324582414e+01	 5.768452800394575e-01
 5.656854249319996e-01	-1.244507934889184e+01	 6.189459307917473e-01
 1.202081528000499e+00	-1.308147545196046e+01	 6.432241207992132e-01
 1.838477631070000e+00	-1.371787155503000e+01	 6.476544112232926e-01
-4.666904755820000e+00	-7.495331880611000e+00	 7.109459116004985e-02
-4.030508652759500e+00	-8.131727983673208e+00	 1.733827443809370e-01
-3.394112549698000e+00	-8.768124086736240e+00	 2.652621478625350e-01
-2.757716446635499e+00	-9.404520189800088e+00	 3.413271523126484e-01
-2.121320343572000e+00	-1.004091629286476e+01	 3.924872840291271e-01
-1.484924240507500e+00	-1.067731239593025e+01	 4.557187619472826e-01
-8.485281374420003e-01	-1.131370849899656e+01	 5.255108278692259e-01
-2.121320343755004e-01	-1.195010460206369e+01	 5.815356537581611e-01
 4.242640686919994e-01	-1.258650070513164e+01	 6.217678007756713e-01
 1.060660171760499e+00	-1.322289680820041e+01	 6.441818300832688e-01
 1.697056274830000e+00	-1.385929291127000e+01	 6.467523028424033e-01
-4.808326112060000e+00	-7.636753236843999e+00	 7.377907851828519e-02
-4.171930008999500e+00	-8.273149339907540e+00	 1.752641016335204e-01
-3.535533905938000e+00	-8.909545442971760e+00	 2.660773711684485e-01
-2.899137802875499e+00	-9.545941546036660e+00	 3.461826719730964e-01
-2.262741699812000e+00	-1.018233764910224e+01	 3.958981069583941e-01
-1.626345596747500e+00	-1.081873375216850e+01	 4.655296496955033e-01
-9.899494936820002e-01	-1.145512985523544e+01	 5.331269295565916e-01
-3.535533906155001e-01	-1.209152595830306e+01	 5.869613124195507e-01
 2.828427124519994e-01	-1.272792206137136e+01	 6.250073594459904e-01
 9.192388155204991e-01	-1.336431816444034e+01	 6.452396317974376e-01
 1.555634918590000e+00	-1.400071426751000e+01	 6.456326906353458e-01
-4.949747468300000e+00	-7.778174593075000e+00	 7.976751963536215e-02
-4.313351365239500e+00	-8.414570696140249e+00	 1.800730300153084e-01
-3.676955262178001e+00	-9.050966799206000e+00	 2.694437809176992e-01
-3.040559159115500e+00	-9.687362902272252e+00	 3.494259116718964e-01
-2.404163056052000e+00	-1.032375900533900e+01	 4.010928032113381e-01
-1.767766952987500e+00	-1.096015510840625e+01	 4.766885888389845e-01
-1.131370849922000e+00	-1.159655121147400e+01	 5.417734863829108e-01
-4.949747468555002e-01	-1.223294731454225e+01	 5.930998299635986e-01
 1.414213562119995e-01	-1.286934341761100e+01	 6.286421807426792e-01
 7.778174592804994e-01	-1.350573952068025e+01	 6.463750998816933e-01
 1.414213562350000e+00	-1.414213562375000e+01	 6.442731485420945e-01
-5.091168824540000e+00	-7.919595949304000e+00	 8.907709768873279e-02
-4.454772721479499e+00	-8.555992052371339e+00	 1.878267127067055e-01
-3.818376618417999e+00	-9.192388155438959e+00	 2.753785602936132e-01
-3.181980515355500e+00	-9.828784258506859e+00	 3.532787797207597e-01
-2.545584412291999e+00	-1.046518036157504e+01	 4.151894622571592e-01
-1.909188309227500e+00	-1.110157646464350e+01	 4.891731533176944e-01
-1.272792206162000e+00	-1.173797256771224e+01	 5.514280722881505e-01
-6.363961030955002e-01	-1.237436867078126e+01	 5.999287803302726e-01
-2.800060183716368e-11	-1.301076477385056e+01	 6.326498386057088e-01
 6.363961030404992e-01	-1.364716087692013e+01	 6.475658082760086e-01
 1.272792206110000e+00	-1.428355697999000e+01	 6.426512505026241e-01
-5.232590180780000e+00	-8.061017305530999e+00	 1.017249961617947e-01
-4.596194077719500e+00	-8.697413408600811e+00	 1.985423331940670e-01
-3.959797974658000e+00	-9.333809511670639e+00	 2.838988927854880e-01
-3.323401871595500e+00	-9.970205614740491e+00	 3.593408141491492e-01
-2.687005768531999e+00	-1.060660171781036e+01	 4.321291438757382e-01
-2.050609665467500e+00	-1.124299782088025e+01	 5.029609170716001e-01
-1.414213562402000e+00	-1.187939392395016e+01	 5.620682612122787e-01
-7.778174593355002e-01	-1.251579002702009e+01	 6.074257374595421e-01
-1.414213562680005e-01	-1.315218613009004e+01	 6.370079069750514e-01
 4.949747468004994e-01	-1.378858223316001e+01	 6.487893309203591e-01
 1.131370849870000e+00	-1.442497833623000e+01	 6.407445704569082e-01
-5.374011537019999e+00	-8.202438661756000e+00	 1.177283988438997e-01
-4.737615433959500e+00	-8.838834764828661e+00	 2.122370752697226e-01
-4.101219330898000e+00	-9.475230867901040e+00	 2.950219621885888e-01
-3.464823227835500e+00	-1.011162697097314e+01	 3.676291987552436e-01
-2.828427124772000e+00	-1.074802307404496e+01	 4.506671949658054e-01
-2.192031021707500e+00	-1.138441917711650e+01	 5.180294540406688e-01
-1.555634918642000e+00	-1.202081528018776e+01	 5.736716270952650e-01
-9.192388155755001e-01	-1.265721138325874e+01	 6.155682752913786e-01
-2.828427125080005e-01	-1.329360748632944e+01	 6.416939597906797e-01
 3.535533905604995e-01	-1.393000358939986e+01	 6.500232417547177e-01
 9.899494936300001e-01	-1.456639969247000e+01	 6.385306823449244e-01
-5.515432893260000e+00	-8.343860017978999e+00	 1.371044898303642e-01
-4.879036790199501e+00	-8.980256121054889e+00	 2.289281230319610e-01
-4.242640687138000e+00	-9.616652224130160e+00	 3.087649526041578e-01
-3.606244584075501e+00	-1.025304832720481e+01	 3.781611176432044e-01
-2.969848481012000e+00	-1.088944443027884e+01	 4.697077281661018e-01
-2.333452377947500e+00	-1.152584053335225e+01	 5.343563381648658e-01
-1.697056274882000e+00	-1.216223663642504e+01	 5.862157438770732e-01
-1.060660171815500e+00	-1.279863273949721e+01	 6.243339677657493e-01
-4.242640687480002e-01	-1.343502884256876e+01	 6.466855709925626e-01
 2.121320343204993e-01	-1.407142494563969e+01	 6.512451147190584e-01
 8.485281373900000e-01	-1.470782104871000e+01	 6.359871601066436e-01
-5.656854249500000e+00	-8.485281374200000e+00	 1.598704535224718e-01
-5.020458146439500e+00	-9.121677477279500e+00	 2.486326608850556e-01
-4.384062043378000e+00	-9.758073580358001e+00	 3.251450484394235e-01
-3.747665940315499e+00	-1.039446968343550e+01	 3.937823448108058e-01
-3.111269837252000e+00	-1.103086578651200e+01	 4.861977208720684e-01
-2.474873734187500e+00	-1.166726188958750e+01	 5.519191433841516e-01
-1.838477631122000e+00	-1.230365799266200e+01	 5.996781854976720e-01
-1.202081528055500e+00	-1.294005409573550e+01	 6.337003888226240e-01
-5.656854249880006e-01	-1.357645019880800e+01	 6.519603145206749e-01
 7.071067808049936e-02	-1.421284630187950e+01	 6.524325237533544e-01
 7.071067811500000e-01	-1.484924240495000e+01	 6.330915776820456e-01
 2.121320343550000e+00	-1.343502884255000e+01	 6.488958207466599e-01
 2.757716446619501e+00	-1.407142494561950e+01	 7.104010397747128e-01
 3.394112549688002e+00	-1.470782104868800e+01	 7.556829145434997e-01
 4.030508652755502e+00	-1.534421715175550e+01	 7.853003225374844e-01
 4.666904755822002e+00	-1.598061325482200e+01	 8.023225431523471e-01
 5.303300858887503e+00	-1.661700935788750e+01	 8.094728448650186e-01
 5.939696961952004e+00	-1.725340546095200e+01	 8.098677696516544e-01
 6.576093065015503e+00	-1.788980156401550e+01	 8.303323569795451e-01
 7.212489168078005e+00	-1.852619766707801e+01	 8.532857193799137e-01
 7.848885271139504e+00	-1.916259377013951e+01	 8.784109979535193e-01
 8.485281374200000e+00	-1.979898987320000e+01	 9.053913591851503e-01
 1.979898987310000e+00	-1.357645019879000e+01	 6.483614418380357e-01
 2.616295090379690e+00	-1.421284630185950e+01	 7.093632684500757e-01
 3.252691193448761e+00	-1.484924240492800e+01	 7.544528807638962e-01
 3.889087296517212e+00	-1.548563850799550e+01	 7.832730385033959e-01
 4.525483399585043e+00	-1.612203461106200e+01	 7.994014050156428e-01
 5.161879502652252e+00	-1.675843071412751e+01	 8.055612487775836e-01
 5.798275605718843e+00	-1.739482681719200e+01	 8.095041047833100e-01
 6.434671708784816e+00	-1.803122292025551e+01	 8.288911951550859e-01
 7.071067811850165e+00	-1.866761902331801e+01	 8.507760031207593e-01
 7.707463914914893e+00	-1.930401512637951e+01	 8.748416697958179e-01
 8.343860017978999e+00	-1.994041122944000e+01	 9.007713616796588e-01
 1.838477631070000e+00	-1.371787155503000e+01	 6.476544112232926e-01
 2.474873734139861e+00	-1.435426765809950e+01	 7.082791929156194e-01
 3.111269837209441e+00	-1.499066376116800e+01	 7.534730051390051e-01
 3.747665940278743e+00	-1.562705986423550e+01	 7.815440920986694e-01
 4.384062043347762e+00	-1.626345596730200e+01	 7.968267839829506e-01
 5.020458146416503e+00	-1.689985207036750e+01	 8.020443492688193e-01
 5.656854249484964e+00	-1.753624817343200e+01	 8.092205393260051e-01
 6.293250352553144e+00	-1.817264427649550e+01	 8.276283560830393e-01
 6.929646455621044e+00	-1.880904037955801e+01	 8.485428325396774e-01
 7.566042558688665e+00	-1.944543648261950e+01	 8.716471098261706e-01
 8.202438661756000e+00	-2.008183258568000e+01	 8.966243544565506e-01
 1.697056274830000e+00	-1.385929291127000e+01	 6.467523028424033e-01
 2.333452377900012e+00	-1.449568901433950e+01	 7.071263871113208e-01
 2.969848480970041e+00	-1.513208511740800e+01	 7.527554987244096e-01
 3.606244584040092e+00	-1.576848122047550e+01	 7.801256943788902e-01
 4.242640687110162e+00	-1.640487732354200e+01	 7.946108911098594e-01
 4.879036790180253e+00	-1.704127342660750e+01	 7.989343573943115e-01
 5.515432893250362e+00	-1.767766952967200e+01	 8.090136480324280e-01
 6.151828996320495e+00	-1.831406563273551e+01	 8.265404145153448e-01
 6.788225099390645e+00	-1.895046173579800e+01	 8.465827823878770e-01
 7.424621202460815e+00	-1.958685783885950e+01	 8.688238927950596e-01
 8.061017305530999e+00	-2.022325394192000e+01	 8.929469122655850e-01
 1.555634918590000e+00	-1.400071426751000e+01	 6.456326906353458e-01
 2.192031021660141e+00	-1.463711037057950e+01	 7.058824249771564e-01
 2.828427124730561e+00	-1.527350647364800e+01	 7.516649717198691e-01
 3.464823227801261e+00	-1.590990257671550e+01	 7.790300563996392e-01
 4.101219330872241e+00	-1.654629867978200e+01	 7.927659374519507e-01
 4.737615433943501e+00	-1.718269478284750e+01	 7.962434842096464e-01
 5.374011537015043e+00	-1.781909088591200e+01	 8.088800057165142e-01
 6.010407640086863e+00	-1.845548698897550e+01	 8.256239452652094e-01
 6.646803743158962e+00	-1.909188309203800e+01	 8.448924274778293e-01
 7.283199846231346e+00	-1.972827919509951e+01	 8.663685935142247e-01
 7.919595949304000e+00	-2.036467529816000e+01	 8.897356099177787e-01
 1.414213562350000e+00	-1.414213562375000e+01	 6.442731485420945e-01
 2.050609665420251e+00	-1.477853172681950e+01	 7.045248804531044e-01
 2.687005768491002e+00	-1.541492782988800e+01	 7.504466214471894e-01
 3.323401871562252e+00	-1.605132393295550e+01	 7.782693892165007e-01
 3.959797974634002e+00	-1.668772003602200e+01	 7.913041340648129e-01
 4.596194077706253e+00	-1.732411613908750e+01	 7.956072190339472e-01
 5.232590180779003e+00	-1.796051224215201e+01	 8.088161872534678e-01
 5.868986283852253e+00	-1.859690834521550e+01	 8.248755232070867e-01
 6.505382386926004e+00	-1.923330444827801e+01	 8.434683426832541e-01
 7.141778490000254e+00	-1.986970055133951e+01	 8.642777868566593e-01
 7.778174593075001e+00	-2.050609665440000e+01	 8.869870222853989e-01
 1.272792206110000e+00	-1.428355697999000e+01	 6.426512505026241e-01
 1.909188309180341e+00	-1.491995308305950e+01	 7.030313274791398e-01
 2.545584412251361e+00	-1.555634918612800e+01	 7.492186102209089e-01
 3.181980515323062e+00	-1.619274528919550e+01	 7.778559038850560e-01
 3.818376618395443e+00	-1.682914139226200e+01	 7.902376920040282e-01
 4.454772721468503e+00	-1.746553749532750e+01	 7.962051200448350e-01
 5.091168824542244e+00	-1.810193359839201e+01	 8.088187675797416e-01
 5.727564927616664e+00	-1.873832970145551e+01	 8.242917232766925e-01
 6.363961030691765e+00	-1.937472580451801e+01	 8.423071029391286e-01
 7.000357133767544e+00	-2.001112190757950e+01	 8.625480477566063e-01
 7.636753236844000e+00	-2.064751801064000e+01	 8.846977243019629e-01
 1.131370849870000e+00	-1.442497833623000e+01	 6.407445704569082e-01
 1.767766952940411e+00	-1.506137443929950e+01	 7.013793399952385e-01
 2.404163056011641e+00	-1.569777054236800e+01	 7.479585119810073e-01
 3.040559159083692e+00	-1.633416664543550e+01	 7.778018114608936e-01
 3.676955262156563e+00	-1.697056274850200e+01	 7.895788223251839e-01
 4.313351365230252e+00	-1.760695885156750e+01	 7.967677710893799e-01
 4.949747468304763e+00	-1.824335495463200e+01	 8.088843216930430e-01
 5.586143571380095e+00	-1.887975105769550e+01	 8.238691204709919e-01
 6.222539674456244e+00	-1.951614716075800e+01	 8.414052832416828e-01
 6.858935777533214e+00	-2.015254326381950e+01	 8.611759512095634e-01
 7.495331880611000e+00	-2.078893936688000e+01	 8.828642909622444e-01
 9.899494936300001e-01	-1.456639969247000e+01	 6.385306823449244e-01
 1.626345596700461e+00	-1.520279579553950e+01	 6.995464919413807e-01
 2.262741699771841e+00	-1.583919189860800e+01	 7.466439006674603e-01
 2.899137802844142e+00	-1.647558800167550e+01	 7.777974696845136e-01
 3.535533905917362e+00	-1.711198410474200e+01	 7.893397360838659e-01
 4.171930008991502e+00	-1.774838020780750e+01	 7.972917472272991e-01
 4.808326112066563e+00	-1.838477631087201e+01	 8.090094246523367e-01
 5.444722215142544e+00	-1.902117241393550e+01	 8.236042898482019e-01
 6.081118318219445e+00	-1.965756851699800e+01	 8.407594586483922e-01
 6.717514421297265e+00	-2.029396462005950e+01	 8.601580722722739e-01
 7.353910524375999e+00	-2.093036072312000e+01	 8.814832973222539e-01
 8.485281373900000e-01	-1.470782104871000e+01	 6.359871601066436e-01
 1.484924240460491e+00	-1.534421715177950e+01	 6.975103572575381e-01
 2.121320343531961e+00	-1.598061325484800e+01	 7.452523502202493e-01
 2.757716446604412e+00	-1.661700935791550e+01	 7.771877001561319e-01
 3.394112549677842e+00	-1.725340546098200e+01	 7.895596320729398e-01
 4.030508652752253e+00	-1.788980156404750e+01	 7.977736235795528e-01
 4.666904755827643e+00	-1.852619766711200e+01	 8.091906515778359e-01
 5.303300858904014e+00	-1.916259377017550e+01	 8.234938065277918e-01
 5.939696961981364e+00	-1.979898987323800e+01	 8.403662042779856e-01
 6.576093065059695e+00	-2.043538597629950e+01	 8.594909860627320e-01
 7.212489168138999e+00	-2.107178207936000e+01	 8.805513184992582e-01
 7.071067811500000e-01	-1.484924240495000e+01	 6.330915776820456e-01
 1.343502884220501e+00	-1.548563850801950e+01	 6.952485098836894e-01
 1.979898987292001e+00	-1.612203461108800e+01	 7.437614345793488e-01
 2.616295090364502e+00	-1.675843071415550e+01	 7.766049129303843e-01
 3.252691193438002e+00	-1.739482681722200e+01	 7.902073482473227e-01
 3.889087296512503e+00	-1.803122292028750e+01	 7.982099753283594e-01
 4.525483399588003e+00	-1.866761902335200e+01	 8.094245776510036e-01
 5.161879502664504e+00	-1.930401512641550e+01	 8.235342456904752e-01
 5.798275605742004e+00	-1.994041122947800e+01	 8.402220953104378e-01
 6.434671708820505e+00	-2.057680733253951e+01	 8.591712677601770e-01
 7.071067811900000e+00	-2.121320343560000e+01	 8.800649296717640e-01
-5.656854249500000e+00	-8.485281374200000e+00	 9.896405445040042e-02
-5.020458146439500e+00	-9.121677477279500e+00	 1.976498253771944e-01
-4.384062043378000e+00	-9.758073580358001e+00	 2.831499753328789e-01
-3.747665940315499e+00	-1.039446968343550e+01	 3.598392329400821e-01
-3.111269837252000e+00	-1.103086578651200e+01	 4.593707690692939e-01
-2.474873734187500e+00	-1.166726188958750e+01	 5.312725504793349e-01
-1.838477631122000e+00	-1.230365799266200e+01	 5.842761503189402e-01
-1.202081528055500e+00	-1.294005409573550e+01	 6.226071101964658e-01
-5.656854249880006e-01	-1.357645019880800e+01	 6.442399912721840e-01
 7.071067808049936e-02	-1.421284630187950e+01	 6.471493547064726e-01
 7.071067811500000e-01	-1.484924240495000e+01	 6.293097616598032e-01
-5.798275605740000e+00	-8.626702730440000e+00	 2.054376018777812e-01
-5.161879502675981e+00	-9.263098833519406e+00	 2.829147862976037e-01
-4.525483399611519e+00	-9.899494936597618e+00	 3.490927084515849e-01
-3.889087296546621e+00	-1.053589103967465e+01	 4.161456657160908e-01
-3.252691193481280e+00	-1.117228714275048e+01	 4.996447134480844e-01
-2.616295090415500e+00	-1.180868324582513e+01	 5.629892561824522e-01
-1.979898987349279e+00	-1.244507934889858e+01	 6.045510028156462e-01
-1.343502884282620e+00	-1.308147545197084e+01	 6.335938294634109e-01
-7.071067812155205e-01	-1.371787155504192e+01	 6.480922972861941e-01
-7.071067814798050e-02	-1.435426765811180e+01	 6.460209674445245e-01
 5.656854249200001e-01	-1.499066376118050e+01	 6.253544010990075e-01
-5.939696961980000e+00	-8.768124086679999e+00	 3.059311754647492e-01
-5.303300858912819e+00	-9.404520189759317e+00	 3.628900223272576e-01
-4.666904755845681e+00	-1.004091629283728e+01	 4.104359635728181e-01
-4.030508652778580e+00	-1.067731239591388e+01	 4.682705975381871e-01
-3.394112549711520e+00	-1.131370849898912e+01	 5.364568068565568e-01
-2.757716446644500e+00	-1.195010460206300e+01	 5.918259723867236e-01
-2.121320343577520e+00	-1.258650070513552e+01	 6.226949011157757e-01
-1.484924240510580e+00	-1.322289680820668e+01	 6.431986298360508e-01
-8.485281374436806e-01	-1.385929291127648e+01	 6.513117197081727e-01
-2.121320343768205e-01	-1.449568901434492e+01	 6.450087318928212e-01
 4.242640686900001e-01	-1.513208511741200e+01	 6.222642275507287e-01
-6.081118318220000e+00	-8.909545442920001e+00	 4.004619605305836e-01
-5.444722215150019e+00	-9.545941545999245e+00	 4.375927187884273e-01
-4.808326112080481e+00	-1.018233764907698e+01	 4.671969260218325e-01
-4.171930009011380e+00	-1.081873375215320e+01	 5.162195915377585e-01
-3.535533905942720e+00	-1.145512985522792e+01	 5.698126124260927e-01
-2.899137802874501e+00	-1.209152595830113e+01	 6.177602730321081e-01
-2.262741699806720e+00	-1.272792206137282e+01	 6.386854191592803e-01
-1.626345596739380e+00	-1.336431816444300e+01	 6.513990852543408e-01
-9.899494936724806e-01	-1.400071426751168e+01	 6.538758324780770e-01
-3.535533906060208e-01	-1.463711037057885e+01	 6.440902219913160e-01
 2.828427124600000e-01	-1.527350647364450e+01	 6.200168149549248e-01
-6.222539674460000e+00	-9.050966799160001e+00	 4.890471427005481e-01
-5.586143571387582e+00	-9.687362902239180e+00	 5.070400613094088e-01
-4.949747468315920e+00	-1.032375900531672e+01	 5.193927814299039e-01
-4.313351365245019e+00	-1.096015510839262e+01	 5.599982108461886e-01
-3.676955262174880e+00	-1.159655121146688e+01	 5.997176932880784e-01
-3.040559159105500e+00	-1.223294731453950e+01	 6.372593659058675e-01
-2.404163056036880e+00	-1.286934341761048e+01	 6.525001308861199e-01
-1.767766952969021e+00	-1.350573952067982e+01	 6.581727696582380e-01
-1.131370849901921e+00	-1.414213562374752e+01	 6.557622095358623e-01
-4.949747468355806e-01	-1.477853172681358e+01	 6.432430116799671e-01
 1.414213562300000e-01	-1.541492782987800e+01	 6.185897372515543e-01
-6.363961030700001e+00	-9.192388155400000e+00	 5.717039079059187e-01
-5.727564927625500e+00	-9.828784258479125e+00	 5.712492358244949e-01
-5.091168824552001e+00	-1.046518036155650e+01	 5.730736884587150e-01
-4.454772721479500e+00	-1.110157646463213e+01	 5.996120185948624e-01
-3.818376618408000e+00	-1.173797256770600e+01	 6.261776125738958e-01
-3.181980515337500e+00	-1.237436867077813e+01	 6.525301896630548e-01
-2.545584412268001e+00	-1.301076477384850e+01	 6.641166102362499e-01
-1.909188309199501e+00	-1.364716087691713e+01	 6.634972569876978e-01
-1.272792206132001e+00	-1.428355697998400e+01	 6.569484248214826e-01
-6.363961030655005e-01	-1.491995308304912e+01	 6.424446748987259e-01
-5.551115123125783e-17	-1.555634918611250e+01	 6.179605683805649e-01
-6.505382386939999e+00	-9.333809511640000e+00	 6.484494423839771e-01
-5.868986283863780e+00	-9.970205614719079e+00	 6.302374285740103e-01
-5.232590180788718e+00	-1.060660171779632e+01	 6.229272791923511e-01
-4.596194077714820e+00	-1.124299782087172e+01	 6.350665779151589e-01
-3.959797974642079e+00	-1.187939392394528e+01	 6.491979334149325e-01
-3.323401871570500e+00	-1.251579002701700e+01	 6.650810649590809e-01
-2.687005768500080e+00	-1.315218613008688e+01	 6.735124311496306e-01
-2.050609665430820e+00	-1.378858223315492e+01	 6.673501211826802e-01
-1.414213562362721e+00	-1.442497833622112e+01	 6.574120522748984e-01
-7.778174592957803e-01	-1.506137443928548e+01	 6.416727855875481e-01
-1.414213562300000e-01	-1.569777054234800e+01	 6.181068822819087e-01
-6.646803743180000e+00	-9.475230867880001e+00	 7.193009326780230e-01
-6.010407640102420e+00	-1.011162697095905e+01	 6.840218261042983e-01
-5.374011537026081e+00	-1.074802307403618e+01	 6.679075346454351e-01
-4.737615433950979e+00	-1.138441917711140e+01	 6.663674519384589e-01
-4.101219330877120e+00	-1.202081528018472e+01	 6.687842189425690e-01
-3.464823227804500e+00	-1.265721138325613e+01	 6.749175549253363e-01
-2.828427124733120e+00	-1.329360748632562e+01	 6.806651675662198e-01
-2.192031021662980e+00	-1.393000358939320e+01	 6.697089361831441e-01
-1.555634918594080e+00	-1.456639969245888e+01	 6.571306658360624e-01
-9.192388155264207e-01	-1.520279579552265e+01	 6.409049176863851e-01
-2.828427124599999e-01	-1.583919189858450e+01	 6.190062528955295e-01
-6.788225099420000e+00	-9.616652224119999e+00	 7.842755656373834e-01
-6.151828996341420e+00	-1.025304832719902e+01	 7.326196152677493e-01
-5.515432893264080e+00	-1.088944443027608e+01	 7.080200179493374e-01
-4.879036790187981e+00	-1.152584053335118e+01	 6.935202037961399e-01
-4.242640687113120e+00	-1.216223663642432e+01	 6.849420322881947e-01
-3.606244584039500e+00	-1.279863273949550e+01	 6.820452226932079e-01
-2.969848480967120e+00	-1.343502884256472e+01	 6.845894942788925e-01
-2.333452377895981e+00	-1.407142494563198e+01	 6.705512759290495e-01
-1.697056274826081e+00	-1.470782104869728e+01	 6.560818394449353e-01
-1.060660171757421e+00	-1.534421715176062e+01	 6.401186451351897e-01
-4.242640686899999e-01	-1.598061325482200e+01	 6.206362541613744e-01
-6.929646455659999e+00	-9.758073580360000e+00	 8.433905284174152e-01
-6.293250352580780e+00	-1.039446968343901e+01	 7.781369041629078e-01
-5.656854249502720e+00	-1.103086578651602e+01	 7.432702922354192e-01
-5.020458146425820e+00	-1.166726188959105e+01	 7.165303966195755e-01
-4.384062043350080e+00	-1.230365799266408e+01	 6.976769365831905e-01
-3.747665940275500e+00	-1.294005409573513e+01	 6.864696313940873e-01
-3.111269837202080e+00	-1.357645019880418e+01	 6.826682003201050e-01
-2.474873734129820e+00	-1.421284630187124e+01	 6.698547143603577e-01
-1.838477631058721e+00	-1.484924240493632e+01	 6.542431470414738e-01
-1.202081527988781e+00	-1.548563850799941e+01	 6.392915418739128e-01
-5.656854249199998e-01	-1.612203461106050e+01	 6.229744600193828e-01
-7.071067811900000e+00	-9.899494936600000e+00	 8.966630084795192e-01
-6.434671708820501e+00	-1.053589103967900e+01	 8.220157569757303e-01
-5.798275605742001e+00	-1.117228714275600e+01	 7.736639206350393e-01
-5.161879502664499e+00	-1.180868324583100e+01	 7.354035935401440e-01
-4.525483399588000e+00	-1.244507934890400e+01	 7.069944949589421e-01
-3.889087296512500e+00	-1.308147545197500e+01	 6.881963441593665e-01
-3.252691193438000e+00	-1.371787155504400e+01	 6.787688604093596e-01
-2.616295090364500e+00	-1.435426765811100e+01	 6.675968254170305e-01
-1.979898987292001e+00	-1.499066376117600e+01	 6.515921625656350e-01
-1.343502884220501e+00	-1.562705986423900e+01	 6.384011818425028e-01
-7.071067811500000e-01	-1.626345596730000e+01	 6.259984444094936e-01
 7.071067811500000e-01	-1.484924240495000e+01	 6.293097616598032e-01
 1.343502884220501e+00	-1.548563850801950e+01	 6.924346192144956e-01
 1.979898987292001e+00	-1.612203461108800e+01	 7.417844150972118e-01
 2.616295090364502e+00	-1.675843071415550e+01	 7.753337104689300e-01
 3.252691193438002e+00	-1.739482681722200e+01	 7.895109086398352e-01
 3.889087296512503e+00	-1.803122292028750e+01	 7.979572444078107e-01
 4.525483399588003e+00	-1.866761902335200e+01	 8.094845012500834e-01
 5.161879502664504e+00	-1.930401512641550e+01	 8.237757696416255e-01
 5.798275605742004e+00	-1.994041122947800e+01	 8.405141654458832e-01
 6.434671708820505e+00	-2.057680733253951e+01	 8.593828299119559e-01
 7.071067811900000e+00	-2.121320343560000e+01	 8.800649296717640e-01
 5.656854249200001e-01	-1.499066376118050e+01	 6.253544010990075e-01
 1.202081527988781e+00	-1.562705986424839e+01	 6.906806148263220e-01
 1.838477631058721e+00	-1.626345596731585e+01	 7.420474951420000e-01
 2.474873734129822e+00	-1.689985207038287e+01	 7.774296032070466e-01
 3.111269837202081e+00	-1.753624817344946e+01	 7.931624433694636e-01
 3.747665940275503e+00	-1.817264427651563e+01	 8.016510388160657e-01
 4.384062043350083e+00	-1.880904037958136e+01	 8.129080252493877e-01
 5.020458146425825e+00	-1.944543648264667e+01	 8.266164931596836e-01
 5.656854249502726e+00	-2.008183258571155e+01	 8.424595584255706e-01
 6.293250352580785e+00	-2.071822868877599e+01	 8.601203623111899e-01
 6.929646455660000e+00	-2.135462479184000e+01	 8.792820714633816e-01
 4.242640686900001e-01	-1.513208511741200e+01	 6.222642275507287e-01
 1.060660171757421e+00	-1.576848122047844e+01	 6.897117066202885e-01
 1.697056274826081e+00	-1.640487732354496e+01	 7.430155805385690e-01
 2.333452377895981e+00	-1.704127342661157e+01	 7.801504104666033e-01
 2.969848480967123e+00	-1.767766952967824e+01	 7.970997258907409e-01
 3.606244584039502e+00	-1.831406563274500e+01	 8.055223668546849e-01
 4.242640687113123e+00	-1.895046173581185e+01	 8.164008683020842e-01
 4.879036790187984e+00	-1.958685783887877e+01	 8.294183207385093e-01
 5.515432893264084e+00	-2.022325394194577e+01	 8.442578400577629e-01
 6.151828996341423e+00	-2.085965004501285e+01	 8.606025675390514e-01
 6.788225099420000e+00	-2.149604614808000e+01	 8.781356698441624e-01
 2.828427124600000e-01	-1.527350647364450e+01	 6.200168149549248e-01
 9.192388155264208e-01	-1.590990257670967e+01	 6.895054685363596e-01
 1.555634918594082e+00	-1.654629867977537e+01	 7.446662452268863e-01
 2.192031021662982e+00	-1.718269478284158e+01	 7.834737061875670e-01
 2.828427124733122e+00	-1.781909088590835e+01	 8.002979825235710e-01
 3.464823227804503e+00	-1.845548698897563e+01	 8.095678038896135e-01
 4.101219330877122e+00	-1.909188309204344e+01	 8.199596057733700e-01
 4.737615433950984e+00	-1.972827919511179e+01	 8.321778277425456e-01
 5.374011537026083e+00	-2.036467529818066e+01	 8.459055857061573e-01
 6.010407640102425e+00	-2.100107140125007e+01	 8.608260209585031e-01
 6.646803743180000e+00	-2.163746750432000e+01	 8.766223001763389e-01
 1.414213562300000e-01	-1.541492782987800e+01	 6.185897372515543e-01
 7.778174592957806e-01	-1.605132393294206e+01	 6.900394745144903e-01
 1.414213562362721e+00	-1.668772003600704e+01	 7.469770631469124e-01
 2.050609665430821e+00	-1.732411613907294e+01	 7.858162295494329e-01
 2.687005768500082e+00	-1.796051224213976e+01	 8.032129397031320e-01
 3.323401871570503e+00	-1.859690834520751e+01	 8.137839253480400e-01
 3.959797974642083e+00	-1.923330444827617e+01	 8.235808130896748e-01
 4.596194077714824e+00	-1.986970055134574e+01	 8.348915895974751e-01
 5.232590180788724e+00	-2.050609665441624e+01	 8.473993707956933e-01
 5.868986283863785e+00	-2.114249275748767e+01	 8.607872979937444e-01
 6.505382386939999e+00	-2.177888886056000e+01	 8.747385378833755e-01
-5.551115123125783e-17	-1.555634918611250e+01	 6.179605683805649e-01
 6.363961030655007e-01	-1.619274528917563e+01	 6.912912984946412e-01
 1.272792206132001e+00	-1.682914139224000e+01	 7.499256082386118e-01
 1.909188309199502e+00	-1.746553749530563e+01	 7.872300698445029e-01
 2.545584412268002e+00	-1.810193359837250e+01	 8.060877993851340e-01
 3.181980515337503e+00	-1.873832970144063e+01	 8.181673067183985e-01
 3.818376618408003e+00	-1.937472580451001e+01	 8.272610657386771e-01
 4.454772721479504e+00	-2.001112190758063e+01	 8.375561817902244e-01
 5.091168824552003e+00	-2.064751801065250e+01	 8.487357708125517e-01
 5.727564927625505e+00	-2.128391411372563e+01	 8.604829741302131e-01
 6.363961030700000e+00	-2.192031021680000e+01	 8.724809584499738e-01
-1.414213562300000e-01	-1.569777054234800e+01	 6.181068822819087e-01
 4.949747468355807e-01	-1.633416664541036e+01	 6.932385144167658e-01
 1.131370849901921e+00	-1.697056274847424e+01	 7.534894544419489e-01
 1.767766952969022e+00	-1.760695885153964e+01	 7.887531858189755e-01
 2.404163056036882e+00	-1.824335495460656e+01	 8.089386463603769e-01
 3.040559159105503e+00	-1.887975105767500e+01	 8.227145235503637e-01
 3.676955262174884e+00	-1.951614716074497e+01	 8.309969392692944e-01
 4.313351365245023e+00	-2.015254326381645e+01	 8.401681798689571e-01
 4.949747468315924e+00	-2.078893936688944e+01	 8.499113613041493e-01
 5.586143571387584e+00	-2.142533546996396e+01	 8.599096249145837e-01
 6.222539674460000e+00	-2.206173157304000e+01	 8.698461374220678e-01
-2.828427124599999e-01	-1.583919189858450e+01	 6.190062528955295e-01
 3.535533906060208e-01	-1.647558800164627e+01	 6.958586962208192e-01
 9.899494936724811e-01	-1.711198410470976e+01	 7.576461756968820e-01
 1.626345596739382e+00	-1.774838020777499e+01	 7.904016620232084e-01
 2.262741699806722e+00	-1.838477631084194e+01	 8.117815651410938e-01
 2.899137802874503e+00	-1.902117241391062e+01	 8.270625905485367e-01
 3.535533905942723e+00	-1.965756851698104e+01	 8.347850092916813e-01
 4.171930009011385e+00	-2.029396462005319e+01	 8.427241594430779e-01
 4.808326112080485e+00	-2.093036072312707e+01	 8.509227178791385e-01
 5.444722215150025e+00	-2.156675682620267e+01	 8.590638259547649e-01
 6.081118318220000e+00	-2.220315292928000e+01	 8.668306504068277e-01
-4.242640686899999e-01	-1.598061325482200e+01	 6.206362541613744e-01
 2.121320343768205e-01	-1.661700935788334e+01	 6.991294178467521e-01
 8.485281374436814e-01	-1.725340546094656e+01	 7.620011150135555e-01
 1.484924240510582e+00	-1.788980156401166e+01	 7.921915827290038e-01
 2.121320343577522e+00	-1.852619766707864e+01	 8.146326399609684e-01
 2.757716446644503e+00	-1.916259377014750e+01	 8.305306053844381e-01
 3.394112549711524e+00	-1.979898987321825e+01	 8.386218514772350e-01
 4.030508652778584e+00	-2.043538597629087e+01	 8.452206961832240e-01
 4.666904755845684e+00	-2.107178207936536e+01	 8.517664162074078e-01
 5.303300858912825e+00	-2.170817818244174e+01	 8.579421529198976e-01
 5.939696961979999e+00	-2.234457428552000e+01	 8.634310730726509e-01
-5.656854249199998e-01	-1.612203461106050e+01	 6.229744600193828e-01
 7.071067814798078e-02	-1.675843071412158e+01	 7.030282532345171e-01
 7.071067812155212e-01	-1.739482681718464e+01	 7.625764854965562e-01
 1.343502884282622e+00	-1.803122292024967e+01	 7.941390319296072e-01
 1.979898987349282e+00	-1.866761902331666e+01	 8.175079547751366e-01
 2.616295090415503e+00	-1.930401512638563e+01	 8.338895734799007e-01
 3.252691193481284e+00	-1.994041122945656e+01	 8.425040415585848e-01
 3.889087296546624e+00	-2.057680733252947e+01	 8.476543658212689e-01
 4.525483399611524e+00	-2.121320343560434e+01	 8.524390320200793e-01
 5.161879502675985e+00	-2.184959953868119e+01	 8.565411815403552e-01
 5.798275605740000e+00	-2.248599564176000e+01	 8.596439811491666e-01
-7.071067811500000e-01	-1.626345596730000e+01	 6.259984444094936e-01
-7.071067808049947e-02	-1.689985207036100e+01	 7.075327763240598e-01
 5.656854249880012e-01	-1.753624817342401e+01	 7.634587584935684e-01
 1.202081528055502e+00	-1.817264427648900e+01	 7.962600933397185e-01
 1.838477631122002e+00	-1.880904037955600e+01	 8.204235932601905e-01
 2.474873734187503e+00	-1.944543648262501e+01	 8.371555784733842e-01
 3.111269837252004e+00	-2.008183258569601e+01	 8.464281553295951e-01
 3.747665940315504e+00	-2.071822868876900e+01	 8.500217441503202e-01
 4.384062043378004e+00	-2.135462479184401e+01	 8.529371411095039e-01
 5.020458146439505e+00	-2.199102089492100e+01	 8.548574876077404e-01
 5.656854249500000e+00	-2.262741699800000e+01	 8.554659504272329e-01
-7.071067811900000e+00	-9.899494936600000e+00	 1.106570811965087e+00
-6.434671708820501e+00	-1.053589103967900e+01	 9.787341034034650e-01
-5.798275605742001e+00	-1.117228714275600e+01	 8.833484892360207e-01
-5.161879502664499e+00	-1.180868324583100e+01	 8.042100635456435e-01
-4.525483399588000e+00	-1.244507934890400e+01	 7.410785456003720e-01
-3.889087296512500e+00	-1.308147545197500e+01	 6.937136546682325e-01
-3.252691193438000e+00	-1.371787155504400e+01	 6.618751100172227e-01
-2.616295090364500e+00	-1.435426765811100e+01	 6.344476933554536e-01
-1.979898987292001e+00	-1.499066376117600e+01	 6.083433280661344e-01
-1.343502884220501e+00	-1.562705986423900e+01	 5.912083241365108e-01
-7.071067811500000e-01	-1.626345596730000e+01	 5.810172427283032e-01
-7.353910524361001e+00	-1.018233764907950e+01	 1.124053140336360e+00
-6.717514421285019e+00	-1.081873375215508e+01	 1.007827693028985e+00
-6.081118318209668e+00	-1.145512985522920e+01	 9.131857688439275e-01
-5.444722215134957e+00	-1.209152595830190e+01	 8.346293538027548e-01
-4.808326112060879e+00	-1.272792206137314e+01	 7.719181671734379e-01
-4.171930008987438e+00	-1.336431816444294e+01	 7.248119282239245e-01
-3.535533905914630e+00	-1.400071426751129e+01	 6.930703562221454e-01
-2.899137802842458e+00	-1.463711037057820e+01	 6.751629033093753e-01
-2.262741699770921e+00	-1.527350647364366e+01	 6.515270505068017e-01
-1.626345596700018e+00	-1.590990257670768e+01	 6.370767338145783e-01
-9.899494936297502e-01	-1.654629867977025e+01	 6.297865143943460e-01
-7.636753236823999e+00	-1.046518036155800e+01	 1.146411435639059e+00
-7.000357133750970e+00	-1.110157646463071e+01	 1.036164860912077e+00
-6.363961030678278e+00	-1.173797256770244e+01	 9.420823967278208e-01
-5.727564927605931e+00	-1.237436867077319e+01	 8.639237623542076e-01
-5.091168824533921e+00	-1.301076477384296e+01	 8.014486770591392e-01
-4.454772721462251e+00	-1.364716087691175e+01	 7.544168601105001e-01
-3.818376618390920e+00	-1.428355697997956e+01	 7.225880307761567e-01
-3.181980515319930e+00	-1.491995308304639e+01	 7.057219083239549e-01
-2.545584412249280e+00	-1.555634918611224e+01	 6.912346866847403e-01
-1.909188309178971e+00	-1.619274528917711e+01	 6.794023685225030e-01
-1.272792206109000e+00	-1.682914139224100e+01	 6.749463223828261e-01
-7.919595949289000e+00	-1.074802307403550e+01	 1.173499777478533e+00
-7.283199846218357e+00	-1.138441917710590e+01	 1.063790112103991e+00
-6.646803743147832e+00	-1.202081528017569e+01	 9.700828779389363e-01
-6.010407640077417e+00	-1.265721138324488e+01	 8.921377942512233e-01
-5.374011537007120e+00	-1.329360748631346e+01	 8.297145803086948e-01
-4.737615433936939e+00	-1.393000358938144e+01	 7.825729553791740e-01
-4.101219330866870e+00	-1.456639969244881e+01	 7.504726387304701e-01
-3.464823227796918e+00	-1.520279579551558e+01	 7.331733496303749e-01
-2.828427124727081e+00	-1.583919189858174e+01	 7.272868281197841e-01
-2.192031021657359e+00	-1.647558800164730e+01	 7.180058197801322e-01
-1.555634918587750e+00	-1.711198410471225e+01	 7.163172582136124e-01
-8.202438661756000e+00	-1.103086578651200e+01	 1.200104937659639e+00
-7.566042558687179e+00	-1.166726188958064e+01	 1.090747951655982e+00
-6.929646455618319e+00	-1.230365799264896e+01	 9.972317175285116e-01
-6.293250352549419e+00	-1.294005409571696e+01	 9.193159545450301e-01
-5.656854249480480e+00	-1.357645019878464e+01	 8.567603819733216e-01
-5.020458146411500e+00	-1.421284630185200e+01	 8.093247190811601e-01
-4.384062043342481e+00	-1.484924240491904e+01	 7.767686851363034e-01
-3.747665940273421e+00	-1.548563850798576e+01	 7.588519994064935e-01
-3.111269837204321e+00	-1.612203461105216e+01	 7.553343811594602e-01
-2.474873734135181e+00	-1.675843071411824e+01	 7.527076791073107e-01
-1.838477631066000e+00	-1.739482681718400e+01	 7.478015186879297e-01
-8.485281374225000e+00	-1.131370849898750e+01	 1.226271421233657e+00
-7.848885271157438e+00	-1.195010460205494e+01	 1.117082884619309e+00
-7.212489168089751e+00	-1.258650070512225e+01	 1.023573420547793e+00
-6.576093065021938e+00	-1.322289680818944e+01	 9.455027482868595e-01
-5.939696961954001e+00	-1.385929291125650e+01	 8.826305871042467e-01
-5.303300858885938e+00	-1.449568901432344e+01	 8.347166562676815e-01
-4.666904755817749e+00	-1.513208511739025e+01	 8.015206750448765e-01
-4.030508652749438e+00	-1.576848122045694e+01	 7.828023627035354e-01
-3.394112549681001e+00	-1.640487732352350e+01	 7.783214385113445e-01
-2.757716446612438e+00	-1.704127342658994e+01	 7.833285380238799e-01
-2.121320343543750e+00	-1.767766952965625e+01	 7.708700036720738e-01
-8.768124086695998e+00	-1.159655121146200e+01	 1.252043733251866e+00
-8.131727983629130e+00	-1.223294731452879e+01	 1.142839416045234e+00
-7.495331880562119e+00	-1.286934341759556e+01	 1.049152492048028e+00
-6.858935777494969e+00	-1.350573952066231e+01	 9.707426805279495e-01
-6.222539674427680e+00	-1.414213562372904e+01	 9.073697007526975e-01
-5.586143571360251e+00	-1.477853172679575e+01	 8.587932719899607e-01
-4.949747468292680e+00	-1.541492782986244e+01	 8.247731135074133e-01
-4.313351365224970e+00	-1.605132393292911e+01	 8.050689445727238e-01
-3.676955262157120e+00	-1.668772003599576e+01	 7.994404844535477e-01
-3.040559159089129e+00	-1.732411613906239e+01	 8.050422740736379e-01
-2.404163056021000e+00	-1.796051224212900e+01	 7.908565919145745e-01
-9.050966799169000e+00	-1.187939392393550e+01	 1.285489104490722e+00
-8.414570696102256e+00	-1.251579002700219e+01	 1.168062050985031e+00
-7.778174593035430e+00	-1.315218613006889e+01	 1.074013437080469e+00
-7.141778489968517e+00	-1.378858223313558e+01	 9.950802563195411e-01
-6.505382386901521e+00	-1.442497833620226e+01	 9.310222279699091e-01
-5.868986283834437e+00	-1.506137443926894e+01	 8.815990712992268e-01
-5.232590180767270e+00	-1.569777054233561e+01	 8.465705055751396e-01
-4.596194077700019e+00	-1.633416664540228e+01	 8.256962500652865e-01
-3.959797974632680e+00	-1.697056274846894e+01	 8.187360240372977e-01
-3.323401871565258e+00	-1.760695885153560e+01	 8.149142207741227e-01
-2.687005768497750e+00	-1.824335495460225e+01	 8.078899261945434e-01
-9.333809511644001e+00	-1.216223663640800e+01	 1.318477930575921e+00
-8.697413408576820e+00	-1.279863273947516e+01	 1.192795294489970e+00
-8.061017305509679e+00	-1.343502884254224e+01	 1.098200760696376e+00
-7.424621202442578e+00	-1.407142494560924e+01	 1.018559980712882e+00
-6.788225099375520e+00	-1.470782104867616e+01	 9.536326738071176e-01
-6.151828996308501e+00	-1.534421715174300e+01	 9.031785592467096e-01
-5.515432893241520e+00	-1.598061325480976e+01	 8.669573562992819e-01
-4.879036790174580e+00	-1.661700935787644e+01	 8.447287842324495e-01
-4.242640687107681e+00	-1.725340546094304e+01	 8.359888093467569e-01
-3.606244584040820e+00	-1.788980156400956e+01	 8.243259209678845e-01
-2.969848480974000e+00	-1.852619766707600e+01	 8.216095328920532e-01
-9.616652224120999e+00	-1.244507934887950e+01	 1.348938629875573e+00
-8.980256121052818e+00	-1.308147545194768e+01	 1.221913125555249e+00
-8.343860017984870e+00	-1.371787155501561e+01	 1.121758967947014e+00
-7.707463914917157e+00	-1.435426765808330e+01	 1.041226358759222e+00
-7.071067811849680e+00	-1.499066376115074e+01	 9.752455433155652e-01
-6.434671708782437e+00	-1.562705986421794e+01	 9.235762408836472e-01
-5.798275605715430e+00	-1.626345596728489e+01	 8.859781707310713e-01
-5.161879502648659e+00	-1.689985207035160e+01	 8.622110521254418e-01
-4.525483399582120e+00	-1.753624817341806e+01	 8.459904720277583e-01
-3.889087296515818e+00	-1.817264427648427e+01	 8.332000753915395e-01
-3.252691193449750e+00	-1.880904037955025e+01	 8.294000347071603e-01
-9.899494936600000e+00	-1.272792206135000e+01	 1.377001606673346e+00
-9.263098833530250e+00	-1.336431816441975e+01	 1.252810270056379e+00
-8.626702730461000e+00	-1.400071426748900e+01	 1.144732563883648e+00
-7.990306627392250e+00	-1.463711037055775e+01	 1.063123895509821e+00
-7.353910524324001e+00	-1.527350647362600e+01	 9.959053415464987e-01
-6.717514421256251e+00	-1.590990257669375e+01	 9.428366212612751e-01
-6.081118318189000e+00	-1.654629867976100e+01	 9.036774539217416e-01
-5.444722215122251e+00	-1.718269478282775e+01	 8.781875587954922e-01
-4.808326112056001e+00	-1.781909088589400e+01	 8.555488923081151e-01
-4.171930008990251e+00	-1.845548698895975e+01	 8.414593873064593e-01
-3.535533905925000e+00	-1.909188309202500e+01	 8.364040904358905e-01
-7.071067811500000e-01	-1.626345596730000e+01	 5.810172427283032e-01
-7.071067808049947e-02	-1.689985207036100e+01	 6.677619327398290e-01
 5.656854249880012e-01	-1.753624817342401e+01	 7.287399979099787e-01
 1.202081528055502e+00	-1.817264427648900e+01	 7.664351406610534e-01
 1.838477631122002e+00	-1.880904037955600e+01	 7.953341733911996e-01
 2.474873734187503e+00	-1.944543648262501e+01	 8.166434163191463e-01
 3.111269837252004e+00	-2.008183258569601e+01	 8.303349757953834e-01
 3.747665940315504e+00	-2.071822868876900e+01	 8.381892721414619e-01
 4.384062043378004e+00	-2.135462479184401e+01	 8.452071015312459e-01
 5.020458146439505e+00	-2.199102089492100e+01	 8.510716053651101e-01
 5.656854249500000e+00	-2.262741699800000e+01	 8.554659504249038e-01
-9.899494936297502e-01	-1.654629867977025e+01	 6.297865143943460e-01
-3.535533905602919e-01	-1.718269478283282e+01	 7.096684149615835e-01
 2.828427125081811e-01	-1.781909088589684e+01	 7.543752168449250e-01
 9.192388155756690e-01	-1.845548698896230e+01	 7.871627689137423e-01
 1.555634918642173e+00	-1.909188309202921e+01	 8.115649425375735e-01
 2.192031021707690e+00	-1.972827919509756e+01	 8.287880594779740e-01
 2.828427124772224e+00	-2.036467529816737e+01	 8.400383411762433e-01
 3.464823227835772e+00	-2.100107140123861e+01	 8.436620974647135e-01
 4.101219330898336e+00	-2.163746750431130e+01	 8.461271904595004e-01
 4.737615433959914e+00	-2.227386360738543e+01	 8.481130380412606e-01
 5.374011537020500e+00	-2.291025971046100e+01	 8.493028070221065e-01
-1.272792206109000e+00	-1.682914139224100e+01	 6.749463223828261e-01
-6.363961030396696e-01	-1.746553749530489e+01	 7.396314699887099e-01
 2.872141782218895e-11	-1.810193359836977e+01	 7.769710874610226e-01
 6.363961030961716e-01	-1.873832970143562e+01	 8.051296414928193e-01
 1.272792206162682e+00	-1.937472580450244e+01	 8.253135557187006e-01
 1.909188309228253e+00	-2.001112190757025e+01	 8.387291534425624e-01
 2.545584412292884e+00	-2.064751801063904e+01	 8.465826576489551e-01
 3.181980515356574e+00	-2.128391411370881e+01	 8.484274837549616e-01
 3.818376618419324e+00	-2.192031021677956e+01	 8.467187330084418e-01
 4.454772721481136e+00	-2.255670631985130e+01	 8.452048153296065e-01
 5.091168824542001e+00	-2.319310242292400e+01	 8.435688975609379e-01
-1.555634918587750e+00	-1.711198410471225e+01	 7.163172582136124e-01
-9.192388155186317e-01	-1.774838020777720e+01	 7.640778021384422e-01
-2.828427124503789e-01	-1.838477631084277e+01	 7.966562697534504e-01
 3.535533906170091e-01	-1.902117241390892e+01	 8.204644180890069e-01
 9.899494936835319e-01	-1.965756851697570e+01	 8.367086723206543e-01
 1.626345596749190e+00	-2.029396462004307e+01	 8.465953572941343e-01
 2.262741699813983e+00	-2.093036072311104e+01	 8.513306975367708e-01
 2.899137802877912e+00	-2.156675682617963e+01	 8.521208172688428e-01
 3.535533905940974e+00	-2.220315292924882e+01	 8.469543377210773e-01
 4.171930009003173e+00	-2.283954903231861e+01	 8.423195457671163e-01
 4.808326112064499e+00	-2.347594513538900e+01	 8.382368305723793e-01
-1.838477631066000e+00	-1.739482681718400e+01	 7.478015186879297e-01
-1.202081527997179e+00	-1.803122292024976e+01	 7.854635165302655e-01
-5.656854249291188e-01	-1.866761902331584e+01	 8.135594192611770e-01
 7.071067813818174e-02	-1.930401512638224e+01	 8.332957539369267e-01
 7.071067812047221e-01	-1.994041122944897e+01	 8.458789472735067e-01
 1.343502884270503e+00	-2.057680733251600e+01	 8.525153256580269e-01
 1.979898987335523e+00	-2.121320343558337e+01	 8.544111151600858e-01
 2.616295090399784e+00	-2.184959953865105e+01	 8.527724415431565e-01
 3.252691193463285e+00	-2.248599564171905e+01	 8.468066141199775e-01
 3.889087296526025e+00	-2.312239174478736e+01	 8.394298388702987e-01
 4.525483399588000e+00	-2.375878784785600e+01	 8.332792155669305e-01
-2.121320343543750e+00	-1.767766952965625e+01	 7.708700036720738e-01
-1.484924240475312e+00	-1.831406563272256e+01	 8.039172645512050e-01
-8.485281374074984e-01	-1.895046173578900e+01	 8.278091870671815e-01
-2.121320343403107e-01	-1.958685783885556e+01	 8.437522998153161e-01
 4.242640687262521e-01	-2.022325394192225e+01	 8.529530310515635e-01
 1.060660171792190e+00	-2.085965004498907e+01	 8.566177087039049e-01
 1.697056274857503e+00	-2.149604614805600e+01	 8.559525603837346e-01
 2.333452377922192e+00	-2.213244225112307e+01	 8.521637133972264e-01
 2.969848480986254e+00	-2.276883835419026e+01	 8.462481727072219e-01
 3.606244584049692e+00	-2.340523445725757e+01	 8.365083051351534e-01
 4.242640687112500e+00	-2.404163056032500e+01	 8.286686630345557e-01
-2.404163056021000e+00	-1.796051224212900e+01	 7.908565919145745e-01
-1.767766952953029e+00	-1.859690834519561e+01	 8.195676931324023e-01
-1.131370849885519e+00	-1.923330444826224e+01	 8.395342197986713e-01
-4.949747468184682e-01	-1.986970055132889e+01	 8.519627020472491e-01
 1.414213562481222e-01	-2.050609665439557e+01	 8.580595696735632e-01
 7.778174593142529e-01	-2.114249275746225e+01	 8.590311521459868e-01
 1.414213562379924e+00	-2.177888886052897e+01	 8.560836786172092e-01
 2.050609665445134e+00	-2.241528496359569e+01	 8.504232779356194e-01
 2.687005768509884e+00	-2.305168106666244e+01	 8.432559786566867e-01
 3.323401871574176e+00	-2.368807716972922e+01	 8.335275560371220e-01
 3.959797974638000e+00	-2.432447327279600e+01	 8.309177300198503e-01
-2.687005768497750e+00	-1.824335495460225e+01	 8.078899261945434e-01
-2.050609665430331e+00	-1.887975105766890e+01	 8.325434447493365e-01
-1.414213562363179e+00	-1.951614716073556e+01	 8.488631596272922e-01
-7.778174592962905e-01	-2.015254326380223e+01	 8.580556025003472e-01
-1.414213562296678e-01	-2.078893936686890e+01	 8.613272047029130e-01
 4.949747468366905e-01	-2.142533546993557e+01	 8.598842972432557e-01
 1.131370849902783e+00	-2.206173157300224e+01	 8.549331108148737e-01
 1.767766952968612e+00	-2.269812767606893e+01	 8.476797758078802e-01
 2.404163056034175e+00	-2.333452377913562e+01	 8.393303223203801e-01
 3.040559159099473e+00	-2.397091988220231e+01	 8.304602040310394e-01
 3.676955262164500e+00	-2.460731598526900e+01	 8.374272723551620e-01
-2.969848480974000e+00	-1.852619766707600e+01	 8.216095328920532e-01
-2.333452377907219e+00	-1.916259377014244e+01	 8.429731574220363e-01
-1.697056274840479e+00	-1.979898987320897e+01	 8.559246442693547e-01
-1.060660171773778e+00	-2.043538597627557e+01	 8.621596385870056e-01
-4.242640687071176e-01	-2.107178207934225e+01	 8.628845732478896e-01
 2.121320343595030e-01	-2.170817818240900e+01	 8.593057807996771e-01
 8.485281374260834e-01	-2.234457428547584e+01	 8.526294934761847e-01
 1.484924240492624e+00	-2.298097038854276e+01	 8.440618432087541e-01
 2.121320343559125e+00	-2.361736649160976e+01	 8.348088616376353e-01
 2.757716446625585e+00	-2.425376259467685e+01	 8.307341576901575e-01
 3.394112549692001e+00	-2.489015869774400e+01	 8.449229867168816e-01
-3.252691193449750e+00	-1.880904037955025e+01	 8.294000347071603e-01
-2.616295090383692e+00	-1.944543648261622e+01	 8.509854647153052e-01
-1.979898987317418e+00	-2.008183258568244e+01	 8.608473069860492e-01
-1.343502884250930e+00	-2.071822868874890e+01	 8.644034432646041e-01
-7.071067811842275e-01	-2.135462479181561e+01	 8.628603079618684e-01
-7.071067811730961e-02	-2.199102089488256e+01	 8.574242351644226e-01
 5.656854249498237e-01	-2.262741699794977e+01	 8.493014586459053e-01
 1.202081528017172e+00	-2.326381310101721e+01	 8.396981118784012e-01
 1.838477631084735e+00	-2.390020920408489e+01	 8.298202280438023e-01
 2.474873734152513e+00	-2.453660530715283e+01	 8.373556772799228e-01
 3.111269837220500e+00	-2.517300141022100e+01	 8.533862876758355e-01
-3.535533905925000e+00	-1.909188309202500e+01	 8.364040904358905e-01
-2.899137802859750e+00	-1.972827919509026e+01	 8.567089957389276e-01
-2.262741699793998e+00	-2.036467529815600e+01	 8.637597765836584e-01
-1.626345596727748e+00	-2.100107140122225e+01	 8.649156450357265e-01
-9.899494936609978e-01	-2.163746750428901e+01	 8.613830370435330e-01
-3.535533905937472e-01	-2.227386360735625e+01	 8.543682882320781e-01
 2.828427124740034e-01	-2.291025971042401e+01	 8.450776339143284e-01
 9.192388155422540e-01	-2.354665581349225e+01	 8.347172091026114e-01
 1.555634918611005e+00	-2.418305191656101e+01	 8.264793324150175e-01
 2.192031021680255e+00	-2.481944801963025e+01	 8.444698202482888e-01
 2.828427124750000e+00	-2.545584412270000e+01	 8.621761834017769e-01
-9.899494936600000e+00	-1.272792206135000e+01	 1.377001606673346e+00
-9.263098833530250e+00	-1.336431816441975e+01	 1.252810270056379e+00
-8.626702730461000e+00	-1.400071426748900e+01	 1.144732563883648e+00
-7.990306627392250e+00	-1.463711037055775e+01	 1.063123895509821e+00
-7.353910524324001e+00	-1.527350647362600e+01	 9.959053415464987e-01
-6.717514421256251e+00	-1.590990257669375e+01	 9.428366212612751e-01
-6.081118318189000e+00	-1.654629867976100e+01	 9.036774539217416e-01
-5.444722215122251e+00	-1.718269478282775e+01	 8.781875587954922e-01
-4.808326112056001e+00	-1.781909088589400e+01	 8.555488923081151e-01
-4.171930008990251e+00	-1.845548698895975e+01	 8.414593873064593e-01
-3.535533905925000e+00	-1.909188309202500e+01	 8.364040904358905e-01
-1.018233764908000e+01	-1.301076477382050e+01	 1.341127804539449e+00
-9.545941546008487e+00	-1.364716087689182e+01	 1.230944792070274e+00
-8.909545442937748e+00	-1.428355697996239e+01	 1.129570990791871e+00
-8.273149339867789e+00	-1.491995308303220e+01	 1.053798121657018e+00
-7.636753236798599e+00	-1.555634918610125e+01	 9.935182379850851e-01
-7.000357133730187e+00	-1.619274528916957e+01	 9.462117474113383e-01
-6.363961030662550e+00	-1.682914139223711e+01	 9.116383692034113e-01
-5.727564927595687e+00	-1.746553749530390e+01	 8.865121895558039e-01
-5.091168824529601e+00	-1.810193359836994e+01	 8.657433825899800e-01
-4.454772721464288e+00	-1.873832970143522e+01	 8.534700022038106e-01
-3.818376618399751e+00	-1.937472580449975e+01	 8.492599174124169e-01
-1.046518036156000e+01	-1.329360748629200e+01	 1.307469991560973e+00
-9.828784258486900e+00	-1.393000358936434e+01	 1.210776196601170e+00
-9.192388155414802e+00	-1.456639969243576e+01	 1.121570291579622e+00
-8.555992052343699e+00	-1.520279579550626e+01	 1.047280400813964e+00
-7.919595949273599e+00	-1.583919189857584e+01	 9.934666153248154e-01
-7.283199846204502e+00	-1.647558800164450e+01	 9.514497823539793e-01
-6.646803743136401e+00	-1.711198410471224e+01	 9.209896211691135e-01
-6.010407640069301e+00	-1.774838020777906e+01	 8.958279272756278e-01
-5.374011537003201e+00	-1.838477631084496e+01	 8.773862170830136e-01
-4.737615433938100e+00	-1.902117241390994e+01	 8.664690201315504e-01
-4.101219330874000e+00	-1.965756851697400e+01	 8.626442027691410e-01
-1.074802307404000e+01	-1.357645019876450e+01	 1.276158564527608e+00
-1.011162697096549e+01	-1.421284630183730e+01	 1.192434882014892e+00
-9.475230867892149e+00	-1.484924240490911e+01	 1.114877770038377e+00
-8.838834764819987e+00	-1.548563850797992e+01	 1.043953222941430e+00
-8.202438661748999e+00	-1.612203461104974e+01	 9.957949786169136e-01
-7.566042558679189e+00	-1.675843071411856e+01	 9.585952311404244e-01
-6.929646455610551e+00	-1.739482681718639e+01	 9.305349807475005e-01
-6.293250352543089e+00	-1.803122292025322e+01	 9.069746566989084e-01
-5.656854249476803e+00	-1.866761902331907e+01	 8.904001060952108e-01
-5.020458146411689e+00	-1.930401512638391e+01	 8.803791519245683e-01
-4.384062043347751e+00	-1.994041122944775e+01	 8.764796578679346e-01
-1.103086578652000e+01	-1.385929291123800e+01	 1.247323917731276e+00
-1.039446968344425e+01	-1.449568901431071e+01	 1.176051244179418e+00
-9.758073580369802e+00	-1.513208511738244e+01	 1.109623823612163e+00
-9.121677477296648e+00	-1.576848122045319e+01	 1.048507642398549e+00
-8.485281374224803e+00	-1.640487732352296e+01	 1.000547832912599e+00
-7.848885271154251e+00	-1.704127342659175e+01	 9.676925988219025e-01
-7.212489168085002e+00	-1.767766952965956e+01	 9.410572736373106e-01
-6.576093065017051e+00	-1.831406563272639e+01	 9.198750901312454e-01
-5.939696961950402e+00	-1.895046173579224e+01	 9.047077624589090e-01
-5.303300858885053e+00	-1.958685783885712e+01	 8.951231109420319e-01
-4.666904755821001e+00	-2.022325394192100e+01	 8.906889965948760e-01
-1.131370849900000e+01	-1.414213562371250e+01	 1.221096442966189e+00
-1.067731239592319e+01	-1.477853172678456e+01	 1.161755676464953e+00
-1.004091629284775e+01	-1.541492782985575e+01	 1.105938847247165e+00
-9.404520189773692e+00	-1.605132393292607e+01	 1.054111933707691e+00
-8.768124086701002e+00	-1.668772003599550e+01	 1.007769683263099e+00
-8.131727983629688e+00	-1.732411613906407e+01	 9.784560514464573e-01
-7.495331880559752e+00	-1.796051224213175e+01	 9.537159180272596e-01
-6.858935777491189e+00	-1.859690834519856e+01	 9.344519424025298e-01
-6.222539674424003e+00	-1.923330444826450e+01	 9.202319015306786e-01
-5.586143571358189e+00	-1.986970055132957e+01	 9.106236130672692e-01
-4.949747468293751e+00	-2.050609665439375e+01	 9.051949353601425e-01
-1.159655121148000e+01	-1.442497833618800e+01	 1.197606529528931e+00
-1.096015510840230e+01	-1.506137443925886e+01	 1.149678569744006e+00
-1.032375900532600e+01	-1.569777054232904e+01	 1.103953233391803e+00
-9.687362902251103e+00	-1.633416664539854e+01	 1.060896490893179e+00
-9.050966799177599e+00	-1.697056274846736e+01	 1.020974320439457e+00
-8.414570696105502e+00	-1.760695885153551e+01	 9.907445665326289e-01
-7.778174593034803e+00	-1.824335495460296e+01	 9.684336307449009e-01
-7.141778489965501e+00	-1.887975105766974e+01	 9.506279308668365e-01
-6.505382386897601e+00	-1.951614716073584e+01	 9.368952411911990e-01
-5.868986283831102e+00	-2.015254326380126e+01	 9.268033767076517e-01
-5.232590180766000e+00	-2.078893936686600e+01	 9.199201930978843e-01
-1.187939392396000e+01	-1.470782104866450e+01	 1.176984564218531e+00
-1.124299782088159e+01	-1.534421715173360e+01	 1.139950312391454e+00
-1.060660171780455e+01	-1.598061325480231e+01	 1.103797371996801e+00
-9.970205614728888e+00	-1.661700935787063e+01	 1.068991705481568e+00
-9.333809511654602e+00	-1.725340546093854e+01	 1.035983940576516e+00
-8.697413408581689e+00	-1.788980156400607e+01	 1.005474797436605e+00
-8.061017305510152e+00	-1.852619766707319e+01	 9.851331311419150e-01
-7.424621202439989e+00	-1.916259377013992e+01	 9.683257754022967e-01
-6.788225099371203e+00	-1.979898987320626e+01	 9.546205018451390e-01
-6.151828996303790e+00	-2.043538597627220e+01	 9.435851227944725e-01
-5.515432893237752e+00	-2.107178207933775e+01	 9.347874912661039e-01
-1.216223663644000e+01	-1.499066376114200e+01	 1.159360931336536e+00
-1.152584053336105e+01	-1.562705986420879e+01	 1.132701290284629e+00
-1.088944443028340e+01	-1.626345596727556e+01	 1.105601650515260e+00
-1.025304832720705e+01	-1.689985207034232e+01	 1.078527966501730e+00
-9.616652224132002e+00	-1.753624817340904e+01	 1.051658654931675e+00
-8.980256121058252e+00	-1.817264427647575e+01	 1.024419046098825e+00
-8.343860017985801e+00	-1.880904037954244e+01	 1.003737141093988e+00
-7.707463914914652e+00	-1.944543648260911e+01	 9.874681984109831e-01
-7.071067811844802e+00	-2.008183258567576e+01	 9.733304064210379e-01
-6.434671708776253e+00	-2.071822868874239e+01	 9.608915747828279e-01
-5.798275605709002e+00	-2.135462479180900e+01	 9.497195538465442e-01
-1.244507934892000e+01	-1.527350647362050e+01	 1.144866012687080e+00
-1.180868324584069e+01	-1.590990257668443e+01	 1.128061886803376e+00
-1.117228714276255e+01	-1.654629867974879e+01	 1.109496453902733e+00
-1.053589103968559e+01	-1.718269478281361e+01	 1.089635660484916e+00
-9.899494936609806e+00	-1.781909088587887e+01	 1.068515891075909e+00
-9.263098833535192e+00	-1.845548698894457e+01	 1.045915958030572e+00
-8.626702730461751e+00	-1.909188309201071e+01	 1.024168385000700e+00
-7.990306627389490e+00	-1.972827919507731e+01	 1.007977924818787e+00
-7.353910524318403e+00	-2.036467529814434e+01	 9.929476803711919e-01
-6.717514421248490e+00	-2.100107140121182e+01	 9.786454586514990e-01
-6.081118318179752e+00	-2.163746750427975e+01	 9.646391073445619e-01
-1.272792206140000e+01	-1.555634918610000e+01	 1.133630187576960e+00
-1.209152595832050e+01	-1.619274528916050e+01	 1.126162482830137e+00
-1.145512985524200e+01	-1.682914139222200e+01	 1.115612164617299e+00
-1.081873375216450e+01	-1.746553749528450e+01	 1.102412456042082e+00
-1.018233764908800e+01	-1.810193359834800e+01	 1.086582792456084e+00
-9.545941546012500e+00	-1.873832970141250e+01	 1.068130189470342e+00
-8.909545442937999e+00	-1.937472580447800e+01	 1.047114498873881e+00
-8.273149339864499e+00	-2.001112190754450e+01	 1.029777682075306e+00
-7.636753236792002e+00	-2.064751801061200e+01	 1.013395051671524e+00
-7.000357133720501e+00	-2.128391411368050e+01	 9.967695029028302e-01
-6.363961030650000e+00	-2.192031021675000e+01	 9.794688807890101e-01
-3.535533905925000e+00	-1.909188309202500e+01	 8.364040904358905e-01
-2.899137802859750e+00	-1.972827919509026e+01	 8.567089957389276e-01
-2.262741699793998e+00	-2.036467529815600e+01	 8.637597765836584e-01
-1.626345596727748e+00	-2.100107140122225e+01	 8.649156450357265e-01
-9.899494936609978e-01	-2.163746750428901e+01	 8.613830370435330e-01
-3.535533905937472e-01	-2.227386360735625e+01	 8.543682882320781e-01
 2.828427124740034e-01	-2.291025971042401e+01	 8.450776339143284e-01
 9.192388155422540e-01	-2.354665581349225e+01	 8.347172091026114e-01
 1.555634918611005e+00	-2.418305191656101e+01	 8.264793324150175e-01
 2.192031021680255e+00	-2.481944801963025e+01	 8.444698202482888e-01
 2.828427124750000e+00	-2.545584412270000e+01	 8.621761834017769e-01
-3.818376618399751e+00	-1.937472580449975e+01	 8.492599174124169e-01
-3.181980515335222e+00	-2.001112190756429e+01	 8.658648467758582e-01
-2.545584412269940e+00	-2.064751801062961e+01	 8.740198714526565e-01
-1.909188309203901e+00	-2.128391411369569e+01	 8.735588219783933e-01
-1.272792206137108e+00	-2.192031021676256e+01	 8.683187105797472e-01
-6.363961030695598e-01	-2.255670631983019e+01	 8.595058744196420e-01
-1.257084714101353e-12	-2.319310242289861e+01	 8.483265503498902e-01
 6.363961030678011e-01	-2.382949852596779e+01	 8.359868749225641e-01
 1.272792206137614e+00	-2.446589462903776e+01	 8.383313545458637e-01
 1.909188309208182e+00	-2.510229073210850e+01	 8.543298928162081e-01
 2.545584412279500e+00	-2.573868683518000e+01	 8.701371355744330e-01
-4.101219330874000e+00	-1.965756851697400e+01	 8.626442027691410e-01
-3.464823227809940e+00	-2.029396462003810e+01	 8.750598337430455e-01
-2.828427124744960e+00	-2.093036072310321e+01	 8.833939764919831e-01
-2.192031021679059e+00	-2.156675682616931e+01	 8.812933335593456e-01
-1.555634918612238e+00	-2.220315292923640e+01	 8.743230502833755e-01
-9.192388155444977e-01	-2.283954903230450e+01	 8.636894653644315e-01
-2.828427124758373e-01	-2.347594513537361e+01	 8.505988171926659e-01
 3.535533905937434e-01	-2.411234123844370e+01	 8.362572438594102e-01
 9.899494936642438e-01	-2.474873734151481e+01	 8.494299970469956e-01
 1.626345596735665e+00	-2.538513344458691e+01	 8.634805595200380e-01
 2.262741699807999e+00	-2.602152954766000e+01	 8.774326545351304e-01
-4.384062043347751e+00	-1.994041122944775e+01	 8.764796578679346e-01
-3.747665940283903e+00	-2.057680733251169e+01	 8.847911995555029e-01
-3.111269837219059e+00	-2.121320343557680e+01	 8.905186719003737e-01
-2.474873734153222e+00	-2.184959953864309e+01	 8.882477949180829e-01
-1.838477631086389e+00	-2.248599564171055e+01	 8.795246709903479e-01
-1.202081528018560e+00	-2.312239174477919e+01	 8.670476755985979e-01
-5.656854249497373e-01	-2.375878784784900e+01	 8.520230486708398e-01
 7.071067812008076e-02	-2.439518395091999e+01	 8.474487330881254e-01
 7.071067811908938e-01	-2.503158005399216e+01	 8.597951947607119e-01
 1.343502884262702e+00	-2.566797615706549e+01	 8.719417552406112e-01
 1.979898987335499e+00	-2.630437226014000e+01	 8.840826752032014e-01
-4.666904755821001e+00	-2.022325394192100e+01	 8.906889965948760e-01
-4.030508652757111e+00	-2.085965004498505e+01	 8.949816586263242e-01
-3.394112549692240e+00	-2.149604614805040e+01	 8.969471273293885e-01
-2.757716446626389e+00	-2.213244225111706e+01	 8.945508167401776e-01
-2.121320343559559e+00	-2.276883835418500e+01	 8.840521830827680e-01
-1.484924240491748e+00	-2.340523445725426e+01	 8.697091152005828e-01
-8.485281374229575e-01	-2.404163056032480e+01	 8.527278545589838e-01
-2.121320343531870e-01	-2.467802666339666e+01	 8.590532757233540e-01
 4.242640687175635e-01	-2.531442276646981e+01	 8.694468832234274e-01
 1.060660171789294e+00	-2.595081886954425e+01	 8.797334155528932e-01
 1.697056274861999e+00	-2.658721497262000e+01	 8.901071331921314e-01
-4.949747468293751e+00	-2.050609665439375e+01	 9.051949353601425e-01
-4.313351365229563e+00	-2.114249275745819e+01	 9.055539278926252e-01
-3.676955262164500e+00	-2.177888886052400e+01	 9.038425996424504e-01
-3.040559159098561e+00	-2.241528496359119e+01	 8.996289310050671e-01
-2.404163056031749e+00	-2.305168106665976e+01	 8.880341924891435e-01
-1.767766952964061e+00	-2.368807716972969e+01	 8.718023897953338e-01
-1.131370849895498e+00	-2.432447327280101e+01	 8.612270475079282e-01
-4.949747468260597e-01	-2.496086937587369e+01	 8.699202703433603e-01
 1.414213562442533e-01	-2.559726547894776e+01	 8.784049986657070e-01
 7.778174593154412e-01	-2.623366158202320e+01	 8.868754767260147e-01
 1.414213562387499e+00	-2.687005768510000e+01	 8.955259648095819e-01
-5.232590180766000e+00	-2.078893936686600e+01	 9.199201930978843e-01
-4.596194077701260e+00	-2.142533546993110e+01	 9.164307268154285e-01
-3.959797974635840e+00	-2.206173157299760e+01	 9.111278088275404e-01
-3.323401871569739e+00	-2.269812767606550e+01	 9.035794168627527e-01
-2.687005768502959e+00	-2.333452377913481e+01	 8.915993006845931e-01
-2.050609665435498e+00	-2.397091988220550e+01	 8.734561005545138e-01
-1.414213562367358e+00	-2.460731598527761e+01	 8.733341591334969e-01
-7.778174592985374e-01	-2.524371208835111e+01	 8.800696538342810e-01
-1.414213562290370e-01	-2.588010819142601e+01	 8.866894780123038e-01
 4.949747468411435e-01	-2.651650429450230e+01	 8.933878757233077e-01
 1.131370849911999e+00	-2.715290039758001e+01	 9.003591070574365e-01
-5.515432893237752e+00	-2.107178207933775e+01	 9.347874912661039e-01
-4.879036790172202e+00	-2.170817818240379e+01	 9.275347773795413e-01
-4.242640687106260e+00	-2.234457428547120e+01	 9.187254773963499e-01
-3.606244584039923e+00	-2.298097038853999e+01	 9.079275663784248e-01
-2.969848480973189e+00	-2.361736649161015e+01	 8.947090600599508e-01
-2.333452377906061e+00	-2.425376259468170e+01	 8.796608027995577e-01
-1.697056274838538e+00	-2.489015869775460e+01	 8.846996210247867e-01
-1.060660171770620e+00	-2.552655480082889e+01	 8.895213637764522e-01
-4.242640687023073e-01	-2.616295090390455e+01	 8.943202588821817e-01
 2.121320343664008e-01	-2.679934700698159e+01	 8.992905502023361e-01
 8.485281374354983e-01	-2.743574311006000e+01	 9.046264976318252e-01
-5.798275605709002e+00	-2.135462479180900e+01	 9.497195538465442e-01
-5.161879502642391e+00	-2.199102089487625e+01	 9.387888040934342e-01
-4.525483399575760e+00	-2.262741699794481e+01	 9.265583303841690e-01
-3.889087296509111e+00	-2.326381310101465e+01	 9.125961051142769e-01
-3.252691193442439e+00	-2.390020920408580e+01	 8.964701413513165e-01
-2.616295090375749e+00	-2.453660530715826e+01	 8.922671508762710e-01
-1.979898987309039e+00	-2.517300141023201e+01	 8.953433714176909e-01
-1.343502884242308e+00	-2.580939751330705e+01	 8.982953384444486e-01
-7.071067811755576e-01	-2.644579361638341e+01	 9.013172795885622e-01
-7.071067810878684e-02	-2.708218971946106e+01	 9.046034385149354e-01
 5.656854249579980e-01	-2.771858582254001e+01	 9.083480749231660e-01
-6.081118318179752e+00	-2.163746750427975e+01	 9.646391073445619e-01
-5.444722215111825e+00	-2.227386360734850e+01	 9.501155339891258e-01
-4.808326112044342e+00	-2.291025971041840e+01	 9.345490953497640e-01
-4.171930008977302e+00	-2.354665581348949e+01	 9.175077611559050e-01
-3.535533905910710e+00	-2.418305191656175e+01	 9.002387033267097e-01
-2.899137802844562e+00	-2.481944801963519e+01	 9.041277490083611e-01
-2.262741699778859e+00	-2.545584412270981e+01	 9.052853492423629e-01
-1.626345596713600e+00	-2.609224022578559e+01	 9.064115168071136e-01
-9.899494936487879e-01	-2.672863632886256e+01	 9.077004791389497e-01
-3.535533905844196e-01	-2.736503243194069e+01	 9.093464797072404e-01
 2.828427124794977e-01	-2.800142853502000e+01	 9.115437780161924e-01
-6.363961030650000e+00	-2.192031021675000e+01	 9.794688807890101e-01
-5.727564927580500e+00	-2.255670631982050e+01	 9.614376966220612e-01
-5.091168824511998e+00	-2.319310242289200e+01	 9.426205023752562e-01
-4.454772721444498e+00	-2.382949852596450e+01	 9.225852651121953e-01
-3.818376618377998e+00	-2.446589462903800e+01	 9.127164944411776e-01
-3.181980515312497e+00	-2.510229073211250e+01	 9.142362815272773e-01
-2.545584412247996e+00	-2.573868683518801e+01	 9.145454941232378e-01
-1.909188309184496e+00	-2.637508293826451e+01	 9.138898385275938e-01
-1.272792206121996e+00	-2.701147904134201e+01	 9.134897972351708e-01
-6.363961030604948e-01	-2.764787514442050e+01	 9.135396135197229e-01
 0.000000000000000e+00	-2.828427124750000e+01	 9.142335466899929e-01
 7.071067811900000e+00	 7.071067811900000e+00	 1.203078214684597e+00
 7.071067811900001e+00	 7.071067811900001e+00	 1.203078214684596e+00
 7.071067811900001e+00	 7.071067811900001e+00	 1.203078214684597e+00
 7.071067811900000e+00	 7.071067811900000e+00	 1.203078214684598e+00
 7.071067811899999e+00	 7.071067811899999e+00	 1.203078214684597e+00
 7.071067811900000e+00	 7.071067811900000e+00	 1.203078214684597e+00
 7.071067811900000e+00	 7.071067811900000e+00	 1.203078214684597e+00
 7.071067811900000e+00	 7.071067811900000e+00	 1.203078214684595e+00
 7.071067811900000e+00	 7.071067811900000e+00	 1.203078214684597e+00
 7.071067811900000e+00	 7.071067811900000e+00	 1.203078214684595e+00
 7.071067811900000e+00	 7.071067811900000e+00	 1.203078214684597e+00
 7.067532277994000e+00	 7.067532277994000e+00	 1.452842883389806e+01
 7.067885831384601e+00	 7.067178724603401e+00	 1.798562397945064e+01
 7.068239384775199e+00	 7.066825171212799e+00	 2.096442283069519e+01
 7.068592938165800e+00	 7.066471617822200e+00	 2.346482538759299e+01
 7.068946491556400e+00	 7.066118064431598e+00	 2.548683165016637e+01
 7.069300044947000e+00	 7.065764511041000e+00	 2.703044161840754e+01
 7.069653598337601e+00	 7.065410957650400e+00	 2.809565529232047e+01
 7.070007151728200e+00	 7.065057404259800e+00	 2.868247267189377e+01
 7.070360705118799e+00	 7.064703850869200e+00	 2.879089375715515e+01
 7.070714258509400e+00	 7.064350297478600e+00	 2.842091854806508e+01
 7.071067811900000e+00	 7.063996744088000e+00	 2.757254704465675e+01
 7.056925676275999e+00	 7.056925676275999e+00	 7.379685988197791e+00
 7.058339889838400e+00	 7.055511462713601e+00	 9.088939013662403e+00
 7.059754103400800e+00	 7.054097249151200e+00	 1.056107942135639e+01
 7.061168316963199e+00	 7.052683035588799e+00	 1.179610721125959e+01
 7.062582530525599e+00	 7.051268822026400e+00	 1.279402238335540e+01
 7.063996744087999e+00	 7.049854608463999e+00	 1.355482493762733e+01
 7.065410957650399e+00	 7.048440394901599e+00	 1.407851487405880e+01
 7.066825171212799e+00	 7.047026181339199e+00	 1.436509219263195e+01
 7.068239384775200e+00	 7.045611967776801e+00	 1.441455689333017e+01
 7.069653598337601e+00	 7.044197754214400e+00	 1.422690897613727e+01
 7.071067811900000e+00	 7.042783540652000e+00	 1.380214844103502e+01
 7.039248006745999e+00	 7.039248006745999e+00	 4.925781313987422e+00
 7.042429987261401e+00	 7.036066026230601e+00	 6.062641164061513e+00
 7.045611967776800e+00	 7.032884045715201e+00	 7.041598846151673e+00
 7.048793948292199e+00	 7.029702065199800e+00	 7.862654360066458e+00
 7.051975928807600e+00	 7.026520084684400e+00	 8.525807705611513e+00
 7.055157909322999e+00	 7.023338104169000e+00	 9.031058882594134e+00
 7.058339889838400e+00	 7.020156123653600e+00	 9.378407890821201e+00
 7.061521870353801e+00	 7.016974143138199e+00	 9.567854730099340e+00
 7.064703850869200e+00	 7.013792162622800e+00	 9.599399400235434e+00
 7.067885831384600e+00	 7.010610182107400e+00	 9.473041901036021e+00
 7.071067811899999e+00	 7.007428201591999e+00	 9.188782232308153e+00
 7.014499269404000e+00	 7.014499269404000e+00	 3.686359456704455e+00
 7.020156123653600e+00	 7.008842415154400e+00	 4.538972779071209e+00
 7.025812977903199e+00	 7.003185560904799e+00	 5.273060752902386e+00
 7.031469832152800e+00	 6.997528706655200e+00	 5.888623377111697e+00
 7.037126686402400e+00	 6.991871852405600e+00	 6.385660650613606e+00
 7.042783540652000e+00	 6.986214998156000e+00	 6.764172572322758e+00
 7.048440394901601e+00	 6.980558143906401e+00	 7.024159141153501e+00
 7.054097249151201e+00	 6.974901289656801e+00	 7.165620356020116e+00
 7.059754103400801e+00	 6.969244435407201e+00	 7.188556215837346e+00
 7.065410957650401e+00	 6.963587581157601e+00	 7.092966719519441e+00
 7.071067811900000e+00	 6.957930726908000e+00	 6.878851865980840e+00
 6.982679464249999e+00	 6.982679464249999e+00	 2.939480821790278e+00
 6.991518299015001e+00	 6.973840629485002e+00	 3.622194880020684e+00
 7.000357133780000e+00	 6.965001794720001e+00	 4.209936369324716e+00
 7.009195968545001e+00	 6.956162959955000e+00	 4.702705285561352e+00
 7.018034803310000e+00	 6.947324125190000e+00	 5.100501624589372e+00
 7.026873638075000e+00	 6.938485290425000e+00	 5.403325382267635e+00
 7.035712472839999e+00	 6.929646455659999e+00	 5.611176554454977e+00
 7.044551307604999e+00	 6.920807620894999e+00	 5.724055137010377e+00
 7.053390142370000e+00	 6.911968786130000e+00	 5.741961125792614e+00
 7.062228977135001e+00	 6.903129951365001e+00	 5.664894516660649e+00
 7.071067811900000e+00	 6.894291116600000e+00	 5.492855305473283e+00
 6.943788591283999e+00	 6.943788591283999e+00	 2.440913476486989e+00
 6.956516513345600e+00	 6.931060669222400e+00	 3.010653748130122e+00
 6.969244435407200e+00	 6.918332747160799e+00	 3.501092441035262e+00
 6.981972357468800e+00	 6.905604825099201e+00	 3.912229542837319e+00
 6.994700279530399e+00	 6.892876903037599e+00	 4.244065041170816e+00
 7.007428201592000e+00	 6.880148980976000e+00	 4.496598923670351e+00
 7.020156123653599e+00	 6.867421058914399e+00	 4.669831177970691e+00
 7.032884045715201e+00	 6.854693136852801e+00	 4.763761791706576e+00
 7.045611967776801e+00	 6.841965214791201e+00	 4.778390752512611e+00
 7.058339889838400e+00	 6.829237292729600e+00	 4.713718048023580e+00
 7.071067811899999e+00	 6.816509370667999e+00	 4.569743665874284e+00
 6.897826650506000e+00	 6.897826650506000e+00	 2.085115350705872e+00
 6.915150766645398e+00	 6.880502534366599e+00	 2.574323303902033e+00
 6.932474882784800e+00	 6.863178418227200e+00	 2.995407714502291e+00
 6.949798998924201e+00	 6.845854302087799e+00	 3.348368551325811e+00
 6.967123115063600e+00	 6.828530185948400e+00	 3.633205783191858e+00
 6.984447231202999e+00	 6.811206069809000e+00	 3.849919378919719e+00
 7.001771347342399e+00	 6.793881953669599e+00	 3.998509307328774e+00
 7.019095463481801e+00	 6.776557837530200e+00	 4.078975537238399e+00
 7.036419579621198e+00	 6.759233721390798e+00	 4.091318037468146e+00
 7.053743695760600e+00	 6.741909605251400e+00	 4.035536776837575e+00
 7.071067811900000e+00	 6.724585489112000e+00	 3.911631724166314e+00
 6.844793641916000e+00	 6.844793641916000e+00	 1.819035652631261e+00
 6.867421058914400e+00	 6.822166224917600e+00	 2.247951996086630e+00
 6.890048475912799e+00	 6.799538807919199e+00	 2.617119326321997e+00
 6.912675892911201e+00	 6.776911390920801e+00	 2.926537573860660e+00
 6.935303309909600e+00	 6.754283973922401e+00	 3.176206669226125e+00
 6.957930726907999e+00	 6.731656556923999e+00	 3.366126542942151e+00
 6.980558143906398e+00	 6.709029139925598e+00	 3.496297125532580e+00
 7.003185560904798e+00	 6.686401722927198e+00	 3.566718347521610e+00
 7.025812977903199e+00	 6.663774305928799e+00	 3.577390139433484e+00
 7.048440394901601e+00	 6.641146888930400e+00	 3.528312431792789e+00
 7.071067811900001e+00	 6.618519471932001e+00	 3.419485155124190e+00
 6.784689565513999e+00	 6.784689565513999e+00	 1.613096623581552e+00
 6.813327390152599e+00	 6.756051740875400e+00	 1.995200306041439e+00
 6.841965214791201e+00	 6.727413916236801e+00	 2.324062570635171e+00
 6.870603039429801e+00	 6.698776091598202e+00	 2.599683276513661e+00
 6.899240864068400e+00	 6.670138266959600e+00	 2.822062282828525e+00
 6.927878688707001e+00	 6.641500442321001e+00	 2.991199448731801e+00
 6.956516513345600e+00	 6.612862617682399e+00	 3.107094633376029e+00
 6.985154337984198e+00	 6.584224793043798e+00	 3.169747695914252e+00
 7.013792162622800e+00	 6.555586968405199e+00	 3.179158495500067e+00
 7.042429987261399e+00	 6.526949143766600e+00	 3.135326891287564e+00
 7.071067811899999e+00	 6.498311319128000e+00	 3.038252742431301e+00
 6.717514421300000e+00	 6.717514421300000e+00	 1.449509069084093e+00
 6.752869760360000e+00	 6.682159082240001e+00	 1.794229550999895e+00
 6.788225099420001e+00	 6.646803743180000e+00	 2.090910277897932e+00
 6.823580438480000e+00	 6.611448404120000e+00	 2.339550984746404e+00
 6.858935777539999e+00	 6.576093065059998e+00	 2.540151406514609e+00
 6.894291116600000e+00	 6.540737726000000e+00	 2.692711278173028e+00
 6.929646455660000e+00	 6.505382386940000e+00	 2.797230334693358e+00
 6.965001794720000e+00	 6.470027047880000e+00	 2.853708311048482e+00
 7.000357133780000e+00	 6.434671708820000e+00	 2.862144942212449e+00
 7.035712472840000e+00	 6.399316369760000e+00	 2.822539963160497e+00
 7.071067811900000e+00	 6.363961030700001e+00	 2.734893108869057e+00
 6.717514421300000e+00	 6.717514421300000e+00	 1.449509069084093e+00
 6.752869760360000e+00	 6.682159082240001e+00	 1.794229550999895e+00
 6.788225099420001e+00	 6.646803743180000e+00	 2.090910277897932e+00
 6.823580438480000e+00	 6.611448404120000e+00	 2.339550984746404e+00
 6.858935777539999e+00	 6.576093065059998e+00	 2.540151406514609e+00
 6.894291116600000e+00	 6.540737726000000e+00	 2.692711278173028e+00
 6.929646455660000e+00	 6.505382386940000e+00	 2.797230334693358e+00
 6.965001794720000e+00	 6.470027047880000e+00	 2.853708311048482e+00
 7.000357133780000e+00	 6.434671708820000e+00	 2.862144942212449e+00
 7.035712472840000e+00	 6.399316369760000e+00	 2.822539963160497e+00
 7.071067811900000e+00	 6.363961030700001e+00	 2.734893108869057e+00
 6.643268209274000e+00	 6.643268209274000e+00	 1.274331107941853e+00
 6.686048169536599e+00	 6.600488249011398e+00	 1.593695163549623e+00
 6.728828129799202e+00	 6.557708288748801e+00	 1.869658737705358e+00
 6.771608090061800e+00	 6.514928328486200e+00	 2.102221360889597e+00
 6.814388050324401e+00	 6.472148368223601e+00	 2.291382563585409e+00
 6.857168010586999e+00	 6.429368407961000e+00	 2.437141876278412e+00
 6.899947970849601e+00	 6.386588447698400e+00	 2.539498829456759e+00
 6.942727931112200e+00	 6.343808487435800e+00	 2.598452953611145e+00
 6.985507891374802e+00	 6.301028527173202e+00	 2.614003779234779e+00
 7.028287851637398e+00	 6.258248566910598e+00	 2.586150836823453e+00
 7.071067811900000e+00	 6.215468606648000e+00	 2.514893656875456e+00
 6.561950929436001e+00	 6.561950929436001e+00	 1.137466143142673e+00
 6.612862617682399e+00	 6.511039241189599e+00	 1.434408300836196e+00
 6.663774305928800e+00	 6.460127552943200e+00	 1.691681290084327e+00
 6.714685994175198e+00	 6.409215864696799e+00	 1.909284319508477e+00
 6.765597682421602e+00	 6.358304176450401e+00	 2.087216597735110e+00
 6.816509370668001e+00	 6.307392488204000e+00	 2.225477333395802e+00
 6.867421058914401e+00	 6.256480799957600e+00	 2.324065735127225e+00
 6.918332747160801e+00	 6.205569111711201e+00	 2.382981011571146e+00
 6.969244435407200e+00	 6.154657423464800e+00	 2.402222371374407e+00
 7.020156123653601e+00	 6.103745735218400e+00	 2.381789023188978e+00
 7.071067811900001e+00	 6.052834046971999e+00	 2.321680175671879e+00
 6.473562581786000e+00	 6.473562581786000e+00	 1.028594152034800e+00
 6.533313104797400e+00	 6.413812058774599e+00	 1.305661326540988e+00
 6.593063627808800e+00	 6.354061535763201e+00	 1.546120042587725e+00
 6.652814150820200e+00	 6.294311012751799e+00	 1.749969020922634e+00
 6.712564673831598e+00	 6.234560489740398e+00	 1.917206982303009e+00
 6.772315196843000e+00	 6.174809966728999e+00	 2.047832647495817e+00
 6.832065719854398e+00	 6.115059443717598e+00	 2.141844737277682e+00
 6.891816242865799e+00	 6.055308920706200e+00	 2.199241972434875e+00
 6.951566765877200e+00	 5.995558397694801e+00	 2.220023073763361e+00
 7.011317288888601e+00	 5.935807874683401e+00	 2.204186762068747e+00
 7.071067811900000e+00	 5.876057351671999e+00	 2.151731758166297e+00
 6.378103166323999e+00	 6.378103166323999e+00	 9.407845946446056e-01
 6.447399630881599e+00	 6.308806701766399e+00	 1.200171913317987e+00
 6.516696095439199e+00	 6.239510237208799e+00	 1.425502875726842e+00
 6.585992559996800e+00	 6.170213772651200e+00	 1.616775486316861e+00
 6.655289024554399e+00	 6.100917308093599e+00	 1.773987749551204e+00
 6.724585489112001e+00	 6.031620843536000e+00	 1.897137669910505e+00
 6.793881953669600e+00	 5.962324378978400e+00	 1.986223251892894e+00
 6.863178418227200e+00	 5.893027914420800e+00	 2.041242500013973e+00
 6.932474882784800e+00	 5.823731449863200e+00	 2.062193418806830e+00
 7.001771347342400e+00	 5.754434985305600e+00	 2.049074012822020e+00
 7.071067811900000e+00	 5.685138520748000e+00	 2.001882286627602e+00
 6.275572683050000e+00	 6.275572683050000e+00	 8.692312667950514e-01
 6.355122195935001e+00	 6.196023170165001e+00	 1.112829568129714e+00
 6.434671708819999e+00	 6.116473657279999e+00	 1.324529104226634e+00
 6.514221221704999e+00	 6.036924144394999e+00	 1.504326856232149e+00
 6.593770734590000e+00	 5.957374631510000e+00	 1.652219805322943e+00
 6.673320247474999e+00	 5.877825118625000e+00	 1.768204932706067e+00
 6.752869760360000e+00	 5.798275605740000e+00	 1.852279219618918e+00
 6.832419273244999e+00	 5.718726092854999e+00	 1.904439647329264e+00
 6.911968786130000e+00	 5.639176579970000e+00	 1.924683197135225e+00
 6.991518299015000e+00	 5.559627067084999e+00	 1.913006850365280e+00
 7.071067811900000e+00	 5.480077554199999e+00	 1.869407588378257e+00
 6.165971131964000e+00	 6.165971131964000e+00	 8.105088743910356e-01
 6.256480799957600e+00	 6.075461463970400e+00	 1.039951265666044e+00
 6.346990467951199e+00	 5.984951795976801e+00	 1.239340516176867e+00
 6.437500135944800e+00	 5.894442127983199e+00	 1.408672179472487e+00
 6.528009803938399e+00	 5.803932459989599e+00	 1.547941809152726e+00
 6.618519471932000e+00	 5.713422791995999e+00	 1.657144958868296e+00
 6.709029139925600e+00	 5.622913124002400e+00	 1.736277182320789e+00
 6.799538807919199e+00	 5.532403456008799e+00	 1.785334033262655e+00
 6.890048475912801e+00	 5.441893788015200e+00	 1.804311065497241e+00
 6.980558143906398e+00	 5.351384120021598e+00	 1.793203832878737e+00
 7.071067811900001e+00	 5.260874452027999e+00	 1.752007889312238e+00
 6.049298513065999e+00	 6.049298513065999e+00	 7.621180909042949e-01
 6.151475442949399e+00	 5.947121583182599e+00	 9.788213463861377e-01
 6.253652372832800e+00	 5.844944653299199e+00	 1.167066237037079e+00
 6.355829302716200e+00	 5.742767723415799e+00	 1.326846365712039e+00
 6.458006232599599e+00	 5.640590793532399e+00	 1.458155335348569e+00
 6.560183162483000e+00	 5.538413863648998e+00	 1.560986748966855e+00
 6.662360092366399e+00	 5.436236933765599e+00	 1.635334209669696e+00
 6.764537022249800e+00	 5.334060003882199e+00	 1.681191320642537e+00
 6.866713952133200e+00	 5.231883073998798e+00	 1.698551685153429e+00
 6.968890882016599e+00	 5.129706144115398e+00	 1.687408906553061e+00
 7.071067811900000e+00	 5.027529214231999e+00	 1.647756588274747e+00
 5.925554826355999e+00	 5.925554826355999e+00	 7.221972441733306e-01
 6.040106124910400e+00	 5.811003527801600e+00	 9.273971459331399e-01
 6.154657423464800e+00	 5.696452229247201e+00	 1.105528792307863e+00
 6.269208722019200e+00	 5.581900930692799e+00	 1.256583169107701e+00
 6.383760020573600e+00	 5.467349632138400e+00	 1.380551262273384e+00
 6.498311319128000e+00	 5.352798333583999e+00	 1.477424057876183e+00
 6.612862617682399e+00	 5.238247035029598e+00	 1.547192542117902e+00
 6.727413916236800e+00	 5.123695736475199e+00	 1.589847701330863e+00
 6.841965214791200e+00	 5.009144437920799e+00	 1.605380521977914e+00
 6.956516513345600e+00	 4.894593139366398e+00	 1.593781990652431e+00
 7.071067811900001e+00	 4.780041840811998e+00	 1.555043094078312e+00
 5.794740071833999e+00	 5.794740071833999e+00	 6.893339362192742e-01
 5.922372845840599e+00	 5.667107297827398e+00	 8.841149124638046e-01
 6.050005619847200e+00	 5.539474523820799e+00	 1.053048609083476e+00
 6.177638393853799e+00	 5.411841749814198e+00	 1.196122557635660e+00
 6.305271167860401e+00	 5.284208975807599e+00	 1.313324289878885e+00
 6.432903941866998e+00	 5.156576201800998e+00	 1.404641337772862e+00
 6.560536715873599e+00	 5.028943427794398e+00	 1.470061233478456e+00
 6.688169489880199e+00	 4.901310653787798e+00	 1.509571509357715e+00
 6.815802263886800e+00	 4.773677879781197e+00	 1.523159697973817e+00
 6.943435037893400e+00	 4.646045105774597e+00	 1.510813332091119e+00
 7.071067811900000e+00	 4.518412331767998e+00	 1.472519944675110e+00
 5.656854249500000e+00	 5.656854249500000e+00	 6.624385902823250e-01
 5.798275605740000e+00	 5.515432893260000e+00	 8.477584079206482e-01
 5.939696961980000e+00	 5.374011537020000e+00	 1.008310578049118e+00
 6.081118318220000e+00	 5.232590180780001e+00	 1.144078138964474e+00
 6.222539674460000e+00	 5.091168824540000e+00	 1.255044129266714e+00
 6.363961030700001e+00	 4.949747468300000e+00	 1.341191587859044e+00
 6.505382386939999e+00	 4.808326112060000e+00	 1.402503553947903e+00
 6.646803743180000e+00	 4.666904755820000e+00	 1.438963067042952e+00
 6.788225099420000e+00	 4.525483399580001e+00	 1.450553166957034e+00
 6.929646455659999e+00	 4.384062043340000e+00	 1.437256893806220e+00
 7.071067811900000e+00	 4.242640687100000e+00	 1.399057288009750e+00
 7.071067811900000e+00	 7.071067811900000e+00	 1.203078214684597e+00
 7.071067811900001e+00	 7.071067811900001e+00	 1.203078214684596e+00
 7.071067811900001e+00	 7.071067811900001e+00	 1.203078214684597e+00
 7.071067811900000e+00	 7.071067811900000e+00	 1.203078214684598e+00
 7.071067811899999e+00	 7.071067811899999e+00	 1.203078214684597e+00
 7.071067811900000e+00	 7.071067811900000e+00	 1.203078214684597e+00
 7.071067811900000e+00	 7.071067811900000e+00	 1.203078214684597e+00
 7.071067811900000e+00	 7.071067811900000e+00	 1.203078214684596e+00
 7.071067811900000e+00	 7.071067811900000e+00	 1.203078214684597e+00
 7.071067811900000e+00	 7.071067811900000e+00	 1.203078214684596e+00
 7.071067811900000e+00	 7.071067811900000e+00	 1.203078214684597e+00
 7.071067811900000e+00	 7.063996744088000e+00	 2.838775529755100e+01
 7.071421365290600e+00	 7.064350297478600e+00	 3.014247537856042e+01
 7.071774918681197e+00	 7.064703850869199e+00	 3.167868063431185e+01
 7.072128472071801e+00	 7.065057404259800e+00	 3.299637106480552e+01
 7.072482025462400e+00	 7.065410957650399e+00	 3.409554667004267e+01
 7.072835578853000e+00	 7.065764511041000e+00	 3.497620745002137e+01
 7.073189132243601e+00	 7.066118064431599e+00	 3.563835340474469e+01
 7.073542685634201e+00	 7.066471617822200e+00	 3.608198453421464e+01
 7.073896239024799e+00	 7.066825171212800e+00	 3.630710083840775e+01
 7.074249792415401e+00	 7.067178724603401e+00	 3.631370231737765e+01
 7.074603345806000e+00	 7.067532277994000e+00	 3.610178897106511e+01
 7.071067811900000e+00	 7.042783540652000e+00	 1.400980889949698e+01
 7.072482025462400e+00	 7.044197754214401e+00	 1.491357192759220e+01
 7.073896239024800e+00	 7.045611967776800e+00	 1.571012188986191e+01
 7.075310452587200e+00	 7.047026181339199e+00	 1.639945878632255e+01
 7.076724666149600e+00	 7.048440394901600e+00	 1.698158261699218e+01
 7.078138879711998e+00	 7.049854608463999e+00	 1.745649338188720e+01
 7.079553093274399e+00	 7.051268822026399e+00	 1.782419108102583e+01
 7.080967306836799e+00	 7.052683035588799e+00	 1.808467571442426e+01
 7.082381520399201e+00	 7.054097249151201e+00	 1.823794728210123e+01
 7.083795733961601e+00	 7.055511462713601e+00	 1.828400578407075e+01
 7.085209947524000e+00	 7.056925676275999e+00	 1.822285122035282e+01
 7.071067811899999e+00	 7.007428201591999e+00	 9.323231467353921e+00
 7.074249792415401e+00	 7.010610182107401e+00	 9.927339773242620e+00
 7.077431772930801e+00	 7.013792162622800e+00	 1.046070561278404e+01
 7.080613753446199e+00	 7.016974143138199e+00	 1.092332898617338e+01
 7.083795733961600e+00	 7.020156123653600e+00	 1.131520989360672e+01
 7.086977714477000e+00	 7.023338104169000e+00	 1.163634833528007e+01
 7.090159694992400e+00	 7.026520084684400e+00	 1.188674431138879e+01
 7.093341675507800e+00	 7.029702065199800e+00	 1.206639782212873e+01
 7.096523656023201e+00	 7.032884045715201e+00	 1.217530886769551e+01
 7.099705636538600e+00	 7.036066026230600e+00	 1.221347744828534e+01
 7.102887617053999e+00	 7.039248006745999e+00	 1.218090356409343e+01
 7.071067811900000e+00	 6.957930726908000e+00	 7.000940122079963e+00
 7.076724666149602e+00	 6.963587581157601e+00	 7.452135023923053e+00
 7.082381520399199e+00	 6.969244435407200e+00	 7.850704926277148e+00
 7.088038374648800e+00	 6.974901289656801e+00	 8.196649830242029e+00
 7.093695228898399e+00	 6.980558143906400e+00	 8.489969736917402e+00
 7.099352083148000e+00	 6.986214998155999e+00	 8.730664647403266e+00
 7.105008937397600e+00	 6.991871852405601e+00	 8.918734562799308e+00
 7.110665791647200e+00	 6.997528706655200e+00	 9.054179484205333e+00
 7.116322645896800e+00	 7.003185560904800e+00	 9.136999412721361e+00
 7.121979500146401e+00	 7.008842415154400e+00	 9.167194349447065e+00
 7.127636354396000e+00	 7.014499269404000e+00	 9.144764295482346e+00
 7.071067811900000e+00	 6.894291116600000e+00	 5.615285256688088e+00
 7.079906646665002e+00	 6.903129951365002e+00	 5.973665626987751e+00
 7.088745481430000e+00	 6.911968786130000e+00	 6.290254247765186e+00
 7.097584316195000e+00	 6.920807620895000e+00	 6.565051123215934e+00
 7.106423150960000e+00	 6.929646455659999e+00	 6.798056257535485e+00
 7.115261985725001e+00	 6.938485290425000e+00	 6.989269654919217e+00
 7.124100820490000e+00	 6.947324125190000e+00	 7.138691319562701e+00
 7.132939655254999e+00	 6.956162959954999e+00	 7.246321255661418e+00
 7.141778490019999e+00	 6.965001794720000e+00	 7.312159467410953e+00
 7.150617324785000e+00	 6.973840629485001e+00	 7.336205959006643e+00
 7.159456159549999e+00	 6.982679464249999e+00	 7.318460734644251e+00
 7.071067811899999e+00	 6.816509370667999e+00	 4.695634031534400e+00
 7.083795733961599e+00	 6.829237292729600e+00	 4.991620488060315e+00
 7.096523656023200e+00	 6.841965214791200e+00	 5.253022525385746e+00
 7.109251578084801e+00	 6.854693136852801e+00	 5.479840156038263e+00
 7.121979500146399e+00	 6.867421058914399e+00	 5.672073392545486e+00
 7.134707422208000e+00	 6.880148980976000e+00	 5.829722247435012e+00
 7.147435344269599e+00	 6.892876903037600e+00	 5.952786733234564e+00
 7.160163266331200e+00	 6.905604825099201e+00	 6.041266862471730e+00
 7.172891188392801e+00	 6.918332747160800e+00	 6.095162647674245e+00
 7.185619110454401e+00	 6.931060669222401e+00	 6.114474101369782e+00
 7.198347032516000e+00	 6.943788591283999e+00	 6.099201236086112e+00
 7.071067811900000e+00	 6.724585489112000e+00	 4.041577137386075e+00
 7.088391928039400e+00	 6.741909605251399e+00	 4.292674265616860e+00
 7.105716044178799e+00	 6.759233721390800e+00	 4.514328679418512e+00
 7.123040160318200e+00	 6.776557837530200e+00	 4.706540410380770e+00
 7.140364276457601e+00	 6.793881953669601e+00	 4.869309490093449e+00
 7.157688392597000e+00	 6.811206069809000e+00	 5.002635950146394e+00
 7.175012508736399e+00	 6.828530185948399e+00	 5.106519822129589e+00
 7.192336624875800e+00	 6.845854302087799e+00	 5.180961137633016e+00
 7.209660741015198e+00	 6.863178418227198e+00	 5.225959928246789e+00
 7.226984857154600e+00	 6.880502534366600e+00	 5.241516225561060e+00
 7.244308973294000e+00	 6.897826650506000e+00	 5.227630061165999e+00
 7.071067811900001e+00	 6.618519471932001e+00	 3.553337733755167e+00
 7.093695228898400e+00	 6.641146888930400e+00	 3.770526136926010e+00
 7.116322645896799e+00	 6.663774305928799e+00	 3.962125686164553e+00
 7.138950062895201e+00	 6.686401722927201e+00	 4.128136451858252e+00
 7.161577479893600e+00	 6.709029139925600e+00	 4.268558504394763e+00
 7.184204896891999e+00	 6.731656556923999e+00	 4.383391914161934e+00
 7.206832313890398e+00	 6.754283973922399e+00	 4.472636751547799e+00
 7.229459730888798e+00	 6.776911390920798e+00	 4.536293086940649e+00
 7.252087147887199e+00	 6.799538807919198e+00	 4.574360990728915e+00
 7.274714564885601e+00	 6.822166224917600e+00	 4.586840533301249e+00
 7.297341981884001e+00	 6.844793641916000e+00	 4.573731785046529e+00
 7.071067811899999e+00	 6.498311319128000e+00	 3.175657341414102e+00
 7.099705636538599e+00	 6.526949143766600e+00	 3.366265817690814e+00
 7.128343461177201e+00	 6.555586968405200e+00	 3.534282715862530e+00
 7.156981285815801e+00	 6.584224793043802e+00	 3.679708178623812e+00
 7.185619110454399e+00	 6.612862617682399e+00	 3.802542348669828e+00
 7.214256935093000e+00	 6.641500442321001e+00	 3.902785368696203e+00
 7.242894759731599e+00	 6.670138266959600e+00	 3.980437381399099e+00
 7.271532584370197e+00	 6.698776091598198e+00	 4.035498529475169e+00
 7.300170409008800e+00	 6.727413916236800e+00	 4.067968955621614e+00
 7.328808233647399e+00	 6.756051740875400e+00	 4.077848802536121e+00
 7.357446058286000e+00	 6.784689565513999e+00	 4.065138212916920e+00
 7.071067811900000e+00	 6.363961030700001e+00	 2.875462585903468e+00
 7.106423150960001e+00	 6.399316369760000e+00	 3.044615304311415e+00
 7.141778490020001e+00	 6.434671708820000e+00	 3.193575589627500e+00
 7.177133829080000e+00	 6.470027047880000e+00	 3.322343710354873e+00
 7.212489168139999e+00	 6.505382386939999e+00	 3.430919934997876e+00
 7.247844507199999e+00	 6.540737726000000e+00	 3.519304532062045e+00
 7.283199846260000e+00	 6.576093065059999e+00	 3.587497770054122e+00
 7.318555185320000e+00	 6.611448404120001e+00	 3.635499917482036e+00
 7.353910524380000e+00	 6.646803743180000e+00	 3.663311242854921e+00
 7.389265863440000e+00	 6.682159082240000e+00	 3.670932014683091e+00
 7.424621202500000e+00	 6.717514421300000e+00	 3.658362501478077e+00
 7.071067811900000e+00	 6.363961030700001e+00	 2.875462585903468e+00
 7.106423150960001e+00	 6.399316369760000e+00	 3.044615304311415e+00
 7.141778490020001e+00	 6.434671708820000e+00	 3.193575589627500e+00
 7.177133829080000e+00	 6.470027047880000e+00	 3.322343710354873e+00
 7.212489168139999e+00	 6.505382386939999e+00	 3.430919934997876e+00
 7.247844507199999e+00	 6.540737726000000e+00	 3.519304532062045e+00
 7.283199846260000e+00	 6.576093065059999e+00	 3.587497770054122e+00
 7.318555185320000e+00	 6.611448404120001e+00	 3.635499917482036e+00
 7.353910524380000e+00	 6.646803743180000e+00	 3.663311242854921e+00
 7.389265863440000e+00	 6.682159082240000e+00	 3.670932014683091e+00
 7.424621202500000e+00	 6.717514421300000e+00	 3.658362501478077e+00
 7.071067811900000e+00	 6.215468606648000e+00	 2.618592853132645e+00
 7.113847772162589e+00	 6.258248566910598e+00	 2.773876053497820e+00
 7.156627732425161e+00	 6.301028527173201e+00	 2.910654391462846e+00
 7.199407692687712e+00	 6.343808487435800e+00	 3.028928342693885e+00
 7.242187652950239e+00	 6.386588447698400e+00	 3.128698382859619e+00
 7.284967613212750e+00	 6.429368407961000e+00	 3.209964987631287e+00
 7.327747573475240e+00	 6.472148368223601e+00	 3.272728632682653e+00
 7.370527533737710e+00	 6.514928328486199e+00	 3.316989793690023e+00
 7.413307494000161e+00	 6.557708288748801e+00	 3.342748946332244e+00
 7.456087454262589e+00	 6.600488249011398e+00	 3.350006566290695e+00
 7.498867414525000e+00	 6.643268209274000e+00	 3.338763129249308e+00
 7.071067811900001e+00	 6.052834046971999e+00	 2.401524215658812e+00
 7.121979500146360e+00	 6.103745735218400e+00	 2.546010532705096e+00
 7.172891188392639e+00	 6.154657423464800e+00	 2.673496019345848e+00
 7.223802876638840e+00	 6.205569111711199e+00	 2.783981477314128e+00
 7.274714564884963e+00	 6.256480799957601e+00	 2.877467708348084e+00
 7.325626253130999e+00	 6.307392488204000e+00	 2.953955514190983e+00
 7.376537941376961e+00	 6.358304176450401e+00	 3.013445696591196e+00
 7.427449629622842e+00	 6.409215864696801e+00	 3.055939057302195e+00
 7.478361317868640e+00	 6.460127552943201e+00	 3.081436398082574e+00
 7.529273006114359e+00	 6.511039241189599e+00	 3.089938520696014e+00
 7.580184694360000e+00	 6.561950929436001e+00	 3.081446226911324e+00
 7.071067811900000e+00	 5.876057351671999e+00	 2.216268827612667e+00
 7.130818334911312e+00	 5.935807874683400e+00	 2.352099115507150e+00
 7.190568857922442e+00	 5.995558397694801e+00	 2.472272413850120e+00
 7.250319380933391e+00	 6.055308920706200e+00	 2.576790018621399e+00
 7.310069903944158e+00	 6.115059443717599e+00	 2.665653225810559e+00
 7.369820426954750e+00	 6.174809966728999e+00	 2.738863331416850e+00
 7.429570949965159e+00	 6.234560489740398e+00	 2.796421631449272e+00
 7.489321472975390e+00	 6.294311012751799e+00	 2.838329421926517e+00
 7.549071995985440e+00	 6.354061535763199e+00	 2.864587998877008e+00
 7.608822518995312e+00	 6.413812058774600e+00	 2.875198658338887e+00
 7.668573042005001e+00	 6.473562581786000e+00	 2.870162696359987e+00
 7.071067811900000e+00	 5.685138520748000e+00	 2.056858162556553e+00
 7.140364276457439e+00	 5.754434985305600e+00	 2.185558042015808e+00
 7.209660741014561e+00	 5.823731449863200e+00	 2.299806619119699e+00
 7.278957205571360e+00	 5.893027914420800e+00	 2.399605915499067e+00
 7.348253670127840e+00	 5.962324378978400e+00	 2.484957952802354e+00
 7.417550134684002e+00	 6.031620843536000e+00	 2.555864752695595e+00
 7.486846599239839e+00	 6.100917308093599e+00	 2.612328336862449e+00
 7.556143063795360e+00	 6.170213772651199e+00	 2.654350727004171e+00
 7.625439528350560e+00	 6.239510237208800e+00	 2.681933944839624e+00
 7.694735992905440e+00	 6.308806701766399e+00	 2.695080012105287e+00
 7.764032457460001e+00	 6.378103166323999e+00	 2.693790950555244e+00
 7.071067811900000e+00	 5.480077554199999e+00	 1.918754533245066e+00
 7.150617324784750e+00	 5.559627067084999e+00	 2.041428828337387e+00
 7.230166837669000e+00	 5.639176579969999e+00	 2.150738850453882e+00
 7.309716350552750e+00	 5.718726092854999e+00	 2.246687657868518e+00
 7.389265863436000e+00	 5.798275605740000e+00	 2.329278308885857e+00
 7.468815376318750e+00	 5.877825118625000e+00	 2.398513861841050e+00
 7.548364889201000e+00	 5.957374631510000e+00	 2.454397375099871e+00
 7.627914402082751e+00	 6.036924144394999e+00	 2.496931907058690e+00
 7.707463914964000e+00	 6.116473657279999e+00	 2.526120516144476e+00
 7.787013427844750e+00	 6.196023170165000e+00	 2.541966260814813e+00
 7.866562940725000e+00	 6.275572683050000e+00	 2.544472199557882e+00
 7.071067811900001e+00	 5.260874452027999e+00	 1.798453738825165e+00
 7.161577479893241e+00	 5.351384120021599e+00	 1.915910356101355e+00
 7.252087147885760e+00	 5.441893788015200e+00	 2.020987828773497e+00
 7.342596815877560e+00	 5.532403456008799e+00	 2.113690661310618e+00
 7.433106483868638e+00	 5.622913124002399e+00	 2.194023358233037e+00
 7.523616151859001e+00	 5.713422791996000e+00	 2.261990424112381e+00
 7.614125819848640e+00	 5.803932459989600e+00	 2.317596363571594e+00
 7.704635487837561e+00	 5.894442127983199e+00	 2.360845681284915e+00
 7.795145155825761e+00	 5.984951795976800e+00	 2.391742881977912e+00
 7.885654823813239e+00	 6.075461463970397e+00	 2.410292470427442e+00
 7.976164491800001e+00	 6.165971131964000e+00	 2.416498951461684e+00
 7.071067811900000e+00	 5.027529214231999e+00	 1.693211592852278e+00
 7.173244741782910e+00	 5.129706144115398e+00	 1.806042933751890e+00
 7.275421671664841e+00	 5.231883073998800e+00	 1.907392561444084e+00
 7.377598601545791e+00	 5.334060003882199e+00	 1.997266956477747e+00
 7.479775531425760e+00	 5.436236933765598e+00	 2.075672599485086e+00
 7.581952461304750e+00	 5.538413863649000e+00	 2.142615971181660e+00
 7.684129391182760e+00	 5.640590793532399e+00	 2.198103552366397e+00
 7.786306321059791e+00	 5.742767723415799e+00	 2.242141823921558e+00
 7.888483250935840e+00	 5.844944653299200e+00	 2.274737266812761e+00
 7.990660180810909e+00	 5.947121583182600e+00	 2.295896362088975e+00
 8.092837110685000e+00	 6.049298513065999e+00	 2.305625590882533e+00
 7.071067811900001e+00	 4.780041840811998e+00	 1.600852165491346e+00
 7.185619110453760e+00	 4.894593139366399e+00	 1.709490066393287e+00
 7.300170409006242e+00	 5.009144437920800e+00	 1.807467942387937e+00
 7.414721707557439e+00	 5.123695736475199e+00	 1.894794925088781e+00
 7.529273006107362e+00	 5.238247035029600e+00	 1.971480146240987e+00
 7.643824304656001e+00	 5.352798333583999e+00	 2.037532737721397e+00
 7.758375603203360e+00	 5.467349632138399e+00	 2.092961831538548e+00
 7.872926901749439e+00	 5.581900930692798e+00	 2.137776559832643e+00
 7.987478200294240e+00	 5.696452229247200e+00	 2.171986054875585e+00
 8.102029498837759e+00	 5.811003527801599e+00	 2.195599449070968e+00
 8.216580797380001e+00	 5.925554826355999e+00	 2.208625874954069e+00
 7.071067811900000e+00	 4.518412331767998e+00	 1.519630930603252e+00
 7.198700585905790e+00	 4.646045105774597e+00	 1.624384589154682e+00
 7.326333359909960e+00	 4.773677879781198e+00	 1.719234182906155e+00
 7.453966133912510e+00	 4.901310653787798e+00	 1.804192342574479e+00
 7.581598907913441e+00	 5.028943427794399e+00	 1.879271699079381e+00
 7.709231681912750e+00	 5.156576201800998e+00	 1.944484883543545e+00
 7.836864455910439e+00	 5.284208975807598e+00	 1.999844527292606e+00
 7.964497229906510e+00	 5.411841749814199e+00	 2.045363261855150e+00
 8.092130003900960e+00	 5.539474523820799e+00	 2.081053718962726e+00
 8.219762777893790e+00	 5.667107297827399e+00	 2.106928530549837e+00
 8.347395551885000e+00	 5.794740071833999e+00	 2.123000328753960e+00
 7.071067811900000e+00	 4.242640687100000e+00	 1.448135479683788e+00
 7.212489168139000e+00	 4.384062043340000e+00	 1.549218148893618e+00
 7.353910524375999e+00	 4.525483399580000e+00	 1.641095340719253e+00
 7.495331880611000e+00	 4.666904755820000e+00	 1.723784237406947e+00
 7.636753236843999e+00	 4.808326112060000e+00	 1.797302021508878e+00
 7.778174593075000e+00	 4.949747468300000e+00	 1.861665875883124e+00
 7.919595949304000e+00	 5.091168824540000e+00	 1.916892983693675e+00
 8.061017305530999e+00	 5.232590180780000e+00	 1.963000528410444e+00
 8.202438661756000e+00	 5.374011537019999e+00	 2.000005693809278e+00
 8.343860017978999e+00	 5.515432893260000e+00	 2.027925663971950e+00
 8.485281374200000e+00	 5.656854249500000e+00	 2.046777623286197e+00
 7.071067811900000e+00	 7.071067811900000e+00	 1.203078214684597e+00
 7.071067811900001e+00	 7.071067811900001e+00	 1.203078214684597e+00
 7.071067811900001e+00	 7.071067811900001e+00	 1.203078214684597e+00
 7.071067811900000e+00	 7.071067811900000e+00	 1.203078214684598e+00
 7.071067811899999e+00	 7.071067811899999e+00	 1.203078214684597e+00
 7.071067811900000e+00	 7.071067811900000e+00	 1.203078214684597e+00
 7.071067811900000e+00	 7.071067811900000e+00	 1.203078214684597e+00
 7.071067811900000e+00	 7.071067811900000e+00	 1.203078214684596e+00
 7.071067811900000e+00	 7.071067811900000e+00	 1.203078214684597e+00
 7.071067811900000e+00	 7.071067811900000e+00	 1.203078214684596e+00
 7.071067811900000e+00	 7.071067811900000e+00	 1.203078214684597e+00
 7.074603345806000e+00	 7.067532277994000e+00	 3.128408054620865e+01
 7.074956899196505e+00	 7.067885831384601e+00	 3.144605372591329e+01
 7.075310452587019e+00	 7.068239384775199e+00	 3.135488508124249e+01
 7.075664005977545e+00	 7.068592938165800e+00	 3.101057461221753e+01
 7.076017559368080e+00	 7.068946491556400e+00	 3.041312231883186e+01
 7.076371112758626e+00	 7.069300044947000e+00	 2.956252820108722e+01
 7.076724666149181e+00	 7.069653598337601e+00	 2.845879225898198e+01
 7.077078219539746e+00	 7.070007151728200e+00	 2.710191449251680e+01
 7.077431772930320e+00	 7.070360705118799e+00	 2.549189490166315e+01
 7.077785326320905e+00	 7.070714258509400e+00	 2.362873348645298e+01
 7.078138879711500e+00	 7.071067811900000e+00	 2.151243024683685e+01
 7.085209947524000e+00	 7.056925676275999e+00	 1.569638751942965e+01
 7.086624161086021e+00	 7.058339889838400e+00	 1.572328740774175e+01
 7.088038374648080e+00	 7.059754103400800e+00	 1.562637588176361e+01
 7.089452588210178e+00	 7.061168316963199e+00	 1.540565294151498e+01
 7.090866801772320e+00	 7.062582530525599e+00	 1.506111858701412e+01
 7.092281015334499e+00	 7.063996744087999e+00	 1.459277281827706e+01
 7.093695228896719e+00	 7.065410957650399e+00	 1.400061563532002e+01
 7.095109442458979e+00	 7.066825171212799e+00	 1.328464703815743e+01
 7.096523656021281e+00	 7.068239384775200e+00	 1.244486702680350e+01
 7.097937869583620e+00	 7.069653598337601e+00	 1.148127560126908e+01
 7.099352083146000e+00	 7.071067811900000e+00	 1.039387276156737e+01
 7.102887617053999e+00	 7.039248006745999e+00	 1.048649166316885e+01
 7.106069597568546e+00	 7.042429987261401e+00	 1.050102758130825e+01
 7.109251578083180e+00	 7.045611967776800e+00	 1.043396037232804e+01
 7.112433558597904e+00	 7.048793948292199e+00	 1.028529003642383e+01
 7.115615539112721e+00	 7.051975928807600e+00	 1.005501657379244e+01
 7.118797519627625e+00	 7.055157909322999e+00	 9.743139984629295e+00
 7.121979500142620e+00	 7.058339889838400e+00	 9.349660269128760e+00
 7.125161480657705e+00	 7.061521870353801e+00	 8.874577427485001e+00
 7.128343461172881e+00	 7.064703850869200e+00	 8.317891459891257e+00
 7.131525441688146e+00	 7.067885831384600e+00	 7.679602366540514e+00
 7.134707422203499e+00	 7.071067811899999e+00	 6.959710147624357e+00
 7.127636354396000e+00	 7.014499269404000e+00	 7.879185211810996e+00
 7.133293208644081e+00	 7.020156123653600e+00	 7.893580314857214e+00
 7.138950062892319e+00	 7.025812977903199e+00	 7.847307635087416e+00
 7.144606917140720e+00	 7.031469832152800e+00	 7.740367173602487e+00
 7.150263771389279e+00	 7.037126686402400e+00	 7.572758931502396e+00
 7.155920625638000e+00	 7.042783540652000e+00	 7.344482909886759e+00
 7.161577479886881e+00	 7.048440394901601e+00	 7.055539109854561e+00
 7.167234334135919e+00	 7.054097249151201e+00	 6.705927532504387e+00
 7.172891188385120e+00	 7.059754103400801e+00	 6.295648178934297e+00
 7.178548042634481e+00	 7.065410957650401e+00	 5.824701050241735e+00
 7.184204896884000e+00	 7.071067811900000e+00	 5.293086147523781e+00
 7.159456159549999e+00	 6.982679464249999e+00	 6.314279554846114e+00
 7.168294994312627e+00	 6.991518299015001e+00	 6.330449254757237e+00
 7.177133829075499e+00	 7.000357133780000e+00	 6.298458861964022e+00
 7.185972663838625e+00	 7.009195968545001e+00	 6.218308380662628e+00
 7.194811498602000e+00	 7.018034803310000e+00	 6.089997815048828e+00
 7.203650333365625e+00	 7.026873638075000e+00	 5.913527169317879e+00
 7.212489168129499e+00	 7.035712472839999e+00	 5.688896447664777e+00
 7.221328002893625e+00	 7.044551307604999e+00	 5.416105654284011e+00
 7.230166837658000e+00	 7.053390142370000e+00	 5.095154793369812e+00
 7.239005672422626e+00	 7.062228977135001e+00	 4.726043869115743e+00
 7.247844507187500e+00	 7.071067811900000e+00	 4.308772885715294e+00
 7.198347032516000e+00	 6.943788591283999e+00	 5.270992914503955e+00
 7.211074954574179e+00	 6.956516513345600e+00	 5.289054105771672e+00
 7.223802876632719e+00	 6.969244435407200e+00	 5.267272094164212e+00
 7.236530798691621e+00	 6.981972357468800e+00	 5.205646892209757e+00
 7.249258720750880e+00	 6.994700279530399e+00	 5.104178512436349e+00
 7.261986642810499e+00	 7.007428201592000e+00	 4.962866967371682e+00
 7.274714564870480e+00	 7.020156123653599e+00	 4.781712269543116e+00
 7.287442486930821e+00	 7.032884045715201e+00	 4.560714431477638e+00
 7.300170408991521e+00	 7.045611967776801e+00	 4.299873465702023e+00
 7.312898331052581e+00	 7.058339889838400e+00	 3.999189384742664e+00
 7.325626253114000e+00	 7.071067811899999e+00	 3.658662201125654e+00
 7.244308973294000e+00	 6.897826650506000e+00	 4.525953008415946e+00
 7.261633089428745e+00	 6.915150766645398e+00	 4.545652737314478e+00
 7.278957205563979e+00	 6.932474882784800e+00	 4.531440312772513e+00
 7.296281321699705e+00	 6.949798998924201e+00	 4.483315766380930e+00
 7.313605437835919e+00	 6.967123115063600e+00	 4.401279129730386e+00
 7.330929553972624e+00	 6.984447231202999e+00	 4.285330434411329e+00
 7.348253670109818e+00	 7.001771347342399e+00	 4.135469712013991e+00
 7.365577786247505e+00	 7.019095463481801e+00	 3.951696994128399e+00
 7.382901902385678e+00	 7.036419579621198e+00	 3.734012312344323e+00
 7.400226018524346e+00	 7.053743695760600e+00	 3.482415698251375e+00
 7.417550134663500e+00	 7.071067811900000e+00	 3.196907183438864e+00
 7.297341981884001e+00	 6.844793641916000e+00	 3.967410573822450e+00
 7.319969398876320e+00	 6.867421058914400e+00	 3.988442452602287e+00
 7.342596815869278e+00	 6.890048475912799e+00	 3.980006471431697e+00
 7.365224232862881e+00	 6.912675892911201e+00	 3.942102700700560e+00
 7.387851649857121e+00	 6.935303309909600e+00	 3.874731210798708e+00
 7.410479066851998e+00	 6.957930726907999e+00	 3.777892072115881e+00
 7.433106483847518e+00	 6.980558143906398e+00	 3.651585355041826e+00
 7.455733900843678e+00	 7.003185560904798e+00	 3.495811129966197e+00
 7.478361317840478e+00	 7.025812977903199e+00	 3.310569467278635e+00
 7.500988734837920e+00	 7.048440394901601e+00	 3.095860437368683e+00
 7.523616151836001e+00	 7.071067811900001e+00	 2.851684110625886e+00
 7.357446058286000e+00	 6.784689565513999e+00	 3.533253702080864e+00
 7.386083882916903e+00	 6.813327390152599e+00	 3.555333512962328e+00
 7.414721707548620e+00	 6.841965214791201e+00	 3.551401307876796e+00
 7.443359532181146e+00	 6.870603039429801e+00	 3.521457229524422e+00
 7.471997356814479e+00	 6.899240864068400e+00	 3.465501420605626e+00
 7.500635181448625e+00	 6.927878688707001e+00	 3.383534023821118e+00
 7.529273006083580e+00	 6.956516513345600e+00	 3.275555181871928e+00
 7.557910830719343e+00	 6.985154337984198e+00	 3.141565037459359e+00
 7.586548655355919e+00	 7.013792162622800e+00	 2.981563733285004e+00
 7.615186479993304e+00	 7.042429987261399e+00	 2.795551412050769e+00
 7.643824304631499e+00	 7.071067811899999e+00	 2.583528216458849e+00
 7.424621202500000e+00	 6.717514421300000e+00	 3.186198109849165e+00
 7.459976541550501e+00	 6.752869760360000e+00	 3.209078158684130e+00
 7.495331880602000e+00	 6.788225099420001e+00	 3.208712191077006e+00
 7.530687219654500e+00	 6.823580438480000e+00	 3.185100475543223e+00
 7.566042558707999e+00	 6.858935777539999e+00	 3.138243280599237e+00
 7.601397897762499e+00	 6.894291116600000e+00	 3.068140874762490e+00
 7.636753236818000e+00	 6.929646455660000e+00	 2.974793526551433e+00
 7.672108575874500e+00	 6.965001794720000e+00	 2.858201504485507e+00
 7.707463914931999e+00	 7.000357133780000e+00	 2.718365077085167e+00
 7.742819253990500e+00	 7.035712472840000e+00	 2.555284512871826e+00
 7.778174593050000e+00	 7.071067811900000e+00	 2.368960080367948e+00
 7.424621202500000e+00	 6.717514421300000e+00	 3.186198109849165e+00
 7.459976541550501e+00	 6.752869760360000e+00	 3.209078158684130e+00
 7.495331880602000e+00	 6.788225099420001e+00	 3.208712191077006e+00
 7.530687219654500e+00	 6.823580438480000e+00	 3.185100475543223e+00
 7.566042558707999e+00	 6.858935777539999e+00	 3.138243280599237e+00
 7.601397897762499e+00	 6.894291116600000e+00	 3.068140874762490e+00
 7.636753236818000e+00	 6.929646455660000e+00	 2.974793526551433e+00
 7.672108575874500e+00	 6.965001794720000e+00	 2.858201504485507e+00
 7.707463914931999e+00	 7.000357133780000e+00	 2.718365077085167e+00
 7.742819253990500e+00	 7.035712472840000e+00	 2.555284512871826e+00
 7.778174593050000e+00	 7.071067811900000e+00	 2.368960080367948e+00
 7.498867414525000e+00	 6.643268209274000e+00	 2.916896137606936e+00
 7.541647374776486e+00	 6.686048169536599e+00	 2.937874794953722e+00
 7.584427335029143e+00	 6.728828129799202e+00	 2.938485328026971e+00
 7.627207295282966e+00	 6.771608090061800e+00	 2.918728212519069e+00
 7.669987255537959e+00	 6.814388050324401e+00	 2.878603924124742e+00
 7.712767215794124e+00	 6.857168010586999e+00	 2.818112938541071e+00
 7.755547176051460e+00	 6.899947970849601e+00	 2.737255731467452e+00
 7.798327136309966e+00	 6.942727931112200e+00	 2.636032778605630e+00
 7.841107096569642e+00	 6.985507891374802e+00	 2.514444555659684e+00
 7.883887056830486e+00	 7.028287851637398e+00	 2.372491538336031e+00
 7.926667017092500e+00	 7.071067811900000e+00	 2.210174202343439e+00
 7.580184694360000e+00	 6.561950929436001e+00	 2.703591970163675e+00
 7.631096382594240e+00	 6.612862617682399e+00	 2.720814832862880e+00
 7.682008070829760e+00	 6.663774305928800e+00	 2.719864747141891e+00
 7.732919759066559e+00	 6.714685994175198e+00	 2.700742514785914e+00
 7.783831447304641e+00	 6.765597682421602e+00	 2.663448937585068e+00
 7.834743135544000e+00	 6.816509370668001e+00	 2.607984817334394e+00
 7.885654823784641e+00	 6.867421058914401e+00	 2.534350955833841e+00
 7.936566512026561e+00	 6.918332747160801e+00	 2.442548154888275e+00
 7.987478200269759e+00	 6.969244435407200e+00	 2.332577216307490e+00
 8.038389888514240e+00	 7.020156123653601e+00	 2.204438941906170e+00
 8.089301576760001e+00	 7.071067811900001e+00	 2.058134133503950e+00
 7.668573042005001e+00	 6.473562581786000e+00	 2.531039855462112e+00
 7.728323565003766e+00	 6.533313104797400e+00	 2.543505406532282e+00
 7.788074088003861e+00	 6.593063627808800e+00	 2.539514178923759e+00
 7.847824611005285e+00	 6.652814150820200e+00	 2.519067468714705e+00
 7.907575134008038e+00	 6.712564673831598e+00	 2.482166571992833e+00
 7.967325657012124e+00	 6.772315196843000e+00	 2.428812784855384e+00
 8.027076180017538e+00	 6.832065719854398e+00	 2.359007403409141e+00
 8.086826703024284e+00	 6.891816242865799e+00	 2.272751723770436e+00
 8.146577226032360e+00	 6.951566765877200e+00	 2.170047042065133e+00
 8.206327749041767e+00	 7.011317288888601e+00	 2.050894654428646e+00
 8.266078272052500e+00	 7.071067811900000e+00	 1.915295857005911e+00
 7.764032457460001e+00	 6.378103166323999e+00	 2.388953463774402e+00
 7.833328922005060e+00	 6.447399630881599e+00	 2.396153242763604e+00
 7.902625386551440e+00	 6.516696095439199e+00	 2.388267469074142e+00
 7.971921851099140e+00	 6.585992559996800e+00	 2.365298164514092e+00
 8.041218315648161e+00	 6.655289024554399e+00	 2.327247350908970e+00
 8.110514780198502e+00	 6.724585489112001e+00	 2.274117050101745e+00
 8.179811244750159e+00	 6.793881953669600e+00	 2.205909283952833e+00
 8.249107709303139e+00	 6.863178418227200e+00	 2.122626074340101e+00
 8.318404173857440e+00	 6.932474882784800e+00	 2.024269443158852e+00
 8.387700638413060e+00	 7.001771347342400e+00	 1.910841412321856e+00
 8.456997102970000e+00	 7.071067811900000e+00	 1.782344003759317e+00
 7.866562940725000e+00	 6.275572683050000e+00	 2.270160311274924e+00
 7.946112453598126e+00	 6.355122195935001e+00	 2.271874929868885e+00
 8.025661966472500e+00	 6.434671708819999e+00	 2.259621626531946e+00
 8.105211479348126e+00	 6.514221221704999e+00	 2.233403459845232e+00
 8.184760992225002e+00	 6.593770734590000e+00	 2.193223488420330e+00
 8.264310505103126e+00	 6.673320247474999e+00	 2.139084770899283e+00
 8.343860017982500e+00	 6.752869760360000e+00	 2.070990365954602e+00
 8.423409530863125e+00	 6.832419273244999e+00	 1.988943332289252e+00
 8.502959043745001e+00	 6.911968786130000e+00	 1.892946728636655e+00
 8.582508556628126e+00	 6.991518299015000e+00	 1.783003613760711e+00
 8.662058069512501e+00	 7.071067811900000e+00	 1.659117046455765e+00
 7.976164491800001e+00	 6.165971131964000e+00	 2.169515191791032e+00
 8.066674159782961e+00	 6.256480799957600e+00	 2.165695077774496e+00
 8.157183827767041e+00	 6.346990467951199e+00	 2.148835260213465e+00
 8.247693495752241e+00	 6.437500135944800e+00	 2.118940244091125e+00
 8.338203163738559e+00	 6.528009803938399e+00	 2.076014534441827e+00
 8.428712831726003e+00	 6.618519471932000e+00	 2.020062636351115e+00
 8.519222499714560e+00	 6.709029139925600e+00	 1.951089054955710e+00
 8.609732167704241e+00	 6.799538807919199e+00	 1.869098295443515e+00
 8.700241835695040e+00	 6.890048475912801e+00	 1.774094863053622e+00
 8.790751503686961e+00	 6.980558143906398e+00	 1.666083263076304e+00
 8.881261171680002e+00	 7.071067811900001e+00	 1.548164328942941e+00
 8.092837110685000e+00	 6.049298513065999e+00	 2.083234067542770e+00
 8.195014040559565e+00	 6.151475442949399e+00	 2.073928008213757e+00
 8.297190970435061e+00	 6.253652372832800e+00	 2.052367419819371e+00
 8.399367900311486e+00	 6.355829302716200e+00	 2.018558783743015e+00
 8.501544830188841e+00	 6.458006232599599e+00	 1.972508581451318e+00
 8.603721760067126e+00	 6.560183162483000e+00	 1.914223294494155e+00
 8.705898689946341e+00	 6.662360092366399e+00	 1.843709404504644e+00
 8.808075619826488e+00	 6.764537022249800e+00	 1.760973393199145e+00
 8.910252549707559e+00	 6.866713952133200e+00	 1.670685290218253e+00
 9.012429479589565e+00	 6.968890882016599e+00	 1.568932688090815e+00
 9.114606409472501e+00	 7.071067811900000e+00	 1.454850631483728e+00
 8.216580797380001e+00	 5.925554826355999e+00	 2.008471250965648e+00
 8.331132095927941e+00	 6.040106124910400e+00	 1.993782741231424e+00
 8.445683394476562e+00	 6.154657423464800e+00	 1.967516213715075e+00
 8.560234693025862e+00	 6.269208722019200e+00	 1.929680801347903e+00
 8.674785991575844e+00	 6.383760020573600e+00	 1.880285637192803e+00
 8.789337290126502e+00	 6.498311319128000e+00	 1.819339854444262e+00
 8.903888588677841e+00	 6.612862617682399e+00	 1.751188980127971e+00
 9.018439887229860e+00	 6.727413916236800e+00	 1.673269679212272e+00
 9.132991185782561e+00	 6.841965214791200e+00	 1.583687526875830e+00
 9.247542484335941e+00	 6.956516513345600e+00	 1.482427877974732e+00
 9.362093782890001e+00	 7.071067811900001e+00	 1.369476087293091e+00
 8.347395551885000e+00	 5.794740071833999e+00	 1.943042749094907e+00
 8.475028325888085e+00	 5.922372845840599e+00	 1.923102926697361e+00
 8.602661099891542e+00	 6.050005619847200e+00	 1.892179072481180e+00
 8.730293873895366e+00	 6.177638393853799e+00	 1.850283819193643e+00
 8.857926647899562e+00	 6.305271167860401e+00	 1.799286704693538e+00
 8.985559421904124e+00	 6.432903941866998e+00	 1.742355837435373e+00
 9.113192195909061e+00	 6.560536715873599e+00	 1.674354105565239e+00
 9.240824969914366e+00	 6.688169489880199e+00	 1.595261252071229e+00
 9.368457743920041e+00	 6.815802263886800e+00	 1.505057019830626e+00
 9.496090517926087e+00	 6.943435037893400e+00	 1.403721151609904e+00
 9.623723291932501e+00	 7.071067811900000e+00	 1.291233390064718e+00
 8.485281374200000e+00	 5.656854249500000e+00	 1.885240337038057e+00
 8.626702730440000e+00	 5.798275605740000e+00	 1.860191017210032e+00
 8.768124086679999e+00	 5.939696961980000e+00	 1.824689495299663e+00
 8.909545442920001e+00	 6.081118318220000e+00	 1.783404378544922e+00
 9.050966799160001e+00	 6.222539674460000e+00	 1.734627564434346e+00
 9.192388155400000e+00	 6.363961030700001e+00	 1.675296360243754e+00
 9.333809511640000e+00	 6.505382386939999e+00	 1.605383209063006e+00
 9.475230867880001e+00	 6.646803743180000e+00	 1.524860553815018e+00
 9.616652224119999e+00	 6.788225099420000e+00	 1.433700837255736e+00
 9.758073580360000e+00	 6.929646455659999e+00	 1.331876501974144e+00
 9.899494936600000e+00	 7.071067811900000e+00	 1.219359990392244e+00
 7.071067811900000e+00	 7.071067811900000e+00	 1.203078214684597e+00
 7.071067811900001e+00	 7.071067811900001e+00	 1.203078214684597e+00
 7.071067811900001e+00	 7.071067811900001e+00	 1.203078214684597e+00
 7.071067811900000e+00	 7.071067811900000e+00	 1.203078214684597e+00
 7.071067811899999e+00	 7.071067811899999e+00	 1.203078214684597e+00
 7.071067811900000e+00	 7.071067811900000e+00	 1.203078214684597e+00
 7.071067811900000e+00	 7.071067811900000e+00	 1.203078214684597e+00
 7.071067811900000e+00	 7.071067811900000e+00	 1.203078214684597e+00
 7.071067811900000e+00	 7.071067811900000e+00	 1.203078214684597e+00
 7.071067811900000e+00	 7.071067811900000e+00	 1.203078214684597e+00
 7.071067811900000e+00	 7.071067811900000e+00	 1.203078214684597e+00
 7.078138879711500e+00	 7.071067811900000e+00	 2.085552346295722e+01
 7.077785326320905e+00	 7.071421365290600e+00	 2.351736396070689e+01
 7.077431772930319e+00	 7.071774918681197e+00	 2.577285512034900e+01
 7.077078219539746e+00	 7.072128472071801e+00	 2.762199694190805e+01
 7.076724666149180e+00	 7.072482025462400e+00	 2.906478942539043e+01
 7.076371112758626e+00	 7.072835578853000e+00	 3.010123257080634e+01
 7.076017559368081e+00	 7.073189132243601e+00	 3.073132637815970e+01
 7.075664005977545e+00	 7.073542685634201e+00	 3.095507084745402e+01
 7.075310452587019e+00	 7.073896239024799e+00	 3.077246597868454e+01
 7.074956899196505e+00	 7.074249792415401e+00	 3.018351177184589e+01
 7.074603345806000e+00	 7.074603345806000e+00	 2.918820822693352e+01
 7.099352083146000e+00	 7.071067811900000e+00	 1.016491895987088e+01
 7.097937869583620e+00	 7.072482025462400e+00	 1.155475520985740e+01
 7.096523656021280e+00	 7.073896239024800e+00	 1.273652317663507e+01
 7.095109442458979e+00	 7.075310452587200e+00	 1.371022286022942e+01
 7.093695228896720e+00	 7.076724666149600e+00	 1.447585426066358e+01
 7.092281015334499e+00	 7.078138879711998e+00	 1.503341737795878e+01
 7.090866801772319e+00	 7.079553093274399e+00	 1.538291221213453e+01
 7.089452588210178e+00	 7.080967306836799e+00	 1.552433876320893e+01
 7.088038374648081e+00	 7.082381520399201e+00	 1.545769703119777e+01
 7.086624161086021e+00	 7.083795733961601e+00	 1.518298701611567e+01
 7.085209947524000e+00	 7.085209947524000e+00	 1.470020871797494e+01
 7.134707422203499e+00	 7.071067811899999e+00	 6.812887002316375e+00
 7.131525441688146e+00	 7.074249792415401e+00	 7.742715612214415e+00
 7.128343461172881e+00	 7.077431772930801e+00	 8.533355858978144e+00
 7.125161480657704e+00	 7.080613753446199e+00	 9.184807742805591e+00
 7.121979500142620e+00	 7.083795733961600e+00	 9.697071263894511e+00
 7.118797519627625e+00	 7.086977714477000e+00	 1.007014642244098e+01
 7.115615539112721e+00	 7.090159694992400e+00	 1.030403321863995e+01
 7.112433558597905e+00	 7.093341675507800e+00	 1.039873165268532e+01
 7.109251578083180e+00	 7.096523656023201e+00	 1.035424172476973e+01
 7.106069597568545e+00	 7.099705636538600e+00	 1.017056343508466e+01
 7.102887617053999e+00	 7.102887617053999e+00	 9.847696783820442e+00
 7.184204896884000e+00	 7.071067811900000e+00	 5.175980767096545e+00
 7.178548042634481e+00	 7.076724666149602e+00	 5.869028567656971e+00
 7.172891188385119e+00	 7.082381520399199e+00	 6.457850237810103e+00
 7.167234334135919e+00	 7.088038374648800e+00	 6.942445778645710e+00
 7.161577479886880e+00	 7.093695228898399e+00	 7.322815191252486e+00
 7.155920625638000e+00	 7.099352083148000e+00	 7.598958476718197e+00
 7.150263771389280e+00	 7.105008937397600e+00	 7.770875636129791e+00
 7.144606917140720e+00	 7.110665791647200e+00	 7.838566670573367e+00
 7.138950062892320e+00	 7.116322645896800e+00	 7.802031581134012e+00
 7.133293208644081e+00	 7.121979500146401e+00	 7.661270368896064e+00
 7.127636354396000e+00	 7.127636354396000e+00	 7.416283034942914e+00
 7.247844507187500e+00	 7.071067811900000e+00	 4.205866943956131e+00
 7.239005672422627e+00	 7.079906646665002e+00	 4.754655687877194e+00
 7.230166837658000e+00	 7.088745481430000e+00	 5.220362512589977e+00
 7.221328002893626e+00	 7.097584316195000e+00	 5.602987422238751e+00
 7.212489168129499e+00	 7.106423150960000e+00	 5.902530420967124e+00
 7.203650333365625e+00	 7.115261985725001e+00	 6.118991512918045e+00
 7.194811498602000e+00	 7.124100820490000e+00	 6.252370702233728e+00
 7.185972663838625e+00	 7.132939655254999e+00	 6.302667993055645e+00
 7.177133829075499e+00	 7.141778490019999e+00	 6.269883389524642e+00
 7.168294994312626e+00	 7.150617324785000e+00	 6.154016895780819e+00
 7.159456159549999e+00	 7.159456159549999e+00	 5.955068515963583e+00
 7.325626253114000e+00	 7.071067811899999e+00	 3.563709543370053e+00
 7.312898331052581e+00	 7.083795733961599e+00	 4.015394767409536e+00
 7.300170408991519e+00	 7.096523656023200e+00	 4.398163350873989e+00
 7.287442486930821e+00	 7.109251578084801e+00	 4.712015306131240e+00
 7.274714564870479e+00	 7.121979500146399e+00	 4.956950645548636e+00
 7.261986642810499e+00	 7.134707422208000e+00	 5.132969381492977e+00
 7.249258720750880e+00	 7.147435344269599e+00	 5.240071526330416e+00
 7.236530798691621e+00	 7.160163266331200e+00	 5.278257092426581e+00
 7.223802876632721e+00	 7.172891188392801e+00	 5.247526092146577e+00
 7.211074954574181e+00	 7.185619110454401e+00	 5.147878537854883e+00
 7.198347032516000e+00	 7.198347032516000e+00	 4.979314441915442e+00
 7.417550134663500e+00	 7.071067811900000e+00	 3.106894377469435e+00
 7.400226018524345e+00	 7.088391928039400e+00	 3.488749602284999e+00
 7.382901902385679e+00	 7.105716044178799e+00	 3.811839548143835e+00
 7.365577786247505e+00	 7.123040160318200e+00	 4.076164246228535e+00
 7.348253670109820e+00	 7.140364276457601e+00	 4.281723727721300e+00
 7.330929553972624e+00	 7.157688392597000e+00	 4.428518023803882e+00
 7.313605437835918e+00	 7.175012508736399e+00	 4.516547165657602e+00
 7.296281321699705e+00	 7.192336624875800e+00	 4.545811184463362e+00
 7.278957205563978e+00	 7.209660741015198e+00	 4.516310111401633e+00
 7.261633089428745e+00	 7.226984857154600e+00	 4.428043977652437e+00
 7.244308973294000e+00	 7.244308973294000e+00	 4.281012814395391e+00
 7.523616151836001e+00	 7.071067811900001e+00	 2.764970923377734e+00
 7.500988734837919e+00	 7.093695228898400e+00	 3.094185470832354e+00
 7.478361317840477e+00	 7.116322645896799e+00	 3.372265716372491e+00
 7.455733900843681e+00	 7.138950062895201e+00	 3.599211729475391e+00
 7.433106483847521e+00	 7.161577479893600e+00	 3.775023579618070e+00
 7.410479066852000e+00	 7.184204896891999e+00	 3.899701336277282e+00
 7.387851649857118e+00	 7.206832313890398e+00	 3.973245068929573e+00
 7.365224232862879e+00	 7.229459730888798e+00	 3.995654847051236e+00
 7.342596815869278e+00	 7.252087147887199e+00	 3.966930740118344e+00
 7.319969398876321e+00	 7.274714564885601e+00	 3.887072817606714e+00
 7.297341981884001e+00	 7.297341981884001e+00	 3.756081148991946e+00
 7.643824304631499e+00	 7.071067811899999e+00	 2.499141239257115e+00
 7.615186479993304e+00	 7.099705636538599e+00	 2.787246540596601e+00
 7.586548655355920e+00	 7.128343461177201e+00	 3.030162090972232e+00
 7.557910830719346e+00	 7.156981285815801e+00	 3.227888031231138e+00
 7.529273006083579e+00	 7.185619110454399e+00	 3.380424502220542e+00
 7.500635181448625e+00	 7.214256935093000e+00	 3.487771644787812e+00
 7.471997356814480e+00	 7.242894759731599e+00	 3.549929599780451e+00
 7.443359532181143e+00	 7.271532584370197e+00	 3.566898508046072e+00
 7.414721707548620e+00	 7.300170409008800e+00	 3.538678510432422e+00
 7.386083882916903e+00	 7.328808233647399e+00	 3.465269747787381e+00
 7.357446058286000e+00	 7.357446058286000e+00	 3.346672360958936e+00
 7.778174593050000e+00	 7.071067811900000e+00	 2.286282770359172e+00
 7.742819253990501e+00	 7.106423150960001e+00	 2.541391579781842e+00
 7.707463914932000e+00	 7.141778490020001e+00	 2.756070885041702e+00
 7.672108575874500e+00	 7.177133829080000e+00	 2.930320951163810e+00
 7.636753236817999e+00	 7.212489168139999e+00	 3.064142043174058e+00
 7.601397897762500e+00	 7.247844507199999e+00	 3.157534426099216e+00
 7.566042558708000e+00	 7.283199846260000e+00	 3.210498364966865e+00
 7.530687219654500e+00	 7.318555185320000e+00	 3.223034124805429e+00
 7.495331880602000e+00	 7.353910524380000e+00	 3.195141970644193e+00
 7.459976541550500e+00	 7.389265863440000e+00	 3.126822167513263e+00
 7.424621202500000e+00	 7.424621202500000e+00	 3.018074980443599e+00
 7.778174593050000e+00	 7.071067811900000e+00	 2.286282770359172e+00
 7.742819253990501e+00	 7.106423150960001e+00	 2.541391579781842e+00
 7.707463914932000e+00	 7.141778490020001e+00	 2.756070885041702e+00
 7.672108575874500e+00	 7.177133829080000e+00	 2.930320951163810e+00
 7.636753236817999e+00	 7.212489168139999e+00	 3.064142043174058e+00
 7.601397897762500e+00	 7.247844507199999e+00	 3.157534426099216e+00
 7.566042558708000e+00	 7.283199846260000e+00	 3.210498364966865e+00
 7.530687219654500e+00	 7.318555185320000e+00	 3.223034124805429e+00
 7.495331880602000e+00	 7.353910524380000e+00	 3.195141970644193e+00
 7.459976541550500e+00	 7.389265863440000e+00	 3.126822167513263e+00
 7.424621202500000e+00	 7.424621202500000e+00	 3.018074980443599e+00
 7.926667017092500e+00	 7.071067811900000e+00	 2.079674523303674e+00
 7.883887056830485e+00	 7.113847772162589e+00	 2.311997931983933e+00
 7.841107096569642e+00	 7.156627732425161e+00	 2.507975748612399e+00
 7.798327136309967e+00	 7.199407692687712e+00	 2.667608442691849e+00
 7.755547176051459e+00	 7.242187652950239e+00	 2.790896483727169e+00
 7.712767215794125e+00	 7.284967613212750e+00	 2.877840341225320e+00
 7.669987255537960e+00	 7.327747573475240e+00	 2.928440484695376e+00
 7.627207295282965e+00	 7.370527533737710e+00	 2.942697383648495e+00
 7.584427335029142e+00	 7.413307494000161e+00	 2.920611507597924e+00
 7.541647374776484e+00	 7.456087454262589e+00	 2.862183326059013e+00
 7.498867414525000e+00	 7.498867414525000e+00	 2.767413308549199e+00
 8.089301576760001e+00	 7.071067811900001e+00	 1.915378469753011e+00
 8.038389888514240e+00	 7.121979500146360e+00	 2.128895105227695e+00
 7.987478200269760e+00	 7.172891188392639e+00	 2.309404640145884e+00
 7.936566512026559e+00	 7.223802876638840e+00	 2.456907865851137e+00
 7.885654823784642e+00	 7.274714564884963e+00	 2.571405573691658e+00
 7.834743135544000e+00	 7.325626253130999e+00	 2.652898555020266e+00
 7.783831447304641e+00	 7.376537941376961e+00	 2.701387601194411e+00
 7.732919759066561e+00	 7.427449629622842e+00	 2.716873503576168e+00
 7.682008070829760e+00	 7.478361317868640e+00	 2.699357053532245e+00
 7.631096382594240e+00	 7.529273006114359e+00	 2.648839042433967e+00
 7.580184694360000e+00	 7.580184694360000e+00	 2.565320261657294e+00
 8.266078272052500e+00	 7.071067811900000e+00	 1.781764530083715e+00
 8.206327749041765e+00	 7.130818334911312e+00	 1.979502882671603e+00
 8.146577226032361e+00	 7.190568857922442e+00	 2.147010553776544e+00
 8.086826703024286e+00	 7.250319380933391e+00	 2.284288822583322e+00
 8.027076180017538e+00	 7.310069903944158e+00	 2.391338968285932e+00
 7.967325657012124e+00	 7.369820426954750e+00	 2.468162270087588e+00
 7.907575134008038e+00	 7.429570949965159e+00	 2.514760007200723e+00
 7.847824611005284e+00	 7.489321472975390e+00	 2.531133458846986e+00
 7.788074088003859e+00	 7.549071995985440e+00	 2.517283904257233e+00
 7.728323565003765e+00	 7.608822518995312e+00	 2.473212622671543e+00
 7.668573042005001e+00	 7.668573042005001e+00	 2.398920893339218e+00
 8.456997102970000e+00	 7.071067811900000e+00	 1.671015446754430e+00
 8.387700638413058e+00	 7.140364276457439e+00	 1.855338738465030e+00
 8.318404173857441e+00	 7.209660741014561e+00	 2.011772785452589e+00
 8.249107709303141e+00	 7.278957205571360e+00	 2.140319583148445e+00
 8.179811244750161e+00	 7.348253670127840e+00	 2.240981127001017e+00
 8.110514780198503e+00	 7.417550134684002e+00	 2.313759412475795e+00
 8.041218315648161e+00	 7.486846599239839e+00	 2.358656435055344e+00
 7.971921851099141e+00	 7.556143063795360e+00	 2.375674190239295e+00
 7.902625386551440e+00	 7.625439528350560e+00	 2.364814673544356e+00
 7.833328922005060e+00	 7.694735992905440e+00	 2.326079880504306e+00
 7.764032457460001e+00	 7.764032457460001e+00	 2.259471806669997e+00
 8.662058069512501e+00	 7.071067811900000e+00	 1.577705382680408e+00
 8.582508556628127e+00	 7.150617324784750e+00	 1.750498694007112e+00
 8.502959043744999e+00	 7.230166837669000e+00	 1.897399770104703e+00
 8.423409530863125e+00	 7.309716350552750e+00	 2.018411629612888e+00
 8.343860017982500e+00	 7.389265863436000e+00	 2.113537291201367e+00
 8.264310505103126e+00	 7.468815376318750e+00	 2.182779773569839e+00
 8.184760992225000e+00	 7.548364889201000e+00	 2.226142095447993e+00
 8.105211479348124e+00	 7.627914402082751e+00	 2.243627275595510e+00
 8.025661966472500e+00	 7.707463914964000e+00	 2.235238332802075e+00
 7.946112453598126e+00	 7.787013427844750e+00	 2.200978285887359e+00
 7.866562940725000e+00	 7.866562940725000e+00	 2.140850153701032e+00
 8.881261171680002e+00	 7.071067811900001e+00	 1.501060907929878e+00
 8.790751503686961e+00	 7.161577479893241e+00	 1.660762112328147e+00
 8.700241835695042e+00	 7.252087147885760e+00	 1.799385950849309e+00
 8.609732167704241e+00	 7.342596815877560e+00	 1.913840541495743e+00
 8.519222499714560e+00	 7.433106483868638e+00	 2.004130330410318e+00
 8.428712831726001e+00	 7.523616151859001e+00	 2.070259763786461e+00
 8.338203163738561e+00	 7.614125819848640e+00	 2.112233287868150e+00
 8.247693495752239e+00	 7.704635487837561e+00	 2.130055348949925e+00
 8.157183827767042e+00	 7.795145155825761e+00	 2.123730393376878e+00
 8.066674159782959e+00	 7.885654823813239e+00	 2.093262867544674e+00
 7.976164491800001e+00	 7.976164491800001e+00	 2.038657217899528e+00
 9.114606409472501e+00	 7.071067811900000e+00	 1.444321387668420e+00
 9.012429479589565e+00	 7.173244741782910e+00	 1.593064232757716e+00
 8.910252549707561e+00	 7.275421671664841e+00	 1.719057138578357e+00
 8.808075619826488e+00	 7.377598601545791e+00	 1.823143275972475e+00
 8.705898689946341e+00	 7.479775531425760e+00	 1.909182516449512e+00
 8.603721760067126e+00	 7.581952461304750e+00	 1.972556193310258e+00
 8.501544830188839e+00	 7.684129391182760e+00	 2.013270703364224e+00
 8.399367900311486e+00	 7.786306321059791e+00	 2.031332443503296e+00
 8.297190970435061e+00	 7.888483250935840e+00	 2.026747810701709e+00
 8.195014040559565e+00	 7.990660180810909e+00	 1.999523202016063e+00
 8.092837110685000e+00	 8.092837110685000e+00	 1.949665014585321e+00
 9.362093782890001e+00	 7.071067811900001e+00	 1.396417286677982e+00
 9.247542484335943e+00	 7.185619110453760e+00	 1.537060809869719e+00
 9.132991185782563e+00	 7.300170409006242e+00	 1.656254960692922e+00
 9.018439887229862e+00	 7.414721707557439e+00	 1.753995623833096e+00
 8.903888588677843e+00	 7.529273006107362e+00	 1.830278683880864e+00
 8.789337290126502e+00	 7.643824304656001e+00	 1.886946604659090e+00
 8.674785991575842e+00	 7.758375603203360e+00	 1.926519220247287e+00
 8.560234693025860e+00	 7.872926901749439e+00	 1.944748134742249e+00
 8.445683394476561e+00	 7.987478200294240e+00	 1.941642362065035e+00
 8.331132095927941e+00	 8.102029498837759e+00	 1.917210916267010e+00
 8.216580797380001e+00	 8.216580797380001e+00	 1.871462811529856e+00
 9.623723291932501e+00	 7.071067811900000e+00	 1.355657834415532e+00
 9.496090517926085e+00	 7.198700585905790e+00	 1.489115503772302e+00
 9.368457743920041e+00	 7.326333359909960e+00	 1.602267856220657e+00
 9.240824969914366e+00	 7.453966133912510e+00	 1.695109199653002e+00
 9.113192195909061e+00	 7.581598907913441e+00	 1.767633841815696e+00
 8.985559421904126e+00	 7.709231681912750e+00	 1.819836090309027e+00
 8.857926647899561e+00	 7.836864455910439e+00	 1.851710252587221e+00
 8.730293873895365e+00	 7.964497229906510e+00	 1.868247102412087e+00
 8.602661099891540e+00	 8.092130003900960e+00	 1.866406241817318e+00
 8.475028325888086e+00	 8.219762777893790e+00	 1.844394584414476e+00
 8.347395551885000e+00	 8.347395551885000e+00	 1.802224598635073e+00
 9.899494936600000e+00	 7.071067811900000e+00	 1.320714680310217e+00
 9.758073580360000e+00	 7.212489168139000e+00	 1.447777639305319e+00
 9.616652224120001e+00	 7.353910524375999e+00	 1.555547061329515e+00
 9.475230867880001e+00	 7.495331880611000e+00	 1.644015203297027e+00
 9.333809511640000e+00	 7.636753236843999e+00	 1.713174321902042e+00
 9.192388155400000e+00	 7.778174593075000e+00	 1.763016673618726e+00
 9.050966799159999e+00	 7.919595949304000e+00	 1.793534514701211e+00
 8.909545442919999e+00	 8.061017305530999e+00	 1.804720101183587e+00
 8.768124086680000e+00	 8.202438661756000e+00	 1.799500316538364e+00
 8.626702730439998e+00	 8.343860017978999e+00	 1.779594265303876e+00
 8.485281374200000e+00	 8.485281374200000e+00	 1.740552148748215e+00
 5.656854249500000e+00	 5.656854249500000e+00	 5.259352439364515e-01
 5.798275605740000e+00	 5.515432893260000e+00	 6.800586176312325e-01
 5.939696961980000e+00	 5.374011537020000e+00	 8.213902969702371e-01
 6.081118318220000e+00	 5.232590180780001e+00	 9.499133202502219e-01
 6.222539674460000e+00	 5.091168824540000e+00	 1.065610726071170e+00
 6.363961030700001e+00	 4.949747468300000e+00	 1.168465553336297e+00
 6.505382386939999e+00	 4.808326112060000e+00	 1.258460841252045e+00
 6.646803743180000e+00	 4.666904755820000e+00	 1.335579629328061e+00
 6.788225099420000e+00	 4.525483399580001e+00	 1.399804957377203e+00
 6.929646455659999e+00	 4.384062043340000e+00	 1.451119865515530e+00
 7.071067811900000e+00	 4.242640687100000e+00	 1.489507394162289e+00
 5.374011537020500e+00	 5.374011537020500e+00	 5.033279115609272e-01
 5.515432893260495e+00	 5.232590180780500e+00	 6.397060807791480e-01
 5.656854249500480e+00	 5.091168824540501e+00	 7.644976274960807e-01
 5.798275605740455e+00	 4.949747468300500e+00	 8.776855900071800e-01
 5.939696961980420e+00	 4.808326112060500e+00	 9.792530069111371e-01
 6.081118318220376e+00	 4.666904755820500e+00	 1.069182917109868e+00
 6.222539674460319e+00	 4.525483399580500e+00	 1.147458359808517e+00
 6.363961030700255e+00	 4.384062043340500e+00	 1.214062374515434e+00
 6.505382386940179e+00	 4.242640687100500e+00	 1.268978001042182e+00
 6.646803743180094e+00	 4.101219330860500e+00	 1.312188279503514e+00
 6.788225099420000e+00	 3.959797974620500e+00	 1.343676250317386e+00
 5.091168824542001e+00	 5.091168824542001e+00	 4.777972145222888e-01
 5.232590180781980e+00	 4.949747468302000e+00	 5.981827797379069e-01
 5.374011537021920e+00	 4.808326112062001e+00	 7.081867939007028e-01
 5.515432893261822e+00	 4.666904755822000e+00	 8.077922953048402e-01
 5.656854249501680e+00	 4.525483399582000e+00	 8.969823225477069e-01
 5.798275605741500e+00	 4.384062043342001e+00	 9.757399145299357e-01
 5.939696961981280e+00	 4.242640687102000e+00	 1.044048110455365e+00
 6.081118318221020e+00	 4.101219330862000e+00	 1.101889949831050e+00
 6.222539674460719e+00	 3.959797974622000e+00	 1.149248472467256e+00
 6.363961030700379e+00	 3.818376618382000e+00	 1.186106718477445e+00
 6.505382386940000e+00	 3.676955262142000e+00	 1.212447728278258e+00
 4.808326112064499e+00	 4.808326112064499e+00	 4.492057058084934e-01
 4.949747468304456e+00	 4.666904755824500e+00	 5.553512675008302e-01
 5.091168824544322e+00	 4.525483399584500e+00	 6.523203491828035e-01
 5.232590180784094e+00	 4.384062043344499e+00	 7.400959891472738e-01
 5.374011537023780e+00	 4.242640687104500e+00	 8.186612259903500e-01
 5.515432893263375e+00	 4.101219330864502e+00	 8.879990986113637e-01
 5.656854249502880e+00	 3.959797974624500e+00	 9.480926462128600e-01
 5.798275605742295e+00	 3.818376618384500e+00	 9.989249083006034e-01
 5.939696961981618e+00	 3.676955262144500e+00	 1.040478924683553e+00
 6.081118318220856e+00	 3.535533905904500e+00	 1.072737740031356e+00
 6.222539674460000e+00	 3.394112549664499e+00	 1.092932490331643e+00
 4.525483399588000e+00	 4.525483399588000e+00	 4.174159433014165e-01
 4.666904755827919e+00	 4.384062043348001e+00	 5.110741019551389e-01
 4.808326112067681e+00	 4.242640687108000e+00	 5.967608512349465e-01
 4.949747468307280e+00	 4.101219330868000e+00	 6.744592294324183e-01
 5.091168824546720e+00	 3.959797974628000e+00	 7.441522751423688e-01
 5.232590180786000e+00	 3.818376618388000e+00	 8.058230272628395e-01
 5.374011537025120e+00	 3.676955262148000e+00	 8.594545249950800e-01
 5.515432893264080e+00	 3.535533905908000e+00	 9.050298125803677e-01
 5.656854249502881e+00	 3.394112549668000e+00	 9.397515747084083e-01
 5.798275605741520e+00	 3.252691193428001e+00	 9.618906651541876e-01
 5.939696961980000e+00	 3.111269837188000e+00	 9.759103775085833e-01
 4.242640687112500e+00	 4.242640687112500e+00	 3.822904897766309e-01
 4.384062043352377e+00	 4.101219330872501e+00	 4.652138458817263e-01
 4.525483399592000e+00	 3.959797974632500e+00	 5.413708628433594e-01
 4.666904755831375e+00	 3.818376618392501e+00	 6.107445789518295e-01
 4.808326112070500e+00	 3.676955262152500e+00	 6.733180328006678e-01
 4.949747468309375e+00	 3.535533905912500e+00	 7.290742681512300e-01
 5.091168824548000e+00	 3.394112549672500e+00	 7.751892209835830e-01
 5.232590180786375e+00	 3.252691193432500e+00	 8.099084592932824e-01
 5.374011537024500e+00	 3.111269837192500e+00	 8.377343779794248e-01
 5.515432893262377e+00	 2.969848480952500e+00	 8.586588829549184e-01
 5.656854249500000e+00	 2.828427124712500e+00	 8.726738801326736e-01
 3.959797974638000e+00	 3.959797974638000e+00	 3.436919129031510e-01
 4.101219330877821e+00	 3.818376618398000e+00	 4.176330669548885e-01
 4.242640687117279e+00	 3.676955262158000e+00	 4.860129516876441e-01
 4.384062043356381e+00	 3.535533905918001e+00	 5.488146103313188e-01
 4.525483399595119e+00	 3.394112549677999e+00	 6.031889327446210e-01
 4.666904755833500e+00	 3.252691193438000e+00	 6.473572406442656e-01
 4.808326112071520e+00	 3.111269837198000e+00	 6.858582873881856e-01
 4.949747468309181e+00	 2.969848480958000e+00	 7.186839788892753e-01
 5.091168824546481e+00	 2.828427124718000e+00	 7.458262210604356e-01
 5.232590180783419e+00	 2.687005768478000e+00	 7.672769198145685e-01
 5.374011537019999e+00	 2.545584412238000e+00	 7.830279810645993e-01
 3.676955262164500e+00	 3.676955262164500e+00	 3.014827852431953e-01
 3.818376618404255e+00	 3.535533905924500e+00	 3.681943427077565e-01
 3.959797974643520e+00	 3.394112549684500e+00	 4.276942135786128e-01
 4.101219330882295e+00	 3.252691193444500e+00	 4.781805127942121e-01
 4.242640687120581e+00	 3.111269837204500e+00	 5.242256093219601e-01
 4.384062043358375e+00	 2.969848480964501e+00	 5.658214090747390e-01
 4.525483399595680e+00	 2.828427124724500e+00	 6.029598179654261e-01
 4.666904755832495e+00	 2.687005768484501e+00	 6.356327419069061e-01
 4.808326112068819e+00	 2.545584412244500e+00	 6.638320868120798e-01
 4.949747468304656e+00	 2.404163056004501e+00	 6.875497585938399e-01
 5.091168824540000e+00	 2.262741699764500e+00	 7.067776631651000e-01
 3.394112549692001e+00	 3.394112549692001e+00	 2.526485670726444e-01
 3.535533905931680e+00	 3.252691193452000e+00	 3.063217793300904e-01
 3.676955262170720e+00	 3.111269837212000e+00	 3.567798473676257e-01
 3.818376618409121e+00	 2.969848480972001e+00	 4.040146770981081e-01
 3.959797974646881e+00	 2.828427124732001e+00	 4.480181744343965e-01
 4.101219330884000e+00	 2.687005768492000e+00	 4.887822452893579e-01
 4.242640687120479e+00	 2.545584412252000e+00	 5.262987955758645e-01
 4.384062043356320e+00	 2.404163056012000e+00	 5.605597312067959e-01
 4.525483399591519e+00	 2.262741699772000e+00	 5.915569580950318e-01
 4.666904755826081e+00	 2.121320343532000e+00	 6.192823821534651e-01
 4.808326112060000e+00	 1.979898987292001e+00	 6.437279092949874e-01
 3.111269837220500e+00	 3.111269837220500e+00	 1.874645051122070e-01
 3.252691193460095e+00	 2.969848480980500e+00	 2.372072865462414e-01
 3.394112549698880e+00	 2.828427124740501e+00	 2.849447940540514e-01
 3.535533905936855e+00	 2.687005768500501e+00	 3.306689335484864e-01
 3.676955262174020e+00	 2.545584412260500e+00	 3.743716109424016e-01
 3.818376618410376e+00	 2.404163056020500e+00	 4.160447321486516e-01
 3.959797974645920e+00	 2.262741699780500e+00	 4.556802030800931e-01
 4.101219330880655e+00	 2.121320343540500e+00	 4.932699296495942e-01
 4.242640687114581e+00	 1.979898987300501e+00	 5.288058177700181e-01
 4.384062043347695e+00	 1.838477631060500e+00	 5.622797733542406e-01
 4.525483399580001e+00	 1.697056274820500e+00	 5.936837023151308e-01
 2.828427124750000e+00	 2.828427124750000e+00	 1.145884636079948e-01
 2.969848480989500e+00	 2.687005768510000e+00	 1.652363102710897e-01
 3.111269837227999e+00	 2.545584412270000e+00	 2.119940364982698e-01
 3.252691193465500e+00	 2.404163056030000e+00	 2.579482650057808e-01
 3.394112549702000e+00	 2.262741699790000e+00	 3.030909017064654e-01
 3.535533905937500e+00	 2.121320343550000e+00	 3.474138525131608e-01
 3.676955262172001e+00	 1.979898987310000e+00	 3.909090233387162e-01
 3.818376618405500e+00	 1.838477631070000e+00	 4.335683200959742e-01
 3.959797974638000e+00	 1.697056274830000e+00	 4.753836486977840e-01
 4.101219330869499e+00	 1.555634918590000e+00	 5.163469150569930e-01
 4.242640687100000e+00	 1.414213562350000e+00	 5.564500250864526e-01
 2.828427124750000e+00	 2.828427124750000e+00	 1.145884636079948e-01
 2.969848480989500e+00	 2.687005768510000e+00	 1.652363102710897e-01
 3.111269837227999e+00	 2.545584412270000e+00	 2.119940364982698e-01
 3.252691193465500e+00	 2.404163056030000e+00	 2.579482650057808e-01
 3.394112549702000e+00	 2.262741699790000e+00	 3.030909017064654e-01
 3.535533905937500e+00	 2.121320343550000e+00	 3.474138525131608e-01
 3.676955262172001e+00	 1.979898987310000e+00	 3.909090233387162e-01
 3.818376618405500e+00	 1.838477631070000e+00	 4.335683200959742e-01
 3.959797974638000e+00	 1.697056274830000e+00	 4.753836486977840e-01
 4.101219330869499e+00	 1.555634918590000e+00	 5.163469150569930e-01
 4.242640687100000e+00	 1.414213562350000e+00	 5.564500250864526e-01
 2.545584412279500e+00	 2.545584412279500e+00	 1.199609031932095e-01
 2.687005768518914e+00	 2.404163056039500e+00	 1.682564745319131e-01
 2.828427124757160e+00	 2.262741699799500e+00	 2.158835845079190e-01
 2.969848480994236e+00	 2.121320343559500e+00	 2.621045543943580e-01
 3.111269837230140e+00	 1.979898987319500e+00	 3.047638558622419e-01
 3.252691193464875e+00	 1.838477631079499e+00	 3.467091941540580e-01
 3.394112549698440e+00	 1.697056274839500e+00	 3.879324751826437e-01
 3.535533905930834e+00	 1.555634918599500e+00	 4.284256048608409e-01
 3.676955262162060e+00	 1.414213562359500e+00	 4.681804891014918e-01
 3.818376618392115e+00	 1.272792206119500e+00	 5.071890338174379e-01
 3.959797974621000e+00	 1.131370849879500e+00	 5.454431449215223e-01
 2.262741699807999e+00	 2.262741699807999e+00	 1.212643025106762e-01
 2.404163056047360e+00	 2.121320343567999e+00	 1.664972207064039e-01
 2.545584412285440e+00	 1.979898987327999e+00	 2.111511488290442e-01
 2.687005768522239e+00	 1.838477631087999e+00	 2.552260868785868e-01
 2.828427124757760e+00	 1.697056274847999e+00	 2.987220348550192e-01
 2.969848480992000e+00	 1.555634918607999e+00	 3.409716229313077e-01
 3.111269837224959e+00	 1.414213562367999e+00	 3.800225359836976e-01
 3.252691193456640e+00	 1.272792206128000e+00	 4.184490204035829e-01
 3.394112549687040e+00	 1.131370849887999e+00	 4.562429821037955e-01
 3.535533905916160e+00	 9.899494936479996e-01	 4.933963269971797e-01
 3.676955262144000e+00	 8.485281374079995e-01	 5.299009609965637e-01
 1.979898987335499e+00	 1.979898987335499e+00	 1.184986615602808e-01
 2.121320343574835e+00	 1.838477631095500e+00	 1.607576563176353e-01
 2.262741699812840e+00	 1.697056274855500e+00	 2.025271322914950e-01
 2.404163056049515e+00	 1.555634918615500e+00	 2.438070894818435e-01
 2.545584412284859e+00	 1.414213562375499e+00	 2.845975278886665e-01
 2.687005768518874e+00	 1.272792206135499e+00	 3.248984475119426e-01
 2.828427124751559e+00	 1.131370849895499e+00	 3.647098483516615e-01
 2.969848480982914e+00	 9.899494936554994e-01	 4.034435495840092e-01
 3.111269837212939e+00	 8.485281374154995e-01	 4.393761105644429e-01
 3.252691193441634e+00	 7.071067811754993e-01	 4.747737774558903e-01
 3.394112549668999e+00	 5.656854249354992e-01	 5.096284561711785e-01
 1.697056274861999e+00	 1.697056274861999e+00	 1.116639803419152e-01
 1.838477631101339e+00	 1.555634918621999e+00	 1.510377813654355e-01
 1.979898987339359e+00	 1.414213562381999e+00	 1.900115348950326e-01
 2.121320343576059e+00	 1.272792206141999e+00	 2.285852409306877e-01
 2.262741699811439e+00	 1.131370849901999e+00	 2.667588994723775e-01
 2.404163056045499e+00	 9.899494936619991e-01	 3.045325105200776e-01
 2.545584412278239e+00	 8.485281374219991e-01	 3.419060740737691e-01
 2.687005768509659e+00	 7.071067811819991e-01	 3.788795901334239e-01
 2.828427124739759e+00	 5.656854249419991e-01	 4.154530586990250e-01
 2.969848480968539e+00	 4.242640687019993e-01	 4.511263680532731e-01
 3.111269837195999e+00	 2.828427124619991e-01	 4.844306133050003e-01
 1.414213562387499e+00	 1.414213562387499e+00	 1.007602588554645e-01
 1.555634918626874e+00	 1.272792206147499e+00	 1.373375958496296e-01
 1.697056274864999e+00	 1.131370849907499e+00	 1.736043566394260e-01
 1.838477631101874e+00	 9.899494936674987e-01	 2.095605412248271e-01
 1.979898987337499e+00	 8.485281374274989e-01	 2.452061496058022e-01
 2.121320343571873e+00	 7.071067811874989e-01	 2.805411817823195e-01
 2.262741699804999e+00	 5.656854249474987e-01	 3.155656377543528e-01
 2.404163056036874e+00	 4.242640687074988e-01	 3.502795175218698e-01
 2.545584412267499e+00	 2.828427124674988e-01	 3.846828210848424e-01
 2.687005768496874e+00	 1.414213562274989e-01	 4.187755484432362e-01
 2.828427124724999e+00	-1.250122227958173e-11	 4.525576995970196e-01
 1.131370849911999e+00	 1.131370849911999e+00	 8.578749710081995e-02
 1.272792206151439e+00	 9.899494936719987e-01	 1.196570997700576e-01
 1.414213562389759e+00	 8.485281374319987e-01	 1.533055975244545e-01
 1.555634918626958e+00	 7.071067811919984e-01	 1.867329903639837e-01
 1.697056274863038e+00	 5.656854249519985e-01	 2.199392782886049e-01
 1.838477631097999e+00	 4.242640687119985e-01	 2.529244612982774e-01
 1.979898987331838e+00	 2.828427124719985e-01	 2.856885393929646e-01
 2.121320343564558e+00	 1.414213562319985e-01	 3.182315125726274e-01
 2.262741699796158e+00	-8.001432849624734e-12	 3.505533808372276e-01
 2.404163056026638e+00	-1.414213562480014e-01	 3.826541441867264e-01
 2.545584412255999e+00	-2.828427124880016e-01	 4.145338026210830e-01
 8.485281374354983e-01	 8.485281374354983e-01	 6.674569507786984e-02
 9.899494936750332e-01	 7.071067811954983e-01	 9.799629312655456e-02
 1.131370849913638e+00	 5.656854249554983e-01	 1.291152575499132e-01
 1.272792206151313e+00	 4.242640687154982e-01	 1.601025883479029e-01
 1.414213562388058e+00	 2.828427124754982e-01	 1.909582855204752e-01
 1.555634918623873e+00	 1.414213562354982e-01	 2.216823490675825e-01
 1.697056274858758e+00	-4.501760075825700e-12	 2.522747789891773e-01
 1.838477631092713e+00	-1.414213562445017e-01	 2.827355752852143e-01
 1.979898987325738e+00	-2.828427124845017e-01	 3.130647379556408e-01
 2.121320343557833e+00	-4.242640687245017e-01	 3.432622670004127e-01
 2.262741699788998e+00	-5.656854249645018e-01	 3.733281624194814e-01
 5.656854249579980e-01	 5.656854249579980e-01	 4.363485278649742e-02
 7.071067811976580e-01	 4.242640687179980e-01	 7.235517591896767e-02
 8.485281374366381e-01	 2.828427124779981e-01	 1.010333367155992e-01
 9.899494936749381e-01	 1.414213562379980e-01	 1.296693351763342e-01
 1.131370849912558e+00	-2.001981913579698e-12	 1.582631713011176e-01
 1.272792206149498e+00	-1.414213562420021e-01	 1.868148450898895e-01
 1.414213562385758e+00	-2.828427124820019e-01	 2.153243565425935e-01
 1.555634918621338e+00	-4.242640687220020e-01	 2.437917056591715e-01
 1.697056274856238e+00	-5.656854249620019e-01	 2.722168924395671e-01
 1.838477631090458e+00	-7.071067812020018e-01	 3.005999168837225e-01
 1.979898987323998e+00	-8.485281374420021e-01	 3.289407789915790e-01
 2.828427124794977e-01	 2.828427124794977e-01	 1.645497022659611e-02
 4.242640687193128e-01	 1.414213562394977e-01	 4.273374814714888e-02
 5.656854249587578e-01	-5.022510185526130e-13	 6.905983502132144e-02
 7.071067811978328e-01	-1.414213562405023e-01	 9.543323084904817e-02
 8.485281374365378e-01	-2.828427124805023e-01	 1.218539356302541e-01
 9.899494936748727e-01	-4.242640687205023e-01	 1.483219493648760e-01
 1.131370849912838e+00	-5.656854249605021e-01	 1.748372720528408e-01
 1.272792206150433e+00	-7.071067812005022e-01	 2.013999036940826e-01
 1.414213562387657e+00	-8.485281374405022e-01	 2.280098442885327e-01
 1.555634918624513e+00	-9.899494936805021e-01	 2.546670938361257e-01
 1.697056274860998e+00	-1.131370849920502e+00	 2.813716523367897e-01
 0.000000000000000e+00	 0.000000000000000e+00	-1.479395260194613e-02
 1.414213562400000e-01	-1.414213562400000e-01	 9.132009810953259e-03
 2.828427124800000e-01	-2.828427124800000e-01	 3.319475246690666e-02
 4.242640687200001e-01	-4.242640687200001e-01	 5.739427536582381e-02
 5.656854249600001e-01	-5.656854249600001e-01	 8.173057850763035e-02
 7.071067812000000e-01	-7.071067812000000e-01	 1.062036618922411e-01
 8.485281374400000e-01	-8.485281374400000e-01	 1.308135255195756e-01
 9.899494936800000e-01	-9.899494936800000e-01	 1.555601693895541e-01
 1.131370849920000e+00	-1.131370849920000e+00	 1.804435935020939e-01
 1.272792206160000e+00	-1.272792206160000e+00	 2.054637978571236e-01
 1.414213562400000e+00	-1.414213562400000e+00	 2.306207824545573e-01
 1.414213562370000e+01	 1.414213562370000e+01	 1.160759118057596e+00
 1.428355697994000e+01	 1.400071426746100e+01	 1.161748778550213e+00
 1.442497833618000e+01	 1.385929291122400e+01	 1.162036217635338e+00
 1.456639969242000e+01	 1.371787155498900e+01	 1.161616322478720e+00
 1.470782104866000e+01	 1.357645019875600e+01	 1.160488883766474e+00
 1.484924240490000e+01	 1.343502884252500e+01	 1.159041413950149e+00
 1.499066376114000e+01	 1.329360748629600e+01	 1.156965848399893e+00
 1.513208511738000e+01	 1.315218613006900e+01	 1.154266475524701e+00
 1.527350647362000e+01	 1.301076477384400e+01	 1.150947583751120e+00
 1.541492782986000e+01	 1.286934341762100e+01	 1.147013461523238e+00
 1.555634918610000e+01	 1.272792206140000e+01	 1.142468397302699e+00
 1.385929291123900e+01	 1.385929291123900e+01	 1.178699234060409e+00
 1.400071426747549e+01	 1.371787155499981e+01	 1.179763421062153e+00
 1.414213562371234e+01	 1.357645019876224e+01	 1.180149404336109e+00
 1.428355697994956e+01	 1.343502884252629e+01	 1.179852070960543e+00
 1.442497833618716e+01	 1.329360748629196e+01	 1.178866308032668e+00
 1.456639969242513e+01	 1.315218613005925e+01	 1.177187002668646e+00
 1.470782104866346e+01	 1.301076477382816e+01	 1.174809357191842e+00
 1.484924240490216e+01	 1.286934341759869e+01	 1.171795040054016e+00
 1.499066376114124e+01	 1.272792206137084e+01	 1.168165790453616e+00
 1.513208511738069e+01	 1.258650070514461e+01	 1.163925896764671e+00
 1.527350647362050e+01	 1.244507934892000e+01	 1.159079647378759e+00
 1.357645019877600e+01	 1.357645019877600e+01	 1.195330997985165e+00
 1.371787155500954e+01	 1.343502884253664e+01	 1.196399842380639e+00
 1.385929291124376e+01	 1.329360748629856e+01	 1.196814500819386e+00
 1.400071426747866e+01	 1.315218613006176e+01	 1.196569860292185e+00
 1.414213562371424e+01	 1.301076477382624e+01	 1.195660807808766e+00
 1.428355697995050e+01	 1.286934341759200e+01	 1.194082230397806e+00
 1.442497833618744e+01	 1.272792206135904e+01	 1.191829015106931e+00
 1.456639969242506e+01	 1.258650070512736e+01	 1.188896049002717e+00
 1.470782104866336e+01	 1.244507934889696e+01	 1.185273224169188e+00
 1.484924240490234e+01	 1.230365799266784e+01	 1.180645150355105e+00
 1.499066376114200e+01	 1.216223663644000e+01	 1.175415307209774e+00
 1.329360748631100e+01	 1.329360748631100e+01	 1.210524034026140e+00
 1.343502884254216e+01	 1.315218613007149e+01	 1.211527667050090e+00
 1.357645019877426e+01	 1.301076477383296e+01	 1.211901131979731e+00
 1.371787155500728e+01	 1.286934341759541e+01	 1.211639315718354e+00
 1.385929291124124e+01	 1.272792206135884e+01	 1.210737105188203e+00
 1.400071426747613e+01	 1.258650070512325e+01	 1.209189387330463e+00
 1.414213562371194e+01	 1.244507934888864e+01	 1.206991049105281e+00
 1.428355697994868e+01	 1.230365799265501e+01	 1.204136977491742e+00
 1.442497833618636e+01	 1.216223663642236e+01	 1.200622059487891e+00
 1.456639969242497e+01	 1.202081528019069e+01	 1.196441182110717e+00
 1.470782104866450e+01	 1.187939392396000e+01	 1.191578205328315e+00
 1.301076477384400e+01	 1.301076477384400e+01	 1.224147963880405e+00
 1.315218613007336e+01	 1.286934341760436e+01	 1.225016517117738e+00
 1.329360748630384e+01	 1.272792206136544e+01	 1.225278920214536e+00
 1.343502884253544e+01	 1.258650070512724e+01	 1.224930059986598e+00
 1.357645019876816e+01	 1.244507934888976e+01	 1.223964823268679e+00
 1.371787155500200e+01	 1.230365799265300e+01	 1.222378096914478e+00
 1.385929291123696e+01	 1.216223663641696e+01	 1.220164767796648e+00
 1.400071426747304e+01	 1.202081528018164e+01	 1.217319722806793e+00
 1.414213562371024e+01	 1.187939392394704e+01	 1.213837848855468e+00
 1.428355697994856e+01	 1.173797256771316e+01	 1.209714032872177e+00
 1.442497833618800e+01	 1.159655121148000e+01	 1.204943161805379e+00
 1.272792206137500e+01	 1.272792206137500e+01	 1.236072406747758e+00
 1.286934341760313e+01	 1.258650070513525e+01	 1.236736012133553e+00
 1.301076477383250e+01	 1.244507934889600e+01	 1.236817485423941e+00
 1.315218613006313e+01	 1.230365799265725e+01	 1.236311713347230e+00
 1.329360748629500e+01	 1.216223663641900e+01	 1.235213582650679e+00
 1.343502884252813e+01	 1.202081528018125e+01	 1.233517980100499e+00
 1.357645019876250e+01	 1.187939392394400e+01	 1.231219792481852e+00
 1.371787155499813e+01	 1.173797256770725e+01	 1.228313906598853e+00
 1.385929291123500e+01	 1.159655121147100e+01	 1.224795209274567e+00
 1.400071426747312e+01	 1.145512985523525e+01	 1.220658587351014e+00
 1.414213562371250e+01	 1.131370849900000e+01	 1.215898927689161e+00
 1.244507934890400e+01	 1.244507934890400e+01	 1.246166979330650e+00
 1.258650070513146e+01	 1.230365799266416e+01	 1.246555769150173e+00
 1.272792206136024e+01	 1.216223663642464e+01	 1.246386445010771e+00
 1.286934341759034e+01	 1.202081528018544e+01	 1.245653893553256e+00
 1.301076477382176e+01	 1.187939392394656e+01	 1.244353001437393e+00
 1.315218613005450e+01	 1.173797256770800e+01	 1.242478655341898e+00
 1.329360748628856e+01	 1.159655121146976e+01	 1.240025741964444e+00
 1.343502884252394e+01	 1.145512985523184e+01	 1.236989148021651e+00
 1.357645019876064e+01	 1.131370849899424e+01	 1.233363760249095e+00
 1.371787155499866e+01	 1.117228714275696e+01	 1.229144465401305e+00
 1.385929291123800e+01	 1.103086578652000e+01	 1.224326150251762e+00
 1.216223663643100e+01	 1.216223663643100e+01	 1.254301295834110e+00
 1.230365799265836e+01	 1.202081528019109e+01	 1.254345402722829e+00
 1.244507934888706e+01	 1.187939392395136e+01	 1.253855413880457e+00
 1.258650070511709e+01	 1.173797256771181e+01	 1.252826215860305e+00
 1.272792206134844e+01	 1.159655121147244e+01	 1.251252695234644e+00
 1.286934341758112e+01	 1.145512985523325e+01	 1.249129738594696e+00
 1.301076477381514e+01	 1.131370849899424e+01	 1.246452232550634e+00
 1.315218613005048e+01	 1.117228714275541e+01	 1.243215063731588e+00
 1.329360748628716e+01	 1.103086578651676e+01	 1.239413118785641e+00
 1.343502884252517e+01	 1.088944443027829e+01	 1.235041284379828e+00
 1.357645019876450e+01	 1.074802307404000e+01	 1.230094447200141e+00
 1.187939392395600e+01	 1.187939392395600e+01	 1.260344967965677e+00
 1.202081528018384e+01	 1.173797256771604e+01	 1.259974524909275e+00
 1.216223663641296e+01	 1.159655121147616e+01	 1.259094004440963e+00
 1.230365799264336e+01	 1.145512985523636e+01	 1.257698293026555e+00
 1.244507934887504e+01	 1.131370849899664e+01	 1.255782277150819e+00
 1.258650070510800e+01	 1.117228714275700e+01	 1.253340843317481e+00
 1.272792206134224e+01	 1.103086578651744e+01	 1.250368878049218e+00
 1.286934341757776e+01	 1.088944443027796e+01	 1.246861267887662e+00
 1.301076477381456e+01	 1.074802307403856e+01	 1.242812899393402e+00
 1.315218613005264e+01	 1.060660171779924e+01	 1.238218659145979e+00
 1.329360748629200e+01	 1.046518036156000e+01	 1.233073433743891e+00
 1.159655121147900e+01	 1.159655121147900e+01	 1.264167604935316e+00
 1.173797256770789e+01	 1.145512985523901e+01	 1.263312745269708e+00
 1.187939392393794e+01	 1.131370849899904e+01	 1.261971826602717e+00
 1.202081528016917e+01	 1.117228714275909e+01	 1.260139735312654e+00
 1.216223663640156e+01	 1.103086578651916e+01	 1.257811357796791e+00
 1.230365799263513e+01	 1.088944443027925e+01	 1.254981580471347e+00
 1.244507934886986e+01	 1.074802307403936e+01	 1.251645289771504e+00
 1.258650070510576e+01	 1.060660171779949e+01	 1.247797372151396e+00
 1.272792206134284e+01	 1.046518036155964e+01	 1.243432714084112e+00
 1.286934341758109e+01	 1.032375900531981e+01	 1.238356534780034e+00
 1.301076477382050e+01	 1.018233764908000e+01	 1.231614794199694e+00
 1.131370849900000e+01	 1.131370849900000e+01	 1.265638813455359e+00
 1.145512985523050e+01	 1.117228714276000e+01	 1.264229670866701e+00
 1.159655121146200e+01	 1.103086578652000e+01	 1.262358487778532e+00
 1.173797256769450e+01	 1.088944443028000e+01	 1.260020150481657e+00
 1.187939392392800e+01	 1.074802307404000e+01	 1.257209545285844e+00
 1.202081528016250e+01	 1.060660171780000e+01	 1.253921558519812e+00
 1.216223663639800e+01	 1.046518036156000e+01	 1.250151076531241e+00
 1.230365799263450e+01	 1.032375900532000e+01	 1.245706205134400e+00
 1.244507934887200e+01	 1.018233764908000e+01	 1.239615509109635e+00
 1.258650070511050e+01	 1.004091629284000e+01	 1.232938991173968e+00
 1.272792206135000e+01	 9.899494936600000e+00	 1.225684391790465e+00
 1.131370849900000e+01	 1.131370849900000e+01	 1.265638813455359e+00
 1.145512985523050e+01	 1.117228714276000e+01	 1.264229670866701e+00
 1.159655121146200e+01	 1.103086578652000e+01	 1.262358487778532e+00
 1.173797256769450e+01	 1.088944443028000e+01	 1.260020150481657e+00
 1.187939392392800e+01	 1.074802307404000e+01	 1.257209545285844e+00
 1.202081528016250e+01	 1.060660171780000e+01	 1.253921558519812e+00
 1.216223663639800e+01	 1.046518036156000e+01	 1.250151076531241e+00
 1.230365799263450e+01	 1.032375900532000e+01	 1.245706205134400e+00
 1.244507934887200e+01	 1.018233764908000e+01	 1.239615509109635e+00
 1.258650070511050e+01	 1.004091629284000e+01	 1.232938991173968e+00
 1.272792206135000e+01	 9.899494936600000e+00	 1.225684391790465e+00
 1.103086578652000e+01	 1.103086578652000e+01	 1.287445528110787e+00
 1.117228714275230e+01	 1.088944443028019e+01	 1.290944912874141e+00
 1.131370849898542e+01	 1.074802307404036e+01	 1.292919497415594e+00
 1.145512985521935e+01	 1.060660171780051e+01	 1.293364167938439e+00
 1.159655121145408e+01	 1.046518036156064e+01	 1.292273810664925e+00
 1.173797256768962e+01	 1.032375900532075e+01	 1.289481414615534e+00
 1.187939392392598e+01	 1.018233764908084e+01	 1.284105394555967e+00
 1.202081528016314e+01	 1.004091629284091e+01	 1.277036070583152e+00
 1.216223663640112e+01	 9.899494936600961e+00	 1.268281183862024e+00
 1.230365799263990e+01	 9.758073580360987e+00	 1.257848475337680e+00
 1.244507934887950e+01	 9.616652224120999e+00	 1.245745685735389e+00
 1.074802307404000e+01	 1.074802307404000e+01	 1.313688149437522e+00
 1.088944443027392e+01	 1.060660171780076e+01	 1.321308467051208e+00
 1.103086578650848e+01	 1.046518036156144e+01	 1.326341224811950e+00
 1.117228714274368e+01	 1.032375900532204e+01	 1.328666292088195e+00
 1.131370849897952e+01	 1.018233764908256e+01	 1.327599181426619e+00
 1.145512985521600e+01	 1.004091629284300e+01	 1.323731283179108e+00
 1.159655121145312e+01	 9.899494936603361e+00	 1.317070339212493e+00
 1.173797256769088e+01	 9.758073580363639e+00	 1.307624091173747e+00
 1.187939392392928e+01	 9.616652224123840e+00	 1.295400280490006e+00
 1.202081528016832e+01	 9.475230867883960e+00	 1.280406648368566e+00
 1.216223663640800e+01	 9.333809511643999e+00	 1.262650935796892e+00
 1.046518036156000e+01	 1.046518036156000e+01	 1.344236276654347e+00
 1.060660171779534e+01	 1.032375900532171e+01	 1.355143794374321e+00
 1.074802307403118e+01	 1.018233764908324e+01	 1.361979828853136e+00
 1.088944443026751e+01	 1.004091629284459e+01	 1.364907590402952e+00
 1.103086578650432e+01	 9.899494936605757e+00	 1.363934821592514e+00
 1.117228714274163e+01	 9.758073580366750e+00	 1.359069264770700e+00
 1.131370849897942e+01	 9.616652224127559e+00	 1.350318662066534e+00
 1.145512985521770e+01	 9.475230867888190e+00	 1.337690755389190e+00
 1.159655121145648e+01	 9.333809511648639e+00	 1.321193286427996e+00
 1.173797256769575e+01	 9.192388155408912e+00	 1.300833996652445e+00
 1.187939392393550e+01	 9.050966799169000e+00	 1.276620627312204e+00
 1.018233764908000e+01	 1.018233764908000e+01	 1.379130295962745e+00
 1.032375900531658e+01	 1.004091629284304e+01	 1.392447953691582e+00
 1.046518036155352e+01	 9.899494936605759e+00	 1.400757594748618e+00
 1.060660171779082e+01	 9.758073580368158e+00	 1.404066962184657e+00
 1.074802307402848e+01	 9.616652224130238e+00	 1.402383798830635e+00
 1.088944443026650e+01	 9.475230867892000e+00	 1.395715847297627e+00
 1.103086578650488e+01	 9.333809511653440e+00	 1.384070849976850e+00
 1.117228714274362e+01	 9.192388155414559e+00	 1.367456549039670e+00
 1.131370849898272e+01	 9.050966799175360e+00	 1.345880686437616e+00
 1.145512985522218e+01	 8.909545442935839e+00	 1.319351003902376e+00
 1.159655121146200e+01	 8.768124086695998e+00	 1.287875242945813e+00
 9.899494936599998e+00	 9.899494936599998e+00	 1.419421622423054e+00
 1.004091629283763e+01	 9.758073580364750e+00	 1.434500149467584e+00
 1.018233764907550e+01	 9.616652224129000e+00	 1.443478659143944e+00
 1.032375900531362e+01	 9.475230867892748e+00	 1.446364894765132e+00
 1.046518036155200e+01	 9.333809511655998e+00	 1.443166599424277e+00
 1.060660171779062e+01	 9.192388155418749e+00	 1.433891515994644e+00
 1.074802307402950e+01	 9.050966799180999e+00	 1.418547387129649e+00
 1.088944443026863e+01	 8.909545442942749e+00	 1.397141955262855e+00
 1.103086578650800e+01	 8.768124086703999e+00	 1.369682962607987e+00
 1.117228714274762e+01	 8.626702730464748e+00	 1.336178151158937e+00
 1.131370849898750e+01	 8.485281374224998e+00	 1.296635262689765e+00
 9.616652224119999e+00	 9.616652224119999e+00	 1.465486211363839e+00
 9.758073580358481e+00	 9.475230867886840e+00	 1.481520868458853e+00
 9.899494936597119e+00	 9.333809511652960e+00	 1.490363507747138e+00
 1.004091629283592e+01	 9.192388155418358e+00	 1.492021872803890e+00
 1.018233764907488e+01	 9.050966799183037e+00	 1.486503706984430e+00
 1.032375900531400e+01	 8.909545442947000e+00	 1.473816753424220e+00
 1.046518036155328e+01	 8.768124086710237e+00	 1.453968755038876e+00
 1.060660171779272e+01	 8.626702730472758e+00	 1.426967454524164e+00
 1.074802307403232e+01	 8.485281374234559e+00	 1.392820594356009e+00
 1.088944443027208e+01	 8.343860017995636e+00	 1.351535916790508e+00
 1.103086578651200e+01	 8.202438661755998e+00	 1.303121163863933e+00
 9.333809511639998e+00	 9.333809511639998e+00	 1.517544547918052e+00
 9.475230867879143e+00	 9.192388155409304e+00	 1.533730594749858e+00
 9.616652224118379e+00	 9.050966799177640e+00	 1.541632623594180e+00
 9.758073580357703e+00	 8.909545442944987e+00	 1.541258378288409e+00
 9.899494936597119e+00	 8.768124086711358e+00	 1.532615602450067e+00
 1.004091629283662e+01	 8.626702730476747e+00	 1.515712039476823e+00
 1.018233764907622e+01	 8.485281374241158e+00	 1.490555432546495e+00
 1.032375900531590e+01	 8.343860018004589e+00	 1.457153524617055e+00
 1.046518036155568e+01	 8.202438661767037e+00	 1.415514058426643e+00
 1.060660171779554e+01	 8.061017305528509e+00	 1.365644776493564e+00
 1.074802307403550e+01	 7.919595949288997e+00	 1.307553421116308e+00
 9.050966799159998e+00	 9.050966799159998e+00	 1.575817114546865e+00
 9.192388155399620e+00	 8.909545442932160e+00	 1.591349809753297e+00
 9.333809511639279e+00	 8.768124086703040e+00	 1.597506487049281e+00
 9.475230867878979e+00	 8.626702730472640e+00	 1.594294890534417e+00
 9.616652224118720e+00	 8.485281374240959e+00	 1.581722764088433e+00
 9.758073580358500e+00	 8.343860018008000e+00	 1.559797851371209e+00
 9.899494936598318e+00	 8.202438661773758e+00	 1.528527895822774e+00
 1.004091629283818e+01	 8.061017305538238e+00	 1.487920640663321e+00
 1.018233764907808e+01	 7.919595949301437e+00	 1.437983828893204e+00
 1.032375900531802e+01	 7.778174593063357e+00	 1.378725203292955e+00
 1.046518036155800e+01	 7.636753236823998e+00	 1.310152506423284e+00
 8.768124086679997e+00	 8.768124086679997e+00	 1.643381307843103e+00
 8.909545442919901e+00	 8.626702730455387e+00	 1.654598992210375e+00
 9.050966799159818e+00	 8.485281374229158e+00	 1.658205575805182e+00
 9.192388155399742e+00	 8.343860018001306e+00	 1.651351886186179e+00
 9.333809511639679e+00	 8.202438661771838e+00	 1.634045667495317e+00
 9.475230867879624e+00	 8.061017305540748e+00	 1.606294663654696e+00
 9.616652224119576e+00	 7.919595949308038e+00	 1.568106618366568e+00
 9.758073580359541e+00	 7.778174593073707e+00	 1.519489275113351e+00
 9.899494936599517e+00	 7.636753236837757e+00	 1.460450377157635e+00
 1.004091629283950e+01	 7.495331880600188e+00	 1.390997667542181e+00
 1.018233764907950e+01	 7.353910524360998e+00	 1.311138889089937e+00
 8.485281374200000e+00	 8.485281374200000e+00	 1.730233113193794e+00
 8.626702730440000e+00	 8.343860017978999e+00	 1.734229350110856e+00
 8.768124086679999e+00	 8.202438661756000e+00	 1.726884992541899e+00
 8.909545442920001e+00	 8.061017305530999e+00	 1.712649839216783e+00
 9.050966799160001e+00	 7.919595949304000e+00	 1.689804785595351e+00
 9.192388155400000e+00	 7.778174593075001e+00	 1.655422948203460e+00
 9.333809511640000e+00	 7.636753236844000e+00	 1.609512071005604e+00
 9.475230867880001e+00	 7.495331880611000e+00	 1.552079897746439e+00
 9.616652224119999e+00	 7.353910524375999e+00	 1.483134171950797e+00
 9.758073580360000e+00	 7.212489168138999e+00	 1.402682636923690e+00
 9.899494936600000e+00	 7.071067811900000e+00	 1.310733035750318e+00
 7.071067811900000e+00	 4.242640687100000e+00	 1.685496226959712e+00
 7.707463914960500e+00	 3.606244584039500e+00	 1.617423820726961e+00
 8.343860018021999e+00	 2.969848480978000e+00	 1.531424698062529e+00
 8.980256121084500e+00	 2.333452377915500e+00	 1.449800780783976e+00
 9.616652224148000e+00	 1.697056274852000e+00	 1.395474147914310e+00
 1.025304832721250e+01	 1.060660171787500e+00	 1.348261657575891e+00
 1.088944443027800e+01	 4.242640687219998e-01	 1.310067654493652e+00
 1.152584053334450e+01	-2.121320343444999e-01	 1.282796415988254e+00
 1.216223663641200e+01	-8.485281374119996e-01	 1.268352155086174e+00
 1.279863273948050e+01	-1.484924240480500e+00	 1.268639020523061e+00
 1.343502884255000e+01	-2.121320343550000e+00	 1.285561096747101e+00
 6.788225099420000e+00	 3.959797974620500e+00	 1.541224138026947e+00
 7.424621202480596e+00	 3.323401871560000e+00	 1.493159662676089e+00
 8.061017305542180e+00	 2.687005768498499e+00	 1.423446342825086e+00
 8.697413408604755e+00	 2.050609665435999e+00	 1.356783985339317e+00
 9.333809511668321e+00	 1.414213562372500e+00	 1.314839413617749e+00
 9.970205614732876e+00	 7.778174593079999e-01	 1.282818817788072e+00
 1.060660171779842e+01	 1.414213562425000e-01	 1.257209059730167e+00
 1.124299782086496e+01	-4.949747468239997e-01	 1.239914434891488e+00
 1.187939392393248e+01	-1.131370849891500e+00	 1.232839174424160e+00
 1.251579002700099e+01	-1.767766952960000e+00	 1.237887445188353e+00
 1.315218613007050e+01	-2.404163056029501e+00	 1.256963349755637e+00
 6.505382386940000e+00	 3.676955262142000e+00	 1.408432692490958e+00
 7.141778490000879e+00	 3.040559159081500e+00	 1.371278997676203e+00
 7.778174593062719e+00	 2.404163056019999e+00	 1.324522647468974e+00
 8.414570696125521e+00	 1.767766952957500e+00	 1.278913575638282e+00
 9.050966799189281e+00	 1.131370849894000e+00	 1.242829083924329e+00
 9.687362902254002e+00	 4.949747468295002e-01	 1.224729393147416e+00
 1.032375900531968e+01	-1.414213562359999e-01	 1.210432889520972e+00
 1.096015510838632e+01	-7.778174593024999e-01	 1.201843886619472e+00
 1.159655121145392e+01	-1.414213562369999e+00	 1.200866633720933e+00
 1.223294731452248e+01	-2.050609665438500e+00	 1.209405315810277e+00
 1.286934341759200e+01	-2.687005768508000e+00	 1.229364053582695e+00
 6.222539674460000e+00	 3.394112549664499e+00	 1.284232552638282e+00
 6.858935777521355e+00	 2.757716446604000e+00	 1.259354989705501e+00
 7.495331880583620e+00	 2.121320343542501e+00	 1.234458594854499e+00
 8.131727983646796e+00	 1.484924240480000e+00	 1.208805794391339e+00
 8.768124086710881e+00	 8.485281374164997e-01	 1.181659014622080e+00
 9.404520189775875e+00	 2.121320343519999e-01	 1.174215564702904e+00
 1.004091629284178e+01	-4.242640687134999e-01	 1.169961321333564e+00
 1.067731239590860e+01	-1.060660171780000e+00	 1.168806945058286e+00
 1.131370849897632e+01	-1.697056274847499e+00	 1.172656703281210e+00
 1.195010460204495e+01	-2.333452377915999e+00	 1.183414799112246e+00
 1.258650070511450e+01	-2.969848480985501e+00	 1.202985371370444e+00
 5.939696961980000e+00	 3.111269837188000e+00	 1.159403559499701e+00
 6.576093065042018e+00	 2.474873734127500e+00	 1.157192621624286e+00
 7.212489168104880e+00	 1.838477631066000e+00	 1.153059167841954e+00
 7.848885271168579e+00	 1.202081528003500e+00	 1.146265624458789e+00
 8.485281374233120e+00	 5.656854249399996e-01	 1.136074417780866e+00
 9.121677477298501e+00	-7.071067812450015e-02	 1.131499517361154e+00
 9.758073580364721e+00	-7.071067811900000e-01	 1.136016536492967e+00
 1.039446968343178e+01	-1.343502884256500e+00	 1.141025787951411e+00
 1.103086578649968e+01	-1.979898987324000e+00	 1.148431557266989e+00
 1.166726188956842e+01	-2.616295090392499e+00	 1.160138065674839e+00
 1.230365799263800e+01	-3.252691193462000e+00	 1.178049470118106e+00
 5.656854249500000e+00	 2.828427124712500e+00	 1.045238203398470e+00
 6.293250352562875e+00	 2.192031021652001e+00	 1.064596876292848e+00
 6.929646455626501e+00	 1.555634918590500e+00	 1.080129349291633e+00
 7.566042558690875e+00	 9.192388155280002e-01	 1.091098048700921e+00
 8.202438661756002e+00	 2.828427124644999e-01	 1.096765400826800e+00
 8.838834764821874e+00	-3.535533906000000e-01	 1.096803439798975e+00
 9.475230867888500e+00	-9.899494936654998e-01	 1.108820720181825e+00
 1.011162697095587e+01	-1.626345596732000e+00	 1.118722596899834e+00
 1.074802307402400e+01	-2.262741699799499e+00	 1.128413373697658e+00
 1.138441917709287e+01	-2.899137802867999e+00	 1.139797289935902e+00
 1.202081528016250e+01	-3.535533905937500e+00	 1.160034455002400e+00
 5.374011537019999e+00	 2.545584412238000e+00	 9.415414671948714e-01
 6.010407640083920e+00	 1.909188309177500e+00	 9.813727365714749e-01
 6.646803743148480e+00	 1.272792206116000e+00	 1.015474122063829e+00
 7.283199846213680e+00	 6.363961030534997e-01	 1.043108049978031e+00
 7.919595949279521e+00	-1.000022287200864e-11	 1.063536946620179e+00
 8.555992052346001e+00	-6.363961030744998e-01	 1.076023238296369e+00
 9.192388155413118e+00	-1.272792206140000e+00	 1.088596061440520e+00
 9.828784258480880e+00	-1.909188309206499e+00	 1.102119557362152e+00
 1.046518036154928e+01	-2.545584412273999e+00	 1.112824334450095e+00
 1.110157646461832e+01	-3.181980515342499e+00	 1.122614650190652e+00
 1.173797256768800e+01	-3.818376618412000e+00	 1.155160544674308e+00
 5.091168824540000e+00	 2.262741699764500e+00	 8.481183337491797e-01
 5.727564927605155e+00	 1.626345596704000e+00	 9.073251853204483e-01
 6.363961030670820e+00	 9.899494936425000e-01	 9.588984690188258e-01
 7.000357133736996e+00	 3.535533905800000e-01	 1.002100611150409e+00
 7.636753236803681e+00	-2.828427124835001e-01	 1.036194038021297e+00
 8.273149339870875e+00	-9.192388155480000e-01	 1.060441175937590e+00
 8.909545442938581e+00	-1.555634918613499e+00	 1.075564749488349e+00
 9.545941546006794e+00	-2.192031021680000e+00	 1.091438858654681e+00
 1.018233764907552e+01	-2.828427124747499e+00	 1.101886625258774e+00
 1.081873375214475e+01	-3.464823227815999e+00	 1.109705596728485e+00
 1.145512985521450e+01	-4.101219330885500e+00	 1.151203699968740e+00
 4.808326112060000e+00	 1.979898987292001e+00	 7.647737859216635e-01
 5.444722215126579e+00	 1.343502884231500e+00	 8.422592054000443e-01
 6.081118318193520e+00	 7.071067811700003e-01	 9.102073730169078e-01
 6.717514421260820e+00	 7.071067810750016e-02	 9.678807150783444e-01
 7.353910524328480e+00	-5.656854249559997e-01	 1.014541657890446e+00
 7.990306627396500e+00	-1.202081528020500e+00	 1.049452627759316e+00
 8.626702730464880e+00	-1.838477631085999e+00	 1.071876050991062e+00
 9.263098833533620e+00	-2.474873734152499e+00	 1.086902693951554e+00
 9.899494936602720e+00	-3.111269837219999e+00	 1.095822435715867e+00
 1.053589103967218e+01	-3.747665940288499e+00	 1.113671182957325e+00
 1.117228714274200e+01	-4.384062043358000e+00	 1.147883391297015e+00
 4.525483399580001e+00	 1.697056274820500e+00	 6.913128065725818e-01
 5.161879502648196e+00	 1.060660171760000e+00	 7.859797796705321e-01
 5.798275605716580e+00	 4.242640686985004e-01	 8.692058169183572e-01
 6.434671708785155e+00	-2.121320343639997e-01	 9.402533446221237e-01
 7.071067811853920e+00	-8.485281374274998e-01	 9.983847890879227e-01
 7.707463914922876e+00	-1.484924240492000e+00	 1.042862576621845e+00
 8.343860017992021e+00	-2.121320343557500e+00	 1.072949133530005e+00
 8.980256121061355e+00	-2.757716446623999e+00	 1.088733245234700e+00
 9.616652224130879e+00	-3.394112549691499e+00	 1.094853959271353e+00
 1.025304832720060e+01	-4.030508652759998e+00	 1.119032137223673e+00
 1.088944443027050e+01	-4.666904755829500e+00	 1.144919074731993e+00
 4.242640687100000e+00	 1.414213562350000e+00	 6.275403785621834e-01
 4.879036790170001e+00	 7.778174592895001e-01	 7.382918909921763e-01
 5.515432893240001e+00	 1.414213562280001e-01	 8.356987835834450e-01
 6.151828996310000e+00	-4.949747468345002e-01	 9.190234826420354e-01
 6.788225099380000e+00	-1.131370849898000e+00	 9.875284144740177e-01
 7.424621202449999e+00	-1.767766952962500e+00	 1.040476005385479e+00
 8.061017305520000e+00	-2.404163056028000e+00	 1.077128681682530e+00
 8.697413408590000e+00	-3.040559159094500e+00	 1.096748869671300e+00
 9.333809511660000e+00	-3.676955262161999e+00	 1.106811171871785e+00
 9.970205614729998e+00	-4.313351365230499e+00	 1.125507899238035e+00
 1.060660171780000e+01	-4.949747468300000e+00	 1.142030192007288e+00
 1.343502884255000e+01	-2.121320343550000e+00	 1.285561096747101e+00
 1.407142494561950e+01	-2.757716446619501e+00	 1.221802810748213e+00
 1.470782104868800e+01	-3.394112549688002e+00	 1.171642476825684e+00
 1.534421715175550e+01	-4.030508652755502e+00	 1.151159261811881e+00
 1.598061325482200e+01	-4.666904755822002e+00	 1.132209336217963e+00
 1.661700935788750e+01	-5.303300858887503e+00	 1.113652532280129e+00
 1.725340546095200e+01	-5.939696961952004e+00	 1.096704939332244e+00
 1.788980156401550e+01	-6.576093065015503e+00	 1.082582787434746e+00
 1.852619766707801e+01	-7.212489168078005e+00	 1.072502447392131e+00
 1.916259377013951e+01	-7.848885271139504e+00	 1.067680430770436e+00
 1.979898987320000e+01	-8.485281374200000e+00	 1.069333389914731e+00
 1.315218613007050e+01	-2.404163056029501e+00	 1.256963349755637e+00
 1.378858223314018e+01	-3.040559159099005e+00	 1.192334448656044e+00
 1.442497833620924e+01	-3.676955262167521e+00	 1.151746088434928e+00
 1.506137443927766e+01	-4.313351365235046e+00	 1.136317633586788e+00
 1.569777054234546e+01	-4.949747468301583e+00	 1.120042234420381e+00
 1.633416664541262e+01	-5.586143571367127e+00	 1.104055775984754e+00
 1.697056274847916e+01	-6.222539674431683e+00	 1.089574341630261e+00
 1.760695885154507e+01	-6.858935777495249e+00	 1.077814155433958e+00
 1.824335495461034e+01	-7.495331880557824e+00	 1.069991582217077e+00
 1.887975105767499e+01	-8.131727983619411e+00	 1.067323127562525e+00
 1.951614716073900e+01	-8.768124086680000e+00	 1.071025437832363e+00
 1.286934341759200e+01	-2.687005768508000e+00	 1.229364053582695e+00
 1.350573952066184e+01	-3.323401871577521e+00	 1.163805916829052e+00
 1.414213562373136e+01	-3.959797974646082e+00	 1.136862876149957e+00
 1.477853172680056e+01	-4.596194077713681e+00	 1.121733696425776e+00
 1.541492782986944e+01	-5.232590180780321e+00	 1.108119552029423e+00
 1.605132393293800e+01	-5.868986283846002e+00	 1.094690161335436e+00
 1.668772003600624e+01	-6.505382386910723e+00	 1.082661601710208e+00
 1.732411613907416e+01	-7.141778489974485e+00	 1.073250091246956e+00
 1.796051224214176e+01	-7.778174593037284e+00	 1.067671988783205e+00
 1.859690834520905e+01	-8.414570696099128e+00	 1.067143793918278e+00
 1.923330444827600e+01	-9.050966799159999e+00	 1.072882147030773e+00
 1.258650070511450e+01	-2.969848480985501e+00	 1.202985371370444e+00
 1.322289680818446e+01	-3.606244584055045e+00	 1.145596834116290e+00
 1.385929291125436e+01	-4.242640687123681e+00	 1.124364726523589e+00
 1.449568901432419e+01	-4.879036790191408e+00	 1.108345011606122e+00
 1.513208511739395e+01	-5.515432893258224e+00	 1.096513420144971e+00
 1.576848122046363e+01	-6.151828996324130e+00	 1.085627820614257e+00
 1.640487732353324e+01	-6.788225099389125e+00	 1.076038853036294e+00
 1.704127342660279e+01	-7.424621202453209e+00	 1.068962729520014e+00
 1.767766952967227e+01	-8.061017305516387e+00	 1.065615802918781e+00
 1.831406563274167e+01	-8.697413408578651e+00	 1.067214566847879e+00
 1.895046173581100e+01	-9.333809511640000e+00	 1.074975655702000e+00
 1.230365799263800e+01	-3.252691193462000e+00	 1.178049470118106e+00
 1.294005409570806e+01	-3.889087296531581e+00	 1.136379795862513e+00
 1.357645019877824e+01	-4.525483399600321e+00	 1.113971171361534e+00
 1.421284630184854e+01	-5.161879502668222e+00	 1.097265877633933e+00
 1.484924240491896e+01	-5.798275605735283e+00	 1.085295971609843e+00
 1.548563850798951e+01	-6.434671708801504e+00	 1.076940887846276e+00
 1.612203461106016e+01	-7.071067811866881e+00	 1.069778230815752e+00
 1.675843071413095e+01	-7.707463914931424e+00	 1.065024206642468e+00
 1.739482681720185e+01	-8.343860017995123e+00	 1.063895162195174e+00
 1.803122292027287e+01	-8.980256121057986e+00	 1.067607585104665e+00
 1.866761902334400e+01	-9.616652224120001e+00	 1.077378103781271e+00
 1.202081528016250e+01	-3.535533905937500e+00	 1.160034455002400e+00
 1.265721138323263e+01	-4.171930009007126e+00	 1.128813846677437e+00
 1.329360748630300e+01	-4.808326112076000e+00	 1.105401728134065e+00
 1.393000358937363e+01	-5.444722215144127e+00	 1.088183894047475e+00
 1.456639969244450e+01	-6.081118318211500e+00	 1.075546033169996e+00
 1.520279579551563e+01	-6.717514421278127e+00	 1.068701498799643e+00
 1.583919189858700e+01	-7.353910524344003e+00	 1.063951871998949e+00
 1.647558800165863e+01	-7.990306627409129e+00	 1.061506660746830e+00
 1.711198410473050e+01	-8.626702730473504e+00	 1.062582205926971e+00
 1.774838020780263e+01	-9.263098833537128e+00	 1.068394989185229e+00
 1.838477631087500e+01	-9.899494936600000e+00	 1.080161632947116e+00
 1.173797256768800e+01	-3.818376618412000e+00	 1.155160544674308e+00
 1.237436867075816e+01	-4.454772721481680e+00	 1.122618487670780e+00
 1.301076477382864e+01	-5.091168824550722e+00	 1.098375899975234e+00
 1.364716087689944e+01	-5.727564927619123e+00	 1.080818566005628e+00
 1.428355697997056e+01	-6.363961030686882e+00	 1.068332164256095e+00
 1.491995308304200e+01	-7.000357133754004e+00	 1.060981790985714e+00
 1.555634918611377e+01	-7.636753236820484e+00	 1.058631915279497e+00
 1.619274528918585e+01	-8.273149339886325e+00	 1.058482231708898e+00
 1.682914139225825e+01	-8.909545442951526e+00	 1.061749075172091e+00
 1.746553749533097e+01	-9.545941546016087e+00	 1.069648921329538e+00
 1.810193359840400e+01	-1.018233764908000e+01	 1.083398386621484e+00
 1.145512985521450e+01	-4.101219330885500e+00	 1.151203699968740e+00
 1.209152595828466e+01	-4.737615433955245e+00	 1.117513205615315e+00
 1.272792206135516e+01	-5.374011537024482e+00	 1.092613175682086e+00
 1.336431816442599e+01	-6.010407640093206e+00	 1.074889384330207e+00
 1.400071426749714e+01	-6.646803743161422e+00	 1.062727499796033e+00
 1.463711037056863e+01	-7.283199846229128e+00	 1.054513084377358e+00
 1.527350647364045e+01	-7.919595949296324e+00	 1.053890501094365e+00
 1.590990257671259e+01	-8.555992052363010e+00	 1.056023061147876e+00
 1.654629867978506e+01	-9.192388155429185e+00	 1.061467912731897e+00
 1.718269478285787e+01	-9.828784258494849e+00	 1.071441525521046e+00
 1.781909088593100e+01	-1.046518036156000e+01	 1.085081665749478e+00
 1.117228714274200e+01	-4.384062043358000e+00	 1.147883391297015e+00
 1.180868324581214e+01	-5.020458146427820e+00	 1.113217472946074e+00
 1.244507934888256e+01	-5.656854249497282e+00	 1.087833029713873e+00
 1.308147545195326e+01	-6.293250352566382e+00	 1.070115825505172e+00
 1.371787155502425e+01	-6.929646455635122e+00	 1.058451518298975e+00
 1.435426765809550e+01	-7.566042558703503e+00	 1.051225660134757e+00
 1.499066376116705e+01	-8.202438661771522e+00	 1.049799771624003e+00
 1.562705986423886e+01	-8.838834764839183e+00	 1.054201292426481e+00
 1.626345596731097e+01	-9.475230867906484e+00	 1.061810863151309e+00
 1.689985207038335e+01	-1.011162697097343e+01	 1.073844947486809e+00
 1.753624817345600e+01	-1.074802307404000e+01	 1.083854086559654e+00
 1.088944443027050e+01	-4.666904755829500e+00	 1.144919074731993e+00
 1.152584053334059e+01	-5.303300858899404e+00	 1.109450747759583e+00
 1.216223663641084e+01	-5.939696961969120e+00	 1.083754922191269e+00
 1.279863273948127e+01	-6.576093065038647e+00	 1.066217351675845e+00
 1.343502884255186e+01	-7.212489168107980e+00	 1.055223683935386e+00
 1.407142494562263e+01	-7.848885271177128e+00	 1.049159460751469e+00
 1.470782104869356e+01	-8.485281374246084e+00	 1.046431870792438e+00
 1.534421715176467e+01	-9.121677477314847e+00	 1.053089070651057e+00
 1.598061325483594e+01	-9.758073580383423e+00	 1.062850072718917e+00
 1.661700935790739e+01	-1.039446968345181e+01	 1.075603640339194e+00
 1.725340546097900e+01	-1.103086578652000e+01	 1.082175880046012e+00
 1.060660171780000e+01	-4.949747468300000e+00	 1.142030192007288e+00
 1.124299782087000e+01	-5.586143571370001e+00	 1.105932473813055e+00
 1.187939392394000e+01	-6.222539674440001e+00	 1.080098298895585e+00
 1.251579002701000e+01	-6.858935777510001e+00	 1.062913410648129e+00
 1.315218613008000e+01	-7.495331880580002e+00	 1.052763446536248e+00
 1.378858223315000e+01	-8.131727983650002e+00	 1.048033938084050e+00
 1.442497833622000e+01	-8.768124086720004e+00	 1.047110310860413e+00
 1.506137443929001e+01	-9.404520189790006e+00	 1.052758542671691e+00
 1.569777054236001e+01	-1.004091629286000e+01	 1.064657689467097e+00
 1.633416664543000e+01	-1.067731239593000e+01	 1.071104232419534e+00
 1.697056274850000e+01	-1.131370849900000e+01	 1.079984843936665e+00
 4.242640687100000e+00	 1.414213562350000e+00	 6.275403785621834e-01
 4.879036790170001e+00	 7.778174592895001e-01	 7.382918909921763e-01
 5.515432893240001e+00	 1.414213562280001e-01	 8.356987835834450e-01
 6.151828996310000e+00	-4.949747468345002e-01	 9.190234826420354e-01
 6.788225099380000e+00	-1.131370849898000e+00	 9.875284144740177e-01
 7.424621202449999e+00	-1.767766952962500e+00	 1.040476005385479e+00
 8.061017305520000e+00	-2.404163056028000e+00	 1.077128681682530e+00
 8.697413408590000e+00	-3.040559159094500e+00	 1.096748869671300e+00
 9.333809511660000e+00	-3.676955262161999e+00	 1.106811171871785e+00
 9.970205614729998e+00	-4.313351365230499e+00	 1.125507899238035e+00
 1.060660171780000e+01	-4.949747468300000e+00	 1.142030192007288e+00
 3.959797974621000e+00	 1.131370849879500e+00	 5.904366214863176e-01
 4.596194077692615e+00	 4.949747468189997e-01	 7.020595157594697e-01
 5.232590180764061e+00	-1.414213562425003e-01	 8.005566809496969e-01
 5.868986283835336e+00	-7.778174593050006e-01	 8.851905433630249e-01
 6.505382386906438e+00	-1.414213562368500e+00	 9.552235293055003e-01
 7.141778489977376e+00	-2.050609665433001e+00	 1.009918065083186e+00
 7.778174593048140e+00	-2.687005768498500e+00	 1.048536577002158e+00
 8.414570696118734e+00	-3.323401871564999e+00	 1.070341491368508e+00
 9.050966799189160e+00	-3.959797974632500e+00	 1.086444050051242e+00
 9.687362902259414e+00	-4.596194077700999e+00	 1.099360433091466e+00
 1.032375900532950e+01	-5.232590180770499e+00	 1.110465738734413e+00
 3.676955262144000e+00	 8.485281374079995e-01	 5.528032868052924e-01
 4.313351365216660e+00	 2.121320343474996e-01	 6.655342748322692e-01
 4.949747468289041e+00	-4.242640687140006e-01	 7.653584245320637e-01
 5.586143571361139e+00	-1.060660171776501e+00	 8.515381622106899e-01
 6.222539674432960e+00	-1.697056274840000e+00	 9.233359141741779e-01
 6.858935777504499e+00	-2.333452377904501e+00	 9.800141067285654e-01
 7.495331880575760e+00	-2.969848480970000e+00	 1.020835166179899e+00
 8.131727983646741e+00	-3.606244584036500e+00	 1.046659238238761e+00
 8.768124086717437e+00	-4.242640687103999e+00	 1.067612147026112e+00
 9.404520189787858e+00	-4.879036790172500e+00	 1.075942052210908e+00
 1.004091629285800e+01	-5.515432893242001e+00	 1.081924727063744e+00
 3.394112549668999e+00	 5.656854249354992e-01	 5.144453573795141e-01
 4.030508652742133e+00	-7.071067812500065e-02	 6.285211510709580e-01
 4.666904755814940e+00	-7.071067811865007e-01	 7.299089971909121e-01
 5.303300858887416e+00	-1.343502884249001e+00	 8.178713220453810e-01
 5.939696961959558e+00	-1.979898987312501e+00	 8.916705519403861e-01
 6.576093065031374e+00	-2.616295090377001e+00	 9.505691131819385e-01
 7.212489168102860e+00	-3.252691193442501e+00	 9.938294320760662e-01
 7.848885271174014e+00	-3.889087296509001e+00	 1.022536070625006e+00
 8.485281374244838e+00	-4.525483399576501e+00	 1.044688708817713e+00
 9.121677477315334e+00	-5.161879502645001e+00	 1.054972153284587e+00
 9.758073580385503e+00	-5.798275605714501e+00	 1.056126555706445e+00
 3.111269837195999e+00	 2.828427124619991e-01	 4.751678160693953e-01
 3.747665940269039e+00	-3.535533905985009e-01	 5.908251273359301e-01
 4.384062043341761e+00	-9.899494936600008e-01	 6.940133817866135e-01
 5.020458146414159e+00	-1.626345596722501e+00	 7.839950057274545e-01
 5.656854249486240e+00	-2.262741699786001e+00	 8.600324254644578e-01
 6.293250352558000e+00	-2.899137802850501e+00	 9.213880673036281e-01
 6.929646455629440e+00	-3.535533905916000e+00	 9.664654290645884e-01
 7.566042558700558e+00	-4.171930008982500e+00	 9.961113797827384e-01
 8.202438661771358e+00	-4.808326112050000e+00	 1.019695858238630e+00
 8.838834764841840e+00	-5.444722215118500e+00	 1.036170118658394e+00
 9.475230867912000e+00	-6.081118318188001e+00	 1.032790609031286e+00
 2.828427124724999e+00	-1.250122227958173e-11	 4.332209300746546e-01
 3.464823227797373e+00	-6.363961030730012e-01	 5.522511864875793e-01
 4.101219330869498e+00	-1.272792206134501e+00	 6.574765611795466e-01
 4.737615433941374e+00	-1.909188309197002e+00	 7.497141961172631e-01
 5.374011537012999e+00	-2.545584412260502e+00	 8.282265176067343e-01
 6.010407640084375e+00	-3.181980515325001e+00	 8.922759519539574e-01
 6.646803743155501e+00	-3.818376618390501e+00	 9.358215931079099e-01
 7.283199846226373e+00	-4.454772721457001e+00	 9.675938050313397e-01
 7.919595949296999e+00	-5.091168824524501e+00	 9.928422328168861e-01
 8.555992052367372e+00	-5.727564927593000e+00	 1.010898918485769e+00
 9.192388155437497e+00	-6.363961030662500e+00	 1.011636257063848e+00
 2.545584412255999e+00	-2.828427124880016e-01	 3.891287869698363e-01
 3.181980515327139e+00	-9.192388155485015e-01	 5.126043113863050e-01
 3.818376618398157e+00	-1.555634918610001e+00	 6.201035182300839e-01
 4.454772721469059e+00	-2.192031021672502e+00	 7.148338760751659e-01
 5.091168824539839e+00	-2.828427124736002e+00	 7.960578112275563e-01
 5.727564927610499e+00	-3.464823227800502e+00	 8.626126682518472e-01
 6.363961030681039e+00	-4.101219330866002e+00	 9.030613958623273e-01
 7.000357133751458e+00	-4.737615433932501e+00	 9.371919861779989e-01
 7.636753236821757e+00	-5.374011537000001e+00	 9.643364759347492e-01
 8.273149339891937e+00	-6.010407640068502e+00	 9.838268890505253e-01
 8.909545442961997e+00	-6.646803743138000e+00	 9.923828554857446e-01
 2.262741699788998e+00	-5.656854249645018e-01	 3.458606267978892e-01
 2.899137802858333e+00	-1.202081528025001e+00	 4.714282113568998e-01
 3.535533905927738e+00	-1.838477631086502e+00	 5.816992357986090e-01
 4.171930008997213e+00	-2.474873734149002e+00	 6.791590284615213e-01
 4.808326112066759e+00	-3.111269837212502e+00	 7.633312891872622e-01
 5.444722215136373e+00	-3.747665940277002e+00	 8.248919498181294e-01
 6.081118318206059e+00	-4.384062043342502e+00	 8.683934794426806e-01
 6.717514421275813e+00	-5.020458146409001e+00	 9.051145688841697e-01
 7.353910524345638e+00	-5.656854249476501e+00	 9.343872368289731e-01
 7.990306627415533e+00	-6.293250352545002e+00	 9.555434890911972e-01
 8.626702730485500e+00	-6.929646455614503e+00	 9.679153186135174e-01
 1.979898987323998e+00	-8.485281374420021e-01	 3.034164495587961e-01
 2.616295090390958e+00	-1.484924240502502e+00	 4.287341958282959e-01
 3.252691193458238e+00	-2.121320343564002e+00	 5.420686967455060e-01
 3.889087296525839e+00	-2.757716446626503e+00	 6.424946361366926e-01
 4.525483399593758e+00	-3.394112549690001e+00	 7.298519343461921e-01
 5.161879502661997e+00	-4.030508652754501e+00	 7.852400313787071e-01
 5.798275605730558e+00	-4.666904755820001e+00	 8.320264917894236e-01
 6.434671708799438e+00	-5.303300858886502e+00	 8.715702046658367e-01
 7.071067811868639e+00	-5.939696961954002e+00	 9.032031705910586e-01
 7.707463914938157e+00	-6.576093065022501e+00	 9.262573772747915e-01
 8.343860018007998e+00	-7.212489168092002e+00	 9.400647995541571e-01
 1.697056274860998e+00	-1.131370849920502e+00	 2.617962552525488e-01
 2.333452377925013e+00	-1.767766952981002e+00	 3.870523106201145e-01
 2.969848480989658e+00	-2.404163056042502e+00	 5.010168839311592e-01
 3.606244584054933e+00	-3.040559159105003e+00	 6.046456819610410e-01
 4.242640687120839e+00	-3.676955262168503e+00	 6.865249847453292e-01
 4.879036790187373e+00	-4.313351365233003e+00	 7.438655630996461e-01
 5.515432893254538e+00	-4.949747468298503e+00	 7.941690866975631e-01
 6.151828996322332e+00	-5.586143571365001e+00	 8.367675508937540e-01
 6.788225099390758e+00	-6.222539674432502e+00	 8.709929381674997e-01
 7.424621202459812e+00	-6.858935777501001e+00	 8.961772181235266e-01
 8.061017305529496e+00	-7.495331880570502e+00	 9.116523474928377e-01
 1.414213562400000e+00	-1.414213562400000e+00	 2.210000438791365e-01
 2.050609665460500e+00	-2.050609665460500e+00	 3.463825557323349e-01
 2.687005768522000e+00	-2.687005768522000e+00	 4.602899494985528e-01
 3.323401871584501e+00	-3.323401871584501e+00	 5.654171487949348e-01
 3.959797974648001e+00	-3.959797974648001e+00	 6.394251252558758e-01
 4.596194077712500e+00	-4.596194077712500e+00	 7.009772010547771e-01
 5.232590180777999e+00	-5.232590180777999e+00	 7.550299238169145e-01
 5.868986283844499e+00	-5.868986283844499e+00	 8.009152707937042e-01
 6.505382386912000e+00	-6.505382386912000e+00	 8.379652063600321e-01
 7.141778489980499e+00	-7.141778489980499e+00	 8.655116820150814e-01
 7.778174593050000e+00	-7.778174593050000e+00	 8.828866363831720e-01
 1.060660171780000e+01	-4.949747468300000e+00	 1.142030192007288e+00
 1.124299782087000e+01	-5.586143571370001e+00	 1.105932473813055e+00
 1.187939392394000e+01	-6.222539674440001e+00	 1.080098298895585e+00
 1.251579002701000e+01	-6.858935777510001e+00	 1.062913410648129e+00
 1.315218613008000e+01	-7.495331880580002e+00	 1.052763446536248e+00
 1.378858223315000e+01	-8.131727983650002e+00	 1.048033938084050e+00
 1.442497833622000e+01	-8.768124086720004e+00	 1.047110310860413e+00
 1.506137443929001e+01	-9.404520189790006e+00	 1.052758542671691e+00
 1.569777054236001e+01	-1.004091629286000e+01	 1.064657689467097e+00
 1.633416664543000e+01	-1.067731239593000e+01	 1.071104232419534e+00
 1.697056274850000e+01	-1.131370849900000e+01	 1.079984843936665e+00
 1.032375900532950e+01	-5.232590180770499e+00	 1.110465738734413e+00
 1.096015510839941e+01	-5.868986283840587e+00	 1.078887145791934e+00
 1.159655121146912e+01	-6.505382386910843e+00	 1.057591363141433e+00
 1.223294731453865e+01	-7.141778489981267e+00	 1.044964123920995e+00
 1.286934341760798e+01	-7.778174593051863e+00	 1.039391055340065e+00
 1.350573952067713e+01	-8.414570696122629e+00	 1.039257678665682e+00
 1.414213562374608e+01	-9.050966799193562e+00	 1.042949409208701e+00
 1.477853172681485e+01	-9.687362902264667e+00	 1.049732305301525e+00
 1.541492782988342e+01	-1.032375900533594e+01	 1.065429275324429e+00
 1.605132393295181e+01	-1.096015510840739e+01	 1.065212416881132e+00
 1.668772003602000e+01	-1.159655121147900e+01	 1.077272745503962e+00
 1.004091629285800e+01	-5.515432893242001e+00	 1.081924727063744e+00
 1.067731239592782e+01	-6.151828996312141e+00	 1.054698157824712e+00
 1.131370849899728e+01	-6.788225099382561e+00	 1.037773681481148e+00
 1.195010460206638e+01	-7.424621202453264e+00	 1.029537020916396e+00
 1.258650070513512e+01	-8.061017305524244e+00	 1.028373793084214e+00
 1.322289680820350e+01	-8.697413408595503e+00	 1.032669508995000e+00
 1.385929291127152e+01	-9.333809511667045e+00	 1.040809573702012e+00
 1.449568901433918e+01	-9.970205614738864e+00	 1.051179286287591e+00
 1.513208511740648e+01	-1.060660171781096e+01	 1.056686549845773e+00
 1.576848122047343e+01	-1.124299782088335e+01	 1.058989469389066e+00
 1.640487732354000e+01	-1.187939392395600e+01	 1.074031352881802e+00
 9.758073580385503e+00	-5.798275605714501e+00	 1.056126555706445e+00
 1.039446968345524e+01	-6.434671708784667e+00	 1.033084910645980e+00
 1.103086578652448e+01	-7.071067811855163e+00	 1.020364656673236e+00
 1.166726188959321e+01	-7.707463914925988e+00	 1.016351506417250e+00
 1.230365799266142e+01	-8.343860017997141e+00	 1.019431066576518e+00
 1.294005409572913e+01	-8.980256121068628e+00	 1.027988837905222e+00
 1.357645019879632e+01	-9.616652224140443e+00	 1.040410215199453e+00
 1.421284630186301e+01	-1.025304832721259e+01	 1.055080487283430e+00
 1.484924240492918e+01	-1.088944443028506e+01	 1.046937543260755e+00
 1.548563850799485e+01	-1.152584053335787e+01	 1.052373191749679e+00
 1.612203461106000e+01	-1.216223663643100e+01	 1.070198466382931e+00
 9.475230867912000e+00	-6.081118318188001e+00	 1.032790609031286e+00
 1.011162697098168e+01	-6.717514421258161e+00	 1.013766790647866e+00
 1.074802307405072e+01	-7.353910524328643e+00	 1.005083677133685e+00
 1.138441917711912e+01	-7.990306627399442e+00	 1.005126970863897e+00
 1.202081528018688e+01	-8.626702730470564e+00	 1.012282268282164e+00
 1.265721138325400e+01	-9.263098833542006e+00	 1.024935059886878e+00
 1.329360748632048e+01	-9.899494936613765e+00	 1.041470730217385e+00
 1.393000358938633e+01	-1.053589103968585e+01	 1.049129269349622e+00
 1.456639969245153e+01	-1.117228714275825e+01	 1.038505073343536e+00
 1.520279579551608e+01	-1.180868324583096e+01	 1.045301386630783e+00
 1.583919189858000e+01	-1.244507934890400e+01	 1.065711887181603e+00
 9.192388155437497e+00	-6.363961030662500e+00	 1.011636257063848e+00
 9.828784258507126e+00	-7.000357133732627e+00	 9.964631698792582e-01
 1.046518036157600e+01	-7.636753236803002e+00	 9.916501169351837e-01
 1.110157646464412e+01	-8.273149339873628e+00	 9.955827903533212e-01
 1.173797256771150e+01	-8.909545442944504e+00	 1.006646776322923e+00
 1.237436867077813e+01	-9.545941546015628e+00	 1.023227555087018e+00
 1.301076477384400e+01	-1.018233764908701e+01	 1.043710500928634e+00
 1.364716087690913e+01	-1.081873375215863e+01	 1.037704481370407e+00
 1.428355697997350e+01	-1.145512985523051e+01	 1.031075689442942e+00
 1.491995308303713e+01	-1.209152595830263e+01	 1.037711857561636e+00
 1.555634918610000e+01	-1.272792206137500e+01	 1.060509417313557e+00
 8.909545442961997e+00	-6.646803743138000e+00	 9.923828554857446e-01
 9.545941546031576e+00	-7.283199846208062e+00	 9.808934060450192e-01
 1.018233764910032e+01	-7.919595949278243e+00	 9.797833358063319e-01
 1.081873375216822e+01	-8.555992052348541e+00	 9.874383266383584e-01
 1.145512985523528e+01	-9.192388155418966e+00	 1.002243954476362e+00
 1.209152595830150e+01	-9.828784258489502e+00	 1.022585689308433e+00
 1.272792206136688e+01	-1.046518036156017e+01	 1.038562636118258e+00
 1.336431816443142e+01	-1.110157646463094e+01	 1.025916580571990e+00
 1.400071426749513e+01	-1.173797256770185e+01	 1.022973294513829e+00
 1.463711037055798e+01	-1.237436867077287e+01	 1.030288255023919e+00
 1.527350647362000e+01	-1.301076477384400e+01	 1.054528859676005e+00
 8.626702730485500e+00	-6.929646455614503e+00	 9.679153186135174e-01
 9.263098833555041e+00	-7.566042558684465e+00	 9.667768425051908e-01
 9.899494936623679e+00	-8.202438661754362e+00	 9.692026791308627e-01
 1.053589103969141e+01	-8.838834764824190e+00	 9.804129271269159e-01
 1.117228714275822e+01	-9.475230867893943e+00	 9.987931521750566e-01
 1.180868324582413e+01	-1.011162697096363e+01	 1.022728814008862e+00
 1.244507934888912e+01	-1.074802307403325e+01	 1.022538552791426e+00
 1.308147545195321e+01	-1.138441917710279e+01	 1.013828383864508e+00
 1.371787155501638e+01	-1.202081528017227e+01	 1.014260704440318e+00
 1.435426765807865e+01	-1.265721138324167e+01	 1.024390996793600e+00
 1.499066376114000e+01	-1.329360748631100e+01	 1.047708018027608e+00
 8.343860018007998e+00	-7.212489168092002e+00	 9.400647995541571e-01
 8.980256121077518e+00	-7.848885271161842e+00	 9.538328082742222e-01
 9.616652224146078e+00	-8.485281374231363e+00	 9.596274779468412e-01
 1.025304832721368e+01	-9.121677477300565e+00	 9.742259248811793e-01
 1.088944443028032e+01	-9.758073580369444e+00	 9.960137045058106e-01
 1.152584053334600e+01	-1.039446968343801e+01	 1.019697776595189e+00
 1.216223663641072e+01	-1.103086578650625e+01	 1.006586891520609e+00
 1.279863273947448e+01	-1.166726188957417e+01	 1.001502709242456e+00
 1.343502884253728e+01	-1.230365799264177e+01	 1.005000736190855e+00
 1.407142494559912e+01	-1.294005409570905e+01	 1.017636459835204e+00
 1.470782104866000e+01	-1.357645019877600e+01	 1.039984696988459e+00
 8.061017305529496e+00	-7.495331880570502e+00	 9.116523474928377e-01
 8.697413408599006e+00	-8.131727983640191e+00	 9.374605824392843e-01
 9.333809511667519e+00	-8.768124086709244e+00	 9.507770489458931e-01
 9.970205614735045e+00	-9.404520189777669e+00	 9.685966386168370e-01
 1.060660171780158e+01	-1.004091629284546e+01	 9.936249322088623e-01
 1.124299782086713e+01	-1.067731239591263e+01	 1.000004986071282e+00
 1.187939392393168e+01	-1.131370849897917e+01	 9.907704724107945e-01
 1.251579002699525e+01	-1.195010460204507e+01	 9.890023757847197e-01
 1.315218613005782e+01	-1.258650070511035e+01	 9.952562078182322e-01
 1.378858223311941e+01	-1.322289680817499e+01	 1.010087461175458e+00
 1.442497833618000e+01	-1.385929291123900e+01	 1.034051609560476e+00
 7.778174593050000e+00	-7.778174593050000e+00	 8.828866363831720e-01
 8.414570696119501e+00	-8.414570696119501e+00	 9.155518117006123e-01
 9.050966799188002e+00	-9.050966799188002e+00	 9.423706944724147e-01
 9.687362902255503e+00	-9.687362902255503e+00	 9.632443727022828e-01
 1.032375900532200e+01	-1.032375900532200e+01	 9.913461416771012e-01
 1.096015510838750e+01	-1.096015510838750e+01	 9.808201606298096e-01
 1.159655121145200e+01	-1.159655121145200e+01	 9.751521166514173e-01
 1.223294731451550e+01	-1.223294731451550e+01	 9.763902036545935e-01
 1.286934341757800e+01	-1.286934341757800e+01	 9.850899384596274e-01
 1.350573952063951e+01	-1.350573952063951e+01	 1.001806818925431e+00
 1.414213562370000e+01	-1.414213562370000e+01	 1.027096323950544e+00
 8.485281374200000e+00	 5.656854249500000e+00	 1.809819780846810e+00
 9.121677477279500e+00	 5.020458146439500e+00	 1.675567215292368e+00
 9.758073580358001e+00	 4.384062043378000e+00	 1.571446169401003e+00
 1.039446968343550e+01	 3.747665940315499e+00	 1.479605895890448e+00
 1.103086578651200e+01	 3.111269837252000e+00	 1.386208426394442e+00
 1.166726188958750e+01	 2.474873734187500e+00	 1.296326396604765e+00
 1.230365799266200e+01	 1.838477631122000e+00	 1.225440118485056e+00
 1.294005409573550e+01	 1.202081528055500e+00	 1.175453778724516e+00
 1.357645019880800e+01	 5.656854249880006e-01	 1.148271499723966e+00
 1.421284630187950e+01	-7.071067808049936e-02	 1.145797339599212e+00
 1.484924240495000e+01	-7.071067811500000e-01	 1.167408379064196e+00
 8.343860017978999e+00	 5.515432893260000e+00	 1.806068200699054e+00
 8.980256121054893e+00	 4.879036790199499e+00	 1.667628766463464e+00
 9.616652224130160e+00	 4.242640687138000e+00	 1.566793961421211e+00
 1.025304832720481e+01	 3.606244584075501e+00	 1.477967937040632e+00
 1.088944443027884e+01	 2.969848481012001e+00	 1.381062905719633e+00
 1.152584053335225e+01	 2.333452377947500e+00	 1.293775467547144e+00
 1.216223663642504e+01	 1.697056274882000e+00	 1.225210364708553e+00
 1.279863273949721e+01	 1.060660171815500e+00	 1.177271792955917e+00
 1.343502884256876e+01	 4.242640687480004e-01	 1.151863883752336e+00
 1.407142494563969e+01	-2.121320343204995e-01	 1.150890704275315e+00
 1.470782104871000e+01	-8.485281373900001e-01	 1.176225119166059e+00
 8.202438661756000e+00	 5.374011537020000e+00	 1.801922811996507e+00
 8.838834764828659e+00	 4.737615433959499e+00	 1.659364615980358e+00
 9.475230867901040e+00	 4.101219330898001e+00	 1.561814196248591e+00
 1.011162697097314e+01	 3.464823227835500e+00	 1.476000566764170e+00
 1.074802307404496e+01	 2.828427124772000e+00	 1.375499635542615e+00
 1.138441917711650e+01	 2.192031021707500e+00	 1.290785200747924e+00
 1.202081528018776e+01	 1.555634918642000e+00	 1.224519684666722e+00
 1.265721138325874e+01	 9.192388155754999e-01	 1.178607292113989e+00
 1.329360748632944e+01	 2.828427125080005e-01	 1.154952163615166e+00
 1.393000358939986e+01	-3.535533905604996e-01	 1.155458375409525e+00
 1.456639969247000e+01	-9.899494936300001e-01	 1.182029939453523e+00
 8.061017305530999e+00	 5.232590180780001e+00	 1.797366430351558e+00
 8.697413408600807e+00	 4.596194077719500e+00	 1.657463534035936e+00
 9.333809511670641e+00	 3.959797974658001e+00	 1.556534428613698e+00
 9.970205614740490e+00	 3.323401871595500e+00	 1.467980629910927e+00
 1.060660171781036e+01	 2.687005768532000e+00	 1.369546386169718e+00
 1.124299782088025e+01	 2.050609665467500e+00	 1.287383366065816e+00
 1.187939392395016e+01	 1.414213562402000e+00	 1.223395847770668e+00
 1.251579002702008e+01	 7.778174593355001e-01	 1.179488045162240e+00
 1.315218613009004e+01	 1.414213562680006e-01	 1.157564107828381e+00
 1.378858223316001e+01	-4.949747468004994e-01	 1.159528121070186e+00
 1.442497833623000e+01	-1.131370849870000e+00	 1.187284105905358e+00
 7.919595949304000e+00	 5.091168824540000e+00	 1.792381871682553e+00
 8.555992052371341e+00	 4.454772721479500e+00	 1.655968104009242e+00
 9.192388155438961e+00	 3.818376618418000e+00	 1.550982213080295e+00
 9.828784258506859e+00	 3.181980515355500e+00	 1.458861920080705e+00
 1.046518036157504e+01	 2.545584412292000e+00	 1.363230928148343e+00
 1.110157646464350e+01	 1.909188309227500e+00	 1.283597733600599e+00
 1.173797256771224e+01	 1.272792206162000e+00	 1.221866623672560e+00
 1.237436867078126e+01	 6.363961030955002e-01	 1.179941821305235e+00
 1.301076477385056e+01	 2.800071285946615e-11	 1.159727485148945e+00
 1.364716087692014e+01	-6.363961030404993e-01	 1.163127709566676e+00
 1.428355697999000e+01	-1.272792206110000e+00	 1.192046524637438e+00
 7.778174593075001e+00	 4.949747468300000e+00	 1.786951952213766e+00
 8.414570696140251e+00	 4.313351365239500e+00	 1.654062507298026e+00
 9.050966799206003e+00	 3.676955262178001e+00	 1.545185104045383e+00
 9.687362902272252e+00	 3.040559159115501e+00	 1.449430361688369e+00
 1.032375900533900e+01	 2.404163056052000e+00	 1.356581032266965e+00
 1.096015510840625e+01	 1.767766952987500e+00	 1.279456073693124e+00
 1.159655121147400e+01	 1.131370849922000e+00	 1.219959782265621e+00
 1.223294731454225e+01	 4.949747468555004e-01	 1.179996389988586e+00
 1.286934341761100e+01	-1.414213562119995e-01	 1.161470064574870e+00
 1.350573952068025e+01	-7.778174592804994e-01	 1.166284909449411e+00
 1.414213562375000e+01	-1.414213562350000e+00	 1.196344963752593e+00
 7.636753236844000e+00	 4.808326112060000e+00	 1.781059488475408e+00
 8.273149339907539e+00	 4.171930008999500e+00	 1.651729560435616e+00
 8.909545442971758e+00	 3.535533905937999e+00	 1.539170658444033e+00
 9.545941546036660e+00	 2.899137802875500e+00	 1.439713726211121e+00
 1.018233764910224e+01	 2.262741699812000e+00	 1.349624469555145e+00
 1.081873375216850e+01	 1.626345596747500e+00	 1.274986156925307e+00
 1.145512985523544e+01	 9.899494936820001e-01	 1.217703093684144e+00
 1.209152595830306e+01	 3.535533906155002e-01	 1.179679520898962e+00
 1.272792206137136e+01	-2.828427124519993e-01	 1.162819615345213e+00
 1.336431816444033e+01	-9.192388155204992e-01	 1.169027489509846e+00
 1.400071426751000e+01	-1.555634918590000e+00	 1.200207191594684e+00
 7.495331880611000e+00	 4.666904755820000e+00	 1.774687297303619e+00
 8.131727983673210e+00	 4.030508652759500e+00	 1.648952080261251e+00
 8.768124086736242e+00	 3.394112549698000e+00	 1.533109612190233e+00
 9.404520189800088e+00	 2.757716446635500e+00	 1.429739785367255e+00
 1.004091629286476e+01	 2.121320343572000e+00	 1.342389011283520e+00
 1.067731239593025e+01	 1.484924240507500e+00	 1.270215754120143e+00
 1.131370849899656e+01	 8.485281374420003e-01	 1.215124328303484e+00
 1.195010460206369e+01	 2.121320343755005e-01	 1.179018983964095e+00
 1.258650070513164e+01	-4.242640686919993e-01	 1.163803906940083e+00
 1.322289680820041e+01	-1.060660171760499e+00	 1.171383218780482e+00
 1.385929291127000e+01	-1.697056274830000e+00	 1.203660976748611e+00
 7.353910524375999e+00	 4.525483399580001e+00	 1.767818195840442e+00
 7.990306627437260e+00	 3.889087296519500e+00	 1.645712883920096e+00
 8.626702730499442e+00	 3.252691193458000e+00	 1.526699729296290e+00
 9.263098833562541e+00	 2.616295090395500e+00	 1.419536311116161e+00
 9.899494936626562e+00	 1.979898987332000e+00	 1.334902428963815e+00
 1.053589103969150e+01	 1.343502884267500e+00	 1.265172636341703e+00
 1.117228714275736e+01	 7.071067812020000e-01	 1.212251256740069e+00
 1.180868324582414e+01	 7.071067813550025e-02	 1.178042549352771e+00
 1.244507934889184e+01	-5.656854249319995e-01	 1.164450709080646e+00
 1.308147545196046e+01	-1.202081528000499e+00	 1.173379866534866e+00
 1.371787155503000e+01	-1.838477631070000e+00	 1.206734088040311e+00
 7.212489168138999e+00	 4.384062043340000e+00	 1.760435001533841e+00
 7.848885271199691e+00	 3.747665940279500e+00	 1.641994788863198e+00
 8.485281374261358e+00	 3.111269837218000e+00	 1.519790347577880e+00
 9.121677477324010e+00	 2.474873734155500e+00	 1.409131075658323e+00
 9.758073580387640e+00	 1.838477631092000e+00	 1.327192494348846e+00
 1.039446968345225e+01	 1.202081528027500e+00	 1.259884574895141e+00
 1.103086578651784e+01	 5.656854249620000e-01	 1.209111649851399e+00
 1.166726188958441e+01	-7.071067810449948e-02	 1.176777987474853e+00
 1.230365799265196e+01	-7.071067811719998e-01	 1.164787791729125e+00
 1.294005409572049e+01	-1.343502884240499e+00	 1.175045202287595e+00
 1.357645019879000e+01	-1.979898987310000e+00	 1.209454294536765e+00
 7.071067811900000e+00	 4.242640687100000e+00	 1.752520532137672e+00
 7.707463914960500e+00	 3.606244584039500e+00	 1.637780625101467e+00
 8.343860018021999e+00	 2.969848480978000e+00	 1.512357089892595e+00
 8.980256121084500e+00	 2.333452377915500e+00	 1.398551848328607e+00
 9.616652224148000e+00	 1.697056274852000e+00	 1.319286979432520e+00
 1.025304832721250e+01	 1.060660171787500e+00	 1.254379341326691e+00
 1.088944443027800e+01	 4.242640687219998e-01	 1.205733278736051e+00
 1.152584053334450e+01	-2.121320343444999e-01	 1.175253068981262e+00
 1.216223663641200e+01	-8.485281374119996e-01	 1.164842925088802e+00
 1.279863273948050e+01	-1.484924240480500e+00	 1.176406995794320e+00
 1.343502884255000e+01	-2.121320343550000e+00	 1.211849365546000e+00
 1.484924240495000e+01	-7.071067811500000e-01	 1.167408379064196e+00
 1.548563850801950e+01	-1.343502884220501e+00	 1.150629712307233e+00
 1.612203461108800e+01	-1.979898987292001e+00	 1.137918430181046e+00
 1.675843071415550e+01	-2.616295090364502e+00	 1.128464523022567e+00
 1.739482681722200e+01	-3.252691193438002e+00	 1.121457949551445e+00
 1.803122292028750e+01	-3.889087296512503e+00	 1.119794454392928e+00
 1.866761902335200e+01	-4.525483399588003e+00	 1.116755438179401e+00
 1.930401512641550e+01	-5.161879502664504e+00	 1.111006866556109e+00
 1.994041122947800e+01	-5.798275605742004e+00	 1.103765140237032e+00
 2.057680733253951e+01	-6.434671708820505e+00	 1.096246800697037e+00
 2.121320343560000e+01	-7.071067811900000e+00	 1.095257183403602e+00
 1.470782104871000e+01	-8.485281373900001e-01	 1.176225119166059e+00
 1.534421715177950e+01	-1.484924240460491e+00	 1.156706409075168e+00
 1.598061325484800e+01	-2.121320343531961e+00	 1.141619356441972e+00
 1.661700935791550e+01	-2.757716446604412e+00	 1.130153954509622e+00
 1.725340546098200e+01	-3.394112549677842e+00	 1.121500164904211e+00
 1.788980156404751e+01	-4.030508652752252e+00	 1.120342536001627e+00
 1.852619766711200e+01	-4.666904755827644e+00	 1.116290153924971e+00
 1.916259377017550e+01	-5.303300858904015e+00	 1.109786309660514e+00
 1.979898987323801e+01	-5.939696961981366e+00	 1.102047400931784e+00
 2.043538597629950e+01	-6.576093065059696e+00	 1.094289966223261e+00
 2.107178207936000e+01	-7.212489168139000e+00	 1.092076396913763e+00
 1.456639969247000e+01	-9.899494936300001e-01	 1.182029939453523e+00
 1.520279579553950e+01	-1.626345596700461e+00	 1.161862312315563e+00
 1.583919189860800e+01	-2.262741699771842e+00	 1.144479935295206e+00
 1.647558800167550e+01	-2.899137802844143e+00	 1.131083484798666e+00
 1.711198410474200e+01	-3.535533905917362e+00	 1.122218897289117e+00
 1.774838020780750e+01	-4.171930008991503e+00	 1.120609866515735e+00
 1.838477631087201e+01	-4.808326112066564e+00	 1.115591211261171e+00
 1.902117241393550e+01	-5.444722215142544e+00	 1.108379185514862e+00
 1.965756851699800e+01	-6.081118318219443e+00	 1.100190184009769e+00
 2.029396462005950e+01	-6.717514421297264e+00	 1.092240742239874e+00
 2.093036072312000e+01	-7.353910524375999e+00	 1.088845425105123e+00
 1.442497833623000e+01	-1.131370849870000e+00	 1.187284105905358e+00
 1.506137443929950e+01	-1.767766952940411e+00	 1.166090706214276e+00
 1.569777054236800e+01	-2.404163056011642e+00	 1.146493450783117e+00
 1.633416664543550e+01	-3.040559159083692e+00	 1.131246397788573e+00
 1.697056274850200e+01	-3.676955262156562e+00	 1.123391765497222e+00
 1.760695885156751e+01	-4.313351365230253e+00	 1.120605461218017e+00
 1.824335495463200e+01	-4.949747468304762e+00	 1.114667625618507e+00
 1.887975105769550e+01	-5.586143571380094e+00	 1.106794509697382e+00
 1.951614716075800e+01	-6.222539674456245e+00	 1.098202505196936e+00
 2.015254326381950e+01	-6.858935777533214e+00	 1.090108144620537e+00
 2.078893936688000e+01	-7.495331880611000e+00	 1.085563986050319e+00
 1.428355697999000e+01	-1.272792206110000e+00	 1.192046524637438e+00
 1.491995308305950e+01	-1.909188309180341e+00	 1.169384875007619e+00
 1.555634918612800e+01	-2.545584412251361e+00	 1.147653186998534e+00
 1.619274528919550e+01	-3.181980515323060e+00	 1.130635977428680e+00
 1.682914139226200e+01	-3.818376618395442e+00	 1.124254818778653e+00
 1.746553749532750e+01	-4.454772721468503e+00	 1.120338335500137e+00
 1.810193359839201e+01	-5.091168824542244e+00	 1.113528412536373e+00
 1.873832970145550e+01	-5.727564927616665e+00	 1.105041297895205e+00
 1.937472580451800e+01	-6.363961030691764e+00	 1.096093380328135e+00
 2.001112190757950e+01	-7.000357133767547e+00	 1.087901189347809e+00
 2.064751801064000e+01	-7.636753236843999e+00	 1.082231797809509e+00
 1.414213562375000e+01	-1.414213562350000e+00	 1.196344963752593e+00
 1.477853172681950e+01	-2.050609665420250e+00	 1.171738102982360e+00
 1.541492782988800e+01	-2.687005768491002e+00	 1.147952428084737e+00
 1.605132393295550e+01	-3.323401871562252e+00	 1.129245507718780e+00
 1.668772003602200e+01	-3.959797974634002e+00	 1.124817072486219e+00
 1.732411613908750e+01	-4.596194077706253e+00	 1.119817504862649e+00
 1.796051224215201e+01	-5.232590180779004e+00	 1.112182587663070e+00
 1.859690834521550e+01	-5.868986283852253e+00	 1.103128565904358e+00
 1.923330444827801e+01	-6.505382386926005e+00	 1.093871825347116e+00
 1.986970055133951e+01	-7.141778490000255e+00	 1.085628892513161e+00
 2.050609665440000e+01	-7.778174593075000e+00	 1.079616434703003e+00
 1.400071426751000e+01	-1.555634918590000e+00	 1.200207191594684e+00
 1.463711037057950e+01	-2.192031021660141e+00	 1.172495374206040e+00
 1.527350647364800e+01	-2.828427124730561e+00	 1.147384458235469e+00
 1.590990257671550e+01	-3.464823227801261e+00	 1.127529736956130e+00
 1.654629867978200e+01	-4.101219330872242e+00	 1.125087542081623e+00
 1.718269478284750e+01	-4.737615433943503e+00	 1.119051984915014e+00
 1.781909088591200e+01	-5.374011537015043e+00	 1.110639166755797e+00
 1.845548698897550e+01	-6.010407640086864e+00	 1.101065329629777e+00
 1.909188309203800e+01	-6.646803743158965e+00	 1.091546856306546e+00
 1.972827919509950e+01	-7.283199846231344e+00	 1.083300270316975e+00
 2.036467529816000e+01	-7.919595949304000e+00	 1.077542235970697e+00
 1.385929291127000e+01	-1.697056274830000e+00	 1.203660976748611e+00
 1.449568901433950e+01	-2.333452377900011e+00	 1.172050091891479e+00
 1.513208511740800e+01	-2.969848480970041e+00	 1.145942561694925e+00
 1.576848122047550e+01	-3.606244584040092e+00	 1.128764422652075e+00
 1.640487732354200e+01	-4.242640687110161e+00	 1.125075243135476e+00
 1.704127342660750e+01	-4.879036790180252e+00	 1.118050791375592e+00
 1.767766952967200e+01	-5.515432893250363e+00	 1.108907165680663e+00
 1.831406563273551e+01	-6.151828996320495e+00	 1.098860605085308e+00
 1.895046173579800e+01	-6.788225099390644e+00	 1.089127489367997e+00
 1.958685783885950e+01	-7.424621202460814e+00	 1.080924339068545e+00
 2.022325394192000e+01	-8.061017305530999e+00	 1.075467815505597e+00
 1.371787155503000e+01	-1.838477631070000e+00	 1.206734088040311e+00
 1.435426765809950e+01	-2.474873734139861e+00	 1.171259898090972e+00
 1.499066376116800e+01	-3.111269837209442e+00	 1.143620022757756e+00
 1.562705986423550e+01	-3.747665940278742e+00	 1.129678258862721e+00
 1.626345596730200e+01	-4.384062043347762e+00	 1.124789191327291e+00
 1.689985207036750e+01	-5.020458146416502e+00	 1.116822940071653e+00
 1.753624817343200e+01	-5.656854249484963e+00	 1.106995600412687e+00
 1.817264427649550e+01	-6.293250352553143e+00	 1.096523408393708e+00
 1.880904037955801e+01	-6.929646455621044e+00	 1.086622740801957e+00
 1.944543648261951e+01	-7.566042558688665e+00	 1.078510115186085e+00
 2.008183258568000e+01	-8.202438661756000e+00	 1.073402189873634e+00
 1.357645019879000e+01	-1.979898987310000e+00	 1.209454294536765e+00
 1.421284630185950e+01	-2.616295090379690e+00	 1.170152561423892e+00
 1.484924240492800e+01	-3.252691193448761e+00	 1.140410125769069e+00
 1.548563850799550e+01	-3.889087296517212e+00	 1.130280261228719e+00
 1.612203461106200e+01	-4.525483399585042e+00	 1.124238402445487e+00
 1.675843071412750e+01	-5.161879502652253e+00	 1.115377446939378e+00
 1.739482681719200e+01	-5.798275605718843e+00	 1.104913487035796e+00
 1.803122292025550e+01	-6.434671708784814e+00	 1.094062755786650e+00
 1.866761902331800e+01	-7.071067811850163e+00	 1.084041626987836e+00
 1.930401512637950e+01	-7.707463914914894e+00	 1.076066615196729e+00
 1.994041122944000e+01	-8.343860017978999e+00	 1.071354375749661e+00
 1.343502884255000e+01	-2.121320343550000e+00	 1.211849365546000e+00
 1.407142494561950e+01	-2.757716446619501e+00	 1.168755850750653e+00
 1.470782104868800e+01	-3.394112549688002e+00	 1.136306155124425e+00
 1.534421715175550e+01	-4.030508652755502e+00	 1.130579445499636e+00
 1.598061325482200e+01	-4.666904755822002e+00	 1.123431892387398e+00
 1.661700935788750e+01	-5.303300858887503e+00	 1.113723328023862e+00
 1.725340546095200e+01	-5.939696961952004e+00	 1.102669841742843e+00
 1.788980156401550e+01	-6.576093065015503e+00	 1.091487663604729e+00
 1.852619766707801e+01	-7.212489168078005e+00	 1.081393164413964e+00
 1.916259377013951e+01	-7.848885271139504e+00	 1.073602855736536e+00
 1.979898987320000e+01	-8.485281374200000e+00	 1.069333389917460e+00
 9.899494936600000e+00	 7.071067811900000e+00	 1.387566094817149e+00
 1.053589103967900e+01	 6.434671708820501e+00	 1.338601387372828e+00
 1.117228714275600e+01	 5.798275605742001e+00	 1.295037512279846e+00
 1.180868324583100e+01	 5.161879502664499e+00	 1.257579892880779e+00
 1.244507934890400e+01	 4.525483399588000e+00	 1.226933862392565e+00
 1.308147545197500e+01	 3.889087296512500e+00	 1.203804663919041e+00
 1.371787155504400e+01	 3.252691193438000e+00	 1.182565642600629e+00
 1.435426765811100e+01	 2.616295090364500e+00	 1.159963312794018e+00
 1.499066376117600e+01	 1.979898987292001e+00	 1.146185969052482e+00
 1.562705986423900e+01	 1.343502884220501e+00	 1.141335346771796e+00
 1.626345596730000e+01	 7.071067811500000e-01	 1.154767185299736e+00
 9.758073580360000e+00	 6.929646455660000e+00	 1.425549220629527e+00
 1.039446968343901e+01	 6.293250352580780e+00	 1.372473069002896e+00
 1.103086578651602e+01	 5.656854249502720e+00	 1.324926151477865e+00
 1.166726188959105e+01	 5.020458146425820e+00	 1.283613903339796e+00
 1.230365799266408e+01	 4.384062043350080e+00	 1.249241669747807e+00
 1.294005409573513e+01	 3.747665940275501e+00	 1.222514705747300e+00
 1.357645019880418e+01	 3.111269837202079e+00	 1.193075104085929e+00
 1.421284630187124e+01	 2.474873734129820e+00	 1.167450691815157e+00
 1.484924240493632e+01	 1.838477631058721e+00	 1.154761628192414e+00
 1.548563850799940e+01	 1.202081527988781e+00	 1.147604344910366e+00
 1.612203461106050e+01	 5.656854249200002e-01	 1.159089291032925e+00
 9.616652224120001e+00	 6.788225099420000e+00	 1.460399501491414e+00
 1.025304832719902e+01	 6.151828996341418e+00	 1.403515844296501e+00
 1.088944443027608e+01	 5.515432893264078e+00	 1.352289824258450e+00
 1.152584053335118e+01	 4.879036790187979e+00	 1.307426888605274e+00
 1.216223663642432e+01	 4.242640687113119e+00	 1.269632394438133e+00
 1.279863273949550e+01	 3.606244584039500e+00	 1.239611608743863e+00
 1.343502884256472e+01	 2.969848480967120e+00	 1.202147263952451e+00
 1.407142494563198e+01	 2.333452377895980e+00	 1.173784974446254e+00
 1.470782104869728e+01	 1.697056274826080e+00	 1.162269907231255e+00
 1.534421715176062e+01	 1.060660171757421e+00	 1.153134844788053e+00
 1.598061325482200e+01	 4.242640686900001e-01	 1.163001780435331e+00
 9.475230867880001e+00	 6.646803743180000e+00	 1.492144494981060e+00
 1.011162697095904e+01	 6.010407640102419e+00	 1.431757270242181e+00
 1.074802307403618e+01	 5.374011537026080e+00	 1.377156087020431e+00
 1.138441917711140e+01	 4.737615433950979e+00	 1.329046404486338e+00
 1.202081528018472e+01	 4.101219330877120e+00	 1.288133591682968e+00
 1.265721138325613e+01	 3.464823227804500e+00	 1.255122927538452e+00
 1.329360748632562e+01	 2.828427124733120e+00	 1.209809889200902e+00
 1.393000358939320e+01	 2.192031021662980e+00	 1.178993927240499e+00
 1.456639969245888e+01	 1.555634918594081e+00	 1.165202555308016e+00
 1.520279579552265e+01	 9.192388155264209e-01	 1.157920130373130e+00
 1.583919189858450e+01	 2.828427124599999e-01	 1.166497937331728e+00
 9.333809511640000e+00	 6.505382386939999e+00	 1.520811758509823e+00
 9.970205614719079e+00	 5.868986283863780e+00	 1.457224903661594e+00
 1.060660171779632e+01	 5.232590180788720e+00	 1.399552495995767e+00
 1.124299782087172e+01	 4.596194077714819e+00	 1.348500006625251e+00
 1.187939392394528e+01	 3.959797974642080e+00	 1.304772816534879e+00
 1.251579002701700e+01	 3.323401871570500e+00	 1.264323721390441e+00
 1.315218613008688e+01	 2.687005768500080e+00	 1.216090747073009e+00
 1.378858223315492e+01	 2.050609665430821e+00	 1.183105316992098e+00
 1.442497833622112e+01	 1.414213562362721e+00	 1.167271499177772e+00
 1.506137443928548e+01	 7.778174592957803e-01	 1.161953485684329e+00
 1.569777054234800e+01	 1.414213562300000e-01	 1.169571045597354e+00
 9.192388155400000e+00	 6.363961030700000e+00	 1.546428849322180e+00
 9.828784258479125e+00	 5.727564927625501e+00	 1.479946301209521e+00
 1.046518036155650e+01	 5.091168824552001e+00	 1.419506607249551e+00
 1.110157646463212e+01	 4.454772721479500e+00	 1.365815250497417e+00
 1.173797256770600e+01	 3.818376618408000e+00	 1.319577623879583e+00
 1.237436867077813e+01	 3.181980515337500e+00	 1.271262856495937e+00
 1.301076477384850e+01	 2.545584412268000e+00	 1.221017605051529e+00
 1.364716087691713e+01	 1.909188309199500e+00	 1.186146910736279e+00
 1.428355697998400e+01	 1.272792206132001e+00	 1.168554850642031e+00
 1.491995308304912e+01	 6.363961030655007e-01	 1.165228194790839e+00
 1.555634918611250e+01	-5.551115123125783e-17	 1.172214389157902e+00
 9.050966799159999e+00	 6.222539674460000e+00	 1.569023324495731e+00
 9.687362902239180e+00	 5.586143571387580e+00	 1.499949019373881e+00
 1.032375900531672e+01	 4.949747468315919e+00	 1.437045976680017e+00
 1.096015510839262e+01	 4.313351365245020e+00	 1.381019691411396e+00
 1.159655121146688e+01	 3.676955262174880e+00	 1.332575568435962e+00
 1.223294731453950e+01	 3.040559159105500e+00	 1.276591555708710e+00
 1.286934341761048e+01	 2.404163056036880e+00	 1.224618230860250e+00
 1.350573952067982e+01	 1.767766952969020e+00	 1.188146475749290e+00
 1.414213562374752e+01	 1.131370849901921e+00	 1.169080376529511e+00
 1.477853172681358e+01	 4.949747468355806e-01	 1.167737541812309e+00
 1.541492782987800e+01	-1.414213562300000e-01	 1.174421251989529e+00
 8.909545442919999e+00	 6.081118318220000e+00	 1.588622740941213e+00
 9.545941545999245e+00	 5.444722215150020e+00	 1.517260614475733e+00
 1.018233764907698e+01	 4.808326112080481e+00	 1.452198160018558e+00
 1.081873375215321e+01	 4.171930009011379e+00	 1.394140884508901e+00
 1.145512985522792e+01	 3.535533905942720e+00	 1.343794204756061e+00
 1.209152595830112e+01	 2.899137802874500e+00	 1.280337587441133e+00
 1.272792206137282e+01	 2.262741699806720e+00	 1.226920392463994e+00
 1.336431816444301e+01	 1.626345596739381e+00	 1.189131779548409e+00
 1.400071426751168e+01	 9.899494936724805e-01	 1.168875843909956e+00
 1.463711037057885e+01	 3.535533906060208e-01	 1.168056616480639e+00
 1.527350647364450e+01	-2.828427124599999e-01	 1.176184918118846e+00
 8.768124086680000e+00	 5.939696961979999e+00	 1.608289791383490e+00
 9.404520189759321e+00	 5.303300858912821e+00	 1.531908642669290e+00
 1.004091629283728e+01	 4.666904755845680e+00	 1.464990712829721e+00
 1.067731239591388e+01	 4.030508652778580e+00	 1.405206384764826e+00
 1.131370849898912e+01	 3.394112549711521e+00	 1.350957008160923e+00
 1.195010460206300e+01	 2.757716446644500e+00	 1.282528720346625e+00
 1.258650070513552e+01	 2.121320343577520e+00	 1.227951858068619e+00
 1.322289680820668e+01	 1.484924240510581e+00	 1.189130589891944e+00
 1.385929291127648e+01	 8.485281374436807e-01	 1.167969020094125e+00
 1.449568901434492e+01	 2.121320343768205e-01	 1.166371188668530e+00
 1.513208511741200e+01	-4.242640686900000e-01	 1.177498671622927e+00
 8.626702730439998e+00	 5.798275605740000e+00	 1.629732578334799e+00
 9.263098833519404e+00	 5.161879502675981e+00	 1.543920659941929e+00
 9.899494936597620e+00	 4.525483399611520e+00	 1.475451190511224e+00
 1.053589103967465e+01	 3.889087296546621e+00	 1.414243746987234e+00
 1.117228714275048e+01	 3.252691193481280e+00	 1.352623478747502e+00
 1.180868324582513e+01	 2.616295090415500e+00	 1.283192723319656e+00
 1.244507934889858e+01	 1.979898987349280e+00	 1.227740396121025e+00
 1.308147545197084e+01	 1.343502884282620e+00	 1.188170674779234e+00
 1.371787155504192e+01	 7.071067812155205e-01	 1.166387672633808e+00
 1.435426765811181e+01	 7.071067814798095e-02	 1.164295438739529e+00
 1.499066376118050e+01	-5.656854249199998e-01	 1.178355796629302e+00
 8.485281374200000e+00	 5.656854249500000e+00	 1.648282494558020e+00
 9.121677477279500e+00	 5.020458146439500e+00	 1.553324222114190e+00
 9.758073580358001e+00	 4.384062043378000e+00	 1.483607148293971e+00
 1.039446968343550e+01	 3.747665940315499e+00	 1.421280525817380e+00
 1.103086578651200e+01	 3.111269837252000e+00	 1.352506386320150e+00
 1.166726188958750e+01	 2.474873734187500e+00	 1.282357365495740e+00
 1.230365799266200e+01	 1.838477631122000e+00	 1.226313775309156e+00
 1.294005409573550e+01	 1.202081528055500e+00	 1.186279802450659e+00
 1.357645019880800e+01	 5.656854249880006e-01	 1.164159569321823e+00
 1.421284630187950e+01	-7.071067808049936e-02	 1.161857134038897e+00
 1.484924240495000e+01	-7.071067811500000e-01	 1.178749577315956e+00
 1.626345596730000e+01	 7.071067811500000e-01	 1.154767185299736e+00
 1.689985207036100e+01	 7.071067808049947e-02	 1.138668688484517e+00
 1.753624817342401e+01	-5.656854249880012e-01	 1.126159222148576e+00
 1.817264427648900e+01	-1.202081528055502e+00	 1.116428747566017e+00
 1.880904037955600e+01	-1.838477631122002e+00	 1.108667194391469e+00
 1.944543648262501e+01	-2.474873734187503e+00	 1.102064460658170e+00
 2.008183258569601e+01	-3.111269837252004e+00	 1.095810412776032e+00
 2.071822868876900e+01	-3.747665940315504e+00	 1.089632173376118e+00
 2.135462479184401e+01	-4.384062043378004e+00	 1.087272832914838e+00
 2.199102089492100e+01	-5.020458146439505e+00	 1.085624070706098e+00
 2.262741699800000e+01	-5.656854249500000e+00	 1.084432116903041e+00
 1.612203461106050e+01	 5.656854249200002e-01	 1.159089291032925e+00
 1.675843071412158e+01	-7.071067814798060e-02	 1.142245803112380e+00
 1.739482681718464e+01	-7.071067812155211e-01	 1.129159773419363e+00
 1.803122292024967e+01	-1.343502884282622e+00	 1.119021166134316e+00
 1.866761902331666e+01	-1.979898987349282e+00	 1.111019913818422e+00
 1.930401512638563e+01	-2.616295090415503e+00	 1.104345917411684e+00
 1.994041122945656e+01	-3.252691193481283e+00	 1.098189046231002e+00
 2.057680733252947e+01	-3.889087296546624e+00	 1.091009959736254e+00
 2.121320343560435e+01	-4.525483399611526e+00	 1.088786752189505e+00
 2.184959953868119e+01	-5.161879502675984e+00	 1.087493592614879e+00
 2.248599564176000e+01	-5.798275605740000e+00	 1.086782239489670e+00
 1.598061325482200e+01	 4.242640686900001e-01	 1.163001780435331e+00
 1.661700935788335e+01	-2.121320343768206e-01	 1.145417945083162e+00
 1.725340546094656e+01	-8.485281374436814e-01	 1.131759995796666e+00
 1.788980156401167e+01	-1.484924240510582e+00	 1.121217899662607e+00
 1.852619766707864e+01	-2.121320343577522e+00	 1.112981592148711e+00
 1.916259377014750e+01	-2.757716446644503e+00	 1.106240977101734e+00
 1.979898987321825e+01	-3.394112549711524e+00	 1.100185926745549e+00
 2.043538597629086e+01	-4.030508652778584e+00	 1.093214286558534e+00
 2.107178207936537e+01	-4.666904755845684e+00	 1.090028751483717e+00
 2.170817818244175e+01	-5.303300858912825e+00	 1.089086683991786e+00
 2.234457428552000e+01	-5.939696961980000e+00	 1.088851421177757e+00
 1.583919189858450e+01	 2.828427124599999e-01	 1.166497937331728e+00
 1.647558800164627e+01	-3.535533906060207e-01	 1.148178398078134e+00
 1.711198410470976e+01	-9.899494936724813e-01	 1.133953172818247e+00
 1.774838020777499e+01	-1.626345596739382e+00	 1.123012231545142e+00
 1.838477631084195e+01	-2.262741699806722e+00	 1.114545512633069e+00
 1.902117241391063e+01	-2.899137802874503e+00	 1.107742922835530e+00
 1.965756851698104e+01	-3.535533905942723e+00	 1.101800528030681e+00
 2.029396462005319e+01	-4.171930009011384e+00	 1.095144748032991e+00
 2.093036072312707e+01	-4.808326112080485e+00	 1.090998548927870e+00
 2.156675682620267e+01	-5.444722215150025e+00	 1.090403063000715e+00
 2.220315292928000e+01	-6.081118318220000e+00	 1.090639380164707e+00
 1.569777054234800e+01	 1.414213562300000e-01	 1.169571045597354e+00
 1.633416664541036e+01	-4.949747468355807e-01	 1.150520445829030e+00
 1.697056274847424e+01	-1.131370849901921e+00	 1.135732588072333e+00
 1.760695885153964e+01	-1.767766952969021e+00	 1.124397445226635e+00
 1.824335495460656e+01	-2.404163056036882e+00	 1.115704958572697e+00
 1.887975105767500e+01	-3.040559159105503e+00	 1.108845037770756e+00
 1.951614716074496e+01	-3.676955262174884e+00	 1.103154001408912e+00
 2.015254326381644e+01	-4.313351365245023e+00	 1.096810358757929e+00
 2.078893936688944e+01	-4.949747468315923e+00	 1.091695862639886e+00
 2.142533546996397e+01	-5.586143571387586e+00	 1.091442447793091e+00
 2.206173157304000e+01	-6.222539674460000e+00	 1.092145834635450e+00
 1.555634918611250e+01	-5.551115123125783e-17	 1.172214389157902e+00
 1.619274528917563e+01	-6.363961030655005e-01	 1.152437372118047e+00
 1.682914139224000e+01	-1.272792206132001e+00	 1.137091525197617e+00
 1.746553749530563e+01	-1.909188309199502e+00	 1.125366824202269e+00
 1.810193359837250e+01	-2.545584412268002e+00	 1.116453213319265e+00
 1.873832970144063e+01	-3.181980515337502e+00	 1.109540605115563e+00
 1.937472580451001e+01	-3.818376618408003e+00	 1.104280352410715e+00
 2.001112190758063e+01	-4.454772721479504e+00	 1.098220133440523e+00
 2.064751801065250e+01	-5.091168824552004e+00	 1.092120410725212e+00
 2.128391411372563e+01	-5.727564927625505e+00	 1.092204556507861e+00
 2.192031021680000e+01	-6.363961030700001e+00	 1.093370502762437e+00
 1.541492782987800e+01	-1.414213562300000e-01	 1.174421251989529e+00
 1.605132393294206e+01	-7.778174592957805e-01	 1.153922460777840e+00
 1.668772003600704e+01	-1.414213562362721e+00	 1.138023267883253e+00
 1.732411613907294e+01	-2.050609665430821e+00	 1.125913652017692e+00
 1.796051224213976e+01	-2.687005768500082e+00	 1.116783560274911e+00
 1.859690834520751e+01	-3.323401871570502e+00	 1.109822908128572e+00
 1.923330444827617e+01	-3.959797974642083e+00	 1.105188595704423e+00
 1.986970055134574e+01	-4.596194077714824e+00	 1.099383086896815e+00
 2.050609665441625e+01	-5.232590180788725e+00	 1.093041351302502e+00
 2.114249275748766e+01	-5.868986283863784e+00	 1.092689107271497e+00
 2.177888886056000e+01	-6.505382386939999e+00	 1.094313102705649e+00
 1.527350647364450e+01	-2.828427124599999e-01	 1.176184918118846e+00
 1.590990257670967e+01	-9.192388155264208e-01	 1.154968995691526e+00
 1.654629867977536e+01	-1.555634918594081e+00	 1.138521099868857e+00
 1.718269478284159e+01	-2.192031021662982e+00	 1.126031212269016e+00
 1.781909088590834e+01	-2.828427124733122e+00	 1.116689282892235e+00
 1.845548698897563e+01	-3.464823227804501e+00	 1.109776873766991e+00
 1.909188309204345e+01	-4.101219330877123e+00	 1.105887746067240e+00
 1.972827919511179e+01	-4.737615433950984e+00	 1.100308234051720e+00
 2.036467529818066e+01	-5.374011537026084e+00	 1.094254747405013e+00
 2.100107140125007e+01	-6.010407640102425e+00	 1.092895818197994e+00
 2.163746750432000e+01	-6.646803743180000e+00	 1.094973352612584e+00
 1.513208511741200e+01	-4.242640686900000e-01	 1.177498671622927e+00
 1.576848122047844e+01	-1.060660171757421e+00	 1.155570260792686e+00
 1.640487732354497e+01	-1.697056274826081e+00	 1.138578304944508e+00
 1.704127342661156e+01	-2.333452377895981e+00	 1.125712788602817e+00
 1.767766952967824e+01	-2.969848480967122e+00	 1.116163664674306e+00
 1.831406563274500e+01	-3.606244584039502e+00	 1.110140916135355e+00
 1.895046173581184e+01	-4.242640687113123e+00	 1.106386818385249e+00
 1.958685783887876e+01	-4.879036790187984e+00	 1.101004589939033e+00
 2.022325394194576e+01	-5.515432893264085e+00	 1.095210637491169e+00
 2.085965004501285e+01	-6.151828996341425e+00	 1.092824407388873e+00
 2.149604614808000e+01	-6.788225099420000e+00	 1.095350970618270e+00
 1.499066376118050e+01	-5.656854249199998e-01	 1.178355796629302e+00
 1.562705986424839e+01	-1.202081527988781e+00	 1.155719540065355e+00
 1.626345596731584e+01	-1.838477631058721e+00	 1.138188166950747e+00
 1.689985207038287e+01	-2.474873734129822e+00	 1.124951664716133e+00
 1.753624817344946e+01	-3.111269837202082e+00	 1.115199989174658e+00
 1.817264427651563e+01	-3.747665940275503e+00	 1.110342607003059e+00
 1.880904037958136e+01	-4.384062043350083e+00	 1.106694827653407e+00
 1.944543648264667e+01	-5.020458146425824e+00	 1.101481169701427e+00
 2.008183258571155e+01	-5.656854249502723e+00	 1.095918036851349e+00
 2.071822868877599e+01	-6.293250352580785e+00	 1.092474592933174e+00
 2.135462479184000e+01	-6.929646455659999e+00	 1.095445674845252e+00
 1.484924240495000e+01	-7.071067811500000e-01	 1.178749577315956e+00
 1.548563850801950e+01	-1.343502884220501e+00	 1.155410117544029e+00
 1.612203461108800e+01	-1.979898987292001e+00	 1.137343969778575e+00
 1.675843071415550e+01	-2.616295090364502e+00	 1.123741124356467e+00
 1.739482681722200e+01	-3.252691193438002e+00	 1.113791539997290e+00
 1.803122292028750e+01	-3.889087296512503e+00	 1.110390961326216e+00
 1.866761902335200e+01	-4.525483399588003e+00	 1.106820788975553e+00
 1.930401512641550e+01	-5.161879502664504e+00	 1.101746988590461e+00
 1.994041122947800e+01	-5.798275605742004e+00	 1.096385960884825e+00
 2.057680733253951e+01	-6.434671708820505e+00	 1.091954247333415e+00
 2.121320343560000e+01	-7.071067811900000e+00	 1.095257183403602e+00
 1.555634918610000e+01	 1.272792206140000e+01	 1.142468397302432e+00
 1.619274528916050e+01	 1.209152595832050e+01	 1.131812092288407e+00
 1.682914139222200e+01	 1.145512985524200e+01	 1.120070283726185e+00
 1.746553749528450e+01	 1.081873375216450e+01	 1.107633770874190e+00
 1.810193359834800e+01	 1.018233764908800e+01	 1.096910195829830e+00
 1.873832970141250e+01	 9.545941546012500e+00	 1.092103951363972e+00
 1.937472580447800e+01	 8.909545442937999e+00	 1.087335902019315e+00
 2.001112190754450e+01	 8.273149339864499e+00	 1.082573480248119e+00
 2.064751801061200e+01	 7.636753236792002e+00	 1.077795803598516e+00
 2.128391411368050e+01	 7.000357133720501e+00	 1.073138135371686e+00
 2.192031021675000e+01	 6.363961030650000e+00	 1.068688208231471e+00
 1.527350647362050e+01	 1.244507934892000e+01	 1.157461315728588e+00
 1.590990257668442e+01	 1.180868324584069e+01	 1.142990818015327e+00
 1.654629867974879e+01	 1.117228714276255e+01	 1.127833854864632e+00
 1.718269478281360e+01	 1.053589103968559e+01	 1.112381219149686e+00
 1.781909088587886e+01	 9.899494936609800e+00	 1.102005626342010e+00
 1.845548698894456e+01	 9.263098833535189e+00	 1.094437154288349e+00
 1.909188309201071e+01	 8.626702730461750e+00	 1.087571424397179e+00
 1.972827919507730e+01	 7.990306627389487e+00	 1.081375868291731e+00
 2.036467529814434e+01	 7.353910524318401e+00	 1.075817932286629e+00
 2.100107140121182e+01	 6.717514421248487e+00	 1.071220072548548e+00
 2.163746750427975e+01	 6.081118318179751e+00	 1.067587253736234e+00
 1.499066376114200e+01	 1.216223663644000e+01	 1.172338948927476e+00
 1.562705986420879e+01	 1.152584053336105e+01	 1.154236543300732e+00
 1.626345596727556e+01	 1.088944443028340e+01	 1.135846711765678e+00
 1.689985207034231e+01	 1.025304832720705e+01	 1.118392802238345e+00
 1.753624817340904e+01	 9.616652224132002e+00	 1.106872409181680e+00
 1.817264427647575e+01	 8.980256121058250e+00	 1.096751886431544e+00
 1.880904037954244e+01	 8.343860017985799e+00	 1.087998650089927e+00
 1.944543648260911e+01	 7.707463914914650e+00	 1.080580130951110e+00
 2.008183258567575e+01	 7.071067811844800e+00	 1.074463774500727e+00
 2.071822868874239e+01	 6.434671708776250e+00	 1.069795082790342e+00
 2.135462479180900e+01	 5.798275605709000e+00	 1.067172702758678e+00
 1.470782104866450e+01	 1.187939392396000e+01	 1.187204125431609e+00
 1.534421715173360e+01	 1.124299782088159e+01	 1.165652097938006e+00
 1.598061325480231e+01	 1.060660171780455e+01	 1.144211685483585e+00
 1.661700935787063e+01	 9.970205614728888e+00	 1.125982858721893e+00
 1.725340546093854e+01	 9.333809511654598e+00	 1.111456049743187e+00
 1.788980156400607e+01	 8.697413408581689e+00	 1.098993653350676e+00
 1.852619766707319e+01	 8.061017305510150e+00	 1.088563084817526e+00
 1.916259377013992e+01	 7.424621202439988e+00	 1.080131774109147e+00
 1.979898987320626e+01	 6.788225099371198e+00	 1.073667165882272e+00
 2.043538597627220e+01	 6.151828996303788e+00	 1.069136719484009e+00
 2.107178207933775e+01	 5.515432893237750e+00	 1.067441249466822e+00
 1.442497833618800e+01	 1.159655121148000e+01	 1.199431665311935e+00
 1.506137443925886e+01	 1.096015510840230e+01	 1.177340309759435e+00
 1.569777054232904e+01	 1.032375900532600e+01	 1.153109698257108e+00
 1.633416664539854e+01	 9.687362902251101e+00	 1.133025101049000e+00
 1.697056274846735e+01	 9.050966799177599e+00	 1.115702056160289e+00
 1.760695885153550e+01	 8.414570696105498e+00	 1.101107963342249e+00
 1.824335495460296e+01	 7.778174593034801e+00	 1.089210237039298e+00
 1.887975105766974e+01	 7.141778489965501e+00	 1.079976306388068e+00
 1.951614716073584e+01	 6.505382386897601e+00	 1.073373615216466e+00
 2.015254326380126e+01	 5.868986283831099e+00	 1.069369622042741e+00
 2.078893936686600e+01	 5.232590180766000e+00	 1.068389588010634e+00
 1.414213562371250e+01	 1.131370849900000e+01	 1.209410319616609e+00
 1.477853172678456e+01	 1.067731239592319e+01	 1.189404004636263e+00
 1.541492782985575e+01	 1.004091629284775e+01	 1.162800230391462e+00
 1.605132393292607e+01	 9.404520189773690e+00	 1.139465039930045e+00
 1.668772003599550e+01	 8.768124086700999e+00	 1.119555939306006e+00
 1.732411613906406e+01	 8.131727983629688e+00	 1.103040327441998e+00
 1.796051224213175e+01	 7.495331880559750e+00	 1.089885617953778e+00
 1.859690834519857e+01	 6.858935777491188e+00	 1.080059239149275e+00
 1.923330444826450e+01	 6.222539674424002e+00	 1.073528634027661e+00
 1.986970055132956e+01	 5.586143571358187e+00	 1.070261260278406e+00
 2.050609665439375e+01	 4.949747468293750e+00	 1.070224590280351e+00
 1.385929291123800e+01	 1.103086578652000e+01	 1.217020735617701e+00
 1.449568901431071e+01	 1.039446968344425e+01	 1.198233410625206e+00
 1.513208511738244e+01	 9.758073580369798e+00	 1.171623789396867e+00
 1.576848122045319e+01	 9.121677477296648e+00	 1.145248188814548e+00
 1.640487732352296e+01	 8.485281374224801e+00	 1.122963212792472e+00
 1.704127342659175e+01	 7.848885271154249e+00	 1.104736259424749e+00
 1.767766952965955e+01	 7.212489168085000e+00	 1.090534741498558e+00
 1.831406563272639e+01	 6.576093065017051e+00	 1.080326086493210e+00
 1.895046173579224e+01	 5.939696961950400e+00	 1.074077736579220e+00
 1.958685783885711e+01	 5.303300858885050e+00	 1.071757148617364e+00
 2.022325394192100e+01	 4.666904755821001e+00	 1.073331794157753e+00
 1.357645019876450e+01	 1.074802307404000e+01	 1.222132531022149e+00
 1.421284630183730e+01	 1.011162697096549e+01	 1.202488779306276e+00
 1.484924240490911e+01	 9.475230867892153e+00	 1.179525891299328e+00
 1.548563850797992e+01	 8.838834764819989e+00	 1.150320063891026e+00
 1.612203461104974e+01	 8.202438661748999e+00	 1.125869392970793e+00
 1.675843071411856e+01	 7.566042558679189e+00	 1.106141275804273e+00
 1.739482681718638e+01	 6.929646455610550e+00	 1.091103124350149e+00
 1.803122292025322e+01	 6.293250352543087e+00	 1.080722365259200e+00
 1.866761902331906e+01	 5.656854249476800e+00	 1.074966439873364e+00
 1.930401512638390e+01	 5.020458146411688e+00	 1.073802804224810e+00
 1.994041122944775e+01	 4.384062043347750e+00	 1.077198929034997e+00
 1.329360748629200e+01	 1.046518036156000e+01	 1.224615321039530e+00
 1.393000358936434e+01	 9.828784258486898e+00	 1.202985174900197e+00
 1.456639969243576e+01	 9.192388155414800e+00	 1.182976232207333e+00
 1.520279579550626e+01	 8.555992052343699e+00	 1.154626184086845e+00
 1.583919189857584e+01	 7.919595949273600e+00	 1.128219998930891e+00
 1.647558800164450e+01	 7.283199846204501e+00	 1.107200895833131e+00
 1.711198410471224e+01	 6.646803743136399e+00	 1.091536285923832e+00
 1.774838020777905e+01	 6.010407640069300e+00	 1.081193595025316e+00
 1.838477631084496e+01	 5.374011537003200e+00	 1.076140263651034e+00
 1.902117241390994e+01	 4.737615433938100e+00	 1.076343747004624e+00
 1.965756851697400e+01	 4.101219330874001e+00	 1.081771514978982e+00
 1.301076477382050e+01	 1.018233764908000e+01	 1.222820789986520e+00
 1.364716087689183e+01	 9.545941546008489e+00	 1.200115141830219e+00
 1.428355697996239e+01	 8.909545442937750e+00	 1.180235057671638e+00
 1.491995308303220e+01	 8.273149339867787e+00	 1.158112071068066e+00
 1.555634918610126e+01	 7.636753236798601e+00	 1.129960552501369e+00
 1.619274528916956e+01	 7.000357133730187e+00	 1.107860641502539e+00
 1.682914139223711e+01	 6.363961030662551e+00	 1.091779748373507e+00
 1.746553749530390e+01	 5.727564927595687e+00	 1.081685298108226e+00
 1.810193359836994e+01	 5.091168824529600e+00	 1.077544730391736e+00
 1.873832970143522e+01	 4.454772721464288e+00	 1.079325499599229e+00
 1.937472580449975e+01	 3.818376618399750e+00	 1.086995074795121e+00
 1.272792206135000e+01	 9.899494936600000e+00	 1.216714801086038e+00
 1.336431816441975e+01	 9.263098833530250e+00	 1.194099168734688e+00
 1.400071426748900e+01	 8.626702730461000e+00	 1.174509566171269e+00
 1.463711037055775e+01	 7.990306627392250e+00	 1.158651177854538e+00
 1.527350647362600e+01	 7.353910524324000e+00	 1.131036578249354e+00
 1.590990257669375e+01	 6.717514421256250e+00	 1.108066037542209e+00
 1.654629867976100e+01	 6.081118318189000e+00	 1.091779036591551e+00
 1.718269478282775e+01	 5.444722215122250e+00	 1.082142999563043e+00
 1.781909088589400e+01	 4.808326112056001e+00	 1.079125365313397e+00
 1.845548698895975e+01	 4.171930008990250e+00	 1.082693587389443e+00
 1.909188309202500e+01	 3.535533905925000e+00	 1.092815134027194e+00
 2.192031021675000e+01	 6.363961030650000e+00	 1.068688208231471e+00
 2.255670631982050e+01	 5.727564927580500e+00	 1.064178894104691e+00
 2.319310242289200e+01	 5.091168824511998e+00	 1.059343050502687e+00
 2.382949852596450e+01	 4.454772721444498e+00	 1.054403633160047e+00
 2.446589462903800e+01	 3.818376618377998e+00	 1.049583583398719e+00
 2.510229073211250e+01	 3.181980515312497e+00	 1.046657373438157e+00
 2.573868683518801e+01	 2.545584412247996e+00	 1.046785563690275e+00
 2.637508293826451e+01	 1.909188309184496e+00	 1.047725812081093e+00
 2.701147904134201e+01	 1.272792206121996e+00	 1.048849607004955e+00
 2.764787514442050e+01	 6.363961030604948e-01	 1.049611803726788e+00
 2.828427124750000e+01	 0.000000000000000e+00	 1.050046920677761e+00
 2.163746750427975e+01	 6.081118318179751e+00	 1.067587253736234e+00
 2.227386360734848e+01	 5.444722215111821e+00	 1.063356375966449e+00
 2.291025971041840e+01	 4.808326112044338e+00	 1.058726726793236e+00
 2.354665581348949e+01	 4.171930008977299e+00	 1.053921260400454e+00
 2.418305191656176e+01	 3.535533905910708e+00	 1.049162916559545e+00
 2.481944801963519e+01	 2.899137802844559e+00	 1.047871024111395e+00
 2.545584412270981e+01	 2.262741699778857e+00	 1.048134738953341e+00
 2.609224022578559e+01	 1.626345596713598e+00	 1.049182693386498e+00
 2.672863632886255e+01	 9.899494936487855e-01	 1.050570234862378e+00
 2.736503243194070e+01	 3.535533905844175e-01	 1.051565323264335e+00
 2.800142853502000e+01	-2.828427124795000e-01	 1.052154174030498e+00
 2.135462479180900e+01	 5.798275605709000e+00	 1.067172702758678e+00
 2.199102089487626e+01	 5.161879502642390e+00	 1.063153154514684e+00
 2.262741699794480e+01	 4.525483399575758e+00	 1.058662593428394e+00
 2.326381310101465e+01	 3.889087296509107e+00	 1.053923972132921e+00
 2.390020920408580e+01	 3.252691193442438e+00	 1.050123990185236e+00
 2.453660530715824e+01	 2.616295090375747e+00	 1.049406535778561e+00
 2.517300141023200e+01	 1.979898987309036e+00	 1.049775040799506e+00
 2.580939751330705e+01	 1.343502884242306e+00	 1.050899966864174e+00
 2.644579361638341e+01	 7.071067811755555e-01	 1.052451775588664e+00
 2.708218971946106e+01	 7.071067810878495e-02	 1.053634265866934e+00
 2.771858582254000e+01	-5.656854249580000e-01	 1.054321946065012e+00
 2.107178207933775e+01	 5.515432893237750e+00	 1.067441249466822e+00
 2.170817818240378e+01	 4.879036790172201e+00	 1.063565924223475e+00
 2.234457428547120e+01	 4.242640687106259e+00	 1.059147345188271e+00
 2.298097038854000e+01	 3.606244584039922e+00	 1.054408463443574e+00
 2.361736649161016e+01	 2.969848480973188e+00	 1.051849849645388e+00
 2.425376259468170e+01	 2.333452377906060e+00	 1.051234269554370e+00
 2.489015869775460e+01	 1.697056274838536e+00	 1.051676830343485e+00
 2.552655480082889e+01	 1.060660171770619e+00	 1.052847993628835e+00
 2.616295090390456e+01	 4.242640687023054e-01	 1.054418221026522e+00
 2.679934700698159e+01	-2.121320343664028e-01	 1.055819417080113e+00
 2.743574311006000e+01	-8.485281374355000e-01	 1.056551022289306e+00
 2.078893936686600e+01	 5.232590180766000e+00	 1.068389588010634e+00
 2.142533546993110e+01	 4.596194077701259e+00	 1.064591379548846e+00
 2.206173157299760e+01	 3.959797974635839e+00	 1.060177676834925e+00
 2.269812767606550e+01	 3.323401871569739e+00	 1.055773327642459e+00
 2.333452377913481e+01	 2.687005768502958e+00	 1.053869026739731e+00
 2.397091988220551e+01	 2.050609665435497e+00	 1.053324586553541e+00
 2.460731598527760e+01	 1.414213562367356e+00	 1.053810468699997e+00
 2.524371208835111e+01	 7.778174592985361e-01	 1.054997134795202e+00
 2.588010819142601e+01	 1.414213562290354e-01	 1.056555046455259e+00
 2.651650429450231e+01	-4.949747468411452e-01	 1.058121562451973e+00
 2.715290039758000e+01	-1.131370849912000e+00	 1.058842188213949e+00
 2.050609665439375e+01	 4.949747468293750e+00	 1.070224590280351e+00
 2.114249275745819e+01	 4.313351365229562e+00	 1.066226214928776e+00
 2.177888886052400e+01	 3.676955262164498e+00	 1.061750283112359e+00
 2.241528496359119e+01	 3.040559159098560e+00	 1.057987959444223e+00
 2.305168106665975e+01	 2.404163056031747e+00	 1.056151882582979e+00
 2.368807716972969e+01	 1.767766952964060e+00	 1.055647847890788e+00
 2.432447327280100e+01	 1.131370849895496e+00	 1.056146316983758e+00
 2.496086937587370e+01	 4.949747468260582e-01	 1.057317751477992e+00
 2.559726547894775e+01	-1.414213562442544e-01	 1.058832612989594e+00
 2.623366158202319e+01	-7.778174593154425e-01	 1.060361363134663e+00
 2.687005768510000e+01	-1.414213562387500e+00	 1.061196229352091e+00
 2.022325394192100e+01	 4.666904755821001e+00	 1.073331794157753e+00
 2.085965004498506e+01	 4.030508652757109e+00	 1.068467124783204e+00
 2.149604614805040e+01	 3.394112549692239e+00	 1.063899714756485e+00
 2.213244225111706e+01	 2.757716446626388e+00	 1.060467365520438e+00
 2.276883835418500e+01	 2.121320343559558e+00	 1.058668778289850e+00
 2.340523445725426e+01	 1.484924240491748e+00	 1.058174414680831e+00
 2.404163056032481e+01	 8.485281374229567e-01	 1.058654736309487e+00
 2.467802666339665e+01	 2.121320343531861e-01	 1.059780204791925e+00
 2.531442276646981e+01	-4.242640687175644e-01	 1.061221281744247e+00
 2.595081886954425e+01	-1.060660171789295e+00	 1.062648428782555e+00
 2.658721497262000e+01	-1.697056274862000e+00	 1.063613931219453e+00
 1.994041122944775e+01	 4.384062043347750e+00	 1.077198929034997e+00
 2.057680733251169e+01	 3.747665940283901e+00	 1.071344998210813e+00
 2.121320343557680e+01	 3.111269837219059e+00	 1.066579682454559e+00
 2.184959953864309e+01	 2.474873734153221e+00	 1.063181906985821e+00
 2.248599564171056e+01	 1.838477631086388e+00	 1.061390074975060e+00
 2.312239174477919e+01	 1.202081528018560e+00	 1.060874648038384e+00
 2.375878784784901e+01	 5.656854249497369e-01	 1.061306087791902e+00
 2.439518395091999e+01	-7.071067812008142e-02	 1.062354855851720e+00
 2.503158005399215e+01	-7.071067811908943e-01	 1.063691413833941e+00
 2.566797615706550e+01	-1.343502884262702e+00	 1.064986223354662e+00
 2.630437226014000e+01	-1.979898987335500e+00	 1.065909746029982e+00
 1.965756851697400e+01	 4.101219330874001e+00	 1.081771514978982e+00
 2.029396462003810e+01	 3.464823227809939e+00	 1.075673829721324e+00
 2.093036072310321e+01	 2.828427124744960e+00	 1.069495881067346e+00
 2.156675682616930e+01	 2.192031021679059e+00	 1.066101944955085e+00
 2.220315292923640e+01	 1.555634918612238e+00	 1.064286133753322e+00
 2.283954903230450e+01	 9.192388155444974e-01	 1.063718909078166e+00
 2.347594513537361e+01	 2.828427124758370e-01	 1.064070732545723e+00
 2.411234123844370e+01	-3.535533905937436e-01	 1.065012065772099e+00
 2.474873734151481e+01	-9.899494936642441e-01	 1.066213370373392e+00
 2.538513344458691e+01	-1.626345596735665e+00	 1.067345107965706e+00
 2.602152954766001e+01	-2.262741699808000e+00	 1.068077740165134e+00
 1.937472580449975e+01	 3.818376618399750e+00	 1.086995074795121e+00
 2.001112190756429e+01	 3.181980515335222e+00	 1.079738900431805e+00
 2.064751801062960e+01	 2.545584412269938e+00	 1.072618671709558e+00
 2.128391411369569e+01	 1.909188309203901e+00	 1.069197840542944e+00
 2.192031021676255e+01	 1.272792206137108e+00	 1.067327315739353e+00
 2.255670631983019e+01	 6.363961030695598e-01	 1.066677558914893e+00
 2.319310242289861e+01	 1.256994508480602e-12	 1.066919031685668e+00
 2.382949852596779e+01	-6.363961030678011e-01	 1.067722195667779e+00
 2.446589462903775e+01	-1.272792206137614e+00	 1.068757512477327e+00
 2.510229073210849e+01	-1.909188309208182e+00	 1.069695443730408e+00
 2.573868683518000e+01	-2.545584412279500e+00	 1.070206451043121e+00
 1.909188309202500e+01	 3.535533905925000e+00	 1.092815134027194e+00
 1.972827919509025e+01	 2.899137802859750e+00	 1.083958246845015e+00
 2.036467529815600e+01	 2.262741699793999e+00	 1.076689307320879e+00
 2.100107140122225e+01	 1.626345596727748e+00	 1.072439954864109e+00
 2.163746750428900e+01	 9.899494936609976e-01	 1.070483982047868e+00
 2.227386360735625e+01	 3.535533905937474e-01	 1.069720958663283e+00
 2.291025971042400e+01	-2.828427124740034e-01	 1.069821346326456e+00
 2.354665581349226e+01	-9.192388155422541e-01	 1.070455606653483e+00
 2.418305191656101e+01	-1.555634918611004e+00	 1.071294201260464e+00
 2.481944801963025e+01	-2.192031021680255e+00	 1.072007591763492e+00
 2.545584412270000e+01	-2.828427124750000e+00	 1.072266239778663e+00
 1.272792206135000e+01	 9.899494936600000e+00	 1.216714801086038e+00
 1.336431816441975e+01	 9.263098833530250e+00	 1.194099168734688e+00
 1.400071426748900e+01	 8.626702730461000e+00	 1.174509566171269e+00
 1.463711037055775e+01	 7.990306627392250e+00	 1.158651177854538e+00
 1.527350647362600e+01	 7.353910524324000e+00	 1.131036578249354e+00
 1.590990257669375e+01	 6.717514421256250e+00	 1.108066037542209e+00
 1.654629867976100e+01	 6.081118318189000e+00	 1.091779036591551e+00
 1.718269478282775e+01	 5.444722215122250e+00	 1.082142999563043e+00
 1.781909088589400e+01	 4.808326112056001e+00	 1.079125365313397e+00
 1.845548698895975e+01	 4.171930008990250e+00	 1.082693587389443e+00
 1.909188309202500e+01	 3.535533905925000e+00	 1.092815134027194e+00
 1.244507934887950e+01	 9.616652224120999e+00	 1.237867297349669e+00
 1.308147545194768e+01	 8.980256121052815e+00	 1.211949210365999e+00
 1.371787155501561e+01	 8.343860017984872e+00	 1.189514288521326e+00
 1.435426765808330e+01	 7.707463914917158e+00	 1.171267740165238e+00
 1.499066376115074e+01	 7.071067811849678e+00	 1.149062807634149e+00
 1.562705986421794e+01	 6.434671708782437e+00	 1.122904389377341e+00
 1.626345596728489e+01	 5.798275605715430e+00	 1.104350694309840e+00
 1.689985207035160e+01	 5.161879502648657e+00	 1.093369145769133e+00
 1.753624817341806e+01	 4.525483399582120e+00	 1.089927181783723e+00
 1.817264427648427e+01	 3.889087296515818e+00	 1.093992255072187e+00
 1.880904037955025e+01	 3.252691193449750e+00	 1.104077073146838e+00
 1.216223663640800e+01	 9.333809511643999e+00	 1.258237022333151e+00
 1.279863273947516e+01	 8.697413408576820e+00	 1.228832512174066e+00
 1.343502884254224e+01	 8.061017305509679e+00	 1.203368307725305e+00
 1.407142494560924e+01	 7.424621202442578e+00	 1.182549641226751e+00
 1.470782104867616e+01	 6.788225099375517e+00	 1.167017066652691e+00
 1.534421715174300e+01	 6.151828996308500e+00	 1.137535372417765e+00
 1.598061325480976e+01	 5.515432893241520e+00	 1.116579582010468e+00
 1.661700935787644e+01	 4.879036790174579e+00	 1.104117117940210e+00
 1.725340546094304e+01	 4.242640687107680e+00	 1.100115417407367e+00
 1.788980156400956e+01	 3.606244584040820e+00	 1.104541932302354e+00
 1.852619766707600e+01	 2.969848480974000e+00	 1.113468902835616e+00
 1.187939392393550e+01	 9.050966799169000e+00	 1.278044461373851e+00
 1.251579002700220e+01	 8.414570696102254e+00	 1.244969554777710e+00
 1.315218613006889e+01	 7.778174593035430e+00	 1.216292099683450e+00
 1.378858223313558e+01	 7.141778489968516e+00	 1.192717352220715e+00
 1.442497833620226e+01	 6.505382386901519e+00	 1.174950478401783e+00
 1.506137443926894e+01	 5.868986283834436e+00	 1.151904519607830e+00
 1.569777054233561e+01	 5.232590180767269e+00	 1.128411232800362e+00
 1.633416664540227e+01	 4.596194077700017e+00	 1.114332449345849e+00
 1.697056274846894e+01	 3.959797974632680e+00	 1.109635605616636e+00
 1.760695885153560e+01	 3.323401871565257e+00	 1.112740758905242e+00
 1.824335495460225e+01	 2.687005768497749e+00	 1.121524431355378e+00
 1.159655121146200e+01	 8.768124086695998e+00	 1.297510097136393e+00
 1.223294731452879e+01	 8.131727983629130e+00	 1.260580816123131e+00
 1.286934341759556e+01	 7.495331880562119e+00	 1.228506137623506e+00
 1.350573952066230e+01	 6.858935777494967e+00	 1.201991341656381e+00
 1.414213562372904e+01	 6.222539674427679e+00	 1.181741618122063e+00
 1.477853172679575e+01	 5.586143571360249e+00	 1.165957366629806e+00
 1.541492782986244e+01	 4.949747468292679e+00	 1.139791182524335e+00
 1.605132393292911e+01	 4.313351365224970e+00	 1.123960675993488e+00
 1.668772003599576e+01	 3.676955262157120e+00	 1.118433282581677e+00
 1.732411613906239e+01	 3.040559159089130e+00	 1.117801458409645e+00
 1.796051224212900e+01	 2.404163056020999e+00	 1.128189922642882e+00
 1.131370849898750e+01	 8.485281374224998e+00	 1.316854409612950e+00
 1.195010460205494e+01	 7.848885271157434e+00	 1.275886771484199e+00
 1.258650070512225e+01	 7.212489168089749e+00	 1.240230892100999e+00
 1.322289680818944e+01	 6.576093065021936e+00	 1.210592075370901e+00
 1.385929291125650e+01	 5.939696961954000e+00	 1.187675535081711e+00
 1.449568901432344e+01	 5.303300858885936e+00	 1.172186394914027e+00
 1.513208511739025e+01	 4.666904755817749e+00	 1.150664969764942e+00
 1.576848122045694e+01	 4.030508652749438e+00	 1.132947336628286e+00
 1.640487732352350e+01	 3.394112549680999e+00	 1.125473246596310e+00
 1.704127342658994e+01	 2.757716446612437e+00	 1.121502618063371e+00
 1.767766952965625e+01	 2.121320343543749e+00	 1.133411641442391e+00
 1.103086578651200e+01	 8.202438661755998e+00	 1.336297876123520e+00
 1.166726188958064e+01	 7.566042558687180e+00	 1.291107893462725e+00
 1.230365799264896e+01	 6.929646455618316e+00	 1.251686830999523e+00
 1.294005409571696e+01	 6.293250352549419e+00	 1.218740016529621e+00
 1.357645019878464e+01	 5.656854249480479e+00	 1.192972687727783e+00
 1.421284630185200e+01	 5.020458146411499e+00	 1.175089992160379e+00
 1.484924240491904e+01	 4.384062043342480e+00	 1.160978135842337e+00
 1.548563850798576e+01	 3.747665940273419e+00	 1.141237972732964e+00
 1.612203461105216e+01	 3.111269837204319e+00	 1.127244725970099e+00
 1.675843071411824e+01	 2.474873734135179e+00	 1.123790504566370e+00
 1.739482681718400e+01	 1.838477631065998e+00	 1.137135853305657e+00
 1.074802307403550e+01	 7.919595949288997e+00	 1.356060971316220e+00
 1.138441917710590e+01	 7.283199846218354e+00	 1.306464651988757e+00
 1.202081528017569e+01	 6.646803743147827e+00	 1.263094419531024e+00
 1.265721138324488e+01	 6.010407640077416e+00	 1.226655625626347e+00
 1.329360748631346e+01	 5.374011537007118e+00	 1.197853531835924e+00
 1.393000358938144e+01	 4.737615433936936e+00	 1.177393309611357e+00
 1.456639969244881e+01	 4.101219330866869e+00	 1.165980040307191e+00
 1.520279579551558e+01	 3.464823227796916e+00	 1.148778128527668e+00
 1.583919189858174e+01	 2.828427124727079e+00	 1.127633434994025e+00
 1.647558800164730e+01	 2.192031021657356e+00	 1.124611385426029e+00
 1.711198410471225e+01	 1.555634918587748e+00	 1.139308824591901e+00
 1.046518036155800e+01	 7.636753236823998e+00	 1.376364167167563e+00
 1.110157646463071e+01	 7.000357133750968e+00	 1.322177514320862e+00
 1.173797256770244e+01	 6.363961030678277e+00	 1.274674120236082e+00
 1.237436867077319e+01	 5.727564927605928e+00	 1.234559360483646e+00
 1.301076477384296e+01	 5.091168824533916e+00	 1.202538520510649e+00
 1.364716087691175e+01	 4.454772721462248e+00	 1.179316795653396e+00
 1.428355697997956e+01	 3.818376618390917e+00	 1.165599291149940e+00
 1.491995308304639e+01	 3.181980515319928e+00	 1.148709120491087e+00
 1.555634918611224e+01	 2.545584412249279e+00	 1.126585643130996e+00
 1.619274528917711e+01	 1.909188309178969e+00	 1.123911528957156e+00
 1.682914139224100e+01	 1.272792206108998e+00	 1.139876822467796e+00
 1.018233764907950e+01	 7.353910524360998e+00	 1.397427932982744e+00
 1.081873375215508e+01	 6.717514421285016e+00	 1.338466945046402e+00
 1.145512985522921e+01	 6.081118318209668e+00	 1.286646392984197e+00
 1.209152595830189e+01	 5.444722215134954e+00	 1.242671676253119e+00
 1.272792206137314e+01	 4.808326112060878e+00	 1.207248104185632e+00
 1.336431816444294e+01	 4.171930008987436e+00	 1.181080896002213e+00
 1.400071426751129e+01	 3.535533905914628e+00	 1.164875180823889e+00
 1.463711037057820e+01	 2.899137802842456e+00	 1.144762612245048e+00
 1.527350647364366e+01	 2.262741699770918e+00	 1.124047620651294e+00
 1.590990257670767e+01	 1.626345596700016e+00	 1.121637204281957e+00
 1.654629867977025e+01	 9.899494936297477e-01	 1.138786114907446e+00
 9.899494936600000e+00	 7.071067811900000e+00	 1.419472735395926e+00
 1.053589103967900e+01	 6.434671708820501e+00	 1.355553406081829e+00
 1.117228714275600e+01	 5.798275605742001e+00	 1.299231694974075e+00
 1.180868324583100e+01	 5.161879502664499e+00	 1.251213025415693e+00
 1.244507934890400e+01	 4.525483399588000e+00	 1.212202730623986e+00
 1.308147545197500e+01	 3.889087296512500e+00	 1.182906053703077e+00
 1.371787155504400e+01	 3.252691193438000e+00	 1.157696339793582e+00
 1.435426765811100e+01	 2.616295090364500e+00	 1.133320103252304e+00
 1.499066376117600e+01	 1.979898987292001e+00	 1.119965638632544e+00
 1.562705986423900e+01	 1.343502884220501e+00	 1.117734681330022e+00
 1.626345596730000e+01	 7.071067811500000e-01	 1.135982970692369e+00
 1.909188309202500e+01	 3.535533905925000e+00	 1.092815134027194e+00
 1.972827919509025e+01	 2.899137802859750e+00	 1.083958246845015e+00
 2.036467529815600e+01	 2.262741699793999e+00	 1.076689307320879e+00
 2.100107140122225e+01	 1.626345596727748e+00	 1.072439954864109e+00
 2.163746750428900e+01	 9.899494936609976e-01	 1.070483982047868e+00
 2.227386360735625e+01	 3.535533905937474e-01	 1.069720958663283e+00
 2.291025971042400e+01	-2.828427124740034e-01	 1.069821346326456e+00
 2.354665581349226e+01	-9.192388155422541e-01	 1.070455606653483e+00
 2.418305191656101e+01	-1.555634918611004e+00	 1.071294201260464e+00
 2.481944801963025e+01	-2.192031021680255e+00	 1.072007591763492e+00
 2.545584412270000e+01	-2.828427124750000e+00	 1.072266239778663e+00
 1.880904037955025e+01	 3.252691193449750e+00	 1.104077073146838e+00
 1.944543648261622e+01	 2.616295090383691e+00	 1.093832871528943e+00
 2.008183258568245e+01	 1.979898987317418e+00	 1.085824786405535e+00
 2.071822868874890e+01	 1.343502884250930e+00	 1.079766475094618e+00
 2.135462479181561e+01	 7.071067811842275e-01	 1.076994294338538e+00
 2.199102089488257e+01	 7.071067811730962e-02	 1.075435029379093e+00
 2.262741699794977e+01	-5.656854249498235e-01	 1.074759141832381e+00
 2.326381310101721e+01	-1.202081528017172e+00	 1.074637093314505e+00
 2.390020920408489e+01	-1.838477631084735e+00	 1.074739345441562e+00
 2.453660530715283e+01	-2.474873734152513e+00	 1.074736359829648e+00
 2.517300141022100e+01	-3.111269837220500e+00	 1.074298598094861e+00
 1.852619766707600e+01	 2.969848480974000e+00	 1.113468902835616e+00
 1.916259377014244e+01	 2.333452377907219e+00	 1.102577264533703e+00
 1.979898987320896e+01	 1.697056274840478e+00	 1.093982366789948e+00
 2.043538597627557e+01	 1.060660171773778e+00	 1.086874124375649e+00
 2.107178207934224e+01	 4.242640687071171e-01	 1.082794540725555e+00
 2.170817818240901e+01	-2.121320343595033e-01	 1.080559722059173e+00
 2.234457428547584e+01	-8.485281374260839e-01	 1.079228247170504e+00
 2.298097038854277e+01	-1.484924240492624e+00	 1.078470577675647e+00
 2.361736649160976e+01	-2.121320343559125e+00	 1.077957175190705e+00
 2.425376259467685e+01	-2.757716446625586e+00	 1.077358501331776e+00
 2.489015869774400e+01	-3.394112549692001e+00	 1.076345017714957e+00
 1.824335495460225e+01	 2.687005768497749e+00	 1.121524431355378e+00
 1.887975105766890e+01	 2.050609665430331e+00	 1.110137687840198e+00
 1.951614716073556e+01	 1.414213562363178e+00	 1.101108309306662e+00
 2.015254326380223e+01	 7.778174592962902e-01	 1.093626216339074e+00
 2.078893936686889e+01	 1.414213562296671e-01	 1.087855082323638e+00
 2.142533546993556e+01	-4.949747468366910e-01	 1.085065397818244e+00
 2.206173157300224e+01	-1.131370849902784e+00	 1.083199023455539e+00
 2.269812767606893e+01	-1.767766952968613e+00	 1.081926420851629e+00
 2.333452377913561e+01	-2.404163056034175e+00	 1.080918051622613e+00
 2.397091988220231e+01	-3.040559159099473e+00	 1.079844377384594e+00
 2.460731598526900e+01	-3.676955262164501e+00	 1.077330875301586e+00
 1.796051224212900e+01	 2.404163056020999e+00	 1.128189922642882e+00
 1.859690834519561e+01	 1.767766952953029e+00	 1.116460404236889e+00
 1.923330444826224e+01	 1.131370849885518e+00	 1.107148875595812e+00
 1.986970055132889e+01	 4.949747468184673e-01	 1.099445263116912e+00
 2.050609665439556e+01	-1.414213562481229e-01	 1.092539461575350e+00
 2.114249275746225e+01	-7.778174593142541e-01	 1.088922417771023e+00
 2.177888886052897e+01	-1.414213562379924e+00	 1.086641831802208e+00
 2.241528496359570e+01	-2.050609665445135e+00	 1.084974983957166e+00
 2.305168106666245e+01	-2.687005768509886e+00	 1.083592335852003e+00
 2.368807716972921e+01	-3.323401871574176e+00	 1.082164349102822e+00
 2.432447327279600e+01	-3.959797974638001e+00	 1.078135238083905e+00
 1.767766952965625e+01	 2.121320343543749e+00	 1.133411641442391e+00
 1.831406563272256e+01	 1.484924240475311e+00	 1.121491677319778e+00
 1.895046173578900e+01	 8.485281374074976e-01	 1.112050328105101e+00
 1.958685783885556e+01	 2.121320343403097e-01	 1.104277526008542e+00
 2.022325394192225e+01	-4.242640687262535e-01	 1.097363171618617e+00
 2.085965004498906e+01	-1.060660171792192e+00	 1.092101143032227e+00
 2.149604614805600e+01	-1.697056274857505e+00	 1.089527033325224e+00
 2.213244225112307e+01	-2.333452377922193e+00	 1.087586628106977e+00
 2.276883835419025e+01	-2.969848480986256e+00	 1.085950388993594e+00
 2.340523445725757e+01	-3.606244584049694e+00	 1.083621527332792e+00
 2.404163056032500e+01	-4.242640687112501e+00	 1.079013389922715e+00
 1.739482681718400e+01	 1.838477631065998e+00	 1.137135853305657e+00
 1.803122292024976e+01	 1.202081527997178e+00	 1.125177771492388e+00
 1.866761902331584e+01	 5.656854249291170e-01	 1.115758930089789e+00
 1.930401512638224e+01	-7.071067813818320e-02	 1.108069267120923e+00
 1.994041122944896e+01	-7.071067812047238e-01	 1.101298688987621e+00
 2.057680733251600e+01	-1.343502884270504e+00	 1.094637070468562e+00
 2.121320343558336e+01	-1.979898987335525e+00	 1.091824989139308e+00
 2.184959953865105e+01	-2.616295090399785e+00	 1.089731714415780e+00
 2.248599564171904e+01	-3.252691193463286e+00	 1.087962572162104e+00
 2.312239174478736e+01	-3.889087296526026e+00	 1.084470259278850e+00
 2.375878784785600e+01	-4.525483399588001e+00	 1.079963077644331e+00
 1.711198410471225e+01	 1.555634918587748e+00	 1.139308824591901e+00
 1.774838020777720e+01	 9.192388155186300e-01	 1.127464951965742e+00
 1.838477631084276e+01	 2.828427124503768e-01	 1.118220945612670e+00
 1.902117241390892e+01	-3.535533906170111e-01	 1.110766749368584e+00
 1.965756851697569e+01	-9.899494936835340e-01	 1.104292275448591e+00
 2.029396462004307e+01	-1.626345596749192e+00	 1.097987404445082e+00
 2.093036072311104e+01	-2.262741699813985e+00	 1.093506060359178e+00
 2.156675682617963e+01	-2.899137802877914e+00	 1.091380603998294e+00
 2.220315292924881e+01	-3.535533905940976e+00	 1.089291315324508e+00
 2.283954903231861e+01	-4.171930009003175e+00	 1.085272569391029e+00
 2.347594513538900e+01	-4.808326112064502e+00	 1.080982047875565e+00
 1.682914139224100e+01	 1.272792206108998e+00	 1.139876822467796e+00
 1.746553749530489e+01	 6.363961030396673e-01	 1.128299484758350e+00
 1.810193359836976e+01	-2.872324600389220e-11	 1.119382639544051e+00
 1.873832970143561e+01	-6.363961030961738e-01	 1.112316236473599e+00
 1.937472580450244e+01	-1.272792206162684e+00	 1.106290193575336e+00
 2.001112190757025e+01	-1.909188309228255e+00	 1.100494397255321e+00
 2.064751801063904e+01	-2.545584412292886e+00	 1.094540608099554e+00
 2.128391411370881e+01	-3.181980515356576e+00	 1.092503657969238e+00
 2.192031021677957e+01	-3.818376618419327e+00	 1.089686350801408e+00
 2.255670631985129e+01	-4.454772721481136e+00	 1.086026203828583e+00
 2.319310242292400e+01	-5.091168824542002e+00	 1.082068047043704e+00
 1.654629867977025e+01	 9.899494936297477e-01	 1.138786114907446e+00
 1.718269478283282e+01	 3.535533905602898e-01	 1.127627636696182e+00
 1.781909088589684e+01	-2.828427125081834e-01	 1.119190277561738e+00
 1.845548698896230e+01	-9.192388155756714e-01	 1.112663992965574e+00
 1.909188309202921e+01	-1.555634918642174e+00	 1.107238706749225e+00
 1.972827919509757e+01	-2.192031021707693e+00	 1.102104311132379e+00
 2.036467529816736e+01	-2.828427124772225e+00	 1.096450666710959e+00
 2.100107140123860e+01	-3.464823227835774e+00	 1.093030121482527e+00
 2.163746750431129e+01	-4.101219330898338e+00	 1.089914752422787e+00
 2.227386360738543e+01	-4.737615433959915e+00	 1.086728908551237e+00
 2.291025971046100e+01	-5.374011537020502e+00	 1.083218821376502e+00
 1.626345596730000e+01	 7.071067811500000e-01	 1.135982970692369e+00
 1.689985207036100e+01	 7.071067808049947e-02	 1.125395675412654e+00
 1.753624817342401e+01	-5.656854249880012e-01	 1.117590126151014e+00
 1.817264427648900e+01	-1.202081528055502e+00	 1.111756284181623e+00
 1.880904037955600e+01	-1.838477631122002e+00	 1.107084079159169e+00
 1.944543648262501e+01	-2.474873734187503e+00	 1.102763409116931e+00
 2.008183258569601e+01	-3.111269837252004e+00	 1.097984140464852e+00
 2.071822868876900e+01	-3.747665940315504e+00	 1.092473395834010e+00
 2.135462479184401e+01	-4.384062043378004e+00	 1.089974265680816e+00
 2.199102089492100e+01	-5.020458146439505e+00	 1.087378429319162e+00
 2.262741699800000e+01	-5.656854249500000e+00	 1.084432116902166e+00
