x	y	stress_xx
 7.0710678119e+00	 7.0710678119e+00	-5.9043875305e-02
 7.0710678119e+00	 7.0710678119e+00	-5.9043875305e-02
 7.0710678119e+00	 7.0710678119e+00	-5.9043875305e-02
 7.0710678119e+00	 7.0710678119e+00	-5.9043875305e-02
 7.0710678119e+00	 7.0710678119e+00	-5.9043875305e-02
 7.0710678119e+00	 7.0710678119e+00	-5.9043875305e-02
 7.0710678119e+00	 7.0710678119e+00	-5.9043875305e-02
 7.0710678119e+00	 7.0710678119e+00	-5.9043875305e-02
 7.0710678119e+00	 7.0710678119e+00	-5.9043875305e-02
 7.0710678119e+00	 7.0710678119e+00	-5.9043875305e-02
 7.0710678119e+00	 7.0710678119e+00	-5.9043875305e-02
 7.0746033458e+00	 7.0746033458e+00	-5.0416125757e-01
 7.0742497924e+00	 7.0749568992e+00	-1.4553495432e+00
 7.0738962390e+00	 7.0753104526e+00	-2.2245484487e+00
 7.0735426856e+00	 7.0756640060e+00	-2.8117579740e+00
 7.0731891322e+00	 7.0760175594e+00	-3.2169781190e+00
 7.0728355789e+00	 7.0763711128e+00	-3.4402088839e+00
 7.0724820255e+00	 7.0767246661e+00	-3.4814502686e+00
 7.0721284721e+00	 7.0770782195e+00	-3.3407022732e+00
 7.0717749187e+00	 7.0774317729e+00	-3.0179648975e+00
 7.0714213653e+00	 7.0777853263e+00	-2.5132381416e+00
 7.0710678119e+00	 7.0781388797e+00	-1.8265220055e+00
 7.0852099475e+00	 7.0852099475e+00	-2.5625976041e-01
 7.0837957340e+00	 7.0866241611e+00	-7.3052938985e-01
 7.0823815204e+00	 7.0880383746e+00	-1.1135524431e+00
 7.0809673068e+00	 7.0894525882e+00	-1.4053289201e+00
 7.0795530933e+00	 7.0908668018e+00	-1.6058588209e+00
 7.0781388797e+00	 7.0922810153e+00	-1.7151421455e+00
 7.0767246661e+00	 7.0936952289e+00	-1.7331788938e+00
 7.0753104526e+00	 7.0951094425e+00	-1.6599690659e+00
 7.0738962390e+00	 7.0965236560e+00	-1.4955126618e+00
 7.0724820255e+00	 7.0979378696e+00	-1.2398096814e+00
 7.0710678119e+00	 7.0993520831e+00	-8.9286012471e-01
 7.1028876171e+00	 7.1028876171e+00	-1.6888814168e-01
 7.0997056365e+00	 7.1060695976e+00	-4.8567967920e-01
 7.0965236560e+00	 7.1092515781e+00	-7.4156632310e-01
 7.0933416755e+00	 7.1124335586e+00	-9.3654807331e-01
 7.0901596950e+00	 7.1156155391e+00	-1.0706249297e+00
 7.0869777145e+00	 7.1187975196e+00	-1.1437968923e+00
 7.0837957340e+00	 7.1219795001e+00	-1.1560639610e+00
 7.0806137534e+00	 7.1251614807e+00	-1.1074261356e+00
 7.0774317729e+00	 7.1283434612e+00	-9.9788341611e-01
 7.0742497924e+00	 7.1315254417e+00	-8.2743580245e-01
 7.0710678119e+00	 7.1347074222e+00	-5.9608329453e-01
 7.1276363544e+00	 7.1276363544e+00	-1.2517330924e-01
 7.1219795001e+00	 7.1332932086e+00	-3.6344280963e-01
 7.1163226459e+00	 7.1389500629e+00	-5.5599583100e-01
 7.1106657916e+00	 7.1446069171e+00	-7.0283237289e-01
 7.1050089374e+00	 7.1502637714e+00	-8.0395243486e-01
 7.0993520831e+00	 7.1559206256e+00	-8.5935601645e-01
 7.0936952289e+00	 7.1615774799e+00	-8.6904311721e-01
 7.0880383746e+00	 7.1672343341e+00	-8.3301373668e-01
 7.0823815204e+00	 7.1728911884e+00	-7.5126787442e-01
 7.0767246661e+00	 7.1785480426e+00	-6.2380552997e-01
 7.0710678119e+00	 7.1842048969e+00	-4.5062670287e-01
 7.1594561595e+00	 7.1594561595e+00	-9.9698168389e-02
 7.1506173248e+00	 7.1682949943e+00	-2.9086646378e-01
 7.1417784900e+00	 7.1771338291e+00	-4.4543684203e-01
 7.1329396553e+00	 7.1859726638e+00	-5.6340930139e-01
 7.1241008205e+00	 7.1948114986e+00	-6.4478384015e-01
 7.1152619857e+00	 7.2036503334e+00	-6.8956045658e-01
 7.1064231510e+00	 7.2124891681e+00	-6.9773914896e-01
 7.0975843162e+00	 7.2213280029e+00	-6.6931991555e-01
 7.0887454814e+00	 7.2301668377e+00	-6.0430275464e-01
 7.0799066467e+00	 7.2390056724e+00	-5.0268766449e-01
 7.0710678119e+00	 7.2478445072e+00	-3.6447464337e-01
 7.1983470325e+00	 7.1983470325e+00	-8.3701794471e-02
 7.1856191105e+00	 7.2110749546e+00	-2.4342214929e-01
 7.1728911884e+00	 7.2238028766e+00	-3.7262576818e-01
 7.1601632663e+00	 7.2365307987e+00	-4.7131264600e-01
 7.1474353443e+00	 7.2492587208e+00	-5.3948277760e-01
 7.1347074222e+00	 7.2619866428e+00	-5.7713615780e-01
 7.1219795001e+00	 7.2747145649e+00	-5.8427278148e-01
 7.1092515781e+00	 7.2874424869e+00	-5.6089264346e-01
 7.0965236560e+00	 7.3001704090e+00	-5.0699573859e-01
 7.0837957340e+00	 7.3128983311e+00	-4.2258206173e-01
 7.0710678119e+00	 7.3256262531e+00	-3.0765160771e-01
 7.2443089733e+00	 7.2443089733e+00	-7.3354128557e-02
 7.2269848572e+00	 7.2616330894e+00	-2.1054079279e-01
 7.2096607410e+00	 7.2789572056e+00	-3.2155526513e-01
 7.1923366249e+00	 7.2962813217e+00	-4.0639753260e-01
 7.1750125087e+00	 7.3136054378e+00	-4.6506758220e-01
 7.1576883926e+00	 7.3309295540e+00	-4.9756540093e-01
 7.1403642765e+00	 7.3482536701e+00	-5.0389097578e-01
 7.1230401603e+00	 7.3655777862e+00	-4.8404429378e-01
 7.1057160442e+00	 7.3829019024e+00	-4.3802534191e-01
 7.0883919280e+00	 7.4002260185e+00	-3.6583410719e-01
 7.0710678119e+00	 7.4175501347e+00	-2.6747057661e-01
 7.2973419819e+00	 7.2973419819e+00	-6.6710887692e-02
 7.2747145649e+00	 7.3199693989e+00	-1.8691425425e-01
 7.2520871479e+00	 7.3425968159e+00	-2.8420404575e-01
 7.2294597309e+00	 7.3652242329e+00	-3.5858023325e-01
 7.2068323139e+00	 7.3878516499e+00	-4.1004278779e-01
 7.1842048969e+00	 7.4104790669e+00	-4.3859168040e-01
 7.1615774799e+00	 7.4331064838e+00	-4.4422688213e-01
 7.1389500629e+00	 7.4557339008e+00	-4.2694836402e-01
 7.1163226459e+00	 7.4783613178e+00	-3.8675609710e-01
 7.0936952289e+00	 7.5009887348e+00	-3.2365005242e-01
 7.0710678119e+00	 7.5236161518e+00	-2.3763020102e-01
 7.3574460583e+00	 7.3574460583e+00	-6.2676009234e-02
 7.3288082336e+00	 7.3860838829e+00	-1.6957950993e-01
 7.3001704090e+00	 7.4147217075e+00	-2.5610374119e-01
 7.2715325844e+00	 7.4433595322e+00	-3.2224864432e-01
 7.2428947597e+00	 7.4719973568e+00	-3.6801416060e-01
 7.2142569351e+00	 7.5006351814e+00	-3.9340023133e-01
 7.1856191105e+00	 7.5292730061e+00	-3.9840679780e-01
 7.1569812858e+00	 7.5579108307e+00	-3.8303380129e-01
 7.1283434612e+00	 7.5865486554e+00	-3.4728118310e-01
 7.0997056365e+00	 7.6151864800e+00	-2.9114888452e-01
 7.0710678119e+00	 7.6438243046e+00	-2.1463684684e-01
 7.4246212025e+00	 7.4246212025e+00	-6.0580495040e-02
 7.3892658634e+00	 7.4599765416e+00	-1.5674787238e-01
 7.3539105244e+00	 7.4953318806e+00	-2.3456297431e-01
 7.3185551853e+00	 7.5306872197e+00	-2.9402569036e-01
 7.2831998463e+00	 7.5660425587e+00	-3.3513591006e-01
 7.2478445072e+00	 7.6013978978e+00	-3.5789352293e-01
 7.2124891681e+00	 7.6367532368e+00	-3.6229841852e-01
 7.1771338291e+00	 7.6721085759e+00	-3.4835048634e-01
 7.1417784900e+00	 7.7074639149e+00	-3.1604961592e-01
 7.1064231510e+00	 7.7428192540e+00	-2.6539569678e-01
 7.0710678119e+00	 7.7781745931e+00	-1.9638861847e-01
 7.4246212025e+00	 7.4246212025e+00	-6.0580495040e-02
 7.3892658634e+00	 7.4599765416e+00	-1.5674787238e-01
 7.3539105244e+00	 7.4953318806e+00	-2.3456297431e-01
 7.3185551853e+00	 7.5306872197e+00	-2.9402569036e-01
 7.2831998463e+00	 7.5660425587e+00	-3.3513591006e-01
 7.2478445072e+00	 7.6013978978e+00	-3.5789352293e-01
 7.2124891681e+00	 7.6367532368e+00	-3.6229841852e-01
 7.1771338291e+00	 7.6721085759e+00	-3.4835048634e-01
 7.1417784900e+00	 7.7074639149e+00	-3.1604961592e-01
 7.1064231510e+00	 7.7428192540e+00	-2.6539569678e-01
 7.0710678119e+00	 7.7781745931e+00	-1.9638861847e-01
 7.4988674145e+00	 7.4988674145e+00	-4.7410900181e-02
 7.4560874543e+00	 7.5416473748e+00	-1.3404662090e-01
 7.4133074940e+00	 7.5844273350e+00	-2.0326577115e-01
 7.3705275337e+00	 7.6272072953e+00	-2.5506815522e-01
 7.3277475735e+00	 7.6699872555e+00	-2.8945357742e-01
 7.2849676132e+00	 7.7127672158e+00	-3.0642184202e-01
 7.2421876530e+00	 7.7555471761e+00	-3.0597275333e-01
 7.1994076927e+00	 7.7983271363e+00	-2.8810611564e-01
 7.1566277324e+00	 7.8411070966e+00	-2.5282173324e-01
 7.1138477722e+00	 7.8838870568e+00	-2.0011941041e-01
 7.0710678119e+00	 7.9266670171e+00	-1.2999895145e-01
 7.5801846944e+00	 7.5801846944e+00	-3.7002419396e-02
 7.5292730061e+00	 7.6310963826e+00	-1.1622925304e-01
 7.4783613179e+00	 7.6820080708e+00	-1.7906353509e-01
 7.4274496296e+00	 7.7329197591e+00	-2.2550493570e-01
 7.3765379414e+00	 7.7838314473e+00	-2.5555312500e-01
 7.3256262531e+00	 7.8347431355e+00	-2.6920777312e-01
 7.2747145649e+00	 7.8856548238e+00	-2.6646855021e-01
 7.2238028766e+00	 7.9365665120e+00	-2.4733512637e-01
 7.1728911884e+00	 7.9874782003e+00	-2.1180717176e-01
 7.1219795001e+00	 8.0383898885e+00	-1.5988435648e-01
 7.0710678119e+00	 8.0893015768e+00	-9.1566350661e-02
 7.6685730420e+00	 7.6685730420e+00	-2.8894289522e-02
 7.6088225190e+00	 7.7283235650e+00	-1.0219694097e-01
 7.5490719960e+00	 7.7880740880e+00	-1.6014651542e-01
 7.4893214730e+00	 7.8478246110e+00	-2.0274247966e-01
 7.4295709500e+00	 7.9075751340e+00	-2.2998430047e-01
 7.3698204270e+00	 7.9673256570e+00	-2.4187144461e-01
 7.3100699039e+00	 8.0270761800e+00	-2.3840337885e-01
 7.2503193809e+00	 8.0868267030e+00	-2.1957956997e-01
 7.1905688579e+00	 8.1465772260e+00	-1.8539948472e-01
 7.1308183349e+00	 8.2063277490e+00	-1.3586258986e-01
 7.0710678119e+00	 8.2660782721e+00	-7.0968352138e-02
 7.7640324575e+00	 7.7640324575e+00	-2.2717557551e-02
 7.6947359929e+00	 7.8333289220e+00	-9.1160639866e-02
 7.6254395284e+00	 7.9026253866e+00	-1.4526737078e-01
 7.5561430638e+00	 7.9719218511e+00	-1.8503691849e-01
 7.4868465992e+00	 8.0412183156e+00	-2.1046845121e-01
 7.4175501347e+00	 8.1105147802e+00	-2.2156113712e-01
 7.3482536701e+00	 8.1798112448e+00	-2.1831414443e-01
 7.2789572056e+00	 8.2491077093e+00	-2.0072664129e-01
 7.2096607410e+00	 8.3184041739e+00	-1.6879779589e-01
 7.1403642765e+00	 8.3877006384e+00	-1.2252677640e-01
 7.0710678119e+00	 8.4569971030e+00	-6.1912750956e-02
 7.8665629407e+00	 7.8665629407e+00	-1.8173022312e-02
 7.7870134278e+00	 7.9461124536e+00	-8.2535095235e-02
 7.7074639150e+00	 8.0256619665e+00	-1.3353538219e-01
 7.6279144021e+00	 8.1052114793e+00	-1.7117262484e-01
 7.5483648892e+00	 8.1847609922e+00	-1.9544556485e-01
 7.4688153763e+00	 8.2643105051e+00	-2.0635294385e-01
 7.3892658634e+00	 8.3438600180e+00	-2.0389350349e-01
 7.3097163506e+00	 8.4234095309e+00	-1.8806598538e-01
 7.2301668377e+00	 8.5029590437e+00	-1.5886913112e-01
 7.1506173248e+00	 8.5825085566e+00	-1.1630168230e-01
 7.0710678119e+00	 8.6620580695e+00	-6.0362380517e-02
 7.9761644918e+00	 7.9761644918e+00	-1.5013991869e-02
 7.8856548238e+00	 8.0666741598e+00	-7.5873111829e-02
 7.7951451558e+00	 8.1571838278e+00	-1.2429383813e-01
 7.7046354878e+00	 8.2476934958e+00	-1.6027431738e-01
 7.6141258198e+00	 8.3382031637e+00	-1.8381269616e-01
 7.5236161519e+00	 8.4287128317e+00	-1.9490712103e-01
 7.4331064839e+00	 8.5192224997e+00	-1.9355573853e-01
 7.3425968159e+00	 8.6097321677e+00	-1.7975669519e-01
 7.2520871479e+00	 8.7002418357e+00	-1.5350813750e-01
 7.1615774799e+00	 8.7907515037e+00	-1.1480821193e-01
 7.0710678119e+00	 8.8812611717e+00	-6.3655064937e-02
 8.0928371107e+00	 8.0928371107e+00	-1.3033176012e-02
 7.9906601808e+00	 8.1950140406e+00	-7.0823273159e-02
 7.8884832509e+00	 8.2971909704e+00	-1.1704398925e-01
 7.7863063211e+00	 8.3993679003e+00	-1.5169265778e-01
 7.6841293912e+00	 8.5015448302e+00	-1.7476661221e-01
 7.5819524613e+00	 8.6037217601e+00	-1.8626318595e-01
 7.4797755314e+00	 8.7058986899e+00	-1.8617971241e-01
 7.3775986015e+00	 8.8080756198e+00	-1.7451352493e-01
 7.2754216717e+00	 8.9102525497e+00	-1.5126195684e-01
 7.1732447418e+00	 9.0124294796e+00	-1.1642234141e-01
 7.0710678119e+00	 9.1146064095e+00	-6.9992011897e-02
 8.2165807974e+00	 8.2165807974e+00	-1.2052786611e-02
 8.1020294988e+00	 8.3311320959e+00	-6.7101867729e-02
 7.9874782003e+00	 8.4456833945e+00	-1.1139622487e-01
 7.8729269017e+00	 8.5602346930e+00	-1.4493210065e-01
 7.7583756032e+00	 8.6747859916e+00	-1.6770573763e-01
 7.6438243047e+00	 8.7893372901e+00	-1.7971337832e-01
 7.5292730061e+00	 8.9038885887e+00	-1.8095126519e-01
 7.4147217076e+00	 9.0184398872e+00	-1.7141564062e-01
 7.3001704090e+00	 9.1329911858e+00	-1.5110274697e-01
 7.1856191105e+00	 9.2475424843e+00	-1.2000882652e-01
 7.0710678119e+00	 9.3620937829e+00	-7.8130121501e-02
 8.3473955519e+00	 8.3473955519e+00	-1.1917035217e-02
 8.2197627779e+00	 8.4750283259e+00	-6.4473717808e-02
 8.0921300039e+00	 8.6026610999e+00	-1.0703776171e-01
 7.9644972299e+00	 8.7302938739e+00	-1.3960396968e-01
 7.8368644559e+00	 8.8579266479e+00	-1.6216714439e-01
 7.7092316819e+00	 8.9855594219e+00	-1.7472208843e-01
 7.5815989079e+00	 9.1131921959e+00	-1.7726360432e-01
 7.4539661339e+00	 9.2408249699e+00	-1.6978649446e-01
 7.3263333599e+00	 9.3684577439e+00	-1.5228556121e-01
 7.1987005859e+00	 9.4960905179e+00	-1.2475560680e-01
 7.0710678119e+00	 9.6237232919e+00	-8.7191433399e-02
 8.4852813742e+00	 8.4852813742e+00	-1.2486398502e-02
 8.3438600180e+00	 8.6267027304e+00	-6.2738753098e-02
 8.2024386618e+00	 8.7681240867e+00	-1.0371067614e-01
 8.0610173055e+00	 8.9095454429e+00	-1.3539509743e-01
 7.9195959493e+00	 9.0509667992e+00	-1.5778494662e-01
 7.7781745931e+00	 9.1923881554e+00	-1.7087315326e-01
 7.6367532368e+00	 9.3338095116e+00	-1.7465264674e-01
 7.4953318806e+00	 9.4752308679e+00	-1.6911635635e-01
 7.3539105244e+00	 9.6166522241e+00	-1.5425721124e-01
 7.2124891681e+00	 9.7580735804e+00	-1.3006814044e-01
 7.0710678119e+00	 9.8994949366e+00	-9.6542072843e-02
 7.0710678119e+00	 7.0710678119e+00	-5.9043875305e-02
 7.0710678119e+00	 7.0710678119e+00	-5.9043875305e-02
 7.0710678119e+00	 7.0710678119e+00	-5.9043875305e-02
 7.0710678119e+00	 7.0710678119e+00	-5.9043875305e-02
 7.0710678119e+00	 7.0710678119e+00	-5.9043875305e-02
 7.0710678119e+00	 7.0710678119e+00	-5.9043875305e-02
 7.0710678119e+00	 7.0710678119e+00	-5.9043875305e-02
 7.0710678119e+00	 7.0710678119e+00	-5.9043875305e-02
 7.0710678119e+00	 7.0710678119e+00	-5.9043875305e-02
 7.0710678119e+00	 7.0710678119e+00	-5.9043875305e-02
 7.0710678119e+00	 7.0710678119e+00	-5.9043875305e-02
 7.0710678119e+00	 7.0781388797e+00	-4.9483519864e+00
 7.0707142585e+00	 7.0777853263e+00	-3.1901671559e+00
 7.0703607051e+00	 7.0774317729e+00	-1.7433296573e+00
 7.0700071517e+00	 7.0770782195e+00	-6.0783949042e-01
 7.0696535983e+00	 7.0767246661e+00	 2.1630334462e-01
 7.0693000449e+00	 7.0763711128e+00	 7.2909884787e-01
 7.0689464916e+00	 7.0760175594e+00	 9.3054701932e-01
 7.0685929382e+00	 7.0756640060e+00	 8.2064785896e-01
 7.0682393848e+00	 7.0753104526e+00	 3.9940136681e-01
 7.0678858314e+00	 7.0749568992e+00	-3.3319245716e-01
 7.0675322780e+00	 7.0746033458e+00	-1.3771336129e+00
 7.0710678119e+00	 7.0993520831e+00	-2.5132737076e+00
 7.0696535983e+00	 7.0979378696e+00	-1.6178194401e+00
 7.0682393848e+00	 7.0965236560e+00	-8.8020703983e-01
 7.0668251712e+00	 7.0951094425e+00	-3.0043650692e-01
 7.0654109577e+00	 7.0936952289e+00	 1.2149215868e-01
 7.0639967441e+00	 7.0922810153e+00	 3.8557895695e-01
 7.0625825305e+00	 7.0908668018e+00	 4.9182388790e-01
 7.0611683170e+00	 7.0894525882e+00	 4.4022695151e-01
 7.0597541034e+00	 7.0880383746e+00	 2.3078814778e-01
 7.0583398898e+00	 7.0866241611e+00	-1.3649252332e-01
 7.0569256763e+00	 7.0852099475e+00	-6.6161506178e-01
 7.0710678119e+00	 7.1347074222e+00	-1.6526495890e+00
 7.0678858314e+00	 7.1315254417e+00	-1.0573783472e+00
 7.0647038509e+00	 7.1283434612e+00	-5.6747658385e-01
 7.0615218704e+00	 7.1251614807e+00	-1.8294429889e-01
 7.0583398898e+00	 7.1219795001e+00	 9.6218507555e-02
 7.0551579093e+00	 7.1187975196e+00	 2.7001183540e-01
 7.0519759288e+00	 7.1156155391e+00	 3.3843568457e-01
 7.0487939483e+00	 7.1124335586e+00	 3.0149005497e-01
 7.0456119678e+00	 7.1092515781e+00	 1.5917494650e-01
 7.0424299873e+00	 7.1060695976e+00	-8.8509640905e-02
 7.0392480067e+00	 7.1028876171e+00	-4.4156370735e-01
 7.0710678119e+00	 7.1842048969e+00	-1.2133865114e+00
 7.0654109577e+00	 7.1785480426e+00	-7.7048624248e-01
 7.0597541034e+00	 7.1728911884e+00	-4.0647459741e-01
 7.0540972492e+00	 7.1672343341e+00	-1.2135157668e-01
 7.0484403949e+00	 7.1615774799e+00	 8.4882819219e-02
 7.0427835407e+00	 7.1559206256e+00	 2.1222858982e-01
 7.0371266864e+00	 7.1502637714e+00	 2.6068573463e-01
 7.0314698322e+00	 7.1446069171e+00	 2.3025425316e-01
 7.0258129779e+00	 7.1389500629e+00	 1.2093414493e-01
 7.0201561237e+00	 7.1332932086e+00	-6.7274590533e-02
 7.0144992694e+00	 7.1276363544e+00	-3.3437195373e-01
 7.0710678119e+00	 7.2478445072e+00	-9.4714805101e-01
 7.0622289771e+00	 7.2390056724e+00	-5.9632636589e-01
 7.0533901424e+00	 7.2301668377e+00	-3.0842620096e-01
 7.0445513076e+00	 7.2213280029e+00	-8.3447558080e-02
 7.0357124728e+00	 7.2124891681e+00	 7.8609560915e-02
 7.0268736381e+00	 7.2036503334e+00	 1.7774515418e-01
 7.0180348033e+00	 7.1948114986e+00	 2.1395921986e-01
 7.0091959685e+00	 7.1859726638e+00	 1.8725175613e-01
 7.0003571338e+00	 7.1771338291e+00	 9.7622761121e-02
 6.9915182990e+00	 7.1682949943e+00	-5.4927767002e-02
 6.9826794642e+00	 7.1594561595e+00	-2.7039983009e-01
 7.0710678119e+00	 7.3256262531e+00	-7.6868303585e-01
 7.0583398898e+00	 7.3128983311e+00	-4.7945724341e-01
 7.0456119678e+00	 7.3001704090e+00	-2.4247505189e-01
 7.0328840457e+00	 7.2874424869e+00	-5.7736466798e-02
 7.0201561237e+00	 7.2747145649e+00	 7.4758506359e-02
 7.0074282016e+00	 7.2619866428e+00	 1.5500986207e-01
 6.9947002795e+00	 7.2492587208e+00	 1.8301759482e-01
 6.9819723575e+00	 7.2365307987e+00	 1.5878169910e-01
 6.9692444354e+00	 7.2238028766e+00	 8.2302169402e-02
 6.9565165133e+00	 7.2110749546e+00	-4.6420999793e-02
 6.9437885913e+00	 7.1983470325e+00	-2.2738781399e-01
 7.0710678119e+00	 7.4175501347e+00	-6.4083885423e-01
 7.0537436958e+00	 7.4002260185e+00	-3.9565903970e-01
 7.0364195796e+00	 7.3829019024e+00	-1.9507889997e-01
 7.0190954635e+00	 7.3655777862e+00	-3.9098448947e-02
 7.0017713473e+00	 7.3482536701e+00	 7.2282299474e-02
 6.9844472312e+00	 7.3309295540e+00	 1.3906333140e-01
 6.9671231151e+00	 7.3136054378e+00	 1.6124463293e-01
 6.9497989989e+00	 7.2962813217e+00	 1.3882619017e-01
 6.9324748828e+00	 7.2789572056e+00	 7.1807989212e-02
 6.9151507666e+00	 7.2616330894e+00	-3.9809983831e-02
 6.8978266505e+00	 7.2443089733e+00	-1.9602774286e-01
 7.0710678119e+00	 7.5236161518e+00	-5.4482672855e-01
 7.0484403949e+00	 7.5009887348e+00	-3.3266217799e-01
 7.0258129779e+00	 7.4783613178e+00	-1.5935439785e-01
 7.0031855609e+00	 7.4557339008e+00	-2.4903419097e-02
 6.9805581439e+00	 7.4331064838e+00	 7.0690727311e-02
 6.9579307269e+00	 7.4104790669e+00	 1.2742801041e-01
 6.9353033099e+00	 7.3878516499e+00	 1.4530839922e-01
 6.9126758929e+00	 7.3652242329e+00	 1.2433186279e-01
 6.8900484759e+00	 7.3425968159e+00	 6.4498370138e-02
 6.8674210589e+00	 7.3199693989e+00	-3.4192109691e-02
 6.8447936419e+00	 7.2973419819e+00	-1.7173960767e-01
 7.0710678119e+00	 7.6438243046e+00	-4.7011496891e-01
 7.0424299873e+00	 7.6151864800e+00	-2.8357876258e-01
 7.0137921626e+00	 7.5865486554e+00	-1.3142579758e-01
 6.9851543380e+00	 7.5579108307e+00	-1.3656136681e-02
 6.9565165133e+00	 7.5292730061e+00	 6.9730157336e-02
 6.9278786887e+00	 7.5006351814e+00	 1.1873302169e-01
 6.8992408641e+00	 7.4719973568e+00	 1.3335239361e-01
 6.8706030394e+00	 7.4433595322e+00	 1.1358821031e-01
 6.8419652148e+00	 7.4147217075e+00	 5.9440409020e-02
 6.8133273902e+00	 7.3860838829e+00	-2.9091073047e-02
 6.7846895655e+00	 7.3574460583e+00	-1.5200629867e-01
 7.0710678119e+00	 7.7781745931e+00	-4.1033357828e-01
 7.0357124728e+00	 7.7428192540e+00	-2.4423605555e-01
 7.0003571338e+00	 7.7074639149e+00	-1.0893754169e-01
 6.9650017947e+00	 7.6721085759e+00	-4.4381548112e-03
 6.9296464557e+00	 7.6367532368e+00	 6.9261986944e-02
 6.8942911166e+00	 7.6013978978e+00	 1.1216276545e-01
 6.8589357775e+00	 7.5660425587e+00	 1.2426406257e-01
 6.8235804385e+00	 7.5306872197e+00	 1.0556576019e-01
 6.7882250994e+00	 7.4953318806e+00	 5.6067740170e-02
 6.7528697604e+00	 7.4599765416e+00	-2.4230115615e-02
 6.7175144213e+00	 7.4246212025e+00	-1.3532792529e-01
 7.0710678119e+00	 7.7781745931e+00	-4.1033357828e-01
 7.0357124728e+00	 7.7428192540e+00	-2.4423605555e-01
 7.0003571338e+00	 7.7074639149e+00	-1.0893754169e-01
 6.9650017947e+00	 7.6721085759e+00	-4.4381548112e-03
 6.9296464557e+00	 7.6367532368e+00	 6.9261986944e-02
 6.8942911166e+00	 7.6013978978e+00	 1.1216276545e-01
 6.8589357775e+00	 7.5660425587e+00	 1.2426406257e-01
 6.8235804385e+00	 7.5306872197e+00	 1.0556576019e-01
 6.7882250994e+00	 7.4953318806e+00	 5.6067740170e-02
 6.7528697604e+00	 7.4599765416e+00	-2.4230115615e-02
 6.7175144213e+00	 7.4246212025e+00	-1.3532792529e-01
 7.0710678119e+00	 7.9266670171e+00	-3.7407503321e-01
 7.0282878516e+00	 7.8838870568e+00	-2.2455511521e-01
 6.9855078914e+00	 7.8411070966e+00	-1.0273909756e-01
 6.9427279311e+00	 7.7983271363e+00	-8.6271895416e-03
 6.8999479708e+00	 7.7555471761e+00	 5.7780399578e-02
 6.8571680106e+00	 7.7127672158e+00	 9.6483460519e-02
 6.8143880503e+00	 7.6699872555e+00	 1.0748178401e-01
 6.7716080901e+00	 7.6272072953e+00	 9.0775160766e-02
 6.7288281298e+00	 7.5844273350e+00	 4.6363381526e-02
 6.6860481695e+00	 7.5416473748e+00	-2.5753762988e-02
 6.6432682093e+00	 7.4988674145e+00	-1.2557648205e-01
 7.0710678119e+00	 8.0893015768e+00	-3.4222689225e-01
 7.0201561237e+00	 8.0383898885e+00	-2.0566200525e-01
 6.9692444354e+00	 7.9874782003e+00	-9.4270416176e-02
 6.9183327472e+00	 7.9365665120e+00	-8.0524777807e-03
 6.8674210589e+00	 7.8856548238e+00	 5.2991457200e-02
 6.8165093707e+00	 7.8347431355e+00	 8.8861036026e-02
 6.7655976824e+00	 7.7838314473e+00	 9.9555905962e-02
 6.7146859942e+00	 7.7329197591e+00	 8.5075714273e-02
 6.6637743059e+00	 7.6820080708e+00	 4.5420108226e-02
 6.6128626177e+00	 7.6310963826e+00	-1.9411264910e-02
 6.5619509294e+00	 7.5801846944e+00	-1.0941875786e-01
 7.0710678119e+00	 8.2660782721e+00	-3.1404664957e-01
 7.0113172889e+00	 8.2063277490e+00	-1.8781715827e-01
 6.9515667659e+00	 8.1465772260e+00	-8.4652489234e-02
 6.8918162429e+00	 8.0868267030e+00	-4.5532126610e-03
 6.8320657199e+00	 8.0270761800e+00	 5.2480101239e-02
 6.7723151968e+00	 7.9673256570e+00	 8.6446882264e-02
 6.7125646738e+00	 7.9075751340e+00	 9.7346560216e-02
 6.6528141508e+00	 7.8478246110e+00	 8.5178564900e-02
 6.5930636278e+00	 7.7880740880e+00	 4.9942326126e-02
 6.5333131048e+00	 7.7283235650e+00	-8.3627262919e-03
 6.4735625818e+00	 7.6685730420e+00	-8.9737162536e-02
 7.0710678119e+00	 8.4569971030e+00	-2.8889514242e-01
 7.0017713473e+00	 8.3877006384e+00	-1.7105594057e-01
 6.9324748828e+00	 8.3184041739e+00	-7.4496243079e-02
 6.8631784182e+00	 8.2491077093e+00	 7.8306055203e-04
 6.7938819537e+00	 8.1798112448e+00	 5.4781080827e-02
 6.7245854891e+00	 8.1105147802e+00	 8.7496928258e-02
 6.6552890246e+00	 8.0412183156e+00	 9.8929713363e-02
 6.5859925600e+00	 7.9719218511e+00	 8.9078546670e-02
 6.5166960954e+00	 7.9026253866e+00	 5.7942538711e-02
 6.4473996309e+00	 7.8333289220e+00	 5.5208000291e-03
 6.3781031663e+00	 7.7640324575e+00	-6.8187558828e-02
 7.0710678119e+00	 8.6620580695e+00	-2.6622934661e-01
 6.9915182990e+00	 8.5825085566e+00	-1.5530473097e-01
 6.9119687861e+00	 8.5029590437e+00	-6.4126486640e-02
 6.8324192732e+00	 8.4234095309e+00	 7.3040407235e-03
 6.7528697604e+00	 8.3438600180e+00	 5.8985505489e-02
 6.6733202475e+00	 8.2643105051e+00	 9.0916562033e-02
 6.5937707346e+00	 8.1847609922e+00	 1.0309586475e-01
 6.5142212217e+00	 8.1052114793e+00	 9.5522068034e-02
 6.4346717088e+00	 8.0256619665e+00	 6.8193826312e-02
 6.3551221959e+00	 7.9461124536e+00	 2.1109794011e-02
 6.2755726831e+00	 7.8665629407e+00	-4.5731374426e-02
 7.0710678119e+00	 8.8812611717e+00	-2.4558783133e-01
 6.9805581439e+00	 8.7907515037e+00	-1.4043862592e-01
 6.8900484759e+00	 8.7002418357e+00	-5.3702551699e-02
 6.7995388079e+00	 8.6097321677e+00	 1.4618409317e-02
 6.7090291399e+00	 8.5192224997e+00	 6.4522275120e-02
 6.6185194719e+00	 8.4287128317e+00	 9.6007063731e-02
 6.5280098039e+00	 8.3382031637e+00	 1.0907079319e-01
 6.4375001359e+00	 8.2476934958e+00	 1.0371148156e-01
 6.3469904680e+00	 8.1571838278e+00	 7.9927146935e-02
 6.2564808000e+00	 8.0666741598e+00	 3.7715807413e-02
 6.1659711320e+00	 7.9761644918e+00	-2.2924518872e-02
 7.0710678119e+00	 9.1146064095e+00	-2.2657578770e-01
 6.9688908820e+00	 9.0124294796e+00	-1.2631055954e-01
 6.8667139521e+00	 8.9102525497e+00	-4.3285652213e-02
 6.7645370222e+00	 8.8080756198e+00	 2.2496082695e-02
 6.6623600924e+00	 8.7058986899e+00	 7.1031793619e-02
 6.5601831625e+00	 8.6037217601e+00	 1.0231862903e-01
 6.4580062326e+00	 8.5015448302e+00	 1.1635373745e-01
 6.3558293027e+00	 8.3993679003e+00	 1.1313426742e-01
 6.2536523728e+00	 8.2971909704e+00	 9.2657367521e-02
 6.1514754429e+00	 8.1950140406e+00	 5.4920186375e-02
 6.0492985131e+00	 8.0928371107e+00	-8.0127362493e-05
 7.0710678119e+00	 9.3620937829e+00	-2.0885183878e-01
 6.9565165133e+00	 9.2475424843e+00	-1.1276597321e-01
 6.8419652148e+00	 9.1329911858e+00	-3.2877611983e-02
 6.7274139162e+00	 9.0184398872e+00	 3.0809226671e-02
 6.6128626177e+00	 8.9038885887e+00	 7.8290524570e-02
 6.4983113191e+00	 8.7893372901e+00	 1.0956226359e-01
 6.3837600206e+00	 8.6747859916e+00	 1.2462042568e-01
 6.2692087220e+00	 8.5602346930e+00	 1.2346099281e-01
 6.1546574235e+00	 8.4456833945e+00	 1.0607994705e-01
 6.0401061249e+00	 8.3311320959e+00	 7.2473270495e-02
 5.9255548264e+00	 8.2165807974e+00	 2.2636945315e-02
 7.0710678119e+00	 9.6237232919e+00	-1.9211709482e-01
 6.9434350379e+00	 9.4960905179e+00	-9.9650014122e-02
 6.8158022639e+00	 9.3684577439e+00	-2.2443663982e-02
 6.6881694899e+00	 9.2408249699e+00	 3.9496397476e-02
 6.5605367159e+00	 9.1131921959e+00	 8.6164612218e-02
 6.4329039419e+00	 8.9855594219e+00	 1.1755542230e-01
 6.3052711679e+00	 8.8579266479e+00	 1.3366326985e-01
 6.1776383939e+00	 8.7302938739e+00	 1.3448259712e-01
 6.0500056198e+00	 8.6026610999e+00	 1.2000784642e-01
 5.9223728458e+00	 8.4750283259e+00	 9.0233460149e-02
 5.7947400718e+00	 8.3473955519e+00	 4.5153880812e-02
 7.0710678119e+00	 9.8994949366e+00	-1.7610630617e-01
 6.9296464557e+00	 9.7580735804e+00	-8.6810821138e-02
 6.7882250994e+00	 9.6166522241e+00	-1.1926124402e-02
 6.6468037432e+00	 9.4752308679e+00	 4.8540222798e-02
 6.5053823869e+00	 9.3338095116e+00	 9.4580659356e-02
 6.3639610307e+00	 9.1923881554e+00	 1.2618762430e-01
 6.2225396745e+00	 9.0509667992e+00	 1.4335355679e-01
 6.0811183182e+00	 8.9095454429e+00	 1.4607089612e-01
 5.9396969620e+00	 8.7681240867e+00	 1.3433208173e-01
 5.7982756057e+00	 8.6267027304e+00	 1.0812955316e-01
 5.6568542495e+00	 8.4852813742e+00	 6.7455750116e-02
 7.0710678119e+00	 7.0710678119e+00	-5.9043875305e-02
 7.0710678119e+00	 7.0710678119e+00	-5.9043875305e-02
 7.0710678119e+00	 7.0710678119e+00	-5.9043875305e-02
 7.0710678119e+00	 7.0710678119e+00	-5.9043875305e-02
 7.0710678119e+00	 7.0710678119e+00	-5.9043875305e-02
 7.0710678119e+00	 7.0710678119e+00	-5.9043875305e-02
 7.0710678119e+00	 7.0710678119e+00	-5.9043875305e-02
 7.0710678119e+00	 7.0710678119e+00	-5.9043875305e-02
 7.0710678119e+00	 7.0710678119e+00	-5.9043875305e-02
 7.0710678119e+00	 7.0710678119e+00	-5.9043875305e-02
 7.0710678119e+00	 7.0710678119e+00	-5.9043875305e-02
 7.0675322780e+00	 7.0746033458e+00	 2.3849544684e+00
 7.0671787246e+00	 7.0742497924e+00	 3.3429896408e-01
 7.0668251712e+00	 7.0738962390e+00	-1.5228423787e+00
 7.0664716178e+00	 7.0735426856e+00	-3.1864695600e+00
 7.0661180644e+00	 7.0731891322e+00	-4.6565825798e+00
 7.0657645110e+00	 7.0728355789e+00	-5.9331814380e+00
 7.0654109577e+00	 7.0724820255e+00	-7.0162661347e+00
 7.0650574043e+00	 7.0721284721e+00	-7.9058366699e+00
 7.0647038509e+00	 7.0717749187e+00	-8.6018930436e+00
 7.0643502975e+00	 7.0714213653e+00	-9.1044352557e+00
 7.0639967441e+00	 7.0710678119e+00	-9.4134633063e+00
 7.0569256763e+00	 7.0852099475e+00	 1.1933197166e+00
 7.0555114627e+00	 7.0837957340e+00	 1.4888565509e-01
 7.0540972492e+00	 7.0823815204e+00	-7.9432607010e-01
 7.0526830356e+00	 7.0809673068e+00	-1.6363154590e+00
 7.0512688220e+00	 7.0795530933e+00	-2.3770825116e+00
 7.0498546085e+00	 7.0781388797e+00	-3.0166272279e+00
 7.0484403949e+00	 7.0767246661e+00	-3.5549496079e+00
 7.0470261813e+00	 7.0753104526e+00	-3.9920496516e+00
 7.0456119678e+00	 7.0738962390e+00	-4.3279273591e+00
 7.0441977542e+00	 7.0724820255e+00	-4.5625827303e+00
 7.0427835407e+00	 7.0710678119e+00	-4.6960157653e+00
 7.0392480067e+00	 7.1028876171e+00	 8.0667906087e-01
 7.0360660262e+00	 7.0997056365e+00	 1.0854822342e-01
 7.0328840457e+00	 7.0965236560e+00	-5.2145190678e-01
 7.0297020652e+00	 7.0933416755e+00	-1.0833213298e+00
 7.0265200847e+00	 7.0901596950e+00	-1.5770600458e+00
 7.0233381042e+00	 7.0869777145e+00	-2.0026680547e+00
 7.0201561237e+00	 7.0837957340e+00	-2.3601453568e+00
 7.0169741431e+00	 7.0806137534e+00	-2.6494919520e+00
 7.0137921626e+00	 7.0774317729e+00	-2.8707078405e+00
 7.0106101821e+00	 7.0742497924e+00	-3.0237930223e+00
 7.0074282016e+00	 7.0710678119e+00	-3.1087474976e+00
 7.0144992694e+00	 7.1276363544e+00	 6.1596713894e-01
 7.0088424152e+00	 7.1219795001e+00	 9.3116895675e-02
 7.0031855609e+00	 7.1163226459e+00	-3.7858472108e-01
 6.9975287067e+00	 7.1106657916e+00	-7.9913771179e-01
 6.9918718524e+00	 7.1050089374e+00	-1.1685420770e+00
 6.9862149982e+00	 7.0993520831e+00	-1.4867978171e+00
 6.9805581439e+00	 7.0936952289e+00	-1.7539049326e+00
 6.9749012897e+00	 7.0880383746e+00	-1.9698634240e+00
 6.9692444354e+00	 7.0823815204e+00	-2.1346732918e+00
 6.9635875812e+00	 7.0767246661e+00	-2.2483345365e+00
 6.9579307269e+00	 7.0710678119e+00	-2.3108471585e+00
 6.9826794642e+00	 7.1594561595e+00	 5.0293860271e-01
 6.9738406295e+00	 7.1506173248e+00	 8.6014369585e-02
 6.9650017947e+00	 7.1417784900e+00	-2.9008980097e-01
 6.9561629600e+00	 7.1329396553e+00	-6.2537391081e-01
 6.9473241252e+00	 7.1241008205e+00	-9.1983796176e-01
 6.9384852904e+00	 7.1152619857e+00	-1.1734819557e+00
 6.9296464557e+00	 7.1064231510e+00	-1.3863058944e+00
 6.9208076209e+00	 7.0975843162e+00	-1.5583097798e+00
 6.9119687861e+00	 7.0887454814e+00	-1.6894936137e+00
 6.9031299514e+00	 7.0799066467e+00	-1.7798573980e+00
 6.8942911166e+00	 7.0710678119e+00	-1.8294011344e+00
 6.9437885913e+00	 7.1983470325e+00	 4.2867582283e-01
 6.9310606692e+00	 7.1856191105e+00	 8.2752051713e-02
 6.9183327472e+00	 7.1728911884e+00	-2.2929499988e-01
 6.9056048251e+00	 7.1601632663e+00	-5.0746533747e-01
 6.8928769030e+00	 7.1474353443e+00	-7.5175896657e-01
 6.8801489810e+00	 7.1347074222e+00	-9.6217589267e-01
 6.8674210589e+00	 7.1219795001e+00	-1.1387161213e+00
 6.8546931369e+00	 7.1092515781e+00	-1.2813796580e+00
 6.8419652148e+00	 7.0965236560e+00	-1.3901665082e+00
 6.8292372927e+00	 7.0837957340e+00	-1.4650766775e+00
 6.8165093707e+00	 7.0710678119e+00	-1.5061101713e+00
 6.8978266505e+00	 7.2443089733e+00	 3.7662359999e-01
 6.8805025344e+00	 7.2269848572e+00	 8.1661803765e-02
 6.8631784182e+00	 7.2096607410e+00	-1.8441048888e-01
 6.8458543021e+00	 7.1923366249e+00	-4.2159329184e-01
 6.8285301859e+00	 7.1750125087e+00	-6.2988661901e-01
 6.8112060698e+00	 7.1576883926e+00	-8.0929048430e-01
 6.7938819537e+00	 7.1403642765e+00	-9.5980490159e-01
 6.7765578375e+00	 7.1230401603e+00	-1.0814298848e+00
 6.7592337214e+00	 7.1057160442e+00	-1.1741654478e+00
 6.7419096053e+00	 7.0883919280e+00	-1.2380116045e+00
 6.7245854891e+00	 7.0710678119e+00	-1.2729683688e+00
 6.8447936419e+00	 7.2973419819e+00	 3.3854688361e-01
 6.8221662249e+00	 7.2747145649e+00	 8.1994967390e-02
 6.7995388079e+00	 7.2520871479e+00	-1.4942232386e-01
 6.7769113909e+00	 7.2294597309e+00	-3.5570502109e-01
 6.7542839739e+00	 7.2068323139e+00	-5.3685315528e-01
 6.7316565569e+00	 7.1842048969e+00	-6.9286675738e-01
 6.7090291399e+00	 7.1615774799e+00	-8.2374585837e-01
 6.6864017229e+00	 7.1389500629e+00	-9.2949048921e-01
 6.6637743059e+00	 7.1163226459e+00	-1.0101006809e+00
 6.6411468889e+00	 7.0936952289e+00	-1.0655764643e+00
 6.6185194719e+00	 7.0710678119e+00	-1.0959178705e+00
 6.7846895655e+00	 7.3574460583e+00	 3.0988937853e-01
 6.7560517409e+00	 7.3288082336e+00	 8.3370951284e-02
 6.7274139162e+00	 7.3001704090e+00	-1.2094108286e-01
 6.6987760916e+00	 7.2715325844e+00	-3.0304678669e-01
 6.6701382670e+00	 7.2428947597e+00	-4.6294622296e-01
 6.6415004423e+00	 7.2142569351e+00	-6.0063945447e-01
 6.6128626177e+00	 7.1856191105e+00	-7.1612654399e-01
 6.5842247930e+00	 7.1569812858e+00	-8.0940755428e-01
 6.5555869684e+00	 7.1283434612e+00	-8.8048254814e-01
 6.5269491438e+00	 7.0997056365e+00	-9.2935158833e-01
 6.4983113191e+00	 7.0710678119e+00	-9.5601473762e-01
 6.7175144213e+00	 7.4246212025e+00	 2.8792766503e-01
 6.6821590822e+00	 7.3892658634e+00	 8.5578925205e-02
 6.6468037432e+00	 7.3539105244e+00	-9.6909975807e-02
 6.6114484041e+00	 7.3185551853e+00	-2.5953915614e-01
 6.5760930651e+00	 7.2831998463e+00	-4.0230873391e-01
 6.5407377260e+00	 7.2478445072e+00	-5.2521882724e-01
 6.5053823869e+00	 7.2124891681e+00	-6.2826955427e-01
 6.4700270479e+00	 7.1771338291e+00	-7.1146103311e-01
 6.4346717088e+00	 7.1417784900e+00	-7.7479338189e-01
 6.3993163698e+00	 7.1064231510e+00	-8.1826671873e-01
 6.3639610307e+00	 7.0710678119e+00	-8.4188116175e-01
 6.7175144213e+00	 7.4246212025e+00	 2.8792766503e-01
 6.6821590822e+00	 7.3892658634e+00	 8.5578925205e-02
 6.6468037432e+00	 7.3539105244e+00	-9.6909975807e-02
 6.6114484041e+00	 7.3185551853e+00	-2.5953915614e-01
 6.5760930651e+00	 7.2831998463e+00	-4.0230873391e-01
 6.5407377260e+00	 7.2478445072e+00	-5.2521882724e-01
 6.5053823869e+00	 7.2124891681e+00	-6.2826955427e-01
 6.4700270479e+00	 7.1771338291e+00	-7.1146103311e-01
 6.4346717088e+00	 7.1417784900e+00	-7.7479338189e-01
 6.3993163698e+00	 7.1064231510e+00	-8.1826671873e-01
 6.3639610307e+00	 7.0710678119e+00	-8.4188116175e-01
 6.6432682093e+00	 7.4988674145e+00	 2.6133191947e-01
 6.6004882490e+00	 7.4560874543e+00	 7.8443405725e-02
 6.5577082887e+00	 7.4133074940e+00	-8.6545981371e-02
 6.5149283285e+00	 7.3705275337e+00	-2.3363645108e-01
 6.4721483682e+00	 7.3277475735e+00	-3.6282821268e-01
 6.4293684080e+00	 7.2849676132e+00	-4.7412147542e-01
 6.3865884477e+00	 7.2421876530e+00	-5.6751644858e-01
 6.3438084874e+00	 7.1994076927e+00	-6.4301334140e-01
 6.3010285272e+00	 7.1566277324e+00	-7.0061236316e-01
 6.2582485669e+00	 7.1138477722e+00	-7.4031372311e-01
 6.2154686066e+00	 7.0710678119e+00	-7.6211763052e-01
 6.5619509294e+00	 7.5801846944e+00	 2.3992968736e-01
 6.5110392412e+00	 7.5292730061e+00	 7.2884452884e-02
 6.4601275529e+00	 7.4783613179e+00	-7.7882190339e-02
 6.4092158647e+00	 7.4274496296e+00	-2.1237059503e-01
 6.3583041765e+00	 7.3765379414e+00	-3.3058111391e-01
 6.3073924882e+00	 7.3256262531e+00	-4.3251409970e-01
 6.2564808000e+00	 7.2747145649e+00	-5.1816990511e-01
 6.2055691117e+00	 7.2238028766e+00	-5.8754888284e-01
 6.1546574235e+00	 7.1728911884e+00	-6.4065138562e-01
 6.1037457352e+00	 7.1219795001e+00	-6.7747776614e-01
 6.0528340470e+00	 7.0710678119e+00	-6.9802837711e-01
 6.4735625818e+00	 7.6685730420e+00	 2.2266720206e-01
 6.4138120588e+00	 7.6088225190e+00	 6.8793994877e-02
 6.3540615358e+00	 7.5490719960e+00	-7.0161071578e-02
 6.2943110128e+00	 7.4893214730e+00	-1.9419856747e-01
 6.2345604897e+00	 7.4295709500e+00	-3.0331906298e-01
 6.1748099667e+00	 7.3698204270e+00	-3.9752312824e-01
 6.1150594437e+00	 7.3100699039e+00	-4.7681133343e-01
 6.0553089207e+00	 7.2503193809e+00	-5.4118424868e-01
 5.9955583977e+00	 7.1905688579e+00	-5.9064244416e-01
 5.9358078747e+00	 7.1308183349e+00	-6.2518648999e-01
 5.8760573517e+00	 7.0710678119e+00	-6.4481695632e-01
 6.3781031663e+00	 7.7640324575e+00	 2.0878387534e-01
 6.3088067018e+00	 7.6947359929e+00	 6.6058908374e-02
 6.2395102372e+00	 7.6254395284e+00	-6.2904801225e-02
 6.1702137727e+00	 7.5561430638e+00	-1.7810814289e-01
 6.1009173081e+00	 7.4868465992e+00	-2.7955200603e-01
 6.0316208435e+00	 7.4175501347e+00	-3.6723728006e-01
 5.9623243790e+00	 7.3482536701e+00	-4.4116485440e-01
 5.8930279144e+00	 7.2789572056e+00	-5.0133561842e-01
 5.8237314499e+00	 7.2096607410e+00	-5.4775046152e-01
 5.7544349853e+00	 7.1403642765e+00	-5.8041027308e-01
 5.6851385207e+00	 7.0710678119e+00	-5.9931594247e-01
 6.2755726831e+00	 7.8665629407e+00	 1.9771914358e-01
 6.1960231702e+00	 7.7870134278e+00	 6.4575838093e-02
 6.1164736573e+00	 7.7074639150e+00	-5.5800517510e-02
 6.0369241444e+00	 7.6279144021e+00	-1.6341126874e-01
 5.9573746315e+00	 7.5483648892e+00	-2.5825776111e-01
 5.8778251186e+00	 7.4688153763e+00	-3.4034134010e-01
 5.7982756057e+00	 7.3892658634e+00	-4.0966335118e-01
 5.7187260929e+00	 7.3097163506e+00	-4.6622513982e-01
 5.6391765800e+00	 7.2301668377e+00	-5.1002805146e-01
 5.5596270671e+00	 7.1506173248e+00	-5.4107343155e-01
 5.4800775542e+00	 7.0710678119e+00	-5.5936262550e-01
 6.1659711320e+00	 7.9761644918e+00	 1.8905295762e-01
 6.0754614640e+00	 7.8856548238e+00	 6.4256164574e-02
 5.9849517960e+00	 7.7951451558e+00	-4.8635840884e-02
 5.8944421280e+00	 7.7046354878e+00	-1.4962504056e-01
 5.8039324600e+00	 7.6141258198e+00	-2.3871341622e-01
 5.7134227920e+00	 7.5236161519e+00	-3.1590294964e-01
 5.6229131240e+00	 7.4331064839e+00	-3.8119562254e-01
 5.5324034560e+00	 7.3425968159e+00	-4.3459341664e-01
 5.4418937880e+00	 7.2520871479e+00	-4.7609831363e-01
 5.3513841200e+00	 7.1615774799e+00	-5.0571229516e-01
 5.2608744520e+00	 7.0710678119e+00	-5.2343734290e-01
 6.0492985131e+00	 8.0928371107e+00	 1.8246659716e-01
 5.9471215832e+00	 7.9906601808e+00	 6.5026879084e-02
 5.8449446533e+00	 7.8884832509e+00	-4.1261117341e-02
 5.7427677234e+00	 7.7863063211e+00	-1.3640024335e-01
 5.6405907935e+00	 7.6841293912e+00	-2.2039335015e-01
 5.5384138636e+00	 7.5819524613e+00	-2.9324328890e-01
 5.4362369338e+00	 7.4797755314e+00	-3.5495291072e-01
 5.3340600039e+00	 7.3775986015e+00	-4.0552506669e-01
 5.2318830740e+00	 7.2754216717e+00	-4.4496260788e-01
 5.1297061441e+00	 7.1732447418e+00	-4.7326838529e-01
 5.0275292142e+00	 7.0710678119e+00	-4.9044524991e-01
 5.9255548264e+00	 8.2165807974e+00	 1.7771618841e-01
 5.8110035278e+00	 8.1020294988e+00	 6.6829853009e-02
 5.6964522292e+00	 7.9874782003e+00	-3.3566497369e-02
 5.5819009307e+00	 7.8729269017e+00	-1.2347688038e-01
 5.4673496321e+00	 7.7583756032e+00	-2.0290531363e-01
 5.3527983336e+00	 7.6438243047e+00	-2.7185581467e-01
 5.2382470350e+00	 7.5292730061e+00	-3.3033240098e-01
 5.1236957365e+00	 7.4147217076e+00	-3.7833909000e-01
 5.0091444379e+00	 7.3001704090e+00	-4.1587989910e-01
 4.8945931394e+00	 7.1856191105e+00	-4.4295884559e-01
 4.7800418408e+00	 7.0710678119e+00	-4.5957994675e-01
 5.7947400718e+00	 8.3473955519e+00	 1.7461440191e-01
 5.6671072978e+00	 8.2197627779e+00	 6.9620586764e-02
 5.5394745238e+00	 8.0921300039e+00	-2.5467562263e-02
 5.4118417498e+00	 7.9644972299e+00	-1.1065560241e-01
 5.2842089758e+00	 7.8368644559e+00	-1.8594909081e-01
 5.1565762018e+00	 7.7092316819e+00	-2.5135358455e-01
 5.0289434278e+00	 7.5815989079e+00	-3.0687464058e-01
 4.9013106538e+00	 7.4539661339e+00	-3.5251781579e-01
 4.7736778798e+00	 7.3263333599e+00	-3.8828866697e-01
 4.6460451058e+00	 7.1987005859e+00	-4.1419275084e-01
 4.5184123318e+00	 7.0710678119e+00	-4.3023562401e-01
 5.6568542495e+00	 8.4852813742e+00	 1.7301755873e-01
 5.5154328933e+00	 8.3438600180e+00	 7.3366903735e-02
 5.3740115370e+00	 8.2024386618e+00	-1.6896035259e-02
 5.2325901808e+00	 8.0610173055e+00	-9.7778818158e-02
 5.0911688245e+00	 7.9195959493e+00	-1.6928900473e-01
 4.9497474683e+00	 7.7781745931e+00	-2.3143415462e-01
 4.8083261121e+00	 7.6367532368e+00	-2.8422182733e-01
 4.6669047558e+00	 7.4953318806e+00	-3.2765958223e-01
 4.5254833996e+00	 7.3539105244e+00	-3.6175497855e-01
 4.3840620433e+00	 7.2124891681e+00	-3.8651557540e-01
 4.2426406871e+00	 7.0710678119e+00	-4.0194893175e-01
 7.0710678119e+00	 7.0710678119e+00	-5.9043875305e-02
 7.0710678119e+00	 7.0710678119e+00	-5.9043875305e-02
 7.0710678119e+00	 7.0710678119e+00	-5.9043875305e-02
 7.0710678119e+00	 7.0710678119e+00	-5.9043875305e-02
 7.0710678119e+00	 7.0710678119e+00	-5.9043875305e-02
 7.0710678119e+00	 7.0710678119e+00	-5.9043875305e-02
 7.0710678119e+00	 7.0710678119e+00	-5.9043875305e-02
 7.0710678119e+00	 7.0710678119e+00	-5.9043875305e-02
 7.0710678119e+00	 7.0710678119e+00	-5.9043875305e-02
 7.0710678119e+00	 7.0710678119e+00	-5.9043875305e-02
 7.0710678119e+00	 7.0710678119e+00	-5.9043875305e-02
 7.0639967441e+00	 7.0710678119e+00	-9.2247445400e+00
 7.0643502975e+00	 7.0707142585e+00	-1.0523801304e+01
 7.0647038509e+00	 7.0703607051e+00	-1.1737959408e+01
 7.0650574043e+00	 7.0700071517e+00	-1.2867218850e+01
 7.0654109577e+00	 7.0696535983e+00	-1.3911579631e+01
 7.0657645110e+00	 7.0693000449e+00	-1.4871041751e+01
 7.0661180644e+00	 7.0689464916e+00	-1.5745605210e+01
 7.0664716178e+00	 7.0685929382e+00	-1.6535270007e+01
 7.0668251712e+00	 7.0682393848e+00	-1.7240036144e+01
 7.0671787246e+00	 7.0678858314e+00	-1.7859903619e+01
 7.0675322780e+00	 7.0675322780e+00	-1.8394872434e+01
 7.0427835407e+00	 7.0710678119e+00	-4.5903520798e+00
 7.0441977542e+00	 7.0696535983e+00	-5.2302481522e+00
 7.0456119678e+00	 7.0682393848e+00	-5.8297252894e+00
 7.0470261813e+00	 7.0668251712e+00	-6.3887834912e+00
 7.0484403949e+00	 7.0654109577e+00	-6.9074227578e+00
 7.0498546085e+00	 7.0639967441e+00	-7.3856430890e+00
 7.0512688220e+00	 7.0625825305e+00	-7.8234444850e+00
 7.0526830356e+00	 7.0611683170e+00	-8.2208269458e+00
 7.0540972492e+00	 7.0597541034e+00	-8.5777904712e+00
 7.0555114627e+00	 7.0583398898e+00	-8.8943350614e+00
 7.0569256763e+00	 7.0569256763e+00	-9.1704607164e+00
 7.0074282016e+00	 7.0710678119e+00	-3.0418177462e+00
 7.0106101821e+00	 7.0678858314e+00	-3.4673819411e+00
 7.0137921626e+00	 7.0647038509e+00	-3.8659636049e+00
 7.0169741431e+00	 7.0615218704e+00	-4.2375627376e+00
 7.0201561237e+00	 7.0583398898e+00	-4.5821793392e+00
 7.0233381042e+00	 7.0551579093e+00	-4.8998134099e+00
 7.0265200847e+00	 7.0519759288e+00	-5.1904649497e+00
 7.0297020652e+00	 7.0487939483e+00	-5.4541339588e+00
 7.0328840457e+00	 7.0456119678e+00	-5.6908204371e+00
 7.0360660262e+00	 7.0424299873e+00	-5.9005243848e+00
 7.0392480067e+00	 7.0392480067e+00	-6.0832458020e+00
 6.9579307269e+00	 7.0710678119e+00	-2.2653560444e+00
 6.9635875812e+00	 7.0654109577e+00	-2.5848266267e+00
 6.9692444354e+00	 7.0597541034e+00	-2.8837721509e+00
 6.9749012897e+00	 7.0540972492e+00	-3.1621926176e+00
 6.9805581439e+00	 7.0484403949e+00	-3.4200880272e+00
 6.9862149982e+00	 7.0427835407e+00	-3.6574583802e+00
 6.9918718524e+00	 7.0371266864e+00	-3.8743036769e+00
 6.9975287067e+00	 7.0314698322e+00	-4.0706239178e+00
 7.0031855609e+00	 7.0258129779e+00	-4.2464191035e+00
 7.0088424152e+00	 7.0201561237e+00	-4.4016892343e+00
 7.0144992694e+00	 7.0144992694e+00	-4.5364343107e+00
 6.8942911166e+00	 7.0710678119e+00	-1.7974361369e+00
 6.9031299514e+00	 7.0622289771e+00	-2.0536490660e+00
 6.9119687861e+00	 7.0533901424e+00	-2.2931278631e+00
 6.9208076209e+00	 7.0445513076e+00	-2.5158725300e+00
 6.9296464557e+00	 7.0357124728e+00	-2.7218830683e+00
 6.9384852904e+00	 7.0268736381e+00	-2.9111594798e+00
 6.9473241252e+00	 7.0180348033e+00	-3.0837017662e+00
 6.9561629600e+00	 7.0091959685e+00	-3.2395099293e+00
 6.9650017947e+00	 7.0003571338e+00	-3.3785839708e+00
 6.9738406295e+00	 6.9915182990e+00	-3.5009238923e+00
 6.9826794642e+00	 6.9826794642e+00	-3.6065296958e+00
 6.8165093707e+00	 7.0710678119e+00	-1.4834388077e+00
 6.8292372927e+00	 7.0583398898e+00	-1.6976952583e+00
 6.8419652148e+00	 7.0456119678e+00	-1.8977098556e+00
 6.8546931369e+00	 7.0328840457e+00	-2.0834826048e+00
 6.8674210589e+00	 7.0201561237e+00	-2.2550135111e+00
 6.8801489810e+00	 7.0074282016e+00	-2.4123025796e+00
 6.8928769030e+00	 6.9947002795e+00	-2.5553498154e+00
 6.9056048251e+00	 6.9819723575e+00	-2.6841552238e+00
 6.9183327472e+00	 6.9692444354e+00	-2.7987188098e+00
 6.9310606692e+00	 6.9565165133e+00	-2.8990405787e+00
 6.9437885913e+00	 6.9437885913e+00	-2.9851205355e+00
 6.7245854891e+00	 7.0710678119e+00	-1.2570706078e+00
 6.7419096053e+00	 7.0537436958e+00	-1.4415076395e+00
 6.7592337214e+00	 7.0364195796e+00	-1.6134656041e+00
 6.7765578375e+00	 7.0190954635e+00	-1.7729445146e+00
 6.7938819537e+00	 7.0017713473e+00	-1.9199443840e+00
 6.8112060698e+00	 6.9844472312e+00	-2.0544652253e+00
 6.8285301859e+00	 6.9671231151e+00	-2.1765070514e+00
 6.8458543021e+00	 6.9497989989e+00	-2.2860698755e+00
 6.8631784182e+00	 6.9324748828e+00	-2.3831537105e+00
 6.8805025344e+00	 6.9151507666e+00	-2.4677585694e+00
 6.8978266505e+00	 6.8978266505e+00	-2.5398844651e+00
 6.6185194719e+00	 7.0710678119e+00	-1.0851742997e+00
 6.6411468889e+00	 7.0484403949e+00	-1.2473682514e+00
 6.6637743059e+00	 7.0258129779e+00	-1.3983953428e+00
 6.6864017229e+00	 7.0031855609e+00	-1.5382556029e+00
 6.7090291399e+00	 6.9805581439e+00	-1.6669490605e+00
 6.7316565569e+00	 6.9579307269e+00	-1.7844757448e+00
 6.7542839739e+00	 6.9353033099e+00	-1.8908356845e+00
 6.7769113909e+00	 6.9126758929e+00	-1.9860289088e+00
 6.7995388079e+00	 6.8900484759e+00	-2.0700554465e+00
 6.8221662249e+00	 6.8674210589e+00	-2.1429153266e+00
 6.8447936419e+00	 6.8447936419e+00	-2.2046085781e+00
 6.4983113191e+00	 7.0710678119e+00	-9.4932382630e-01
 6.5269491438e+00	 7.0424299873e+00	-1.0943257614e+00
 6.5555869684e+00	 7.0137921626e+00	-1.2291751153e+00
 6.5842247930e+00	 6.9851543380e+00	-1.3538719467e+00
 6.6128626177e+00	 6.9565165133e+00	-1.4684163143e+00
 6.6415004423e+00	 6.9278786887e+00	-1.5728082768e+00
 6.6701382670e+00	 6.8992408641e+00	-1.6670478928e+00
 6.6987760916e+00	 6.8706030394e+00	-1.7511352212e+00
 6.7274139162e+00	 6.8419652148e+00	-1.8250703207e+00
 6.7560517409e+00	 6.8133273902e+00	-1.8888532499e+00
 6.7846895655e+00	 6.7846895655e+00	-1.9424840675e+00
 6.3639610307e+00	 7.0710678119e+00	-8.3846000026e-01
 6.3993163698e+00	 7.0357124728e+00	-9.6980969853e-01
 6.4346717088e+00	 7.0003571338e+00	-1.0918136548e+00
 6.4700270479e+00	 6.9650017947e+00	-1.2044719796e+00
 6.5053823869e+00	 6.9296464557e+00	-1.3077847833e+00
 6.5407377260e+00	 6.8942911166e+00	-1.4017521765e+00
 6.5760930651e+00	 6.8589357775e+00	-1.4863742696e+00
 6.6114484041e+00	 6.8235804385e+00	-1.5616511730e+00
 6.6468037432e+00	 6.7882250994e+00	-1.6275829974e+00
 6.6821590822e+00	 6.7528697604e+00	-1.6841698530e+00
 6.7175144213e+00	 6.7175144213e+00	-1.7314118504e+00
 6.3639610307e+00	 7.0710678119e+00	-8.3846000026e-01
 6.3993163698e+00	 7.0357124728e+00	-9.6980969853e-01
 6.4346717088e+00	 7.0003571338e+00	-1.0918136548e+00
 6.4700270479e+00	 6.9650017947e+00	-1.2044719796e+00
 6.5053823869e+00	 6.9296464557e+00	-1.3077847833e+00
 6.5407377260e+00	 6.8942911166e+00	-1.4017521765e+00
 6.5760930651e+00	 6.8589357775e+00	-1.4863742696e+00
 6.6114484041e+00	 6.8235804385e+00	-1.5616511730e+00
 6.6468037432e+00	 6.7882250994e+00	-1.6275829974e+00
 6.6821590822e+00	 6.7528697604e+00	-1.6841698530e+00
 6.7175144213e+00	 6.7175144213e+00	-1.7314118504e+00
 6.2154686066e+00	 7.0710678119e+00	-7.8784272158e-01
 6.2582485669e+00	 7.0282878516e+00	-9.0063865927e-01
 6.3010285272e+00	 6.9855078914e+00	-1.0054071034e+00
 6.3438084874e+00	 6.9427279311e+00	-1.1021482498e+00
 6.3865884477e+00	 6.8999479708e+00	-1.1908622941e+00
 6.4293684080e+00	 6.8571680106e+00	-1.2715494320e+00
 6.4721483682e+00	 6.8143880503e+00	-1.3442098592e+00
 6.5149283285e+00	 6.7716080901e+00	-1.4088437714e+00
 6.5577082887e+00	 6.7288281298e+00	-1.4654513644e+00
 6.6004882490e+00	 6.6860481695e+00	-1.5140328339e+00
 6.6432682093e+00	 6.6432682093e+00	-1.5545883755e+00
 6.0528340470e+00	 7.0710678119e+00	-7.3292212794e-01
 6.1037457352e+00	 7.0201561237e+00	-8.3287585457e-01
 6.1546574235e+00	 6.9692444354e+00	-9.2567239051e-01
 6.2055691117e+00	 6.9183327472e+00	-1.0113120656e+00
 6.2564808000e+00	 6.8674210589e+00	-1.0897952099e+00
 6.3073924882e+00	 6.8165093707e+00	-1.1611221530e+00
 6.3583041765e+00	 6.7655976824e+00	-1.2252932249e+00
 6.4092158647e+00	 6.7146859942e+00	-1.2823087556e+00
 6.4601275529e+00	 6.6637743059e+00	-1.3321690748e+00
 6.5110392412e+00	 6.6128626177e+00	-1.3748745124e+00
 6.5619509294e+00	 6.5619509294e+00	-1.4104253982e+00
 5.8760573517e+00	 7.0710678119e+00	-6.7673279154e-01
 5.9358078747e+00	 7.0113172889e+00	-7.6770729717e-01
 5.9955583977e+00	 6.9515667659e+00	-8.5209783384e-01
 6.0553089207e+00	 6.8918162429e+00	-9.2990493480e-01
 6.1150594437e+00	 6.8320657199e+00	-1.0011291333e+00
 6.1748099667e+00	 6.7723151968e+00	-1.0657709626e+00
 6.2345604897e+00	 6.7125646738e+00	-1.1238309558e+00
 6.2943110128e+00	 6.6528141508e+00	-1.1753096463e+00
 6.3540615358e+00	 6.5930636278e+00	-1.2202075673e+00
 6.4138120588e+00	 6.5333131048e+00	-1.2585252520e+00
 6.4735625818e+00	 6.4735625818e+00	-1.2902632336e+00
 5.6851385207e+00	 7.0710678119e+00	-6.2084637165e-01
 5.7544349853e+00	 7.0017713473e+00	-7.0552766006e-01
 5.8237314499e+00	 6.9324748828e+00	-7.8399589352e-01
 5.8930279144e+00	 6.8631784182e+00	-8.5625190386e-01
 5.9623243790e+00	 6.7938819537e+00	-9.2229652294e-01
 6.0316208435e+00	 6.7245854891e+00	-9.8213058257e-01
 6.1009173081e+00	 6.6552890246e+00	-1.0357549146e+00
 6.1702137727e+00	 6.5859925600e+00	-1.0831703508e+00
 6.2395102372e+00	 6.5166960954e+00	-1.1243777230e+00
 6.3088067018e+00	 6.4473996309e+00	-1.1593778631e+00
 6.3781031663e+00	 6.3781031663e+00	-1.1881716027e+00
 5.4800775542e+00	 7.0710678119e+00	-5.6604379891e-01
 5.5596270671e+00	 6.9915182990e+00	-6.4634429867e-01
 5.6391765800e+00	 6.9119687861e+00	-7.2066166718e-01
 5.7187260929e+00	 6.8324192732e+00	-7.8899716287e-01
 5.7982756057e+00	 6.7528697604e+00	-8.5135204414e-01
 5.8778251186e+00	 6.6733202475e+00	-9.0772756939e-01
 5.9573746315e+00	 6.5937707346e+00	-9.5812499702e-01
 6.0369241444e+00	 6.5142212217e+00	-1.0025455854e+00
 6.1164736573e+00	 6.4346717088e+00	-1.0409905929e+00
 6.1960231702e+00	 6.3551221959e+00	-1.0734612778e+00
 6.2755726831e+00	 6.2755726831e+00	-1.0999588985e+00
 5.2608744520e+00	 7.0710678119e+00	-5.1267045169e-01
 5.3513841200e+00	 6.9805581439e+00	-5.8998048709e-01
 5.4418937880e+00	 6.8900484759e+00	-6.6143692864e-01
 5.5324034560e+00	 6.7995388079e+00	-7.2704162987e-01
 5.6229131240e+00	 6.7090291399e+00	-7.8679644431e-01
 5.7134227920e+00	 6.6185194719e+00	-8.4070322548e-01
 5.8039324600e+00	 6.5280098039e+00	-8.8876382686e-01
 5.8944421280e+00	 6.4375001359e+00	-9.3098010192e-01
 5.9849517960e+00	 6.3469904680e+00	-9.6735390410e-01
 6.0754614640e+00	 6.2564808000e+00	-9.9788708682e-01
 6.1659711320e+00	 6.1659711320e+00	-1.0225815035e+00
 5.0275292142e+00	 7.0710678119e+00	-4.6083002366e-01
 5.1297061441e+00	 6.9688908820e+00	-5.3617965508e-01
 5.2318830740e+00	 6.8667139521e+00	-6.0573219921e-01
 5.3340600039e+00	 6.7645370222e+00	-6.6949032280e-01
 5.4362369338e+00	 6.6623600924e+00	-7.2745669259e-01
 5.5384138636e+00	 6.5601831625e+00	-7.7963397526e-01
 5.6405907935e+00	 6.4580062326e+00	-8.2602483747e-01
 5.7427677234e+00	 6.3558293027e+00	-8.6663194584e-01
 5.8449446533e+00	 6.2536523728e+00	-9.0145796696e-01
 5.9471215832e+00	 6.1514754429e+00	-9.3050556736e-01
 6.0492985131e+00	 6.0492985131e+00	-9.5377741358e-01
 4.7800418408e+00	 7.0710678119e+00	-4.1049301870e-01
 4.8945931394e+00	 6.9565165133e+00	-4.8465915336e-01
 5.0091444379e+00	 6.8419652148e+00	-5.5303030739e-01
 5.1236957365e+00	 6.7274139162e+00	-6.1561023858e-01
 5.2382470350e+00	 6.6128626177e+00	-6.7240270464e-01
 5.3527983336e+00	 6.4983113191e+00	-7.2341146326e-01
 5.4673496321e+00	 6.3837600206e+00	-7.6864027203e-01
 5.5819009307e+00	 6.2692087220e+00	-8.0809288853e-01
 5.6964522292e+00	 6.1546574235e+00	-8.4177307025e-01
 5.8110035278e+00	 6.0401061249e+00	-8.6968457464e-01
 5.9255548264e+00	 5.9255548264e+00	-8.9183115910e-01
 4.5184123318e+00	 7.0710678119e+00	-3.6155856846e-01
 4.6460451058e+00	 6.9434350379e+00	-4.3513764288e-01
 4.7736778798e+00	 6.8158022639e+00	-5.0288217166e-01
 4.9013106538e+00	 6.6881694899e+00	-5.6479735266e-01
 5.0289434278e+00	 6.5605367159e+00	-6.2088838365e-01
 5.1565762018e+00	 6.4329039419e+00	-6.7116046230e-01
 5.2842089758e+00	 6.3052711679e+00	-7.1561878622e-01
 5.4118417498e+00	 6.1776383939e+00	-7.5426855292e-01
 5.5394745238e+00	 6.0500056198e+00	-7.8711495983e-01
 5.6671072978e+00	 5.9223728458e+00	-8.1416320430e-01
 5.7947400718e+00	 5.7947400718e+00	-8.3541848359e-01
 4.2426406871e+00	 7.0710678119e+00	-3.1389003802e-01
 4.3840620433e+00	 6.9296464557e+00	-3.8734847572e-01
 4.5254833996e+00	 6.7882250994e+00	-4.5489976091e-01
 4.6669047558e+00	 6.6468037432e+00	-5.1655096474e-01
 4.8083261121e+00	 6.5053823869e+00	-5.7230915819e-01
 4.9497474683e+00	 6.3639610307e+00	-6.2218141216e-01
 5.0911688245e+00	 6.2225396745e+00	-6.6617479739e-01
 5.2325901808e+00	 6.0811183182e+00	-7.0429638450e-01
 5.3740115370e+00	 5.9396969620e+00	-7.3655324399e-01
 5.5154328933e+00	 5.7982756057e+00	-7.6295244622e-01
 5.6568542495e+00	 5.6568542495e+00	-7.8350106143e-01
 0.0000000000e+00	 0.0000000000e+00	-1.9147909690e-02
-1.4142135624e-01	 1.4142135624e-01	-2.2354130428e-02
-2.8284271248e-01	 2.8284271248e-01	-2.7132040327e-02
-4.2426406872e-01	 4.2426406872e-01	-3.3481639388e-02
-5.6568542496e-01	 5.6568542496e-01	-4.1402927610e-02
-7.0710678120e-01	 7.0710678120e-01	-5.0895904993e-02
-8.4852813744e-01	 8.4852813744e-01	-6.1960571537e-02
-9.8994949368e-01	 9.8994949368e-01	-7.4596927243e-02
-1.1313708499e+00	 1.1313708499e+00	-8.8804972108e-02
-1.2727922062e+00	 1.2727922062e+00	-1.0458470613e-01
-1.4142135624e+00	 1.4142135624e+00	-1.2193612932e-01
 2.8284271248e-01	 2.8284271248e-01	-4.1247819349e-02
 1.4142135624e-01	 4.2426406872e-01	-4.4949107181e-02
-5.0003339143e-13	 5.6568542496e-01	-4.9902801580e-02
-1.4142135624e-01	 7.0710678120e-01	-5.6108902544e-02
-2.8284271248e-01	 8.4852813744e-01	-6.3567410074e-02
-4.2426406872e-01	 9.8994949367e-01	-7.2278324169e-02
-5.6568542496e-01	 1.1313708499e+00	-8.2241644829e-02
-7.0710678120e-01	 1.2727922062e+00	-9.3457372054e-02
-8.4852813744e-01	 1.4142135624e+00	-1.0592550584e-01
-9.8994949368e-01	 1.5556349186e+00	-1.1964604620e-01
-1.1313708499e+00	 1.6970562749e+00	-1.3461899312e-01
 5.6568542496e-01	 5.6568542496e-01	-6.2973581702e-02
 4.2426406872e-01	 7.0710678120e-01	-6.7350952949e-02
 2.8284271248e-01	 8.4852813744e-01	-7.2661448166e-02
 1.4142135624e-01	 9.8994949367e-01	-7.8905067352e-02
-2.0000077983e-12	 1.1313708499e+00	-8.6081810508e-02
-1.4142135624e-01	 1.2727922061e+00	-9.4191677633e-02
-2.8284271248e-01	 1.4142135624e+00	-1.0323466873e-01
-4.2426406872e-01	 1.5556349186e+00	-1.1321078379e-01
-5.6568542496e-01	 1.6970562749e+00	-1.2412002282e-01
-7.0710678120e-01	 1.8384776311e+00	-1.3596238583e-01
-8.4852813744e-01	 1.9798989873e+00	-1.4873787280e-01
 8.4852813744e-01	 8.4852813744e-01	-8.4325196751e-02
 7.0710678120e-01	 9.8994949368e-01	-8.9559667730e-02
 5.6568542496e-01	 1.1313708499e+00	-9.5407980083e-02
 4.2426406872e-01	 1.2727922062e+00	-1.0187013381e-01
 2.8284271248e-01	 1.4142135624e+00	-1.0894612891e-01
 1.4142135624e-01	 1.5556349186e+00	-1.1663596539e-01
-4.4998726967e-12	 1.6970562749e+00	-1.2493964323e-01
-1.4142135624e-01	 1.8384776311e+00	-1.3385716245e-01
-2.8284271248e-01	 1.9798989873e+00	-1.4338852305e-01
-4.2426406872e-01	 2.1213203436e+00	-1.5353372501e-01
-5.6568542496e-01	 2.2627416998e+00	-1.6429276835e-01
 1.1313708499e+00	 1.1313708499e+00	-1.0530266449e-01
 9.8994949367e-01	 1.2727922062e+00	-1.1157525153e-01
 8.4852813743e-01	 1.4142135624e+00	-1.1814239733e-01
 7.0710678119e-01	 1.5556349186e+00	-1.2500410192e-01
 5.6568542495e-01	 1.6970562749e+00	-1.3216036528e-01
 4.2426406871e-01	 1.8384776311e+00	-1.3961118743e-01
 2.8284271247e-01	 1.9798989873e+00	-1.4735656835e-01
 1.4142135623e-01	 2.1213203436e+00	-1.5539650804e-01
-7.9998507818e-12	 2.2627416998e+00	-1.6373100652e-01
-1.4142135625e-01	 2.4041630560e+00	-1.7236006377e-01
-2.8284271249e-01	 2.5455844123e+00	-1.8128367980e-01
 1.4142135624e+00	 1.4142135624e+00	-1.2590598493e-01
 1.2727922061e+00	 1.5556349186e+00	-1.3339770433e-01
 1.1313708499e+00	 1.6970562749e+00	-1.4086469992e-01
 9.8994949367e-01	 1.8384776311e+00	-1.4830697168e-01
 8.4852813743e-01	 1.9798989873e+00	-1.5572451963e-01
 7.0710678119e-01	 2.1213203436e+00	-1.6311734376e-01
 5.6568542495e-01	 2.2627416998e+00	-1.7048544407e-01
 4.2426406871e-01	 2.4041630560e+00	-1.7782882056e-01
 2.8284271247e-01	 2.5455844123e+00	-1.8514747323e-01
 1.4142135623e-01	 2.6870057685e+00	-1.9244140208e-01
-1.2500001034e-11	 2.8284271247e+00	-1.9971060712e-01
 1.6970562749e+00	 1.6970562749e+00	-1.4613515807e-01
 1.5556349186e+00	 1.8384776311e+00	-1.5502702616e-01
 1.4142135624e+00	 1.9798989873e+00	-1.6357488783e-01
 1.2727922061e+00	 2.1213203436e+00	-1.7177874309e-01
 1.1313708499e+00	 2.2627416998e+00	-1.7963859194e-01
 9.8994949366e-01	 2.4041630560e+00	-1.8715443437e-01
 8.4852813742e-01	 2.5455844123e+00	-1.9432627039e-01
 7.0710678118e-01	 2.6870057685e+00	-2.0115410000e-01
 5.6568542494e-01	 2.8284271247e+00	-2.0763792319e-01
 4.2426406870e-01	 2.9698484810e+00	-2.1377773996e-01
 2.8284271246e-01	 3.1112698372e+00	-2.1957355032e-01
 1.9798989873e+00	 1.9798989873e+00	-1.6599018390e-01
 1.8384776311e+00	 2.1213203436e+00	-1.7646321699e-01
 1.6970562749e+00	 2.2627416998e+00	-1.8627296108e-01
 1.5556349186e+00	 2.4041630560e+00	-1.9541941616e-01
 1.4142135624e+00	 2.5455844123e+00	-2.0390258222e-01
 1.2727922061e+00	 2.6870057685e+00	-2.1172245928e-01
 1.1313708499e+00	 2.8284271248e+00	-2.1887904733e-01
 9.8994949366e-01	 2.9698484810e+00	-2.2537234636e-01
 8.4852813742e-01	 3.1112698372e+00	-2.3120235639e-01
 7.0710678118e-01	 3.2526911934e+00	-2.3636907740e-01
 5.6568542494e-01	 3.3941125497e+00	-2.4087250940e-01
 2.2627416998e+00	 2.2627416998e+00	-1.8547106242e-01
 2.1213203436e+00	 2.4041630560e+00	-1.9770627685e-01
 1.9798989873e+00	 2.5455844123e+00	-2.0895891966e-01
 1.8384776311e+00	 2.6870057685e+00	-2.1922899087e-01
 1.6970562748e+00	 2.8284271248e+00	-2.2851649048e-01
 1.5556349186e+00	 2.9698484810e+00	-2.3682141847e-01
 1.4142135624e+00	 3.1112698372e+00	-2.4414377487e-01
 1.2727922061e+00	 3.2526911935e+00	-2.5048355965e-01
 1.1313708499e+00	 3.3941125497e+00	-2.5584077283e-01
 9.8994949365e-01	 3.5355339059e+00	-2.6215005303e-01
 8.4852813741e-01	 3.6769552621e+00	-2.6842257256e-01
 2.5455844123e+00	 2.5455844123e+00	-2.0457779365e-01
 2.4041630560e+00	 2.6870057685e+00	-2.1875620571e-01
 2.2627416998e+00	 2.8284271248e+00	-2.3163276358e-01
 2.1213203436e+00	 2.9698484810e+00	-2.4320746724e-01
 1.9798989873e+00	 3.1112698372e+00	-2.5348031670e-01
 1.8384776311e+00	 3.2526911935e+00	-2.6245131196e-01
 1.6970562748e+00	 3.3941125497e+00	-2.7012045301e-01
 1.5556349186e+00	 3.5355339059e+00	-2.7843397063e-01
 1.4142135624e+00	 3.6769552622e+00	-2.8641362911e-01
 1.2727922061e+00	 3.8183766184e+00	-2.9278433711e-01
 1.1313708499e+00	 3.9597979746e+00	-2.9753447414e-01
 2.8284271248e+00	 2.8284271248e+00	-2.2331037756e-01
 2.6870057685e+00	 2.9698484810e+00	-2.3961300359e-01
 2.5455844123e+00	 3.1112698372e+00	-2.5429449282e-01
 2.4041630560e+00	 3.2526911935e+00	-2.6735484526e-01
 2.2627416998e+00	 3.3941125497e+00	-2.7879406089e-01
 2.1213203435e+00	 3.5355339059e+00	-2.9056245138e-01
 1.9798989873e+00	 3.6769552622e+00	-3.0169522175e-01
 1.8384776311e+00	 3.8183766184e+00	-3.1091829854e-01
 1.6970562748e+00	 3.9597979746e+00	-3.1822006128e-01
 1.5556349186e+00	 4.1012193309e+00	-3.2358888655e-01
 1.4142135624e+00	 4.2426406871e+00	-3.2701315075e-01
 2.8284271248e+00	 2.8284271248e+00	-2.2331037756e-01
 2.6870057685e+00	 2.9698484810e+00	-2.3961300359e-01
 2.5455844123e+00	 3.1112698372e+00	-2.5429449282e-01
 2.4041630560e+00	 3.2526911935e+00	-2.6735484526e-01
 2.2627416998e+00	 3.3941125497e+00	-2.7879406089e-01
 2.1213203435e+00	 3.5355339059e+00	-2.9056245138e-01
 1.9798989873e+00	 3.6769552622e+00	-3.0169522175e-01
 1.8384776311e+00	 3.8183766184e+00	-3.1091829854e-01
 1.6970562748e+00	 3.9597979746e+00	-3.1822006128e-01
 1.5556349186e+00	 4.1012193309e+00	-3.2358888655e-01
 1.4142135624e+00	 4.2426406871e+00	-3.2701315075e-01
 3.1112698372e+00	 3.1112698372e+00	-2.5276441143e-01
 2.9698484810e+00	 3.2526911935e+00	-2.5675114784e-01
 2.8284271247e+00	 3.3941125497e+00	-2.6690563788e-01
 2.6870057685e+00	 3.5355339059e+00	-2.7958099289e-01
 2.5455844123e+00	 3.6769552622e+00	-2.9184833610e-01
 2.4041630560e+00	 3.8183766184e+00	-3.0243927440e-01
 2.2627416998e+00	 3.9597979746e+00	-3.1134218733e-01
 2.1213203435e+00	 4.1012193309e+00	-3.1854545163e-01
 1.9798989873e+00	 4.2426406871e+00	-3.2403744392e-01
 1.8384776311e+00	 4.3840620433e+00	-3.2780654066e-01
 1.6970562748e+00	 4.5254833996e+00	-3.2984111815e-01
 3.3941125497e+00	 3.3941125497e+00	-2.9205463132e-01
 3.2526911935e+00	 3.5355339059e+00	-2.9532285558e-01
 3.1112698372e+00	 3.6769552622e+00	-2.9821343966e-01
 2.9698484810e+00	 3.8183766184e+00	-2.9947235820e-01
 2.8284271247e+00	 3.9597979746e+00	-3.0727631913e-01
 2.6870057685e+00	 4.1012193309e+00	-3.1569922644e-01
 2.5455844123e+00	 4.2426406871e+00	-3.2264415068e-01
 2.4041630560e+00	 4.3840620434e+00	-3.2809946850e-01
 2.2627416998e+00	 4.5254833996e+00	-3.3205355640e-01
 2.1213203435e+00	 4.6669047558e+00	-3.3449479071e-01
 1.9798989873e+00	 4.8083261121e+00	-3.3541154764e-01
 3.6769552622e+00	 3.6769552622e+00	-3.3853236962e-01
 3.5355339059e+00	 3.8183766184e+00	-3.4016524344e-01
 3.3941125497e+00	 3.9597979746e+00	-3.4039330858e-01
 3.2526911934e+00	 4.1012193309e+00	-3.3920949477e-01
 3.1112698372e+00	 4.2426406871e+00	-3.3660673162e-01
 2.9698484810e+00	 4.3840620434e+00	-3.3257794864e-01
 2.8284271247e+00	 4.5254833996e+00	-3.3565755616e-01
 2.6870057685e+00	 4.6669047558e+00	-3.3963679393e-01
 2.5455844122e+00	 4.8083261121e+00	-3.4232484393e-01
 2.4041630560e+00	 4.9497474683e+00	-3.4371008237e-01
 2.2627416998e+00	 5.0911688245e+00	-3.4378088534e-01
 3.9597979746e+00	 3.9597979746e+00	-3.8749489813e-01
 3.8183766184e+00	 4.1012193309e+00	-3.8651126734e-01
 3.6769552622e+00	 4.2426406871e+00	-3.8434261204e-01
 3.5355339059e+00	 4.3840620434e+00	-3.8098186198e-01
 3.3941125497e+00	 4.5254833996e+00	-3.7642194677e-01
 3.2526911934e+00	 4.6669047558e+00	-3.7065579590e-01
 3.1112698372e+00	 4.8083261121e+00	-3.6367633873e-01
 2.9698484810e+00	 4.9497474683e+00	-3.5547650450e-01
 2.8284271247e+00	 5.0911688245e+00	-3.5490775287e-01
 2.6870057685e+00	 5.2325901808e+00	-3.5550886243e-01
 2.5455844122e+00	 5.3740115370e+00	-3.5500557850e-01
 4.2426406871e+00	 4.2426406871e+00	-4.3763481335e-01
 4.1012193309e+00	 4.3840620434e+00	-4.3430047369e-01
 3.9597979746e+00	 4.5254833996e+00	-4.3000089386e-01
 3.8183766184e+00	 4.6669047558e+00	-4.2472900363e-01
 3.6769552622e+00	 4.8083261121e+00	-4.1847773262e-01
 3.5355339059e+00	 4.9497474683e+00	-4.1124001030e-01
 3.3941125497e+00	 5.0911688245e+00	-4.0300876605e-01
 3.2526911934e+00	 5.2325901808e+00	-3.9377692910e-01
 3.1112698372e+00	 5.3740115370e+00	-3.8353742856e-01
 2.9698484810e+00	 5.5154328933e+00	-3.7228319341e-01
 2.8284271247e+00	 5.6568542495e+00	-3.6914207549e-01
 4.5254833996e+00	 4.5254833996e+00	-4.8889165697e-01
 4.3840620433e+00	 4.6669047558e+00	-4.8347240416e-01
 4.2426406871e+00	 4.8083261121e+00	-4.7730769571e-01
 4.1012193309e+00	 4.9497474683e+00	-4.7039046139e-01
 3.9597979746e+00	 5.0911688245e+00	-4.6271363081e-01
 3.8183766184e+00	 5.2325901808e+00	-4.5427013347e-01
 3.6769552621e+00	 5.3740115370e+00	-4.4505289873e-01
 3.5355339059e+00	 5.5154328933e+00	-4.3505485583e-01
 3.3941125497e+00	 5.6568542495e+00	-4.2426893389e-01
 3.2526911934e+00	 5.7982756057e+00	-4.1268806189e-01
 3.1112698372e+00	 5.9396969620e+00	-4.0030516868e-01
 4.8083261121e+00	 4.8083261121e+00	-5.4120496856e-01
 4.6669047558e+00	 4.9497474683e+00	-5.3396659831e-01
 4.5254833996e+00	 5.0911688245e+00	-5.2620255713e-01
 4.3840620433e+00	 5.2325901808e+00	-5.1790577477e-01
 4.2426406871e+00	 5.3740115370e+00	-5.0906918087e-01
 4.1012193309e+00	 5.5154328933e+00	-4.9968570491e-01
 3.9597979746e+00	 5.6568542495e+00	-4.8974827627e-01
 3.8183766184e+00	 5.7982756057e+00	-4.7924982418e-01
 3.6769552621e+00	 5.9396969620e+00	-4.6818327777e-01
 3.5355339059e+00	 6.0811183182e+00	-4.5654156602e-01
 3.3941125497e+00	 6.2225396745e+00	-4.4431761779e-01
 5.0911688245e+00	 5.0911688245e+00	-5.9451428554e-01
 4.9497474683e+00	 5.2325901808e+00	-5.8572259355e-01
 4.8083261121e+00	 5.3740115370e+00	-5.7662501551e-01
 4.6669047558e+00	 5.5154328933e+00	-5.6721448117e-01
 4.5254833996e+00	 5.6568542495e+00	-5.5748392017e-01
 4.3840620433e+00	 5.7982756057e+00	-5.4742626199e-01
 4.2426406871e+00	 5.9396969620e+00	-5.3703443602e-01
 4.1012193309e+00	 6.0811183182e+00	-5.2630137149e-01
 3.9597979746e+00	 6.2225396745e+00	-5.1521999753e-01
 3.8183766184e+00	 6.3639610307e+00	-5.0378324312e-01
 3.6769552621e+00	 6.5053823869e+00	-4.9198403713e-01
 5.3740115370e+00	 5.3740115370e+00	-6.4875914320e-01
 5.2325901808e+00	 5.5154328933e+00	-6.3867992517e-01
 5.0911688245e+00	 5.6568542495e+00	-6.2851460614e-01
 4.9497474683e+00	 5.7982756057e+00	-6.1825611586e-01
 4.8083261121e+00	 5.9396969620e+00	-6.0789738396e-01
 4.6669047558e+00	 6.0811183182e+00	-5.9743133996e-01
 4.5254833996e+00	 6.2225396745e+00	-5.8685091321e-01
 4.3840620433e+00	 6.3639610307e+00	-5.7614903298e-01
 4.2426406871e+00	 6.5053823869e+00	-5.6531862837e-01
 4.1012193309e+00	 6.6468037432e+00	-5.5435262839e-01
 3.9597979746e+00	 6.7882250994e+00	-5.4324396189e-01
 5.6568542495e+00	 5.6568542495e+00	-7.0387907471e-01
 5.5154328933e+00	 5.7982756057e+00	-6.9277812632e-01
 5.3740115370e+00	 5.9396969620e+00	-6.8181086215e-01
 5.2325901808e+00	 6.0811183182e+00	-6.7097021195e-01
 5.0911688245e+00	 6.2225396745e+00	-6.6024910537e-01
 4.9497474683e+00	 6.3639610307e+00	-6.4964047190e-01
 4.8083261121e+00	 6.5053823869e+00	-6.3913724093e-01
 4.6669047558e+00	 6.6468037432e+00	-6.2873234171e-01
 4.5254833996e+00	 6.7882250994e+00	-6.1841870336e-01
 4.3840620433e+00	 6.9296464557e+00	-6.0818925487e-01
 4.2426406871e+00	 7.0710678119e+00	-5.9803692512e-01
 8.4852813742e+00	 8.4852813742e+00	-3.7073499371e-02
 8.3438600180e+00	 8.6267027304e+00	-5.9349066724e-02
 8.2024386618e+00	 8.7681240867e+00	-7.6917143607e-02
 8.0610173055e+00	 8.9095454429e+00	-8.9770659810e-02
 7.9195959493e+00	 9.0509667992e+00	-9.7902544994e-02
 7.7781745931e+00	 9.1923881554e+00	-1.0130572869e-01
 7.6367532368e+00	 9.3338095116e+00	-9.9973140317e-02
 7.4953318806e+00	 9.4752308679e+00	-9.3897709142e-02
 7.3539105244e+00	 9.6166522241e+00	-8.3072364320e-02
 7.2124891681e+00	 9.7580735804e+00	-6.7490034877e-02
 7.0710678119e+00	 9.8994949366e+00	-4.7143649708e-02
 8.7681240867e+00	 8.7681240867e+00	-4.3195832331e-02
 8.6267027305e+00	 8.9095454429e+00	-6.4801645452e-02
 8.4852813742e+00	 9.0509667992e+00	-8.2237189499e-02
 8.3438600180e+00	 9.1923881554e+00	-9.5495394265e-02
 8.2024386618e+00	 9.3338095116e+00	-1.0456918941e-01
 8.0610173055e+00	 9.4752308679e+00	-1.0945150448e-01
 7.9195959493e+00	 9.6166522241e+00	-1.1013526888e-01
 7.7781745931e+00	 9.7580735804e+00	-1.0661341189e-01
 7.6367532368e+00	 9.8994949366e+00	-9.8878862668e-02
 7.4953318806e+00	 1.0040916293e+01	-8.6924550239e-02
 7.3539105244e+00	 1.0182337649e+01	-7.0743403503e-02
 9.0509667992e+00	 9.0509667992e+00	-2.5962476529e-02
 8.9095454429e+00	 9.1923881554e+00	-6.2622997625e-02
 8.7681240867e+00	 9.3338095116e+00	-8.9104000673e-02
 8.6267027305e+00	 9.4752308679e+00	-1.0206155770e-01
 8.4852813742e+00	 9.6166522241e+00	-1.1137192668e-01
 8.3438600180e+00	 9.7580735804e+00	-1.1702803716e-01
 8.2024386618e+00	 9.8994949366e+00	-1.1902281855e-01
 8.0610173055e+00	 1.0040916293e+01	-1.1734920014e-01
 7.9195959493e+00	 1.0182337649e+01	-1.1200011109e-01
 7.7781745931e+00	 1.0323759005e+01	-1.0296848041e-01
 7.6367532368e+00	 1.0465180362e+01	-8.8808993340e-02
 9.3338095116e+00	 9.3338095116e+00	-6.9293426903e-03
 9.1923881554e+00	 9.4752308679e+00	-4.1230543146e-02
 9.0509667992e+00	 9.6166522241e+00	-7.2243749832e-02
 8.9095454429e+00	 9.7580735804e+00	-9.9953397146e-02
 8.7681240867e+00	 9.8994949366e+00	-1.1825026215e-01
 8.6267027305e+00	 1.0040916293e+01	-1.2397483208e-01
 8.4852813742e+00	 1.0182337649e+01	-1.2657529468e-01
 8.3438600180e+00	 1.0323759005e+01	-1.2604457922e-01
 8.2024386618e+00	 1.0465180362e+01	-1.2125916630e-01
 8.0610173055e+00	 1.0606601718e+01	-1.1313201726e-01
 7.9195959493e+00	 1.0748023074e+01	-1.0186081146e-01
 9.6166522241e+00	 9.6166522241e+00	 7.0412096627e-03
 9.4752308679e+00	 9.7580735804e+00	-2.4206664911e-02
 9.3338095117e+00	 9.8994949366e+00	-5.2678269124e-02
 9.1923881554e+00	 1.0040916293e+01	-7.8358037040e-02
 9.0509667992e+00	 1.0182337649e+01	-1.0123040236e-01
 8.9095454429e+00	 1.0323759005e+01	-1.2127979841e-01
 8.7681240867e+00	 1.0465180362e+01	-1.3196802043e-01
 8.6267027305e+00	 1.0606601718e+01	-1.3094616615e-01
 8.4852813742e+00	 1.0748023074e+01	-1.2730135346e-01
 8.3438600180e+00	 1.0889444430e+01	-1.2104252542e-01
 8.2024386618e+00	 1.1030865787e+01	-1.1217862509e-01
 9.8994949366e+00	 9.8994949366e+00	 1.5703711755e-02
 9.7580735804e+00	 1.0040916293e+01	-1.1796833040e-02
 9.6166522241e+00	 1.0182337649e+01	-3.7032831084e-02
 9.4752308679e+00	 1.0323759005e+01	-5.9988716101e-02
 9.3338095117e+00	 1.0465180362e+01	-8.0220804054e-02
 9.1923881554e+00	 1.0606601718e+01	-9.8027890220e-02
 9.0509667992e+00	 1.0748023074e+01	-1.1348692003e-01
 8.9095454429e+00	 1.0889444430e+01	-1.2660634669e-01
 8.7681240867e+00	 1.1030865787e+01	-1.3198128705e-01
 8.6267027305e+00	 1.1172287143e+01	-1.2686409884e-01
 8.4852813742e+00	 1.1313708499e+01	-1.1968082281e-01
 1.0182337649e+01	 1.0182337649e+01	 1.8812693778e-02
 1.0040916293e+01	 1.0323759005e+01	-4.2465186903e-03
 9.8994949366e+00	 1.0465180362e+01	-2.5404602404e-02
 9.7580735804e+00	 1.0606601718e+01	-4.4713490747e-02
 9.6166522241e+00	 1.0748023074e+01	-6.2201355500e-02
 9.4752308679e+00	 1.0889444430e+01	-7.7876649664e-02
 9.3338095117e+00	 1.1030865787e+01	-9.1747826361e-02
 9.1923881554e+00	 1.1172287143e+01	-1.0382333884e-01
 9.0509667992e+00	 1.1313708499e+01	-1.1411164046e-01
 8.9095454429e+00	 1.1455129855e+01	-1.2262118472e-01
 8.7681240867e+00	 1.1596551211e+01	-1.2428579319e-01
 1.0465180362e+01	 1.0465180362e+01	 1.6046558473e-02
 1.0323759005e+01	 1.0606601718e+01	-1.8961650736e-03
 1.0182337649e+01	 1.0748023074e+01	-1.8544897924e-02
 1.0040916293e+01	 1.0889444430e+01	-3.3908092872e-02
 9.8994949366e+00	 1.1030865787e+01	-4.7994202832e-02
 9.7580735804e+00	 1.1172287143e+01	-6.0811680842e-02
 9.6166522241e+00	 1.1313708499e+01	-7.2368980063e-02
 9.4752308679e+00	 1.1455129855e+01	-8.2674553777e-02
 9.3338095116e+00	 1.1596551211e+01	-9.1736855389e-02
 9.1923881554e+00	 1.1737972568e+01	-9.9564338426e-02
 9.0509667992e+00	 1.1879393924e+01	-1.0616545654e-01
 1.0748023074e+01	 1.0748023074e+01	 6.8077534850e-03
 1.0606601718e+01	 1.0889444430e+01	-5.3753761270e-03
 1.0465180362e+01	 1.1030865787e+01	-1.6808453356e-02
 1.0323759005e+01	 1.1172287143e+01	-2.7499931033e-02
 1.0182337649e+01	 1.1313708499e+01	-3.7458262112e-02
 1.0040916293e+01	 1.1455129855e+01	-4.6691899666e-02
 9.8994949366e+00	 1.1596551211e+01	-5.5209296895e-02
 9.7580735804e+00	 1.1737972568e+01	-6.3018907118e-02
 9.6166522241e+00	 1.1879393924e+01	-7.0129183778e-02
 9.4752308679e+00	 1.2020815280e+01	-7.6548580440e-02
 9.3338095116e+00	 1.2162236636e+01	-8.2285550792e-02
 1.1030865787e+01	 1.1030865787e+01	-8.8652783481e-03
 1.0889444430e+01	 1.1172287143e+01	-1.4562790426e-02
 1.0748023074e+01	 1.1313708499e+01	-2.0054188221e-02
 1.0606601718e+01	 1.1455129855e+01	-2.5347924602e-02
 1.0465180362e+01	 1.1596551211e+01	-3.0452452560e-02
 1.0323759005e+01	 1.1737972568e+01	-3.5376225207e-02
 1.0182337649e+01	 1.1879393924e+01	-4.0127695778e-02
 1.0040916293e+01	 1.2020815280e+01	-4.4715317632e-02
 9.8994949366e+00	 1.2162236636e+01	-4.9147544248e-02
 9.7580735804e+00	 1.2303657993e+01	-5.3432829230e-02
 9.6166522241e+00	 1.2445079349e+01	-5.7579626302e-02
 1.1313708499e+01	 1.1313708499e+01	-3.0831460008e-02
 1.1172287143e+01	 1.1455129855e+01	-2.9317330802e-02
 1.1030865787e+01	 1.1596551211e+01	-2.8141025201e-02
 1.0889444430e+01	 1.1737972568e+01	-2.7310996110e-02
 1.0748023074e+01	 1.1879393924e+01	-2.6835696558e-02
 1.0606601718e+01	 1.2020815280e+01	-2.6723579694e-02
 1.0465180362e+01	 1.2162236636e+01	-2.6983098793e-02
 1.0323759005e+01	 1.2303657993e+01	-2.7622707248e-02
 1.0182337649e+01	 1.2445079349e+01	-2.8650858579e-02
 1.0040916293e+01	 1.2586500705e+01	-3.0076006425e-02
 9.8994949366e+00	 1.2727922061e+01	-3.1906604548e-02
 1.1313708499e+01	 1.1313708499e+01	-3.0831460008e-02
 1.1172287143e+01	 1.1455129855e+01	-2.9317330802e-02
 1.1030865787e+01	 1.1596551211e+01	-2.8141025201e-02
 1.0889444430e+01	 1.1737972568e+01	-2.7310996110e-02
 1.0748023074e+01	 1.1879393924e+01	-2.6835696558e-02
 1.0606601718e+01	 1.2020815280e+01	-2.6723579694e-02
 1.0465180362e+01	 1.2162236636e+01	-2.6983098793e-02
 1.0323759005e+01	 1.2303657993e+01	-2.7622707248e-02
 1.0182337649e+01	 1.2445079349e+01	-2.8650858579e-02
 1.0040916293e+01	 1.2586500705e+01	-3.0076006425e-02
 9.8994949366e+00	 1.2727922061e+01	-3.1906604548e-02
 1.1596551211e+01	 1.1596551211e+01	-1.9452492942e-02
 1.1455129855e+01	 1.1737972568e+01	-1.9594866403e-02
 1.1313708499e+01	 1.1879393924e+01	-1.9973055363e-02
 1.1172287143e+01	 1.2020815280e+01	-2.0595512765e-02
 1.1030865787e+01	 1.2162236636e+01	-2.1470691674e-02
 1.0889444430e+01	 1.2303657993e+01	-2.2607045280e-02
 1.0748023074e+01	 1.2445079349e+01	-2.4013026891e-02
 1.0606601718e+01	 1.2586500705e+01	-2.5697089942e-02
 1.0465180362e+01	 1.2727922061e+01	-2.7667687986e-02
 1.0323759005e+01	 1.2869343418e+01	-2.9933274703e-02
 1.0182337649e+01	 1.3010764774e+01	-3.2502303891e-02
 1.1879393924e+01	 1.1879393924e+01	-1.0204927692e-02
 1.1737972568e+01	 1.2020815280e+01	-1.1825712061e-02
 1.1596551211e+01	 1.2162236636e+01	-1.3580303609e-02
 1.1455129855e+01	 1.2303657993e+01	-1.5477155318e-02
 1.1313708499e+01	 1.2445079349e+01	-1.7524720290e-02
 1.1172287143e+01	 1.2586500705e+01	-1.9731451752e-02
 1.1030865787e+01	 1.2727922061e+01	-2.2105803050e-02
 1.0889444430e+01	 1.2869343418e+01	-2.4656227657e-02
 1.0748023074e+01	 1.3010764774e+01	-2.7391179163e-02
 1.0606601718e+01	 1.3152186130e+01	-3.0319111286e-02
 1.0465180362e+01	 1.3293607486e+01	-3.3448477861e-02
 1.2162236636e+01	 1.2162236636e+01	-2.9476967198e-03
 1.2020815280e+01	 1.2303657993e+01	-5.8688000862e-03
 1.1879393924e+01	 1.2445079349e+01	-8.8217021000e-03
 1.1737972568e+01	 1.2586500705e+01	-1.1814855779e-02
 1.1596551211e+01	 1.2727922061e+01	-1.4856714265e-02
 1.1455129855e+01	 1.2869343418e+01	-1.7955730821e-02
 1.1313708499e+01	 1.3010764774e+01	-2.1120358831e-02
 1.1172287143e+01	 1.3152186130e+01	-2.4359051804e-02
 1.1030865787e+01	 1.3293607486e+01	-2.7680263370e-02
 1.0889444430e+01	 1.3435028843e+01	-3.1092447283e-02
 1.0748023074e+01	 1.3576450199e+01	-3.4604057416e-02
 1.2445079349e+01	 1.2445079349e+01	 2.4602643540e-03
 1.2303657993e+01	 1.2586500705e+01	-1.5830659503e-03
 1.2162236636e+01	 1.2727922061e+01	-5.5561861565e-03
 1.2020815280e+01	 1.2869343418e+01	-9.4675493204e-03
 1.1879393924e+01	 1.3010764774e+01	-1.3325608620e-02
 1.1737972568e+01	 1.3152186130e+01	-1.7138817356e-02
 1.1596551211e+01	 1.3293607486e+01	-2.0915628952e-02
 1.1455129855e+01	 1.3435028843e+01	-2.4664496953e-02
 1.1313708499e+01	 1.3576450199e+01	-2.8393875027e-02
 1.1172287143e+01	 1.3717871555e+01	-3.2112216963e-02
 1.1030865787e+01	 1.3859292911e+01	-3.5827976676e-02
 1.2727922061e+01	 1.2727922061e+01	 6.1600167485e-03
 1.2586500705e+01	 1.2869343418e+01	 1.1725517164e-03
 1.2445079349e+01	 1.3010764774e+01	-3.6426942589e-03
 1.2303657993e+01	 1.3152186130e+01	-8.2941742706e-03
 1.2162236636e+01	 1.3293607486e+01	-1.2790341535e-02
 1.2020815280e+01	 1.3435028843e+01	-1.7139649389e-02
 1.1879393924e+01	 1.3576450199e+01	-2.1350551294e-02
 1.1737972568e+01	 1.3717871555e+01	-2.5431500833e-02
 1.1596551211e+01	 1.3859292911e+01	-2.9390951712e-02
 1.1455129855e+01	 1.4000714267e+01	-3.3237357757e-02
 1.1313708499e+01	 1.4142135624e+01	-3.6979172919e-02
 1.3010764774e+01	 1.3010764774e+01	 8.2926185237e-03
 1.2869343418e+01	 1.3152186130e+01	 2.5391111240e-03
 1.2727922061e+01	 1.3293607486e+01	-2.9401680468e-03
 1.2586500705e+01	 1.3435028843e+01	-8.1536721197e-03
 1.2445079349e+01	 1.3576450199e+01	-1.3109854348e-02
 1.2303657993e+01	 1.3717871555e+01	-1.7817168107e-02
 1.2162236636e+01	 1.3859292911e+01	-2.2284066895e-02
 1.2020815280e+01	 1.4000714267e+01	-2.6519004333e-02
 1.1879393924e+01	 1.4142135624e+01	-3.0530434164e-02
 1.1737972568e+01	 1.4283556980e+01	-3.4326810252e-02
 1.1596551211e+01	 1.4424978336e+01	-3.7916586585e-02
 1.3293607486e+01	 1.3293607486e+01	 8.9991245802e-03
 1.3152186130e+01	 1.3435028843e+01	 2.6576673235e-03
 1.3010764774e+01	 1.3576450199e+01	-3.3075523192e-03
 1.2869343418e+01	 1.3717871555e+01	-8.9049875163e-03
 1.2727922061e+01	 1.3859292911e+01	-1.4143091559e-02
 1.2586500705e+01	 1.4000714267e+01	-1.9030317860e-02
 1.2445079349e+01	 1.4142135624e+01	-2.3575119955e-02
 1.2303657993e+01	 1.4283556980e+01	-2.7785951501e-02
 1.2162236636e+01	 1.4424978336e+01	-3.1671266281e-02
 1.2020815280e+01	 1.4566399692e+01	-3.5239518195e-02
 1.1879393924e+01	 1.4707821049e+01	-3.8499161270e-02
 1.3576450199e+01	 1.3576450199e+01	 8.4205866594e-03
 1.3435028843e+01	 1.3717871555e+01	 1.6692722065e-03
 1.3293607486e+01	 1.3859292911e+01	-4.6037950342e-03
 1.3152186130e+01	 1.4000714267e+01	-1.0407068269e-02
 1.3010764774e+01	 1.4142135624e+01	-1.5749000825e-02
 1.2869343418e+01	 1.4283556980e+01	-2.0638046154e-02
 1.2727922061e+01	 1.4424978336e+01	-2.5082657829e-02
 1.2586500705e+01	 1.4566399692e+01	-2.9091289545e-02
 1.2445079349e+01	 1.4707821049e+01	-3.2672395120e-02
 1.2303657993e+01	 1.4849242405e+01	-3.5834428495e-02
 1.2162236636e+01	 1.4990663761e+01	-3.8585843732e-02
 1.3859292911e+01	 1.3859292911e+01	 6.6980533439e-03
 1.3717871555e+01	 1.4000714267e+01	-2.8502549461e-04
 1.3576450199e+01	 1.4142135624e+01	-6.6878473093e-03
 1.3435028843e+01	 1.4283556980e+01	-1.2518865344e-02
 1.3293607486e+01	 1.4424978336e+01	-1.7786532964e-02
 1.3152186130e+01	 1.4566399692e+01	-2.2499303657e-02
 1.3010764774e+01	 1.4707821049e+01	-2.6665631035e-02
 1.2869343418e+01	 1.4849242405e+01	-3.0293968830e-02
 1.2727922061e+01	 1.4990663761e+01	-3.3392770899e-02
 1.2586500705e+01	 1.5132085117e+01	-3.5970491217e-02
 1.2445079349e+01	 1.5273506474e+01	-3.8035583887e-02
 1.4142135624e+01	 1.4142135624e+01	 3.9725700568e-03
 1.4000714267e+01	 1.4283556980e+01	-3.0641802061e-03
 1.3859292911e+01	 1.4424978336e+01	-9.4186634207e-03
 1.3717871555e+01	 1.4566399692e+01	-1.5099332868e-02
 1.3576450199e+01	 1.4707821049e+01	-2.0114641951e-02
 1.3435028843e+01	 1.4849242405e+01	-2.4473044195e-02
 1.3293607486e+01	 1.4990663761e+01	-2.8182993249e-02
 1.3152186130e+01	 1.5132085117e+01	-3.1252942884e-02
 1.3010764774e+01	 1.5273506474e+01	-3.3691346992e-02
 1.2869343418e+01	 1.5414927830e+01	-3.5506659588e-02
 1.2727922061e+01	 1.5556349186e+01	-3.6707334810e-02
-1.4142135624e+00	 1.4142135624e+00	-1.5528815820e-01
-2.0506096655e+00	 2.0506096655e+00	-1.5151977023e-01
-2.6870057685e+00	 2.6870057685e+00	-1.5973677812e-01
-3.3234018716e+00	 3.3234018716e+00	-1.7081870980e-01
-3.9597979746e+00	 3.9597979746e+00	-1.8386609689e-01
-4.5961940777e+00	 4.5961940777e+00	-1.9165314498e-01
-5.2325901808e+00	 5.2325901808e+00	-1.9484985585e-01
-5.8689862838e+00	 5.8689862838e+00	-1.9664307049e-01
-6.5053823869e+00	 6.5053823869e+00	-2.0021979063e-01
-7.1417784900e+00	 7.1417784900e+00	-2.0876717877e-01
-7.7781745931e+00	 7.7781745931e+00	-2.2547255822e-01
-1.1313708499e+00	 1.6970562749e+00	-1.6982442232e-01
-1.7677669530e+00	 2.3334523779e+00	-1.6004959067e-01
-2.4041630560e+00	 2.9698484810e+00	-1.6338884076e-01
-3.0405591591e+00	 3.6062445841e+00	-1.7958591806e-01
-3.6769552622e+00	 4.2426406871e+00	-1.8796391437e-01
-4.3133513652e+00	 4.8790367902e+00	-1.9027409638e-01
-4.9497474683e+00	 5.5154328933e+00	-1.8970319967e-01
-5.5861435714e+00	 6.1518289963e+00	-1.8943810748e-01
-6.2225396744e+00	 6.7882250994e+00	-1.9266586380e-01
-6.8589357775e+00	 7.4246212025e+00	-2.0257367341e-01
-7.4953318806e+00	 8.0610173055e+00	-2.2234890188e-01
-8.4852813744e-01	 1.9798989873e+00	-1.8638776930e-01
-1.4849242405e+00	 2.6162950904e+00	-1.7017468668e-01
-2.1213203436e+00	 3.2526911935e+00	-1.6820437167e-01
-2.7577164466e+00	 3.8890872965e+00	-1.8741675749e-01
-3.3941125497e+00	 4.5254833996e+00	-1.9495489019e-01
-4.0305086528e+00	 5.1618795027e+00	-1.9114653873e-01
-4.6669047558e+00	 5.7982756057e+00	-1.8616636899e-01
-5.3033008589e+00	 6.4346717088e+00	-1.8320130645e-01
-5.9396969620e+00	 7.0710678119e+00	-1.8543843738e-01
-6.5760930650e+00	 7.7074639149e+00	-1.9606500882e-01
-7.2124891681e+00	 8.3438600180e+00	-2.1826842859e-01
-5.6568542496e-01	 2.2627416998e+00	-2.0497819915e-01
-1.2020815280e+00	 2.8991378029e+00	-1.8189505827e-01
-1.8384776311e+00	 3.5355339059e+00	-1.7594738014e-01
-2.4748737341e+00	 4.1719300090e+00	-1.9161681189e-01
-3.1112698372e+00	 4.8083261121e+00	-2.0449494682e-01
-3.7476659403e+00	 5.4447222151e+00	-1.9392638615e-01
-4.3840620433e+00	 6.0811183182e+00	-1.8389526958e-01
-5.0204581464e+00	 6.7175144213e+00	-1.7758856484e-01
-5.6568542495e+00	 7.3539105243e+00	-1.7819340045e-01
-6.2932503525e+00	 7.9903066274e+00	-1.8889706572e-01
-6.9296464556e+00	 8.6267027305e+00	-2.1288701074e-01
-2.8284271249e-01	 2.5455844123e+00	-2.2559571188e-01
-9.1923881555e-01	 3.1819805153e+00	-1.9521070544e-01
-1.5556349186e+00	 3.8183766184e+00	-1.8798641410e-01
-2.1920310217e+00	 4.4547727215e+00	-1.9534973359e-01
-2.8284271247e+00	 5.0911688245e+00	-2.0982269927e-01
-3.4648232278e+00	 5.7275649276e+00	-1.9826954421e-01
-4.1012193309e+00	 6.3639610307e+00	-1.8254579866e-01
-4.7376154339e+00	 7.0003571338e+00	-1.7225577150e-01
-5.3740115370e+00	 7.6367532368e+00	-1.7058663351e-01
-6.0104076401e+00	 8.2731493399e+00	-1.8072571627e-01
-6.6468037431e+00	 8.9095454430e+00	-2.0586051214e-01
-1.2500001034e-11	 2.8284271247e+00	-2.4824030747e-01
-6.3639610307e-01	 3.4648232278e+00	-2.1048405241e-01
-1.2727922061e+00	 4.1012193309e+00	-1.9997686314e-01
-1.9091883092e+00	 4.7376154339e+00	-1.9867196571e-01
-2.5455844123e+00	 5.3740115370e+00	-2.0551003530e-01
-3.1819805153e+00	 6.0104076401e+00	-2.0383190988e-01
-3.8183766184e+00	 6.6468037432e+00	-1.8177384486e-01
-4.4547727215e+00	 7.2831998462e+00	-1.6685880672e-01
-5.0911688245e+00	 7.9195959493e+00	-1.6227400851e-01
-5.7275649276e+00	 8.5559920524e+00	-1.7120682406e-01
-6.3639610307e+00	 9.1923881554e+00	-1.9684478803e-01
 2.8284271246e-01	 3.1112698372e+00	-2.7291198593e-01
-3.5355339060e-01	 3.7476659403e+00	-2.3254601844e-01
-9.8994949366e-01	 4.3840620433e+00	-2.1197517345e-01
-1.6263455967e+00	 5.0204581464e+00	-2.0163995248e-01
-2.2627416998e+00	 5.6568542495e+00	-2.0048102046e-01
-2.8991378029e+00	 6.2932503526e+00	-2.0743898002e-01
-3.5355339059e+00	 6.9296464556e+00	-1.8123528826e-01
-4.1719300090e+00	 7.5660425587e+00	-1.6105354223e-01
-4.8083261120e+00	 8.2024386618e+00	-1.5291138882e-01
-5.4447222151e+00	 8.8388347648e+00	-1.5999624413e-01
-6.0811183182e+00	 9.4752308679e+00	-1.8549568509e-01
 5.6568542494e-01	 3.3941125497e+00	-2.9961074726e-01
-7.0710678125e-02	 4.0305086527e+00	-2.5503439470e-01
-7.0710678119e-01	 4.6669047558e+00	-2.2403778840e-01
-1.3435028842e+00	 5.3033008589e+00	-2.0431013928e-01
-1.9798989873e+00	 5.9396969620e+00	-1.9479210211e-01
-2.6162950904e+00	 6.5760930650e+00	-1.9442426941e-01
-3.2526911934e+00	 7.2124891681e+00	-1.8058600036e-01
-3.8890872965e+00	 7.8488852712e+00	-1.5449584118e-01
-4.5254833996e+00	 8.4852813742e+00	-1.4215462924e-01
-5.1618795026e+00	 9.1216774773e+00	-1.4674982292e-01
-5.7982756057e+00	 9.7580735804e+00	-1.7146904141e-01
 8.4852813741e-01	 3.6769552621e+00	-3.3315167965e-01
 2.1213203435e-01	 4.3133513652e+00	-2.7800562382e-01
-4.2426406871e-01	 4.9497474683e+00	-2.3622115248e-01
-1.0606601718e+00	 5.5861435714e+00	-2.0673897257e-01
-1.6970562748e+00	 6.2225396744e+00	-1.8849972874e-01
-2.3334523779e+00	 6.8589357775e+00	-1.8044400336e-01
-2.9698484810e+00	 7.4953318806e+00	-1.7948184411e-01
-3.6062445840e+00	 8.1317279836e+00	-1.4684155816e-01
-4.2426406871e+00	 8.7681240867e+00	-1.2965957602e-01
-4.8790367902e+00	 9.4045201898e+00	-1.3112339833e-01
-5.5154328932e+00	 1.0040916293e+01	-1.5442068654e-01
 1.1313708499e+00	 3.9597979746e+00	-3.6884551745e-01
 4.9497474682e-01	 4.5961940777e+00	-3.0151614940e-01
-1.4142135624e-01	 5.2325901808e+00	-2.4858171131e-01
-7.7781745931e-01	 5.8689862838e+00	-2.0898289999e-01
-1.4142135624e+00	 6.5053823869e+00	-1.8166034996e-01
-2.0506096654e+00	 7.1417784900e+00	-1.6555463346e-01
-2.6870057685e+00	 7.7781745930e+00	-1.5960626047e-01
-3.3234018716e+00	 8.4145706961e+00	-1.3774653918e-01
-3.9597979746e+00	 9.0509667992e+00	-1.1508206681e-01
-4.5961940777e+00	 9.6873629023e+00	-1.1277279965e-01
-5.2325901808e+00	 1.0323759005e+01	-1.3400644143e-01
 1.4142135624e+00	 4.2426406871e+00	-4.0549719728e-01
 7.7781745929e-01	 4.8790367902e+00	-3.2562241619e-01
 1.4142135623e-01	 5.5154328932e+00	-2.6117591163e-01
-4.9497474683e-01	 6.1518289963e+00	-2.1109837027e-01
-1.1313708499e+00	 6.7882250994e+00	-1.7433041651e-01
-1.7677669530e+00	 7.4246212024e+00	-1.4981261246e-01
-2.4041630560e+00	 8.0610173055e+00	-1.3648545796e-01
-3.0405591591e+00	 8.6974134086e+00	-1.2686662169e-01
-3.6769552622e+00	 9.3338095117e+00	-9.8077930712e-02
-4.3133513652e+00	 9.9702056147e+00	-9.1353847638e-02
-4.9497474683e+00	 1.0606601718e+01	-1.1212203166e-01
-7.7781745931e+00	 7.7781745931e+00	-2.2547255822e-01
-8.4145706961e+00	 8.4145706961e+00	-1.6268376814e-01
-9.0509667992e+00	 9.0509667992e+00	-1.2428986086e-01
-9.6873629023e+00	 9.6873629023e+00	-1.1866802204e-01
-1.0323759005e+01	 1.0323759005e+01	-1.1331042107e-01
-1.0960155108e+01	 1.0960155108e+01	-1.2413722264e-01
-1.1596551211e+01	 1.1596551211e+01	-1.2955089547e-01
-1.2232947315e+01	 1.2232947315e+01	-1.2882345376e-01
-1.2869343418e+01	 1.2869343418e+01	-1.2186938397e-01
-1.3505739521e+01	 1.3505739521e+01	-1.0860317227e-01
-1.4142135624e+01	 1.4142135624e+01	-8.8939304567e-02
-7.4953318806e+00	 8.0610173055e+00	-2.2234890188e-01
-8.1317279836e+00	 8.6974134086e+00	-1.6191870541e-01
-8.7681240867e+00	 9.3338095117e+00	-1.1022200252e-01
-9.4045201898e+00	 9.9702056147e+00	-1.0442002039e-01
-1.0040916293e+01	 1.0606601718e+01	-1.0953969754e-01
-1.0677312396e+01	 1.1242997821e+01	-1.2074727825e-01
-1.1313708499e+01	 1.1879393924e+01	-1.2577845699e-01
-1.1950104602e+01	 1.2515790027e+01	-1.2454771828e-01
-1.2586500705e+01	 1.3152186130e+01	-1.1696954637e-01
-1.3222896808e+01	 1.3788582233e+01	-1.0295842522e-01
-1.3859292911e+01	 1.4424978336e+01	-8.2428838481e-02
-7.2124891681e+00	 8.3438600180e+00	-2.1826842859e-01
-7.8488852712e+00	 8.9802561211e+00	-1.6016286789e-01
-8.4852813742e+00	 9.6166522241e+00	-1.1118281431e-01
-9.1216774773e+00	 1.0253048327e+01	-9.0757512735e-02
-9.7580735804e+00	 1.0889444430e+01	-1.0544198694e-01
-1.0394469683e+01	 1.1525840533e+01	-1.1656939434e-01
-1.1030865787e+01	 1.2162236636e+01	-1.2139959976e-01
-1.1667261890e+01	 1.2798632739e+01	-1.1984708552e-01
-1.2303657993e+01	 1.3435028843e+01	-1.1182633365e-01
-1.2940054096e+01	 1.4071424946e+01	-9.7251825861e-02
-1.3576450199e+01	 1.4707821049e+01	-7.6038043602e-02
-6.9296464556e+00	 8.6267027305e+00	-2.1288701074e-01
-7.5660425587e+00	 9.2630988336e+00	-1.5707211960e-01
-8.2024386618e+00	 9.8994949366e+00	-1.1077475108e-01
-8.8388347648e+00	 1.0535891040e+01	-8.2773275905e-02
-9.4752308679e+00	 1.1172287143e+01	-1.0033451219e-01
-1.0111626971e+01	 1.1808683246e+01	-1.1156326681e-01
-1.0748023074e+01	 1.2445079349e+01	-1.1637402015e-01
-1.1384419177e+01	 1.3081475452e+01	-1.1468125230e-01
-1.2020815280e+01	 1.3717871555e+01	-1.0639944305e-01
-1.2657211383e+01	 1.4354267658e+01	-9.1443071893e-02
-1.3293607486e+01	 1.4990663761e+01	-6.9726618056e-02
-6.6468037431e+00	 8.9095454430e+00	-2.0586051214e-01
-7.2831998462e+00	 9.5459415460e+00	-1.5230231601e-01
-7.9195959493e+00	 1.0182337649e+01	-1.0865365994e-01
-8.5559920523e+00	 1.0818733752e+01	-8.8424667735e-02
-9.1923881554e+00	 1.1455129855e+01	-9.4176967973e-02
-9.8287842585e+00	 1.2091525958e+01	-1.0568859082e-01
-1.0465180362e+01	 1.2727922061e+01	-1.1066141375e-01
-1.1101576465e+01	 1.3364318164e+01	-1.0900991462e-01
-1.1737972568e+01	 1.4000714267e+01	-1.0064857102e-01
-1.2374368671e+01	 1.4637110371e+01	-8.5491860206e-02
-1.3010764774e+01	 1.5273506474e+01	-6.3454259174e-02
-6.3639610307e+00	 9.1923881554e+00	-1.9684478803e-01
-7.0003571337e+00	 9.8287842585e+00	-1.4550930401e-01
-7.6367532368e+00	 1.0465180362e+01	-1.0705822679e-01
-8.2731493399e+00	 1.1101576465e+01	-9.1150931121e-02
-8.9095454429e+00	 1.1737972568e+01	-8.6929048191e-02
-9.5459415460e+00	 1.2374368671e+01	-9.8905060688e-02
-1.0182337649e+01	 1.3010764774e+01	-1.0422147532e-01
-1.0818733752e+01	 1.3647160877e+01	-1.0279276771e-01
-1.1455129855e+01	 1.4283556980e+01	-9.4533413223e-02
-1.2091525958e+01	 1.4919953083e+01	-7.9357886897e-02
-1.2727922061e+01	 1.5556349186e+01	-5.7180663496e-02
-6.0811183182e+00	 9.4752308679e+00	-1.8549568509e-01
-6.7175144213e+00	 1.0111626971e+01	-1.3634892192e-01
-7.3539105243e+00	 1.0748023074e+01	-1.0548566293e-01
-7.9903066274e+00	 1.1384419177e+01	-9.0291920733e-02
-8.6267027305e+00	 1.2020815280e+01	-8.3830562270e-02
-9.2630988335e+00	 1.2657211383e+01	-9.1172369974e-02
-9.8994949366e+00	 1.3293607486e+01	-9.7013898852e-02
-1.0535891040e+01	 1.3930003589e+01	-9.5989505998e-02
-1.1172287143e+01	 1.4566399692e+01	-8.8013664530e-02
-1.1808683246e+01	 1.5202795796e+01	-7.3000847275e-02
-1.2445079349e+01	 1.5839191899e+01	-5.0865526768e-02
-5.7982756057e+00	 9.7580735804e+00	-1.7146904141e-01
-6.4346717088e+00	 1.0394469683e+01	-1.2528138125e-01
-7.0710678119e+00	 1.1030865787e+01	-1.0006688697e-01
-7.7074639149e+00	 1.1667261890e+01	-8.5940437584e-02
-8.3438600180e+00	 1.2303657993e+01	-8.0200955621e-02
-8.9802561211e+00	 1.2940054096e+01	-8.2450211430e-02
-9.6166522241e+00	 1.3576450199e+01	-8.8998377546e-02
-1.0253048327e+01	 1.4212846302e+01	-8.8559823109e-02
-1.0889444430e+01	 1.4849242405e+01	-8.1049019010e-02
-1.1525840533e+01	 1.5485638508e+01	-6.6380435852e-02
-1.2162236636e+01	 1.6122034611e+01	-4.4468543943e-02
-5.5154328932e+00	 1.0040916293e+01	-1.5442068654e-01
-6.1518289963e+00	 1.0677312396e+01	-1.1434274572e-01
-6.7882250994e+00	 1.1313708499e+01	-9.0894699913e-02
-7.4246212025e+00	 1.1950104602e+01	-7.8189282687e-02
-8.0610173055e+00	 1.2586500705e+01	-7.3525416571e-02
-8.6974134086e+00	 1.3222896808e+01	-7.4202024090e-02
-9.3338095117e+00	 1.3859292911e+01	-8.0134603802e-02
-9.9702056147e+00	 1.4495689014e+01	-8.0463411889e-02
-1.0606601718e+01	 1.5132085117e+01	-7.3599169946e-02
-1.1242997821e+01	 1.5768481220e+01	-5.9456346349e-02
-1.1879393924e+01	 1.6404877324e+01	-3.7949409182e-02
-5.2325901808e+00	 1.0323759005e+01	-1.3400644143e-01
-5.8689862838e+00	 1.0960155108e+01	-9.9389760767e-02
-6.5053823869e+00	 1.1596551211e+01	-7.8061902778e-02
-7.1417784900e+00	 1.2232947315e+01	-6.7131257058e-02
-7.7781745931e+00	 1.2869343418e+01	-6.3896746133e-02
-8.4145706961e+00	 1.3505739521e+01	-6.5657292529e-02
-9.0509667992e+00	 1.4142135624e+01	-7.0382269228e-02
-9.6873629023e+00	 1.4778531727e+01	-7.1659964387e-02
-1.0323759005e+01	 1.5414927830e+01	-6.5623809825e-02
-1.0960155108e+01	 1.6051323933e+01	-5.2188271694e-02
-1.1596551211e+01	 1.6687720036e+01	-3.1267815851e-02
-4.9497474683e+00	 1.0606601718e+01	-1.1212203166e-01
-5.5861435714e+00	 1.1242997821e+01	-8.0515227403e-02
-6.2225396744e+00	 1.1879393924e+01	-6.1661296578e-02
-6.8589357775e+00	 1.2515790027e+01	-5.2859161709e-02
-7.4953318806e+00	 1.3152186130e+01	-5.1407745320e-02
-8.1317279837e+00	 1.3788582233e+01	-5.4605969939e-02
-8.7681240867e+00	 1.4424978336e+01	-5.9752758091e-02
-9.4045201898e+00	 1.5061374439e+01	-6.2109171856e-02
-1.0040916293e+01	 1.5697770542e+01	-5.7082630342e-02
-1.0677312396e+01	 1.6334166645e+01	-4.4535904021e-02
-1.1313708499e+01	 1.6970562749e+01	-2.4383456525e-02
 1.4142135624e+00	 4.2426406871e+00	-4.0549719728e-01
 7.7781745929e-01	 4.8790367902e+00	-3.2562241619e-01
 1.4142135623e-01	 5.5154328932e+00	-2.6117591163e-01
-4.9497474683e-01	 6.1518289963e+00	-2.1109837027e-01
-1.1313708499e+00	 6.7882250994e+00	-1.7433041651e-01
-1.7677669530e+00	 7.4246212024e+00	-1.4981261246e-01
-2.4041630560e+00	 8.0610173055e+00	-1.3648545796e-01
-3.0405591591e+00	 8.6974134086e+00	-1.2686662169e-01
-3.6769552622e+00	 9.3338095117e+00	-9.8077930712e-02
-4.3133513652e+00	 9.9702056147e+00	-9.1353847638e-02
-4.9497474683e+00	 1.0606601718e+01	-1.1212203166e-01
 1.6970562748e+00	 4.5254833996e+00	-4.1217898837e-01
 1.0606601718e+00	 5.1618795026e+00	-3.3222613272e-01
 4.2426406870e-01	 5.7982756057e+00	-2.6714005859e-01
-2.1213203436e-01	 6.4346717088e+00	-2.1586144250e-01
-8.4852813743e-01	 7.0710678119e+00	-1.7733089874e-01
-1.4849242405e+00	 7.7074639149e+00	-1.5048897929e-01
-2.1213203436e+00	 8.3438600180e+00	-1.3427617385e-01
-2.7577164466e+00	 8.9802561211e+00	-1.2763290984e-01
-3.3941125497e+00	 9.6166522241e+00	-1.0529871694e-01
-4.0305086528e+00	 1.0253048327e+01	-9.3588778995e-02
-4.6669047558e+00	 1.0889444430e+01	-1.1178794576e-01
 1.9798989873e+00	 4.8083261121e+00	-4.1437381553e-01
 1.3435028842e+00	 5.4447222151e+00	-3.3458150325e-01
 7.0710678117e-01	 6.0811183182e+00	-2.6909447856e-01
 7.0710678108e-02	 6.7175144213e+00	-2.1685340787e-01
-5.6568542496e-01	 7.3539105243e+00	-1.7679889532e-01
-1.2020815280e+00	 7.9903066274e+00	-1.4787148277e-01
-1.8384776311e+00	 8.6267027305e+00	-1.2901164980e-01
-2.4748737342e+00	 9.2630988335e+00	-1.1915981367e-01
-3.1112698372e+00	 9.8994949366e+00	-1.0865253190e-01
-3.7476659403e+00	 1.0535891040e+01	-9.2152582233e-02
-4.3840620434e+00	 1.1172287143e+01	-1.0781362677e-01
 2.2627416998e+00	 5.0911688245e+00	-4.1213812488e-01
 1.6263455967e+00	 5.7275649276e+00	-3.3274497588e-01
 9.8994949364e-01	 6.3639610307e+00	-2.6709562166e-01
 3.5355339058e-01	 7.0003571337e+00	-2.1413071848e-01
-2.8284271248e-01	 7.6367532368e+00	-1.7279086036e-01
-9.1923881555e-01	 8.2731493399e+00	-1.4201657903e-01
-1.5556349186e+00	 8.9095454429e+00	-1.2074834392e-01
-2.1920310217e+00	 9.5459415460e+00	-1.0792656220e-01
-2.8284271247e+00	 1.0182337649e+01	-1.0249157871e-01
-3.4648232278e+00	 1.0818733752e+01	-8.6916720953e-02
-4.1012193309e+00	 1.1455129855e+01	-1.0029187571e-01
 2.5455844122e+00	 5.3740115370e+00	-4.0552836367e-01
 1.9091883092e+00	 6.0104076401e+00	-3.2677299987e-01
 1.2727922061e+00	 6.6468037431e+00	-2.6119993913e-01
 6.3639610305e-01	 7.2831998462e+00	-2.0774982758e-01
-9.9993208158e-12	 7.9195959493e+00	-1.6536324910e-01
-6.3639610307e-01	 8.5559920523e+00	-1.3298072529e-01
-1.2727922061e+00	 9.1923881554e+00	-1.0954271547e-01
-1.9091883092e+00	 9.8287842585e+00	-9.3989616645e-02
-2.5455844123e+00	 1.0465180362e+01	-8.4348772122e-02
-3.1819805153e+00	 1.1101576465e+01	-7.7879472439e-02
-3.8183766184e+00	 1.1737972568e+01	-8.9315493594e-02
 2.8284271247e+00	 5.6568542495e+00	-3.9460098025e-01
 2.1920310217e+00	 6.2932503526e+00	-3.1672202558e-01
 1.5556349186e+00	 6.9296464556e+00	-2.5146388333e-01
 9.1923881553e-01	 7.5660425587e+00	-1.9776718952e-01
 2.8284271246e-01	 8.2024386618e+00	-1.5457251790e-01
-3.5355339060e-01	 8.8388347648e+00	-1.2082037994e-01
-9.8994949367e-01	 9.4752308679e+00	-9.5451224800e-02
-1.6263455967e+00	 1.0111626971e+01	-7.7405439382e-02
-2.2627416998e+00	 1.0748023074e+01	-6.2987832995e-02
-2.8991378029e+00	 1.1384419177e+01	-6.3991139178e-02
-3.5355339059e+00	 1.2020815280e+01	-7.4977281430e-02
 3.1112698372e+00	 5.9396969620e+00	-3.9347076702e-01
 2.4748737341e+00	 6.5760930650e+00	-3.0264850451e-01
 1.8384776311e+00	 7.2124891681e+00	-2.3794390777e-01
 1.2020815280e+00	 7.8488852712e+00	-1.8423925982e-01
 5.6568542494e-01	 8.4852813742e+00	-1.4047512426e-01
-7.0710678124e-02	 9.1216774773e+00	-1.0559200244e-01
-7.0710678119e-01	 9.7580735804e+00	-7.8530333405e-02
-1.3435028843e+00	 1.0394469683e+01	-5.7452882103e-02
-1.9798989873e+00	 1.1030865786e+01	-3.9872984826e-02
-2.6162950904e+00	 1.1667261890e+01	-4.1027550157e-02
-3.2526911935e+00	 1.2303657993e+01	-5.7370040236e-02
 3.3941125497e+00	 6.2225396745e+00	-3.9796048368e-01
 2.7577164466e+00	 6.8589357775e+00	-2.8460888928e-01
 2.1213203435e+00	 7.4953318806e+00	-2.2069646706e-01
 1.4849242405e+00	 8.1317279836e+00	-1.6722249508e-01
 8.4852813742e-01	 8.7681240867e+00	-1.2312752680e-01
 2.1213203435e-01	 9.4045201898e+00	-8.7352053438e-02
-4.2426406871e-01	 1.0040916293e+01	-5.8836503903e-02
-1.0606601718e+00	 1.0677312396e+01	-3.1799891023e-02
-1.6970562748e+00	 1.1313708499e+01	-1.5082660744e-02
-2.3334523779e+00	 1.1950104602e+01	-1.6501380352e-02
-2.9698484810e+00	 1.2586500705e+01	-3.6586571024e-02
 3.6769552621e+00	 6.5053823869e+00	-3.9887474455e-01
 3.0405591591e+00	 7.1417784900e+00	-2.7123117296e-01
 2.4041630560e+00	 7.7781745931e+00	-1.9977801695e-01
 1.7677669530e+00	 8.4145706961e+00	-1.4677335305e-01
 1.1313708499e+00	 9.0509667992e+00	-1.0258618526e-01
 4.9497474683e-01	 9.6873629023e+00	-6.6156994661e-02
-1.4142135624e-01	 1.0323759005e+01	-3.6426200037e-02
-7.7781745930e-01	 1.0960155108e+01	-4.4369620337e-03
-1.4142135624e+00	 1.1596551211e+01	 1.1304706120e-02
-2.0506096654e+00	 1.2232947315e+01	 9.5089371102e-03
-2.6870057685e+00	 1.2869343418e+01	-1.0674956256e-02
 3.9597979746e+00	 6.7882250994e+00	-3.9615308481e-01
 3.3234018716e+00	 7.4246212025e+00	-2.7003478879e-01
 2.6870057685e+00	 8.0610173055e+00	-1.7524501431e-01
 2.0506096654e+00	 8.6974134086e+00	-1.2294829259e-01
 1.4142135624e+00	 9.3338095117e+00	-7.8907560505e-02
 7.7781745931e-01	 9.9702056147e+00	-4.2063288983e-02
 1.4142135624e-01	 1.0606601718e+01	-6.1839764153e-03
-4.9497474682e-01	 1.1242997821e+01	 2.4557471735e-02
-1.1313708499e+00	 1.1879393924e+01	 3.9210682637e-02
-1.7677669530e+00	 1.2515790027e+01	 3.6924969098e-02
-2.4041630560e+00	 1.3152186130e+01	 1.6849643924e-02
 4.2426406871e+00	 7.0710678119e+00	-3.8973503751e-01
 3.6062445840e+00	 7.7074639150e+00	-2.6535332635e-01
 2.9698484810e+00	 8.3438600180e+00	-1.4969765355e-01
 2.3334523779e+00	 8.9802561211e+00	-9.5803773718e-02
 1.6970562749e+00	 9.6166522241e+00	-5.2148114538e-02
 1.0606601718e+00	 1.0253048327e+01	-1.5127400399e-02
 4.2426406872e-01	 1.0889444430e+01	 2.6163394104e-02
-2.1213203434e-01	 1.1525840533e+01	 5.5104977154e-02
-8.4852813741e-01	 1.2162236636e+01	 6.8556835678e-02
-1.4849242405e+00	 1.2798632739e+01	 6.5668282482e-02
-2.1213203435e+00	 1.3435028843e+01	 4.5588630375e-02
-4.9497474683e+00	 1.0606601718e+01	-1.1212203166e-01
-5.5861435714e+00	 1.1242997821e+01	-8.0515227403e-02
-6.2225396744e+00	 1.1879393924e+01	-6.1661296578e-02
-6.8589357775e+00	 1.2515790027e+01	-5.2859161709e-02
-7.4953318806e+00	 1.3152186130e+01	-5.1407745320e-02
-8.1317279837e+00	 1.3788582233e+01	-5.4605969939e-02
-8.7681240867e+00	 1.4424978336e+01	-5.9752758091e-02
-9.4045201898e+00	 1.5061374439e+01	-6.2109171856e-02
-1.0040916293e+01	 1.5697770542e+01	-5.7082630342e-02
-1.0677312396e+01	 1.6334166645e+01	-4.4535904021e-02
-1.1313708499e+01	 1.6970562749e+01	-2.4383456525e-02
-4.6669047558e+00	 1.0889444430e+01	-1.1178794576e-01
-5.3033008589e+00	 1.1525840533e+01	-8.0804913702e-02
-5.9396969620e+00	 1.2162236636e+01	-6.2247372847e-02
-6.5760930650e+00	 1.2798632739e+01	-5.3414245718e-02
-7.2124891681e+00	 1.3435028843e+01	-5.1604454841e-02
-7.8488852712e+00	 1.4071424946e+01	-5.4116922742e-02
-8.4852813742e+00	 1.4707821049e+01	-5.8250571947e-02
-9.1216774773e+00	 1.5344217152e+01	-5.9846543852e-02
-9.7580735804e+00	 1.5980613255e+01	-5.3588069461e-02
-1.0394469683e+01	 1.6617009358e+01	-3.9706643788e-02
-1.1030865787e+01	 1.7253405461e+01	-1.7895320343e-02
-4.3840620434e+00	 1.1172287143e+01	-1.0781362677e-01
-5.0204581464e+00	 1.1808683246e+01	-7.7935302047e-02
-5.6568542495e+00	 1.2445079349e+01	-6.0155086294e-02
-6.2932503526e+00	 1.3081475452e+01	-5.1771902038e-02
-6.9296464556e+00	 1.3717871555e+01	-5.0084671805e-02
-7.5660425587e+00	 1.4354267658e+01	-5.2392318120e-02
-8.2024386618e+00	 1.4990663761e+01	-5.5993763510e-02
-8.8388347648e+00	 1.5627059864e+01	-5.8095774102e-02
-9.4752308679e+00	 1.6263455967e+01	-5.0914089165e-02
-1.0111626971e+01	 1.6899852070e+01	-3.6006687152e-02
-1.0748023074e+01	 1.7536248173e+01	-7.8075280333e-03
-4.1012193309e+00	 1.1455129855e+01	-1.0029187571e-01
-4.7376154340e+00	 1.2091525958e+01	-7.1999193452e-02
-5.3740115370e+00	 1.2727922061e+01	-5.5477237933e-02
-6.0104076401e+00	 1.3364318164e+01	-4.8024931682e-02
-6.6468037432e+00	 1.4000714267e+01	-4.6941197224e-02
-7.2831998462e+00	 1.4637110371e+01	-4.9524957086e-02
-7.9195959493e+00	 1.5273506474e+01	-5.3075133793e-02
-8.5559920524e+00	 1.5909902577e+01	-5.4890649872e-02
-9.1923881554e+00	 1.6546298680e+01	-4.9020378771e-02
-9.8287842585e+00	 1.7182694783e+01	-3.3395723868e-02
-1.0465180362e+01	 1.7819090886e+01	 5.1992383475e-04
-3.8183766184e+00	 1.1737972568e+01	-8.9315493594e-02
-4.4547727215e+00	 1.2374368671e+01	-6.3089388929e-02
-5.0911688246e+00	 1.3010764774e+01	-4.8306628777e-02
-5.7275649276e+00	 1.3647160877e+01	-4.2266135663e-02
-6.3639610307e+00	 1.4283556980e+01	-4.2266832114e-02
-7.0003571338e+00	 1.4919953083e+01	-4.5607640655e-02
-7.6367532368e+00	 1.5556349186e+01	-4.9587483812e-02
-8.2731493399e+00	 1.6192745289e+01	-5.1505284112e-02
-8.9095454430e+00	 1.6829141392e+01	-4.7866626801e-02
-9.5459415460e+00	 1.7465537495e+01	-2.7441676289e-02
-1.0182337649e+01	 1.8101933598e+01	 7.0860154033e-03
-3.5355339059e+00	 1.2020815280e+01	-7.4977281430e-02
-4.1719300090e+00	 1.2657211383e+01	-5.1298689494e-02
-4.8083261121e+00	 1.3293607486e+01	-3.8736059841e-02
-5.4447222151e+00	 1.3930003589e+01	-3.4588314997e-02
-6.0811183182e+00	 1.4566399692e+01	-3.6154377488e-02
-6.7175144213e+00	 1.5202795796e+01	-4.0733169840e-02
-7.3539105243e+00	 1.5839191899e+01	-4.5623614580e-02
-7.9903066274e+00	 1.6475588002e+01	-4.8124634232e-02
-8.6267027305e+00	 1.7111984105e+01	-4.5535151323e-02
-9.2630988335e+00	 1.7748380208e+01	-2.1766737298e-02
-9.8994949366e+00	 1.8384776311e+01	 1.1889727221e-02
-3.2526911935e+00	 1.2303657993e+01	-5.7370040236e-02
-3.8890872965e+00	 1.2940054096e+01	-3.6719896160e-02
-4.5254833996e+00	 1.3576450199e+01	-2.6858332138e-02
-5.1618795027e+00	 1.4212846302e+01	-2.5084270696e-02
-5.7982756057e+00	 1.4849242405e+01	-2.8696634360e-02
-6.4346717088e+00	 1.5485638508e+01	-3.4994345656e-02
-7.0710678119e+00	 1.6122034611e+01	-4.1276327110e-02
-7.7074639149e+00	 1.6758430714e+01	-4.4841501247e-02
-8.3438600180e+00	 1.7394826817e+01	-3.9971105113e-02
-8.9802561211e+00	 1.8031222920e+01	-1.7581776270e-02
-9.6166522241e+00	 1.8667619023e+01	 1.4930040243e-02
-2.9698484810e+00	 1.2586500705e+01	-3.6586571024e-02
-3.6062445841e+00	 1.3222896808e+01	-1.9445809941e-02
-4.2426406871e+00	 1.3859292911e+01	-1.2766246683e-02
-4.8790367902e+00	 1.4495689014e+01	-1.3846803775e-02
-5.5154328933e+00	 1.5132085117e+01	-1.9986403744e-02
-6.1518289963e+00	 1.5768481220e+01	-2.8483969116e-02
-6.7882250994e+00	 1.6404877324e+01	-3.6638422417e-02
-7.4246212025e+00	 1.7041273427e+01	-4.1748686172e-02
-8.0610173055e+00	 1.7677669530e+01	-3.2891206414e-02
-8.6974134086e+00	 1.8314065633e+01	-1.3715667435e-02
-9.3338095116e+00	 1.8950461736e+01	 1.6205935829e-02
-2.6870057685e+00	 1.2869343418e+01	-1.0674956256e-02
-3.3234018716e+00	 1.3505739521e+01	 4.3076814877e-04
-3.9597979746e+00	 1.4142135624e+01	 3.4473955115e-03
-4.5961940777e+00	 1.4778531727e+01	-9.6871524748e-04
-5.2325901808e+00	 1.5414927830e+01	-1.0116486654e-02
-5.8689862838e+00	 1.6051323933e+01	-2.1294841234e-02
-6.5053823869e+00	 1.6687720036e+01	-3.1802701514e-02
-7.1417784900e+00	 1.7324116139e+01	-3.7444305452e-02
-7.7781745930e+00	 1.7960512242e+01	-2.6994158786e-02
-8.4145706961e+00	 1.8596908345e+01	-9.8804478142e-03
-9.0509667992e+00	 1.9233304448e+01	 1.5716395746e-02
-2.4041630560e+00	 1.3152186130e+01	 1.6849643924e-02
-3.0405591591e+00	 1.3788582233e+01	 2.2817037096e-02
-3.6769552622e+00	 1.4424978336e+01	 2.1689793430e-02
-4.3133513652e+00	 1.5061374439e+01	 1.3457193872e-02
-4.9497474683e+00	 1.5697770542e+01	 8.2031589600e-04
-5.5861435714e+00	 1.6334166645e+01	-1.3519763025e-02
-6.2225396744e+00	 1.6970562748e+01	-2.6861965416e-02
-6.8589357775e+00	 1.7606958852e+01	-3.0195801509e-02
-7.4953318806e+00	 1.8243354955e+01	-2.2291344185e-02
-8.1317279836e+00	 1.8879751058e+01	-7.5333313469e-03
-8.7681240867e+00	 1.9516147161e+01	 1.3938294249e-02
-2.1213203435e+00	 1.3435028843e+01	 4.5588630375e-02
-2.7577164466e+00	 1.4071424946e+01	 4.6870301408e-02
-3.3941125497e+00	 1.4707821049e+01	 4.1868146060e-02
-4.0305086528e+00	 1.5344217152e+01	 2.9338122571e-02
-4.6669047558e+00	 1.5980613255e+01	 1.2731202892e-02
-5.3033008589e+00	 1.6617009358e+01	-5.2515355014e-03
-5.9396969620e+00	 1.7253405461e+01	-2.1740441460e-02
-6.5760930650e+00	 1.7889801564e+01	-2.3859042707e-02
-7.2124891681e+00	 1.8526197667e+01	-1.8794144152e-02
-7.8488852711e+00	 1.9162593770e+01	-6.6856995887e-03
-8.4852813742e+00	 1.9798989873e+01	 1.2326348288e-02
 4.2426406871e+00	 7.0710678119e+00	-2.5203346334e-01
 3.6062445840e+00	 7.7074639150e+00	-1.6795468215e-01
 2.9698484810e+00	 8.3438600180e+00	-8.7512665914e-02
 2.3334523779e+00	 8.9802561211e+00	-6.3743169231e-02
 1.6970562749e+00	 9.6166522241e+00	-4.5122619791e-02
 1.0606601718e+00	 1.0253048327e+01	-2.8047741980e-02
 4.2426406872e-01	 1.0889444430e+01	-1.6135103948e-03
-2.1213203434e-01	 1.1525840533e+01	 1.7560783149e-02
-8.4852813741e-01	 1.2162236636e+01	 2.6334625577e-02
-1.4849242405e+00	 1.2798632739e+01	 2.3857329697e-02
-2.1213203435e+00	 1.3435028843e+01	 9.2782083157e-03
 4.3840620433e+00	 7.2124891681e+00	-2.2699475490e-01
 3.7476659403e+00	 7.8488852712e+00	-1.5190785250e-01
 3.1112698372e+00	 8.4852813743e+00	-7.9207744139e-02
 2.4748737342e+00	 9.1216774773e+00	-4.9448500133e-02
 1.8384776311e+00	 9.7580735804e+00	-3.5950672068e-02
 1.2020815280e+00	 1.0394469683e+01	-2.1440381352e-02
 5.6568542496e-01	 1.1030865787e+01	 3.3372228910e-03
-7.0710678104e-02	 1.1667261890e+01	 1.9932202925e-02
-7.0710678117e-01	 1.2303657993e+01	 2.7493871556e-02
-1.3435028842e+00	 1.2940054096e+01	 2.5171541593e-02
-1.9798989873e+00	 1.3576450199e+01	 1.2114525841e-02
 4.5254833996e+00	 7.3539105244e+00	-1.9811746635e-01
 3.8890872965e+00	 7.9903066274e+00	-1.3248685929e-01
 3.2526911935e+00	 8.6267027305e+00	-6.7993076240e-02
 2.6162950904e+00	 9.2630988336e+00	-3.2688100057e-02
 1.9798989873e+00	 9.8994949366e+00	-2.4784242676e-02
 1.3435028843e+00	 1.0535891040e+01	-1.1294030925e-02
 7.0710678120e-01	 1.1172287143e+01	 9.0973070571e-03
 7.0710678136e-02	 1.1808683246e+01	 2.2673160543e-02
-5.6568542493e-01	 1.2445079349e+01	 2.8582842339e-02
-1.2020815280e+00	 1.3081475452e+01	 2.5975665253e-02
-1.8384776311e+00	 1.3717871555e+01	 1.4000942092e-02
 4.6669047558e+00	 7.4953318806e+00	-1.6539403870e-01
 4.0305086528e+00	 8.1317279837e+00	-1.0968414354e-01
 3.3941125497e+00	 8.7681240867e+00	-5.3861103234e-02
 2.7577164466e+00	 9.4045201898e+00	-1.3469026819e-02
 2.1213203436e+00	 1.0040916293e+01	-1.1630389682e-02
 1.4849242405e+00	 1.0677312396e+01	 9.1679279723e-05
 8.4852813744e-01	 1.1313708499e+01	 1.5656937962e-02
 2.1213203438e-01	 1.1950104602e+01	 2.5773851862e-02
-4.2426406869e-01	 1.2586500705e+01	 2.9591733784e-02
-1.0606601718e+00	 1.3222896808e+01	 2.6259896537e-02
-1.6970562748e+00	 1.3859292911e+01	 1.4927652928e-02
 4.8083261121e+00	 7.6367532368e+00	-1.2881691286e-01
 4.1719300090e+00	 8.2731493399e+00	-8.3492146136e-02
 3.5355339059e+00	 8.9095454430e+00	-3.6804266005e-02
 2.8991378029e+00	 9.5459415460e+00	 8.2016616941e-03
 2.2627416998e+00	 1.0182337649e+01	 3.5038287777e-03
 1.6263455967e+00	 1.0818733752e+01	 1.2706945121e-02
 9.8994949368e-01	 1.1455129855e+01	 2.3006311466e-02
 3.5355339062e-01	 1.2091525958e+01	 2.9224472740e-02
-2.8284271245e-01	 1.2727922061e+01	 3.0510741750e-02
-9.1923881552e-01	 1.3364318164e+01	 2.6014431304e-02
-1.5556349186e+00	 1.4000714268e+01	 1.4884854208e-02
 4.9497474683e+00	 7.7781745931e+00	-8.8378529594e-02
 4.3133513652e+00	 8.4145706961e+00	-5.3903307846e-02
 3.6769552622e+00	 9.0509667992e+00	-1.6815005303e-02
 3.0405591591e+00	 9.6873629023e+00	 2.3530830262e-02
 2.4041630561e+00	 1.0323759005e+01	 2.0611354496e-02
 1.7677669530e+00	 1.0960155108e+01	 2.6541962458e-02
 1.1313708499e+00	 1.1596551211e+01	 3.1135623426e-02
 4.9497474686e-01	 1.2232947315e+01	 3.3015219036e-02
-1.4142135621e-01	 1.2869343418e+01	 3.1330062096e-02
-7.7781745928e-01	 1.3505739521e+01	 2.5229465411e-02
-1.4142135624e+00	 1.4142135624e+01	 1.3862741790e-02
 5.0911688245e+00	 7.9195959493e+00	-4.4071329527e-02
 4.4547727215e+00	 8.5559920524e+00	-2.0910069287e-02
 3.8183766184e+00	 9.1923881554e+00	 6.1142382566e-03
 3.1819805154e+00	 9.8287842585e+00	 3.7646045201e-02
 2.5455844123e+00	 1.0465180362e+01	 4.2642546144e-02
 1.9091883092e+00	 1.1101576465e+01	 4.1586927149e-02
 1.2727922062e+00	 1.1737972568e+01	 4.0035069701e-02
 6.3639610310e-01	 1.2374368671e+01	 3.7136286609e-02
 2.8000601837e-11	 1.3010764774e+01	 3.2039890679e-02
-6.3639610304e-01	 1.3647160877e+01	 2.3895194718e-02
-1.2727922061e+00	 1.4283556980e+01	 1.1851511533e-02
 5.2325901808e+00	 8.0610173055e+00	 4.1122468434e-03
 4.5961940777e+00	 8.6974134086e+00	 1.5495129051e-02
 3.9597979747e+00	 9.3338095117e+00	 3.1991024190e-02
 3.3234018716e+00	 9.9702056147e+00	 5.4244384227e-02
 2.6870057685e+00	 1.0606601718e+01	 6.6840125215e-02
 2.0506096655e+00	 1.1242997821e+01	 5.7832035052e-02
 1.4142135624e+00	 1.1879393924e+01	 4.9694846151e-02
 7.7781745934e-01	 1.2515790027e+01	 4.1577871318e-02
 1.4142135627e-01	 1.3152186130e+01	 3.2630423360e-02
-4.9497474680e-01	 1.3788582233e+01	 2.2001815084e-02
-1.1313708499e+00	 1.4424978336e+01	 8.8413592969e-03
 5.3740115370e+00	 8.2024386618e+00	 5.6179759154e-02
 4.7376154340e+00	 8.8388347648e+00	 5.5319846811e-02
 4.1012193309e+00	 9.4752308679e+00	 6.0822912148e-02
 3.4648232278e+00	 1.0111626971e+01	 7.3333406999e-02
 2.8284271248e+00	 1.0748023074e+01	 9.2667856395e-02
 2.1920310217e+00	 1.1384419177e+01	 7.5267482027e-02
 1.5556349186e+00	 1.2020815280e+01	 6.0105148634e-02
 9.1923881558e-01	 1.2657211383e+01	 4.6330169021e-02
 2.8284271251e-01	 1.3293607486e+01	 3.3091855997e-02
-3.5355339056e-01	 1.3930003589e+01	 1.9539522367e-02
-9.8994949363e-01	 1.4566399692e+01	 4.8224809391e-03
 5.5154328933e+00	 8.3438600180e+00	 1.1213876718e-01
 4.8790367902e+00	 8.9802561211e+00	 9.8571643771e-02
 4.2426406871e+00	 9.6166522241e+00	 9.2617461913e-02
 3.6062445841e+00	 1.0253048327e+01	 9.4920673306e-02
 2.9698484810e+00	 1.0889444430e+01	 1.1760860457e-01
 2.3334523779e+00	 1.1525840533e+01	 9.3883463933e-02
 1.6970562749e+00	 1.2162236636e+01	 7.1256173008e-02
 1.0606601718e+00	 1.2798632739e+01	 5.1383375578e-02
 4.2426406875e-01	 1.3435028843e+01	 3.3414384448e-02
-2.1213203432e-01	 1.4071424946e+01	 1.6498512426e-02
-8.4852813739e-01	 1.4707821049e+01	-2.1492768111e-04
 5.6568542495e+00	 8.4852813742e+00	 1.7199683081e-01
 5.0204581464e+00	 9.1216774773e+00	 1.4525807984e-01
 4.3840620434e+00	 9.7580735804e+00	 1.2738223340e-01
 3.7476659403e+00	 1.0394469683e+01	 1.2021119057e-01
 3.1112698373e+00	 1.1030865787e+01	 1.3447722888e-01
 2.4748737342e+00	 1.1667261890e+01	 1.1367017663e-01
 1.8384776311e+00	 1.2303657993e+01	 8.3138115134e-02
 1.2020815281e+00	 1.2940054096e+01	 5.6727686846e-02
 5.6568542499e-01	 1.3576450199e+01	 3.3588204573e-02
-7.0710678080e-02	 1.4212846302e+01	 1.2868981120e-02
-7.0710678115e-01	 1.4849242405e+01	-6.2806707050e-03
-2.1213203435e+00	 1.3435028843e+01	 9.2782083157e-03
-2.7577164466e+00	 1.4071424946e+01	 1.8163634258e-02
-3.3941125497e+00	 1.4707821049e+01	 1.9882408774e-02
-4.0305086528e+00	 1.5344217152e+01	 1.3190490105e-02
-4.6669047558e+00	 1.5980613255e+01	 1.5388502005e-03
-5.3033008589e+00	 1.6617009358e+01	-1.2371433464e-02
-5.9396969620e+00	 1.7253405461e+01	-2.5670709739e-02
-6.5760930650e+00	 1.7889801564e+01	-2.5482506347e-02
-7.2124891681e+00	 1.8526197667e+01	-1.8993628199e-02
-7.8488852711e+00	 1.9162593770e+01	-6.3440290875e-03
-8.4852813742e+00	 1.9798989873e+01	 1.2326348292e-02
-1.9798989873e+00	 1.3576450199e+01	 1.2114525841e-02
-2.6162950904e+00	 1.4212846302e+01	 2.2030559416e-02
-3.2526911934e+00	 1.4849242405e+01	 2.5286768510e-02
-3.8890872965e+00	 1.5485638508e+01	 1.8801491272e-02
-4.5254833996e+00	 1.6122034611e+01	 7.0165663212e-03
-5.1618795027e+00	 1.6758430714e+01	-7.3669288672e-03
-5.7982756057e+00	 1.7394826817e+01	-1.9483504555e-02
-6.4346717088e+00	 1.8031222920e+01	-2.0399042833e-02
-7.0710678119e+00	 1.8667619023e+01	-1.5422528997e-02
-7.7074639149e+00	 1.9304015126e+01	-4.6939168108e-03
-8.3438600180e+00	 1.9940411229e+01	 1.1646851062e-02
-1.8384776311e+00	 1.3717871555e+01	 1.4000942092e-02
-2.4748737341e+00	 1.4354267658e+01	 2.5093136553e-02
-3.1112698372e+00	 1.4990663761e+01	 3.0330874677e-02
-3.7476659403e+00	 1.5627059864e+01	 2.4139326862e-02
-4.3840620433e+00	 1.6263455967e+01	 1.2308204857e-02
-5.0204581464e+00	 1.6899852070e+01	-2.4614138629e-03
-5.6568542495e+00	 1.7536248173e+01	-1.3435191126e-02
-6.2932503526e+00	 1.8172644276e+01	-1.5320616481e-02
-6.9296464556e+00	 1.8809040380e+01	-1.1722612544e-02
-7.5660425587e+00	 1.9445436483e+01	-2.7811330474e-03
-8.2024386618e+00	 2.0081832586e+01	 1.1363879377e-02
-1.6970562748e+00	 1.3859292911e+01	 1.4927652928e-02
-2.3334523779e+00	 1.4495689014e+01	 2.7341561531e-02
-2.9698484810e+00	 1.5132085117e+01	 3.5003127147e-02
-3.6062445840e+00	 1.5768481220e+01	 2.9192396748e-02
-4.2426406871e+00	 1.6404877324e+01	 1.7402165681e-02
-4.8790367902e+00	 1.7041273427e+01	 2.3335114221e-03
-5.5154328933e+00	 1.7677669530e+01	-7.5271920258e-03
-6.1518289963e+00	 1.8314065633e+01	-1.0248649869e-02
-6.7882250994e+00	 1.8950461736e+01	-7.8953014177e-03
-7.4246212025e+00	 1.9586857839e+01	-6.0710037601e-04
-8.0610173055e+00	 2.0223253942e+01	 1.1476010655e-02
-1.5556349186e+00	 1.4000714268e+01	 1.4884854208e-02
-2.1920310217e+00	 1.4637110371e+01	 2.8766030206e-02
-2.8284271247e+00	 1.5273506474e+01	 3.7876590465e-02
-3.4648232278e+00	 1.5909902577e+01	 3.3949100803e-02
-4.1012193309e+00	 1.6546298680e+01	 2.2286848667e-02
-4.7376154339e+00	 1.7182694783e+01	 7.0062468611e-03
-5.3740115370e+00	 1.7819090886e+01	-1.7609298035e-03
-6.0104076401e+00	 1.8455486989e+01	-5.1845655441e-03
-6.6468037432e+00	 1.9091883092e+01	-3.9420181688e-03
-7.2831998462e+00	 1.9728279195e+01	 1.8267586505e-03
-7.9195959493e+00	 2.0364675298e+01	 1.1981822343e-02
-1.4142135624e+00	 1.4142135624e+01	 1.3862741790e-02
-2.0506096654e+00	 1.4778531727e+01	 2.9356738438e-02
-2.6870057685e+00	 1.5414927830e+01	 3.9728069966e-02
-3.3234018716e+00	 1.6051323933e+01	 3.8397838901e-02
-3.9597979746e+00	 1.6687720036e+01	 2.6950653688e-02
-4.5961940777e+00	 1.7324116139e+01	 1.2251656573e-02
-5.2325901808e+00	 1.7960512242e+01	 3.8621730186e-03
-5.8689862839e+00	 1.8596908345e+01	-1.2978603236e-04
-6.5053823869e+00	 1.9233304448e+01	 1.3581467671e-04
-7.1417784900e+00	 1.9869700551e+01	 4.5190215047e-03
-7.7781745931e+00	 2.0506096654e+01	 1.2879891912e-02
-1.2727922061e+00	 1.4283556980e+01	 1.1851511533e-02
-1.9091883092e+00	 1.4919953083e+01	 2.9103882085e-02
-2.5455844123e+00	 1.5556349186e+01	 4.0881538138e-02
-3.1819805153e+00	 1.6192745289e+01	 4.2527010915e-02
-3.8183766184e+00	 1.6829141392e+01	 3.1381980617e-02
-4.4547727215e+00	 1.7465537495e+01	 1.7756022658e-02
-5.0911688245e+00	 1.8101933598e+01	 9.3406939436e-03
-5.7275649276e+00	 1.8738329701e+01	 4.9142661683e-03
-6.3639610307e+00	 1.9374725805e+01	 4.3367746188e-03
-7.0003571338e+00	 2.0011121908e+01	 7.4682656852e-03
-7.6367532368e+00	 2.0647518011e+01	 1.4168796859e-02
-1.1313708499e+00	 1.4424978336e+01	 8.8413592969e-03
-1.7677669529e+00	 1.5061374439e+01	 2.7997657007e-02
-2.4041630560e+00	 1.5697770542e+01	 4.1327190838e-02
-3.0405591591e+00	 1.6334166645e+01	 4.6325016718e-02
-3.6769552622e+00	 1.6970562749e+01	 3.5569229328e-02
-4.3133513652e+00	 1.7606958852e+01	 2.2980529611e-02
-4.9497474683e+00	 1.8243354955e+01	 1.4673210500e-02
-5.5861435714e+00	 1.8879751058e+01	 9.9461685850e-03
-6.2225396745e+00	 1.9516147161e+01	 8.6594391833e-03
-6.8589357775e+00	 2.0152543264e+01	 1.0673068716e-02
-7.4953318806e+00	 2.0788939367e+01	 1.5847114706e-02
-9.8994949363e-01	 1.4566399692e+01	 4.8224809391e-03
-1.6263455967e+00	 1.5202795796e+01	 2.6028259061e-02
-2.2627416998e+00	 1.5839191899e+01	 4.1055223925e-02
-2.8991378028e+00	 1.6475588002e+01	 4.9052688338e-02
-3.5355339059e+00	 1.7111984105e+01	 3.9500799693e-02
-4.1719300090e+00	 1.7748380208e+01	 2.7923754989e-02
-4.8083261121e+00	 1.8384776311e+01	 1.9858300243e-02
-5.4447222151e+00	 1.9021172414e+01	 1.4964498771e-02
-6.0811183182e+00	 1.9657568517e+01	 1.3102385921e-02
-6.7175144213e+00	 2.0293964620e+01	 1.4132008147e-02
-7.3539105244e+00	 2.0930360723e+01	 1.7913423001e-02
-8.4852813739e-01	 1.4707821049e+01	-2.1492768111e-04
-1.4849242405e+00	 1.5344217152e+01	 2.3185884108e-02
-2.1213203435e+00	 1.5980613255e+01	 4.0055833259e-02
-2.7577164466e+00	 1.6617009358e+01	 4.9544232579e-02
-3.3941125497e+00	 1.7253405461e+01	 4.3177016895e-02
-4.0305086528e+00	 1.7889801564e+01	 3.2584276375e-02
-4.6669047558e+00	 1.8526197667e+01	 2.4894540752e-02
-5.3033008589e+00	 1.9162593770e+01	 1.9967834304e-02
-5.9396969620e+00	 1.9798989873e+01	 1.7664192410e-02
-6.5760930651e+00	 2.0435385976e+01	 1.7843661554e-02
-7.2124891681e+00	 2.1071782079e+01	 2.0366299319e-02
-7.0710678115e-01	 1.4849242405e+01	-6.2806707050e-03
-1.3435028842e+00	 1.5485638508e+01	 1.9460728005e-02
-1.9798989873e+00	 1.6122034611e+01	 3.8319214698e-02
-2.6162950904e+00	 1.6758430714e+01	 4.9444102179e-02
-3.2526911934e+00	 1.7394826817e+01	 4.6635213703e-02
-3.8890872965e+00	 1.8031222920e+01	 3.6960671374e-02
-4.5254833996e+00	 1.8667619023e+01	 2.9780509634e-02
-5.1618795027e+00	 1.9304015126e+01	 2.4954752790e-02
-5.7982756057e+00	 1.9940411229e+01	 2.2343436253e-02
-6.4346717088e+00	 2.0576807333e+01	 2.1806606538e-02
-7.0710678119e+00	 2.1213203436e+01	 2.3204321260e-02
 5.6568542495e+00	 8.4852813742e+00	 6.6435022202e-02
 5.0204581464e+00	 9.1216774773e+00	 6.2282660860e-02
 4.3840620434e+00	 9.7580735804e+00	 6.4413628696e-02
 3.7476659403e+00	 1.0394469683e+01	 7.4669824783e-02
 3.1112698373e+00	 1.1030865787e+01	 1.0378352666e-01
 2.4748737342e+00	 1.1667261890e+01	 9.5244562617e-02
 1.8384776311e+00	 1.2303657993e+01	 7.4401013982e-02
 1.2020815281e+00	 1.2940054096e+01	 5.5099523200e-02
 5.6568542499e-01	 1.3576450199e+01	 3.6489403080e-02
-7.0710678080e-02	 1.4212846302e+01	 1.7719966426e-02
-7.0710678115e-01	 1.4849242405e+01	-2.0594739538e-03
 5.7982756057e+00	 8.6267027304e+00	 7.6360667772e-02
 5.1618795027e+00	 9.2630988335e+00	 7.2015191827e-02
 4.5254833996e+00	 9.8994949366e+00	 7.3600981850e-02
 3.8890872965e+00	 1.0535891040e+01	 8.6106718518e-02
 3.2526911935e+00	 1.1172287143e+01	 1.1270472180e-01
 2.6162950904e+00	 1.1808683246e+01	 1.1354756237e-01
 1.9798989873e+00	 1.2445079349e+01	 8.9792233007e-02
 1.3435028843e+00	 1.3081475452e+01	 6.7344075890e-02
 7.0710678122e-01	 1.3717871555e+01	 4.5352403829e-02
 7.0710678148e-02	 1.4354267658e+01	 2.2966529633e-02
-5.6568542492e-01	 1.4990663761e+01	-6.6423389345e-04
 5.9396969620e+00	 8.7681240867e+00	 8.1376733844e-02
 5.3033008589e+00	 9.4045201898e+00	 7.7391986632e-02
 4.6669047558e+00	 1.0040916293e+01	 7.8986441295e-02
 4.0305086528e+00	 1.0677312396e+01	 9.3957277986e-02
 3.3941125497e+00	 1.1313708499e+01	 1.1861744098e-01
 2.7577164466e+00	 1.1950104602e+01	 1.2926922845e-01
 2.1213203436e+00	 1.2586500705e+01	 1.0318056514e-01
 1.4849242405e+00	 1.3222896808e+01	 7.8164188471e-02
 8.4852813744e-01	 1.3859292911e+01	 5.3369411260e-02
 2.1213203438e-01	 1.4495689014e+01	 2.7945546308e-02
-4.2426406869e-01	 1.5132085117e+01	 1.0419064232e-03
 6.0811183182e+00	 8.9095454429e+00	 8.1490780723e-02
 5.4447222152e+00	 9.5459415460e+00	 7.8420605585e-02
 4.8083261121e+00	 1.0182337649e+01	 8.0577567350e-02
 4.1719300090e+00	 1.0818733752e+01	 9.8231704616e-02
 3.5355339059e+00	 1.1455129855e+01	 1.2153188561e-01
 2.8991378029e+00	 1.2091525958e+01	 1.4239975670e-01
 2.2627416998e+00	 1.2727922061e+01	 1.1455620623e-01
 1.6263455967e+00	 1.3364318164e+01	 8.7550056805e-02
 9.8994949367e-01	 1.4000714268e+01	 6.0530621229e-02
 3.5355339061e-01	 1.4637110371e+01	 3.2647212310e-02
-2.8284271246e-01	 1.5273506474e+01	 3.0491428548e-03
 6.2225396745e+00	 9.0509667992e+00	 7.6710368846e-02
 5.5861435714e+00	 9.6873629022e+00	 7.5108609131e-02
 4.9497474683e+00	 1.0323759005e+01	 7.8381920465e-02
 4.3133513652e+00	 1.0960155108e+01	 9.8940199836e-02
 3.6769552622e+00	 1.1596551211e+01	 1.2145825713e-01
 3.0405591591e+00	 1.2232947315e+01	 1.4466840164e-01
 2.4041630560e+00	 1.2869343418e+01	 1.2390935215e-01
 1.7677669530e+00	 1.3505739521e+01	 9.5491876749e-02
 1.1313708499e+00	 1.4142135624e+01	 6.6826229597e-02
 4.9497474684e-01	 1.4778531727e+01	 3.7061723499e-02
-1.4142135623e-01	 1.5414927830e+01	 5.3476712603e-03
 6.3639610307e+00	 9.1923881554e+00	 6.7043058785e-02
 5.7275649276e+00	 9.8287842585e+00	 6.7463557848e-02
 5.0911688246e+00	 1.0465180362e+01	 7.4916273574e-02
 4.4547727215e+00	 1.1101576465e+01	 9.6092965076e-02
 3.8183766184e+00	 1.1737972568e+01	 1.1840675697e-01
 3.1819805153e+00	 1.2374368671e+01	 1.4104271287e-01
 2.5455844123e+00	 1.3010764774e+01	 1.3123019875e-01
 1.9091883092e+00	 1.3647160877e+01	 1.0197984416e-01
 1.2727922061e+00	 1.4283556980e+01	 7.2246432223e-02
 6.3639610307e-01	 1.4919953083e+01	 4.1179275732e-02
 5.5511151231e-17	 1.5556349186e+01	 7.9276874984e-03
 6.5053823869e+00	 9.3338095116e+00	 5.2496411244e-02
 5.8689862839e+00	 9.9702056147e+00	 5.5493012447e-02
 5.2325901808e+00	 1.0606601718e+01	 6.7779994167e-02
 4.5961940777e+00	 1.1242997821e+01	 8.9700201765e-02
 3.9597979746e+00	 1.1879393924e+01	 1.1238758655e-01
 3.3234018716e+00	 1.2515790027e+01	 1.3502721214e-01
 2.6870057685e+00	 1.3152186130e+01	 1.3650894188e-01
 2.0506096654e+00	 1.3788582233e+01	 1.0700415490e-01
 1.4142135624e+00	 1.4424978336e+01	 7.6781424963e-02
 7.7781745930e-01	 1.5061374439e+01	 4.4990064869e-02
 1.4142135623e-01	 1.5697770542e+01	 1.0779387428e-02
 6.6468037432e+00	 9.4752308679e+00	 3.3077987062e-02
 6.0104076401e+00	 1.0111626971e+01	 3.9204533773e-02
 5.3740115370e+00	 1.0748023074e+01	 5.6530529340e-02
 4.7376154340e+00	 1.1384419177e+01	 7.9772111331e-02
 4.1012193309e+00	 1.2020815280e+01	 1.0341094731e-01
 3.4648232278e+00	 1.2657211383e+01	 1.2663210089e-01
 2.8284271247e+00	 1.3293607486e+01	 1.3973577742e-01
 2.1920310217e+00	 1.3930003589e+01	 1.1055500483e-01
 1.5556349186e+00	 1.4566399692e+01	 8.0421403679e-02
 9.1923881553e-01	 1.5202795796e+01	 4.8484286768e-02
 2.8284271246e-01	 1.5839191899e+01	 1.3892966907e-02
 6.7882250994e+00	 9.6166522241e+00	 8.7953472094e-03
 6.1518289963e+00	 1.0253048327e+01	 1.8605682804e-02
 5.5154328933e+00	 1.0889444430e+01	 4.1178080523e-02
 4.8790367902e+00	 1.1525840533e+01	 6.6318895203e-02
 4.2426406871e+00	 1.2162236636e+01	 9.1487040665e-02
 3.6062445840e+00	 1.2798632739e+01	 1.1586758053e-01
 2.9698484810e+00	 1.3435028843e+01	 1.3864557844e-01
 2.3334523779e+00	 1.4071424946e+01	 1.1262258981e-01
 1.6970562748e+00	 1.4707821049e+01	 8.3156564228e-02
 1.0606601718e+00	 1.5344217152e+01	 5.1652137288e-02
 4.2426406869e-01	 1.5980613255e+01	 1.7258621796e-02
 6.9296464557e+00	 9.7580735804e+00	-2.0343947208e-02
 6.2932503526e+00	 1.0394469683e+01	-5.4127125677e-03
 5.6568542495e+00	 1.1030865787e+01	 2.1732849144e-02
 5.0204581464e+00	 1.1667261890e+01	 4.9350754810e-02
 4.3840620434e+00	 1.2303657993e+01	 7.6626068056e-02
 3.7476659403e+00	 1.2940054096e+01	 1.0274385251e-01
 3.1112698372e+00	 1.3576450199e+01	 1.2688917179e-01
 2.4748737341e+00	 1.4212846302e+01	 1.1319710568e-01
 1.8384776311e+00	 1.4849242405e+01	 8.4977102468e-02
 1.2020815280e+00	 1.5485638508e+01	 5.4483812288e-02
 5.6568542492e-01	 1.6122034611e+01	 2.0866547952e-02
 7.0710678119e+00	 9.8994949366e+00	-5.4332334951e-02
 6.4346717088e+00	 1.0535891040e+01	-3.2365397565e-02
 5.7982756057e+00	 1.1172287143e+01	-1.7949633685e-03
 5.1618795027e+00	 1.1808683246e+01	 2.8877891581e-02
 4.5254833996e+00	 1.2445079349e+01	 5.8838230909e-02
 3.8890872965e+00	 1.3081475452e+01	 8.7271118241e-02
 3.2526911934e+00	 1.3717871555e+01	 1.1336161720e-01
 2.6162950904e+00	 1.4354267658e+01	 1.1226874833e-01
 1.9798989873e+00	 1.4990663761e+01	 8.5873214260e-02
 1.3435028842e+00	 1.5627059864e+01	 5.6969507627e-02
 7.0710678115e-01	 1.6263455967e+01	 2.4706941234e-02
-7.0710678115e-01	 1.4849242405e+01	-2.0594739538e-03
-1.3435028842e+00	 1.5485638508e+01	 2.1912094181e-02
-1.9798989873e+00	 1.6122034611e+01	 3.9300241610e-02
-2.6162950904e+00	 1.6758430714e+01	 4.9254281138e-02
-3.2526911934e+00	 1.7394826817e+01	 4.5574036021e-02
-3.8890872965e+00	 1.8031222920e+01	 3.5327628362e-02
-4.5254833996e+00	 1.8667619023e+01	 2.7875092602e-02
-5.1618795027e+00	 1.9304015126e+01	 2.3076453049e-02
-5.7982756057e+00	 1.9940411229e+01	 2.0791745115e-02
-6.4346717088e+00	 2.0576807333e+01	 2.0881015314e-02
-7.0710678119e+00	 2.1213203436e+01	 2.3204321260e-02
-5.6568542492e-01	 1.4990663761e+01	-6.6423389345e-04
-1.2020815280e+00	 1.5627059864e+01	 2.2879467198e-02
-1.8384776311e+00	 1.6263455967e+01	 3.9928207814e-02
-2.4748737341e+00	 1.6899852070e+01	 4.9631300759e-02
-3.1112698372e+00	 1.7536248173e+01	 4.8098979557e-02
-3.7476659403e+00	 1.8172644277e+01	 3.7752656243e-02
-4.3840620434e+00	 1.8809040380e+01	 3.0232089952e-02
-5.0204581464e+00	 1.9445436483e+01	 2.5397305023e-02
-5.6568542495e+00	 2.0081832586e+01	 2.3108336897e-02
-6.2932503526e+00	 2.0718228689e+01	 2.3225232119e-02
-6.9296464557e+00	 2.1354624792e+01	 2.5608048335e-02
-4.2426406869e-01	 1.5132085117e+01	 1.0419064232e-03
-1.0606601718e+00	 1.5768481220e+01	 2.4086175907e-02
-1.6970562748e+00	 1.6404877324e+01	 4.0723945144e-02
-2.3334523779e+00	 1.7041273427e+01	 5.0104526942e-02
-2.9698484810e+00	 1.7677669530e+01	 5.0693468731e-02
-3.6062445840e+00	 1.8314065633e+01	 4.0163966878e-02
-4.2426406871e+00	 1.8950461736e+01	 3.2492106992e-02
-4.8790367902e+00	 1.9586857839e+01	 2.7537913443e-02
-5.5154328933e+00	 2.0223253942e+01	 2.5161421704e-02
-6.1518289963e+00	 2.0859650045e+01	 2.5222678352e-02
-6.7882250994e+00	 2.1496046148e+01	 2.7581741062e-02
-2.8284271246e-01	 1.5273506474e+01	 3.0491428548e-03
-9.1923881553e-01	 1.5909902577e+01	 2.5522416166e-02
-1.5556349186e+00	 1.6546298680e+01	 4.1677649460e-02
-2.1920310217e+00	 1.7182694783e+01	 5.0664155546e-02
-2.8284271247e+00	 1.7819090886e+01	 5.1174988945e-02
-3.4648232278e+00	 1.8455486989e+01	 4.2560137951e-02
-4.1012193309e+00	 1.9091883092e+01	 3.4653721405e-02
-4.7376154340e+00	 1.9728279195e+01	 2.9496855992e-02
-5.3740115370e+00	 2.0364675298e+01	 2.6949577219e-02
-6.0104076401e+00	 2.1001071401e+01	 2.6871931691e-02
-6.6468037432e+00	 2.1637467504e+01	 2.9123977116e-02
-1.4142135623e-01	 1.5414927830e+01	 5.3476712603e-03
-7.7781745930e-01	 1.6051323933e+01	 2.7178383834e-02
-1.4142135624e+00	 1.6687720036e+01	 4.2779516621e-02
-2.0506096654e+00	 1.7324116139e+01	 5.0654351653e-02
-2.6870057685e+00	 1.7960512242e+01	 5.1018289774e-02
-3.3234018716e+00	 1.8596908345e+01	 4.4939747173e-02
-3.9597979746e+00	 1.9233304448e+01	 3.6715510898e-02
-4.5961940777e+00	 1.9869700551e+01	 3.1272710377e-02
-5.2325901808e+00	 2.0506096654e+01	 2.8471381146e-02
-5.8689862839e+00	 2.1142492757e+01	 2.8171569841e-02
-6.5053823869e+00	 2.1778888861e+01	 3.0233334202e-02
 5.5511151231e-17	 1.5556349186e+01	 7.9276874984e-03
-6.3639610307e-01	 1.6192745289e+01	 2.9044274770e-02
-1.2727922061e+00	 1.6829141392e+01	 4.4019742485e-02
-1.9091883092e+00	 1.7465537495e+01	 5.0199643215e-02
-2.5455844123e+00	 1.8101933598e+01	 5.0776526004e-02
-3.1819805153e+00	 1.8738329701e+01	 4.7301372279e-02
-3.8183766184e+00	 1.9374725805e+01	 3.8676053208e-02
-4.4547727215e+00	 2.0011121908e+01	 3.2864054331e-02
-5.0911688246e+00	 2.0647518011e+01	 2.9725411216e-02
-5.7275649276e+00	 2.1283914114e+01	 2.9120170531e-02
-6.3639610307e+00	 2.1920310217e+01	 3.0908390047e-02
 1.4142135623e-01	 1.5697770542e+01	 1.0779387428e-02
-4.9497474684e-01	 1.6334166645e+01	 3.1110284832e-02
-1.1313708499e+00	 1.6970562748e+01	 4.5388522910e-02
-1.7677669530e+00	 1.7606958852e+01	 4.9759488496e-02
-2.4041630560e+00	 1.8243354955e+01	 5.0459299321e-02
-3.0405591591e+00	 1.8879751058e+01	 4.9643591031e-02
-3.6769552622e+00	 1.9516147161e+01	 4.0533926092e-02
-4.3133513652e+00	 2.0152543264e+01	 3.4269465612e-02
-4.9497474683e+00	 2.0788939367e+01	 3.0710245187e-02
-5.5861435714e+00	 2.1425335470e+01	 2.9716311517e-02
-6.2225396745e+00	 2.2061731573e+01	 3.1147722404e-02
 2.8284271246e-01	 1.5839191899e+01	 1.3892966907e-02
-3.5355339061e-01	 1.6475588002e+01	 3.3366609880e-02
-9.8994949367e-01	 1.7111984105e+01	 4.6876053756e-02
-1.6263455967e+00	 1.7748380208e+01	 4.9343489119e-02
-2.2627416998e+00	 1.8384776311e+01	 5.0076211262e-02
-2.8991378029e+00	 1.9021172414e+01	 5.1149587334e-02
-3.5355339059e+00	 1.9657568517e+01	 4.2287707339e-02
-4.1719300090e+00	 2.0293964620e+01	 3.5487522005e-02
-4.8083261121e+00	 2.0930360723e+01	 3.1424460841e-02
-5.4447222152e+00	 2.1566756826e+01	 2.9958570581e-02
-6.0811183182e+00	 2.2203152929e+01	 3.0949909054e-02
 4.2426406869e-01	 1.5980613255e+01	 1.7258621796e-02
-2.1213203438e-01	 1.6617009358e+01	 3.5803445772e-02
-8.4852813744e-01	 1.7253405461e+01	 4.8313468111e-02
-1.4849242405e+00	 1.7889801564e+01	 4.8961246557e-02
-2.1213203436e+00	 1.8526197667e+01	 4.9636863208e-02
-2.7577164466e+00	 1.9162593770e+01	 5.0610608354e-02
-3.3941125497e+00	 1.9798989873e+01	 4.3935974759e-02
-4.0305086528e+00	 2.0435385976e+01	 3.6516801319e-02
-4.6669047558e+00	 2.1071782079e+01	 3.1866635988e-02
-5.3033008589e+00	 2.1708178182e+01	 2.9845525528e-02
-5.9396969620e+00	 2.2344574286e+01	 3.0313527803e-02
 5.6568542492e-01	 1.6122034611e+01	 2.0866547952e-02
-7.0710678148e-02	 1.6758430714e+01	 3.8410988367e-02
-7.0710678122e-01	 1.7394826817e+01	 4.8079179599e-02
-1.3435028843e+00	 1.8031222920e+01	 4.8622362131e-02
-1.9798989873e+00	 1.8667619023e+01	 4.9150856392e-02
-2.6162950904e+00	 1.9304015126e+01	 4.9934954472e-02
-3.2526911935e+00	 1.9940411229e+01	 4.5477306189e-02
-3.8890872965e+00	 2.0576807333e+01	 3.7355881390e-02
-4.5254833996e+00	 2.1213203436e+01	 3.2035348460e-02
-5.1618795027e+00	 2.1849599539e+01	 2.9375754193e-02
-5.7982756057e+00	 2.2485995642e+01	 2.9237156481e-02
 7.0710678115e-01	 1.6263455967e+01	 2.4706941234e-02
 7.0710678080e-02	 1.6899852070e+01	 4.1179433523e-02
-5.6568542499e-01	 1.7536248173e+01	 4.7987868135e-02
-1.2020815281e+00	 1.8172644276e+01	 4.8336437009e-02
-1.8384776311e+00	 1.8809040380e+01	 4.8627791893e-02
-2.4748737342e+00	 1.9445436483e+01	 4.9132226677e-02
-3.1112698373e+00	 2.0081832586e+01	 4.6910279493e-02
-3.7476659403e+00	 2.0718228689e+01	 3.8003340081e-02
-4.3840620434e+00	 2.1354624792e+01	 3.1929176119e-02
-5.0204581464e+00	 2.1991020895e+01	 2.8547834432e-02
-5.6568542495e+00	 2.2627416998e+01	 2.7719372944e-02
 7.0710678119e+00	 9.8994949366e+00	-1.8468126651e-02
 6.4346717088e+00	 1.0535891040e+01	-1.1122952870e-02
 5.7982756057e+00	 1.1172287143e+01	 6.8057821499e-03
 5.1618795027e+00	 1.1808683246e+01	 2.6817002351e-02
 4.5254833996e+00	 1.2445079349e+01	 4.8095771360e-02
 3.8890872965e+00	 1.3081475452e+01	 6.9827152802e-02
 3.2526911934e+00	 1.3717871555e+01	 9.1196210303e-02
 2.6162950904e+00	 1.4354267658e+01	 8.7361964393e-02
 1.9798989873e+00	 1.4990663761e+01	 6.0205117724e-02
 1.3435028842e+00	 1.5627059864e+01	 3.2520162916e-02
 7.0710678115e-01	 1.6263455967e+01	 3.4564127775e-03
 7.3539105244e+00	 1.0182337649e+01	-2.8057499474e-02
 6.7175144213e+00	 1.0818733752e+01	-1.6162434257e-02
 6.0811183182e+00	 1.1455129855e+01	 1.1629110894e-03
 5.4447222151e+00	 1.2091525958e+01	 2.0742221519e-02
 4.8083261121e+00	 1.2727922061e+01	 4.1760560657e-02
 4.1719300090e+00	 1.3364318164e+01	 6.3402992129e-02
 3.5355339059e+00	 1.4000714268e+01	 8.4854579560e-02
 2.8991378028e+00	 1.4637110371e+01	 1.0231345195e-01
 2.2627416998e+00	 1.5273506474e+01	 7.6822132238e-02
 1.6263455967e+00	 1.5909902577e+01	 5.1244259487e-02
 9.8994949363e-01	 1.6546298680e+01	 2.4729146502e-02
 7.6367532368e+00	 1.0465180362e+01	-3.4398263239e-02
 7.0003571338e+00	 1.1101576465e+01	-2.1102670572e-02
 6.3639610307e+00	 1.1737972568e+01	-4.5666965456e-03
 5.7275649276e+00	 1.2374368671e+01	 1.4394722465e-02
 5.0911688245e+00	 1.3010764774e+01	 3.4966650085e-02
 4.4547727215e+00	 1.3647160877e+01	 5.6334149940e-02
 3.8183766184e+00	 1.4283556980e+01	 7.7682285657e-02
 3.1819805153e+00	 1.4919953083e+01	 9.8196120860e-02
 2.5455844122e+00	 1.5556349186e+01	 9.0760473065e-02
 1.9091883092e+00	 1.6192745289e+01	 6.7106054687e-02
 1.2727922061e+00	 1.6829141392e+01	 4.2955951172e-02
 7.9195959493e+00	 1.0748023074e+01	-3.8010810183e-02
 7.2831998462e+00	 1.1384419177e+01	-2.5862050383e-02
 6.6468037431e+00	 1.2020815280e+01	-1.0301429324e-02
 6.0104076401e+00	 1.2657211383e+01	 7.8561166206e-03
 5.3740115370e+00	 1.3293607486e+01	 2.7795651076e-02
 4.7376154339e+00	 1.3930003589e+01	 4.8702237669e-02
 4.1012193309e+00	 1.4566399692e+01	 6.9760940023e-02
 3.4648232278e+00	 1.5202795796e+01	 9.0156821765e-02
 2.8284271247e+00	 1.5839191899e+01	 1.0194170708e-01
 2.1920310217e+00	 1.6475588002e+01	 8.0027115386e-02
 1.5556349186e+00	 1.7111984105e+01	 5.8058393658e-02
 8.2024386618e+00	 1.1030865787e+01	-4.1174907545e-02
 7.5660425587e+00	 1.1667261890e+01	-3.0358962260e-02
 6.9296464556e+00	 1.2303657993e+01	-1.5959675815e-02
 6.2932503525e+00	 1.2940054096e+01	 1.2080154176e-03
 5.6568542495e+00	 1.3576450199e+01	 2.0329175062e-02
 5.0204581464e+00	 1.4212846302e+01	 4.0588866744e-02
 4.3840620433e+00	 1.4849242405e+01	 6.1172154090e-02
 3.7476659403e+00	 1.5485638508e+01	 8.1264100724e-02
 3.1112698372e+00	 1.6122034611e+01	 1.0004977027e-01
 2.4748737341e+00	 1.6758430714e+01	 8.9929008456e-02
 1.8384776311e+00	 1.7394826817e+01	 6.7516704850e-02
 8.4852813742e+00	 1.1313708499e+01	-4.3808943895e-02
 7.8488852712e+00	 1.1950104602e+01	-3.4511794772e-02
 7.2124891681e+00	 1.2586500705e+01	-2.1459824587e-02
 6.5760930650e+00	 1.3222896808e+01	-5.4679697134e-03
 5.9396969620e+00	 1.3859292911e+01	 1.2648833473e-02
 5.3033008589e+00	 1.4495689014e+01	 3.2075648599e-02
 4.6669047558e+00	 1.5132085117e+01	 5.1997539288e-02
 4.0305086527e+00	 1.5768481220e+01	 7.1599569168e-02
 3.3941125497e+00	 1.6404877324e+01	 9.0066801863e-02
 2.7577164466e+00	 1.7041273427e+01	 9.6733300765e-02
 2.1213203435e+00	 1.7677669530e+01	 7.2455905203e-02
 8.7681240867e+00	 1.1596551211e+01	-4.5831307802e-02
 8.1317279836e+00	 1.2232947315e+01	-3.8238936487e-02
 7.4953318806e+00	 1.2869343418e+01	-2.6720264208e-02
 6.8589357775e+00	 1.3505739521e+01	-1.2090227341e-02
 6.2225396744e+00	 1.4142135624e+01	 4.8362377407e-03
 5.5861435714e+00	 1.4778531727e+01	 2.3244194663e-02
 4.9497474683e+00	 1.5414927830e+01	 4.2318707050e-02
 4.3133513652e+00	 1.6051323933e+01	 6.1244838528e-02
 3.6769552622e+00	 1.6687720036e+01	 7.9207652723e-02
 3.0405591591e+00	 1.7324116139e+01	 9.4304063300e-02
 2.4041630560e+00	 1.7960512242e+01	 7.5251439890e-02
 9.0509667992e+00	 1.1879393924e+01	-2.7413919581e-02
 8.4145706961e+00	 1.2515790027e+01	-4.1458775974e-02
 7.7781745930e+00	 1.3152186130e+01	-3.1659383249e-02
 7.1417784900e+00	 1.3788582233e+01	-1.8577146034e-02
 6.5053823869e+00	 1.4424978336e+01	-3.0270007041e-03
 5.8689862838e+00	 1.5061374439e+01	 1.4176116367e-02
 5.2325901808e+00	 1.5697770542e+01	 3.2217268806e-02
 4.5961940777e+00	 1.6334166645e+01	 5.0281520236e-02
 3.9597979746e+00	 1.6970562748e+01	 6.7553934284e-02
 3.3234018716e+00	 1.7606958852e+01	 7.9234428944e-02
 2.6870057685e+00	 1.8243354955e+01	 7.5980105235e-02
 9.3338095116e+00	 1.2162236636e+01	-5.5225171633e-03
 8.6974134086e+00	 1.2798632739e+01	-4.4089701802e-02
 8.0610173055e+00	 1.3435028843e+01	-3.6195570278e-02
 7.4246212024e+00	 1.4071424946e+01	-2.4847114362e-02
 6.7882250994e+00	 1.4707821049e+01	-1.0859270430e-02
 6.1518289963e+00	 1.5344217152e+01	 4.9530251441e-03
 5.5154328932e+00	 1.5980613255e+01	 2.1774835986e-02
 4.8790367902e+00	 1.6617009358e+01	 3.8791225722e-02
 4.2426406871e+00	 1.7253405461e+01	 5.5074679555e-02
 3.6062445840e+00	 1.7889801564e+01	 6.4459803260e-02
 2.9698484810e+00	 1.8526197667e+01	 7.3562931498e-02
 9.6166522241e+00	 1.2445079349e+01	 1.4909349097e-02
 8.9802561211e+00	 1.3081475452e+01	-3.4324450702e-02
 8.3438600180e+00	 1.3717871555e+01	-4.0247213863e-02
 7.7074639149e+00	 1.4354267658e+01	-3.0818520894e-02
 7.0710678118e+00	 1.4990663761e+01	-1.8578960007e-02
 6.4346717088e+00	 1.5627059864e+01	-4.3434675761e-03
 5.7982756057e+00	 1.6263455967e+01	 1.1073020023e-02
 5.1618795026e+00	 1.6899852070e+01	 2.6855566417e-02
 4.5254833996e+00	 1.7536248173e+01	 3.9867050681e-02
 3.8890872965e+00	 1.8172644276e+01	 4.9909595237e-02
 3.2526911934e+00	 1.8809040380e+01	 6.0098449650e-02
 9.8994949366e+00	 1.2727922061e+01	 3.4022757719e-02
 9.2630988335e+00	 1.3364318164e+01	-1.6085671534e-02
 8.6267027305e+00	 1.4000714267e+01	-4.3732702574e-02
 7.9903066274e+00	 1.4637110371e+01	-3.6409754198e-02
 7.3539105243e+00	 1.5273506474e+01	-2.6104458002e-02
 6.7175144213e+00	 1.5909902577e+01	-1.3631750362e-02
 6.0811183182e+00	 1.6546298680e+01	 1.9343234751e-04
 5.4447222151e+00	 1.7182694783e+01	 1.4556153753e-02
 4.8083261121e+00	 1.7819090886e+01	 2.5068792720e-02
 4.1719300090e+00	 1.8455486989e+01	 3.5513215838e-02
 3.5355339059e+00	 1.9091883092e+01	 4.6532252648e-02
 7.0710678115e-01	 1.6263455967e+01	 3.4564127775e-03
 7.0710678080e-02	 1.6899852070e+01	 2.3911373974e-02
-5.6568542499e-01	 1.7536248173e+01	 3.4289518369e-02
-1.2020815281e+00	 1.8172644276e+01	 3.7795037899e-02
-1.8384776311e+00	 1.8809040380e+01	 4.0830584316e-02
-2.4748737342e+00	 1.9445436483e+01	 4.3666451508e-02
-3.1112698373e+00	 2.0081832586e+01	 4.3363177607e-02
-3.7476659403e+00	 2.0718228689e+01	 3.5962152353e-02
-4.3840620434e+00	 2.1354624792e+01	 3.0981143425e-02
-5.0204581464e+00	 2.1991020895e+01	 2.8280197646e-02
-5.6568542495e+00	 2.2627416998e+01	 2.7719372943e-02
 9.8994949363e-01	 1.6546298680e+01	 2.4729146502e-02
 3.5355339056e-01	 1.7182694783e+01	 4.1545423671e-02
-2.8284271251e-01	 1.7819090886e+01	 4.5003058460e-02
-9.1923881558e-01	 1.8455486989e+01	 4.6679709851e-02
-1.5556349186e+00	 1.9091883092e+01	 4.7856592384e-02
-2.1920310217e+00	 1.9728279195e+01	 4.8804003543e-02
-2.8284271248e+00	 2.0364675298e+01	 4.9792211023e-02
-3.4648232278e+00	 2.1001071401e+01	 4.1809942790e-02
-4.1012193309e+00	 2.1637467504e+01	 3.4178561361e-02
-4.7376154340e+00	 2.2273863607e+01	 2.8946263193e-02
-5.3740115370e+00	 2.2910259710e+01	 2.5973106274e-02
 1.2727922061e+00	 1.6829141392e+01	 4.2955951172e-02
 6.3639610304e-01	 1.7465537495e+01	 5.2828904507e-02
-2.8721417822e-11	 1.8101933598e+01	 5.3687446160e-02
-6.3639610310e-01	 1.8738329701e+01	 5.3746095363e-02
-1.2727922062e+00	 1.9374725805e+01	 5.3275182990e-02
-1.9091883092e+00	 2.0011121908e+01	 5.2545010122e-02
-2.5455844123e+00	 2.0647518011e+01	 5.1825848050e-02
-3.1819805154e+00	 2.1283914114e+01	 4.7012600748e-02
-3.8183766184e+00	 2.1920310217e+01	 3.6968731058e-02
-4.4547727215e+00	 2.2556706320e+01	 2.9442964029e-02
-5.0911688245e+00	 2.3193102423e+01	 2.4295357710e-02
 1.5556349186e+00	 1.7111984105e+01	 5.8058393658e-02
 9.1923881552e-01	 1.7748380208e+01	 6.0938288080e-02
 2.8284271245e-01	 1.8384776311e+01	 6.0419486072e-02
-3.5355339062e-01	 1.9021172414e+01	 5.9070998328e-02
-9.8994949368e-01	 1.9657568517e+01	 5.7163159317e-02
-1.6263455967e+00	 2.0293964620e+01	 5.4966273718e-02
-2.2627416998e+00	 2.0930360723e+01	 5.2750616416e-02
-2.8991378029e+00	 2.1566756826e+01	 5.0786432513e-02
-3.5355339059e+00	 2.2203152929e+01	 3.9340276322e-02
-4.1719300090e+00	 2.2839549032e+01	 2.9758923947e-02
-4.8083261121e+00	 2.3475945135e+01	 2.2674751031e-02
 1.8384776311e+00	 1.7394826817e+01	 6.7516704850e-02
 1.2020815280e+00	 1.8031222920e+01	 6.6961264542e-02
 5.6568542493e-01	 1.8667619023e+01	 6.5275980376e-02
-7.0710678138e-02	 1.9304015126e+01	 6.2731220215e-02
-7.0710678120e-01	 1.9940411229e+01	 5.9597322125e-02
-1.3435028843e+00	 2.0576807333e+01	 5.6144594379e-02
-1.9798989873e+00	 2.1213203436e+01	 5.2643315460e-02
-2.6162950904e+00	 2.1849599539e+01	 4.9363734062e-02
-3.2526911935e+00	 2.2485995642e+01	 4.1281821367e-02
-3.8890872965e+00	 2.3122391745e+01	 2.9882767149e-02
-4.5254833996e+00	 2.3758787848e+01	 2.1099910426e-02
 2.1213203435e+00	 1.7677669530e+01	 7.2455905203e-02
 1.4849242405e+00	 1.8314065633e+01	 7.0974634356e-02
 8.4852813741e-01	 1.8950461736e+01	 6.8333728825e-02
 2.1213203434e-01	 1.9586857839e+01	 6.4803560068e-02
-4.2426406873e-01	 2.0223253942e+01	 6.0654469747e-02
-1.0606601718e+00	 2.0859650045e+01	 5.6156769730e-02
-1.6970562749e+00	 2.1496046148e+01	 5.1580742093e-02
-2.3334523779e+00	 2.2132442251e+01	 4.7196639129e-02
-2.9698484810e+00	 2.2768838354e+01	 4.2781990820e-02
-3.6062445840e+00	 2.3405234457e+01	 2.9803118249e-02
-4.2426406871e+00	 2.4041630560e+01	 1.9559460498e-02
 2.4041630560e+00	 1.7960512242e+01	 7.5251439890e-02
 1.7677669530e+00	 1.8596908345e+01	 7.3055195560e-02
 1.1313708499e+00	 1.9233304448e+01	 6.9669528748e-02
 4.9497474682e-01	 1.9869700551e+01	 6.5364814506e-02
-1.4142135625e-01	 2.0506096654e+01	 6.0411398092e-02
-7.7781745931e-01	 2.1142492757e+01	 5.5079594967e-02
-1.4142135624e+00	 2.1778888861e+01	 4.9639690806e-02
-2.0506096654e+00	 2.2415284964e+01	 4.4361941493e-02
-2.6870057685e+00	 2.3051681067e+01	 3.9516573135e-02
-3.3234018716e+00	 2.3688077170e+01	 2.9508602274e-02
-3.9597979746e+00	 2.4324473273e+01	 2.0854199927e-02
 2.6870057685e+00	 1.8243354955e+01	 7.5980105235e-02
 2.0506096654e+00	 1.8879751058e+01	 7.3279743769e-02
 1.4142135624e+00	 1.9516147161e+01	 6.9360175049e-02
 7.7781745930e-01	 2.0152543264e+01	 6.4491777723e-02
 1.4142135623e-01	 2.0788939367e+01	 5.8944900644e-02
-4.9497474684e-01	 2.1425335470e+01	 5.2989862867e-02
-1.1313708499e+00	 2.2061731573e+01	 4.6896953661e-02
-1.7677669530e+00	 2.2698127676e+01	 4.0936432507e-02
-2.4041630560e+00	 2.3334523779e+01	 3.5378529106e-02
-3.0405591591e+00	 2.3970919882e+01	 2.8987844660e-02
-3.6769552622e+00	 2.4607315985e+01	 2.3907325956e-02
 2.9698484810e+00	 1.8526197667e+01	 7.3562931498e-02
 2.3334523779e+00	 1.9162593770e+01	 7.1725072171e-02
 1.6970562748e+00	 1.9798989873e+01	 6.7482460207e-02
 1.0606601718e+00	 2.0435385976e+01	 6.2261241489e-02
 4.2426406871e-01	 2.1071782079e+01	 5.6331768461e-02
-2.1213203436e-01	 2.1708178182e+01	 4.9964363777e-02
-8.4852813743e-01	 2.2344574285e+01	 4.3429320297e-02
-1.4849242405e+00	 2.2980970389e+01	 3.6996901100e-02
-2.1213203436e+00	 2.3617366492e+01	 3.0937339479e-02
-2.7577164466e+00	 2.4253762595e+01	 2.7521560127e-02
-3.3941125497e+00	 2.4890158698e+01	 2.7330857569e-02
 3.2526911934e+00	 1.8809040380e+01	 6.0098449650e-02
 2.6162950904e+00	 1.9445436483e+01	 6.8467971530e-02
 1.9798989873e+00	 2.0081832586e+01	 6.4113174277e-02
 1.3435028843e+00	 2.0718228689e+01	 5.8749995147e-02
 7.0710678118e-01	 2.1354624792e+01	 5.2648790180e-02
 7.0710678117e-02	 2.1991020895e+01	 4.6079885622e-02
-5.6568542495e-01	 2.2627416998e+01	 3.9313577931e-02
-1.2020815280e+00	 2.3263813101e+01	 3.2620133777e-02
-1.8384776311e+00	 2.3900209204e+01	 2.6269790048e-02
-2.4748737342e+00	 2.4536605307e+01	 2.7643906671e-02
-3.1112698372e+00	 2.5173001410e+01	 3.1129920387e-02
 3.5355339059e+00	 1.9091883092e+01	 4.6532252648e-02
 2.8991378029e+00	 1.9728279195e+01	 6.3585230186e-02
 2.2627416998e+00	 2.0364675298e+01	 5.9329104888e-02
 1.6263455967e+00	 2.1001071401e+01	 5.4034825618e-02
 9.8994949366e-01	 2.1637467504e+01	 4.7972752010e-02
 3.5355339059e-01	 2.2273863607e+01	 4.1413213904e-02
-2.8284271247e-01	 2.2910259710e+01	 3.4626511352e-02
-9.1923881554e-01	 2.3546655813e+01	 2.7882914618e-02
-1.5556349186e+00	 2.4183051917e+01	 2.2304301310e-02
-2.1920310217e+00	 2.4819448020e+01	 2.8094179437e-02
-2.8284271248e+00	 2.5455844123e+01	 3.3886609350e-02
 9.8994949366e+00	 1.2727922061e+01	 3.4022757719e-02
 9.2630988335e+00	 1.3364318164e+01	-1.6085671534e-02
 8.6267027305e+00	 1.4000714267e+01	-4.3732702574e-02
 7.9903066274e+00	 1.4637110371e+01	-3.6409754198e-02
 7.3539105243e+00	 1.5273506474e+01	-2.6104458002e-02
 6.7175144213e+00	 1.5909902577e+01	-1.3631750362e-02
 6.0811183182e+00	 1.6546298680e+01	 1.9343234751e-04
 5.4447222151e+00	 1.7182694783e+01	 1.4556153753e-02
 4.8083261121e+00	 1.7819090886e+01	 2.5068792720e-02
 4.1719300090e+00	 1.8455486989e+01	 3.5513215838e-02
 3.5355339059e+00	 1.9091883092e+01	 4.6532252648e-02
 1.0182337649e+01	 1.3010764774e+01	 2.5835613230e-02
 9.5459415460e+00	 1.3647160877e+01	-1.8390204373e-02
 8.9095454429e+00	 1.4283556980e+01	-5.4138171254e-02
 8.2731493399e+00	 1.4919953083e+01	-4.9174413001e-02
 7.6367532368e+00	 1.5556349186e+01	-3.6393740892e-02
 7.0003571337e+00	 1.6192745289e+01	-2.2057693092e-02
 6.3639610307e+00	 1.6829141392e+01	-6.9812059751e-03
 5.7275649276e+00	 1.7465537495e+01	 6.8262209239e-03
 5.0911688245e+00	 1.8101933598e+01	 1.8117061940e-02
 4.4547727215e+00	 1.8738329701e+01	 2.9385866541e-02
 3.8183766184e+00	 1.9374725804e+01	 4.0874071530e-02
 1.0465180362e+01	 1.3293607486e+01	 1.7519884986e-02
 9.8287842585e+00	 1.3930003589e+01	-2.0980887198e-02
 9.1923881554e+00	 1.4566399692e+01	-5.1716152714e-02
 8.5559920523e+00	 1.5202795796e+01	-6.0393865788e-02
 7.9195959493e+00	 1.5839191899e+01	-4.5292438212e-02
 7.2831998462e+00	 1.6475588002e+01	-2.9247670697e-02
 6.6468037431e+00	 1.7111984105e+01	-1.3074499618e-02
 6.0104076401e+00	 1.7748380208e+01	 3.4589095458e-04
 5.3740115370e+00	 1.8384776311e+01	 1.2592143395e-02
 4.7376154339e+00	 1.9021172414e+01	 2.4461150847e-02
 4.1012193309e+00	 1.9657568517e+01	 3.6194343897e-02
 1.0748023074e+01	 1.3576450199e+01	 9.2166420269e-03
 1.0111626971e+01	 1.4212846302e+01	-2.3716650294e-02
 9.4752308679e+00	 1.4849242405e+01	-4.9596775683e-02
 8.8388347648e+00	 1.5485638508e+01	-6.9194185539e-02
 8.2024386617e+00	 1.6122034611e+01	-5.2718938531e-02
 7.5660425587e+00	 1.6758430714e+01	-3.5120071747e-02
 6.9296464556e+00	 1.7394826817e+01	-1.8505407972e-02
 6.2932503525e+00	 1.8031222920e+01	-4.5540352112e-03
 5.6568542495e+00	 1.8667619023e+01	 8.4234527371e-03
 5.0204581464e+00	 1.9304015126e+01	 2.0668485637e-02
 4.3840620433e+00	 1.9940411229e+01	 3.2422487857e-02
 1.1030865787e+01	 1.3859292911e+01	 1.0669502342e-03
 1.0394469683e+01	 1.4495689014e+01	-2.6456427104e-02
 9.7580735804e+00	 1.5132085117e+01	-4.7638972927e-02
 9.1216774773e+00	 1.5768481220e+01	-6.3251142054e-02
 8.4852813742e+00	 1.6404877324e+01	-5.8591630417e-02
 7.8488852712e+00	 1.7041273427e+01	-3.9593284808e-02
 7.2124891681e+00	 1.7677669530e+01	-2.2757780085e-02
 6.5760930650e+00	 1.8314065633e+01	-7.9441411751e-03
 5.9396969620e+00	 1.8950461736e+01	 5.5404075934e-03
 5.3033008589e+00	 1.9586857839e+01	 1.7937289767e-02
 4.6669047558e+00	 2.0223253942e+01	 2.9487923496e-02
 1.1313708499e+01	 1.4142135624e+01	-6.7881276712e-03
 1.0677312396e+01	 1.4778531727e+01	-2.9059154231e-02
 1.0040916293e+01	 1.5414927830e+01	-4.5701680374e-02
 9.4045201898e+00	 1.6051323933e+01	-5.7486164339e-02
 8.7681240867e+00	 1.6687720036e+01	-6.2828902440e-02
 8.1317279836e+00	 1.7324116139e+01	-4.2724194421e-02
 7.4953318806e+00	 1.7960512242e+01	-2.5346741652e-02
 6.8589357775e+00	 1.8596908345e+01	-9.8950085657e-03
 6.2225396744e+00	 1.9233304448e+01	 3.8724275635e-03
 5.5861435714e+00	 1.9869700551e+01	 1.6196984064e-02
 4.9497474683e+00	 2.0506096654e+01	 2.7320072868e-02
 1.1596551211e+01	 1.4424978336e+01	-1.4207532128e-02
 1.0960155108e+01	 1.5061374439e+01	-3.1383771437e-02
 1.0323759005e+01	 1.5697770542e+01	-4.3643837111e-02
 9.6873629023e+00	 1.6334166645e+01	-5.1758190806e-02
 9.0509667992e+00	 1.6970562748e+01	-5.6497344381e-02
 8.4145706961e+00	 1.7606958852e+01	-4.4489451843e-02
 7.7781745930e+00	 1.8243354955e+01	-2.6342873558e-02
 7.1417784900e+00	 1.8879751058e+01	-1.0477217039e-02
 6.5053823869e+00	 1.9516147161e+01	 3.3489342200e-03
 5.8689862838e+00	 2.0152543264e+01	 1.5376991329e-02
 5.2325901808e+00	 2.0788939367e+01	 2.5848360004e-02
 1.1879393924e+01	 1.4707821049e+01	-2.1050206733e-02
 1.1242997821e+01	 1.5344217152e+01	-3.3289221645e-02
 1.0606601718e+01	 1.5980613255e+01	-4.1324385385e-02
 9.9702056147e+00	 1.6617009358e+01	-4.5926163027e-02
 9.3338095117e+00	 1.7253405461e+01	-4.7871674751e-02
 8.6974134086e+00	 1.7889801564e+01	-4.4508290486e-02
 8.0610173055e+00	 1.8526197667e+01	-2.5816754712e-02
 7.4246212024e+00	 1.9162593770e+01	-9.7613442766e-03
 6.7882250994e+00	 1.9798989873e+01	 3.8993511083e-03
 6.1518289963e+00	 2.0435385976e+01	 1.5406736336e-02
 5.5154328932e+00	 2.1071782079e+01	 2.5002210903e-02
 1.2162236636e+01	 1.4990663761e+01	-2.7175098244e-02
 1.1525840533e+01	 1.5627059864e+01	-3.4634450936e-02
 1.0889444430e+01	 1.6263455967e+01	-3.8602270601e-02
 1.0253048327e+01	 1.6899852070e+01	-3.9849025732e-02
 9.6166522241e+00	 1.7536248173e+01	-3.9307452446e-02
 8.9802561211e+00	 1.8172644276e+01	-3.8207152759e-02
 8.3438600180e+00	 1.8809040380e+01	-2.3838962053e-02
 7.7074639149e+00	 1.9445436483e+01	-7.8179659893e-03
 7.0710678118e+00	 2.0081832586e+01	 5.4531037466e-03
 6.4346717088e+00	 2.0718228689e+01	 1.6215645830e-02
 5.7982756057e+00	 2.1354624792e+01	 2.4711053542e-02
 1.2445079349e+01	 1.5273506474e+01	-3.2441156578e-02
 1.1808683246e+01	 1.5909902577e+01	-3.5278408551e-02
 1.1172287143e+01	 1.6546298680e+01	-3.5336441326e-02
 1.0535891040e+01	 1.7182694783e+01	-3.3385726811e-02
 9.8994949366e+00	 1.7819090886e+01	-3.0576044567e-02
 9.2630988335e+00	 1.8455486989e+01	-2.7806122443e-02
 8.6267027305e+00	 1.9091883092e+01	-2.0480070546e-02
 7.9903066274e+00	 1.9728279195e+01	-4.7176559139e-03
 7.3539105243e+00	 2.0364675298e+01	 7.9396196258e-03
 6.7175144212e+00	 2.1001071401e+01	 1.7733148531e-02
 6.0811183182e+00	 2.1637467504e+01	 2.4904317866e-02
 1.2727922061e+01	 1.5556349186e+01	-3.6707334809e-02
 1.2091525958e+01	 1.6192745289e+01	-3.5080046890e-02
 1.1455129855e+01	 1.6829141392e+01	-3.1385849283e-02
 1.0818733752e+01	 1.7465537495e+01	-2.6460319185e-02
 1.0182337649e+01	 1.8101933598e+01	-2.1644968396e-02
 9.5459415460e+00	 1.8738329701e+01	-1.7399762904e-02
 8.9095454429e+00	 1.9374725804e+01	-1.3936390295e-02
 8.2731493399e+00	 2.0011121908e+01	-5.3098581479e-04
 7.6367532368e+00	 2.0647518011e+01	 1.1288328209e-02
 7.0003571337e+00	 2.1283914114e+01	 1.9888675130e-02
 6.3639610306e+00	 2.1920310217e+01	 2.5511435795e-02
 3.5355339059e+00	 1.9091883092e+01	 4.6532252648e-02
 2.8991378029e+00	 1.9728279195e+01	 6.3585230186e-02
 2.2627416998e+00	 2.0364675298e+01	 5.9329104888e-02
 1.6263455967e+00	 2.1001071401e+01	 5.4034825618e-02
 9.8994949366e-01	 2.1637467504e+01	 4.7972752010e-02
 3.5355339059e-01	 2.2273863607e+01	 4.1413213904e-02
-2.8284271247e-01	 2.2910259710e+01	 3.4626511352e-02
-9.1923881554e-01	 2.3546655813e+01	 2.7882914618e-02
-1.5556349186e+00	 2.4183051917e+01	 2.2304301310e-02
-2.1920310217e+00	 2.4819448020e+01	 2.8094179437e-02
-2.8284271248e+00	 2.5455844123e+01	 3.3886609350e-02
 3.8183766184e+00	 1.9374725804e+01	 4.0874071530e-02
 3.1819805153e+00	 2.0011121908e+01	 5.7661337357e-02
 2.5455844123e+00	 2.0647518011e+01	 5.9964101390e-02
 1.9091883092e+00	 2.1283914114e+01	 5.4217738777e-02
 1.2727922061e+00	 2.1920310217e+01	 4.7627005416e-02
 6.3639610307e-01	 2.2556706320e+01	 4.0462234743e-02
 1.2570847141e-12	 2.3193102423e+01	 3.2993730403e-02
-6.3639610307e-01	 2.3829498526e+01	 2.5491766253e-02
-1.2727922061e+00	 2.4465894629e+01	 2.4514398129e-02
-1.9091883092e+00	 2.5102290732e+01	 2.9534800482e-02
-2.5455844123e+00	 2.5738686835e+01	 3.4591719353e-02
 4.1012193309e+00	 1.9657568517e+01	 3.6194343897e-02
 3.4648232278e+00	 2.0293964620e+01	 5.1409476623e-02
 2.8284271247e+00	 2.0930360723e+01	 6.0151599433e-02
 2.1920310217e+00	 2.1566756826e+01	 5.3960201666e-02
 1.5556349186e+00	 2.2203152929e+01	 4.6847859770e-02
 9.1923881554e-01	 2.2839549032e+01	 3.9084910773e-02
 2.8284271248e-01	 2.3475945135e+01	 3.0941661914e-02
-3.5355339059e-01	 2.4112341238e+01	 2.2688390644e-02
-9.8994949366e-01	 2.4748737342e+01	 2.6440603028e-02
-1.6263455967e+00	 2.5385133445e+01	 3.0712964274e-02
-2.2627416998e+00	 2.6021529548e+01	 3.5055806295e-02
 4.3840620433e+00	 1.9940411229e+01	 3.2422487857e-02
 3.7476659403e+00	 2.0576807333e+01	 4.6074442659e-02
 3.1112698372e+00	 2.1213203436e+01	 5.6174949858e-02
 2.4748737342e+00	 2.1849599539e+01	 5.3338993932e-02
 1.8384776311e+00	 2.2485995642e+01	 4.5712094008e-02
 1.2020815280e+00	 2.3122391745e+01	 3.7358020221e-02
 5.6568542495e-01	 2.3758787848e+01	 2.8547083403e-02
-7.0710678120e-02	 2.4395183951e+01	 2.4600886541e-02
-7.0710678119e-01	 2.5031580054e+01	 2.8094203533e-02
-1.3435028843e+00	 2.5667976157e+01	 3.1639958433e-02
-1.9798989873e+00	 2.6304372260e+01	 3.5290157887e-02
 4.6669047558e+00	 2.0223253942e+01	 2.9487923496e-02
 4.0305086528e+00	 2.0859650045e+01	 4.1585656776e-02
 3.3941125497e+00	 2.1496046148e+01	 5.0304035757e-02
 2.7577164466e+00	 2.2132442251e+01	 5.2430892799e-02
 2.1213203436e+00	 2.2768838354e+01	 4.4296484645e-02
 1.4849242405e+00	 2.3405234457e+01	 3.5358338892e-02
 8.4852813742e-01	 2.4041630560e+01	 2.5886769965e-02
 2.1213203435e-01	 2.4678026663e+01	 2.6732305798e-02
-4.2426406872e-01	 2.5314422766e+01	 2.9486487536e-02
-1.0606601718e+00	 2.5950818870e+01	 3.2327070939e-02
-1.6970562749e+00	 2.6587214973e+01	 3.5306062197e-02
 4.9497474683e+00	 2.0506096654e+01	 2.7320072868e-02
 4.3133513652e+00	 2.1142492757e+01	 3.7872542258e-02
 3.6769552622e+00	 2.1778888861e+01	 4.5217749166e-02
 3.0405591591e+00	 2.2415284964e+01	 4.9597089334e-02
 2.4041630560e+00	 2.3051681067e+01	 4.2677805770e-02
 1.7677669530e+00	 2.3688077170e+01	 3.3162640166e-02
 1.1313708499e+00	 2.4324473273e+01	 2.6624143898e-02
 4.9497474683e-01	 2.4960869376e+01	 2.8592261391e-02
-1.4142135624e-01	 2.5597265479e+01	 3.0628743292e-02
-7.7781745932e-01	 2.6233661582e+01	 3.2785590136e-02
-1.4142135624e+00	 2.6870057685e+01	 3.5114807661e-02
 5.2325901808e+00	 2.0788939367e+01	 2.5848360004e-02
 4.5961940777e+00	 2.1425335470e+01	 3.4864524362e-02
 3.9597979746e+00	 2.2061731573e+01	 4.0845516570e-02
 3.3234018716e+00	 2.2698127676e+01	 4.4032726153e-02
 2.6870057685e+00	 2.3334523779e+01	 4.0932829048e-02
 2.0506096654e+00	 2.3970919882e+01	 3.0847694999e-02
 1.4142135624e+00	 2.4607315985e+01	 2.8954151943e-02
 7.7781745930e-01	 2.5243712088e+01	 3.0192041847e-02
 1.4142135623e-01	 2.5880108191e+01	 3.1532259416e-02
-4.9497474684e-01	 2.6516504295e+01	 3.3026804732e-02
-1.1313708499e+00	 2.7152900398e+01	 3.4727683075e-02
 5.5154328932e+00	 2.1071782079e+01	 2.5002210903e-02
 4.8790367902e+00	 2.1708178182e+01	 3.2491030318e-02
 4.2426406871e+00	 2.2344574285e+01	 3.7116766427e-02
 3.6062445840e+00	 2.2980970389e+01	 3.9120802539e-02
 2.9698484810e+00	 2.3617366492e+01	 3.8744516567e-02
 2.3334523779e+00	 2.4253762595e+01	 3.0569035296e-02
 1.6970562748e+00	 2.4890158698e+01	 3.1013837666e-02
 1.0606601718e+00	 2.5526554801e+01	 3.1542936054e-02
 4.2426406870e-01	 2.6162950904e+01	 3.2208324888e-02
-2.1213203437e-01	 2.6799347007e+01	 3.3062003794e-02
-8.4852813744e-01	 2.7435743110e+01	 3.4155977599e-02
 5.7982756057e+00	 2.1354624792e+01	 2.4711053542e-02
 5.1618795026e+00	 2.1991020895e+01	 3.0681489328e-02
 4.5254833996e+00	 2.2627416998e+01	 3.3960929168e-02
 3.8890872965e+00	 2.3263813101e+01	 3.4790750152e-02
 3.2526911934e+00	 2.3900209204e+01	 3.3412323979e-02
 2.6162950904e+00	 2.4536605307e+01	 3.3091005969e-02
 1.9798989873e+00	 2.5173001410e+01	 3.2814490228e-02
 1.3435028842e+00	 2.5809397513e+01	 3.2656233265e-02
 7.0710678118e-01	 2.6445793616e+01	 3.2668229050e-02
 7.0710678109e-02	 2.7082189719e+01	 3.2902476756e-02
-5.6568542496e-01	 2.7718585823e+01	 3.3410980754e-02
 6.0811183182e+00	 2.1637467504e+01	 2.4904317866e-02
 5.4447222151e+00	 2.2273863607e+01	 2.9365332568e-02
 4.8083261120e+00	 2.2910259710e+01	 3.1307437195e-02
 4.1719300090e+00	 2.3546655813e+01	 3.0972002623e-02
 3.5355339059e+00	 2.4183051917e+01	 2.9319368752e-02
 2.8991378028e+00	 2.4819448020e+01	 3.5343796278e-02
 2.2627416998e+00	 2.5455844123e+01	 3.4367399157e-02
 1.6263455967e+00	 2.6092240226e+01	 3.3543223094e-02
 9.8994949365e-01	 2.6728636329e+01	 3.2923261608e-02
 3.5355339058e-01	 2.7365032432e+01	 3.2559513413e-02
-2.8284271248e-01	 2.8001428535e+01	 3.2503982426e-02
 6.3639610306e+00	 2.1920310217e+01	 2.5511435795e-02
 5.7275649276e+00	 2.2556706320e+01	 2.8471993184e-02
 5.0911688245e+00	 2.3193102423e+01	 2.9085724883e-02
 4.4547727214e+00	 2.3829498526e+01	 2.7593995553e-02
 3.8183766184e+00	 2.4465894629e+01	 2.9272599372e-02
 3.1819805153e+00	 2.5102290732e+01	 3.4782273184e-02
 2.5455844122e+00	 2.5738686835e+01	 3.5683854338e-02
 1.9091883092e+00	 2.6375082938e+01	 3.4215195520e-02
 1.2727922061e+00	 2.7011479041e+01	 3.2984712629e-02
 6.3639610306e-01	 2.7647875144e+01	 3.2044403923e-02
 0.0000000000e+00	 2.8284271248e+01	 3.1446272863e-02
-7.0710678119e+00	-7.0710678119e+00	-5.9043875425e-02
-7.0710678119e+00	-7.0710678119e+00	-5.9043875425e-02
-7.0710678119e+00	-7.0710678119e+00	-5.9043875425e-02
-7.0710678119e+00	-7.0710678119e+00	-5.9043875425e-02
-7.0710678119e+00	-7.0710678119e+00	-5.9043875425e-02
-7.0710678119e+00	-7.0710678119e+00	-5.9043875425e-02
-7.0710678119e+00	-7.0710678119e+00	-5.9043875425e-02
-7.0710678119e+00	-7.0710678119e+00	-5.9043875425e-02
-7.0710678119e+00	-7.0710678119e+00	-5.9043875425e-02
-7.0710678119e+00	-7.0710678119e+00	-5.9043875425e-02
-7.0710678119e+00	-7.0710678119e+00	-5.9043875425e-02
-7.0675322780e+00	-7.0675322780e+00	 1.2152718360e+01
-7.0678858314e+00	-7.0671787246e+00	 1.2842076436e+01
-7.0682393848e+00	-7.0668251712e+00	 1.3173966689e+01
-7.0685929382e+00	-7.0664716178e+00	 1.3148389121e+01
-7.0689464916e+00	-7.0661180644e+00	 1.2765343730e+01
-7.0693000449e+00	-7.0657645110e+00	 1.2024830518e+01
-7.0696535983e+00	-7.0654109577e+00	 1.0926849484e+01
-7.0700071517e+00	-7.0650574043e+00	 9.4714006281e+00
-7.0703607051e+00	-7.0647038509e+00	 7.6584839502e+00
-7.0707142585e+00	-7.0643502975e+00	 5.4880994504e+00
-7.0710678119e+00	-7.0639967441e+00	 2.9602471287e+00
-7.0569256763e+00	-7.0569256763e+00	 6.0571623975e+00
-7.0583398898e+00	-7.0555114627e+00	 6.3986423347e+00
-7.0597541034e+00	-7.0540972492e+00	 6.5617554428e+00
-7.0611683170e+00	-7.0526830356e+00	 6.5465017215e+00
-7.0625825305e+00	-7.0512688220e+00	 6.3528811711e+00
-7.0639967441e+00	-7.0498546085e+00	 5.9808937914e+00
-7.0654109577e+00	-7.0484403949e+00	 5.4305395824e+00
-7.0668251712e+00	-7.0470261813e+00	 4.7018185442e+00
-7.0682393848e+00	-7.0456119678e+00	 3.7947306767e+00
-7.0696535983e+00	-7.0441977542e+00	 2.7092759799e+00
-7.0710678119e+00	-7.0427835407e+00	 1.4454544539e+00
-7.0392480067e+00	-7.0392480067e+00	 4.0072858211e+00
-7.0424299873e+00	-7.0360660262e+00	 4.2336493682e+00
-7.0456119678e+00	-7.0328840457e+00	 4.3409682734e+00
-7.0487939483e+00	-7.0297020652e+00	 4.3292425367e+00
-7.0519759288e+00	-7.0265200847e+00	 4.1984721579e+00
-7.0551579093e+00	-7.0233381042e+00	 3.9486571370e+00
-7.0583398898e+00	-7.0201561237e+00	 3.5797974738e+00
-7.0615218704e+00	-7.0169741431e+00	 3.0918931684e+00
-7.0647038509e+00	-7.0137921626e+00	 2.4849442207e+00
-7.0678858314e+00	-7.0106101821e+00	 1.7589506304e+00
-7.0710678119e+00	-7.0074282016e+00	 9.1391239769e-01
-7.0144992694e+00	-7.0144992694e+00	 2.9798448925e+00
-7.0201561237e+00	-7.0088424152e+00	 3.1487469987e+00
-7.0258129779e+00	-7.0031855609e+00	 3.2281947234e+00
-7.0314698322e+00	-6.9975287067e+00	 3.2181880661e+00
-7.0371266864e+00	-6.9918718524e+00	 3.1187270263e+00
-7.0427835407e+00	-6.9862149982e+00	 2.9298116036e+00
-7.0484403949e+00	-6.9805581439e+00	 2.6514417976e+00
-7.0540972492e+00	-6.9749012897e+00	 2.2836176078e+00
-7.0597541034e+00	-6.9692444354e+00	 1.8263390337e+00
-7.0654109577e+00	-6.9635875812e+00	 1.2796060750e+00
-7.0710678119e+00	-6.9579307269e+00	 6.4341873104e-01
-6.9826794642e+00	-6.9826794642e+00	 2.3633719197e+00
-6.9915182990e+00	-6.9738406295e+00	 2.4977739563e+00
-7.0003571338e+00	-6.9650017947e+00	 2.5604532161e+00
-7.0091959685e+00	-6.9561629600e+00	 2.5514096974e+00
-7.0180348033e+00	-6.9473241252e+00	 2.4706433984e+00
-7.0268736381e+00	-6.9384852904e+00	 2.3181543173e+00
-7.0357124728e+00	-6.9296464557e+00	 2.0939424526e+00
-7.0445513076e+00	-6.9208076209e+00	 1.7980078024e+00
-7.0533901424e+00	-6.9119687861e+00	 1.4303503650e+00
-7.0622289771e+00	-6.9031299514e+00	 9.9097013877e-01
-7.0710678119e+00	-6.8942911166e+00	 4.7986712188e-01
-6.9437885913e+00	-6.9437885913e+00	 1.9531017982e+00
-6.9565165133e+00	-6.9310606692e+00	 2.0644466759e+00
-6.9692444354e+00	-6.9183327472e+00	 2.1158806183e+00
-6.9819723575e+00	-6.9056048251e+00	 2.1074036202e+00
-6.9947002795e+00	-6.8928769030e+00	 2.0390156764e+00
-7.0074282016e+00	-6.8801489810e+00	 1.9107167819e+00
-7.0201561237e+00	-6.8674210589e+00	 1.7225069314e+00
-7.0328840457e+00	-6.8546931369e+00	 1.4743861197e+00
-7.0456119678e+00	-6.8419652148e+00	 1.1663543418e+00
-7.0583398898e+00	-6.8292372927e+00	 7.9841159252e-01
-7.0710678119e+00	-6.8165093707e+00	 3.7055786663e-01
-6.8978266505e+00	-6.8978266505e+00	 1.6610514151e+00
-6.9151507666e+00	-6.8805025344e+00	 1.7558573630e+00
-6.9324748828e+00	-6.8631784182e+00	 1.7991851113e+00
-6.9497989989e+00	-6.8458543021e+00	 1.7910346471e+00
-6.9671231151e+00	-6.8285301859e+00	 1.7314059574e+00
-6.9844472312e+00	-6.8112060698e+00	 1.6202990291e+00
-7.0017713473e+00	-6.7938819537e+00	 1.4577138492e+00
-7.0190954635e+00	-6.7765578375e+00	 1.2436504049e+00
-7.0364195796e+00	-6.7592337214e+00	 9.7810868296e-01
-7.0537436958e+00	-6.7419096053e+00	 6.6108867053e-01
-7.0710678119e+00	-6.7245854891e+00	 2.9259035456e-01
-6.8447936419e+00	-6.8447936419e+00	 1.4431586522e+00
-6.8674210589e+00	-6.8221662249e+00	 1.5254859292e+00
-6.8900484759e+00	-6.7995388079e+00	 1.5626574992e+00
-6.9126758929e+00	-6.7769113909e+00	 1.5546733331e+00
-6.9353033099e+00	-6.7542839739e+00	 1.5015334021e+00
-6.9579307269e+00	-6.7316565569e+00	 1.4032376771e+00
-6.9805581439e+00	-6.7090291399e+00	 1.2597861292e+00
-7.0031855609e+00	-6.6864017229e+00	 1.0711787294e+00
-7.0258129779e+00	-6.6637743059e+00	 8.3741544886e-01
-7.0484403949e+00	-6.6411468889e+00	 5.5849625850e-01
-7.0710678119e+00	-6.6185194719e+00	 2.3442112942e-01
-6.7846895655e+00	-6.7846895655e+00	 1.2749201034e+00
-6.8133273902e+00	-6.7560517409e+00	 1.3474656347e+00
-6.8419652148e+00	-6.7274139162e+00	 1.3797720889e+00
-6.8706030394e+00	-6.6987760916e+00	 1.3718394072e+00
-6.8992408641e+00	-6.6701382670e+00	 1.3236675309e+00
-6.9278786887e+00	-6.6415004423e+00	 1.2352564013e+00
-6.9565165133e+00	-6.6128626177e+00	 1.1066059597e+00
-6.9851543380e+00	-6.5842247930e+00	 9.3771614740e-01
-7.0137921626e+00	-6.5555869684e+00	 7.2858690566e-01
-7.0424299873e+00	-6.5269491438e+00	 4.7921817579e-01
-7.0710678119e+00	-6.4983113191e+00	 1.8960989909e-01
-6.7175144213e+00	-6.7175144213e+00	 1.1416257839e+00
-6.7528697604e+00	-6.6821590822e+00	 1.2062699482e+00
-6.7882250994e+00	-6.6468037432e+00	 1.2346082229e+00
-6.8235804385e+00	-6.6114484041e+00	 1.2266404975e+00
-6.8589357775e+00	-6.5760930651e+00	 1.1823666615e+00
-6.8942911166e+00	-6.5407377260e+00	 1.1017866044e+00
-6.9296464557e+00	-6.5053823869e+00	 9.8490021573e-01
-6.9650017947e+00	-6.4700270479e+00	 8.3170738510e-01
-7.0003571338e+00	-6.4346717088e+00	 6.4220800201e-01
-7.0357124728e+00	-6.3993163698e+00	 4.1640195599e-01
-7.0710678119e+00	-6.3639610307e+00	 1.5428913658e-01
-6.7175144213e+00	-6.7175144213e+00	 1.1416257839e+00
-6.7528697604e+00	-6.6821590822e+00	 1.2062699482e+00
-6.7882250994e+00	-6.6468037432e+00	 1.2346082229e+00
-6.8235804385e+00	-6.6114484041e+00	 1.2266404975e+00
-6.8589357775e+00	-6.5760930651e+00	 1.1823666615e+00
-6.8942911166e+00	-6.5407377260e+00	 1.1017866044e+00
-6.9296464557e+00	-6.5053823869e+00	 9.8490021573e-01
-6.9650017947e+00	-6.4700270479e+00	 8.3170738510e-01
-7.0003571338e+00	-6.4346717088e+00	 6.4220800201e-01
-7.0357124728e+00	-6.3993163698e+00	 4.1640195599e-01
-7.0710678119e+00	-6.3639610307e+00	 1.5428913658e-01
-6.6432682093e+00	-6.6432682093e+00	 1.0165128891e+00
-6.6860481695e+00	-6.6004882490e+00	 1.0766223937e+00
-6.7288281298e+00	-6.5577082887e+00	 1.1044572691e+00
-6.7716080901e+00	-6.5149283285e+00	 1.1000173196e+00
-6.8143880503e+00	-6.4721483682e+00	 1.0633023495e+00
-6.8571680106e+00	-6.4293684080e+00	 9.9431216314e-01
-6.8999479708e+00	-6.3865884477e+00	 8.9304656477e-01
-6.9427279311e+00	-6.3438084874e+00	 7.5950535871e-01
-6.9855078914e+00	-6.3010285272e+00	 5.9368834926e-01
-7.0282878516e+00	-6.2582485669e+00	 3.9559534074e-01
-7.0710678119e+00	-6.2154686066e+00	 1.6522613745e-01
-6.5619509294e+00	-6.5619509294e+00	 9.1652196992e-01
-6.6128626177e+00	-6.5110392412e+00	 9.7099275817e-01
-6.6637743059e+00	-6.4601275529e+00	 9.9627324263e-01
-6.7146859942e+00	-6.4092158647e+00	 9.9236309346e-01
-6.7655976824e+00	-6.3583041765e+00	 9.5926198079e-01
-6.8165093707e+00	-6.3073924882e+00	 8.9696957478e-01
-6.8674210589e+00	-6.2564808000e+00	 8.0548554558e-01
-6.9183327472e+00	-6.2055691117e+00	 6.8480956333e-01
-6.9692444354e+00	-6.1546574235e+00	 5.3494129820e-01
-7.0201561237e+00	-6.1037457352e+00	 3.5588042033e-01
-7.0710678119e+00	-6.0528340470e+00	 1.4762659989e-01
-6.4735625818e+00	-6.4735625818e+00	 8.3538923629e-01
-6.5333131048e+00	-6.4138120588e+00	 8.8375000907e-01
-6.5930636278e+00	-6.3540615358e+00	 9.0533566022e-01
-6.6528141508e+00	-6.2943110128e+00	 9.0014565655e-01
-6.7125646738e+00	-6.2345604897e+00	 8.6817946484e-01
-6.7723151968e+00	-6.1748099667e+00	 8.0943655190e-01
-6.8320657199e+00	-6.1150594437e+00	 7.2391638453e-01
-6.8918162429e+00	-6.0553089207e+00	 6.1161842953e-01
-6.9515667659e+00	-5.9955583977e+00	 4.7254215373e-01
-7.0113172889e+00	-5.9358078747e+00	 3.0668702392e-01
-7.0710678119e+00	-5.8760573517e+00	 1.1405250695e-01
-6.3781031663e+00	-6.3781031663e+00	 7.6880692910e-01
-6.4473996309e+00	-6.3088067018e+00	 8.1093838550e-01
-6.5166960954e+00	-6.2395102372e+00	 8.2822364553e-01
-6.5859925600e+00	-6.1702137727e+00	 8.2066187741e-01
-6.6552890246e+00	-6.1009173081e+00	 7.8825224940e-01
-6.7245854891e+00	-6.0316208435e+00	 7.3099392971e-01
-6.7938819537e+00	-5.9623243790e+00	 6.4888608662e-01
-6.8631784182e+00	-5.8930279144e+00	 5.4192788837e-01
-6.9324748828e+00	-5.8237314499e+00	 4.1011850323e-01
-7.0017713473e+00	-5.7544349853e+00	 2.5345709947e-01
-7.0710678119e+00	-5.6851385207e+00	 7.1942845365e-02
-6.2755726831e+00	-6.2755726831e+00	 7.1372108136e-01
-6.3551221959e+00	-6.1960231702e+00	 7.4970026522e-01
-6.4346717088e+00	-6.1164736573e+00	 7.6240040791e-01
-6.5142212217e+00	-6.0369241444e+00	 7.5182025114e-01
-6.5937707346e+00	-5.9573746315e+00	 7.1795853663e-01
-6.6733202475e+00	-5.8778251186e+00	 6.6081400610e-01
-6.7528697604e+00	-5.7982756057e+00	 5.8038540129e-01
-6.8324192732e+00	-5.7187260929e+00	 4.7667146397e-01
-6.9119687861e+00	-5.6391765800e+00	 3.4967093589e-01
-6.9915182990e+00	-5.5596270671e+00	 1.9938255884e-01
-7.0710678119e+00	-5.4800775542e+00	 2.5805074618e-02
-6.1659711320e+00	-6.1659711320e+00	 6.6791020394e-01
-6.2564808000e+00	-6.0754614640e+00	 6.9792200838e-01
-6.3469904680e+00	-5.9849517960e+00	 7.0594735325e-01
-6.4375001359e+00	-5.8944421280e+00	 6.9198438522e-01
-6.5280098039e+00	-5.8039324600e+00	 6.5603125098e-01
-6.6185194719e+00	-5.7134227920e+00	 5.9808609722e-01
-6.7090291399e+00	-5.6229131240e+00	 5.1814707067e-01
-6.7995388079e+00	-5.5324034560e+00	 4.1621231809e-01
-6.8900484759e+00	-5.4418937880e+00	 2.9227998624e-01
-6.9805581439e+00	-5.3513841200e+00	 1.4634822191e-01
-7.0710678119e+00	-5.2608744520e+00	-2.1584828078e-02
-6.0492985131e+00	-6.0492985131e+00	 6.2972236895e-01
-6.1514754429e+00	-5.9471215832e+00	 6.5400839158e-01
-6.2536523728e+00	-5.8449446533e+00	 6.5738858287e-01
-6.3558293027e+00	-5.7427677234e+00	 6.3986027641e-01
-6.4580062326e+00	-5.6405907935e+00	 6.0142080582e-01
-6.5601831625e+00	-5.5384138636e+00	 5.4206750476e-01
-6.6623600924e+00	-5.4362369338e+00	 4.6179770693e-01
-6.7645370222e+00	-5.3340600039e+00	 3.6060874604e-01
-6.8667139521e+00	-5.2318830740e+00	 2.3849795587e-01
-6.9688908820e+00	-5.1297061441e+00	 9.5462670211e-02
-7.0710678119e+00	-5.0275292142e+00	-6.8499777108e-02
-5.9255548264e+00	-5.9255548264e+00	 5.9790549402e-01
-6.0401061249e+00	-5.8110035278e+00	 6.1673427299e-01
-6.1546574235e+00	-5.6964522292e+00	 6.1557187093e-01
-6.2692087220e+00	-5.5819009307e+00	 5.9441453061e-01
-6.3837600206e+00	-5.4673496321e+00	 5.5325849486e-01
-6.4983113191e+00	-5.3527983336e+00	 4.9210000655e-01
-6.6128626177e+00	-5.2382470350e+00	 4.1093530862e-01
-6.7274139162e+00	-5.1236957365e+00	 3.0976064406e-01
-6.8419652148e+00	-5.0091444379e+00	 1.8857225592e-01
-6.9565165133e+00	-4.8945931394e+00	 4.7366387295e-02
-7.0710678119e+00	-4.7800418408e+00	-1.1386071866e-01
-5.7947400718e+00	-5.7947400718e+00	 5.7149451498e-01
-5.9223728458e+00	-5.6671072978e+00	 5.8514429158e-01
-6.0500056198e+00	-5.5394745238e+00	 5.7958599160e-01
-6.1776383939e+00	-5.4118417498e+00	 5.5481441802e-01
-6.3052711679e+00	-5.2842089758e+00	 5.1082437392e-01
-6.4329039419e+00	-5.1565762018e+00	 4.4761066246e-01
-6.5605367159e+00	-5.0289434278e+00	 3.6516808689e-01
-6.6881694899e+00	-4.9013106538e+00	 2.6349145055e-01
-6.8158022639e+00	-4.7736778798e+00	 1.4257555685e-01
-6.9434350379e+00	-4.6460451058e+00	 2.4152092838e-03
-7.0710678119e+00	-4.5184123318e+00	-1.5699478855e-01
-5.6568542495e+00	-5.6568542495e+00	 5.4973440798e-01
-5.7982756057e+00	-5.5154328933e+00	 5.5848336296e-01
-5.9396969620e+00	-5.3740115370e+00	 5.4870205904e-01
-6.0811183182e+00	-5.2325901808e+00	 5.2038342637e-01
-6.2225396745e+00	-5.0911688245e+00	 4.7352039522e-01
-6.3639610307e+00	-4.9497474683e+00	 4.0810589599e-01
-6.5053823869e+00	-4.8083261121e+00	 3.2413285920e-01
-6.6468037432e+00	-4.6669047558e+00	 2.2159421551e-01
-6.7882250994e+00	-4.5254833996e+00	 1.0048289569e-01
-6.9296464557e+00	-4.3840620433e+00	-3.9208169337e-02
-7.0710678119e+00	-4.2426406871e+00	-1.9748604854e-01
-7.0710678119e+00	-7.0710678119e+00	-5.9043875425e-02
-7.0710678119e+00	-7.0710678119e+00	-5.9043875425e-02
-7.0710678119e+00	-7.0710678119e+00	-5.9043875425e-02
-7.0710678119e+00	-7.0710678119e+00	-5.9043875425e-02
-7.0710678119e+00	-7.0710678119e+00	-5.9043875425e-02
-7.0710678119e+00	-7.0710678119e+00	-5.9043875425e-02
-7.0710678119e+00	-7.0710678119e+00	-5.9043875425e-02
-7.0710678119e+00	-7.0710678119e+00	-5.9043875425e-02
-7.0710678119e+00	-7.0710678119e+00	-5.9043875425e-02
-7.0710678119e+00	-7.0710678119e+00	-5.9043875425e-02
-7.0710678119e+00	-7.0710678119e+00	-5.9043875425e-02
-7.0710678119e+00	-7.0639967441e+00	 3.9941536980e+00
-7.0714213653e+00	-7.0643502975e+00	 4.8731509647e+00
-7.0717749187e+00	-7.0647038509e+00	 5.6693133312e+00
-7.0721284721e+00	-7.0650574043e+00	 6.3826407975e+00
-7.0724820255e+00	-7.0654109577e+00	 7.0131333637e+00
-7.0728355789e+00	-7.0657645110e+00	 7.5607910297e+00
-7.0731891322e+00	-7.0661180644e+00	 8.0256137955e+00
-7.0735426856e+00	-7.0664716178e+00	 8.4076016612e+00
-7.0738962390e+00	-7.0668251712e+00	 8.7067546267e+00
-7.0742497924e+00	-7.0671787246e+00	 8.9230726920e+00
-7.0746033458e+00	-7.0675322780e+00	 9.0565558572e+00
-7.0710678119e+00	-7.0427835407e+00	 1.8360276358e+00
-7.0724820255e+00	-7.0441977542e+00	 2.2917566327e+00
-7.0738962390e+00	-7.0456119678e+00	 2.7054977410e+00
-7.0753104526e+00	-7.0470261813e+00	 3.0772509609e+00
-7.0767246661e+00	-7.0484403949e+00	 3.4070162922e+00
-7.0781388797e+00	-7.0498546085e+00	 3.6947937351e+00
-7.0795530933e+00	-7.0512688220e+00	 3.9405832896e+00
-7.0809673068e+00	-7.0526830356e+00	 4.1443849555e+00
-7.0823815204e+00	-7.0540972492e+00	 4.3061987330e+00
-7.0837957340e+00	-7.0555114627e+00	 4.4260246221e+00
-7.0852099475e+00	-7.0569256763e+00	 4.5038626227e+00
-7.0710678119e+00	-7.0074282016e+00	 1.2308063477e+00
-7.0742497924e+00	-7.0106101821e+00	 1.5294303596e+00
-7.0774317729e+00	-7.0137921626e+00	 1.8004223060e+00
-7.0806137534e+00	-7.0169741431e+00	 2.0437821871e+00
-7.0837957340e+00	-7.0201561237e+00	 2.2595100030e+00
-7.0869777145e+00	-7.0233381042e+00	 2.4476057537e+00
-7.0901596950e+00	-7.0265200847e+00	 2.6080694393e+00
-7.0933416755e+00	-7.0297020652e+00	 2.7409010599e+00
-7.0965236560e+00	-7.0328840457e+00	 2.8461006157e+00
-7.0997056365e+00	-7.0360660262e+00	 2.9236681066e+00
-7.1028876171e+00	-7.0392480067e+00	 2.9736035328e+00
-7.0710678119e+00	-6.9579307269e+00	 9.4986654579e-01
-7.0767246661e+00	-6.9635875812e+00	 1.1668457042e+00
-7.0823815204e+00	-6.9692444354e+00	 1.3635096619e+00
-7.0880383746e+00	-6.9749012897e+00	 1.5398584193e+00
-7.0936952289e+00	-6.9805581439e+00	 1.6958919769e+00
-7.0993520831e+00	-6.9862149982e+00	 1.8316103353e+00
-7.1050089374e+00	-6.9918718524e+00	 1.9470134949e+00
-7.1106657916e+00	-6.9975287067e+00	 2.0421014562e+00
-7.1163226459e+00	-7.0031855609e+00	 2.1168742196e+00
-7.1219795001e+00	-7.0088424152e+00	 2.1713317858e+00
-7.1276363544e+00	-7.0144992694e+00	 2.2054741550e+00
-7.0710678119e+00	-6.8942911166e+00	 7.8849316930e-01
-7.0799066467e+00	-6.9031299514e+00	 9.5541370382e-01
-7.0887454814e+00	-6.9119687861e+00	 1.1064539093e+00
-7.0975843162e+00	-6.9208076209e+00	 1.2416137877e+00
-7.1064231510e+00	-6.9296464557e+00	 1.3608933407e+00
-7.1152619857e+00	-6.9384852904e+00	 1.4642925703e+00
-7.1241008205e+00	-6.9473241252e+00	 1.5518114782e+00
-7.1329396553e+00	-6.9561629600e+00	 1.6234500664e+00
-7.1417784900e+00	-6.9650017947e+00	 1.6792083367e+00
-7.1506173248e+00	-6.9738406295e+00	 1.7190862908e+00
-7.1594561595e+00	-6.9826794642e+00	 1.7430839307e+00
-7.0710678119e+00	-6.8165093707e+00	 6.8415519993e-01
-7.0837957340e+00	-6.8292372927e+00	 8.1718101849e-01
-7.0965236560e+00	-6.8419652148e+00	 9.3730214657e-01
-7.1092515781e+00	-6.8546931369e+00	 1.0445185897e+00
-7.1219795001e+00	-6.8674210589e+00	 1.1388303533e+00
-7.1347074222e+00	-6.8801489810e+00	 1.2202374430e+00
-7.1474353443e+00	-6.8928769030e+00	 1.2887398642e+00
-7.1601632663e+00	-6.9056048251e+00	 1.3443376225e+00
-7.1728911884e+00	-6.9183327472e+00	 1.3870307233e+00
-7.1856191105e+00	-6.9310606692e+00	 1.4168191723e+00
-7.1983470325e+00	-6.9437885913e+00	 1.4337029748e+00
-7.0710678119e+00	-6.7245854891e+00	 6.1146226223e-01
-7.0883919280e+00	-6.7419096053e+00	 7.1995103112e-01
-7.1057160442e+00	-6.7592337214e+00	 8.1767043559e-01
-7.1230401603e+00	-6.7765578375e+00	 9.0462048954e-01
-7.1403642765e+00	-6.7938819537e+00	 9.8080120687e-01
-7.1576883926e+00	-6.8112060698e+00	 1.0462126015e+00
-7.1750125087e+00	-6.8285301859e+00	 1.1008546873e+00
-7.1923366249e+00	-6.8458543021e+00	 1.1447274781e+00
-7.2096607410e+00	-6.8631784182e+00	 1.1778309879e+00
-7.2269848572e+00	-6.8805025344e+00	 1.2001652306e+00
-7.2443089733e+00	-6.8978266505e+00	 1.2117302200e+00
-7.0710678119e+00	-6.6185194719e+00	 5.5819159217e-01
-7.0936952289e+00	-6.6411468889e+00	 6.4803208390e-01
-7.1163226459e+00	-6.6637743059e+00	 7.2871076362e-01
-7.1389500629e+00	-6.6864017229e+00	 8.0022766229e-01
-7.1615774799e+00	-6.7090291399e+00	 8.6258281088e-01
-7.1842048969e+00	-6.7316565569e+00	 9.1577624036e-01
-7.2068323139e+00	-6.7542839739e+00	 9.5980798169e-01
-7.2294597309e+00	-6.7769113909e+00	 9.9467806584e-01
-7.2520871479e+00	-6.7995388079e+00	 1.0203865238e+00
-7.2747145649e+00	-6.8221662249e+00	 1.0369333865e+00
-7.2973419819e+00	-6.8447936419e+00	 1.0443186848e+00
-7.0710678119e+00	-6.4983113191e+00	 5.1774894133e-01
-7.0997056365e+00	-6.5269491438e+00	 5.9287562320e-01
-7.1283434612e+00	-6.5555869684e+00	 6.6009518202e-01
-7.1569812858e+00	-6.5842247930e+00	 7.1940768058e-01
-7.1856191105e+00	-6.6128626177e+00	 7.7081318164e-01
-7.2142569351e+00	-6.6415004423e+00	 8.1431174798e-01
-7.2428947597e+00	-6.6701382670e+00	 8.4990344239e-01
-7.2715325844e+00	-6.6987760916e+00	 8.7758832762e-01
-7.3001704090e+00	-6.7274139162e+00	 8.9736646647e-01
-7.3288082336e+00	-6.7560517409e+00	 9.0923792170e-01
-7.3574460583e+00	-6.7846895655e+00	 9.1320275609e-01
-7.0710678119e+00	-6.3639610307e+00	 4.8627495547e-01
-7.1064231510e+00	-6.3993163698e+00	 5.4943641487e-01
-7.1417784900e+00	-6.4346717088e+00	 6.0569815030e-01
-7.1771338291e+00	-6.4700270479e+00	 6.5506027990e-01
-7.2124891681e+00	-6.5053823869e+00	 6.9752292177e-01
-7.2478445072e+00	-6.5407377260e+00	 7.3308619404e-01
-7.2831998463e+00	-6.5760930651e+00	 7.6175021484e-01
-7.3185551853e+00	-6.6114484041e+00	 7.8351510229e-01
-7.3539105244e+00	-6.6468037432e+00	 7.9838097452e-01
-7.3892658634e+00	-6.6821590822e+00	 8.0634794964e-01
-7.4246212025e+00	-6.7175144213e+00	 8.0741614578e-01
-7.0710678119e+00	-6.3639610307e+00	 4.8627495547e-01
-7.1064231510e+00	-6.3993163698e+00	 5.4943641487e-01
-7.1417784900e+00	-6.4346717088e+00	 6.0569815030e-01
-7.1771338291e+00	-6.4700270479e+00	 6.5506027990e-01
-7.2124891681e+00	-6.5053823869e+00	 6.9752292177e-01
-7.2478445072e+00	-6.5407377260e+00	 7.3308619404e-01
-7.2831998463e+00	-6.5760930651e+00	 7.6175021484e-01
-7.3185551853e+00	-6.6114484041e+00	 7.8351510229e-01
-7.3539105244e+00	-6.6468037432e+00	 7.9838097452e-01
-7.3892658634e+00	-6.6821590822e+00	 8.0634794964e-01
-7.4246212025e+00	-6.7175144213e+00	 8.0741614578e-01
-7.0710678119e+00	-6.2154686066e+00	 4.0772256083e-01
-7.1138477722e+00	-6.2582485669e+00	 4.6180016401e-01
-7.1566277324e+00	-6.3010285272e+00	 5.1043305605e-01
-7.1994076927e+00	-6.3438084874e+00	 5.5362144623e-01
-7.2421876530e+00	-6.3865884477e+00	 5.9136554379e-01
-7.2849676132e+00	-6.4293684080e+00	 6.2366555800e-01
-7.3277475735e+00	-6.4721483682e+00	 6.5052169812e-01
-7.3705275337e+00	-6.5149283285e+00	 6.7193417342e-01
-7.4133074940e+00	-6.5577082887e+00	 6.8790319315e-01
-7.4560874543e+00	-6.6004882490e+00	 6.9842896658e-01
-7.4988674145e+00	-6.6432682093e+00	 7.0351170298e-01
-7.0710678119e+00	-6.0528340470e+00	 3.3252549827e-01
-7.1219795001e+00	-6.1037457352e+00	 3.8205867636e-01
-7.1728911884e+00	-6.1546574235e+00	 4.2715010019e-01
-7.2238028766e+00	-6.2055691117e+00	 4.6780012246e-01
-7.2747145649e+00	-6.2564808000e+00	 5.0400909587e-01
-7.3256262531e+00	-6.3073924882e+00	 5.3577737314e-01
-7.3765379414e+00	-6.3583041765e+00	 5.6310530697e-01
-7.4274496296e+00	-6.4092158647e+00	 5.8599325008e-01
-7.4783613179e+00	-6.4601275529e+00	 6.0444155518e-01
-7.5292730061e+00	-6.5110392412e+00	 6.1845057500e-01
-7.5801846944e+00	-6.5619509294e+00	 6.2802066225e-01
-7.0710678119e+00	-5.8760573517e+00	 2.6226969217e-01
-7.1308183349e+00	-5.9358078747e+00	 3.1004627333e-01
-7.1905688579e+00	-5.9955583977e+00	 3.5408213831e-01
-7.2503193809e+00	-6.0553089207e+00	 3.9437785725e-01
-7.3100699039e+00	-6.1150594437e+00	 4.3093400030e-01
-7.3698204270e+00	-6.1748099667e+00	 4.6375113759e-01
-7.4295709500e+00	-6.2345604897e+00	 4.9282983927e-01
-7.4893214730e+00	-6.2943110128e+00	 5.1817067551e-01
-7.5490719960e+00	-6.3540615358e+00	 5.3977421646e-01
-7.6088225190e+00	-6.4138120588e+00	 5.5764103228e-01
-7.6685730420e+00	-6.4735625818e+00	 5.7177169314e-01
-7.0710678119e+00	-5.6851385207e+00	 1.9751353943e-01
-7.1403642765e+00	-5.7544349853e+00	 2.4524883752e-01
-7.2096607410e+00	-5.8237314499e+00	 2.8973785559e-01
-7.2789572056e+00	-5.8930279144e+00	 3.3098148299e-01
-7.3482536701e+00	-5.9623243790e+00	 3.6898060911e-01
-7.4175501347e+00	-6.0316208435e+00	 4.0373612334e-01
-7.4868465992e+00	-6.1009173081e+00	 4.3524891507e-01
-7.5561430638e+00	-6.1702137727e+00	 4.6351987369e-01
-7.6254395284e+00	-6.2395102372e+00	 4.8854988863e-01
-7.6947359929e+00	-6.3088067018e+00	 5.1033984929e-01
-7.7640324575e+00	-6.3781031663e+00	 5.2889064511e-01
-7.0710678119e+00	-5.4800775542e+00	 1.3831572603e-01
-7.1506173248e+00	-5.5596270671e+00	 1.8704888555e-01
-7.2301668377e+00	-5.6391765800e+00	 2.3288609182e-01
-7.3097163506e+00	-5.7187260929e+00	 2.7582869024e-01
-7.3892658634e+00	-5.7982756057e+00	 3.1587802626e-01
-7.4688153763e+00	-5.8778251186e+00	 3.5303544531e-01
-7.5483648892e+00	-5.9573746315e+00	 3.8730229287e-01
-7.6279144021e+00	-6.0369241444e+00	 4.1867991439e-01
-7.7074639150e+00	-6.1164736573e+00	 4.4716965536e-01
-7.7870134278e+00	-6.1960231702e+00	 4.7277286128e-01
-7.8665629407e+00	-6.2755726831e+00	 4.9549087767e-01
-7.0710678119e+00	-5.2608744520e+00	 8.4500429334e-02
-7.1615774799e+00	-5.3513841200e+00	 1.3483381892e-01
-7.2520871479e+00	-5.4418937880e+00	 1.8251957427e-01
-7.3425968159e+00	-5.5324034560e+00	 2.2755967703e-01
-7.4331064839e+00	-5.6229131240e+00	 2.6995610886e-01
-7.5236161519e+00	-5.7134227920e+00	 3.0971085145e-01
-7.6141258198e+00	-5.8039324600e+00	 3.4682588649e-01
-7.7046354878e+00	-5.8944421280e+00	 3.8130319573e-01
-7.7951451558e+00	-5.9849517960e+00	 4.1314476091e-01
-7.8856548238e+00	-6.0754614640e+00	 4.4235256380e-01
-7.9761644918e+00	-6.1659711320e+00	 4.6892858621e-01
-7.0710678119e+00	-5.0275292142e+00	 3.5793108792e-02
-7.1732447418e+00	-5.1297061441e+00	 8.8041099435e-02
-7.2754216717e+00	-5.2318830740e+00	 1.3781679400e-01
-7.3775986015e+00	-5.3340600039e+00	 1.8512304345e-01
-7.4797755314e+00	-5.4362369338e+00	 2.2996269881e-01
-7.5819524613e+00	-5.5384138636e+00	 2.7233861110e-01
-7.6841293912e+00	-5.6405907935e+00	 3.1225363142e-01
-7.7863063211e+00	-5.7427677234e+00	 3.4971061087e-01
-7.8884832509e+00	-5.8449446533e+00	 3.8471240062e-01
-7.9906601808e+00	-5.9471215832e+00	 4.1726185185e-01
-8.0928371107e+00	-6.0492985131e+00	 4.4736181579e-01
-7.0710678119e+00	-4.7800418408e+00	-8.1096354769e-03
-7.1856191105e+00	-4.8945931394e+00	 4.6174012396e-02
-7.3001704090e+00	-5.0091444379e+00	 9.8108129072e-02
-7.4147217076e+00	-5.1236957365e+00	 1.4769673180e-01
-7.5292730061e+00	-5.2382470350e+00	 1.9494383788e-01
-7.6438243047e+00	-5.3527983336e+00	 2.3985346467e-01
-7.7583756032e+00	-5.4673496321e+00	 2.8242962960e-01
-7.8729269017e+00	-5.5819009307e+00	 3.2267635015e-01
-7.9874782003e+00	-5.6964522292e+00	 3.6059764384e-01
-8.1020294988e+00	-5.8110035278e+00	 3.9619752827e-01
-8.2165807974e+00	-5.9255548264e+00	 4.2948002108e-01
-7.0710678119e+00	-4.5184123318e+00	-4.7504631563e-02
-7.1987005859e+00	-4.6460451058e+00	 8.8038631565e-03
-7.3263333599e+00	-4.7736778798e+00	 6.2847601471e-02
-7.4539661339e+00	-4.9013106538e+00	 1.1463213998e-01
-7.5815989079e+00	-5.0289434278e+00	 1.6416303537e-01
-7.7092316819e+00	-5.1565762018e+00	 2.1144584441e-01
-7.8368644559e+00	-5.2842089758e+00	 2.5648612398e-01
-7.9644972299e+00	-5.4118417498e+00	 2.9928943101e-01
-8.0921300039e+00	-5.5394745238e+00	 3.3986132256e-01
-8.2197627779e+00	-5.6671072978e+00	 3.7820735575e-01
-8.3473955519e+00	-5.7947400718e+00	 4.1433308780e-01
-7.0710678119e+00	-4.2426406871e+00	-8.2664970552e-02
-7.2124891681e+00	-4.3840620433e+00	-2.4433789018e-02
-7.3539105244e+00	-4.5254833996e+00	 3.1589978140e-02
-7.4953318806e+00	-4.6669047558e+00	 8.5413889863e-02
-7.6367532368e+00	-4.8083261121e+00	 1.3704550522e-01
-7.7781745931e+00	-4.9497474683e+00	 1.8649238343e-01
-7.9195959493e+00	-5.0911688245e+00	 2.3376208382e-01
-8.0610173055e+00	-5.2325901808e+00	 2.7886216588e-01
-8.2024386618e+00	-5.3740115370e+00	 3.2180018920e-01
-8.3438600180e+00	-5.5154328933e+00	 3.6258371354e-01
-8.4852813742e+00	-5.6568542495e+00	 4.0122029875e-01
-7.0710678119e+00	-7.0710678119e+00	-5.9043875425e-02
-7.0710678119e+00	-7.0710678119e+00	-5.9043875425e-02
-7.0710678119e+00	-7.0710678119e+00	-5.9043875425e-02
-7.0710678119e+00	-7.0710678119e+00	-5.9043875425e-02
-7.0710678119e+00	-7.0710678119e+00	-5.9043875425e-02
-7.0710678119e+00	-7.0710678119e+00	-5.9043875425e-02
-7.0710678119e+00	-7.0710678119e+00	-5.9043875425e-02
-7.0710678119e+00	-7.0710678119e+00	-5.9043875425e-02
-7.0710678119e+00	-7.0710678119e+00	-5.9043875425e-02
-7.0710678119e+00	-7.0710678119e+00	-5.9043875425e-02
-7.0710678119e+00	-7.0710678119e+00	-5.9043875425e-02
-7.0746033458e+00	-7.0675322780e+00	 1.2139765092e+01
-7.0749568992e+00	-7.0678858314e+00	 1.3136363913e+01
-7.0753104526e+00	-7.0682393848e+00	 1.3867744356e+01
-7.0756640060e+00	-7.0685929382e+00	 1.4333906422e+01
-7.0760175594e+00	-7.0689464916e+00	 1.4534850111e+01
-7.0763711128e+00	-7.0693000449e+00	 1.4470575424e+01
-7.0767246661e+00	-7.0696535983e+00	 1.4141082359e+01
-7.0770782195e+00	-7.0700071517e+00	 1.3546370918e+01
-7.0774317729e+00	-7.0703607051e+00	 1.2686441099e+01
-7.0777853263e+00	-7.0707142585e+00	 1.1561292904e+01
-7.0781388797e+00	-7.0710678119e+00	 1.0170926332e+01
-7.0852099475e+00	-7.0569256763e+00	 6.1192521864e+00
-7.0866241611e+00	-7.0583398898e+00	 6.5827204920e+00
-7.0880383746e+00	-7.0597541034e+00	 6.9183188505e+00
-7.0894525882e+00	-7.0611683170e+00	 7.1260472620e+00
-7.0908668018e+00	-7.0625825305e+00	 7.2059057263e+00
-7.0922810153e+00	-7.0639967441e+00	 7.1578942436e+00
-7.0936952289e+00	-7.0654109577e+00	 6.9820128138e+00
-7.0951094425e+00	-7.0668251712e+00	 6.6782614369e+00
-7.0965236560e+00	-7.0682393848e+00	 6.2466401130e+00
-7.0979378696e+00	-7.0696535983e+00	 5.6871488420e+00
-7.0993520831e+00	-7.0710678119e+00	 4.9997876241e+00
-7.1028876171e+00	-7.0392480067e+00	 4.0445692075e+00
-7.1060695976e+00	-7.0424299873e+00	 4.3532209656e+00
-7.1092515781e+00	-7.0456119678e+00	 4.5773739683e+00
-7.1124335586e+00	-7.0487939483e+00	 4.7170282158e+00
-7.1156155391e+00	-7.0519759288e+00	 4.7721837082e+00
-7.1187975196e+00	-7.0551579093e+00	 4.7428404455e+00
-7.1219795001e+00	-7.0583398898e+00	 4.6289984278e+00
-7.1251614807e+00	-7.0615218704e+00	 4.4306576553e+00
-7.1283434612e+00	-7.0647038509e+00	 4.1478181280e+00
-7.1315254417e+00	-7.0678858314e+00	 3.7804798460e+00
-7.1347074222e+00	-7.0710678119e+00	 3.3286428093e+00
-7.1276363544e+00	-7.0144992694e+00	 2.9938871356e+00
-7.1332932086e+00	-7.0201561237e+00	 3.2293354922e+00
-7.1389500629e+00	-7.0258129779e+00	 3.4015186891e+00
-7.1446069171e+00	-7.0314698322e+00	 3.5104367265e+00
-7.1502637714e+00	-7.0371266864e+00	 3.5560896052e+00
-7.1559206256e+00	-7.0427835407e+00	 3.5384773254e+00
-7.1615774799e+00	-7.0484403949e+00	 3.4575998877e+00
-7.1672343341e+00	-7.0540972492e+00	 3.3134572927e+00
-7.1728911884e+00	-7.0597541034e+00	 3.1060495407e+00
-7.1785480426e+00	-7.0654109577e+00	 2.8353766323e+00
-7.1842048969e+00	-7.0710678119e+00	 2.5014385679e+00
-7.1594561595e+00	-6.9826794642e+00	 2.3586562548e+00
-7.1682949943e+00	-6.9915182990e+00	 2.5514488979e+00
-7.1771338291e+00	-7.0003571338e+00	 2.6935721963e+00
-7.1859726638e+00	-7.0091959685e+00	 2.7850261518e+00
-7.1948114986e+00	-7.0180348033e+00	 2.8258107663e+00
-7.2036503334e+00	-7.0268736381e+00	 2.8159260417e+00
-7.2124891681e+00	-7.0357124728e+00	 2.7553719798e+00
-7.2213280029e+00	-7.0445513076e+00	 2.6441485824e+00
-7.2301668377e+00	-7.0533901424e+00	 2.4822558514e+00
-7.2390056724e+00	-7.0622289771e+00	 2.2696937887e+00
-7.2478445072e+00	-7.0710678119e+00	 2.0064623960e+00
-7.1983470325e+00	-6.9437885913e+00	 1.9326694281e+00
-7.2110749546e+00	-6.9565165133e+00	 2.0974810179e+00
-7.2238028766e+00	-6.9692444354e+00	 2.2199607638e+00
-7.2365307987e+00	-6.9819723575e+00	 2.3001086712e+00
-7.2492587208e+00	-6.9947002795e+00	 2.3379247457e+00
-7.2619866428e+00	-7.0074282016e+00	 2.3334089929e+00
-7.2747145649e+00	-7.0201561237e+00	 2.2865614181e+00
-7.2874424869e+00	-7.0328840457e+00	 2.1973820270e+00
-7.3001704090e+00	-7.0456119678e+00	 2.0658708250e+00
-7.3128983311e+00	-7.0583398898e+00	 1.8920278176e+00
-7.3256262531e+00	-7.0710678119e+00	 1.6758530104e+00
-7.2443089733e+00	-6.8978266505e+00	 1.6267314512e+00
-7.2616330894e+00	-6.9151507666e+00	 1.7717148037e+00
-7.2789572056e+00	-6.9324748828e+00	 1.8802930044e+00
-7.2962813217e+00	-6.9497989989e+00	 1.9524660673e+00
-7.3136054378e+00	-6.9671231151e+00	 1.9882340064e+00
-7.3309295540e+00	-6.9844472312e+00	 1.9875968354e+00
-7.3482536701e+00	-7.0017713473e+00	 1.9505545683e+00
-7.3655777862e+00	-7.0190954635e+00	 1.8771072190e+00
-7.3829019024e+00	-7.0364195796e+00	 1.7672548013e+00
-7.4002260185e+00	-7.0537436958e+00	 1.6209973293e+00
-7.4175501347e+00	-7.0710678119e+00	 1.4383348167e+00
-7.2973419819e+00	-6.8447936419e+00	 1.3959766870e+00
-7.3199693989e+00	-6.8674210589e+00	 1.5261154238e+00
-7.3425968159e+00	-6.8900484759e+00	 1.6242790882e+00
-7.3652242329e+00	-6.9126758929e+00	 1.6904677110e+00
-7.3878516499e+00	-6.9353033099e+00	 1.7246813232e+00
-7.4104790669e+00	-6.9579307269e+00	 1.7269199558e+00
-7.4331064838e+00	-6.9805581439e+00	 1.6971836398e+00
-7.4557339008e+00	-7.0031855609e+00	 1.6354724061e+00
-7.4783613178e+00	-7.0258129779e+00	 1.5417862856e+00
-7.5009887348e+00	-7.0484403949e+00	 1.4161253095e+00
-7.5236161518e+00	-7.0710678119e+00	 1.2584895086e+00
-7.3574460583e+00	-6.7846895655e+00	 1.2153749505e+00
-7.3860838829e+00	-6.8133273902e+00	 1.3339278496e+00
-7.4147217075e+00	-6.8419652148e+00	 1.4239433422e+00
-7.4433595322e+00	-6.8706030394e+00	 1.4854214909e+00
-7.4719973568e+00	-6.8992408641e+00	 1.5183623585e+00
-7.5006351814e+00	-6.9278786887e+00	 1.5227660079e+00
-7.5292730061e+00	-6.9565165133e+00	 1.4986325018e+00
-7.5579108307e+00	-6.9851543380e+00	 1.4459619030e+00
-7.5865486554e+00	-7.0137921626e+00	 1.3647542743e+00
-7.6151864800e+00	-7.0424299873e+00	 1.2550096784e+00
-7.6438243046e+00	-7.0710678119e+00	 1.1167281781e+00
-7.4246212025e+00	-6.7175144213e+00	 1.0698618173e+00
-7.4599765416e+00	-6.7528697604e+00	 1.1790684654e+00
-7.4953318806e+00	-6.7882250994e+00	 1.2624839070e+00
-7.5306872197e+00	-6.8235804385e+00	 1.3201082605e+00
-7.5660425587e+00	-6.8589357775e+00	 1.3519416437e+00
-7.6013978978e+00	-6.8942911166e+00	 1.3579841749e+00
-7.6367532368e+00	-6.9296464557e+00	 1.3382359723e+00
-7.6721085759e+00	-6.9650017947e+00	 1.2926971538e+00
-7.7074639149e+00	-7.0003571338e+00	 1.2213678377e+00
-7.7428192540e+00	-7.0357124728e+00	 1.1242481422e+00
-7.7781745931e+00	-7.0710678119e+00	 1.0013381852e+00
-7.4246212025e+00	-6.7175144213e+00	 1.0698618173e+00
-7.4599765416e+00	-6.7528697604e+00	 1.1790684654e+00
-7.4953318806e+00	-6.7882250994e+00	 1.2624839070e+00
-7.5306872197e+00	-6.8235804385e+00	 1.3201082605e+00
-7.5660425587e+00	-6.8589357775e+00	 1.3519416437e+00
-7.6013978978e+00	-6.8942911166e+00	 1.3579841749e+00
-7.6367532368e+00	-6.9296464557e+00	 1.3382359723e+00
-7.6721085759e+00	-6.9650017947e+00	 1.2926971538e+00
-7.7074639149e+00	-7.0003571338e+00	 1.2213678377e+00
-7.7428192540e+00	-7.0357124728e+00	 1.1242481422e+00
-7.7781745931e+00	-7.0710678119e+00	 1.0013381852e+00
-7.4988674145e+00	-6.6432682093e+00	 9.3375319830e-01
-7.5416473748e+00	-6.6860481695e+00	 1.0384057016e+00
-7.5844273350e+00	-6.7288281298e+00	 1.1191572337e+00
-7.6272072953e+00	-6.7716080901e+00	 1.1760080037e+00
-7.6699872555e+00	-6.8143880503e+00	 1.2089582211e+00
-7.7127672158e+00	-6.8571680106e+00	 1.2180080950e+00
-7.7555471761e+00	-6.8999479708e+00	 1.2031578348e+00
-7.7983271363e+00	-6.9427279311e+00	 1.1644076497e+00
-7.8411070966e+00	-6.9855078914e+00	 1.1017577489e+00
-7.8838870568e+00	-7.0282878516e+00	 1.0152083419e+00
-7.9266670171e+00	-7.0710678119e+00	 9.0475963772e-01
-7.5801846944e+00	-6.5619509294e+00	 8.3195927110e-01
-7.6310963826e+00	-6.6128626177e+00	 9.3011414124e-01
-7.6820080708e+00	-6.6637743059e+00	 1.0060644024e+00
-7.7329197591e+00	-6.7146859942e+00	 1.0598104072e+00
-7.7838314473e+00	-6.7655976824e+00	 1.0913525085e+00
-7.8347431355e+00	-6.8165093707e+00	 1.1006910590e+00
-7.8856548238e+00	-6.8674210589e+00	 1.0878264114e+00
-7.9365665120e+00	-6.9183327472e+00	 1.0527589184e+00
-7.9874782003e+00	-6.9692444354e+00	 9.9548893286e-01
-8.0383898885e+00	-7.0201561237e+00	 9.1601680742e-01
-8.0893015768e+00	-7.0710678119e+00	 8.1434289485e-01
-7.6685730420e+00	-6.4735625818e+00	 7.5383313324e-01
-7.7283235650e+00	-6.5333131048e+00	 8.4452544076e-01
-7.7880740880e+00	-6.5930636278e+00	 9.1453621715e-01
-7.8478246110e+00	-6.6528141508e+00	 9.6386603257e-01
-7.9075751340e+00	-6.7125646738e+00	 9.9251545721e-01
-7.9673256570e+00	-6.7723151968e+00	 1.0004850613e+00
-8.0270761800e+00	-6.8320657199e+00	 9.8777541492e-01
-8.0868267030e+00	-6.8918162429e+00	 9.5438708838e-01
-8.1465772260e+00	-6.9515667659e+00	 9.0032065185e-01
-8.2063277490e+00	-7.0113172889e+00	 8.2557667552e-01
-8.2660782721e+00	-7.0710678119e+00	 7.3015572960e-01
-7.7640324575e+00	-6.3781031663e+00	 6.9247682896e-01
-7.8333289220e+00	-6.4473996309e+00	 7.7529510244e-01
-7.9026253866e+00	-6.5166960954e+00	 8.3880319612e-01
-7.9719218511e+00	-6.5859925600e+00	 8.8300199945e-01
-8.0412183156e+00	-6.6552890246e+00	 9.0789240190e-01
-8.1105147802e+00	-6.7245854891e+00	 9.1347529293e-01
-8.1798112448e+00	-6.7938819537e+00	 8.9975156201e-01
-8.2491077093e+00	-6.8631784182e+00	 8.6672209861e-01
-8.3184041739e+00	-6.9324748828e+00	 8.1438779223e-01
-8.3877006384e+00	-7.0017713473e+00	 7.4274953236e-01
-8.4569971030e+00	-7.0710678119e+00	 6.5180820850e-01
-7.8665629407e+00	-6.2755726831e+00	 6.4327170280e-01
-7.9461124536e+00	-6.3551221959e+00	 7.1811943381e-01
-8.0256619665e+00	-6.4346717088e+00	 7.7489676469e-01
-8.1052114793e+00	-6.5142212217e+00	 8.1360504097e-01
-8.1847609922e+00	-6.5937707346e+00	 8.3424560823e-01
-8.2643105051e+00	-6.6733202475e+00	 8.3681981205e-01
-8.3438600180e+00	-6.7528697604e+00	 8.2132899801e-01
-8.4234095309e+00	-6.8324192732e+00	 7.8777451174e-01
-8.5029590437e+00	-6.9119687861e+00	 7.3615769884e-01
-8.5825085566e+00	-6.9915182990e+00	 6.6647990496e-01
-8.6620580695e+00	-7.0710678119e+00	 5.7874247572e-01
-7.9761644918e+00	-6.1659711320e+00	 6.0303704023e-01
-8.0666741598e+00	-6.2564808000e+00	 6.6999498813e-01
-8.1571838278e+00	-6.3469904680e+00	 7.2000874358e-01
-8.2476934958e+00	-6.4375001359e+00	 7.5308028846e-01
-8.3382031637e+00	-6.5280098039e+00	 7.6921160464e-01
-8.4287128317e+00	-6.6185194719e+00	 7.6840467405e-01
-8.5192224997e+00	-6.7090291399e+00	 7.5066147860e-01
-8.6097321677e+00	-6.7995388079e+00	 7.1598400025e-01
-8.7002418357e+00	-6.8900484759e+00	 6.6437422098e-01
-8.7907515037e+00	-6.9805581439e+00	 5.9583412279e-01
-8.8812611717e+00	-7.0710678119e+00	 5.1761753556e-01
-8.0928371107e+00	-6.0492985131e+00	 5.6952834784e-01
-8.1950140406e+00	-6.1514754429e+00	 6.2877330094e-01
-8.2971909704e+00	-6.2536523728e+00	 6.7210246089e-01
-8.3993679003e+00	-6.3558293027e+00	 6.9951867903e-01
-8.5015448302e+00	-6.4580062326e+00	 7.1102480674e-01
-8.6037217601e+00	-6.5601831625e+00	 7.0662369541e-01
-8.7058986899e+00	-6.6623600924e+00	 6.8631819650e-01
-8.8080756198e+00	-6.7645370222e+00	 6.5011116148e-01
-8.9102525497e+00	-6.8667139521e+00	 6.0894381145e-01
-9.0124294796e+00	-6.9688908820e+00	 5.5379640821e-01
-9.1146064095e+00	-7.0710678119e+00	 4.8266579586e-01
-8.2165807974e+00	-5.9255548264e+00	 5.4112747865e-01
-8.3311320959e+00	-6.0401061249e+00	 5.9288359009e-01
-8.4456833945e+00	-6.1546574235e+00	 6.2966820744e-01
-8.5602346930e+00	-6.2692087220e+00	 6.5148534849e-01
-8.6747859916e+00	-6.3837600206e+00	 6.5833903115e-01
-8.7893372901e+00	-6.4983113191e+00	 6.5023327335e-01
-8.9038885887e+00	-6.6128626177e+00	 6.3733249495e-01
-9.0184398872e+00	-6.7274139162e+00	 6.1378698167e-01
-9.1329911858e+00	-6.8419652148e+00	 5.7520319011e-01
-9.2475424843e+00	-6.9565165133e+00	 5.2156481483e-01
-9.3620937829e+00	-7.0710678119e+00	 4.5285555039e-01
-8.3473955519e+00	-5.7947400718e+00	 5.1664530304e-01
-8.4750283259e+00	-5.9223728458e+00	 5.6115468207e-01
-8.6026610999e+00	-6.0500056198e+00	 5.9156468364e-01
-8.7302938739e+00	-6.1776383939e+00	 6.0788086523e-01
-8.8579266479e+00	-6.3052711679e+00	 6.1444716346e-01
-8.9855594219e+00	-6.4329039419e+00	 6.1877417249e-01
-9.1131921959e+00	-6.5605367159e+00	 6.0894938517e-01
-9.2408249699e+00	-6.6881694899e+00	 5.8495024792e-01
-9.3684577439e+00	-6.8158022639e+00	 5.4675420713e-01
-9.4960905179e+00	-6.9434350379e+00	 4.9433870914e-01
-9.6237232919e+00	-7.0710678119e+00	 4.2768120024e-01
-8.4852813742e+00	-5.6568542495e+00	 4.9519261902e-01
-8.6267027304e+00	-5.7982756057e+00	 5.3269752561e-01
-8.7681240867e+00	-5.9396969620e+00	 5.5691339020e-01
-8.9095454429e+00	-6.0811183182e+00	 5.7873435847e-01
-9.0509667992e+00	-6.2225396745e+00	 5.9431696210e-01
-9.1923881554e+00	-6.3639610307e+00	 5.9656391408e-01
-9.3338095116e+00	-6.5053823869e+00	 5.8544453332e-01
-9.4752308679e+00	-6.6468037432e+00	 5.6092813865e-01
-9.6166522241e+00	-6.7882250994e+00	 5.2298404882e-01
-9.7580735804e+00	-6.9296464557e+00	 4.7158158255e-01
-9.8994949366e+00	-7.0710678119e+00	 4.0669005846e-01
-7.0710678119e+00	-7.0710678119e+00	-5.9043875425e-02
-7.0710678119e+00	-7.0710678119e+00	-5.9043875425e-02
-7.0710678119e+00	-7.0710678119e+00	-5.9043875425e-02
-7.0710678119e+00	-7.0710678119e+00	-5.9043875425e-02
-7.0710678119e+00	-7.0710678119e+00	-5.9043875425e-02
-7.0710678119e+00	-7.0710678119e+00	-5.9043875425e-02
-7.0710678119e+00	-7.0710678119e+00	-5.9043875425e-02
-7.0710678119e+00	-7.0710678119e+00	-5.9043875425e-02
-7.0710678119e+00	-7.0710678119e+00	-5.9043875425e-02
-7.0710678119e+00	-7.0710678119e+00	-5.9043875425e-02
-7.0710678119e+00	-7.0710678119e+00	-5.9043875425e-02
-7.0781388797e+00	-7.0710678119e+00	 9.9590562635e+00
-7.0777853263e+00	-7.0714213653e+00	 1.0622335838e+01
-7.0774317729e+00	-7.0717749187e+00	 1.0889123011e+01
-7.0770782195e+00	-7.0721284721e+00	 1.0759417782e+01
-7.0767246661e+00	-7.0724820255e+00	 1.0233220151e+01
-7.0763711128e+00	-7.0728355789e+00	 9.3105301191e+00
-7.0760175594e+00	-7.0731891322e+00	 7.9913476848e+00
-7.0756640060e+00	-7.0735426856e+00	 6.2756728488e+00
-7.0753104526e+00	-7.0738962390e+00	 4.1635056110e+00
-7.0749568992e+00	-7.0742497924e+00	 1.6548459713e+00
-7.0746033458e+00	-7.0746033458e+00	-1.2503060703e+00
-7.0993520831e+00	-7.0710678119e+00	 4.9075798301e+00
-7.0979378696e+00	-7.0724820255e+00	 5.2535442840e+00
-7.0965236560e+00	-7.0738962390e+00	 5.4001351597e+00
-7.0951094425e+00	-7.0753104526e+00	 5.3473524572e+00
-7.0936952289e+00	-7.0767246661e+00	 5.0951961765e+00
-7.0922810153e+00	-7.0781388797e+00	 4.6436663177e+00
-7.0908668018e+00	-7.0795530933e+00	 3.9927628807e+00
-7.0894525882e+00	-7.0809673068e+00	 3.1424858656e+00
-7.0880383746e+00	-7.0823815204e+00	 2.0928352723e+00
-7.0866241611e+00	-7.0837957340e+00	 8.4381110085e-01
-7.0852099475e+00	-7.0852099475e+00	-6.0458664877e-01
-7.1347074222e+00	-7.0710678119e+00	 3.2641423121e+00
-7.1315254417e+00	-7.0742497924e+00	 3.4944157424e+00
-7.1283434612e+00	-7.0774317729e+00	 3.5919493408e+00
-7.1251614807e+00	-7.0806137534e+00	 3.5567431074e+00
-7.1219795001e+00	-7.0837957340e+00	 3.3887970421e+00
-7.1187975196e+00	-7.0869777145e+00	 3.0881111451e+00
-7.1156155391e+00	-7.0901596950e+00	 2.6546854166e+00
-7.1124335586e+00	-7.0933416755e+00	 2.0885198564e+00
-7.1092515781e+00	-7.0965236560e+00	 1.3896144648e+00
-7.1060695976e+00	-7.0997056365e+00	 5.5796924182e-01
-7.1028876171e+00	-7.1028876171e+00	-4.0641581251e-01
-7.1842048969e+00	-7.0710678119e+00	 2.4485079451e+00
-7.1785480426e+00	-7.0767246661e+00	 2.6191386051e+00
-7.1728911884e+00	-7.0823815204e+00	 2.6905202708e+00
-7.1672343341e+00	-7.0880383746e+00	 2.6626529429e+00
-7.1615774799e+00	-7.0936952289e+00	 2.5355366218e+00
-7.1559206256e+00	-7.0993520831e+00	 2.3091713078e+00
-7.1502637714e+00	-7.1050089374e+00	 1.9835570015e+00
-7.1446069171e+00	-7.1106657916e+00	 1.5586937033e+00
-7.1389500629e+00	-7.1163226459e+00	 1.0345814136e+00
-7.1332932086e+00	-7.1219795001e+00	 4.1122013294e-01
-7.1276363544e+00	-7.1276363544e+00	-3.1139013829e-01
-7.2478445072e+00	-7.0710678119e+00	 1.9597428902e+00
-7.2390056724e+00	-7.0799066467e+00	 2.0940691392e+00
-7.2301668377e+00	-7.0887454814e+00	 2.1492966663e+00
-7.2213280029e+00	-7.0975843162e+00	 2.1254254732e+00
-7.2124891681e+00	-7.1064231510e+00	 2.0224555617e+00
-7.2036503334e+00	-7.1152619857e+00	 1.8403869335e+00
-7.1948114986e+00	-7.1241008205e+00	 1.5792195903e+00
-7.1859726638e+00	-7.1329396553e+00	 1.2389535338e+00
-7.1771338291e+00	-7.1417784900e+00	 8.1958876587e-01
-7.1682949943e+00	-7.1506173248e+00	 3.2112528808e-01
-7.1594561595e+00	-7.1594561595e+00	-2.5643689780e-01
-7.3256262531e+00	-7.0710678119e+00	 1.6329697461e+00
-7.3128983311e+00	-7.0837957340e+00	 1.7429275998e+00
-7.3001704090e+00	-7.0965236560e+00	 1.7872436196e+00
-7.2874424869e+00	-7.1092515781e+00	 1.7659178106e+00
-7.2747145649e+00	-7.1219795001e+00	 1.6789501779e+00
-7.2619866428e+00	-7.1347074222e+00	 1.5263407267e+00
-7.2492587208e+00	-7.1474353443e+00	 1.3080894622e+00
-7.2365307987e+00	-7.1601632663e+00	 1.0241963895e+00
-7.2238028766e+00	-7.1728911884e+00	 6.7466151370e-01
-7.2110749546e+00	-7.1856191105e+00	 2.5948484003e-01
-7.1983470325e+00	-7.1983470325e+00	-2.2133362639e-01
-7.4175501347e+00	-7.0710678119e+00	 1.3980425804e+00
-7.4002260185e+00	-7.0883919280e+00	 1.4905593641e+00
-7.3829019024e+00	-7.1057160442e+00	 1.5270579883e+00
-7.3655777862e+00	-7.1230401603e+00	 1.5075384662e+00
-7.3482536701e+00	-7.1403642765e+00	 1.4320008105e+00
-7.3309295540e+00	-7.1576883926e+00	 1.3004450344e+00
-7.3136054378e+00	-7.1750125087e+00	 1.1128711509e+00
-7.2962813217e+00	-7.1923366249e+00	 8.6927917285e-01
-7.2789572056e+00	-7.2096607410e+00	 5.6966911335e-01
-7.2616330894e+00	-7.2269848572e+00	 2.1404098538e-01
-7.2443089733e+00	-7.2443089733e+00	-1.9760519807e-01
-7.5236161518e+00	-7.0710678119e+00	 1.2200589799e+00
-7.5009887348e+00	-7.0936952289e+00	 1.2995179190e+00
-7.4783613178e+00	-7.1163226459e+00	 1.3301829856e+00
-7.4557339008e+00	-7.1389500629e+00	 1.3120542088e+00
-7.4331064838e+00	-7.1615774799e+00	 1.2451316175e+00
-7.4104790669e+00	-7.1842048969e+00	 1.1294152407e+00
-7.3878516499e+00	-7.2068323139e+00	 9.6490510730e-01
-7.3652242329e+00	-7.2294597309e+00	 7.5160124630e-01
-7.3425968159e+00	-7.2520871479e+00	 4.8950368665e-01
-7.3199693989e+00	-7.2747145649e+00	 1.7861245730e-01
-7.2973419819e+00	-7.2973419819e+00	-1.8107241280e-01
-7.6438243046e+00	-7.0710678119e+00	 1.0796973105e+00
-7.6151864800e+00	-7.0997056365e+00	 1.1490528303e+00
-7.5865486554e+00	-7.1283434612e+00	 1.1752374223e+00
-7.5579108307e+00	-7.1569812858e+00	 1.1582511451e+00
-7.5292730061e+00	-7.1856191105e+00	 1.0980940574e+00
-7.5006351814e+00	-7.2142569351e+00	 9.9476621792e-01
-7.4719973568e+00	-7.2428947597e+00	 8.4826768539e-01
-7.4433595322e+00	-7.2715325844e+00	 6.5859851851e-01
-7.4147217075e+00	-7.3001704090e+00	 4.2575877598e-01
-7.3860838829e+00	-7.3288082336e+00	 1.4974851650e-01
-7.3574460583e+00	-7.3574460583e+00	-1.6943220122e-01
-7.7781745931e+00	-7.0710678119e+00	 9.6539659610e-01
-7.7428192540e+00	-7.1064231510e+00	 1.0267392310e+00
-7.7074639149e+00	-7.1417784900e+00	 1.0494120184e+00
-7.6721085759e+00	-7.1771338291e+00	 1.0334150688e+00
-7.6367532368e+00	-7.2124891681e+00	 9.7874849255e-01
-7.6013978978e+00	-7.2478445072e+00	 8.8541240016e-01
-7.5660425587e+00	-7.2831998463e+00	 7.5340690212e-01
-7.5306872197e+00	-7.3185551853e+00	 5.8273210887e-01
-7.4953318806e+00	-7.3539105244e+00	 3.7338813089e-01
-7.4599765416e+00	-7.3892658634e+00	 1.2537507864e-01
-7.4246212025e+00	-7.4246212025e+00	-1.6130693742e-01
-7.7781745931e+00	-7.0710678119e+00	 9.6539659610e-01
-7.7428192540e+00	-7.1064231510e+00	 1.0267392310e+00
-7.7074639149e+00	-7.1417784900e+00	 1.0494120184e+00
-7.6721085759e+00	-7.1771338291e+00	 1.0334150688e+00
-7.6367532368e+00	-7.2124891681e+00	 9.7874849255e-01
-7.6013978978e+00	-7.2478445072e+00	 8.8541240016e-01
-7.5660425587e+00	-7.2831998463e+00	 7.5340690212e-01
-7.5306872197e+00	-7.3185551853e+00	 5.8273210887e-01
-7.4953318806e+00	-7.3539105244e+00	 3.7338813089e-01
-7.4599765416e+00	-7.3892658634e+00	 1.2537507864e-01
-7.4246212025e+00	-7.4246212025e+00	-1.6130693742e-01
-7.9266670171e+00	-7.0710678119e+00	 8.4888274975e-01
-7.8838870568e+00	-7.1138477722e+00	 9.0740325311e-01
-7.8411070966e+00	-7.1566277324e+00	 9.3089693551e-01
-7.7983271363e+00	-7.1994076927e+00	 9.1936399264e-01
-7.7555471761e+00	-7.2421876530e+00	 8.7280462018e-01
-7.7127672158e+00	-7.2849676132e+00	 7.9121901385e-01
-7.6699872555e+00	-7.3277475735e+00	 6.7460736933e-01
-7.6272072953e+00	-7.3705275337e+00	 5.2296988232e-01
-7.5844273350e+00	-7.4133074940e+00	 3.3630674852e-01
-7.5416473748e+00	-7.4560874543e+00	 1.1461816362e-01
-7.4988674145e+00	-7.4988674145e+00	-1.4209567667e-01
-8.0893015768e+00	-7.0710678119e+00	 7.5352017927e-01
-8.0383898885e+00	-7.1219795001e+00	 8.0956071784e-01
-7.9874782003e+00	-7.1728911884e+00	 8.3362582980e-01
-7.9365665120e+00	-7.2238028766e+00	 8.2571584498e-01
-7.8856548238e+00	-7.2747145649e+00	 7.8583109324e-01
-7.8347431355e+00	-7.3256262531e+00	 7.1397190442e-01
-7.7838314473e+00	-7.3765379414e+00	 6.1013860836e-01
-7.7329197591e+00	-7.4274496296e+00	 4.7433153491e-01
-7.6820080708e+00	-7.4783613179e+00	 3.0655101391e-01
-7.6310963826e+00	-7.5292730061e+00	 1.0679737523e-01
-7.5801846944e+00	-7.5801846944e+00	-1.2492905129e-01
-8.2660782721e+00	-7.0710678119e+00	 6.7343228753e-01
-8.2063277490e+00	-7.1308183349e+00	 7.2731580401e-01
-8.1465772260e+00	-7.1905688579e+00	 7.5181687174e-01
-8.0868267030e+00	-7.2503193809e+00	 7.4693602390e-01
-8.0270761800e+00	-7.3100699039e+00	 7.1267379368e-01
-7.9673256570e+00	-7.3698204270e+00	 6.4903071426e-01
-7.9075751340e+00	-7.4295709500e+00	 5.5600731884e-01
-7.8478246110e+00	-7.4893214730e+00	 4.3360414060e-01
-7.7880740880e+00	-7.5490719960e+00	 2.8182171274e-01
-7.7283235650e+00	-7.6088225190e+00	 1.0066056846e-01
-7.6685730420e+00	-7.6685730420e+00	-1.0987875903e-01
-8.4569971030e+00	-7.0710678119e+00	 6.0464251746e-01
-8.3877006384e+00	-7.1403642765e+00	 6.5666625896e-01
-8.3184041739e+00	-7.2096607410e+00	 6.8153803341e-01
-8.2491077093e+00	-7.2789572056e+00	 6.7925867253e-01
-8.1798112448e+00	-7.3482536701e+00	 6.4982900804e-01
-8.1105147802e+00	-7.4175501347e+00	 5.9324987169e-01
-8.0412183156e+00	-7.4868465992e+00	 5.0952209520e-01
-7.9719218511e+00	-7.5561430638e+00	 3.9864651032e-01
-7.9026253866e+00	-7.6254395284e+00	 2.6062394882e-01
-7.8333289220e+00	-7.6947359929e+00	 9.5455242444e-02
-7.7640324575e+00	-7.7640324575e+00	-9.6858777036e-02
-8.6620580695e+00	-7.0710678119e+00	 5.4437308798e-01
-8.5825085566e+00	-7.1506173248e+00	 5.9480851082e-01
-8.5029590437e+00	-7.2301668377e+00	 6.2003070952e-01
-8.4234095309e+00	-7.3097163506e+00	 6.2004094231e-01
-8.3438600180e+00	-7.3892658634e+00	 5.9484046738e-01
-8.2643105051e+00	-7.4688153763e+00	 5.4443054298e-01
-8.1847609922e+00	-7.5483648892e+00	 4.6881242734e-01
-8.1052114793e+00	-7.6279144021e+00	 3.6798737871e-01
-8.0256619665e+00	-7.7074639150e+00	 2.4195665537e-01
-7.9461124536e+00	-7.7870134278e+00	 9.0721515585e-02
-7.8665629407e+00	-7.8665629407e+00	-8.5716782350e-02
-8.8812611717e+00	-7.0710678119e+00	 4.9788248827e-01
-8.7907515037e+00	-7.1615774799e+00	 5.3972591518e-01
-8.7002418357e+00	-7.2520871479e+00	 5.6530823540e-01
-8.6097321677e+00	-7.3425968159e+00	 5.6737945425e-01
-8.5192224997e+00	-7.4331064839e+00	 5.4594142492e-01
-8.4287128317e+00	-7.5236161519e+00	 5.0099600065e-01
-8.3382031637e+00	-7.6141258198e+00	 4.3254503467e-01
-8.2476934958e+00	-7.7046354878e+00	 3.4059038026e-01
-8.1571838278e+00	-7.7951451558e+00	 2.2513389070e-01
-8.0666741598e+00	-7.8856548238e+00	 8.6177419306e-02
-7.9761644918e+00	-7.9761644918e+00	-7.6277180600e-02
-9.1146064095e+00	-7.0710678119e+00	 4.7850781995e-01
-9.0124294796e+00	-7.1732447418e+00	 5.1363898443e-01
-8.9102525497e+00	-7.2754216717e+00	 5.2676842601e-01
-8.8080756198e+00	-7.3775986015e+00	 5.1987325656e-01
-8.7058986899e+00	-7.4797755314e+00	 5.0183357522e-01
-8.6037217601e+00	-7.5819524613e+00	 4.6179151734e-01
-8.5015448302e+00	-7.6841293912e+00	 3.9974974919e-01
-8.3993679003e+00	-7.7863063211e+00	 3.1571093707e-01
-8.2971909704e+00	-7.8884832509e+00	 2.0967774730e-01
-8.1950140406e+00	-7.9906601808e+00	 8.1652846248e-02
-8.0928371107e+00	-8.0928371107e+00	-6.8361099677e-02
-9.3620937829e+00	-7.0710678119e+00	 4.6464085584e-01
-9.2475424843e+00	-7.1856191105e+00	 4.9734861886e-01
-9.1329911858e+00	-7.3001704090e+00	 5.0939636670e-01
-9.0184398872e+00	-7.4147217076e+00	 5.0079236923e-01
-8.9038885887e+00	-7.5292730061e+00	 4.7154489647e-01
-8.7893372901e+00	-7.6438243047e+00	 4.2595674363e-01
-8.6747859916e+00	-7.7583756032e+00	 3.6970892215e-01
-8.5602346930e+00	-7.8729269017e+00	 2.9280606455e-01
-8.4456833945e+00	-7.9874782003e+00	 1.9525192796e-01
-8.3311320959e+00	-8.1020294988e+00	 7.7050269531e-02
-8.2165807974e+00	-8.2165807974e+00	-6.1795153525e-02
-9.6237232919e+00	-7.0710678119e+00	 4.5540449636e-01
-9.4960905179e+00	-7.1987005859e+00	 4.8579434316e-01
-9.3684577439e+00	-7.3263333599e+00	 4.9672674388e-01
-9.2408249699e+00	-7.4539661339e+00	 4.8821313739e-01
-9.1131921959e+00	-7.5815989079e+00	 4.6026496275e-01
-8.9855594219e+00	-7.7092316819e+00	 4.1289365930e-01
-8.8579266479e+00	-7.8368644559e+00	 3.4611066659e-01
-8.7302938739e+00	-7.9644972299e+00	 2.7147581898e-01
-8.6026610999e+00	-8.0921300039e+00	 1.8161931065e-01
-8.4750283259e+00	-8.2197627779e+00	 7.2320747758e-02
-8.3473955519e+00	-8.3473955519e+00	-5.6414672719e-02
-9.8994949366e+00	-7.0710678119e+00	 4.5010845288e-01
-9.7580735804e+00	-7.2124891681e+00	 4.7827036078e-01
-9.6166522241e+00	-7.3539105244e+00	 4.8805848492e-01
-9.4752308679e+00	-7.4953318806e+00	 4.7948838627e-01
-9.3338095116e+00	-7.6367532368e+00	 4.5257562618e-01
-9.1923881554e+00	-7.7781745931e+00	 4.0733576632e-01
-9.0509667992e+00	-7.9195959493e+00	 3.4378436877e-01
-8.9095454429e+00	-8.0610173055e+00	 2.6193699593e-01
-8.7681240867e+00	-8.2024386618e+00	 1.6861414146e-01
-8.6267027304e+00	-8.3438600180e+00	 6.7448943159e-02
-8.4852813742e+00	-8.4852813742e+00	-5.2064225286e-02
-5.6568542495e+00	-5.6568542495e+00	 5.0989740899e-01
-5.7982756057e+00	-5.5154328933e+00	 5.0140544222e-01
-5.9396969620e+00	-5.3740115370e+00	 4.8388412367e-01
-6.0811183182e+00	-5.2325901808e+00	 4.5732638347e-01
-6.2225396745e+00	-5.0911688245e+00	 4.2172515190e-01
-6.3639610307e+00	-4.9497474683e+00	 3.7707335937e-01
-6.5053823869e+00	-4.8083261121e+00	 3.2336393638e-01
-6.6468037432e+00	-4.6669047558e+00	 2.6058981361e-01
-6.7882250994e+00	-4.5254833996e+00	 1.8874392183e-01
-6.9296464557e+00	-4.3840620433e+00	 1.0781919194e-01
-7.0710678119e+00	-4.2426406871e+00	 1.7808554991e-02
-5.3740115370e+00	-5.3740115370e+00	 4.8271687305e-01
-5.5154328933e+00	-5.2325901808e+00	 4.7403399148e-01
-5.6568542495e+00	-5.0911688245e+00	 4.5715194655e-01
-5.7982756057e+00	-4.9497474683e+00	 4.3206366840e-01
-5.9396969620e+00	-4.8083261121e+00	 3.9876208728e-01
-6.0811183182e+00	-4.6669047558e+00	 3.5724013360e-01
-6.2225396745e+00	-4.5254833996e+00	 3.0749073788e-01
-6.3639610307e+00	-4.3840620433e+00	 2.4950683077e-01
-6.5053823869e+00	-4.2426406871e+00	 1.8328134305e-01
-6.6468037432e+00	-4.1012193309e+00	 1.0880720562e-01
-6.7882250994e+00	-3.9597979746e+00	 2.6077349526e-02
-5.0911688245e+00	-5.0911688245e+00	 4.5459467802e-01
-5.2325901808e+00	-4.9497474683e+00	 4.4584548609e-01
-5.3740115370e+00	-4.8083261121e+00	 4.2972731904e-01
-5.5154328933e+00	-4.6669047558e+00	 4.0623310701e-01
-5.6568542495e+00	-4.5254833996e+00	 3.7535578025e-01
-5.7982756057e+00	-4.3840620433e+00	 3.3708826916e-01
-5.9396969620e+00	-4.2426406871e+00	 2.9142350426e-01
-6.0811183182e+00	-4.1012193309e+00	 2.3835441620e-01
-6.2225396745e+00	-3.9597979746e+00	 1.7787393575e-01
-6.3639610307e+00	-3.8183766184e+00	 1.0997499383e-01
-6.5053823869e+00	-3.6769552621e+00	 3.4650521446e-02
-4.8083261121e+00	-4.8083261121e+00	 4.2547035706e-01
-4.9497474683e+00	-4.6669047558e+00	 4.1677945922e-01
-5.0911688245e+00	-4.5254833996e+00	 4.0154977432e-01
-5.2325901808e+00	-4.3840620433e+00	 3.7977423249e-01
-5.3740115370e+00	-4.2426406871e+00	 3.5144576401e-01
-5.5154328933e+00	-4.1012193309e+00	 3.1655729926e-01
-5.6568542495e+00	-3.9597979746e+00	 2.7510176875e-01
-5.7982756057e+00	-3.8183766184e+00	 2.2707210314e-01
-5.9396969620e+00	-3.6769552621e+00	 1.7246123319e-01
-6.0811183182e+00	-3.5355339059e+00	 1.1126209251e-01
-6.2225396745e+00	-3.3941125497e+00	 4.2281857257e-02
-4.5254833996e+00	-4.5254833996e+00	 3.9528344548e-01
-4.6669047558e+00	-4.3840620433e+00	 3.8677544617e-01
-4.8083261121e+00	-4.2426406871e+00	 3.7255884770e-01
-4.9497474683e+00	-4.1012193309e+00	 3.5262658019e-01
-5.0911688245e+00	-3.9597979746e+00	 3.2697157391e-01
-5.2325901808e+00	-3.8183766184e+00	 2.9558675925e-01
-5.3740115370e+00	-3.6769552621e+00	 2.5846506673e-01
-5.5154328933e+00	-3.5355339059e+00	 2.1559942969e-01
-5.6568542495e+00	-3.3941125497e+00	 1.6578334116e-01
-5.7982756057e+00	-3.2526911934e+00	 1.0819913406e-01
-5.9396969620e+00	-3.1112698372e+00	 4.4752537161e-02
-4.2426406871e+00	-4.2426406871e+00	 3.6397348070e-01
-4.3840620434e+00	-4.1012193309e+00	 3.5577298439e-01
-4.5254833996e+00	-3.9597979746e+00	 3.4269407663e-01
-4.6669047558e+00	-3.8183766184e+00	 3.2472968756e-01
-4.8083261121e+00	-3.6769552622e+00	 3.0187274743e-01
-4.9497474683e+00	-3.5355339059e+00	 2.7411618935e-01
-5.0911688245e+00	-3.3941125497e+00	 2.4024054461e-01
-5.2325901808e+00	-3.2526911934e+00	 1.9940228361e-01
-5.3740115370e+00	-3.1112698372e+00	 1.5352001135e-01
-5.5154328933e+00	-2.9698484810e+00	 1.0260576729e-01
-5.6568542495e+00	-2.8284271247e+00	 4.6671590945e-02
-3.9597979746e+00	-3.9597979746e+00	 3.3148000228e-01
-4.1012193309e+00	-3.8183766184e+00	 3.2371161344e-01
-4.2426406871e+00	-3.6769552622e+00	 3.1189500070e-01
-4.3840620434e+00	-3.5355339059e+00	 2.9602309689e-01
-4.5254833996e+00	-3.3941125497e+00	 2.7486419299e-01
-4.6669047558e+00	-3.2526911934e+00	 2.4754933736e-01
-4.8083261121e+00	-3.1112698372e+00	 2.1600884900e-01
-4.9497474683e+00	-2.9698484810e+00	 1.8025476738e-01
-5.0911688245e+00	-2.8284271247e+00	 1.4029913201e-01
-5.2325901808e+00	-2.6870057685e+00	 9.6153982361e-02
-5.3740115370e+00	-2.5455844122e+00	 4.7831357935e-02
-3.6769552622e+00	-3.6769552622e+00	 2.9774255193e-01
-3.8183766184e+00	-3.5355339059e+00	 2.9053087769e-01
-3.9597979746e+00	-3.3941125497e+00	 2.7886501170e-01
-4.1012193309e+00	-3.2526911934e+00	 2.6185102071e-01
-4.2426406871e+00	-3.1112698372e+00	 2.4142977551e-01
-4.3840620434e+00	-2.9698484810e+00	 2.1761331560e-01
-4.5254833996e+00	-2.8284271247e+00	 1.9041368046e-01
-4.6669047558e+00	-2.6870057685e+00	 1.5984290959e-01
-4.8083261121e+00	-2.5455844122e+00	 1.2591304247e-01
-4.9497474683e+00	-2.4041630560e+00	 8.8636118593e-02
-5.0911688245e+00	-2.2627416998e+00	 4.8024177453e-02
-3.3941125497e+00	-3.3941125497e+00	 2.6145372612e-01
-3.5355339059e+00	-3.2526911935e+00	 2.5151805903e-01
-3.6769552622e+00	-3.1112698372e+00	 2.3899351627e-01
-3.8183766184e+00	-2.9698484810e+00	 2.2389213732e-01
-3.9597979746e+00	-2.8284271247e+00	 2.0622596169e-01
-4.1012193309e+00	-2.6870057685e+00	 1.8600702886e-01
-4.2426406871e+00	-2.5455844123e+00	 1.6324737831e-01
-4.3840620434e+00	-2.4041630560e+00	 1.3795904955e-01
-4.5254833996e+00	-2.2627416998e+00	 1.1015408205e-01
-4.6669047558e+00	-2.1213203435e+00	 7.9844515312e-02
-4.8083261121e+00	-1.9798989873e+00	 4.7042388823e-02
-3.1112698372e+00	-3.1112698372e+00	 2.1791079666e-01
-3.2526911935e+00	-2.9698484810e+00	 2.0830195796e-01
-3.3941125497e+00	-2.8284271247e+00	 1.9694670109e-01
-3.5355339059e+00	-2.6870057685e+00	 1.8385706557e-01
-3.6769552622e+00	-2.5455844123e+00	 1.6904509086e-01
-3.8183766184e+00	-2.4041630560e+00	 1.5252281647e-01
-3.9597979746e+00	-2.2627416998e+00	 1.3430228188e-01
-4.1012193309e+00	-2.1213203435e+00	 1.1439552659e-01
-4.2426406871e+00	-1.9798989873e+00	 9.2814590078e-02
-4.3840620433e+00	-1.8384776311e+00	 6.9571511841e-02
-4.5254833996e+00	-1.6970562748e+00	 4.4678331369e-02
-2.8284271248e+00	-2.8284271248e+00	 1.6446509597e-01
-2.9698484810e+00	-2.6870057685e+00	 1.6260374510e-01
-3.1112698372e+00	-2.5455844123e+00	 1.5251690550e-01
-3.2526911935e+00	-2.4041630560e+00	 1.4153814475e-01
-3.3941125497e+00	-2.2627416998e+00	 1.2967950234e-01
-3.5355339059e+00	-2.1213203435e+00	 1.1695301776e-01
-3.6769552622e+00	-1.9798989873e+00	 1.0337073049e-01
-3.8183766184e+00	-1.8384776311e+00	 8.8944680034e-02
-3.9597979746e+00	-1.6970562748e+00	 7.3686905876e-02
-4.1012193309e+00	-1.5556349186e+00	 5.7609447506e-02
-4.2426406871e+00	-1.4142135624e+00	 4.0724344414e-02
-2.8284271248e+00	-2.8284271248e+00	 1.6446509597e-01
-2.9698484810e+00	-2.6870057685e+00	 1.6260374510e-01
-3.1112698372e+00	-2.5455844123e+00	 1.5251690550e-01
-3.2526911935e+00	-2.4041630560e+00	 1.4153814475e-01
-3.3941125497e+00	-2.2627416998e+00	 1.2967950234e-01
-3.5355339059e+00	-2.1213203435e+00	 1.1695301776e-01
-3.6769552622e+00	-1.9798989873e+00	 1.0337073049e-01
-3.8183766184e+00	-1.8384776311e+00	 8.8944680034e-02
-3.9597979746e+00	-1.6970562748e+00	 7.3686905876e-02
-4.1012193309e+00	-1.5556349186e+00	 5.7609447506e-02
-4.2426406871e+00	-1.4142135624e+00	 4.0724344414e-02
-2.5455844123e+00	-2.5455844123e+00	 1.4847120206e-01
-2.6870057685e+00	-2.4041630560e+00	 1.4731318815e-01
-2.8284271248e+00	-2.2627416998e+00	 1.4507996879e-01
-2.9698484810e+00	-2.1213203436e+00	 1.4005874226e-01
-3.1112698372e+00	-1.9798989873e+00	 1.2747879484e-01
-3.2526911935e+00	-1.8384776311e+00	 1.1412946354e-01
-3.3941125497e+00	-1.6970562748e+00	 1.0002278785e-01
-3.5355339059e+00	-1.5556349186e+00	 8.5170807255e-02
-3.6769552622e+00	-1.4142135624e+00	 6.9585561249e-02
-3.8183766184e+00	-1.2727922061e+00	 5.3279089322e-02
-3.9597979746e+00	-1.1313708499e+00	 3.6263430963e-02
-2.2627416998e+00	-2.2627416998e+00	 1.3238841606e-01
-2.4041630560e+00	-2.1213203436e+00	 1.3002889117e-01
-2.5455844123e+00	-1.9798989873e+00	 1.2667531408e-01
-2.6870057685e+00	-1.8384776311e+00	 1.2232768478e-01
-2.8284271248e+00	-1.6970562748e+00	 1.1698600327e-01
-2.9698484810e+00	-1.5556349186e+00	 1.0910233559e-01
-3.1112698372e+00	-1.4142135624e+00	 9.4407318374e-02
-3.2526911935e+00	-1.2727922061e+00	 7.9065454541e-02
-3.3941125497e+00	-1.1313708499e+00	 6.3088783587e-02
-3.5355339059e+00	-9.8994949365e-01	 4.6489345001e-02
-3.6769552621e+00	-8.4852813741e-01	 2.9279178274e-02
-1.9798989873e+00	-1.9798989873e+00	 1.1621673797e-01
-2.1213203436e+00	-1.8384776311e+00	 1.1260780166e-01
-2.2627416998e+00	-1.6970562749e+00	 1.0808596638e-01
-2.4041630560e+00	-1.5556349186e+00	 1.0265123213e-01
-2.5455844123e+00	-1.4142135624e+00	 9.6303598896e-02
-2.6870057685e+00	-1.2727922061e+00	 8.9043066691e-02
-2.8284271248e+00	-1.1313708499e+00	 8.0869635512e-02
-2.9698484810e+00	-9.8994949366e-01	 7.0420961215e-02
-3.1112698372e+00	-8.4852813742e-01	 5.3988912212e-02
-3.2526911934e+00	-7.0710678118e-01	 3.7032553867e-02
-3.3941125497e+00	-5.6568542494e-01	 1.9563925671e-02
-1.6970562749e+00	-1.6970562749e+00	 9.9956167785e-02
-1.8384776311e+00	-1.5556349186e+00	 9.5049919611e-02
-1.9798989873e+00	-1.4142135624e+00	 8.9311925697e-02
-2.1213203436e+00	-1.2727922061e+00	 8.2742186041e-02
-2.2627416998e+00	-1.1313708499e+00	 7.5340700644e-02
-2.4041630560e+00	-9.8994949366e-01	 6.7107469506e-02
-2.5455844123e+00	-8.4852813742e-01	 5.8042492627e-02
-2.6870057685e+00	-7.0710678118e-01	 4.8145770007e-02
-2.8284271247e+00	-5.6568542494e-01	 3.7417301647e-02
-2.9698484810e+00	-4.2426406870e-01	 2.4701055242e-02
-3.1112698372e+00	-2.8284271246e-01	 6.9100124758e-03
-1.4142135624e+00	-1.4142135624e+00	 8.3606705512e-02
-1.5556349186e+00	-1.2727922061e+00	 7.7355245023e-02
-1.6970562749e+00	-1.1313708499e+00	 7.0353192026e-02
-1.8384776311e+00	-9.8994949367e-01	 6.2600546522e-02
-1.9798989873e+00	-8.4852813743e-01	 5.4097308510e-02
-2.1213203436e+00	-7.0710678119e-01	 4.4843477991e-02
-2.2627416998e+00	-5.6568542495e-01	 3.4839054965e-02
-2.4041630560e+00	-4.2426406871e-01	 2.4084039432e-02
-2.5455844123e+00	-2.8284271247e-01	 1.2578431391e-02
-2.6870057685e+00	-1.4142135623e-01	 3.2223084388e-04
-2.8284271247e+00	 1.2501222280e-11	-1.2684562211e-02
-1.1313708499e+00	-1.1313708499e+00	 6.7168351149e-02
-1.2727922062e+00	-9.8994949367e-01	 5.9523777896e-02
-1.4142135624e+00	-8.4852813743e-01	 5.1209765369e-02
-1.5556349186e+00	-7.0710678119e-01	 4.2226313569e-02
-1.6970562749e+00	-5.6568542495e-01	 3.2573422495e-02
-1.8384776311e+00	-4.2426406871e-01	 2.2251092147e-02
-1.9798989873e+00	-2.8284271247e-01	 1.1259322526e-02
-2.1213203436e+00	-1.4142135623e-01	-4.0188636855e-04
-2.2627416998e+00	 8.0014328496e-12	-1.2732534537e-02
-2.4041630560e+00	 1.4142135625e-01	-2.5732621978e-02
-2.5455844123e+00	 2.8284271249e-01	-3.9402148693e-02
-8.4852813744e-01	-8.4852813744e-01	 5.0641104695e-02
-9.8994949368e-01	-7.0710678120e-01	 4.1555518231e-02
-1.1313708499e+00	-5.6568542496e-01	 3.1881645726e-02
-1.2727922062e+00	-4.2426406872e-01	 2.1619487182e-02
-1.4142135624e+00	-2.8284271248e-01	 1.0769042598e-02
-1.5556349186e+00	-1.4142135624e-01	-6.6968802644e-04
-1.6970562749e+00	 4.5017600758e-12	-1.2696704690e-02
-1.8384776311e+00	 1.4142135624e-01	-2.5312007394e-02
-1.9798989873e+00	 2.8284271248e-01	-3.8515596137e-02
-2.1213203436e+00	 4.2426406872e-01	-5.2307470920e-02
-2.2627416998e+00	 5.6568542496e-01	-6.6687631743e-02
-5.6568542496e-01	-5.6568542496e-01	 3.4024966150e-02
-7.0710678120e-01	-4.2426406872e-01	 2.3450466027e-02
-8.4852813744e-01	-2.8284271248e-01	 1.2368833097e-02
-9.8994949367e-01	-1.4142135624e-01	 7.8006736070e-04
-1.1313708499e+00	 2.0019819136e-12	-1.1315831181e-02
-1.2727922061e+00	 1.4142135624e-01	-2.3918862530e-02
-1.4142135624e+00	 2.8284271248e-01	-3.7029026684e-02
-1.5556349186e+00	 4.2426406872e-01	-5.0646323645e-02
-1.6970562749e+00	 5.6568542496e-01	-6.4770753411e-02
-1.8384776311e+00	 7.0710678120e-01	-7.9402315984e-02
-1.9798989873e+00	 8.4852813744e-01	-9.4541011362e-02
-2.8284271248e-01	-2.8284271248e-01	 1.7319935514e-02
-4.2426406872e-01	-1.4142135624e-01	 5.2086212838e-03
-5.6568542496e-01	 5.0225101855e-13	-7.3286725193e-03
-7.0710678120e-01	 1.4142135624e-01	-2.0291945895e-02
-8.4852813744e-01	 2.8284271248e-01	-3.3681198843e-02
-9.8994949367e-01	 4.2426406872e-01	-4.7496431363e-02
-1.1313708499e+00	 5.6568542496e-01	-6.1737643456e-02
-1.2727922062e+00	 7.0710678120e-01	-7.6404835121e-02
-1.4142135624e+00	 8.4852813744e-01	-9.1498006358e-02
-1.5556349186e+00	 9.8994949368e-01	-1.0701715717e-01
-1.6970562749e+00	 1.1313708499e+00	-1.2296228755e-01
 0.0000000000e+00	 0.0000000000e+00	 5.2601278739e-04
-1.4142135624e-01	 1.4142135624e-01	-1.3170015998e-02
-2.8284271248e-01	 2.8284271248e-01	-2.7210871122e-02
-4.2426406872e-01	 4.2426406872e-01	-4.1596552585e-02
-5.6568542496e-01	 5.6568542496e-01	-5.6327060386e-02
-7.0710678120e-01	 7.0710678120e-01	-7.1402394526e-02
-8.4852813744e-01	 8.4852813744e-01	-8.6822555005e-02
-9.8994949368e-01	 9.8994949368e-01	-1.0258754182e-01
-1.1313708499e+00	 1.1313708499e+00	-1.1869735498e-01
-1.2727922062e+00	 1.2727922062e+00	-1.3515199447e-01
-1.4142135624e+00	 1.4142135624e+00	-1.5195146031e-01
-1.4142135624e+01	-1.4142135624e+01	 3.9725701593e-03
-1.4283556980e+01	-1.4000714267e+01	 7.0304638708e-03
-1.4424978336e+01	-1.3859292911e+01	 9.8065321144e-03
-1.4566399692e+01	-1.3717871555e+01	 1.2309227804e-02
-1.4707821049e+01	-1.3576450199e+01	 1.4558405119e-02
-1.4849242405e+01	-1.3435028843e+01	 1.7238497407e-02
-1.4990663761e+01	-1.3293607486e+01	 1.9398434735e-02
-1.5132085117e+01	-1.3152186130e+01	 2.1031897002e-02
-1.5273506474e+01	-1.3010764774e+01	 2.2132564014e-02
-1.5414927830e+01	-1.2869343418e+01	 2.2694115484e-02
-1.5556349186e+01	-1.2727922061e+01	 2.2710231032e-02
-1.3859292911e+01	-1.3859292911e+01	 9.9880190391e-03
-1.4000714267e+01	-1.3717871555e+01	 1.4280284775e-02
-1.4142135624e+01	-1.3576450199e+01	 1.8357305524e-02
-1.4283556980e+01	-1.3435028843e+01	 2.2227534162e-02
-1.4424978336e+01	-1.3293607486e+01	 2.5899423443e-02
-1.4566399692e+01	-1.3152186130e+01	 2.9381426000e-02
-1.4707821049e+01	-1.3010764774e+01	 3.2682686976e-02
-1.4849242405e+01	-1.2869343418e+01	 3.5702340203e-02
-1.4990663761e+01	-1.2727922061e+01	 3.8234916144e-02
-1.5132085117e+01	-1.2586500705e+01	 4.0274094483e-02
-1.5273506474e+01	-1.2445079349e+01	 4.1813554811e-02
-1.3576450199e+01	-1.3576450199e+01	 1.4091116898e-02
-1.3717871555e+01	-1.3435028843e+01	 1.9475181594e-02
-1.3859292911e+01	-1.3293607486e+01	 2.4710581998e-02
-1.4000714267e+01	-1.3152186130e+01	 2.9805770948e-02
-1.4142135624e+01	-1.3010764774e+01	 3.4769201159e-02
-1.4283556980e+01	-1.2869343418e+01	 3.9609325227e-02
-1.4424978336e+01	-1.2727922061e+01	 4.4334595623e-02
-1.4566399692e+01	-1.2586500705e+01	 4.8953464696e-02
-1.4707821049e+01	-1.2445079349e+01	 5.3462684521e-02
-1.4849242405e+01	-1.2303657993e+01	 5.6856612641e-02
-1.4990663761e+01	-1.2162236636e+01	 5.9796540824e-02
-1.3293607486e+01	-1.3293607486e+01	 1.6140818312e-02
-1.3435028843e+01	-1.3152186130e+01	 2.2474109056e-02
-1.3576450199e+01	-1.3010764774e+01	 2.8725316414e-02
-1.3717871555e+01	-1.2869343418e+01	 3.4902893188e-02
-1.3859292911e+01	-1.2727922061e+01	 4.1015292056e-02
-1.4000714267e+01	-1.2586500705e+01	 4.7070965575e-02
-1.4142135624e+01	-1.2445079349e+01	 5.3078366179e-02
-1.4283556980e+01	-1.2303657993e+01	 5.9045946180e-02
-1.4424978336e+01	-1.2162236636e+01	 6.4982157767e-02
-1.4566399692e+01	-1.2020815280e+01	 7.0895453008e-02
-1.4707821049e+01	-1.1879393924e+01	 7.6768506867e-02
-1.3010764774e+01	-1.3010764774e+01	 1.5996074699e-02
-1.3152186130e+01	-1.2869343418e+01	 2.3136018727e-02
-1.3293607486e+01	-1.2727922061e+01	 3.0260460489e-02
-1.3435028843e+01	-1.2586500705e+01	 3.7377852750e-02
-1.3576450199e+01	-1.2445079349e+01	 4.4496648151e-02
-1.3717871555e+01	-1.2303657993e+01	 5.1625299211e-02
-1.3859292911e+01	-1.2162236636e+01	 5.8772258326e-02
-1.4000714267e+01	-1.2020815280e+01	 6.5945977771e-02
-1.4142135624e+01	-1.1879393924e+01	 7.3154909697e-02
-1.4283556980e+01	-1.1737972568e+01	 8.0407506134e-02
-1.4424978336e+01	-1.1596551211e+01	 8.7712218990e-02
-1.2727922061e+01	-1.2727922061e+01	 1.3515834319e-02
-1.2869343418e+01	-1.2586500705e+01	 2.1319859017e-02
-1.3010764774e+01	-1.2445079349e+01	 2.9174962784e-02
-1.3152186130e+01	-1.2303657993e+01	 3.7089598345e-02
-1.3293607486e+01	-1.2162236636e+01	 4.5072218305e-02
-1.3435028843e+01	-1.2020815280e+01	 5.3131275145e-02
-1.3576450199e+01	-1.1879393924e+01	 6.1275221224e-02
-1.3717871555e+01	-1.1737972568e+01	 6.9512508778e-02
-1.3859292911e+01	-1.1596551211e+01	 7.7851589923e-02
-1.4000714267e+01	-1.1455129855e+01	 8.6300916649e-02
-1.4142135624e+01	-1.1313708499e+01	 9.4868940827e-02
-1.2445079349e+01	-1.2445079349e+01	 8.5590422697e-03
-1.2586500705e+01	-1.2303657993e+01	 1.6884575176e-02
-1.2727922061e+01	-1.2162236636e+01	 2.5327768697e-02
-1.2869343418e+01	-1.2020815280e+01	 3.3897075523e-02
-1.3010764774e+01	-1.1879393924e+01	 4.2600948218e-02
-1.3152186130e+01	-1.1737972568e+01	 5.1447839228e-02
-1.3293607486e+01	-1.1596551211e+01	 6.0446200873e-02
-1.3435028843e+01	-1.1455129855e+01	 6.9604485354e-02
-1.3576450199e+01	-1.1313708499e+01	 7.8931144745e-02
-1.3717871555e+01	-1.1172287143e+01	 8.8434631003e-02
-1.3859292911e+01	-1.1030865787e+01	 9.8123395959e-02
-1.2162236636e+01	-1.2162236636e+01	 9.8464049274e-04
-1.2303657993e+01	-1.2020815280e+01	 9.6891092939e-03
-1.2445079349e+01	-1.1879393924e+01	 1.8577820470e-02
-1.2586500705e+01	-1.1737972568e+01	 2.7659226673e-02
-1.2727922061e+01	-1.1596551211e+01	 3.6941780431e-02
-1.2869343418e+01	-1.1455129855e+01	 4.6433934151e-02
-1.3010764774e+01	-1.1313708499e+01	 5.6144140116e-02
-1.3152186130e+01	-1.1172287143e+01	 6.6080850488e-02
-1.3293607486e+01	-1.1030865787e+01	 7.6252517307e-02
-1.3435028843e+01	-1.0889444430e+01	 8.6667592489e-02
-1.3576450199e+01	-1.0748023074e+01	 9.7334527830e-02
-1.1879393924e+01	-1.1879393924e+01	-9.3484322313e-03
-1.2020815280e+01	-1.1737972568e+01	-4.0759969789e-04
-1.2162236636e+01	-1.1596551211e+01	 8.7840571840e-03
-1.2303657993e+01	-1.1455129855e+01	 1.8234991028e-02
-1.2445079349e+01	-1.1313708499e+01	 2.7953654325e-02
-1.2586500705e+01	-1.1172287143e+01	 3.7948499445e-02
-1.2727922061e+01	-1.1030865787e+01	 4.8227978633e-02
-1.2869343418e+01	-1.0889444430e+01	 5.8800544015e-02
-1.3010764774e+01	-1.0748023074e+01	 6.9674647590e-02
-1.3152186130e+01	-1.0606601718e+01	 8.0858741240e-02
-1.3293607486e+01	-1.0465180362e+01	 9.2361276720e-02
-1.1596551211e+01	-1.1596551211e+01	-2.2581240281e-02
-1.1737972568e+01	-1.1455129855e+01	-1.3546616028e-02
-1.1879393924e+01	-1.1313708499e+01	-4.1945852395e-03
-1.2020815280e+01	-1.1172287143e+01	 5.4833046598e-03
-1.2162236636e+01	-1.1030865787e+01	 1.5495506124e-02
-1.2303657993e+01	-1.0889444430e+01	 2.5850471484e-02
-1.2445079349e+01	-1.0748023074e+01	 3.6556652949e-02
-1.2586500705e+01	-1.0606601718e+01	 4.7622502606e-02
-1.2727922061e+01	-1.0465180362e+01	 5.9056472418e-02
-1.2869343418e+01	-1.0323759005e+01	 7.0784241260e-02
-1.3010764774e+01	-1.0182337649e+01	 8.2312721478e-02
-1.1313708499e+01	-1.1313708499e+01	-3.8854851195e-02
-1.1455129855e+01	-1.1172287143e+01	-2.9869007084e-02
-1.1596551211e+01	-1.1030865787e+01	-2.0499174038e-02
-1.1737972568e+01	-1.0889444430e+01	-1.0736899519e-02
-1.1879393924e+01	-1.0748023074e+01	-5.7373111109e-04
-1.2020815280e+01	-1.0606601718e+01	 9.9987834802e-03
-1.2162236636e+01	-1.0465180362e+01	 2.0989096426e-02
-1.2303657993e+01	-1.0323759005e+01	 3.2324535908e-02
-1.2445079349e+01	-1.0182337649e+01	 4.3529117112e-02
-1.2586500705e+01	-1.0040916293e+01	 5.5004435798e-02
-1.2727922061e+01	-9.8994949366e+00	 6.6734927626e-02
-1.1313708499e+01	-1.1313708499e+01	-3.8854851195e-02
-1.1455129855e+01	-1.1172287143e+01	-2.9869007084e-02
-1.1596551211e+01	-1.1030865787e+01	-2.0499174038e-02
-1.1737972568e+01	-1.0889444430e+01	-1.0736899519e-02
-1.1879393924e+01	-1.0748023074e+01	-5.7373111109e-04
-1.2020815280e+01	-1.0606601718e+01	 9.9987834802e-03
-1.2162236636e+01	-1.0465180362e+01	 2.0989096426e-02
-1.2303657993e+01	-1.0323759005e+01	 3.2324535908e-02
-1.2445079349e+01	-1.0182337649e+01	 4.3529117112e-02
-1.2586500705e+01	-1.0040916293e+01	 5.5004435798e-02
-1.2727922061e+01	-9.8994949366e+00	 6.6734927626e-02
-1.1030865787e+01	-1.1030865787e+01	-2.2018623821e-02
-1.1172287143e+01	-1.0889444430e+01	-7.7312732594e-03
-1.1313708499e+01	-1.0748023074e+01	 5.8472614145e-03
-1.1455129855e+01	-1.0606601718e+01	 1.8725432701e-02
-1.1596551211e+01	-1.0465180362e+01	 3.0911692980e-02
-1.1737972568e+01	-1.0323759005e+01	 4.2344444145e-02
-1.1879393924e+01	-1.0182337649e+01	 5.2610753781e-02
-1.2020815280e+01	-1.0040916293e+01	 6.2053914988e-02
-1.2162236636e+01	-9.8994949366e+00	 7.0658363039e-02
-1.2303657993e+01	-9.7580735804e+00	 7.8408533570e-02
-1.2445079349e+01	-9.6166522241e+00	 8.5288862576e-02
-1.0748023074e+01	-1.0748023074e+01	-1.1036766115e-02
-1.0889444430e+01	-1.0606601718e+01	 9.4895964006e-03
-1.1030865787e+01	-1.0465180362e+01	 2.8214338419e-02
-1.1172287143e+01	-1.0323759005e+01	 4.5096360185e-02
-1.1313708499e+01	-1.0182337649e+01	 5.9831732365e-02
-1.1455129855e+01	-1.0040916293e+01	 7.2650070107e-02
-1.1596551211e+01	-9.8994949366e+00	 8.3535808298e-02
-1.1737972568e+01	-9.7580735804e+00	 9.2473382185e-02
-1.1879393924e+01	-9.6166522241e+00	 9.9447227379e-02
-1.2020815280e+01	-9.4752308679e+00	 1.0444177985e-01
-1.2162236636e+01	-9.3338095116e+00	 1.0744147593e-01
-1.0465180362e+01	-1.0465180362e+01	-6.0503550933e-03
-1.0606601718e+01	-1.0323759005e+01	 2.1632895823e-02
-1.0748023074e+01	-1.0182337649e+01	 4.6244665647e-02
-1.0889444430e+01	-1.0040916293e+01	 6.7845514927e-02
-1.1030865787e+01	-9.8994949366e+00	 8.6419878163e-02
-1.1172287143e+01	-9.7580735804e+00	 1.0195219021e-01
-1.1313708499e+01	-9.6166522241e+00	 1.1442688630e-01
-1.1455129855e+01	-9.4752308679e+00	 1.2382840202e-01
-1.1596551211e+01	-9.3338095116e+00	 1.3014117330e-01
-1.1737972568e+01	-9.1923881554e+00	 1.3334963646e-01
-1.1879393924e+01	-9.0509667992e+00	 1.3343822817e-01
-1.0182337649e+01	-1.0182337649e+01	-7.0978335909e-03
-1.0323759005e+01	-1.0040916293e+01	 2.8692863220e-02
-1.0465180362e+01	-9.8994949366e+00	 6.0363187394e-02
-1.0606601718e+01	-9.7580735804e+00	 8.7897573405e-02
-1.0748023074e+01	-9.6166522241e+00	 1.1128045609e-01
-1.0889444430e+01	-9.4752308679e+00	 1.3049627064e-01
-1.1030865787e+01	-9.3338095117e+00	 1.4552945263e-01
-1.1172287143e+01	-9.1923881554e+00	 1.5636443797e-01
-1.1313708499e+01	-9.0509667992e+00	 1.6298566294e-01
-1.1455129855e+01	-8.9095454429e+00	 1.6537756419e-01
-1.1596551211e+01	-8.7681240867e+00	 1.6352457873e-01
-9.8994949366e+00	-9.8994949366e+00	-1.3581649252e-02
-1.0040916293e+01	-9.7580735804e+00	 3.1362147504e-02
-1.0182337649e+01	-9.6166522241e+00	 7.1060553469e-02
-1.0323759005e+01	-9.4752308679e+00	 1.0549800345e-01
-1.0465180362e+01	-9.3338095117e+00	 1.3465893263e-01
-1.0606601718e+01	-9.1923881554e+00	 1.5852777654e-01
-1.0748023074e+01	-9.0509667992e+00	 1.7708897107e-01
-1.0889444430e+01	-8.9095454429e+00	 1.9032695248e-01
-1.1030865787e+01	-8.7681240867e+00	 1.9822615740e-01
-1.1172287143e+01	-8.6267027305e+00	 2.0077102279e-01
-1.1313708499e+01	-8.4852813742e+00	 1.9794598602e-01
-9.6166522241e+00	-9.6166522241e+00	-2.5180204824e-02
-9.7580735804e+00	-9.4752308679e+00	 2.9886218171e-02
-9.8994949366e+00	-9.3338095117e+00	 7.8582232023e-02
-1.0040916293e+01	-9.1923881554e+00	 1.2089227188e-01
-1.0182337649e+01	-9.0509667992e+00	 1.5680077325e-01
-1.0323759005e+01	-8.9095454429e+00	 1.8629217201e-01
-1.0465180362e+01	-8.7681240867e+00	 2.0935090438e-01
-1.0606601718e+01	-8.6267027305e+00	 2.2596140697e-01
-1.0748023074e+01	-8.4852813742e+00	 2.3610811673e-01
-1.0889444430e+01	-8.3438600180e+00	 2.3977547099e-01
-1.1030865787e+01	-8.2024386618e+00	 2.3694790741e-01
-9.3338095116e+00	-9.3338095116e+00	-4.1648030495e-02
-9.4752308679e+00	-9.1923881554e+00	 2.4510543683e-02
-9.6166522241e+00	-9.0509667992e+00	 8.3173690168e-02
-9.7580735804e+00	-8.9095454429e+00	 1.3432584445e-01
-9.8994949366e+00	-8.7681240867e+00	 1.7795144236e-01
-1.0040916293e+01	-8.6267027305e+00	 2.1403492012e-01
-1.0182337649e+01	-8.4852813742e+00	 2.4256071430e-01
-1.0323759005e+01	-8.3438600180e+00	 2.6351326182e-01
-1.0465180362e+01	-8.2024386618e+00	 2.7687699999e-01
-1.0606601718e+01	-8.0610173055e+00	 2.8263636645e-01
-1.0748023074e+01	-7.9195959493e+00	 2.8077579924e-01
-9.0509667992e+00	-9.0509667992e+00	-6.2739657493e-02
-9.1923881554e+00	-8.9095454429e+00	 1.5480591468e-02
-9.3338095116e+00	-8.7681240867e+00	 8.5080393987e-02
-9.4752308679e+00	-8.6267027305e+00	 1.4604418589e-01
-9.6166522241e+00	-8.4852813742e+00	 1.9835640335e-01
-9.7580735804e+00	-8.3438600180e+00	 2.4200148292e-01
-9.8994949366e+00	-8.2024386618e+00	 2.7696386150e-01
-1.0040916293e+01	-8.0610173055e+00	 3.0322797637e-01
-1.0182337649e+01	-7.9195959493e+00	 3.2077826515e-01
-1.0323759005e+01	-7.7781745931e+00	 3.2959916584e-01
-1.0465180362e+01	-7.6367532368e+00	 3.2967511680e-01
-8.7681240867e+00	-8.7681240867e+00	-8.1592726288e-02
-8.9095454429e+00	-8.6267027305e+00	 3.0418279179e-03
-9.0509667992e+00	-8.4852813742e+00	 8.4547808524e-02
-9.1923881554e+00	-8.3438600180e+00	 1.5629275990e-01
-9.3338095116e+00	-8.2024386618e+00	 2.1826111856e-01
-9.4752308679e+00	-8.0610173055e+00	 2.7043732140e-01
-9.6166522241e+00	-7.9195959493e+00	 3.1280580565e-01
-9.7580735804e+00	-7.7781745931e+00	 3.4535100893e-01
-9.8994949366e+00	-7.6367532368e+00	 3.6805736919e-01
-1.0040916293e+01	-7.4953318806e+00	 3.8090932477e-01
-1.0182337649e+01	-7.3539105244e+00	 3.8389131436e-01
-8.4852813742e+00	-8.4852813742e+00	-7.6651326141e-02
-8.6267027304e+00	-8.3438600180e+00	 1.1472085673e-02
-8.7681240867e+00	-8.2024386618e+00	 8.8626328668e-02
-8.9095454429e+00	-8.0610173055e+00	 1.6531702915e-01
-9.0509667992e+00	-7.9195959493e+00	 2.3791104933e-01
-9.1923881554e+00	-7.7781745931e+00	 2.9958789554e-01
-9.3338095116e+00	-7.6367532368e+00	 3.5033200538e-01
-9.4752308679e+00	-7.4953318806e+00	 3.9012781677e-01
-9.6166522241e+00	-7.3539105244e+00	 4.1895976803e-01
-9.7580735804e+00	-7.2124891681e+00	 4.3681229782e-01
-9.8994949366e+00	-7.0710678119e+00	 4.4366984517e-01
-7.0710678119e+00	-4.2426406871e+00	 2.0559191788e-01
-7.7074639150e+00	-3.6062445840e+00	 1.2502247720e-01
-8.3438600180e+00	-2.9698484810e+00	 4.0615325649e-02
-8.9802561211e+00	-2.3334523779e+00	-2.4105219492e-02
-9.6166522241e+00	-1.6970562749e+00	-3.5270279187e-02
-1.0253048327e+01	-1.0606601718e+00	-4.5919345154e-02
-1.0889444430e+01	-4.2426406872e-01	-5.5832789351e-02
-1.1525840533e+01	 2.1213203434e-01	-6.4790971668e-02
-1.2162236636e+01	 8.4852813741e-01	-7.2574246640e-02
-1.2798632739e+01	 1.4849242405e+00	-7.8962963442e-02
-1.3435028843e+01	 2.1213203435e+00	-8.3737465895e-02
-6.7882250994e+00	-3.9597979746e+00	 1.6199872854e-01
-7.4246212025e+00	-3.3234018716e+00	 8.8213158197e-02
-8.0610173055e+00	-2.6870057685e+00	 9.0903034786e-03
-8.6974134086e+00	-2.0506096654e+00	-6.3833824818e-02
-9.3338095117e+00	-1.4142135624e+00	-8.0994719209e-02
-9.9702056147e+00	-7.7781745931e-01	-8.5692034497e-02
-1.0606601718e+01	-1.4142135624e-01	-9.0531368059e-02
-1.1242997821e+01	 4.9497474682e-01	-9.5293072015e-02
-1.1879393924e+01	 1.1313708499e+00	-9.9757493125e-02
-1.2515790027e+01	 1.7677669530e+00	-1.0370497279e-01
-1.3152186130e+01	 2.4041630560e+00	-1.0691584707e-01
-6.5053823869e+00	-3.6769552621e+00	 1.2467578582e-01
-7.1417784900e+00	-3.0405591591e+00	 5.3426540944e-02
-7.7781745931e+00	-2.4041630560e+00	-1.7815852055e-02
-8.4145706961e+00	-1.7677669530e+00	-8.3137604185e-02
-9.0509667992e+00	-1.1313708499e+00	-1.2099800075e-01
-9.6873629023e+00	-4.9497474683e-01	-1.2039497859e-01
-1.0323759005e+01	 1.4142135624e-01	-1.2081161742e-01
-1.0960155108e+01	 7.7781745930e-01	-1.2202826156e-01
-1.1596551211e+01	 1.4142135624e+00	-1.2382525002e-01
-1.2232947315e+01	 2.0506096654e+00	-1.2598291641e-01
-1.2869343418e+01	 2.6870057685e+00	-1.2828158903e-01
-6.2225396745e+00	-3.3941125497e+00	 9.2376876235e-02
-6.8589357775e+00	-2.7577164466e+00	 2.3760308908e-02
-7.4953318806e+00	-2.1213203435e+00	-4.0310801628e-02
-8.1317279836e+00	-1.4849242405e+00	-9.8739356849e-02
-8.7681240867e+00	-8.4852813742e-01	-1.5042825823e-01
-9.4045201898e+00	-2.1213203435e-01	-1.4988053096e-01
-1.0040916293e+01	 4.2426406871e-01	-1.4652589248e-01
-1.0677312396e+01	 1.0606601718e+00	-1.4484889690e-01
-1.1313708499e+01	 1.6970562748e+00	-1.4462987544e-01
-1.1950104602e+01	 2.3334523779e+00	-1.4564915396e-01
-1.2586500705e+01	 2.9698484810e+00	-1.4768705296e-01
-5.9396969620e+00	-3.1112698372e+00	 6.0883179983e-02
-6.5760930650e+00	-2.4748737341e+00	-9.9319858606e-04
-7.2124891681e+00	-1.8384776311e+00	-5.8602205917e-02
-7.8488852712e+00	-1.2020815280e+00	-1.1084674349e-01
-8.4852813742e+00	-5.6568542494e-01	-1.5662971277e-01
-9.1216774773e+00	 7.0710678125e-02	-1.7400104218e-01
-9.7580735804e+00	 7.0710678119e-01	-1.6752654535e-01
-1.0394469683e+01	 1.3435028843e+00	-1.6360733167e-01
-1.1030865786e+01	 1.9798989873e+00	-1.6202372458e-01
-1.1667261890e+01	 2.6162950904e+00	-1.6255604215e-01
-1.2303657993e+01	 3.2526911935e+00	-1.6498459714e-01
-5.6568542495e+00	-2.8284271247e+00	 3.4803726853e-02
-6.2932503526e+00	-2.1920310217e+00	-2.1041642215e-02
-6.9296464556e+00	-1.5556349186e+00	-7.2897725599e-02
-7.5660425587e+00	-9.1923881553e-01	-1.1966742477e-01
-8.2024386618e+00	-2.8284271246e-01	-1.6025364121e-01
-8.8388347648e+00	 3.5355339060e-01	-1.9260885987e-01
-9.4752308679e+00	 9.8994949367e-01	-1.8366592521e-01
-1.0111626971e+01	 1.6263455967e+00	-1.7815591659e-01
-1.0748023074e+01	 2.2627416998e+00	-1.7585914967e-01
-1.1384419177e+01	 2.8991378029e+00	-1.7655593478e-01
-1.2020815280e+01	 3.5355339059e+00	-1.7780593839e-01
-5.3740115370e+00	-2.5455844122e+00	 1.3930856168e-02
-6.0104076401e+00	-1.9091883092e+00	-3.6592682657e-02
-6.6468037431e+00	-1.2727922061e+00	-8.3405021350e-02
-7.2831998462e+00	-6.3639610305e-01	-1.2540906139e-01
-7.9195959493e+00	 1.0000222872e-11	-1.6150770424e-01
-8.5559920523e+00	 6.3639610307e-01	-1.9060385139e-01
-9.1923881554e+00	 1.2727922061e+00	-1.9479637830e-01
-9.8287842585e+00	 1.9091883092e+00	-1.8834699943e-01
-1.0465180362e+01	 2.5455844123e+00	-1.8598850004e-01
-1.1101576465e+01	 3.1819805153e+00	-1.8750118268e-01
-1.1737972568e+01	 3.8183766184e+00	-1.8396367546e-01
-5.0911688245e+00	-2.2627416998e+00	-1.9430927470e-03
-5.7275649276e+00	-1.6263455967e+00	-4.7853980586e-02
-6.3639610307e+00	-9.8994949364e-01	-9.0331753847e-02
-7.0003571337e+00	-3.5355339058e-01	-1.2827931401e-01
-7.6367532368e+00	 2.8284271248e-01	-1.6059956254e-01
-8.2731493399e+00	 9.1923881555e-01	-1.8619540091e-01
-8.9095454429e+00	 1.5556349186e+00	-2.0077024863e-01
-9.5459415460e+00	 2.1920310217e+00	-1.9403292502e-01
-1.0182337649e+01	 2.8284271247e+00	-1.9226412205e-01
-1.0818733752e+01	 3.4648232278e+00	-1.9486290024e-01
-1.1455129855e+01	 4.1012193309e+00	-1.8897441834e-01
-4.8083261121e+00	-1.9798989873e+00	-1.3025780570e-02
-5.4447222151e+00	-1.3435028842e+00	-5.5033196681e-02
-6.0811183182e+00	-7.0710678117e-01	-9.3885583767e-02
-6.7175144213e+00	-7.0710678108e-02	-1.2848584330e-01
-7.3539105243e+00	 5.6568542496e-01	-1.5773687676e-01
-7.9903066274e+00	 1.2020815280e+00	-1.8054158563e-01
-8.6267027305e+00	 1.8384776311e+00	-1.9580287136e-01
-9.2630988335e+00	 2.4748737342e+00	-1.9506603526e-01
-9.8994949366e+00	 3.1112698372e+00	-1.9453835912e-01
-1.0535891040e+01	 3.7476659403e+00	-1.9373996054e-01
-1.1172287143e+01	 4.3840620434e+00	-1.9309061236e-01
-4.5254833996e+00	-1.6970562748e+00	-1.9524867977e-02
-5.1618795026e+00	-1.0606601718e+00	-5.8337991617e-02
-5.7982756057e+00	-4.2426406870e-01	-9.4274171785e-02
-6.4346717088e+00	 2.1213203436e-01	-1.2623630996e-01
-7.0710678119e+00	 8.4852813743e-01	-1.5312730761e-01
-7.7074639149e+00	 1.4849242405e+00	-1.7385006621e-01
-8.3438600180e+00	 2.1213203436e+00	-1.8730748724e-01
-8.9802561211e+00	 2.7577164466e+00	-1.9129867470e-01
-9.6166522241e+00	 3.3941125497e+00	-1.9266355175e-01
-1.0253048327e+01	 4.0305086528e+00	-1.9128427396e-01
-1.0889444430e+01	 4.6669047558e+00	-1.9656471540e-01
-4.2426406871e+00	-1.4142135624e+00	-2.1648015645e-02
-4.8790367902e+00	-7.7781745929e-01	-5.7976026071e-02
-5.5154328932e+00	-1.4142135623e-01	-9.1705178580e-02
-6.1518289963e+00	 4.9497474683e-01	-1.2173837464e-01
-6.7882250994e+00	 1.1313708499e+00	-1.4697851574e-01
-7.4246212024e+00	 1.7677669530e+00	-1.6632850334e-01
-8.0610173055e+00	 2.4041630560e+00	-1.7869123893e-01
-8.6974134086e+00	 3.0405591591e+00	-1.8296962397e-01
-9.3338095117e+00	 3.6769552622e+00	-1.8364178759e-01
-9.9702056147e+00	 4.3133513652e+00	-1.8774830823e-01
-1.0606601718e+01	 4.9497474683e+00	-1.9964919786e-01
-1.3435028843e+01	 2.1213203435e+00	-8.3737465895e-02
-1.4071424946e+01	 2.7577164466e+00	-8.3582864772e-02
-1.4707821049e+01	 3.3941125497e+00	-8.6233364564e-02
-1.5344217152e+01	 4.0305086528e+00	-8.6826067328e-02
-1.5980613255e+01	 4.6669047558e+00	-8.8421858154e-02
-1.6617009358e+01	 5.3033008589e+00	-9.1134828881e-02
-1.7253405461e+01	 5.9396969620e+00	-9.4067662154e-02
-1.7889801564e+01	 6.5760930650e+00	-9.6322939419e-02
-1.8526197667e+01	 7.2124891681e+00	-9.7003140912e-02
-1.9162593770e+01	 7.8488852711e+00	-9.5210645646e-02
-1.9798989873e+01	 8.4852813742e+00	-9.0047731397e-02
-1.3152186130e+01	 2.4041630560e+00	-1.0691584707e-01
-1.3788582233e+01	 3.0405591591e+00	-1.0553214700e-01
-1.4424978336e+01	 3.6769552622e+00	-1.0272527161e-01
-1.5061374439e+01	 4.3133513652e+00	-9.8549619946e-02
-1.5697770542e+01	 4.9497474683e+00	-9.8050636777e-02
-1.6334166645e+01	 5.5861435714e+00	-9.8784199599e-02
-1.6970562748e+01	 6.2225396744e+00	-9.9852989149e-02
-1.7606958852e+01	 6.8589357775e+00	-1.0035958496e-01
-1.8243354955e+01	 7.4953318806e+00	-9.9406465366e-02
-1.8879751058e+01	 8.1317279836e+00	-9.6096007460e-02
-1.9516147161e+01	 8.7681240867e+00	-8.9530487110e-02
-1.2869343418e+01	 2.6870057685e+00	-1.2828158903e-01
-1.3505739521e+01	 3.3234018716e+00	-1.2559844628e-01
-1.4142135624e+01	 3.9597979746e+00	-1.1575418702e-01
-1.4778531727e+01	 4.5961940777e+00	-1.1023033020e-01
-1.5414927830e+01	 5.2325901808e+00	-1.0761082005e-01
-1.6051323933e+01	 5.8689862838e+00	-1.0633922596e-01
-1.6687720036e+01	 6.5053823869e+00	-1.0551822677e-01
-1.7324116139e+01	 7.1417784900e+00	-1.0425040009e-01
-1.7960512242e+01	 7.7781745930e+00	-1.0163822235e-01
-1.8596908345e+01	 8.4145706961e+00	-9.6784068726e-02
-1.9233304448e+01	 9.0509667992e+00	-8.8790213186e-02
-1.2586500705e+01	 2.9698484810e+00	-1.4768705296e-01
-1.3222896808e+01	 3.6062445841e+00	-1.3977328830e-01
-1.3859292911e+01	 4.2426406871e+00	-1.2656414966e-01
-1.4495689014e+01	 4.8790367902e+00	-1.2059768297e-01
-1.5132085117e+01	 5.5154328933e+00	-1.1710451260e-01
-1.5768481220e+01	 6.1518289963e+00	-1.1380201298e-01
-1.6404877324e+01	 6.7882250994e+00	-1.1106548039e-01
-1.7041273427e+01	 7.4246212025e+00	-1.0799749056e-01
-1.7677669530e+01	 8.0610173055e+00	-1.0370051799e-01
-1.8314065633e+01	 8.6974134086e+00	-9.7276935961e-02
-1.8950461736e+01	 9.3338095116e+00	-8.7829016517e-02
-1.2303657993e+01	 3.2526911935e+00	-1.6498459714e-01
-1.2940054096e+01	 3.8890872965e+00	-1.4895301311e-01
-1.3576450199e+01	 4.5254833996e+00	-1.3540756010e-01
-1.4212846302e+01	 5.1618795027e+00	-1.2879773771e-01
-1.4849242405e+01	 5.7982756057e+00	-1.2653381829e-01
-1.5485638508e+01	 6.4346717088e+00	-1.2117466488e-01
-1.6122034611e+01	 7.0710678119e+00	-1.1649685463e-01
-1.6758430714e+01	 7.7074639149e+00	-1.1160296137e-01
-1.7394826817e+01	 8.3438600180e+00	-1.0559545767e-01
-1.8031222920e+01	 8.9802561211e+00	-9.7576714908e-02
-1.8667619023e+01	 9.6166522241e+00	-8.6649003223e-02
-1.2020815280e+01	 3.5355339059e+00	-1.7780593839e-01
-1.2657211383e+01	 4.1719300090e+00	-1.5644975079e-01
-1.3293607486e+01	 4.8083261121e+00	-1.4253683142e-01
-1.3930003589e+01	 5.4447222151e+00	-1.3525248919e-01
-1.4566399692e+01	 6.0811183182e+00	-1.3378208088e-01
-1.5202795796e+01	 6.7175144213e+00	-1.2845928513e-01
-1.5839191899e+01	 7.3539105243e+00	-1.2181445334e-01
-1.6475588002e+01	 7.9903066274e+00	-1.1506891672e-01
-1.7111984105e+01	 8.6267027305e+00	-1.0732514597e-01
-1.7748380208e+01	 9.2630988335e+00	-9.7685510538e-02
-1.8384776311e+01	 9.8994949366e+00	-8.5252278654e-02
-1.1737972568e+01	 3.8183766184e+00	-1.8396367546e-01
-1.2374368671e+01	 4.4547727215e+00	-1.6251592430e-01
-1.3010764774e+01	 5.0911688246e+00	-1.4820438925e-01
-1.3647160877e+01	 5.7275649276e+00	-1.4021436570e-01
-1.4283556980e+01	 6.3639610307e+00	-1.3773119692e-01
-1.4919953083e+01	 7.0003571338e+00	-1.3565797643e-01
-1.5556349186e+01	 7.6367532368e+00	-1.2702037957e-01
-1.6192745289e+01	 8.2731493399e+00	-1.1839746008e-01
-1.6829141392e+01	 8.9095454430e+00	-1.0889168672e-01
-1.7465537495e+01	 9.5459415460e+00	-9.7605427053e-02
-1.8101933598e+01	 1.0182337649e+01	-8.3640947389e-02
-1.1455129855e+01	 4.1012193309e+00	-1.8897441834e-01
-1.2091525958e+01	 4.7376154340e+00	-1.6740396911e-01
-1.2727922061e+01	 5.3740115370e+00	-1.5266267174e-01
-1.3364318164e+01	 6.0104076401e+00	-1.4393580807e-01
-1.4000714267e+01	 6.6468037432e+00	-1.4040870786e-01
-1.4637110371e+01	 7.2831998462e+00	-1.4126674876e-01
-1.5273506474e+01	 7.9195959493e+00	-1.3211673563e-01
-1.5909902577e+01	 8.5559920524e+00	-1.2159069411e-01
-1.6546298680e+01	 9.1923881554e+00	-1.1029718298e-01
-1.7182694783e+01	 9.8287842585e+00	-9.7338567883e-02
-1.7819090886e+01	 1.0465180362e+01	-8.2704169515e-02
-1.1172287143e+01	 4.3840620434e+00	-1.9309061236e-01
-1.1808683246e+01	 5.0204581464e+00	-1.7136633325e-01
-1.2445079349e+01	 5.6568542495e+00	-1.5616412958e-01
-1.3081475452e+01	 6.2932503526e+00	-1.4666926966e-01
-1.3717871555e+01	 6.9296464556e+00	-1.4206706974e-01
-1.4354267658e+01	 7.5660425587e+00	-1.4154289394e-01
-1.4990663761e+01	 8.2024386618e+00	-1.3710562305e-01
-1.5627059864e+01	 8.8388347648e+00	-1.2465072071e-01
-1.6263455967e+01	 9.4752308679e+00	-1.1154373701e-01
-1.6899852070e+01	 1.0111626971e+01	-9.6887035686e-02
-1.7536248173e+01	 1.0748023074e+01	-8.3002074460e-02
-1.0889444430e+01	 4.6669047558e+00	-1.9656471540e-01
-1.1525840533e+01	 5.3033008589e+00	-1.7465547725e-01
-1.2162236636e+01	 5.9396969620e+00	-1.5896122597e-01
-1.2798632739e+01	 6.5760930650e+00	-1.4866721635e-01
-1.3435028843e+01	 7.2124891681e+00	-1.4295875111e-01
-1.4071424946e+01	 7.8488852712e+00	-1.4102118086e-01
-1.4707821049e+01	 8.4852813742e+00	-1.4198914258e-01
-1.5344217152e+01	 9.1216774773e+00	-1.2757964103e-01
-1.5980613255e+01	 9.7580735804e+00	-1.1263345034e-01
-1.6617009358e+01	 1.0394469683e+01	-9.6819716613e-02
-1.7253405461e+01	 1.1030865787e+01	-8.3441088423e-02
-1.0606601718e+01	 4.9497474683e+00	-1.9964919786e-01
-1.1242997821e+01	 5.5861435714e+00	-1.7752387420e-01
-1.1879393924e+01	 6.2225396744e+00	-1.6130643668e-01
-1.2515790027e+01	 6.8589357775e+00	-1.5018212658e-01
-1.3152186130e+01	 7.4953318806e+00	-1.4333623308e-01
-1.3788582233e+01	 8.1317279837e+00	-1.3995409329e-01
-1.4424978336e+01	 8.7681240867e+00	-1.3922109218e-01
-1.5061374439e+01	 9.4045201898e+00	-1.3037955542e-01
-1.5697770542e+01	 1.0040916293e+01	-1.1356842371e-01
-1.6334166645e+01	 1.0677312396e+01	-9.9468942718e-02
-1.6970562749e+01	 1.1313708499e+01	-8.4011658726e-02
-4.2426406871e+00	-1.4142135624e+00	-2.1648015645e-02
-4.8790367902e+00	-7.7781745929e-01	-5.7976026071e-02
-5.5154328932e+00	-1.4142135623e-01	-9.1705178580e-02
-6.1518289963e+00	 4.9497474683e-01	-1.2173837464e-01
-6.7882250994e+00	 1.1313708499e+00	-1.4697851574e-01
-7.4246212024e+00	 1.7677669530e+00	-1.6632850334e-01
-8.0610173055e+00	 2.4041630560e+00	-1.7869123893e-01
-8.6974134086e+00	 3.0405591591e+00	-1.8296962397e-01
-9.3338095117e+00	 3.6769552622e+00	-1.8364178759e-01
-9.9702056147e+00	 4.3133513652e+00	-1.8774830823e-01
-1.0606601718e+01	 4.9497474683e+00	-1.9964919786e-01
-3.9597979746e+00	-1.1313708499e+00	-2.1486329269e-02
-4.5961940777e+00	-4.9497474682e-01	-5.6348839915e-02
-5.2325901808e+00	 1.4142135624e-01	-8.8817526188e-02
-5.8689862838e+00	 7.7781745931e-01	-1.1779528956e-01
-6.5053823869e+00	 1.4142135624e+00	-1.4218503151e-01
-7.1417784900e+00	 2.0506096654e+00	-1.6088965351e-01
-7.7781745930e+00	 2.6870057685e+00	-1.7281205704e-01
-8.4145706961e+00	 3.3234018716e+00	-1.7685514357e-01
-9.0509667992e+00	 3.9597979746e+00	-1.7449087145e-01
-9.6873629023e+00	 4.5961940777e+00	-1.8543202392e-01
-1.0323759005e+01	 5.2325901808e+00	-2.0429698909e-01
-3.6769552621e+00	-8.4852813741e-01	-2.4230330289e-02
-4.3133513652e+00	-2.1213203435e-01	-5.7393065727e-02
-4.9497474683e+00	 4.2426406871e-01	-8.8367010335e-02
-5.5861435714e+00	 1.0606601718e+00	-1.1605506559e-01
-6.2225396744e+00	 1.6970562748e+00	-1.3936013297e-01
-6.8589357775e+00	 2.3334523779e+00	-1.5718511394e-01
-7.4953318806e+00	 2.9698484810e+00	-1.6843290998e-01
-8.1317279836e+00	 3.6062445840e+00	-1.7148663707e-01
-8.7681240867e+00	 4.2426406871e+00	-1.6538812184e-01
-9.4045201898e+00	 4.8790367902e+00	-1.8091564714e-01
-1.0040916293e+01	 5.5154328932e+00	-2.0649189708e-01
-3.3941125497e+00	-5.6568542494e-01	-3.0087679382e-02
-4.0305086527e+00	 7.0710678125e-02	-6.1316364182e-02
-4.6669047558e+00	 7.0710678119e-01	-9.0561291697e-02
-5.3033008589e+00	 1.3435028842e+00	-1.1672536340e-01
-5.9396969620e+00	 1.9798989873e+00	-1.3871148078e-01
-6.5760930650e+00	 2.6162950904e+00	-1.5542254529e-01
-7.2124891681e+00	 3.2526911934e+00	-1.6576145842e-01
-7.8488852712e+00	 3.8890872965e+00	-1.6898094423e-01
-8.4852813742e+00	 4.5254833996e+00	-1.6565854937e-01
-9.1216774773e+00	 5.1618795026e+00	-1.7445168323e-01
-9.7580735804e+00	 5.7982756057e+00	-2.0648642985e-01
-3.1112698372e+00	-2.8284271246e-01	-3.9266037224e-02
-3.7476659403e+00	 3.5355339060e-01	-6.8326395957e-02
-4.3840620433e+00	 9.8994949366e-01	-9.5608030950e-02
-5.0204581464e+00	 1.6263455967e+00	-1.2001384368e-01
-5.6568542495e+00	 2.2627416998e+00	-1.4044673562e-01
-6.2932503526e+00	 2.8991378029e+00	-1.5580960824e-01
-6.9296464556e+00	 3.5355339059e+00	-1.6539830323e-01
-7.5660425587e+00	 4.1719300090e+00	-1.6999616487e-01
-8.2024386618e+00	 4.8083261121e+00	-1.6893357751e-01
-8.8388347648e+00	 5.4447222151e+00	-1.6629265006e-01
-9.4752308679e+00	 6.0811183182e+00	-2.0453310795e-01
-2.8284271247e+00	 1.2501222280e-11	-5.5767404715e-02
-3.4648232278e+00	 6.3639610307e-01	-7.8630821729e-02
-4.1012193309e+00	 1.2727922061e+00	-1.0371488877e-01
-4.7376154339e+00	 1.9091883092e+00	-1.2612816710e-01
-5.3740115370e+00	 2.5455844123e+00	-1.4477355817e-01
-6.0104076401e+00	 3.1819805153e+00	-1.5855396348e-01
-6.6468037432e+00	 3.8183766184e+00	-1.6898299547e-01
-7.2831998462e+00	 4.4547727215e+00	-1.7418825195e-01
-7.9195959493e+00	 5.0911688245e+00	-1.7486916387e-01
-8.5559920524e+00	 5.7275649276e+00	-1.7421268244e-01
-9.1923881554e+00	 6.3639610307e+00	-2.0088446445e-01
-2.5455844123e+00	 2.8284271249e-01	-7.9774132159e-02
-3.1819805153e+00	 9.1923881555e-01	-9.2437302175e-02
-3.8183766184e+00	 1.5556349186e+00	-1.1508952584e-01
-4.4547727215e+00	 2.1920310217e+00	-1.3527599433e-01
-5.0911688245e+00	 2.8284271247e+00	-1.5189960912e-01
-5.7275649276e+00	 3.4648232278e+00	-1.6404543245e-01
-6.3639610307e+00	 4.1012193309e+00	-1.7591683209e-01
-7.0003571338e+00	 4.7376154339e+00	-1.8121316287e-01
-7.6367532368e+00	 5.3740115370e+00	-1.8312125750e-01
-8.2731493399e+00	 6.0104076401e+00	-1.8482810944e-01
-8.9095454430e+00	 6.6468037431e+00	-1.9579304500e-01
-2.2627416998e+00	 5.6568542496e-01	-1.0473110433e-01
-2.8991378029e+00	 1.2020815280e+00	-1.1058972763e-01
-3.5355339059e+00	 1.8384776311e+00	-1.2993960283e-01
-4.1719300090e+00	 2.4748737341e+00	-1.4766498605e-01
-4.8083261121e+00	 3.1112698372e+00	-1.6203254912e-01
-5.4447222151e+00	 3.7476659403e+00	-1.7554568923e-01
-6.0811183182e+00	 4.3840620433e+00	-1.8585576824e-01
-6.7175144213e+00	 5.0204581464e+00	-1.9072684647e-01
-7.3539105243e+00	 5.6568542495e+00	-1.9334579888e-01
-7.9903066274e+00	 6.2932503525e+00	-1.9689966121e-01
-8.6267027305e+00	 6.9296464556e+00	-2.0457562996e-01
-1.9798989873e+00	 8.4852813744e-01	-1.3063832122e-01
-2.6162950904e+00	 1.4849242405e+00	-1.3441705093e-01
-3.2526911935e+00	 2.1213203436e+00	-1.4847278041e-01
-3.8890872965e+00	 2.7577164466e+00	-1.6350280294e-01
-4.5254833996e+00	 3.3941125497e+00	-1.7538003887e-01
-5.1618795027e+00	 4.0305086528e+00	-1.9022333128e-01
-5.7982756057e+00	 4.6669047558e+00	-1.9845575252e-01
-6.4346717088e+00	 5.3033008589e+00	-2.0238524299e-01
-7.0710678119e+00	 5.9396969620e+00	-2.0519871993e-01
-7.7074639149e+00	 6.5760930650e+00	-2.1008326132e-01
-8.3438600180e+00	 7.2124891681e+00	-2.2022610593e-01
-1.6970562749e+00	 1.1313708499e+00	-1.5749578284e-01
-2.3334523779e+00	 1.7677669530e+00	-1.5888810659e-01
-2.9698484810e+00	 2.4041630560e+00	-1.7089671927e-01
-3.6062445841e+00	 3.0405591591e+00	-1.8299710568e-01
-4.2426406871e+00	 3.6769552622e+00	-1.9574223149e-01
-4.8790367902e+00	 4.3133513652e+00	-2.0773430699e-01
-5.5154328933e+00	 4.9497474683e+00	-2.1337272497e-01
-6.1518289963e+00	 5.5861435714e+00	-2.1584428415e-01
-6.7882250994e+00	 6.2225396744e+00	-2.1833594400e-01
-7.4246212025e+00	 6.8589357775e+00	-2.2403482478e-01
-8.0610173055e+00	 7.4953318806e+00	-2.3612820751e-01
-1.4142135624e+00	 1.4142135624e+00	-1.8530348919e-01
-2.0506096655e+00	 2.0506096655e+00	-1.8400289461e-01
-2.6870057685e+00	 2.6870057685e+00	-1.9406040723e-01
-3.3234018716e+00	 3.3234018716e+00	-2.0635555494e-01
-3.9597979746e+00	 3.9597979746e+00	-2.1998886940e-01
-4.5961940777e+00	 4.5961940777e+00	-2.2773455619e-01
-5.2325901808e+00	 5.2325901808e+00	-2.3026261708e-01
-5.8689862838e+00	 5.8689862838e+00	-2.3075989306e-01
-6.5053823869e+00	 6.5053823869e+00	-2.3241338587e-01
-7.1417784900e+00	 7.1417784900e+00	-2.3841025801e-01
-7.7781745931e+00	 7.7781745931e+00	-2.5193783279e-01
-1.0606601718e+01	 4.9497474683e+00	-1.9964919786e-01
-1.1242997821e+01	 5.5861435714e+00	-1.7752387420e-01
-1.1879393924e+01	 6.2225396744e+00	-1.6130643668e-01
-1.2515790027e+01	 6.8589357775e+00	-1.5018212658e-01
-1.3152186130e+01	 7.4953318806e+00	-1.4333623308e-01
-1.3788582233e+01	 8.1317279837e+00	-1.3995409329e-01
-1.4424978336e+01	 8.7681240867e+00	-1.3922109218e-01
-1.5061374439e+01	 9.4045201898e+00	-1.3037955542e-01
-1.5697770542e+01	 1.0040916293e+01	-1.1356842371e-01
-1.6334166645e+01	 1.0677312396e+01	-9.9468942718e-02
-1.6970562749e+01	 1.1313708499e+01	-8.4011658726e-02
-1.0323759005e+01	 5.2325901808e+00	-2.0429698909e-01
-1.0960155108e+01	 5.8689862838e+00	-1.8210896753e-01
-1.1596551211e+01	 6.5053823869e+00	-1.6544439440e-01
-1.2232947315e+01	 7.1417784900e+00	-1.5348849747e-01
-1.2869343418e+01	 7.7781745931e+00	-1.4542655239e-01
-1.3505739521e+01	 8.4145706961e+00	-1.4044388275e-01
-1.4142135624e+01	 9.0509667992e+00	-1.3772585999e-01
-1.4778531727e+01	 9.6873629023e+00	-1.3442076843e-01
-1.5414927830e+01	 1.0323759005e+01	-1.1536219966e-01
-1.6051323933e+01	 1.0960155108e+01	-1.0296172079e-01
-1.6687720036e+01	 1.1596551211e+01	-8.4770176587e-02
-1.0040916293e+01	 5.5154328932e+00	-2.0649189708e-01
-1.0677312396e+01	 6.1518289963e+00	-1.8448006927e-01
-1.1313708499e+01	 6.7882250994e+00	-1.6760724004e-01
-1.1950104602e+01	 7.4246212025e+00	-1.5505862362e-01
-1.2586500705e+01	 8.0610173055e+00	-1.4601948216e-01
-1.3222896808e+01	 8.6974134086e+00	-1.3967512569e-01
-1.3859292911e+01	 9.3338095117e+00	-1.3521091218e-01
-1.4495689014e+01	 9.9702056147e+00	-1.3181224746e-01
-1.5132085117e+01	 1.0606601718e+01	-1.2129143530e-01
-1.5768481220e+01	 1.1242997821e+01	-1.0657301713e-01
-1.6404877324e+01	 1.1879393924e+01	-8.5773033742e-02
-9.7580735804e+00	 5.7982756057e+00	-2.0648642985e-01
-1.0394469683e+01	 6.4346717088e+00	-1.8488969011e-01
-1.1030865787e+01	 7.0710678119e+00	-1.6804748695e-01
-1.1667261890e+01	 7.7074639149e+00	-1.5514502106e-01
-1.2303657993e+01	 8.3438600180e+00	-1.4536754107e-01
-1.2940054096e+01	 8.9802561211e+00	-1.3790034351e-01
-1.3576450199e+01	 9.6166522241e+00	-1.3192877279e-01
-1.4212846302e+01	 1.0253048327e+01	-1.2663822123e-01
-1.4849242405e+01	 1.0889444430e+01	-1.2755205084e-01
-1.5485638508e+01	 1.1525840533e+01	-1.1029327996e-01
-1.6122034611e+01	 1.2162236636e+01	-8.7010679069e-02
-9.4752308679e+00	 6.0811183182e+00	-2.0453310795e-01
-1.0111626971e+01	 6.7175144213e+00	-1.8359035328e-01
-1.0748023074e+01	 7.3539105243e+00	-1.6701766102e-01
-1.1384419177e+01	 7.9903066274e+00	-1.5400021836e-01
-1.2020815280e+01	 8.6267027305e+00	-1.4372326039e-01
-1.2657211383e+01	 9.2630988335e+00	-1.3537207011e-01
-1.3293607486e+01	 9.8994949366e+00	-1.2813197840e-01
-1.3930003589e+01	 1.0535891040e+01	-1.2586640948e-01
-1.4566399692e+01	 1.1172287143e+01	-1.3002487459e-01
-1.5202795796e+01	 1.1808683246e+01	-1.1411295805e-01
-1.5839191899e+01	 1.2445079349e+01	-8.8473561966e-02
-9.1923881554e+00	 6.3639610307e+00	-2.0088446445e-01
-9.8287842585e+00	 7.0003571337e+00	-1.8083459453e-01
-1.0465180362e+01	 7.6367532368e+00	-1.6477030070e-01
-1.1101576465e+01	 8.2731493399e+00	-1.5187675663e-01
-1.1737972568e+01	 8.9095454429e+00	-1.4133918389e-01
-1.2374368671e+01	 9.5459415460e+00	-1.3234285194e-01
-1.3010764774e+01	 1.0182337649e+01	-1.2407307816e-01
-1.3647160877e+01	 1.0818733752e+01	-1.2737597799e-01
-1.4283556980e+01	 1.1455129855e+01	-1.2883464698e-01
-1.4919953083e+01	 1.2091525958e+01	-1.1802250068e-01
-1.5556349186e+01	 1.2727922061e+01	-9.0152132350e-02
-8.9095454430e+00	 6.6468037431e+00	-1.9579304500e-01
-9.5459415460e+00	 7.2831998462e+00	-1.7687496216e-01
-1.0182337649e+01	 7.9195959493e+00	-1.6155795696e-01
-1.0818733752e+01	 8.5559920523e+00	-1.4902718952e-01
-1.1455129855e+01	 9.1923881554e+00	-1.3846786788e-01
-1.2091525958e+01	 9.8287842585e+00	-1.2906524800e-01
-1.2727922061e+01	 1.0465180362e+01	-1.2349781875e-01
-1.3364318164e+01	 1.1101576465e+01	-1.2894360389e-01
-1.4000714267e+01	 1.1737972568e+01	-1.2789328786e-01
-1.4637110371e+01	 1.2374368671e+01	-1.2026136571e-01
-1.5273506474e+01	 1.3010764774e+01	-9.2036840654e-02
-8.6267027305e+00	 6.9296464556e+00	-2.0457562996e-01
-9.2630988336e+00	 7.5660425587e+00	-1.7196401702e-01
-9.8994949366e+00	 8.2024386618e+00	-1.5763319330e-01
-1.0535891040e+01	 8.8388347648e+00	-1.4570408320e-01
-1.1172287143e+01	 9.4752308679e+00	-1.3536188123e-01
-1.1808683246e+01	 1.0111626971e+01	-1.2579182981e-01
-1.2445079349e+01	 1.0748023074e+01	-1.2751099045e-01
-1.3081475452e+01	 1.1384419177e+01	-1.3052898876e-01
-1.3717871555e+01	 1.2020815280e+01	-1.2716049922e-01
-1.4354267658e+01	 1.2657211383e+01	-1.1732001469e-01
-1.4990663761e+01	 1.3293607486e+01	-9.4118137832e-02
-8.3438600180e+00	 7.2124891681e+00	-2.2022610593e-01
-8.9802561211e+00	 7.8488852712e+00	-1.6635433246e-01
-9.6166522241e+00	 8.4852813742e+00	-1.5324858577e-01
-1.0253048327e+01	 9.1216774773e+00	-1.4216001640e-01
-1.0889444430e+01	 9.7580735804e+00	-1.3227380533e-01
-1.1525840533e+01	 1.0394469683e+01	-1.2433842308e-01
-1.2162236636e+01	 1.1030865787e+01	-1.3131081060e-01
-1.2798632739e+01	 1.1667261890e+01	-1.3209183336e-01
-1.3435028843e+01	 1.2303657993e+01	-1.2659598229e-01
-1.4071424946e+01	 1.2940054096e+01	-1.1473774801e-01
-1.4707821049e+01	 1.3576450199e+01	-9.6386475356e-02
-8.0610173055e+00	 7.4953318806e+00	-2.3612820751e-01
-8.6974134086e+00	 8.1317279836e+00	-1.7009297809e-01
-9.3338095117e+00	 8.7681240867e+00	-1.4865672297e-01
-9.9702056147e+00	 9.4045201898e+00	-1.3864758039e-01
-1.0606601718e+01	 1.0040916293e+01	-1.2945623412e-01
-1.1242997821e+01	 1.0677312396e+01	-1.3004037194e-01
-1.1879393924e+01	 1.1313708499e+01	-1.3485697872e-01
-1.2515790027e+01	 1.1950104602e+01	-1.3359183767e-01
-1.3152186130e+01	 1.2586500705e+01	-1.2615943747e-01
-1.3788582233e+01	 1.3222896808e+01	-1.1247426654e-01
-1.4424978336e+01	 1.3859292911e+01	-9.2450812983e-02
-7.7781745931e+00	 7.7781745931e+00	-2.5193783279e-01
-8.4145706961e+00	 8.4145706961e+00	-1.8574208585e-01
-9.0509667992e+00	 9.0509667992e+00	-1.4411020603e-01
-9.6873629023e+00	 9.6873629023e+00	-1.3541937897e-01
-1.0323759005e+01	 1.0323759005e+01	-1.2716177408e-01
-1.0960155108e+01	 1.0960155108e+01	-1.3525755603e-01
-1.1596551211e+01	 1.1596551211e+01	-1.3810919357e-01
-1.2232947315e+01	 1.2232947315e+01	-1.3498870086e-01
-1.2869343418e+01	 1.2869343418e+01	-1.2581056439e-01
-1.3505739521e+01	 1.3505739521e+01	-1.1048927033e-01
-1.4142135624e+01	 1.4142135624e+01	-8.8939304565e-02
-8.4852813742e+00	-5.6568542495e+00	 2.3416756667e-01
-9.1216774773e+00	-5.0204581464e+00	 1.6641687005e-01
-9.7580735804e+00	-4.3840620434e+00	 1.4447856875e-01
-1.0394469683e+01	-3.7476659403e+00	 1.2402192347e-01
-1.1030865787e+01	-3.1112698373e+00	 9.7587501121e-02
-1.1667261890e+01	-2.4748737342e+00	 6.7086588495e-02
-1.2303657993e+01	-1.8384776311e+00	 3.8666062677e-02
-1.2940054096e+01	-1.2020815281e+00	 1.2545524914e-02
-1.3576450199e+01	-5.6568542499e-01	-1.1055418187e-02
-1.4212846302e+01	 7.0710678080e-02	-3.1917154661e-02
-1.4849242405e+01	 7.0710678115e-01	-5.5449383471e-02
-8.3438600180e+00	-5.5154328933e+00	 2.2309542964e-01
-8.9802561211e+00	-4.8790367902e+00	 1.4139526613e-01
-9.6166522241e+00	-4.2426406871e+00	 1.2295881158e-01
-1.0253048327e+01	-3.6062445841e+00	 1.0563845032e-01
-1.0889444430e+01	-2.9698484810e+00	 7.9466602450e-02
-1.1525840533e+01	-2.3334523779e+00	 5.1758912502e-02
-1.2162236636e+01	-1.6970562749e+00	 2.5848597998e-02
-1.2798632739e+01	-1.0606601718e+00	 1.9552640710e-03
-1.3435028843e+01	-4.2426406875e-01	-1.9701478786e-02
-1.4071424946e+01	 2.1213203432e-01	-3.8902014722e-02
-1.4707821049e+01	 8.4852813739e-01	-5.5499341202e-02
-8.2024386618e+00	-5.3740115370e+00	 2.1162776637e-01
-8.8388347648e+00	-4.7376154340e+00	 1.1615454566e-01
-9.4752308679e+00	-4.1012193309e+00	 1.0127443146e-01
-1.0111626971e+01	-3.4648232278e+00	 8.7144846839e-02
-1.0748023074e+01	-2.8284271248e+00	 6.1288351668e-02
-1.1384419177e+01	-2.1920310217e+00	 3.6401433290e-02
-1.2020815280e+01	-1.5556349186e+00	 1.3028878328e-02
-1.2657211383e+01	-9.1923881558e-01	-8.6097041977e-03
-1.3293607486e+01	-2.8284271251e-01	-2.8294699910e-02
-1.3930003589e+01	 3.5355339056e-01	-4.5806489071e-02
-1.4566399692e+01	 9.8994949363e-01	-6.0925446587e-02
-8.0610173055e+00	-5.2325901808e+00	 1.9975701696e-01
-8.6974134086e+00	-4.5961940777e+00	 1.0627823661e-01
-9.3338095117e+00	-3.9597979747e+00	 7.9456107593e-02
-9.9702056147e+00	-3.3234018716e+00	 6.6121543954e-02
-1.0606601718e+01	-2.6870057685e+00	 4.3071202665e-02
-1.1242997821e+01	-2.0506096655e+00	 2.1032604557e-02
-1.1879393924e+01	-1.4142135624e+00	 2.2535717445e-04
-1.2515790027e+01	-7.7781745934e-01	-1.9130926578e-02
-1.3152186130e+01	-1.4142135627e-01	-3.6816628436e-02
-1.3788582233e+01	 4.9497474680e-01	-5.2612124778e-02
-1.4424978336e+01	 1.1313708499e+00	-6.6297786623e-02
-7.9195959493e+00	-5.0911688245e+00	 1.8747562169e-01
-8.5559920524e+00	-4.4547727215e+00	 9.7895975611e-02
-9.1923881554e+00	-3.8183766184e+00	 5.7534519125e-02
-9.8287842585e+00	-3.1819805154e+00	 4.4725064782e-02
-1.0465180362e+01	-2.5455844123e+00	 2.4833609514e-02
-1.1101576465e+01	-1.9091883092e+00	 5.6708801854e-03
-1.1737972568e+01	-1.2727922062e+00	-1.2543511774e-02
-1.2374368671e+01	-6.3639610310e-01	-2.9589949572e-02
-1.3010764774e+01	-2.8000712859e-11	-4.5248811060e-02
-1.3647160877e+01	 6.3639610304e-01	-5.9300468728e-02
-1.4283556980e+01	 1.2727922061e+00	-7.1525289713e-02
-7.7781745931e+00	-4.9497474683e+00	 1.7477602094e-01
-8.4145706961e+00	-4.3133513652e+00	 8.9137269255e-02
-9.0509667992e+00	-3.6769552622e+00	 3.5540345126e-02
-9.6873629023e+00	-3.0405591591e+00	 2.3299046741e-02
-1.0323759005e+01	-2.4041630561e+00	 6.5940264737e-03
-1.0960155108e+01	-1.7677669530e+00	-9.6652857598e-03
-1.1596551211e+01	-1.1313708499e+00	-2.5259274643e-02
-1.2232947315e+01	-4.9497474686e-01	-3.9968319499e-02
-1.2869343418e+01	 1.4142135621e-01	-5.3572794291e-02
-1.3505739521e+01	 7.7781745928e-01	-6.5853067625e-02
-1.4142135624e+01	 1.4142135624e+00	-7.6589502751e-02
-7.6367532368e+00	-4.8083261121e+00	 1.6165065524e-01
-8.2731493399e+00	-4.1719300090e+00	 7.9994558077e-02
-8.9095454430e+00	-3.5355339059e+00	 1.3504269519e-02
-9.5459415460e+00	-2.8991378029e+00	 1.8619444613e-03
-1.0182337649e+01	-2.2627416998e+00	-1.1629092016e-02
-1.0818733752e+01	-1.6263455967e+00	-2.4957439029e-02
-1.1455129855e+01	-9.8994949368e-01	-3.7903477376e-02
-1.2091525958e+01	-3.5355339062e-01	-5.0247582492e-02
-1.2727922061e+01	 2.8284271245e-01	-6.1770124455e-02
-1.3364318164e+01	 9.1923881552e-01	-7.2251467986e-02
-1.4000714268e+01	 1.5556349186e+00	-8.1471972449e-02
-7.4953318806e+00	-4.6669047558e+00	 1.4809196525e-01
-8.1317279837e+00	-4.0305086528e+00	 7.0460282744e-02
-8.7681240867e+00	-3.3941125497e+00	-3.2352397444e-03
-9.4045201898e+00	-2.7577164466e+00	-1.9567787239e-02
-1.0040916293e+01	-2.1213203436e+00	-2.9817291330e-02
-1.0677312396e+01	-1.4849242405e+00	-4.0187125190e-02
-1.1313708499e+01	-8.4852813744e-01	-5.0457665731e-02
-1.1950104602e+01	-2.1213203438e-01	-6.0409284502e-02
-1.2586500705e+01	 4.2426406869e-01	-6.9822347696e-02
-1.3222896808e+01	 1.0606601718e+00	-7.8477216147e-02
-1.3859292911e+01	 1.6970562748e+00	-8.6154245332e-02
-7.3539105244e+00	-4.5254833996e+00	 1.3409239177e-01
-7.9903066274e+00	-3.8890872965e+00	 6.0526884055e-02
-8.6267027305e+00	-3.2526911935e+00	-1.2140772086e-02
-9.2630988336e+00	-2.6162950904e+00	-4.0971693359e-02
-9.8994949366e+00	-1.9798989873e+00	-4.7952116659e-02
-1.0535891040e+01	-1.3435028843e+00	-5.5335889626e-02
-1.1172287143e+01	-7.0710678120e-01	-6.2903385284e-02
-1.1808683246e+01	-7.0710678136e-02	-7.0434971298e-02
-1.2445079349e+01	 5.6568542493e-01	-7.7711009974e-02
-1.3081475452e+01	 1.2020815280e+00	-8.4511858258e-02
-1.3717871555e+01	 1.8384776311e+00	-9.0617867745e-02
-7.2124891681e+00	-4.3840620433e+00	 1.1964437570e-01
-7.8488852712e+00	-3.7476659403e+00	 5.0186802943e-02
-8.4852813743e+00	-3.1112698372e+00	-2.1453196406e-02
-9.1216774773e+00	-2.4748737342e+00	-6.2331318716e-02
-9.7580735804e+00	-1.8384776311e+00	-6.6015113012e-02
-1.0394469683e+01	-1.2020815280e+00	-7.0385277537e-02
-1.1030865787e+01	-5.6568542496e-01	-7.5222181428e-02
-1.1667261890e+01	 7.0710678104e-02	-8.0306188463e-02
-1.2303657993e+01	 7.0710678117e-01	-8.5417657063e-02
-1.2940054096e+01	 1.3435028842e+00	-9.0336940288e-02
-1.3576450199e+01	 1.9798989873e+00	-9.4844385846e-02
-7.0710678119e+00	-4.2426406871e+00	 1.0474035813e-01
-7.7074639150e+00	-3.6062445840e+00	 3.9432488596e-02
-8.3438600180e+00	-2.9698484810e+00	-3.1198470287e-02
-8.9802561211e+00	-2.3334523779e+00	-8.3628201235e-02
-9.6166522241e+00	-1.6970562749e+00	-8.3987825213e-02
-1.0253048327e+01	-1.0606601718e+00	-8.5316833938e-02
-1.0889444430e+01	-4.2426406872e-01	-8.7395599369e-02
-1.1525840533e+01	 2.1213203434e-01	-9.0004481397e-02
-1.2162236636e+01	 8.4852813741e-01	-9.2923834555e-02
-1.2798632739e+01	 1.4849242405e+00	-9.5934008020e-02
-1.3435028843e+01	 2.1213203435e+00	-9.8815345612e-02
-1.4849242405e+01	 7.0710678115e-01	-5.5449383471e-02
-1.5485638508e+01	 1.3435028842e+00	-6.0741131510e-02
-1.6122034611e+01	 1.9798989873e+00	-6.4349658806e-02
-1.6758430714e+01	 2.6162950904e+00	-6.6810415699e-02
-1.7394826817e+01	 3.2526911934e+00	-6.8658876471e-02
-1.8031222920e+01	 3.8890872965e+00	-6.8711616371e-02
-1.8667619023e+01	 4.5254833996e+00	-6.9376654950e-02
-1.9304015126e+01	 5.1618795027e+00	-7.0832404791e-02
-1.9940411229e+01	 5.7982756057e+00	-7.2181355683e-02
-2.0576807333e+01	 6.4346717088e+00	-7.2525896198e-02
-2.1213203436e+01	 7.0710678119e+00	-5.7183446143e-02
-1.4707821049e+01	 8.4852813739e-01	-5.5499341202e-02
-1.5344217152e+01	 1.4849242405e+00	-6.1796713393e-02
-1.5980613255e+01	 2.1213203435e+00	-6.6253187293e-02
-1.6617009358e+01	 2.7577164466e+00	-6.9404211999e-02
-1.7253405461e+01	 3.3941125497e+00	-7.1785260544e-02
-1.7889801564e+01	 4.0305086528e+00	-7.1366238688e-02
-1.8526197667e+01	 4.6669047558e+00	-7.2151297067e-02
-1.9162593770e+01	 5.3033008589e+00	-7.3573089255e-02
-1.9798989873e+01	 5.9396969620e+00	-7.4734104085e-02
-2.0435385976e+01	 6.5760930651e+00	-7.4736729172e-02
-2.1071782079e+01	 7.2124891681e+00	-6.2049861455e-02
-1.4566399692e+01	 9.8994949363e-01	-6.0925446587e-02
-1.5202795796e+01	 1.6263455967e+00	-6.3228339493e-02
-1.5839191899e+01	 2.2627416998e+00	-6.8498599753e-02
-1.6475588002e+01	 2.8991378028e+00	-7.2305731814e-02
-1.7111984105e+01	 3.5355339059e+00	-7.4601584567e-02
-1.7748380208e+01	 4.1719300090e+00	-7.4115918306e-02
-1.8384776311e+01	 4.8083261121e+00	-7.5010420305e-02
-1.9021172414e+01	 5.4447222151e+00	-7.6387679653e-02
-1.9657568517e+01	 6.0811183182e+00	-7.7350184230e-02
-2.0293964620e+01	 6.7175144213e+00	-7.7000320693e-02
-2.0930360723e+01	 7.3539105244e+00	-6.6940972227e-02
-1.4424978336e+01	 1.1313708499e+00	-6.6297786623e-02
-1.5061374439e+01	 1.7677669529e+00	-6.5036823458e-02
-1.5697770542e+01	 2.4041630560e+00	-7.1086709891e-02
-1.6334166645e+01	 3.0405591591e+00	-7.5515788915e-02
-1.6970562749e+01	 3.6769552622e+00	-7.7193743175e-02
-1.7606958852e+01	 4.3133513652e+00	-7.6960918905e-02
-1.8243354955e+01	 4.9497474683e+00	-7.7954288389e-02
-1.8879751058e+01	 5.5861435714e+00	-7.9276439759e-02
-1.9516147161e+01	 6.2225396745e+00	-8.0029859940e-02
-2.0152543264e+01	 6.8589357775e+00	-7.9316934632e-02
-2.0788939367e+01	 7.4953318806e+00	-7.1854514664e-02
-1.4283556980e+01	 1.2727922061e+00	-7.1525289713e-02
-1.4919953083e+01	 1.9091883092e+00	-6.7222978937e-02
-1.5556349186e+01	 2.5455844123e+00	-7.4018331421e-02
-1.6192745289e+01	 3.1819805153e+00	-7.9035197074e-02
-1.6829141392e+01	 3.8183766184e+00	-7.9892063480e-02
-1.7465537495e+01	 4.4547727215e+00	-7.9901504119e-02
-1.8101933598e+01	 5.0911688245e+00	-8.0983165000e-02
-1.8738329701e+01	 5.7275649276e+00	-8.2239633300e-02
-1.9374725805e+01	 6.3639610307e+00	-8.2773394988e-02
-2.0011121908e+01	 7.0003571338e+00	-8.1686834808e-02
-2.0647518011e+01	 7.6367532368e+00	-7.6788224949e-02
-1.4142135624e+01	 1.4142135624e+00	-7.6589502751e-02
-1.4778531727e+01	 2.0506096654e+00	-6.9787619582e-02
-1.5414927830e+01	 2.6870057685e+00	-7.7294278055e-02
-1.6051323933e+01	 3.3234018716e+00	-8.2864770067e-02
-1.6687720036e+01	 3.9597979746e+00	-8.2696809018e-02
-1.7324116139e+01	 4.5961940777e+00	-8.2937937531e-02
-1.7960512242e+01	 5.2325901808e+00	-8.4097313768e-02
-1.8596908345e+01	 5.8689862839e+00	-8.5277523954e-02
-1.9233304448e+01	 6.5053823869e+00	-8.5581053099e-02
-1.9869700551e+01	 7.1417784900e+00	-8.4110284994e-02
-2.0506096654e+01	 7.7781745931e+00	-7.9967502197e-02
-1.4000714268e+01	 1.5556349186e+00	-8.1471972449e-02
-1.4637110371e+01	 2.1920310217e+00	-7.4331712972e-02
-1.5273506474e+01	 2.8284271247e+00	-8.0915363514e-02
-1.5909902577e+01	 3.4648232278e+00	-8.6807593621e-02
-1.6546298680e+01	 4.1012193309e+00	-8.5608243278e-02
-1.7182694783e+01	 4.7376154339e+00	-8.6070482675e-02
-1.7819090886e+01	 5.3740115370e+00	-8.7296998276e-02
-1.8455486989e+01	 6.0104076401e+00	-8.8390375349e-02
-1.9091883092e+01	 6.6468037432e+00	-8.8453097950e-02
-1.9728279195e+01	 7.2831998462e+00	-8.6587548914e-02
-2.0364675298e+01	 7.9195959493e+00	-8.1896009842e-02
-1.3859292911e+01	 1.6970562748e+00	-8.6154245332e-02
-1.4495689014e+01	 2.3334523779e+00	-8.0496437987e-02
-1.5132085117e+01	 2.9698484810e+00	-8.4882401520e-02
-1.5768481220e+01	 3.6062445840e+00	-8.9461476530e-02
-1.6404877324e+01	 4.2426406871e+00	-8.8626629700e-02
-1.7041273427e+01	 4.8790367902e+00	-8.9299403040e-02
-1.7677669530e+01	 5.5154328933e+00	-9.0582482059e-02
-1.8314065633e+01	 6.1518289963e+00	-9.1578451068e-02
-1.8950461736e+01	 6.7882250994e+00	-9.1389793171e-02
-1.9586857839e+01	 7.4246212025e+00	-8.9118890244e-02
-2.0223253942e+01	 8.0610173055e+00	-8.3868022934e-02
-1.3717871555e+01	 1.8384776311e+00	-9.0617867745e-02
-1.4354267658e+01	 2.4748737341e+00	-8.6420786232e-02
-1.4990663761e+01	 3.1112698372e+00	-8.9196205798e-02
-1.5627059864e+01	 3.7476659403e+00	-9.2233152883e-02
-1.6263455967e+01	 4.3840620433e+00	-9.1752231677e-02
-1.6899852070e+01	 5.0204581464e+00	-9.2624962065e-02
-1.7536248173e+01	 5.6568542495e+00	-9.3954028602e-02
-1.8172644276e+01	 6.2932503526e+00	-9.4842014645e-02
-1.8809040380e+01	 6.9296464556e+00	-9.4391402341e-02
-1.9445436483e+01	 7.5660425587e+00	-9.1704572611e-02
-2.0081832586e+01	 8.2024386618e+00	-8.5883805146e-02
-1.3576450199e+01	 1.9798989873e+00	-9.4844385846e-02
-1.4212846302e+01	 2.6162950904e+00	-9.2086304057e-02
-1.4849242405e+01	 3.2526911934e+00	-9.3857590078e-02
-1.5485638508e+01	 3.8890872965e+00	-9.5122885977e-02
-1.6122034611e+01	 4.5254833996e+00	-9.4985312551e-02
-1.6758430714e+01	 5.1618795027e+00	-9.6047423140e-02
-1.7394826817e+01	 5.7982756057e+00	-9.7411901344e-02
-1.8031222920e+01	 6.4346717088e+00	-9.8181329564e-02
-1.8667619023e+01	 7.0710678119e+00	-9.7458188992e-02
-1.9304015126e+01	 7.7074639149e+00	-9.4344859596e-02
-1.9940411229e+01	 8.3438600180e+00	-8.7943620107e-02
-1.3435028843e+01	 2.1213203435e+00	-9.8815345612e-02
-1.4071424946e+01	 2.7577164466e+00	-9.7474537630e-02
-1.4707821049e+01	 3.3941125497e+00	-9.8867368094e-02
-1.5344217152e+01	 4.0305086528e+00	-9.8130939060e-02
-1.5980613255e+01	 4.6669047558e+00	-9.8326135619e-02
-1.6617009358e+01	 5.3033008589e+00	-9.9567049609e-02
-1.7253405461e+01	 5.9396969620e+00	-1.0095636367e-01
-1.7889801564e+01	 6.5760930650e+00	-1.0159665926e-01
-1.8526197667e+01	 7.2124891681e+00	-1.0059041661e-01
-1.9162593770e+01	 7.8488852711e+00	-9.7040014728e-02
-1.9798989873e+01	 8.4852813742e+00	-9.0047731394e-02
-9.8994949366e+00	-7.0710678119e+00	 5.7564683596e-01
-1.0535891040e+01	-6.4346717088e+00	 4.5777206994e-01
-1.1172287143e+01	-5.7982756057e+00	 3.5783368424e-01
-1.1808683246e+01	-5.1618795027e+00	 2.7441395731e-01
-1.2445079349e+01	-4.5254833996e+00	 2.0609531593e-01
-1.3081475452e+01	-3.8890872965e+00	 1.5146033522e-01
-1.3717871555e+01	-3.2526911934e+00	 1.0651689825e-01
-1.4354267658e+01	-2.6162950904e+00	 7.0567701357e-02
-1.4990663761e+01	-1.9798989873e+00	 3.3376864604e-02
-1.5627059864e+01	-1.3435028842e+00	-5.0737533580e-03
-1.6263455967e+01	-7.0710678115e-01	-2.1470732652e-02
-9.7580735804e+00	-6.9296464557e+00	 5.6218998719e-01
-1.0394469683e+01	-6.2932503526e+00	 4.4907726596e-01
-1.1030865787e+01	-5.6568542495e+00	 3.5277490766e-01
-1.1667261890e+01	-5.0204581464e+00	 2.7186520609e-01
-1.2303657993e+01	-4.3840620434e+00	 2.0493060338e-01
-1.2940054096e+01	-3.7476659403e+00	 1.5055368997e-01
-1.3576450199e+01	-3.1112698372e+00	 1.0297640716e-01
-1.4212846302e+01	-2.4748737341e+00	 6.5855839638e-02
-1.4849242405e+01	-1.8384776311e+00	 3.5552959613e-02
-1.5485638508e+01	-1.2020815280e+00	-5.9330937865e-03
-1.6122034611e+01	-5.6568542492e-01	-2.6278922137e-02
-9.6166522241e+00	-6.7882250994e+00	 5.4518795213e-01
-1.0253048327e+01	-6.1518289963e+00	 4.3722948562e-01
-1.0889444430e+01	-5.5154328933e+00	 3.4495536364e-01
-1.1525840533e+01	-4.8790367902e+00	 2.6694789534e-01
-1.2162236636e+01	-4.2426406871e+00	 2.0178953820e-01
-1.2798632739e+01	-3.6062445840e+00	 1.4806289800e-01
-1.3435028843e+01	-2.9698484810e+00	 9.8310618081e-02
-1.4071424946e+01	-2.3334523779e+00	 6.0383937132e-02
-1.4707821049e+01	-1.6970562748e+00	 3.6983927821e-02
-1.5344217152e+01	-1.0606601718e+00	-7.1598756059e-03
-1.5980613255e+01	-4.2426406869e-01	-3.1076867394e-02
-9.4752308679e+00	-6.6468037432e+00	 5.2467141216e-01
-1.0111626971e+01	-6.0104076401e+00	 4.2225940952e-01
-1.0748023074e+01	-5.3740115370e+00	 3.3440573202e-01
-1.1384419177e+01	-4.7376154340e+00	 2.5969270415e-01
-1.2020815280e+01	-4.1012193309e+00	 1.9670279872e-01
-1.2657211383e+01	-3.4648232278e+00	 1.4401863687e-01
-1.3293607486e+01	-2.8284271247e+00	 9.2537982680e-02
-1.3930003589e+01	-2.1920310217e+00	 5.4170445315e-02
-1.4566399692e+01	-1.5556349186e+00	 2.9403591827e-02
-1.5202795796e+01	-9.1923881553e-01	-8.7549123021e-03
-1.5839191899e+01	-2.8284271246e-01	-3.5865381967e-02
-9.3338095116e+00	-6.5053823869e+00	 5.0067104857e-01
-9.9702056147e+00	-5.8689862839e+00	 4.0419771820e-01
-1.0606601718e+01	-5.2325901808e+00	 3.2115669258e-01
-1.1242997821e+01	-4.5961940777e+00	 2.5013031153e-01
-1.1879393924e+01	-3.9597979746e+00	 1.8970106322e-01
-1.2515790027e+01	-3.3234018716e+00	 1.3645774205e-01
-1.3152186130e+01	-2.6870057685e+00	 8.5676952811e-02
-1.3788582233e+01	-2.0506096654e+00	 4.7233815850e-02
-1.4424978336e+01	-1.4142135624e+00	 2.1347914465e-02
-1.5061374439e+01	-7.7781745930e-01	-1.0719017365e-02
-1.5697770542e+01	-1.4142135623e-01	-4.0645279410e-02
-9.1923881554e+00	-6.3639610307e+00	 4.7321754260e-01
-9.8287842585e+00	-5.7275649276e+00	 3.8307509215e-01
-1.0465180362e+01	-5.0911688246e+00	 3.0523892505e-01
-1.1101576465e+01	-4.4547727215e+00	 2.3829139646e-01
-1.1737972568e+01	-3.8183766184e+00	 1.8081500989e-01
-1.2374368671e+01	-3.1819805153e+00	 1.2719365987e-01
-1.3010764774e+01	-2.5455844123e+00	 7.7745980511e-02
-1.3647160877e+01	-1.9091883092e+00	 3.9592500582e-02
-1.4283556980e+01	-1.2727922061e+00	 1.2952807264e-02
-1.4919953083e+01	-6.3639610307e-01	-1.3053004288e-02
-1.5556349186e+01	 5.5511151231e-17	-4.5417373277e-02
-9.0509667992e+00	-6.2225396745e+00	 4.4234157541e-01
-9.6873629022e+00	-5.5861435714e+00	 3.5892221178e-01
-1.0323759005e+01	-4.9497474683e+00	 2.8668310907e-01
-1.0960155108e+01	-4.3133513652e+00	 2.2420663782e-01
-1.1596551211e+01	-3.6769552622e+00	 1.7007531688e-01
-1.2232947315e+01	-3.0405591591e+00	 1.1651283038e-01
-1.2869343418e+01	-2.4041630560e+00	 6.8763518000e-02
-1.3505739521e+01	-1.7677669530e+00	 3.1264951540e-02
-1.4142135624e+01	-1.1313708499e+00	 4.2367220612e-03
-1.4778531727e+01	-4.9497474684e-01	-1.5757686568e-02
-1.5414927830e+01	 1.4142135623e-01	-5.0182477126e-02
-8.9095454429e+00	-6.0811183182e+00	 4.0807382813e-01
-9.5459415460e+00	-5.4447222152e+00	 3.3176975742e-01
-1.0182337649e+01	-4.8083261121e+00	 2.6551992425e-01
-1.0818733752e+01	-4.1719300090e+00	 2.0790671446e-01
-1.1455129855e+01	-3.5355339059e+00	 1.5751266226e-01
-1.2091525958e+01	-2.8991378029e+00	 1.0443370617e-01
-1.2727922061e+01	-2.2627416998e+00	 5.8748017683e-02
-1.3364318164e+01	-1.6263455967e+00	 2.2269620936e-02
-1.4000714268e+01	-9.8994949367e-01	-4.7818891225e-03
-1.4637110371e+01	-3.5355339061e-01	-2.2186912183e-02
-1.5273506474e+01	 2.8284271246e-01	-5.4941404521e-02
-8.7681240867e+00	-5.9396969620e+00	 3.7751158773e-01
-9.4045201898e+00	-5.3033008589e+00	 3.0164840937e-01
-1.0040916293e+01	-4.6669047558e+00	 2.4178005009e-01
-1.0677312396e+01	-4.0305086528e+00	 1.8942230514e-01
-1.1313708499e+01	-3.3941125497e+00	 1.4217579132e-01
-1.1950104602e+01	-2.7577164466e+00	 9.0974740024e-02
-1.2586500705e+01	-2.1213203436e+00	 4.7717932147e-02
-1.3222896808e+01	-1.4849242405e+00	 1.2624961166e-02
-1.3859292911e+01	-8.4852813744e-01	-1.4084574083e-02
-1.4495689014e+01	-2.1213203438e-01	-3.2191069406e-02
-1.5132085117e+01	 4.2426406869e-01	-5.9694969027e-02
-8.6267027304e+00	-5.7982756057e+00	 3.5449832255e-01
-9.2630988335e+00	-5.1618795027e+00	 2.6858884785e-01
-9.8994949366e+00	-4.5254833996e+00	 2.1549416608e-01
-1.0535891040e+01	-3.8890872965e+00	 1.6878408856e-01
-1.1172287143e+01	-3.2526911935e+00	 1.2351783968e-01
-1.1808683246e+01	-2.6162950904e+00	 7.6154384910e-02
-1.2445079349e+01	-1.9798989873e+00	 3.5691714166e-02
-1.3081475452e+01	-1.3435028843e+00	 2.3494248109e-03
-1.3717871555e+01	-7.0710678122e-01	-2.3652880433e-02
-1.4354267658e+01	-7.0710678148e-02	-4.2095593485e-02
-1.4990663761e+01	 5.6568542492e-01	-6.4443984213e-02
-8.4852813742e+00	-5.6568542495e+00	 3.2813988691e-01
-9.1216774773e+00	-5.0204581464e+00	 2.3262175301e-01
-9.7580735804e+00	-4.3840620434e+00	 1.8669295160e-01
-1.0394469683e+01	-3.7476659403e+00	 1.4602274337e-01
-1.1030865787e+01	-3.1112698373e+00	 1.0315169522e-01
-1.1667261890e+01	-2.4748737342e+00	 5.9991093972e-02
-1.2303657993e+01	-1.8384776311e+00	 2.2687816693e-02
-1.2940054096e+01	-1.2020815281e+00	-8.5385353670e-03
-1.3576450199e+01	-5.6568542499e-01	-3.3468355600e-02
-1.4212846302e+01	 7.0710678080e-02	-5.1882032041e-02
-1.4849242405e+01	 7.0710678115e-01	-6.9189263654e-02
-1.6263455967e+01	-7.0710678115e-01	-2.1470732652e-02
-1.6899852070e+01	-7.0710678080e-02	-1.5840713485e-02
-1.7536248173e+01	 5.6568542499e-01	-1.2004332459e-02
-1.8172644276e+01	 1.2020815281e+00	-1.0497052375e-02
-1.8809040380e+01	 1.8384776311e+00	-1.1854359973e-02
-1.9445436483e+01	 2.4748737342e+00	-1.6611765938e-02
-2.0081832586e+01	 3.1112698373e+00	-2.5304804895e-02
-2.0718228689e+01	 3.7476659403e+00	-3.6024798861e-02
-2.1354624792e+01	 4.3840620434e+00	-3.9336214957e-02
-2.1991020895e+01	 5.0204581464e+00	-4.3936431922e-02
-2.2627416998e+01	 5.6568542495e+00	-5.0151411129e-02
-1.6122034611e+01	-5.6568542492e-01	-2.6278922137e-02
-1.6758430714e+01	 7.0710678148e-02	-2.0866112437e-02
-1.7394826817e+01	 7.0710678122e-01	-1.7034045486e-02
-1.8031222920e+01	 1.3435028843e+00	-1.5318182841e-02
-1.8667619023e+01	 1.9798989873e+00	-1.6254009995e-02
-1.9304015126e+01	 2.6162950904e+00	-2.0377036387e-02
-1.9940411229e+01	 3.2526911935e+00	-2.8222795398e-02
-2.0576807333e+01	 3.8890872965e+00	-4.0327946347e-02
-2.1213203436e+01	 4.5254833996e+00	-4.2386139961e-02
-2.1849599539e+01	 5.1618795027e+00	-4.5320165368e-02
-2.2485995642e+01	 5.7982756057e+00	-4.9676814515e-02
-1.5980613255e+01	-4.2426406869e-01	-3.1076867394e-02
-1.6617009358e+01	 2.1213203438e-01	-2.5910381540e-02
-1.7253405461e+01	 8.4852813744e-01	-2.2111742836e-02
-1.7889801564e+01	 1.4849242405e+00	-2.0216411592e-02
-1.8526197667e+01	 2.1213203436e+00	-2.0759872056e-02
-1.9162593770e+01	 2.7577164466e+00	-2.4277632419e-02
-1.9798989873e+01	 3.3941125497e+00	-3.1305224816e-02
-2.0435385976e+01	 4.0305086528e+00	-4.2191747802e-02
-2.1071782079e+01	 4.6669047558e+00	-4.5638716751e-02
-2.1708178182e+01	 5.3033008589e+00	-4.6939109566e-02
-2.2344574286e+01	 5.9396969620e+00	-4.9469987542e-02
-1.5839191899e+01	-2.8284271246e-01	-3.5865381967e-02
-1.6475588002e+01	 3.5355339061e-01	-3.0974334404e-02
-1.7111984105e+01	 9.8994949367e-01	-2.7238238181e-02
-1.7748380208e+01	 1.6263455967e+00	-2.5192552361e-02
-1.8384776311e+01	 2.2627416998e+00	-2.5372759949e-02
-1.9021172414e+01	 2.8991378029e+00	-2.8314367888e-02
-1.9657568517e+01	 3.5355339059e+00	-3.4540676826e-02
-2.0293964620e+01	 4.1719300090e+00	-4.4157691443e-02
-2.0930360723e+01	 4.8083261121e+00	-4.9091681916e-02
-2.1566756826e+01	 5.4447222152e+00	-4.8791001029e-02
-2.2203152929e+01	 6.0811183182e+00	-4.9528666644e-02
-1.5697770542e+01	-1.4142135623e-01	-4.0645279410e-02
-1.6334166645e+01	 4.9497474684e-01	-3.6058784641e-02
-1.6970562748e+01	 1.1313708499e+00	-3.2414345193e-02
-1.7606958852e+01	 1.7677669530e+00	-3.0247418885e-02
-1.8243354955e+01	 2.4041630560e+00	-3.0093487472e-02
-1.8879751058e+01	 3.0405591591e+00	-3.2488056653e-02
-1.9516147161e+01	 3.6769552622e+00	-3.7840469857e-02
-2.0152543264e+01	 4.3133513652e+00	-4.6226041478e-02
-2.0788939367e+01	 4.9497474683e+00	-5.2742772025e-02
-2.1425335470e+01	 5.5861435714e+00	-5.0873576248e-02
-2.2061731573e+01	 6.2225396745e+00	-4.9850588233e-02
-1.5556349186e+01	 5.5511151231e-17	-4.5417373277e-02
-1.6192745289e+01	 6.3639610307e-01	-4.1164545868e-02
-1.6829141392e+01	 1.2727922061e+00	-3.7640877552e-02
-1.7465537495e+01	 1.9091883092e+00	-3.5381824901e-02
-1.8101933598e+01	 2.5455844123e+00	-3.4922868425e-02
-1.8738329701e+01	 3.1819805153e+00	-3.6799512577e-02
-1.9374725805e+01	 3.8183766184e+00	-4.1190233925e-02
-2.0011121908e+01	 4.4547727215e+00	-4.8397062066e-02
-2.0647518011e+01	 5.0911688246e+00	-5.6589723622e-02
-2.1283914114e+01	 5.7275649276e+00	-5.3184571688e-02
-2.1920310217e+01	 6.3639610307e+00	-5.0433488698e-02
-1.5414927830e+01	 1.4142135623e-01	-5.0182477126e-02
-1.6051323933e+01	 7.7781745930e-01	-4.6292431705e-02
-1.6687720036e+01	 1.4142135624e+00	-4.2918648940e-02
-1.7324116139e+01	 2.0506096654e+00	-4.0596584154e-02
-1.7960512242e+01	 2.6870057685e+00	-3.9861716614e-02
-1.8596908345e+01	 3.3234018716e+00	-4.1249549526e-02
-1.9233304448e+01	 3.9597979746e+00	-4.4590233095e-02
-1.9869700551e+01	 4.5961940777e+00	-5.0671017320e-02
-2.0506096654e+01	 5.2325901808e+00	-5.8829701499e-02
-2.1142492757e+01	 5.8689862839e+00	-5.5721723794e-02
-2.1778888861e+01	 6.5053823869e+00	-5.1275104403e-02
-1.5273506474e+01	 2.8284271246e-01	-5.4941404521e-02
-1.5909902577e+01	 9.1923881553e-01	-5.1443255777e-02
-1.6546298680e+01	 1.5556349186e+00	-4.8248473040e-02
-1.7182694783e+01	 2.1920310217e+00	-4.5892510391e-02
-1.7819090886e+01	 2.8284271247e+00	-4.4910845848e-02
-1.8455486989e+01	 3.4648232278e+00	-4.5799496424e-02
-1.9091883092e+01	 4.1012193309e+00	-4.8040731382e-02
-1.9728279195e+01	 4.7376154340e+00	-5.3048171304e-02
-2.0364675298e+01	 5.3740115370e+00	-5.9924308848e-02
-2.1001071401e+01	 6.0104076401e+00	-5.8482768986e-02
-2.1637467504e+01	 6.6468037432e+00	-5.2373171693e-02
-1.5132085117e+01	 4.2426406869e-01	-5.9694969027e-02
-1.5768481220e+01	 1.0606601718e+00	-5.6617831710e-02
-1.6404877324e+01	 1.6970562748e+00	-5.3631163544e-02
-1.7041273427e+01	 2.3334523779e+00	-5.1270417362e-02
-1.7677669530e+01	 2.9698484810e+00	-5.0071069937e-02
-1.8314065633e+01	 3.6062445840e+00	-5.0112202064e-02
-1.8950461736e+01	 4.2426406871e+00	-5.1541992756e-02
-1.9586857839e+01	 4.8790367902e+00	-5.5528788032e-02
-2.0223253942e+01	 5.5154328933e+00	-6.1175079597e-02
-2.0859650045e+01	 6.1518289963e+00	-6.1465443662e-02
-2.1496046148e+01	 6.7882250994e+00	-5.3725426885e-02
-1.4990663761e+01	 5.6568542492e-01	-6.4443984213e-02
-1.5627059864e+01	 1.2020815280e+00	-6.1816973136e-02
-1.6263455967e+01	 1.8384776311e+00	-5.9067534143e-02
-1.6899852070e+01	 2.4748737341e+00	-5.6731118821e-02
-1.7536248173e+01	 3.1112698372e+00	-5.5343202699e-02
-1.8172644277e+01	 3.7476659403e+00	-5.4423236000e-02
-1.8809040380e+01	 4.3840620434e+00	-5.5094281136e-02
-1.9445436483e+01	 5.0204581464e+00	-5.8113131473e-02
-2.0081832586e+01	 5.6568542495e+00	-6.2582277758e-02
-2.0718228689e+01	 6.2932503526e+00	-6.4667484197e-02
-2.1354624792e+01	 6.9296464557e+00	-5.5329606278e-02
-1.4849242405e+01	 7.0710678115e-01	-6.9189263654e-02
-1.5485638508e+01	 1.3435028842e+00	-6.7041493689e-02
-1.6122034611e+01	 1.9798989873e+00	-6.4558398533e-02
-1.6758430714e+01	 2.6162950904e+00	-6.2275428527e-02
-1.7394826817e+01	 3.2526911934e+00	-6.0728057952e-02
-1.8031222920e+01	 3.8890872965e+00	-5.8732862057e-02
-1.8667619023e+01	 4.5254833996e+00	-5.8697860394e-02
-1.9304015126e+01	 5.1618795027e+00	-6.0801465544e-02
-1.9940411229e+01	 5.7982756057e+00	-6.4146167300e-02
-2.0576807333e+01	 6.4346717088e+00	-6.7834354230e-02
-2.1213203436e+01	 7.0710678119e+00	-5.7183446143e-02
-1.5556349186e+01	-1.2727922061e+01	 2.2710231032e-02
-1.6192745289e+01	-1.2091525958e+01	 4.1107809830e-02
-1.6829141392e+01	-1.1455129855e+01	 5.8254258460e-02
-1.7465537495e+01	-1.0818733752e+01	 7.3573562806e-02
-1.8101933598e+01	-1.0182337649e+01	 8.7252226630e-02
-1.8738329701e+01	-9.5459415460e+00	 9.8524937887e-02
-1.9374725804e+01	-8.9095454429e+00	 1.0443920154e-01
-2.0011121908e+01	-8.2731493399e+00	 1.0554087229e-01
-2.0647518011e+01	-7.6367532368e+00	 1.0241039832e-01
-2.1283914114e+01	-7.0003571337e+00	 9.6820154095e-02
-2.1920310217e+01	-6.3639610306e+00	 8.9607381085e-02
-1.5273506474e+01	-1.2445079349e+01	 3.5625907803e-02
-1.5909902577e+01	-1.1808683246e+01	 5.2385204707e-02
-1.6546298680e+01	-1.1172287143e+01	 6.8053852670e-02
-1.7182694783e+01	-1.0535891040e+01	 8.2055834840e-02
-1.7819090886e+01	-9.8994949366e+00	 9.5135887829e-02
-1.8455486989e+01	-9.2630988335e+00	 1.0383746916e-01
-1.9091883092e+01	-8.6267027305e+00	 1.0764795791e-01
-1.9728279195e+01	-7.9903066274e+00	 1.0711320176e-01
-2.0364675298e+01	-7.3539105243e+00	 1.0277905560e-01
-2.1001071401e+01	-6.7175144212e+00	 9.6296654521e-02
-2.1637467504e+01	-6.0811183182e+00	 8.8896108128e-02
-1.4990663761e+01	-1.2162236636e+01	 4.9767583367e-02
-1.5627059864e+01	-1.1525840533e+01	 6.4971399584e-02
-1.6263455967e+01	-1.0889444430e+01	 7.9245051392e-02
-1.6899852070e+01	-1.0253048327e+01	 9.2328559183e-02
-1.7536248173e+01	-9.6166522241e+00	 1.0343755039e-01
-1.8172644276e+01	-8.9802561211e+00	 1.0957696733e-01
-1.8809040380e+01	-8.3438600180e+00	 1.1129264347e-01
-1.9445436483e+01	-7.7074639149e+00	 1.0913041948e-01
-2.0081832586e+01	-7.0710678118e+00	 1.0363614324e-01
-2.0718228689e+01	-6.4346717088e+00	 9.5796115726e-02
-2.1354624792e+01	-5.7982756057e+00	 8.8230050334e-02
-1.4707821049e+01	-1.1879393924e+01	 6.5244575519e-02
-1.5344217152e+01	-1.1242997821e+01	 7.8975712793e-02
-1.5980613255e+01	-1.0606601718e+01	 9.1937173502e-02
-1.6617009358e+01	-9.9702056147e+00	 1.0399627972e-01
-1.7253405461e+01	-9.3338095117e+00	 1.1208471788e-01
-1.7889801564e+01	-8.6974134086e+00	 1.1567093734e-01
-1.8526197667e+01	-8.0610173055e+00	 1.1530076455e-01
-1.9162593770e+01	-7.4246212024e+00	 1.1152003317e-01
-1.9798989873e+01	-6.7882250994e+00	 1.0487458406e-01
-2.0435385976e+01	-6.1518289963e+00	 9.5910265293e-02
-2.1071782079e+01	-5.5154328932e+00	 8.7586007203e-02
-1.4424978336e+01	-1.1596551211e+01	 7.7039650310e-02
-1.5061374439e+01	-1.0960155108e+01	 9.4507460230e-02
-1.5697770542e+01	-1.0323759005e+01	 1.0627050554e-01
-1.6334166645e+01	-9.6873629023e+00	 1.1592804077e-01
-1.6970562748e+01	-9.0509667992e+00	 1.2100489740e-01
-1.7606958852e+01	-8.4145706961e+00	 1.2204688767e-01
-1.8243354955e+01	-7.7781745930e+00	 1.1959983102e-01
-1.8879751058e+01	-7.1417784900e+00	 1.1420955407e-01
-1.9516147161e+01	-6.5053823869e+00	 1.0642189070e-01
-2.0152543264e+01	-5.8689862838e+00	 9.6782681941e-02
-2.0788939367e+01	-5.2325901808e+00	 8.6940778748e-02
-1.4142135624e+01	-1.1313708499e+01	 8.7394071374e-02
-1.4778531727e+01	-1.0677312396e+01	 1.1167595535e-01
-1.5414927830e+01	-1.0040916293e+01	 1.2186378110e-01
-1.6051323933e+01	-9.4045201898e+00	 1.2805135160e-01
-1.6687720036e+01	-8.7681240867e+00	 1.3012559962e-01
-1.7324116139e+01	-8.1317279836e+00	 1.2863233038e-01
-1.7960512242e+01	-7.4953318806e+00	 1.2411735631e-01
-1.8596908345e+01	-6.8589357775e+00	 1.1712649702e-01
-1.9233304448e+01	-6.2225396744e+00	 1.0820557936e-01
-1.9869700551e+01	-5.5861435714e+00	 9.7900437359e-02
-2.0506096654e+01	-4.9497474683e+00	 8.6756912288e-02
-1.3859292911e+01	-1.1030865787e+01	 9.6192562291e-02
-1.4495689014e+01	-1.0394469683e+01	 1.2273736502e-01
-1.5132085117e+01	-9.7580735804e+00	 1.3756714174e-01
-1.5768481220e+01	-9.1216774773e+00	 1.4029372503e-01
-1.6404877324e+01	-8.4852813742e+00	 1.3937433874e-01
-1.7041273427e+01	-7.8488852712e+00	 1.3535478106e-01
-1.7677669530e+01	-7.2124891681e+00	 1.2878085739e-01
-1.8314065633e+01	-6.5760930650e+00	 1.2019838036e-01
-1.8950461736e+01	-5.9396969620e+00	 1.1015316978e-01
-1.9586857839e+01	-5.3033008589e+00	 9.9191052678e-02
-2.0223253942e+01	-4.6669047558e+00	 8.7857863300e-02
-1.3576450199e+01	-1.0748023074e+01	 1.0329406651e-01
-1.4212846302e+01	-1.0111626971e+01	 1.2891095868e-01
-1.4849242405e+01	-9.4752308679e+00	 1.5330810244e-01
-1.5485638508e+01	-8.8388347648e+00	 1.5258267744e-01
-1.6122034611e+01	-8.2024386617e+00	 1.4867863251e-01
-1.6758430714e+01	-7.5660425587e+00	 1.4214175883e-01
-1.7394826817e+01	-6.9296464556e+00	 1.3351785480e-01
-1.8031222920e+01	-6.2932503525e+00	 1.2335272601e-01
-1.8667619023e+01	-5.6568542495e+00	 1.1219218526e-01
-1.9304015126e+01	-5.0204581464e+00	 1.0058205257e-01
-1.9940411229e+01	-4.3840620433e+00	 8.9068155174e-02
-1.3293607486e+01	-1.0465180362e+01	 1.0855752430e-01
-1.3930003589e+01	-9.8287842585e+00	 1.3185897693e-01
-1.4566399692e+01	-9.1923881554e+00	 1.6121001233e-01
-1.5202795796e+01	-8.5559920523e+00	 1.6484572874e-01
-1.5839191899e+01	-7.9195959493e+00	 1.5796600224e-01
-1.6475588002e+01	-7.2831998462e+00	 1.4892078640e-01
-1.7111984105e+01	-6.6468037431e+00	 1.3825587259e-01
-1.7748380208e+01	-6.0104076401e+00	 1.2651705941e-01
-1.8384776311e+01	-5.3740115370e+00	 1.1425015263e-01
-1.9021172414e+01	-4.7376154339e+00	 1.0200096526e-01
-1.9657568517e+01	-4.1012193309e+00	 9.0315317519e-02
-1.3010764774e+01	-1.0182337649e+01	 1.1109201452e-01
-1.3647160877e+01	-9.5459415460e+00	 1.3188457294e-01
-1.4283556980e+01	-8.9095454429e+00	 1.5902514970e-01
-1.4919953083e+01	-8.2731493399e+00	 1.7701040240e-01
-1.5556349186e+01	-7.6367532368e+00	 1.6716397277e-01
-1.6192745289e+01	-7.0003571337e+00	 1.5561938998e-01
-1.6829141392e+01	-6.3639610307e+00	 1.4292243839e-01
-1.7465537495e+01	-5.7275649276e+00	 1.2961890956e-01
-1.8101933598e+01	-5.0911688245e+00	 1.1625460228e-01
-1.8738329701e+01	-4.4547727215e+00	 1.0337532252e-01
-1.9374725804e+01	-3.8183766184e+00	 9.1526883486e-02
-1.2727922061e+01	-9.8994949366e+00	 1.1044360268e-01
-1.3364318164e+01	-9.2630988335e+00	 1.2923320424e-01
-1.4000714267e+01	-8.6267027305e+00	 1.5430161111e-01
-1.4637110371e+01	-7.9903066274e+00	 1.8423079484e-01
-1.5273506474e+01	-7.3539105243e+00	 1.7620007251e-01
-1.5909902577e+01	-6.7175144213e+00	 1.6216509937e-01
-1.6546298680e+01	-6.0811183182e+00	 1.4744508336e-01
-1.7182694783e+01	-5.4447222151e+00	 1.3258580902e-01
-1.7819090886e+01	-4.8083261121e+00	 1.1813306813e-01
-1.8455486989e+01	-4.1719300090e+00	 1.0463265965e-01
-1.9091883092e+01	-3.5355339059e+00	 9.2630389776e-02
-2.1920310217e+01	-6.3639610306e+00	 8.9607381085e-02
-2.2556706320e+01	-5.7275649276e+00	 8.1147673538e-02
-2.3193102423e+01	-5.0911688245e+00	 7.1816606235e-02
-2.3829498526e+01	-4.4547727214e+00	 6.1957905174e-02
-2.4465894629e+01	-3.8183766184e+00	 5.1915276894e-02
-2.5102290732e+01	-3.1819805153e+00	 4.2754196185e-02
-2.5738686835e+01	-2.5455844122e+00	 3.5622145146e-02
-2.6375082938e+01	-1.9091883092e+00	 2.9689103209e-02
-2.7011479041e+01	-1.2727922061e+00	 2.4459038081e-02
-2.7647875144e+01	-6.3639610306e-01	 1.9493166825e-02
-2.8284271248e+01	 0.0000000000e+00	 1.4840998804e-02
-2.1637467504e+01	-6.0811183182e+00	 8.8896108128e-02
-2.2273863607e+01	-5.4447222151e+00	 7.9922028112e-02
-2.2910259710e+01	-4.8083261120e+00	 7.0120628883e-02
-2.3546655813e+01	-4.1719300090e+00	 5.9835632820e-02
-2.4183051917e+01	-3.5355339059e+00	 4.9410742847e-02
-2.4819448020e+01	-2.8991378028e+00	 4.0814516669e-02
-2.5455844123e+01	-2.2627416998e+00	 3.3760475593e-02
-2.6092240226e+01	-1.6263455967e+00	 2.7932859828e-02
-2.6728636329e+01	-9.8994949365e-01	 2.2997201345e-02
-2.7365032432e+01	-3.5355339058e-01	 1.8272344813e-02
-2.8001428535e+01	 2.8284271248e-01	 1.3869516713e-02
-2.1354624792e+01	-5.7982756057e+00	 8.8230050334e-02
-2.1991020895e+01	-5.1618795026e+00	 7.8679528683e-02
-2.2627416998e+01	-4.5254833996e+00	 6.8345728570e-02
-2.3263813101e+01	-3.8890872965e+00	 5.7572368759e-02
-2.3900209204e+01	-3.2526911934e+00	 4.7154023579e-02
-2.4536605307e+01	-2.6162950904e+00	 3.8759905041e-02
-2.5173001410e+01	-1.9798989873e+00	 3.1753218563e-02
-2.5809397513e+01	-1.3435028842e+00	 2.6000373606e-02
-2.6445793616e+01	-7.0710678118e-01	 2.1367779635e-02
-2.7082189719e+01	-7.0710678109e-02	 1.6864210379e-02
-2.7718585823e+01	 5.6568542496e-01	 1.2668420914e-02
-2.1071782079e+01	-5.5154328932e+00	 8.7586007203e-02
-2.1708178182e+01	-4.8790367902e+00	 7.7396975466e-02
-2.2344574285e+01	-4.2426406871e+00	 6.6468706227e-02
-2.2980970389e+01	-3.6062445840e+00	 5.5144914632e-02
-2.3617366492e+01	-2.9698484810e+00	 4.4981828355e-02
-2.4253762595e+01	-2.3334523779e+00	 3.6576992840e-02
-2.4890158698e+01	-1.6970562748e+00	 2.9587005594e-02
-2.5526554801e+01	-1.0606601718e+00	 2.3878276082e-02
-2.6162950904e+01	-4.2426406870e-01	 1.9317213765e-02
-2.6799347007e+01	 2.1213203437e-01	 1.5266708680e-02
-2.7435743110e+01	 8.4852813744e-01	 1.1235656551e-02
-2.0788939367e+01	-5.2325901808e+00	 8.6940778748e-02
-2.1425335470e+01	-4.5961940777e+00	 7.6051169186e-02
-2.2061731573e+01	-3.9597979746e+00	 6.4466363291e-02
-2.2698127676e+01	-3.3234018716e+00	 5.2720682336e-02
-2.3334523779e+01	-2.6870057685e+00	 4.2698619461e-02
-2.3970919882e+01	-2.0506096654e+00	 3.4252411603e-02
-2.4607315985e+01	-1.4142135624e+00	 2.7248468226e-02
-2.5243712088e+01	-7.7781745930e-01	 2.1553198793e-02
-2.5880108191e+01	-1.4142135623e-01	 1.7033012766e-02
-2.6516504295e+01	 4.9497474684e-01	 1.3477784819e-02
-2.7152900398e+01	 1.1313708499e+00	 9.5691687078e-03
-2.0506096654e+01	-4.9497474683e+00	 8.6756912288e-02
-2.1142492757e+01	-4.3133513652e+00	 7.4618911080e-02
-2.1778888861e+01	-3.6769552622e+00	 6.2315501714e-02
-2.2415284964e+01	-3.0405591591e+00	 5.0412535226e-02
-2.3051681067e+01	-2.4041630560e+00	 4.0291028433e-02
-2.3688077170e+01	-1.7677669530e+00	 3.1772792869e-02
-2.4324473273e+01	-1.1313708499e+00	 2.4724237996e-02
-2.4960869376e+01	-4.9497474683e-01	 1.9011773277e-02
-2.5597265479e+01	 1.4142135624e-01	 1.4501808175e-02
-2.6233661582e+01	 7.7781745932e-01	 1.1060752154e-02
-2.6870057685e+01	 1.4142135624e+00	 7.6669024125e-03
-2.0223253942e+01	-4.6669047558e+00	 8.7857863300e-02
-2.0859650045e+01	-4.0305086528e+00	 7.3077002894e-02
-2.1496046148e+01	-3.3941125497e+00	 6.0013176937e-02
-2.2132442251e+01	-2.7577164466e+00	 4.7997292886e-02
-2.2768838354e+01	-2.1213203436e+00	 3.7745686812e-02
-2.3405234457e+01	-1.4849242405e+00	 2.9124768176e-02
-2.4041630560e+01	-8.4852813742e-01	 2.2000946442e-02
-2.4678026663e+01	-2.1213203435e-01	 1.6240631073e-02
-2.5314422766e+01	 4.2426406872e-01	 1.1710231531e-02
-2.5950818870e+01	 1.0606601718e+00	 8.2761572814e-03
-2.6587214973e+01	 1.6970562749e+00	 5.5268026346e-03
-1.9940411229e+01	-4.3840620433e+00	 8.9068155174e-02
-2.0576807333e+01	-3.7476659403e+00	 7.1482061272e-02
-2.1213203436e+01	-3.1112698372e+00	 5.7665641762e-02
-2.1849599539e+01	-2.4748737342e+00	 4.5461586855e-02
-2.2485995642e+01	-1.8384776311e+00	 3.5049226133e-02
-2.3122391745e+01	-1.2020815280e+00	 2.6294969061e-02
-2.3758787848e+01	-5.6568542495e-01	 1.9065225102e-02
-2.4395183951e+01	 7.0710678120e-02	 1.3226403718e-02
-2.5031580054e+01	 7.0710678119e-01	 8.6449143728e-03
-2.5667976157e+01	 1.3435028843e+00	 5.1871665295e-03
-2.6304372260e+01	 1.9798989873e+00	 2.7195696509e-03
-1.9657568517e+01	-4.1012193309e+00	 9.0315317519e-02
-2.0293964620e+01	-3.4648232278e+00	 7.1723747626e-02
-2.0930360723e+01	-2.8284271247e+00	 5.5214929799e-02
-2.1566756826e+01	-2.1920310217e+00	 4.2792048669e-02
-2.2203152929e+01	-1.5556349186e+00	 3.2188277936e-02
-2.2839549032e+01	-9.1923881554e-01	 2.3270027064e-02
-2.3475945135e+01	-2.8284271248e-01	 1.5903705514e-02
-2.4112341238e+01	 3.5355339059e-01	 9.9557227511e-03
-2.4748737342e+01	 9.8994949366e-01	 5.2924882374e-03
-2.5385133445e+01	 1.6263455967e+00	 1.7804114361e-03
-2.6021529548e+01	 2.2627416998e+00	-7.1409818965e-04
-1.9374725804e+01	-3.8183766184e+00	 9.1526883486e-02
-2.0011121908e+01	-3.1819805153e+00	 7.1610675537e-02
-2.0647518011e+01	-2.5455844123e+00	 5.2647672584e-02
-2.1283914114e+01	-1.9091883092e+00	 3.9975309868e-02
-2.1920310217e+01	-1.2727922061e+00	 2.9149473759e-02
-2.2556706320e+01	-6.3639610307e-01	 2.0036573721e-02
-2.3193102423e+01	-1.2569945085e-12	 1.2503019217e-02
-2.3829498526e+01	 6.3639610307e-01	 6.4152197102e-03
-2.4465894629e+01	 1.2727922061e+00	 1.6395846633e-03
-2.5102290732e+01	 1.9091883092e+00	-1.9574764605e-03
-2.5738686835e+01	 2.5455844123e+00	-4.5095541981e-03
-1.9091883092e+01	-3.5355339059e+00	 9.2630389776e-02
-1.9728279195e+01	-2.8991378029e+00	 7.1472227504e-02
-2.0364675298e+01	-2.2627416998e+00	 5.1781269351e-02
-2.1001071401e+01	-1.6263455967e+00	 3.6998001988e-02
-2.1637467504e+01	-9.8994949366e-01	 2.5919445139e-02
-2.2273863607e+01	-3.5355339059e-01	 1.6581240572e-02
-2.2910259710e+01	 2.8284271247e-01	 8.8497977485e-03
-2.3546655813e+01	 9.1923881554e-01	 2.5915261331e-03
-2.4183051917e+01	 1.5556349186e+00	-2.3271648115e-03
-2.4819448020e+01	 2.1920310217e+00	-6.0398656223e-03
-2.5455844123e+01	 2.8284271248e+00	-8.6801668363e-03
-1.2727922061e+01	-9.8994949366e+00	 1.1044360268e-01
-1.3364318164e+01	-9.2630988335e+00	 1.2923320424e-01
-1.4000714267e+01	-8.6267027305e+00	 1.5430161111e-01
-1.4637110371e+01	-7.9903066274e+00	 1.8423079484e-01
-1.5273506474e+01	-7.3539105243e+00	 1.7620007251e-01
-1.5909902577e+01	-6.7175144213e+00	 1.6216509937e-01
-1.6546298680e+01	-6.0811183182e+00	 1.4744508336e-01
-1.7182694783e+01	-5.4447222151e+00	 1.3258580902e-01
-1.7819090886e+01	-4.8083261121e+00	 1.1813306813e-01
-1.8455486989e+01	-4.1719300090e+00	 1.0463265965e-01
-1.9091883092e+01	-3.5355339059e+00	 9.2630389776e-02
-1.2445079349e+01	-9.6166522241e+00	 1.4431996068e-01
-1.3081475452e+01	-8.9802561211e+00	 1.5218810062e-01
-1.3717871555e+01	-8.3438600180e+00	 1.6736073121e-01
-1.4354267658e+01	-7.7074639149e+00	 1.8841985468e-01
-1.4990663761e+01	-7.0710678118e+00	 1.9243864648e-01
-1.5627059864e+01	-6.4346717088e+00	 1.7124507894e-01
-1.6263455967e+01	-5.7982756057e+00	 1.5092869357e-01
-1.6899852070e+01	-5.1618795026e+00	 1.3203526791e-01
-1.7536248173e+01	-4.5254833996e+00	 1.1511058671e-01
-1.8172644276e+01	-3.8890872965e+00	 1.0070044192e-01
-1.8809040380e+01	-3.2526911934e+00	 8.8817828029e-02
-1.2162236636e+01	-9.3338095116e+00	 1.8023474256e-01
-1.2798632739e+01	-8.6974134086e+00	 1.7673389284e-01
-1.3435028843e+01	-8.0610173055e+00	 1.8156321507e-01
-1.4071424946e+01	-7.4246212024e+00	 1.9330474219e-01
-1.4707821049e+01	-6.7882250994e+00	 2.1038993959e-01
-1.5344217152e+01	-6.1518289963e+00	 1.8146094830e-01
-1.5980613255e+01	-5.5154328932e+00	 1.5497136100e-01
-1.6617009358e+01	-4.8790367902e+00	 1.3146694821e-01
-1.7253405461e+01	-4.2426406871e+00	 1.1149348767e-01
-1.7889801564e+01	-3.6062445840e+00	 9.5596764316e-02
-1.8526197667e+01	-2.9698484810e+00	 8.3226158941e-02
-1.1879393924e+01	-9.0509667992e+00	 2.1843340880e-01
-1.2515790027e+01	-8.4145706961e+00	 2.0311603530e-01
-1.3152186130e+01	-7.7781745930e+00	 1.9715451104e-01
-1.3788582233e+01	-7.1417784900e+00	 1.9913089966e-01
-1.4424978336e+01	-6.5053823869e+00	 2.0762741311e-01
-1.5061374439e+01	-5.8689862838e+00	 1.9274024788e-01
-1.5697770542e+01	-5.2325901808e+00	 1.5950062746e-01
-1.6334166645e+01	-4.5961940777e+00	 1.3080839312e-01
-1.6970562748e+01	-3.9597979746e+00	 1.0720931559e-01
-1.7606958852e+01	-3.3234018716e+00	 8.8632071045e-02
-1.8243354955e+01	-2.6870057685e+00	 7.6117534316e-02
-1.1596551211e+01	-8.7681240867e+00	 2.5916141886e-01
-1.2232947315e+01	-8.1317279836e+00	 2.3157998138e-01
-1.2869343418e+01	-7.4953318806e+00	 2.1438006644e-01
-1.3505739521e+01	-6.8589357775e+00	 2.0614376834e-01
-1.4142135624e+01	-6.2225396744e+00	 2.0545332974e-01
-1.4778531727e+01	-5.5861435714e+00	 2.0501052163e-01
-1.5414927830e+01	-4.9497474683e+00	 1.6444403829e-01
-1.6051323933e+01	-4.3133513652e+00	 1.2998714937e-01
-1.6687720036e+01	-3.6769552622e+00	 1.0218561858e-01
-1.7324116139e+01	-3.0405591591e+00	 7.9794413359e-02
-1.7960512242e+01	-2.4041630560e+00	 6.7485446262e-02
-1.1313708499e+01	-8.4852813742e+00	 3.0266423113e-01
-1.1950104602e+01	-7.8488852712e+00	 2.6237118342e-01
-1.2586500705e+01	-7.2124891681e+00	 2.3348532753e-01
-1.3222896808e+01	-6.5760930650e+00	 2.1458878844e-01
-1.3859292911e+01	-5.9396969620e+00	 2.0426383951e-01
-1.4495689014e+01	-5.3033008589e+00	 2.0109290242e-01
-1.5132085117e+01	-4.6669047558e+00	 1.6972914239e-01
-1.5768481220e+01	-4.0305086527e+00	 1.2893076724e-01
-1.6404877324e+01	-3.3941125497e+00	 9.5940020187e-02
-1.7041273427e+01	-2.7577164466e+00	 6.9932463934e-02
-1.7677669530e+01	-2.1213203435e+00	 5.7323386826e-02
-1.1030865787e+01	-8.2024386618e+00	 3.4918730298e-01
-1.1667261890e+01	-7.5660425587e+00	 2.9573509274e-01
-1.2303657993e+01	-6.9296464556e+00	 2.5471573957e-01
-1.2940054096e+01	-6.2932503525e+00	 2.2471139916e-01
-1.3576450199e+01	-5.6568542495e+00	 2.0430437554e-01
-1.4212846302e+01	-5.0204581464e+00	 1.9207712109e-01
-1.4849242405e+01	-4.3840620433e+00	 1.7528349220e-01
-1.5485638508e+01	-3.7476659403e+00	 1.2756680055e-01
-1.6122034611e+01	-3.1112698372e+00	 8.7303911414e-02
-1.6758430714e+01	-2.4748737341e+00	 5.9039715253e-02
-1.7394826817e+01	-1.8384776311e+00	 4.5624847997e-02
-1.0748023074e+01	-7.9195959493e+00	 3.9897609075e-01
-1.1384419177e+01	-7.2831998462e+00	 3.3191715960e-01
-1.2020815280e+01	-6.6468037431e+00	 2.7831674677e-01
-1.2657211383e+01	-6.0104076401e+00	 2.3675703864e-01
-1.3293607486e+01	-5.3740115370e+00	 2.0582036992e-01
-1.3930003589e+01	-4.7376154339e+00	 1.8408922368e-01
-1.4566399692e+01	-4.1012193309e+00	 1.7014623127e-01
-1.5202795796e+01	-3.4648232278e+00	 1.2582280668e-01
-1.5839191899e+01	-2.8284271247e+00	 7.8136177272e-02
-1.6475588002e+01	-2.1920310217e+00	 4.7109659736e-02
-1.7111984105e+01	-1.5556349186e+00	 3.2383321704e-02
-1.0465180362e+01	-7.6367532368e+00	 4.5227604974e-01
-1.1101576465e+01	-7.0003571338e+00	 3.7116283325e-01
-1.1737972568e+01	-6.3639610307e+00	 3.0453379231e-01
-1.2374368671e+01	-5.7275649276e+00	 2.5097114399e-01
-1.3010764774e+01	-5.0911688245e+00	 2.0905725370e-01
-1.3647160877e+01	-4.4547727215e+00	 1.7737463518e-01
-1.4283556980e+01	-3.8183766184e+00	 1.5450595048e-01
-1.4919953083e+01	-3.1819805153e+00	 1.2101125840e-01
-1.5556349186e+01	-2.5455844122e+00	 6.8430310615e-02
-1.6192745289e+01	-1.9091883092e+00	 3.4135789746e-02
-1.6829141392e+01	-1.2727922061e+00	 1.7592299819e-02
-1.0182337649e+01	-7.3539105244e+00	 5.0933263423e-01
-1.0818733752e+01	-6.7175144213e+00	 4.1371756189e-01
-1.1455129855e+01	-6.0811183182e+00	 3.3361231833e-01
-1.2091525958e+01	-5.4447222151e+00	 2.6759915130e-01
-1.2727922061e+01	-4.8083261121e+00	 2.1426045690e-01
-1.3364318164e+01	-4.1719300090e+00	 1.7217877955e-01
-1.4000714268e+01	-3.5355339059e+00	 1.3993681200e-01
-1.4637110371e+01	-2.8991378028e+00	 1.1116768654e-01
-1.5273506474e+01	-2.2627416998e+00	 5.8179804238e-02
-1.5909902577e+01	-1.6263455967e+00	 2.0111597586e-02
-1.6546298680e+01	-9.8994949363e-01	 1.2452741516e-03
-9.8994949366e+00	-7.0710678119e+00	 5.7039129743e-01
-1.0535891040e+01	-6.4346717088e+00	 4.5982679269e-01
-1.1172287143e+01	-5.7982756057e+00	 3.6579776594e-01
-1.1808683246e+01	-5.1618795027e+00	 2.8688649561e-01
-1.2445079349e+01	-4.5254833996e+00	 2.2167540850e-01
-1.3081475452e+01	-3.8890872965e+00	 1.6874707973e-01
-1.3717871555e+01	-3.2526911934e+00	 1.2410939234e-01
-1.4354267658e+01	-2.6162950904e+00	 8.7065042710e-02
-1.4990663761e+01	-1.9798989873e+00	 4.7378150879e-02
-1.5627059864e+01	-1.3435028842e+00	 5.0305755011e-03
-1.6263455967e+01	-7.0710678115e-01	-1.6664263545e-02
-1.9091883092e+01	-3.5355339059e+00	 9.2630389776e-02
-1.9728279195e+01	-2.8991378029e+00	 7.1472227504e-02
-2.0364675298e+01	-2.2627416998e+00	 5.1781269351e-02
-2.1001071401e+01	-1.6263455967e+00	 3.6998001988e-02
-2.1637467504e+01	-9.8994949366e-01	 2.5919445139e-02
-2.2273863607e+01	-3.5355339059e-01	 1.6581240572e-02
-2.2910259710e+01	 2.8284271247e-01	 8.8497977485e-03
-2.3546655813e+01	 9.1923881554e-01	 2.5915261331e-03
-2.4183051917e+01	 1.5556349186e+00	-2.3271648115e-03
-2.4819448020e+01	 2.1920310217e+00	-6.0398656223e-03
-2.5455844123e+01	 2.8284271248e+00	-8.6801668363e-03
-1.8809040380e+01	-3.2526911934e+00	 8.8817828029e-02
-1.9445436483e+01	-2.6162950904e+00	 6.8721121634e-02
-2.0081832586e+01	-1.9798989873e+00	 5.0117678316e-02
-2.0718228689e+01	-1.3435028843e+00	 3.3677370696e-02
-2.1354624792e+01	-7.0710678118e-01	 2.3143019484e-02
-2.1991020895e+01	-7.0710678117e-02	 1.4118001298e-02
-2.2627416998e+01	 5.6568542495e-01	 6.4687256009e-03
-2.3263813101e+01	 1.2020815280e+00	 6.1601855659e-05
-2.3900209204e+01	 1.8384776311e+00	-5.2369604747e-03
-2.4536605307e+01	 2.4748737342e+00	-9.5605519270e-03
-2.5173001410e+01	 3.1112698372e+00	-1.3042763038e-02
-1.8526197667e+01	-2.9698484810e+00	 8.3226158941e-02
-1.9162593770e+01	-2.3334523779e+00	 6.4644216961e-02
-1.9798989873e+01	-1.6970562748e+00	 4.7312938215e-02
-2.0435385976e+01	-1.0606601718e+00	 3.0696839968e-02
-2.1071782079e+01	-4.2426406871e-01	 1.9408667841e-02
-2.1708178182e+01	 2.1213203436e-01	 1.0855021952e-02
-2.2344574285e+01	 8.4852813743e-01	 3.4460992960e-03
-2.2980970389e+01	 1.4849242405e+00	-2.9516906642e-03
-2.3617366492e+01	 2.1213203436e+00	-8.4719384653e-03
-2.4253762595e+01	 2.7577164466e+00	-1.3248234644e-02
-2.4890158698e+01	 3.3941125497e+00	-1.7414169738e-02
-1.8243354955e+01	-2.6870057685e+00	 7.6117534316e-02
-1.8879751058e+01	-2.0506096654e+00	 5.9235005159e-02
-1.9516147161e+01	-1.4142135624e+00	 4.3360540229e-02
-2.0152543264e+01	-7.7781745930e-01	 2.7958659286e-02
-2.0788939367e+01	-1.4142135623e-01	 1.4703021750e-02
-2.1425335470e+01	 4.9497474684e-01	 6.7789340723e-03
-2.2061731573e+01	 1.1313708499e+00	-2.3144962815e-04
-2.2698127676e+01	 1.7677669530e+00	-6.4617198884e-03
-2.3334523779e+01	 2.4041630560e+00	-1.2045467245e-02
-2.3970919882e+01	 3.0405591591e+00	-1.7116282236e-02
-2.4607315985e+01	 3.6769552622e+00	-2.2202065404e-02
-1.7960512242e+01	-2.4041630560e+00	 6.7485446262e-02
-1.8596908345e+01	-1.7677669530e+00	 5.2486977841e-02
-1.9233304448e+01	-1.1313708499e+00	 3.8253975482e-02
-1.9869700551e+01	-4.9497474682e-01	 2.4250961433e-02
-2.0506096654e+01	 1.4142135625e-01	 9.9424340029e-03
-2.1142492757e+01	 7.7781745931e-01	 1.8763691964e-03
-2.1778888861e+01	 1.4142135624e+00	-4.5772896334e-03
-2.2415284964e+01	 2.0506096654e+00	-1.0481854279e-02
-2.3051681067e+01	 2.6870057685e+00	-1.5970915277e-02
-2.3688077170e+01	 3.3234018716e+00	-2.1178063164e-02
-2.4324473273e+01	 3.9597979746e+00	-2.6912333529e-02
-1.7677669530e+01	-2.1213203435e+00	 5.7323386826e-02
-1.8314065633e+01	-1.4849242405e+00	 4.4393626564e-02
-1.8950461736e+01	-8.4852813741e-01	 3.1986735036e-02
-1.9586857839e+01	-2.1213203434e-01	 1.9567236981e-02
-2.0223253942e+01	 4.2426406873e-01	 6.5996331993e-03
-2.0859650045e+01	 1.0606601718e+00	-3.8660411374e-03
-2.1496046148e+01	 1.6970562749e+00	-9.6047891816e-03
-2.2132442251e+01	 2.3334523779e+00	-1.5025462297e-02
-2.2768838354e+01	 2.9698484810e+00	-2.0261651021e-02
-2.3405234457e+01	 3.6062445840e+00	-2.5703021967e-02
-2.4041630560e+01	 4.2426406871e+00	-3.1413611154e-02
-1.7394826817e+01	-1.8384776311e+00	 4.5624847997e-02
-1.8031222920e+01	-1.2020815280e+00	 3.4948442825e-02
-1.8667619023e+01	-5.6568542493e-01	 2.4552309896e-02
-1.9304015126e+01	 7.0710678138e-02	 1.3900976441e-02
-1.9940411229e+01	 7.0710678120e-01	 2.4589457531e-03
-2.0576807333e+01	 1.3435028843e+00	-1.0309302822e-02
-2.1213203436e+01	 1.9798989873e+00	-1.5327316735e-02
-2.1849599539e+01	 2.6162950904e+00	-2.0105912406e-02
-2.2485995642e+01	 3.2526911935e+00	-2.4931042941e-02
-2.3122391745e+01	 3.8890872965e+00	-3.0431646992e-02
-2.3758787848e+01	 4.5254833996e+00	-3.5687792057e-02
-1.7111984105e+01	-1.5556349186e+00	 3.2383321704e-02
-1.7748380208e+01	-9.1923881552e-01	 2.4144918061e-02
-1.8384776311e+01	-2.8284271245e-01	 1.5944191007e-02
-1.9021172414e+01	 3.5355339062e-01	 7.2456702671e-03
-1.9657568517e+01	 9.8994949368e-01	-2.4861383751e-03
-2.0293964620e+01	 1.6263455967e+00	-1.3786753080e-02
-2.0930360723e+01	 2.2627416998e+00	-2.1758240755e-02
-2.1566756826e+01	 2.8991378029e+00	-2.5736573066e-02
-2.2203152929e+01	 3.5355339059e+00	-3.0114003431e-02
-2.2839549032e+01	 4.1719300090e+00	-3.5085932086e-02
-2.3475945135e+01	 4.8083261121e+00	-3.9716769648e-02
-1.6829141392e+01	-1.2727922061e+00	 1.7592299819e-02
-1.7465537495e+01	-6.3639610304e-01	 1.1976543649e-02
-1.8101933598e+01	 2.8723246004e-11	 6.1558692551e-03
-1.8738329701e+01	 6.3639610310e-01	-4.0519114755e-04
-1.9374725805e+01	 1.2727922062e+00	-8.2421292836e-03
-2.0011121908e+01	 1.9091883092e+00	-1.7890460821e-02
-2.0647518011e+01	 2.5455844123e+00	-2.8910929703e-02
-2.1283914114e+01	 3.1819805154e+00	-3.1930812740e-02
-2.1920310217e+01	 3.8183766184e+00	-3.5756120934e-02
-2.2556706320e+01	 4.4547727215e+00	-3.9647770917e-02
-2.3193102423e+01	 5.0911688245e+00	-4.3482436970e-02
-1.6546298680e+01	-9.8994949363e-01	 1.2452741516e-03
-1.7182694783e+01	-3.5355339056e-01	-1.5631890898e-03
-1.7819090886e+01	 2.8284271251e-01	-4.8191645323e-03
-1.8455486989e+01	 9.1923881558e-01	-9.0581174680e-03
-1.9091883092e+01	 1.5556349186e+00	-1.4815537130e-02
-1.9728279195e+01	 2.1920310217e+00	-2.2626936694e-02
-2.0364675298e+01	 2.8284271248e+00	-3.3027853279e-02
-2.1001071401e+01	 3.4648232278e+00	-3.8719207495e-02
-2.1637467504e+01	 4.1012193309e+00	-4.1458549788e-02
-2.2273863607e+01	 4.7376154340e+00	-4.4099056785e-02
-2.2910259710e+01	 5.3740115370e+00	-4.6966686695e-02
-1.6263455967e+01	-7.0710678115e-01	-1.6664263545e-02
-1.6899852070e+01	-7.0710678080e-02	-1.6480788897e-02
-1.7536248173e+01	 5.6568542499e-01	-1.6987419588e-02
-1.8172644276e+01	 1.2020815281e+00	-1.8719618419e-02
-1.8809040380e+01	 1.8384776311e+00	-2.2212872131e-02
-1.9445436483e+01	 2.4748737342e+00	-2.8002691407e-02
-2.0081832586e+01	 3.1112698373e+00	-3.6624610874e-02
-2.0718228689e+01	 3.7476659403e+00	-4.6169952548e-02
-2.1354624792e+01	 4.3840620434e+00	-4.7203183550e-02
-2.1991020895e+01	 5.0204581464e+00	-4.8421682619e-02
-2.2627416998e+01	 5.6568542495e+00	-5.0151411130e-02
-7.0710678119e+00	-7.0710678119e+00	-5.9043875425e-02
-7.0710678119e+00	-7.0710678119e+00	-5.9043875425e-02
-7.0710678119e+00	-7.0710678119e+00	-5.9043875425e-02
-7.0710678119e+00	-7.0710678119e+00	-5.9043875425e-02
-7.0710678119e+00	-7.0710678119e+00	-5.9043875425e-02
-7.0710678119e+00	-7.0710678119e+00	-5.9043875425e-02
-7.0710678119e+00	-7.0710678119e+00	-5.9043875425e-02
-7.0710678119e+00	-7.0710678119e+00	-5.9043875425e-02
-7.0710678119e+00	-7.0710678119e+00	-5.9043875425e-02
-7.0710678119e+00	-7.0710678119e+00	-5.9043875425e-02
-7.0710678119e+00	-7.0710678119e+00	-5.9043875425e-02
-7.0746033458e+00	-7.0746033458e+00	-5.0416125762e-01
-7.0742497924e+00	-7.0749568992e+00	-1.4553495433e+00
-7.0738962390e+00	-7.0753104526e+00	-2.2245484487e+00
-7.0735426856e+00	-7.0756640060e+00	-2.8117579740e+00
-7.0731891322e+00	-7.0760175594e+00	-3.2169781191e+00
-7.0728355789e+00	-7.0763711128e+00	-3.4402088840e+00
-7.0724820255e+00	-7.0767246661e+00	-3.4814502687e+00
-7.0721284721e+00	-7.0770782195e+00	-3.3407022732e+00
-7.0717749187e+00	-7.0774317729e+00	-3.0179648975e+00
-7.0714213653e+00	-7.0777853263e+00	-2.5132381417e+00
-7.0710678119e+00	-7.0781388797e+00	-1.8265220056e+00
-7.0852099475e+00	-7.0852099475e+00	-2.5625976047e-01
-7.0837957340e+00	-7.0866241611e+00	-7.3052938992e-01
-7.0823815204e+00	-7.0880383746e+00	-1.1135524432e+00
-7.0809673068e+00	-7.0894525882e+00	-1.4053289202e+00
-7.0795530933e+00	-7.0908668018e+00	-1.6058588210e+00
-7.0781388797e+00	-7.0922810153e+00	-1.7151421456e+00
-7.0767246661e+00	-7.0936952289e+00	-1.7331788939e+00
-7.0753104526e+00	-7.0951094425e+00	-1.6599690660e+00
-7.0738962390e+00	-7.0965236560e+00	-1.4955126619e+00
-7.0724820255e+00	-7.0979378696e+00	-1.2398096815e+00
-7.0710678119e+00	-7.0993520831e+00	-8.9286012478e-01
-7.1028876171e+00	-7.1028876171e+00	-1.6888814175e-01
-7.0997056365e+00	-7.1060695976e+00	-4.8567967927e-01
-7.0965236560e+00	-7.1092515781e+00	-7.4156632318e-01
-7.0933416755e+00	-7.1124335586e+00	-9.3654807338e-01
-7.0901596950e+00	-7.1156155391e+00	-1.0706249298e+00
-7.0869777145e+00	-7.1187975196e+00	-1.1437968924e+00
-7.0837957340e+00	-7.1219795001e+00	-1.1560639610e+00
-7.0806137534e+00	-7.1251614807e+00	-1.1074261357e+00
-7.0774317729e+00	-7.1283434612e+00	-9.9788341618e-01
-7.0742497924e+00	-7.1315254417e+00	-8.2743580253e-01
-7.0710678119e+00	-7.1347074222e+00	-5.9608329461e-01
-7.1276363544e+00	-7.1276363544e+00	-1.2517330932e-01
-7.1219795001e+00	-7.1332932086e+00	-3.6344280971e-01
-7.1163226459e+00	-7.1389500629e+00	-5.5599583108e-01
-7.1106657916e+00	-7.1446069171e+00	-7.0283237297e-01
-7.1050089374e+00	-7.1502637714e+00	-8.0395243494e-01
-7.0993520831e+00	-7.1559206256e+00	-8.5935601653e-01
-7.0936952289e+00	-7.1615774799e+00	-8.6904311729e-01
-7.0880383746e+00	-7.1672343341e+00	-8.3301373676e-01
-7.0823815204e+00	-7.1728911884e+00	-7.5126787450e-01
-7.0767246661e+00	-7.1785480426e+00	-6.2380553005e-01
-7.0710678119e+00	-7.1842048969e+00	-4.5062670296e-01
-7.1594561595e+00	-7.1594561595e+00	-9.9698168469e-02
-7.1506173248e+00	-7.1682949943e+00	-2.9086646386e-01
-7.1417784900e+00	-7.1771338291e+00	-4.4543684211e-01
-7.1329396553e+00	-7.1859726638e+00	-5.6340930147e-01
-7.1241008205e+00	-7.1948114986e+00	-6.4478384023e-01
-7.1152619857e+00	-7.2036503334e+00	-6.8956045666e-01
-7.1064231510e+00	-7.2124891681e+00	-6.9773914904e-01
-7.0975843162e+00	-7.2213280029e+00	-6.6931991563e-01
-7.0887454814e+00	-7.2301668377e+00	-6.0430275472e-01
-7.0799066467e+00	-7.2390056724e+00	-5.0268766457e-01
-7.0710678119e+00	-7.2478445072e+00	-3.6447464346e-01
-7.1983470325e+00	-7.1983470325e+00	-8.3701794553e-02
-7.1856191105e+00	-7.2110749546e+00	-2.4342214937e-01
-7.1728911884e+00	-7.2238028766e+00	-3.7262576827e-01
-7.1601632663e+00	-7.2365307987e+00	-4.7131264609e-01
-7.1474353443e+00	-7.2492587208e+00	-5.3948277768e-01
-7.1347074222e+00	-7.2619866428e+00	-5.7713615789e-01
-7.1219795001e+00	-7.2747145649e+00	-5.8427278156e-01
-7.1092515781e+00	-7.2874424869e+00	-5.6089264354e-01
-7.0965236560e+00	-7.3001704090e+00	-5.0699573868e-01
-7.0837957340e+00	-7.3128983311e+00	-4.2258206181e-01
-7.0710678119e+00	-7.3256262531e+00	-3.0765160779e-01
-7.2443089733e+00	-7.2443089733e+00	-7.3354128642e-02
-7.2269848572e+00	-7.2616330894e+00	-2.1054079287e-01
-7.2096607410e+00	-7.2789572056e+00	-3.2155526522e-01
-7.1923366249e+00	-7.2962813217e+00	-4.0639753269e-01
-7.1750125087e+00	-7.3136054378e+00	-4.6506758229e-01
-7.1576883926e+00	-7.3309295540e+00	-4.9756540101e-01
-7.1403642765e+00	-7.3482536701e+00	-5.0389097587e-01
-7.1230401603e+00	-7.3655777862e+00	-4.8404429387e-01
-7.1057160442e+00	-7.3829019024e+00	-4.3802534200e-01
-7.0883919280e+00	-7.4002260185e+00	-3.6583410728e-01
-7.0710678119e+00	-7.4175501347e+00	-2.6747057670e-01
-7.2973419819e+00	-7.2973419819e+00	-6.6710887779e-02
-7.2747145649e+00	-7.3199693989e+00	-1.8691425433e-01
-7.2520871479e+00	-7.3425968159e+00	-2.8420404584e-01
-7.2294597309e+00	-7.3652242329e+00	-3.5858023334e-01
-7.2068323139e+00	-7.3878516499e+00	-4.1004278788e-01
-7.1842048969e+00	-7.4104790669e+00	-4.3859168049e-01
-7.1615774799e+00	-7.4331064838e+00	-4.4422688222e-01
-7.1389500629e+00	-7.4557339008e+00	-4.2694836411e-01
-7.1163226459e+00	-7.4783613178e+00	-3.8675609719e-01
-7.0936952289e+00	-7.5009887348e+00	-3.2365005251e-01
-7.0710678119e+00	-7.5236161518e+00	-2.3763020111e-01
-7.3574460583e+00	-7.3574460583e+00	-6.2676009323e-02
-7.3288082336e+00	-7.3860838829e+00	-1.6957951002e-01
-7.3001704090e+00	-7.4147217075e+00	-2.5610374128e-01
-7.2715325844e+00	-7.4433595322e+00	-3.2224864441e-01
-7.2428947597e+00	-7.4719973568e+00	-3.6801416069e-01
-7.2142569351e+00	-7.5006351814e+00	-3.9340023142e-01
-7.1856191105e+00	-7.5292730061e+00	-3.9840679789e-01
-7.1569812858e+00	-7.5579108307e+00	-3.8303380138e-01
-7.1283434612e+00	-7.5865486554e+00	-3.4728118319e-01
-7.0997056365e+00	-7.6151864800e+00	-2.9114888461e-01
-7.0710678119e+00	-7.6438243046e+00	-2.1463684693e-01
-7.4246212025e+00	-7.4246212025e+00	-6.0580495132e-02
-7.3892658634e+00	-7.4599765416e+00	-1.5674787247e-01
-7.3539105244e+00	-7.4953318806e+00	-2.3456297440e-01
-7.3185551853e+00	-7.5306872197e+00	-2.9402569045e-01
-7.2831998463e+00	-7.5660425587e+00	-3.3513591015e-01
-7.2478445072e+00	-7.6013978978e+00	-3.5789352303e-01
-7.2124891681e+00	-7.6367532368e+00	-3.6229841861e-01
-7.1771338291e+00	-7.6721085759e+00	-3.4835048643e-01
-7.1417784900e+00	-7.7074639149e+00	-3.1604961601e-01
-7.1064231510e+00	-7.7428192540e+00	-2.6539569688e-01
-7.0710678119e+00	-7.7781745931e+00	-1.9638861856e-01
-7.4246212025e+00	-7.4246212025e+00	-6.0580495132e-02
-7.3892658634e+00	-7.4599765416e+00	-1.5674787247e-01
-7.3539105244e+00	-7.4953318806e+00	-2.3456297440e-01
-7.3185551853e+00	-7.5306872197e+00	-2.9402569045e-01
-7.2831998463e+00	-7.5660425587e+00	-3.3513591015e-01
-7.2478445072e+00	-7.6013978978e+00	-3.5789352303e-01
-7.2124891681e+00	-7.6367532368e+00	-3.6229841861e-01
-7.1771338291e+00	-7.6721085759e+00	-3.4835048643e-01
-7.1417784900e+00	-7.7074639149e+00	-3.1604961601e-01
-7.1064231510e+00	-7.7428192540e+00	-2.6539569688e-01
-7.0710678119e+00	-7.7781745931e+00	-1.9638861856e-01
-7.4988674145e+00	-7.4988674145e+00	-4.7410900274e-02
-7.4560874543e+00	-7.5416473748e+00	-1.3404662100e-01
-7.4133074940e+00	-7.5844273350e+00	-2.0326577124e-01
-7.3705275337e+00	-7.6272072953e+00	-2.5506815532e-01
-7.3277475735e+00	-7.6699872555e+00	-2.8945357751e-01
-7.2849676132e+00	-7.7127672158e+00	-3.0642184211e-01
-7.2421876530e+00	-7.7555471761e+00	-3.0597275342e-01
-7.1994076927e+00	-7.7983271363e+00	-2.8810611573e-01
-7.1566277324e+00	-7.8411070966e+00	-2.5282173333e-01
-7.1138477722e+00	-7.8838870568e+00	-2.0011941050e-01
-7.0710678119e+00	-7.9266670171e+00	-1.2999895154e-01
-7.5801846944e+00	-7.5801846944e+00	-3.7002419489e-02
-7.5292730061e+00	-7.6310963826e+00	-1.1622925313e-01
-7.4783613179e+00	-7.6820080708e+00	-1.7906353518e-01
-7.4274496296e+00	-7.7329197591e+00	-2.2550493579e-01
-7.3765379414e+00	-7.7838314473e+00	-2.5555312509e-01
-7.3256262531e+00	-7.8347431355e+00	-2.6920777322e-01
-7.2747145649e+00	-7.8856548238e+00	-2.6646855030e-01
-7.2238028766e+00	-7.9365665120e+00	-2.4733512647e-01
-7.1728911884e+00	-7.9874782003e+00	-2.1180717185e-01
-7.1219795001e+00	-8.0383898885e+00	-1.5988435657e-01
-7.0710678119e+00	-8.0893015768e+00	-9.1566350749e-02
-7.6685730420e+00	-7.6685730420e+00	-2.8894289616e-02
-7.6088225190e+00	-7.7283235650e+00	-1.0219694107e-01
-7.5490719960e+00	-7.7880740880e+00	-1.6014651552e-01
-7.4893214730e+00	-7.8478246110e+00	-2.0274247976e-01
-7.4295709500e+00	-7.9075751340e+00	-2.2998430056e-01
-7.3698204270e+00	-7.9673256570e+00	-2.4187144470e-01
-7.3100699039e+00	-8.0270761800e+00	-2.3840337895e-01
-7.2503193809e+00	-8.0868267030e+00	-2.1957957006e-01
-7.1905688579e+00	-8.1465772260e+00	-1.8539948481e-01
-7.1308183349e+00	-8.2063277490e+00	-1.3586258995e-01
-7.0710678119e+00	-8.2660782721e+00	-7.0968352226e-02
-7.7640324575e+00	-7.7640324575e+00	-2.2717557646e-02
-7.6947359929e+00	-7.8333289220e+00	-9.1160639963e-02
-7.6254395284e+00	-7.9026253866e+00	-1.4526737087e-01
-7.5561430638e+00	-7.9719218511e+00	-1.8503691859e-01
-7.4868465992e+00	-8.0412183156e+00	-2.1046845130e-01
-7.4175501347e+00	-8.1105147802e+00	-2.2156113722e-01
-7.3482536701e+00	-8.1798112448e+00	-2.1831414452e-01
-7.2789572056e+00	-8.2491077093e+00	-2.0072664139e-01
-7.2096607410e+00	-8.3184041739e+00	-1.6879779599e-01
-7.1403642765e+00	-8.3877006384e+00	-1.2252677649e-01
-7.0710678119e+00	-8.4569971030e+00	-6.1912751045e-02
-7.8665629407e+00	-7.8665629407e+00	-1.8173022409e-02
-7.7870134278e+00	-7.9461124536e+00	-8.2535095334e-02
-7.7074639150e+00	-8.0256619665e+00	-1.3353538229e-01
-7.6279144021e+00	-8.1052114793e+00	-1.7117262494e-01
-7.5483648892e+00	-8.1847609922e+00	-1.9544556494e-01
-7.4688153763e+00	-8.2643105051e+00	-2.0635294395e-01
-7.3892658634e+00	-8.3438600180e+00	-2.0389350359e-01
-7.3097163506e+00	-8.4234095309e+00	-1.8806598547e-01
-7.2301668377e+00	-8.5029590437e+00	-1.5886913121e-01
-7.1506173248e+00	-8.5825085566e+00	-1.1630168240e-01
-7.0710678119e+00	-8.6620580695e+00	-6.0362380608e-02
-7.9761644918e+00	-7.9761644918e+00	-1.5013991970e-02
-7.8856548238e+00	-8.0666741598e+00	-7.5873111931e-02
-7.7951451558e+00	-8.1571838278e+00	-1.2429383823e-01
-7.7046354878e+00	-8.2476934958e+00	-1.6027431748e-01
-7.6141258198e+00	-8.3382031637e+00	-1.8381269626e-01
-7.5236161519e+00	-8.4287128317e+00	-1.9490712113e-01
-7.4331064839e+00	-8.5192224997e+00	-1.9355573864e-01
-7.3425968159e+00	-8.6097321677e+00	-1.7975669529e-01
-7.2520871479e+00	-8.7002418357e+00	-1.5350813759e-01
-7.1615774799e+00	-8.7907515037e+00	-1.1480821202e-01
-7.0710678119e+00	-8.8812611717e+00	-6.3655065028e-02
-8.0928371107e+00	-8.0928371107e+00	-1.3033176117e-02
-7.9906601808e+00	-8.1950140406e+00	-7.0823273265e-02
-7.8884832509e+00	-8.2971909704e+00	-1.1704398936e-01
-7.7863063211e+00	-8.3993679003e+00	-1.5169265789e-01
-7.6841293912e+00	-8.5015448302e+00	-1.7476661231e-01
-7.5819524613e+00	-8.6037217601e+00	-1.8626318606e-01
-7.4797755314e+00	-8.7058986899e+00	-1.8617971251e-01
-7.3775986015e+00	-8.8080756198e+00	-1.7451352503e-01
-7.2754216717e+00	-8.9102525497e+00	-1.5126195693e-01
-7.1732447418e+00	-9.0124294796e+00	-1.1642234150e-01
-7.0710678119e+00	-9.1146064095e+00	-6.9992011989e-02
-8.2165807974e+00	-8.2165807974e+00	-1.2052786720e-02
-8.1020294988e+00	-8.3311320959e+00	-6.7101867840e-02
-7.9874782003e+00	-8.4456833945e+00	-1.1139622498e-01
-7.8729269017e+00	-8.5602346930e+00	-1.4493210076e-01
-7.7583756032e+00	-8.6747859916e+00	-1.6770573774e-01
-7.6438243047e+00	-8.7893372901e+00	-1.7971337843e-01
-7.5292730061e+00	-8.9038885887e+00	-1.8095126530e-01
-7.4147217076e+00	-9.0184398872e+00	-1.7141564073e-01
-7.3001704090e+00	-9.1329911858e+00	-1.5110274707e-01
-7.1856191105e+00	-9.2475424843e+00	-1.2000882661e-01
-7.0710678119e+00	-9.3620937829e+00	-7.8130121593e-02
-8.3473955519e+00	-8.3473955519e+00	-1.1917035332e-02
-8.2197627779e+00	-8.4750283259e+00	-6.4473717925e-02
-8.0921300039e+00	-8.6026610999e+00	-1.0703776182e-01
-7.9644972299e+00	-8.7302938739e+00	-1.3960396979e-01
-7.8368644559e+00	-8.8579266479e+00	-1.6216714450e-01
-7.7092316819e+00	-8.9855594219e+00	-1.7472208855e-01
-7.5815989079e+00	-9.1131921959e+00	-1.7726360443e-01
-7.4539661339e+00	-9.2408249699e+00	-1.6978649457e-01
-7.3263333599e+00	-9.3684577439e+00	-1.5228556131e-01
-7.1987005859e+00	-9.4960905179e+00	-1.2475560689e-01
-7.0710678119e+00	-9.6237232919e+00	-8.7191433489e-02
-8.4852813742e+00	-8.4852813742e+00	-1.2486398624e-02
-8.3438600180e+00	-8.6267027304e+00	-6.2738753220e-02
-8.2024386618e+00	-8.7681240867e+00	-1.0371067627e-01
-8.0610173055e+00	-8.9095454429e+00	-1.3539509755e-01
-7.9195959493e+00	-9.0509667992e+00	-1.5778494674e-01
-7.7781745931e+00	-9.1923881554e+00	-1.7087315337e-01
-7.6367532368e+00	-9.3338095116e+00	-1.7465264685e-01
-7.4953318806e+00	-9.4752308679e+00	-1.6911635646e-01
-7.3539105244e+00	-9.6166522241e+00	-1.5425721134e-01
-7.2124891681e+00	-9.7580735804e+00	-1.3006814053e-01
-7.0710678119e+00	-9.8994949366e+00	-9.6542072930e-02
-7.0710678119e+00	-7.0710678119e+00	-5.9043875425e-02
-7.0710678119e+00	-7.0710678119e+00	-5.9043875425e-02
-7.0710678119e+00	-7.0710678119e+00	-5.9043875425e-02
-7.0710678119e+00	-7.0710678119e+00	-5.9043875425e-02
-7.0710678119e+00	-7.0710678119e+00	-5.9043875425e-02
-7.0710678119e+00	-7.0710678119e+00	-5.9043875425e-02
-7.0710678119e+00	-7.0710678119e+00	-5.9043875425e-02
-7.0710678119e+00	-7.0710678119e+00	-5.9043875425e-02
-7.0710678119e+00	-7.0710678119e+00	-5.9043875425e-02
-7.0710678119e+00	-7.0710678119e+00	-5.9043875425e-02
-7.0710678119e+00	-7.0710678119e+00	-5.9043875425e-02
-7.0710678119e+00	-7.0781388797e+00	-4.9483519865e+00
-7.0707142585e+00	-7.0777853263e+00	-3.1901671560e+00
-7.0703607051e+00	-7.0774317729e+00	-1.7433296574e+00
-7.0700071517e+00	-7.0770782195e+00	-6.0783949050e-01
-7.0696535983e+00	-7.0767246661e+00	 2.1630334455e-01
-7.0693000449e+00	-7.0763711128e+00	 7.2909884780e-01
-7.0689464916e+00	-7.0760175594e+00	 9.3054701926e-01
-7.0685929382e+00	-7.0756640060e+00	 8.2064785890e-01
-7.0682393848e+00	-7.0753104526e+00	 3.9940136676e-01
-7.0678858314e+00	-7.0749568992e+00	-3.3319245721e-01
-7.0675322780e+00	-7.0746033458e+00	-1.3771336130e+00
-7.0710678119e+00	-7.0993520831e+00	-2.5132737077e+00
-7.0696535983e+00	-7.0979378696e+00	-1.6178194402e+00
-7.0682393848e+00	-7.0965236560e+00	-8.8020703994e-01
-7.0668251712e+00	-7.0951094425e+00	-3.0043650701e-01
-7.0654109577e+00	-7.0936952289e+00	 1.2149215859e-01
-7.0639967441e+00	-7.0922810153e+00	 3.8557895687e-01
-7.0625825305e+00	-7.0908668018e+00	 4.9182388782e-01
-7.0611683170e+00	-7.0894525882e+00	 4.4022695143e-01
-7.0597541034e+00	-7.0880383746e+00	 2.3078814770e-01
-7.0583398898e+00	-7.0866241611e+00	-1.3649252339e-01
-7.0569256763e+00	-7.0852099475e+00	-6.6161506185e-01
-7.0710678119e+00	-7.1347074222e+00	-1.6526495891e+00
-7.0678858314e+00	-7.1315254417e+00	-1.0573783473e+00
-7.0647038509e+00	-7.1283434612e+00	-5.6747658395e-01
-7.0615218704e+00	-7.1251614807e+00	-1.8294429898e-01
-7.0583398898e+00	-7.1219795001e+00	 9.6218507468e-02
-7.0551579093e+00	-7.1187975196e+00	 2.7001183532e-01
-7.0519759288e+00	-7.1156155391e+00	 3.3843568449e-01
-7.0487939483e+00	-7.1124335586e+00	 3.0149005488e-01
-7.0456119678e+00	-7.1092515781e+00	 1.5917494642e-01
-7.0424299873e+00	-7.1060695976e+00	-8.8509640986e-02
-7.0392480067e+00	-7.1028876171e+00	-4.4156370743e-01
-7.0710678119e+00	-7.1842048969e+00	-1.2133865115e+00
-7.0654109577e+00	-7.1785480426e+00	-7.7048624258e-01
-7.0597541034e+00	-7.1728911884e+00	-4.0647459750e-01
-7.0540972492e+00	-7.1672343341e+00	-1.2135157677e-01
-7.0484403949e+00	-7.1615774799e+00	 8.4882819134e-02
-7.0427835407e+00	-7.1559206256e+00	 2.1222858973e-01
-7.0371266864e+00	-7.1502637714e+00	 2.6068573454e-01
-7.0314698322e+00	-7.1446069171e+00	 2.3025425308e-01
-7.0258129779e+00	-7.1389500629e+00	 1.2093414485e-01
-7.0201561237e+00	-7.1332932086e+00	-6.7274590615e-02
-7.0144992694e+00	-7.1276363544e+00	-3.3437195381e-01
-7.0710678119e+00	-7.2478445072e+00	-9.4714805110e-01
-7.0622289771e+00	-7.2390056724e+00	-5.9632636598e-01
-7.0533901424e+00	-7.2301668377e+00	-3.0842620105e-01
-7.0445513076e+00	-7.2213280029e+00	-8.3447558166e-02
-7.0357124728e+00	-7.2124891681e+00	 7.8609560831e-02
-7.0268736381e+00	-7.2036503334e+00	 1.7774515409e-01
-7.0180348033e+00	-7.1948114986e+00	 2.1395921978e-01
-7.0091959685e+00	-7.1859726638e+00	 1.8725175605e-01
-7.0003571338e+00	-7.1771338291e+00	 9.7622761039e-02
-6.9915182990e+00	-7.1682949943e+00	-5.4927767084e-02
-6.9826794642e+00	-7.1594561595e+00	-2.7039983017e-01
-7.0710678119e+00	-7.3256262531e+00	-7.6868303594e-01
-7.0583398898e+00	-7.3128983311e+00	-4.7945724350e-01
-7.0456119678e+00	-7.3001704090e+00	-2.4247505198e-01
-7.0328840457e+00	-7.2874424869e+00	-5.7736466883e-02
-7.0201561237e+00	-7.2747145649e+00	 7.4758506276e-02
-7.0074282016e+00	-7.2619866428e+00	 1.5500986199e-01
-6.9947002795e+00	-7.2492587208e+00	 1.8301759474e-01
-6.9819723575e+00	-7.2365307987e+00	 1.5878169902e-01
-6.9692444354e+00	-7.2238028766e+00	 8.2302169321e-02
-6.9565165133e+00	-7.2110749546e+00	-4.6420999874e-02
-6.9437885913e+00	-7.1983470325e+00	-2.2738781408e-01
-7.0710678119e+00	-7.4175501347e+00	-6.4083885431e-01
-7.0537436958e+00	-7.4002260185e+00	-3.9565903978e-01
-7.0364195796e+00	-7.3829019024e+00	-1.9507890005e-01
-7.0190954635e+00	-7.3655777862e+00	-3.9098449030e-02
-7.0017713473e+00	-7.3482536701e+00	 7.2282299392e-02
-6.9844472312e+00	-7.3309295540e+00	 1.3906333132e-01
-6.9671231151e+00	-7.3136054378e+00	 1.6124463285e-01
-6.9497989989e+00	-7.2962813217e+00	 1.3882619008e-01
-6.9324748828e+00	-7.2789572056e+00	 7.1807989131e-02
-6.9151507666e+00	-7.2616330894e+00	-3.9809983912e-02
-6.8978266505e+00	-7.2443089733e+00	-1.9602774294e-01
-7.0710678119e+00	-7.5236161518e+00	-5.4482672863e-01
-7.0484403949e+00	-7.5009887348e+00	-3.3266217808e-01
-7.0258129779e+00	-7.4783613178e+00	-1.5935439794e-01
-7.0031855609e+00	-7.4557339008e+00	-2.4903419179e-02
-6.9805581439e+00	-7.4331064838e+00	 7.0690727230e-02
-6.9579307269e+00	-7.4104790669e+00	 1.2742801033e-01
-6.9353033099e+00	-7.3878516499e+00	 1.4530839914e-01
-6.9126758929e+00	-7.3652242329e+00	 1.2433186271e-01
-6.8900484759e+00	-7.3425968159e+00	 6.4498370058e-02
-6.8674210589e+00	-7.3199693989e+00	-3.4192109771e-02
-6.8447936419e+00	-7.2973419819e+00	-1.7173960775e-01
-7.0710678119e+00	-7.6438243046e+00	-4.7011496899e-01
-7.0424299873e+00	-7.6151864800e+00	-2.8357876266e-01
-7.0137921626e+00	-7.5865486554e+00	-1.3142579766e-01
-6.9851543380e+00	-7.5579108307e+00	-1.3656136762e-02
-6.9565165133e+00	-7.5292730061e+00	 6.9730157256e-02
-6.9278786887e+00	-7.5006351814e+00	 1.1873302161e-01
-6.8992408641e+00	-7.4719973568e+00	 1.3335239353e-01
-6.8706030394e+00	-7.4433595322e+00	 1.1358821023e-01
-6.8419652148e+00	-7.4147217075e+00	 5.9440408941e-02
-6.8133273902e+00	-7.3860838829e+00	-2.9091073125e-02
-6.7846895655e+00	-7.3574460583e+00	-1.5200629874e-01
-7.0710678119e+00	-7.7781745931e+00	-4.1033357836e-01
-7.0357124728e+00	-7.7428192540e+00	-2.4423605563e-01
-7.0003571338e+00	-7.7074639149e+00	-1.0893754177e-01
-6.9650017947e+00	-7.6721085759e+00	-4.4381548901e-03
-6.9296464557e+00	-7.6367532368e+00	 6.9261986866e-02
-6.8942911166e+00	-7.6013978978e+00	 1.1216276537e-01
-6.8589357775e+00	-7.5660425587e+00	 1.2426406250e-01
-6.8235804385e+00	-7.5306872197e+00	 1.0556576011e-01
-6.7882250994e+00	-7.4953318806e+00	 5.6067740094e-02
-6.7528697604e+00	-7.4599765416e+00	-2.4230115691e-02
-6.7175144213e+00	-7.4246212025e+00	-1.3532792537e-01
-7.0710678119e+00	-7.7781745931e+00	-4.1033357836e-01
-7.0357124728e+00	-7.7428192540e+00	-2.4423605563e-01
-7.0003571338e+00	-7.7074639149e+00	-1.0893754177e-01
-6.9650017947e+00	-7.6721085759e+00	-4.4381548901e-03
-6.9296464557e+00	-7.6367532368e+00	 6.9261986866e-02
-6.8942911166e+00	-7.6013978978e+00	 1.1216276537e-01
-6.8589357775e+00	-7.5660425587e+00	 1.2426406250e-01
-6.8235804385e+00	-7.5306872197e+00	 1.0556576011e-01
-6.7882250994e+00	-7.4953318806e+00	 5.6067740094e-02
-6.7528697604e+00	-7.4599765416e+00	-2.4230115691e-02
-6.7175144213e+00	-7.4246212025e+00	-1.3532792537e-01
-7.0710678119e+00	-7.9266670171e+00	-3.7407503330e-01
-7.0282878516e+00	-7.8838870568e+00	-2.2455511530e-01
-6.9855078914e+00	-7.8411070966e+00	-1.0273909765e-01
-6.9427279311e+00	-7.7983271363e+00	-8.6271896259e-03
-6.8999479708e+00	-7.7555471761e+00	 5.7780399495e-02
-6.8571680106e+00	-7.7127672158e+00	 9.6483460437e-02
-6.8143880503e+00	-7.6699872555e+00	 1.0748178392e-01
-6.7716080901e+00	-7.6272072953e+00	 9.0775160685e-02
-6.7288281298e+00	-7.5844273350e+00	 4.6363381446e-02
-6.6860481695e+00	-7.5416473748e+00	-2.5753763067e-02
-6.6432682093e+00	-7.4988674145e+00	-1.2557648212e-01
-7.0710678119e+00	-8.0893015768e+00	-3.4222689234e-01
-7.0201561237e+00	-8.0383898885e+00	-2.0566200534e-01
-6.9692444354e+00	-7.9874782003e+00	-9.4270416265e-02
-6.9183327472e+00	-7.9365665120e+00	-8.0524778683e-03
-6.8674210589e+00	-7.8856548238e+00	 5.2991457113e-02
-6.8165093707e+00	-7.8347431355e+00	 8.8861035941e-02
-6.7655976824e+00	-7.7838314473e+00	 9.9555905878e-02
-6.7146859942e+00	-7.7329197591e+00	 8.5075714190e-02
-6.6637743059e+00	-7.6820080708e+00	 4.5420108144e-02
-6.6128626177e+00	-7.6310963826e+00	-1.9411264992e-02
-6.5619509294e+00	-7.5801846944e+00	-1.0941875794e-01
-7.0710678119e+00	-8.2660782721e+00	-3.1404664967e-01
-7.0113172889e+00	-8.2063277490e+00	-1.8781715837e-01
-6.9515667659e+00	-8.1465772260e+00	-8.4652489325e-02
-6.8918162429e+00	-8.0868267030e+00	-4.5532127501e-03
-6.8320657199e+00	-8.0270761800e+00	 5.2480101152e-02
-6.7723151968e+00	-7.9673256570e+00	 8.6446882178e-02
-6.7125646738e+00	-7.9075751340e+00	 9.7346560131e-02
-6.6528141508e+00	-7.8478246110e+00	 8.5178564816e-02
-6.5930636278e+00	-7.7880740880e+00	 4.9942326043e-02
-6.5333131048e+00	-7.7283235650e+00	-8.3627263733e-03
-6.4735625818e+00	-7.6685730420e+00	-8.9737162616e-02
-7.0710678119e+00	-8.4569971030e+00	-2.8889514252e-01
-7.0017713473e+00	-8.3877006384e+00	-1.7105594066e-01
-6.9324748828e+00	-8.3184041739e+00	-7.4496243171e-02
-6.8631784182e+00	-8.2491077093e+00	 7.8306046265e-04
-6.7938819537e+00	-8.1798112448e+00	 5.4781080740e-02
-6.7245854891e+00	-8.1105147802e+00	 8.7496928172e-02
-6.6552890246e+00	-8.0412183156e+00	 9.8929713279e-02
-6.5859925600e+00	-7.9719218511e+00	 8.9078546587e-02
-6.5166960954e+00	-7.9026253866e+00	 5.7942538630e-02
-6.4473996309e+00	-7.8333289220e+00	 5.5207999489e-03
-6.3781031663e+00	-7.7640324575e+00	-6.8187558907e-02
-7.0710678119e+00	-8.6620580695e+00	-2.6622934670e-01
-6.9915182990e+00	-8.5825085566e+00	-1.5530473106e-01
-6.9119687861e+00	-8.5029590437e+00	-6.4126486731e-02
-6.8324192732e+00	-8.4234095309e+00	 7.3040406352e-03
-6.7528697604e+00	-8.3438600180e+00	 5.8985505402e-02
-6.6733202475e+00	-8.2643105051e+00	 9.0916561948e-02
-6.5937707346e+00	-8.1847609922e+00	 1.0309586466e-01
-6.5142212217e+00	-8.1052114793e+00	 9.5522067954e-02
-6.4346717088e+00	-8.0256619665e+00	 6.8193826233e-02
-6.3551221959e+00	-7.9461124536e+00	 2.1109793934e-02
-6.2755726831e+00	-7.8665629407e+00	-4.5731374502e-02
-7.0710678119e+00	-8.8812611717e+00	-2.4558783142e-01
-6.9805581439e+00	-8.7907515037e+00	-1.4043862601e-01
-6.8900484759e+00	-8.7002418357e+00	-5.3702551787e-02
-6.7995388079e+00	-8.6097321677e+00	 1.4618409230e-02
-6.7090291399e+00	-8.5192224997e+00	 6.4522275036e-02
-6.6185194719e+00	-8.4287128317e+00	 9.6007063650e-02
-6.5280098039e+00	-8.3382031637e+00	 1.0907079311e-01
-6.4375001359e+00	-8.2476934958e+00	 1.0371148149e-01
-6.3469904680e+00	-8.1571838278e+00	 7.9927146860e-02
-6.2564808000e+00	-8.0666741598e+00	 3.7715807340e-02
-6.1659711320e+00	-7.9761644918e+00	-2.2924518944e-02
-7.0710678119e+00	-9.1146064095e+00	-2.2657578779e-01
-6.9688908820e+00	-9.0124294796e+00	-1.2631055963e-01
-6.8667139521e+00	-8.9102525497e+00	-4.3285652298e-02
-6.7645370222e+00	-8.8080756198e+00	 2.2496082612e-02
-6.6623600924e+00	-8.7058986899e+00	 7.1031793539e-02
-6.5601831625e+00	-8.6037217601e+00	 1.0231862896e-01
-6.4580062326e+00	-8.5015448302e+00	 1.1635373738e-01
-6.3558293027e+00	-8.3993679003e+00	 1.1313426735e-01
-6.2536523728e+00	-8.2971909704e+00	 9.2657367450e-02
-6.1514754429e+00	-8.1950140406e+00	 5.4920186307e-02
-6.0492985131e+00	-8.0928371107e+00	-8.0127428254e-05
-7.0710678119e+00	-9.3620937829e+00	-2.0885183887e-01
-6.9565165133e+00	-9.2475424843e+00	-1.1276597330e-01
-6.8419652148e+00	-9.1329911858e+00	-3.2877612064e-02
-6.7274139162e+00	-9.0184398872e+00	 3.0809226593e-02
-6.6128626177e+00	-8.9038885887e+00	 7.8290524495e-02
-6.4983113191e+00	-8.7893372901e+00	 1.0956226352e-01
-6.3837600206e+00	-8.6747859916e+00	 1.2462042561e-01
-6.2692087220e+00	-8.5602346930e+00	 1.2346099275e-01
-6.1546574235e+00	-8.4456833945e+00	 1.0607994698e-01
-6.0401061249e+00	-8.3311320959e+00	 7.2473270434e-02
-5.9255548264e+00	-8.2165807974e+00	 2.2636945256e-02
-7.0710678119e+00	-9.6237232919e+00	-1.9211709490e-01
-6.9434350379e+00	-9.4960905179e+00	-9.9650014202e-02
-6.8158022639e+00	-9.3684577439e+00	-2.2443664058e-02
-6.6881694899e+00	-9.2408249699e+00	 3.9496397404e-02
-6.5605367159e+00	-9.1131921959e+00	 8.6164612149e-02
-6.4329039419e+00	-8.9855594219e+00	 1.1755542223e-01
-6.3052711679e+00	-8.8579266479e+00	 1.3366326979e-01
-6.1776383939e+00	-8.7302938739e+00	 1.3448259706e-01
-6.0500056198e+00	-8.6026610999e+00	 1.2000784636e-01
-5.9223728458e+00	-8.4750283259e+00	 9.0233460096e-02
-5.7947400718e+00	-8.3473955519e+00	 4.5153880762e-02
-7.0710678119e+00	-9.8994949366e+00	-1.7610630625e-01
-6.9296464557e+00	-9.7580735804e+00	-8.6810821211e-02
-6.7882250994e+00	-9.6166522241e+00	-1.1926124471e-02
-6.6468037432e+00	-9.4752308679e+00	 4.8540222732e-02
-6.5053823869e+00	-9.3338095116e+00	 9.4580659294e-02
-6.3639610307e+00	-9.1923881554e+00	 1.2618762424e-01
-6.2225396745e+00	-9.0509667992e+00	 1.4335355674e-01
-6.0811183182e+00	-8.9095454429e+00	 1.4607089607e-01
-5.9396969620e+00	-8.7681240867e+00	 1.3433208168e-01
-5.7982756057e+00	-8.6267027304e+00	 1.0812955312e-01
-5.6568542495e+00	-8.4852813742e+00	 6.7455750076e-02
-7.0710678119e+00	-7.0710678119e+00	-5.9043875425e-02
-7.0710678119e+00	-7.0710678119e+00	-5.9043875425e-02
-7.0710678119e+00	-7.0710678119e+00	-5.9043875425e-02
-7.0710678119e+00	-7.0710678119e+00	-5.9043875425e-02
-7.0710678119e+00	-7.0710678119e+00	-5.9043875425e-02
-7.0710678119e+00	-7.0710678119e+00	-5.9043875425e-02
-7.0710678119e+00	-7.0710678119e+00	-5.9043875425e-02
-7.0710678119e+00	-7.0710678119e+00	-5.9043875425e-02
-7.0710678119e+00	-7.0710678119e+00	-5.9043875425e-02
-7.0710678119e+00	-7.0710678119e+00	-5.9043875425e-02
-7.0710678119e+00	-7.0710678119e+00	-5.9043875425e-02
-7.0675322780e+00	-7.0746033458e+00	 2.3849544684e+00
-7.0671787246e+00	-7.0742497924e+00	 3.3429896404e-01
-7.0668251712e+00	-7.0738962390e+00	-1.5228423788e+00
-7.0664716178e+00	-7.0735426856e+00	-3.1864695601e+00
-7.0661180644e+00	-7.0731891322e+00	-4.6565825798e+00
-7.0657645110e+00	-7.0728355789e+00	-5.9331814381e+00
-7.0654109577e+00	-7.0724820255e+00	-7.0162661348e+00
-7.0650574043e+00	-7.0721284721e+00	-7.9058366700e+00
-7.0647038509e+00	-7.0717749187e+00	-8.6018930437e+00
-7.0643502975e+00	-7.0714213653e+00	-9.1044352558e+00
-7.0639967441e+00	-7.0710678119e+00	-9.4134633064e+00
-7.0569256763e+00	-7.0852099475e+00	 1.1933197165e+00
-7.0555114627e+00	-7.0837957340e+00	 1.4888565502e-01
-7.0540972492e+00	-7.0823815204e+00	-7.9432607017e-01
-7.0526830356e+00	-7.0809673068e+00	-1.6363154591e+00
-7.0512688220e+00	-7.0795530933e+00	-2.3770825116e+00
-7.0498546085e+00	-7.0781388797e+00	-3.0166272279e+00
-7.0484403949e+00	-7.0767246661e+00	-3.5549496080e+00
-7.0470261813e+00	-7.0753104526e+00	-3.9920496517e+00
-7.0456119678e+00	-7.0738962390e+00	-4.3279273592e+00
-7.0441977542e+00	-7.0724820255e+00	-4.5625827304e+00
-7.0427835407e+00	-7.0710678119e+00	-4.6960157654e+00
-7.0392480067e+00	-7.1028876171e+00	 8.0667906079e-01
-7.0360660262e+00	-7.0997056365e+00	 1.0854822334e-01
-7.0328840457e+00	-7.0965236560e+00	-5.2145190686e-01
-7.0297020652e+00	-7.0933416755e+00	-1.0833213299e+00
-7.0265200847e+00	-7.0901596950e+00	-1.5770600458e+00
-7.0233381042e+00	-7.0869777145e+00	-2.0026680548e+00
-7.0201561237e+00	-7.0837957340e+00	-2.3601453568e+00
-7.0169741431e+00	-7.0806137534e+00	-2.6494919521e+00
-7.0137921626e+00	-7.0774317729e+00	-2.8707078406e+00
-7.0106101821e+00	-7.0742497924e+00	-3.0237930224e+00
-7.0074282016e+00	-7.0710678119e+00	-3.1087474977e+00
-7.0144992694e+00	-7.1276363544e+00	 6.1596713887e-01
-7.0088424152e+00	-7.1219795001e+00	 9.3116895599e-02
-7.0031855609e+00	-7.1163226459e+00	-3.7858472115e-01
-6.9975287067e+00	-7.1106657916e+00	-7.9913771187e-01
-6.9918718524e+00	-7.1050089374e+00	-1.1685420770e+00
-6.9862149982e+00	-7.0993520831e+00	-1.4867978171e+00
-6.9805581439e+00	-7.0936952289e+00	-1.7539049327e+00
-6.9749012897e+00	-7.0880383746e+00	-1.9698634241e+00
-6.9692444354e+00	-7.0823815204e+00	-2.1346732919e+00
-6.9635875812e+00	-7.0767246661e+00	-2.2483345366e+00
-6.9579307269e+00	-7.0710678119e+00	-2.3108471586e+00
-6.9826794642e+00	-7.1594561595e+00	 5.0293860264e-01
-6.9738406295e+00	-7.1506173248e+00	 8.6014369507e-02
-6.9650017947e+00	-7.1417784900e+00	-2.9008980105e-01
-6.9561629600e+00	-7.1329396553e+00	-6.2537391089e-01
-6.9473241252e+00	-7.1241008205e+00	-9.1983796184e-01
-6.9384852904e+00	-7.1152619857e+00	-1.1734819558e+00
-6.9296464557e+00	-7.1064231510e+00	-1.3863058945e+00
-6.9208076209e+00	-7.0975843162e+00	-1.5583097799e+00
-6.9119687861e+00	-7.0887454814e+00	-1.6894936138e+00
-6.9031299514e+00	-7.0799066467e+00	-1.7798573980e+00
-6.8942911166e+00	-7.0710678119e+00	-1.8294011345e+00
-6.9437885913e+00	-7.1983470325e+00	 4.2867582275e-01
-6.9310606692e+00	-7.1856191105e+00	 8.2752051634e-02
-6.9183327472e+00	-7.1728911884e+00	-2.2929499996e-01
-6.9056048251e+00	-7.1601632663e+00	-5.0746533755e-01
-6.8928769030e+00	-7.1474353443e+00	-7.5175896665e-01
-6.8801489810e+00	-7.1347074222e+00	-9.6217589275e-01
-6.8674210589e+00	-7.1219795001e+00	-1.1387161214e+00
-6.8546931369e+00	-7.1092515781e+00	-1.2813796581e+00
-6.8419652148e+00	-7.0965236560e+00	-1.3901665083e+00
-6.8292372927e+00	-7.0837957340e+00	-1.4650766776e+00
-6.8165093707e+00	-7.0710678119e+00	-1.5061101714e+00
-6.8978266505e+00	-7.2443089733e+00	 3.7662359991e-01
-6.8805025344e+00	-7.2269848572e+00	 8.1661803687e-02
-6.8631784182e+00	-7.2096607410e+00	-1.8441048896e-01
-6.8458543021e+00	-7.1923366249e+00	-4.2159329192e-01
-6.8285301859e+00	-7.1750125087e+00	-6.2988661909e-01
-6.8112060698e+00	-7.1576883926e+00	-8.0929048437e-01
-6.7938819537e+00	-7.1403642765e+00	-9.5980490167e-01
-6.7765578375e+00	-7.1230401603e+00	-1.0814298849e+00
-6.7592337214e+00	-7.1057160442e+00	-1.1741654479e+00
-6.7419096053e+00	-7.0883919280e+00	-1.2380116046e+00
-6.7245854891e+00	-7.0710678119e+00	-1.2729683689e+00
-6.8447936419e+00	-7.2973419819e+00	 3.3854688354e-01
-6.8221662249e+00	-7.2747145649e+00	 8.1994967313e-02
-6.7995388079e+00	-7.2520871479e+00	-1.4942232393e-01
-6.7769113909e+00	-7.2294597309e+00	-3.5570502117e-01
-6.7542839739e+00	-7.2068323139e+00	-5.3685315535e-01
-6.7316565569e+00	-7.1842048969e+00	-6.9286675746e-01
-6.7090291399e+00	-7.1615774799e+00	-8.2374585845e-01
-6.6864017229e+00	-7.1389500629e+00	-9.2949048929e-01
-6.6637743059e+00	-7.1163226459e+00	-1.0101006809e+00
-6.6411468889e+00	-7.0936952289e+00	-1.0655764644e+00
-6.6185194719e+00	-7.0710678119e+00	-1.0959178706e+00
-6.7846895655e+00	-7.3574460583e+00	 3.0988937845e-01
-6.7560517409e+00	-7.3288082336e+00	 8.3370951208e-02
-6.7274139162e+00	-7.3001704090e+00	-1.2094108294e-01
-6.6987760916e+00	-7.2715325844e+00	-3.0304678676e-01
-6.6701382670e+00	-7.2428947597e+00	-4.6294622304e-01
-6.6415004423e+00	-7.2142569351e+00	-6.0063945455e-01
-6.6128626177e+00	-7.1856191105e+00	-7.1612654406e-01
-6.5842247930e+00	-7.1569812858e+00	-8.0940755436e-01
-6.5555869684e+00	-7.1283434612e+00	-8.8048254821e-01
-6.5269491438e+00	-7.0997056365e+00	-9.2935158840e-01
-6.4983113191e+00	-7.0710678119e+00	-9.5601473769e-01
-6.7175144213e+00	-7.4246212025e+00	 2.8792766495e-01
-6.6821590822e+00	-7.3892658634e+00	 8.5578925132e-02
-6.6468037432e+00	-7.3539105244e+00	-9.6909975879e-02
-6.6114484041e+00	-7.3185551853e+00	-2.5953915621e-01
-6.5760930651e+00	-7.2831998463e+00	-4.0230873398e-01
-6.5407377260e+00	-7.2478445072e+00	-5.2521882731e-01
-6.5053823869e+00	-7.2124891681e+00	-6.2826955434e-01
-6.4700270479e+00	-7.1771338291e+00	-7.1146103318e-01
-6.4346717088e+00	-7.1417784900e+00	-7.7479338196e-01
-6.3993163698e+00	-7.1064231510e+00	-8.1826671879e-01
-6.3639610307e+00	-7.0710678119e+00	-8.4188116181e-01
-6.7175144213e+00	-7.4246212025e+00	 2.8792766495e-01
-6.6821590822e+00	-7.3892658634e+00	 8.5578925132e-02
-6.6468037432e+00	-7.3539105244e+00	-9.6909975879e-02
-6.6114484041e+00	-7.3185551853e+00	-2.5953915621e-01
-6.5760930651e+00	-7.2831998463e+00	-4.0230873398e-01
-6.5407377260e+00	-7.2478445072e+00	-5.2521882731e-01
-6.5053823869e+00	-7.2124891681e+00	-6.2826955434e-01
-6.4700270479e+00	-7.1771338291e+00	-7.1146103318e-01
-6.4346717088e+00	-7.1417784900e+00	-7.7479338196e-01
-6.3993163698e+00	-7.1064231510e+00	-8.1826671879e-01
-6.3639610307e+00	-7.0710678119e+00	-8.4188116181e-01
-6.6432682093e+00	-7.4988674145e+00	 2.6133191939e-01
-6.6004882490e+00	-7.4560874543e+00	 7.8443405649e-02
-6.5577082887e+00	-7.4133074940e+00	-8.6545981447e-02
-6.5149283285e+00	-7.3705275337e+00	-2.3363645116e-01
-6.4721483682e+00	-7.3277475735e+00	-3.6282821276e-01
-6.4293684080e+00	-7.2849676132e+00	-4.7412147550e-01
-6.3865884477e+00	-7.2421876530e+00	-5.6751644865e-01
-6.3438084874e+00	-7.1994076927e+00	-6.4301334148e-01
-6.3010285272e+00	-7.1566277324e+00	-7.0061236324e-01
-6.2582485669e+00	-7.1138477722e+00	-7.4031372319e-01
-6.2154686066e+00	-7.0710678119e+00	-7.6211763059e-01
-6.5619509294e+00	-7.5801846944e+00	 2.3992968728e-01
-6.5110392412e+00	-7.5292730061e+00	 7.2884452805e-02
-6.4601275529e+00	-7.4783613179e+00	-7.7882190417e-02
-6.4092158647e+00	-7.4274496296e+00	-2.1237059511e-01
-6.3583041765e+00	-7.3765379414e+00	-3.3058111399e-01
-6.3073924882e+00	-7.3256262531e+00	-4.3251409978e-01
-6.2564808000e+00	-7.2747145649e+00	-5.1816990518e-01
-6.2055691117e+00	-7.2238028766e+00	-5.8754888292e-01
-6.1546574235e+00	-7.1728911884e+00	-6.4065138569e-01
-6.1037457352e+00	-7.1219795001e+00	-6.7747776621e-01
-6.0528340470e+00	-7.0710678119e+00	-6.9802837719e-01
-6.4735625818e+00	-7.6685730420e+00	 2.2266720198e-01
-6.4138120588e+00	-7.6088225190e+00	 6.8793994798e-02
-6.3540615358e+00	-7.5490719960e+00	-7.0161071657e-02
-6.2943110128e+00	-7.4893214730e+00	-1.9419856755e-01
-6.2345604897e+00	-7.4295709500e+00	-3.0331906305e-01
-6.1748099667e+00	-7.3698204270e+00	-3.9752312832e-01
-6.1150594437e+00	-7.3100699039e+00	-4.7681133351e-01
-6.0553089207e+00	-7.2503193809e+00	-5.4118424876e-01
-5.9955583977e+00	-7.1905688579e+00	-5.9064244424e-01
-5.9358078747e+00	-7.1308183349e+00	-6.2518649007e-01
-5.8760573517e+00	-7.0710678119e+00	-6.4481695640e-01
-6.3781031663e+00	-7.7640324575e+00	 2.0878387526e-01
-6.3088067018e+00	-7.6947359929e+00	 6.6058908296e-02
-6.2395102372e+00	-7.6254395284e+00	-6.2904801303e-02
-6.1702137727e+00	-7.5561430638e+00	-1.7810814296e-01
-6.1009173081e+00	-7.4868465992e+00	-2.7955200611e-01
-6.0316208435e+00	-7.4175501347e+00	-3.6723728014e-01
-5.9623243790e+00	-7.3482536701e+00	-4.4116485447e-01
-5.8930279144e+00	-7.2789572056e+00	-5.0133561849e-01
-5.8237314499e+00	-7.2096607410e+00	-5.4775046160e-01
-5.7544349853e+00	-7.1403642765e+00	-5.8041027316e-01
-5.6851385207e+00	-7.0710678119e+00	-5.9931594255e-01
-6.2755726831e+00	-7.8665629407e+00	 1.9771914350e-01
-6.1960231702e+00	-7.7870134278e+00	 6.4575838018e-02
-6.1164736573e+00	-7.7074639150e+00	-5.5800517585e-02
-6.0369241444e+00	-7.6279144021e+00	-1.6341126882e-01
-5.9573746315e+00	-7.5483648892e+00	-2.5825776118e-01
-5.8778251186e+00	-7.4688153763e+00	-3.4034134017e-01
-5.7982756057e+00	-7.3892658634e+00	-4.0966335125e-01
-5.7187260929e+00	-7.3097163506e+00	-4.6622513989e-01
-5.6391765800e+00	-7.2301668377e+00	-5.1002805154e-01
-5.5596270671e+00	-7.1506173248e+00	-5.4107343162e-01
-5.4800775542e+00	-7.0710678119e+00	-5.5936262557e-01
-6.1659711320e+00	-7.9761644918e+00	 1.8905295755e-01
-6.0754614640e+00	-7.8856548238e+00	 6.4256164503e-02
-5.9849517960e+00	-7.7951451558e+00	-4.8635840954e-02
-5.8944421280e+00	-7.7046354878e+00	-1.4962504063e-01
-5.8039324600e+00	-7.6141258198e+00	-2.3871341629e-01
-5.7134227920e+00	-7.5236161519e+00	-3.1590294971e-01
-5.6229131240e+00	-7.4331064839e+00	-3.8119562261e-01
-5.5324034560e+00	-7.3425968159e+00	-4.3459341671e-01
-5.4418937880e+00	-7.2520871479e+00	-4.7609831370e-01
-5.3513841200e+00	-7.1615774799e+00	-5.0571229523e-01
-5.2608744520e+00	-7.0710678119e+00	-5.2343734296e-01
-6.0492985131e+00	-8.0928371107e+00	 1.8246659709e-01
-5.9471215832e+00	-7.9906601808e+00	 6.5026879019e-02
-5.8449446533e+00	-7.8884832509e+00	-4.1261117405e-02
-5.7427677234e+00	-7.7863063211e+00	-1.3640024342e-01
-5.6405907935e+00	-7.6841293912e+00	-2.2039335022e-01
-5.5384138636e+00	-7.5819524613e+00	-2.9324328896e-01
-5.4362369338e+00	-7.4797755314e+00	-3.5495291078e-01
-5.3340600039e+00	-7.3775986015e+00	-4.0552506675e-01
-5.2318830740e+00	-7.2754216717e+00	-4.4496260794e-01
-5.1297061441e+00	-7.1732447418e+00	-4.7326838535e-01
-5.0275292142e+00	-7.0710678119e+00	-4.9044524997e-01
-5.9255548264e+00	-8.2165807974e+00	 1.7771618836e-01
-5.8110035278e+00	-8.1020294988e+00	 6.6829852951e-02
-5.6964522292e+00	-7.9874782003e+00	-3.3566497425e-02
-5.5819009307e+00	-7.8729269017e+00	-1.2347688044e-01
-5.4673496321e+00	-7.7583756032e+00	-2.0290531369e-01
-5.3527983336e+00	-7.6438243047e+00	-2.7185581472e-01
-5.2382470350e+00	-7.5292730061e+00	-3.3033240103e-01
-5.1236957365e+00	-7.4147217076e+00	-3.7833909005e-01
-5.0091444379e+00	-7.3001704090e+00	-4.1587989915e-01
-4.8945931394e+00	-7.1856191105e+00	-4.4295884565e-01
-4.7800418408e+00	-7.0710678119e+00	-4.5957994680e-01
-5.7947400718e+00	-8.3473955519e+00	 1.7461440186e-01
-5.6671072978e+00	-8.2197627779e+00	 6.9620586715e-02
-5.5394745238e+00	-8.0921300039e+00	-2.5467562310e-02
-5.4118417498e+00	-7.9644972299e+00	-1.1065560245e-01
-5.2842089758e+00	-7.8368644559e+00	-1.8594909086e-01
-5.1565762018e+00	-7.7092316819e+00	-2.5135358459e-01
-5.0289434278e+00	-7.5815989079e+00	-3.0687464062e-01
-4.9013106538e+00	-7.4539661339e+00	-3.5251781583e-01
-4.7736778798e+00	-7.3263333599e+00	-3.8828866702e-01
-4.6460451058e+00	-7.1987005859e+00	-4.1419275088e-01
-4.5184123318e+00	-7.0710678119e+00	-4.3023562405e-01
-5.6568542495e+00	-8.4852813742e+00	 1.7301755869e-01
-5.5154328933e+00	-8.3438600180e+00	 7.3366903696e-02
-5.3740115370e+00	-8.2024386618e+00	-1.6896035296e-02
-5.2325901808e+00	-8.0610173055e+00	-9.7778818193e-02
-5.0911688245e+00	-7.9195959493e+00	-1.6928900477e-01
-4.9497474683e+00	-7.7781745931e+00	-2.3143415466e-01
-4.8083261121e+00	-7.6367532368e+00	-2.8422182736e-01
-4.6669047558e+00	-7.4953318806e+00	-3.2765958226e-01
-4.5254833996e+00	-7.3539105244e+00	-3.6175497858e-01
-4.3840620433e+00	-7.2124891681e+00	-3.8651557543e-01
-4.2426406871e+00	-7.0710678119e+00	-4.0194893178e-01
-7.0710678119e+00	-7.0710678119e+00	-5.9043875425e-02
-7.0710678119e+00	-7.0710678119e+00	-5.9043875425e-02
-7.0710678119e+00	-7.0710678119e+00	-5.9043875425e-02
-7.0710678119e+00	-7.0710678119e+00	-5.9043875425e-02
-7.0710678119e+00	-7.0710678119e+00	-5.9043875425e-02
-7.0710678119e+00	-7.0710678119e+00	-5.9043875425e-02
-7.0710678119e+00	-7.0710678119e+00	-5.9043875425e-02
-7.0710678119e+00	-7.0710678119e+00	-5.9043875425e-02
-7.0710678119e+00	-7.0710678119e+00	-5.9043875425e-02
-7.0710678119e+00	-7.0710678119e+00	-5.9043875425e-02
-7.0710678119e+00	-7.0710678119e+00	-5.9043875425e-02
-7.0639967441e+00	-7.0710678119e+00	-9.2247445401e+00
-7.0643502975e+00	-7.0707142585e+00	-1.0523801305e+01
-7.0647038509e+00	-7.0703607051e+00	-1.1737959408e+01
-7.0650574043e+00	-7.0700071517e+00	-1.2867218850e+01
-7.0654109577e+00	-7.0696535983e+00	-1.3911579631e+01
-7.0657645110e+00	-7.0693000449e+00	-1.4871041751e+01
-7.0661180644e+00	-7.0689464916e+00	-1.5745605210e+01
-7.0664716178e+00	-7.0685929382e+00	-1.6535270008e+01
-7.0668251712e+00	-7.0682393848e+00	-1.7240036144e+01
-7.0671787246e+00	-7.0678858314e+00	-1.7859903620e+01
-7.0675322780e+00	-7.0675322780e+00	-1.8394872434e+01
-7.0427835407e+00	-7.0710678119e+00	-4.5903520798e+00
-7.0441977542e+00	-7.0696535983e+00	-5.2302481523e+00
-7.0456119678e+00	-7.0682393848e+00	-5.8297252894e+00
-7.0470261813e+00	-7.0668251712e+00	-6.3887834913e+00
-7.0484403949e+00	-7.0654109577e+00	-6.9074227578e+00
-7.0498546085e+00	-7.0639967441e+00	-7.3856430891e+00
-7.0512688220e+00	-7.0625825305e+00	-7.8234444851e+00
-7.0526830356e+00	-7.0611683170e+00	-8.2208269458e+00
-7.0540972492e+00	-7.0597541034e+00	-8.5777904713e+00
-7.0555114627e+00	-7.0583398898e+00	-8.8943350615e+00
-7.0569256763e+00	-7.0569256763e+00	-9.1704607165e+00
-7.0074282016e+00	-7.0710678119e+00	-3.0418177463e+00
-7.0106101821e+00	-7.0678858314e+00	-3.4673819412e+00
-7.0137921626e+00	-7.0647038509e+00	-3.8659636050e+00
-7.0169741431e+00	-7.0615218704e+00	-4.2375627376e+00
-7.0201561237e+00	-7.0583398898e+00	-4.5821793393e+00
-7.0233381042e+00	-7.0551579093e+00	-4.8998134100e+00
-7.0265200847e+00	-7.0519759288e+00	-5.1904649498e+00
-7.0297020652e+00	-7.0487939483e+00	-5.4541339589e+00
-7.0328840457e+00	-7.0456119678e+00	-5.6908204372e+00
-7.0360660262e+00	-7.0424299873e+00	-5.9005243849e+00
-7.0392480067e+00	-7.0392480067e+00	-6.0832458021e+00
-6.9579307269e+00	-7.0710678119e+00	-2.2653560444e+00
-6.9635875812e+00	-7.0654109577e+00	-2.5848266267e+00
-6.9692444354e+00	-7.0597541034e+00	-2.8837721510e+00
-6.9749012897e+00	-7.0540972492e+00	-3.1621926177e+00
-6.9805581439e+00	-7.0484403949e+00	-3.4200880273e+00
-6.9862149982e+00	-7.0427835407e+00	-3.6574583803e+00
-6.9918718524e+00	-7.0371266864e+00	-3.8743036770e+00
-6.9975287067e+00	-7.0314698322e+00	-4.0706239179e+00
-7.0031855609e+00	-7.0258129779e+00	-4.2464191036e+00
-7.0088424152e+00	-7.0201561237e+00	-4.4016892344e+00
-7.0144992694e+00	-7.0144992694e+00	-4.5364343108e+00
-6.8942911166e+00	-7.0710678119e+00	-1.7974361370e+00
-6.9031299514e+00	-7.0622289771e+00	-2.0536490661e+00
-6.9119687861e+00	-7.0533901424e+00	-2.2931278632e+00
-6.9208076209e+00	-7.0445513076e+00	-2.5158725300e+00
-6.9296464557e+00	-7.0357124728e+00	-2.7218830683e+00
-6.9384852904e+00	-7.0268736381e+00	-2.9111594799e+00
-6.9473241252e+00	-7.0180348033e+00	-3.0837017663e+00
-6.9561629600e+00	-7.0091959685e+00	-3.2395099294e+00
-6.9650017947e+00	-7.0003571338e+00	-3.3785839709e+00
-6.9738406295e+00	-6.9915182990e+00	-3.5009238924e+00
-6.9826794642e+00	-6.9826794642e+00	-3.6065296958e+00
-6.8165093707e+00	-7.0710678119e+00	-1.4834388078e+00
-6.8292372927e+00	-7.0583398898e+00	-1.6976952584e+00
-6.8419652148e+00	-7.0456119678e+00	-1.8977098557e+00
-6.8546931369e+00	-7.0328840457e+00	-2.0834826049e+00
-6.8674210589e+00	-7.0201561237e+00	-2.2550135112e+00
-6.8801489810e+00	-7.0074282016e+00	-2.4123025797e+00
-6.8928769030e+00	-6.9947002795e+00	-2.5553498155e+00
-6.9056048251e+00	-6.9819723575e+00	-2.6841552239e+00
-6.9183327472e+00	-6.9692444354e+00	-2.7987188099e+00
-6.9310606692e+00	-6.9565165133e+00	-2.8990405788e+00
-6.9437885913e+00	-6.9437885913e+00	-2.9851205356e+00
-6.7245854891e+00	-7.0710678119e+00	-1.2570706079e+00
-6.7419096053e+00	-7.0537436958e+00	-1.4415076396e+00
-6.7592337214e+00	-7.0364195796e+00	-1.6134656041e+00
-6.7765578375e+00	-7.0190954635e+00	-1.7729445146e+00
-6.7938819537e+00	-7.0017713473e+00	-1.9199443840e+00
-6.8112060698e+00	-6.9844472312e+00	-2.0544652253e+00
-6.8285301859e+00	-6.9671231151e+00	-2.1765070515e+00
-6.8458543021e+00	-6.9497989989e+00	-2.2860698756e+00
-6.8631784182e+00	-6.9324748828e+00	-2.3831537106e+00
-6.8805025344e+00	-6.9151507666e+00	-2.4677585695e+00
-6.8978266505e+00	-6.8978266505e+00	-2.5398844652e+00
-6.6185194719e+00	-7.0710678119e+00	-1.0851742998e+00
-6.6411468889e+00	-7.0484403949e+00	-1.2473682515e+00
-6.6637743059e+00	-7.0258129779e+00	-1.3983953429e+00
-6.6864017229e+00	-7.0031855609e+00	-1.5382556030e+00
-6.7090291399e+00	-6.9805581439e+00	-1.6669490606e+00
-6.7316565569e+00	-6.9579307269e+00	-1.7844757449e+00
-6.7542839739e+00	-6.9353033099e+00	-1.8908356846e+00
-6.7769113909e+00	-6.9126758929e+00	-1.9860289089e+00
-6.7995388079e+00	-6.8900484759e+00	-2.0700554466e+00
-6.8221662249e+00	-6.8674210589e+00	-2.1429153267e+00
-6.8447936419e+00	-6.8447936419e+00	-2.2046085782e+00
-6.4983113191e+00	-7.0710678119e+00	-9.4932382638e-01
-6.5269491438e+00	-7.0424299873e+00	-1.0943257615e+00
-6.5555869684e+00	-7.0137921626e+00	-1.2291751154e+00
-6.5842247930e+00	-6.9851543380e+00	-1.3538719468e+00
-6.6128626177e+00	-6.9565165133e+00	-1.4684163144e+00
-6.6415004423e+00	-6.9278786887e+00	-1.5728082768e+00
-6.6701382670e+00	-6.8992408641e+00	-1.6670478929e+00
-6.6987760916e+00	-6.8706030394e+00	-1.7511352213e+00
-6.7274139162e+00	-6.8419652148e+00	-1.8250703208e+00
-6.7560517409e+00	-6.8133273902e+00	-1.8888532499e+00
-6.7846895655e+00	-6.7846895655e+00	-1.9424840676e+00
-6.3639610307e+00	-7.0710678119e+00	-8.3846000034e-01
-6.3993163698e+00	-7.0357124728e+00	-9.6980969860e-01
-6.4346717088e+00	-7.0003571338e+00	-1.0918136549e+00
-6.4700270479e+00	-6.9650017947e+00	-1.2044719797e+00
-6.5053823869e+00	-6.9296464557e+00	-1.3077847834e+00
-6.5407377260e+00	-6.8942911166e+00	-1.4017521766e+00
-6.5760930651e+00	-6.8589357775e+00	-1.4863742697e+00
-6.6114484041e+00	-6.8235804385e+00	-1.5616511731e+00
-6.6468037432e+00	-6.7882250994e+00	-1.6275829974e+00
-6.6821590822e+00	-6.7528697604e+00	-1.6841698531e+00
-6.7175144213e+00	-6.7175144213e+00	-1.7314118505e+00
-6.3639610307e+00	-7.0710678119e+00	-8.3846000034e-01
-6.3993163698e+00	-7.0357124728e+00	-9.6980969860e-01
-6.4346717088e+00	-7.0003571338e+00	-1.0918136549e+00
-6.4700270479e+00	-6.9650017947e+00	-1.2044719797e+00
-6.5053823869e+00	-6.9296464557e+00	-1.3077847834e+00
-6.5407377260e+00	-6.8942911166e+00	-1.4017521766e+00
-6.5760930651e+00	-6.8589357775e+00	-1.4863742697e+00
-6.6114484041e+00	-6.8235804385e+00	-1.5616511731e+00
-6.6468037432e+00	-6.7882250994e+00	-1.6275829974e+00
-6.6821590822e+00	-6.7528697604e+00	-1.6841698531e+00
-6.7175144213e+00	-6.7175144213e+00	-1.7314118505e+00
-6.2154686066e+00	-7.0710678119e+00	-7.8784272166e-01
-6.2582485669e+00	-7.0282878516e+00	-9.0063865934e-01
-6.3010285272e+00	-6.9855078914e+00	-1.0054071035e+00
-6.3438084874e+00	-6.9427279311e+00	-1.1021482499e+00
-6.3865884477e+00	-6.8999479708e+00	-1.1908622942e+00
-6.4293684080e+00	-6.8571680106e+00	-1.2715494320e+00
-6.4721483682e+00	-6.8143880503e+00	-1.3442098593e+00
-6.5149283285e+00	-6.7716080901e+00	-1.4088437715e+00
-6.5577082887e+00	-6.7288281298e+00	-1.4654513645e+00
-6.6004882490e+00	-6.6860481695e+00	-1.5140328339e+00
-6.6432682093e+00	-6.6432682093e+00	-1.5545883755e+00
-6.0528340470e+00	-7.0710678119e+00	-7.3292212801e-01
-6.1037457352e+00	-7.0201561237e+00	-8.3287585465e-01
-6.1546574235e+00	-6.9692444354e+00	-9.2567239059e-01
-6.2055691117e+00	-6.9183327472e+00	-1.0113120657e+00
-6.2564808000e+00	-6.8674210589e+00	-1.0897952099e+00
-6.3073924882e+00	-6.8165093707e+00	-1.1611221531e+00
-6.3583041765e+00	-6.7655976824e+00	-1.2252932250e+00
-6.4092158647e+00	-6.7146859942e+00	-1.2823087557e+00
-6.4601275529e+00	-6.6637743059e+00	-1.3321690748e+00
-6.5110392412e+00	-6.6128626177e+00	-1.3748745124e+00
-6.5619509294e+00	-6.5619509294e+00	-1.4104253983e+00
-5.8760573517e+00	-7.0710678119e+00	-6.7673279162e-01
-5.9358078747e+00	-7.0113172889e+00	-7.6770729725e-01
-5.9955583977e+00	-6.9515667659e+00	-8.5209783392e-01
-6.0553089207e+00	-6.8918162429e+00	-9.2990493488e-01
-6.1150594437e+00	-6.8320657199e+00	-1.0011291334e+00
-6.1748099667e+00	-6.7723151968e+00	-1.0657709626e+00
-6.2345604897e+00	-6.7125646738e+00	-1.1238309559e+00
-6.2943110128e+00	-6.6528141508e+00	-1.1753096464e+00
-6.3540615358e+00	-6.5930636278e+00	-1.2202075674e+00
-6.4138120588e+00	-6.5333131048e+00	-1.2585252521e+00
-6.4735625818e+00	-6.4735625818e+00	-1.2902632337e+00
-5.6851385207e+00	-7.0710678119e+00	-6.2084637172e-01
-5.7544349853e+00	-7.0017713473e+00	-7.0552766014e-01
-5.8237314499e+00	-6.9324748828e+00	-7.8399589359e-01
-5.8930279144e+00	-6.8631784182e+00	-8.5625190394e-01
-5.9623243790e+00	-6.7938819537e+00	-9.2229652302e-01
-6.0316208435e+00	-6.7245854891e+00	-9.8213058266e-01
-6.1009173081e+00	-6.6552890246e+00	-1.0357549147e+00
-6.1702137727e+00	-6.5859925600e+00	-1.0831703509e+00
-6.2395102372e+00	-6.5166960954e+00	-1.1243777231e+00
-6.3088067018e+00	-6.4473996309e+00	-1.1593778632e+00
-6.3781031663e+00	-6.3781031663e+00	-1.1881716028e+00
-5.4800775542e+00	-7.0710678119e+00	-5.6604379898e-01
-5.5596270671e+00	-6.9915182990e+00	-6.4634429875e-01
-5.6391765800e+00	-6.9119687861e+00	-7.2066166726e-01
-5.7187260929e+00	-6.8324192732e+00	-7.8899716295e-01
-5.7982756057e+00	-6.7528697604e+00	-8.5135204422e-01
-5.8778251186e+00	-6.6733202475e+00	-9.0772756947e-01
-5.9573746315e+00	-6.5937707346e+00	-9.5812499710e-01
-6.0369241444e+00	-6.5142212217e+00	-1.0025455855e+00
-6.1164736573e+00	-6.4346717088e+00	-1.0409905929e+00
-6.1960231702e+00	-6.3551221959e+00	-1.0734612779e+00
-6.2755726831e+00	-6.2755726831e+00	-1.0999588986e+00
-5.2608744520e+00	-7.0710678119e+00	-5.1267045175e-01
-5.3513841200e+00	-6.9805581439e+00	-5.8998048716e-01
-5.4418937880e+00	-6.8900484759e+00	-6.6143692871e-01
-5.5324034560e+00	-6.7995388079e+00	-7.2704162994e-01
-5.6229131240e+00	-6.7090291399e+00	-7.8679644439e-01
-5.7134227920e+00	-6.6185194719e+00	-8.4070322556e-01
-5.8039324600e+00	-6.5280098039e+00	-8.8876382694e-01
-5.8944421280e+00	-6.4375001359e+00	-9.3098010200e-01
-5.9849517960e+00	-6.3469904680e+00	-9.6735390418e-01
-6.0754614640e+00	-6.2564808000e+00	-9.9788708691e-01
-6.1659711320e+00	-6.1659711320e+00	-1.0225815036e+00
-5.0275292142e+00	-7.0710678119e+00	-4.6083002372e-01
-5.1297061441e+00	-6.9688908820e+00	-5.3617965514e-01
-5.2318830740e+00	-6.8667139521e+00	-6.0573219927e-01
-5.3340600039e+00	-6.7645370222e+00	-6.6949032287e-01
-5.4362369338e+00	-6.6623600924e+00	-7.2745669267e-01
-5.5384138636e+00	-6.5601831625e+00	-7.7963397534e-01
-5.6405907935e+00	-6.4580062326e+00	-8.2602483756e-01
-5.7427677234e+00	-6.3558293027e+00	-8.6663194593e-01
-5.8449446533e+00	-6.2536523728e+00	-9.0145796704e-01
-5.9471215832e+00	-6.1514754429e+00	-9.3050556745e-01
-6.0492985131e+00	-6.0492985131e+00	-9.5377741367e-01
-4.7800418408e+00	-7.0710678119e+00	-4.1049301876e-01
-4.8945931394e+00	-6.9565165133e+00	-4.8465915342e-01
-5.0091444379e+00	-6.8419652148e+00	-5.5303030746e-01
-5.1236957365e+00	-6.7274139162e+00	-6.1561023865e-01
-5.2382470350e+00	-6.6128626177e+00	-6.7240270472e-01
-5.3527983336e+00	-6.4983113191e+00	-7.2341146333e-01
-5.4673496321e+00	-6.3837600206e+00	-7.6864027211e-01
-5.5819009307e+00	-6.2692087220e+00	-8.0809288861e-01
-5.6964522292e+00	-6.1546574235e+00	-8.4177307033e-01
-5.8110035278e+00	-6.0401061249e+00	-8.6968457473e-01
-5.9255548264e+00	-5.9255548264e+00	-8.9183115919e-01
-4.5184123318e+00	-7.0710678119e+00	-3.6155856850e-01
-4.6460451058e+00	-6.9434350379e+00	-4.3513764293e-01
-4.7736778798e+00	-6.8158022639e+00	-5.0288217172e-01
-4.9013106538e+00	-6.6881694899e+00	-5.6479735273e-01
-5.0289434278e+00	-6.5605367159e+00	-6.2088838371e-01
-5.1565762018e+00	-6.4329039419e+00	-6.7116046237e-01
-5.2842089758e+00	-6.3052711679e+00	-7.1561878630e-01
-5.4118417498e+00	-6.1776383939e+00	-7.5426855300e-01
-5.5394745238e+00	-6.0500056198e+00	-7.8711495991e-01
-5.6671072978e+00	-5.9223728458e+00	-8.1416320439e-01
-5.7947400718e+00	-5.7947400718e+00	-8.3541848368e-01
-4.2426406871e+00	-7.0710678119e+00	-3.1389003804e-01
-4.3840620433e+00	-6.9296464557e+00	-3.8734847575e-01
-4.5254833996e+00	-6.7882250994e+00	-4.5489976096e-01
-4.6669047558e+00	-6.6468037432e+00	-5.1655096479e-01
-4.8083261121e+00	-6.5053823869e+00	-5.7230915826e-01
-4.9497474683e+00	-6.3639610307e+00	-6.2218141223e-01
-5.0911688245e+00	-6.2225396745e+00	-6.6617479747e-01
-5.2325901808e+00	-6.0811183182e+00	-7.0429638458e-01
-5.3740115370e+00	-5.9396969620e+00	-7.3655324407e-01
-5.5154328933e+00	-5.7982756057e+00	-7.6295244631e-01
-5.6568542495e+00	-5.6568542495e+00	-7.8350106152e-01
 0.0000000000e+00	 0.0000000000e+00	-1.9147909675e-02
 1.4142135624e-01	-1.4142135624e-01	-2.2354130406e-02
 2.8284271248e-01	-2.8284271248e-01	-2.7132040298e-02
 4.2426406872e-01	-4.2426406872e-01	-3.3481639352e-02
 5.6568542496e-01	-5.6568542496e-01	-4.1402927567e-02
 7.0710678120e-01	-7.0710678120e-01	-5.0895904944e-02
 8.4852813744e-01	-8.4852813744e-01	-6.1960571482e-02
 9.8994949368e-01	-9.8994949368e-01	-7.4596927181e-02
 1.1313708499e+00	-1.1313708499e+00	-8.8804972042e-02
 1.2727922062e+00	-1.2727922062e+00	-1.0458470606e-01
 1.4142135624e+00	-1.4142135624e+00	-1.2193612925e-01
-2.8284271248e-01	-2.8284271248e-01	-4.1247819351e-02
-1.4142135624e-01	-4.2426406872e-01	-4.4949107178e-02
 5.0003339143e-13	-5.6568542496e-01	-4.9902801569e-02
 1.4142135624e-01	-7.0710678120e-01	-5.6108902527e-02
 2.8284271248e-01	-8.4852813744e-01	-6.3567410050e-02
 4.2426406872e-01	-9.8994949367e-01	-7.2278324139e-02
 5.6568542496e-01	-1.1313708499e+00	-8.2241644793e-02
 7.0710678120e-01	-1.2727922062e+00	-9.3457372013e-02
 8.4852813744e-01	-1.4142135624e+00	-1.0592550580e-01
 9.8994949368e-01	-1.5556349186e+00	-1.1964604615e-01
 1.1313708499e+00	-1.6970562749e+00	-1.3461899307e-01
-5.6568542496e-01	-5.6568542496e-01	-6.2973581723e-02
-4.2426406872e-01	-7.0710678120e-01	-6.7350952963e-02
-2.8284271248e-01	-8.4852813744e-01	-7.2661448173e-02
-1.4142135624e-01	-9.8994949367e-01	-7.8905067353e-02
 2.0000077983e-12	-1.1313708499e+00	-8.6081810502e-02
 1.4142135624e-01	-1.2727922061e+00	-9.4191677622e-02
 2.8284271248e-01	-1.4142135624e+00	-1.0323466871e-01
 4.2426406872e-01	-1.5556349186e+00	-1.1321078377e-01
 5.6568542496e-01	-1.6970562749e+00	-1.2412002280e-01
 7.0710678120e-01	-1.8384776311e+00	-1.3596238580e-01
 8.4852813744e-01	-1.9798989873e+00	-1.4873787277e-01
-8.4852813744e-01	-8.4852813744e-01	-8.4325196791e-02
-7.0710678120e-01	-9.8994949368e-01	-8.9559667764e-02
-5.6568542496e-01	-1.1313708499e+00	-9.5407980110e-02
-4.2426406872e-01	-1.2727922062e+00	-1.0187013383e-01
-2.8284271248e-01	-1.4142135624e+00	-1.0894612892e-01
-1.4142135624e-01	-1.5556349186e+00	-1.1663596539e-01
 4.4998726967e-12	-1.6970562749e+00	-1.2493964323e-01
 1.4142135624e-01	-1.8384776311e+00	-1.3385716245e-01
 2.8284271248e-01	-1.9798989873e+00	-1.4338852304e-01
 4.2426406872e-01	-2.1213203436e+00	-1.5353372500e-01
 5.6568542496e-01	-2.2627416998e+00	-1.6429276834e-01
-1.1313708499e+00	-1.1313708499e+00	-1.0530266455e-01
-9.8994949367e-01	-1.2727922062e+00	-1.1157525158e-01
-8.4852813743e-01	-1.4142135624e+00	-1.1814239738e-01
-7.0710678119e-01	-1.5556349186e+00	-1.2500410196e-01
-5.6568542495e-01	-1.6970562749e+00	-1.3216036531e-01
-4.2426406871e-01	-1.8384776311e+00	-1.3961118745e-01
-2.8284271247e-01	-1.9798989873e+00	-1.4735656836e-01
-1.4142135623e-01	-2.1213203436e+00	-1.5539650805e-01
 7.9998507818e-12	-2.2627416998e+00	-1.6373100652e-01
 1.4142135625e-01	-2.4041630560e+00	-1.7236006377e-01
 2.8284271249e-01	-2.5455844123e+00	-1.8128367980e-01
-1.4142135624e+00	-1.4142135624e+00	-1.2590598501e-01
-1.2727922061e+00	-1.5556349186e+00	-1.3339770441e-01
-1.1313708499e+00	-1.6970562749e+00	-1.4086469998e-01
-9.8994949367e-01	-1.8384776311e+00	-1.4830697174e-01
-8.4852813743e-01	-1.9798989873e+00	-1.5572451967e-01
-7.0710678119e-01	-2.1213203436e+00	-1.6311734380e-01
-5.6568542495e-01	-2.2627416998e+00	-1.7048544410e-01
-4.2426406871e-01	-2.4041630560e+00	-1.7782882058e-01
-2.8284271247e-01	-2.5455844123e+00	-1.8514747325e-01
-1.4142135623e-01	-2.6870057685e+00	-1.9244140210e-01
 1.2500001034e-11	-2.8284271247e+00	-1.9971060713e-01
-1.6970562749e+00	-1.6970562749e+00	-1.4613515817e-01
-1.5556349186e+00	-1.8384776311e+00	-1.5502702625e-01
-1.4142135624e+00	-1.9798989873e+00	-1.6357488791e-01
-1.2727922061e+00	-2.1213203436e+00	-1.7177874316e-01
-1.1313708499e+00	-2.2627416998e+00	-1.7963859200e-01
-9.8994949366e-01	-2.4041630560e+00	-1.8715443443e-01
-8.4852813742e-01	-2.5455844123e+00	-1.9432627044e-01
-7.0710678118e-01	-2.6870057685e+00	-2.0115410004e-01
-5.6568542494e-01	-2.8284271247e+00	-2.0763792322e-01
-4.2426406870e-01	-2.9698484810e+00	-2.1377773999e-01
-2.8284271246e-01	-3.1112698372e+00	-2.1957355035e-01
-1.9798989873e+00	-1.9798989873e+00	-1.6599018402e-01
-1.8384776311e+00	-2.1213203436e+00	-1.7646321710e-01
-1.6970562749e+00	-2.2627416998e+00	-1.8627296118e-01
-1.5556349186e+00	-2.4041630560e+00	-1.9541941624e-01
-1.4142135624e+00	-2.5455844123e+00	-2.0390258230e-01
-1.2727922061e+00	-2.6870057685e+00	-2.1172245935e-01
-1.1313708499e+00	-2.8284271248e+00	-2.1887904738e-01
-9.8994949366e-01	-2.9698484810e+00	-2.2537234641e-01
-8.4852813742e-01	-3.1112698372e+00	-2.3120235643e-01
-7.0710678118e-01	-3.2526911934e+00	-2.3636907744e-01
-5.6568542494e-01	-3.3941125497e+00	-2.4087250944e-01
-2.2627416998e+00	-2.2627416998e+00	-1.8547106256e-01
-2.1213203436e+00	-2.4041630560e+00	-1.9770627697e-01
-1.9798989873e+00	-2.5455844123e+00	-2.0895891978e-01
-1.8384776311e+00	-2.6870057685e+00	-2.1922899097e-01
-1.6970562748e+00	-2.8284271248e+00	-2.2851649057e-01
-1.5556349186e+00	-2.9698484810e+00	-2.3682141855e-01
-1.4142135624e+00	-3.1112698372e+00	-2.4414377493e-01
-1.2727922061e+00	-3.2526911935e+00	-2.5048355971e-01
-1.1313708499e+00	-3.3941125497e+00	-2.5584077288e-01
-9.8994949365e-01	-3.5355339059e+00	-2.6215005308e-01
-8.4852813741e-01	-3.6769552621e+00	-2.6842257260e-01
-2.5455844123e+00	-2.5455844123e+00	-2.0457779381e-01
-2.4041630560e+00	-2.6870057685e+00	-2.1875620586e-01
-2.2627416998e+00	-2.8284271248e+00	-2.3163276371e-01
-2.1213203436e+00	-2.9698484810e+00	-2.4320746735e-01
-1.9798989873e+00	-3.1112698372e+00	-2.5348031680e-01
-1.8384776311e+00	-3.2526911935e+00	-2.6245131204e-01
-1.6970562748e+00	-3.3941125497e+00	-2.7012045309e-01
-1.5556349186e+00	-3.5355339059e+00	-2.7843397070e-01
-1.4142135624e+00	-3.6769552622e+00	-2.8641362917e-01
-1.2727922061e+00	-3.8183766184e+00	-2.9278433716e-01
-1.1313708499e+00	-3.9597979746e+00	-2.9753447419e-01
-2.8284271248e+00	-2.8284271248e+00	-2.2331037774e-01
-2.6870057685e+00	-2.9698484810e+00	-2.3961300375e-01
-2.5455844123e+00	-3.1112698372e+00	-2.5429449297e-01
-2.4041630560e+00	-3.2526911935e+00	-2.6735484538e-01
-2.2627416998e+00	-3.3941125497e+00	-2.7879406100e-01
-2.1213203435e+00	-3.5355339059e+00	-2.9056245148e-01
-1.9798989873e+00	-3.6769552622e+00	-3.0169522183e-01
-1.8384776311e+00	-3.8183766184e+00	-3.1091829861e-01
-1.6970562748e+00	-3.9597979746e+00	-3.1822006135e-01
-1.5556349186e+00	-4.1012193309e+00	-3.2358888661e-01
-1.4142135624e+00	-4.2426406871e+00	-3.2701315081e-01
-2.8284271248e+00	-2.8284271248e+00	-2.2331037774e-01
-2.6870057685e+00	-2.9698484810e+00	-2.3961300375e-01
-2.5455844123e+00	-3.1112698372e+00	-2.5429449297e-01
-2.4041630560e+00	-3.2526911935e+00	-2.6735484538e-01
-2.2627416998e+00	-3.3941125497e+00	-2.7879406100e-01
-2.1213203435e+00	-3.5355339059e+00	-2.9056245148e-01
-1.9798989873e+00	-3.6769552622e+00	-3.0169522183e-01
-1.8384776311e+00	-3.8183766184e+00	-3.1091829861e-01
-1.6970562748e+00	-3.9597979746e+00	-3.1822006135e-01
-1.5556349186e+00	-4.1012193309e+00	-3.2358888661e-01
-1.4142135624e+00	-4.2426406871e+00	-3.2701315081e-01
-3.1112698372e+00	-3.1112698372e+00	-2.5276441161e-01
-2.9698484810e+00	-3.2526911935e+00	-2.5675114802e-01
-2.8284271247e+00	-3.3941125497e+00	-2.6690563803e-01
-2.6870057685e+00	-3.5355339059e+00	-2.7958099302e-01
-2.5455844123e+00	-3.6769552622e+00	-2.9184833622e-01
-2.4041630560e+00	-3.8183766184e+00	-3.0243927450e-01
-2.2627416998e+00	-3.9597979746e+00	-3.1134218741e-01
-2.1213203435e+00	-4.1012193309e+00	-3.1854545171e-01
-1.9798989873e+00	-4.2426406871e+00	-3.2403744399e-01
-1.8384776311e+00	-4.3840620433e+00	-3.2780654073e-01
-1.6970562748e+00	-4.5254833996e+00	-3.2984111821e-01
-3.3941125497e+00	-3.3941125497e+00	-2.9205463147e-01
-3.2526911935e+00	-3.5355339059e+00	-2.9532285574e-01
-3.1112698372e+00	-3.6769552622e+00	-2.9821343980e-01
-2.9698484810e+00	-3.8183766184e+00	-2.9947235834e-01
-2.8284271247e+00	-3.9597979746e+00	-3.0727631925e-01
-2.6870057685e+00	-4.1012193309e+00	-3.1569922654e-01
-2.5455844123e+00	-4.2426406871e+00	-3.2264415077e-01
-2.4041630560e+00	-4.3840620434e+00	-3.2809946858e-01
-2.2627416998e+00	-4.5254833996e+00	-3.3205355647e-01
-2.1213203435e+00	-4.6669047558e+00	-3.3449479078e-01
-1.9798989873e+00	-4.8083261121e+00	-3.3541154770e-01
-3.6769552622e+00	-3.6769552622e+00	-3.3853236976e-01
-3.5355339059e+00	-3.8183766184e+00	-3.4016524358e-01
-3.3941125497e+00	-3.9597979746e+00	-3.4039330871e-01
-3.2526911934e+00	-4.1012193309e+00	-3.3920949489e-01
-3.1112698372e+00	-4.2426406871e+00	-3.3660673174e-01
-2.9698484810e+00	-4.3840620434e+00	-3.3257794874e-01
-2.8284271247e+00	-4.5254833996e+00	-3.3565755625e-01
-2.6870057685e+00	-4.6669047558e+00	-3.3963679401e-01
-2.5455844122e+00	-4.8083261121e+00	-3.4232484400e-01
-2.4041630560e+00	-4.9497474683e+00	-3.4371008243e-01
-2.2627416998e+00	-5.0911688245e+00	-3.4378088540e-01
-3.9597979746e+00	-3.9597979746e+00	-3.8749489826e-01
-3.8183766184e+00	-4.1012193309e+00	-3.8651126746e-01
-3.6769552622e+00	-4.2426406871e+00	-3.8434261216e-01
-3.5355339059e+00	-4.3840620434e+00	-3.8098186209e-01
-3.3941125497e+00	-4.5254833996e+00	-3.7642194687e-01
-3.2526911934e+00	-4.6669047558e+00	-3.7065579599e-01
-3.1112698372e+00	-4.8083261121e+00	-3.6367633882e-01
-2.9698484810e+00	-4.9497474683e+00	-3.5547650457e-01
-2.8284271247e+00	-5.0911688245e+00	-3.5490775294e-01
-2.6870057685e+00	-5.2325901808e+00	-3.5550886249e-01
-2.5455844122e+00	-5.3740115370e+00	-3.5500557855e-01
-4.2426406871e+00	-4.2426406871e+00	-4.3763481346e-01
-4.1012193309e+00	-4.3840620434e+00	-4.3430047379e-01
-3.9597979746e+00	-4.5254833996e+00	-4.3000089397e-01
-3.8183766184e+00	-4.6669047558e+00	-4.2472900373e-01
-3.6769552622e+00	-4.8083261121e+00	-4.1847773271e-01
-3.5355339059e+00	-4.9497474683e+00	-4.1124001039e-01
-3.3941125497e+00	-5.0911688245e+00	-4.0300876613e-01
-3.2526911934e+00	-5.2325901808e+00	-3.9377692917e-01
-3.1112698372e+00	-5.3740115370e+00	-3.8353742862e-01
-2.9698484810e+00	-5.5154328933e+00	-3.7228319346e-01
-2.8284271247e+00	-5.6568542495e+00	-3.6914207553e-01
-4.5254833996e+00	-4.5254833996e+00	-4.8889165708e-01
-4.3840620433e+00	-4.6669047558e+00	-4.8347240426e-01
-4.2426406871e+00	-4.8083261121e+00	-4.7730769581e-01
-4.1012193309e+00	-4.9497474683e+00	-4.7039046148e-01
-3.9597979746e+00	-5.0911688245e+00	-4.6271363090e-01
-3.8183766184e+00	-5.2325901808e+00	-4.5427013355e-01
-3.6769552621e+00	-5.3740115370e+00	-4.4505289880e-01
-3.5355339059e+00	-5.5154328933e+00	-4.3505485590e-01
-3.3941125497e+00	-5.6568542495e+00	-4.2426893395e-01
-3.2526911934e+00	-5.7982756057e+00	-4.1268806194e-01
-3.1112698372e+00	-5.9396969620e+00	-4.0030516872e-01
-4.8083261121e+00	-4.8083261121e+00	-5.4120496865e-01
-4.6669047558e+00	-4.9497474683e+00	-5.3396659840e-01
-4.5254833996e+00	-5.0911688245e+00	-5.2620255722e-01
-4.3840620433e+00	-5.2325901808e+00	-5.1790577486e-01
-4.2426406871e+00	-5.3740115370e+00	-5.0906918095e-01
-4.1012193309e+00	-5.5154328933e+00	-4.9968570499e-01
-3.9597979746e+00	-5.6568542495e+00	-4.8974827634e-01
-3.8183766184e+00	-5.7982756057e+00	-4.7924982425e-01
-3.6769552621e+00	-5.9396969620e+00	-4.6818327783e-01
-3.5355339059e+00	-6.0811183182e+00	-4.5654156607e-01
-3.3941125497e+00	-6.2225396745e+00	-4.4431761782e-01
-5.0911688245e+00	-5.0911688245e+00	-5.9451428563e-01
-4.9497474683e+00	-5.2325901808e+00	-5.8572259364e-01
-4.8083261121e+00	-5.3740115370e+00	-5.7662501560e-01
-4.6669047558e+00	-5.5154328933e+00	-5.6721448126e-01
-4.5254833996e+00	-5.6568542495e+00	-5.5748392025e-01
-4.3840620433e+00	-5.7982756057e+00	-5.4742626207e-01
-4.2426406871e+00	-5.9396969620e+00	-5.3703443609e-01
-4.1012193309e+00	-6.0811183182e+00	-5.2630137156e-01
-3.9597979746e+00	-6.2225396745e+00	-5.1521999759e-01
-3.8183766184e+00	-6.3639610307e+00	-5.0378324317e-01
-3.6769552621e+00	-6.5053823869e+00	-4.9198403717e-01
-5.3740115370e+00	-5.3740115370e+00	-6.4875914329e-01
-5.2325901808e+00	-5.5154328933e+00	-6.3867992526e-01
-5.0911688245e+00	-5.6568542495e+00	-6.2851460623e-01
-4.9497474683e+00	-5.7982756057e+00	-6.1825611595e-01
-4.8083261121e+00	-5.9396969620e+00	-6.0789738405e-01
-4.6669047558e+00	-6.0811183182e+00	-5.9743134004e-01
-4.5254833996e+00	-6.2225396745e+00	-5.8685091329e-01
-4.3840620433e+00	-6.3639610307e+00	-5.7614903305e-01
-4.2426406871e+00	-6.5053823869e+00	-5.6531862843e-01
-4.1012193309e+00	-6.6468037432e+00	-5.5435262844e-01
-3.9597979746e+00	-6.7882250994e+00	-5.4324396194e-01
-5.6568542495e+00	-5.6568542495e+00	-7.0387907481e-01
-5.5154328933e+00	-5.7982756057e+00	-6.9277812641e-01
-5.3740115370e+00	-5.9396969620e+00	-6.8181086224e-01
-5.2325901808e+00	-6.0811183182e+00	-6.7097021204e-01
-5.0911688245e+00	-6.2225396745e+00	-6.6024910546e-01
-4.9497474683e+00	-6.3639610307e+00	-6.4964047199e-01
-4.8083261121e+00	-6.5053823869e+00	-6.3913724101e-01
-4.6669047558e+00	-6.6468037432e+00	-6.2873234179e-01
-4.5254833996e+00	-6.7882250994e+00	-6.1841870343e-01
-4.3840620433e+00	-6.9296464557e+00	-6.0818925493e-01
-4.2426406871e+00	-7.0710678119e+00	-5.9803692517e-01
-8.4852813742e+00	-8.4852813742e+00	-3.7073499483e-02
-8.3438600180e+00	-8.6267027304e+00	-5.9349066836e-02
-8.2024386618e+00	-8.7681240867e+00	-7.6917143718e-02
-8.0610173055e+00	-8.9095454429e+00	-8.9770659918e-02
-7.9195959493e+00	-9.0509667992e+00	-9.7902545100e-02
-7.7781745931e+00	-9.1923881554e+00	-1.0130572880e-01
-7.6367532368e+00	-9.3338095116e+00	-9.9973140416e-02
-7.4953318806e+00	-9.4752308679e+00	-9.3897709237e-02
-7.3539105244e+00	-9.6166522241e+00	-8.3072364411e-02
-7.2124891681e+00	-9.7580735804e+00	-6.7490034962e-02
-7.0710678119e+00	-9.8994949366e+00	-4.7143649788e-02
-8.7681240867e+00	-8.7681240867e+00	-4.3195832462e-02
-8.6267027305e+00	-8.9095454429e+00	-6.4801645583e-02
-8.4852813742e+00	-9.0509667992e+00	-8.2237189629e-02
-8.3438600180e+00	-9.1923881554e+00	-9.5495394391e-02
-8.2024386618e+00	-9.3338095116e+00	-1.0456918954e-01
-8.0610173055e+00	-9.4752308679e+00	-1.0945150460e-01
-7.9195959493e+00	-9.6166522241e+00	-1.1013526899e-01
-7.7781745931e+00	-9.7580735804e+00	-1.0661341200e-01
-7.6367532368e+00	-9.8994949366e+00	-9.8878862772e-02
-7.4953318806e+00	-1.0040916293e+01	-8.6924550337e-02
-7.3539105244e+00	-1.0182337649e+01	-7.0743403594e-02
-9.0509667992e+00	-9.0509667992e+00	-2.5962476659e-02
-8.9095454429e+00	-9.1923881554e+00	-6.2622997768e-02
-8.7681240867e+00	-9.3338095116e+00	-8.9104000823e-02
-8.6267027305e+00	-9.4752308679e+00	-1.0206155784e-01
-8.4852813742e+00	-9.6166522241e+00	-1.1137192682e-01
-8.3438600180e+00	-9.7580735804e+00	-1.1702803730e-01
-8.2024386618e+00	-9.8994949366e+00	-1.1902281869e-01
-8.0610173055e+00	-1.0040916293e+01	-1.1734920027e-01
-7.9195959493e+00	-1.0182337649e+01	-1.1200011120e-01
-7.7781745931e+00	-1.0323759005e+01	-1.0296848052e-01
-7.6367532368e+00	-1.0465180362e+01	-8.8808993444e-02
-9.3338095116e+00	-9.3338095116e+00	-6.9293428129e-03
-9.1923881554e+00	-9.4752308679e+00	-4.1230543281e-02
-9.0509667992e+00	-9.6166522241e+00	-7.2243749978e-02
-8.9095454429e+00	-9.7580735804e+00	-9.9953397304e-02
-8.7681240867e+00	-9.8994949366e+00	-1.1825026232e-01
-8.6267027305e+00	-1.0040916293e+01	-1.2397483224e-01
-8.4852813742e+00	-1.0182337649e+01	-1.2657529482e-01
-8.3438600180e+00	-1.0323759005e+01	-1.2604457936e-01
-8.2024386618e+00	-1.0465180362e+01	-1.2125916644e-01
-8.0610173055e+00	-1.0606601718e+01	-1.1313201738e-01
-7.9195959493e+00	-1.0748023074e+01	-1.0186081157e-01
-9.6166522241e+00	-9.6166522241e+00	 7.0412095480e-03
-9.4752308679e+00	-9.7580735804e+00	-2.4206665037e-02
-9.3338095117e+00	-9.8994949366e+00	-5.2678269261e-02
-9.1923881554e+00	-1.0040916293e+01	-7.8358037187e-02
-9.0509667992e+00	-1.0182337649e+01	-1.0123040251e-01
-8.9095454429e+00	-1.0323759005e+01	-1.2127979858e-01
-8.7681240867e+00	-1.0465180362e+01	-1.3196802060e-01
-8.6267027305e+00	-1.0606601718e+01	-1.3094616631e-01
-8.4852813742e+00	-1.0748023074e+01	-1.2730135361e-01
-8.3438600180e+00	-1.0889444430e+01	-1.2104252556e-01
-8.2024386618e+00	-1.1030865787e+01	-1.1217862522e-01
-9.8994949366e+00	-9.8994949366e+00	 1.5703711649e-02
-9.7580735804e+00	-1.0040916293e+01	-1.1796833157e-02
-9.6166522241e+00	-1.0182337649e+01	-3.7032831211e-02
-9.4752308679e+00	-1.0323759005e+01	-5.9988716238e-02
-9.3338095117e+00	-1.0465180362e+01	-8.0220804198e-02
-9.1923881554e+00	-1.0606601718e+01	-9.8027890371e-02
-9.0509667992e+00	-1.0748023074e+01	-1.1348692019e-01
-8.9095454429e+00	-1.0889444430e+01	-1.2660634685e-01
-8.7681240867e+00	-1.1030865787e+01	-1.3198128722e-01
-8.6267027305e+00	-1.1172287143e+01	-1.2686409899e-01
-8.4852813742e+00	-1.1313708499e+01	-1.1968082296e-01
-1.0182337649e+01	-1.0182337649e+01	 1.8812693680e-02
-1.0040916293e+01	-1.0323759005e+01	-4.2465187984e-03
-9.8994949366e+00	-1.0465180362e+01	-2.5404602519e-02
-9.7580735804e+00	-1.0606601718e+01	-4.4713490868e-02
-9.6166522241e+00	-1.0748023074e+01	-6.2201355628e-02
-9.4752308679e+00	-1.0889444430e+01	-7.7876649798e-02
-9.3338095117e+00	-1.1030865787e+01	-9.1747826501e-02
-9.1923881554e+00	-1.1172287143e+01	-1.0382333898e-01
-9.0509667992e+00	-1.1313708499e+01	-1.1411164061e-01
-8.9095454429e+00	-1.1455129855e+01	-1.2262118488e-01
-8.7681240867e+00	-1.1596551211e+01	-1.2428579335e-01
-1.0465180362e+01	-1.0465180362e+01	 1.6046558388e-02
-1.0323759005e+01	-1.0606601718e+01	-1.8961651660e-03
-1.0182337649e+01	-1.0748023074e+01	-1.8544898023e-02
-1.0040916293e+01	-1.0889444430e+01	-3.3908092977e-02
-9.8994949366e+00	-1.1030865787e+01	-4.7994202944e-02
-9.7580735804e+00	-1.1172287143e+01	-6.0811680960e-02
-9.6166522241e+00	-1.1313708499e+01	-7.2368980186e-02
-9.4752308679e+00	-1.1455129855e+01	-8.2674553906e-02
-9.3338095116e+00	-1.1596551211e+01	-9.1736855523e-02
-9.1923881554e+00	-1.1737972568e+01	-9.9564338566e-02
-9.0509667992e+00	-1.1879393924e+01	-1.0616545668e-01
-1.0748023074e+01	-1.0748023074e+01	 6.8077534159e-03
-1.0606601718e+01	-1.0889444430e+01	-5.3753762030e-03
-1.0465180362e+01	-1.1030865787e+01	-1.6808453439e-02
-1.0323759005e+01	-1.1172287143e+01	-2.7499931123e-02
-1.0182337649e+01	-1.1313708499e+01	-3.7458262207e-02
-1.0040916293e+01	-1.1455129855e+01	-4.6691899768e-02
-9.8994949366e+00	-1.1596551211e+01	-5.5209297002e-02
-9.7580735804e+00	-1.1737972568e+01	-6.3018907230e-02
-9.6166522241e+00	-1.1879393924e+01	-7.0129183896e-02
-9.4752308679e+00	-1.2020815280e+01	-7.6548580563e-02
-9.3338095116e+00	-1.2162236636e+01	-8.2285550919e-02
-1.1030865787e+01	-1.1030865787e+01	-8.8652784007e-03
-1.0889444430e+01	-1.1172287143e+01	-1.4562790486e-02
-1.0748023074e+01	-1.1313708499e+01	-2.0054188288e-02
-1.0606601718e+01	-1.1455129855e+01	-2.5347924676e-02
-1.0465180362e+01	-1.1596551211e+01	-3.0452452639e-02
-1.0323759005e+01	-1.1737972568e+01	-3.5376225292e-02
-1.0182337649e+01	-1.1879393924e+01	-4.0127695869e-02
-1.0040916293e+01	-1.2020815280e+01	-4.4715317728e-02
-9.8994949366e+00	-1.2162236636e+01	-4.9147544349e-02
-9.7580735804e+00	-1.2303657993e+01	-5.3432829335e-02
-9.6166522241e+00	-1.2445079349e+01	-5.7579626410e-02
-1.1313708499e+01	-1.1313708499e+01	-3.0831460045e-02
-1.1172287143e+01	-1.1455129855e+01	-2.9317330846e-02
-1.1030865787e+01	-1.1596551211e+01	-2.8141025252e-02
-1.0889444430e+01	-1.1737972568e+01	-2.7310996167e-02
-1.0748023074e+01	-1.1879393924e+01	-2.6835696621e-02
-1.0606601718e+01	-1.2020815280e+01	-2.6723579763e-02
-1.0465180362e+01	-1.2162236636e+01	-2.6983098867e-02
-1.0323759005e+01	-1.2303657993e+01	-2.7622707328e-02
-1.0182337649e+01	-1.2445079349e+01	-2.8650858663e-02
-1.0040916293e+01	-1.2586500705e+01	-3.0076006512e-02
-9.8994949366e+00	-1.2727922061e+01	-3.1906604639e-02
-1.1313708499e+01	-1.1313708499e+01	-3.0831460045e-02
-1.1172287143e+01	-1.1455129855e+01	-2.9317330846e-02
-1.1030865787e+01	-1.1596551211e+01	-2.8141025252e-02
-1.0889444430e+01	-1.1737972568e+01	-2.7310996167e-02
-1.0748023074e+01	-1.1879393924e+01	-2.6835696621e-02
-1.0606601718e+01	-1.2020815280e+01	-2.6723579763e-02
-1.0465180362e+01	-1.2162236636e+01	-2.6983098867e-02
-1.0323759005e+01	-1.2303657993e+01	-2.7622707328e-02
-1.0182337649e+01	-1.2445079349e+01	-2.8650858663e-02
-1.0040916293e+01	-1.2586500705e+01	-3.0076006512e-02
-9.8994949366e+00	-1.2727922061e+01	-3.1906604639e-02
-1.1596551211e+01	-1.1596551211e+01	-1.9452492961e-02
-1.1455129855e+01	-1.1737972568e+01	-1.9594866429e-02
-1.1313708499e+01	-1.1879393924e+01	-1.9973055396e-02
-1.1172287143e+01	-1.2020815280e+01	-2.0595512804e-02
-1.1030865787e+01	-1.2162236636e+01	-2.1470691720e-02
-1.0889444430e+01	-1.2303657993e+01	-2.2607045332e-02
-1.0748023074e+01	-1.2445079349e+01	-2.4013026949e-02
-1.0606601718e+01	-1.2586500705e+01	-2.5697090004e-02
-1.0465180362e+01	-1.2727922061e+01	-2.7667688054e-02
-1.0323759005e+01	-1.2869343418e+01	-2.9933274774e-02
-1.0182337649e+01	-1.3010764774e+01	-3.2502303967e-02
-1.1879393924e+01	-1.1879393924e+01	-1.0204927693e-02
-1.1737972568e+01	-1.2020815280e+01	-1.1825712069e-02
-1.1596551211e+01	-1.2162236636e+01	-1.3580303624e-02
-1.1455129855e+01	-1.2303657993e+01	-1.5477155340e-02
-1.1313708499e+01	-1.2445079349e+01	-1.7524720319e-02
-1.1172287143e+01	-1.2586500705e+01	-1.9731451786e-02
-1.1030865787e+01	-1.2727922061e+01	-2.2105803091e-02
-1.0889444430e+01	-1.2869343418e+01	-2.4656227703e-02
-1.0748023074e+01	-1.3010764774e+01	-2.7391179215e-02
-1.0606601718e+01	-1.3152186130e+01	-3.0319111342e-02
-1.0465180362e+01	-1.3293607486e+01	-3.3448477922e-02
-1.2162236636e+01	-1.2162236636e+01	-2.9476967037e-03
-1.2020815280e+01	-1.2303657993e+01	-5.8688000773e-03
-1.1879393924e+01	-1.2445079349e+01	-8.8217020982e-03
-1.1737972568e+01	-1.2586500705e+01	-1.1814855784e-02
-1.1596551211e+01	-1.2727922061e+01	-1.4856714277e-02
-1.1455129855e+01	-1.2869343418e+01	-1.7955730839e-02
-1.1313708499e+01	-1.3010764774e+01	-2.1120358855e-02
-1.1172287143e+01	-1.3152186130e+01	-2.4359051834e-02
-1.1030865787e+01	-1.3293607486e+01	-2.7680263406e-02
-1.0889444430e+01	-1.3435028843e+01	-3.1092447324e-02
-1.0748023074e+01	-1.3576450199e+01	-3.4604057462e-02
-1.2445079349e+01	-1.2445079349e+01	 2.4602643863e-03
-1.2303657993e+01	-1.2586500705e+01	-1.5830659252e-03
-1.2162236636e+01	-1.2727922061e+01	-5.5561861384e-03
-1.2020815280e+01	-1.2869343418e+01	-9.4675493092e-03
-1.1879393924e+01	-1.3010764774e+01	-1.3325608616e-02
-1.1737972568e+01	-1.3152186130e+01	-1.7138817359e-02
-1.1596551211e+01	-1.3293607486e+01	-2.0915628961e-02
-1.1455129855e+01	-1.3435028843e+01	-2.4664496968e-02
-1.1313708499e+01	-1.3576450199e+01	-2.8393875048e-02
-1.1172287143e+01	-1.3717871555e+01	-3.2112216990e-02
-1.1030865787e+01	-1.3859292911e+01	-3.5827976708e-02
-1.2727922061e+01	-1.2727922061e+01	 6.1600167959e-03
-1.2586500705e+01	-1.2869343418e+01	 1.1725517567e-03
-1.2445079349e+01	-1.3010764774e+01	-3.6426942255e-03
-1.2303657993e+01	-1.3152186130e+01	-8.2941742441e-03
-1.2162236636e+01	-1.3293607486e+01	-1.2790341515e-02
-1.2020815280e+01	-1.3435028843e+01	-1.7139649376e-02
-1.1879393924e+01	-1.3576450199e+01	-2.1350551288e-02
-1.1737972568e+01	-1.3717871555e+01	-2.5431500834e-02
-1.1596551211e+01	-1.3859292911e+01	-2.9390951718e-02
-1.1455129855e+01	-1.4000714267e+01	-3.3237357770e-02
-1.1313708499e+01	-1.4142135624e+01	-3.6979172939e-02
-1.3010764774e+01	-1.3010764774e+01	 8.2926185851e-03
-1.2869343418e+01	-1.3152186130e+01	 2.5391111786e-03
-1.2727922061e+01	-1.3293607486e+01	-2.9401679991e-03
-1.2586500705e+01	-1.3435028843e+01	-8.1536720789e-03
-1.2445079349e+01	-1.3576450199e+01	-1.3109854314e-02
-1.2303657993e+01	-1.3717871555e+01	-1.7817168080e-02
-1.2162236636e+01	-1.3859292911e+01	-2.2284066875e-02
-1.2020815280e+01	-1.4000714267e+01	-2.6519004320e-02
-1.1879393924e+01	-1.4142135624e+01	-3.0530434157e-02
-1.1737972568e+01	-1.4283556980e+01	-3.4326810252e-02
-1.1596551211e+01	-1.4424978336e+01	-3.7916586592e-02
-1.3293607486e+01	-1.3293607486e+01	 8.9991246542e-03
-1.3152186130e+01	-1.3435028843e+01	 2.6576673909e-03
-1.3010764774e+01	-1.3576450199e+01	-3.3075522585e-03
-1.2869343418e+01	-1.3717871555e+01	-8.9049874625e-03
-1.2727922061e+01	-1.3859292911e+01	-1.4143091512e-02
-1.2586500705e+01	-1.4000714267e+01	-1.9030317820e-02
-1.2445079349e+01	-1.4142135624e+01	-2.3575119922e-02
-1.2303657993e+01	-1.4283556980e+01	-2.7785951476e-02
-1.2162236636e+01	-1.4424978336e+01	-3.1671266262e-02
-1.2020815280e+01	-1.4566399692e+01	-3.5239518184e-02
-1.1879393924e+01	-1.4707821049e+01	-3.8499161266e-02
-1.3576450199e+01	-1.3576450199e+01	 8.4205867446e-03
-1.3435028843e+01	-1.3717871555e+01	 1.6692722853e-03
-1.3293607486e+01	-1.3859292911e+01	-4.6037949620e-03
-1.3152186130e+01	-1.4000714267e+01	-1.0407068203e-02
-1.3010764774e+01	-1.4142135624e+01	-1.5749000766e-02
-1.2869343418e+01	-1.4283556980e+01	-2.0638046102e-02
-1.2727922061e+01	-1.4424978336e+01	-2.5082657784e-02
-1.2586500705e+01	-1.4566399692e+01	-2.9091289508e-02
-1.2445079349e+01	-1.4707821049e+01	-3.2672395090e-02
-1.2303657993e+01	-1.4849242405e+01	-3.5834428473e-02
-1.2162236636e+01	-1.4990663761e+01	-3.8585843717e-02
-1.3859292911e+01	-1.3859292911e+01	 6.6980534386e-03
-1.3717871555e+01	-1.4000714267e+01	-2.8502540602e-04
-1.3576450199e+01	-1.4142135624e+01	-6.6878472271e-03
-1.3435028843e+01	-1.4283556980e+01	-1.2518865268e-02
-1.3293607486e+01	-1.4424978336e+01	-1.7786532895e-02
-1.3152186130e+01	-1.4566399692e+01	-2.2499303595e-02
-1.3010764774e+01	-1.4707821049e+01	-2.6665630981e-02
-1.2869343418e+01	-1.4849242405e+01	-3.0293968783e-02
-1.2727922061e+01	-1.4990663761e+01	-3.3392770859e-02
-1.2586500705e+01	-1.5132085117e+01	-3.5970491186e-02
-1.2445079349e+01	-1.5273506474e+01	-3.8035583864e-02
-1.4142135624e+01	-1.4142135624e+01	 3.9725701593e-03
-1.4000714267e+01	-1.4283556980e+01	-3.0641801096e-03
-1.3859292911e+01	-1.4424978336e+01	-9.4186633302e-03
-1.3717871555e+01	-1.4566399692e+01	-1.5099332784e-02
-1.3576450199e+01	-1.4707821049e+01	-2.0114641873e-02
-1.3435028843e+01	-1.4849242405e+01	-2.4473044125e-02
-1.3293607486e+01	-1.4990663761e+01	-2.8182993186e-02
-1.3152186130e+01	-1.5132085117e+01	-3.1252942829e-02
-1.3010764774e+01	-1.5273506474e+01	-3.3691346944e-02
-1.2869343418e+01	-1.5414927830e+01	-3.5506659548e-02
-1.2727922061e+01	-1.5556349186e+01	-3.6707334779e-02
 1.4142135624e+00	-1.4142135624e+00	-1.5528815803e-01
 2.0506096655e+00	-2.0506096655e+00	-1.5151977006e-01
 2.6870057685e+00	-2.6870057685e+00	-1.5973677800e-01
 3.3234018716e+00	-3.3234018716e+00	-1.7081870979e-01
 3.9597979746e+00	-3.9597979746e+00	-1.8386609698e-01
 4.5961940777e+00	-4.5961940777e+00	-1.9165314511e-01
 5.2325901808e+00	-5.2325901808e+00	-1.9484985598e-01
 5.8689862838e+00	-5.8689862838e+00	-1.9664307058e-01
 6.5053823869e+00	-6.5053823869e+00	-2.0021979065e-01
 7.1417784900e+00	-7.1417784900e+00	-2.0876717872e-01
 7.7781745931e+00	-7.7781745931e+00	-2.2547255810e-01
 1.1313708499e+00	-1.6970562749e+00	-1.6982442217e-01
 1.7677669530e+00	-2.3334523779e+00	-1.6004959052e-01
 2.4041630560e+00	-2.9698484810e+00	-1.6338884065e-01
 3.0405591591e+00	-3.6062445841e+00	-1.7958591805e-01
 3.6769552622e+00	-4.2426406871e+00	-1.8796391446e-01
 4.3133513652e+00	-4.8790367902e+00	-1.9027409650e-01
 4.9497474683e+00	-5.5154328933e+00	-1.8970319979e-01
 5.5861435714e+00	-6.1518289963e+00	-1.8943810757e-01
 6.2225396744e+00	-6.7882250994e+00	-1.9266586383e-01
 6.8589357775e+00	-7.4246212025e+00	-2.0257367338e-01
 7.4953318806e+00	-8.0610173055e+00	-2.2234890178e-01
 8.4852813744e-01	-1.9798989873e+00	-1.8638776918e-01
 1.4849242405e+00	-2.6162950904e+00	-1.7017468656e-01
 2.1213203436e+00	-3.2526911935e+00	-1.6820437159e-01
 2.7577164466e+00	-3.8890872965e+00	-1.8741675749e-01
 3.3941125497e+00	-4.5254833996e+00	-1.9495489028e-01
 4.0305086528e+00	-5.1618795027e+00	-1.9114653886e-01
 4.6669047558e+00	-5.7982756057e+00	-1.8616636911e-01
 5.3033008589e+00	-6.4346717088e+00	-1.8320130655e-01
 5.9396969620e+00	-7.0710678119e+00	-1.8543843743e-01
 6.5760930650e+00	-7.7074639149e+00	-1.9606500880e-01
 7.2124891681e+00	-8.3438600180e+00	-2.1826842852e-01
 5.6568542496e-01	-2.2627416998e+00	-2.0497819906e-01
 1.2020815280e+00	-2.8991378029e+00	-1.8189505817e-01
 1.8384776311e+00	-3.5355339059e+00	-1.7594738007e-01
 2.4748737341e+00	-4.1719300090e+00	-1.9161681189e-01
 3.1112698372e+00	-4.8083261121e+00	-2.0449494691e-01
 3.7476659403e+00	-5.4447222151e+00	-1.9392638628e-01
 4.3840620433e+00	-6.0811183182e+00	-1.8389526971e-01
 5.0204581464e+00	-6.7175144213e+00	-1.7758856494e-01
 5.6568542495e+00	-7.3539105243e+00	-1.7819340050e-01
 6.2932503525e+00	-7.9903066274e+00	-1.8889706571e-01
 6.9296464556e+00	-8.6267027305e+00	-2.1288701069e-01
 2.8284271249e-01	-2.5455844123e+00	-2.2559571180e-01
 9.1923881555e-01	-3.1819805153e+00	-1.9521070535e-01
 1.5556349186e+00	-3.8183766184e+00	-1.8798641405e-01
 2.1920310217e+00	-4.4547727215e+00	-1.9534973360e-01
 2.8284271247e+00	-5.0911688245e+00	-2.0982269937e-01
 3.4648232278e+00	-5.7275649276e+00	-1.9826954435e-01
 4.1012193309e+00	-6.3639610307e+00	-1.8254579880e-01
 4.7376154339e+00	-7.0003571338e+00	-1.7225577161e-01
 5.3740115370e+00	-7.6367532368e+00	-1.7058663358e-01
 6.0104076401e+00	-8.2731493399e+00	-1.8072571628e-01
 6.6468037431e+00	-8.9095454430e+00	-2.0586051211e-01
 1.2500001034e-11	-2.8284271247e+00	-2.4824030741e-01
 6.3639610307e-01	-3.4648232278e+00	-2.1048405234e-01
 1.2727922061e+00	-4.1012193309e+00	-1.9997686309e-01
 1.9091883092e+00	-4.7376154339e+00	-1.9867196572e-01
 2.5455844123e+00	-5.3740115370e+00	-2.0551003539e-01
 3.1819805153e+00	-6.0104076401e+00	-2.0383191004e-01
 3.8183766184e+00	-6.6468037432e+00	-1.8177384501e-01
 4.4547727215e+00	-7.2831998462e+00	-1.6685880684e-01
 5.0911688245e+00	-7.9195959493e+00	-1.6227400859e-01
 5.7275649276e+00	-8.5559920524e+00	-1.7120682409e-01
 6.3639610307e+00	-9.1923881554e+00	-1.9684478802e-01
-2.8284271246e-01	-3.1112698372e+00	-2.7291198589e-01
 3.5355339060e-01	-3.7476659403e+00	-2.3254601838e-01
 9.8994949366e-01	-4.3840620433e+00	-2.1197517341e-01
 1.6263455967e+00	-5.0204581464e+00	-2.0163995249e-01
 2.2627416998e+00	-5.6568542495e+00	-2.0048102054e-01
 2.8991378029e+00	-6.2932503526e+00	-2.0743898018e-01
 3.5355339059e+00	-6.9296464556e+00	-1.8123528842e-01
 4.1719300090e+00	-7.5660425587e+00	-1.6105354236e-01
 4.8083261120e+00	-8.2024386618e+00	-1.5291138891e-01
 5.4447222151e+00	-8.8388347648e+00	-1.5999624417e-01
 6.0811183182e+00	-9.4752308679e+00	-1.8549568509e-01
-5.6568542494e-01	-3.3941125497e+00	-2.9961074723e-01
 7.0710678125e-02	-4.0305086527e+00	-2.5503439465e-01
 7.0710678119e-01	-4.6669047558e+00	-2.2403778837e-01
 1.3435028842e+00	-5.3033008589e+00	-2.0431013928e-01
 1.9798989873e+00	-5.9396969620e+00	-1.9479210218e-01
 2.6162950904e+00	-6.5760930650e+00	-1.9442426955e-01
 3.2526911934e+00	-7.2124891681e+00	-1.8058600054e-01
 3.8890872965e+00	-7.8488852712e+00	-1.5449584132e-01
 4.5254833996e+00	-8.4852813742e+00	-1.4215462934e-01
 5.1618795026e+00	-9.1216774773e+00	-1.4674982298e-01
 5.7982756057e+00	-9.7580735804e+00	-1.7146904143e-01
-8.4852813741e-01	-3.6769552621e+00	-3.3315167964e-01
-2.1213203435e-01	-4.3133513652e+00	-2.7800562378e-01
 4.2426406871e-01	-4.9497474683e+00	-2.3622115245e-01
 1.0606601718e+00	-5.5861435714e+00	-2.0673897257e-01
 1.6970562748e+00	-6.2225396744e+00	-1.8849972879e-01
 2.3334523779e+00	-6.8589357775e+00	-1.8044400348e-01
 2.9698484810e+00	-7.4953318806e+00	-1.7948184429e-01
 3.6062445840e+00	-8.1317279836e+00	-1.4684155831e-01
 4.2426406871e+00	-8.7681240867e+00	-1.2965957613e-01
 4.8790367902e+00	-9.4045201898e+00	-1.3112339839e-01
 5.5154328932e+00	-1.0040916293e+01	-1.5442068656e-01
-1.1313708499e+00	-3.9597979746e+00	-3.6884551746e-01
-4.9497474682e-01	-4.5961940777e+00	-3.0151614936e-01
 1.4142135624e-01	-5.2325901808e+00	-2.4858171128e-01
 7.7781745931e-01	-5.8689862838e+00	-2.0898289998e-01
 1.4142135624e+00	-6.5053823869e+00	-1.8166035000e-01
 2.0506096654e+00	-7.1417784900e+00	-1.6555463356e-01
 2.6870057685e+00	-7.7781745930e+00	-1.5960626063e-01
 3.3234018716e+00	-8.4145706961e+00	-1.3774653935e-01
 3.9597979746e+00	-9.0509667992e+00	-1.1508206693e-01
 4.5961940777e+00	-9.6873629023e+00	-1.1277279972e-01
 5.2325901808e+00	-1.0323759005e+01	-1.3400644146e-01
-1.4142135624e+00	-4.2426406871e+00	-4.0549719730e-01
-7.7781745929e-01	-4.8790367902e+00	-3.2562241616e-01
-1.4142135623e-01	-5.5154328932e+00	-2.6117591159e-01
 4.9497474683e-01	-6.1518289963e+00	-2.1109837025e-01
 1.1313708499e+00	-6.7882250994e+00	-1.7433041653e-01
 1.7677669530e+00	-7.4246212024e+00	-1.4981261253e-01
 2.4041630560e+00	-8.0610173055e+00	-1.3648545809e-01
 3.0405591591e+00	-8.6974134086e+00	-1.2686662187e-01
 3.6769552622e+00	-9.3338095117e+00	-9.8077930835e-02
 4.3133513652e+00	-9.9702056147e+00	-9.1353847711e-02
 4.9497474683e+00	-1.0606601718e+01	-1.1212203170e-01
 7.7781745931e+00	-7.7781745931e+00	-2.2547255810e-01
 8.4145706961e+00	-8.4145706961e+00	-1.6268376795e-01
 9.0509667992e+00	-9.0509667992e+00	-1.2428986066e-01
 9.6873629023e+00	-9.6873629023e+00	-1.1866802188e-01
 1.0323759005e+01	-1.0323759005e+01	-1.1331042099e-01
 1.0960155108e+01	-1.0960155108e+01	-1.2413722259e-01
 1.1596551211e+01	-1.1596551211e+01	-1.2955089544e-01
 1.2232947315e+01	-1.2232947315e+01	-1.2882345373e-01
 1.2869343418e+01	-1.2869343418e+01	-1.2186938394e-01
 1.3505739521e+01	-1.3505739521e+01	-1.0860317223e-01
 1.4142135624e+01	-1.4142135624e+01	-8.8939304516e-02
 7.4953318806e+00	-8.0610173055e+00	-2.2234890178e-01
 8.1317279836e+00	-8.6974134086e+00	-1.6191870525e-01
 8.7681240867e+00	-9.3338095117e+00	-1.1022200232e-01
 9.4045201898e+00	-9.9702056147e+00	-1.0442002025e-01
 1.0040916293e+01	-1.0606601718e+01	-1.0953969746e-01
 1.0677312396e+01	-1.1242997821e+01	-1.2074727821e-01
 1.1313708499e+01	-1.1879393924e+01	-1.2577845697e-01
 1.1950104602e+01	-1.2515790027e+01	-1.2454771826e-01
 1.2586500705e+01	-1.3152186130e+01	-1.1696954634e-01
 1.3222896808e+01	-1.3788582233e+01	-1.0295842518e-01
 1.3859292911e+01	-1.4424978336e+01	-8.2428838430e-02
 7.2124891681e+00	-8.3438600180e+00	-2.1826842852e-01
 7.8488852712e+00	-8.9802561211e+00	-1.6016286776e-01
 8.4852813742e+00	-9.6166522241e+00	-1.1118281415e-01
 9.1216774773e+00	-1.0253048327e+01	-9.0757512608e-02
 9.7580735804e+00	-1.0889444430e+01	-1.0544198688e-01
 1.0394469683e+01	-1.1525840533e+01	-1.1656939431e-01
 1.1030865787e+01	-1.2162236636e+01	-1.2139959975e-01
 1.1667261890e+01	-1.2798632739e+01	-1.1984708551e-01
 1.2303657993e+01	-1.3435028843e+01	-1.1182633363e-01
 1.2940054096e+01	-1.4071424946e+01	-9.7251825827e-02
 1.3576450199e+01	-1.4707821049e+01	-7.6038043552e-02
 6.9296464556e+00	-8.6267027305e+00	-2.1288701069e-01
 7.5660425587e+00	-9.2630988336e+00	-1.5707211949e-01
 8.2024386618e+00	-9.8994949366e+00	-1.1077475096e-01
 8.8388347648e+00	-1.0535891040e+01	-8.2773275790e-02
 9.4752308679e+00	-1.1172287143e+01	-1.0033451214e-01
 1.0111626971e+01	-1.1808683246e+01	-1.1156326679e-01
 1.0748023074e+01	-1.2445079349e+01	-1.1637402015e-01
 1.1384419177e+01	-1.3081475452e+01	-1.1468125230e-01
 1.2020815280e+01	-1.3717871555e+01	-1.0639944303e-01
 1.2657211383e+01	-1.4354267658e+01	-9.1443071863e-02
 1.3293607486e+01	-1.4990663761e+01	-6.9726618006e-02
 6.6468037431e+00	-8.9095454430e+00	-2.0586051211e-01
 7.2831998462e+00	-9.5459415460e+00	-1.5230231593e-01
 7.9195959493e+00	-1.0182337649e+01	-1.0865365984e-01
 8.5559920523e+00	-1.0818733752e+01	-8.8424667651e-02
 9.1923881554e+00	-1.1455129855e+01	-9.4176967929e-02
 9.8287842585e+00	-1.2091525958e+01	-1.0568859081e-01
 1.0465180362e+01	-1.2727922061e+01	-1.1066141375e-01
 1.1101576465e+01	-1.3364318164e+01	-1.0900991463e-01
 1.1737972568e+01	-1.4000714267e+01	-1.0064857101e-01
 1.2374368671e+01	-1.4637110371e+01	-8.5491860179e-02
 1.3010764774e+01	-1.5273506474e+01	-6.3454259125e-02
 6.3639610307e+00	-9.1923881554e+00	-1.9684478802e-01
 7.0003571337e+00	-9.8287842585e+00	-1.4550930395e-01
 7.6367532368e+00	-1.0465180362e+01	-1.0705822673e-01
 8.2731493399e+00	-1.1101576465e+01	-9.1150931068e-02
 8.9095454429e+00	-1.1737972568e+01	-8.6929048160e-02
 9.5459415460e+00	-1.2374368671e+01	-9.8905060692e-02
 1.0182337649e+01	-1.3010764774e+01	-1.0422147533e-01
 1.0818733752e+01	-1.3647160877e+01	-1.0279276773e-01
 1.1455129855e+01	-1.4283556980e+01	-9.4533413223e-02
 1.2091525958e+01	-1.4919953083e+01	-7.9357886874e-02
 1.2727922061e+01	-1.5556349186e+01	-5.7180663447e-02
 6.0811183182e+00	-9.4752308679e+00	-1.8549568509e-01
 6.7175144213e+00	-1.0111626971e+01	-1.3634892189e-01
 7.3539105243e+00	-1.0748023074e+01	-1.0548566290e-01
 7.9903066274e+00	-1.1384419177e+01	-9.0291920706e-02
 8.6267027305e+00	-1.2020815280e+01	-8.3830562260e-02
 9.2630988335e+00	-1.2657211383e+01	-9.1172369990e-02
 9.8994949366e+00	-1.3293607486e+01	-9.7013898880e-02
 1.0535891040e+01	-1.3930003589e+01	-9.5989506021e-02
 1.1172287143e+01	-1.4566399692e+01	-8.8013664535e-02
 1.1808683246e+01	-1.5202795796e+01	-7.3000847255e-02
 1.2445079349e+01	-1.5839191899e+01	-5.0865526719e-02
 5.7982756057e+00	-9.7580735804e+00	-1.7146904143e-01
 6.4346717088e+00	-1.0394469683e+01	-1.2528138124e-01
 7.0710678119e+00	-1.1030865787e+01	-1.0006688696e-01
 7.7074639149e+00	-1.1667261890e+01	-8.5940437580e-02
 8.3438600180e+00	-1.2303657993e+01	-8.0200955633e-02
 8.9802561211e+00	-1.2940054096e+01	-8.2450211460e-02
 9.6166522241e+00	-1.3576450199e+01	-8.8998377586e-02
 1.0253048327e+01	-1.4212846302e+01	-8.8559823141e-02
 1.0889444430e+01	-1.4849242405e+01	-8.1049019022e-02
 1.1525840533e+01	-1.5485638508e+01	-6.6380435835e-02
 1.2162236636e+01	-1.6122034611e+01	-4.4468543893e-02
 5.5154328932e+00	-1.0040916293e+01	-1.5442068656e-01
 6.1518289963e+00	-1.0677312396e+01	-1.1434274573e-01
 6.7882250994e+00	-1.1313708499e+01	-9.0894699922e-02
 7.4246212025e+00	-1.1950104602e+01	-7.8189282705e-02
 8.0610173055e+00	-1.2586500705e+01	-7.3525416601e-02
 8.6974134086e+00	-1.3222896808e+01	-7.4202024134e-02
 9.3338095117e+00	-1.3859292911e+01	-8.0134603854e-02
 9.9702056147e+00	-1.4495689014e+01	-8.0463411931e-02
 1.0606601718e+01	-1.5132085117e+01	-7.3599169964e-02
 1.1242997821e+01	-1.5768481220e+01	-5.9456346335e-02
 1.1879393924e+01	-1.6404877324e+01	-3.7949409130e-02
 5.2325901808e+00	-1.0323759005e+01	-1.3400644146e-01
 5.8689862838e+00	-1.0960155108e+01	-9.9389760793e-02
 6.5053823869e+00	-1.1596551211e+01	-7.8061902805e-02
 7.1417784900e+00	-1.2232947315e+01	-6.7131257093e-02
 7.7781745931e+00	-1.2869343418e+01	-6.3896746179e-02
 8.4145706961e+00	-1.3505739521e+01	-6.5657292586e-02
 9.0509667992e+00	-1.4142135624e+01	-7.0382269292e-02
 9.6873629023e+00	-1.4778531727e+01	-7.1659964438e-02
 1.0323759005e+01	-1.5414927830e+01	-6.5623809850e-02
 1.0960155108e+01	-1.6051323933e+01	-5.2188271682e-02
 1.1596551211e+01	-1.6687720036e+01	-3.1267815798e-02
 4.9497474683e+00	-1.0606601718e+01	-1.1212203170e-01
 5.5861435714e+00	-1.1242997821e+01	-8.0515227444e-02
 6.2225396744e+00	-1.1879393924e+01	-6.1661296621e-02
 6.8589357775e+00	-1.2515790027e+01	-5.2859161759e-02
 7.4953318806e+00	-1.3152186130e+01	-5.1407745380e-02
 8.1317279837e+00	-1.3788582233e+01	-5.4605970008e-02
 8.7681240867e+00	-1.4424978336e+01	-5.9752758165e-02
 9.4045201898e+00	-1.5061374439e+01	-6.2109171917e-02
 1.0040916293e+01	-1.5697770542e+01	-5.7082630373e-02
 1.0677312396e+01	-1.6334166645e+01	-4.4535904011e-02
 1.1313708499e+01	-1.6970562749e+01	-2.4383456470e-02
-1.4142135624e+00	-4.2426406871e+00	-4.0549719730e-01
-7.7781745929e-01	-4.8790367902e+00	-3.2562241616e-01
-1.4142135623e-01	-5.5154328932e+00	-2.6117591159e-01
 4.9497474683e-01	-6.1518289963e+00	-2.1109837025e-01
 1.1313708499e+00	-6.7882250994e+00	-1.7433041653e-01
 1.7677669530e+00	-7.4246212024e+00	-1.4981261253e-01
 2.4041630560e+00	-8.0610173055e+00	-1.3648545809e-01
 3.0405591591e+00	-8.6974134086e+00	-1.2686662187e-01
 3.6769552622e+00	-9.3338095117e+00	-9.8077930835e-02
 4.3133513652e+00	-9.9702056147e+00	-9.1353847711e-02
 4.9497474683e+00	-1.0606601718e+01	-1.1212203170e-01
-1.6970562748e+00	-4.5254833996e+00	-4.1217898840e-01
-1.0606601718e+00	-5.1618795026e+00	-3.3222613270e-01
-4.2426406870e-01	-5.7982756057e+00	-2.6714005855e-01
 2.1213203436e-01	-6.4346717088e+00	-2.1586144249e-01
 8.4852813743e-01	-7.0710678119e+00	-1.7733089876e-01
 1.4849242405e+00	-7.7074639149e+00	-1.5048897935e-01
 2.1213203436e+00	-8.3438600180e+00	-1.3427617396e-01
 2.7577164466e+00	-8.9802561211e+00	-1.2763291000e-01
 3.3941125497e+00	-9.6166522241e+00	-1.0529871708e-01
 4.0305086528e+00	-1.0253048327e+01	-9.3588779076e-02
 4.6669047558e+00	-1.0889444430e+01	-1.1178794582e-01
-1.9798989873e+00	-4.8083261121e+00	-4.1437381557e-01
-1.3435028842e+00	-5.4447222151e+00	-3.3458150324e-01
-7.0710678117e-01	-6.0811183182e+00	-2.6909447853e-01
-7.0710678108e-02	-6.7175144213e+00	-2.1685340785e-01
 5.6568542496e-01	-7.3539105243e+00	-1.7679889533e-01
 1.2020815280e+00	-7.9903066274e+00	-1.4787148282e-01
 1.8384776311e+00	-8.6267027305e+00	-1.2901164989e-01
 2.4748737342e+00	-9.2630988335e+00	-1.1915981381e-01
 3.1112698372e+00	-9.8994949366e+00	-1.0865253205e-01
 3.7476659403e+00	-1.0535891040e+01	-9.2152582327e-02
 4.3840620434e+00	-1.1172287143e+01	-1.0781362684e-01
-2.2627416998e+00	-5.0911688245e+00	-4.1213812493e-01
-1.6263455967e+00	-5.7275649276e+00	-3.3274497587e-01
-9.8994949364e-01	-6.3639610307e+00	-2.6709562163e-01
-3.5355339058e-01	-7.0003571337e+00	-2.1413071846e-01
 2.8284271248e-01	-7.6367532368e+00	-1.7279086036e-01
 9.1923881555e-01	-8.2731493399e+00	-1.4201657907e-01
 1.5556349186e+00	-8.9095454429e+00	-1.2074834400e-01
 2.1920310217e+00	-9.5459415460e+00	-1.0792656231e-01
 2.8284271247e+00	-1.0182337649e+01	-1.0249157885e-01
 3.4648232278e+00	-1.0818733752e+01	-8.6916721062e-02
 4.1012193309e+00	-1.1455129855e+01	-1.0029187580e-01
-2.5455844122e+00	-5.3740115370e+00	-4.0552836371e-01
-1.9091883092e+00	-6.0104076401e+00	-3.2677299986e-01
-1.2727922061e+00	-6.6468037431e+00	-2.6119993909e-01
-6.3639610305e-01	-7.2831998462e+00	-2.0774982755e-01
 9.9993208158e-12	-7.9195959493e+00	-1.6536324909e-01
 6.3639610307e-01	-8.5559920523e+00	-1.3298072532e-01
 1.2727922061e+00	-9.1923881554e+00	-1.0954271553e-01
 1.9091883092e+00	-9.8287842585e+00	-9.3989616737e-02
 2.5455844123e+00	-1.0465180362e+01	-8.4348772239e-02
 3.1819805153e+00	-1.1101576465e+01	-7.7879472561e-02
 3.8183766184e+00	-1.1737972568e+01	-8.9315493687e-02
-2.8284271247e+00	-5.6568542495e+00	-3.9460098030e-01
-2.1920310217e+00	-6.2932503526e+00	-3.1672202557e-01
-1.5556349186e+00	-6.9296464556e+00	-2.5146388330e-01
-9.1923881553e-01	-7.5660425587e+00	-1.9776718949e-01
-2.8284271246e-01	-8.2024386618e+00	-1.5457251788e-01
 3.5355339060e-01	-8.8388347648e+00	-1.2082037995e-01
 9.8994949367e-01	-9.4752308679e+00	-9.5451224842e-02
 1.6263455967e+00	-1.0111626971e+01	-7.7405439452e-02
 2.2627416998e+00	-1.0748023074e+01	-6.2987833094e-02
 2.8991378029e+00	-1.1384419177e+01	-6.3991139307e-02
 3.5355339059e+00	-1.2020815280e+01	-7.4977281533e-02
-3.1112698372e+00	-5.9396969620e+00	-3.9347076707e-01
-2.4748737341e+00	-6.5760930650e+00	-3.0264850449e-01
-1.8384776311e+00	-7.2124891681e+00	-2.3794390773e-01
-1.2020815280e+00	-7.8488852712e+00	-1.8423925977e-01
-5.6568542494e-01	-8.4852813742e+00	-1.4047512423e-01
 7.0710678124e-02	-9.1216774773e+00	-1.0559200244e-01
 7.0710678119e-01	-9.7580735804e+00	-7.8530333430e-02
 1.3435028843e+00	-1.0394469683e+01	-5.7452882152e-02
 1.9798989873e+00	-1.1030865786e+01	-3.9872984908e-02
 2.6162950904e+00	-1.1667261890e+01	-4.1027550269e-02
 3.2526911935e+00	-1.2303657993e+01	-5.7370040346e-02
-3.3941125497e+00	-6.2225396745e+00	-3.9796048373e-01
-2.7577164466e+00	-6.8589357775e+00	-2.8460888925e-01
-2.1213203435e+00	-7.4953318806e+00	-2.2069646701e-01
-1.4849242405e+00	-8.1317279836e+00	-1.6722249502e-01
-8.4852813742e-01	-8.7681240867e+00	-1.2312752676e-01
-2.1213203435e-01	-9.4045201898e+00	-8.7352053419e-02
 4.2426406871e-01	-1.0040916293e+01	-5.8836503910e-02
 1.0606601718e+00	-1.0677312396e+01	-3.1799891058e-02
 1.6970562748e+00	-1.1313708499e+01	-1.5082660811e-02
 2.3334523779e+00	-1.1950104602e+01	-1.6501380448e-02
 2.9698484810e+00	-1.2586500705e+01	-3.6586571142e-02
-3.6769552621e+00	-6.5053823869e+00	-3.9887474461e-01
-3.0405591591e+00	-7.1417784900e+00	-2.7123117293e-01
-2.4041630560e+00	-7.7781745931e+00	-1.9977801689e-01
-1.7677669530e+00	-8.4145706961e+00	-1.4677335298e-01
-1.1313708499e+00	-9.0509667992e+00	-1.0258618520e-01
-4.9497474683e-01	-9.6873629023e+00	-6.6156994628e-02
 1.4142135624e-01	-1.0323759005e+01	-3.6426200027e-02
 7.7781745930e-01	-1.0960155108e+01	-4.4369620564e-03
 1.4142135624e+00	-1.1596551211e+01	 1.1304706066e-02
 2.0506096654e+00	-1.2232947315e+01	 9.5089370275e-03
 2.6870057685e+00	-1.2869343418e+01	-1.0674956362e-02
-3.9597979746e+00	-6.7882250994e+00	-3.9615308488e-01
-3.3234018716e+00	-7.4246212025e+00	-2.7003478878e-01
-2.6870057685e+00	-8.0610173055e+00	-1.7524501423e-01
-2.0506096654e+00	-8.6974134086e+00	-1.2294829251e-01
-1.4142135624e+00	-9.3338095117e+00	-7.8907560436e-02
-7.7781745931e-01	-9.9702056147e+00	-4.2063288935e-02
-1.4142135624e-01	-1.0606601718e+01	-6.1839763943e-03
 4.9497474682e-01	-1.1242997821e+01	 2.4557471723e-02
 1.1313708499e+00	-1.1879393924e+01	 3.9210682594e-02
 1.7677669530e+00	-1.2515790027e+01	 3.6924969027e-02
 2.4041630560e+00	-1.3152186130e+01	 1.6849643831e-02
-4.2426406871e+00	-7.0710678119e+00	-3.8973503759e-01
-3.6062445840e+00	-7.7074639150e+00	-2.6535332634e-01
-2.9698484810e+00	-8.3438600180e+00	-1.4969765346e-01
-2.3334523779e+00	-8.9802561211e+00	-9.5803773622e-02
-1.6970562749e+00	-9.6166522241e+00	-5.2148114456e-02
-1.0606601718e+00	-1.0253048327e+01	-1.5127400337e-02
-4.2426406872e-01	-1.0889444430e+01	 2.6163394135e-02
 2.1213203434e-01	-1.1525840533e+01	 5.5104977151e-02
 8.4852813741e-01	-1.2162236636e+01	 6.8556835644e-02
 1.4849242405e+00	-1.2798632739e+01	 6.5668282420e-02
 2.1213203435e+00	-1.3435028843e+01	 4.5588630291e-02
 4.9497474683e+00	-1.0606601718e+01	-1.1212203170e-01
 5.5861435714e+00	-1.1242997821e+01	-8.0515227444e-02
 6.2225396744e+00	-1.1879393924e+01	-6.1661296621e-02
 6.8589357775e+00	-1.2515790027e+01	-5.2859161759e-02
 7.4953318806e+00	-1.3152186130e+01	-5.1407745380e-02
 8.1317279837e+00	-1.3788582233e+01	-5.4605970008e-02
 8.7681240867e+00	-1.4424978336e+01	-5.9752758165e-02
 9.4045201898e+00	-1.5061374439e+01	-6.2109171917e-02
 1.0040916293e+01	-1.5697770542e+01	-5.7082630373e-02
 1.0677312396e+01	-1.6334166645e+01	-4.4535904011e-02
 1.1313708499e+01	-1.6970562749e+01	-2.4383456470e-02
 4.6669047558e+00	-1.0889444430e+01	-1.1178794582e-01
 5.3033008589e+00	-1.1525840533e+01	-8.0804913755e-02
 5.9396969620e+00	-1.2162236636e+01	-6.2247372899e-02
 6.5760930650e+00	-1.2798632739e+01	-5.3414245775e-02
 7.2124891681e+00	-1.3435028843e+01	-5.1604454904e-02
 7.8488852712e+00	-1.4071424946e+01	-5.4116922811e-02
 8.4852813742e+00	-1.4707821049e+01	-5.8250572019e-02
 9.1216774773e+00	-1.5344217152e+01	-5.9846543914e-02
 9.7580735804e+00	-1.5980613255e+01	-5.3588069491e-02
 1.0394469683e+01	-1.6617009358e+01	-3.9706643777e-02
 1.1030865787e+01	-1.7253405461e+01	-1.7895320285e-02
 4.3840620434e+00	-1.1172287143e+01	-1.0781362684e-01
 5.0204581464e+00	-1.1808683246e+01	-7.7935302110e-02
 5.6568542495e+00	-1.2445079349e+01	-6.0155086354e-02
 6.2932503526e+00	-1.3081475452e+01	-5.1771902099e-02
 6.9296464556e+00	-1.3717871555e+01	-5.0084671870e-02
 7.5660425587e+00	-1.4354267658e+01	-5.2392318188e-02
 8.2024386618e+00	-1.4990663761e+01	-5.5993763578e-02
 8.8388347648e+00	-1.5627059864e+01	-5.8095774165e-02
 9.4752308679e+00	-1.6263455967e+01	-5.0914089194e-02
 1.0111626971e+01	-1.6899852070e+01	-3.6006687138e-02
 1.0748023074e+01	-1.7536248173e+01	-7.8075279816e-03
 4.1012193309e+00	-1.1455129855e+01	-1.0029187580e-01
 4.7376154340e+00	-1.2091525958e+01	-7.1999193523e-02
 5.3740115370e+00	-1.2727922061e+01	-5.5477237999e-02
 6.0104076401e+00	-1.3364318164e+01	-4.8024931747e-02
 6.6468037432e+00	-1.4000714267e+01	-4.6941197290e-02
 7.2831998462e+00	-1.4637110371e+01	-4.9524957153e-02
 7.9195959493e+00	-1.5273506474e+01	-5.3075133858e-02
 8.5559920524e+00	-1.5909902577e+01	-5.4890649928e-02
 9.1923881554e+00	-1.6546298680e+01	-4.9020378799e-02
 9.8287842585e+00	-1.7182694783e+01	-3.3395723851e-02
 1.0465180362e+01	-1.7819090886e+01	 5.1992388021e-04
 3.8183766184e+00	-1.1737972568e+01	-8.9315493687e-02
 4.4547727215e+00	-1.2374368671e+01	-6.3089389008e-02
 5.0911688246e+00	-1.3010764774e+01	-4.8306628848e-02
 5.7275649276e+00	-1.3647160877e+01	-4.2266135731e-02
 6.3639610307e+00	-1.4283556980e+01	-4.2266832181e-02
 7.0003571338e+00	-1.4919953083e+01	-4.5607640720e-02
 7.6367532368e+00	-1.5556349186e+01	-4.9587483872e-02
 8.2731493399e+00	-1.6192745289e+01	-5.1505284161e-02
 8.9095454430e+00	-1.6829141392e+01	-4.7866626828e-02
 9.5459415460e+00	-1.7465537495e+01	-2.7441676276e-02
 1.0182337649e+01	-1.8101933598e+01	 7.0860154425e-03
 3.5355339059e+00	-1.2020815280e+01	-7.4977281533e-02
 4.1719300090e+00	-1.2657211383e+01	-5.1298689580e-02
 4.8083261121e+00	-1.3293607486e+01	-3.8736059917e-02
 5.4447222151e+00	-1.3930003589e+01	-3.4588315067e-02
 6.0811183182e+00	-1.4566399692e+01	-3.6154377555e-02
 6.7175144213e+00	-1.5202795796e+01	-4.0733169903e-02
 7.3539105243e+00	-1.5839191899e+01	-4.5623614634e-02
 7.9903066274e+00	-1.6475588002e+01	-4.8124634273e-02
 8.6267027305e+00	-1.7111984105e+01	-4.5535151343e-02
 9.2630988335e+00	-1.7748380208e+01	-2.1766737290e-02
 9.8994949366e+00	-1.8384776311e+01	 1.1889727254e-02
 3.2526911935e+00	-1.2303657993e+01	-5.7370040346e-02
 3.8890872965e+00	-1.2940054096e+01	-3.6719896252e-02
 4.5254833996e+00	-1.3576450199e+01	-2.6858332218e-02
 5.1618795027e+00	-1.4212846302e+01	-2.5084270768e-02
 5.7982756057e+00	-1.4849242405e+01	-2.8696634426e-02
 6.4346717088e+00	-1.5485638508e+01	-3.4994345716e-02
 7.0710678119e+00	-1.6122034611e+01	-4.1276327160e-02
 7.7074639149e+00	-1.6758430714e+01	-4.4841501282e-02
 8.3438600180e+00	-1.7394826817e+01	-3.9971105127e-02
 8.9802561211e+00	-1.8031222920e+01	-1.7581776269e-02
 9.6166522241e+00	-1.8667619023e+01	 1.4930040269e-02
 2.9698484810e+00	-1.2586500705e+01	-3.6586571142e-02
 3.6062445841e+00	-1.3222896808e+01	-1.9445810038e-02
 4.2426406871e+00	-1.3859292911e+01	-1.2766246766e-02
 4.8790367902e+00	-1.4495689014e+01	-1.3846803849e-02
 5.5154328933e+00	-1.5132085117e+01	-1.9986403810e-02
 6.1518289963e+00	-1.5768481220e+01	-2.8483969173e-02
 6.7882250994e+00	-1.6404877324e+01	-3.6638422461e-02
 7.4246212025e+00	-1.7041273427e+01	-4.1748686199e-02
 8.0610173055e+00	-1.7677669530e+01	-3.2891206426e-02
 8.6974134086e+00	-1.8314065633e+01	-1.3715667437e-02
 9.3338095116e+00	-1.8950461736e+01	 1.6205935849e-02
 2.6870057685e+00	-1.2869343418e+01	-1.0674956362e-02
 3.3234018716e+00	-1.3505739521e+01	 4.3076804640e-04
 3.9597979746e+00	-1.4142135624e+01	 3.4473954248e-03
 4.5961940777e+00	-1.4778531727e+01	-9.6871532265e-04
 5.2325901808e+00	-1.5414927830e+01	-1.0116486719e-02
 5.8689862838e+00	-1.6051323933e+01	-2.1294841289e-02
 6.5053823869e+00	-1.6687720036e+01	-3.1802701554e-02
 7.1417784900e+00	-1.7324116139e+01	-3.7444305474e-02
 7.7781745930e+00	-1.7960512242e+01	-2.6994158796e-02
 8.4145706961e+00	-1.8596908345e+01	-9.8804478145e-03
 9.0509667992e+00	-1.9233304448e+01	 1.5716395759e-02
 2.4041630560e+00	-1.3152186130e+01	 1.6849643831e-02
 3.0405591591e+00	-1.3788582233e+01	 2.2817036988e-02
 3.6769552622e+00	-1.4424978336e+01	 2.1689793340e-02
 4.3133513652e+00	-1.5061374439e+01	 1.3457193796e-02
 4.9497474683e+00	-1.5697770542e+01	 8.2031583112e-04
 5.5861435714e+00	-1.6334166645e+01	-1.3519763077e-02
 6.2225396744e+00	-1.6970562748e+01	-2.6861965452e-02
 6.8589357775e+00	-1.7606958852e+01	-3.0195801529e-02
 7.4953318806e+00	-1.8243354955e+01	-2.2291344193e-02
 8.1317279836e+00	-1.8879751058e+01	-7.5333313468e-03
 8.7681240867e+00	-1.9516147161e+01	 1.3938294257e-02
 2.1213203435e+00	-1.3435028843e+01	 4.5588630291e-02
 2.7577164466e+00	-1.4071424946e+01	 4.6870301305e-02
 3.3941125497e+00	-1.4707821049e+01	 4.1868145967e-02
 4.0305086528e+00	-1.5344217152e+01	 2.9338122492e-02
 4.6669047558e+00	-1.5980613255e+01	 1.2731202827e-02
 5.3033008589e+00	-1.6617009358e+01	-5.2515355517e-03
 5.9396969620e+00	-1.7253405461e+01	-2.1740441492e-02
 6.5760930650e+00	-1.7889801564e+01	-2.3859042725e-02
 7.2124891681e+00	-1.8526197667e+01	-1.8794144159e-02
 7.8488852711e+00	-1.9162593770e+01	-6.6856995886e-03
 8.4852813742e+00	-1.9798989873e+01	 1.2326348295e-02
-4.2426406871e+00	-7.0710678119e+00	-2.5203346341e-01
-3.6062445840e+00	-7.7074639150e+00	-1.6795468214e-01
-2.9698484810e+00	-8.3438600180e+00	-8.7512665816e-02
-2.3334523779e+00	-8.9802561211e+00	-6.3743169131e-02
-1.6970562749e+00	-9.6166522241e+00	-4.5122619705e-02
-1.0606601718e+00	-1.0253048327e+01	-2.8047741915e-02
-4.2426406872e-01	-1.0889444430e+01	-1.6135103615e-03
 2.1213203434e-01	-1.1525840533e+01	 1.7560783149e-02
 8.4852813741e-01	-1.2162236636e+01	 2.6334625547e-02
 1.4849242405e+00	-1.2798632739e+01	 2.3857329640e-02
 2.1213203435e+00	-1.3435028843e+01	 9.2782082392e-03
-4.3840620433e+00	-7.2124891681e+00	-2.2699475497e-01
-3.7476659403e+00	-7.8488852712e+00	-1.5190785249e-01
-3.1112698372e+00	-8.4852813743e+00	-7.9207744046e-02
-2.4748737342e+00	-9.1216774773e+00	-4.9448500021e-02
-1.8384776311e+00	-9.7580735804e+00	-3.5950671970e-02
-1.2020815280e+00	-1.0394469683e+01	-2.1440381277e-02
-5.6568542496e-01	-1.1030865787e+01	 3.3372229326e-03
 7.0710678104e-02	-1.1667261890e+01	 1.9932202933e-02
 7.0710678117e-01	-1.2303657993e+01	 2.7493871534e-02
 1.3435028842e+00	-1.2940054096e+01	 2.5171541544e-02
 1.9798989873e+00	-1.3576450199e+01	 1.2114525772e-02
-4.5254833996e+00	-7.3539105244e+00	-1.9811746641e-01
-3.8890872965e+00	-7.9903066274e+00	-1.3248685928e-01
-3.2526911935e+00	-8.6267027305e+00	-6.7993076152e-02
-2.6162950904e+00	-9.2630988336e+00	-3.2688099933e-02
-1.9798989873e+00	-9.8994949366e+00	-2.4784242567e-02
-1.3435028843e+00	-1.0535891040e+01	-1.1294030842e-02
-7.0710678120e-01	-1.1172287143e+01	 9.0973071069e-03
-7.0710678136e-02	-1.1808683246e+01	 2.2673160559e-02
 5.6568542493e-01	-1.2445079349e+01	 2.8582842325e-02
 1.2020815280e+00	-1.3081475452e+01	 2.5975665212e-02
 1.8384776311e+00	-1.3717871555e+01	 1.4000942031e-02
-4.6669047558e+00	-7.4953318806e+00	-1.6539403877e-01
-4.0305086528e+00	-8.1317279837e+00	-1.0968414353e-01
-3.3941125497e+00	-8.7681240867e+00	-5.3861103151e-02
-2.7577164466e+00	-9.4045201898e+00	-1.3469026683e-02
-2.1213203436e+00	-1.0040916293e+01	-1.1630389562e-02
-1.4849242405e+00	-1.0677312396e+01	 9.1679371818e-05
-8.4852813744e-01	-1.1313708499e+01	 1.5656938020e-02
-2.1213203438e-01	-1.1950104602e+01	 2.5773851885e-02
 4.2426406869e-01	-1.2586500705e+01	 2.9591733777e-02
 1.0606601718e+00	-1.3222896808e+01	 2.6259896503e-02
 1.6970562748e+00	-1.3859292911e+01	 1.4927652874e-02
-4.8083261121e+00	-7.6367532368e+00	-1.2881691293e-01
-4.1719300090e+00	-8.2731493399e+00	-8.3492146135e-02
-3.5355339059e+00	-8.9095454430e+00	-3.6804265927e-02
-2.8991378029e+00	-9.5459415460e+00	 8.2016618426e-03
-2.2627416998e+00	-1.0182337649e+01	 3.5038289090e-03
-1.6263455967e+00	-1.0818733752e+01	 1.2706945222e-02
-9.8994949368e-01	-1.1455129855e+01	 2.3006311531e-02
-3.5355339062e-01	-1.2091525958e+01	 2.9224472771e-02
 2.8284271245e-01	-1.2727922061e+01	 3.0510741750e-02
 9.1923881552e-01	-1.3364318164e+01	 2.6014431276e-02
 1.5556349186e+00	-1.4000714268e+01	 1.4884854161e-02
-4.9497474683e+00	-7.7781745931e+00	-8.8378529665e-02
-4.3133513652e+00	-8.4145706961e+00	-5.3903307848e-02
-3.6769552622e+00	-9.0509667992e+00	-1.6815005229e-02
-3.0405591591e+00	-9.6873629023e+00	 2.3530830410e-02
-2.4041630561e+00	-1.0323759005e+01	 2.0611354639e-02
-1.7677669530e+00	-1.0960155108e+01	 2.6541962567e-02
-1.1313708499e+00	-1.1596551211e+01	 3.1135623499e-02
-4.9497474686e-01	-1.2232947315e+01	 3.3015219074e-02
 1.4142135621e-01	-1.2869343418e+01	 3.1330062102e-02
 7.7781745928e-01	-1.3505739521e+01	 2.5229465390e-02
 1.4142135624e+00	-1.4142135624e+01	 1.3862741749e-02
-5.0911688245e+00	-7.9195959493e+00	-4.4071329599e-02
-4.4547727215e+00	-8.5559920524e+00	-2.0910069292e-02
-3.8183766184e+00	-9.1923881554e+00	 6.1142383256e-03
-3.1819805154e+00	-9.8287842585e+00	 3.7646045342e-02
-2.5455844123e+00	-1.0465180362e+01	 4.2642546296e-02
-1.9091883092e+00	-1.1101576465e+01	 4.1586927265e-02
-1.2727922062e+00	-1.1737972568e+01	 4.0035069782e-02
-6.3639610310e-01	-1.2374368671e+01	 3.7136286654e-02
-2.8000601837e-11	-1.3010764774e+01	 3.2039890692e-02
 6.3639610304e-01	-1.3647160877e+01	 2.3895194704e-02
 1.2727922061e+00	-1.4283556980e+01	 1.1851511499e-02
-5.2325901808e+00	-8.0610173055e+00	 4.1122467697e-03
-4.5961940777e+00	-8.6974134086e+00	 1.5495129043e-02
-3.9597979747e+00	-9.3338095117e+00	 3.1991024254e-02
-3.3234018716e+00	-9.9702056147e+00	 5.4244384362e-02
-2.6870057685e+00	-1.0606601718e+01	 6.6840125376e-02
-2.0506096655e+00	-1.1242997821e+01	 5.7832035177e-02
-1.4142135624e+00	-1.1879393924e+01	 4.9694846239e-02
-7.7781745934e-01	-1.2515790027e+01	 4.1577871370e-02
-1.4142135627e-01	-1.3152186130e+01	 3.2630423379e-02
 4.9497474680e-01	-1.3788582233e+01	 2.2001815075e-02
 1.1313708499e+00	-1.4424978336e+01	 8.8413592677e-03
-5.3740115370e+00	-8.2024386618e+00	 5.6179759079e-02
-4.7376154340e+00	-8.8388347648e+00	 5.5319846800e-02
-4.1012193309e+00	-9.4752308679e+00	 6.0822912208e-02
-3.4648232278e+00	-1.0111626971e+01	 7.3333407128e-02
-2.8284271248e+00	-1.0748023074e+01	 9.2667856565e-02
-2.1920310217e+00	-1.1384419177e+01	 7.5267482160e-02
-1.5556349186e+00	-1.2020815280e+01	 6.0105148729e-02
-9.1923881558e-01	-1.2657211383e+01	 4.6330169080e-02
-2.8284271251e-01	-1.3293607486e+01	 3.3091856022e-02
 3.5355339056e-01	-1.3930003589e+01	 1.9539522364e-02
 9.8994949363e-01	-1.4566399692e+01	 4.8224809152e-03
-5.5154328933e+00	-8.3438600180e+00	 1.1213876710e-01
-4.8790367902e+00	-8.9802561211e+00	 9.8571643758e-02
-4.2426406871e+00	-9.6166522241e+00	 9.2617461969e-02
-3.6062445841e+00	-1.0253048327e+01	 9.4920673430e-02
-2.9698484810e+00	-1.0889444430e+01	 1.1760860475e-01
-2.3334523779e+00	-1.1525840533e+01	 9.3883464074e-02
-1.6970562749e+00	-1.2162236636e+01	 7.1256173110e-02
-1.0606601718e+00	-1.2798632739e+01	 5.1383375642e-02
-4.2426406875e-01	-1.3435028843e+01	 3.3414384479e-02
 2.1213203432e-01	-1.4071424946e+01	 1.6498512428e-02
 8.4852813739e-01	-1.4707821049e+01	-2.1492770004e-04
-5.6568542495e+00	-8.4852813742e+00	 1.7199683073e-01
-5.0204581464e+00	-9.1216774773e+00	 1.4525807982e-01
-4.3840620434e+00	-9.7580735804e+00	 1.2738223346e-01
-3.7476659403e+00	-1.0394469683e+01	 1.2021119069e-01
-3.1112698373e+00	-1.1030865787e+01	 1.3447722904e-01
-2.4748737342e+00	-1.1667261890e+01	 1.1367017678e-01
-1.8384776311e+00	-1.2303657993e+01	 8.3138115242e-02
-1.2020815281e+00	-1.2940054096e+01	 5.6727686917e-02
-5.6568542499e-01	-1.3576450199e+01	 3.3588204609e-02
 7.0710678080e-02	-1.4212846302e+01	 1.2868981127e-02
 7.0710678115e-01	-1.4849242405e+01	-6.2806707193e-03
 2.1213203435e+00	-1.3435028843e+01	 9.2782082392e-03
 2.7577164466e+00	-1.4071424946e+01	 1.8163634165e-02
 3.3941125497e+00	-1.4707821049e+01	 1.9882408692e-02
 4.0305086528e+00	-1.5344217152e+01	 1.3190490038e-02
 4.6669047558e+00	-1.5980613255e+01	 1.5388501479e-03
 5.3033008589e+00	-1.6617009358e+01	-1.2371433503e-02
 5.9396969620e+00	-1.7253405461e+01	-2.5670709760e-02
 6.5760930650e+00	-1.7889801564e+01	-2.5482506357e-02
 7.2124891681e+00	-1.8526197667e+01	-1.8993628200e-02
 7.8488852711e+00	-1.9162593770e+01	-6.3440290839e-03
 8.4852813742e+00	-1.9798989873e+01	 1.2326348299e-02
 1.9798989873e+00	-1.3576450199e+01	 1.2114525772e-02
 2.6162950904e+00	-1.4212846302e+01	 2.2030559330e-02
 3.2526911934e+00	-1.4849242405e+01	 2.5286768430e-02
 3.8890872965e+00	-1.5485638508e+01	 1.8801491208e-02
 4.5254833996e+00	-1.6122034611e+01	 7.0165662721e-03
 5.1618795027e+00	-1.6758430714e+01	-7.3669289017e-03
 5.7982756057e+00	-1.7394826817e+01	-1.9483504572e-02
 6.4346717088e+00	-1.8031222920e+01	-2.0399042839e-02
 7.0710678119e+00	-1.8667619023e+01	-1.5422528996e-02
 7.7074639149e+00	-1.9304015126e+01	-4.6939168064e-03
 8.3438600180e+00	-1.9940411229e+01	 1.1646851068e-02
 1.8384776311e+00	-1.3717871555e+01	 1.4000942031e-02
 2.4748737341e+00	-1.4354267658e+01	 2.5093136475e-02
 3.1112698372e+00	-1.4990663761e+01	 3.0330874599e-02
 3.7476659403e+00	-1.5627059864e+01	 2.4139326801e-02
 4.3840620433e+00	-1.6263455967e+01	 1.2308204811e-02
 5.0204581464e+00	-1.6899852070e+01	-2.4614138933e-03
 5.6568542495e+00	-1.7536248173e+01	-1.3435191140e-02
 6.2932503526e+00	-1.8172644276e+01	-1.5320616485e-02
 6.9296464556e+00	-1.8809040380e+01	-1.1722612541e-02
 7.5660425587e+00	-1.9445436483e+01	-2.7811330423e-03
 8.2024386618e+00	-2.0081832586e+01	 1.1363879382e-02
 1.6970562748e+00	-1.3859292911e+01	 1.4927652874e-02
 2.3334523779e+00	-1.4495689014e+01	 2.7341561459e-02
 2.9698484810e+00	-1.5132085117e+01	 3.5003127072e-02
 3.6062445840e+00	-1.5768481220e+01	 2.9192396690e-02
 4.2426406871e+00	-1.6404877324e+01	 1.7402165639e-02
 4.8790367902e+00	-1.7041273427e+01	 2.3335113957e-03
 5.5154328933e+00	-1.7677669530e+01	-7.5271920362e-03
 6.1518289963e+00	-1.8314065633e+01	-1.0248649869e-02
 6.7882250994e+00	-1.8950461736e+01	-7.8953014129e-03
 7.4246212025e+00	-1.9586857839e+01	-6.0710037007e-04
 8.0610173055e+00	-2.0223253942e+01	 1.1476010660e-02
 1.5556349186e+00	-1.4000714268e+01	 1.4884854161e-02
 2.1920310217e+00	-1.4637110371e+01	 2.8766030141e-02
 2.8284271247e+00	-1.5273506474e+01	 3.7876590395e-02
 3.4648232278e+00	-1.5909902577e+01	 3.3949100749e-02
 4.1012193309e+00	-1.6546298680e+01	 2.2286848629e-02
 4.7376154339e+00	-1.7182694783e+01	 7.0062468386e-03
 5.3740115370e+00	-1.7819090886e+01	-1.7609298100e-03
 6.0104076401e+00	-1.8455486989e+01	-5.1845655412e-03
 6.6468037432e+00	-1.9091883092e+01	-3.9420181620e-03
 7.2831998462e+00	-1.9728279195e+01	 1.8267586572e-03
 7.9195959493e+00	-2.0364675298e+01	 1.1981822347e-02
 1.4142135624e+00	-1.4142135624e+01	 1.3862741749e-02
 2.0506096654e+00	-1.4778531727e+01	 2.9356738379e-02
 2.6870057685e+00	-1.5414927830e+01	 3.9728069902e-02
 3.3234018716e+00	-1.6051323933e+01	 3.8397838850e-02
 3.9597979746e+00	-1.6687720036e+01	 2.6950653653e-02
 4.5961940777e+00	-1.7324116139e+01	 1.2251656555e-02
 5.2325901808e+00	-1.7960512242e+01	 3.8621730160e-03
 5.8689862839e+00	-1.8596908345e+01	-1.2978602633e-04
 6.5053823869e+00	-1.9233304448e+01	 1.3581468559e-04
 7.1417784900e+00	-1.9869700551e+01	 4.5190215122e-03
 7.7781745931e+00	-2.0506096654e+01	 1.2879891915e-02
 1.2727922061e+00	-1.4283556980e+01	 1.1851511499e-02
 1.9091883092e+00	-1.4919953083e+01	 2.9103882033e-02
 2.5455844123e+00	-1.5556349186e+01	 4.0881538079e-02
 3.1819805153e+00	-1.6192745289e+01	 4.2527010867e-02
 3.8183766184e+00	-1.6829141392e+01	 3.1381980586e-02
 4.4547727215e+00	-1.7465537495e+01	 1.7756022644e-02
 5.0911688245e+00	-1.8101933598e+01	 9.3406939450e-03
 5.7275649276e+00	-1.8738329701e+01	 4.9142661774e-03
 6.3639610307e+00	-1.9374725805e+01	 4.3367746298e-03
 7.0003571338e+00	-2.0011121908e+01	 7.4682656934e-03
 7.6367532368e+00	-2.0647518011e+01	 1.4168796861e-02
 1.1313708499e+00	-1.4424978336e+01	 8.8413592677e-03
 1.7677669529e+00	-1.5061374439e+01	 2.7997656960e-02
 2.4041630560e+00	-1.5697770542e+01	 4.1327190784e-02
 3.0405591591e+00	-1.6334166645e+01	 4.6325016673e-02
 3.6769552622e+00	-1.6970562749e+01	 3.5569229299e-02
 4.3133513652e+00	-1.7606958852e+01	 2.2980529602e-02
 4.9497474683e+00	-1.8243354955e+01	 1.4673210506e-02
 5.5861435714e+00	-1.8879751058e+01	 9.9461685973e-03
 6.2225396745e+00	-1.9516147161e+01	 8.6594391963e-03
 6.8589357775e+00	-2.0152543264e+01	 1.0673068725e-02
 7.4953318806e+00	-2.0788939367e+01	 1.5847114707e-02
 9.8994949363e-01	-1.4566399692e+01	 4.8224809152e-03
 1.6263455967e+00	-1.5202795796e+01	 2.6028259020e-02
 2.2627416998e+00	-1.5839191899e+01	 4.1055223877e-02
 2.8991378028e+00	-1.6475588002e+01	 4.9052688296e-02
 3.5355339059e+00	-1.7111984105e+01	 3.9500799668e-02
 4.1719300090e+00	-1.7748380208e+01	 2.7923754985e-02
 4.8083261121e+00	-1.8384776311e+01	 1.9858300253e-02
 5.4447222151e+00	-1.9021172414e+01	 1.4964498786e-02
 6.0811183182e+00	-1.9657568517e+01	 1.3102385937e-02
 6.7175144213e+00	-2.0293964620e+01	 1.4132008157e-02
 7.3539105244e+00	-2.0930360723e+01	 1.7913423002e-02
 8.4852813739e-01	-1.4707821049e+01	-2.1492770004e-04
 1.4849242405e+00	-1.5344217152e+01	 2.3185884071e-02
 2.1213203435e+00	-1.5980613255e+01	 4.0055833214e-02
 2.7577164466e+00	-1.6617009358e+01	 4.9544232540e-02
 3.3941125497e+00	-1.7253405461e+01	 4.3177016873e-02
 4.0305086528e+00	-1.7889801564e+01	 3.2584276375e-02
 4.6669047558e+00	-1.8526197667e+01	 2.4894540766e-02
 5.3033008589e+00	-1.9162593770e+01	 1.9967834323e-02
 5.9396969620e+00	-1.9798989873e+01	 1.7664192428e-02
 6.5760930651e+00	-2.0435385976e+01	 1.7843661565e-02
 7.2124891681e+00	-2.1071782079e+01	 2.0366299319e-02
 7.0710678115e-01	-1.4849242405e+01	-6.2806707193e-03
 1.3435028842e+00	-1.5485638508e+01	 1.9460727972e-02
 1.9798989873e+00	-1.6122034611e+01	 3.8319214657e-02
 2.6162950904e+00	-1.6758430714e+01	 4.9444102143e-02
 3.2526911934e+00	-1.7394826817e+01	 4.6635213687e-02
 3.8890872965e+00	-1.8031222920e+01	 3.6960671380e-02
 4.5254833996e+00	-1.8667619023e+01	 2.9780509652e-02
 5.1618795027e+00	-1.9304015126e+01	 2.4954752812e-02
 5.7982756057e+00	-1.9940411229e+01	 2.2343436273e-02
 6.4346717088e+00	-2.0576807333e+01	 2.1806606550e-02
 7.0710678119e+00	-2.1213203436e+01	 2.3204321259e-02
-5.6568542495e+00	-8.4852813742e+00	 6.6435022125e-02
-5.0204581464e+00	-9.1216774773e+00	 6.2282660844e-02
-4.3840620434e+00	-9.7580735804e+00	 6.4413628749e-02
-3.7476659403e+00	-1.0394469683e+01	 7.4669824902e-02
-3.1112698373e+00	-1.1030865787e+01	 1.0378352682e-01
-2.4748737342e+00	-1.1667261890e+01	 9.5244562767e-02
-1.8384776311e+00	-1.2303657993e+01	 7.4401014092e-02
-1.2020815281e+00	-1.2940054096e+01	 5.5099523273e-02
-5.6568542499e-01	-1.3576450199e+01	 3.6489403117e-02
 7.0710678080e-02	-1.4212846302e+01	 1.7719966435e-02
 7.0710678115e-01	-1.4849242405e+01	-2.0594739657e-03
-5.7982756057e+00	-8.6267027304e+00	 7.6360667692e-02
-5.1618795027e+00	-9.2630988335e+00	 7.2015191808e-02
-4.5254833996e+00	-9.8994949366e+00	 7.3600981898e-02
-3.8890872965e+00	-1.0535891040e+01	 8.6106718630e-02
-3.2526911935e+00	-1.1172287143e+01	 1.1270472196e-01
-2.6162950904e+00	-1.1808683246e+01	 1.1354756253e-01
-1.9798989873e+00	-1.2445079349e+01	 8.9792233125e-02
-1.3435028843e+00	-1.3081475452e+01	 6.7344075969e-02
-7.0710678122e-01	-1.3717871555e+01	 4.5352403873e-02
-7.0710678148e-02	-1.4354267658e+01	 2.2966529647e-02
 5.6568542492e-01	-1.4990663761e+01	-6.6423390081e-04
-5.9396969620e+00	-8.7681240867e+00	 8.1376733761e-02
-5.3033008589e+00	-9.4045201898e+00	 7.7391986610e-02
-4.6669047558e+00	-1.0040916293e+01	 7.8986441340e-02
-4.0305086528e+00	-1.0677312396e+01	 9.3957278091e-02
-3.3941125497e+00	-1.1313708499e+01	 1.1861744113e-01
-2.7577164466e+00	-1.1950104602e+01	 1.2926922862e-01
-2.1213203436e+00	-1.2586500705e+01	 1.0318056526e-01
-1.4849242405e+00	-1.3222896808e+01	 7.8164188558e-02
-8.4852813744e-01	-1.3859292911e+01	 5.3369411310e-02
-2.1213203438e-01	-1.4495689014e+01	 2.7945546327e-02
 4.2426406869e-01	-1.5132085117e+01	 1.0419064201e-03
-6.0811183182e+00	-8.9095454429e+00	 8.1490780637e-02
-5.4447222152e+00	-9.5459415460e+00	 7.8420605560e-02
-4.8083261121e+00	-1.0182337649e+01	 8.0577567391e-02
-4.1719300090e+00	-1.0818733752e+01	 9.8231704713e-02
-3.5355339059e+00	-1.1455129855e+01	 1.2153188575e-01
-2.8991378029e+00	-1.2091525958e+01	 1.4239975688e-01
-2.2627416998e+00	-1.2727922061e+01	 1.1455620637e-01
-1.6263455967e+00	-1.3364318164e+01	 8.7550056899e-02
-9.8994949367e-01	-1.4000714268e+01	 6.0530621285e-02
-3.5355339061e-01	-1.4637110371e+01	 3.2647212335e-02
 2.8284271246e-01	-1.5273506474e+01	 3.0491428558e-03
-6.2225396745e+00	-9.0509667992e+00	 7.6710368757e-02
-5.5861435714e+00	-9.6873629022e+00	 7.5108609102e-02
-4.9497474683e+00	-1.0323759005e+01	 7.8381920503e-02
-4.3133513652e+00	-1.0960155108e+01	 9.8940199927e-02
-3.6769552622e+00	-1.1596551211e+01	 1.2145825727e-01
-3.0405591591e+00	-1.2232947315e+01	 1.4466840181e-01
-2.4041630560e+00	-1.2869343418e+01	 1.2390935229e-01
-1.7677669530e+00	-1.3505739521e+01	 9.5491876849e-02
-1.1313708499e+00	-1.4142135624e+01	 6.6826229659e-02
-4.9497474684e-01	-1.4778531727e+01	 3.7061723528e-02
 1.4142135623e-01	-1.5414927830e+01	 5.3476712650e-03
-6.3639610307e+00	-9.1923881554e+00	 6.7043058692e-02
-5.7275649276e+00	-9.8287842585e+00	 6.7463557815e-02
-5.0911688246e+00	-1.0465180362e+01	 7.4916273606e-02
-4.4547727215e+00	-1.1101576465e+01	 9.6092965160e-02
-3.8183766184e+00	-1.1737972568e+01	 1.1840675709e-01
-3.1819805153e+00	-1.2374368671e+01	 1.4104271303e-01
-2.5455844123e+00	-1.3010764774e+01	 1.3123019889e-01
-1.9091883092e+00	-1.3647160877e+01	 1.0197984427e-01
-1.2727922061e+00	-1.4283556980e+01	 7.2246432290e-02
-6.3639610307e-01	-1.4919953083e+01	 4.1179275766e-02
-5.5511151231e-17	-1.5556349186e+01	 7.9276875065e-03
-6.5053823869e+00	-9.3338095116e+00	 5.2496411147e-02
-5.8689862839e+00	-9.9702056147e+00	 5.5493012410e-02
-5.2325901808e+00	-1.0606601718e+01	 6.7779994192e-02
-4.5961940777e+00	-1.1242997821e+01	 8.9700201841e-02
-3.9597979746e+00	-1.1879393924e+01	 1.1238758667e-01
-3.3234018716e+00	-1.2515790027e+01	 1.3502721230e-01
-2.6870057685e+00	-1.3152186130e+01	 1.3650894204e-01
-2.0506096654e+00	-1.3788582233e+01	 1.0700415502e-01
-1.4142135624e+00	-1.4424978336e+01	 7.6781425036e-02
-7.7781745930e-01	-1.5061374439e+01	 4.4990064907e-02
-1.4142135623e-01	-1.5697770542e+01	 1.0779387439e-02
-6.6468037432e+00	-9.4752308679e+00	 3.3077986961e-02
-6.0104076401e+00	-1.0111626971e+01	 3.9204533732e-02
-5.3740115370e+00	-1.0748023074e+01	 5.6530529359e-02
-4.7376154340e+00	-1.1384419177e+01	 7.9772111400e-02
-4.1012193309e+00	-1.2020815280e+01	 1.0341094742e-01
-3.4648232278e+00	-1.2657211383e+01	 1.2663210104e-01
-2.8284271247e+00	-1.3293607486e+01	 1.3973577758e-01
-2.1920310217e+00	-1.3930003589e+01	 1.1055500495e-01
-1.5556349186e+00	-1.4566399692e+01	 8.0421403756e-02
-9.1923881553e-01	-1.5202795796e+01	 4.8484286810e-02
-2.8284271246e-01	-1.5839191899e+01	 1.3892966921e-02
-6.7882250994e+00	-9.6166522241e+00	 8.7953471042e-03
-6.1518289963e+00	-1.0253048327e+01	 1.8605682759e-02
-5.5154328933e+00	-1.0889444430e+01	 4.1178080535e-02
-4.8790367902e+00	-1.1525840533e+01	 6.6318895265e-02
-4.2426406871e+00	-1.2162236636e+01	 9.1487040771e-02
-3.6062445840e+00	-1.2798632739e+01	 1.1586758068e-01
-2.9698484810e+00	-1.3435028843e+01	 1.3864557860e-01
-2.3334523779e+00	-1.4071424946e+01	 1.1262258993e-01
-1.6970562748e+00	-1.4707821049e+01	 8.3156564309e-02
-1.0606601718e+00	-1.5344217152e+01	 5.1652137334e-02
-4.2426406869e-01	-1.5980613255e+01	 1.7258621812e-02
-6.9296464557e+00	-9.7580735804e+00	-2.0343947317e-02
-6.2932503526e+00	-1.0394469683e+01	-5.4127126170e-03
-5.6568542495e+00	-1.1030865787e+01	 2.1732849149e-02
-5.0204581464e+00	-1.1667261890e+01	 4.9350754865e-02
-4.3840620434e+00	-1.2303657993e+01	 7.6626068155e-02
-3.7476659403e+00	-1.2940054096e+01	 1.0274385264e-01
-3.1112698372e+00	-1.3576450199e+01	 1.2688917195e-01
-2.4748737341e+00	-1.4212846302e+01	 1.1319710581e-01
-1.8384776311e+00	-1.4849242405e+01	 8.4977102555e-02
-1.2020815280e+00	-1.5485638508e+01	 5.4483812337e-02
-5.6568542492e-01	-1.6122034611e+01	 2.0866547971e-02
-7.0710678119e+00	-9.8994949366e+00	-5.4332335065e-02
-6.4346717088e+00	-1.0535891040e+01	-3.2365397620e-02
-5.7982756057e+00	-1.1172287143e+01	-1.7949633695e-03
-5.1618795027e+00	-1.1808683246e+01	 2.8877891630e-02
-4.5254833996e+00	-1.2445079349e+01	 5.8838231001e-02
-3.8890872965e+00	-1.3081475452e+01	 8.7271118368e-02
-3.2526911934e+00	-1.3717871555e+01	 1.1336161735e-01
-2.6162950904e+00	-1.4354267658e+01	 1.1226874846e-01
-1.9798989873e+00	-1.4990663761e+01	 8.5873214350e-02
-1.3435028842e+00	-1.5627059864e+01	 5.6969507679e-02
-7.0710678115e-01	-1.6263455967e+01	 2.4706941255e-02
 7.0710678115e-01	-1.4849242405e+01	-2.0594739657e-03
 1.3435028842e+00	-1.5485638508e+01	 2.1912094151e-02
 1.9798989873e+00	-1.6122034611e+01	 3.9300241571e-02
 2.6162950904e+00	-1.6758430714e+01	 4.9254281105e-02
 3.2526911934e+00	-1.7394826817e+01	 4.5574036007e-02
 3.8890872965e+00	-1.8031222920e+01	 3.5327628370e-02
 4.5254833996e+00	-1.8667619023e+01	 2.7875092622e-02
 5.1618795027e+00	-1.9304015126e+01	 2.3076453073e-02
 5.7982756057e+00	-1.9940411229e+01	 2.0791745136e-02
 6.4346717088e+00	-2.0576807333e+01	 2.0881015326e-02
 7.0710678119e+00	-2.1213203436e+01	 2.3204321259e-02
 5.6568542492e-01	-1.4990663761e+01	-6.6423390081e-04
 1.2020815280e+00	-1.5627059864e+01	 2.2879467172e-02
 1.8384776311e+00	-1.6263455967e+01	 3.9928207778e-02
 2.4748737341e+00	-1.6899852070e+01	 4.9631300727e-02
 3.1112698372e+00	-1.7536248173e+01	 4.8098979547e-02
 3.7476659403e+00	-1.8172644277e+01	 3.7752656255e-02
 4.3840620434e+00	-1.8809040380e+01	 3.0232089976e-02
 5.0204581464e+00	-1.9445436483e+01	 2.5397305049e-02
 5.6568542495e+00	-2.0081832586e+01	 2.3108336919e-02
 6.2932503526e+00	-2.0718228689e+01	 2.3225232131e-02
 6.9296464557e+00	-2.1354624792e+01	 2.5608048334e-02
 4.2426406869e-01	-1.5132085117e+01	 1.0419064201e-03
 1.0606601718e+00	-1.5768481220e+01	 2.4086175884e-02
 1.6970562748e+00	-1.6404877324e+01	 4.0723945111e-02
 2.3334523779e+00	-1.7041273427e+01	 5.0104526911e-02
 2.9698484810e+00	-1.7677669530e+01	 5.0693468726e-02
 3.6062445840e+00	-1.8314065633e+01	 4.0163966894e-02
 4.2426406871e+00	-1.8950461736e+01	 3.2492107019e-02
 4.8790367902e+00	-1.9586857839e+01	 2.7537913472e-02
 5.5154328933e+00	-2.0223253942e+01	 2.5161421728e-02
 6.1518289963e+00	-2.0859650045e+01	 2.5222678365e-02
 6.7882250994e+00	-2.1496046148e+01	 2.7581741060e-02
 2.8284271246e-01	-1.5273506474e+01	 3.0491428558e-03
 9.1923881553e-01	-1.5909902577e+01	 2.5522416146e-02
 1.5556349186e+00	-1.6546298680e+01	 4.1677649429e-02
 2.1920310217e+00	-1.7182694783e+01	 5.0664155516e-02
 2.8284271247e+00	-1.7819090886e+01	 5.1174988943e-02
 3.4648232278e+00	-1.8455486989e+01	 4.2560137971e-02
 4.1012193309e+00	-1.9091883092e+01	 3.4653721435e-02
 4.7376154340e+00	-1.9728279195e+01	 2.9496856024e-02
 5.3740115370e+00	-2.0364675298e+01	 2.6949577244e-02
 6.0104076401e+00	-2.1001071401e+01	 2.6871931705e-02
 6.6468037432e+00	-2.1637467504e+01	 2.9123977114e-02
 1.4142135623e-01	-1.5414927830e+01	 5.3476712650e-03
 7.7781745930e-01	-1.6051323933e+01	 2.7178383817e-02
 1.4142135624e+00	-1.6687720036e+01	 4.2779516592e-02
 2.0506096654e+00	-1.7324116139e+01	 5.0654351626e-02
 2.6870057685e+00	-1.7960512242e+01	 5.1018289775e-02
 3.3234018716e+00	-1.8596908345e+01	 4.4939747197e-02
 3.9597979746e+00	-1.9233304448e+01	 3.6715510932e-02
 4.5961940777e+00	-1.9869700551e+01	 3.1272710412e-02
 5.2325901808e+00	-2.0506096654e+01	 2.8471381173e-02
 5.8689862839e+00	-2.1142492757e+01	 2.8171569856e-02
 6.5053823869e+00	-2.1778888861e+01	 3.0233334199e-02
-5.5511151231e-17	-1.5556349186e+01	 7.9276875065e-03
 6.3639610307e-01	-1.6192745289e+01	 2.9044274755e-02
 1.2727922061e+00	-1.6829141392e+01	 4.4019742457e-02
 1.9091883092e+00	-1.7465537495e+01	 5.0199643193e-02
 2.5455844123e+00	-1.8101933598e+01	 5.0776526008e-02
 3.1819805153e+00	-1.8738329701e+01	 4.7301372308e-02
 3.8183766184e+00	-1.9374725805e+01	 3.8676053245e-02
 4.4547727215e+00	-2.0011121908e+01	 3.2864054368e-02
 5.0911688246e+00	-2.0647518011e+01	 2.9725411245e-02
 5.7275649276e+00	-2.1283914114e+01	 2.9120170547e-02
 6.3639610307e+00	-2.1920310217e+01	 3.0908390044e-02
-1.4142135623e-01	-1.5697770542e+01	 1.0779387439e-02
 4.9497474684e-01	-1.6334166645e+01	 3.1110284819e-02
 1.1313708499e+00	-1.6970562748e+01	 4.5388522884e-02
 1.7677669530e+00	-1.7606958852e+01	 4.9759488478e-02
 2.4041630560e+00	-1.8243354955e+01	 5.0459299329e-02
 3.0405591591e+00	-1.8879751058e+01	 4.9643591064e-02
 3.6769552622e+00	-1.9516147161e+01	 4.0533926134e-02
 4.3133513652e+00	-2.0152543264e+01	 3.4269465652e-02
 4.9497474683e+00	-2.0788939367e+01	 3.0710245219e-02
 5.5861435714e+00	-2.1425335470e+01	 2.9716311534e-02
 6.2225396745e+00	-2.2061731573e+01	 3.1147722401e-02
-2.8284271246e-01	-1.5839191899e+01	 1.3892966921e-02
 3.5355339061e-01	-1.6475588002e+01	 3.3366609869e-02
 9.8994949367e-01	-1.7111984105e+01	 4.6876053731e-02
 1.6263455967e+00	-1.7748380208e+01	 4.9343489106e-02
 2.2627416998e+00	-1.8384776311e+01	 5.0076211272e-02
 2.8991378029e+00	-1.9021172414e+01	 5.1149587371e-02
 3.5355339059e+00	-1.9657568517e+01	 4.2287707385e-02
 4.1719300090e+00	-2.0293964620e+01	 3.5487522048e-02
 4.8083261121e+00	-2.0930360723e+01	 3.1424460875e-02
 5.4447222152e+00	-2.1566756826e+01	 2.9958570599e-02
 6.0811183182e+00	-2.2203152929e+01	 3.0949909052e-02
-4.2426406869e-01	-1.5980613255e+01	 1.7258621812e-02
 2.1213203438e-01	-1.6617009358e+01	 3.5803445763e-02
 8.4852813744e-01	-1.7253405461e+01	 4.8313468086e-02
 1.4849242405e+00	-1.7889801564e+01	 4.8961246548e-02
 2.1213203436e+00	-1.8526197667e+01	 4.9636863221e-02
 2.7577164466e+00	-1.9162593770e+01	 5.0610608393e-02
 3.3941125497e+00	-1.9798989873e+01	 4.3935974809e-02
 4.0305086528e+00	-2.0435385976e+01	 3.6516801366e-02
 4.6669047558e+00	-2.1071782079e+01	 3.1866636024e-02
 5.3033008589e+00	-2.1708178182e+01	 2.9845525548e-02
 5.9396969620e+00	-2.2344574286e+01	 3.0313527800e-02
-5.6568542492e-01	-1.6122034611e+01	 2.0866547971e-02
 7.0710678148e-02	-1.6758430714e+01	 3.8410988359e-02
 7.0710678122e-01	-1.7394826817e+01	 4.8079179580e-02
 1.3435028843e+00	-1.8031222920e+01	 4.8622362126e-02
 1.9798989873e+00	-1.8667619023e+01	 4.9150856408e-02
 2.6162950904e+00	-1.9304015126e+01	 4.9934954512e-02
 3.2526911935e+00	-1.9940411229e+01	 4.5477306244e-02
 3.8890872965e+00	-2.0576807333e+01	 3.7355881441e-02
 4.5254833996e+00	-2.1213203436e+01	 3.2035348500e-02
 5.1618795027e+00	-2.1849599539e+01	 2.9375754213e-02
 5.7982756057e+00	-2.2485995642e+01	 2.9237156478e-02
-7.0710678115e-01	-1.6263455967e+01	 2.4706941255e-02
-7.0710678080e-02	-1.6899852070e+01	 4.1179433516e-02
 5.6568542499e-01	-1.7536248173e+01	 4.7987868120e-02
 1.2020815281e+00	-1.8172644276e+01	 4.8336437008e-02
 1.8384776311e+00	-1.8809040380e+01	 4.8627791912e-02
 2.4748737342e+00	-1.9445436483e+01	 4.9132226719e-02
 3.1112698373e+00	-2.0081832586e+01	 4.6910279552e-02
 3.7476659403e+00	-2.0718228689e+01	 3.8003340135e-02
 4.3840620434e+00	-2.1354624792e+01	 3.1929176161e-02
 5.0204581464e+00	-2.1991020895e+01	 2.8547834454e-02
 5.6568542495e+00	-2.2627416998e+01	 2.7719372942e-02
-7.0710678119e+00	-9.8994949366e+00	-1.8468126762e-02
-6.4346717088e+00	-1.0535891040e+01	-1.1122952923e-02
-5.7982756057e+00	-1.1172287143e+01	 6.8057821514e-03
-5.1618795027e+00	-1.1808683246e+01	 2.6817002403e-02
-4.5254833996e+00	-1.2445079349e+01	 4.8095771455e-02
-3.8890872965e+00	-1.3081475452e+01	 6.9827152931e-02
-3.2526911934e+00	-1.3717871555e+01	 9.1196210456e-02
-2.6162950904e+00	-1.4354267658e+01	 8.7361964531e-02
-1.9798989873e+00	-1.4990663761e+01	 6.0205117818e-02
-1.3435028842e+00	-1.5627059864e+01	 3.2520162972e-02
-7.0710678115e-01	-1.6263455967e+01	 3.4564128037e-03
-7.3539105244e+00	-1.0182337649e+01	-2.8057499598e-02
-6.7175144213e+00	-1.0818733752e+01	-1.6162434324e-02
-6.0811183182e+00	-1.1455129855e+01	 1.1629110760e-03
-5.4447222151e+00	-1.2091525958e+01	 2.0742221555e-02
-4.8083261121e+00	-1.2727922061e+01	 4.1760560735e-02
-4.1719300090e+00	-1.3364318164e+01	 6.3402992242e-02
-3.5355339059e+00	-1.4000714268e+01	 8.4854579697e-02
-2.8991378028e+00	-1.4637110371e+01	 1.0231345209e-01
-2.2627416998e+00	-1.5273506474e+01	 7.6822132336e-02
-1.6263455967e+00	-1.5909902577e+01	 5.1244259544e-02
-9.8994949363e-01	-1.6546298680e+01	 2.4729146526e-02
-7.6367532368e+00	-1.0465180362e+01	-3.4398263378e-02
-7.0003571338e+00	-1.1101576465e+01	-2.1102670654e-02
-6.3639610307e+00	-1.1737972568e+01	-4.5666965738e-03
-5.7275649276e+00	-1.2374368671e+01	 1.4394722486e-02
-5.0911688245e+00	-1.3010764774e+01	 3.4966650149e-02
-4.4547727215e+00	-1.3647160877e+01	 5.6334150038e-02
-3.8183766184e+00	-1.4283556980e+01	 7.7682285778e-02
-3.1819805153e+00	-1.4919953083e+01	 9.8196120992e-02
-2.5455844122e+00	-1.5556349186e+01	 9.0760473167e-02
-1.9091883092e+00	-1.6192745289e+01	 6.7106054744e-02
-1.2727922061e+00	-1.6829141392e+01	 4.2955951193e-02
-7.9195959493e+00	-1.0748023074e+01	-3.8010810337e-02
-7.2831998462e+00	-1.1384419177e+01	-2.5862050480e-02
-6.6468037431e+00	-1.2020815280e+01	-1.0301429367e-02
-6.0104076401e+00	-1.2657211383e+01	 7.8561166273e-03
-5.3740115370e+00	-1.3293607486e+01	 2.7795651125e-02
-4.7376154339e+00	-1.3930003589e+01	 4.8702237751e-02
-4.1012193309e+00	-1.4566399692e+01	 6.9760940129e-02
-3.4648232278e+00	-1.5202795796e+01	 9.0156821881e-02
-2.8284271247e+00	-1.5839191899e+01	 1.0194170718e-01
-2.1920310217e+00	-1.6475588002e+01	 8.0027115443e-02
-1.5556349186e+00	-1.7111984105e+01	 5.8058393675e-02
-8.2024386618e+00	-1.1030865787e+01	-4.1174907715e-02
-7.5660425587e+00	-1.1667261890e+01	-3.0358962373e-02
-6.9296464556e+00	-1.2303657993e+01	-1.5959675872e-02
-6.2932503525e+00	-1.2940054096e+01	 1.2080154100e-03
-5.6568542495e+00	-1.3576450199e+01	 2.0329175097e-02
-5.0204581464e+00	-1.4212846302e+01	 4.0588866813e-02
-4.3840620433e+00	-1.4849242405e+01	 6.1172154181e-02
-3.7476659403e+00	-1.5485638508e+01	 8.1264100825e-02
-3.1112698372e+00	-1.6122034611e+01	 1.0004977037e-01
-2.4748737341e+00	-1.6758430714e+01	 8.9929008511e-02
-1.8384776311e+00	-1.7394826817e+01	 6.7516704866e-02
-8.4852813742e+00	-1.1313708499e+01	-4.3808944081e-02
-7.8488852712e+00	-1.1950104602e+01	-3.4511794899e-02
-7.2124891681e+00	-1.2586500705e+01	-2.1459824658e-02
-6.5760930650e+00	-1.3222896808e+01	-5.4679697349e-03
-5.9396969620e+00	-1.3859292911e+01	 1.2648833495e-02
-5.3033008589e+00	-1.4495689014e+01	 3.2075648654e-02
-4.6669047558e+00	-1.5132085117e+01	 5.1997539366e-02
-4.0305086527e+00	-1.5768481220e+01	 7.1599569255e-02
-3.3941125497e+00	-1.6404877324e+01	 9.0066801945e-02
-2.7577164466e+00	-1.7041273427e+01	 9.6733300818e-02
-2.1213203435e+00	-1.7677669530e+01	 7.2455905220e-02
-8.7681240867e+00	-1.1596551211e+01	-4.5831308004e-02
-8.1317279836e+00	-1.2232947315e+01	-3.8238936629e-02
-7.4953318806e+00	-1.2869343418e+01	-2.6720264294e-02
-6.8589357775e+00	-1.3505739521e+01	-1.2090227376e-02
-6.2225396744e+00	-1.4142135624e+01	 4.8362377492e-03
-5.5861435714e+00	-1.4778531727e+01	 2.3244194705e-02
-4.9497474683e+00	-1.5414927830e+01	 4.2318707115e-02
-4.3133513652e+00	-1.6051323933e+01	 6.1244838603e-02
-3.6769552622e+00	-1.6687720036e+01	 7.9207652792e-02
-3.0405591591e+00	-1.7324116139e+01	 9.4304063346e-02
-2.4041630560e+00	-1.7960512242e+01	 7.5251439907e-02
-9.0509667992e+00	-1.1879393924e+01	-2.7413919773e-02
-8.4145706961e+00	-1.2515790027e+01	-4.1458776131e-02
-7.7781745930e+00	-1.3152186130e+01	-3.1659383349e-02
-7.1417784900e+00	-1.3788582233e+01	-1.8577146083e-02
-6.5053823869e+00	-1.4424978336e+01	-3.0270007081e-03
-5.8689862838e+00	-1.5061374439e+01	 1.4176116398e-02
-5.2325901808e+00	-1.5697770542e+01	 3.2217268859e-02
-4.5961940777e+00	-1.6334166645e+01	 5.0281520299e-02
-3.9597979746e+00	-1.6970562748e+01	 6.7553934341e-02
-3.3234018716e+00	-1.7606958852e+01	 7.9234428983e-02
-2.6870057685e+00	-1.8243354955e+01	 7.5980105251e-02
-9.3338095116e+00	-1.2162236636e+01	-5.5225173395e-03
-8.6974134086e+00	-1.2798632739e+01	-4.4089701974e-02
-8.0610173055e+00	-1.3435028843e+01	-3.6195570391e-02
-7.4246212024e+00	-1.4071424946e+01	-2.4847114423e-02
-6.7882250994e+00	-1.4707821049e+01	-1.0859270446e-02
-6.1518289963e+00	-1.5344217152e+01	 4.9530251636e-03
-5.5154328932e+00	-1.5980613255e+01	 2.1774836029e-02
-4.8790367902e+00	-1.6617009358e+01	 3.8791225774e-02
-4.2426406871e+00	-1.7253405461e+01	 5.5074679602e-02
-3.6062445840e+00	-1.7889801564e+01	 6.4459803292e-02
-2.9698484810e+00	-1.8526197667e+01	 7.3562931512e-02
-9.6166522241e+00	-1.2445079349e+01	 1.4909348936e-02
-8.9802561211e+00	-1.3081475452e+01	-3.4324450872e-02
-8.3438600180e+00	-1.3717871555e+01	-4.0247213990e-02
-7.7074639149e+00	-1.4354267658e+01	-3.0818520967e-02
-7.0710678118e+00	-1.4990663761e+01	-1.8578960033e-02
-6.4346717088e+00	-1.5627059864e+01	-4.3434675670e-03
-5.7982756057e+00	-1.6263455967e+01	 1.1073020056e-02
-5.1618795026e+00	-1.6899852070e+01	 2.6855566460e-02
-4.5254833996e+00	-1.7536248173e+01	 3.9867050719e-02
-3.8890872965e+00	-1.8172644276e+01	 4.9909595263e-02
-3.2526911934e+00	-1.8809040380e+01	 6.0098449659e-02
-9.8994949366e+00	-1.2727922061e+01	 3.4022757574e-02
-9.2630988335e+00	-1.3364318164e+01	-1.6085671688e-02
-8.6267027305e+00	-1.4000714267e+01	-4.3732702714e-02
-7.9903066274e+00	-1.4637110371e+01	-3.6409754282e-02
-7.3539105243e+00	-1.5273506474e+01	-2.6104458039e-02
-6.7175144213e+00	-1.5909902577e+01	-1.3631750363e-02
-6.0811183182e+00	-1.6546298680e+01	 1.9343237205e-04
-5.4447222151e+00	-1.7182694783e+01	 1.4556153788e-02
-4.8083261121e+00	-1.7819090886e+01	 2.5068792750e-02
-4.1719300090e+00	-1.8455486989e+01	 3.5513215858e-02
-3.5355339059e+00	-1.9091883092e+01	 4.6532252654e-02
-7.0710678115e-01	-1.6263455967e+01	 3.4564128037e-03
-7.0710678080e-02	-1.6899852070e+01	 2.3911373973e-02
 5.6568542499e-01	-1.7536248173e+01	 3.4289518360e-02
 1.2020815281e+00	-1.8172644276e+01	 3.7795037905e-02
 1.8384776311e+00	-1.8809040380e+01	 4.0830584342e-02
 2.4748737342e+00	-1.9445436483e+01	 4.3666451557e-02
 3.1112698373e+00	-2.0081832586e+01	 4.3363177672e-02
 3.7476659403e+00	-2.0718228689e+01	 3.5962152412e-02
 4.3840620434e+00	-2.1354624792e+01	 3.0981143470e-02
 5.0204581464e+00	-2.1991020895e+01	 2.8280197671e-02
 5.6568542495e+00	-2.2627416998e+01	 2.7719372941e-02
-9.8994949363e-01	-1.6546298680e+01	 2.4729146526e-02
-3.5355339056e-01	-1.7182694783e+01	 4.1545423665e-02
 2.8284271251e-01	-1.7819090886e+01	 4.5003058454e-02
 9.1923881558e-01	-1.8455486989e+01	 4.6679709857e-02
 1.5556349186e+00	-1.9091883092e+01	 4.7856592407e-02
 2.1920310217e+00	-1.9728279195e+01	 4.8804003587e-02
 2.8284271248e+00	-2.0364675298e+01	 4.9792211088e-02
 3.4648232278e+00	-2.1001071401e+01	 4.1809942852e-02
 4.1012193309e+00	-2.1637467504e+01	 3.4178561408e-02
 4.7376154340e+00	-2.2273863607e+01	 2.8946263219e-02
 5.3740115370e+00	-2.2910259710e+01	 2.5973106274e-02
-1.2727922061e+00	-1.6829141392e+01	 4.2955951193e-02
-6.3639610304e-01	-1.7465537495e+01	 5.2828904501e-02
 2.8721417822e-11	-1.8101933598e+01	 5.3687446154e-02
 6.3639610310e-01	-1.8738329701e+01	 5.3746095367e-02
 1.2727922062e+00	-1.9374725805e+01	 5.3275183010e-02
 1.9091883092e+00	-2.0011121908e+01	 5.2545010162e-02
 2.5455844123e+00	-2.0647518011e+01	 5.1825848109e-02
 3.1819805154e+00	-2.1283914114e+01	 4.7012600813e-02
 3.8183766184e+00	-2.1920310217e+01	 3.6968731108e-02
 4.4547727215e+00	-2.2556706320e+01	 2.9442964057e-02
 5.0911688245e+00	-2.3193102423e+01	 2.4295357712e-02
-1.5556349186e+00	-1.7111984105e+01	 5.8058393675e-02
-9.1923881552e-01	-1.7748380208e+01	 6.0938288077e-02
-2.8284271245e-01	-1.8384776311e+01	 6.0419486067e-02
 3.5355339062e-01	-1.9021172414e+01	 5.9070998330e-02
 9.8994949368e-01	-1.9657568517e+01	 5.7163159335e-02
 1.6263455967e+00	-2.0293964620e+01	 5.4966273753e-02
 2.2627416998e+00	-2.0930360723e+01	 5.2750616469e-02
 2.8991378029e+00	-2.1566756826e+01	 5.0786432578e-02
 3.5355339059e+00	-2.2203152929e+01	 3.9340276373e-02
 4.1719300090e+00	-2.2839549032e+01	 2.9758923976e-02
 4.8083261121e+00	-2.3475945135e+01	 2.2674751034e-02
-1.8384776311e+00	-1.7394826817e+01	 6.7516704866e-02
-1.2020815280e+00	-1.8031222920e+01	 6.6961264540e-02
-5.6568542493e-01	-1.8667619023e+01	 6.5275980370e-02
 7.0710678138e-02	-1.9304015126e+01	 6.2731220215e-02
 7.0710678120e-01	-1.9940411229e+01	 5.9597322139e-02
 1.3435028843e+00	-2.0576807333e+01	 5.6144594410e-02
 1.9798989873e+00	-2.1213203436e+01	 5.2643315507e-02
 2.6162950904e+00	-2.1849599539e+01	 4.9363734121e-02
 3.2526911935e+00	-2.2485995642e+01	 4.1281821421e-02
 3.8890872965e+00	-2.3122391745e+01	 2.9882767180e-02
 4.5254833996e+00	-2.3758787848e+01	 2.1099910431e-02
-2.1213203435e+00	-1.7677669530e+01	 7.2455905220e-02
-1.4849242405e+00	-1.8314065633e+01	 7.0974634354e-02
-8.4852813741e-01	-1.8950461736e+01	 6.8333728817e-02
-2.1213203434e-01	-1.9586857839e+01	 6.4803560066e-02
 4.2426406873e-01	-2.0223253942e+01	 6.0654469758e-02
 1.0606601718e+00	-2.0859650045e+01	 5.6156769756e-02
 1.6970562749e+00	-2.1496046148e+01	 5.1580742135e-02
 2.3334523779e+00	-2.2132442251e+01	 4.7196639183e-02
 2.9698484810e+00	-2.2768838354e+01	 4.2781990877e-02
 3.6062445840e+00	-2.3405234457e+01	 2.9803118283e-02
 4.2426406871e+00	-2.4041630560e+01	 1.9559460505e-02
-2.4041630560e+00	-1.7960512242e+01	 7.5251439907e-02
-1.7677669530e+00	-1.8596908345e+01	 7.3055195557e-02
-1.1313708499e+00	-1.9233304448e+01	 6.9669528738e-02
-4.9497474682e-01	-1.9869700551e+01	 6.5364814501e-02
 1.4142135625e-01	-2.0506096654e+01	 6.0411398099e-02
 7.7781745931e-01	-2.1142492757e+01	 5.5079594990e-02
 1.4142135624e+00	-2.1778888861e+01	 4.9639690843e-02
 2.0506096654e+00	-2.2415284964e+01	 4.4361941542e-02
 2.6870057685e+00	-2.3051681067e+01	 3.9516573187e-02
 3.3234018716e+00	-2.3688077170e+01	 2.9508602311e-02
 3.9597979746e+00	-2.4324473273e+01	 2.0854199936e-02
-2.6870057685e+00	-1.8243354955e+01	 7.5980105251e-02
-2.0506096654e+00	-1.8879751058e+01	 7.3279743764e-02
-1.4142135624e+00	-1.9516147161e+01	 6.9360175037e-02
-7.7781745930e-01	-2.0152543264e+01	 6.4491777715e-02
-1.4142135623e-01	-2.0788939367e+01	 5.8944900647e-02
 4.9497474684e-01	-2.1425335470e+01	 5.2989862885e-02
 1.1313708499e+00	-2.2061731573e+01	 4.6896953693e-02
 1.7677669530e+00	-2.2698127676e+01	 4.0936432551e-02
 2.4041630560e+00	-2.3334523779e+01	 3.5378529153e-02
 3.0405591591e+00	-2.3970919882e+01	 2.8987844699e-02
 3.6769552622e+00	-2.4607315985e+01	 2.3907325969e-02
-2.9698484810e+00	-1.8526197667e+01	 7.3562931512e-02
-2.3334523779e+00	-1.9162593770e+01	 7.1725072163e-02
-1.6970562748e+00	-1.9798989873e+01	 6.7482460191e-02
-1.0606601718e+00	-2.0435385976e+01	 6.2261241477e-02
-4.2426406871e-01	-2.1071782079e+01	 5.6331768460e-02
 2.1213203436e-01	-2.1708178182e+01	 4.9964363790e-02
 8.4852813743e-01	-2.2344574285e+01	 4.3429320326e-02
 1.4849242405e+00	-2.2980970389e+01	 3.6996901140e-02
 2.1213203436e+00	-2.3617366492e+01	 3.0937339523e-02
 2.7577164466e+00	-2.4253762595e+01	 2.7521560164e-02
 3.3941125497e+00	-2.4890158698e+01	 2.7330857585e-02
-3.2526911934e+00	-1.8809040380e+01	 6.0098449659e-02
-2.6162950904e+00	-1.9445436483e+01	 6.8467971518e-02
-1.9798989873e+00	-2.0081832586e+01	 6.4113174257e-02
-1.3435028843e+00	-2.0718228689e+01	 5.8749995131e-02
-7.0710678118e-01	-2.1354624792e+01	 5.2648790175e-02
-7.0710678117e-02	-2.1991020895e+01	 4.6079885632e-02
 5.6568542495e-01	-2.2627416998e+01	 3.9313577956e-02
 1.2020815280e+00	-2.3263813101e+01	 3.2620133813e-02
 1.8384776311e+00	-2.3900209204e+01	 2.6269790090e-02
 2.4748737342e+00	-2.4536605307e+01	 2.7643906705e-02
 3.1112698372e+00	-2.5173001410e+01	 3.1129920406e-02
-3.5355339059e+00	-1.9091883092e+01	 4.6532252654e-02
-2.8991378029e+00	-1.9728279195e+01	 6.3585230170e-02
-2.2627416998e+00	-2.0364675298e+01	 5.9329104863e-02
-1.6263455967e+00	-2.1001071401e+01	 5.4034825597e-02
-9.8994949366e-01	-2.1637467504e+01	 4.7972752000e-02
-3.5355339059e-01	-2.2273863607e+01	 4.1413213910e-02
 2.8284271247e-01	-2.2910259710e+01	 3.4626511373e-02
 9.1923881554e-01	-2.3546655813e+01	 2.7882914651e-02
 1.5556349186e+00	-2.4183051917e+01	 2.2304301349e-02
 2.1920310217e+00	-2.4819448020e+01	 2.8094179468e-02
 2.8284271248e+00	-2.5455844123e+01	 3.3886609370e-02
-9.8994949366e+00	-1.2727922061e+01	 3.4022757574e-02
-9.2630988335e+00	-1.3364318164e+01	-1.6085671688e-02
-8.6267027305e+00	-1.4000714267e+01	-4.3732702714e-02
-7.9903066274e+00	-1.4637110371e+01	-3.6409754282e-02
-7.3539105243e+00	-1.5273506474e+01	-2.6104458039e-02
-6.7175144213e+00	-1.5909902577e+01	-1.3631750363e-02
-6.0811183182e+00	-1.6546298680e+01	 1.9343237205e-04
-5.4447222151e+00	-1.7182694783e+01	 1.4556153788e-02
-4.8083261121e+00	-1.7819090886e+01	 2.5068792750e-02
-4.1719300090e+00	-1.8455486989e+01	 3.5513215858e-02
-3.5355339059e+00	-1.9091883092e+01	 4.6532252654e-02
-1.0182337649e+01	-1.3010764774e+01	 2.5835613098e-02
-9.5459415460e+00	-1.3647160877e+01	-1.8390204514e-02
-8.9095454429e+00	-1.4283556980e+01	-5.4138171399e-02
-8.2731493399e+00	-1.4919953083e+01	-4.9174413098e-02
-7.6367532368e+00	-1.5556349186e+01	-3.6393740941e-02
-7.0003571337e+00	-1.6192745289e+01	-2.2057693103e-02
-6.3639610307e+00	-1.6829141392e+01	-6.9812059595e-03
-5.7275649276e+00	-1.7465537495e+01	 6.8262209499e-03
-5.0911688245e+00	-1.8101933598e+01	 1.8117061964e-02
-4.4547727215e+00	-1.8738329701e+01	 2.9385866556e-02
-3.8183766184e+00	-1.9374725804e+01	 4.0874071534e-02
-1.0465180362e+01	-1.3293607486e+01	 1.7519884869e-02
-9.8287842585e+00	-1.3930003589e+01	-2.0980887325e-02
-9.1923881554e+00	-1.4566399692e+01	-5.1716152846e-02
-8.5559920523e+00	-1.5202795796e+01	-6.0393865896e-02
-7.9195959493e+00	-1.5839191899e+01	-4.5292438271e-02
-7.2831998462e+00	-1.6475588002e+01	-2.9247670716e-02
-6.6468037431e+00	-1.7111984105e+01	-1.3074499610e-02
-6.0104076401e+00	-1.7748380208e+01	 3.4589097199e-04
-5.3740115370e+00	-1.8384776311e+01	 1.2592143412e-02
-4.7376154339e+00	-1.9021172414e+01	 2.4461150858e-02
-4.1012193309e+00	-1.9657568517e+01	 3.6194343898e-02
-1.0748023074e+01	-1.3576450199e+01	 9.2166419256e-03
-1.0111626971e+01	-1.4212846302e+01	-2.3716650406e-02
-9.4752308679e+00	-1.4849242405e+01	-4.9596775799e-02
-8.8388347648e+00	-1.5485638508e+01	-6.9194185655e-02
-8.2024386617e+00	-1.6122034611e+01	-5.2718938597e-02
-7.5660425587e+00	-1.6758430714e+01	-3.5120071772e-02
-6.9296464556e+00	-1.7394826817e+01	-1.8505407971e-02
-6.2932503525e+00	-1.8031222920e+01	-4.5540352012e-03
-5.6568542495e+00	-1.8667619023e+01	 8.4234527481e-03
-5.0204581464e+00	-1.9304015126e+01	 2.0668485644e-02
-4.3840620433e+00	-1.9940411229e+01	 3.2422487856e-02
-1.1030865787e+01	-1.3859292911e+01	 1.0669501499e-03
-1.0394469683e+01	-1.4495689014e+01	-2.6456427199e-02
-9.7580735804e+00	-1.5132085117e+01	-4.7638973028e-02
-9.1216774773e+00	-1.5768481220e+01	-6.3251142154e-02
-8.4852813742e+00	-1.6404877324e+01	-5.8591630488e-02
-7.8488852712e+00	-1.7041273427e+01	-3.9593284838e-02
-7.2124891681e+00	-1.7677669530e+01	-2.2757780091e-02
-6.5760930650e+00	-1.8314065633e+01	-7.9441411714e-03
-5.9396969620e+00	-1.8950461736e+01	 5.5404075994e-03
-5.3033008589e+00	-1.9586857839e+01	 1.7937289770e-02
-4.6669047558e+00	-2.0223253942e+01	 2.9487923492e-02
-1.1313708499e+01	-1.4142135624e+01	-6.7881277376e-03
-1.0677312396e+01	-1.4778531727e+01	-2.9059154309e-02
-1.0040916293e+01	-1.5414927830e+01	-4.5701680459e-02
-9.4045201898e+00	-1.6051323933e+01	-5.7486164424e-02
-8.7681240867e+00	-1.6687720036e+01	-6.2828902514e-02
-8.1317279836e+00	-1.7324116139e+01	-4.2724194454e-02
-7.4953318806e+00	-1.7960512242e+01	-2.5346741665e-02
-6.8589357775e+00	-1.8596908345e+01	-9.8950085673e-03
-6.2225396744e+00	-1.9233304448e+01	 3.8724275652e-03
-5.5861435714e+00	-1.9869700551e+01	 1.6196984064e-02
-4.9497474683e+00	-2.0506096654e+01	 2.7320072863e-02
-1.1596551211e+01	-1.4424978336e+01	-1.4207532175e-02
-1.0960155108e+01	-1.5061374439e+01	-3.1383771498e-02
-1.0323759005e+01	-1.5697770542e+01	-4.3643837180e-02
-9.6873629023e+00	-1.6334166645e+01	-5.1758190876e-02
-9.0509667992e+00	-1.6970562748e+01	-5.6497344444e-02
-8.4145706961e+00	-1.7606958852e+01	-4.4489451882e-02
-7.7781745930e+00	-1.8243354955e+01	-2.6342873575e-02
-7.1417784900e+00	-1.8879751058e+01	-1.0477217044e-02
-6.5053823869e+00	-1.9516147161e+01	 3.3489342180e-03
-5.8689862838e+00	-2.0152543264e+01	 1.5376991326e-02
-5.2325901808e+00	-2.0788939367e+01	 2.5848359996e-02
-1.1879393924e+01	-1.4707821049e+01	-2.1050206761e-02
-1.1242997821e+01	-1.5344217152e+01	-3.3289221689e-02
-1.0606601718e+01	-1.5980613255e+01	-4.1324385438e-02
-9.9702056147e+00	-1.6617009358e+01	-4.5926163082e-02
-9.3338095117e+00	-1.7253405461e+01	-4.7871674801e-02
-8.6974134086e+00	-1.7889801564e+01	-4.4508290528e-02
-8.0610173055e+00	-1.8526197667e+01	-2.5816754732e-02
-7.4246212024e+00	-1.9162593770e+01	-9.7613442856e-03
-6.7882250994e+00	-1.9798989873e+01	 3.8993511033e-03
-6.1518289963e+00	-2.0435385976e+01	 1.5406736330e-02
-5.5154328932e+00	-2.1071782079e+01	 2.5002210893e-02
-1.2162236636e+01	-1.4990663761e+01	-2.7175098253e-02
-1.1525840533e+01	-1.5627059864e+01	-3.4634450962e-02
-1.0889444430e+01	-1.6263455967e+01	-3.8602270638e-02
-1.0253048327e+01	-1.6899852070e+01	-3.9849025772e-02
-9.6166522241e+00	-1.7536248173e+01	-3.9307452486e-02
-8.9802561211e+00	-1.8172644276e+01	-3.8207152798e-02
-8.3438600180e+00	-1.8809040380e+01	-2.3838962076e-02
-7.7074639149e+00	-1.9445436483e+01	-7.8179660007e-03
-7.0710678118e+00	-2.0081832586e+01	 5.4531037391e-03
-6.4346717088e+00	-2.0718228689e+01	 1.6215645822e-02
-5.7982756057e+00	-2.1354624792e+01	 2.4711053529e-02
-1.2445079349e+01	-1.5273506474e+01	-3.2441156567e-02
-1.1808683246e+01	-1.5909902577e+01	-3.5278408560e-02
-1.1172287143e+01	-1.6546298680e+01	-3.5336441347e-02
-1.0535891040e+01	-1.7182694783e+01	-3.3385726837e-02
-9.8994949366e+00	-1.7819090886e+01	-3.0576044598e-02
-9.2630988335e+00	-1.8455486989e+01	-2.7806122475e-02
-8.6267027305e+00	-1.9091883092e+01	-2.0480070570e-02
-7.9903066274e+00	-1.9728279195e+01	-4.7176559268e-03
-7.3539105243e+00	-2.0364675298e+01	 7.9396196163e-03
-6.7175144212e+00	-2.1001071401e+01	 1.7733148520e-02
-6.0811183182e+00	-2.1637467504e+01	 2.4904317850e-02
-1.2727922061e+01	-1.5556349186e+01	-3.6707334778e-02
-1.2091525958e+01	-1.6192745289e+01	-3.5080046881e-02
-1.1455129855e+01	-1.6829141392e+01	-3.1385849289e-02
-1.0818733752e+01	-1.7465537495e+01	-2.6460319200e-02
-1.0182337649e+01	-1.8101933598e+01	-2.1644968419e-02
-9.5459415460e+00	-1.8738329701e+01	-1.7399762929e-02
-8.9095454429e+00	-1.9374725804e+01	-1.3936390317e-02
-8.2731493399e+00	-2.0011121908e+01	-5.3098582834e-04
-7.6367532368e+00	-2.0647518011e+01	 1.1288328198e-02
-7.0003571337e+00	-2.1283914114e+01	 1.9888675117e-02
-6.3639610306e+00	-2.1920310217e+01	 2.5511435776e-02
-3.5355339059e+00	-1.9091883092e+01	 4.6532252654e-02
-2.8991378029e+00	-1.9728279195e+01	 6.3585230170e-02
-2.2627416998e+00	-2.0364675298e+01	 5.9329104863e-02
-1.6263455967e+00	-2.1001071401e+01	 5.4034825597e-02
-9.8994949366e-01	-2.1637467504e+01	 4.7972752000e-02
-3.5355339059e-01	-2.2273863607e+01	 4.1413213910e-02
 2.8284271247e-01	-2.2910259710e+01	 3.4626511373e-02
 9.1923881554e-01	-2.3546655813e+01	 2.7882914651e-02
 1.5556349186e+00	-2.4183051917e+01	 2.2304301349e-02
 2.1920310217e+00	-2.4819448020e+01	 2.8094179468e-02
 2.8284271248e+00	-2.5455844123e+01	 3.3886609370e-02
-3.8183766184e+00	-1.9374725804e+01	 4.0874071534e-02
-3.1819805153e+00	-2.0011121908e+01	 5.7661337340e-02
-2.5455844123e+00	-2.0647518011e+01	 5.9964101363e-02
-1.9091883092e+00	-2.1283914114e+01	 5.4217738754e-02
-1.2727922061e+00	-2.1920310217e+01	 4.7627005405e-02
-6.3639610307e-01	-2.2556706320e+01	 4.0462234748e-02
-1.2570847141e-12	-2.3193102423e+01	 3.2993730424e-02
 6.3639610307e-01	-2.3829498526e+01	 2.5491766287e-02
 1.2727922061e+00	-2.4465894629e+01	 2.4514398165e-02
 1.9091883092e+00	-2.5102290732e+01	 2.9534800510e-02
 2.5455844123e+00	-2.5738686835e+01	 3.4591719372e-02
-4.1012193309e+00	-1.9657568517e+01	 3.6194343898e-02
-3.4648232278e+00	-2.0293964620e+01	 5.1409476607e-02
-2.8284271247e+00	-2.0930360723e+01	 6.0151599402e-02
-2.1920310217e+00	-2.1566756826e+01	 5.3960201640e-02
-1.5556349186e+00	-2.2203152929e+01	 4.6847859757e-02
-9.1923881554e-01	-2.2839549032e+01	 3.9084910777e-02
-2.8284271248e-01	-2.3475945135e+01	 3.0941661935e-02
 3.5355339059e-01	-2.4112341238e+01	 2.2688390679e-02
 9.8994949366e-01	-2.4748737342e+01	 2.6440603060e-02
 1.6263455967e+00	-2.5385133445e+01	 3.0712964300e-02
 2.2627416998e+00	-2.6021529548e+01	 3.5055806314e-02
-4.3840620433e+00	-1.9940411229e+01	 3.2422487856e-02
-3.7476659403e+00	-2.0576807333e+01	 4.6074442642e-02
-3.1112698372e+00	-2.1213203436e+01	 5.6174949827e-02
-2.4748737342e+00	-2.1849599539e+01	 5.3338993903e-02
-1.8384776311e+00	-2.2485995642e+01	 4.5712093993e-02
-1.2020815280e+00	-2.3122391745e+01	 3.7358020224e-02
-5.6568542495e-01	-2.3758787848e+01	 2.8547083424e-02
 7.0710678120e-02	-2.4395183951e+01	 2.4600886571e-02
 7.0710678119e-01	-2.5031580054e+01	 2.8094203562e-02
 1.3435028843e+00	-2.5667976157e+01	 3.1639958457e-02
 1.9798989873e+00	-2.6304372260e+01	 3.5290157904e-02
-4.6669047558e+00	-2.0223253942e+01	 2.9487923492e-02
-4.0305086528e+00	-2.0859650045e+01	 4.1585656759e-02
-3.3941125497e+00	-2.1496046148e+01	 5.0304035728e-02
-2.7577164466e+00	-2.2132442251e+01	 5.2430892766e-02
-2.1213203436e+00	-2.2768838354e+01	 4.4296484627e-02
-1.4849242405e+00	-2.3405234457e+01	 3.5358338893e-02
-8.4852813742e-01	-2.4041630560e+01	 2.5886769986e-02
-2.1213203435e-01	-2.4678026663e+01	 2.6732305824e-02
 4.2426406872e-01	-2.5314422766e+01	 2.9486487562e-02
 1.0606601718e+00	-2.5950818870e+01	 3.2327070960e-02
 1.6970562749e+00	-2.6587214973e+01	 3.5306062213e-02
-4.9497474683e+00	-2.0506096654e+01	 2.7320072863e-02
-4.3133513652e+00	-2.1142492757e+01	 3.7872542240e-02
-3.6769552622e+00	-2.1778888861e+01	 4.5217749138e-02
-3.0405591591e+00	-2.2415284964e+01	 4.9597089299e-02
-2.4041630560e+00	-2.3051681067e+01	 4.2677805749e-02
-1.7677669530e+00	-2.3688077170e+01	 3.3162640165e-02
-1.1313708499e+00	-2.4324473273e+01	 2.6624143915e-02
-4.9497474683e-01	-2.4960869376e+01	 2.8592261413e-02
 1.4142135624e-01	-2.5597265479e+01	 3.0628743313e-02
 7.7781745932e-01	-2.6233661582e+01	 3.2785590155e-02
 1.4142135624e+00	-2.6870057685e+01	 3.5114807675e-02
-5.2325901808e+00	-2.0788939367e+01	 2.5848359996e-02
-4.5961940777e+00	-2.1425335470e+01	 3.4864524343e-02
-3.9597979746e+00	-2.2061731573e+01	 4.0845516543e-02
-3.3234018716e+00	-2.2698127676e+01	 4.4032726121e-02
-2.6870057685e+00	-2.3334523779e+01	 4.0932829024e-02
-2.0506096654e+00	-2.3970919882e+01	 3.0847694997e-02
-1.4142135624e+00	-2.4607315985e+01	 2.8954151954e-02
-7.7781745930e-01	-2.5243712088e+01	 3.0192041864e-02
-1.4142135623e-01	-2.5880108191e+01	 3.1532259434e-02
 4.9497474684e-01	-2.6516504295e+01	 3.3026804748e-02
 1.1313708499e+00	-2.7152900398e+01	 3.4727683087e-02
-5.5154328932e+00	-2.1071782079e+01	 2.5002210893e-02
-4.8790367902e+00	-2.1708178182e+01	 3.2491030299e-02
-4.2426406871e+00	-2.2344574285e+01	 3.7116766400e-02
-3.6062445840e+00	-2.2980970389e+01	 3.9120802509e-02
-2.9698484810e+00	-2.3617366492e+01	 3.8744516540e-02
-2.3334523779e+00	-2.4253762595e+01	 3.0569035290e-02
-1.6970562748e+00	-2.4890158698e+01	 3.1013837671e-02
-1.0606601718e+00	-2.5526554801e+01	 3.1542936066e-02
-4.2426406870e-01	-2.6162950904e+01	 3.2208324902e-02
 2.1213203437e-01	-2.6799347007e+01	 3.3062003807e-02
 8.4852813744e-01	-2.7435743110e+01	 3.4155977609e-02
-5.7982756057e+00	-2.1354624792e+01	 2.4711053529e-02
-5.1618795026e+00	-2.1991020895e+01	 3.0681489308e-02
-4.5254833996e+00	-2.2627416998e+01	 3.3960929141e-02
-3.8890872965e+00	-2.3263813101e+01	 3.4790750124e-02
-3.2526911934e+00	-2.3900209204e+01	 3.3412323955e-02
-2.6162950904e+00	-2.4536605307e+01	 3.3091005958e-02
-1.9798989873e+00	-2.5173001410e+01	 3.2814490229e-02
-1.3435028842e+00	-2.5809397513e+01	 3.2656233272e-02
-7.0710678118e-01	-2.6445793616e+01	 3.2668229060e-02
-7.0710678109e-02	-2.7082189719e+01	 3.2902476766e-02
 5.6568542496e-01	-2.7718585823e+01	 3.3410980761e-02
-6.0811183182e+00	-2.1637467504e+01	 2.4904317850e-02
-5.4447222151e+00	-2.2273863607e+01	 2.9365332546e-02
-4.8083261120e+00	-2.2910259710e+01	 3.1307437167e-02
-4.1719300090e+00	-2.3546655813e+01	 3.0972002595e-02
-3.5355339059e+00	-2.4183051917e+01	 2.9319368729e-02
-2.8991378028e+00	-2.4819448020e+01	 3.5343796260e-02
-2.2627416998e+00	-2.5455844123e+01	 3.4367399152e-02
-1.6263455967e+00	-2.6092240226e+01	 3.3543223096e-02
-9.8994949365e-01	-2.6728636329e+01	 3.2923261613e-02
-3.5355339058e-01	-2.7365032432e+01	 3.2559513418e-02
 2.8284271248e-01	-2.8001428535e+01	 3.2503982430e-02
-6.3639610306e+00	-2.1920310217e+01	 2.5511435776e-02
-5.7275649276e+00	-2.2556706320e+01	 2.8471993159e-02
-5.0911688245e+00	-2.3193102423e+01	 2.9085724854e-02
-4.4547727214e+00	-2.3829498526e+01	 2.7593995525e-02
-3.8183766184e+00	-2.4465894629e+01	 2.9272599348e-02
-3.1819805153e+00	-2.5102290732e+01	 3.4782273164e-02
-2.5455844122e+00	-2.5738686835e+01	 3.5683854327e-02
-1.9091883092e+00	-2.6375082938e+01	 3.4215195518e-02
-1.2727922061e+00	-2.7011479041e+01	 3.2984712629e-02
-6.3639610306e-01	-2.7647875144e+01	 3.2044403924e-02
 0.0000000000e+00	-2.8284271248e+01	 3.1446272863e-02
 7.0710678119e+00	 7.0710678119e+00	-5.9043875305e-02
 7.0710678119e+00	 7.0710678119e+00	-5.9043875305e-02
 7.0710678119e+00	 7.0710678119e+00	-5.9043875305e-02
 7.0710678119e+00	 7.0710678119e+00	-5.9043875305e-02
 7.0710678119e+00	 7.0710678119e+00	-5.9043875305e-02
 7.0710678119e+00	 7.0710678119e+00	-5.9043875305e-02
 7.0710678119e+00	 7.0710678119e+00	-5.9043875305e-02
 7.0710678119e+00	 7.0710678119e+00	-5.9043875305e-02
 7.0710678119e+00	 7.0710678119e+00	-5.9043875305e-02
 7.0710678119e+00	 7.0710678119e+00	-5.9043875305e-02
 7.0710678119e+00	 7.0710678119e+00	-5.9043875305e-02
 7.0675322780e+00	 7.0675322780e+00	 1.2152718361e+01
 7.0678858314e+00	 7.0671787246e+00	 1.2842076436e+01
 7.0682393848e+00	 7.0668251712e+00	 1.3173966689e+01
 7.0685929382e+00	 7.0664716178e+00	 1.3148389121e+01
 7.0689464916e+00	 7.0661180644e+00	 1.2765343731e+01
 7.0693000449e+00	 7.0657645110e+00	 1.2024830518e+01
 7.0696535983e+00	 7.0654109577e+00	 1.0926849484e+01
 7.0700071517e+00	 7.0650574043e+00	 9.4714006282e+00
 7.0703607051e+00	 7.0647038509e+00	 7.6584839504e+00
 7.0707142585e+00	 7.0643502975e+00	 5.4880994505e+00
 7.0710678119e+00	 7.0639967441e+00	 2.9602471289e+00
 7.0569256763e+00	 7.0569256763e+00	 6.0571623976e+00
 7.0583398898e+00	 7.0555114627e+00	 6.3986423348e+00
 7.0597541034e+00	 7.0540972492e+00	 6.5617554428e+00
 7.0611683170e+00	 7.0526830356e+00	 6.5465017216e+00
 7.0625825305e+00	 7.0512688220e+00	 6.3528811712e+00
 7.0639967441e+00	 7.0498546085e+00	 5.9808937915e+00
 7.0654109577e+00	 7.0484403949e+00	 5.4305395825e+00
 7.0668251712e+00	 7.0470261813e+00	 4.7018185443e+00
 7.0682393848e+00	 7.0456119678e+00	 3.7947306768e+00
 7.0696535983e+00	 7.0441977542e+00	 2.7092759800e+00
 7.0710678119e+00	 7.0427835407e+00	 1.4454544540e+00
 7.0392480067e+00	 7.0392480067e+00	 4.0072858212e+00
 7.0424299873e+00	 7.0360660262e+00	 4.2336493683e+00
 7.0456119678e+00	 7.0328840457e+00	 4.3409682735e+00
 7.0487939483e+00	 7.0297020652e+00	 4.3292425368e+00
 7.0519759288e+00	 7.0265200847e+00	 4.1984721580e+00
 7.0551579093e+00	 7.0233381042e+00	 3.9486571371e+00
 7.0583398898e+00	 7.0201561237e+00	 3.5797974739e+00
 7.0615218704e+00	 7.0169741431e+00	 3.0918931685e+00
 7.0647038509e+00	 7.0137921626e+00	 2.4849442208e+00
 7.0678858314e+00	 7.0106101821e+00	 1.7589506305e+00
 7.0710678119e+00	 7.0074282016e+00	 9.1391239779e-01
 7.0144992694e+00	 7.0144992694e+00	 2.9798448926e+00
 7.0201561237e+00	 7.0088424152e+00	 3.1487469988e+00
 7.0258129779e+00	 7.0031855609e+00	 3.2281947235e+00
 7.0314698322e+00	 6.9975287067e+00	 3.2181880662e+00
 7.0371266864e+00	 6.9918718524e+00	 3.1187270264e+00
 7.0427835407e+00	 6.9862149982e+00	 2.9298116037e+00
 7.0484403949e+00	 6.9805581439e+00	 2.6514417977e+00
 7.0540972492e+00	 6.9749012897e+00	 2.2836176079e+00
 7.0597541034e+00	 6.9692444354e+00	 1.8263390338e+00
 7.0654109577e+00	 6.9635875812e+00	 1.2796060751e+00
 7.0710678119e+00	 6.9579307269e+00	 6.4341873114e-01
 6.9826794642e+00	 6.9826794642e+00	 2.3633719198e+00
 6.9915182990e+00	 6.9738406295e+00	 2.4977739564e+00
 7.0003571338e+00	 6.9650017947e+00	 2.5604532162e+00
 7.0091959685e+00	 6.9561629600e+00	 2.5514096975e+00
 7.0180348033e+00	 6.9473241252e+00	 2.4706433984e+00
 7.0268736381e+00	 6.9384852904e+00	 2.3181543174e+00
 7.0357124728e+00	 6.9296464557e+00	 2.0939424527e+00
 7.0445513076e+00	 6.9208076209e+00	 1.7980078025e+00
 7.0533901424e+00	 6.9119687861e+00	 1.4303503651e+00
 7.0622289771e+00	 6.9031299514e+00	 9.9097013886e-01
 7.0710678119e+00	 6.8942911166e+00	 4.7986712196e-01
 6.9437885913e+00	 6.9437885913e+00	 1.9531017982e+00
 6.9565165133e+00	 6.9310606692e+00	 2.0644466760e+00
 6.9692444354e+00	 6.9183327472e+00	 2.1158806184e+00
 6.9819723575e+00	 6.9056048251e+00	 2.1074036203e+00
 6.9947002795e+00	 6.8928769030e+00	 2.0390156765e+00
 7.0074282016e+00	 6.8801489810e+00	 1.9107167820e+00
 7.0201561237e+00	 6.8674210589e+00	 1.7225069314e+00
 7.0328840457e+00	 6.8546931369e+00	 1.4743861198e+00
 7.0456119678e+00	 6.8419652148e+00	 1.1663543419e+00
 7.0583398898e+00	 6.8292372927e+00	 7.9841159260e-01
 7.0710678119e+00	 6.8165093707e+00	 3.7055786671e-01
 6.8978266505e+00	 6.8978266505e+00	 1.6610514152e+00
 6.9151507666e+00	 6.8805025344e+00	 1.7558573631e+00
 6.9324748828e+00	 6.8631784182e+00	 1.7991851114e+00
 6.9497989989e+00	 6.8458543021e+00	 1.7910346472e+00
 6.9671231151e+00	 6.8285301859e+00	 1.7314059575e+00
 6.9844472312e+00	 6.8112060698e+00	 1.6202990292e+00
 7.0017713473e+00	 6.7938819537e+00	 1.4577138493e+00
 7.0190954635e+00	 6.7765578375e+00	 1.2436504050e+00
 7.0364195796e+00	 6.7592337214e+00	 9.7810868305e-01
 7.0537436958e+00	 6.7419096053e+00	 6.6108867061e-01
 7.0710678119e+00	 6.7245854891e+00	 2.9259035464e-01
 6.8447936419e+00	 6.8447936419e+00	 1.4431586523e+00
 6.8674210589e+00	 6.8221662249e+00	 1.5254859293e+00
 6.8900484759e+00	 6.7995388079e+00	 1.5626574993e+00
 6.9126758929e+00	 6.7769113909e+00	 1.5546733332e+00
 6.9353033099e+00	 6.7542839739e+00	 1.5015334022e+00
 6.9579307269e+00	 6.7316565569e+00	 1.4032376772e+00
 6.9805581439e+00	 6.7090291399e+00	 1.2597861293e+00
 7.0031855609e+00	 6.6864017229e+00	 1.0711787295e+00
 7.0258129779e+00	 6.6637743059e+00	 8.3741544894e-01
 7.0484403949e+00	 6.6411468889e+00	 5.5849625858e-01
 7.0710678119e+00	 6.6185194719e+00	 2.3442112950e-01
 6.7846895655e+00	 6.7846895655e+00	 1.2749201035e+00
 6.8133273902e+00	 6.7560517409e+00	 1.3474656348e+00
 6.8419652148e+00	 6.7274139162e+00	 1.3797720890e+00
 6.8706030394e+00	 6.6987760916e+00	 1.3718394073e+00
 6.8992408641e+00	 6.6701382670e+00	 1.3236675310e+00
 6.9278786887e+00	 6.6415004423e+00	 1.2352564014e+00
 6.9565165133e+00	 6.6128626177e+00	 1.1066059598e+00
 6.9851543380e+00	 6.5842247930e+00	 9.3771614748e-01
 7.0137921626e+00	 6.5555869684e+00	 7.2858690574e-01
 7.0424299873e+00	 6.5269491438e+00	 4.7921817587e-01
 7.0710678119e+00	 6.4983113191e+00	 1.8960989917e-01
 6.7175144213e+00	 6.7175144213e+00	 1.1416257840e+00
 6.7528697604e+00	 6.6821590822e+00	 1.2062699483e+00
 6.7882250994e+00	 6.6468037432e+00	 1.2346082230e+00
 6.8235804385e+00	 6.6114484041e+00	 1.2266404976e+00
 6.8589357775e+00	 6.5760930651e+00	 1.1823666615e+00
 6.8942911166e+00	 6.5407377260e+00	 1.1017866044e+00
 6.9296464557e+00	 6.5053823869e+00	 9.8490021581e-01
 6.9650017947e+00	 6.4700270479e+00	 8.3170738518e-01
 7.0003571338e+00	 6.4346717088e+00	 6.4220800209e-01
 7.0357124728e+00	 6.3993163698e+00	 4.1640195607e-01
 7.0710678119e+00	 6.3639610307e+00	 1.5428913665e-01
 6.7175144213e+00	 6.7175144213e+00	 1.1416257840e+00
 6.7528697604e+00	 6.6821590822e+00	 1.2062699483e+00
 6.7882250994e+00	 6.6468037432e+00	 1.2346082230e+00
 6.8235804385e+00	 6.6114484041e+00	 1.2266404976e+00
 6.8589357775e+00	 6.5760930651e+00	 1.1823666615e+00
 6.8942911166e+00	 6.5407377260e+00	 1.1017866044e+00
 6.9296464557e+00	 6.5053823869e+00	 9.8490021581e-01
 6.9650017947e+00	 6.4700270479e+00	 8.3170738518e-01
 7.0003571338e+00	 6.4346717088e+00	 6.4220800209e-01
 7.0357124728e+00	 6.3993163698e+00	 4.1640195607e-01
 7.0710678119e+00	 6.3639610307e+00	 1.5428913665e-01
 6.6432682093e+00	 6.6432682093e+00	 1.0165128892e+00
 6.6860481695e+00	 6.6004882490e+00	 1.0766223938e+00
 6.7288281298e+00	 6.5577082887e+00	 1.1044572692e+00
 6.7716080901e+00	 6.5149283285e+00	 1.1000173197e+00
 6.8143880503e+00	 6.4721483682e+00	 1.0633023496e+00
 6.8571680106e+00	 6.4293684080e+00	 9.9431216322e-01
 6.8999479708e+00	 6.3865884477e+00	 8.9304656485e-01
 6.9427279311e+00	 6.3438084874e+00	 7.5950535879e-01
 6.9855078914e+00	 6.3010285272e+00	 5.9368834934e-01
 7.0282878516e+00	 6.2582485669e+00	 3.9559534082e-01
 7.0710678119e+00	 6.2154686066e+00	 1.6522613752e-01
 6.5619509294e+00	 6.5619509294e+00	 9.1652197000e-01
 6.6128626177e+00	 6.5110392412e+00	 9.7099275825e-01
 6.6637743059e+00	 6.4601275529e+00	 9.9627324271e-01
 6.7146859942e+00	 6.4092158647e+00	 9.9236309354e-01
 6.7655976824e+00	 6.3583041765e+00	 9.5926198087e-01
 6.8165093707e+00	 6.3073924882e+00	 8.9696957486e-01
 6.8674210589e+00	 6.2564808000e+00	 8.0548554566e-01
 6.9183327472e+00	 6.2055691117e+00	 6.8480956341e-01
 6.9692444354e+00	 6.1546574235e+00	 5.3494129828e-01
 7.0201561237e+00	 6.1037457352e+00	 3.5588042041e-01
 7.0710678119e+00	 6.0528340470e+00	 1.4762659997e-01
 6.4735625818e+00	 6.4735625818e+00	 8.3538923637e-01
 6.5333131048e+00	 6.4138120588e+00	 8.8375000915e-01
 6.5930636278e+00	 6.3540615358e+00	 9.0533566031e-01
 6.6528141508e+00	 6.2943110128e+00	 9.0014565663e-01
 6.7125646738e+00	 6.2345604897e+00	 8.6817946492e-01
 6.7723151968e+00	 6.1748099667e+00	 8.0943655198e-01
 6.8320657199e+00	 6.1150594437e+00	 7.2391638461e-01
 6.8918162429e+00	 6.0553089207e+00	 6.1161842961e-01
 6.9515667659e+00	 5.9955583977e+00	 4.7254215380e-01
 7.0113172889e+00	 5.9358078747e+00	 3.0668702400e-01
 7.0710678119e+00	 5.8760573517e+00	 1.1405250702e-01
 6.3781031663e+00	 6.3781031663e+00	 7.6880692918e-01
 6.4473996309e+00	 6.3088067018e+00	 8.1093838558e-01
 6.5166960954e+00	 6.2395102372e+00	 8.2822364561e-01
 6.5859925600e+00	 6.1702137727e+00	 8.2066187750e-01
 6.6552890246e+00	 6.1009173081e+00	 7.8825224948e-01
 6.7245854891e+00	 6.0316208435e+00	 7.3099392979e-01
 6.7938819537e+00	 5.9623243790e+00	 6.4888608670e-01
 6.8631784182e+00	 5.8930279144e+00	 5.4192788845e-01
 6.9324748828e+00	 5.8237314499e+00	 4.1011850330e-01
 7.0017713473e+00	 5.7544349853e+00	 2.5345709954e-01
 7.0710678119e+00	 5.6851385207e+00	 7.1942845435e-02
 6.2755726831e+00	 6.2755726831e+00	 7.1372108144e-01
 6.3551221959e+00	 6.1960231702e+00	 7.4970026530e-01
 6.4346717088e+00	 6.1164736573e+00	 7.6240040799e-01
 6.5142212217e+00	 6.0369241444e+00	 7.5182025122e-01
 6.5937707346e+00	 5.9573746315e+00	 7.1795853671e-01
 6.6733202475e+00	 5.8778251186e+00	 6.6081400618e-01
 6.7528697604e+00	 5.7982756057e+00	 5.8038540137e-01
 6.8324192732e+00	 5.7187260929e+00	 4.7667146404e-01
 6.9119687861e+00	 5.6391765800e+00	 3.4967093596e-01
 6.9915182990e+00	 5.5596270671e+00	 1.9938255891e-01
 7.0710678119e+00	 5.4800775542e+00	 2.5805074685e-02
 6.1659711320e+00	 6.1659711320e+00	 6.6791020402e-01
 6.2564808000e+00	 6.0754614640e+00	 6.9792200846e-01
 6.3469904680e+00	 5.9849517960e+00	 7.0594735334e-01
 6.4375001359e+00	 5.8944421280e+00	 6.9198438531e-01
 6.5280098039e+00	 5.8039324600e+00	 6.5603125106e-01
 6.6185194719e+00	 5.7134227920e+00	 5.9808609730e-01
 6.7090291399e+00	 5.6229131240e+00	 5.1814707075e-01
 6.7995388079e+00	 5.5324034560e+00	 4.1621231816e-01
 6.8900484759e+00	 5.4418937880e+00	 2.9227998631e-01
 6.9805581439e+00	 5.3513841200e+00	 1.4634822198e-01
 7.0710678119e+00	 5.2608744520e+00	-2.1584828016e-02
 6.0492985131e+00	 6.0492985131e+00	 6.2972236903e-01
 6.1514754429e+00	 5.9471215832e+00	 6.5400839166e-01
 6.2536523728e+00	 5.8449446533e+00	 6.5738858295e-01
 6.3558293027e+00	 5.7427677234e+00	 6.3986027649e-01
 6.4580062326e+00	 5.6405907935e+00	 6.0142080590e-01
 6.5601831625e+00	 5.5384138636e+00	 5.4206750484e-01
 6.6623600924e+00	 5.4362369338e+00	 4.6179770700e-01
 6.7645370222e+00	 5.3340600039e+00	 3.6060874612e-01
 6.8667139521e+00	 5.2318830740e+00	 2.3849795594e-01
 6.9688908820e+00	 5.1297061441e+00	 9.5462670273e-02
 7.0710678119e+00	 5.0275292142e+00	-6.8499777052e-02
 5.9255548264e+00	 5.9255548264e+00	 5.9790549410e-01
 6.0401061249e+00	 5.8110035278e+00	 6.1673427307e-01
 6.1546574235e+00	 5.6964522292e+00	 6.1557187101e-01
 6.2692087220e+00	 5.5819009307e+00	 5.9441453069e-01
 6.3837600206e+00	 5.4673496321e+00	 5.5325849494e-01
 6.4983113191e+00	 5.3527983336e+00	 4.9210000662e-01
 6.6128626177e+00	 5.2382470350e+00	 4.1093530869e-01
 6.7274139162e+00	 5.1236957365e+00	 3.0976064413e-01
 6.8419652148e+00	 5.0091444379e+00	 1.8857225598e-01
 6.9565165133e+00	 4.8945931394e+00	 4.7366387352e-02
 7.0710678119e+00	 4.7800418408e+00	-1.1386071861e-01
 5.7947400718e+00	 5.7947400718e+00	 5.7149451506e-01
 5.9223728458e+00	 5.6671072978e+00	 5.8514429167e-01
 6.0500056198e+00	 5.5394745238e+00	 5.7958599168e-01
 6.1776383939e+00	 5.4118417498e+00	 5.5481441810e-01
 6.3052711679e+00	 5.2842089758e+00	 5.1082437400e-01
 6.4329039419e+00	 5.1565762018e+00	 4.4761066254e-01
 6.5605367159e+00	 5.0289434278e+00	 3.6516808697e-01
 6.6881694899e+00	 4.9013106538e+00	 2.6349145062e-01
 6.8158022639e+00	 4.7736778798e+00	 1.4257555691e-01
 6.9434350379e+00	 4.6460451058e+00	 2.4152093344e-03
 7.0710678119e+00	 4.5184123318e+00	-1.5699478851e-01
 5.6568542495e+00	 5.6568542495e+00	 5.4973440806e-01
 5.7982756057e+00	 5.5154328933e+00	 5.5848336304e-01
 5.9396969620e+00	 5.3740115370e+00	 5.4870205913e-01
 6.0811183182e+00	 5.2325901808e+00	 5.2038342646e-01
 6.2225396745e+00	 5.0911688245e+00	 4.7352039530e-01
 6.3639610307e+00	 4.9497474683e+00	 4.0810589607e-01
 6.5053823869e+00	 4.8083261121e+00	 3.2413285927e-01
 6.6468037432e+00	 4.6669047558e+00	 2.2159421557e-01
 6.7882250994e+00	 4.5254833996e+00	 1.0048289575e-01
 6.9296464557e+00	 4.3840620433e+00	-3.9208169293e-02
 7.0710678119e+00	 4.2426406871e+00	-1.9748604851e-01
 7.0710678119e+00	 7.0710678119e+00	-5.9043875305e-02
 7.0710678119e+00	 7.0710678119e+00	-5.9043875305e-02
 7.0710678119e+00	 7.0710678119e+00	-5.9043875305e-02
 7.0710678119e+00	 7.0710678119e+00	-5.9043875305e-02
 7.0710678119e+00	 7.0710678119e+00	-5.9043875305e-02
 7.0710678119e+00	 7.0710678119e+00	-5.9043875305e-02
 7.0710678119e+00	 7.0710678119e+00	-5.9043875305e-02
 7.0710678119e+00	 7.0710678119e+00	-5.9043875305e-02
 7.0710678119e+00	 7.0710678119e+00	-5.9043875305e-02
 7.0710678119e+00	 7.0710678119e+00	-5.9043875305e-02
 7.0710678119e+00	 7.0710678119e+00	-5.9043875305e-02
 7.0710678119e+00	 7.0639967441e+00	 3.9941536981e+00
 7.0714213653e+00	 7.0643502975e+00	 4.8731509647e+00
 7.0717749187e+00	 7.0647038509e+00	 5.6693133313e+00
 7.0721284721e+00	 7.0650574043e+00	 6.3826407976e+00
 7.0724820255e+00	 7.0654109577e+00	 7.0131333638e+00
 7.0728355789e+00	 7.0657645110e+00	 7.5607910298e+00
 7.0731891322e+00	 7.0661180644e+00	 8.0256137956e+00
 7.0735426856e+00	 7.0664716178e+00	 8.4076016613e+00
 7.0738962390e+00	 7.0668251712e+00	 8.7067546268e+00
 7.0742497924e+00	 7.0671787246e+00	 8.9230726921e+00
 7.0746033458e+00	 7.0675322780e+00	 9.0565558573e+00
 7.0710678119e+00	 7.0427835407e+00	 1.8360276359e+00
 7.0724820255e+00	 7.0441977542e+00	 2.2917566327e+00
 7.0738962390e+00	 7.0456119678e+00	 2.7054977411e+00
 7.0753104526e+00	 7.0470261813e+00	 3.0772509610e+00
 7.0767246661e+00	 7.0484403949e+00	 3.4070162923e+00
 7.0781388797e+00	 7.0498546085e+00	 3.6947937352e+00
 7.0795530933e+00	 7.0512688220e+00	 3.9405832897e+00
 7.0809673068e+00	 7.0526830356e+00	 4.1443849556e+00
 7.0823815204e+00	 7.0540972492e+00	 4.3061987331e+00
 7.0837957340e+00	 7.0555114627e+00	 4.4260246222e+00
 7.0852099475e+00	 7.0569256763e+00	 4.5038626228e+00
 7.0710678119e+00	 7.0074282016e+00	 1.2308063478e+00
 7.0742497924e+00	 7.0106101821e+00	 1.5294303596e+00
 7.0774317729e+00	 7.0137921626e+00	 1.8004223061e+00
 7.0806137534e+00	 7.0169741431e+00	 2.0437821872e+00
 7.0837957340e+00	 7.0201561237e+00	 2.2595100031e+00
 7.0869777145e+00	 7.0233381042e+00	 2.4476057538e+00
 7.0901596950e+00	 7.0265200847e+00	 2.6080694394e+00
 7.0933416755e+00	 7.0297020652e+00	 2.7409010600e+00
 7.0965236560e+00	 7.0328840457e+00	 2.8461006158e+00
 7.0997056365e+00	 7.0360660262e+00	 2.9236681067e+00
 7.1028876171e+00	 7.0392480067e+00	 2.9736035329e+00
 7.0710678119e+00	 6.9579307269e+00	 9.4986654587e-01
 7.0767246661e+00	 6.9635875812e+00	 1.1668457043e+00
 7.0823815204e+00	 6.9692444354e+00	 1.3635096619e+00
 7.0880383746e+00	 6.9749012897e+00	 1.5398584194e+00
 7.0936952289e+00	 6.9805581439e+00	 1.6958919770e+00
 7.0993520831e+00	 6.9862149982e+00	 1.8316103354e+00
 7.1050089374e+00	 6.9918718524e+00	 1.9470134950e+00
 7.1106657916e+00	 6.9975287067e+00	 2.0421014563e+00
 7.1163226459e+00	 7.0031855609e+00	 2.1168742197e+00
 7.1219795001e+00	 7.0088424152e+00	 2.1713317859e+00
 7.1276363544e+00	 7.0144992694e+00	 2.2054741551e+00
 7.0710678119e+00	 6.8942911166e+00	 7.8849316938e-01
 7.0799066467e+00	 6.9031299514e+00	 9.5541370390e-01
 7.0887454814e+00	 6.9119687861e+00	 1.1064539094e+00
 7.0975843162e+00	 6.9208076209e+00	 1.2416137878e+00
 7.1064231510e+00	 6.9296464557e+00	 1.3608933408e+00
 7.1152619857e+00	 6.9384852904e+00	 1.4642925704e+00
 7.1241008205e+00	 6.9473241252e+00	 1.5518114783e+00
 7.1329396553e+00	 6.9561629600e+00	 1.6234500665e+00
 7.1417784900e+00	 6.9650017947e+00	 1.6792083367e+00
 7.1506173248e+00	 6.9738406295e+00	 1.7190862909e+00
 7.1594561595e+00	 6.9826794642e+00	 1.7430839308e+00
 7.0710678119e+00	 6.8165093707e+00	 6.8415520001e-01
 7.0837957340e+00	 6.8292372927e+00	 8.1718101858e-01
 7.0965236560e+00	 6.8419652148e+00	 9.3730214666e-01
 7.1092515781e+00	 6.8546931369e+00	 1.0445185898e+00
 7.1219795001e+00	 6.8674210589e+00	 1.1388303534e+00
 7.1347074222e+00	 6.8801489810e+00	 1.2202374430e+00
 7.1474353443e+00	 6.8928769030e+00	 1.2887398643e+00
 7.1601632663e+00	 6.9056048251e+00	 1.3443376226e+00
 7.1728911884e+00	 6.9183327472e+00	 1.3870307234e+00
 7.1856191105e+00	 6.9310606692e+00	 1.4168191724e+00
 7.1983470325e+00	 6.9437885913e+00	 1.4337029749e+00
 7.0710678119e+00	 6.7245854891e+00	 6.1146226232e-01
 7.0883919280e+00	 6.7419096053e+00	 7.1995103120e-01
 7.1057160442e+00	 6.7592337214e+00	 8.1767043567e-01
 7.1230401603e+00	 6.7765578375e+00	 9.0462048962e-01
 7.1403642765e+00	 6.7938819537e+00	 9.8080120695e-01
 7.1576883926e+00	 6.8112060698e+00	 1.0462126016e+00
 7.1750125087e+00	 6.8285301859e+00	 1.1008546873e+00
 7.1923366249e+00	 6.8458543021e+00	 1.1447274782e+00
 7.2096607410e+00	 6.8631784182e+00	 1.1778309880e+00
 7.2269848572e+00	 6.8805025344e+00	 1.2001652307e+00
 7.2443089733e+00	 6.8978266505e+00	 1.2117302201e+00
 7.0710678119e+00	 6.6185194719e+00	 5.5819159226e-01
 7.0936952289e+00	 6.6411468889e+00	 6.4803208399e-01
 7.1163226459e+00	 6.6637743059e+00	 7.2871076370e-01
 7.1389500629e+00	 6.6864017229e+00	 8.0022766237e-01
 7.1615774799e+00	 6.7090291399e+00	 8.6258281097e-01
 7.1842048969e+00	 6.7316565569e+00	 9.1577624044e-01
 7.2068323139e+00	 6.7542839739e+00	 9.5980798177e-01
 7.2294597309e+00	 6.7769113909e+00	 9.9467806592e-01
 7.2520871479e+00	 6.7995388079e+00	 1.0203865239e+00
 7.2747145649e+00	 6.8221662249e+00	 1.0369333865e+00
 7.2973419819e+00	 6.8447936419e+00	 1.0443186849e+00
 7.0710678119e+00	 6.4983113191e+00	 5.1774894141e-01
 7.0997056365e+00	 6.5269491438e+00	 5.9287562328e-01
 7.1283434612e+00	 6.5555869684e+00	 6.6009518211e-01
 7.1569812858e+00	 6.5842247930e+00	 7.1940768066e-01
 7.1856191105e+00	 6.6128626177e+00	 7.7081318172e-01
 7.2142569351e+00	 6.6415004423e+00	 8.1431174807e-01
 7.2428947597e+00	 6.6701382670e+00	 8.4990344247e-01
 7.2715325844e+00	 6.6987760916e+00	 8.7758832770e-01
 7.3001704090e+00	 6.7274139162e+00	 8.9736646655e-01
 7.3288082336e+00	 6.7560517409e+00	 9.0923792178e-01
 7.3574460583e+00	 6.7846895655e+00	 9.1320275617e-01
 7.0710678119e+00	 6.3639610307e+00	 4.8627495555e-01
 7.1064231510e+00	 6.3993163698e+00	 5.4943641495e-01
 7.1417784900e+00	 6.4346717088e+00	 6.0569815039e-01
 7.1771338291e+00	 6.4700270479e+00	 6.5506027998e-01
 7.2124891681e+00	 6.5053823869e+00	 6.9752292185e-01
 7.2478445072e+00	 6.5407377260e+00	 7.3308619413e-01
 7.2831998463e+00	 6.5760930651e+00	 7.6175021492e-01
 7.3185551853e+00	 6.6114484041e+00	 7.8351510237e-01
 7.3539105244e+00	 6.6468037432e+00	 7.9838097460e-01
 7.3892658634e+00	 6.6821590822e+00	 8.0634794972e-01
 7.4246212025e+00	 6.7175144213e+00	 8.0741614586e-01
 7.0710678119e+00	 6.3639610307e+00	 4.8627495555e-01
 7.1064231510e+00	 6.3993163698e+00	 5.4943641495e-01
 7.1417784900e+00	 6.4346717088e+00	 6.0569815039e-01
 7.1771338291e+00	 6.4700270479e+00	 6.5506027998e-01
 7.2124891681e+00	 6.5053823869e+00	 6.9752292185e-01
 7.2478445072e+00	 6.5407377260e+00	 7.3308619413e-01
 7.2831998463e+00	 6.5760930651e+00	 7.6175021492e-01
 7.3185551853e+00	 6.6114484041e+00	 7.8351510237e-01
 7.3539105244e+00	 6.6468037432e+00	 7.9838097460e-01
 7.3892658634e+00	 6.6821590822e+00	 8.0634794972e-01
 7.4246212025e+00	 6.7175144213e+00	 8.0741614586e-01
 7.0710678119e+00	 6.2154686066e+00	 4.0772256090e-01
 7.1138477722e+00	 6.2582485669e+00	 4.6180016408e-01
 7.1566277324e+00	 6.3010285272e+00	 5.1043305613e-01
 7.1994076927e+00	 6.3438084874e+00	 5.5362144631e-01
 7.2421876530e+00	 6.3865884477e+00	 5.9136554387e-01
 7.2849676132e+00	 6.4293684080e+00	 6.2366555808e-01
 7.3277475735e+00	 6.4721483682e+00	 6.5052169820e-01
 7.3705275337e+00	 6.5149283285e+00	 6.7193417350e-01
 7.4133074940e+00	 6.5577082887e+00	 6.8790319323e-01
 7.4560874543e+00	 6.6004882490e+00	 6.9842896666e-01
 7.4988674145e+00	 6.6432682093e+00	 7.0351170306e-01
 7.0710678119e+00	 6.0528340470e+00	 3.3252549834e-01
 7.1219795001e+00	 6.1037457352e+00	 3.8205867644e-01
 7.1728911884e+00	 6.1546574235e+00	 4.2715010027e-01
 7.2238028766e+00	 6.2055691117e+00	 4.6780012253e-01
 7.2747145649e+00	 6.2564808000e+00	 5.0400909595e-01
 7.3256262531e+00	 6.3073924882e+00	 5.3577737321e-01
 7.3765379414e+00	 6.3583041765e+00	 5.6310530705e-01
 7.4274496296e+00	 6.4092158647e+00	 5.8599325016e-01
 7.4783613179e+00	 6.4601275529e+00	 6.0444155526e-01
 7.5292730061e+00	 6.5110392412e+00	 6.1845057507e-01
 7.5801846944e+00	 6.5619509294e+00	 6.2802066232e-01
 7.0710678119e+00	 5.8760573517e+00	 2.6226969224e-01
 7.1308183349e+00	 5.9358078747e+00	 3.1004627340e-01
 7.1905688579e+00	 5.9955583977e+00	 3.5408213838e-01
 7.2503193809e+00	 6.0553089207e+00	 3.9437785732e-01
 7.3100699039e+00	 6.1150594437e+00	 4.3093400037e-01
 7.3698204270e+00	 6.1748099667e+00	 4.6375113766e-01
 7.4295709500e+00	 6.2345604897e+00	 4.9282983935e-01
 7.4893214730e+00	 6.2943110128e+00	 5.1817067559e-01
 7.5490719960e+00	 6.3540615358e+00	 5.3977421653e-01
 7.6088225190e+00	 6.4138120588e+00	 5.5764103235e-01
 7.6685730420e+00	 6.4735625818e+00	 5.7177169321e-01
 7.0710678119e+00	 5.6851385207e+00	 1.9751353949e-01
 7.1403642765e+00	 5.7544349853e+00	 2.4524883759e-01
 7.2096607410e+00	 5.8237314499e+00	 2.8973785565e-01
 7.2789572056e+00	 5.8930279144e+00	 3.3098148306e-01
 7.3482536701e+00	 5.9623243790e+00	 3.6898060918e-01
 7.4175501347e+00	 6.0316208435e+00	 4.0373612341e-01
 7.4868465992e+00	 6.1009173081e+00	 4.3524891514e-01
 7.5561430638e+00	 6.1702137727e+00	 4.6351987376e-01
 7.6254395284e+00	 6.2395102372e+00	 4.8854988870e-01
 7.6947359929e+00	 6.3088067018e+00	 5.1033984936e-01
 7.7640324575e+00	 6.3781031663e+00	 5.2889064518e-01
 7.0710678119e+00	 5.4800775542e+00	 1.3831572609e-01
 7.1506173248e+00	 5.5596270671e+00	 1.8704888562e-01
 7.2301668377e+00	 5.6391765800e+00	 2.3288609188e-01
 7.3097163506e+00	 5.7187260929e+00	 2.7582869031e-01
 7.3892658634e+00	 5.7982756057e+00	 3.1587802632e-01
 7.4688153763e+00	 5.8778251186e+00	 3.5303544538e-01
 7.5483648892e+00	 5.9573746315e+00	 3.8730229293e-01
 7.6279144021e+00	 6.0369241444e+00	 4.1867991445e-01
 7.7074639150e+00	 6.1164736573e+00	 4.4716965543e-01
 7.7870134278e+00	 6.1960231702e+00	 4.7277286135e-01
 7.8665629407e+00	 6.2755726831e+00	 4.9549087774e-01
 7.0710678119e+00	 5.2608744520e+00	 8.4500429396e-02
 7.1615774799e+00	 5.3513841200e+00	 1.3483381898e-01
 7.2520871479e+00	 5.4418937880e+00	 1.8251957433e-01
 7.3425968159e+00	 5.5324034560e+00	 2.2755967709e-01
 7.4331064839e+00	 5.6229131240e+00	 2.6995610892e-01
 7.5236161519e+00	 5.7134227920e+00	 3.0971085151e-01
 7.6141258198e+00	 5.8039324600e+00	 3.4682588655e-01
 7.7046354878e+00	 5.8944421280e+00	 3.8130319579e-01
 7.7951451558e+00	 5.9849517960e+00	 4.1314476097e-01
 7.8856548238e+00	 6.0754614640e+00	 4.4235256387e-01
 7.9761644918e+00	 6.1659711320e+00	 4.6892858627e-01
 7.0710678119e+00	 5.0275292142e+00	 3.5793108851e-02
 7.1732447418e+00	 5.1297061441e+00	 8.8041099493e-02
 7.2754216717e+00	 5.2318830740e+00	 1.3781679405e-01
 7.3775986015e+00	 5.3340600039e+00	 1.8512304351e-01
 7.4797755314e+00	 5.4362369338e+00	 2.2996269886e-01
 7.5819524613e+00	 5.5384138636e+00	 2.7233861115e-01
 7.6841293912e+00	 5.6405907935e+00	 3.1225363147e-01
 7.7863063211e+00	 5.7427677234e+00	 3.4971061093e-01
 7.8884832509e+00	 5.8449446533e+00	 3.8471240068e-01
 7.9906601808e+00	 5.9471215832e+00	 4.1726185191e-01
 8.0928371107e+00	 6.0492985131e+00	 4.4736181584e-01
 7.0710678119e+00	 4.7800418408e+00	-8.1096354213e-03
 7.1856191105e+00	 4.8945931394e+00	 4.6174012449e-02
 7.3001704090e+00	 5.0091444379e+00	 9.8108129123e-02
 7.4147217076e+00	 5.1236957365e+00	 1.4769673185e-01
 7.5292730061e+00	 5.2382470350e+00	 1.9494383792e-01
 7.6438243047e+00	 5.3527983336e+00	 2.3985346472e-01
 7.7583756032e+00	 5.4673496321e+00	 2.8242962965e-01
 7.8729269017e+00	 5.5819009307e+00	 3.2267635019e-01
 7.9874782003e+00	 5.6964522292e+00	 3.6059764388e-01
 8.1020294988e+00	 5.8110035278e+00	 3.9619752831e-01
 8.2165807974e+00	 5.9255548264e+00	 4.2948002113e-01
 7.0710678119e+00	 4.5184123318e+00	-4.7504631512e-02
 7.1987005859e+00	 4.6460451058e+00	 8.8038632030e-03
 7.3263333599e+00	 4.7736778798e+00	 6.2847601514e-02
 7.4539661339e+00	 4.9013106538e+00	 1.1463214002e-01
 7.5815989079e+00	 5.0289434278e+00	 1.6416303541e-01
 7.7092316819e+00	 5.1565762018e+00	 2.1144584445e-01
 7.8368644559e+00	 5.2842089758e+00	 2.5648612401e-01
 7.9644972299e+00	 5.4118417498e+00	 2.9928943105e-01
 8.0921300039e+00	 5.5394745238e+00	 3.3986132260e-01
 8.2197627779e+00	 5.6671072978e+00	 3.7820735579e-01
 8.3473955519e+00	 5.7947400718e+00	 4.1433308784e-01
 7.0710678119e+00	 4.2426406871e+00	-8.2664970507e-02
 7.2124891681e+00	 4.3840620433e+00	-2.4433788979e-02
 7.3539105244e+00	 4.5254833996e+00	 3.1589978174e-02
 7.4953318806e+00	 4.6669047558e+00	 8.5413889892e-02
 7.6367532368e+00	 4.8083261121e+00	 1.3704550525e-01
 7.7781745931e+00	 4.9497474683e+00	 1.8649238345e-01
 7.9195959493e+00	 5.0911688245e+00	 2.3376208385e-01
 8.0610173055e+00	 5.2325901808e+00	 2.7886216590e-01
 8.2024386618e+00	 5.3740115370e+00	 3.2180018923e-01
 8.3438600180e+00	 5.5154328933e+00	 3.6258371356e-01
 8.4852813742e+00	 5.6568542495e+00	 4.0122029878e-01
 7.0710678119e+00	 7.0710678119e+00	-5.9043875305e-02
 7.0710678119e+00	 7.0710678119e+00	-5.9043875305e-02
 7.0710678119e+00	 7.0710678119e+00	-5.9043875305e-02
 7.0710678119e+00	 7.0710678119e+00	-5.9043875305e-02
 7.0710678119e+00	 7.0710678119e+00	-5.9043875305e-02
 7.0710678119e+00	 7.0710678119e+00	-5.9043875305e-02
 7.0710678119e+00	 7.0710678119e+00	-5.9043875305e-02
 7.0710678119e+00	 7.0710678119e+00	-5.9043875305e-02
 7.0710678119e+00	 7.0710678119e+00	-5.9043875305e-02
 7.0710678119e+00	 7.0710678119e+00	-5.9043875305e-02
 7.0710678119e+00	 7.0710678119e+00	-5.9043875305e-02
 7.0746033458e+00	 7.0675322780e+00	 1.2139765092e+01
 7.0749568992e+00	 7.0678858314e+00	 1.3136363913e+01
 7.0753104526e+00	 7.0682393848e+00	 1.3867744356e+01
 7.0756640060e+00	 7.0685929382e+00	 1.4333906422e+01
 7.0760175594e+00	 7.0689464916e+00	 1.4534850112e+01
 7.0763711128e+00	 7.0693000449e+00	 1.4470575424e+01
 7.0767246661e+00	 7.0696535983e+00	 1.4141082359e+01
 7.0770782195e+00	 7.0700071517e+00	 1.3546370918e+01
 7.0774317729e+00	 7.0703607051e+00	 1.2686441099e+01
 7.0777853263e+00	 7.0707142585e+00	 1.1561292904e+01
 7.0781388797e+00	 7.0710678119e+00	 1.0170926332e+01
 7.0852099475e+00	 7.0569256763e+00	 6.1192521865e+00
 7.0866241611e+00	 7.0583398898e+00	 6.5827204921e+00
 7.0880383746e+00	 7.0597541034e+00	 6.9183188506e+00
 7.0894525882e+00	 7.0611683170e+00	 7.1260472621e+00
 7.0908668018e+00	 7.0625825305e+00	 7.2059057264e+00
 7.0922810153e+00	 7.0639967441e+00	 7.1578942436e+00
 7.0936952289e+00	 7.0654109577e+00	 6.9820128138e+00
 7.0951094425e+00	 7.0668251712e+00	 6.6782614370e+00
 7.0965236560e+00	 7.0682393848e+00	 6.2466401131e+00
 7.0979378696e+00	 7.0696535983e+00	 5.6871488421e+00
 7.0993520831e+00	 7.0710678119e+00	 4.9997876241e+00
 7.1028876171e+00	 7.0392480067e+00	 4.0445692076e+00
 7.1060695976e+00	 7.0424299873e+00	 4.3532209657e+00
 7.1092515781e+00	 7.0456119678e+00	 4.5773739684e+00
 7.1124335586e+00	 7.0487939483e+00	 4.7170282159e+00
 7.1156155391e+00	 7.0519759288e+00	 4.7721837083e+00
 7.1187975196e+00	 7.0551579093e+00	 4.7428404456e+00
 7.1219795001e+00	 7.0583398898e+00	 4.6289984279e+00
 7.1251614807e+00	 7.0615218704e+00	 4.4306576554e+00
 7.1283434612e+00	 7.0647038509e+00	 4.1478181281e+00
 7.1315254417e+00	 7.0678858314e+00	 3.7804798460e+00
 7.1347074222e+00	 7.0710678119e+00	 3.3286428094e+00
 7.1276363544e+00	 7.0144992694e+00	 2.9938871357e+00
 7.1332932086e+00	 7.0201561237e+00	 3.2293354923e+00
 7.1389500629e+00	 7.0258129779e+00	 3.4015186891e+00
 7.1446069171e+00	 7.0314698322e+00	 3.5104367266e+00
 7.1502637714e+00	 7.0371266864e+00	 3.5560896052e+00
 7.1559206256e+00	 7.0427835407e+00	 3.5384773255e+00
 7.1615774799e+00	 7.0484403949e+00	 3.4575998878e+00
 7.1672343341e+00	 7.0540972492e+00	 3.3134572928e+00
 7.1728911884e+00	 7.0597541034e+00	 3.1060495408e+00
 7.1785480426e+00	 7.0654109577e+00	 2.8353766323e+00
 7.1842048969e+00	 7.0710678119e+00	 2.5014385679e+00
 7.1594561595e+00	 6.9826794642e+00	 2.3586562549e+00
 7.1682949943e+00	 6.9915182990e+00	 2.5514488980e+00
 7.1771338291e+00	 7.0003571338e+00	 2.6935721964e+00
 7.1859726638e+00	 7.0091959685e+00	 2.7850261519e+00
 7.1948114986e+00	 7.0180348033e+00	 2.8258107664e+00
 7.2036503334e+00	 7.0268736381e+00	 2.8159260418e+00
 7.2124891681e+00	 7.0357124728e+00	 2.7553719799e+00
 7.2213280029e+00	 7.0445513076e+00	 2.6441485825e+00
 7.2301668377e+00	 7.0533901424e+00	 2.4822558515e+00
 7.2390056724e+00	 7.0622289771e+00	 2.2696937888e+00
 7.2478445072e+00	 7.0710678119e+00	 2.0064623961e+00
 7.1983470325e+00	 6.9437885913e+00	 1.9326694281e+00
 7.2110749546e+00	 6.9565165133e+00	 2.0974810180e+00
 7.2238028766e+00	 6.9692444354e+00	 2.2199607638e+00
 7.2365307987e+00	 6.9819723575e+00	 2.3001086713e+00
 7.2492587208e+00	 6.9947002795e+00	 2.3379247458e+00
 7.2619866428e+00	 7.0074282016e+00	 2.3334089930e+00
 7.2747145649e+00	 7.0201561237e+00	 2.2865614182e+00
 7.2874424869e+00	 7.0328840457e+00	 2.1973820271e+00
 7.3001704090e+00	 7.0456119678e+00	 2.0658708251e+00
 7.3128983311e+00	 7.0583398898e+00	 1.8920278177e+00
 7.3256262531e+00	 7.0710678119e+00	 1.6758530105e+00
 7.2443089733e+00	 6.8978266505e+00	 1.6267314513e+00
 7.2616330894e+00	 6.9151507666e+00	 1.7717148037e+00
 7.2789572056e+00	 6.9324748828e+00	 1.8802930045e+00
 7.2962813217e+00	 6.9497989989e+00	 1.9524660674e+00
 7.3136054378e+00	 6.9671231151e+00	 1.9882340064e+00
 7.3309295540e+00	 6.9844472312e+00	 1.9875968355e+00
 7.3482536701e+00	 7.0017713473e+00	 1.9505545684e+00
 7.3655777862e+00	 7.0190954635e+00	 1.8771072190e+00
 7.3829019024e+00	 7.0364195796e+00	 1.7672548014e+00
 7.4002260185e+00	 7.0537436958e+00	 1.6209973293e+00
 7.4175501347e+00	 7.0710678119e+00	 1.4383348167e+00
 7.2973419819e+00	 6.8447936419e+00	 1.3959766870e+00
 7.3199693989e+00	 6.8674210589e+00	 1.5261154239e+00
 7.3425968159e+00	 6.8900484759e+00	 1.6242790882e+00
 7.3652242329e+00	 6.9126758929e+00	 1.6904677110e+00
 7.3878516499e+00	 6.9353033099e+00	 1.7246813233e+00
 7.4104790669e+00	 6.9579307269e+00	 1.7269199559e+00
 7.4331064838e+00	 6.9805581439e+00	 1.6971836398e+00
 7.4557339008e+00	 7.0031855609e+00	 1.6354724061e+00
 7.4783613178e+00	 7.0258129779e+00	 1.5417862857e+00
 7.5009887348e+00	 7.0484403949e+00	 1.4161253096e+00
 7.5236161518e+00	 7.0710678119e+00	 1.2584895086e+00
 7.3574460583e+00	 6.7846895655e+00	 1.2153749505e+00
 7.3860838829e+00	 6.8133273902e+00	 1.3339278497e+00
 7.4147217075e+00	 6.8419652148e+00	 1.4239433422e+00
 7.4433595322e+00	 6.8706030394e+00	 1.4854214910e+00
 7.4719973568e+00	 6.8992408641e+00	 1.5183623586e+00
 7.5006351814e+00	 6.9278786887e+00	 1.5227660080e+00
 7.5292730061e+00	 6.9565165133e+00	 1.4986325019e+00
 7.5579108307e+00	 6.9851543380e+00	 1.4459619031e+00
 7.5865486554e+00	 7.0137921626e+00	 1.3647542744e+00
 7.6151864800e+00	 7.0424299873e+00	 1.2550096785e+00
 7.6438243046e+00	 7.0710678119e+00	 1.1167281782e+00
 7.4246212025e+00	 6.7175144213e+00	 1.0698618173e+00
 7.4599765416e+00	 6.7528697604e+00	 1.1790684654e+00
 7.4953318806e+00	 6.7882250994e+00	 1.2624839071e+00
 7.5306872197e+00	 6.8235804385e+00	 1.3201082605e+00
 7.5660425587e+00	 6.8589357775e+00	 1.3519416438e+00
 7.6013978978e+00	 6.8942911166e+00	 1.3579841750e+00
 7.6367532368e+00	 6.9296464557e+00	 1.3382359723e+00
 7.6721085759e+00	 6.9650017947e+00	 1.2926971539e+00
 7.7074639149e+00	 7.0003571338e+00	 1.2213678378e+00
 7.7428192540e+00	 7.0357124728e+00	 1.1242481423e+00
 7.7781745931e+00	 7.0710678119e+00	 1.0013381853e+00
 7.4246212025e+00	 6.7175144213e+00	 1.0698618173e+00
 7.4599765416e+00	 6.7528697604e+00	 1.1790684654e+00
 7.4953318806e+00	 6.7882250994e+00	 1.2624839071e+00
 7.5306872197e+00	 6.8235804385e+00	 1.3201082605e+00
 7.5660425587e+00	 6.8589357775e+00	 1.3519416438e+00
 7.6013978978e+00	 6.8942911166e+00	 1.3579841750e+00
 7.6367532368e+00	 6.9296464557e+00	 1.3382359723e+00
 7.6721085759e+00	 6.9650017947e+00	 1.2926971539e+00
 7.7074639149e+00	 7.0003571338e+00	 1.2213678378e+00
 7.7428192540e+00	 7.0357124728e+00	 1.1242481423e+00
 7.7781745931e+00	 7.0710678119e+00	 1.0013381853e+00
 7.4988674145e+00	 6.6432682093e+00	 9.3375319838e-01
 7.5416473748e+00	 6.6860481695e+00	 1.0384057017e+00
 7.5844273350e+00	 6.7288281298e+00	 1.1191572337e+00
 7.6272072953e+00	 6.7716080901e+00	 1.1760080038e+00
 7.6699872555e+00	 6.8143880503e+00	 1.2089582212e+00
 7.7127672158e+00	 6.8571680106e+00	 1.2180080951e+00
 7.7555471761e+00	 6.8999479708e+00	 1.2031578349e+00
 7.7983271363e+00	 6.9427279311e+00	 1.1644076498e+00
 7.8411070966e+00	 6.9855078914e+00	 1.1017577490e+00
 7.8838870568e+00	 7.0282878516e+00	 1.0152083419e+00
 7.9266670171e+00	 7.0710678119e+00	 9.0475963781e-01
 7.5801846944e+00	 6.5619509294e+00	 8.3195927118e-01
 7.6310963826e+00	 6.6128626177e+00	 9.3011414132e-01
 7.6820080708e+00	 6.6637743059e+00	 1.0060644024e+00
 7.7329197591e+00	 6.7146859942e+00	 1.0598104073e+00
 7.7838314473e+00	 6.7655976824e+00	 1.0913525086e+00
 7.8347431355e+00	 6.8165093707e+00	 1.1006910591e+00
 7.8856548238e+00	 6.8674210589e+00	 1.0878264115e+00
 7.9365665120e+00	 6.9183327472e+00	 1.0527589185e+00
 7.9874782003e+00	 6.9692444354e+00	 9.9548893294e-01
 8.0383898885e+00	 7.0201561237e+00	 9.1601680750e-01
 8.0893015768e+00	 7.0710678119e+00	 8.1434289494e-01
 7.6685730420e+00	 6.4735625818e+00	 7.5383313331e-01
 7.7283235650e+00	 6.5333131048e+00	 8.4452544084e-01
 7.7880740880e+00	 6.5930636278e+00	 9.1453621722e-01
 7.8478246110e+00	 6.6528141508e+00	 9.6386603264e-01
 7.9075751340e+00	 6.7125646738e+00	 9.9251545729e-01
 7.9673256570e+00	 6.7723151968e+00	 1.0004850613e+00
 8.0270761800e+00	 6.8320657199e+00	 9.8777541500e-01
 8.0868267030e+00	 6.8918162429e+00	 9.5438708846e-01
 8.1465772260e+00	 6.9515667659e+00	 9.0032065193e-01
 8.2063277490e+00	 7.0113172889e+00	 8.2557667560e-01
 8.2660782721e+00	 7.0710678119e+00	 7.3015572969e-01
 7.7640324575e+00	 6.3781031663e+00	 6.9247682904e-01
 7.8333289220e+00	 6.4473996309e+00	 7.7529510251e-01
 7.9026253866e+00	 6.5166960954e+00	 8.3880319619e-01
 7.9719218511e+00	 6.5859925600e+00	 8.8300199953e-01
 8.0412183156e+00	 6.6552890246e+00	 9.0789240198e-01
 8.1105147802e+00	 6.7245854891e+00	 9.1347529301e-01
 8.1798112448e+00	 6.7938819537e+00	 8.9975156209e-01
 8.2491077093e+00	 6.8631784182e+00	 8.6672209869e-01
 8.3184041739e+00	 6.9324748828e+00	 8.1438779231e-01
 8.3877006384e+00	 7.0017713473e+00	 7.4274953244e-01
 8.4569971030e+00	 7.0710678119e+00	 6.5180820858e-01
 7.8665629407e+00	 6.2755726831e+00	 6.4327170287e-01
 7.9461124536e+00	 6.3551221959e+00	 7.1811943388e-01
 8.0256619665e+00	 6.4346717088e+00	 7.7489676475e-01
 8.1052114793e+00	 6.5142212217e+00	 8.1360504104e-01
 8.1847609922e+00	 6.5937707346e+00	 8.3424560830e-01
 8.2643105051e+00	 6.6733202475e+00	 8.3681981212e-01
 8.3438600180e+00	 6.7528697604e+00	 8.2132899809e-01
 8.4234095309e+00	 6.8324192732e+00	 7.8777451182e-01
 8.5029590437e+00	 6.9119687861e+00	 7.3615769893e-01
 8.5825085566e+00	 6.9915182990e+00	 6.6647990504e-01
 8.6620580695e+00	 7.0710678119e+00	 5.7874247581e-01
 7.9761644918e+00	 6.1659711320e+00	 6.0303704029e-01
 8.0666741598e+00	 6.2564808000e+00	 6.6999498819e-01
 8.1571838278e+00	 6.3469904680e+00	 7.2000874365e-01
 8.2476934958e+00	 6.4375001359e+00	 7.5308028853e-01
 8.3382031637e+00	 6.5280098039e+00	 7.6921160471e-01
 8.4287128317e+00	 6.6185194719e+00	 7.6840467412e-01
 8.5192224997e+00	 6.7090291399e+00	 7.5066147867e-01
 8.6097321677e+00	 6.7995388079e+00	 7.1598400033e-01
 8.7002418357e+00	 6.8900484759e+00	 6.6437422106e-01
 8.7907515037e+00	 6.9805581439e+00	 5.9583412288e-01
 8.8812611717e+00	 7.0710678119e+00	 5.1761753565e-01
 8.0928371107e+00	 6.0492985131e+00	 5.6952834789e-01
 8.1950140406e+00	 6.1514754429e+00	 6.2877330099e-01
 8.2971909704e+00	 6.2536523728e+00	 6.7210246095e-01
 8.3993679003e+00	 6.3558293027e+00	 6.9951867909e-01
 8.5015448302e+00	 6.4580062326e+00	 7.1102480680e-01
 8.6037217601e+00	 6.5601831625e+00	 7.0662369548e-01
 8.7058986899e+00	 6.6623600924e+00	 6.8631819657e-01
 8.8080756198e+00	 6.7645370222e+00	 6.5011116156e-01
 8.9102525497e+00	 6.8667139521e+00	 6.0894381153e-01
 9.0124294796e+00	 6.9688908820e+00	 5.5379640828e-01
 9.1146064095e+00	 7.0710678119e+00	 4.8266579593e-01
 8.2165807974e+00	 5.9255548264e+00	 5.4112747870e-01
 8.3311320959e+00	 6.0401061249e+00	 5.9288359014e-01
 8.4456833945e+00	 6.1546574235e+00	 6.2966820749e-01
 8.5602346930e+00	 6.2692087220e+00	 6.5148534855e-01
 8.6747859916e+00	 6.3837600206e+00	 6.5833903121e-01
 8.7893372901e+00	 6.4983113191e+00	 6.5023327341e-01
 8.9038885887e+00	 6.6128626177e+00	 6.3733249501e-01
 9.0184398872e+00	 6.7274139162e+00	 6.1378698173e-01
 9.1329911858e+00	 6.8419652148e+00	 5.7520319017e-01
 9.2475424843e+00	 6.9565165133e+00	 5.2156481489e-01
 9.3620937829e+00	 7.0710678119e+00	 4.5285555045e-01
 8.3473955519e+00	 5.7947400718e+00	 5.1664530308e-01
 8.4750283259e+00	 5.9223728458e+00	 5.6115468211e-01
 8.6026610999e+00	 6.0500056198e+00	 5.9156468368e-01
 8.7302938739e+00	 6.1776383939e+00	 6.0788086528e-01
 8.8579266479e+00	 6.3052711679e+00	 6.1444716351e-01
 8.9855594219e+00	 6.4329039419e+00	 6.1877417254e-01
 9.1131921959e+00	 6.5605367159e+00	 6.0894938522e-01
 9.2408249699e+00	 6.6881694899e+00	 5.8495024797e-01
 9.3684577439e+00	 6.8158022639e+00	 5.4675420718e-01
 9.4960905179e+00	 6.9434350379e+00	 4.9433870918e-01
 9.6237232919e+00	 7.0710678119e+00	 4.2768120028e-01
 8.4852813742e+00	 5.6568542495e+00	 4.9519261905e-01
 8.6267027304e+00	 5.7982756057e+00	 5.3269752564e-01
 8.7681240867e+00	 5.9396969620e+00	 5.5691339023e-01
 8.9095454429e+00	 6.0811183182e+00	 5.7873435850e-01
 9.0509667992e+00	 6.2225396745e+00	 5.9431696213e-01
 9.1923881554e+00	 6.3639610307e+00	 5.9656391411e-01
 9.3338095116e+00	 6.5053823869e+00	 5.8544453335e-01
 9.4752308679e+00	 6.6468037432e+00	 5.6092813868e-01
 9.6166522241e+00	 6.7882250994e+00	 5.2298404885e-01
 9.7580735804e+00	 6.9296464557e+00	 4.7158158258e-01
 9.8994949366e+00	 7.0710678119e+00	 4.0669005849e-01
 7.0710678119e+00	 7.0710678119e+00	-5.9043875305e-02
 7.0710678119e+00	 7.0710678119e+00	-5.9043875305e-02
 7.0710678119e+00	 7.0710678119e+00	-5.9043875305e-02
 7.0710678119e+00	 7.0710678119e+00	-5.9043875305e-02
 7.0710678119e+00	 7.0710678119e+00	-5.9043875305e-02
 7.0710678119e+00	 7.0710678119e+00	-5.9043875305e-02
 7.0710678119e+00	 7.0710678119e+00	-5.9043875305e-02
 7.0710678119e+00	 7.0710678119e+00	-5.9043875305e-02
 7.0710678119e+00	 7.0710678119e+00	-5.9043875305e-02
 7.0710678119e+00	 7.0710678119e+00	-5.9043875305e-02
 7.0710678119e+00	 7.0710678119e+00	-5.9043875305e-02
 7.0781388797e+00	 7.0710678119e+00	 9.9590562636e+00
 7.0777853263e+00	 7.0714213653e+00	 1.0622335838e+01
 7.0774317729e+00	 7.0717749187e+00	 1.0889123011e+01
 7.0770782195e+00	 7.0721284721e+00	 1.0759417782e+01
 7.0767246661e+00	 7.0724820255e+00	 1.0233220152e+01
 7.0763711128e+00	 7.0728355789e+00	 9.3105301191e+00
 7.0760175594e+00	 7.0731891322e+00	 7.9913476849e+00
 7.0756640060e+00	 7.0735426856e+00	 6.2756728488e+00
 7.0753104526e+00	 7.0738962390e+00	 4.1635056110e+00
 7.0749568992e+00	 7.0742497924e+00	 1.6548459713e+00
 7.0746033458e+00	 7.0746033458e+00	-1.2503060702e+00
 7.0993520831e+00	 7.0710678119e+00	 4.9075798302e+00
 7.0979378696e+00	 7.0724820255e+00	 5.2535442841e+00
 7.0965236560e+00	 7.0738962390e+00	 5.4001351598e+00
 7.0951094425e+00	 7.0753104526e+00	 5.3473524573e+00
 7.0936952289e+00	 7.0767246661e+00	 5.0951961766e+00
 7.0922810153e+00	 7.0781388797e+00	 4.6436663178e+00
 7.0908668018e+00	 7.0795530933e+00	 3.9927628808e+00
 7.0894525882e+00	 7.0809673068e+00	 3.1424858657e+00
 7.0880383746e+00	 7.0823815204e+00	 2.0928352724e+00
 7.0866241611e+00	 7.0837957340e+00	 8.4381110091e-01
 7.0852099475e+00	 7.0852099475e+00	-6.0458664873e-01
 7.1347074222e+00	 7.0710678119e+00	 3.2641423122e+00
 7.1315254417e+00	 7.0742497924e+00	 3.4944157425e+00
 7.1283434612e+00	 7.0774317729e+00	 3.5919493409e+00
 7.1251614807e+00	 7.0806137534e+00	 3.5567431074e+00
 7.1219795001e+00	 7.0837957340e+00	 3.3887970422e+00
 7.1187975196e+00	 7.0869777145e+00	 3.0881111452e+00
 7.1156155391e+00	 7.0901596950e+00	 2.6546854166e+00
 7.1124335586e+00	 7.0933416755e+00	 2.0885198565e+00
 7.1092515781e+00	 7.0965236560e+00	 1.3896144649e+00
 7.1060695976e+00	 7.0997056365e+00	 5.5796924188e-01
 7.1028876171e+00	 7.1028876171e+00	-4.0641581245e-01
 7.1842048969e+00	 7.0710678119e+00	 2.4485079452e+00
 7.1785480426e+00	 7.0767246661e+00	 2.6191386051e+00
 7.1728911884e+00	 7.0823815204e+00	 2.6905202709e+00
 7.1672343341e+00	 7.0880383746e+00	 2.6626529430e+00
 7.1615774799e+00	 7.0936952289e+00	 2.5355366219e+00
 7.1559206256e+00	 7.0993520831e+00	 2.3091713079e+00
 7.1502637714e+00	 7.1050089374e+00	 1.9835570016e+00
 7.1446069171e+00	 7.1106657916e+00	 1.5586937034e+00
 7.1389500629e+00	 7.1163226459e+00	 1.0345814137e+00
 7.1332932086e+00	 7.1219795001e+00	 4.1122013301e-01
 7.1276363544e+00	 7.1276363544e+00	-3.1139013822e-01
 7.2478445072e+00	 7.0710678119e+00	 1.9597428903e+00
 7.2390056724e+00	 7.0799066467e+00	 2.0940691392e+00
 7.2301668377e+00	 7.0887454814e+00	 2.1492966663e+00
 7.2213280029e+00	 7.0975843162e+00	 2.1254254733e+00
 7.2124891681e+00	 7.1064231510e+00	 2.0224555618e+00
 7.2036503334e+00	 7.1152619857e+00	 1.8403869336e+00
 7.1948114986e+00	 7.1241008205e+00	 1.5792195904e+00
 7.1859726638e+00	 7.1329396553e+00	 1.2389535339e+00
 7.1771338291e+00	 7.1417784900e+00	 8.1958876595e-01
 7.1682949943e+00	 7.1506173248e+00	 3.2112528816e-01
 7.1594561595e+00	 7.1594561595e+00	-2.5643689773e-01
 7.3256262531e+00	 7.0710678119e+00	 1.6329697461e+00
 7.3128983311e+00	 7.0837957340e+00	 1.7429275999e+00
 7.3001704090e+00	 7.0965236560e+00	 1.7872436197e+00
 7.2874424869e+00	 7.1092515781e+00	 1.7659178107e+00
 7.2747145649e+00	 7.1219795001e+00	 1.6789501780e+00
 7.2619866428e+00	 7.1347074222e+00	 1.5263407268e+00
 7.2492587208e+00	 7.1474353443e+00	 1.3080894623e+00
 7.2365307987e+00	 7.1601632663e+00	 1.0241963896e+00
 7.2238028766e+00	 7.1728911884e+00	 6.7466151378e-01
 7.2110749546e+00	 7.1856191105e+00	 2.5948484011e-01
 7.1983470325e+00	 7.1983470325e+00	-2.2133362631e-01
 7.4175501347e+00	 7.0710678119e+00	 1.3980425804e+00
 7.4002260185e+00	 7.0883919280e+00	 1.4905593641e+00
 7.3829019024e+00	 7.1057160442e+00	 1.5270579884e+00
 7.3655777862e+00	 7.1230401603e+00	 1.5075384662e+00
 7.3482536701e+00	 7.1403642765e+00	 1.4320008106e+00
 7.3309295540e+00	 7.1576883926e+00	 1.3004450345e+00
 7.3136054378e+00	 7.1750125087e+00	 1.1128711510e+00
 7.2962813217e+00	 7.1923366249e+00	 8.6927917293e-01
 7.2789572056e+00	 7.2096607410e+00	 5.6966911344e-01
 7.2616330894e+00	 7.2269848572e+00	 2.1404098547e-01
 7.2443089733e+00	 7.2443089733e+00	-1.9760519799e-01
 7.5236161518e+00	 7.0710678119e+00	 1.2200589800e+00
 7.5009887348e+00	 7.0936952289e+00	 1.2995179191e+00
 7.4783613178e+00	 7.1163226459e+00	 1.3301829857e+00
 7.4557339008e+00	 7.1389500629e+00	 1.3120542089e+00
 7.4331064838e+00	 7.1615774799e+00	 1.2451316176e+00
 7.4104790669e+00	 7.1842048969e+00	 1.1294152408e+00
 7.3878516499e+00	 7.2068323139e+00	 9.6490510738e-01
 7.3652242329e+00	 7.2294597309e+00	 7.5160124638e-01
 7.3425968159e+00	 7.2520871479e+00	 4.8950368673e-01
 7.3199693989e+00	 7.2747145649e+00	 1.7861245738e-01
 7.2973419819e+00	 7.2973419819e+00	-1.8107241271e-01
 7.6438243046e+00	 7.0710678119e+00	 1.0796973106e+00
 7.6151864800e+00	 7.0997056365e+00	 1.1490528304e+00
 7.5865486554e+00	 7.1283434612e+00	 1.1752374224e+00
 7.5579108307e+00	 7.1569812858e+00	 1.1582511452e+00
 7.5292730061e+00	 7.1856191105e+00	 1.0980940575e+00
 7.5006351814e+00	 7.2142569351e+00	 9.9476621800e-01
 7.4719973568e+00	 7.2428947597e+00	 8.4826768548e-01
 7.4433595322e+00	 7.2715325844e+00	 6.5859851860e-01
 7.4147217075e+00	 7.3001704090e+00	 4.2575877607e-01
 7.3860838829e+00	 7.3288082336e+00	 1.4974851659e-01
 7.3574460583e+00	 7.3574460583e+00	-1.6943220112e-01
 7.7781745931e+00	 7.0710678119e+00	 9.6539659618e-01
 7.7428192540e+00	 7.1064231510e+00	 1.0267392311e+00
 7.7074639149e+00	 7.1417784900e+00	 1.0494120185e+00
 7.6721085759e+00	 7.1771338291e+00	 1.0334150689e+00
 7.6367532368e+00	 7.2124891681e+00	 9.7874849263e-01
 7.6013978978e+00	 7.2478445072e+00	 8.8541240025e-01
 7.5660425587e+00	 7.2831998463e+00	 7.5340690221e-01
 7.5306872197e+00	 7.3185551853e+00	 5.8273210896e-01
 7.4953318806e+00	 7.3539105244e+00	 3.7338813098e-01
 7.4599765416e+00	 7.3892658634e+00	 1.2537507873e-01
 7.4246212025e+00	 7.4246212025e+00	-1.6130693732e-01
 7.7781745931e+00	 7.0710678119e+00	 9.6539659618e-01
 7.7428192540e+00	 7.1064231510e+00	 1.0267392311e+00
 7.7074639149e+00	 7.1417784900e+00	 1.0494120185e+00
 7.6721085759e+00	 7.1771338291e+00	 1.0334150689e+00
 7.6367532368e+00	 7.2124891681e+00	 9.7874849263e-01
 7.6013978978e+00	 7.2478445072e+00	 8.8541240025e-01
 7.5660425587e+00	 7.2831998463e+00	 7.5340690221e-01
 7.5306872197e+00	 7.3185551853e+00	 5.8273210896e-01
 7.4953318806e+00	 7.3539105244e+00	 3.7338813098e-01
 7.4599765416e+00	 7.3892658634e+00	 1.2537507873e-01
 7.4246212025e+00	 7.4246212025e+00	-1.6130693732e-01
 7.9266670171e+00	 7.0710678119e+00	 8.4888274983e-01
 7.8838870568e+00	 7.1138477722e+00	 9.0740325320e-01
 7.8411070966e+00	 7.1566277324e+00	 9.3089693559e-01
 7.7983271363e+00	 7.1994076927e+00	 9.1936399272e-01
 7.7555471761e+00	 7.2421876530e+00	 8.7280462027e-01
 7.7127672158e+00	 7.2849676132e+00	 7.9121901394e-01
 7.6699872555e+00	 7.3277475735e+00	 6.7460736942e-01
 7.6272072953e+00	 7.3705275337e+00	 5.2296988241e-01
 7.5844273350e+00	 7.4133074940e+00	 3.3630674861e-01
 7.5416473748e+00	 7.4560874543e+00	 1.1461816371e-01
 7.4988674145e+00	 7.4988674145e+00	-1.4209567658e-01
 8.0893015768e+00	 7.0710678119e+00	 7.5352017935e-01
 8.0383898885e+00	 7.1219795001e+00	 8.0956071792e-01
 7.9874782003e+00	 7.1728911884e+00	 8.3362582988e-01
 7.9365665120e+00	 7.2238028766e+00	 8.2571584507e-01
 7.8856548238e+00	 7.2747145649e+00	 7.8583109333e-01
 7.8347431355e+00	 7.3256262531e+00	 7.1397190451e-01
 7.7838314473e+00	 7.3765379414e+00	 6.1013860845e-01
 7.7329197591e+00	 7.4274496296e+00	 4.7433153500e-01
 7.6820080708e+00	 7.4783613179e+00	 3.0655101400e-01
 7.6310963826e+00	 7.5292730061e+00	 1.0679737532e-01
 7.5801846944e+00	 7.5801846944e+00	-1.2492905119e-01
 8.2660782721e+00	 7.0710678119e+00	 6.7343228762e-01
 8.2063277490e+00	 7.1308183349e+00	 7.2731580409e-01
 8.1465772260e+00	 7.1905688579e+00	 7.5181687183e-01
 8.0868267030e+00	 7.2503193809e+00	 7.4693602399e-01
 8.0270761800e+00	 7.3100699039e+00	 7.1267379377e-01
 7.9673256570e+00	 7.3698204270e+00	 6.4903071435e-01
 7.9075751340e+00	 7.4295709500e+00	 5.5600731893e-01
 7.8478246110e+00	 7.4893214730e+00	 4.3360414069e-01
 7.7880740880e+00	 7.5490719960e+00	 2.8182171283e-01
 7.7283235650e+00	 7.6088225190e+00	 1.0066056855e-01
 7.6685730420e+00	 7.6685730420e+00	-1.0987875893e-01
 8.4569971030e+00	 7.0710678119e+00	 6.0464251755e-01
 8.3877006384e+00	 7.1403642765e+00	 6.5666625905e-01
 8.3184041739e+00	 7.2096607410e+00	 6.8153803350e-01
 8.2491077093e+00	 7.2789572056e+00	 6.7925867262e-01
 8.1798112448e+00	 7.3482536701e+00	 6.4982900813e-01
 8.1105147802e+00	 7.4175501347e+00	 5.9324987178e-01
 8.0412183156e+00	 7.4868465992e+00	 5.0952209529e-01
 7.9719218511e+00	 7.5561430638e+00	 3.9864651042e-01
 7.9026253866e+00	 7.6254395284e+00	 2.6062394891e-01
 7.8333289220e+00	 7.6947359929e+00	 9.5455242539e-02
 7.7640324575e+00	 7.7640324575e+00	-9.6858776940e-02
 8.6620580695e+00	 7.0710678119e+00	 5.4437308807e-01
 8.5825085566e+00	 7.1506173248e+00	 5.9480851091e-01
 8.5029590437e+00	 7.2301668377e+00	 6.2003070962e-01
 8.4234095309e+00	 7.3097163506e+00	 6.2004094240e-01
 8.3438600180e+00	 7.3892658634e+00	 5.9484046748e-01
 8.2643105051e+00	 7.4688153763e+00	 5.4443054308e-01
 8.1847609922e+00	 7.5483648892e+00	 4.6881242743e-01
 8.1052114793e+00	 7.6279144021e+00	 3.6798737881e-01
 8.0256619665e+00	 7.7074639150e+00	 2.4195665547e-01
 7.9461124536e+00	 7.7870134278e+00	 9.0721515682e-02
 7.8665629407e+00	 7.8665629407e+00	-8.5716782252e-02
 8.8812611717e+00	 7.0710678119e+00	 4.9788248836e-01
 8.7907515037e+00	 7.1615774799e+00	 5.3972591527e-01
 8.7002418357e+00	 7.2520871479e+00	 5.6530823549e-01
 8.6097321677e+00	 7.3425968159e+00	 5.6737945434e-01
 8.5192224997e+00	 7.4331064839e+00	 5.4594142502e-01
 8.4287128317e+00	 7.5236161519e+00	 5.0099600074e-01
 8.3382031637e+00	 7.6141258198e+00	 4.3254503477e-01
 8.2476934958e+00	 7.7046354878e+00	 3.4059038036e-01
 8.1571838278e+00	 7.7951451558e+00	 2.2513389080e-01
 8.0666741598e+00	 7.8856548238e+00	 8.6177419406e-02
 7.9761644918e+00	 7.9761644918e+00	-7.6277180501e-02
 9.1146064095e+00	 7.0710678119e+00	 4.7850782003e-01
 9.0124294796e+00	 7.1732447418e+00	 5.1363898451e-01
 8.9102525497e+00	 7.2754216717e+00	 5.2676842610e-01
 8.8080756198e+00	 7.3775986015e+00	 5.1987325666e-01
 8.7058986899e+00	 7.4797755314e+00	 5.0183357532e-01
 8.6037217601e+00	 7.5819524613e+00	 4.6179151745e-01
 8.5015448302e+00	 7.6841293912e+00	 3.9974974930e-01
 8.3993679003e+00	 7.7863063211e+00	 3.1571093717e-01
 8.2971909704e+00	 7.8884832509e+00	 2.0967774740e-01
 8.1950140406e+00	 7.9906601808e+00	 8.1652846351e-02
 8.0928371107e+00	 8.0928371107e+00	-6.8361099574e-02
 9.3620937829e+00	 7.0710678119e+00	 4.6464085590e-01
 9.2475424843e+00	 7.1856191105e+00	 4.9734861894e-01
 9.1329911858e+00	 7.3001704090e+00	 5.0939636678e-01
 9.0184398872e+00	 7.4147217076e+00	 5.0079236932e-01
 8.9038885887e+00	 7.5292730061e+00	 4.7154489657e-01
 8.7893372901e+00	 7.6438243047e+00	 4.2595674374e-01
 8.6747859916e+00	 7.7583756032e+00	 3.6970892225e-01
 8.5602346930e+00	 7.8729269017e+00	 2.9280606466e-01
 8.4456833945e+00	 7.9874782003e+00	 1.9525192807e-01
 8.3311320959e+00	 8.1020294988e+00	 7.7050269640e-02
 8.2165807974e+00	 8.2165807974e+00	-6.1795153418e-02
 9.6237232919e+00	 7.0710678119e+00	 4.5540449641e-01
 9.4960905179e+00	 7.1987005859e+00	 4.8579434321e-01
 9.3684577439e+00	 7.3263333599e+00	 4.9672674395e-01
 9.2408249699e+00	 7.4539661339e+00	 4.8821313747e-01
 9.1131921959e+00	 7.5815989079e+00	 4.6026496284e-01
 8.9855594219e+00	 7.7092316819e+00	 4.1289365940e-01
 8.8579266479e+00	 7.8368644559e+00	 3.4611066670e-01
 8.7302938739e+00	 7.9644972299e+00	 2.7147581910e-01
 8.6026610999e+00	 8.0921300039e+00	 1.8161931077e-01
 8.4750283259e+00	 8.2197627779e+00	 7.2320747872e-02
 8.3473955519e+00	 8.3473955519e+00	-5.6414672607e-02
 9.8994949366e+00	 7.0710678119e+00	 4.5010845292e-01
 9.7580735804e+00	 7.2124891681e+00	 4.7827036083e-01
 9.6166522241e+00	 7.3539105244e+00	 4.8805848498e-01
 9.4752308679e+00	 7.4953318806e+00	 4.7948838634e-01
 9.3338095116e+00	 7.6367532368e+00	 4.5257562626e-01
 9.1923881554e+00	 7.7781745931e+00	 4.0733576641e-01
 9.0509667992e+00	 7.9195959493e+00	 3.4378436887e-01
 8.9095454429e+00	 8.0610173055e+00	 2.6193699604e-01
 8.7681240867e+00	 8.2024386618e+00	 1.6861414158e-01
 8.6267027304e+00	 8.3438600180e+00	 6.7448943280e-02
 8.4852813742e+00	 8.4852813742e+00	-5.2064225169e-02
 5.6568542495e+00	 5.6568542495e+00	 5.0989740910e-01
 5.7982756057e+00	 5.5154328933e+00	 5.0140544233e-01
 5.9396969620e+00	 5.3740115370e+00	 4.8388412378e-01
 6.0811183182e+00	 5.2325901808e+00	 4.5732638358e-01
 6.2225396745e+00	 5.0911688245e+00	 4.2172515200e-01
 6.3639610307e+00	 4.9497474683e+00	 3.7707335946e-01
 6.5053823869e+00	 4.8083261121e+00	 3.2336393647e-01
 6.6468037432e+00	 4.6669047558e+00	 2.6058981368e-01
 6.7882250994e+00	 4.5254833996e+00	 1.8874392189e-01
 6.9296464557e+00	 4.3840620433e+00	 1.0781919199e-01
 7.0710678119e+00	 4.2426406871e+00	 1.7808555027e-02
 5.3740115370e+00	 5.3740115370e+00	 4.8271687315e-01
 5.5154328933e+00	 5.2325901808e+00	 4.7403399159e-01
 5.6568542495e+00	 5.0911688245e+00	 4.5715194666e-01
 5.7982756057e+00	 4.9497474683e+00	 4.3206366850e-01
 5.9396969620e+00	 4.8083261121e+00	 3.9876208738e-01
 6.0811183182e+00	 4.6669047558e+00	 3.5724013369e-01
 6.2225396745e+00	 4.5254833996e+00	 3.0749073796e-01
 6.3639610307e+00	 4.3840620433e+00	 2.4950683084e-01
 6.5053823869e+00	 4.2426406871e+00	 1.8328134311e-01
 6.6468037432e+00	 4.1012193309e+00	 1.0880720568e-01
 6.7882250994e+00	 3.9597979746e+00	 2.6077349566e-02
 5.0911688245e+00	 5.0911688245e+00	 4.5459467811e-01
 5.2325901808e+00	 4.9497474683e+00	 4.4584548619e-01
 5.3740115370e+00	 4.8083261121e+00	 4.2972731914e-01
 5.5154328933e+00	 4.6669047558e+00	 4.0623310711e-01
 5.6568542495e+00	 4.5254833996e+00	 3.7535578034e-01
 5.7982756057e+00	 4.3840620433e+00	 3.3708826925e-01
 5.9396969620e+00	 4.2426406871e+00	 2.9142350434e-01
 6.0811183182e+00	 4.1012193309e+00	 2.3835441628e-01
 6.2225396745e+00	 3.9597979746e+00	 1.7787393582e-01
 6.3639610307e+00	 3.8183766184e+00	 1.0997499388e-01
 6.5053823869e+00	 3.6769552621e+00	 3.4650521493e-02
 4.8083261121e+00	 4.8083261121e+00	 4.2547035716e-01
 4.9497474683e+00	 4.6669047558e+00	 4.1677945932e-01
 5.0911688245e+00	 4.5254833996e+00	 4.0154977442e-01
 5.2325901808e+00	 4.3840620433e+00	 3.7977423259e-01
 5.3740115370e+00	 4.2426406871e+00	 3.5144576411e-01
 5.5154328933e+00	 4.1012193309e+00	 3.1655729935e-01
 5.6568542495e+00	 3.9597979746e+00	 2.7510176884e-01
 5.7982756057e+00	 3.8183766184e+00	 2.2707210323e-01
 5.9396969620e+00	 3.6769552621e+00	 1.7246123327e-01
 6.0811183182e+00	 3.5355339059e+00	 1.1126209258e-01
 6.2225396745e+00	 3.3941125497e+00	 4.2281857310e-02
 4.5254833996e+00	 4.5254833996e+00	 3.9528344558e-01
 4.6669047558e+00	 4.3840620433e+00	 3.8677544627e-01
 4.8083261121e+00	 4.2426406871e+00	 3.7255884780e-01
 4.9497474683e+00	 4.1012193309e+00	 3.5262658030e-01
 5.0911688245e+00	 3.9597979746e+00	 3.2697157402e-01
 5.2325901808e+00	 3.8183766184e+00	 2.9558675936e-01
 5.3740115370e+00	 3.6769552621e+00	 2.5846506683e-01
 5.5154328933e+00	 3.5355339059e+00	 2.1559942979e-01
 5.6568542495e+00	 3.3941125497e+00	 1.6578334124e-01
 5.7982756057e+00	 3.2526911934e+00	 1.0819913413e-01
 5.9396969620e+00	 3.1112698372e+00	 4.4752537209e-02
 4.2426406871e+00	 4.2426406871e+00	 3.6397348080e-01
 4.3840620434e+00	 4.1012193309e+00	 3.5577298449e-01
 4.5254833996e+00	 3.9597979746e+00	 3.4269407674e-01
 4.6669047558e+00	 3.8183766184e+00	 3.2472968767e-01
 4.8083261121e+00	 3.6769552622e+00	 3.0187274755e-01
 4.9497474683e+00	 3.5355339059e+00	 2.7411618947e-01
 5.0911688245e+00	 3.3941125497e+00	 2.4024054472e-01
 5.2325901808e+00	 3.2526911934e+00	 1.9940228371e-01
 5.3740115370e+00	 3.1112698372e+00	 1.5352001143e-01
 5.5154328933e+00	 2.9698484810e+00	 1.0260576736e-01
 5.6568542495e+00	 2.8284271247e+00	 4.6671590993e-02
 3.9597979746e+00	 3.9597979746e+00	 3.3148000239e-01
 4.1012193309e+00	 3.8183766184e+00	 3.2371161356e-01
 4.2426406871e+00	 3.6769552622e+00	 3.1189500082e-01
 4.3840620434e+00	 3.5355339059e+00	 2.9602309702e-01
 4.5254833996e+00	 3.3941125497e+00	 2.7486419312e-01
 4.6669047558e+00	 3.2526911934e+00	 2.4754933748e-01
 4.8083261121e+00	 3.1112698372e+00	 2.1600884911e-01
 4.9497474683e+00	 2.9698484810e+00	 1.8025476748e-01
 5.0911688245e+00	 2.8284271247e+00	 1.4029913209e-01
 5.2325901808e+00	 2.6870057685e+00	 9.6153982429e-02
 5.3740115370e+00	 2.5455844122e+00	 4.7831357985e-02
 3.6769552622e+00	 3.6769552622e+00	 2.9774255204e-01
 3.8183766184e+00	 3.5355339059e+00	 2.9053087782e-01
 3.9597979746e+00	 3.3941125497e+00	 2.7886501183e-01
 4.1012193309e+00	 3.2526911934e+00	 2.6185102084e-01
 4.2426406871e+00	 3.1112698372e+00	 2.4142977564e-01
 4.3840620434e+00	 2.9698484810e+00	 2.1761331572e-01
 4.5254833996e+00	 2.8284271247e+00	 1.9041368057e-01
 4.6669047558e+00	 2.6870057685e+00	 1.5984290969e-01
 4.8083261121e+00	 2.5455844122e+00	 1.2591304255e-01
 4.9497474683e+00	 2.4041630560e+00	 8.8636118665e-02
 5.0911688245e+00	 2.2627416998e+00	 4.8024177508e-02
 3.3941125497e+00	 3.3941125497e+00	 2.6145372625e-01
 3.5355339059e+00	 3.2526911935e+00	 2.5151805917e-01
 3.6769552622e+00	 3.1112698372e+00	 2.3899351641e-01
 3.8183766184e+00	 2.9698484810e+00	 2.2389213746e-01
 3.9597979746e+00	 2.8284271247e+00	 2.0622596183e-01
 4.1012193309e+00	 2.6870057685e+00	 1.8600702899e-01
 4.2426406871e+00	 2.5455844123e+00	 1.6324737843e-01
 4.3840620434e+00	 2.4041630560e+00	 1.3795904965e-01
 4.5254833996e+00	 2.2627416998e+00	 1.1015408214e-01
 4.6669047558e+00	 2.1213203435e+00	 7.9844515391e-02
 4.8083261121e+00	 1.9798989873e+00	 4.7042388885e-02
 3.1112698372e+00	 3.1112698372e+00	 2.1791079680e-01
 3.2526911935e+00	 2.9698484810e+00	 2.0830195810e-01
 3.3941125497e+00	 2.8284271247e+00	 1.9694670124e-01
 3.5355339059e+00	 2.6870057685e+00	 1.8385706571e-01
 3.6769552622e+00	 2.5455844123e+00	 1.6904509100e-01
 3.8183766184e+00	 2.4041630560e+00	 1.5252281661e-01
 3.9597979746e+00	 2.2627416998e+00	 1.3430228201e-01
 4.1012193309e+00	 2.1213203435e+00	 1.1439552671e-01
 4.2426406871e+00	 1.9798989873e+00	 9.2814590182e-02
 4.3840620433e+00	 1.8384776311e+00	 6.9571511930e-02
 4.5254833996e+00	 1.6970562748e+00	 4.4678331440e-02
 2.8284271248e+00	 2.8284271248e+00	 1.6446509611e-01
 2.9698484810e+00	 2.6870057685e+00	 1.6260374526e-01
 3.1112698372e+00	 2.5455844123e+00	 1.5251690566e-01
 3.2526911935e+00	 2.4041630560e+00	 1.4153814491e-01
 3.3941125497e+00	 2.2627416998e+00	 1.2967950250e-01
 3.5355339059e+00	 2.1213203435e+00	 1.1695301791e-01
 3.6769552622e+00	 1.9798989873e+00	 1.0337073063e-01
 3.8183766184e+00	 1.8384776311e+00	 8.8944680163e-02
 3.9597979746e+00	 1.6970562748e+00	 7.3686905991e-02
 4.1012193309e+00	 1.5556349186e+00	 5.7609447605e-02
 4.2426406871e+00	 1.4142135624e+00	 4.0724344495e-02
 2.8284271248e+00	 2.8284271248e+00	 1.6446509611e-01
 2.9698484810e+00	 2.6870057685e+00	 1.6260374526e-01
 3.1112698372e+00	 2.5455844123e+00	 1.5251690566e-01
 3.2526911935e+00	 2.4041630560e+00	 1.4153814491e-01
 3.3941125497e+00	 2.2627416998e+00	 1.2967950250e-01
 3.5355339059e+00	 2.1213203435e+00	 1.1695301791e-01
 3.6769552622e+00	 1.9798989873e+00	 1.0337073063e-01
 3.8183766184e+00	 1.8384776311e+00	 8.8944680163e-02
 3.9597979746e+00	 1.6970562748e+00	 7.3686905991e-02
 4.1012193309e+00	 1.5556349186e+00	 5.7609447605e-02
 4.2426406871e+00	 1.4142135624e+00	 4.0724344495e-02
 2.5455844123e+00	 2.5455844123e+00	 1.4847120219e-01
 2.6870057685e+00	 2.4041630560e+00	 1.4731318830e-01
 2.8284271248e+00	 2.2627416998e+00	 1.4507996896e-01
 2.9698484810e+00	 2.1213203436e+00	 1.4005874245e-01
 3.1112698372e+00	 1.9798989873e+00	 1.2747879502e-01
 3.2526911935e+00	 1.8384776311e+00	 1.1412946371e-01
 3.3941125497e+00	 1.6970562748e+00	 1.0002278801e-01
 3.5355339059e+00	 1.5556349186e+00	 8.5170807403e-02
 3.6769552622e+00	 1.4142135624e+00	 6.9585561382e-02
 3.8183766184e+00	 1.2727922061e+00	 5.3279089438e-02
 3.9597979746e+00	 1.1313708499e+00	 3.6263431060e-02
 2.2627416998e+00	 2.2627416998e+00	 1.3238841618e-01
 2.4041630560e+00	 2.1213203436e+00	 1.3002889131e-01
 2.5455844123e+00	 1.9798989873e+00	 1.2667531423e-01
 2.6870057685e+00	 1.8384776311e+00	 1.2232768495e-01
 2.8284271248e+00	 1.6970562748e+00	 1.1698600345e-01
 2.9698484810e+00	 1.5556349186e+00	 1.0910233579e-01
 3.1112698372e+00	 1.4142135624e+00	 9.4407318558e-02
 3.2526911935e+00	 1.2727922061e+00	 7.9065454711e-02
 3.3941125497e+00	 1.1313708499e+00	 6.3088783741e-02
 3.5355339059e+00	 9.8994949365e-01	 4.6489345137e-02
 3.6769552621e+00	 8.4852813741e-01	 2.9279178390e-02
 1.9798989873e+00	 1.9798989873e+00	 1.1621673807e-01
 2.1213203436e+00	 1.8384776311e+00	 1.1260780178e-01
 2.2627416998e+00	 1.6970562749e+00	 1.0808596651e-01
 2.4041630560e+00	 1.5556349186e+00	 1.0265123227e-01
 2.5455844123e+00	 1.4142135624e+00	 9.6303599058e-02
 2.6870057685e+00	 1.2727922061e+00	 8.9043066867e-02
 2.8284271248e+00	 1.1313708499e+00	 8.0869635701e-02
 2.9698484810e+00	 9.8994949366e-01	 7.0420961411e-02
 3.1112698372e+00	 8.4852813742e-01	 5.3988912390e-02
 3.2526911934e+00	 7.0710678118e-01	 3.7032554025e-02
 3.3941125497e+00	 5.6568542494e-01	 1.9563925808e-02
 1.6970562749e+00	 1.6970562749e+00	 9.9956167874e-02
 1.8384776311e+00	 1.5556349186e+00	 9.5049919713e-02
 1.9798989873e+00	 1.4142135624e+00	 8.9311925811e-02
 2.1213203436e+00	 1.2727922061e+00	 8.2742186168e-02
 2.2627416998e+00	 1.1313708499e+00	 7.5340700783e-02
 2.4041630560e+00	 9.8994949366e-01	 6.7107469657e-02
 2.5455844123e+00	 8.4852813742e-01	 5.8042492789e-02
 2.6870057685e+00	 7.0710678118e-01	 4.8145770180e-02
 2.8284271247e+00	 5.6568542494e-01	 3.7417301828e-02
 2.9698484810e+00	 4.2426406870e-01	 2.4701055426e-02
 3.1112698372e+00	 2.8284271246e-01	 6.9100126369e-03
 1.4142135624e+00	 1.4142135624e+00	 8.3606705587e-02
 1.5556349186e+00	 1.2727922061e+00	 7.7355245108e-02
 1.6970562749e+00	 1.1313708499e+00	 7.0353192122e-02
 1.8384776311e+00	 9.8994949367e-01	 6.2600546629e-02
 1.9798989873e+00	 8.4852813743e-01	 5.4097308628e-02
 2.1213203436e+00	 7.0710678119e-01	 4.4843478119e-02
 2.2627416998e+00	 5.6568542495e-01	 3.4839055102e-02
 2.4041630560e+00	 4.2426406871e-01	 2.4084039577e-02
 2.5455844123e+00	 2.8284271247e-01	 1.2578431544e-02
 2.6870057685e+00	 1.4142135623e-01	 3.2223100317e-04
 2.8284271247e+00	-1.2501222280e-11	-1.2684562046e-02
 1.1313708499e+00	 1.1313708499e+00	 6.7168351209e-02
 1.2727922062e+00	 9.8994949367e-01	 5.9523777965e-02
 1.4142135624e+00	 8.4852813743e-01	 5.1209765448e-02
 1.5556349186e+00	 7.0710678119e-01	 4.2226313657e-02
 1.6970562749e+00	 5.6568542495e-01	 3.2573422592e-02
 1.8384776311e+00	 4.2426406871e-01	 2.2251092253e-02
 1.9798989873e+00	 2.8284271247e-01	 1.1259322639e-02
 2.1213203436e+00	 1.4142135623e-01	-4.0188624816e-04
 2.2627416998e+00	-8.0014328496e-12	-1.2732534410e-02
 2.4041630560e+00	-1.4142135625e-01	-2.5732621846e-02
 2.5455844123e+00	-2.8284271249e-01	-3.9402148557e-02
 8.4852813744e-01	 8.4852813744e-01	 5.0641104740e-02
 9.8994949368e-01	 7.0710678120e-01	 4.1555518284e-02
 1.1313708499e+00	 5.6568542496e-01	 3.1881645788e-02
 1.2727922062e+00	 4.2426406872e-01	 2.1619487251e-02
 1.4142135624e+00	 2.8284271248e-01	 1.0769042675e-02
 1.5556349186e+00	 1.4142135624e-01	-6.6968794166e-04
 1.6970562749e+00	-4.5017600758e-12	-1.2696704599e-02
 1.8384776311e+00	-1.4142135624e-01	-2.5312007296e-02
 1.9798989873e+00	-2.8284271248e-01	-3.8515596035e-02
 2.1213203436e+00	-4.2426406872e-01	-5.2307470813e-02
 2.2627416998e+00	-5.6568542496e-01	-6.6687631633e-02
 5.6568542496e-01	 5.6568542496e-01	 3.4024966182e-02
 7.0710678120e-01	 4.2426406872e-01	 2.3450466065e-02
 8.4852813744e-01	 2.8284271248e-01	 1.2368833142e-02
 9.8994949367e-01	 1.4142135624e-01	 7.8006741339e-04
 1.1313708499e+00	-2.0019819136e-12	-1.1315831122e-02
 1.2727922061e+00	-1.4142135624e-01	-2.3918862464e-02
 1.4142135624e+00	-2.8284271248e-01	-3.7029026612e-02
 1.5556349186e+00	-4.2426406872e-01	-5.0646323567e-02
 1.6970562749e+00	-5.6568542496e-01	-6.4770753330e-02
 1.8384776311e+00	-7.0710678120e-01	-7.9402315899e-02
 1.9798989873e+00	-8.4852813744e-01	-9.4541011275e-02
 2.8284271248e-01	 2.8284271248e-01	 1.7319935532e-02
 4.2426406872e-01	 1.4142135624e-01	 5.2086213081e-03
 5.6568542496e-01	-5.0225101855e-13	-7.3286724885e-03
 7.0710678120e-01	-1.4142135624e-01	-2.0291945858e-02
 8.4852813744e-01	-2.8284271248e-01	-3.3681198799e-02
 9.8994949367e-01	-4.2426406872e-01	-4.7496431314e-02
 1.1313708499e+00	-5.6568542496e-01	-6.1737643401e-02
 1.2727922062e+00	-7.0710678120e-01	-7.6404835061e-02
 1.4142135624e+00	-8.4852813744e-01	-9.1498006295e-02
 1.5556349186e+00	-9.8994949368e-01	-1.0701715710e-01
 1.6970562749e+00	-1.1313708499e+00	-1.2296228748e-01
 0.0000000000e+00	 0.0000000000e+00	 5.2601279284e-04
 1.4142135624e-01	-1.4142135624e-01	-1.3170015987e-02
 2.8284271248e-01	-2.8284271248e-01	-2.7210871105e-02
 4.2426406872e-01	-4.2426406872e-01	-4.1596552561e-02
 5.6568542496e-01	-5.6568542496e-01	-5.6327060357e-02
 7.0710678120e-01	-7.0710678120e-01	-7.1402394492e-02
 8.4852813744e-01	-8.4852813744e-01	-8.6822554965e-02
 9.8994949368e-01	-9.8994949368e-01	-1.0258754178e-01
 1.1313708499e+00	-1.1313708499e+00	-1.1869735493e-01
 1.2727922062e+00	-1.2727922062e+00	-1.3515199442e-01
 1.4142135624e+00	-1.4142135624e+00	-1.5195146026e-01
 1.4142135624e+01	 1.4142135624e+01	 3.9725700568e-03
 1.4283556980e+01	 1.4000714267e+01	 7.0304637624e-03
 1.4424978336e+01	 1.3859292911e+01	 9.8065320001e-03
 1.4566399692e+01	 1.3717871555e+01	 1.2309227684e-02
 1.4707821049e+01	 1.3576450199e+01	 1.4558404994e-02
 1.4849242405e+01	 1.3435028843e+01	 1.7238497288e-02
 1.4990663761e+01	 1.3293607486e+01	 1.9398434624e-02
 1.5132085117e+01	 1.3152186130e+01	 2.1031896898e-02
 1.5273506474e+01	 1.3010764774e+01	 2.2132563918e-02
 1.5414927830e+01	 1.2869343418e+01	 2.2694115396e-02
 1.5556349186e+01	 1.2727922061e+01	 2.2710230953e-02
 1.3859292911e+01	 1.3859292911e+01	 9.9880189443e-03
 1.4000714267e+01	 1.3717871555e+01	 1.4280284674e-02
 1.4142135624e+01	 1.3576450199e+01	 1.8357305417e-02
 1.4283556980e+01	 1.3435028843e+01	 2.2227534050e-02
 1.4424978336e+01	 1.3293607486e+01	 2.5899423326e-02
 1.4566399692e+01	 1.3152186130e+01	 2.9381425877e-02
 1.4707821049e+01	 1.3010764774e+01	 3.2682686848e-02
 1.4849242405e+01	 1.2869343418e+01	 3.5702340082e-02
 1.4990663761e+01	 1.2727922061e+01	 3.8234916030e-02
 1.5132085117e+01	 1.2586500705e+01	 4.0274094377e-02
 1.5273506474e+01	 1.2445079349e+01	 4.1813554713e-02
 1.3576450199e+01	 1.3576450199e+01	 1.4091116812e-02
 1.3717871555e+01	 1.3435028843e+01	 1.9475181503e-02
 1.3859292911e+01	 1.3293607486e+01	 2.4710581901e-02
 1.4000714267e+01	 1.3152186130e+01	 2.9805770845e-02
 1.4142135624e+01	 1.3010764774e+01	 3.4769201051e-02
 1.4283556980e+01	 1.2869343418e+01	 3.9609325114e-02
 1.4424978336e+01	 1.2727922061e+01	 4.4334595505e-02
 1.4566399692e+01	 1.2586500705e+01	 4.8953464573e-02
 1.4707821049e+01	 1.2445079349e+01	 5.3462684393e-02
 1.4849242405e+01	 1.2303657993e+01	 5.6856612520e-02
 1.4990663761e+01	 1.2162236636e+01	 5.9796540710e-02
 1.3293607486e+01	 1.3293607486e+01	 1.6140818237e-02
 1.3435028843e+01	 1.3152186130e+01	 2.2474108976e-02
 1.3576450199e+01	 1.3010764774e+01	 2.8725316328e-02
 1.3717871555e+01	 1.2869343418e+01	 3.4902893097e-02
 1.3859292911e+01	 1.2727922061e+01	 4.1015291959e-02
 1.4000714267e+01	 1.2586500705e+01	 4.7070965473e-02
 1.4142135624e+01	 1.2445079349e+01	 5.3078366072e-02
 1.4283556980e+01	 1.2303657993e+01	 5.9045946068e-02
 1.4424978336e+01	 1.2162236636e+01	 6.4982157650e-02
 1.4566399692e+01	 1.2020815280e+01	 7.0895452886e-02
 1.4707821049e+01	 1.1879393924e+01	 7.6768506740e-02
 1.3010764774e+01	 1.3010764774e+01	 1.5996074637e-02
 1.3152186130e+01	 1.2869343418e+01	 2.3136018660e-02
 1.3293607486e+01	 1.2727922061e+01	 3.0260460417e-02
 1.3435028843e+01	 1.2586500705e+01	 3.7377852673e-02
 1.3576450199e+01	 1.2445079349e+01	 4.4496648068e-02
 1.3717871555e+01	 1.2303657993e+01	 5.1625299123e-02
 1.3859292911e+01	 1.2162236636e+01	 5.8772258233e-02
 1.4000714267e+01	 1.2020815280e+01	 6.5945977672e-02
 1.4142135624e+01	 1.1879393924e+01	 7.3154909593e-02
 1.4283556980e+01	 1.1737972568e+01	 8.0407506025e-02
 1.4424978336e+01	 1.1596551211e+01	 8.7712218876e-02
 1.2727922061e+01	 1.2727922061e+01	 1.3515834271e-02
 1.2869343418e+01	 1.2586500705e+01	 2.1319858964e-02
 1.3010764774e+01	 1.2445079349e+01	 2.9174962726e-02
 1.3152186130e+01	 1.2303657993e+01	 3.7089598282e-02
 1.3293607486e+01	 1.2162236636e+01	 4.5072218237e-02
 1.3435028843e+01	 1.2020815280e+01	 5.3131275072e-02
 1.3576450199e+01	 1.1879393924e+01	 6.1275221145e-02
 1.3717871555e+01	 1.1737972568e+01	 6.9512508695e-02
 1.3859292911e+01	 1.1596551211e+01	 7.7851589834e-02
 1.4000714267e+01	 1.1455129855e+01	 8.6300916555e-02
 1.4142135624e+01	 1.1313708499e+01	 9.4868940728e-02
 1.2445079349e+01	 1.2445079349e+01	 8.5590422370e-03
 1.2586500705e+01	 1.2303657993e+01	 1.6884575138e-02
 1.2727922061e+01	 1.2162236636e+01	 2.5327768655e-02
 1.2869343418e+01	 1.2020815280e+01	 3.3897075476e-02
 1.3010764774e+01	 1.1879393924e+01	 4.2600948166e-02
 1.3152186130e+01	 1.1737972568e+01	 5.1447839171e-02
 1.3293607486e+01	 1.1596551211e+01	 6.0446200811e-02
 1.3435028843e+01	 1.1455129855e+01	 6.9604485286e-02
 1.3576450199e+01	 1.1313708499e+01	 7.8931144673e-02
 1.3717871555e+01	 1.1172287143e+01	 8.8434630926e-02
 1.3859292911e+01	 1.1030865787e+01	 9.8123395877e-02
 1.2162236636e+01	 1.2162236636e+01	 9.8464047617e-04
 1.2303657993e+01	 1.2020815280e+01	 9.6891092730e-03
 1.2445079349e+01	 1.1879393924e+01	 1.8577820445e-02
 1.2586500705e+01	 1.1737972568e+01	 2.7659226643e-02
 1.2727922061e+01	 1.1596551211e+01	 3.6941780397e-02
 1.2869343418e+01	 1.1455129855e+01	 4.6433934111e-02
 1.3010764774e+01	 1.1313708499e+01	 5.6144140072e-02
 1.3152186130e+01	 1.1172287143e+01	 6.6080850439e-02
 1.3293607486e+01	 1.1030865787e+01	 7.6252517253e-02
 1.3435028843e+01	 1.0889444430e+01	 8.6667592430e-02
 1.3576450199e+01	 1.0748023074e+01	 9.7334527765e-02
 1.1879393924e+01	 1.1879393924e+01	-9.3484322309e-03
 1.2020815280e+01	 1.1737972568e+01	-4.0759970135e-04
 1.2162236636e+01	 1.1596551211e+01	 8.7840571765e-03
 1.2303657993e+01	 1.1455129855e+01	 1.8234991016e-02
 1.2445079349e+01	 1.1313708499e+01	 2.7953654309e-02
 1.2586500705e+01	 1.1172287143e+01	 3.7948499425e-02
 1.2727922061e+01	 1.1030865787e+01	 4.8227978608e-02
 1.2869343418e+01	 1.0889444430e+01	 5.8800543985e-02
 1.3010764774e+01	 1.0748023074e+01	 6.9674647555e-02
 1.3152186130e+01	 1.0606601718e+01	 8.0858741200e-02
 1.3293607486e+01	 1.0465180362e+01	 9.2361276675e-02
 1.1596551211e+01	 1.1596551211e+01	-2.2581240263e-02
 1.1737972568e+01	 1.1455129855e+01	-1.3546616013e-02
 1.1879393924e+01	 1.1313708499e+01	-4.1945852284e-03
 1.2020815280e+01	 1.1172287143e+01	 5.4833046671e-03
 1.2162236636e+01	 1.1030865787e+01	 1.5495506127e-02
 1.2303657993e+01	 1.0889444430e+01	 2.5850471483e-02
 1.2445079349e+01	 1.0748023074e+01	 3.6556652944e-02
 1.2586500705e+01	 1.0606601718e+01	 4.7622502596e-02
 1.2727922061e+01	 1.0465180362e+01	 5.9056472404e-02
 1.2869343418e+01	 1.0323759005e+01	 7.0784241240e-02
 1.3010764774e+01	 1.0182337649e+01	 8.2312721449e-02
 1.1313708499e+01	 1.1313708499e+01	-3.8854851158e-02
 1.1455129855e+01	 1.1172287143e+01	-2.9869007050e-02
 1.1596551211e+01	 1.1030865787e+01	-2.0499174008e-02
 1.1737972568e+01	 1.0889444430e+01	-1.0736899492e-02
 1.1879393924e+01	 1.0748023074e+01	-5.7373108774e-04
 1.2020815280e+01	 1.0606601718e+01	 9.9987834997e-03
 1.2162236636e+01	 1.0465180362e+01	 2.0989096441e-02
 1.2303657993e+01	 1.0323759005e+01	 3.2324535918e-02
 1.2445079349e+01	 1.0182337649e+01	 4.3529117114e-02
 1.2586500705e+01	 1.0040916293e+01	 5.5004435791e-02
 1.2727922061e+01	 9.8994949366e+00	 6.6734927610e-02
 1.1313708499e+01	 1.1313708499e+01	-3.8854851158e-02
 1.1455129855e+01	 1.1172287143e+01	-2.9869007050e-02
 1.1596551211e+01	 1.1030865787e+01	-2.0499174008e-02
 1.1737972568e+01	 1.0889444430e+01	-1.0736899492e-02
 1.1879393924e+01	 1.0748023074e+01	-5.7373108774e-04
 1.2020815280e+01	 1.0606601718e+01	 9.9987834997e-03
 1.2162236636e+01	 1.0465180362e+01	 2.0989096441e-02
 1.2303657993e+01	 1.0323759005e+01	 3.2324535918e-02
 1.2445079349e+01	 1.0182337649e+01	 4.3529117114e-02
 1.2586500705e+01	 1.0040916293e+01	 5.5004435791e-02
 1.2727922061e+01	 9.8994949366e+00	 6.6734927610e-02
 1.1030865787e+01	 1.1030865787e+01	-2.2018623769e-02
 1.1172287143e+01	 1.0889444430e+01	-7.7312732091e-03
 1.1313708499e+01	 1.0748023074e+01	 5.8472614625e-03
 1.1455129855e+01	 1.0606601718e+01	 1.8725432747e-02
 1.1596551211e+01	 1.0465180362e+01	 3.0911693023e-02
 1.1737972568e+01	 1.0323759005e+01	 4.2344444184e-02
 1.1879393924e+01	 1.0182337649e+01	 5.2610753813e-02
 1.2020815280e+01	 1.0040916293e+01	 6.2053915012e-02
 1.2162236636e+01	 9.8994949366e+00	 7.0658363055e-02
 1.2303657993e+01	 9.7580735804e+00	 7.8408533577e-02
 1.2445079349e+01	 9.6166522241e+00	 8.5288862575e-02
 1.0748023074e+01	 1.0748023074e+01	-1.1036766046e-02
 1.0889444430e+01	 1.0606601718e+01	 9.4895964681e-03
 1.1030865787e+01	 1.0465180362e+01	 2.8214338485e-02
 1.1172287143e+01	 1.0323759005e+01	 4.5096360249e-02
 1.1313708499e+01	 1.0182337649e+01	 5.9831732422e-02
 1.1455129855e+01	 1.0040916293e+01	 7.2650070157e-02
 1.1596551211e+01	 9.8994949366e+00	 8.3535808341e-02
 1.1737972568e+01	 9.7580735804e+00	 9.2473382221e-02
 1.1879393924e+01	 9.6166522241e+00	 9.9447227406e-02
 1.2020815280e+01	 9.4752308679e+00	 1.0444177987e-01
 1.2162236636e+01	 9.3338095116e+00	 1.0744147594e-01
 1.0465180362e+01	 1.0465180362e+01	-6.0503550079e-03
 1.0606601718e+01	 1.0323759005e+01	 2.1632895906e-02
 1.0748023074e+01	 1.0182337649e+01	 4.6244665725e-02
 1.0889444430e+01	 1.0040916293e+01	 6.7845515000e-02
 1.1030865787e+01	 9.8994949366e+00	 8.6419878229e-02
 1.1172287143e+01	 9.7580735804e+00	 1.0195219027e-01
 1.1313708499e+01	 9.6166522241e+00	 1.1442688636e-01
 1.1455129855e+01	 9.4752308679e+00	 1.2382840206e-01
 1.1596551211e+01	 9.3338095116e+00	 1.3014117334e-01
 1.1737972568e+01	 9.1923881554e+00	 1.3334963649e-01
 1.1879393924e+01	 9.0509667992e+00	 1.3343822819e-01
 1.0182337649e+01	 1.0182337649e+01	-7.0978334936e-03
 1.0323759005e+01	 1.0040916293e+01	 2.8692863312e-02
 1.0465180362e+01	 9.8994949366e+00	 6.0363187481e-02
 1.0606601718e+01	 9.7580735804e+00	 8.7897573486e-02
 1.0748023074e+01	 9.6166522241e+00	 1.1128045616e-01
 1.0889444430e+01	 9.4752308679e+00	 1.3049627071e-01
 1.1030865787e+01	 9.3338095117e+00	 1.4552945269e-01
 1.1172287143e+01	 9.1923881554e+00	 1.5636443802e-01
 1.1313708499e+01	 9.0509667992e+00	 1.6298566298e-01
 1.1455129855e+01	 8.9095454429e+00	 1.6537756423e-01
 1.1596551211e+01	 8.7681240867e+00	 1.6352457876e-01
 9.8994949366e+00	 9.8994949366e+00	-1.3581649147e-02
 1.0040916293e+01	 9.7580735804e+00	 3.1362147604e-02
 1.0182337649e+01	 9.6166522241e+00	 7.1060553564e-02
 1.0323759005e+01	 9.4752308679e+00	 1.0549800354e-01
 1.0465180362e+01	 9.3338095117e+00	 1.3465893272e-01
 1.0606601718e+01	 9.1923881554e+00	 1.5852777661e-01
 1.0748023074e+01	 9.0509667992e+00	 1.7708897114e-01
 1.0889444430e+01	 8.9095454429e+00	 1.9032695254e-01
 1.1030865787e+01	 8.7681240867e+00	 1.9822615745e-01
 1.1172287143e+01	 8.6267027305e+00	 2.0077102284e-01
 1.1313708499e+01	 8.4852813742e+00	 1.9794598606e-01
 9.6166522241e+00	 9.6166522241e+00	-2.5180204710e-02
 9.7580735804e+00	 9.4752308679e+00	 2.9886218278e-02
 9.8994949366e+00	 9.3338095117e+00	 7.8582232124e-02
 1.0040916293e+01	 9.1923881554e+00	 1.2089227197e-01
 1.0182337649e+01	 9.0509667992e+00	 1.5680077334e-01
 1.0323759005e+01	 8.9095454429e+00	 1.8629217209e-01
 1.0465180362e+01	 8.7681240867e+00	 2.0935090446e-01
 1.0606601718e+01	 8.6267027305e+00	 2.2596140704e-01
 1.0748023074e+01	 8.4852813742e+00	 2.3610811679e-01
 1.0889444430e+01	 8.3438600180e+00	 2.3977547104e-01
 1.1030865787e+01	 8.2024386618e+00	 2.3694790745e-01
 9.3338095116e+00	 9.3338095116e+00	-4.1648030375e-02
 9.4752308679e+00	 9.1923881554e+00	 2.4510543797e-02
 9.6166522241e+00	 9.0509667992e+00	 8.3173690276e-02
 9.7580735804e+00	 8.9095454429e+00	 1.3432584455e-01
 9.8994949366e+00	 8.7681240867e+00	 1.7795144245e-01
 1.0040916293e+01	 8.6267027305e+00	 2.1403492020e-01
 1.0182337649e+01	 8.4852813742e+00	 2.4256071437e-01
 1.0323759005e+01	 8.3438600180e+00	 2.6351326189e-01
 1.0465180362e+01	 8.2024386618e+00	 2.7687700005e-01
 1.0606601718e+01	 8.0610173055e+00	 2.8263636650e-01
 1.0748023074e+01	 7.9195959493e+00	 2.8077579928e-01
 9.0509667992e+00	 9.0509667992e+00	-6.2739657366e-02
 9.1923881554e+00	 8.9095454429e+00	 1.5480591588e-02
 9.3338095116e+00	 8.7681240867e+00	 8.5080394099e-02
 9.4752308679e+00	 8.6267027305e+00	 1.4604418599e-01
 9.6166522241e+00	 8.4852813742e+00	 1.9835640344e-01
 9.7580735804e+00	 8.3438600180e+00	 2.4200148300e-01
 9.8994949366e+00	 8.2024386618e+00	 2.7696386158e-01
 1.0040916293e+01	 8.0610173055e+00	 3.0322797644e-01
 1.0182337649e+01	 7.9195959493e+00	 3.2077826521e-01
 1.0323759005e+01	 7.7781745931e+00	 3.2959916589e-01
 1.0465180362e+01	 7.6367532368e+00	 3.2967511684e-01
 8.7681240867e+00	 8.7681240867e+00	-8.1592726160e-02
 8.9095454429e+00	 8.6267027305e+00	 3.0418280437e-03
 9.0509667992e+00	 8.4852813742e+00	 8.4547808641e-02
 9.1923881554e+00	 8.3438600180e+00	 1.5629276001e-01
 9.3338095116e+00	 8.2024386618e+00	 2.1826111866e-01
 9.4752308679e+00	 8.0610173055e+00	 2.7043732149e-01
 9.6166522241e+00	 7.9195959493e+00	 3.1280580573e-01
 9.7580735804e+00	 7.7781745931e+00	 3.4535100900e-01
 9.8994949366e+00	 7.6367532368e+00	 3.6805736925e-01
 1.0040916293e+01	 7.4953318806e+00	 3.8090932482e-01
 1.0182337649e+01	 7.3539105244e+00	 3.8389131440e-01
 8.4852813742e+00	 8.4852813742e+00	-7.6651326034e-02
 8.6267027304e+00	 8.3438600180e+00	 1.1472085785e-02
 8.7681240867e+00	 8.2024386618e+00	 8.8626328784e-02
 8.9095454429e+00	 8.0610173055e+00	 1.6531702926e-01
 9.0509667992e+00	 7.9195959493e+00	 2.3791104943e-01
 9.1923881554e+00	 7.7781745931e+00	 2.9958789563e-01
 9.3338095116e+00	 7.6367532368e+00	 3.5033200546e-01
 9.4752308679e+00	 7.4953318806e+00	 3.9012781684e-01
 9.6166522241e+00	 7.3539105244e+00	 4.1895976809e-01
 9.7580735804e+00	 7.2124891681e+00	 4.3681229787e-01
 9.8994949366e+00	 7.0710678119e+00	 4.4366984521e-01
 7.0710678119e+00	 4.2426406871e+00	 2.0559191803e-01
 7.7074639150e+00	 3.6062445840e+00	 1.2502247726e-01
 8.3438600180e+00	 2.9698484810e+00	 4.0615325555e-02
 8.9802561211e+00	 2.3334523779e+00	-2.4105219720e-02
 9.6166522241e+00	 1.6970562749e+00	-3.5270279436e-02
 1.0253048327e+01	 1.0606601718e+00	-4.5919345382e-02
 1.0889444430e+01	 4.2426406872e-01	-5.5832789528e-02
 1.1525840533e+01	-2.1213203434e-01	-6.4790971777e-02
 1.2162236636e+01	-8.4852813741e-01	-7.2574246674e-02
 1.2798632739e+01	-1.4849242405e+00	-7.8962963406e-02
 1.3435028843e+01	-2.1213203435e+00	-8.3737465804e-02
 6.7882250994e+00	 3.9597979746e+00	 1.6199872869e-01
 7.4246212025e+00	 3.3234018716e+00	 8.8213158252e-02
 8.0610173055e+00	 2.6870057685e+00	 9.0903033884e-03
 8.6974134086e+00	 2.0506096654e+00	-6.3833825057e-02
 9.3338095117e+00	 1.4142135624e+00	-8.0994719486e-02
 9.9702056147e+00	 7.7781745931e-01	-8.5692034749e-02
 1.0606601718e+01	 1.4142135624e-01	-9.0531368256e-02
 1.1242997821e+01	-4.9497474682e-01	-9.5293072139e-02
 1.1879393924e+01	-1.1313708499e+00	-9.9757493169e-02
 1.2515790027e+01	-1.7677669530e+00	-1.0370497276e-01
 1.3152186130e+01	-2.4041630560e+00	-1.0691584698e-01
 6.5053823869e+00	 3.6769552621e+00	 1.2467578598e-01
 7.1417784900e+00	 3.0405591591e+00	 5.3426540997e-02
 7.7781745931e+00	 2.4041630560e+00	-1.7815852139e-02
 8.4145706961e+00	 1.7677669530e+00	-8.3137604409e-02
 9.0509667992e+00	 1.1313708499e+00	-1.2099800105e-01
 9.6873629023e+00	 4.9497474683e-01	-1.2039497887e-01
 1.0323759005e+01	-1.4142135624e-01	-1.2081161763e-01
 1.0960155108e+01	-7.7781745930e-01	-1.2202826170e-01
 1.1596551211e+01	-1.4142135624e+00	-1.2382525007e-01
 1.2232947315e+01	-2.0506096654e+00	-1.2598291639e-01
 1.2869343418e+01	-2.6870057685e+00	-1.2828158894e-01
 6.2225396745e+00	 3.3941125497e+00	 9.2376876404e-02
 6.8589357775e+00	 2.7577164466e+00	 2.3760308963e-02
 7.4953318806e+00	 2.1213203435e+00	-4.0310801704e-02
 8.1317279836e+00	 1.4849242405e+00	-9.8739357057e-02
 8.7681240867e+00	 8.4852813742e-01	-1.5042825856e-01
 9.4045201898e+00	 2.1213203435e-01	-1.4988053126e-01
 1.0040916293e+01	-4.2426406871e-01	-1.4652589271e-01
 1.0677312396e+01	-1.0606601718e+00	-1.4484889705e-01
 1.1313708499e+01	-1.6970562748e+00	-1.4462987550e-01
 1.1950104602e+01	-2.3334523779e+00	-1.4564915393e-01
 1.2586500705e+01	-2.9698484810e+00	-1.4768705287e-01
 5.9396969620e+00	 3.1112698372e+00	 6.0883180150e-02
 6.5760930650e+00	 2.4748737341e+00	-9.9319852713e-04
 7.2124891681e+00	 1.8384776311e+00	-5.8602205983e-02
 7.8488852712e+00	 1.2020815280e+00	-1.1084674368e-01
 8.4852813742e+00	 5.6568542494e-01	-1.5662971307e-01
 9.1216774773e+00	-7.0710678125e-02	-1.7400104250e-01
 9.7580735804e+00	-7.0710678119e-01	-1.6752654561e-01
 1.0394469683e+01	-1.3435028843e+00	-1.6360733183e-01
 1.1030865786e+01	-1.9798989873e+00	-1.6202372464e-01
 1.1667261890e+01	-2.6162950904e+00	-1.6255604213e-01
 1.2303657993e+01	-3.2526911935e+00	-1.6498459704e-01
 5.6568542495e+00	 2.8284271247e+00	 3.4803727022e-02
 6.2932503526e+00	 2.1920310217e+00	-2.1041642151e-02
 6.9296464556e+00	 1.5556349186e+00	-7.2897725654e-02
 7.5660425587e+00	 9.1923881553e-01	-1.1966742495e-01
 8.2024386618e+00	 2.8284271246e-01	-1.6025364149e-01
 8.8388347648e+00	-3.5355339060e-01	-1.9260886023e-01
 9.4752308679e+00	-9.8994949367e-01	-1.8366592549e-01
 1.0111626971e+01	-1.6263455967e+00	-1.7815591677e-01
 1.0748023074e+01	-2.2627416998e+00	-1.7585914975e-01
 1.1384419177e+01	-2.8991378029e+00	-1.7655593475e-01
 1.2020815280e+01	-3.5355339059e+00	-1.7780593829e-01
 5.3740115370e+00	 2.5455844122e+00	 1.3930856342e-02
 6.0104076401e+00	 1.9091883092e+00	-3.6592682584e-02
 6.6468037431e+00	 1.2727922061e+00	-8.3405021393e-02
 7.2831998462e+00	 6.3639610305e-01	-1.2540906155e-01
 7.9195959493e+00	-1.0000222872e-11	-1.6150770450e-01
 8.5559920523e+00	-6.3639610307e-01	-1.9060385172e-01
 9.1923881554e+00	-1.2727922061e+00	-1.9479637859e-01
 9.8287842585e+00	-1.9091883092e+00	-1.8834699962e-01
 1.0465180362e+01	-2.5455844123e+00	-1.8598850012e-01
 1.1101576465e+01	-3.1819805153e+00	-1.8750118265e-01
 1.1737972568e+01	-3.8183766184e+00	-1.8396367536e-01
 5.0911688245e+00	 2.2627416998e+00	-1.9430925658e-03
 5.7275649276e+00	 1.6263455967e+00	-4.7853980504e-02
 6.3639610307e+00	 9.8994949364e-01	-9.0331753878e-02
 7.0003571337e+00	 3.5355339058e-01	-1.2827931415e-01
 7.6367532368e+00	-2.8284271248e-01	-1.6059956277e-01
 8.2731493399e+00	-9.1923881555e-01	-1.8619540122e-01
 8.9095454429e+00	-1.5556349186e+00	-2.0077024894e-01
 9.5459415460e+00	-2.1920310217e+00	-1.9403292522e-01
 1.0182337649e+01	-2.8284271247e+00	-1.9226412212e-01
 1.0818733752e+01	-3.4648232278e+00	-1.9486290020e-01
 1.1455129855e+01	-4.1012193309e+00	-1.8897441824e-01
 4.8083261121e+00	 1.9798989873e+00	-1.3025780379e-02
 5.4447222151e+00	 1.3435028842e+00	-5.5033196588e-02
 6.0811183182e+00	 7.0710678117e-01	-9.3885583785e-02
 6.7175144213e+00	 7.0710678108e-02	-1.2848584343e-01
 7.3539105243e+00	-5.6568542496e-01	-1.5773687699e-01
 7.9903066274e+00	-1.2020815280e+00	-1.8054158591e-01
 8.6267027305e+00	-1.8384776311e+00	-1.9580287166e-01
 9.2630988335e+00	-2.4748737342e+00	-1.9506603546e-01
 9.8994949366e+00	-3.1112698372e+00	-1.9453835919e-01
 1.0535891040e+01	-3.7476659403e+00	-1.9373996050e-01
 1.1172287143e+01	-4.3840620434e+00	-1.9309061226e-01
 4.5254833996e+00	 1.6970562748e+00	-1.9524867774e-02
 5.1618795026e+00	 1.0606601718e+00	-5.8337991512e-02
 5.7982756057e+00	 4.2426406870e-01	-9.4274171791e-02
 6.4346717088e+00	-2.1213203436e-01	-1.2623631007e-01
 7.0710678119e+00	-8.4852813743e-01	-1.5312730781e-01
 7.7074639149e+00	-1.4849242405e+00	-1.7385006647e-01
 8.3438600180e+00	-2.1213203436e+00	-1.8730748752e-01
 8.9802561211e+00	-2.7577164466e+00	-1.9129867491e-01
 9.6166522241e+00	-3.3941125497e+00	-1.9266355181e-01
 1.0253048327e+01	-4.0305086528e+00	-1.9128427392e-01
 1.0889444430e+01	-4.6669047558e+00	-1.9656471529e-01
 4.2426406871e+00	 1.4142135624e+00	-2.1648015429e-02
 4.8790367902e+00	 7.7781745929e-01	-5.7976025954e-02
 5.5154328932e+00	 1.4142135623e-01	-9.1705178573e-02
 6.1518289963e+00	-4.9497474683e-01	-1.2173837475e-01
 6.7882250994e+00	-1.1313708499e+00	-1.4697851593e-01
 7.4246212024e+00	-1.7677669530e+00	-1.6632850359e-01
 8.0610173055e+00	-2.4041630560e+00	-1.7869123918e-01
 8.6974134086e+00	-3.0405591591e+00	-1.8296962417e-01
 9.3338095117e+00	-3.6769552622e+00	-1.8364178765e-01
 9.9702056147e+00	-4.3133513652e+00	-1.8774830818e-01
 1.0606601718e+01	-4.9497474683e+00	-1.9964919775e-01
 1.3435028843e+01	-2.1213203435e+00	-8.3737465804e-02
 1.4071424946e+01	-2.7577164466e+00	-8.3582864650e-02
 1.4707821049e+01	-3.3941125497e+00	-8.6233364448e-02
 1.5344217152e+01	-4.0305086528e+00	-8.6826067277e-02
 1.5980613255e+01	-4.6669047558e+00	-8.8421858149e-02
 1.6617009358e+01	-5.3033008589e+00	-9.1134828905e-02
 1.7253405461e+01	-5.9396969620e+00	-9.4067662194e-02
 1.7889801564e+01	-6.5760930650e+00	-9.6322939464e-02
 1.8526197667e+01	-7.2124891681e+00	-9.7003140956e-02
 1.9162593770e+01	-7.8488852711e+00	-9.5210645684e-02
 1.9798989873e+01	-8.4852813742e+00	-9.0047731429e-02
 1.3152186130e+01	-2.4041630560e+00	-1.0691584698e-01
 1.3788582233e+01	-3.0405591591e+00	-1.0553214687e-01
 1.4424978336e+01	-3.6769552622e+00	-1.0272527150e-01
 1.5061374439e+01	-4.3133513652e+00	-9.8549619890e-02
 1.5697770542e+01	-4.9497474683e+00	-9.8050636767e-02
 1.6334166645e+01	-5.5861435714e+00	-9.8784199619e-02
 1.6970562748e+01	-6.2225396744e+00	-9.9852989185e-02
 1.7606958852e+01	-6.8589357775e+00	-1.0035958501e-01
 1.8243354955e+01	-7.4953318806e+00	-9.9406465408e-02
 1.8879751058e+01	-8.1317279836e+00	-9.6096007498e-02
 1.9516147161e+01	-8.7681240867e+00	-8.9530487143e-02
 1.2869343418e+01	-2.6870057685e+00	-1.2828158894e-01
 1.3505739521e+01	-3.3234018716e+00	-1.2559844615e-01
 1.4142135624e+01	-3.9597979746e+00	-1.1575418691e-01
 1.4778531727e+01	-4.5961940777e+00	-1.1023033014e-01
 1.5414927830e+01	-5.2325901808e+00	-1.0761082003e-01
 1.6051323933e+01	-5.8689862838e+00	-1.0633922598e-01
 1.6687720036e+01	-6.5053823869e+00	-1.0551822680e-01
 1.7324116139e+01	-7.1417784900e+00	-1.0425040013e-01
 1.7960512242e+01	-7.7781745930e+00	-1.0163822239e-01
 1.8596908345e+01	-8.4145706961e+00	-9.6784068763e-02
 1.9233304448e+01	-9.0509667992e+00	-8.8790213219e-02
 1.2586500705e+01	-2.9698484810e+00	-1.4768705287e-01
 1.3222896808e+01	-3.6062445841e+00	-1.3977328817e-01
 1.3859292911e+01	-4.2426406871e+00	-1.2656414955e-01
 1.4495689014e+01	-4.8790367902e+00	-1.2059768291e-01
 1.5132085117e+01	-5.5154328933e+00	-1.1710451258e-01
 1.5768481220e+01	-6.1518289963e+00	-1.1380201299e-01
 1.6404877324e+01	-6.7882250994e+00	-1.1106548042e-01
 1.7041273427e+01	-7.4246212025e+00	-1.0799749060e-01
 1.7677669530e+01	-8.0610173055e+00	-1.0370051803e-01
 1.8314065633e+01	-8.6974134086e+00	-9.7276935996e-02
 1.8950461736e+01	-9.3338095116e+00	-8.7829016548e-02
 1.2303657993e+01	-3.2526911935e+00	-1.6498459704e-01
 1.2940054096e+01	-3.8890872965e+00	-1.4895301298e-01
 1.3576450199e+01	-4.5254833996e+00	-1.3540755999e-01
 1.4212846302e+01	-5.1618795027e+00	-1.2879773764e-01
 1.4849242405e+01	-5.7982756057e+00	-1.2653381827e-01
 1.5485638508e+01	-6.4346717088e+00	-1.2117466489e-01
 1.6122034611e+01	-7.0710678119e+00	-1.1649685466e-01
 1.6758430714e+01	-7.7074639149e+00	-1.1160296140e-01
 1.7394826817e+01	-8.3438600180e+00	-1.0559545770e-01
 1.8031222920e+01	-8.9802561211e+00	-9.7576714939e-02
 1.8667619023e+01	-9.6166522241e+00	-8.6649003251e-02
 1.2020815280e+01	-3.5355339059e+00	-1.7780593829e-01
 1.2657211383e+01	-4.1719300090e+00	-1.5644975066e-01
 1.3293607486e+01	-4.8083261121e+00	-1.4253683131e-01
 1.3930003589e+01	-5.4447222151e+00	-1.3525248912e-01
 1.4566399692e+01	-6.0811183182e+00	-1.3378208086e-01
 1.5202795796e+01	-6.7175144213e+00	-1.2845928514e-01
 1.5839191899e+01	-7.3539105243e+00	-1.2181445336e-01
 1.6475588002e+01	-7.9903066274e+00	-1.1506891675e-01
 1.7111984105e+01	-8.6267027305e+00	-1.0732514600e-01
 1.7748380208e+01	-9.2630988335e+00	-9.7685510566e-02
 1.8384776311e+01	-9.8994949366e+00	-8.5252278679e-02
 1.1737972568e+01	-3.8183766184e+00	-1.8396367536e-01
 1.2374368671e+01	-4.4547727215e+00	-1.6251592417e-01
 1.3010764774e+01	-5.0911688246e+00	-1.4820438914e-01
 1.3647160877e+01	-5.7275649276e+00	-1.4021436562e-01
 1.4283556980e+01	-6.3639610307e+00	-1.3773119688e-01
 1.4919953083e+01	-7.0003571338e+00	-1.3565797644e-01
 1.5556349186e+01	-7.6367532368e+00	-1.2702037959e-01
 1.6192745289e+01	-8.2731493399e+00	-1.1839746011e-01
 1.6829141392e+01	-8.9095454430e+00	-1.0889168675e-01
 1.7465537495e+01	-9.5459415460e+00	-9.7605427077e-02
 1.8101933598e+01	-1.0182337649e+01	-8.3640947408e-02
 1.1455129855e+01	-4.1012193309e+00	-1.8897441824e-01
 1.2091525958e+01	-4.7376154340e+00	-1.6740396899e-01
 1.2727922061e+01	-5.3740115370e+00	-1.5266267163e-01
 1.3364318164e+01	-6.0104076401e+00	-1.4393580799e-01
 1.4000714267e+01	-6.6468037432e+00	-1.4040870782e-01
 1.4637110371e+01	-7.2831998462e+00	-1.4126674877e-01
 1.5273506474e+01	-7.9195959493e+00	-1.3211673566e-01
 1.5909902577e+01	-8.5559920524e+00	-1.2159069413e-01
 1.6546298680e+01	-9.1923881554e+00	-1.1029718300e-01
 1.7182694783e+01	-9.8287842585e+00	-9.7338567902e-02
 1.7819090886e+01	-1.0465180362e+01	-8.2704169531e-02
 1.1172287143e+01	-4.3840620434e+00	-1.9309061226e-01
 1.1808683246e+01	-5.0204581464e+00	-1.7136633312e-01
 1.2445079349e+01	-5.6568542495e+00	-1.5616412945e-01
 1.3081475452e+01	-6.2932503526e+00	-1.4666926957e-01
 1.3717871555e+01	-6.9296464556e+00	-1.4206706969e-01
 1.4354267658e+01	-7.5660425587e+00	-1.4154289394e-01
 1.4990663761e+01	-8.2024386618e+00	-1.3710562307e-01
 1.5627059864e+01	-8.8388347648e+00	-1.2465072074e-01
 1.6263455967e+01	-9.4752308679e+00	-1.1154373703e-01
 1.6899852070e+01	-1.0111626971e+01	-9.6887035700e-02
 1.7536248173e+01	-1.0748023074e+01	-8.3002074473e-02
 1.0889444430e+01	-4.6669047558e+00	-1.9656471529e-01
 1.1525840533e+01	-5.3033008589e+00	-1.7465547712e-01
 1.2162236636e+01	-5.9396969620e+00	-1.5896122585e-01
 1.2798632739e+01	-6.5760930650e+00	-1.4866721625e-01
 1.3435028843e+01	-7.2124891681e+00	-1.4295875105e-01
 1.4071424946e+01	-7.8488852712e+00	-1.4102118085e-01
 1.4707821049e+01	-8.4852813742e+00	-1.4198914260e-01
 1.5344217152e+01	-9.1216774773e+00	-1.2757964105e-01
 1.5980613255e+01	-9.7580735804e+00	-1.1263345036e-01
 1.6617009358e+01	-1.0394469683e+01	-9.6819716622e-02
 1.7253405461e+01	-1.1030865787e+01	-8.3441088432e-02
 1.0606601718e+01	-4.9497474683e+00	-1.9964919775e-01
 1.1242997821e+01	-5.5861435714e+00	-1.7752387407e-01
 1.1879393924e+01	-6.2225396744e+00	-1.6130643655e-01
 1.2515790027e+01	-6.8589357775e+00	-1.5018212647e-01
 1.3152186130e+01	-7.4953318806e+00	-1.4333623302e-01
 1.3788582233e+01	-8.1317279837e+00	-1.3995409326e-01
 1.4424978336e+01	-8.7681240867e+00	-1.3922109220e-01
 1.5061374439e+01	-9.4045201898e+00	-1.3037955544e-01
 1.5697770542e+01	-1.0040916293e+01	-1.1356842372e-01
 1.6334166645e+01	-1.0677312396e+01	-9.9468942723e-02
 1.6970562749e+01	-1.1313708499e+01	-8.4011658730e-02
 4.2426406871e+00	 1.4142135624e+00	-2.1648015429e-02
 4.8790367902e+00	 7.7781745929e-01	-5.7976025954e-02
 5.5154328932e+00	 1.4142135623e-01	-9.1705178573e-02
 6.1518289963e+00	-4.9497474683e-01	-1.2173837475e-01
 6.7882250994e+00	-1.1313708499e+00	-1.4697851593e-01
 7.4246212024e+00	-1.7677669530e+00	-1.6632850359e-01
 8.0610173055e+00	-2.4041630560e+00	-1.7869123918e-01
 8.6974134086e+00	-3.0405591591e+00	-1.8296962417e-01
 9.3338095117e+00	-3.6769552622e+00	-1.8364178765e-01
 9.9702056147e+00	-4.3133513652e+00	-1.8774830818e-01
 1.0606601718e+01	-4.9497474683e+00	-1.9964919775e-01
 3.9597979746e+00	 1.1313708499e+00	-2.1486329035e-02
 4.5961940777e+00	 4.9497474682e-01	-5.6348839781e-02
 5.2325901808e+00	-1.4142135624e-01	-8.8817526165e-02
 5.8689862838e+00	-7.7781745931e-01	-1.1779528965e-01
 6.5053823869e+00	-1.4142135624e+00	-1.4218503168e-01
 7.1417784900e+00	-2.0506096654e+00	-1.6088965374e-01
 7.7781745930e+00	-2.6870057685e+00	-1.7281205728e-01
 8.4145706961e+00	-3.3234018716e+00	-1.7685514375e-01
 9.0509667992e+00	-3.9597979746e+00	-1.7449087150e-01
 9.6873629023e+00	-4.5961940777e+00	-1.8543202386e-01
 1.0323759005e+01	-5.2325901808e+00	-2.0429698897e-01
 3.6769552621e+00	 8.4852813741e-01	-2.4230330036e-02
 4.3133513652e+00	 2.1213203435e-01	-5.7393065575e-02
 4.9497474683e+00	-4.2426406871e-01	-8.8367010295e-02
 5.5861435714e+00	-1.0606601718e+00	-1.1605506566e-01
 6.2225396744e+00	-1.6970562748e+00	-1.3936013312e-01
 6.8589357775e+00	-2.3334523779e+00	-1.5718511415e-01
 7.4953318806e+00	-2.9698484810e+00	-1.6843291020e-01
 8.1317279836e+00	-3.6062445840e+00	-1.7148663722e-01
 8.7681240867e+00	-4.2426406871e+00	-1.6538812187e-01
 9.4045201898e+00	-4.8790367902e+00	-1.8091564707e-01
 1.0040916293e+01	-5.5154328932e+00	-2.0649189695e-01
 3.3941125497e+00	 5.6568542494e-01	-3.0087679107e-02
 4.0305086527e+00	-7.0710678125e-02	-6.1316364011e-02
 4.6669047558e+00	-7.0710678119e-01	-9.0561291641e-02
 5.3033008589e+00	-1.3435028842e+00	-1.1672536346e-01
 5.9396969620e+00	-1.9798989873e+00	-1.3871148092e-01
 6.5760930650e+00	-2.6162950904e+00	-1.5542254549e-01
 7.2124891681e+00	-3.2526911934e+00	-1.6576145862e-01
 7.8488852712e+00	-3.8890872965e+00	-1.6898094437e-01
 8.4852813742e+00	-4.5254833996e+00	-1.6565854939e-01
 9.1216774773e+00	-5.1618795026e+00	-1.7445168314e-01
 9.7580735804e+00	-5.7982756057e+00	-2.0648642971e-01
 3.1112698372e+00	 2.8284271246e-01	-3.9266036927e-02
 3.7476659403e+00	-3.5355339060e-01	-6.8326395768e-02
 4.3840620433e+00	-9.8994949366e-01	-9.5608030880e-02
 5.0204581464e+00	-1.6263455967e+00	-1.2001384372e-01
 5.6568542495e+00	-2.2627416998e+00	-1.4044673575e-01
 6.2932503526e+00	-2.8991378029e+00	-1.5580960844e-01
 6.9296464556e+00	-3.5355339059e+00	-1.6539830342e-01
 7.5660425587e+00	-4.1719300090e+00	-1.6999616499e-01
 8.2024386618e+00	-4.8083261121e+00	-1.6893357753e-01
 8.8388347648e+00	-5.4447222151e+00	-1.6629264995e-01
 9.4752308679e+00	-6.0811183182e+00	-2.0453310779e-01
 2.8284271247e+00	-1.2501222280e-11	-5.5767404418e-02
 3.4648232278e+00	-6.3639610307e-01	-7.8630821523e-02
 4.1012193309e+00	-1.2727922061e+00	-1.0371488869e-01
 4.7376154339e+00	-1.9091883092e+00	-1.2612816713e-01
 5.3740115370e+00	-2.5455844123e+00	-1.4477355830e-01
 6.0104076401e+00	-3.1819805153e+00	-1.5855396367e-01
 6.6468037432e+00	-3.8183766184e+00	-1.6898299565e-01
 7.2831998462e+00	-4.4547727215e+00	-1.7418825206e-01
 7.9195959493e+00	-5.0911688245e+00	-1.7486916388e-01
 8.5559920524e+00	-5.7275649276e+00	-1.7421268234e-01
 9.1923881554e+00	-6.3639610307e+00	-2.0088446428e-01
 2.5455844123e+00	-2.8284271249e-01	-7.9774131896e-02
 3.1819805153e+00	-9.1923881555e-01	-9.2437301951e-02
 3.8183766184e+00	-1.5556349186e+00	-1.1508952574e-01
 4.4547727215e+00	-2.1920310217e+00	-1.3527599435e-01
 5.0911688245e+00	-2.8284271247e+00	-1.5189960924e-01
 5.7275649276e+00	-3.4648232278e+00	-1.6404543264e-01
 6.3639610307e+00	-4.1012193309e+00	-1.7591683225e-01
 7.0003571338e+00	-4.7376154339e+00	-1.8121316297e-01
 7.6367532368e+00	-5.3740115370e+00	-1.8312125751e-01
 8.2731493399e+00	-6.0104076401e+00	-1.8482810935e-01
 8.9095454430e+00	-6.6468037431e+00	-1.9579304481e-01
 2.2627416998e+00	-5.6568542496e-01	-1.0473110410e-01
 2.8991378029e+00	-1.2020815280e+00	-1.1058972739e-01
 3.5355339059e+00	-1.8384776311e+00	-1.2993960272e-01
 4.1719300090e+00	-2.4748737341e+00	-1.4766498607e-01
 4.8083261121e+00	-3.1112698372e+00	-1.6203254925e-01
 5.4447222151e+00	-3.7476659403e+00	-1.7554568940e-01
 6.0811183182e+00	-4.3840620433e+00	-1.8585576839e-01
 6.7175144213e+00	-5.0204581464e+00	-1.9072684656e-01
 7.3539105243e+00	-5.6568542495e+00	-1.9334579890e-01
 7.9903066274e+00	-6.2932503525e+00	-1.9689966113e-01
 8.6267027305e+00	-6.9296464556e+00	-2.0457562978e-01
 1.9798989873e+00	-8.4852813744e-01	-1.3063832102e-01
 2.6162950904e+00	-1.4849242405e+00	-1.3441705073e-01
 3.2526911935e+00	-2.1213203436e+00	-1.4847278030e-01
 3.8890872965e+00	-2.7577164466e+00	-1.6350280296e-01
 4.5254833996e+00	-3.3941125497e+00	-1.7538003900e-01
 5.1618795027e+00	-4.0305086528e+00	-1.9022333145e-01
 5.7982756057e+00	-4.6669047558e+00	-1.9845575266e-01
 6.4346717088e+00	-5.3033008589e+00	-2.0238524309e-01
 7.0710678119e+00	-5.9396969620e+00	-2.0519871995e-01
 7.7074639149e+00	-6.5760930650e+00	-2.1008326126e-01
 8.3438600180e+00	-7.2124891681e+00	-2.2022610578e-01
 1.6970562749e+00	-1.1313708499e+00	-1.5749578267e-01
 2.3334523779e+00	-1.7677669530e+00	-1.5888810642e-01
 2.9698484810e+00	-2.4041630560e+00	-1.7089671915e-01
 3.6062445841e+00	-3.0405591591e+00	-1.8299710571e-01
 4.2426406871e+00	-3.6769552622e+00	-1.9574223162e-01
 4.8790367902e+00	-4.3133513652e+00	-2.0773430715e-01
 5.5154328933e+00	-4.9497474683e+00	-2.1337272512e-01
 6.1518289963e+00	-5.5861435714e+00	-2.1584428425e-01
 6.7882250994e+00	-6.2225396744e+00	-2.1833594403e-01
 7.4246212025e+00	-6.8589357775e+00	-2.2403482473e-01
 8.0610173055e+00	-7.4953318806e+00	-2.3612820738e-01
 1.4142135624e+00	-1.4142135624e+00	-1.8530348904e-01
 2.0506096655e+00	-2.0506096655e+00	-1.8400289447e-01
 2.6870057685e+00	-2.6870057685e+00	-1.9406040713e-01
 3.3234018716e+00	-3.3234018716e+00	-2.0635555497e-01
 3.9597979746e+00	-3.9597979746e+00	-2.1998886953e-01
 4.5961940777e+00	-4.5961940777e+00	-2.2773455635e-01
 5.2325901808e+00	-5.2325901808e+00	-2.3026261724e-01
 5.8689862838e+00	-5.8689862838e+00	-2.3075989317e-01
 6.5053823869e+00	-6.5053823869e+00	-2.3241338591e-01
 7.1417784900e+00	-7.1417784900e+00	-2.3841025798e-01
 7.7781745931e+00	-7.7781745931e+00	-2.5193783267e-01
 1.0606601718e+01	-4.9497474683e+00	-1.9964919775e-01
 1.1242997821e+01	-5.5861435714e+00	-1.7752387407e-01
 1.1879393924e+01	-6.2225396744e+00	-1.6130643655e-01
 1.2515790027e+01	-6.8589357775e+00	-1.5018212647e-01
 1.3152186130e+01	-7.4953318806e+00	-1.4333623302e-01
 1.3788582233e+01	-8.1317279837e+00	-1.3995409326e-01
 1.4424978336e+01	-8.7681240867e+00	-1.3922109220e-01
 1.5061374439e+01	-9.4045201898e+00	-1.3037955544e-01
 1.5697770542e+01	-1.0040916293e+01	-1.1356842372e-01
 1.6334166645e+01	-1.0677312396e+01	-9.9468942723e-02
 1.6970562749e+01	-1.1313708499e+01	-8.4011658730e-02
 1.0323759005e+01	-5.2325901808e+00	-2.0429698897e-01
 1.0960155108e+01	-5.8689862838e+00	-1.8210896739e-01
 1.1596551211e+01	-6.5053823869e+00	-1.6544439426e-01
 1.2232947315e+01	-7.1417784900e+00	-1.5348849736e-01
 1.2869343418e+01	-7.7781745931e+00	-1.4542655232e-01
 1.3505739521e+01	-8.4145706961e+00	-1.4044388271e-01
 1.4142135624e+01	-9.0509667992e+00	-1.3772586000e-01
 1.4778531727e+01	-9.6873629023e+00	-1.3442076845e-01
 1.5414927830e+01	-1.0323759005e+01	-1.1536219967e-01
 1.6051323933e+01	-1.0960155108e+01	-1.0296172079e-01
 1.6687720036e+01	-1.1596551211e+01	-8.4770176586e-02
 1.0040916293e+01	-5.5154328932e+00	-2.0649189695e-01
 1.0677312396e+01	-6.1518289963e+00	-1.8448006912e-01
 1.1313708499e+01	-6.7882250994e+00	-1.6760723989e-01
 1.1950104602e+01	-7.4246212025e+00	-1.5505862350e-01
 1.2586500705e+01	-8.0610173055e+00	-1.4601948207e-01
 1.3222896808e+01	-8.6974134086e+00	-1.3967512565e-01
 1.3859292911e+01	-9.3338095117e+00	-1.3521091217e-01
 1.4495689014e+01	-9.9702056147e+00	-1.3181224747e-01
 1.5132085117e+01	-1.0606601718e+01	-1.2129143530e-01
 1.5768481220e+01	-1.1242997821e+01	-1.0657301712e-01
 1.6404877324e+01	-1.1879393924e+01	-8.5773033735e-02
 9.7580735804e+00	-5.7982756057e+00	-2.0648642971e-01
 1.0394469683e+01	-6.4346717088e+00	-1.8488968995e-01
 1.1030865787e+01	-7.0710678119e+00	-1.6804748679e-01
 1.1667261890e+01	-7.7074639149e+00	-1.5514502093e-01
 1.2303657993e+01	-8.3438600180e+00	-1.4536754098e-01
 1.2940054096e+01	-8.9802561211e+00	-1.3790034346e-01
 1.3576450199e+01	-9.6166522241e+00	-1.3192877277e-01
 1.4212846302e+01	-1.0253048327e+01	-1.2663822124e-01
 1.4849242405e+01	-1.0889444430e+01	-1.2755205084e-01
 1.5485638508e+01	-1.1525840533e+01	-1.1029327995e-01
 1.6122034611e+01	-1.2162236636e+01	-8.7010679057e-02
 9.4752308679e+00	-6.0811183182e+00	-2.0453310779e-01
 1.0111626971e+01	-6.7175144213e+00	-1.8359035310e-01
 1.0748023074e+01	-7.3539105243e+00	-1.6701766085e-01
 1.1384419177e+01	-7.9903066274e+00	-1.5400021822e-01
 1.2020815280e+01	-8.6267027305e+00	-1.4372326029e-01
 1.2657211383e+01	-9.2630988335e+00	-1.3537207005e-01
 1.3293607486e+01	-9.8994949366e+00	-1.2813197839e-01
 1.3930003589e+01	-1.0535891040e+01	-1.2586640948e-01
 1.4566399692e+01	-1.1172287143e+01	-1.3002487458e-01
 1.5202795796e+01	-1.1808683246e+01	-1.1411295803e-01
 1.5839191899e+01	-1.2445079349e+01	-8.8473561948e-02
 9.1923881554e+00	-6.3639610307e+00	-2.0088446428e-01
 9.8287842585e+00	-7.0003571337e+00	-1.8083459434e-01
 1.0465180362e+01	-7.6367532368e+00	-1.6477030053e-01
 1.1101576465e+01	-8.2731493399e+00	-1.5187675649e-01
 1.1737972568e+01	-8.9095454429e+00	-1.4133918378e-01
 1.2374368671e+01	-9.5459415460e+00	-1.3234285188e-01
 1.3010764774e+01	-1.0182337649e+01	-1.2407307814e-01
 1.3647160877e+01	-1.0818733752e+01	-1.2737597798e-01
 1.4283556980e+01	-1.1455129855e+01	-1.2883464696e-01
 1.4919953083e+01	-1.2091525958e+01	-1.1802250065e-01
 1.5556349186e+01	-1.2727922061e+01	-9.0152132325e-02
 8.9095454430e+00	-6.6468037431e+00	-1.9579304481e-01
 9.5459415460e+00	-7.2831998462e+00	-1.7687496196e-01
 1.0182337649e+01	-7.9195959493e+00	-1.6155795677e-01
 1.0818733752e+01	-8.5559920523e+00	-1.4902718936e-01
 1.1455129855e+01	-9.1923881554e+00	-1.3846786778e-01
 1.2091525958e+01	-9.8287842585e+00	-1.2906524794e-01
 1.2727922061e+01	-1.0465180362e+01	-1.2349781873e-01
 1.3364318164e+01	-1.1101576465e+01	-1.2894360388e-01
 1.4000714267e+01	-1.1737972568e+01	-1.2789328783e-01
 1.4637110371e+01	-1.2374368671e+01	-1.2026136568e-01
 1.5273506474e+01	-1.3010764774e+01	-9.2036840622e-02
 8.6267027305e+00	-6.9296464556e+00	-2.0457562978e-01
 9.2630988336e+00	-7.5660425587e+00	-1.7196401680e-01
 9.8994949366e+00	-8.2024386618e+00	-1.5763319310e-01
 1.0535891040e+01	-8.8388347648e+00	-1.4570408304e-01
 1.1172287143e+01	-9.4752308679e+00	-1.3536188112e-01
 1.1808683246e+01	-1.0111626971e+01	-1.2579182976e-01
 1.2445079349e+01	-1.0748023074e+01	-1.2751099042e-01
 1.3081475452e+01	-1.1384419177e+01	-1.3052898874e-01
 1.3717871555e+01	-1.2020815280e+01	-1.2716049919e-01
 1.4354267658e+01	-1.2657211383e+01	-1.1732001465e-01
 1.4990663761e+01	-1.3293607486e+01	-9.4118137792e-02
 8.3438600180e+00	-7.2124891681e+00	-2.2022610578e-01
 8.9802561211e+00	-7.8488852712e+00	-1.6635433223e-01
 9.6166522241e+00	-8.4852813742e+00	-1.5324858557e-01
 1.0253048327e+01	-9.1216774773e+00	-1.4216001624e-01
 1.0889444430e+01	-9.7580735804e+00	-1.3227380522e-01
 1.1525840533e+01	-1.0394469683e+01	-1.2433842302e-01
 1.2162236636e+01	-1.1030865787e+01	-1.3131081056e-01
 1.2798632739e+01	-1.1667261890e+01	-1.3209183333e-01
 1.3435028843e+01	-1.2303657993e+01	-1.2659598226e-01
 1.4071424946e+01	-1.2940054096e+01	-1.1473774797e-01
 1.4707821049e+01	-1.3576450199e+01	-9.6386475308e-02
 8.0610173055e+00	-7.4953318806e+00	-2.3612820738e-01
 8.6974134086e+00	-8.1317279836e+00	-1.7009297787e-01
 9.3338095117e+00	-8.7681240867e+00	-1.4865672276e-01
 9.9702056147e+00	-9.4045201898e+00	-1.3864758023e-01
 1.0606601718e+01	-1.0040916293e+01	-1.2945623402e-01
 1.1242997821e+01	-1.0677312396e+01	-1.3004037188e-01
 1.1879393924e+01	-1.1313708499e+01	-1.3485697868e-01
 1.2515790027e+01	-1.1950104602e+01	-1.3359183763e-01
 1.3152186130e+01	-1.2586500705e+01	-1.2615943743e-01
 1.3788582233e+01	-1.3222896808e+01	-1.1247426649e-01
 1.4424978336e+01	-1.3859292911e+01	-9.2450812933e-02
 7.7781745931e+00	-7.7781745931e+00	-2.5193783267e-01
 8.4145706961e+00	-8.4145706961e+00	-1.8574208566e-01
 9.0509667992e+00	-9.0509667992e+00	-1.4411020582e-01
 9.6873629023e+00	-9.6873629023e+00	-1.3541937881e-01
 1.0323759005e+01	-1.0323759005e+01	-1.2716177398e-01
 1.0960155108e+01	-1.0960155108e+01	-1.3525755597e-01
 1.1596551211e+01	-1.1596551211e+01	-1.3810919352e-01
 1.2232947315e+01	-1.2232947315e+01	-1.3498870083e-01
 1.2869343418e+01	-1.2869343418e+01	-1.2581056435e-01
 1.3505739521e+01	-1.3505739521e+01	-1.1048927028e-01
 1.4142135624e+01	-1.4142135624e+01	-8.8939304514e-02
 8.4852813742e+00	 5.6568542495e+00	 2.3416756678e-01
 9.1216774773e+00	 5.0204581464e+00	 1.6641687007e-01
 9.7580735804e+00	 4.3840620434e+00	 1.4447856869e-01
 1.0394469683e+01	 3.7476659403e+00	 1.2402192334e-01
 1.1030865787e+01	 3.1112698373e+00	 9.7587500956e-02
 1.1667261890e+01	 2.4748737342e+00	 6.7086588345e-02
 1.2303657993e+01	 1.8384776311e+00	 3.8666062574e-02
 1.2940054096e+01	 1.2020815281e+00	 1.2545524878e-02
 1.3576450199e+01	 5.6568542499e-01	-1.1055418148e-02
 1.4212846302e+01	-7.0710678080e-02	-3.1917154550e-02
 1.4849242405e+01	-7.0710678115e-01	-5.5449383318e-02
 8.3438600180e+00	 5.5154328933e+00	 2.2309542976e-01
 8.9802561211e+00	 4.8790367902e+00	 1.4139526616e-01
 9.6166522241e+00	 4.2426406871e+00	 1.2295881151e-01
 1.0253048327e+01	 3.6062445841e+00	 1.0563845018e-01
 1.0889444430e+01	 2.9698484810e+00	 7.9466602278e-02
 1.1525840533e+01	 2.3334523779e+00	 5.1758912345e-02
 1.2162236636e+01	 1.6970562749e+00	 2.5848597887e-02
 1.2798632739e+01	 1.0606601718e+00	 1.9552640263e-03
 1.3435028843e+01	 4.2426406875e-01	-1.9701478756e-02
 1.4071424946e+01	-2.1213203432e-01	-3.8902014620e-02
 1.4707821049e+01	-8.4852813739e-01	-5.5499341044e-02
 8.2024386618e+00	 5.3740115370e+00	 2.1162776648e-01
 8.8388347648e+00	 4.7376154340e+00	 1.1615454567e-01
 9.4752308679e+00	 4.1012193309e+00	 1.0127443138e-01
 1.0111626971e+01	 3.4648232278e+00	 8.7144846686e-02
 1.0748023074e+01	 2.8284271248e+00	 6.1288351488e-02
 1.1384419177e+01	 2.1920310217e+00	 3.6401433125e-02
 1.2020815280e+01	 1.5556349186e+00	 1.3028878209e-02
 1.2657211383e+01	 9.1923881558e-01	-8.6097042508e-03
 1.3293607486e+01	 2.8284271251e-01	-2.8294699889e-02
 1.3930003589e+01	-3.5355339056e-01	-4.5806488979e-02
 1.4566399692e+01	-9.8994949363e-01	-6.0925446439e-02
 8.0610173055e+00	 5.2325901808e+00	 1.9975701708e-01
 8.6974134086e+00	 4.5961940777e+00	 1.0627823663e-01
 9.3338095117e+00	 3.9597979747e+00	 7.9456107511e-02
 9.9702056147e+00	 3.3234018716e+00	 6.6121543792e-02
 1.0606601718e+01	 2.6870057685e+00	 4.3071202476e-02
 1.1242997821e+01	 2.0506096655e+00	 2.1032604384e-02
 1.1879393924e+01	 1.4142135624e+00	 2.2535704727e-04
 1.2515790027e+01	 7.7781745934e-01	-1.9130926639e-02
 1.3152186130e+01	 1.4142135627e-01	-3.6816628424e-02
 1.3788582233e+01	-4.9497474680e-01	-5.2612124695e-02
 1.4424978336e+01	-1.1313708499e+00	-6.6297786484e-02
 7.9195959493e+00	 5.0911688245e+00	 1.8747562181e-01
 8.5559920524e+00	 4.4547727215e+00	 9.7895975630e-02
 9.1923881554e+00	 3.8183766184e+00	 5.7534519033e-02
 9.8287842585e+00	 3.1819805154e+00	 4.4725064612e-02
 1.0465180362e+01	 2.5455844123e+00	 2.4833609317e-02
 1.1101576465e+01	 1.9091883092e+00	 5.6708800036e-03
 1.1737972568e+01	 1.2727922062e+00	-1.2543511909e-02
 1.2374368671e+01	 6.3639610310e-01	-2.9589949642e-02
 1.3010764774e+01	 2.8000712859e-11	-4.5248811055e-02
 1.3647160877e+01	-6.3639610304e-01	-5.9300468653e-02
 1.4283556980e+01	-1.2727922061e+00	-7.1525289582e-02
 7.7781745931e+00	 4.9497474683e+00	 1.7477602106e-01
 8.4145706961e+00	 4.3133513652e+00	 8.9137269276e-02
 9.0509667992e+00	 3.6769552622e+00	 3.5540345024e-02
 9.6873629023e+00	 3.0405591591e+00	 2.3299046560e-02
 1.0323759005e+01	 2.4041630561e+00	 6.5940262673e-03
 1.0960155108e+01	 1.7677669530e+00	-9.6652859500e-03
 1.1596551211e+01	 1.1313708499e+00	-2.5259274786e-02
 1.2232947315e+01	 4.9497474686e-01	-3.9968319575e-02
 1.2869343418e+01	-1.4142135621e-01	-5.3572794293e-02
 1.3505739521e+01	-7.7781745928e-01	-6.5853067557e-02
 1.4142135624e+01	-1.4142135624e+00	-7.6589502628e-02
 7.6367532368e+00	 4.8083261121e+00	 1.6165065536e-01
 8.2731493399e+00	 4.1719300090e+00	 7.9994558102e-02
 8.9095454430e+00	 3.5355339059e+00	 1.3504269407e-02
 9.5459415460e+00	 2.8991378029e+00	 1.8619442707e-03
 1.0182337649e+01	 2.2627416998e+00	-1.1629092232e-02
 1.0818733752e+01	 1.6263455967e+00	-2.4957439228e-02
 1.1455129855e+01	 9.8994949368e-01	-3.7903477527e-02
 1.2091525958e+01	 3.5355339062e-01	-5.0247582576e-02
 1.2727922061e+01	-2.8284271245e-01	-6.1770124465e-02
 1.3364318164e+01	-9.1923881552e-01	-7.2251467925e-02
 1.4000714268e+01	-1.5556349186e+00	-8.1471972332e-02
 7.4953318806e+00	 4.6669047558e+00	 1.4809196538e-01
 8.1317279837e+00	 4.0305086528e+00	 7.0460282773e-02
 8.7681240867e+00	 3.3941125497e+00	-3.2352398620e-03
 9.4045201898e+00	 2.7577164466e+00	-1.9567787440e-02
 1.0040916293e+01	 2.1213203436e+00	-2.9817291555e-02
 1.0677312396e+01	 1.4849242405e+00	-4.0187125398e-02
 1.1313708499e+01	 8.4852813744e-01	-5.0457665890e-02
 1.1950104602e+01	 2.1213203438e-01	-6.0409284594e-02
 1.2586500705e+01	-4.2426406869e-01	-6.9822347712e-02
 1.3222896808e+01	-1.0606601718e+00	-7.8477216092e-02
 1.3859292911e+01	-1.6970562748e+00	-8.6154245220e-02
 7.3539105244e+00	 4.5254833996e+00	 1.3409239189e-01
 7.9903066274e+00	 3.8890872965e+00	 6.0526884088e-02
 8.6267027305e+00	 3.2526911935e+00	-1.2140772200e-02
 9.2630988336e+00	 2.6162950904e+00	-4.0971693572e-02
 9.8994949366e+00	 1.9798989873e+00	-4.7952116894e-02
 1.0535891040e+01	 1.3435028843e+00	-5.5335889842e-02
 1.1172287143e+01	 7.0710678120e-01	-6.2903385451e-02
 1.1808683246e+01	 7.0710678136e-02	-7.0434971396e-02
 1.2445079349e+01	-5.6568542493e-01	-7.7711009996e-02
 1.3081475452e+01	-1.2020815280e+00	-8.4511858208e-02
 1.3717871555e+01	-1.8384776311e+00	-9.0617867638e-02
 7.2124891681e+00	 4.3840620433e+00	 1.1964437584e-01
 7.8488852712e+00	 3.7476659403e+00	 5.0186802982e-02
 8.4852813743e+00	 3.1112698372e+00	-2.1453196514e-02
 9.1216774773e+00	 2.4748737342e+00	-6.2331318940e-02
 9.7580735804e+00	 1.8384776311e+00	-6.6015113257e-02
 1.0394469683e+01	 1.2020815280e+00	-7.0385277762e-02
 1.1030865787e+01	 5.6568542496e-01	-7.5222181602e-02
 1.1667261890e+01	-7.0710678104e-02	-8.0306188568e-02
 1.2303657993e+01	-7.0710678117e-01	-8.5417657090e-02
 1.2940054096e+01	-1.3435028842e+00	-9.0336940242e-02
 1.3576450199e+01	-1.9798989873e+00	-9.4844385742e-02
 7.0710678119e+00	 4.2426406871e+00	 1.0474035827e-01
 7.7074639150e+00	 3.6062445840e+00	 3.9432488641e-02
 8.3438600180e+00	 2.9698484810e+00	-3.1198470390e-02
 8.9802561211e+00	 2.3334523779e+00	-8.3628201471e-02
 9.6166522241e+00	 1.6970562749e+00	-8.3987825468e-02
 1.0253048327e+01	 1.0606601718e+00	-8.5316834172e-02
 1.0889444430e+01	 4.2426406872e-01	-8.7395599550e-02
 1.1525840533e+01	-2.1213203434e-01	-9.0004481507e-02
 1.2162236636e+01	-8.4852813741e-01	-9.2923834587e-02
 1.2798632739e+01	-1.4849242405e+00	-9.5934007978e-02
 1.3435028843e+01	-2.1213203435e+00	-9.8815345511e-02
 1.4849242405e+01	-7.0710678115e-01	-5.5449383318e-02
 1.5485638508e+01	-1.3435028842e+00	-6.0741131381e-02
 1.6122034611e+01	-1.9798989873e+00	-6.4349658709e-02
 1.6758430714e+01	-2.6162950904e+00	-6.6810415640e-02
 1.7394826817e+01	-3.2526911934e+00	-6.8658876451e-02
 1.8031222920e+01	-3.8890872965e+00	-6.8711616378e-02
 1.8667619023e+01	-4.5254833996e+00	-6.9376654969e-02
 1.9304015126e+01	-5.1618795027e+00	-7.0832404813e-02
 1.9940411229e+01	-5.7982756057e+00	-7.2181355705e-02
 2.0576807333e+01	-6.4346717088e+00	-7.2525896217e-02
 2.1213203436e+01	-7.0710678119e+00	-5.7183446157e-02
 1.4707821049e+01	-8.4852813739e-01	-5.5499341044e-02
 1.5344217152e+01	-1.4849242405e+00	-6.1796713260e-02
 1.5980613255e+01	-2.1213203435e+00	-6.6253187195e-02
 1.6617009358e+01	-2.7577164466e+00	-6.9404211939e-02
 1.7253405461e+01	-3.3941125497e+00	-7.1785260525e-02
 1.7889801564e+01	-4.0305086528e+00	-7.1366238694e-02
 1.8526197667e+01	-4.6669047558e+00	-7.2151297087e-02
 1.9162593770e+01	-5.3033008589e+00	-7.3573089279e-02
 1.9798989873e+01	-5.9396969620e+00	-7.4734104109e-02
 2.0435385976e+01	-6.5760930651e+00	-7.4736729193e-02
 2.1071782079e+01	-7.2124891681e+00	-6.2049861471e-02
 1.4566399692e+01	-9.8994949363e-01	-6.0925446439e-02
 1.5202795796e+01	-1.6263455967e+00	-6.3228339356e-02
 1.5839191899e+01	-2.2627416998e+00	-6.8498599652e-02
 1.6475588002e+01	-2.8991378028e+00	-7.2305731754e-02
 1.7111984105e+01	-3.5355339059e+00	-7.4601584549e-02
 1.7748380208e+01	-4.1719300090e+00	-7.4115918312e-02
 1.8384776311e+01	-4.8083261121e+00	-7.5010420325e-02
 1.9021172414e+01	-5.4447222151e+00	-7.6387679678e-02
 1.9657568517e+01	-6.0811183182e+00	-7.7350184255e-02
 2.0293964620e+01	-6.7175144213e+00	-7.7000320717e-02
 2.0930360723e+01	-7.3539105244e+00	-6.6940972247e-02
 1.4424978336e+01	-1.1313708499e+00	-6.6297786484e-02
 1.5061374439e+01	-1.7677669529e+00	-6.5036823317e-02
 1.5697770542e+01	-2.4041630560e+00	-7.1086709788e-02
 1.6334166645e+01	-3.0405591591e+00	-7.5515788854e-02
 1.6970562749e+01	-3.6769552622e+00	-7.7193743156e-02
 1.7606958852e+01	-4.3133513652e+00	-7.6960918912e-02
 1.8243354955e+01	-4.9497474683e+00	-7.7954288410e-02
 1.8879751058e+01	-5.5861435714e+00	-7.9276439786e-02
 1.9516147161e+01	-6.2225396745e+00	-8.0029859966e-02
 2.0152543264e+01	-6.8589357775e+00	-7.9316934657e-02
 2.0788939367e+01	-7.4953318806e+00	-7.1854514687e-02
 1.4283556980e+01	-1.2727922061e+00	-7.1525289582e-02
 1.4919953083e+01	-1.9091883092e+00	-6.7222978790e-02
 1.5556349186e+01	-2.5455844123e+00	-7.4018331314e-02
 1.6192745289e+01	-3.1819805153e+00	-7.9035197012e-02
 1.6829141392e+01	-3.8183766184e+00	-7.9892063460e-02
 1.7465537495e+01	-4.4547727215e+00	-7.9901504125e-02
 1.8101933598e+01	-5.0911688245e+00	-8.0983165021e-02
 1.8738329701e+01	-5.7275649276e+00	-8.2239633327e-02
 1.9374725805e+01	-6.3639610307e+00	-8.2773395016e-02
 2.0011121908e+01	-7.0003571338e+00	-8.1686834835e-02
 2.0647518011e+01	-7.6367532368e+00	-7.6788224975e-02
 1.4142135624e+01	-1.4142135624e+00	-7.6589502628e-02
 1.4778531727e+01	-2.0506096654e+00	-6.9787619431e-02
 1.5414927830e+01	-2.6870057685e+00	-7.7294277945e-02
 1.6051323933e+01	-3.3234018716e+00	-8.2864770004e-02
 1.6687720036e+01	-3.9597979746e+00	-8.2696808997e-02
 1.7324116139e+01	-4.5961940777e+00	-8.2937937537e-02
 1.7960512242e+01	-5.2325901808e+00	-8.4097313790e-02
 1.8596908345e+01	-5.8689862839e+00	-8.5277523981e-02
 1.9233304448e+01	-6.5053823869e+00	-8.5581053128e-02
 1.9869700551e+01	-7.1417784900e+00	-8.4110285022e-02
 2.0506096654e+01	-7.7781745931e+00	-7.9967502225e-02
 1.4000714268e+01	-1.5556349186e+00	-8.1471972332e-02
 1.4637110371e+01	-2.1920310217e+00	-7.4331712821e-02
 1.5273506474e+01	-2.8284271247e+00	-8.0915363401e-02
 1.5909902577e+01	-3.4648232278e+00	-8.6807593556e-02
 1.6546298680e+01	-4.1012193309e+00	-8.5608243256e-02
 1.7182694783e+01	-4.7376154339e+00	-8.6070482681e-02
 1.7819090886e+01	-5.3740115370e+00	-8.7296998298e-02
 1.8455486989e+01	-6.0104076401e+00	-8.8390375378e-02
 1.9091883092e+01	-6.6468037432e+00	-8.8453097980e-02
 1.9728279195e+01	-7.2831998462e+00	-8.6587548944e-02
 2.0364675298e+01	-7.9195959493e+00	-8.1896009871e-02
 1.3859292911e+01	-1.6970562748e+00	-8.6154245220e-02
 1.4495689014e+01	-2.3334523779e+00	-8.0496437841e-02
 1.5132085117e+01	-2.9698484810e+00	-8.4882401402e-02
 1.5768481220e+01	-3.6062445840e+00	-8.9461476464e-02
 1.6404877324e+01	-4.2426406871e+00	-8.8626629678e-02
 1.7041273427e+01	-4.8790367902e+00	-8.9299403046e-02
 1.7677669530e+01	-5.5154328933e+00	-9.0582482081e-02
 1.8314065633e+01	-6.1518289963e+00	-9.1578451098e-02
 1.8950461736e+01	-6.7882250994e+00	-9.1389793201e-02
 1.9586857839e+01	-7.4246212025e+00	-8.9118890274e-02
 2.0223253942e+01	-8.0610173055e+00	-8.3868022964e-02
 1.3717871555e+01	-1.8384776311e+00	-9.0617867638e-02
 1.4354267658e+01	-2.4748737341e+00	-8.6420786090e-02
 1.4990663761e+01	-3.1112698372e+00	-8.9196205676e-02
 1.5627059864e+01	-3.7476659403e+00	-9.2233152815e-02
 1.6263455967e+01	-4.3840620433e+00	-9.1752231653e-02
 1.6899852070e+01	-5.0204581464e+00	-9.2624962070e-02
 1.7536248173e+01	-5.6568542495e+00	-9.3954028624e-02
 1.8172644276e+01	-6.2932503526e+00	-9.4842014675e-02
 1.8809040380e+01	-6.9296464556e+00	-9.4391402372e-02
 1.9445436483e+01	-7.5660425587e+00	-9.1704572642e-02
 2.0081832586e+01	-8.2024386618e+00	-8.5883805178e-02
 1.3576450199e+01	-1.9798989873e+00	-9.4844385742e-02
 1.4212846302e+01	-2.6162950904e+00	-9.2086303918e-02
 1.4849242405e+01	-3.2526911934e+00	-9.3857589951e-02
 1.5485638508e+01	-3.8890872965e+00	-9.5122885908e-02
 1.6122034611e+01	-4.5254833996e+00	-9.4985312527e-02
 1.6758430714e+01	-5.1618795027e+00	-9.6047423145e-02
 1.7394826817e+01	-5.7982756057e+00	-9.7411901366e-02
 1.8031222920e+01	-6.4346717088e+00	-9.8181329594e-02
 1.8667619023e+01	-7.0710678119e+00	-9.7458189024e-02
 1.9304015126e+01	-7.7074639149e+00	-9.4344859627e-02
 1.9940411229e+01	-8.3438600180e+00	-8.7943620139e-02
 1.3435028843e+01	-2.1213203435e+00	-9.8815345511e-02
 1.4071424946e+01	-2.7577164466e+00	-9.7474537494e-02
 1.4707821049e+01	-3.3941125497e+00	-9.8867367961e-02
 1.5344217152e+01	-4.0305086528e+00	-9.8130938990e-02
 1.5980613255e+01	-4.6669047558e+00	-9.8326135594e-02
 1.6617009358e+01	-5.3033008589e+00	-9.9567049613e-02
 1.7253405461e+01	-5.9396969620e+00	-1.0095636370e-01
 1.7889801564e+01	-6.5760930650e+00	-1.0159665929e-01
 1.8526197667e+01	-7.2124891681e+00	-1.0059041664e-01
 1.9162593770e+01	-7.8488852711e+00	-9.7040014760e-02
 1.9798989873e+01	-8.4852813742e+00	-9.0047731426e-02
 9.8994949366e+00	 7.0710678119e+00	 5.7564683607e-01
 1.0535891040e+01	 6.4346717088e+00	 4.5777206998e-01
 1.1172287143e+01	 5.7982756057e+00	 3.5783368423e-01
 1.1808683246e+01	 5.1618795027e+00	 2.7441395725e-01
 1.2445079349e+01	 4.5254833996e+00	 2.0609531585e-01
 1.3081475452e+01	 3.8890872965e+00	 1.5146033514e-01
 1.3717871555e+01	 3.2526911934e+00	 1.0651689820e-01
 1.4354267658e+01	 2.6162950904e+00	 7.0567701390e-02
 1.4990663761e+01	 1.9798989873e+00	 3.3376864692e-02
 1.5627059864e+01	 1.3435028842e+00	-5.0737532675e-03
 1.6263455967e+01	 7.0710678115e-01	-2.1470732574e-02
 9.7580735804e+00	 6.9296464557e+00	 5.6218998729e-01
 1.0394469683e+01	 6.2932503526e+00	 4.4907726600e-01
 1.1030865787e+01	 5.6568542495e+00	 3.5277490765e-01
 1.1667261890e+01	 5.0204581464e+00	 2.7186520603e-01
 1.2303657993e+01	 4.3840620434e+00	 2.0493060329e-01
 1.2940054096e+01	 3.7476659403e+00	 1.5055368988e-01
 1.3576450199e+01	 3.1112698372e+00	 1.0297640711e-01
 1.4212846302e+01	 2.4748737341e+00	 6.5855839664e-02
 1.4849242405e+01	 1.8384776311e+00	 3.5552959708e-02
 1.5485638508e+01	 1.2020815280e+00	-5.9330936892e-03
 1.6122034611e+01	 5.6568542492e-01	-2.6278922053e-02
 9.6166522241e+00	 6.7882250994e+00	 5.4518795224e-01
 1.0253048327e+01	 6.1518289963e+00	 4.3722948566e-01
 1.0889444430e+01	 5.5154328933e+00	 3.4495536362e-01
 1.1525840533e+01	 4.8790367902e+00	 2.6694789528e-01
 1.2162236636e+01	 4.2426406871e+00	 2.0178953810e-01
 1.2798632739e+01	 3.6062445840e+00	 1.4806289789e-01
 1.3435028843e+01	 2.9698484810e+00	 9.8310618026e-02
 1.4071424946e+01	 2.3334523779e+00	 6.0383937151e-02
 1.4707821049e+01	 1.6970562748e+00	 3.6983927923e-02
 1.5344217152e+01	 1.0606601718e+00	-7.1598755015e-03
 1.5980613255e+01	 4.2426406869e-01	-3.1076867303e-02
 9.4752308679e+00	 6.6468037432e+00	 5.2467141227e-01
 1.0111626971e+01	 6.0104076401e+00	 4.2225940956e-01
 1.0748023074e+01	 5.3740115370e+00	 3.3440573200e-01
 1.1384419177e+01	 4.7376154340e+00	 2.5969270407e-01
 1.2020815280e+01	 4.1012193309e+00	 1.9670279861e-01
 1.2657211383e+01	 3.4648232278e+00	 1.4401863676e-01
 1.3293607486e+01	 2.8284271247e+00	 9.2537982619e-02
 1.3930003589e+01	 2.1920310217e+00	 5.4170445327e-02
 1.4566399692e+01	 1.5556349186e+00	 2.9403591921e-02
 1.5202795796e+01	 9.1923881553e-01	-8.7549121905e-03
 1.5839191899e+01	 2.8284271246e-01	-3.5865381869e-02
 9.3338095116e+00	 6.5053823869e+00	 5.0067104868e-01
 9.9702056147e+00	 5.8689862839e+00	 4.0419771824e-01
 1.0606601718e+01	 5.2325901808e+00	 3.2115669256e-01
 1.1242997821e+01	 4.5961940777e+00	 2.5013031145e-01
 1.1879393924e+01	 3.9597979746e+00	 1.8970106310e-01
 1.2515790027e+01	 3.3234018716e+00	 1.3645774194e-01
 1.3152186130e+01	 2.6870057685e+00	 8.5676952745e-02
 1.3788582233e+01	 2.0506096654e+00	 4.7233815855e-02
 1.4424978336e+01	 1.4142135624e+00	 2.1347914550e-02
 1.5061374439e+01	 7.7781745930e-01	-1.0719017246e-02
 1.5697770542e+01	 1.4142135623e-01	-4.0645279305e-02
 9.1923881554e+00	 6.3639610307e+00	 4.7321754271e-01
 9.8287842585e+00	 5.7275649276e+00	 3.8307509219e-01
 1.0465180362e+01	 5.0911688246e+00	 3.0523892502e-01
 1.1101576465e+01	 4.4547727215e+00	 2.3829139637e-01
 1.1737972568e+01	 3.8183766184e+00	 1.8081500977e-01
 1.2374368671e+01	 3.1819805153e+00	 1.2719365975e-01
 1.3010764774e+01	 2.5455844123e+00	 7.7745980438e-02
 1.3647160877e+01	 1.9091883092e+00	 3.9592500580e-02
 1.4283556980e+01	 1.2727922061e+00	 1.2952807341e-02
 1.4919953083e+01	 6.3639610307e-01	-1.3053004161e-02
 1.5556349186e+01	-5.5511151231e-17	-4.5417373165e-02
 9.0509667992e+00	 6.2225396745e+00	 4.4234157553e-01
 9.6873629022e+00	 5.5861435714e+00	 3.5892221181e-01
 1.0323759005e+01	 4.9497474683e+00	 2.8668310904e-01
 1.0960155108e+01	 4.3133513652e+00	 2.2420663773e-01
 1.1596551211e+01	 3.6769552622e+00	 1.7007531675e-01
 1.2232947315e+01	 3.0405591591e+00	 1.1651283025e-01
 1.2869343418e+01	 2.4041630560e+00	 6.8763517921e-02
 1.3505739521e+01	 1.7677669530e+00	 3.1264951531e-02
 1.4142135624e+01	 1.1313708499e+00	 4.2367221298e-03
 1.4778531727e+01	 4.9497474684e-01	-1.5757686434e-02
 1.5414927830e+01	-1.4142135623e-01	-5.0182477007e-02
 8.9095454429e+00	 6.0811183182e+00	 4.0807382824e-01
 9.5459415460e+00	 5.4447222152e+00	 3.3176975746e-01
 1.0182337649e+01	 4.8083261121e+00	 2.6551992421e-01
 1.0818733752e+01	 4.1719300090e+00	 2.0790671436e-01
 1.1455129855e+01	 3.5355339059e+00	 1.5751266212e-01
 1.2091525958e+01	 2.8991378029e+00	 1.0443370603e-01
 1.2727922061e+01	 2.2627416998e+00	 5.8748017598e-02
 1.3364318164e+01	 1.6263455967e+00	 2.2269620920e-02
 1.4000714268e+01	 9.8994949367e-01	-4.7818890618e-03
 1.4637110371e+01	 3.5355339061e-01	-2.2186912048e-02
 1.5273506474e+01	-2.8284271246e-01	-5.4941404393e-02
 8.7681240867e+00	 5.9396969620e+00	 3.7751158784e-01
 9.4045201898e+00	 5.3033008589e+00	 3.0164840941e-01
 1.0040916293e+01	 4.6669047558e+00	 2.4178005005e-01
 1.0677312396e+01	 4.0305086528e+00	 1.8942230503e-01
 1.1313708499e+01	 3.3941125497e+00	 1.4217579117e-01
 1.1950104602e+01	 2.7577164466e+00	 9.0974739886e-02
 1.2586500705e+01	 2.1213203436e+00	 4.7717932057e-02
 1.3222896808e+01	 1.4849242405e+00	 1.2624961143e-02
 1.3859292911e+01	 8.4852813744e-01	-1.4084574030e-02
 1.4495689014e+01	 2.1213203438e-01	-3.2191069280e-02
 1.5132085117e+01	-4.2426406869e-01	-5.9694968891e-02
 8.6267027304e+00	 5.7982756057e+00	 3.5449832266e-01
 9.2630988335e+00	 5.1618795027e+00	 2.6858884788e-01
 9.8994949366e+00	 4.5254833996e+00	 2.1549416603e-01
 1.0535891040e+01	 3.8890872965e+00	 1.6878408844e-01
 1.1172287143e+01	 3.2526911935e+00	 1.2351783952e-01
 1.1808683246e+01	 2.6162950904e+00	 7.6154384766e-02
 1.2445079349e+01	 1.9798989873e+00	 3.5691714069e-02
 1.3081475452e+01	 1.3435028843e+00	 2.3494247811e-03
 1.3717871555e+01	 7.0710678122e-01	-2.3652880387e-02
 1.4354267658e+01	 7.0710678148e-02	-4.2095593367e-02
 1.4990663761e+01	-5.6568542492e-01	-6.4443984069e-02
 8.4852813742e+00	 5.6568542495e+00	 3.2813988702e-01
 9.1216774773e+00	 5.0204581464e+00	 2.3262175303e-01
 9.7580735804e+00	 4.3840620434e+00	 1.8669295154e-01
 1.0394469683e+01	 3.7476659403e+00	 1.4602274324e-01
 1.1030865787e+01	 3.1112698373e+00	 1.0315169506e-01
 1.1667261890e+01	 2.4748737342e+00	 5.9991093822e-02
 1.2303657993e+01	 1.8384776311e+00	 2.2687816590e-02
 1.2940054096e+01	 1.2020815281e+00	-8.5385354033e-03
 1.3576450199e+01	 5.6568542499e-01	-3.3468355561e-02
 1.4212846302e+01	-7.0710678080e-02	-5.1882031930e-02
 1.4849242405e+01	-7.0710678115e-01	-6.9189263501e-02
 1.6263455967e+01	 7.0710678115e-01	-2.1470732574e-02
 1.6899852070e+01	 7.0710678080e-02	-1.5840713426e-02
 1.7536248173e+01	-5.6568542499e-01	-1.2004332425e-02
 1.8172644276e+01	-1.2020815281e+00	-1.0497052366e-02
 1.8809040380e+01	-1.8384776311e+00	-1.1854359989e-02
 1.9445436483e+01	-2.4748737342e+00	-1.6611765971e-02
 2.0081832586e+01	-3.1112698373e+00	-2.5304804937e-02
 2.0718228689e+01	-3.7476659403e+00	-3.6024798894e-02
 2.1354624792e+01	-4.3840620434e+00	-3.9336214968e-02
 2.1991020895e+01	-5.0204581464e+00	-4.3936431916e-02
 2.2627416998e+01	-5.6568542495e+00	-5.0151411108e-02
 1.6122034611e+01	 5.6568542492e-01	-2.6278922053e-02
 1.6758430714e+01	-7.0710678148e-02	-2.0866112371e-02
 1.7394826817e+01	-7.0710678122e-01	-1.7034045445e-02
 1.8031222920e+01	-1.3435028843e+00	-1.5318182827e-02
 1.8667619023e+01	-1.9798989873e+00	-1.6254010007e-02
 1.9304015126e+01	-2.6162950904e+00	-2.0377036418e-02
 1.9940411229e+01	-3.2526911935e+00	-2.8222795439e-02
 2.0576807333e+01	-3.8890872965e+00	-4.0327946382e-02
 2.1213203436e+01	-4.5254833996e+00	-4.2386139975e-02
 2.1849599539e+01	-5.1618795027e+00	-4.5320165364e-02
 2.2485995642e+01	-5.7982756057e+00	-4.9676814497e-02
 1.5980613255e+01	 4.2426406869e-01	-3.1076867303e-02
 1.6617009358e+01	-2.1213203438e-01	-2.5910381468e-02
 1.7253405461e+01	-8.4852813744e-01	-2.2111742790e-02
 1.7889801564e+01	-1.4849242405e+00	-2.0216411573e-02
 1.8526197667e+01	-2.1213203436e+00	-2.0759872063e-02
 1.9162593770e+01	-2.7577164466e+00	-2.4277632447e-02
 1.9798989873e+01	-3.3941125497e+00	-3.1305224856e-02
 2.0435385976e+01	-4.0305086528e+00	-4.2191747836e-02
 2.1071782079e+01	-4.6669047558e+00	-4.5638716766e-02
 2.1708178182e+01	-5.3033008589e+00	-4.6939109565e-02
 2.2344574286e+01	-5.9396969620e+00	-4.9469987528e-02
 1.5839191899e+01	 2.8284271246e-01	-3.5865381869e-02
 1.6475588002e+01	-3.5355339061e-01	-3.0974334325e-02
 1.7111984105e+01	-9.8994949367e-01	-2.7238238128e-02
 1.7748380208e+01	-1.6263455967e+00	-2.5192552338e-02
 1.8384776311e+01	-2.2627416998e+00	-2.5372759953e-02
 1.9021172414e+01	-2.8991378029e+00	-2.8314367914e-02
 1.9657568517e+01	-3.5355339059e+00	-3.4540676865e-02
 2.0293964620e+01	-4.1719300090e+00	-4.4157691476e-02
 2.0930360723e+01	-4.8083261121e+00	-4.9091681934e-02
 2.1566756826e+01	-5.4447222152e+00	-4.8791001031e-02
 2.2203152929e+01	-6.0811183182e+00	-4.9528666633e-02
 1.5697770542e+01	 1.4142135623e-01	-4.0645279305e-02
 1.6334166645e+01	-4.9497474684e-01	-3.6058784556e-02
 1.6970562748e+01	-1.1313708499e+00	-3.2414345135e-02
 1.7606958852e+01	-1.7677669530e+00	-3.0247418856e-02
 1.8243354955e+01	-2.4041630560e+00	-3.0093487472e-02
 1.8879751058e+01	-3.0405591591e+00	-3.2488056678e-02
 1.9516147161e+01	-3.6769552622e+00	-3.7840469894e-02
 2.0152543264e+01	-4.3133513652e+00	-4.6226041510e-02
 2.0788939367e+01	-4.9497474683e+00	-5.2742772044e-02
 2.1425335470e+01	-5.5861435714e+00	-5.0873576252e-02
 2.2061731573e+01	-6.2225396745e+00	-4.9850588226e-02
 1.5556349186e+01	-5.5511151231e-17	-4.5417373165e-02
 1.6192745289e+01	-6.3639610307e-01	-4.1164545776e-02
 1.6829141392e+01	-1.2727922061e+00	-3.7640877488e-02
 1.7465537495e+01	-1.9091883092e+00	-3.5381824868e-02
 1.8101933598e+01	-2.5455844123e+00	-3.4922868422e-02
 1.8738329701e+01	-3.1819805153e+00	-3.6799512600e-02
 1.9374725805e+01	-3.8183766184e+00	-4.1190233959e-02
 2.0011121908e+01	-4.4547727215e+00	-4.8397062097e-02
 2.0647518011e+01	-5.0911688246e+00	-5.6589723644e-02
 2.1283914114e+01	-5.7275649276e+00	-5.3184571695e-02
 2.1920310217e+01	-6.3639610307e+00	-5.0433488694e-02
 1.5414927830e+01	-1.4142135623e-01	-5.0182477007e-02
 1.6051323933e+01	-7.7781745930e-01	-4.6292431606e-02
 1.6687720036e+01	-1.4142135624e+00	-4.2918648869e-02
 1.7324116139e+01	-2.0506096654e+00	-4.0596584116e-02
 1.7960512242e+01	-2.6870057685e+00	-3.9861716608e-02
 1.8596908345e+01	-3.3234018716e+00	-4.1249549548e-02
 1.9233304448e+01	-3.9597979746e+00	-4.4590233126e-02
 1.9869700551e+01	-4.5961940777e+00	-5.0671017350e-02
 2.0506096654e+01	-5.2325901808e+00	-5.8829701521e-02
 2.1142492757e+01	-5.8689862839e+00	-5.5721723804e-02
 2.1778888861e+01	-6.5053823869e+00	-5.1275104403e-02
 1.5273506474e+01	-2.8284271246e-01	-5.4941404393e-02
 1.5909902577e+01	-9.1923881553e-01	-5.1443255671e-02
 1.6546298680e+01	-1.5556349186e+00	-4.8248472964e-02
 1.7182694783e+01	-2.1920310217e+00	-4.5892510348e-02
 1.7819090886e+01	-2.8284271247e+00	-4.4910845838e-02
 1.8455486989e+01	-3.4648232278e+00	-4.5799496444e-02
 1.9091883092e+01	-4.1012193309e+00	-4.8040731411e-02
 1.9728279195e+01	-4.7376154340e+00	-5.3048171332e-02
 2.0364675298e+01	-5.3740115370e+00	-5.9924308871e-02
 2.1001071401e+01	-6.0104076401e+00	-5.8482768998e-02
 2.1637467504e+01	-6.6468037432e+00	-5.2373171696e-02
 1.5132085117e+01	-4.2426406869e-01	-5.9694968891e-02
 1.5768481220e+01	-1.0606601718e+00	-5.6617831596e-02
 1.6404877324e+01	-1.6970562748e+00	-5.3631163461e-02
 1.7041273427e+01	-2.3334523779e+00	-5.1270417314e-02
 1.7677669530e+01	-2.9698484810e+00	-5.0071069924e-02
 1.8314065633e+01	-3.6062445840e+00	-5.0112202080e-02
 1.8950461736e+01	-4.2426406871e+00	-5.1541992781e-02
 1.9586857839e+01	-4.8790367902e+00	-5.5528788059e-02
 2.0223253942e+01	-5.5154328933e+00	-6.1175079619e-02
 2.0859650045e+01	-6.1518289963e+00	-6.1465443677e-02
 2.1496046148e+01	-6.7882250994e+00	-5.3725426892e-02
 1.4990663761e+01	-5.6568542492e-01	-6.4443984069e-02
 1.5627059864e+01	-1.2020815280e+00	-6.1816973015e-02
 1.6263455967e+01	-1.8384776311e+00	-5.9067534053e-02
 1.6899852070e+01	-2.4748737341e+00	-5.6731118768e-02
 1.7536248173e+01	-3.1112698372e+00	-5.5343202683e-02
 1.8172644277e+01	-3.7476659403e+00	-5.4423236012e-02
 1.8809040380e+01	-4.3840620434e+00	-5.5094281158e-02
 1.9445436483e+01	-5.0204581464e+00	-5.8113131498e-02
 2.0081832586e+01	-5.6568542495e+00	-6.2582277781e-02
 2.0718228689e+01	-6.2932503526e+00	-6.4667484214e-02
 2.1354624792e+01	-6.9296464557e+00	-5.5329606288e-02
 1.4849242405e+01	-7.0710678115e-01	-6.9189263501e-02
 1.5485638508e+01	-1.3435028842e+00	-6.7041493561e-02
 1.6122034611e+01	-1.9798989873e+00	-6.4558398437e-02
 1.6758430714e+01	-2.6162950904e+00	-6.2275428469e-02
 1.7394826817e+01	-3.2526911934e+00	-6.0728057933e-02
 1.8031222920e+01	-3.8890872965e+00	-5.8732862064e-02
 1.8667619023e+01	-4.5254833996e+00	-5.8697860413e-02
 1.9304015126e+01	-5.1618795027e+00	-6.0801465567e-02
 1.9940411229e+01	-5.7982756057e+00	-6.4146167322e-02
 2.0576807333e+01	-6.4346717088e+00	-6.7834354249e-02
 2.1213203436e+01	-7.0710678119e+00	-5.7183446157e-02
 1.5556349186e+01	 1.2727922061e+01	 2.2710230952e-02
 1.6192745289e+01	 1.2091525958e+01	 4.1107809763e-02
 1.6829141392e+01	 1.1455129855e+01	 5.8254258405e-02
 1.7465537495e+01	 1.0818733752e+01	 7.3573562760e-02
 1.8101933598e+01	 1.0182337649e+01	 8.7252226591e-02
 1.8738329701e+01	 9.5459415460e+00	 9.8524937861e-02
 1.9374725804e+01	 8.9095454429e+00	 1.0443920152e-01
 2.0011121908e+01	 8.2731493399e+00	 1.0554087228e-01
 2.0647518011e+01	 7.6367532368e+00	 1.0241039832e-01
 2.1283914114e+01	 7.0003571337e+00	 9.6820154107e-02
 2.1920310217e+01	 6.3639610306e+00	 8.9607381121e-02
 1.5273506474e+01	 1.2445079349e+01	 3.5625907718e-02
 1.5909902577e+01	 1.1808683246e+01	 5.2385204635e-02
 1.6546298680e+01	 1.1172287143e+01	 6.8053852608e-02
 1.7182694783e+01	 1.0535891040e+01	 8.2055834784e-02
 1.7819090886e+01	 9.8994949366e+00	 9.5135887784e-02
 1.8455486989e+01	 9.2630988335e+00	 1.0383746913e-01
 1.9091883092e+01	 8.6267027305e+00	 1.0764795789e-01
 1.9728279195e+01	 7.9903066274e+00	 1.0711320174e-01
 2.0364675298e+01	 7.3539105243e+00	 1.0277905558e-01
 2.1001071401e+01	 6.7175144212e+00	 9.6296654508e-02
 2.1637467504e+01	 6.0811183182e+00	 8.8896108137e-02
 1.4990663761e+01	 1.2162236636e+01	 4.9767583279e-02
 1.5627059864e+01	 1.1525840533e+01	 6.4971399508e-02
 1.6263455967e+01	 1.0889444430e+01	 7.9245051325e-02
 1.6899852070e+01	 1.0253048327e+01	 9.2328559122e-02
 1.7536248173e+01	 9.6166522241e+00	 1.0343755034e-01
 1.8172644276e+01	 8.9802561211e+00	 1.0957696729e-01
 1.8809040380e+01	 8.3438600180e+00	 1.1129264344e-01
 1.9445436483e+01	 7.7074639149e+00	 1.0913041945e-01
 2.0081832586e+01	 7.0710678118e+00	 1.0363614321e-01
 2.0718228689e+01	 6.4346717088e+00	 9.5796115691e-02
 2.1354624792e+01	 5.7982756057e+00	 8.8230050318e-02
 1.4707821049e+01	 1.1879393924e+01	 6.5244575429e-02
 1.5344217152e+01	 1.1242997821e+01	 7.8975712715e-02
 1.5980613255e+01	 1.0606601718e+01	 9.1937173431e-02
 1.6617009358e+01	 9.9702056147e+00	 1.0399627966e-01
 1.7253405461e+01	 9.3338095117e+00	 1.1208471783e-01
 1.7889801564e+01	 8.6974134086e+00	 1.1567093729e-01
 1.8526197667e+01	 8.0610173055e+00	 1.1530076451e-01
 1.9162593770e+01	 7.4246212024e+00	 1.1152003313e-01
 1.9798989873e+01	 6.7882250994e+00	 1.0487458402e-01
 2.0435385976e+01	 6.1518289963e+00	 9.5910265246e-02
 2.1071782079e+01	 5.5154328932e+00	 8.7586007166e-02
 1.4424978336e+01	 1.1596551211e+01	 7.7039650241e-02
 1.5061374439e+01	 1.0960155108e+01	 9.4507460151e-02
 1.5697770542e+01	 1.0323759005e+01	 1.0627050547e-01
 1.6334166645e+01	 9.6873629023e+00	 1.1592804071e-01
 1.6970562748e+01	 9.0509667992e+00	 1.2100489735e-01
 1.7606958852e+01	 8.4145706961e+00	 1.2204688763e-01
 1.8243354955e+01	 7.7781745930e+00	 1.1959983097e-01
 1.8879751058e+01	 7.1417784900e+00	 1.1420955403e-01
 1.9516147161e+01	 6.5053823869e+00	 1.0642189065e-01
 2.0152543264e+01	 5.8689862838e+00	 9.6782681890e-02
 2.0788939367e+01	 5.2325901808e+00	 8.6940778693e-02
 1.4142135624e+01	 1.1313708499e+01	 8.7394071327e-02
 1.4778531727e+01	 1.0677312396e+01	 1.1167595527e-01
 1.5414927830e+01	 1.0040916293e+01	 1.2186378104e-01
 1.6051323933e+01	 9.4045201898e+00	 1.2805135154e-01
 1.6687720036e+01	 8.7681240867e+00	 1.3012559957e-01
 1.7324116139e+01	 8.1317279836e+00	 1.2863233033e-01
 1.7960512242e+01	 7.4953318806e+00	 1.2411735626e-01
 1.8596908345e+01	 6.8589357775e+00	 1.1712649698e-01
 1.9233304448e+01	 6.2225396744e+00	 1.0820557931e-01
 1.9869700551e+01	 5.5861435714e+00	 9.7900437308e-02
 2.0506096654e+01	 4.9497474683e+00	 8.6756912221e-02
 1.3859292911e+01	 1.1030865787e+01	 9.6192562266e-02
 1.4495689014e+01	 1.0394469683e+01	 1.2273736496e-01
 1.5132085117e+01	 9.7580735804e+00	 1.3756714167e-01
 1.5768481220e+01	 9.1216774773e+00	 1.4029372497e-01
 1.6404877324e+01	 8.4852813742e+00	 1.3937433868e-01
 1.7041273427e+01	 7.8488852712e+00	 1.3535478101e-01
 1.7677669530e+01	 7.2124891681e+00	 1.2878085735e-01
 1.8314065633e+01	 6.5760930650e+00	 1.2019838032e-01
 1.8950461736e+01	 5.9396969620e+00	 1.1015316974e-01
 1.9586857839e+01	 5.3033008589e+00	 9.9191052627e-02
 2.0223253942e+01	 4.6669047558e+00	 8.7857863235e-02
 1.3576450199e+01	 1.0748023074e+01	 1.0329406650e-01
 1.4212846302e+01	 1.0111626971e+01	 1.2891095864e-01
 1.4849242405e+01	 9.4752308679e+00	 1.5330810237e-01
 1.5485638508e+01	 8.8388347648e+00	 1.5258267738e-01
 1.6122034611e+01	 8.2024386617e+00	 1.4867863246e-01
 1.6758430714e+01	 7.5660425587e+00	 1.4214175879e-01
 1.7394826817e+01	 6.9296464556e+00	 1.3351785476e-01
 1.8031222920e+01	 6.2932503525e+00	 1.2335272597e-01
 1.8667619023e+01	 5.6568542495e+00	 1.1219218522e-01
 1.9304015126e+01	 5.0204581464e+00	 1.0058205252e-01
 1.9940411229e+01	 4.3840620433e+00	 8.9068155115e-02
 1.3293607486e+01	 1.0465180362e+01	 1.0855752431e-01
 1.3930003589e+01	 9.8287842585e+00	 1.3185897691e-01
 1.4566399692e+01	 9.1923881554e+00	 1.6121001227e-01
 1.5202795796e+01	 8.5559920523e+00	 1.6484572868e-01
 1.5839191899e+01	 7.9195959493e+00	 1.5796600219e-01
 1.6475588002e+01	 7.2831998462e+00	 1.4892078635e-01
 1.7111984105e+01	 6.6468037431e+00	 1.3825587255e-01
 1.7748380208e+01	 6.0104076401e+00	 1.2651705937e-01
 1.8384776311e+01	 5.3740115370e+00	 1.1425015259e-01
 1.9021172414e+01	 4.7376154339e+00	 1.0200096522e-01
 1.9657568517e+01	 4.1012193309e+00	 9.0315317465e-02
 1.3010764774e+01	 1.0182337649e+01	 1.1109201455e-01
 1.3647160877e+01	 9.5459415460e+00	 1.3188457293e-01
 1.4283556980e+01	 8.9095454429e+00	 1.5902514965e-01
 1.4919953083e+01	 8.2731493399e+00	 1.7701040234e-01
 1.5556349186e+01	 7.6367532368e+00	 1.6716397272e-01
 1.6192745289e+01	 7.0003571337e+00	 1.5561938994e-01
 1.6829141392e+01	 6.3639610307e+00	 1.4292243836e-01
 1.7465537495e+01	 5.7275649276e+00	 1.2961890953e-01
 1.8101933598e+01	 5.0911688245e+00	 1.1625460224e-01
 1.8738329701e+01	 4.4547727215e+00	 1.0337532248e-01
 1.9374725804e+01	 3.8183766184e+00	 9.1526883441e-02
 1.2727922061e+01	 9.8994949366e+00	 1.1044360273e-01
 1.3364318164e+01	 9.2630988335e+00	 1.2923320424e-01
 1.4000714267e+01	 8.6267027305e+00	 1.5430161107e-01
 1.4637110371e+01	 7.9903066274e+00	 1.8423079478e-01
 1.5273506474e+01	 7.3539105243e+00	 1.7620007246e-01
 1.5909902577e+01	 6.7175144213e+00	 1.6216509933e-01
 1.6546298680e+01	 6.0811183182e+00	 1.4744508332e-01
 1.7182694783e+01	 5.4447222151e+00	 1.3258580900e-01
 1.7819090886e+01	 4.8083261121e+00	 1.1813306810e-01
 1.8455486989e+01	 4.1719300090e+00	 1.0463265962e-01
 1.9091883092e+01	 3.5355339059e+00	 9.2630389741e-02
 2.1920310217e+01	 6.3639610306e+00	 8.9607381121e-02
 2.2556706320e+01	 5.7275649276e+00	 8.1147673596e-02
 2.3193102423e+01	 5.0911688245e+00	 7.1816606310e-02
 2.3829498526e+01	 4.4547727214e+00	 6.1957905261e-02
 2.4465894629e+01	 3.8183766184e+00	 5.1915276986e-02
 2.5102290732e+01	 3.1819805153e+00	 4.2754196280e-02
 2.5738686835e+01	 2.5455844122e+00	 3.5622145244e-02
 2.6375082938e+01	 1.9091883092e+00	 2.9689103299e-02
 2.7011479041e+01	 1.2727922061e+00	 2.4459038148e-02
 2.7647875144e+01	 6.3639610306e-01	 1.9493166861e-02
 2.8284271248e+01	 0.0000000000e+00	 1.4840998803e-02
 2.1637467504e+01	 6.0811183182e+00	 8.8896108137e-02
 2.2273863607e+01	 5.4447222151e+00	 7.9922028144e-02
 2.2910259710e+01	 4.8083261120e+00	 7.0120628933e-02
 2.3546655813e+01	 4.1719300090e+00	 5.9835632883e-02
 2.4183051917e+01	 3.5355339059e+00	 4.9410742916e-02
 2.4819448020e+01	 2.8991378028e+00	 4.0814516747e-02
 2.5455844123e+01	 2.2627416998e+00	 3.3760475675e-02
 2.6092240226e+01	 1.6263455967e+00	 2.7932859907e-02
 2.6728636329e+01	 9.8994949365e-01	 2.2997201410e-02
 2.7365032432e+01	 3.5355339058e-01	 1.8272344853e-02
 2.8001428535e+01	-2.8284271248e-01	 1.3869516722e-02
 2.1354624792e+01	 5.7982756057e+00	 8.8230050318e-02
 2.1991020895e+01	 5.1618795026e+00	 7.8679528691e-02
 2.2627416998e+01	 4.5254833996e+00	 6.8345728596e-02
 2.3263813101e+01	 3.8890872965e+00	 5.7572368798e-02
 2.3900209204e+01	 3.2526911934e+00	 4.7154023629e-02
 2.4536605307e+01	 2.6162950904e+00	 3.8759905104e-02
 2.5173001410e+01	 1.9798989873e+00	 3.1753218632e-02
 2.5809397513e+01	 1.3435028842e+00	 2.6000373676e-02
 2.6445793616e+01	 7.0710678118e-01	 2.1367779697e-02
 2.7082189719e+01	 7.0710678109e-02	 1.6864210421e-02
 2.7718585823e+01	-5.6568542496e-01	 1.2668420932e-02
 2.1071782079e+01	 5.5154328932e+00	 8.7586007166e-02
 2.1708178182e+01	 4.8790367902e+00	 7.7396975452e-02
 2.2344574285e+01	 4.2426406871e+00	 6.6468706232e-02
 2.2980970389e+01	 3.6062445840e+00	 5.5144914651e-02
 2.3617366492e+01	 2.9698484810e+00	 4.4981828390e-02
 2.4253762595e+01	 2.3334523779e+00	 3.6576992888e-02
 2.4890158698e+01	 1.6970562748e+00	 2.9587005652e-02
 2.5526554801e+01	 1.0606601718e+00	 2.3878276142e-02
 2.6162950904e+01	 4.2426406870e-01	 1.9317213822e-02
 2.6799347007e+01	-2.1213203437e-01	 1.5266708725e-02
 2.7435743110e+01	-8.4852813744e-01	 1.1235656577e-02
 2.0788939367e+01	 5.2325901808e+00	 8.6940778693e-02
 2.1425335470e+01	 4.5961940777e+00	 7.6051169154e-02
 2.2061731573e+01	 3.9597979746e+00	 6.4466363278e-02
 2.2698127676e+01	 3.3234018716e+00	 5.2720682338e-02
 2.3334523779e+01	 2.6870057685e+00	 4.2698619481e-02
 2.3970919882e+01	 2.0506096654e+00	 3.4252411638e-02
 2.4607315985e+01	 1.4142135624e+00	 2.7248468272e-02
 2.5243712088e+01	 7.7781745930e-01	 2.1553198845e-02
 2.5880108191e+01	 1.4142135623e-01	 1.7033012818e-02
 2.6516504295e+01	-4.9497474684e-01	 1.3477784866e-02
 2.7152900398e+01	-1.1313708499e+00	 9.5691687415e-03
 2.0506096654e+01	 4.9497474683e+00	 8.6756912221e-02
 2.1142492757e+01	 4.3133513652e+00	 7.4618911032e-02
 2.1778888861e+01	 3.6769552622e+00	 6.2315501686e-02
 2.2415284964e+01	 3.0405591591e+00	 5.0412535215e-02
 2.3051681067e+01	 2.4041630560e+00	 4.0291028440e-02
 2.3688077170e+01	 1.7677669530e+00	 3.1772792891e-02
 2.4324473273e+01	 1.1313708499e+00	 2.4724238031e-02
 2.4960869376e+01	 4.9497474683e-01	 1.9011773321e-02
 2.5597265479e+01	-1.4142135624e-01	 1.4501808224e-02
 2.6233661582e+01	-7.7781745932e-01	 1.1060752202e-02
 2.6870057685e+01	-1.4142135624e+00	 7.6669024534e-03
 2.0223253942e+01	 4.6669047558e+00	 8.7857863235e-02
 2.0859650045e+01	 4.0305086528e+00	 7.3077002835e-02
 2.1496046148e+01	 3.3941125497e+00	 6.0013176896e-02
 2.2132442251e+01	 2.7577164466e+00	 4.7997292863e-02
 2.2768838354e+01	 2.1213203436e+00	 3.7745686806e-02
 2.3405234457e+01	 1.4849242405e+00	 2.9124768186e-02
 2.4041630560e+01	 8.4852813742e-01	 2.2000946466e-02
 2.4678026663e+01	 2.1213203435e-01	 1.6240631109e-02
 2.5314422766e+01	-4.2426406872e-01	 1.1710231576e-02
 2.5950818870e+01	-1.0606601718e+00	 8.2761573303e-03
 2.6587214973e+01	-1.6970562749e+00	 5.5268026824e-03
 1.9940411229e+01	 4.3840620433e+00	 8.9068155115e-02
 2.0576807333e+01	 3.7476659403e+00	 7.1482061205e-02
 2.1213203436e+01	 3.1112698372e+00	 5.7665641711e-02
 2.1849599539e+01	 2.4748737342e+00	 4.5461586820e-02
 2.2485995642e+01	 1.8384776311e+00	 3.5049226115e-02
 2.3122391745e+01	 1.2020815280e+00	 2.6294969060e-02
 2.3758787848e+01	 5.6568542495e-01	 1.9065225117e-02
 2.4395183951e+01	-7.0710678120e-02	 1.3226403747e-02
 2.5031580054e+01	-7.0710678119e-01	 8.6449144138e-03
 2.5667976157e+01	-1.3435028843e+00	 5.1871665790e-03
 2.6304372260e+01	-1.9798989873e+00	 2.7195697048e-03
 1.9657568517e+01	 4.1012193309e+00	 9.0315317465e-02
 2.0293964620e+01	 3.4648232278e+00	 7.1723747567e-02
 2.0930360723e+01	 2.8284271247e+00	 5.5214929738e-02
 2.1566756826e+01	 2.1920310217e+00	 4.2792048623e-02
 2.2203152929e+01	 1.5556349186e+00	 3.2188277906e-02
 2.2839549032e+01	 9.1923881554e-01	 2.3270027051e-02
 2.3475945135e+01	 2.8284271248e-01	 1.5903705519e-02
 2.4112341238e+01	-3.5355339059e-01	 9.9557227726e-03
 2.4748737342e+01	-9.8994949366e-01	 5.2924882741e-03
 2.5385133445e+01	-1.6263455967e+00	 1.7804114857e-03
 2.6021529548e+01	-2.2627416998e+00	-7.1409813025e-04
 1.9374725804e+01	 3.8183766184e+00	 9.1526883441e-02
 2.0011121908e+01	 3.1819805153e+00	 7.1610675484e-02
 2.0647518011e+01	 2.5455844123e+00	 5.2647672515e-02
 2.1283914114e+01	 1.9091883092e+00	 3.9975309811e-02
 2.1920310217e+01	 1.2727922061e+00	 2.9149473717e-02
 2.2556706320e+01	 6.3639610307e-01	 2.0036573697e-02
 2.3193102423e+01	 1.2569945085e-12	 1.2503019212e-02
 2.3829498526e+01	-6.3639610307e-01	 6.4152197236e-03
 2.4465894629e+01	-1.2727922061e+00	 1.6395846951e-03
 2.5102290732e+01	-1.9091883092e+00	-1.9574764116e-03
 2.5738686835e+01	-2.5455844123e+00	-4.5095541341e-03
 1.9091883092e+01	 3.5355339059e+00	 9.2630389741e-02
 1.9728279195e+01	 2.8991378029e+00	 7.1472227455e-02
 2.0364675298e+01	 2.2627416998e+00	 5.1781269283e-02
 2.1001071401e+01	 1.6263455967e+00	 3.6998001921e-02
 2.1637467504e+01	 9.8994949366e-01	 2.5919445086e-02
 2.2273863607e+01	 3.5355339059e-01	 1.6581240536e-02
 2.2910259710e+01	-2.8284271247e-01	 8.8497977325e-03
 2.3546655813e+01	-9.1923881554e-01	 2.5915261380e-03
 2.4183051917e+01	-1.5556349186e+00	-2.3271647852e-03
 2.4819448020e+01	-2.1920310217e+00	-6.0398655749e-03
 2.5455844123e+01	-2.8284271248e+00	-8.6801667688e-03
 1.2727922061e+01	 9.8994949366e+00	 1.1044360273e-01
 1.3364318164e+01	 9.2630988335e+00	 1.2923320424e-01
 1.4000714267e+01	 8.6267027305e+00	 1.5430161107e-01
 1.4637110371e+01	 7.9903066274e+00	 1.8423079478e-01
 1.5273506474e+01	 7.3539105243e+00	 1.7620007246e-01
 1.5909902577e+01	 6.7175144213e+00	 1.6216509933e-01
 1.6546298680e+01	 6.0811183182e+00	 1.4744508332e-01
 1.7182694783e+01	 5.4447222151e+00	 1.3258580900e-01
 1.7819090886e+01	 4.8083261121e+00	 1.1813306810e-01
 1.8455486989e+01	 4.1719300090e+00	 1.0463265962e-01
 1.9091883092e+01	 3.5355339059e+00	 9.2630389741e-02
 1.2445079349e+01	 9.6166522241e+00	 1.4431996073e-01
 1.3081475452e+01	 8.9802561211e+00	 1.5218810064e-01
 1.3717871555e+01	 8.3438600180e+00	 1.6736073119e-01
 1.4354267658e+01	 7.7074639149e+00	 1.8841985463e-01
 1.4990663761e+01	 7.0710678118e+00	 1.9243864644e-01
 1.5627059864e+01	 6.4346717088e+00	 1.7124507891e-01
 1.6263455967e+01	 5.7982756057e+00	 1.5092869355e-01
 1.6899852070e+01	 5.1618795026e+00	 1.3203526789e-01
 1.7536248173e+01	 4.5254833996e+00	 1.1511058670e-01
 1.8172644276e+01	 3.8890872965e+00	 1.0070044191e-01
 1.8809040380e+01	 3.2526911934e+00	 8.8817828010e-02
 1.2162236636e+01	 9.3338095116e+00	 1.8023474262e-01
 1.2798632739e+01	 8.6974134086e+00	 1.7673389286e-01
 1.3435028843e+01	 8.0610173055e+00	 1.8156321506e-01
 1.4071424946e+01	 7.4246212024e+00	 1.9330474215e-01
 1.4707821049e+01	 6.7882250994e+00	 2.1038993955e-01
 1.5344217152e+01	 6.1518289963e+00	 1.8146094828e-01
 1.5980613255e+01	 5.5154328932e+00	 1.5497136099e-01
 1.6617009358e+01	 4.8790367902e+00	 1.3146694821e-01
 1.7253405461e+01	 4.2426406871e+00	 1.1149348767e-01
 1.7889801564e+01	 3.6062445840e+00	 9.5596764322e-02
 1.8526197667e+01	 2.9698484810e+00	 8.3226158934e-02
 1.1879393924e+01	 9.0509667992e+00	 2.1843340888e-01
 1.2515790027e+01	 8.4145706961e+00	 2.0311603533e-01
 1.3152186130e+01	 7.7781745930e+00	 1.9715451104e-01
 1.3788582233e+01	 7.1417784900e+00	 1.9913089963e-01
 1.4424978336e+01	 6.5053823869e+00	 2.0762741308e-01
 1.5061374439e+01	 5.8689862838e+00	 1.9274024786e-01
 1.5697770542e+01	 5.2325901808e+00	 1.5950062745e-01
 1.6334166645e+01	 4.5961940777e+00	 1.3080839313e-01
 1.6970562748e+01	 3.9597979746e+00	 1.0720931560e-01
 1.7606958852e+01	 3.3234018716e+00	 8.8632071064e-02
 1.8243354955e+01	 2.6870057685e+00	 7.6117534319e-02
 1.1596551211e+01	 8.7681240867e+00	 2.5916141894e-01
 1.2232947315e+01	 8.1317279836e+00	 2.3157998142e-01
 1.2869343418e+01	 7.4953318806e+00	 2.1438006644e-01
 1.3505739521e+01	 6.8589357775e+00	 2.0614376831e-01
 1.4142135624e+01	 6.2225396744e+00	 2.0545332971e-01
 1.4778531727e+01	 5.5861435714e+00	 2.0501052161e-01
 1.5414927830e+01	 4.9497474683e+00	 1.6444403829e-01
 1.6051323933e+01	 4.3133513652e+00	 1.2998714939e-01
 1.6687720036e+01	 3.6769552622e+00	 1.0218561860e-01
 1.7324116139e+01	 3.0405591591e+00	 7.9794413386e-02
 1.7960512242e+01	 2.4041630560e+00	 6.7485446274e-02
 1.1313708499e+01	 8.4852813742e+00	 3.0266423121e-01
 1.1950104602e+01	 7.8488852712e+00	 2.6237118346e-01
 1.2586500705e+01	 7.2124891681e+00	 2.3348532753e-01
 1.3222896808e+01	 6.5760930650e+00	 2.1458878842e-01
 1.3859292911e+01	 5.9396969620e+00	 2.0426383948e-01
 1.4495689014e+01	 5.3033008589e+00	 2.0109290240e-01
 1.5132085117e+01	 4.6669047558e+00	 1.6972914240e-01
 1.5768481220e+01	 4.0305086527e+00	 1.2893076726e-01
 1.6404877324e+01	 3.3941125497e+00	 9.5940020221e-02
 1.7041273427e+01	 2.7577164466e+00	 6.9932463969e-02
 1.7677669530e+01	 2.1213203435e+00	 5.7323386846e-02
 1.1030865787e+01	 8.2024386618e+00	 3.4918730307e-01
 1.1667261890e+01	 7.5660425587e+00	 2.9573509278e-01
 1.2303657993e+01	 6.9296464556e+00	 2.5471573957e-01
 1.2940054096e+01	 6.2932503525e+00	 2.2471139913e-01
 1.3576450199e+01	 5.6568542495e+00	 2.0430437550e-01
 1.4212846302e+01	 5.0204581464e+00	 1.9207712106e-01
 1.4849242405e+01	 4.3840620433e+00	 1.7528349221e-01
 1.5485638508e+01	 3.7476659403e+00	 1.2756680058e-01
 1.6122034611e+01	 3.1112698372e+00	 8.7303911455e-02
 1.6758430714e+01	 2.4748737341e+00	 5.9039715294e-02
 1.7394826817e+01	 1.8384776311e+00	 4.5624848024e-02
 1.0748023074e+01	 7.9195959493e+00	 3.9897609085e-01
 1.1384419177e+01	 7.2831998462e+00	 3.3191715965e-01
 1.2020815280e+01	 6.6468037431e+00	 2.7831674677e-01
 1.2657211383e+01	 6.0104076401e+00	 2.3675703860e-01
 1.3293607486e+01	 5.3740115370e+00	 2.0582036987e-01
 1.3930003589e+01	 4.7376154339e+00	 1.8408922364e-01
 1.4566399692e+01	 4.1012193309e+00	 1.7014623127e-01
 1.5202795796e+01	 3.4648232278e+00	 1.2582280670e-01
 1.5839191899e+01	 2.8284271247e+00	 7.8136177319e-02
 1.6475588002e+01	 2.1920310217e+00	 4.7109659783e-02
 1.7111984105e+01	 1.5556349186e+00	 3.2383321737e-02
 1.0465180362e+01	 7.6367532368e+00	 4.5227604984e-01
 1.1101576465e+01	 7.0003571338e+00	 3.7116283329e-01
 1.1737972568e+01	 6.3639610307e+00	 3.0453379231e-01
 1.2374368671e+01	 5.7275649276e+00	 2.5097114395e-01
 1.3010764774e+01	 5.0911688245e+00	 2.0905725364e-01
 1.3647160877e+01	 4.4547727215e+00	 1.7737463513e-01
 1.4283556980e+01	 3.8183766184e+00	 1.5450595046e-01
 1.4919953083e+01	 3.1819805153e+00	 1.2101125843e-01
 1.5556349186e+01	 2.5455844122e+00	 6.8430310668e-02
 1.6192745289e+01	 1.9091883092e+00	 3.4135789799e-02
 1.6829141392e+01	 1.2727922061e+00	 1.7592299857e-02
 1.0182337649e+01	 7.3539105244e+00	 5.0933263433e-01
 1.0818733752e+01	 6.7175144213e+00	 4.1371756193e-01
 1.1455129855e+01	 6.0811183182e+00	 3.3361231832e-01
 1.2091525958e+01	 5.4447222151e+00	 2.6759915125e-01
 1.2727922061e+01	 4.8083261121e+00	 2.1426045682e-01
 1.3364318164e+01	 4.1719300090e+00	 1.7217877948e-01
 1.4000714268e+01	 3.5355339059e+00	 1.3993681196e-01
 1.4637110371e+01	 2.8991378028e+00	 1.1116768658e-01
 1.5273506474e+01	 2.2627416998e+00	 5.8179804298e-02
 1.5909902577e+01	 1.6263455967e+00	 2.0111597645e-02
 1.6546298680e+01	 9.8994949363e-01	 1.2452741946e-03
 9.8994949366e+00	 7.0710678119e+00	 5.7039129753e-01
 1.0535891040e+01	 6.4346717088e+00	 4.5982679273e-01
 1.1172287143e+01	 5.7982756057e+00	 3.6579776592e-01
 1.1808683246e+01	 5.1618795027e+00	 2.8688649555e-01
 1.2445079349e+01	 4.5254833996e+00	 2.2167540841e-01
 1.3081475452e+01	 3.8890872965e+00	 1.6874707963e-01
 1.3717871555e+01	 3.2526911934e+00	 1.2410939228e-01
 1.4354267658e+01	 2.6162950904e+00	 8.7065042725e-02
 1.4990663761e+01	 1.9798989873e+00	 4.7378150945e-02
 1.5627059864e+01	 1.3435028842e+00	 5.0305755658e-03
 1.6263455967e+01	 7.0710678115e-01	-1.6664263498e-02
 1.9091883092e+01	 3.5355339059e+00	 9.2630389741e-02
 1.9728279195e+01	 2.8991378029e+00	 7.1472227455e-02
 2.0364675298e+01	 2.2627416998e+00	 5.1781269283e-02
 2.1001071401e+01	 1.6263455967e+00	 3.6998001921e-02
 2.1637467504e+01	 9.8994949366e-01	 2.5919445086e-02
 2.2273863607e+01	 3.5355339059e-01	 1.6581240536e-02
 2.2910259710e+01	-2.8284271247e-01	 8.8497977325e-03
 2.3546655813e+01	-9.1923881554e-01	 2.5915261380e-03
 2.4183051917e+01	-1.5556349186e+00	-2.3271647852e-03
 2.4819448020e+01	-2.1920310217e+00	-6.0398655749e-03
 2.5455844123e+01	-2.8284271248e+00	-8.6801667688e-03
 1.8809040380e+01	 3.2526911934e+00	 8.8817828010e-02
 1.9445436483e+01	 2.6162950904e+00	 6.8721121599e-02
 2.0081832586e+01	 1.9798989873e+00	 5.0117678263e-02
 2.0718228689e+01	 1.3435028843e+00	 3.3677370630e-02
 2.1354624792e+01	 7.0710678118e-01	 2.3143019431e-02
 2.1991020895e+01	 7.0710678117e-02	 1.4118001262e-02
 2.2627416998e+01	-5.6568542495e-01	 6.4687255840e-03
 2.3263813101e+01	-1.2020815280e+00	 6.1601859753e-05
 2.3900209204e+01	-1.8384776311e+00	-5.2369604485e-03
 2.4536605307e+01	-2.4748737342e+00	-9.5605518786e-03
 2.5173001410e+01	-3.1112698372e+00	-1.3042762968e-02
 1.8526197667e+01	 2.9698484810e+00	 8.3226158934e-02
 1.9162593770e+01	 2.3334523779e+00	 6.4644216939e-02
 1.9798989873e+01	 1.6970562748e+00	 4.7312938174e-02
 2.0435385976e+01	 1.0606601718e+00	 3.0696839909e-02
 2.1071782079e+01	 4.2426406871e-01	 1.9408667788e-02
 2.1708178182e+01	-2.1213203436e-01	 1.0855021915e-02
 2.2344574285e+01	-8.4852813743e-01	 3.4460992774e-03
 2.2980970389e+01	-1.4849242405e+00	-2.9516906616e-03
 2.3617366492e+01	-2.1213203436e+00	-8.4719384399e-03
 2.4253762595e+01	-2.7577164466e+00	-1.3248234595e-02
 2.4890158698e+01	-3.3941125497e+00	-1.7414169666e-02
 1.8243354955e+01	 2.6870057685e+00	 7.6117534319e-02
 1.8879751058e+01	 2.0506096654e+00	 5.9235005146e-02
 1.9516147161e+01	 1.4142135624e+00	 4.3360540199e-02
 2.0152543264e+01	 7.7781745930e-01	 2.7958659237e-02
 2.0788939367e+01	 1.4142135623e-01	 1.4703021695e-02
 2.1425335470e+01	-4.9497474684e-01	 6.7789340325e-03
 2.2061731573e+01	-1.1313708499e+00	-2.3144964934e-04
 2.2698127676e+01	-1.7677669530e+00	-6.4617198881e-03
 2.3334523779e+01	-2.4041630560e+00	-1.2045467221e-02
 2.3970919882e+01	-3.0405591591e+00	-1.7116282187e-02
 2.4607315985e+01	-3.6769552622e+00	-2.2202065334e-02
 1.7960512242e+01	 2.4041630560e+00	 6.7485446274e-02
 1.8596908345e+01	 1.7677669530e+00	 5.2486977838e-02
 1.9233304448e+01	 1.1313708499e+00	 3.8253975459e-02
 1.9869700551e+01	 4.9497474682e-01	 2.4250961393e-02
 2.0506096654e+01	-1.4142135625e-01	 9.9424339479e-03
 2.1142492757e+01	-7.7781745931e-01	 1.8763691529e-03
 2.1778888861e+01	-1.4142135624e+00	-4.5772896584e-03
 2.2415284964e+01	-2.0506096654e+00	-1.0481854282e-02
 2.3051681067e+01	-2.6870057685e+00	-1.5970915255e-02
 2.3688077170e+01	-3.3234018716e+00	-2.1178063117e-02
 2.4324473273e+01	-3.9597979746e+00	-2.6912333464e-02
 1.7677669530e+01	 2.1213203435e+00	 5.7323386846e-02
 1.8314065633e+01	 1.4849242405e+00	 4.4393626568e-02
 1.8950461736e+01	 8.4852813741e-01	 3.1986735020e-02
 1.9586857839e+01	 2.1213203434e-01	 1.9567236946e-02
 2.0223253942e+01	-4.2426406873e-01	 6.5996331494e-03
 2.0859650045e+01	-1.0606601718e+00	-3.8660411860e-03
 2.1496046148e+01	-1.6970562749e+00	-9.6047892118e-03
 2.2132442251e+01	-2.3334523779e+00	-1.5025462305e-02
 2.2768838354e+01	-2.9698484810e+00	-2.0261651004e-02
 2.3405234457e+01	-3.6062445840e+00	-2.5703021925e-02
 2.4041630560e+01	-4.2426406871e+00	-3.1413611095e-02
 1.7394826817e+01	 1.8384776311e+00	 4.5624848024e-02
 1.8031222920e+01	 1.2020815280e+00	 3.4948442835e-02
 1.8667619023e+01	 5.6568542493e-01	 2.4552309885e-02
 1.9304015126e+01	-7.0710678138e-02	 1.3900976411e-02
 1.9940411229e+01	-7.0710678120e-01	 2.4589457063e-03
 2.0576807333e+01	-1.3435028843e+00	-1.0309302877e-02
 2.1213203436e+01	-1.9798989873e+00	-1.5327316772e-02
 2.1849599539e+01	-2.6162950904e+00	-2.0105912420e-02
 2.2485995642e+01	-3.2526911935e+00	-2.4931042928e-02
 2.3122391745e+01	-3.8890872965e+00	-3.0431646958e-02
 2.3758787848e+01	-4.5254833996e+00	-3.5687792005e-02
 1.7111984105e+01	 1.5556349186e+00	 3.2383321737e-02
 1.7748380208e+01	 9.1923881552e-01	 2.4144918076e-02
 1.8384776311e+01	 2.8284271245e-01	 1.5944191000e-02
 1.9021172414e+01	-3.5355339062e-01	 7.2456702392e-03
 1.9657568517e+01	-9.8994949368e-01	-2.4861384207e-03
 2.0293964620e+01	-1.6263455967e+00	-1.3786753136e-02
 2.0930360723e+01	-2.2627416998e+00	-2.1758240800e-02
 2.1566756826e+01	-2.8991378029e+00	-2.5736573088e-02
 2.2203152929e+01	-3.5355339059e+00	-3.0114003427e-02
 2.2839549032e+01	-4.1719300090e+00	-3.5085932061e-02
 2.3475945135e+01	-4.8083261121e+00	-3.9716769603e-02
 1.6829141392e+01	 1.2727922061e+00	 1.7592299857e-02
 1.7465537495e+01	 6.3639610304e-01	 1.1976543668e-02
 1.8101933598e+01	-2.8723246004e-11	 6.1558692513e-03
 1.8738329701e+01	-6.3639610310e-01	-4.0519117432e-04
 1.9374725805e+01	-1.2727922062e+00	-8.2421293296e-03
 2.0011121908e+01	-1.9091883092e+00	-1.7890460879e-02
 2.0647518011e+01	-2.5455844123e+00	-2.8910929759e-02
 2.1283914114e+01	-3.1819805154e+00	-3.1930812772e-02
 2.1920310217e+01	-3.8183766184e+00	-3.5756120941e-02
 2.2556706320e+01	-4.4547727215e+00	-3.9647770902e-02
 2.3193102423e+01	-5.0911688245e+00	-4.3482436932e-02
 1.6546298680e+01	 9.8994949363e-01	 1.2452741946e-03
 1.7182694783e+01	 3.5355339056e-01	-1.5631890673e-03
 1.7819090886e+01	-2.8284271251e-01	-4.8191645344e-03
 1.8455486989e+01	-9.1923881558e-01	-9.0581174949e-03
 1.9091883092e+01	-1.5556349186e+00	-1.4815537178e-02
 1.9728279195e+01	-2.1920310217e+00	-2.2626936755e-02
 2.0364675298e+01	-2.8284271248e+00	-3.3027853342e-02
 2.1001071401e+01	-3.4648232278e+00	-3.8719207539e-02
 2.1637467504e+01	-4.1012193309e+00	-4.1458549806e-02
 2.2273863607e+01	-4.7376154340e+00	-4.4099056779e-02
 2.2910259710e+01	-5.3740115370e+00	-4.6966686665e-02
 1.6263455967e+01	 7.0710678115e-01	-1.6664263498e-02
 1.6899852070e+01	 7.0710678080e-02	-1.6480788871e-02
 1.7536248173e+01	-5.6568542499e-01	-1.6987419589e-02
 1.8172644276e+01	-1.2020815281e+00	-1.8719618447e-02
 1.8809040380e+01	-1.8384776311e+00	-2.2212872182e-02
 1.9445436483e+01	-2.4748737342e+00	-2.8002691474e-02
 2.0081832586e+01	-3.1112698373e+00	-3.6624610946e-02
 2.0718228689e+01	-3.7476659403e+00	-4.6169952605e-02
 2.1354624792e+01	-4.3840620434e+00	-4.7203183579e-02
 2.1991020895e+01	-5.0204581464e+00	-4.8421682623e-02
 2.2627416998e+01	-5.6568542495e+00	-5.0151411108e-02
