x	y	stress_yy
 0.000000000000000e+00	 0.000000000000000e+00	-3.092605801075601e-02
 0.000000000000000e+00	 0.000000000000000e+00	-1.480163372972892e-02
-2.828427124750000e+01	 0.000000000000000e+00	 1.050046746768411e+00
 0.000000000000000e+00	 0.000000000000000e+00	-3.092605802206712e-02
 0.000000000000000e+00	 0.000000000000000e+00	-1.480163369881424e-02
 2.828427124750000e+01	 0.000000000000000e+00	 1.050046746767916e+00
