x	y	stress_xx
 7.0710678119e+00	 7.0710678119e+00	-5.9071788576e-02
 7.0710678119e+00	 7.0710678119e+00	-5.9071788576e-02
 7.0710678119e+00	 7.0710678119e+00	-5.9071788576e-02
 7.0710678119e+00	 7.0710678119e+00	-5.9071788576e-02
 7.0710678119e+00	 7.0710678119e+00	-5.9071788576e-02
 7.0710678119e+00	 7.0710678119e+00	-5.9071788576e-02
 7.0710678119e+00	 7.0710678119e+00	-5.9071788576e-02
 7.0710678119e+00	 7.0710678119e+00	-5.9071788576e-02
 7.0710678119e+00	 7.0710678119e+00	-5.9071788576e-02
 7.0710678119e+00	 7.0710678119e+00	-5.9071788576e-02
 7.0710678119e+00	 7.0710678119e+00	-5.9071788576e-02
 7.0746033458e+00	 7.0746033458e+00	-4.9140891356e-01
 7.0742497924e+00	 7.0749568992e+00	-1.4513933235e+00
 7.0738962390e+00	 7.0753104526e+00	-2.2297487363e+00
 7.0735426856e+00	 7.0756640060e+00	-2.8264751519e+00
 7.0731891322e+00	 7.0760175594e+00	-3.2415725705e+00
 7.0728355789e+00	 7.0763711128e+00	-3.4750409920e+00
 7.0724820255e+00	 7.0767246661e+00	-3.5268804163e+00
 7.0721284721e+00	 7.0770782195e+00	-3.3970908436e+00
 7.0717749187e+00	 7.0774317729e+00	-3.0856722737e+00
 7.0714213653e+00	 7.0777853263e+00	-2.5926247068e+00
 7.0710678119e+00	 7.0781388797e+00	-1.9179481427e+00
 7.0852099475e+00	 7.0852099475e+00	-2.6260808989e-01
 7.0837957340e+00	 7.0866241611e+00	-7.3815298624e-01
 7.0823815204e+00	 7.0880383746e+00	-1.1222198051e+00
 7.0809673068e+00	 7.0894525882e+00	-1.4148085465e+00
 7.0795530933e+00	 7.0908668018e+00	-1.6159192104e+00
 7.0781388797e+00	 7.0922810153e+00	-1.7255517968e+00
 7.0767246661e+00	 7.0936952289e+00	-1.7437063057e+00
 7.0753104526e+00	 7.0951094425e+00	-1.6703827371e+00
 7.0738962390e+00	 7.0965236560e+00	-1.5055810909e+00
 7.0724820255e+00	 7.0979378696e+00	-1.2493013672e+00
 7.0710678119e+00	 7.0993520831e+00	-9.0154356602e-01
 7.1028876171e+00	 7.1028876171e+00	-1.7473562969e-01
 7.0997056365e+00	 7.1060695976e+00	-4.9177837079e-01
 7.0965236560e+00	 7.1092515781e+00	-7.4769263496e-01
 7.0933416755e+00	 7.1124335586e+00	-9.4247842215e-01
 7.0901596950e+00	 7.1156155391e+00	-1.0761357323e+00
 7.0869777145e+00	 7.1187975196e+00	-1.1486645652e+00
 7.0837957340e+00	 7.1219795001e+00	-1.1600649209e+00
 7.0806137534e+00	 7.1251614807e+00	-1.1103367993e+00
 7.0774317729e+00	 7.1283434612e+00	-9.9948020035e-01
 7.0742497924e+00	 7.1315254417e+00	-8.2749512387e-01
 7.0710678119e+00	 7.1347074222e+00	-5.9438156984e-01
 7.1276363544e+00	 7.1276363544e+00	-1.2948298814e-01
 7.1219795001e+00	 7.1332932086e+00	-3.6776967913e-01
 7.1163226459e+00	 7.1389500629e+00	-5.6015874420e-01
 7.1106657916e+00	 7.1446069171e+00	-7.0665018291e-01
 7.1050089374e+00	 7.1502637714e+00	-8.0724399480e-01
 7.0993520831e+00	 7.1559206256e+00	-8.6194017944e-01
 7.0936952289e+00	 7.1615774799e+00	-8.7073873635e-01
 7.0880383746e+00	 7.1672343341e+00	-8.3363966509e-01
 7.0823815204e+00	 7.1728911884e+00	-7.5064296521e-01
 7.0767246661e+00	 7.1785480426e+00	-6.2174863626e-01
 7.0710678119e+00	 7.1842048969e+00	-4.4695667777e-01
 7.1594561595e+00	 7.1594561595e+00	-1.0267347310e-01
 7.1506173248e+00	 7.1682949943e+00	-2.9380749652e-01
 7.1417784900e+00	 7.1771338291e+00	-4.4820023057e-01
 7.1329396553e+00	 7.1859726638e+00	-5.6585167354e-01
 7.1241008205e+00	 7.1948114986e+00	-6.4676182370e-01
 7.1152619857e+00	 7.2036503334e+00	-6.9093067932e-01
 7.1064231510e+00	 7.2124891681e+00	-6.9835823867e-01
 7.0975843162e+00	 7.2213280029e+00	-6.6904450004e-01
 7.0887454814e+00	 7.2301668377e+00	-6.0298946170e-01
 7.0799066467e+00	 7.2390056724e+00	-5.0019312192e-01
 7.0710678119e+00	 7.2478445072e+00	-3.6065547898e-01
 7.1983470325e+00	 7.1983470325e+00	-8.5616221098e-02
 7.1856191105e+00	 7.2110749546e+00	-2.4530503737e-01
 7.1728911884e+00	 7.2238028766e+00	-3.7436405906e-01
 7.1601632663e+00	 7.2365307987e+00	-4.7279328102e-01
 7.1474353443e+00	 7.2492587208e+00	-5.4059269810e-01
 7.1347074222e+00	 7.2619866428e+00	-5.7776230514e-01
 7.1219795001e+00	 7.2747145649e+00	-5.8430209700e-01
 7.1092515781e+00	 7.2874424869e+00	-5.6021206852e-01
 7.0965236560e+00	 7.3001704090e+00	-5.0549221456e-01
 7.0837957340e+00	 7.3128983311e+00	-4.2014252995e-01
 7.0710678119e+00	 7.3256262531e+00	-3.0416300956e-01
 7.2443089733e+00	 7.2443089733e+00	-7.4427097330e-02
 7.2269848572e+00	 7.2616330894e+00	-2.1160230143e-01
 7.2096607410e+00	 7.2789572056e+00	-3.2251642050e-01
 7.1923366249e+00	 7.2962813217e+00	-4.0716944156e-01
 7.1750125087e+00	 7.3136054378e+00	-4.6556135163e-01
 7.1576883926e+00	 7.3309295540e+00	-4.9769213771e-01
 7.1403642765e+00	 7.3482536701e+00	-5.0356178681e-01
 7.1230401603e+00	 7.3655777862e+00	-4.8317028594e-01
 7.1057160442e+00	 7.3829019024e+00	-4.3651762212e-01
 7.0883919280e+00	 7.4002260185e+00	-3.6360378236e-01
 7.0710678119e+00	 7.4175501347e+00	-2.6442875366e-01
 7.2973419819e+00	 7.2973419819e+00	-6.7107182325e-02
 7.2747145649e+00	 7.3199693989e+00	-1.8732404463e-01
 7.2520871479e+00	 7.3425968159e+00	-2.8455793733e-01
 7.2294597309e+00	 7.3652242329e+00	-3.5880883149e-01
 7.2068323139e+00	 7.3878516499e+00	-4.1007669817e-01
 7.1842048969e+00	 7.4104790669e+00	-4.3836150842e-01
 7.1615774799e+00	 7.4331064838e+00	-4.4366323331e-01
 7.1389500629e+00	 7.4557339008e+00	-4.2598184390e-01
 7.1163226459e+00	 7.4783613178e+00	-3.8531731123e-01
 7.0936952289e+00	 7.5009887348e+00	-3.2166960638e-01
 7.0710678119e+00	 7.5236161518e+00	-2.3503870039e-01
 7.3574460583e+00	 7.3574460583e+00	-6.2519154091e-02
 7.3288082336e+00	 7.3860838829e+00	-1.6946141118e-01
 7.3001704090e+00	 7.4147217075e+00	-2.5597098455e-01
 7.2715325844e+00	 7.4433595322e+00	-3.2204781553e-01
 7.2428947597e+00	 7.4719973568e+00	-3.6769184546e-01
 7.2142569351e+00	 7.5006351814e+00	-3.9290301565e-01
 7.1856191105e+00	 7.5292730061e+00	-3.9768126743e-01
 7.1569812858e+00	 7.5579108307e+00	-3.8202654214e-01
 7.1283434612e+00	 7.5865486554e+00	-3.4593878109e-01
 7.0997056365e+00	 7.6151864800e+00	-2.8941792562e-01
 7.0710678119e+00	 7.6438243046e+00	-2.1246391705e-01
 7.4246212025e+00	 7.4246212025e+00	-5.9964348685e-02
 7.3892658634e+00	 7.4599765416e+00	-1.5619436327e-01
 7.3539105244e+00	 7.4953318806e+00	-2.3403198590e-01
 7.3185551853e+00	 7.5306872197e+00	-2.9347710616e-01
 7.2831998463e+00	 7.5660425587e+00	-3.3452961367e-01
 7.2478445072e+00	 7.6013978978e+00	-3.5718939801e-01
 7.2124891681e+00	 7.6367532368e+00	-3.6145634878e-01
 7.1771338291e+00	 7.6721085759e+00	-3.4733035558e-01
 7.1417784900e+00	 7.7074639149e+00	-3.1481130800e-01
 7.1064231510e+00	 7.7428192540e+00	-2.6389909564e-01
 7.0710678119e+00	 7.7781745931e+00	-1.9459360809e-01
 7.4246212025e+00	 7.4246212025e+00	-5.9964348685e-02
 7.3892658634e+00	 7.4599765416e+00	-1.5619436327e-01
 7.3539105244e+00	 7.4953318806e+00	-2.3403198590e-01
 7.3185551853e+00	 7.5306872197e+00	-2.9347710616e-01
 7.2831998463e+00	 7.5660425587e+00	-3.3452961367e-01
 7.2478445072e+00	 7.6013978978e+00	-3.5718939801e-01
 7.2124891681e+00	 7.6367532368e+00	-3.6145634878e-01
 7.1771338291e+00	 7.6721085759e+00	-3.4733035558e-01
 7.1417784900e+00	 7.7074639149e+00	-3.1481130800e-01
 7.1064231510e+00	 7.7428192540e+00	-2.6389909564e-01
 7.0710678119e+00	 7.7781745931e+00	-1.9459360809e-01
 7.4988674145e+00	 7.4988674145e+00	-4.6889448663e-02
 7.4560874543e+00	 7.5416473748e+00	-1.3357590876e-01
 7.4133074940e+00	 7.5844273350e+00	-2.0283274121e-01
 7.3705275337e+00	 7.6272072953e+00	-2.5465975042e-01
 7.3277475735e+00	 7.6699872555e+00	-2.8905674082e-01
 7.2849676132e+00	 7.7127672158e+00	-3.0602351681e-01
 7.2421876530e+00	 7.7555471761e+00	-3.0555988281e-01
 7.1994076927e+00	 7.7983271363e+00	-2.8766564323e-01
 7.1566277324e+00	 7.8411070966e+00	-2.5234060248e-01
 7.1138477722e+00	 7.8838870568e+00	-1.9958456497e-01
 7.0710678119e+00	 7.9266670171e+00	-1.2939733512e-01
 7.5801846944e+00	 7.5801846944e+00	-3.6571261617e-02
 7.5292730061e+00	 7.6310963826e+00	-1.1583301345e-01
 7.4783613179e+00	 7.6820080708e+00	-1.7870656243e-01
 7.4274496296e+00	 7.7329197591e+00	-2.2519157890e-01
 7.3765379414e+00	 7.7838314473e+00	-2.5528773320e-01
 7.3256262531e+00	 7.8347431355e+00	-2.6899469568e-01
 7.2747145649e+00	 7.8856548238e+00	-2.6631213666e-01
 7.2238028766e+00	 7.9365665120e+00	-2.4723972647e-01
 7.1728911884e+00	 7.9874782003e+00	-2.1177713546e-01
 7.1219795001e+00	 8.0383898885e+00	-1.5992403395e-01
 7.0710678119e+00	 8.0893015768e+00	-9.1680092260e-02
 7.6685730420e+00	 7.6685730420e+00	-2.8547705493e-02
 7.6088225190e+00	 7.7283235650e+00	-1.0186768250e-01
 7.5490719960e+00	 7.7880740880e+00	-1.5985000761e-01
 7.4893214730e+00	 7.8478246110e+00	-2.0249414791e-01
 7.4295709500e+00	 7.9075751340e+00	-2.2979957052e-01
 7.3698204270e+00	 7.9673256570e+00	-2.4176574255e-01
 7.3100699039e+00	 8.0270761800e+00	-2.3839213109e-01
 7.2503193809e+00	 8.0868267030e+00	-2.1967820323e-01
 7.1905688579e+00	 8.1465772260e+00	-1.8562342606e-01
 7.1308183349e+00	 8.2063277490e+00	-1.3622726667e-01
 7.0710678119e+00	 8.2660782721e+00	-7.1489192146e-02
 7.7640324575e+00	 7.7640324575e+00	-2.2449501027e-02
 7.6947359929e+00	 7.8333289220e+00	-9.0891749963e-02
 7.6254395284e+00	 7.9026253866e+00	-1.4501990293e-01
 7.5561430638e+00	 7.9719218511e+00	-1.8483312866e-01
 7.4868465992e+00	 8.0412183156e+00	-2.1033059586e-01
 7.4175501347e+00	 8.1105147802e+00	-2.2151147323e-01
 7.3482536701e+00	 8.1798112448e+00	-2.1837492949e-01
 7.2789572056e+00	 8.2491077093e+00	-2.0092013331e-01
 7.2096607410e+00	 8.3184041739e+00	-1.6914625339e-01
 7.1403642765e+00	 8.3877006384e+00	-1.2305245840e-01
 7.0710678119e+00	 8.4569971030e+00	-6.2637917017e-02
 7.8665629407e+00	 7.8665629407e+00	-1.7977587999e-02
 7.7870134278e+00	 7.9461124536e+00	-8.2320779417e-02
 7.7074639150e+00	 8.0256619665e+00	-1.3332837180e-01
 7.6279144021e+00	 8.1052114793e+00	-1.7099910758e-01
 7.5483648892e+00	 8.1847609922e+00	-1.9533172921e-01
 7.4688153763e+00	 8.2643105051e+00	-2.0632497911e-01
 7.3892658634e+00	 8.3438600180e+00	-2.0397759967e-01
 7.3097163506e+00	 8.4234095309e+00	-1.8828833329e-01
 7.2301668377e+00	 8.5029590437e+00	-1.5925592236e-01
 7.1506173248e+00	 8.5825085566e+00	-1.1687910924e-01
 7.0710678119e+00	 8.6620580695e+00	-6.1156636297e-02
 7.9761644918e+00	 7.9761644918e+00	-1.4885622171e-02
 7.8856548238e+00	 8.0666741598e+00	-7.5708297872e-02
 7.7951451558e+00	 8.1571838278e+00	-1.2412069336e-01
 7.7046354878e+00	 8.2476934958e+00	-1.6012095637e-01
 7.6141258198e+00	 8.3382031637e+00	-1.8370723464e-01
 7.5236161519e+00	 8.4287128317e+00	-1.9487767588e-01
 7.4331064839e+00	 8.5192224997e+00	-1.9363042776e-01
 7.3425968159e+00	 8.6097321677e+00	-1.7996363795e-01
 7.2520871479e+00	 8.7002418357e+00	-1.5387545409e-01
 7.1615774799e+00	 8.7907515037e+00	-1.1536402380e-01
 7.0710678119e+00	 8.8812611717e+00	-6.4427494675e-02
 8.0928371107e+00	 8.0928371107e+00	-1.2966736805e-02
 7.9906601808e+00	 8.1950140406e+00	-7.0703510087e-02
 7.8884832509e+00	 8.2971909704e+00	-1.1689954349e-01
 7.7863063211e+00	 8.3993679003e+00	-1.5155217215e-01
 7.6841293912e+00	 8.5015448302e+00	-1.7465873118e-01
 7.5819524613e+00	 8.6037217601e+00	-1.8621655564e-01
 7.4797755314e+00	 8.7058986899e+00	-1.8622298057e-01
 7.3775986015e+00	 8.8080756198e+00	-1.7467534096e-01
 7.2754216717e+00	 8.9102525497e+00	-1.5157097178e-01
 7.1732447418e+00	 9.0124294796e+00	-1.1690720796e-01
 7.0710678119e+00	 9.1146064095e+00	-7.0681384395e-02
 8.2165807974e+00	 8.2165807974e+00	-1.2043577327e-02
 8.1020294988e+00	 8.3311320959e+00	-6.7023231365e-02
 7.9874782003e+00	 8.4456833945e+00	-1.1127635037e-01
 7.8729269017e+00	 8.5602346930e+00	-1.4479917929e-01
 7.7583756032e+00	 8.6747859916e+00	-1.6758796299e-01
 7.6438243047e+00	 8.7893372901e+00	-1.7963894632e-01
 7.5292730061e+00	 8.9038885887e+00	-1.8094837403e-01
 7.4147217076e+00	 9.0184398872e+00	-1.7151249085e-01
 7.3001704090e+00	 9.1329911858e+00	-1.5132754144e-01
 7.1856191105e+00	 9.2475424843e+00	-1.2038977040e-01
 7.0710678119e+00	 9.3620937829e+00	-7.8695422301e-02
 8.3473955519e+00	 8.3473955519e+00	-1.1960766879e-02
 8.2197627779e+00	 8.4750283259e+00	-6.4432726780e-02
 8.0921300039e+00	 8.6026610999e+00	-1.0693909866e-01
 7.9644972299e+00	 8.7302938739e+00	-1.3947468849e-01
 7.8368644559e+00	 8.8579266479e+00	-1.6203430215e-01
 7.7092316819e+00	 8.9855594219e+00	-1.7461274543e-01
 7.5815989079e+00	 9.1131921959e+00	-1.7720482404e-01
 7.4539661339e+00	 9.2408249699e+00	-1.6980534362e-01
 7.3263333599e+00	 9.3684577439e+00	-1.5240910971e-01
 7.1987005859e+00	 9.4960905179e+00	-1.2501092776e-01
 7.0710678119e+00	 9.6237232919e+00	-8.7605603144e-02
 8.4852813742e+00	 8.4852813742e+00	-1.2579157234e-02
 8.3438600180e+00	 8.6267027304e+00	-6.2732295778e-02
 8.2024386618e+00	 8.7681240867e+00	-1.0363043815e-01
 8.0610173055e+00	 8.9095454429e+00	-1.3526651849e-01
 7.9195959493e+00	 9.0509667992e+00	-1.5763347083e-01
 7.7781745931e+00	 9.1923881554e+00	-1.7072422907e-01
 7.6367532368e+00	 9.3338095116e+00	-1.7453172698e-01
 7.4953318806e+00	 9.4752308679e+00	-1.6904889820e-01
 7.3539105244e+00	 9.6166522241e+00	-1.5426867625e-01
 7.2124891681e+00	 9.7580735804e+00	-1.3018399451e-01
 7.0710678119e+00	 9.8994949366e+00	-9.6787786231e-02
 7.0710678119e+00	 7.0710678119e+00	-5.9071788576e-02
 7.0710678119e+00	 7.0710678119e+00	-5.9071788576e-02
 7.0710678119e+00	 7.0710678119e+00	-5.9071788576e-02
 7.0710678119e+00	 7.0710678119e+00	-5.9071788576e-02
 7.0710678119e+00	 7.0710678119e+00	-5.9071788576e-02
 7.0710678119e+00	 7.0710678119e+00	-5.9071788576e-02
 7.0710678119e+00	 7.0710678119e+00	-5.9071788576e-02
 7.0710678119e+00	 7.0710678119e+00	-5.9071788576e-02
 7.0710678119e+00	 7.0710678119e+00	-5.9071788576e-02
 7.0710678119e+00	 7.0710678119e+00	-5.9071788576e-02
 7.0710678119e+00	 7.0710678119e+00	-5.9071788576e-02
 7.0710678119e+00	 7.0781388797e+00	-4.6435311924e+00
 7.0707142585e+00	 7.0777853263e+00	-2.9698017312e+00
 7.0703607051e+00	 7.0774317729e+00	-1.5978810846e+00
 7.0700071517e+00	 7.0770782195e+00	-5.2776925279e-01
 7.0696535983e+00	 7.0767246661e+00	 2.4053376437e-01
 7.0693000449e+00	 7.0763711128e+00	 7.0702796686e-01
 7.0689464916e+00	 7.0760175594e+00	 8.7171335468e-01
 7.0685929382e+00	 7.0756640060e+00	 7.3458992781e-01
 7.0682393848e+00	 7.0753104526e+00	 2.9565768627e-01
 7.0678858314e+00	 7.0749568992e+00	-4.4508336996e-01
 7.0675322780e+00	 7.0746033458e+00	-1.4876332409e+00
 7.0710678119e+00	 7.0993520831e+00	-2.4730457290e+00
 7.0696535983e+00	 7.0979378696e+00	-1.5900363774e+00
 7.0682393848e+00	 7.0965236560e+00	-8.6310981722e-01
 7.0668251712e+00	 7.0951094425e+00	-2.9226604844e-01
 7.0654109577e+00	 7.0936952289e+00	 1.2249492890e-01
 7.0639967441e+00	 7.0922810153e+00	 3.8117311482e-01
 7.0625825305e+00	 7.0908668018e+00	 4.8376850929e-01
 7.0611683170e+00	 7.0894525882e+00	 4.3028111231e-01
 7.0597541034e+00	 7.0880383746e+00	 2.2071092387e-01
 7.0583398898e+00	 7.0866241611e+00	-1.4494205603e-01
 7.0569256763e+00	 7.0852099475e+00	-6.6667782742e-01
 7.0710678119e+00	 7.1347074222e+00	-1.6480773246e+00
 7.0678858314e+00	 7.1315254417e+00	-1.0550906846e+00
 7.0647038509e+00	 7.1283434612e+00	-5.6694418334e-01
 7.0615218704e+00	 7.1251614807e+00	-1.8363782099e-01
 7.0583398898e+00	 7.1219795001e+00	 9.4828402394e-02
 7.0551579093e+00	 7.1187975196e+00	 2.6845448672e-01
 7.0519759288e+00	 7.1156155391e+00	 3.3724043192e-01
 7.0487939483e+00	 7.1124335586e+00	 3.0118623789e-01
 7.0456119678e+00	 7.1092515781e+00	 1.6029190454e-01
 7.0424299873e+00	 7.1060695976e+00	-8.5442568201e-02
 7.0392480067e+00	 7.1028876171e+00	-4.3601718043e-01
 7.0710678119e+00	 7.1842048969e+00	-1.2167905823e+00
 7.0654109577e+00	 7.1785480426e+00	-7.7369032181e-01
 7.0597541034e+00	 7.1728911884e+00	-4.0930857422e-01
 7.0540972492e+00	 7.1672343341e+00	-1.2364533998e-01
 7.0484403949e+00	 7.1615774799e+00	 8.3299380415e-02
 7.0427835407e+00	 7.1559206256e+00	 2.1152558648e-01
 7.0371266864e+00	 7.1502637714e+00	 2.6103327774e-01
 7.0314698322e+00	 7.1446069171e+00	 2.3182245371e-01
 7.0258129779e+00	 7.1389500629e+00	 1.2389311389e-01
 7.0201561237e+00	 7.1332932086e+00	-6.2754742192e-02
 7.0144992694e+00	 7.1276363544e+00	-3.2812111503e-01
 7.0710678119e+00	 7.2478445072e+00	-9.5218550657e-01
 7.0622289771e+00	 7.2390056724e+00	-6.0050362783e-01
 7.0533901424e+00	 7.2301668377e+00	-3.1170689060e-01
 7.0445513076e+00	 7.2213280029e+00	-8.5795296738e-02
 7.0357124728e+00	 7.2124891681e+00	 7.7231151912e-02
 7.0268736381e+00	 7.2036503334e+00	 1.7737245350e-01
 7.0180348033e+00	 7.1948114986e+00	 2.1462860618e-01
 7.0091959685e+00	 7.1859726638e+00	 1.8899960811e-01
 7.0003571338e+00	 7.1771338291e+00	 1.0048545743e-01
 6.9915182990e+00	 7.1682949943e+00	-5.0913847701e-02
 6.9826794642e+00	 7.1594561595e+00	-2.6519830914e-01
 7.0710678119e+00	 7.3256262531e+00	-7.7349596639e-01
 7.0583398898e+00	 7.3128983311e+00	-4.8331588701e-01
 7.0456119678e+00	 7.3001704090e+00	-2.4539809915e-01
 7.0328840457e+00	 7.2874424869e+00	-5.9742608310e-02
 7.0201561237e+00	 7.2747145649e+00	 7.3650579978e-02
 7.0074282016e+00	 7.2619866428e+00	 1.5478146020e-01
 6.9947002795e+00	 7.2492587208e+00	 1.8365002683e-01
 6.9819723575e+00	 7.2365307987e+00	 1.6025627437e-01
 6.9692444354e+00	 7.2238028766e+00	 8.4600197272e-02
 6.9565165133e+00	 7.2110749546e+00	-4.3318209965e-02
 6.9437885913e+00	 7.1983470325e+00	-2.2349895287e-01
 7.0710678119e+00	 7.4175501347e+00	-6.4484813612e-01
 7.0537436958e+00	 7.4002260185e+00	-3.9881629559e-01
 7.0364195796e+00	 7.3829019024e+00	-1.9742546033e-01
 7.0190954635e+00	 7.3655777862e+00	-4.0675644252e-02
 7.0017713473e+00	 7.3482536701e+00	 7.1433138719e-02
 6.9844472312e+00	 7.3309295540e+00	 1.3890087467e-01
 6.9671231151e+00	 7.3136054378e+00	 1.6172754969e-01
 6.9497989989e+00	 7.2962813217e+00	 1.3991314985e-01
 6.9324748828e+00	 7.2789572056e+00	 7.3457661238e-02
 6.9151507666e+00	 7.2616330894e+00	-3.7638930060e-02
 6.8978266505e+00	 7.2443089733e+00	-1.9337663797e-01
 7.0710678119e+00	 7.5236161518e+00	-5.4788152185e-01
 7.0484403949e+00	 7.5009887348e+00	-3.3503430411e-01
 7.0258129779e+00	 7.4783613178e+00	-1.6109303643e-01
 7.0031855609e+00	 7.4557339008e+00	-2.6057749824e-02
 6.9805581439e+00	 7.4331064838e+00	 7.0071524705e-02
 6.9579307269e+00	 7.4104790669e+00	 1.2729475615e-01
 6.9353033099e+00	 7.3878516499e+00	 1.4561191349e-01
 6.9126758929e+00	 7.3652242329e+00	 1.2502296572e-01
 6.8900484759e+00	 7.3425968159e+00	 6.5527881837e-02
 6.8674210589e+00	 7.3199693989e+00	-3.2873369176e-02
 6.8447936419e+00	 7.2973419819e+00	-1.7018081833e-01
 7.0710678119e+00	 7.6438243046e+00	-4.7221896575e-01
 7.0424299873e+00	 7.6151864800e+00	-2.8518671412e-01
 7.0137921626e+00	 7.5865486554e+00	-1.3258757697e-01
 6.9851543380e+00	 7.5579108307e+00	-1.4421617177e-02
 6.9565165133e+00	 7.5292730061e+00	 6.9311102394e-02
 6.9278786887e+00	 7.5006351814e+00	 1.1861051888e-01
 6.8992408641e+00	 7.4719973568e+00	 1.3347656941e-01
 6.8706030394e+00	 7.4433595322e+00	 1.1390919112e-01
 6.8419652148e+00	 7.4147217075e+00	 5.9908321149e-02
 6.8133273902e+00	 7.3860838829e+00	-2.8526103376e-02
 6.7846895655e+00	 7.3574460583e+00	-1.5139414532e-01
 7.0710678119e+00	 7.7781745931e+00	-4.1154565664e-01
 7.0357124728e+00	 7.7428192540e+00	-2.4513596169e-01
 7.0003571338e+00	 7.7074639149e+00	-1.0957229364e-01
 6.9650017947e+00	 7.6721085759e+00	-4.8547707810e-03
 6.9296464557e+00	 7.6367532368e+00	 6.9016488598e-02
 6.8942911166e+00	 7.6013978978e+00	 1.1204136620e-01
 6.8589357775e+00	 7.5660425587e+00	 1.2421974373e-01
 6.8235804385e+00	 7.5306872197e+00	 1.0555150289e-01
 6.7882250994e+00	 7.4953318806e+00	 5.6036525389e-02
 6.7528697604e+00	 7.4599765416e+00	-2.4325307066e-02
 6.7175144213e+00	 7.4246212025e+00	-1.3553411277e-01
 7.0710678119e+00	 7.7781745931e+00	-4.1154565664e-01
 7.0357124728e+00	 7.7428192540e+00	-2.4513596169e-01
 7.0003571338e+00	 7.7074639149e+00	-1.0957229364e-01
 6.9650017947e+00	 7.6721085759e+00	-4.8547707810e-03
 6.9296464557e+00	 7.6367532368e+00	 6.9016488598e-02
 6.8942911166e+00	 7.6013978978e+00	 1.1204136620e-01
 6.8589357775e+00	 7.5660425587e+00	 1.2421974373e-01
 6.8235804385e+00	 7.5306872197e+00	 1.0555150289e-01
 6.7882250994e+00	 7.4953318806e+00	 5.6036525389e-02
 6.7528697604e+00	 7.4599765416e+00	-2.4325307066e-02
 6.7175144213e+00	 7.4246212025e+00	-1.3553411277e-01
 7.0710678119e+00	 7.9266670171e+00	-3.7449702759e-01
 7.0282878516e+00	 7.8838870568e+00	-2.2484893570e-01
 6.9855078914e+00	 7.8411070966e+00	-1.0293621454e-01
 6.9427279311e+00	 7.7983271363e+00	-8.7590736832e-03
 6.8999479708e+00	 7.7555471761e+00	 5.7682277304e-02
 6.8571680106e+00	 7.7127672158e+00	 9.6387628853e-02
 6.8143880503e+00	 7.6699872555e+00	 1.0735677139e-01
 6.7716080901e+00	 7.6272072953e+00	 9.0589495360e-02
 6.7288281298e+00	 7.5844273350e+00	 4.6085591186e-02
 6.6860481695e+00	 7.5416473748e+00	-2.6155150695e-02
 6.6432682093e+00	 7.4988674145e+00	-1.2613293985e-01
 7.0710678119e+00	 8.0893015768e+00	-3.4218199464e-01
 7.0201561237e+00	 8.0383898885e+00	-2.0559884902e-01
 6.9692444354e+00	 7.9874782003e+00	-9.4209683218e-02
 6.9183327472e+00	 7.9365665120e+00	-8.0148504702e-03
 6.8674210589e+00	 7.8856548238e+00	 5.2985295989e-02
 6.8165093707e+00	 7.8347431355e+00	 8.8790402926e-02
 6.7655976824e+00	 7.7838314473e+00	 9.9400117111e-02
 6.7146859942e+00	 7.7329197591e+00	 8.4814085314e-02
 6.6637743059e+00	 7.6820080708e+00	 4.5031954308e-02
 6.6128626177e+00	 7.6310963826e+00	-1.9946629131e-02
 6.5619509294e+00	 7.5801846944e+00	-1.1012201823e-01
 7.0710678119e+00	 8.2660782721e+00	-3.1374267330e-01
 7.0113172889e+00	 8.2063277490e+00	-1.8755709765e-01
 6.9515667659e+00	 8.1465772260e+00	-8.4449435318e-02
 6.8918162429e+00	 8.0868267030e+00	-4.4202573003e-03
 6.8320657199e+00	 8.0270761800e+00	 5.2529865395e-02
 6.7723151968e+00	 7.9673256570e+00	 8.6400361766e-02
 6.7125646738e+00	 7.9075751340e+00	 9.7190660816e-02
 6.6528141508e+00	 7.8478246110e+00	 8.4900191552e-02
 6.5930636278e+00	 7.7880740880e+00	 4.9528382985e-02
 6.5333131048e+00	 7.7283235650e+00	-8.9253358707e-03
 6.4735625818e+00	 7.6685730420e+00	-9.0461535996e-02
 7.0710678119e+00	 8.4569971030e+00	-2.8846830429e-01
 7.0017713473e+00	 8.3877006384e+00	-1.7070381636e-01
 6.9324748828e+00	 8.3184041739e+00	-7.4226537718e-02
 6.8631784182e+00	 8.2491077093e+00	 9.6264087518e-04
 6.7938819537e+00	 8.1798112448e+00	 5.4862828681e-02
 6.7245854891e+00	 8.1105147802e+00	 8.7473134966e-02
 6.6552890246e+00	 8.0412183156e+00	 9.8792669001e-02
 6.5859925600e+00	 7.9719218511e+00	 8.8820540068e-02
 6.5166960954e+00	 7.9026253866e+00	 5.7555857453e-02
 6.4473996309e+00	 7.8333289220e+00	 4.9977304510e-03
 6.3781031663e+00	 7.7640324575e+00	-6.8854731635e-02
 7.0710678119e+00	 8.6620580695e+00	-2.6577008836e-01
 6.9915182990e+00	 8.5825085566e+00	-1.5493008569e-01
 6.9119687861e+00	 8.5029590437e+00	-6.3840325757e-02
 6.8324192732e+00	 8.4234095309e+00	 7.4978439041e-03
 6.7528697604e+00	 8.3438600180e+00	 5.9083075771e-02
 6.6733202475e+00	 8.2643105051e+00	 9.0914022335e-02
 6.5937707346e+00	 8.1847609922e+00	 1.0298933610e-01
 6.5142212217e+00	 8.1052114793e+00	 9.5307669590e-02
 6.4346717088e+00	 8.0256619665e+00	 6.7867675331e-02
 6.3551221959e+00	 7.9461124536e+00	 2.0668005869e-02
 6.2755726831e+00	 7.8665629407e+00	-4.6292686239e-02
 7.0710678119e+00	 8.8812611717e+00	-2.4515659914e-01
 6.9805581439e+00	 8.7907515037e+00	-1.4008788249e-01
 6.8900484759e+00	 8.7002418357e+00	-5.3433447316e-02
 6.7995388079e+00	 8.6097321677e+00	 1.4804721579e-02
 6.7090291399e+00	 8.5192224997e+00	 6.4624639416e-02
 6.6185194719e+00	 8.4287128317e+00	 9.6024321435e-02
 6.5280098039e+00	 8.3382031637e+00	 1.0900178290e-01
 6.4375001359e+00	 8.2476934958e+00	 1.0355503910e-01
 6.3469904680e+00	 8.1571838278e+00	 7.9682105341e-02
 6.2564808000e+00	 8.0666741598e+00	 3.7380996955e-02
 6.1659711320e+00	 7.9761644918e+00	-2.3350270705e-02
 7.0710678119e+00	 9.1146064095e+00	-2.2621296914e-01
 6.9688908820e+00	 9.0124294796e+00	-1.2601468894e-01
 6.8667139521e+00	 8.9102525497e+00	-4.3055966794e-02
 6.7645370222e+00	 8.8080756198e+00	 2.2660341707e-02
 6.6623600924e+00	 8.7058986899e+00	 7.1131381006e-02
 6.5601831625e+00	 8.6037217601e+00	 1.0235429558e-01
 6.4580062326e+00	 8.5015448302e+00	 1.1632622995e-01
 6.3558293027e+00	 8.3993679003e+00	 1.1304432866e-01
 6.2536523728e+00	 8.2971909704e+00	 9.2505736306e-02
 6.1514754429e+00	 8.1950140406e+00	 5.4707597507e-02
 6.0492985131e+00	 8.0928371107e+00	-3.5294307746e-04
 7.0710678119e+00	 9.3620937829e+00	-2.0858418297e-01
 6.9565165133e+00	 9.2475424843e+00	-1.1254544742e-01
 6.8419652148e+00	 9.1329911858e+00	-3.2702133635e-02
 6.7274139162e+00	 9.0184398872e+00	 3.0941734517e-02
 6.6128626177e+00	 8.9038885887e+00	 7.8382133227e-02
 6.4983113191e+00	 8.7893372901e+00	 1.0961503874e-01
 6.3837600206e+00	 8.6747859916e+00	 1.2463642737e-01
 6.2692087220e+00	 8.5602346930e+00	 1.2344227547e-01
 6.1546574235e+00	 8.4456833945e+00	 1.0602855946e-01
 6.0401061249e+00	 8.3311320959e+00	 7.2391255815e-02
 5.9255548264e+00	 8.2165807974e+00	 2.2526341078e-02
 7.0710678119e+00	 9.6237232919e+00	-1.9196195257e-01
 6.9434350379e+00	 9.4960905179e+00	-9.9518076548e-02
 6.8158022639e+00	 9.3684577439e+00	-2.2331967516e-02
 6.6881694899e+00	 9.2408249699e+00	 3.9590808617e-02
 6.5605367159e+00	 9.1131921959e+00	 8.6244686029e-02
 6.4329039419e+00	 8.9855594219e+00	 1.1762409899e-01
 6.3052711679e+00	 8.8579266479e+00	 1.3372348184e-01
 6.1776383939e+00	 8.7302938739e+00	 1.3453726903e-01
 6.0500056198e+00	 8.6026610999e+00	 1.2005989510e-01
 5.9223728458e+00	 8.4750283259e+00	 9.0285794657e-02
 5.7947400718e+00	 8.3473955519e+00	 4.5209402412e-02
 7.0710678119e+00	 9.8994949366e+00	-1.7607448384e-01
 6.9296464557e+00	 9.7580735804e+00	-8.6775687415e-02
 6.7882250994e+00	 9.6166522241e+00	-1.1884160535e-02
 6.6468037432e+00	 9.4752308679e+00	 4.8592524963e-02
 6.5053823869e+00	 9.3338095116e+00	 9.4646797378e-02
 6.3639610307e+00	 9.1923881554e+00	 1.2627108514e-01
 6.2225396745e+00	 9.0509667992e+00	 1.4345781682e-01
 6.0811183182e+00	 8.9095454429e+00	 1.4619942112e-01
 5.9396969620e+00	 8.7681240867e+00	 1.3448832686e-01
 5.7982756057e+00	 8.6267027304e+00	 1.0831696302e-01
 5.6568542495e+00	 8.4852813742e+00	 6.7677758698e-02
 7.0710678119e+00	 7.0710678119e+00	-5.9071788576e-02
 7.0710678119e+00	 7.0710678119e+00	-5.9071788576e-02
 7.0710678119e+00	 7.0710678119e+00	-5.9071788576e-02
 7.0710678119e+00	 7.0710678119e+00	-5.9071788576e-02
 7.0710678119e+00	 7.0710678119e+00	-5.9071788576e-02
 7.0710678119e+00	 7.0710678119e+00	-5.9071788576e-02
 7.0710678119e+00	 7.0710678119e+00	-5.9071788576e-02
 7.0710678119e+00	 7.0710678119e+00	-5.9071788576e-02
 7.0710678119e+00	 7.0710678119e+00	-5.9071788576e-02
 7.0710678119e+00	 7.0710678119e+00	-5.9071788576e-02
 7.0710678119e+00	 7.0710678119e+00	-5.9071788576e-02
 7.0675322780e+00	 7.0746033458e+00	 2.4393501150e+00
 7.0671787246e+00	 7.0742497924e+00	 4.6710011450e-01
 7.0668251712e+00	 7.0738962390e+00	-1.3286168368e+00
 7.0664716178e+00	 7.0735426856e+00	-2.9478007389e+00
 7.0661180644e+00	 7.0731891322e+00	-4.3904515918e+00
 7.0657645110e+00	 7.0728355789e+00	-5.6565693954e+00
 7.0654109577e+00	 7.0724820255e+00	-6.7461541499e+00
 7.0650574043e+00	 7.0721284721e+00	-7.6592058551e+00
 7.0647038509e+00	 7.0717749187e+00	-8.3957245111e+00
 7.0643502975e+00	 7.0714213653e+00	-8.9557101179e+00
 7.0639967441e+00	 7.0710678119e+00	-9.3391626755e+00
 7.0569256763e+00	 7.0852099475e+00	 1.1995496770e+00
 7.0555114627e+00	 7.0837957340e+00	 1.6878977840e-01
 7.0540972492e+00	 7.0823815204e+00	-7.6380070856e-01
 7.0526830356e+00	 7.0809673068e+00	-1.5982217839e+00
 7.0512688220e+00	 7.0795530933e+00	-2.3344734475e+00
 7.0498546085e+00	 7.0781388797e+00	-2.9725556995e+00
 7.0484403949e+00	 7.0767246661e+00	-3.5124685398e+00
 7.0470261813e+00	 7.0753104526e+00	-3.9542119685e+00
 7.0456119678e+00	 7.0738962390e+00	-4.2977859855e+00
 7.0441977542e+00	 7.0724820255e+00	-4.5431905910e+00
 7.0427835407e+00	 7.0710678119e+00	-4.6904257848e+00
 7.0392480067e+00	 7.1028876171e+00	 8.0671086207e-01
 7.0360660262e+00	 7.0997056365e+00	 1.1229995040e-01
 7.0328840457e+00	 7.0965236560e+00	-5.1485542014e-01
 7.0297020652e+00	 7.0933416755e+00	-1.0747552496e+00
 7.0265200847e+00	 7.0901596950e+00	-1.5673995382e+00
 7.0233381042e+00	 7.0869777145e+00	-1.9927882858e+00
 7.0201561237e+00	 7.0837957340e+00	-2.3509214927e+00
 7.0169741431e+00	 7.0806137534e+00	-2.6417991588e+00
 7.0137921626e+00	 7.0774317729e+00	-2.8654212843e+00
 7.0106101821e+00	 7.0742497924e+00	-3.0217878693e+00
 7.0074282016e+00	 7.0710678119e+00	-3.1108989139e+00
 7.0144992694e+00	 7.1276363544e+00	 6.1474828811e-01
 7.0088424152e+00	 7.1219795001e+00	 9.2820172902e-02
 7.0031855609e+00	 7.1163226459e+00	-3.7820778456e-01
 6.9975287067e+00	 7.1106657916e+00	-7.9833558478e-01
 6.9918718524e+00	 7.1050089374e+00	-1.1675632282e+00
 6.9862149982e+00	 7.0993520831e+00	-1.4858907154e+00
 6.9805581439e+00	 7.0936952289e+00	-1.7533180467e+00
 6.9749012897e+00	 7.0880383746e+00	-1.9698452228e+00
 6.9692444354e+00	 7.0823815204e+00	-2.1354722440e+00
 6.9635875812e+00	 7.0767246661e+00	-2.2501991108e+00
 6.9579307269e+00	 7.0710678119e+00	-2.3140258238e+00
 6.9826794642e+00	 7.1594561595e+00	 5.0156105968e-01
 6.9738406295e+00	 7.1506173248e+00	 8.4577686770e-02
 6.9650017947e+00	 7.1417784900e+00	-2.9160597202e-01
 6.9561629600e+00	 7.1329396553e+00	-6.2698991852e-01
 6.9473241252e+00	 7.1241008205e+00	-9.2157415459e-01
 6.9384852904e+00	 7.1152619857e+00	-1.1753586821e+00
 6.9296464557e+00	 7.1064231510e+00	-1.3883435028e+00
 6.9208076209e+00	 7.0975843162e+00	-1.5605286187e+00
 6.9119687861e+00	 7.0887454814e+00	-1.6919140315e+00
 6.9031299514e+00	 7.0799066467e+00	-1.7824997432e+00
 6.8942911166e+00	 7.0710678119e+00	-1.8322857555e+00
 6.9437885913e+00	 7.1983470325e+00	 4.2743920530e-01
 6.9310606692e+00	 7.1856191105e+00	 8.1092728665e-02
 6.9183327472e+00	 7.1728911884e+00	-2.3130692065e-01
 6.9056048251e+00	 7.1601632663e+00	-5.0975974815e-01
 6.8928769030e+00	 7.1474353443e+00	-7.5426575938e-01
 6.8801489810e+00	 7.1347074222e+00	-9.6482495984e-01
 6.8674210589e+00	 7.1219795001e+00	-1.1414373551e+00
 6.8546931369e+00	 7.1092515781e+00	-1.2841029505e+00
 6.8419652148e+00	 7.0965236560e+00	-1.3928217518e+00
 6.8292372927e+00	 7.0837957340e+00	-1.4675937644e+00
 6.8165093707e+00	 7.0710678119e+00	-1.5084189938e+00
 6.8978266505e+00	 7.2443089733e+00	 3.7560864509e-01
 6.8805025344e+00	 7.2269848572e+00	 8.0106816913e-02
 6.8631784182e+00	 7.2096607410e+00	-1.8640097118e-01
 6.8458543021e+00	 7.1923366249e+00	-4.2391473309e-01
 6.8285301859e+00	 7.1750125087e+00	-6.3243448274e-01
 6.8112060698e+00	 7.1576883926e+00	-8.1196023405e-01
 6.7938819537e+00	 7.1403642765e+00	-9.6249200094e-01
 6.7765578375e+00	 7.1230401603e+00	-1.0840297973e+00
 6.7592337214e+00	 7.1057160442e+00	-1.1765736371e+00
 6.7419096053e+00	 7.0883919280e+00	-1.2401235342e+00
 6.7245854891e+00	 7.0710678119e+00	-1.2746795026e+00
 6.8447936419e+00	 7.2973419819e+00	 3.3776449025e-01
 6.8221662249e+00	 7.2747145649e+00	 8.0662422389e-02
 6.7995388079e+00	 7.2520871479e+00	-1.5119116836e-01
 6.7769113909e+00	 7.2294597309e+00	-3.5779631301e-01
 6.7542839739e+00	 7.2068323139e+00	-5.3915304257e-01
 6.7316565569e+00	 7.1842048969e+00	-6.9526138805e-01
 6.7090291399e+00	 7.1615774799e+00	-8.2612138045e-01
 6.6864017229e+00	 7.1389500629e+00	-9.3173305080e-01
 6.6637743059e+00	 7.1163226459e+00	-1.0120964301e+00
 6.6411468889e+00	 7.0936952289e+00	-1.0672115493e+00
 6.6185194719e+00	 7.0710678119e+00	-1.0970784395e+00
 6.7846895655e+00	 7.3574460583e+00	 3.0932729086e-01
 6.7560517409e+00	 7.3288082336e+00	 8.2297007734e-02
 6.7274139162e+00	 7.3001704090e+00	-1.2241556553e-01
 6.6987760916e+00	 7.2715325844e+00	-3.0481049180e-01
 6.6701382670e+00	 7.2428947597e+00	-4.6488783394e-01
 6.6415004423e+00	 7.2142569351e+00	-6.0264765481e-01
 6.6128626177e+00	 7.1856191105e+00	-7.1809001728e-01
 6.5842247930e+00	 7.1569812858e+00	-8.1121498420e-01
 6.5555869684e+00	 7.1283434612e+00	-8.8202261845e-01
 6.5269491438e+00	 7.0997056365e+00	-9.3051298289e-01
 6.4983113191e+00	 7.0710678119e+00	-9.5668614038e-01
 6.7175144213e+00	 7.4246212025e+00	 2.8756677338e-01
 6.6821590822e+00	 7.3892658634e+00	 8.4765916120e-02
 6.6468037432e+00	 7.3539105244e+00	-9.8071975295e-02
 6.6114484041e+00	 7.3185551853e+00	-2.6094701915e-01
 6.5760930651e+00	 7.2831998463e+00	-4.0385933374e-01
 6.5407377260e+00	 7.2478445072e+00	-5.2680903735e-01
 6.5053823869e+00	 7.2124891681e+00	-6.2979624827e-01
 6.4700270479e+00	 7.1771338291e+00	-7.1282108479e-01
 6.4346717088e+00	 7.1417784900e+00	-7.7588366520e-01
 6.3993163698e+00	 7.1064231510e+00	-8.1898410779e-01
 6.3639610307e+00	 7.0710678119e+00	-8.4212253084e-01
 6.7175144213e+00	 7.4246212025e+00	 2.8756677338e-01
 6.6821590822e+00	 7.3892658634e+00	 8.4765916120e-02
 6.6468037432e+00	 7.3539105244e+00	-9.8071975295e-02
 6.6114484041e+00	 7.3185551853e+00	-2.6094701915e-01
 6.5760930651e+00	 7.2831998463e+00	-4.0385933374e-01
 6.5407377260e+00	 7.2478445072e+00	-5.2680903735e-01
 6.5053823869e+00	 7.2124891681e+00	-6.2979624827e-01
 6.4700270479e+00	 7.1771338291e+00	-7.1282108479e-01
 6.4346717088e+00	 7.1417784900e+00	-7.7588366520e-01
 6.3993163698e+00	 7.1064231510e+00	-8.1898410779e-01
 6.3639610307e+00	 7.0710678119e+00	-8.4212253084e-01
 6.6432682093e+00	 7.4988674145e+00	 2.6132618310e-01
 6.6004882490e+00	 7.4560874543e+00	 7.8128699629e-02
 6.5577082887e+00	 7.4133074940e+00	-8.7095367113e-02
 6.5149283285e+00	 7.3705275337e+00	-2.3434622668e-01
 6.4721483682e+00	 7.3277475735e+00	-3.6362408864e-01
 6.4293684080e+00	 7.2849676132e+00	-4.7492916253e-01
 6.3865884477e+00	 7.2421876530e+00	-5.6826165793e-01
 6.3438084874e+00	 7.1994076927e+00	-6.4362178439e-01
 6.3010285272e+00	 7.1566277324e+00	-7.0100975145e-01
 6.2582485669e+00	 7.1138477722e+00	-7.4042576868e-01
 6.2154686066e+00	 7.0710678119e+00	-7.6187004562e-01
 6.5619509294e+00	 7.5801846944e+00	 2.4012054698e-01
 6.5110392412e+00	 7.5292730061e+00	 7.2863966912e-02
 6.4601275529e+00	 7.4783613179e+00	-7.8060429629e-02
 6.4092158647e+00	 7.4274496296e+00	-2.1265299586e-01
 6.3583041765e+00	 7.3765379414e+00	-3.3091408498e-01
 6.3073924882e+00	 7.3256262531e+00	-4.3284405021e-01
 6.2564808000e+00	 7.2747145649e+00	-5.1844324476e-01
 6.2055691117e+00	 7.2238028766e+00	-5.8771202183e-01
 6.1546574235e+00	 7.1728911884e+00	-6.4065073462e-01
 6.1037457352e+00	 7.1219795001e+00	-6.7725973635e-01
 6.0528340470e+00	 7.0710678119e+00	-6.9753938019e-01
 6.4735625818e+00	 7.6685730420e+00	 2.2295393829e-01
 6.4138120588e+00	 7.6088225190e+00	 6.8936620482e-02
 6.3540615358e+00	 7.5490719960e+00	-7.0124110471e-02
 6.2943110128e+00	 7.4893214730e+00	-1.9422882553e-01
 6.2345604897e+00	 7.4295709500e+00	-3.0337809567e-01
 6.1748099667e+00	 7.3698204270e+00	-3.9757249183e-01
 6.1150594437e+00	 7.3100699039e+00	-4.7681258498e-01
 6.0553089207e+00	 7.2503193809e+00	-5.4109894606e-01
 5.9955583977e+00	 7.1905688579e+00	-5.9043214602e-01
 5.9358078747e+00	 7.1308183349e+00	-6.2481275580e-01
 5.8760573517e+00	 7.0710678119e+00	-6.4424134634e-01
 6.3781031663e+00	 7.7640324575e+00	 2.0910144780e-01
 6.3088067018e+00	 7.6947359929e+00	 6.6278799496e-02
 6.2395102372e+00	 7.6254395284e+00	-6.2755399667e-02
 6.1702137727e+00	 7.5561430638e+00	-1.7800204036e-01
 6.1009173081e+00	 7.4868465992e+00	-2.7946201325e-01
 6.0316208435e+00	 7.4175501347e+00	-3.6713620900e-01
 5.9623243790e+00	 7.3482536701e+00	-4.4102551825e-01
 5.8930279144e+00	 7.2789572056e+00	-5.0113083164e-01
 5.8237314499e+00	 7.2096607410e+00	-5.4745303981e-01
 5.7544349853e+00	 7.1403642765e+00	-5.7999303339e-01
 5.6851385207e+00	 7.0710678119e+00	-5.9875170299e-01
 6.2755726831e+00	 7.8665629407e+00	 1.9802516902e-01
 6.1960231702e+00	 7.7870134278e+00	 6.4816070456e-02
 6.1164736573e+00	 7.7074639150e+00	-5.5607349012e-02
 6.0369241444e+00	 7.6279144021e+00	-1.6324643678e-01
 5.9573746315e+00	 7.5483648892e+00	-2.5810254024e-01
 5.8778251186e+00	 7.4688153763e+00	-3.4017700676e-01
 5.7982756057e+00	 7.3892658634e+00	-4.0947118370e-01
 5.7187260929e+00	 7.3097163506e+00	-4.6598641841e-01
 5.6391765800e+00	 7.2301668377e+00	-5.0972405823e-01
 5.5596270671e+00	 7.1506173248e+00	-5.4068545046e-01
 5.4800775542e+00	 7.0710678119e+00	-5.5887194243e-01
 6.1659711320e+00	 7.9761644918e+00	 1.8931978378e-01
 6.0754614640e+00	 7.8856548238e+00	 6.4478751606e-02
 5.9849517960e+00	 7.7951451558e+00	-4.8445183956e-02
 5.8944421280e+00	 7.7046354878e+00	-1.4945400748e-01
 5.8039324600e+00	 7.6141258198e+00	-2.3854970353e-01
 5.7134227920e+00	 7.5236161519e+00	-3.1573425663e-01
 5.6229131240e+00	 7.4331064839e+00	-3.8100965129e-01
 5.5324034560e+00	 7.3425968159e+00	-4.3437787201e-01
 5.4418937880e+00	 7.2520871479e+00	-4.7584090325e-01
 5.3513841200e+00	 7.1615774799e+00	-5.0540072945e-01
 5.2608744520e+00	 7.0710678119e+00	-5.2305933503e-01
 6.0492985131e+00	 8.0928371107e+00	 1.8267633274e-01
 5.9471215832e+00	 7.9906601808e+00	 6.5206485522e-02
 5.8449446533e+00	 7.8884832509e+00	-4.1104231674e-02
 5.7427677234e+00	 7.7863063211e+00	-1.3625867408e-01
 5.6405907935e+00	 7.6841293912e+00	-2.2025969687e-01
 5.5384138636e+00	 7.5819524613e+00	-2.9311015523e-01
 5.4362369338e+00	 7.4797755314e+00	-3.5481290425e-01
 5.3340600039e+00	 7.3775986015e+00	-4.0537079903e-01
 5.2318830740e+00	 7.2754216717e+00	-4.4478669462e-01
 5.1297061441e+00	 7.1732447418e+00	-4.7306344602e-01
 5.0275292142e+00	 7.0710678119e+00	-4.9020390821e-01
 5.9255548264e+00	 8.2165807974e+00	 1.7785750690e-01
 5.8110035278e+00	 8.1020294988e+00	 6.6949733848e-02
 5.6964522292e+00	 7.9874782003e+00	-3.3464399255e-02
 5.5819009307e+00	 7.8729269017e+00	-1.2338891571e-01
 5.4673496321e+00	 7.7583756032e+00	-2.0282783874e-01
 5.3527983336e+00	 7.6438243047e+00	-2.7178519153e-01
 5.2382470350e+00	 7.5292730061e+00	-3.3026499720e-01
 5.1236957365e+00	 7.4147217076e+00	-3.7827127881e-01
 5.0091444379e+00	 7.3001704090e+00	-4.1580805936e-01
 4.8945931394e+00	 7.1856191105e+00	-4.4287936181e-01
 4.7800418408e+00	 7.0710678119e+00	-4.5948920904e-01
 5.7947400718e+00	 8.3473955519e+00	 1.7468044116e-01
 5.6671072978e+00	 8.2197627779e+00	 6.9669905323e-02
 5.5394745238e+00	 8.0921300039e+00	-2.5434185741e-02
 5.4118417498e+00	 7.9644972299e+00	-1.1063739706e-01
 5.2842089758e+00	 7.8368644559e+00	-1.8594529356e-01
 5.1565762018e+00	 7.7092316819e+00	-2.5136344011e-01
 5.0289434278e+00	 7.5815989079e+00	-3.0689740145e-01
 4.9013106538e+00	 7.4539661339e+00	-3.5255274226e-01
 4.7736778798e+00	 7.3263333599e+00	-3.8833502711e-01
 4.6460451058e+00	 7.1987005859e+00	-4.1424982051e-01
 4.5184123318e+00	 7.0710678119e+00	-4.3030268686e-01
 5.6568542495e+00	 8.4852813742e+00	 1.7300451494e-01
 5.5154328933e+00	 8.3438600180e+00	 7.3338926485e-02
 5.3740115370e+00	 8.2024386618e+00	-1.6940365282e-02
 5.2325901808e+00	 8.0610173055e+00	-9.7840930855e-02
 5.0911688245e+00	 7.9195959493e+00	-1.6937034060e-01
 4.9497474683e+00	 7.7781745931e+00	-2.3153616475e-01
 4.8083261121e+00	 7.6367532368e+00	-2.8434597339e-01
 4.6669047558e+00	 7.4953318806e+00	-3.2780733650e-01
 4.5254833996e+00	 7.3539105244e+00	-3.6192782391e-01
 4.3840620433e+00	 7.2124891681e+00	-3.8671500530e-01
 4.2426406871e+00	 7.0710678119e+00	-4.0217645025e-01
 7.0710678119e+00	 7.0710678119e+00	-5.9071788576e-02
 7.0710678119e+00	 7.0710678119e+00	-5.9071788576e-02
 7.0710678119e+00	 7.0710678119e+00	-5.9071788576e-02
 7.0710678119e+00	 7.0710678119e+00	-5.9071788576e-02
 7.0710678119e+00	 7.0710678119e+00	-5.9071788576e-02
 7.0710678119e+00	 7.0710678119e+00	-5.9071788576e-02
 7.0710678119e+00	 7.0710678119e+00	-5.9071788576e-02
 7.0710678119e+00	 7.0710678119e+00	-5.9071788576e-02
 7.0710678119e+00	 7.0710678119e+00	-5.9071788576e-02
 7.0710678119e+00	 7.0710678119e+00	-5.9071788576e-02
 7.0710678119e+00	 7.0710678119e+00	-5.9071788576e-02
 7.0639967441e+00	 7.0710678119e+00	-9.2098040120e+00
 7.0643502975e+00	 7.0707142585e+00	-1.0550374311e+01
 7.0647038509e+00	 7.0703607051e+00	-1.1795864124e+01
 7.0650574043e+00	 7.0700071517e+00	-1.2946273450e+01
 7.0654109577e+00	 7.0696535983e+00	-1.4001602289e+01
 7.0657645110e+00	 7.0693000449e+00	-1.4961850642e+01
 7.0661180644e+00	 7.0689464916e+00	-1.5827018509e+01
 7.0664716178e+00	 7.0685929382e+00	-1.6597105889e+01
 7.0668251712e+00	 7.0682393848e+00	-1.7272112783e+01
 7.0671787246e+00	 7.0678858314e+00	-1.7852039189e+01
 7.0675322780e+00	 7.0675322780e+00	-1.8336885110e+01
 7.0427835407e+00	 7.0710678119e+00	-4.5886151598e+00
 7.0441977542e+00	 7.0696535983e+00	-5.2364345053e+00
 7.0456119678e+00	 7.0682393848e+00	-5.8421915120e+00
 7.0470261813e+00	 7.0668251712e+00	-6.4058861797e+00
 7.0484403949e+00	 7.0654109577e+00	-6.9275185087e+00
 7.0498546085e+00	 7.0639967441e+00	-7.4070884987e+00
 7.0512688220e+00	 7.0625825305e+00	-7.8445961499e+00
 7.0526830356e+00	 7.0611683170e+00	-8.2400414623e+00
 7.0540972492e+00	 7.0597541034e+00	-8.5934244358e+00
 7.0555114627e+00	 7.0583398898e+00	-8.9047450705e+00
 7.0569256763e+00	 7.0569256763e+00	-9.1740033664e+00
 7.0074282016e+00	 7.0710678119e+00	-3.0415312282e+00
 7.0106101821e+00	 7.0678858314e+00	-3.4695687590e+00
 7.0137921626e+00	 7.0647038509e+00	-3.8702538660e+00
 7.0169741431e+00	 7.0615218704e+00	-4.2435865493e+00
 7.0201561237e+00	 7.0583398898e+00	-4.5895668090e+00
 7.0233381042e+00	 7.0551579093e+00	-4.9081946451e+00
 7.0265200847e+00	 7.0519759288e+00	-5.1994700578e+00
 7.0297020652e+00	 7.0487939483e+00	-5.4633930472e+00
 7.0328840457e+00	 7.0456119678e+00	-5.6999636133e+00
 7.0360660262e+00	 7.0424299873e+00	-5.9091817561e+00
 7.0392480067e+00	 7.0392480067e+00	-6.0910474758e+00
 6.9579307269e+00	 7.0710678119e+00	-2.2652409065e+00
 6.9635875812e+00	 7.0654109577e+00	-2.5855374065e+00
 6.9692444354e+00	 7.0597541034e+00	-2.8852808434e+00
 6.9749012897e+00	 7.0540972492e+00	-3.1644712176e+00
 6.9805581439e+00	 7.0484403949e+00	-3.4231085296e+00
 6.9862149982e+00	 7.0427835407e+00	-3.6611927797e+00
 6.9918718524e+00	 7.0371266864e+00	-3.8787239686e+00
 6.9975287067e+00	 7.0314698322e+00	-4.0757020965e+00
 7.0031855609e+00	 7.0258129779e+00	-4.2521271641e+00
 7.0088424152e+00	 7.0201561237e+00	-4.4079991716e+00
 7.0144992694e+00	 7.0144992694e+00	-4.5433181197e+00
 6.8942911166e+00	 7.0710678119e+00	-1.7972461147e+00
 6.9031299514e+00	 7.0622289771e+00	-2.0536413465e+00
 6.9119687861e+00	 7.0533901424e+00	-2.2933852160e+00
 6.9208076209e+00	 7.0445513076e+00	-2.5164777249e+00
 6.9296464557e+00	 7.0357124728e+00	-2.7229188750e+00
 6.9384852904e+00	 7.0268736381e+00	-2.9127086678e+00
 6.9473241252e+00	 7.0180348033e+00	-3.0858471052e+00
 6.9561629600e+00	 7.0091959685e+00	-3.2423341889e+00
 6.9650017947e+00	 7.0003571338e+00	-3.3821699207e+00
 6.9738406295e+00	 6.9915182990e+00	-3.5053543021e+00
 6.9826794642e+00	 6.9826794642e+00	-3.6118873351e+00
 6.8165093707e+00	 7.0710678119e+00	-1.4831243773e+00
 6.8292372927e+00	 7.0583398898e+00	-1.6972777529e+00
 6.8419652148e+00	 7.0456119678e+00	-1.8973065790e+00
 6.8546931369e+00	 7.0328840457e+00	-2.0832108609e+00
 6.8674210589e+00	 7.0201561237e+00	-2.2549906037e+00
 6.8801489810e+00	 7.0074282016e+00	-2.4126458126e+00
 6.8928769030e+00	 6.9947002795e+00	-2.5561764926e+00
 6.9056048251e+00	 6.9819723575e+00	-2.6855826490e+00
 6.9183327472e+00	 6.9692444354e+00	-2.8008642869e+00
 6.9310606692e+00	 6.9565165133e+00	-2.9020214114e+00
 6.9437885913e+00	 6.9437885913e+00	-2.9890540277e+00
 6.7245854891e+00	 7.0710678119e+00	-1.2566304371e+00
 6.7419096053e+00	 7.0537436958e+00	-1.4408309507e+00
 6.7592337214e+00	 7.0364195796e+00	-1.6126751118e+00
 6.7765578375e+00	 7.0190954635e+00	-1.7721629334e+00
 6.7938819537e+00	 7.0017713473e+00	-1.9192944284e+00
 6.8112060698e+00	 6.9844472312e+00	-2.0540696099e+00
 6.8285301859e+00	 6.9671231151e+00	-2.1764884909e+00
 6.8458543021e+00	 6.9497989989e+00	-2.2865510843e+00
 6.8631784182e+00	 6.9324748828e+00	-2.3842574032e+00
 6.8805025344e+00	 6.9151507666e+00	-2.4696074604e+00
 6.8978266505e+00	 6.8978266505e+00	-2.5426012691e+00
 6.6185194719e+00	 7.0710678119e+00	-1.0846192981e+00
 6.6411468889e+00	 7.0484403949e+00	-1.2465151616e+00
 6.6637743059e+00	 7.0258129779e+00	-1.3973604067e+00
 6.6864017229e+00	 7.0031855609e+00	-1.5371550622e+00
 6.7090291399e+00	 6.9805581439e+00	-1.6658991572e+00
 6.7316565569e+00	 6.9579307269e+00	-1.7835927206e+00
 6.7542839739e+00	 6.9353033099e+00	-1.8902357812e+00
 6.7769113909e+00	 6.9126758929e+00	-1.9858283681e+00
 6.7995388079e+00	 6.8900484759e+00	-2.0703705102e+00
 6.8221662249e+00	 6.8674210589e+00	-2.1438622365e+00
 6.8447936419e+00	 6.8447936419e+00	-2.2063035758e+00
 6.4983113191e+00	 7.0710678119e+00	-9.4866702021e-01
 6.5269491438e+00	 7.0424299873e+00	-1.0933458130e+00
 6.5555869684e+00	 7.0137921626e+00	-1.2279769917e+00
 6.5842247930e+00	 6.9851543380e+00	-1.3525606151e+00
 6.6128626177e+00	 6.9565165133e+00	-1.4670967418e+00
 6.6415004423e+00	 6.9278786887e+00	-1.5715854304e+00
 6.6701382670e+00	 6.8992408641e+00	-1.6660267397e+00
 6.6987760916e+00	 6.8706030394e+00	-1.7504207283e+00
 6.7274139162e+00	 6.8419652148e+00	-1.8247674549e+00
 6.7560517409e+00	 6.8133273902e+00	-1.8890669781e+00
 6.7846895655e+00	 6.7846895655e+00	-1.9433193567e+00
 6.3639610307e+00	 7.0710678119e+00	-8.3771357835e-01
 6.3993163698e+00	 7.0357124728e+00	-9.6873448650e-01
 6.4346717088e+00	 7.0003571338e+00	-1.0905016689e+00
 6.4700270479e+00	 6.9650017947e+00	-1.2030152359e+00
 6.5053823869e+00	 6.9296464557e+00	-1.3062752980e+00
 6.5407377260e+00	 6.8942911166e+00	-1.4002819655e+00
 6.5760930651e+00	 6.8589357775e+00	-1.4850353489e+00
 6.6114484041e+00	 6.8235804385e+00	-1.5605355586e+00
 6.6468037432e+00	 6.7882250994e+00	-1.6267827049e+00
 6.6821590822e+00	 6.7528697604e+00	-1.6837768982e+00
 6.7175144213e+00	 6.7175144213e+00	-1.7315182491e+00
 6.3639610307e+00	 7.0710678119e+00	-8.3771357835e-01
 6.3993163698e+00	 7.0357124728e+00	-9.6873448650e-01
 6.4346717088e+00	 7.0003571338e+00	-1.0905016689e+00
 6.4700270479e+00	 6.9650017947e+00	-1.2030152359e+00
 6.5053823869e+00	 6.9296464557e+00	-1.3062752980e+00
 6.5407377260e+00	 6.8942911166e+00	-1.4002819655e+00
 6.5760930651e+00	 6.8589357775e+00	-1.4850353489e+00
 6.6114484041e+00	 6.8235804385e+00	-1.5605355586e+00
 6.6468037432e+00	 6.7882250994e+00	-1.6267827049e+00
 6.6821590822e+00	 6.7528697604e+00	-1.6837768982e+00
 6.7175144213e+00	 6.7175144213e+00	-1.7315182491e+00
 6.2154686066e+00	 7.0710678119e+00	-7.8753479942e-01
 6.2582485669e+00	 7.0282878516e+00	-9.0007365072e-01
 6.3010285272e+00	 6.9855078914e+00	-1.0046474920e+00
 6.3438084874e+00	 6.9427279311e+00	-1.1012565188e+00
 6.3865884477e+00	 6.8999479708e+00	-1.1899009267e+00
 6.4293684080e+00	 6.8571680106e+00	-1.2705809113e+00
 6.4721483682e+00	 6.8143880503e+00	-1.3432966683e+00
 6.5149283285e+00	 6.7716080901e+00	-1.4080483931e+00
 6.5577082887e+00	 6.7288281298e+00	-1.4648362815e+00
 6.6004882490e+00	 6.6860481695e+00	-1.5136605289e+00
 6.6432682093e+00	 6.6432682093e+00	-1.5545213309e+00
 6.0528340470e+00	 7.0710678119e+00	-7.3289208033e-01
 6.1037457352e+00	 7.0201561237e+00	-8.3264492250e-01
 6.1546574235e+00	 6.9692444354e+00	-9.2528220700e-01
 6.2055691117e+00	 6.9183327472e+00	-1.0108042635e+00
 6.2564808000e+00	 6.8674210589e+00	-1.0892114217e+00
 6.3073924882e+00	 6.8165093707e+00	-1.1605040112e+00
 6.3583041765e+00	 6.7655976824e+00	-1.2246823617e+00
 6.4092158647e+00	 6.7146859942e+00	-1.2817468029e+00
 6.4601275529e+00	 6.6637743059e+00	-1.3316976645e+00
 6.5110392412e+00	 6.6128626177e+00	-1.3745352760e+00
 6.5619509294e+00	 6.5619509294e+00	-1.4102599672e+00
 5.8760573517e+00	 7.0710678119e+00	-6.7687546220e-01
 5.9358078747e+00	 7.0113172889e+00	-7.6769412475e-01
 5.9955583977e+00	 6.9515667659e+00	-8.5195547888e-01
 6.0553089207e+00	 6.8918162429e+00	-9.2966005752e-01
 6.1150594437e+00	 6.8320657199e+00	-1.0008083936e+00
 6.1748099667e+00	 6.7723151968e+00	-1.0654010200e+00
 6.2345604897e+00	 6.7125646738e+00	-1.1234384696e+00
 6.2943110128e+00	 6.6528141508e+00	-1.1749212754e+00
 6.3540615358e+00	 6.5930636278e+00	-1.2198499702e+00
 6.4138120588e+00	 6.5333131048e+00	-1.2582250870e+00
 6.4735625818e+00	 6.4735625818e+00	-1.2900471586e+00
 5.6851385207e+00	 7.0710678119e+00	-6.2109132285e-01
 5.7544349853e+00	 7.0017713473e+00	-7.0565354763e-01
 5.8237314499e+00	 6.9324748828e+00	-7.8401849295e-01
 5.8930279144e+00	 6.8631784182e+00	-8.5618699013e-01
 5.9623243790e+00	 6.7938819537e+00	-9.2215987050e-01
 6.0316208435e+00	 6.7245854891e+00	-9.8193796537e-01
 6.1009173081e+00	 6.6552890246e+00	-1.0355221061e+00
 6.1702137727e+00	 6.5859925600e+00	-1.0829131239e+00
 6.2395102372e+00	 6.5166960954e+00	-1.1241118501e+00
 6.3088067018e+00	 6.4473996309e+00	-1.1591191160e+00
 6.3781031663e+00	 6.3781031663e+00	-1.1879357529e+00
 5.4800775542e+00	 7.0710678119e+00	-5.6634300266e-01
 5.5596270671e+00	 6.9915182990e+00	-6.4655495619e-01
 5.6391765800e+00	 6.9119687861e+00	-7.2079157545e-01
 5.7187260929e+00	 6.8324192732e+00	-7.8905411809e-01
 5.7982756057e+00	 6.7528697604e+00	-8.5134384174e-01
 5.8778251186e+00	 6.6733202475e+00	-9.0766200402e-01
 5.9573746315e+00	 6.5937707346e+00	-9.5800986254e-01
 6.0369241444e+00	 6.5142212217e+00	-1.0023886749e+00
 6.1164736573e+00	 6.4346717088e+00	-1.0407996987e+00
 6.1960231702e+00	 6.3551221959e+00	-1.0732441915e+00
 6.2755726831e+00	 6.2755726831e+00	-1.0997234108e+00
 5.2608744520e+00	 7.0710678119e+00	-5.1299072082e-01
 5.3513841200e+00	 6.9805581439e+00	-5.9023788423e-01
 5.4418937880e+00	 6.8900484759e+00	-6.6163337840e-01
 5.5324034560e+00	 6.7995388079e+00	-7.2717905574e-01
 5.6229131240e+00	 6.7090291399e+00	-7.8687676863e-01
 5.7134227920e+00	 6.6185194719e+00	-8.4072836946e-01
 5.8039324600e+00	 6.5280098039e+00	-8.8873571054e-01
 5.8944421280e+00	 6.4375001359e+00	-9.3090064422e-01
 5.9849517960e+00	 6.3469904680e+00	-9.6722502279e-01
 6.0754614640e+00	 6.2564808000e+00	-9.9771069853e-01
 6.1659711320e+00	 6.1659711320e+00	-1.0223595237e+00
 5.0275292142e+00	 7.0710678119e+00	-4.6114821314e-01
 5.1297061441e+00	 6.9688908820e+00	-5.3645683492e-01
 5.2318830740e+00	 6.8667139521e+00	-6.0596597243e-01
 5.3340600039e+00	 6.7645370222e+00	-6.6967829078e-01
 5.4362369338e+00	 6.6623600924e+00	-7.2759645506e-01
 5.5384138636e+00	 6.5601831625e+00	-7.7972313030e-01
 5.6405907935e+00	 6.4580062326e+00	-8.2606098151e-01
 5.7427677234e+00	 6.3558293027e+00	-8.6661267368e-01
 5.8449446533e+00	 6.2536523728e+00	-9.0138087174e-01
 5.9471215832e+00	 6.1514754429e+00	-9.3036824060e-01
 6.0492985131e+00	 6.0492985131e+00	-9.5357744512e-01
 4.7800418408e+00	 7.0710678119e+00	-4.1079290235e-01
 4.8945931394e+00	 6.9565165133e+00	-4.8493684353e-01
 5.0091444379e+00	 6.8419652148e+00	-5.5328024289e-01
 5.1236957365e+00	 6.7274139162e+00	-6.1582685588e-01
 5.2382470350e+00	 6.6128626177e+00	-6.7258043791e-01
 5.3527983336e+00	 6.4983113191e+00	-7.2354474434e-01
 5.4673496321e+00	 6.3837600206e+00	-7.6872353046e-01
 5.5819009307e+00	 6.2692087220e+00	-8.0812055152e-01
 5.6964522292e+00	 6.1546574235e+00	-8.4173956269e-01
 5.8110035278e+00	 6.0401061249e+00	-8.6958431911e-01
 5.9255548264e+00	 5.9255548264e+00	-8.9165857586e-01
 4.5184123318e+00	 7.0710678119e+00	-3.6182875970e-01
 4.6460451058e+00	 6.9434350379e+00	-4.3540198972e-01
 4.7736778798e+00	 6.8158022639e+00	-5.0313282254e-01
 4.9013106538e+00	 6.6881694899e+00	-5.6502645280e-01
 5.0289434278e+00	 6.5605367159e+00	-6.2108807507e-01
 5.1565762018e+00	 6.4329039419e+00	-6.7132288383e-01
 5.2842089758e+00	 6.3052711679e+00	-7.1573607347e-01
 5.4118417498e+00	 6.1776383939e+00	-7.5433283829e-01
 5.5394745238e+00	 6.0500056198e+00	-7.8711837253e-01
 5.6671072978e+00	 5.9223728458e+00	-8.1409787032e-01
 5.7947400718e+00	 5.7947400718e+00	-8.3527652572e-01
 4.2426406871e+00	 7.0710678119e+00	-3.1412257801e-01
 4.3840620433e+00	 6.9296464557e+00	-3.8758949876e-01
 4.5254833996e+00	 6.7882250994e+00	-4.5513979134e-01
 4.6669047558e+00	 6.6468037432e+00	-5.1678052252e-01
 4.8083261121e+00	 6.5053823869e+00	-5.7251875895e-01
 4.9497474683e+00	 6.3639610307e+00	-6.2236156714e-01
 5.0911688245e+00	 6.2225396745e+00	-6.6631601349e-01
 5.2325901808e+00	 6.0811183182e+00	-7.0438916425e-01
 5.3740115370e+00	 5.9396969620e+00	-7.3658808556e-01
 5.5154328933e+00	 5.7982756057e+00	-7.6291984342e-01
 5.6568542495e+00	 5.6568542495e+00	-7.8339150372e-01
 0.0000000000e+00	 0.0000000000e+00	-1.9130475551e-02
-1.4142135624e-01	 1.4142135624e-01	-2.2344027083e-02
-2.8284271248e-01	 2.8284271248e-01	-2.7127803422e-02
-4.2426406872e-01	 4.2426406872e-01	-3.3481804568e-02
-5.6568542496e-01	 5.6568542496e-01	-4.1406030522e-02
-7.0710678120e-01	 7.0710678120e-01	-5.0900481281e-02
-8.4852813744e-01	 8.4852813744e-01	-6.1965156848e-02
-9.8994949368e-01	 9.8994949368e-01	-7.4600057221e-02
-1.1313708499e+00	 1.1313708499e+00	-8.8805182400e-02
-1.2727922062e+00	 1.2727922062e+00	-1.0458053239e-01
-1.4142135624e+00	 1.4142135624e+00	-1.2192610718e-01
 2.8284271248e-01	 2.8284271248e-01	-4.1232498497e-02
 1.4142135624e-01	 4.2426406872e-01	-4.4939836950e-02
-5.0003339143e-13	 5.6568542496e-01	-4.9898462777e-02
-1.4142135624e-01	 7.0710678120e-01	-5.6108375978e-02
-2.8284271248e-01	 8.4852813744e-01	-6.3569576553e-02
-4.2426406872e-01	 9.8994949367e-01	-7.2282064501e-02
-5.6568542496e-01	 1.1313708499e+00	-8.2245839823e-02
-7.0710678120e-01	 1.2727922062e+00	-9.3460902518e-02
-8.4852813744e-01	 1.4142135624e+00	-1.0592725259e-01
-9.8994949368e-01	 1.5556349186e+00	-1.1964489003e-01
-1.1313708499e+00	 1.6970562749e+00	-1.3461381484e-01
 5.6568542496e-01	 5.6568542496e-01	-6.2961202315e-02
 4.2426406872e-01	 7.0710678120e-01	-6.7343181167e-02
 2.8284271248e-01	 8.4852813744e-01	-7.2657509959e-02
 1.4142135624e-01	 9.8994949367e-01	-7.8904188692e-02
-2.0000077983e-12	 1.1313708499e+00	-8.6083217366e-02
-1.4142135624e-01	 1.2727922061e+00	-9.4194595980e-02
-2.8284271248e-01	 1.4142135624e+00	-1.0323832453e-01
-4.2426406872e-01	 1.5556349186e+00	-1.1321440303e-01
-5.6568542496e-01	 1.6970562749e+00	-1.2412283146e-01
-7.0710678120e-01	 1.8384776311e+00	-1.3596360984e-01
-8.4852813744e-01	 1.9798989873e+00	-1.4873673815e-01
 8.4852813744e-01	 8.4852813744e-01	-8.4316587005e-02
 7.0710678120e-01	 9.8994949368e-01	-8.9554059732e-02
 5.6568542496e-01	 1.1313708499e+00	-9.5404944967e-02
 4.2426406872e-01	 1.2727922062e+00	-1.0186924271e-01
 2.8284271248e-01	 1.4142135624e+00	-1.0894695296e-01
 1.4142135624e-01	 1.5556349186e+00	-1.1663807572e-01
-4.4998726967e-12	 1.6970562749e+00	-1.2494261098e-01
-1.4142135624e-01	 1.8384776311e+00	-1.3386055875e-01
-2.8284271248e-01	 1.9798989873e+00	-1.4339191903e-01
-4.2426406872e-01	 2.1213203436e+00	-1.5353669182e-01
-5.6568542496e-01	 2.2627416998e+00	-1.6429487711e-01
 1.1313708499e+00	 1.1313708499e+00	-1.0529865257e-01
 9.8994949367e-01	 1.2727922062e+00	-1.1157247265e-01
 8.4852813743e-01	 1.4142135624e+00	-1.1814076780e-01
 7.0710678119e-01	 1.5556349186e+00	-1.2500353803e-01
 5.6568542495e-01	 1.6970562749e+00	-1.3216078333e-01
 4.2426406871e-01	 1.8384776311e+00	-1.3961250371e-01
 2.8284271247e-01	 1.9798989873e+00	-1.4735869916e-01
 1.4142135623e-01	 2.1213203436e+00	-1.5539936969e-01
-7.9998507818e-12	 2.2627416998e+00	-1.6373451529e-01
-1.4142135625e-01	 2.4041630560e+00	-1.7236413596e-01
-2.8284271249e-01	 2.5455844123e+00	-1.8128823171e-01
 1.4142135624e+00	 1.4142135624e+00	-1.2590739900e-01
 1.2727922061e+00	 1.5556349186e+00	-1.3339841991e-01
 1.1313708499e+00	 1.6970562749e+00	-1.4086497846e-01
 9.8994949367e-01	 1.8384776311e+00	-1.4830707466e-01
 8.4852813743e-01	 1.9798989873e+00	-1.5572470849e-01
 7.0710678119e-01	 2.1213203436e+00	-1.6311787997e-01
 5.6568542495e-01	 2.2627416998e+00	-1.7048658908e-01
 4.2426406871e-01	 2.4041630560e+00	-1.7783083584e-01
 2.8284271247e-01	 2.5455844123e+00	-1.8515062024e-01
 1.4142135623e-01	 2.6870057685e+00	-1.9244594227e-01
-1.2500001034e-11	 2.8284271247e+00	-1.9971680195e-01
 1.6970562749e+00	 1.6970562749e+00	-1.4614282631e-01
 1.5556349186e+00	 1.8384776311e+00	-1.5503190152e-01
 1.4142135624e+00	 1.9798989873e+00	-1.6357757695e-01
 1.2727922061e+00	 2.1213203436e+00	-1.7177985259e-01
 1.1313708499e+00	 2.2627416998e+00	-1.7963872843e-01
 9.8994949366e-01	 2.4041630560e+00	-1.8715420448e-01
 8.4852813742e-01	 2.5455844123e+00	-1.9432628074e-01
 7.0710678118e-01	 2.6870057685e+00	-2.0115495720e-01
 5.6568542494e-01	 2.8284271247e+00	-2.0764023387e-01
 4.2426406870e-01	 2.9698484810e+00	-2.1378211075e-01
 2.8284271246e-01	 3.1112698372e+00	-2.1958058784e-01
 1.9798989873e+00	 1.9798989873e+00	-1.6600493448e-01
 1.8384776311e+00	 2.1213203436e+00	-1.7647291749e-01
 1.6970562749e+00	 2.2627416998e+00	-1.8627856327e-01
 1.5556349186e+00	 2.4041630560e+00	-1.9542187182e-01
 1.4142135624e+00	 2.5455844123e+00	-2.0390284315e-01
 1.2727922061e+00	 2.6870057685e+00	-2.1172147725e-01
 1.1313708499e+00	 2.8284271248e+00	-2.1887777412e-01
 9.8994949366e-01	 2.9698484810e+00	-2.2537173378e-01
 8.4852813742e-01	 3.1112698372e+00	-2.3120335620e-01
 7.0710678118e-01	 3.2526911934e+00	-2.3637264140e-01
 5.6568542494e-01	 3.3941125497e+00	-2.4087958938e-01
 2.2627416998e+00	 2.2627416998e+00	-1.8549372353e-01
 2.1213203436e+00	 2.4041630560e+00	-1.9772146780e-01
 1.9798989873e+00	 2.5455844123e+00	-2.0896793741e-01
 1.8384776311e+00	 2.6870057685e+00	-2.1923313235e-01
 1.6970562748e+00	 2.8284271248e+00	-2.2851705264e-01
 1.5556349186e+00	 2.9698484810e+00	-2.3681969828e-01
 1.4142135624e+00	 3.1112698372e+00	-2.4414106925e-01
 1.2727922061e+00	 3.2526911935e+00	-2.5048116556e-01
 1.1313708499e+00	 3.3941125497e+00	-2.5583998722e-01
 9.8994949365e-01	 3.5355339059e+00	-2.6215235732e-01
 8.4852813741e-01	 3.6769552621e+00	-2.6842937138e-01
 2.5455844123e+00	 2.5455844123e+00	-2.0460919345e-01
 2.4041630560e+00	 2.6870057685e+00	-2.1877755246e-01
 2.2627416998e+00	 2.8284271248e+00	-2.3164569937e-01
 2.1213203436e+00	 2.9698484810e+00	-2.4321363419e-01
 1.9798989873e+00	 3.1112698372e+00	-2.5348135692e-01
 1.8384776311e+00	 3.2526911935e+00	-2.6244886756e-01
 1.6970562748e+00	 3.3941125497e+00	-2.7011616611e-01
 1.5556349186e+00	 3.5355339059e+00	-2.7842971426e-01
 1.4142135624e+00	 3.6769552622e+00	-2.8641118270e-01
 1.2727922061e+00	 3.8183766184e+00	-2.9278533350e-01
 1.1313708499e+00	 3.9597979746e+00	-2.9754054414e-01
 2.8284271248e+00	 2.8284271248e+00	-2.2335134425e-01
 2.6870057685e+00	 2.9698484810e+00	-2.3964117147e-01
 2.5455844123e+00	 3.1112698372e+00	-2.5431184917e-01
 2.4041630560e+00	 3.2526911935e+00	-2.6736337734e-01
 2.2627416998e+00	 3.3941125497e+00	-2.7879575599e-01
 2.1213203435e+00	 3.5355339059e+00	-2.9055957854e-01
 1.9798989873e+00	 3.6769552622e+00	-3.0168993788e-01
 1.8384776311e+00	 3.8183766184e+00	-3.1091258262e-01
 1.6970562748e+00	 3.9597979746e+00	-3.1821589023e-01
 1.5556349186e+00	 4.1012193309e+00	-3.2358823525e-01
 1.4142135624e+00	 4.2426406871e+00	-3.2701799204e-01
 2.8284271248e+00	 2.8284271248e+00	-2.2335134425e-01
 2.6870057685e+00	 2.9698484810e+00	-2.3964117147e-01
 2.5455844123e+00	 3.1112698372e+00	-2.5431184917e-01
 2.4041630560e+00	 3.2526911935e+00	-2.6736337734e-01
 2.2627416998e+00	 3.3941125497e+00	-2.7879575599e-01
 2.1213203435e+00	 3.5355339059e+00	-2.9055957854e-01
 1.9798989873e+00	 3.6769552622e+00	-3.0168993788e-01
 1.8384776311e+00	 3.8183766184e+00	-3.1091258262e-01
 1.6970562748e+00	 3.9597979746e+00	-3.1821589023e-01
 1.5556349186e+00	 4.1012193309e+00	-3.2358823525e-01
 1.4142135624e+00	 4.2426406871e+00	-3.2701799204e-01
 3.1112698372e+00	 3.1112698372e+00	-2.5279324020e-01
 2.9698484810e+00	 3.2526911935e+00	-2.5676992112e-01
 2.8284271247e+00	 3.3941125497e+00	-2.6691782298e-01
 2.6870057685e+00	 3.5355339059e+00	-2.7958852416e-01
 2.5455844123e+00	 3.6769552622e+00	-2.9185234714e-01
 2.4041630560e+00	 3.8183766184e+00	-3.0244068676e-01
 2.2627416998e+00	 3.9597979746e+00	-3.1134192052e-01
 2.1213203435e+00	 4.1012193309e+00	-3.1854442312e-01
 1.9798989873e+00	 4.2426406871e+00	-3.2403656912e-01
 1.8384776311e+00	 4.3840620433e+00	-3.2780673293e-01
 1.6970562748e+00	 4.5254833996e+00	-3.2984328881e-01
 3.3941125497e+00	 3.3941125497e+00	-2.9207001456e-01
 3.2526911935e+00	 3.5355339059e+00	-2.9533474714e-01
 3.1112698372e+00	 3.6769552622e+00	-2.9822184846e-01
 2.9698484810e+00	 3.8183766184e+00	-2.9947705330e-01
 2.8284271247e+00	 3.9597979746e+00	-3.0727990640e-01
 2.6870057685e+00	 4.1012193309e+00	-3.1570228530e-01
 2.5455844123e+00	 4.2426406871e+00	-3.2264653914e-01
 2.4041630560e+00	 4.3840620434e+00	-3.2810104251e-01
 2.2627416998e+00	 4.5254833996e+00	-3.3205416985e-01
 2.1213203435e+00	 4.6669047558e+00	-3.3449429546e-01
 1.9798989873e+00	 4.8083261121e+00	-3.3540979350e-01
 3.6769552622e+00	 3.6769552622e+00	-3.3853172003e-01
 3.5355339059e+00	 3.8183766184e+00	-3.4016786103e-01
 3.3941125497e+00	 3.9597979746e+00	-3.4039790672e-01
 3.2526911934e+00	 4.1012193309e+00	-3.3921479119e-01
 3.1112698372e+00	 4.2426406871e+00	-3.3661144842e-01
 2.9698484810e+00	 4.3840620434e+00	-3.3258081225e-01
 2.8284271247e+00	 4.5254833996e+00	-3.3566027578e-01
 2.6870057685e+00	 4.6669047558e+00	-3.3963892326e-01
 2.5455844122e+00	 4.8083261121e+00	-3.4232517534e-01
 2.4041630560e+00	 4.9497474683e+00	-3.4370740621e-01
 2.2627416998e+00	 5.0911688245e+00	-3.4377398991e-01
 3.9597979746e+00	 3.9597979746e+00	-3.8747495367e-01
 3.8183766184e+00	 4.1012193309e+00	-3.8650137303e-01
 3.6769552622e+00	 4.2426406871e+00	-3.8434042994e-01
 3.5355339059e+00	 4.3840620434e+00	-3.8098505850e-01
 3.3941125497e+00	 4.5254833996e+00	-3.7642819270e-01
 3.2526911934e+00	 4.6669047558e+00	-3.7066276637e-01
 3.1112698372e+00	 4.8083261121e+00	-3.6368171325e-01
 2.9698484810e+00	 4.9497474683e+00	-3.5547796692e-01
 2.8284271247e+00	 5.0911688245e+00	-3.5490606965e-01
 2.6870057685e+00	 5.2325901808e+00	-3.5550254968e-01
 2.5455844122e+00	 5.3740115370e+00	-3.5499236299e-01
 4.2426406871e+00	 4.2426406871e+00	-4.3759198298e-01
 4.1012193309e+00	 4.3840620434e+00	-4.3427474479e-01
 3.9597979746e+00	 4.5254833996e+00	-4.2998887720e-01
 3.8183766184e+00	 4.6669047558e+00	-4.2472731430e-01
 3.6769552622e+00	 4.8083261121e+00	-4.1848299008e-01
 3.5355339059e+00	 4.9497474683e+00	-4.1124883840e-01
 3.3941125497e+00	 5.0911688245e+00	-4.0301779296e-01
 3.2526911934e+00	 5.2325901808e+00	-3.9378278738e-01
 3.1112698372e+00	 5.3740115370e+00	-3.8353675512e-01
 2.9698484810e+00	 5.5154328933e+00	-3.7227262952e-01
 2.8284271247e+00	 5.6568542495e+00	-3.6912139881e-01
 4.5254833996e+00	 4.5254833996e+00	-4.8882226495e-01
 4.3840620433e+00	 4.6669047558e+00	-4.8342743329e-01
 4.2426406871e+00	 4.8083261121e+00	-4.7728270545e-01
 4.1012193309e+00	 4.9497474683e+00	-4.7038101552e-01
 3.9597979746e+00	 5.0911688245e+00	-4.6271529750e-01
 3.8183766184e+00	 5.2325901808e+00	-4.5427848523e-01
 3.6769552621e+00	 5.3740115370e+00	-4.4506351244e-01
 3.5355339059e+00	 5.5154328933e+00	-4.3506331274e-01
 3.3941125497e+00	 5.6568542495e+00	-4.2427081959e-01
 3.2526911934e+00	 5.7982756057e+00	-4.1267896634e-01
 3.1112698372e+00	 5.9396969620e+00	-4.0028068620e-01
 4.8083261121e+00	 4.8083261121e+00	-5.4110525439e-01
 4.6669047558e+00	 4.9497474683e+00	-5.3389889334e-01
 4.5254833996e+00	 5.0911688245e+00	-5.2616136950e-01
 4.3840620433e+00	 5.2325901808e+00	-5.1788561696e-01
 4.2426406871e+00	 5.3740115370e+00	-5.0906456972e-01
 4.1012193309e+00	 5.5154328933e+00	-4.9969116164e-01
 3.9597979746e+00	 5.6568542495e+00	-4.8975832644e-01
 3.8183766184e+00	 5.7982756057e+00	-4.7925899773e-01
 3.6769552621e+00	 5.9396969620e+00	-4.6818610898e-01
 3.5355339059e+00	 6.0811183182e+00	-4.5653259354e-01
 3.3941125497e+00	 6.2225396745e+00	-4.4429138463e-01
 5.0911688245e+00	 5.0911688245e+00	-5.9438040402e-01
 4.9497474683e+00	 5.2325901808e+00	-5.8562857764e-01
 4.8083261121e+00	 5.3740115370e+00	-5.7656432202e-01
 4.6669047558e+00	 5.5154328933e+00	-5.6718057129e-01
 4.5254833996e+00	 5.6568542495e+00	-5.5747025942e-01
 4.3840620433e+00	 5.7982756057e+00	-5.4742632028e-01
 4.2426406871e+00	 5.9396969620e+00	-5.3704168760e-01
 4.1012193309e+00	 6.0811183182e+00	-5.2630929498e-01
 3.9597979746e+00	 6.2225396745e+00	-5.1522207591e-01
 3.8183766184e+00	 6.3639610307e+00	-5.0377296373e-01
 3.6769552621e+00	 6.5053823869e+00	-4.9195489167e-01
 5.3740115370e+00	 5.3740115370e+00	-6.4858716439e-01
 5.2325901808e+00	 5.5154328933e+00	-6.3855593673e-01
 5.0911688245e+00	 5.6568542495e+00	-6.2843101356e-01
 4.9497474683e+00	 5.7982756057e+00	-6.1820532902e-01
 4.8083261121e+00	 5.9396969620e+00	-6.0787181709e-01
 4.6669047558e+00	 6.0811183182e+00	-5.9742341163e-01
 4.5254833996e+00	 6.2225396745e+00	-5.8685304639e-01
 4.3840620433e+00	 6.3639610307e+00	-5.7615365496e-01
 4.2426406871e+00	 6.5053823869e+00	-5.6531817083e-01
 4.1012193309e+00	 6.6468037432e+00	-5.5433952736e-01
 3.9597979746e+00	 6.7882250994e+00	-5.4321065776e-01
 5.6568542495e+00	 5.6568542495e+00	-7.0366498393e-01
 5.5154328933e+00	 5.7982756057e+00	-6.9262041902e-01
 5.3740115370e+00	 5.9396969620e+00	-6.8170089252e-01
 5.2325901808e+00	 6.0811183182e+00	-6.7089933855e-01
 5.0911688245e+00	 6.2225396745e+00	-6.6020869112e-01
 4.9497474683e+00	 6.3639610307e+00	-6.4962188408e-01
 4.8083261121e+00	 6.5053823869e+00	-6.3913185117e-01
 4.6669047558e+00	 6.6468037432e+00	-6.2873152601e-01
 4.5254833996e+00	 6.7882250994e+00	-6.1841384208e-01
 4.3840620433e+00	 6.9296464557e+00	-6.0817173274e-01
 4.2426406871e+00	 7.0710678119e+00	-5.9799813121e-01
 8.4852813742e+00	 8.4852813742e+00	-3.7248865634e-02
 8.3438600180e+00	 8.6267027304e+00	-5.9509421854e-02
 8.2024386618e+00	 8.7681240867e+00	-7.7057955199e-02
 8.0610173055e+00	 8.9095454429e+00	-8.9887399819e-02
 7.9195959493e+00	 9.0509667992e+00	-9.7990689739e-02
 7.7781745931e+00	 9.1923881554e+00	-1.0136075886e-01
 7.6367532368e+00	 9.3338095116e+00	-9.9990540935e-02
 7.4953318806e+00	 9.4752308679e+00	-9.3872969620e-02
 7.3539105244e+00	 9.6166522241e+00	-8.3000978424e-02
 7.2124891681e+00	 9.7580735804e+00	-6.7367500733e-02
 7.0710678119e+00	 9.8994949366e+00	-4.6965469804e-02
 8.7681240867e+00	 8.7681240867e+00	-4.3325033495e-02
 8.6267027305e+00	 8.9095454429e+00	-6.4922445750e-02
 8.4852813742e+00	 9.0509667992e+00	-8.2345579975e-02
 8.3438600180e+00	 9.1923881554e+00	-9.5587370325e-02
 8.2024386618e+00	 9.3338095116e+00	-1.0464075083e-01
 8.0610173055e+00	 9.4752308679e+00	-1.0949865538e-01
 7.9195959493e+00	 9.6166522241e+00	-1.1015401775e-01
 7.7781745931e+00	 9.7580735804e+00	-1.0659977159e-01
 7.6367532368e+00	 9.8994949366e+00	-9.8828850409e-02
 7.4953318806e+00	 1.0040916293e+01	-8.6834187601e-02
 7.3539105244e+00	 1.0182337649e+01	-7.0608716426e-02
 9.0509667992e+00	 9.0509667992e+00	-2.6046172184e-02
 8.9095454429e+00	 9.1923881554e+00	-6.2707547548e-02
 8.7681240867e+00	 9.3338095116e+00	-8.9184319270e-02
 8.6267027305e+00	 9.4752308679e+00	-1.0213189515e-01
 8.4852813742e+00	 9.6166522241e+00	-1.1142880620e-01
 8.3438600180e+00	 9.7580735804e+00	-1.1706798634e-01
 8.2024386618e+00	 9.8994949366e+00	-1.1904236932e-01
 8.0610173055e+00	 1.0040916293e+01	-1.1734488881e-01
 7.9195959493e+00	 1.0182337649e+01	-1.1196847832e-01
 7.7781745931e+00	 1.0323759005e+01	-1.0290607123e-01
 7.6367532368e+00	 1.0465180362e+01	-8.8711688095e-02
 9.3338095116e+00	 9.3338095116e+00	-6.9735938427e-03
 9.1923881554e+00	 9.4752308679e+00	-4.1279759043e-02
 9.0509667992e+00	 9.6166522241e+00	-7.2294794773e-02
 8.9095454429e+00	 9.7580735804e+00	-1.0000313076e-01
 8.7681240867e+00	 9.8994949366e+00	-1.1829427646e-01
 8.6267027305e+00	 1.0040916293e+01	-1.2400817231e-01
 8.4852813742e+00	 1.0182337649e+01	-1.2659501622e-01
 8.3438600180e+00	 1.0323759005e+01	-1.2604774184e-01
 8.2024386618e+00	 1.0465180362e+01	-1.2124226545e-01
 8.0610173055e+00	 1.0606601718e+01	-1.1309203608e-01
 7.9195959493e+00	 1.0748023074e+01	-1.0179482763e-01
 9.6166522241e+00	 9.6166522241e+00	 7.0286818981e-03
 9.4752308679e+00	 9.7580735804e+00	-2.4227056046e-02
 9.3338095117e+00	 9.8994949366e+00	-5.2703898151e-02
 9.1923881554e+00	 1.0040916293e+01	-7.8386273803e-02
 9.0509667992e+00	 1.0182337649e+01	-1.0125861203e-01
 8.9095454429e+00	 1.0323759005e+01	-1.2130534149e-01
 8.7681240867e+00	 1.0465180362e+01	-1.3198675247e-01
 8.6267027305e+00	 1.0606601718e+01	-1.3095391320e-01
 8.4852813742e+00	 1.0748023074e+01	-1.2729571145e-01
 8.3438600180e+00	 1.0889444430e+01	-1.2102108677e-01
 8.2024386618e+00	 1.1030865787e+01	-1.1213897871e-01
 9.8994949366e+00	 9.8994949366e+00	 1.5715112264e-02
 9.7580735804e+00	 1.0040916293e+01	-1.1794982679e-02
 9.6166522241e+00	 1.0182337649e+01	-3.7038415611e-02
 9.4752308679e+00	 1.0323759005e+01	-5.9999615582e-02
 9.3338095117e+00	 1.0465180362e+01	-8.0234570918e-02
 9.1923881554e+00	 1.0606601718e+01	-9.8042362019e-02
 9.0509667992e+00	 1.0748023074e+01	-1.1349999325e-01
 8.9095454429e+00	 1.0889444430e+01	-1.2661592044e-01
 8.7681240867e+00	 1.1030865787e+01	-1.3198440869e-01
 8.6267027305e+00	 1.1172287143e+01	-1.2685749412e-01
 8.4852813742e+00	 1.1313708499e+01	-1.1966259188e-01
 1.0182337649e+01	 1.0182337649e+01	 1.8840153447e-02
 1.0040916293e+01	 1.0323759005e+01	-4.2290840978e-03
 9.8994949366e+00	 1.0465180362e+01	-2.5395369387e-02
 9.7580735804e+00	 1.0606601718e+01	-4.4710829536e-02
 9.6166522241e+00	 1.0748023074e+01	-6.2203677110e-02
 9.4752308679e+00	 1.0889444430e+01	-7.7882367724e-02
 9.3338095117e+00	 1.1030865787e+01	-9.1755357115e-02
 9.1923881554e+00	 1.1172287143e+01	-1.0383110114e-01
 9.0509667992e+00	 1.1313708499e+01	-1.1411805578e-01
 8.9095454429e+00	 1.1455129855e+01	-1.2262467715e-01
 8.7681240867e+00	 1.1596551211e+01	-1.2428411768e-01
 1.0465180362e+01	 1.0465180362e+01	 1.6082264129e-02
 1.0323759005e+01	 1.0606601718e+01	-1.8696079696e-03
 1.0182337649e+01	 1.0748023074e+01	-1.8526414914e-02
 1.0040916293e+01	 1.0889444430e+01	-3.3896612110e-02
 9.8994949366e+00	 1.1030865787e+01	-4.7988655088e-02
 9.7580735804e+00	 1.1172287143e+01	-6.0810999499e-02
 9.6166522241e+00	 1.1313708499e+01	-7.2372101118e-02
 9.4752308679e+00	 1.1455129855e+01	-8.2680415840e-02
 9.3338095116e+00	 1.1596551211e+01	-9.1744399686e-02
 9.1923881554e+00	 1.1737972568e+01	-9.9572508796e-02
 9.0509667992e+00	 1.1879393924e+01	-1.0617319943e-01
 1.0748023074e+01	 1.0748023074e+01	 6.8435890017e-03
 1.0606601718e+01	 1.0889444430e+01	-5.3468585321e-03
 1.0465180362e+01	 1.1030865787e+01	-1.6786698979e-02
 1.0323759005e+01	 1.1172287143e+01	-2.7484387783e-02
 1.0182337649e+01	 1.1313708499e+01	-3.7448380511e-02
 1.0040916293e+01	 1.1455129855e+01	-4.6687132853e-02
 9.8994949366e+00	 1.1596551211e+01	-5.5209100620e-02
 9.7580735804e+00	 1.1737972568e+01	-6.3022739747e-02
 9.6166522241e+00	 1.1879393924e+01	-7.0136506289e-02
 9.4752308679e+00	 1.2020815280e+01	-7.6558856426e-02
 9.3338095116e+00	 1.2162236636e+01	-8.2298246459e-02
 1.1030865787e+01	 1.1030865787e+01	-8.8376943269e-03
 1.0889444430e+01	 1.1172287143e+01	-1.4539472132e-02
 1.0748023074e+01	 1.1313708499e+01	-2.0035100705e-02
 1.0606601718e+01	 1.1455129855e+01	-2.5333035527e-02
 1.0465180362e+01	 1.1596551211e+01	-3.0441732203e-02
 1.0323759005e+01	 1.1737972568e+01	-3.5369646459e-02
 1.0182337649e+01	 1.1879393924e+01	-4.0125234144e-02
 1.0040916293e+01	 1.2020815280e+01	-4.4716951231e-02
 9.8994949366e+00	 1.2162236636e+01	-4.9153253813e-02
 9.7580735804e+00	 1.2303657993e+01	-5.3442598107e-02
 9.6166522241e+00	 1.2445079349e+01	-5.7593440453e-02
 1.1313708499e+01	 1.1313708499e+01	-3.0820468441e-02
 1.1172287143e+01	 1.1455129855e+01	-2.9306331204e-02
 1.1030865787e+01	 1.1596551211e+01	-2.8130502376e-02
 1.0889444430e+01	 1.1737972568e+01	-2.7301437475e-02
 1.0748023074e+01	 1.1879393924e+01	-2.6827592144e-02
 1.0606601718e+01	 1.2020815280e+01	-2.6717422147e-02
 1.0465180362e+01	 1.2162236636e+01	-2.6979383371e-02
 1.0323759005e+01	 1.2303657993e+01	-2.7621931825e-02
 1.0182337649e+01	 1.2445079349e+01	-2.8653523640e-02
 1.0040916293e+01	 1.2586500705e+01	-3.0082615072e-02
 9.8994949366e+00	 1.2727922061e+01	-3.1917662496e-02
 1.1313708499e+01	 1.1313708499e+01	-3.0820468441e-02
 1.1172287143e+01	 1.1455129855e+01	-2.9306331204e-02
 1.1030865787e+01	 1.1596551211e+01	-2.8130502376e-02
 1.0889444430e+01	 1.1737972568e+01	-2.7301437475e-02
 1.0748023074e+01	 1.1879393924e+01	-2.6827592144e-02
 1.0606601718e+01	 1.2020815280e+01	-2.6717422147e-02
 1.0465180362e+01	 1.2162236636e+01	-2.6979383371e-02
 1.0323759005e+01	 1.2303657993e+01	-2.7621931825e-02
 1.0182337649e+01	 1.2445079349e+01	-2.8653523640e-02
 1.0040916293e+01	 1.2586500705e+01	-3.0082615072e-02
 9.8994949366e+00	 1.2727922061e+01	-3.1917662496e-02
 1.1596551211e+01	 1.1596551211e+01	-1.9450448546e-02
 1.1455129855e+01	 1.1737972568e+01	-1.9591627401e-02
 1.1313708499e+01	 1.1879393924e+01	-1.9969029850e-02
 1.1172287143e+01	 1.2020815280e+01	-2.0591111450e-02
 1.1030865787e+01	 1.2162236636e+01	-2.1466327881e-02
 1.0889444430e+01	 1.2303657993e+01	-2.2603134945e-02
 1.0748023074e+01	 1.2445079349e+01	-2.4009988566e-02
 1.0606601718e+01	 1.2586500705e+01	-2.5695344791e-02
 1.0465180362e+01	 1.2727922061e+01	-2.7667659789e-02
 1.0323759005e+01	 1.2869343418e+01	-2.9935389851e-02
 1.0182337649e+01	 1.3010764774e+01	-3.2506991392e-02
 1.1879393924e+01	 1.1879393924e+01	-1.0210117288e-02
 1.1737972568e+01	 1.2020815280e+01	-1.1828831005e-02
 1.1596551211e+01	 1.2162236636e+01	-1.3581683288e-02
 1.1455129855e+01	 1.2303657993e+01	-1.5477129733e-02
 1.1313708499e+01	 1.2445079349e+01	-1.7523626057e-02
 1.1172287143e+01	 1.2586500705e+01	-1.9729628099e-02
 1.1030865787e+01	 1.2727922061e+01	-2.2103591821e-02
 1.0889444430e+01	 1.2869343418e+01	-2.4653973307e-02
 1.0748023074e+01	 1.3010764774e+01	-2.7389228764e-02
 1.0606601718e+01	 1.3152186130e+01	-3.0317814521e-02
 1.0465180362e+01	 1.3293607486e+01	-3.3448187030e-02
 1.2162236636e+01	 1.2162236636e+01	-2.9583667338e-03
 1.2020815280e+01	 1.2303657993e+01	-5.8768339318e-03
 1.1879393924e+01	 1.2445079349e+01	-8.8273544564e-03
 1.1737972568e+01	 1.2586500705e+01	-1.1818383940e-02
 1.1596551211e+01	 1.2727922061e+01	-1.4858378136e-02
 1.1455129855e+01	 1.2869343418e+01	-1.7955792922e-02
 1.1313708499e+01	 1.3010764774e+01	-2.1119084299e-02
 1.1172287143e+01	 1.3152186130e+01	-2.4356708386e-02
 1.1030865787e+01	 1.3293607486e+01	-2.7677121430e-02
 1.0889444430e+01	 1.3435028843e+01	-3.1088779796e-02
 1.0748023074e+01	 1.3576450199e+01	-3.4600139973e-02
 1.2445079349e+01	 1.2445079349e+01	 2.4459078902e-03
 1.2303657993e+01	 1.2586500705e+01	-1.5945312590e-03
 1.2162236636e+01	 1.2727922061e+01	-5.5649382809e-03
 1.2020815280e+01	 1.2869343418e+01	-9.4737688453e-03
 1.1879393924e+01	 1.3010764774e+01	-1.3329478744e-02
 1.1737972568e+01	 1.3152186130e+01	-1.7140523892e-02
 1.1596551211e+01	 1.3293607486e+01	-2.0915360326e-02
 1.1455129855e+01	 1.3435028843e+01	-2.4662444205e-02
 1.1313708499e+01	 1.3576450199e+01	-2.8390231812e-02
 1.1172287143e+01	 1.3717871555e+01	-3.2107179550e-02
 1.1030865787e+01	 1.3859292911e+01	-3.5821743946e-02
 1.2727922061e+01	 1.2727922061e+01	 6.1438081969e-03
 1.2586500705e+01	 1.2869343418e+01	 1.1591787771e-03
 1.2445079349e+01	 1.3010764774e+01	-3.6533328483e-03
 1.2303657993e+01	 1.3152186130e+01	-8.3021823867e-03
 1.2162236636e+01	 1.3293607486e+01	-1.2795825668e-02
 1.2020815280e+01	 1.3435028843e+01	-1.7142718643e-02
 1.1879393924e+01	 1.3576450199e+01	-2.1351317388e-02
 1.1737972568e+01	 1.3717871555e+01	-2.5430078098e-02
 1.1596551211e+01	 1.3859292911e+01	-2.9387457094e-02
 1.1455129855e+01	 1.4000714267e+01	-3.3231910818e-02
 1.1313708499e+01	 1.4142135624e+01	-3.6971895832e-02
 1.3010764774e+01	 1.3010764774e+01	 8.2764326389e-03
 1.2869343418e+01	 1.3152186130e+01	 2.5253947793e-03
 1.2727922061e+01	 1.3293607486e+01	-2.9514394056e-03
 1.2586500705e+01	 1.3435028843e+01	-8.1625256607e-03
 1.2445079349e+01	 1.3576450199e+01	-1.3116319853e-02
 1.2303657993e+01	 1.3717871555e+01	-1.7821277972e-02
 1.2162236636e+01	 1.3859292911e+01	-2.2285856130e-02
 1.2020815280e+01	 1.4000714267e+01	-2.6518510562e-02
 1.1879393924e+01	 1.4142135624e+01	-3.0527697624e-02
 1.1737972568e+01	 1.4283556980e+01	-3.4321873795e-02
 1.1596551211e+01	 1.4424978336e+01	-3.7909495678e-02
 1.3293607486e+01	 1.3293607486e+01	 8.9848765085e-03
 1.3152186130e+01	 1.3435028843e+01	 2.6452121902e-03
 1.3010764774e+01	 1.3576450199e+01	-3.3181623599e-03
 1.2869343418e+01	 1.3717871555e+01	-8.9137029240e-03
 1.2727922061e+01	 1.3859292911e+01	-1.4149865407e-02
 1.2586500705e+01	 1.4000714267e+01	-1.9035105836e-02
 1.2445079349e+01	 1.4142135624e+01	-2.3577880360e-02
 1.2303657993e+01	 1.4283556980e+01	-2.7786645252e-02
 1.2162236636e+01	 1.4424978336e+01	-3.1669856906e-02
 1.2020815280e+01	 1.4566399692e+01	-3.5235971838e-02
 1.1879393924e+01	 1.4707821049e+01	-3.8493446689e-02
 1.3576450199e+01	 1.3576450199e+01	 8.4102319379e-03
 1.3435028843e+01	 1.3717871555e+01	 1.6597232923e-03
 1.3293607486e+01	 1.3859292911e+01	-4.6124092784e-03
 1.3152186130e+01	 1.4000714267e+01	-1.0414621594e-02
 1.3010764774e+01	 1.4142135624e+01	-1.5755369596e-02
 1.2869343418e+01	 1.4283556980e+01	-2.0643109351e-02
 1.2727922061e+01	 1.4424978336e+01	-2.5086297044e-02
 1.2586500705e+01	 1.4566399692e+01	-2.9093388985e-02
 1.2445079349e+01	 1.4707821049e+01	-3.2672841607e-02
 1.2303657993e+01	 1.4849242405e+01	-3.5833111463e-02
 1.2162236636e+01	 1.4990663761e+01	-3.8582655231e-02
 1.3859292911e+01	 1.3859292911e+01	 6.6935878996e-03
 1.3717871555e+01	 1.4000714267e+01	-2.8998279204e-04
 1.3576450199e+01	 1.4142135624e+01	-6.6930908886e-03
 1.3435028843e+01	 1.4283556980e+01	-1.2524192247e-02
 1.3293607486e+01	 1.4424978336e+01	-1.7791742848e-02
 1.3152186130e+01	 1.4566399692e+01	-2.2504198793e-02
 1.3010764774e+01	 1.4707821049e+01	-2.6670016307e-02
 1.2869343418e+01	 1.4849242405e+01	-3.0297651737e-02
 1.2727922061e+01	 1.4990663761e+01	-3.3395561552e-02
 1.2586500705e+01	 1.5132085117e+01	-3.5972202345e-02
 1.2445079349e+01	 1.5273506474e+01	-3.8036030829e-02
 1.4142135624e+01	 1.4142135624e+01	 3.9760302058e-03
 1.4000714267e+01	 1.4283556980e+01	-3.0628201001e-03
 1.3859292911e+01	 1.4424978336e+01	-9.4191210777e-03
 1.3717871555e+01	 1.4566399692e+01	-1.5101328622e-02
 1.3576450199e+01	 1.4707821049e+01	-2.0117898750e-02
 1.3435028843e+01	 1.4849242405e+01	-2.4477287601e-02
 1.3293607486e+01	 1.4990663761e+01	-2.8187951438e-02
 1.3152186130e+01	 1.5132085117e+01	-3.1258346645e-02
 1.3010764774e+01	 1.5273506474e+01	-3.3696929730e-02
 1.2869343418e+01	 1.5414927830e+01	-3.5512157321e-02
 1.2727922061e+01	 1.5556349186e+01	-3.6712486170e-02
-1.4142135624e+00	 1.4142135624e+00	-1.5529175156e-01
-2.0506096655e+00	 2.0506096655e+00	-1.5151916038e-01
-2.6870057685e+00	 2.6870057685e+00	-1.5973316848e-01
-3.3234018716e+00	 3.3234018716e+00	-1.7081562713e-01
-3.9597979746e+00	 3.9597979746e+00	-1.8386495053e-01
-4.5961940777e+00	 4.5961940777e+00	-1.9165341895e-01
-5.2325901808e+00	 5.2325901808e+00	-1.9485099439e-01
-5.8689862838e+00	 5.8689862838e+00	-1.9664444421e-01
-6.5053823869e+00	 6.5053823869e+00	-2.0022069654e-01
-7.1417784900e+00	 7.1417784900e+00	-2.0876684026e-01
-7.7781745931e+00	 7.7781745931e+00	-2.2547012507e-01
-1.1313708499e+00	 1.6970562749e+00	-1.6982929294e-01
-1.7677669530e+00	 2.3334523779e+00	-1.6005049381e-01
-2.4041630560e+00	 2.9698484810e+00	-1.6338694372e-01
-3.0405591591e+00	 3.6062445841e+00	-1.7958289265e-01
-3.6769552622e+00	 4.2426406871e+00	-1.8796277248e-01
-4.3133513652e+00	 4.8790367902e+00	-1.9027431499e-01
-4.9497474683e+00	 5.5154328933e+00	-1.8970418218e-01
-5.5861435714e+00	 6.1518289963e+00	-1.8943918366e-01
-6.2225396744e+00	 6.7882250994e+00	-1.9266628981e-01
-6.8589357775e+00	 7.4246212025e+00	-2.0257263179e-01
-7.4953318806e+00	 8.0610173055e+00	-2.2234550156e-01
-8.4852813744e-01	 1.9798989873e+00	-1.8639337336e-01
-1.4849242405e+00	 2.6162950904e+00	-1.7017659071e-01
-2.1213203436e+00	 3.2526911935e+00	-1.6820370686e-01
-2.7577164466e+00	 3.8890872965e+00	-1.8741458422e-01
-3.3941125497e+00	 4.5254833996e+00	-1.9495373280e-01
-4.0305086528e+00	 5.1618795027e+00	-1.9114671859e-01
-4.6669047558e+00	 5.7982756057e+00	-1.8616724865e-01
-5.3033008589e+00	 6.4346717088e+00	-1.8320217485e-01
-5.9396969620e+00	 7.0710678119e+00	-1.8543850982e-01
-6.5760930650e+00	 7.7074639149e+00	-1.9606342700e-01
-7.2124891681e+00	 8.3438600180e+00	-2.1826426059e-01
-5.6568542496e-01	 2.2627416998e+00	-2.0498399281e-01
-1.2020815280e+00	 2.8991378029e+00	-1.8189745109e-01
-1.8384776311e+00	 3.5355339059e+00	-1.7594748507e-01
-2.4748737341e+00	 4.1719300090e+00	-1.9161565689e-01
-3.1112698372e+00	 4.8083261121e+00	-2.0449375677e-01
-3.7476659403e+00	 5.4447222151e+00	-1.9392654668e-01
-4.3840620433e+00	 6.0811183182e+00	-1.8389610239e-01
-5.0204581464e+00	 6.7175144213e+00	-1.7758931802e-01
-5.6568542495e+00	 7.3539105243e+00	-1.7819324846e-01
-6.2932503525e+00	 7.9903066274e+00	-1.8889510942e-01
-6.9296464556e+00	 8.6267027305e+00	-2.1288227736e-01
-2.8284271249e-01	 2.5455844123e+00	-2.2560115131e-01
-9.1923881555e-01	 3.1819805153e+00	-1.9521307494e-01
-1.5556349186e+00	 3.8183766184e+00	-1.8798691876e-01
-2.1920310217e+00	 4.4547727215e+00	-1.9534925930e-01
-2.8284271247e+00	 5.0911688245e+00	-2.0982179254e-01
-3.4648232278e+00	 5.7275649276e+00	-1.9826970762e-01
-4.1012193309e+00	 6.3639610307e+00	-1.8254664341e-01
-4.7376154339e+00	 7.0003571338e+00	-1.7225650483e-01
-5.3740115370e+00	 7.6367532368e+00	-1.7058638904e-01
-6.0104076401e+00	 8.2731493399e+00	-1.8072355401e-01
-6.6468037431e+00	 8.9095454430e+00	-2.0585541847e-01
-1.2500001034e-11	 2.8284271247e+00	-2.4824484884e-01
-6.3639610307e-01	 3.4648232278e+00	-2.1048590034e-01
-1.2727922061e+00	 4.1012193309e+00	-1.9997742364e-01
-1.9091883092e+00	 4.7376154339e+00	-1.9867187225e-01
-2.5455844123e+00	 5.3740115370e+00	-2.0550973467e-01
-3.1819805153e+00	 6.0104076401e+00	-2.0383210120e-01
-3.8183766184e+00	 6.6468037432e+00	-1.8177476314e-01
-4.4547727215e+00	 7.2831998462e+00	-1.6685961837e-01
-5.0911688245e+00	 7.9195959493e+00	-1.6227380631e-01
-5.7275649276e+00	 8.5559920524e+00	-1.7120462717e-01
-6.3639610307e+00	 9.1923881554e+00	-1.9683954198e-01
 2.8284271246e-01	 3.1112698372e+00	-2.7291508541e-01
-3.5355339060e-01	 3.7476659403e+00	-2.3254714727e-01
-9.8994949366e-01	 4.3840620433e+00	-2.1197548357e-01
-1.6263455967e+00	 5.0204581464e+00	-2.0163997766e-01
-2.2627416998e+00	 5.6568542495e+00	-2.0048110777e-01
-2.8991378029e+00	 6.2932503526e+00	-2.0743928984e-01
-3.5355339059e+00	 6.9296464556e+00	-1.8123634448e-01
-4.1719300090e+00	 7.5660425587e+00	-1.6105453318e-01
-4.8083261120e+00	 8.2024386618e+00	-1.5291136644e-01
-5.4447222151e+00	 8.8388347648e+00	-1.5999418673e-01
-6.0811183182e+00	 9.4752308679e+00	-1.8549049736e-01
 5.6568542494e-01	 3.3941125497e+00	-2.9961186103e-01
-7.0710678125e-02	 4.0305086527e+00	-2.5503449188e-01
-7.0710678119e-01	 4.6669047558e+00	-2.2403757963e-01
-1.3435028842e+00	 5.3033008589e+00	-2.0431005860e-01
-1.9798989873e+00	 5.9396969620e+00	-1.9479239689e-01
-2.6162950904e+00	 6.5760930650e+00	-1.9442500031e-01
-3.2526911934e+00	 7.2124891681e+00	-1.8058726172e-01
-3.8890872965e+00	 7.8488852712e+00	-1.5449711522e-01
-4.5254833996e+00	 8.4852813742e+00	-1.4215492704e-01
-5.1618795026e+00	 9.1216774773e+00	-1.4674808196e-01
-5.7982756057e+00	 9.7580735804e+00	-1.7146412552e-01
 8.4852813741e-01	 3.6769552621e+00	-3.3315074051e-01
 2.1213203435e-01	 4.3133513652e+00	-2.7800441449e-01
-4.2426406871e-01	 4.9497474683e+00	-2.3622019399e-01
-1.0606601718e+00	 5.5861435714e+00	-2.0673859925e-01
-1.6970562748e+00	 6.2225396744e+00	-1.8850008821e-01
-2.3334523779e+00	 6.8589357775e+00	-1.8044505657e-01
-2.9698484810e+00	 7.4953318806e+00	-1.7948338061e-01
-3.6062445840e+00	 8.1317279836e+00	-1.4684322186e-01
-4.2426406871e+00	 8.7681240867e+00	-1.2966033716e-01
-4.8790367902e+00	 9.4045201898e+00	-1.3112215352e-01
-5.5154328932e+00	 1.0040916293e+01	-1.5441625879e-01
 1.1313708499e+00	 3.9597979746e+00	-3.6884233413e-01
 4.9497474682e-01	 4.5961940777e+00	-3.0151339641e-01
-1.4142135624e-01	 5.2325901808e+00	-2.4857980997e-01
-7.7781745931e-01	 5.8689862838e+00	-2.0898208490e-01
-1.4142135624e+00	 6.5053823869e+00	-1.8166066904e-01
-2.0506096654e+00	 7.1417784900e+00	-1.6555594794e-01
-2.6870057685e+00	 7.7781745930e+00	-1.5960824484e-01
-3.3234018716e+00	 8.4145706961e+00	-1.3774870193e-01
-3.9597979746e+00	 9.0509667992e+00	-1.1508343725e-01
-4.5961940777e+00	 9.6873629023e+00	-1.1277223355e-01
-5.2325901808e+00	 1.0323759005e+01	-1.3400272095e-01
 1.4142135624e+00	 4.2426406871e+00	-4.0549152630e-01
 7.7781745929e-01	 4.8790367902e+00	-3.2561792008e-01
 1.4142135623e-01	 5.5154328932e+00	-2.6117291199e-01
-4.9497474683e-01	 6.1518289963e+00	-2.1109700201e-01
-1.1313708499e+00	 6.7882250994e+00	-1.7433062782e-01
-1.7677669530e+00	 7.4246212024e+00	-1.4981416484e-01
-2.4041630560e+00	 8.0610173055e+00	-1.3648792620e-01
-3.0405591591e+00	 8.6974134086e+00	-1.2686939568e-01
-3.6769552622e+00	 9.3338095117e+00	-9.8080059216e-02
-4.3133513652e+00	 9.9702056147e+00	-9.1354145591e-02
-4.9497474683e+00	 1.0606601718e+01	-1.1211926359e-01
-7.7781745931e+00	 7.7781745931e+00	-2.2547012507e-01
-8.4145706961e+00	 8.4145706961e+00	-1.6268550051e-01
-9.0509667992e+00	 9.0509667992e+00	-1.2429323270e-01
-9.6873629023e+00	 9.6873629023e+00	-1.1866987543e-01
-1.0323759005e+01	 1.0323759005e+01	-1.1331069868e-01
-1.0960155108e+01	 1.0960155108e+01	-1.2413642357e-01
-1.1596551211e+01	 1.1596551211e+01	-1.2954944870e-01
-1.2232947315e+01	 1.2232947315e+01	-1.2882175056e-01
-1.2869343418e+01	 1.2869343418e+01	-1.2186778710e-01
-1.3505739521e+01	 1.3505739521e+01	-1.0860201601e-01
-1.4142135624e+01	 1.4142135624e+01	-8.8938894657e-02
-7.4953318806e+00	 8.0610173055e+00	-2.2234550156e-01
-8.1317279836e+00	 8.6974134086e+00	-1.6191924055e-01
-8.7681240867e+00	 9.3338095117e+00	-1.1022545235e-01
-9.4045201898e+00	 9.9702056147e+00	-1.0442209108e-01
-1.0040916293e+01	 1.0606601718e+01	-1.0954013593e-01
-1.0677312396e+01	 1.1242997821e+01	-1.2074660111e-01
-1.1313708499e+01	 1.1879393924e+01	-1.2577708264e-01
-1.1950104602e+01	 1.2515790027e+01	-1.2454603654e-01
-1.2586500705e+01	 1.3152186130e+01	-1.1696791856e-01
-1.3222896808e+01	 1.3788582233e+01	-1.0295718414e-01
-1.3859292911e+01	 1.4424978336e+01	-8.2428288423e-02
-7.2124891681e+00	 8.3438600180e+00	-2.1826426059e-01
-7.8488852712e+00	 8.9802561211e+00	-1.6016240837e-01
-8.4852813742e+00	 9.6166522241e+00	-1.1118504052e-01
-9.1216774773e+00	 1.0253048327e+01	-9.0759801836e-02
-9.7580735804e+00	 1.0889444430e+01	-1.0544264163e-01
-1.0394469683e+01	 1.1525840533e+01	-1.1656888556e-01
-1.1030865787e+01	 1.2162236636e+01	-1.2139834439e-01
-1.1667261890e+01	 1.2798632739e+01	-1.1984547192e-01
-1.2303657993e+01	 1.3435028843e+01	-1.1182472167e-01
-1.2940054096e+01	 1.4071424946e+01	-9.7250546848e-02
-1.3576450199e+01	 1.4707821049e+01	-7.6037400392e-02
-6.9296464556e+00	 8.6267027305e+00	-2.1288227736e-01
-7.5660425587e+00	 9.2630988336e+00	-1.5707087080e-01
-8.2024386618e+00	 9.8994949366e+00	-1.1077596211e-01
-8.8388347648e+00	 1.0535891040e+01	-8.2775850916e-02
-9.4752308679e+00	 1.1172287143e+01	-1.0033543199e-01
-1.0111626971e+01	 1.1808683246e+01	-1.1156297533e-01
-1.0748023074e+01	 1.2445079349e+01	-1.1637293280e-01
-1.1384419177e+01	 1.3081475452e+01	-1.1467975598e-01
-1.2020815280e+01	 1.3717871555e+01	-1.0639789616e-01
-1.2657211383e+01	 1.4354267658e+01	-9.1441804323e-02
-1.3293607486e+01	 1.4990663761e+01	-6.9725931180e-02
-6.6468037431e+00	 8.9095454430e+00	-2.0585541847e-01
-7.2831998462e+00	 9.5459415460e+00	-1.5230048610e-01
-7.9195959493e+00	 1.0182337649e+01	-1.0865406706e-01
-8.5559920523e+00	 1.0818733752e+01	-8.8426438806e-02
-9.1923881554e+00	 1.1455129855e+01	-9.4178204191e-02
-9.8287842585e+00	 1.2091525958e+01	-1.0568856805e-01
-1.0465180362e+01	 1.2727922061e+01	-1.1066054594e-01
-1.1101576465e+01	 1.3364318164e+01	-1.0900858723e-01
-1.1737972568e+01	 1.4000714267e+01	-1.0064714098e-01
-1.2374368671e+01	 1.4637110371e+01	-8.5490655942e-02
-1.3010764774e+01	 1.5273506474e+01	-6.3453580609e-02
-6.3639610307e+00	 9.1923881554e+00	-1.9683954198e-01
-7.0003571337e+00	 9.8287842585e+00	-1.4550710398e-01
-7.6367532368e+00	 1.0465180362e+01	-1.0705806883e-01
-8.2731493399e+00	 1.1101576465e+01	-9.1152086638e-02
-8.9095454429e+00	 1.1737972568e+01	-8.6930654624e-02
-9.5459415460e+00	 1.2374368671e+01	-9.8905360538e-02
-1.0182337649e+01	 1.3010764774e+01	-1.0422088108e-01
-1.0818733752e+01	 1.3647160877e+01	-1.0279166338e-01
-1.1455129855e+01	 1.4283556980e+01	-9.4532154272e-02
-1.2091525958e+01	 1.4919953083e+01	-7.9356800295e-02
-1.2727922061e+01	 1.5556349186e+01	-5.7180047706e-02
-6.0811183182e+00	 9.4752308679e+00	-1.8549049736e-01
-6.7175144213e+00	 1.0111626971e+01	-1.3634656557e-01
-7.3539105243e+00	 1.0748023074e+01	-1.0548521926e-01
-7.9903066274e+00	 1.1384419177e+01	-9.0292711304e-02
-8.6267027305e+00	 1.2020815280e+01	-8.3832020075e-02
-9.2630988335e+00	 1.2657211383e+01	-9.1173048843e-02
-9.8994949366e+00	 1.3293607486e+01	-9.7013634696e-02
-1.0535891040e+01	 1.3930003589e+01	-9.5988681345e-02
-1.1172287143e+01	 1.4566399692e+01	-8.8012633399e-02
-1.1808683246e+01	 1.5202795796e+01	-7.2999935178e-02
-1.2445079349e+01	 1.5839191899e+01	-5.0865030709e-02
-5.7982756057e+00	 9.7580735804e+00	-1.7146412552e-01
-6.4346717088e+00	 1.0394469683e+01	-1.2527908997e-01
-7.0710678119e+00	 1.1030865787e+01	-1.0006640871e-01
-7.7074639149e+00	 1.1667261890e+01	-8.5941104771e-02
-8.3438600180e+00	 1.2303657993e+01	-8.0202219247e-02
-8.9802561211e+00	 1.2940054096e+01	-8.2451328206e-02
-9.6166522241e+00	 1.3576450199e+01	-8.8998502468e-02
-1.0253048327e+01	 1.4212846302e+01	-8.8559337246e-02
-1.0889444430e+01	 1.4849242405e+01	-8.1048274924e-02
-1.1525840533e+01	 1.5485638508e+01	-6.6379757594e-02
-1.2162236636e+01	 1.6122034611e+01	-4.4468227059e-02
-5.5154328932e+00	 1.0040916293e+01	-1.5441625879e-01
-6.1518289963e+00	 1.0677312396e+01	-1.1434077834e-01
-6.7882250994e+00	 1.1313708499e+01	-9.0894429165e-02
-7.4246212025e+00	 1.1950104602e+01	-7.8190059008e-02
-8.0610173055e+00	 1.2586500705e+01	-7.3526708961e-02
-8.6974134086e+00	 1.3222896808e+01	-7.4203420120e-02
-9.3338095117e+00	 1.3859292911e+01	-8.0135179291e-02
-9.9702056147e+00	 1.4495689014e+01	-8.0463326418e-02
-1.0606601718e+01	 1.5132085117e+01	-7.3598774616e-02
-1.1242997821e+01	 1.5768481220e+01	-5.9455963754e-02
-1.1879393924e+01	 1.6404877324e+01	-3.7949333409e-02
-5.2325901808e+00	 1.0323759005e+01	-1.3400272095e-01
-5.8689862838e+00	 1.0960155108e+01	-9.9388359892e-02
-6.5053823869e+00	 1.1596551211e+01	-7.8062072584e-02
-7.1417784900e+00	 1.2232947315e+01	-6.7132365983e-02
-7.7781745931e+00	 1.2869343418e+01	-6.3898281186e-02
-8.4145706961e+00	 1.3505739521e+01	-6.5658859288e-02
-9.0509667992e+00	 1.4142135624e+01	-7.0383359263e-02
-9.6873629023e+00	 1.4778531727e+01	-7.1660343397e-02
-1.0323759005e+01	 1.5414927830e+01	-6.5623827454e-02
-1.0960155108e+01	 1.6051323933e+01	-5.2188249075e-02
-1.1596551211e+01	 1.6687720036e+01	-3.1268045614e-02
-4.9497474683e+00	 1.0606601718e+01	-1.1211926359e-01
-5.5861435714e+00	 1.1242997821e+01	-8.0514626608e-02
-6.2225396744e+00	 1.1879393924e+01	-6.1662130936e-02
-6.8589357775e+00	 1.2515790027e+01	-5.2860817664e-02
-7.4953318806e+00	 1.3152186130e+01	-5.1409727890e-02
-8.1317279837e+00	 1.3788582233e+01	-5.4607902708e-02
-8.7681240867e+00	 1.4424978336e+01	-5.9754383215e-02
-9.4045201898e+00	 1.5061374439e+01	-6.2110081930e-02
-1.0040916293e+01	 1.5697770542e+01	-5.7083127622e-02
-1.0677312396e+01	 1.6334166645e+01	-4.4536308183e-02
-1.1313708499e+01	 1.6970562749e+01	-2.4384058740e-02
 1.4142135624e+00	 4.2426406871e+00	-4.0549152630e-01
 7.7781745929e-01	 4.8790367902e+00	-3.2561792008e-01
 1.4142135623e-01	 5.5154328932e+00	-2.6117291199e-01
-4.9497474683e-01	 6.1518289963e+00	-2.1109700201e-01
-1.1313708499e+00	 6.7882250994e+00	-1.7433062782e-01
-1.7677669530e+00	 7.4246212024e+00	-1.4981416484e-01
-2.4041630560e+00	 8.0610173055e+00	-1.3648792620e-01
-3.0405591591e+00	 8.6974134086e+00	-1.2686939568e-01
-3.6769552622e+00	 9.3338095117e+00	-9.8080059216e-02
-4.3133513652e+00	 9.9702056147e+00	-9.1354145591e-02
-4.9497474683e+00	 1.0606601718e+01	-1.1211926359e-01
 1.6970562748e+00	 4.5254833996e+00	-4.1217035966e-01
 1.0606601718e+00	 5.1618795026e+00	-3.3221918940e-01
 4.2426406870e-01	 5.7982756057e+00	-2.6713505207e-01
-2.1213203436e-01	 6.4346717088e+00	-2.1585843749e-01
-8.4852813743e-01	 7.0710678119e+00	-1.7732977324e-01
-1.4849242405e+00	 7.7074639149e+00	-1.5048942458e-01
-2.1213203436e+00	 8.3438600180e+00	-1.3427769451e-01
-2.7577164466e+00	 8.9802561211e+00	-1.2763482373e-01
-3.3941125497e+00	 9.6166522241e+00	-1.0530009295e-01
-4.0305086528e+00	 1.0253048327e+01	-9.3588425135e-02
-4.6669047558e+00	 1.0889444430e+01	-1.1178464903e-01
 1.9798989873e+00	 4.8083261121e+00	-4.1436266219e-01
 1.3435028842e+00	 5.4447222151e+00	-3.3457252939e-01
 7.0710678117e-01	 6.0811183182e+00	-2.6908786539e-01
 7.0710678108e-02	 6.7175144213e+00	-2.1684914992e-01
-5.6568542496e-01	 7.3539105243e+00	-1.7679680038e-01
-1.2020815280e+00	 7.9903066274e+00	-1.4787117194e-01
-1.8384776311e+00	 8.6267027305e+00	-1.2901255743e-01
-2.4748737342e+00	 9.2630988335e+00	-1.1916118742e-01
-3.1112698372e+00	 9.8994949366e+00	-1.0865342736e-01
-3.7476659403e+00	 1.0535891040e+01	-9.2151844012e-02
-4.3840620434e+00	 1.1172287143e+01	-1.0781002308e-01
 2.2627416998e+00	 5.0911688245e+00	-4.1212491770e-01
 1.6263455967e+00	 5.7275649276e+00	-3.3273442585e-01
 9.8994949364e-01	 6.3639610307e+00	-2.6708783979e-01
 3.5355339058e-01	 7.0003571337e+00	-2.1412562910e-01
-2.8284271248e-01	 7.6367532368e+00	-1.7278820108e-01
-9.1923881555e-01	 8.2731493399e+00	-1.4201590072e-01
-1.5556349186e+00	 8.9095454429e+00	-1.2074901076e-01
-2.1920310217e+00	 9.5459415460e+00	-1.0792775161e-01
-2.8284271247e+00	 1.0182337649e+01	-1.0249228139e-01
-3.4648232278e+00	 1.0818733752e+01	-8.6915855997e-02
-4.1012193309e+00	 1.1455129855e+01	-1.0028817772e-01
 2.5455844122e+00	 5.3740115370e+00	-4.0551361114e-01
 1.9091883092e+00	 6.0104076401e+00	-3.2676136573e-01
 1.2727922061e+00	 6.6468037431e+00	-2.6119146420e-01
 6.3639610305e-01	 7.2831998462e+00	-2.0774436599e-01
-9.9993208158e-12	 7.9195959493e+00	-1.6536046826e-01
-6.3639610307e-01	 8.5559920523e+00	-1.3298010589e-01
-1.2727922061e+00	 9.1923881554e+00	-1.0954355145e-01
-1.9091883092e+00	 9.8287842585e+00	-9.3991015230e-02
-2.5455844123e+00	 1.0465180362e+01	-8.4349671704e-02
-3.1819805153e+00	 1.1101576465e+01	-7.7878720887e-02
-3.8183766184e+00	 1.1737972568e+01	-8.9311904898e-02
 2.8284271247e+00	 5.6568542495e+00	-3.9458522857e-01
 2.1920310217e+00	 6.2932503526e+00	-3.1670983711e-01
 1.5556349186e+00	 6.9296464556e+00	-2.5145522870e-01
 9.1923881553e-01	 7.5660425587e+00	-1.9776185266e-01
 2.8284271246e-01	 8.2024386618e+00	-1.5457009601e-01
-3.5355339060e-01	 8.8388347648e+00	-1.2082028349e-01
-9.8994949367e-01	 9.4752308679e+00	-9.5452677558e-02
-1.6263455967e+00	 1.0111626971e+01	-7.7407478353e-02
-2.2627416998e+00	 1.0748023074e+01	-6.2989316432e-02
-2.8991378029e+00	 1.1384419177e+01	-6.3990749746e-02
-3.5355339059e+00	 1.2020815280e+01	-7.4973996595e-02
 3.1112698372e+00	 5.9396969620e+00	-3.9345935882e-01
 2.4748737341e+00	 6.5760930650e+00	-3.0263632916e-01
 1.8384776311e+00	 7.2124891681e+00	-2.3793562447e-01
 1.2020815280e+00	 7.8488852712e+00	-1.8423458229e-01
 5.6568542494e-01	 8.4852813742e+00	-1.4047357951e-01
-7.0710678124e-02	 9.1216774773e+00	-1.0559293074e-01
-7.0710678119e-01	 9.7580735804e+00	-7.8532888289e-02
-1.3435028843e+00	 1.0394469683e+01	-5.7456024799e-02
-1.9798989873e+00	 1.1030865786e+01	-3.9875379288e-02
-2.6162950904e+00	 1.1667261890e+01	-4.1027884169e-02
-3.2526911935e+00	 1.2303657993e+01	-5.7367244776e-02
 3.3941125497e+00	 6.2225396745e+00	-3.9795716137e-01
 2.7577164466e+00	 6.8589357775e+00	-2.8459733223e-01
 2.1213203435e+00	 7.4953318806e+00	-2.2068914384e-01
 1.4849242405e+00	 8.1317279836e+00	-1.6721904920e-01
 8.4852813742e-01	 8.7681240867e+00	-1.2312741508e-01
 2.1213203435e-01	 9.4045201898e+00	-8.7354545942e-02
-4.2426406871e-01	 1.0040916293e+01	-5.8840683963e-02
-1.0606601718e+00	 1.0677312396e+01	-3.1804506127e-02
-1.6970562748e+00	 1.1313708499e+01	-1.5086265976e-02
-2.3334523779e+00	 1.1950104602e+01	-1.6502703181e-02
-2.9698484810e+00	 1.2586500705e+01	-3.6584441409e-02
 3.6769552621e+00	 6.5053823869e+00	-3.9888003379e-01
 3.0405591591e+00	 7.1417784900e+00	-2.7122357598e-01
 2.4041630560e+00	 7.7781745931e+00	-1.9977228026e-01
 1.7677669530e+00	 8.4145706961e+00	-1.4677174886e-01
 1.1313708499e+00	 9.0509667992e+00	-1.0258810018e-01
 4.9497474683e-01	 9.6873629023e+00	-6.6161628558e-02
-1.4142135624e-01	 1.0323759005e+01	-3.6432566030e-02
-7.7781745930e-01	 1.0960155108e+01	-4.4433562390e-03
-1.4142135624e+00	 1.1596551211e+01	 1.1299617795e-02
-2.0506096654e+00	 1.2232947315e+01	 9.5063875109e-03
-2.6870057685e+00	 1.2869343418e+01	-1.0673820037e-02
 3.9597979746e+00	 6.7882250994e+00	-3.9616742651e-01
 3.3234018716e+00	 7.4246212025e+00	-2.7003657831e-01
 2.6870057685e+00	 8.0610173055e+00	-1.7524152830e-01
 2.0506096654e+00	 8.6974134086e+00	-1.2294917783e-01
 1.4142135624e+00	 9.3338095117e+00	-7.8912133383e-02
 7.7781745931e-01	 9.9702056147e+00	-4.2070679161e-02
 1.4142135624e-01	 1.0606601718e+01	-6.1927863430e-03
-4.9497474682e-01	 1.1242997821e+01	 2.4549019157e-02
-1.1313708499e+00	 1.1879393924e+01	 3.9203866320e-02
-1.7677669530e+00	 1.2515790027e+01	 3.6920982200e-02
-2.4041630560e+00	 1.3152186130e+01	 1.6849593854e-02
 4.2426406871e+00	 7.0710678119e+00	-3.8975878783e-01
 3.6062445840e+00	 7.7074639150e+00	-2.6536480365e-01
 2.9698484810e+00	 8.3438600180e+00	-1.4969782683e-01
 2.3334523779e+00	 8.9802561211e+00	-9.5807833815e-02
 1.6970562749e+00	 9.6166522241e+00	-5.2156014389e-02
 1.0606601718e+00	 1.0253048327e+01	-1.5138199455e-02
 4.2426406872e-01	 1.0889444430e+01	 2.6151869520e-02
-2.1213203434e-01	 1.1525840533e+01	 5.5094214355e-02
-8.4852813741e-01	 1.2162236636e+01	 6.8548073890e-02
-1.4849242405e+00	 1.2798632739e+01	 6.5662675179e-02
-2.1213203435e+00	 1.3435028843e+01	 4.5587245279e-02
-4.9497474683e+00	 1.0606601718e+01	-1.1211926359e-01
-5.5861435714e+00	 1.1242997821e+01	-8.0514626608e-02
-6.2225396744e+00	 1.1879393924e+01	-6.1662130936e-02
-6.8589357775e+00	 1.2515790027e+01	-5.2860817664e-02
-7.4953318806e+00	 1.3152186130e+01	-5.1409727890e-02
-8.1317279837e+00	 1.3788582233e+01	-5.4607902708e-02
-8.7681240867e+00	 1.4424978336e+01	-5.9754383215e-02
-9.4045201898e+00	 1.5061374439e+01	-6.2110081930e-02
-1.0040916293e+01	 1.5697770542e+01	-5.7083127622e-02
-1.0677312396e+01	 1.6334166645e+01	-4.4536308183e-02
-1.1313708499e+01	 1.6970562749e+01	-2.4384058740e-02
-4.6669047558e+00	 1.0889444430e+01	-1.1178464903e-01
-5.3033008589e+00	 1.1525840533e+01	-8.0803662272e-02
-5.9396969620e+00	 1.2162236636e+01	-6.2247480367e-02
-6.5760930650e+00	 1.2798632739e+01	-5.3415144410e-02
-7.2124891681e+00	 1.3435028843e+01	-5.1605695498e-02
-7.8488852712e+00	 1.4071424946e+01	-5.4118174725e-02
-8.4852813742e+00	 1.4707821049e+01	-5.8251623189e-02
-9.1216774773e+00	 1.5344217152e+01	-5.9847208750e-02
-9.7580735804e+00	 1.5980613255e+01	-5.3588505777e-02
-1.0394469683e+01	 1.6617009358e+01	-3.9707197509e-02
-1.1030865787e+01	 1.7253405461e+01	-1.7896305257e-02
-4.3840620434e+00	 1.1172287143e+01	-1.0781002308e-01
-5.0204581464e+00	 1.1808683246e+01	-7.7933601349e-02
-5.6568542495e+00	 1.2445079349e+01	-6.0154648013e-02
-6.2932503526e+00	 1.3081475452e+01	-5.1772204173e-02
-6.9296464556e+00	 1.3717871555e+01	-5.0085310924e-02
-7.5660425587e+00	 1.4354267658e+01	-5.2393009363e-02
-8.2024386618e+00	 1.4990663761e+01	-5.5994340585e-02
-8.8388347648e+00	 1.5627059864e+01	-5.8096186724e-02
-9.4752308679e+00	 1.6263455967e+01	-5.0914446772e-02
-1.0111626971e+01	 1.6899852070e+01	-3.6007362039e-02
-1.0748023074e+01	 1.7536248173e+01	-7.8087515169e-03
-4.1012193309e+00	 1.1455129855e+01	-1.0028817772e-01
-4.7376154340e+00	 1.2091525958e+01	-7.1997235807e-02
-5.3740115370e+00	 1.2727922061e+01	-5.5476425843e-02
-6.0104076401e+00	 1.3364318164e+01	-4.8024788921e-02
-6.6468037432e+00	 1.4000714267e+01	-4.6941366137e-02
-7.2831998462e+00	 1.4637110371e+01	-4.9525198589e-02
-7.9195959493e+00	 1.5273506474e+01	-5.3075327370e-02
-8.5559920524e+00	 1.5909902577e+01	-5.4890793579e-02
-9.1923881554e+00	 1.6546298680e+01	-4.9020642415e-02
-9.8287842585e+00	 1.7182694783e+01	-3.3396494022e-02
-1.0465180362e+01	 1.7819090886e+01	 5.1853502026e-04
-3.8183766184e+00	 1.1737972568e+01	-8.9311904898e-02
-4.4547727215e+00	 1.2374368671e+01	-6.3087357614e-02
-5.0911688246e+00	 1.3010764774e+01	-4.8305605823e-02
-5.7275649276e+00	 1.3647160877e+01	-4.2265690621e-02
-6.3639610307e+00	 1.4283556980e+01	-4.2266653106e-02
-7.0003571338e+00	 1.4919953083e+01	-4.5607534371e-02
-7.6367532368e+00	 1.5556349186e+01	-4.9587375515e-02
-8.2731493399e+00	 1.6192745289e+01	-5.1505217632e-02
-8.9095454430e+00	 1.6829141392e+01	-4.7866783718e-02
-9.5459415460e+00	 1.7465537495e+01	-2.7442424566e-02
-1.0182337649e+01	 1.8101933598e+01	 7.0845344612e-03
-3.5355339059e+00	 1.2020815280e+01	-7.4973996595e-02
-4.1719300090e+00	 1.2657211383e+01	-5.1296758738e-02
-4.8083261121e+00	 1.3293607486e+01	-3.8734979922e-02
-5.4447222151e+00	 1.3930003589e+01	-3.4587701243e-02
-6.0811183182e+00	 1.4566399692e+01	-3.6153963797e-02
-6.7175144213e+00	 1.5202795796e+01	-4.0732808679e-02
-7.3539105243e+00	 1.5839191899e+01	-4.5623276986e-02
-7.9903066274e+00	 1.6475588002e+01	-4.8124409814e-02
-8.6267027305e+00	 1.7111984105e+01	-4.5535248259e-02
-9.2630988335e+00	 1.7748380208e+01	-2.1767381804e-02
-9.8994949366e+00	 1.8384776311e+01	 1.1888227319e-02
-3.2526911935e+00	 1.2303657993e+01	-5.7367244776e-02
-3.8890872965e+00	 1.2940054096e+01	-3.6718231149e-02
-4.5254833996e+00	 1.3576450199e+01	-2.6857340110e-02
-5.1618795027e+00	 1.4212846302e+01	-2.5083612755e-02
-5.7982756057e+00	 1.4849242405e+01	-2.8696090179e-02
-6.4346717088e+00	 1.5485638508e+01	-3.4993813480e-02
-7.0710678119e+00	 1.6122034611e+01	-4.1275823753e-02
-7.7074639149e+00	 1.6758430714e+01	-4.4841162093e-02
-8.3438600180e+00	 1.7394826817e+01	-3.9971114070e-02
-8.9802561211e+00	 1.8031222920e+01	-1.7582255898e-02
-9.6166522241e+00	 1.8667619023e+01	 1.4928594512e-02
-2.9698484810e+00	 1.2586500705e+01	-3.6584441409e-02
-3.6062445841e+00	 1.3222896808e+01	-1.9444566813e-02
-4.2426406871e+00	 1.3859292911e+01	-1.2765478353e-02
-4.8790367902e+00	 1.4495689014e+01	-1.3846217124e-02
-5.5154328933e+00	 1.5132085117e+01	-1.9985824221e-02
-6.1518289963e+00	 1.5768481220e+01	-2.8483340742e-02
-6.7882250994e+00	 1.6404877324e+01	-3.6637807782e-02
-7.4246212025e+00	 1.7041273427e+01	-4.1748266437e-02
-8.0610173055e+00	 1.7677669530e+01	-3.2891053542e-02
-8.6974134086e+00	 1.8314065633e+01	-1.3715976813e-02
-9.3338095116e+00	 1.8950461736e+01	 1.6204617366e-02
-2.6870057685e+00	 1.2869343418e+01	-1.0673820037e-02
-3.3234018716e+00	 1.3505739521e+01	 4.3144229990e-04
-3.9597979746e+00	 1.4142135624e+01	 3.4478133796e-03
-4.5961940777e+00	 1.4778531727e+01	-9.6830631873e-04
-5.2325901808e+00	 1.5414927830e+01	-1.0115957891e-02
-5.8689862838e+00	 1.6051323933e+01	-2.1294182434e-02
-6.5053823869e+00	 1.6687720036e+01	-3.1802021043e-02
-7.1417784900e+00	 1.7324116139e+01	-3.7443786408e-02
-7.7781745930e+00	 1.7960512242e+01	-2.6993816666e-02
-8.4145706961e+00	 1.8596908345e+01	-9.8806090931e-03
-9.0509667992e+00	 1.9233304448e+01	 1.5715277612e-02
-2.4041630560e+00	 1.3152186130e+01	 1.6849593854e-02
-3.0405591591e+00	 1.3788582233e+01	 2.2817004223e-02
-3.6769552622e+00	 1.4424978336e+01	 2.1689743120e-02
-4.3133513652e+00	 1.5061374439e+01	 1.3457327692e-02
-4.9497474683e+00	 1.5697770542e+01	 8.2071684256e-04
-5.5861435714e+00	 1.6334166645e+01	-1.3519130524e-02
-6.2225396744e+00	 1.6970562748e+01	-2.6861255504e-02
-6.8589357775e+00	 1.7606958852e+01	-3.0195071063e-02
-7.4953318806e+00	 1.8243354955e+01	-2.2290781537e-02
-8.1317279836e+00	 1.8879751058e+01	-7.5332999986e-03
-8.7681240867e+00	 1.9516147161e+01	 1.3937419788e-02
-2.1213203435e+00	 1.3435028843e+01	 4.5587245279e-02
-2.7577164466e+00	 1.4071424946e+01	 4.6869327709e-02
-3.3941125497e+00	 1.4707821049e+01	 4.1867518899e-02
-4.0305086528e+00	 1.5344217152e+01	 2.9337892940e-02
-4.6669047558e+00	 1.5980613255e+01	 1.2731408012e-02
-5.3033008589e+00	 1.6617009358e+01	-5.2509769804e-03
-5.9396969620e+00	 1.7253405461e+01	-2.1739721819e-02
-6.5760930650e+00	 1.7889801564e+01	-2.3858078968e-02
-7.2124891681e+00	 1.8526197667e+01	-1.8793325835e-02
-7.8488852711e+00	 1.9162593770e+01	-6.6854272243e-03
-8.4852813742e+00	 1.9798989873e+01	 1.2325663165e-02
 4.2426406871e+00	 7.0710678119e+00	-2.5210098984e-01
 3.6062445840e+00	 7.7074639150e+00	-1.6799684173e-01
 2.9698484810e+00	 8.3438600180e+00	-8.7532177996e-02
 2.3334523779e+00	 8.9802561211e+00	-6.3756975053e-02
 1.6970562749e+00	 9.6166522241e+00	-4.5132422701e-02
 1.0606601718e+00	 1.0253048327e+01	-2.8054351839e-02
 4.2426406872e-01	 1.0889444430e+01	-1.6165039366e-03
-2.1213203434e-01	 1.1525840533e+01	 1.7561142827e-02
-8.4852813741e-01	 1.2162236636e+01	 2.6337827291e-02
-1.4849242405e+00	 1.2798632739e+01	 2.3862776510e-02
-2.1213203435e+00	 1.3435028843e+01	 9.2852175408e-03
 4.3840620433e+00	 7.2124891681e+00	-2.2705389897e-01
 3.7476659403e+00	 7.8488852712e+00	-1.5194322749e-01
 3.1112698372e+00	 8.4852813743e+00	-7.9222133222e-02
 2.4748737342e+00	 9.1216774773e+00	-4.9455391522e-02
 1.8384776311e+00	 9.7580735804e+00	-3.5955095891e-02
 1.2020815280e+00	 1.0394469683e+01	-2.1443000332e-02
 5.6568542496e-01	 1.1030865787e+01	 3.3371610008e-03
-7.0710678104e-02	 1.1667261890e+01	 1.9934257314e-02
-7.0710678117e-01	 1.2303657993e+01	 2.7497515664e-02
-1.3435028842e+00	 1.2940054096e+01	 2.5176163107e-02
-1.9798989873e+00	 1.3576450199e+01	 1.2119426699e-02
 4.5254833996e+00	 7.3539105244e+00	-1.9817060865e-01
 3.8890872965e+00	 7.9903066274e+00	-1.3251751666e-01
 3.2526911935e+00	 8.6267027305e+00	-6.8004095596e-02
 2.6162950904e+00	 9.2630988336e+00	-3.2689685984e-02
 1.9798989873e+00	 9.8994949366e+00	-2.4784592300e-02
 1.3435028843e+00	 1.0535891040e+01	-1.1293390065e-02
 7.0710678120e-01	 1.1172287143e+01	 9.0995920133e-03
 7.0710678136e-02	 1.1808683246e+01	 2.2676633409e-02
-5.6568542493e-01	 1.2445079349e+01	 2.8586961179e-02
-1.2020815280e+00	 1.3081475452e+01	 2.5979802378e-02
-1.8384776311e+00	 1.3717871555e+01	 1.4004384064e-02
 4.6669047558e+00	 7.4953318806e+00	-1.6544354931e-01
 4.0305086528e+00	 8.1317279837e+00	-1.0971213966e-01
 3.3941125497e+00	 8.7681240867e+00	-5.3870495541e-02
 2.7577164466e+00	 9.4045201898e+00	-1.3466920968e-02
 2.1213203436e+00	 1.0040916293e+01	-1.1627974707e-02
 1.4849242405e+00	 1.0677312396e+01	 9.4690031421e-05
 8.4852813744e-01	 1.1313708499e+01	 1.5660988387e-02
 2.1213203438e-01	 1.1950104602e+01	 2.5778470398e-02
-4.2426406869e-01	 1.2586500705e+01	 2.9596363120e-02
-1.0606601718e+00	 1.3222896808e+01	 2.6263893609e-02
-1.6970562748e+00	 1.3859292911e+01	 1.4930288921e-02
 4.8083261121e+00	 7.6367532368e+00	-1.2886515127e-01
 4.1719300090e+00	 8.2731493399e+00	-8.3519526807e-02
 3.5355339059e+00	 8.9095454430e+00	-3.6813763346e-02
 2.8991378029e+00	 9.5459415460e+00	 8.2058409249e-03
 2.2627416998e+00	 1.0182337649e+01	 3.5076940378e-03
 1.6263455967e+00	 1.0818733752e+01	 1.2711439243e-02
 9.8994949368e-01	 1.1455129855e+01	 2.3011549410e-02
 3.5355339062e-01	 1.2091525958e+01	 2.9229967569e-02
-2.8284271245e-01	 1.2727922061e+01	 3.0515920775e-02
-9.1923881552e-01	 1.3364318164e+01	 2.6018636086e-02
-1.5556349186e+00	 1.4000714268e+01	 1.4887340558e-02
 4.9497474683e+00	 7.7781745931e+00	-8.8427844696e-02
 4.3133513652e+00	 8.4145706961e+00	-5.3932108249e-02
 3.6769552622e+00	 9.0509667992e+00	-1.6826329169e-02
 3.0405591591e+00	 9.6873629023e+00	 2.3533547335e-02
 2.4041630561e+00	 1.0323759005e+01	 2.0615351013e-02
 1.7677669530e+00	 1.0960155108e+01	 2.6547056857e-02
 1.1313708499e+00	 1.1596551211e+01	 3.1141474367e-02
 4.9497474686e-01	 1.2232947315e+01	 3.3021324206e-02
-1.4142135621e-01	 1.2869343418e+01	 3.1335833431e-02
-7.7781745928e-01	 1.3505739521e+01	 2.5234229097e-02
-1.4142135624e+00	 1.4142135624e+01	 1.3865738260e-02
 5.0911688245e+00	 7.9195959493e+00	-4.4124059617e-02
 4.4547727215e+00	 8.5559920524e+00	-2.0942314021e-02
 3.8183766184e+00	 9.1923881554e+00	 6.0993769685e-03
 3.1819805154e+00	 9.8287842585e+00	 3.7645068005e-02
 2.5455844123e+00	 1.0465180362e+01	 4.2645851382e-02
 1.9091883092e+00	 1.1101576465e+01	 4.1591742159e-02
 1.2727922062e+00	 1.1737972568e+01	 4.0040962546e-02
 6.3639610310e-01	 1.2374368671e+01	 3.7142739599e-02
 2.8000601837e-11	 1.3010764774e+01	 3.2046300374e-02
-6.3639610304e-01	 1.3647160877e+01	 2.3900871927e-02
-1.2727922061e+00	 1.4283556980e+01	 1.1855681315e-02
 5.2325901808e+00	 8.0610173055e+00	 4.0537740601e-03
 4.5961940777e+00	 8.6974134086e+00	 1.5457425983e-02
 3.9597979747e+00	 9.3338095117e+00	 3.1970925177e-02
 3.3234018716e+00	 9.9702056147e+00	 5.4238326161e-02
 2.6870057685e+00	 1.0606601718e+01	 6.6841629588e-02
 2.0506096655e+00	 1.1242997821e+01	 5.7835694437e-02
 1.4142135624e+00	 1.1879393924e+01	 4.9700213232e-02
 7.7781745934e-01	 1.2515790027e+01	 4.1584413032e-02
 1.4142135627e-01	 1.3152186130e+01	 3.2637520890e-02
-4.9497474680e-01	 1.3788582233e+01	 2.2008763864e-02
-1.1313708499e+00	 1.4424978336e+01	 8.8473690098e-03
 5.3740115370e+00	 8.2024386618e+00	 5.6113226566e-02
 4.7376154340e+00	 8.8388347648e+00	 5.5274681999e-02
 4.1012193309e+00	 9.4752308679e+00	 6.0795885700e-02
 3.4648232278e+00	 1.0111626971e+01	 7.3320892054e-02
 2.8284271248e+00	 1.0748023074e+01	 9.2666378523e-02
 2.1920310217e+00	 1.1384419177e+01	 7.5269112976e-02
 1.5556349186e+00	 1.2020815280e+01	 6.0109425714e-02
 9.1923881558e-01	 1.2657211383e+01	 4.6336543792e-02
 2.8284271251e-01	 1.3293607486e+01	 3.3099694267e-02
-3.5355339056e-01	 1.3930003589e+01	 1.9548104194e-02
-9.8994949363e-01	 1.4566399692e+01	 4.8310006301e-03
 5.5154328933e+00	 8.3438600180e+00	 1.1206186827e-01
 4.8790367902e+00	 8.9802561211e+00	 9.8517024399e-02
 4.2426406871e+00	 9.6166522241e+00	 9.2581828917e-02
 3.6062445841e+00	 1.0253048327e+01	 9.4900336069e-02
 2.9698484810e+00	 1.0889444430e+01	 1.1760259029e-01
 2.3334523779e+00	 1.1525840533e+01	 9.3882197064e-02
 1.6970562749e+00	 1.2162236636e+01	 7.1258799276e-02
 1.0606601718e+00	 1.2798632739e+01	 5.1389331167e-02
 4.2426406875e-01	 1.3435028843e+01	 3.3423019790e-02
-2.1213203432e-01	 1.4071424946e+01	 1.6509092204e-02
-8.4852813739e-01	 1.4707821049e+01	-2.0322453706e-04
 5.6568542495e+00	 8.4852813742e+00	 1.7190726966e-01
 5.0204581464e+00	 9.1216774773e+00	 1.4519202369e-01
 4.3840620434e+00	 9.7580735804e+00	 1.2733632534e-01
 3.7476659403e+00	 1.0394469683e+01	 1.2018196714e-01
 3.1112698373e+00	 1.1030865787e+01	 1.3446418370e-01
 2.4748737342e+00	 1.1667261890e+01	 1.1366514599e-01
 1.8384776311e+00	 1.2303657993e+01	 8.3138533207e-02
 1.2020815281e+00	 1.2940054096e+01	 5.6732974442e-02
 5.6568542499e-01	 1.3576450199e+01	 3.3597696747e-02
-7.0710678080e-02	 1.4212846302e+01	 1.2881927180e-02
-7.0710678115e-01	 1.4849242405e+01	-6.2651072052e-03
-2.1213203435e+00	 1.3435028843e+01	 9.2852175408e-03
-2.7577164466e+00	 1.4071424946e+01	 1.8167789437e-02
-3.3941125497e+00	 1.4707821049e+01	 1.9884184161e-02
-4.0305086528e+00	 1.5344217152e+01	 1.3190475805e-02
-4.6669047558e+00	 1.5980613255e+01	 1.5376225483e-03
-5.3033008589e+00	 1.6617009358e+01	-1.2373416704e-02
-5.9396969620e+00	 1.7253405461e+01	-2.5673101734e-02
-6.5760930650e+00	 1.7889801564e+01	-2.5484685005e-02
-7.2124891681e+00	 1.8526197667e+01	-1.8995443928e-02
-7.8488852711e+00	 1.9162593770e+01	-6.3453433028e-03
-8.4852813742e+00	 1.9798989873e+01	 1.2325663168e-02
-1.9798989873e+00	 1.3576450199e+01	 1.2119426699e-02
-2.6162950904e+00	 1.4212846302e+01	 2.2032772791e-02
-3.2526911934e+00	 1.4849242405e+01	 2.5286867962e-02
-3.8890872965e+00	 1.5485638508e+01	 1.8800028275e-02
-4.5254833996e+00	 1.6122034611e+01	 7.0141549120e-03
-5.1618795027e+00	 1.6758430714e+01	-7.3697932240e-03
-5.7982756057e+00	 1.7394826817e+01	-1.9486339548e-02
-6.4346717088e+00	 1.8031222920e+01	-2.0401274549e-02
-7.0710678119e+00	 1.8667619023e+01	-1.5423965770e-02
-7.7074639149e+00	 1.9304015126e+01	-4.6943779796e-03
-8.3438600180e+00	 1.9940411229e+01	 1.1647535151e-02
-1.8384776311e+00	 1.3717871555e+01	 1.4004384064e-02
-2.4748737341e+00	 1.4354267658e+01	 2.5093947892e-02
-3.1112698372e+00	 1.4990663761e+01	 3.0329722286e-02
-3.7476659403e+00	 1.5627059864e+01	 2.4136730089e-02
-4.3840620433e+00	 1.6263455967e+01	 1.2304815438e-02
-5.0204581464e+00	 1.6899852070e+01	-2.4650627629e-03
-5.6568542495e+00	 1.7536248173e+01	-1.3438474662e-02
-6.2932503526e+00	 1.8172644276e+01	-1.5323017745e-02
-6.9296464556e+00	 1.8809040380e+01	-1.1723897793e-02
-7.5660425587e+00	 1.9445436483e+01	-2.7810795462e-03
-8.2024386618e+00	 2.0081832586e+01	 1.1365483358e-02
-1.6970562748e+00	 1.3859292911e+01	 1.4930288921e-02
-2.3334523779e+00	 1.4495689014e+01	 2.7341514026e-02
-2.9698484810e+00	 1.5132085117e+01	 3.5001148138e-02
-3.6062445840e+00	 1.5768481220e+01	 2.9188982249e-02
-4.2426406871e+00	 1.6404877324e+01	 1.7398005129e-02
-4.8790367902e+00	 1.7041273427e+01	 2.3291756832e-03
-5.5154328933e+00	 1.7677669530e+01	-7.5309291676e-03
-6.1518289963e+00	 1.8314065633e+01	-1.0251336686e-02
-6.7882250994e+00	 1.8950461736e+01	-7.8966620936e-03
-7.4246212025e+00	 1.9586857839e+01	-6.0687009870e-04
-8.0610173055e+00	 2.0223253942e+01	 1.1478085691e-02
-1.5556349186e+00	 1.4000714268e+01	 1.4887340558e-02
-2.1920310217e+00	 1.4637110371e+01	 2.8765670481e-02
-2.8284271247e+00	 1.5273506474e+01	 3.7874170491e-02
-3.4648232278e+00	 1.5909902577e+01	 3.3945185760e-02
-4.1012193309e+00	 1.6546298680e+01	 2.2282124991e-02
-4.7376154339e+00	 1.7182694783e+01	 7.0013231184e-03
-5.3740115370e+00	 1.7819090886e+01	-1.7651251311e-03
-6.0104076401e+00	 1.8455486989e+01	-5.1876534397e-03
-6.6468037432e+00	 1.9091883092e+01	-3.9436807391e-03
-7.2831998462e+00	 1.9728279195e+01	 1.8268282924e-03
-7.9195959493e+00	 2.0364675298e+01	 1.1983920078e-02
-1.4142135624e+00	 1.4142135624e+01	 1.3865738260e-02
-2.0506096654e+00	 1.4778531727e+01	 2.9356616543e-02
-2.6870057685e+00	 1.5414927830e+01	 3.9725637728e-02
-3.3234018716e+00	 1.6051323933e+01	 3.8393741625e-02
-3.9597979746e+00	 1.6687720036e+01	 2.6945576026e-02
-4.5961940777e+00	 1.7324116139e+01	 1.2246316341e-02
-5.2325901808e+00	 1.7960512242e+01	 3.8575154077e-03
-5.8689862839e+00	 1.8596908345e+01	-1.3339004702e-04
-6.5053823869e+00	 1.9233304448e+01	 1.3362422699e-04
-7.1417784900e+00	 1.9869700551e+01	 4.5185935825e-03
-7.7781745931e+00	 2.0506096654e+01	 1.2881564474e-02
-1.2727922061e+00	 1.4283556980e+01	 1.1855681315e-02
-1.9091883092e+00	 1.4919953083e+01	 2.9104551498e-02
-2.5455844123e+00	 1.5556349186e+01	 4.0879537398e-02
-3.1819805153e+00	 1.6192745289e+01	 4.2523050850e-02
-3.8183766184e+00	 1.6829141392e+01	 3.1376759239e-02
-4.4547727215e+00	 1.7465537495e+01	 1.7750423382e-02
-5.0911688245e+00	 1.8101933598e+01	 9.3355704346e-03
-5.7275649276e+00	 1.8738329701e+01	 4.9100314759e-03
-6.3639610307e+00	 1.9374725805e+01	 4.3338307872e-03
-7.0003571338e+00	 2.0011121908e+01	 7.4670037525e-03
-7.6367532368e+00	 2.0647518011e+01	 1.4169596857e-02
-1.1313708499e+00	 1.4424978336e+01	 8.8473690098e-03
-1.7677669529e+00	 1.5061374439e+01	 2.7999674634e-02
-2.4041630560e+00	 1.5697770542e+01	 4.1326068790e-02
-3.0405591591e+00	 1.6334166645e+01	 4.6321514437e-02
-3.6769552622e+00	 1.6970562749e+01	 3.5564075634e-02
-4.3133513652e+00	 1.7606958852e+01	 2.2974779104e-02
-4.9497474683e+00	 1.8243354955e+01	 1.4667617961e-02
-5.5861435714e+00	 1.8879751058e+01	 9.9411891387e-03
-6.2225396745e+00	 1.9516147161e+01	 8.6555169499e-03
-6.8589357775e+00	 2.0152543264e+01	 1.0670636809e-02
-7.4953318806e+00	 2.0788939367e+01	 1.5846595233e-02
-9.8994949363e-01	 1.4566399692e+01	 4.8310006301e-03
-1.6263455967e+00	 1.5202795796e+01	 2.6032185236e-02
-2.2627416998e+00	 1.5839191899e+01	 4.1055431190e-02
-2.8991378028e+00	 1.6475588002e+01	 4.9049965547e-02
-3.5355339059e+00	 1.7111984105e+01	 3.9495926214e-02
-4.1719300090e+00	 1.7748380208e+01	 2.7917961545e-02
-4.8083261121e+00	 1.8384776311e+01	 1.9852236023e-02
-5.4447222151e+00	 1.9021172414e+01	 1.4958660977e-02
-6.0811183182e+00	 1.9657568517e+01	 1.3097260749e-02
-6.7175144213e+00	 2.0293964620e+01	 1.4128070785e-02
-7.3539105244e+00	 2.0930360723e+01	 1.7911137633e-02
-8.4852813739e-01	 1.4707821049e+01	-2.0322453706e-04
-1.4849242405e+00	 1.5344217152e+01	 2.3192282592e-02
-2.1213203435e+00	 1.5980613255e+01	 4.0057823883e-02
-2.7577164466e+00	 1.6617009358e+01	 4.9542626394e-02
-3.3941125497e+00	 1.7253405461e+01	 4.3172650033e-02
-4.0305086528e+00	 1.7889801564e+01	 3.2578548769e-02
-4.6669047558e+00	 1.8526197667e+01	 2.4888002685e-02
-5.3033008589e+00	 1.9162593770e+01	 1.9961025052e-02
-5.9396969620e+00	 1.9798989873e+01	 1.7657640244e-02
-6.5760930651e+00	 2.0435385976e+01	 1.7837883738e-02
-7.2124891681e+00	 2.1071782079e+01	 2.0361802113e-02
-7.0710678115e-01	 1.4849242405e+01	-6.2651072052e-03
-1.3435028842e+00	 1.5485638508e+01	 1.9470165987e-02
-1.9798989873e+00	 1.6122034611e+01	 3.8323446158e-02
-2.6162950904e+00	 1.6758430714e+01	 4.9443960363e-02
-3.2526911934e+00	 1.7394826817e+01	 4.6631714646e-02
-3.8890872965e+00	 1.8031222920e+01	 3.6955118867e-02
-4.5254833996e+00	 1.8667619023e+01	 2.9773496035e-02
-5.1618795027e+00	 1.9304015126e+01	 2.4946859451e-02
-5.7982756057e+00	 1.9940411229e+01	 2.2335233520e-02
-6.4346717088e+00	 2.0576807333e+01	 2.1798653752e-02
-7.0710678119e+00	 2.1213203436e+01	 2.3197166756e-02
 5.6568542495e+00	 8.4852813742e+00	 6.6580513411e-02
 5.0204581464e+00	 9.1216774773e+00	 6.2385936897e-02
 4.3840620434e+00	 9.7580735804e+00	 6.4480075185e-02
 3.7476659403e+00	 1.0394469683e+01	 7.4704720810e-02
 3.1112698373e+00	 1.1030865787e+01	 1.0379510837e-01
 2.4748737342e+00	 1.1667261890e+01	 9.5233408840e-02
 1.8384776311e+00	 1.2303657993e+01	 7.4373301428e-02
 1.2020815281e+00	 1.2940054096e+01	 5.5063415214e-02
 5.6568542499e-01	 1.3576450199e+01	 3.6452977254e-02
-7.0710678080e-02	 1.4212846302e+01	 1.7691214604e-02
-7.0710678115e-01	 1.4849242405e+01	-2.0726456800e-03
 5.7982756057e+00	 8.6267027304e+00	 7.6483681976e-02
 5.1618795027e+00	 9.2630988335e+00	 7.2102753104e-02
 4.5254833996e+00	 9.8994949366e+00	 7.3657346485e-02
 3.8890872965e+00	 1.0535891040e+01	 8.6136922631e-02
 3.2526911935e+00	 1.1172287143e+01	 1.1271530084e-01
 2.6162950904e+00	 1.1808683246e+01	 1.1353971240e-01
 1.9798989873e+00	 1.2445079349e+01	 8.9769583552e-02
 1.3435028843e+00	 1.3081475452e+01	 6.7313709336e-02
 7.0710678122e-01	 1.3717871555e+01	 4.5321316808e-02
 7.0710678148e-02	 1.4354267658e+01	 2.2941633024e-02
-5.6568542492e-01	 1.4990663761e+01	-6.7611495912e-04
 5.9396969620e+00	 8.7681240867e+00	 8.1476443952e-02
 5.3033008589e+00	 9.4045201898e+00	 7.7463132733e-02
 4.6669047558e+00	 1.0040916293e+01	 7.9032150335e-02
 4.0305086528e+00	 1.0677312396e+01	 9.3982425956e-02
 3.3941125497e+00	 1.1313708499e+01	 1.1862676799e-01
 2.7577164466e+00	 1.1950104602e+01	 1.2926433569e-01
 2.1213203436e+00	 1.2586500705e+01	 1.0316275374e-01
 1.4849242405e+00	 1.3222896808e+01	 7.8139459852e-02
 8.4852813744e-01	 1.3859292911e+01	 5.3343681088e-02
 2.1213203438e-01	 1.4495689014e+01	 2.7924644503e-02
-4.2426406869e-01	 1.5132085117e+01	 1.0315771525e-03
 6.0811183182e+00	 8.9095454429e+00	 8.1566370237e-02
 5.4447222152e+00	 9.5459415460e+00	 7.8474646688e-02
 4.8083261121e+00	 1.0182337649e+01	 8.0612057650e-02
 4.1719300090e+00	 1.0818733752e+01	 9.8251424467e-02
 3.5355339059e+00	 1.1455129855e+01	 1.2153970348e-01
 2.8991378029e+00	 1.2091525958e+01	 1.4239747800e-01
 2.2627416998e+00	 1.2727922061e+01	 1.1454301127e-01
 1.6263455967e+00	 1.3364318164e+01	 8.7530866047e-02
 9.8994949367e-01	 1.4000714268e+01	 6.0510269380e-02
 3.5355339061e-01	 1.4637110371e+01	 3.2630448326e-02
-2.8284271246e-01	 1.5273506474e+01	 3.0406299415e-03
 6.2225396745e+00	 9.0509667992e+00	 7.6761031865e-02
 5.5861435714e+00	 9.6873629022e+00	 7.5144866010e-02
 4.9497474683e+00	 1.0323759005e+01	 7.8404639473e-02
 4.3133513652e+00	 1.0960155108e+01	 9.8954111846e-02
 3.6769552622e+00	 1.1596551211e+01	 1.2146430101e-01
 3.0405591591e+00	 1.2232947315e+01	 1.4466769791e-01
 2.4041630560e+00	 1.2869343418e+01	 1.2390055544e-01
 1.7677669530e+00	 1.3505739521e+01	 9.5478127210e-02
 1.1313708499e+00	 1.4142135624e+01	 6.6811280972e-02
 4.9497474684e-01	 1.4778531727e+01	 3.7049243781e-02
-1.4142135623e-01	 1.5414927830e+01	 5.3412426943e-03
 6.3639610307e+00	 9.1923881554e+00	 6.7068000000e-02
 5.7275649276e+00	 9.8287842585e+00	 6.7481361871e-02
 5.0911688246e+00	 1.0465180362e+01	 7.4927504888e-02
 4.4547727215e+00	 1.1101576465e+01	 9.6100681776e-02
 3.8183766184e+00	 1.1737972568e+01	 1.1841075425e-01
 3.1819805153e+00	 1.2374368671e+01	 1.4104310573e-01
 2.5455844123e+00	 1.3010764774e+01	 1.3122558553e-01
 1.9091883092e+00	 1.3647160877e+01	 1.0197144263e-01
 1.2727922061e+00	 1.4283556980e+01	 7.2236915150e-02
 6.3639610307e-01	 1.4919953083e+01	 4.1171230155e-02
 5.5511151231e-17	 1.5556349186e+01	 7.9236146978e-03
 6.5053823869e+00	 9.3338095116e+00	 5.2494845943e-02
 5.8689862839e+00	 9.9702056147e+00	 5.5491705577e-02
 5.2325901808e+00	 1.0606601718e+01	 6.7779365834e-02
 4.5961940777e+00	 1.1242997821e+01	 8.9701327938e-02
 3.9597979746e+00	 1.1879393924e+01	 1.1238925690e-01
 3.3234018716e+00	 1.2515790027e+01	 1.3502853612e-01
 2.6870057685e+00	 1.3152186130e+01	 1.3650830083e-01
 2.0506096654e+00	 1.3788582233e+01	 1.0700101158e-01
 1.4142135624e+00	 1.4424978336e+01	 7.6777371200e-02
 7.7781745930e-01	 1.5061374439e+01	 4.4986606733e-02
 1.4142135623e-01	 1.5697770542e+01	 1.0777945238e-02
 6.6468037432e+00	 9.4752308679e+00	 3.3049141127e-02
 6.0104076401e+00	 1.0111626971e+01	 3.9183468569e-02
 5.3740115370e+00	 1.0748023074e+01	 5.6517523530e-02
 4.7376154340e+00	 1.1384419177e+01	 7.9766244015e-02
 4.1012193309e+00	 1.2020815280e+01	 1.0341000262e-01
 3.4648232278e+00	 1.2657211383e+01	 1.2663418276e-01
 2.8284271247e+00	 1.3293607486e+01	 1.3973890062e-01
 2.1920310217e+00	 1.3930003589e+01	 1.1055703337e-01
 1.5556349186e+00	 1.4566399692e+01	 8.0422848409e-02
 9.1923881553e-01	 1.5202795796e+01	 4.8485572802e-02
 2.8284271246e-01	 1.5839191899e+01	 1.3894433603e-02
 6.7882250994e+00	 9.6166522241e+00	 8.7384571174e-03
 6.1518289963e+00	 1.0253048327e+01	 1.8564222419e-02
 5.5154328933e+00	 1.0889444430e+01	 4.1152171655e-02
 4.8790367902e+00	 1.1525840533e+01	 6.6305623687e-02
 4.2426406871e+00	 1.2162236636e+01	 9.1483185103e-02
 3.6062445840e+00	 1.2798632739e+01	 1.1587023932e-01
 2.9698484810e+00	 1.3435028843e+01	 1.3865216975e-01
 2.3334523779e+00	 1.4071424946e+01	 1.1262970726e-01
 1.6970562748e+00	 1.4707821049e+01	 8.3163546064e-02
 1.0606601718e+00	 1.5344217152e+01	 5.1658327650e-02
 4.2426406869e-01	 1.5980613255e+01	 1.7263279077e-02
 6.9296464557e+00	 9.7580735804e+00	-2.0429634385e-02
 6.2932503526e+00	 1.0394469683e+01	-5.4748556176e-03
 5.6568542495e+00	 1.1030865787e+01	 2.1693503894e-02
 5.0204581464e+00	 1.1667261890e+01	 4.9329660638e-02
 4.3840620434e+00	 1.2303657993e+01	 7.6618998032e-02
 3.7476659403e+00	 1.2940054096e+01	 1.0274689949e-01
 3.1112698372e+00	 1.3576450199e+01	 1.2689874843e-01
 2.4748737341e+00	 1.4212846302e+01	 1.1320923256e-01
 1.8384776311e+00	 1.4849242405e+01	 8.4989663452e-02
 1.2020815280e+00	 1.5485638508e+01	 5.4495070562e-02
 5.6568542492e-01	 1.6122034611e+01	 2.0874680949e-02
 7.0710678119e+00	 9.8994949366e+00	-5.4447561545e-02
 6.4346717088e+00	 1.0535891040e+01	-3.2448252198e-02
 5.7982756057e+00	 1.1172287143e+01	-1.8482860734e-03
 5.1618795027e+00	 1.1808683246e+01	 2.8848548550e-02
 4.5254833996e+00	 1.2445079349e+01	 5.8827635088e-02
 3.8890872965e+00	 1.3081475452e+01	 8.7274356956e-02
 3.2526911934e+00	 1.3717871555e+01	 1.1337409757e-01
 2.6162950904e+00	 1.4354267658e+01	 1.1228580854e-01
 1.9798989873e+00	 1.4990663761e+01	 8.5891399858e-02
 1.3435028842e+00	 1.5627059864e+01	 5.6986000826e-02
 7.0710678115e-01	 1.6263455967e+01	 2.4718838504e-02
-7.0710678115e-01	 1.4849242405e+01	-2.0726456800e-03
-1.3435028842e+00	 1.5485638508e+01	 2.1908684820e-02
-1.9798989873e+00	 1.6122034611e+01	 3.9304621530e-02
-2.6162950904e+00	 1.6758430714e+01	 4.9264391505e-02
-3.2526911934e+00	 1.7394826817e+01	 4.5588000790e-02
-3.8890872965e+00	 1.8031222920e+01	 3.5343859243e-02
-4.5254833996e+00	 1.8667619023e+01	 2.7891289874e-02
-5.1618795027e+00	 1.9304015126e+01	 2.3090305984e-02
-5.7982756057e+00	 1.9940411229e+01	 2.0800931978e-02
-6.4346717088e+00	 2.0576807333e+01	 2.0883203366e-02
-7.0710678119e+00	 2.1213203436e+01	 2.3197166756e-02
-5.6568542492e-01	 1.4990663761e+01	-6.7611495912e-04
-1.2020815280e+00	 1.5627059864e+01	 2.2875880307e-02
-1.8384776311e+00	 1.6263455967e+01	 3.9931257701e-02
-2.4748737341e+00	 1.6899852070e+01	 4.9639244279e-02
-3.1112698372e+00	 1.7536248173e+01	 4.8110393266e-02
-3.7476659403e+00	 1.8172644277e+01	 3.7766168769e-02
-4.3840620434e+00	 1.8809040380e+01	 3.0245737139e-02
-5.0204581464e+00	 1.9445436483e+01	 2.5409111711e-02
-5.6568542495e+00	 2.0081832586e+01	 2.3116316921e-02
-6.2932503526e+00	 2.0718228689e+01	 2.3227388309e-02
-6.9296464557e+00	 2.1354624792e+01	 2.5602372515e-02
-4.2426406869e-01	 1.5132085117e+01	 1.0315771525e-03
-1.0606601718e+00	 1.5768481220e+01	 2.4082634872e-02
-1.6970562748e+00	 1.6404877324e+01	 4.0725850637e-02
-2.3334523779e+00	 1.7041273427e+01	 5.0110451504e-02
-2.9698484810e+00	 1.7677669530e+01	 5.0702417787e-02
-3.6062445840e+00	 1.8314065633e+01	 4.0174808474e-02
-4.2426406871e+00	 1.8950461736e+01	 3.2503212542e-02
-4.8790367902e+00	 1.9586857839e+01	 2.7547643355e-02
-5.5154328933e+00	 2.0223253942e+01	 2.5168125381e-02
-6.1518289963e+00	 2.0859650045e+01	 2.5224694191e-02
-6.7882250994e+00	 2.1496046148e+01	 2.7577396458e-02
-2.8284271246e-01	 1.5273506474e+01	 3.0406299415e-03
-9.1923881553e-01	 1.5909902577e+01	 2.5519147801e-02
-1.5556349186e+00	 1.6546298680e+01	 4.1678599624e-02
-2.1920310217e+00	 1.7182694783e+01	 5.0668212467e-02
-2.8284271247e+00	 1.7819090886e+01	 5.1181625249e-02
-3.4648232278e+00	 1.8455486989e+01	 4.2568356526e-02
-4.1012193309e+00	 1.9091883092e+01	 3.4662294246e-02
-4.7376154340e+00	 1.9728279195e+01	 2.9504479078e-02
-5.3740115370e+00	 2.0364675298e+01	 2.6954935520e-02
-6.0104076401e+00	 2.1001071401e+01	 2.6873699174e-02
-6.6468037432e+00	 2.1637467504e+01	 2.9120816744e-02
-1.4142135623e-01	 1.5414927830e+01	 5.3412426943e-03
-7.7781745930e-01	 1.6051323933e+01	 2.7175618381e-02
-1.4142135624e+00	 1.6687720036e+01	 4.2779703949e-02
-2.0506096654e+00	 1.7324116139e+01	 5.0656803576e-02
-2.6870057685e+00	 1.7960512242e+01	 5.1022737975e-02
-3.3234018716e+00	 1.8596908345e+01	 4.4945391118e-02
-3.9597979746e+00	 1.9233304448e+01	 3.6721560445e-02
-4.5961940777e+00	 1.9869700551e+01	 3.1278197071e-02
-5.2325901808e+00	 2.0506096654e+01	 2.8475325526e-02
-5.8689862839e+00	 2.1142492757e+01	 2.8172981444e-02
-6.5053823869e+00	 2.1778888861e+01	 3.0231211560e-02
 5.5511151231e-17	 1.5556349186e+01	 7.9236146978e-03
-6.3639610307e-01	 1.6192745289e+01	 2.9042245898e-02
-1.2727922061e+00	 1.6829141392e+01	 4.4019362899e-02
-1.9091883092e+00	 1.7465537495e+01	 5.0200718088e-02
-2.5455844123e+00	 1.8101933598e+01	 5.0778895401e-02
-3.1819805153e+00	 1.8738329701e+01	 4.7304490468e-02
-3.8183766184e+00	 1.9374725805e+01	 3.8679589354e-02
-4.4547727215e+00	 2.0011121908e+01	 3.2867375549e-02
-5.0911688246e+00	 2.0647518011e+01	 2.9727873614e-02
-5.7275649276e+00	 2.1283914114e+01	 2.9121119214e-02
-6.3639610307e+00	 2.1920310217e+01	 3.0907159114e-02
 1.4142135623e-01	 1.5697770542e+01	 1.0777945238e-02
-4.9497474684e-01	 1.6334166645e+01	 3.1109229640e-02
-1.1313708499e+00	 1.6970562748e+01	 4.5387775760e-02
-1.7677669530e+00	 1.7606958852e+01	 4.9759334079e-02
-2.4041630560e+00	 1.8243354955e+01	 5.0459698129e-02
-3.0405591591e+00	 1.8879751058e+01	 4.9644232820e-02
-3.6769552622e+00	 1.9516147161e+01	 4.0534959217e-02
-4.3133513652e+00	 2.0152543264e+01	 3.4270592753e-02
-4.9497474683e+00	 2.0788939367e+01	 3.0711158022e-02
-5.5861435714e+00	 2.1425335470e+01	 2.9716690721e-02
-6.2225396745e+00	 2.2061731573e+01	 3.1147237645e-02
 2.8284271246e-01	 1.5839191899e+01	 1.3894433603e-02
-3.5355339061e-01	 1.6475588002e+01	 3.3366768892e-02
-9.8994949367e-01	 1.7111984105e+01	 4.6875141819e-02
-1.6263455967e+00	 1.7748380208e+01	 4.9342252088e-02
-2.2627416998e+00	 1.8384776311e+01	 5.0074746610e-02
-2.8991378029e+00	 1.9021172414e+01	 5.1147842259e-02
-3.5355339059e+00	 1.9657568517e+01	 4.2286248301e-02
-4.1719300090e+00	 2.0293964620e+01	 3.5486426950e-02
-4.8083261121e+00	 2.0930360723e+01	 3.1423757017e-02
-5.4447222152e+00	 2.1566756826e+01	 2.9958274229e-02
-6.0811183182e+00	 2.2203152929e+01	 3.0950025413e-02
 4.2426406869e-01	 1.5980613255e+01	 1.7263279077e-02
-2.1213203438e-01	 1.6617009358e+01	 3.5805062942e-02
-8.4852813744e-01	 1.7253405461e+01	 4.8312612024e-02
-1.4849242405e+00	 1.7889801564e+01	 4.8959072502e-02
-2.1213203436e+00	 1.8526197667e+01	 4.9633641144e-02
-2.7577164466e+00	 1.9162593770e+01	 5.0606631622e-02
-3.3941125497e+00	 1.9798989873e+01	 4.3932034901e-02
-4.0305086528e+00	 2.0435385976e+01	 3.6513456433e-02
-4.6669047558e+00	 2.1071782079e+01	 3.1864248889e-02
-5.3033008589e+00	 2.1708178182e+01	 2.9844448028e-02
-5.9396969620e+00	 2.2344574286e+01	 3.0314100707e-02
 5.6568542492e-01	 1.6122034611e+01	 2.0874680949e-02
-7.0710678148e-02	 1.6758430714e+01	 3.8414311076e-02
-7.0710678122e-01	 1.7394826817e+01	 4.8078737074e-02
-1.3435028843e+00	 1.8031222920e+01	 4.8619395558e-02
-1.9798989873e+00	 1.8667619023e+01	 4.9145981876e-02
-2.6162950904e+00	 1.9304015126e+01	 4.9928811499e-02
-3.2526911935e+00	 1.9940411229e+01	 4.5470897337e-02
-3.8890872965e+00	 2.0576807333e+01	 3.7350259519e-02
-4.5254833996e+00	 2.1213203436e+01	 3.2031211955e-02
-5.1618795027e+00	 2.1849599539e+01	 2.9373790432e-02
-5.7982756057e+00	 2.2485995642e+01	 2.9238041841e-02
 7.0710678115e-01	 1.6263455967e+01	 2.4718838504e-02
 7.0710678080e-02	 1.6899852070e+01	 4.1184712580e-02
-5.6568542499e-01	 1.7536248173e+01	 4.7988022137e-02
-1.2020815281e+00	 1.8172644276e+01	 4.8332821340e-02
-1.8384776311e+00	 1.8809040380e+01	 4.8621368804e-02
-2.4748737342e+00	 1.9445436483e+01	 4.9123981797e-02
-3.1112698373e+00	 2.0081832586e+01	 4.6901413954e-02
-3.7476659403e+00	 2.0718228689e+01	 3.7995414554e-02
-4.3840620434e+00	 2.1354624792e+01	 3.1923224556e-02
-5.0204581464e+00	 2.1991020895e+01	 2.8544879783e-02
-5.6568542495e+00	 2.2627416998e+01	 2.7720427154e-02
 7.0710678119e+00	 9.8994949366e+00	-1.8464061335e-02
 6.4346717088e+00	 1.0535891040e+01	-1.1117936969e-02
 5.7982756057e+00	 1.1172287143e+01	 6.8129677081e-03
 5.1618795027e+00	 1.1808683246e+01	 2.6824864417e-02
 4.5254833996e+00	 1.2445079349e+01	 4.8103136574e-02
 3.8890872965e+00	 1.3081475452e+01	 6.9833167594e-02
 3.2526911934e+00	 1.3717871555e+01	 9.1200340893e-02
 2.6162950904e+00	 1.4354267658e+01	 8.7363608088e-02
 1.9798989873e+00	 1.4990663761e+01	 6.0204879153e-02
 1.3435028842e+00	 1.5627059864e+01	 3.2519283407e-02
 7.0710678115e-01	 1.6263455967e+01	 3.4560479043e-03
 7.3539105244e+00	 1.0182337649e+01	-2.8057637298e-02
 6.7175144213e+00	 1.0818733752e+01	-1.6159574683e-02
 6.0811183182e+00	 1.1455129855e+01	 1.1679967615e-03
 5.4447222151e+00	 1.2091525958e+01	 2.0748067310e-02
 4.8083261121e+00	 1.2727922061e+01	 4.1766020378e-02
 4.1719300090e+00	 1.3364318164e+01	 6.3407239382e-02
 3.5355339059e+00	 1.4000714268e+01	 8.4857107736e-02
 2.8991378028e+00	 1.4637110371e+01	 1.0231404847e-01
 2.2627416998e+00	 1.5273506474e+01	 7.6821066671e-02
 1.6263455967e+00	 1.5909902577e+01	 5.1242649467e-02
 9.8994949363e-01	 1.6546298680e+01	 2.4728023916e-02
 7.6367532368e+00	 1.0465180362e+01	-3.4401163624e-02
 7.0003571338e+00	 1.1101576465e+01	-2.1101525307e-02
 6.3639610307e+00	 1.1737972568e+01	-4.5632642305e-03
 5.7275649276e+00	 1.2374368671e+01	 1.4399003023e-02
 5.0911688245e+00	 1.3010764774e+01	 3.4970659867e-02
 4.4547727215e+00	 1.3647160877e+01	 5.6337089719e-02
 3.8183766184e+00	 1.4283556980e+01	 7.7683675994e-02
 3.1819805153e+00	 1.4919953083e+01	 9.8195802108e-02
 2.5455844122e+00	 1.5556349186e+01	 9.0758777506e-02
 1.9091883092e+00	 1.6192745289e+01	 6.7103942374e-02
 1.2727922061e+00	 1.6829141392e+01	 4.2954330306e-02
 7.9195959493e+00	 1.0748023074e+01	-3.8015083128e-02
 7.2831998462e+00	 1.1384419177e+01	-2.5862239386e-02
 6.6468037431e+00	 1.2020815280e+01	-1.0299265812e-02
 6.0104076401e+00	 1.2657211383e+01	 7.8592210109e-03
 5.3740115370e+00	 1.3293607486e+01	 2.7798604497e-02
 4.7376154339e+00	 1.3930003589e+01	 4.8704268063e-02
 4.1012193309e+00	 1.4566399692e+01	 6.9761595123e-02
 3.4648232278e+00	 1.5202795796e+01	 9.0155969094e-02
 2.8284271247e+00	 1.5839191899e+01	 1.0193960595e-01
 2.1920310217e+00	 1.6475588002e+01	 8.0024756421e-02
 1.5556349186e+00	 1.7111984105e+01	 5.8056561366e-02
 8.2024386618e+00	 1.1030865787e+01	-4.1180239496e-02
 7.5660425587e+00	 1.1667261890e+01	-3.0360167463e-02
 6.9296464556e+00	 1.2303657993e+01	-1.5958458526e-02
 6.2932503525e+00	 1.2940054096e+01	 1.2102707313e-03
 5.6568542495e+00	 1.3576450199e+01	 2.0331403724e-02
 5.0204581464e+00	 1.4212846302e+01	 4.0590323868e-02
 4.3840620433e+00	 1.4849242405e+01	 6.1172414579e-02
 3.7476659403e+00	 1.5485638508e+01	 8.1263059272e-02
 3.1112698372e+00	 1.6122034611e+01	 1.0004764136e-01
 2.4748737341e+00	 1.6758430714e+01	 8.9926685901e-02
 1.8384776311e+00	 1.7394826817e+01	 6.7514964699e-02
 8.4852813742e+00	 1.1313708499e+01	-4.3815083270e-02
 7.8488852712e+00	 1.1950104602e+01	-3.4513760082e-02
 7.2124891681e+00	 1.2586500705e+01	-2.1459292917e-02
 6.5760930650e+00	 1.3222896808e+01	-5.4662983602e-03
 5.9396969620e+00	 1.3859292911e+01	 1.2650607004e-02
 5.3033008589e+00	 1.4495689014e+01	 3.2076806592e-02
 4.6669047558e+00	 1.5132085117e+01	 5.1997683818e-02
 4.0305086527e+00	 1.5768481220e+01	 7.1598622098e-02
 3.3941125497e+00	 1.6404877324e+01	 9.0065004848e-02
 2.7577164466e+00	 1.7041273427e+01	 9.6731325107e-02
 2.1213203435e+00	 1.7677669530e+01	 7.2454378738e-02
 8.7681240867e+00	 1.1596551211e+01	-4.5838064995e-02
 8.1317279836e+00	 1.2232947315e+01	-3.8241467786e-02
 7.4953318806e+00	 1.2869343418e+01	-2.6720219529e-02
 6.8589357775e+00	 1.3505739521e+01	-1.2088936807e-02
 6.2225396744e+00	 1.4142135624e+01	 4.8377637937e-03
 5.5861435714e+00	 1.4778531727e+01	 2.3245265690e-02
 4.9497474683e+00	 1.5414927830e+01	 4.2318952296e-02
 4.3133513652e+00	 1.6051323933e+01	 6.1244207029e-02
 3.6769552622e+00	 1.6687720036e+01	 7.9206413303e-02
 3.0405591591e+00	 1.7324116139e+01	 9.4302721999e-02
 2.4041630560e+00	 1.7960512242e+01	 7.5250191697e-02
 9.0509667992e+00	 1.1879393924e+01	-2.7418827987e-02
 8.4145706961e+00	 1.2515790027e+01	-4.1461741120e-02
 7.7781745930e+00	 1.3152186130e+01	-3.1659688904e-02
 7.1417784900e+00	 1.3788582233e+01	-1.8576095153e-02
 6.5053823869e+00	 1.4424978336e+01	-3.0255764511e-03
 5.8689862838e+00	 1.5061374439e+01	 1.4177250618e-02
 5.2325901808e+00	 1.5697770542e+01	 3.2217769470e-02
 4.5961940777e+00	 1.6334166645e+01	 5.0281363520e-02
 3.9597979746e+00	 1.6970562748e+01	 6.7553416183e-02
 3.3234018716e+00	 1.7606958852e+01	 7.9233616084e-02
 2.6870057685e+00	 1.8243354955e+01	 7.5979191225e-02
 9.3338095116e+00	 1.2162236636e+01	-5.5257815667e-03
 8.6974134086e+00	 1.2798632739e+01	-4.4093030626e-02
 8.0610173055e+00	 1.3435028843e+01	-3.6196151589e-02
 7.4246212024e+00	 1.4071424946e+01	-2.4846223943e-02
 6.7882250994e+00	 1.4707821049e+01	-1.0857864274e-02
 6.1518289963e+00	 1.5344217152e+01	 4.9543108336e-03
 5.5154328932e+00	 1.5980613255e+01	 2.1775684795e-02
 4.8790367902e+00	 1.6617009358e+01	 3.8791641027e-02
 4.2426406871e+00	 1.7253405461e+01	 5.5074963806e-02
 3.6062445840e+00	 1.7889801564e+01	 6.4459396076e-02
 2.9698484810e+00	 1.8526197667e+01	 7.3562385152e-02
 9.6166522241e+00	 1.2445079349e+01	 1.4906892569e-02
 8.9802561211e+00	 1.3081475452e+01	-3.4327352071e-02
 8.3438600180e+00	 1.3717871555e+01	-4.0248058125e-02
 7.7074639149e+00	 1.4354267658e+01	-3.0817773719e-02
 7.0710678118e+00	 1.4990663761e+01	-1.8577550219e-02
 6.4346717088e+00	 1.5627059864e+01	-4.3420042080e-03
 5.7982756057e+00	 1.6263455967e+01	 1.1074247729e-02
 5.1618795026e+00	 1.6899852070e+01	 2.6856589008e-02
 4.5254833996e+00	 1.7536248173e+01	 3.9867605777e-02
 3.8890872965e+00	 1.8172644276e+01	 4.9909479555e-02
 3.2526911934e+00	 1.8809040380e+01	 6.0098123554e-02
 9.8994949366e+00	 1.2727922061e+01	 3.4020313339e-02
 9.2630988335e+00	 1.3364318164e+01	-1.6088099279e-02
 8.6267027305e+00	 1.4000714267e+01	-4.3733859056e-02
 7.9903066274e+00	 1.4637110371e+01	-3.6409195026e-02
 7.3539105243e+00	 1.5273506474e+01	-2.6103084830e-02
 6.7175144213e+00	 1.5909902577e+01	-1.3630145050e-02
 6.0811183182e+00	 1.6546298680e+01	 1.9500772668e-04
 5.4447222151e+00	 1.7182694783e+01	 1.4557756917e-02
 4.8083261121e+00	 1.7819090886e+01	 2.5069483803e-02
 4.1719300090e+00	 1.8455486989e+01	 3.5513286075e-02
 3.5355339059e+00	 1.9091883092e+01	 4.6532070496e-02
 7.0710678115e-01	 1.6263455967e+01	 3.4560479043e-03
 7.0710678080e-02	 1.6899852070e+01	 2.3910939615e-02
-5.6568542499e-01	 1.7536248173e+01	 3.4289324901e-02
-1.2020815281e+00	 1.8172644276e+01	 3.7795257927e-02
-1.8384776311e+00	 1.8809040380e+01	 4.0830997308e-02
-2.4748737342e+00	 1.9445436483e+01	 4.3666860314e-02
-3.1112698373e+00	 2.0081832586e+01	 4.3363600578e-02
-3.7476659403e+00	 2.0718228689e+01	 3.5962967379e-02
-4.3840620434e+00	 2.1354624792e+01	 3.0982201678e-02
-5.0204581464e+00	 2.1991020895e+01	 2.8281339296e-02
-5.6568542495e+00	 2.2627416998e+01	 2.7720427153e-02
 9.8994949363e-01	 1.6546298680e+01	 2.4728023916e-02
 3.5355339056e-01	 1.7182694783e+01	 4.1544411579e-02
-2.8284271251e-01	 1.7819090886e+01	 4.5002590994e-02
-9.1923881558e-01	 1.8455486989e+01	 4.6679626829e-02
-1.5556349186e+00	 1.9091883092e+01	 4.7856701441e-02
-2.1920310217e+00	 1.9728279195e+01	 4.8804135696e-02
-2.8284271248e+00	 2.0364675298e+01	 4.9792220668e-02
-3.4648232278e+00	 2.1001071401e+01	 4.1810323723e-02
-4.1012193309e+00	 2.1637467504e+01	 3.4179306001e-02
-4.7376154340e+00	 2.2273863607e+01	 2.8947218725e-02
-5.3740115370e+00	 2.2910259710e+01	 2.5974108878e-02
 1.2727922061e+00	 1.6829141392e+01	 4.2954330306e-02
 6.3639610304e-01	 1.7465537495e+01	 5.2827712927e-02
-2.8721417822e-11	 1.8101933598e+01	 5.3686791122e-02
-6.3639610310e-01	 1.8738329701e+01	 5.3745789290e-02
-1.2727922062e+00	 1.9374725805e+01	 5.3275061685e-02
-1.9091883092e+00	 2.0011121908e+01	 5.2544932769e-02
-2.5455844123e+00	 2.0647518011e+01	 5.1825697210e-02
-3.1819805154e+00	 2.1283914114e+01	 4.7012573022e-02
-3.8183766184e+00	 2.1920310217e+01	 3.6969183356e-02
-4.4547727215e+00	 2.2556706320e+01	 2.9443750551e-02
-5.0911688245e+00	 2.3193102423e+01	 2.4296321652e-02
 1.5556349186e+00	 1.7111984105e+01	 5.8056561366e-02
 9.1923881552e-01	 1.7748380208e+01	 6.0937056756e-02
 2.8284271245e-01	 1.8384776311e+01	 6.0418721216e-02
-3.5355339062e-01	 1.9021172414e+01	 5.9070540531e-02
-9.8994949368e-01	 1.9657568517e+01	 5.7162872551e-02
-1.6263455967e+00	 2.0293964620e+01	 5.4966045331e-02
-2.2627416998e+00	 2.0930360723e+01	 5.2750357135e-02
-2.8991378029e+00	 2.1566756826e+01	 5.0786076444e-02
-3.5355339059e+00	 2.2203152929e+01	 3.9340461407e-02
-4.1719300090e+00	 2.2839549032e+01	 2.9759562425e-02
-4.8083261121e+00	 2.3475945135e+01	 2.2675693114e-02
 1.8384776311e+00	 1.7394826817e+01	 6.7514964699e-02
 1.2020815280e+00	 1.8031222920e+01	 6.6960068979e-02
 5.6568542493e-01	 1.8667619023e+01	 6.5275174781e-02
-7.0710678138e-02	 1.9304015126e+01	 6.2730673348e-02
-7.0710678120e-01	 1.9940411229e+01	 5.9596926123e-02
-1.3435028843e+00	 2.0576807333e+01	 5.6144264758e-02
-1.9798989873e+00	 2.1213203436e+01	 5.2642991111e-02
-2.6162950904e+00	 2.1849599539e+01	 4.9363377256e-02
-3.2526911935e+00	 2.2485995642e+01	 4.1281768230e-02
-3.8890872965e+00	 2.3122391745e+01	 2.9883282409e-02
-4.5254833996e+00	 2.3758787848e+01	 2.1100851314e-02
 2.1213203435e+00	 1.7677669530e+01	 7.2454378738e-02
 1.4849242405e+00	 1.8314065633e+01	 7.0973541386e-02
 8.4852813741e-01	 1.8950461736e+01	 6.8332942898e-02
 2.1213203434e-01	 1.9586857839e+01	 6.4802978110e-02
-4.2426406873e-01	 2.0223253942e+01	 6.0654012063e-02
-1.0606601718e+00	 2.0859650045e+01	 5.6156380000e-02
-1.6970562749e+00	 2.1496046148e+01	 5.1580387376e-02
-2.3334523779e+00	 2.2132442251e+01	 4.7196309859e-02
-2.9698484810e+00	 2.2768838354e+01	 4.2781732309e-02
-3.6062445840e+00	 2.3405234457e+01	 2.9803538978e-02
-4.2426406871e+00	 2.4041630560e+01	 1.9560424713e-02
 2.4041630560e+00	 1.7960512242e+01	 7.5250191697e-02
 1.7677669530e+00	 1.8596908345e+01	 7.3054263342e-02
 1.1313708499e+00	 1.9233304448e+01	 6.9668814221e-02
 4.9497474682e-01	 1.9869700551e+01	 6.5364242765e-02
-1.4142135625e-01	 2.0506096654e+01	 6.0410917606e-02
-7.7781745931e-01	 2.1142492757e+01	 5.5079177583e-02
-1.4142135624e+00	 2.1778888861e+01	 4.9639331746e-02
-2.0506096654e+00	 2.2415284964e+01	 4.4361659358e-02
-2.6870057685e+00	 2.3051681067e+01	 3.9516409898e-02
-3.3234018716e+00	 2.3688077170e+01	 2.9508961016e-02
-3.9597979746e+00	 2.4324473273e+01	 2.0855154555e-02
 2.6870057685e+00	 1.8243354955e+01	 7.5979191225e-02
 2.0506096654e+00	 1.8879751058e+01	 7.3279021788e-02
 1.4142135624e+00	 1.9516147161e+01	 6.9359574982e-02
 7.7781745930e-01	 2.0152543264e+01	 6.4491252831e-02
 1.4142135623e-01	 2.0788939367e+01	 5.8944427562e-02
-4.9497474684e-01	 2.1425335470e+01	 5.2989441609e-02
-1.1313708499e+00	 2.2061731573e+01	 4.6896607614e-02
-1.7677669530e+00	 2.2698127676e+01	 4.0936208434e-02
-2.4041630560e+00	 2.3334523779e+01	 3.5378497144e-02
-3.0405591591e+00	 2.3970919882e+01	 2.8988177819e-02
-3.6769552622e+00	 2.4607315985e+01	 2.3908239243e-02
 2.9698484810e+00	 1.8526197667e+01	 7.3562385152e-02
 2.3334523779e+00	 1.9162593770e+01	 7.1724601241e-02
 1.6970562748e+00	 1.9798989873e+01	 6.7482008987e-02
 1.0606601718e+00	 2.0435385976e+01	 6.2260791407e-02
 4.2426406871e-01	 2.1071782079e+01	 5.6331324320e-02
-2.1213203436e-01	 2.1708178182e+01	 4.9963953754e-02
-8.4852813743e-01	 2.2344574285e+01	 4.3428995945e-02
-1.4849242405e+00	 2.2980970389e+01	 3.6996737344e-02
-2.1213203436e+00	 2.3617366492e+01	 3.0937434621e-02
-2.7577164466e+00	 2.4253762595e+01	 2.7521978439e-02
-3.3941125497e+00	 2.4890158698e+01	 2.7331721723e-02
 3.2526911934e+00	 1.8809040380e+01	 6.0098123554e-02
 2.6162950904e+00	 1.9445436483e+01	 6.8467783790e-02
 1.9798989873e+00	 2.0081832586e+01	 6.4112897619e-02
 1.3435028843e+00	 2.0718228689e+01	 5.8749639165e-02
 7.0710678118e-01	 2.1354624792e+01	 5.2648387842e-02
 7.0710678117e-02	 2.1991020895e+01	 4.6079493271e-02
-5.6568542495e-01	 2.2627416998e+01	 3.9313275283e-02
-1.2020815280e+00	 2.3263813101e+01	 3.2620023922e-02
-1.8384776311e+00	 2.3900209204e+01	 2.6269999452e-02
-2.4748737342e+00	 2.4536605307e+01	 2.7644361634e-02
-3.1112698372e+00	 2.5173001410e+01	 3.1130725945e-02
 3.5355339059e+00	 1.9091883092e+01	 4.6532070496e-02
 2.8991378029e+00	 1.9728279195e+01	 6.3585349105e-02
 2.2627416998e+00	 2.0364675298e+01	 5.9329019834e-02
 1.6263455967e+00	 2.1001071401e+01	 5.4034574351e-02
 9.8994949366e-01	 2.1637467504e+01	 4.7972395665e-02
 3.5355339059e-01	 2.2273863607e+01	 4.1412836989e-02
-2.8284271247e-01	 2.2910259710e+01	 3.4626221746e-02
-9.1923881554e-01	 2.3546655813e+01	 2.7882843576e-02
-1.5556349186e+00	 2.4183051917e+01	 2.2304575427e-02
-2.1920310217e+00	 2.4819448020e+01	 2.8094615582e-02
-2.8284271248e+00	 2.5455844123e+01	 3.3887385010e-02
 9.8994949366e+00	 1.2727922061e+01	 3.4020313339e-02
 9.2630988335e+00	 1.3364318164e+01	-1.6088099279e-02
 8.6267027305e+00	 1.4000714267e+01	-4.3733859056e-02
 7.9903066274e+00	 1.4637110371e+01	-3.6409195026e-02
 7.3539105243e+00	 1.5273506474e+01	-2.6103084830e-02
 6.7175144213e+00	 1.5909902577e+01	-1.3630145050e-02
 6.0811183182e+00	 1.6546298680e+01	 1.9500772668e-04
 5.4447222151e+00	 1.7182694783e+01	 1.4557756917e-02
 4.8083261121e+00	 1.7819090886e+01	 2.5069483803e-02
 4.1719300090e+00	 1.8455486989e+01	 3.5513286075e-02
 3.5355339059e+00	 1.9091883092e+01	 4.6532070496e-02
 1.0182337649e+01	 1.3010764774e+01	 2.5834881823e-02
 9.5459415460e+00	 1.3647160877e+01	-1.8390893962e-02
 8.9095454429e+00	 1.4283556980e+01	-5.4138084871e-02
 8.2731493399e+00	 1.4919953083e+01	-4.9172961002e-02
 7.6367532368e+00	 1.5556349186e+01	-3.6391632496e-02
 7.0003571337e+00	 1.6192745289e+01	-2.2055428309e-02
 6.3639610307e+00	 1.6829141392e+01	-6.9789650254e-03
 5.7275649276e+00	 1.7465537495e+01	 6.8280578477e-03
 5.0911688245e+00	 1.8101933598e+01	 1.8117929597e-02
 4.4547727215e+00	 1.8738329701e+01	 2.9386152457e-02
 3.8183766184e+00	 1.9374725804e+01	 4.0874106935e-02
 1.0465180362e+01	 1.3293607486e+01	 1.7520318018e-02
 9.8287842585e+00	 1.3930003589e+01	-2.0980365291e-02
 9.1923881554e+00	 1.4566399692e+01	-5.1714898675e-02
 8.5559920523e+00	 1.5202795796e+01	-6.0391581403e-02
 7.9195959493e+00	 1.5839191899e+01	-4.5289669899e-02
 7.2831998462e+00	 1.6475588002e+01	-2.9244836616e-02
 6.6468037431e+00	 1.7111984105e+01	-1.3071698138e-02
 6.0104076401e+00	 1.7748380208e+01	 3.4771192157e-04
 5.3740115370e+00	 1.8384776311e+01	 1.2593081326e-02
 4.7376154339e+00	 1.9021172414e+01	 2.4461556040e-02
 4.1012193309e+00	 1.9657568517e+01	 3.6194510355e-02
 1.0748023074e+01	 1.3576450199e+01	 9.2177313606e-03
 1.0111626971e+01	 1.4212846302e+01	-2.3715403155e-02
 9.4752308679e+00	 1.4849242405e+01	-4.9594818377e-02
 8.8388347648e+00	 1.5485638508e+01	-6.9191203940e-02
 8.2024386617e+00	 1.6122034611e+01	-5.2715647583e-02
 7.5660425587e+00	 1.6758430714e+01	-3.5116820515e-02
 6.9296464556e+00	 1.7394826817e+01	-1.8502554289e-02
 6.2932503525e+00	 1.8031222920e+01	-4.5523378051e-03
 5.6568542495e+00	 1.8667619023e+01	 8.4243632350e-03
 5.0204581464e+00	 1.9304015126e+01	 2.0668922298e-02
 4.3840620433e+00	 1.9940411229e+01	 3.2422707456e-02
 1.1030865787e+01	 1.3859292911e+01	 1.0682281265e-03
 1.0394469683e+01	 1.4495689014e+01	-2.6454900602e-02
 9.7580735804e+00	 1.5132085117e+01	-4.7636736347e-02
 9.1216774773e+00	 1.5768481220e+01	-6.3247972165e-02
 8.4852813742e+00	 1.6404877324e+01	-5.8588016092e-02
 7.8488852712e+00	 1.7041273427e+01	-3.9589830551e-02
 7.2124891681e+00	 1.7677669530e+01	-2.2755292229e-02
 6.5760930650e+00	 1.8314065633e+01	-7.9426663431e-03
 5.9396969620e+00	 1.8950461736e+01	 5.5412015421e-03
 5.3033008589e+00	 1.9586857839e+01	 1.7937678676e-02
 4.6669047558e+00	 2.0223253942e+01	 2.9488126913e-02
 1.1313708499e+01	 1.4142135624e+01	-6.7870885692e-03
 1.0677312396e+01	 1.4778531727e+01	-2.9057753840e-02
 1.0040916293e+01	 1.5414927830e+01	-4.5699548120e-02
 9.4045201898e+00	 1.6051323933e+01	-5.7483167885e-02
 8.7681240867e+00	 1.6687720036e+01	-6.2825225970e-02
 8.1317279836e+00	 1.7324116139e+01	-4.2720961627e-02
 7.4953318806e+00	 1.7960512242e+01	-2.5344719943e-02
 6.8589357775e+00	 1.8596908345e+01	-9.8938467302e-03
 6.2225396744e+00	 1.9233304448e+01	 3.8730244372e-03
 5.5861435714e+00	 1.9869700551e+01	 1.6197254592e-02
 4.9497474683e+00	 2.0506096654e+01	 2.7320199371e-02
 1.1596551211e+01	 1.4424978336e+01	-1.4207118772e-02
 1.0960155108e+01	 1.5061374439e+01	-3.1382862240e-02
 1.0323759005e+01	 1.5697770542e+01	-4.3642152390e-02
 9.6873629023e+00	 1.6334166645e+01	-5.1755689115e-02
 9.0509667992e+00	 1.6970562748e+01	-5.6494222530e-02
 8.4145706961e+00	 1.7606958852e+01	-4.4486977200e-02
 7.7781745930e+00	 1.8243354955e+01	-2.6341409723e-02
 7.1417784900e+00	 1.8879751058e+01	-1.0476450032e-02
 6.5053823869e+00	 1.9516147161e+01	 3.3492620832e-03
 5.8689862838e+00	 2.0152543264e+01	 1.5377081437e-02
 5.2325901808e+00	 2.0788939367e+01	 2.5848357450e-02
 1.1879393924e+01	 1.4707821049e+01	-2.1050765687e-02
 1.1242997821e+01	 1.5344217152e+01	-3.3289128331e-02
 1.0606601718e+01	 1.5980613255e+01	-4.1323451009e-02
 9.9702056147e+00	 1.6617009358e+01	-4.5924437036e-02
 9.3338095117e+00	 1.7253405461e+01	-4.7869457546e-02
 8.6974134086e+00	 1.7889801564e+01	-4.4506667028e-02
 8.0610173055e+00	 1.8526197667e+01	-2.5815931891e-02
 7.4246212024e+00	 1.9162593770e+01	-9.7610453399e-03
 6.7882250994e+00	 1.9798989873e+01	 3.8993466154e-03
 6.1518289963e+00	 2.0435385976e+01	 1.5406592574e-02
 5.5154328932e+00	 2.1071782079e+01	 2.5002035741e-02
 1.2162236636e+01	 1.4990663761e+01	-2.7176935681e-02
 1.1525840533e+01	 1.5627059864e+01	-3.4635457803e-02
 1.0889444430e+01	 1.6263455967e+01	-3.8602348994e-02
 1.0253048327e+01	 1.6899852070e+01	-3.9848315986e-02
 9.6166522241e+00	 1.7536248173e+01	-3.9306528191e-02
 8.9802561211e+00	 1.8172644276e+01	-3.8206530235e-02
 8.3438600180e+00	 1.8809040380e+01	-2.3838854792e-02
 7.7074639149e+00	 1.9445436483e+01	-7.8181997747e-03
 7.0710678118e+00	 2.0081832586e+01	 5.4527121421e-03
 6.4346717088e+00	 2.0718228689e+01	 1.6215223340e-02
 5.7982756057e+00	 2.1354624792e+01	 2.4710670807e-02
 1.2445079349e+01	 1.5273506474e+01	-3.2444538279e-02
 1.1808683246e+01	 1.5909902577e+01	-3.5280759506e-02
 1.1172287143e+01	 1.6546298680e+01	-3.5337754517e-02
 1.0535891040e+01	 1.7182694783e+01	-3.3386233464e-02
 9.8994949366e+00	 1.7819090886e+01	-3.0576373899e-02
 9.2630988335e+00	 1.8455486989e+01	-2.7806539052e-02
 8.6267027305e+00	 1.9091883092e+01	-2.0480744804e-02
 7.9903066274e+00	 1.9728279195e+01	-4.7184784833e-03
 7.3539105243e+00	 2.0364675298e+01	 7.9387947436e-03
 6.7175144212e+00	 2.1001071401e+01	 1.7732411042e-02
 6.0811183182e+00	 2.1637467504e+01	 2.4903701185e-02
 1.2727922061e+01	 1.5556349186e+01	-3.6712486168e-02
 1.2091525958e+01	 1.6192745289e+01	-3.5083945452e-02
 1.1455129855e+01	 1.6829141392e+01	-3.1388578916e-02
 1.0818733752e+01	 1.7465537495e+01	-2.6462247055e-02
 1.0182337649e+01	 1.8101933598e+01	-2.1646516899e-02
 9.5459415460e+00	 1.8738329701e+01	-1.7401181036e-02
 8.9095454429e+00	 1.9374725804e+01	-1.3937881559e-02
 8.2731493399e+00	 2.0011121908e+01	-5.3244464044e-04
 7.6367532368e+00	 2.0647518011e+01	 1.1287032473e-02
 7.0003571337e+00	 2.1283914114e+01	 1.9887594962e-02
 6.3639610306e+00	 2.1920310217e+01	 2.5510567384e-02
 3.5355339059e+00	 1.9091883092e+01	 4.6532070496e-02
 2.8991378029e+00	 1.9728279195e+01	 6.3585349105e-02
 2.2627416998e+00	 2.0364675298e+01	 5.9329019834e-02
 1.6263455967e+00	 2.1001071401e+01	 5.4034574351e-02
 9.8994949366e-01	 2.1637467504e+01	 4.7972395665e-02
 3.5355339059e-01	 2.2273863607e+01	 4.1412836989e-02
-2.8284271247e-01	 2.2910259710e+01	 3.4626221746e-02
-9.1923881554e-01	 2.3546655813e+01	 2.7882843576e-02
-1.5556349186e+00	 2.4183051917e+01	 2.2304575427e-02
-2.1920310217e+00	 2.4819448020e+01	 2.8094615582e-02
-2.8284271248e+00	 2.5455844123e+01	 3.3887385010e-02
 3.8183766184e+00	 1.9374725804e+01	 4.0874106935e-02
 3.1819805153e+00	 2.0011121908e+01	 5.7661686103e-02
 2.5455844123e+00	 2.0647518011e+01	 5.9964439453e-02
 1.9091883092e+00	 2.1283914114e+01	 5.4217838087e-02
 1.2727922061e+00	 2.1920310217e+01	 4.7626941853e-02
 6.3639610307e-01	 2.2556706320e+01	 4.0462107556e-02
 1.2570847141e-12	 2.3193102423e+01	 3.2993662214e-02
-6.3639610307e-01	 2.3829498526e+01	 2.5491903059e-02
-1.2727922061e+00	 2.4465894629e+01	 2.4514696220e-02
-1.9091883092e+00	 2.5102290732e+01	 2.9535251952e-02
-2.5455844123e+00	 2.5738686835e+01	 3.4592496880e-02
 4.1012193309e+00	 1.9657568517e+01	 3.6194510355e-02
 3.4648232278e+00	 2.0293964620e+01	 5.1409930010e-02
 2.8284271247e+00	 2.0930360723e+01	 6.0152343815e-02
 2.1920310217e+00	 2.1566756826e+01	 5.3960633773e-02
 1.5556349186e+00	 2.2203152929e+01	 4.6848070223e-02
 9.1923881554e-01	 2.2839549032e+01	 3.9085013565e-02
 2.8284271248e-01	 2.3475945135e+01	 3.0941794409e-02
-3.5355339059e-01	 2.4112341238e+01	 2.2688713580e-02
-9.8994949366e-01	 2.4748737342e+01	 2.6440894650e-02
-1.6263455967e+00	 2.5385133445e+01	 3.0713403030e-02
-2.2627416998e+00	 2.6021529548e+01	 3.5056560048e-02
 4.3840620433e+00	 1.9940411229e+01	 3.2422707456e-02
 3.7476659403e+00	 2.0576807333e+01	 4.6074927036e-02
 3.1112698372e+00	 2.1213203436e+01	 5.6175838085e-02
 2.4748737342e+00	 2.1849599539e+01	 5.3339732384e-02
 1.8384776311e+00	 2.2485995642e+01	 4.5712551043e-02
 1.2020815280e+00	 2.3122391745e+01	 3.7358324574e-02
 5.6568542495e-01	 2.3758787848e+01	 2.8547387179e-02
-7.0710678120e-02	 2.4395183951e+01	 2.4601191963e-02
-7.0710678119e-01	 2.5031580054e+01	 2.8094461162e-02
-1.3435028843e+00	 2.5667976157e+01	 3.1640359347e-02
-1.9798989873e+00	 2.6304372260e+01	 3.5290865139e-02
 4.6669047558e+00	 2.0223253942e+01	 2.9488126913e-02
 4.0305086528e+00	 2.0859650045e+01	 4.1586107082e-02
 3.3941125497e+00	 2.1496046148e+01	 5.0304857638e-02
 2.7577164466e+00	 2.2132442251e+01	 5.2431902473e-02
 2.1213203436e+00	 2.2768838354e+01	 4.4297152154e-02
 1.4849242405e+00	 2.3405234457e+01	 3.5358807715e-02
 8.4852813742e-01	 2.4041630560e+01	 2.5887206948e-02
 2.1213203435e-01	 2.4678026663e+01	 2.6732549253e-02
-4.2426406872e-01	 2.5314422766e+01	 2.9486686561e-02
-1.0606601718e+00	 2.5950818870e+01	 3.2327411802e-02
-1.6970562749e+00	 2.6587214973e+01	 3.5306703137e-02
 4.9497474683e+00	 2.0506096654e+01	 2.7320199371e-02
 4.3133513652e+00	 2.1142492757e+01	 3.7872902022e-02
 3.6769552622e+00	 2.1778888861e+01	 4.5218452492e-02
 3.0405591591e+00	 2.2415284964e+01	 4.9598190234e-02
 2.4041630560e+00	 2.3051681067e+01	 4.2678638977e-02
 1.7677669530e+00	 2.3688077170e+01	 3.3163227698e-02
 1.1313708499e+00	 2.4324473273e+01	 2.6624549439e-02
 4.9497474683e-01	 2.4960869376e+01	 2.8592418783e-02
-1.4142135624e-01	 2.5597265479e+01	 3.0628862017e-02
-7.7781745932e-01	 2.6233661582e+01	 3.2785851652e-02
-1.4142135624e+00	 2.6870057685e+01	 3.5115365394e-02
 5.2325901808e+00	 2.0788939367e+01	 2.5848357450e-02
 4.5961940777e+00	 2.1425335470e+01	 3.4864745703e-02
 3.9597979746e+00	 2.2061731573e+01	 4.0846057721e-02
 3.3234018716e+00	 2.2698127676e+01	 4.4033626742e-02
 2.6870057685e+00	 2.3334523779e+01	 4.0933774506e-02
 2.0506096654e+00	 2.3970919882e+01	 3.0848346809e-02
 1.4142135624e+00	 2.4607315985e+01	 2.8954437266e-02
 7.7781745930e-01	 2.5243712088e+01	 3.0192091996e-02
 1.4142135623e-01	 2.5880108191e+01	 3.1532279063e-02
-4.9497474684e-01	 2.6516504295e+01	 3.3026970521e-02
-1.1313708499e+00	 2.7152900398e+01	 3.4728143622e-02
 5.5154328932e+00	 2.1071782079e+01	 2.5002035741e-02
 4.8790367902e+00	 2.1708178182e+01	 3.2491073945e-02
 4.2426406871e+00	 2.2344574285e+01	 3.7117110373e-02
 3.6062445840e+00	 2.2980970389e+01	 3.9121472049e-02
 2.9698484810e+00	 2.3617366492e+01	 3.8745480602e-02
 2.3334523779e+00	 2.4253762595e+01	 3.0569627423e-02
 1.6970562748e+00	 2.4890158698e+01	 3.1013982108e-02
 1.0606601718e+00	 2.5526554801e+01	 3.1542860697e-02
 4.2426406870e-01	 2.6162950904e+01	 3.2208229593e-02
-2.1213203437e-01	 2.6799347007e+01	 3.3062060394e-02
-8.4852813744e-01	 2.7435743110e+01	 3.4156329895e-02
 5.7982756057e+00	 2.1354624792e+01	 2.4710670807e-02
 5.1618795026e+00	 2.1991020895e+01	 3.0681324539e-02
 4.5254833996e+00	 2.2627416998e+01	 3.3961049467e-02
 3.8890872965e+00	 2.3263813101e+01	 3.4791166402e-02
 3.2526911934e+00	 2.3900209204e+01	 3.3412990757e-02
 2.6162950904e+00	 2.4536605307e+01	 3.3091416882e-02
 1.9798989873e+00	 2.5173001410e+01	 3.2814476042e-02
 1.3435028842e+00	 2.5809397513e+01	 3.2656017055e-02
 7.0710678118e-01	 2.6445793616e+01	 3.2668005866e-02
 7.0710678109e-02	 2.7082189719e+01	 3.2902413618e-02
-5.6568542496e-01	 2.7718585823e+01	 3.3411216651e-02
 6.0811183182e+00	 2.1637467504e+01	 2.4903701185e-02
 5.4447222151e+00	 2.2273863607e+01	 2.9364937249e-02
 4.8083261120e+00	 2.2910259710e+01	 3.1307315996e-02
 4.1719300090e+00	 2.3546655813e+01	 3.0972152020e-02
 3.5355339059e+00	 2.4183051917e+01	 2.9319712194e-02
 2.8991378028e+00	 2.4819448020e+01	 3.5344008742e-02
 2.2627416998e+00	 2.5455844123e+01	 3.4367211508e-02
 1.6263455967e+00	 2.6092240226e+01	 3.3542853598e-02
 9.8994949365e-01	 2.6728636329e+01	 3.2922900501e-02
 3.5355339058e-01	 2.7365032432e+01	 3.2559322904e-02
-2.8284271248e-01	 2.8001428535e+01	 3.2504096693e-02
 6.3639610306e+00	 2.1920310217e+01	 2.5510567384e-02
 5.7275649276e+00	 2.2556706320e+01	 2.8471353810e-02
 5.0911688245e+00	 2.3193102423e+01	 2.9085352921e-02
 4.4547727214e+00	 2.3829498526e+01	 2.7593873096e-02
 3.8183766184e+00	 2.4465894629e+01	 2.9272557298e-02
 3.1819805153e+00	 2.5102290732e+01	 3.4782148294e-02
 2.5455844122e+00	 2.5738686835e+01	 3.5683481311e-02
 1.9091883092e+00	 2.6375082938e+01	 3.4214663222e-02
 1.2727922061e+00	 2.7011479041e+01	 3.2984206484e-02
 6.3639610306e-01	 2.7647875144e+01	 3.2044081327e-02
 0.0000000000e+00	 2.8284271248e+01	 3.1446263183e-02
-7.0710678119e+00	-7.0710678119e+00	-5.9071788545e-02
-7.0710678119e+00	-7.0710678119e+00	-5.9071788545e-02
-7.0710678119e+00	-7.0710678119e+00	-5.9071788545e-02
-7.0710678119e+00	-7.0710678119e+00	-5.9071788545e-02
-7.0710678119e+00	-7.0710678119e+00	-5.9071788545e-02
-7.0710678119e+00	-7.0710678119e+00	-5.9071788545e-02
-7.0710678119e+00	-7.0710678119e+00	-5.9071788545e-02
-7.0710678119e+00	-7.0710678119e+00	-5.9071788545e-02
-7.0710678119e+00	-7.0710678119e+00	-5.9071788545e-02
-7.0710678119e+00	-7.0710678119e+00	-5.9071788545e-02
-7.0710678119e+00	-7.0710678119e+00	-5.9071788545e-02
-7.0675322780e+00	-7.0675322780e+00	 1.2030173121e+01
-7.0678858314e+00	-7.0671787246e+00	 1.2725950797e+01
-7.0682393848e+00	-7.0668251712e+00	 1.3061967822e+01
-7.0685929382e+00	-7.0664716178e+00	 1.3038224196e+01
-7.0689464916e+00	-7.0661180644e+00	 1.2654719919e+01
-7.0693000449e+00	-7.0657645110e+00	 1.1911454991e+01
-7.0696535983e+00	-7.0654109577e+00	 1.0808429413e+01
-7.0700071517e+00	-7.0650574043e+00	 9.3456431829e+00
-7.0703607051e+00	-7.0647038509e+00	 7.5230963022e+00
-7.0707142585e+00	-7.0643502975e+00	 5.3407887704e+00
-7.0710678119e+00	-7.0639967441e+00	 2.7987205877e+00
-7.0569256763e+00	-7.0569256763e+00	 6.0421042881e+00
-7.0583398898e+00	-7.0555114627e+00	 6.3845910932e+00
-7.0597541034e+00	-7.0540972492e+00	 6.5484447106e+00
-7.0611683170e+00	-7.0526830356e+00	 6.5336651404e+00
-7.0625825305e+00	-7.0512688220e+00	 6.3402523824e+00
-7.0639967441e+00	-7.0498546085e+00	 5.9682064368e+00
-7.0654109577e+00	-7.0484403949e+00	 5.4175273034e+00
-7.0668251712e+00	-7.0470261813e+00	 4.6882149824e+00
-7.0682393848e+00	-7.0456119678e+00	 3.7802694736e+00
-7.0696535983e+00	-7.0441977542e+00	 2.6936907771e+00
-7.0710678119e+00	-7.0427835407e+00	 1.4284788929e+00
-7.0392480067e+00	-7.0392480067e+00	 4.0062545965e+00
-7.0424299873e+00	-7.0360660262e+00	 4.2328361325e+00
-7.0456119678e+00	-7.0328840457e+00	 4.3403726746e+00
-7.0487939483e+00	-7.0297020652e+00	 4.3288642226e+00
-7.0519759288e+00	-7.0265200847e+00	 4.1983107766e+00
-7.0551579093e+00	-7.0233381042e+00	 3.9487123364e+00
-7.0583398898e+00	-7.0201561237e+00	 3.5800689019e+00
-7.0615218704e+00	-7.0169741431e+00	 3.0923804731e+00
-7.0647038509e+00	-7.0137921626e+00	 2.4856470500e+00
-7.0678858314e+00	-7.0106101821e+00	 1.7598686323e+00
-7.0710678119e+00	-7.0074282016e+00	 9.1504522006e-01
-7.0144992694e+00	-7.0144992694e+00	 2.9817395260e+00
-7.0201561237e+00	-7.0088424152e+00	 3.1506555398e+00
-7.0258129779e+00	-7.0031855609e+00	 3.2301730451e+00
-7.0314698322e+00	-6.9975287067e+00	 3.2202920413e+00
-7.0371266864e+00	-6.9918718524e+00	 3.1210125280e+00
-7.0427835407e+00	-6.9862149982e+00	 2.9323345047e+00
-7.0484403949e+00	-6.9805581439e+00	 2.6542579710e+00
-7.0540972492e+00	-6.9749012897e+00	 2.2867829264e+00
-7.0597541034e+00	-6.9692444354e+00	 1.8299093704e+00
-7.0654109577e+00	-6.9635875812e+00	 1.2836373027e+00
-7.0710678119e+00	-6.9579307269e+00	 6.4796672277e-01
-6.9826794642e+00	-6.9826794642e+00	 2.3657143311e+00
-6.9915182990e+00	-6.9738406295e+00	 2.5000687211e+00
-7.0003571338e+00	-6.9650017947e+00	 2.5627653732e+00
-7.0091959685e+00	-6.9561629600e+00	 2.5538042855e+00
-7.0180348033e+00	-6.9473241252e+00	 2.4731854563e+00
-7.0268736381e+00	-6.9384852904e+00	 2.3209088840e+00
-7.0357124728e+00	-6.9296464557e+00	 2.0969745667e+00
-7.0445513076e+00	-6.9208076209e+00	 1.8013825028e+00
-7.0533901424e+00	-6.9119687861e+00	 1.4341326906e+00
-7.0622289771e+00	-6.9031299514e+00	 9.9522512827e-01
-7.0710678119e+00	-6.8942911166e+00	 4.8465981414e-01
-6.9437885913e+00	-6.9437885913e+00	 1.9551981007e+00
-6.9565165133e+00	-6.9310606692e+00	 2.0664796504e+00
-6.9692444354e+00	-6.9183327472e+00	 2.1179111771e+00
-6.9819723575e+00	-6.9056048251e+00	 2.1094926754e+00
-6.9947002795e+00	-6.8928769030e+00	 2.0412241404e+00
-7.0074282016e+00	-6.8801489810e+00	 1.9131055668e+00
-7.0201561237e+00	-6.8674210589e+00	 1.7251369494e+00
-7.0328840457e+00	-6.8546931369e+00	 1.4773182832e+00
-7.0456119678e+00	-6.8419652148e+00	 1.1696495630e+00
-7.0583398898e+00	-6.8292372927e+00	 8.0213078364e-01
-7.0710678119e+00	-6.8165093707e+00	 3.7476193993e-01
-6.8978266505e+00	-6.8978266505e+00	 1.6627054093e+00
-6.9151507666e+00	-6.8805025344e+00	 1.7574492309e+00
-6.9324748828e+00	-6.8631784182e+00	 1.8007678034e+00
-6.9497989989e+00	-6.8458543021e+00	 1.7926611139e+00
-6.9671231151e+00	-6.8285301859e+00	 1.7331291493e+00
-6.9844472312e+00	-6.8112060698e+00	 1.6221718966e+00
-7.0017713473e+00	-6.7938819537e+00	 1.4597893429e+00
-7.0190954635e+00	-6.7765578375e+00	 1.2459814752e+00
-7.0364195796e+00	-6.7592337214e+00	 9.8074828048e-01
-7.0537436958e+00	-6.7419096053e+00	 6.6408974574e-01
-7.0710678119e+00	-6.7245854891e+00	 2.9600585801e-01
-6.8447936419e+00	-6.8447936419e+00	 1.4443353852e+00
-6.8674210589e+00	-6.8221662249e+00	 1.5266082057e+00
-6.8900484759e+00	-6.7995388079e+00	 1.5637695560e+00
-6.9126758929e+00	-6.7769113909e+00	 1.5558194073e+00
-6.9353033099e+00	-6.7542839739e+00	 1.5027577306e+00
-6.9579307269e+00	-6.7316565569e+00	 1.4045844969e+00
-6.9805581439e+00	-6.7090291399e+00	 1.2612996773e+00
-7.0031855609e+00	-6.6864017229e+00	 1.0729032429e+00
-7.0258129779e+00	-6.6637743059e+00	 8.3939516463e-01
-7.0484403949e+00	-6.6411468889e+00	 5.6077541367e-01
-7.0710678119e+00	-6.6185194719e+00	 2.3704396105e-01
-6.7846895655e+00	-6.7846895655e+00	 1.2756395989e+00
-6.8133273902e+00	-6.7560517409e+00	 1.3481406372e+00
-6.8419652148e+00	-6.7274139162e+00	 1.3804384330e+00
-6.8706030394e+00	-6.6987760916e+00	 1.3725329275e+00
-6.8992408641e+00	-6.6701382670e+00	 1.3244240621e+00
-6.9278786887e+00	-6.6415004423e+00	 1.2361117782e+00
-6.9565165133e+00	-6.6128626177e+00	 1.1075960170e+00
-6.9851543380e+00	-6.5842247930e+00	 9.3887671997e-01
-7.0137921626e+00	-6.5555869684e+00	 7.2995382831e-01
-7.0424299873e+00	-6.5269491438e+00	 4.8082728341e-01
-7.0710678119e+00	-6.4983113191e+00	 1.9149702659e-01
-6.7175144213e+00	-6.7175144213e+00	 1.1419254805e+00
-6.7528697604e+00	-6.6821590822e+00	 1.2065356298e+00
-6.7882250994e+00	-6.6468037432e+00	 1.2348679782e+00
-6.8235804385e+00	-6.6114484041e+00	 1.2269224155e+00
-6.8589357775e+00	-6.5760930651e+00	 1.1826988312e+00
-6.8942911166e+00	-6.5407377260e+00	 1.1021971150e+00
-6.9296464557e+00	-6.5053823869e+00	 9.8541715640e-01
-6.9650017947e+00	-6.4700270479e+00	 8.3235884503e-01
-7.0003571338e+00	-6.4346717088e+00	 6.4302207050e-01
-7.0357124728e+00	-6.3993163698e+00	 4.1740672242e-01
-7.0710678119e+00	-6.3639610307e+00	 1.5551269037e-01
-6.7175144213e+00	-6.7175144213e+00	 1.1419254805e+00
-6.7528697604e+00	-6.6821590822e+00	 1.2065356298e+00
-6.7882250994e+00	-6.6468037432e+00	 1.2348679782e+00
-6.8235804385e+00	-6.6114484041e+00	 1.2269224155e+00
-6.8589357775e+00	-6.5760930651e+00	 1.1826988312e+00
-6.8942911166e+00	-6.5407377260e+00	 1.1021971150e+00
-6.9296464557e+00	-6.5053823869e+00	 9.8541715640e-01
-6.9650017947e+00	-6.4700270479e+00	 8.3235884503e-01
-7.0003571338e+00	-6.4346717088e+00	 6.4302207050e-01
-7.0357124728e+00	-6.3993163698e+00	 4.1740672242e-01
-7.0710678119e+00	-6.3639610307e+00	 1.5551269037e-01
-6.6432682093e+00	-6.6432682093e+00	 1.0164217959e+00
-6.6860481695e+00	-6.6004882490e+00	 1.0765273920e+00
-6.7288281298e+00	-6.5577082887e+00	 1.1043669630e+00
-6.7716080901e+00	-6.5149283285e+00	 1.0999403132e+00
-6.8143880503e+00	-6.4721483682e+00	 1.0632472472e+00
-6.8571680106e+00	-6.4293684080e+00	 9.9428756930e-01
-6.8999479708e+00	-6.3865884477e+00	 8.9306108398e-01
-6.9427279311e+00	-6.3438084874e+00	 7.5956759565e-01
-6.9855078914e+00	-6.3010285272e+00	 5.9380690874e-01
-7.0282878516e+00	-6.2582485669e+00	 3.9577882767e-01
-7.0710678119e+00	-6.2154686066e+00	 1.6548315686e-01
-6.5619509294e+00	-6.5619509294e+00	 9.1622786276e-01
-6.6128626177e+00	-6.5110392412e+00	 9.7071617934e-01
-6.6637743059e+00	-6.4601275529e+00	 9.9601032716e-01
-6.7146859942e+00	-6.4092158647e+00	 9.9210997656e-01
-6.7655976824e+00	-6.3583041765e+00	 9.5901479789e-01
-6.8165093707e+00	-6.3073924882e+00	 8.9672446150e-01
-6.8674210589e+00	-6.2564808000e+00	 8.0523863775e-01
-6.9183327472e+00	-6.2055691117e+00	 6.8455699699e-01
-6.9692444354e+00	-6.1546574235e+00	 5.3467920957e-01
-7.0201561237e+00	-6.1037457352e+00	 3.5560494587e-01
-7.0710678119e+00	-6.0528340470e+00	 1.4733387623e-01
-6.4735625818e+00	-6.4735625818e+00	 8.3501059558e-01
-6.5333131048e+00	-6.4138120588e+00	 8.8340443349e-01
-6.5930636278e+00	-6.3540615358e+00	 9.0501140977e-01
-6.6528141508e+00	-6.2943110128e+00	 8.9983099153e-01
-6.7125646738e+00	-6.2345604897e+00	 8.6786264591e-01
-6.7723151968e+00	-6.1748099667e+00	 8.0910584003e-01
-6.8320657199e+00	-6.1150594437e+00	 7.2356004102e-01
-6.8918162429e+00	-6.0553089207e+00	 6.1122471602e-01
-6.9515667659e+00	-5.9955583977e+00	 4.7209933217e-01
-7.0113172889e+00	-5.9358078747e+00	 3.0618335662e-01
-7.0710678119e+00	-5.8760573517e+00	 1.1347625651e-01
-6.3781031663e+00	-6.3781031663e+00	 7.6841964077e-01
-6.4473996309e+00	-6.3088067018e+00	 8.1059557281e-01
-6.5166960954e+00	-6.2395102372e+00	 8.2790877067e-01
-6.5859925600e+00	-6.1702137727e+00	 8.2035840310e-01
-6.6552890246e+00	-6.1009173081e+00	 7.8794363884e-01
-6.7245854891e+00	-6.0316208435e+00	 7.3066364666e-01
-6.7938819537e+00	-5.9623243790e+00	 6.4851759531e-01
-6.8631784182e+00	-5.8930279144e+00	 5.4150465356e-01
-6.9324748828e+00	-5.8237314499e+00	 4.0962399020e-01
-7.0017713473e+00	-5.7544349853e+00	 2.5287477401e-01
-7.0710678119e+00	-5.6851385207e+00	 7.1256173772e-02
-6.2755726831e+00	-6.2755726831e+00	 7.1337408987e-01
-6.3551221959e+00	-6.1960231702e+00	 7.4940620703e-01
-6.4346717088e+00	-6.1164736573e+00	 7.6214004493e-01
-6.5142212217e+00	-6.0369241444e+00	 7.5157434603e-01
-6.5937707346e+00	-5.9573746315e+00	 7.1770785283e-01
-6.6733202475e+00	-5.8778251186e+00	 6.6053930783e-01
-6.7528697604e+00	-5.7982756057e+00	 5.8006745355e-01
-6.8324192732e+00	-5.7187260929e+00	 4.7629103253e-01
-6.9119687861e+00	-5.6391765800e+00	 3.4920878730e-01
-6.9915182990e+00	-5.5596270671e+00	 1.9881946042e-01
-7.0710678119e+00	-5.4800775542e+00	 2.5121794472e-02
-6.1659711320e+00	-6.1659711320e+00	 6.6763501503e-01
-6.2564808000e+00	-6.0754614640e+00	 6.9770605566e-01
-6.3469904680e+00	-5.9849517960e+00	 7.0577014647e-01
-6.4375001359e+00	-5.8944421280e+00	 6.9182543526e-01
-6.5280098039e+00	-5.8039324600e+00	 6.5587006986e-01
-6.6185194719e+00	-5.7134227920e+00	 5.9790219813e-01
-6.7090291399e+00	-5.6229131240e+00	 5.1791996792e-01
-6.7995388079e+00	-5.5324034560e+00	 4.1592152713e-01
-6.8900484759e+00	-5.4418937880e+00	 2.9190502368e-01
-6.9805581439e+00	-5.3513841200e+00	 1.4586860550e-01
-7.0710678119e+00	-5.2608744520e+00	-2.2189579457e-02
-6.0492985131e+00	-6.0492985131e+00	 6.2953899068e-01
-6.1514754429e+00	-5.9471215832e+00	 6.5388895333e-01
-6.2536523728e+00	-5.8449446533e+00	 6.5731235066e-01
-6.3558293027e+00	-5.7427677234e+00	 6.3980651791e-01
-6.4580062326e+00	-5.6405907935e+00	 6.0136879035e-01
-6.5601831625e+00	-5.5384138636e+00	 5.4199650328e-01
-6.6623600924e+00	-5.4362369338e+00	 4.6168699204e-01
-6.7645370222e+00	-5.3340600039e+00	 3.6043759199e-01
-6.8667139521e+00	-5.2318830740e+00	 2.3824563855e-01
-6.9688908820e+00	-5.1297061441e+00	 9.5108467160e-02
-7.0710678119e+00	-5.0275292142e+00	-6.8976586707e-02
-5.9255548264e+00	-5.9255548264e+00	 5.9782624437e-01
-6.0401061249e+00	-5.8110035278e+00	 6.1672246315e-01
-6.1546574235e+00	-5.6964522292e+00	 6.1560722843e-01
-6.2692087220e+00	-5.5819009307e+00	 5.9447678529e-01
-6.3837600206e+00	-5.4673496321e+00	 5.5332737889e-01
-6.4983113191e+00	-5.3527983336e+00	 4.9215525441e-01
-6.6128626177e+00	-5.2382470350e+00	 4.1095665710e-01
-6.7274139162e+00	-5.1236957365e+00	 3.0972783229e-01
-6.8419652148e+00	-5.0091444379e+00	 1.8846502532e-01
-6.9565165133e+00	-4.8945931394e+00	 4.7164481624e-02
-7.0710678119e+00	-4.7800418408e+00	-1.1417755334e-01
-5.7947400718e+00	-5.7947400718e+00	 5.7152651398e-01
-5.9223728458e+00	-5.6671072978e+00	 5.8524631200e-01
-6.0500056198e+00	-5.5394745238e+00	 5.7973871544e-01
-6.1776383939e+00	-5.4118417498e+00	 5.5499853049e-01
-6.3052711679e+00	-5.2842089758e+00	 5.1102056344e-01
-6.4329039419e+00	-5.1565762018e+00	 4.4779962065e-01
-6.5605367159e+00	-5.0289434278e+00	 3.6533050858e-01
-6.6881694899e+00	-4.9013106538e+00	 2.6360803377e-01
-6.8158022639e+00	-4.7736778798e+00	 1.4262700283e-01
-6.9434350379e+00	-4.6460451058e+00	 2.3822224786e-03
-7.0710678119e+00	-4.5184123318e+00	-1.5713150050e-01
-5.6568542495e+00	-5.6568542495e+00	 5.4988123800e-01
-5.7982756057e+00	-5.5154328933e+00	 5.5870208791e-01
-5.9396969620e+00	-5.3740115370e+00	 5.4897465798e-01
-6.0811183182e+00	-5.2325901808e+00	 5.2069188268e-01
-6.2225396745e+00	-5.0911688245e+00	 4.7384669666e-01
-6.3639610307e+00	-4.9497474683e+00	 4.0843203468e-01
-6.5053823869e+00	-4.8083261121e+00	 3.2444083162e-01
-6.6468037432e+00	-4.6669047558e+00	 2.2186602249e-01
-6.7882250994e+00	-4.5254833996e+00	 1.0070054245e-01
-6.9296464557e+00	-4.3840620433e+00	-3.9062673249e-02
-7.0710678119e+00	-4.2426406871e+00	-1.9743068920e-01
-7.0710678119e+00	-7.0710678119e+00	-5.9071788545e-02
-7.0710678119e+00	-7.0710678119e+00	-5.9071788545e-02
-7.0710678119e+00	-7.0710678119e+00	-5.9071788545e-02
-7.0710678119e+00	-7.0710678119e+00	-5.9071788545e-02
-7.0710678119e+00	-7.0710678119e+00	-5.9071788545e-02
-7.0710678119e+00	-7.0710678119e+00	-5.9071788545e-02
-7.0710678119e+00	-7.0710678119e+00	-5.9071788545e-02
-7.0710678119e+00	-7.0710678119e+00	-5.9071788545e-02
-7.0710678119e+00	-7.0710678119e+00	-5.9071788545e-02
-7.0710678119e+00	-7.0710678119e+00	-5.9071788545e-02
-7.0710678119e+00	-7.0710678119e+00	-5.9071788545e-02
-7.0710678119e+00	-7.0639967441e+00	 4.7008731778e+00
-7.0714213653e+00	-7.0643502975e+00	 5.4787984091e+00
-7.0717749187e+00	-7.0647038509e+00	 6.1785440687e+00
-7.0721284721e+00	-7.0650574043e+00	 6.8001101566e+00
-7.0724820255e+00	-7.0654109577e+00	 7.3434966727e+00
-7.0728355789e+00	-7.0657645110e+00	 7.8087036171e+00
-7.0731891322e+00	-7.0661180644e+00	 8.1957309897e+00
-7.0735426856e+00	-7.0664716178e+00	 8.5045787907e+00
-7.0738962390e+00	-7.0668251712e+00	 8.7352470199e+00
-7.0742497924e+00	-7.0671787246e+00	 8.8877356774e+00
-7.0746033458e+00	-7.0675322780e+00	 8.9620447631e+00
-7.0710678119e+00	-7.0427835407e+00	 1.9130199627e+00
-7.0724820255e+00	-7.0441977542e+00	 2.3577715948e+00
-7.0738962390e+00	-7.0456119678e+00	 2.7610230561e+00
-7.0753104526e+00	-7.0470261813e+00	 3.1227743465e+00
-7.0767246661e+00	-7.0484403949e+00	 3.4430254659e+00
-7.0781388797e+00	-7.0498546085e+00	 3.7217764145e+00
-7.0795530933e+00	-7.0512688220e+00	 3.9590271923e+00
-7.0809673068e+00	-7.0526830356e+00	 4.1547777991e+00
-7.0823815204e+00	-7.0540972492e+00	 4.3090282351e+00
-7.0837957340e+00	-7.0555114627e+00	 4.4217785003e+00
-7.0852099475e+00	-7.0569256763e+00	 4.4930285946e+00
-7.0710678119e+00	-7.0074282016e+00	 1.2287601018e+00
-7.0742497924e+00	-7.0106101821e+00	 1.5277987332e+00
-7.0774317729e+00	-7.0137921626e+00	 1.7991622769e+00
-7.0806137534e+00	-7.0169741431e+00	 2.0428507331e+00
-7.0837957340e+00	-7.0201561237e+00	 2.2588641018e+00
-7.0869777145e+00	-7.0233381042e+00	 2.4472023831e+00
-7.0901596950e+00	-7.0265200847e+00	 2.6078655771e+00
-7.0933416755e+00	-7.0297020652e+00	 2.7408536839e+00
-7.0965236560e+00	-7.0328840457e+00	 2.8461667036e+00
-7.0997056365e+00	-7.0360660262e+00	 2.9238046362e+00
-7.1028876171e+00	-7.0392480067e+00	 2.9737674819e+00
-7.0710678119e+00	-6.9579307269e+00	 9.3283932034e-01
-7.0767246661e+00	-6.9635875812e+00	 1.1524341378e+00
-7.0823815204e+00	-6.9692444354e+00	 1.3515663245e+00
-7.0880383746e+00	-6.9749012897e+00	 1.5302358809e+00
-7.0936952289e+00	-6.9805581439e+00	 1.6884428074e+00
-7.0993520831e+00	-6.9862149982e+00	 1.8261871046e+00
-7.1050089374e+00	-6.9918718524e+00	 1.9434687728e+00
-7.1106657916e+00	-6.9975287067e+00	 2.0402878127e+00
-7.1163226459e+00	-7.0031855609e+00	 2.1166442246e+00
-7.1219795001e+00	-7.0088424152e+00	 2.1725380092e+00
-7.1276363544e+00	-7.0144992694e+00	 2.2079691668e+00
-7.0710678119e+00	-6.8942911166e+00	 7.7032970031e-01
-7.0799066467e+00	-6.9031299514e+00	 9.4006810298e-01
-7.0887454814e+00	-6.9119687861e+00	 1.0937676098e+00
-7.0975843162e+00	-6.9208076209e+00	 1.2314282227e+00
-7.1064231510e+00	-6.9296464557e+00	 1.3530499434e+00
-7.1152619857e+00	-6.9384852904e+00	 1.4586327738e+00
-7.1241008205e+00	-6.9473241252e+00	 1.5481767159e+00
-7.1329396553e+00	-6.9561629600e+00	 1.6216817713e+00
-7.1417784900e+00	-6.9650017947e+00	 1.6791479420e+00
-7.1506173248e+00	-6.9738406295e+00	 1.7205752298e+00
-7.1594561595e+00	-6.9826794642e+00	 1.7459636365e+00
-7.0710678119e+00	-6.8165093707e+00	 6.6850612647e-01
-7.0837957340e+00	-6.8292372927e+00	 8.0401858549e-01
-7.0965236560e+00	-6.8419652148e+00	 9.2648182454e-01
-7.1092515781e+00	-6.8546931369e+00	 1.0358958491e+00
-7.1219795001e+00	-6.8674210589e+00	 1.1322606648e+00
-7.1347074222e+00	-6.8801489810e+00	 1.2155762771e+00
-7.1474353443e+00	-6.8928769030e+00	 1.2858426915e+00
-7.1601632663e+00	-6.9056048251e+00	 1.3430599135e+00
-7.1728911884e+00	-6.9183327472e+00	 1.3872279487e+00
-7.1856191105e+00	-6.9310606692e+00	 1.4183468026e+00
-7.1983470325e+00	-6.9437885913e+00	 1.4364164806e+00
-7.0710678119e+00	-6.7245854891e+00	 5.9921182219e-01
-7.0883919280e+00	-6.7419096053e+00	 7.0972235322e-01
-7.1057160442e+00	-6.7592337214e+00	 8.0933952918e-01
-7.1230401603e+00	-6.7765578375e+00	 8.9806336399e-01
-7.1403642765e+00	-6.7938819537e+00	 9.7589387156e-01
-7.1576883926e+00	-6.8112060698e+00	 1.0428310658e+00
-7.1750125087e+00	-6.8285301859e+00	 1.0988749607e+00
-7.1923366249e+00	-6.8458543021e+00	 1.1440255700e+00
-7.2096607410e+00	-6.8631784182e+00	 1.1782829078e+00
-7.2269848572e+00	-6.8805025344e+00	 1.2016469880e+00
-7.2443089733e+00	-6.8978266505e+00	 1.2141178244e+00
-7.0710678119e+00	-6.6185194719e+00	 5.4936664452e-01
-7.0936952289e+00	-6.6411468889e+00	 6.4075537102e-01
-7.1163226459e+00	-6.6637743059e+00	 7.2287944804e-01
-7.1389500629e+00	-6.6864017229e+00	 7.9573890658e-01
-7.1615774799e+00	-6.7090291399e+00	 8.5933377765e-01
-7.1842048969e+00	-6.7316565569e+00	 9.1366409226e-01
-7.2068323139e+00	-6.7542839739e+00	 9.5872988142e-01
-7.2294597309e+00	-6.7769113909e+00	 9.9453117614e-01
-7.2520871479e+00	-6.7995388079e+00	 1.0210680074e+00
-7.2747145649e+00	-6.8221662249e+00	 1.0383404063e+00
-7.2973419819e+00	-6.8447936419e+00	 1.0463484038e+00
-7.0710678119e+00	-6.4983113191e+00	 5.1210775754e-01
-7.0997056365e+00	-6.5269491438e+00	 5.8834035597e-01
-7.1283434612e+00	-6.5555869684e+00	 6.5658285345e-01
-7.1569812858e+00	-6.5842247930e+00	 7.1683531286e-01
-7.1856191105e+00	-6.6128626177e+00	 7.6909779704e-01
-7.2142569351e+00	-6.6415004423e+00	 8.1337036887e-01
-7.2428947597e+00	-6.6701382670e+00	 8.4965309120e-01
-7.2715325844e+00	-6.6987760916e+00	 8.7794602692e-01
-7.3001704090e+00	-6.7274139162e+00	 8.9824923886e-01
-7.3288082336e+00	-6.7560517409e+00	 9.1056278992e-01
-7.3574460583e+00	-6.7846895655e+00	 9.1488674294e-01
-7.0710678119e+00	-6.3639610307e+00	 4.8350813678e-01
-7.1064231510e+00	-6.3993163698e+00	 5.4737500421e-01
-7.1417784900e+00	-6.4346717088e+00	 6.0427720415e-01
-7.1771338291e+00	-6.4700270479e+00	 6.5421485488e-01
-7.2124891681e+00	-6.5053823869e+00	 6.9718807469e-01
-7.2478445072e+00	-6.5407377260e+00	 7.3319698187e-01
-7.2831998463e+00	-6.5760930651e+00	 7.6224169471e-01
-7.3185551853e+00	-6.6114484041e+00	 7.8432233149e-01
-7.3539105244e+00	-6.6468037432e+00	 7.9943901052e-01
-7.3892658634e+00	-6.6821590822e+00	 8.0759185007e-01
-7.4246212025e+00	-6.7175144213e+00	 8.0878096843e-01
-7.0710678119e+00	-6.3639610307e+00	 4.8350813678e-01
-7.1064231510e+00	-6.3993163698e+00	 5.4737500421e-01
-7.1417784900e+00	-6.4346717088e+00	 6.0427720415e-01
-7.1771338291e+00	-6.4700270479e+00	 6.5421485488e-01
-7.2124891681e+00	-6.5053823869e+00	 6.9718807469e-01
-7.2478445072e+00	-6.5407377260e+00	 7.3319698187e-01
-7.2831998463e+00	-6.5760930651e+00	 7.6224169471e-01
-7.3185551853e+00	-6.6114484041e+00	 7.8432233149e-01
-7.3539105244e+00	-6.6468037432e+00	 7.9943901052e-01
-7.3892658634e+00	-6.6821590822e+00	 8.0759185007e-01
-7.4246212025e+00	-6.7175144213e+00	 8.0878096843e-01
-7.0710678119e+00	-6.2154686066e+00	 4.0744794812e-01
-7.1138477722e+00	-6.2582485669e+00	 4.6168790810e-01
-7.1566277324e+00	-6.3010285272e+00	 5.1046135755e-01
-7.1994076927e+00	-6.3438084874e+00	 5.5376850602e-01
-7.2421876530e+00	-6.3865884477e+00	 5.9160956306e-01
-7.2849676132e+00	-6.4293684080e+00	 6.2398473823e-01
-7.3277475735e+00	-6.4721483682e+00	 6.5089424109e-01
-7.3705275337e+00	-6.5149283285e+00	 6.7233828119e-01
-7.4133074940e+00	-6.5577082887e+00	 6.8831706808e-01
-7.4560874543e+00	-6.6004882490e+00	 6.9883081133e-01
-7.4988674145e+00	-6.6432682093e+00	 7.0387972050e-01
-7.0710678119e+00	-6.0528340470e+00	 3.3363663620e-01
-7.1219795001e+00	-6.1037457352e+00	 3.8301146491e-01
-7.1728911884e+00	-6.1546574235e+00	 4.2795051321e-01
-7.2238028766e+00	-6.2055691117e+00	 4.6845413432e-01
-7.2747145649e+00	-6.2564808000e+00	 5.0452268142e-01
-7.3256262531e+00	-6.3073924882e+00	 5.3615650773e-01
-7.3765379414e+00	-6.3583041765e+00	 5.6335596644e-01
-7.4274496296e+00	-6.4092158647e+00	 5.8612141077e-01
-7.4783613179e+00	-6.4601275529e+00	 6.0445319393e-01
-7.5292730061e+00	-6.5110392412e+00	 6.1835166912e-01
-7.5801846944e+00	-6.5619509294e+00	 6.2781718956e-01
-7.0710678119e+00	-5.8760573517e+00	 2.6406275189e-01
-7.1308183349e+00	-5.9358078747e+00	 3.1150320925e-01
-7.1905688579e+00	-5.9955583977e+00	 3.5522661637e-01
-7.2503193809e+00	-6.0553089207e+00	 3.9523354420e-01
-7.3100699039e+00	-6.1150594437e+00	 4.3152456366e-01
-7.3698204270e+00	-6.1748099667e+00	 4.6410024571e-01
-7.4295709500e+00	-6.2345604897e+00	 4.9296116129e-01
-7.4893214730e+00	-6.2943110128e+00	 5.1810788135e-01
-7.5490719960e+00	-6.3540615358e+00	 5.3954097686e-01
-7.6088225190e+00	-6.4138120588e+00	 5.5726101878e-01
-7.6685730420e+00	-6.4735625818e+00	 5.7126857806e-01
-7.0710678119e+00	-5.6851385207e+00	 1.9953321761e-01
-7.1403642765e+00	-5.7544349853e+00	 2.4684827953e-01
-7.2096607410e+00	-5.8237314499e+00	 2.9095165415e-01
-7.2789572056e+00	-5.8930279144e+00	 3.3184423207e-01
-7.3482536701e+00	-5.9623243790e+00	 3.6952690393e-01
-7.4175501347e+00	-6.0316208435e+00	 4.0400056036e-01
-7.4868465992e+00	-6.1009173081e+00	 4.3526609199e-01
-7.5561430638e+00	-6.1702137727e+00	 4.6332438947e-01
-7.6254395284e+00	-6.2395102372e+00	 4.8817634347e-01
-7.6947359929e+00	-6.3088067018e+00	 5.0982284464e-01
-7.7640324575e+00	-6.3781031663e+00	 5.2826478365e-01
-7.0710678119e+00	-5.4800775542e+00	 1.4026466583e-01
-7.1506173248e+00	-5.5596270671e+00	 1.8855564585e-01
-7.2301668377e+00	-5.6391765800e+00	 2.3399157067e-01
-7.3097163506e+00	-5.7187260929e+00	 2.7657378760e-01
-7.3892658634e+00	-5.7982756057e+00	 3.1630364395e-01
-7.4688153763e+00	-5.8778251186e+00	 3.5318248704e-01
-7.5483648892e+00	-5.9573746315e+00	 3.8721166423e-01
-7.6279144021e+00	-6.0369241444e+00	 4.1839252288e-01
-7.7074639150e+00	-6.1164736573e+00	 4.4672641034e-01
-7.7870134278e+00	-6.1960231702e+00	 4.7221467401e-01
-7.8665629407e+00	-6.2755726831e+00	 4.9485866129e-01
-7.0710678119e+00	-5.2608744520e+00	 8.6184069407e-02
-7.1615774799e+00	-5.3513841200e+00	 1.3609487505e-01
-7.2520871479e+00	-5.4418937880e+00	 1.8340205070e-01
-7.3425968159e+00	-5.5324034560e+00	 2.2810758077e-01
-7.4331064839e+00	-5.6229131240e+00	 2.7021344969e-01
-7.5236161519e+00	-5.7134227920e+00	 3.0972164194e-01
-7.6141258198e+00	-5.8039324600e+00	 3.4663414198e-01
-7.7046354878e+00	-5.8944421280e+00	 3.8095293434e-01
-7.7951451558e+00	-5.9849517960e+00	 4.1268000353e-01
-7.8856548238e+00	-6.0754614640e+00	 4.4181733411e-01
-7.9761644918e+00	-6.1659711320e+00	 4.6836691065e-01
-7.0710678119e+00	-5.0275292142e+00	 3.7085090639e-02
-7.1732447418e+00	-5.1297061441e+00	 8.8957842167e-02
-7.2754216717e+00	-5.2318830740e+00	 1.3840317310e-01
-7.3775986015e+00	-5.3340600039e+00	 1.8542393842e-01
-7.4797755314e+00	-5.4362369338e+00	 2.3002299311e-01
-7.5819524613e+00	-5.5384138636e+00	 2.7220319221e-01
-7.6841293912e+00	-5.6405907935e+00	 3.1196739081e-01
-7.7863063211e+00	-5.7427677234e+00	 3.4931844401e-01
-7.8884832509e+00	-5.8449446533e+00	 3.8425920696e-01
-7.9906601808e+00	-5.9471215832e+00	 4.1679253485e-01
-8.0928371107e+00	-6.0492985131e+00	 4.4692128289e-01
-7.0710678119e+00	-4.7800418408e+00	-7.2897200413e-03
-7.1856191105e+00	-4.8945931394e+00	 4.6684412706e-02
-7.3001704090e+00	-5.0091444379e+00	 9.8353191759e-02
-7.4147217076e+00	-5.1236957365e+00	 1.4772064000e-01
-7.5292730061e+00	-5.2382470350e+00	 1.9479078035e-01
-7.6438243047e+00	-5.3527983336e+00	 2.3956763581e-01
-7.7583756032e+00	-5.4673496321e+00	 2.8205522943e-01
-7.8729269017e+00	-5.5819009307e+00	 3.2225758431e-01
-7.9874782003e+00	-5.6964522292e+00	 3.6017872361e-01
-8.1020294988e+00	-5.8110035278e+00	 3.9582267057e-01
-8.2165807974e+00	-5.9255548264e+00	 4.2919344845e-01
-7.0710678119e+00	-4.5184123318e+00	-4.7205866671e-02
-7.1987005859e+00	-4.6460451058e+00	 8.8707649470e-03
-7.3263333599e+00	-4.7736778798e+00	 6.2725017022e-02
-7.4539661339e+00	-4.9013106538e+00	 1.1436245394e-01
-7.5815989079e+00	-5.0289434278e+00	 1.6378864017e-01
-7.7092316819e+00	-5.1565762018e+00	 2.1100914028e-01
-7.8368644559e+00	-5.2842089758e+00	 2.5602951892e-01
-7.9644972299e+00	-5.4118417498e+00	 2.9885534082e-01
-8.0921300039e+00	-5.5394745238e+00	 3.3949217081e-01
-8.2197627779e+00	-5.6671072978e+00	 3.7794557382e-01
-8.3473955519e+00	-5.7947400718e+00	 4.1422111484e-01
-7.0710678119e+00	-4.2426406871e+00	-8.2914908633e-02
-7.2124891681e+00	-4.3840620433e+00	-2.4830496417e-02
-7.3539105244e+00	-4.5254833996e+00	 3.1086306115e-02
-7.4953318806e+00	-4.6669047558e+00	 8.4843068494e-02
-7.6367532368e+00	-4.8083261121e+00	 1.3644736039e-01
-7.7781745931e+00	-4.9497474683e+00	 1.8590675159e-01
-7.9195959493e+00	-5.0911688245e+00	 2.3322881205e-01
-8.0610173055e+00	-5.2325901808e+00	 2.7842111181e-01
-8.2024386618e+00	-5.3740115370e+00	 3.2149122109e-01
-8.3438600180e+00	-5.5154328933e+00	 3.6244671022e-01
-8.4852813742e+00	-5.6568542495e+00	 4.0129514967e-01
-7.0710678119e+00	-7.0710678119e+00	-5.9071788545e-02
-7.0710678119e+00	-7.0710678119e+00	-5.9071788545e-02
-7.0710678119e+00	-7.0710678119e+00	-5.9071788545e-02
-7.0710678119e+00	-7.0710678119e+00	-5.9071788545e-02
-7.0710678119e+00	-7.0710678119e+00	-5.9071788545e-02
-7.0710678119e+00	-7.0710678119e+00	-5.9071788545e-02
-7.0710678119e+00	-7.0710678119e+00	-5.9071788545e-02
-7.0710678119e+00	-7.0710678119e+00	-5.9071788545e-02
-7.0710678119e+00	-7.0710678119e+00	-5.9071788545e-02
-7.0710678119e+00	-7.0710678119e+00	-5.9071788545e-02
-7.0710678119e+00	-7.0710678119e+00	-5.9071788545e-02
-7.0746033458e+00	-7.0675322780e+00	 1.1679938416e+01
-7.0749568992e+00	-7.0678858314e+00	 1.2834690886e+01
-7.0753104526e+00	-7.0682393848e+00	 1.3706754087e+01
-7.0756640060e+00	-7.0685929382e+00	 1.4296128020e+01
-7.0760175594e+00	-7.0689464916e+00	 1.4602812685e+01
-7.0763711128e+00	-7.0693000449e+00	 1.4626808082e+01
-7.0767246661e+00	-7.0696535983e+00	 1.4368114211e+01
-7.0770782195e+00	-7.0700071517e+00	 1.3826731071e+01
-7.0774317729e+00	-7.0703607051e+00	 1.3002658663e+01
-7.0777853263e+00	-7.0707142585e+00	 1.1895896987e+01
-7.0781388797e+00	-7.0710678119e+00	 1.0506446043e+01
-7.0852099475e+00	-7.0569256763e+00	 6.0580133130e+00
-7.0866241611e+00	-7.0583398898e+00	 6.5444075750e+00
-7.0880383746e+00	-7.0597541034e+00	 6.8999912043e+00
-7.0894525882e+00	-7.0611683170e+00	 7.1247642009e+00
-7.0908668018e+00	-7.0625825305e+00	 7.2187265648e+00
-7.0922810153e+00	-7.0639967441e+00	 7.1818782961e+00
-7.0936952289e+00	-7.0654109577e+00	 7.0142193947e+00
-7.0951094425e+00	-7.0668251712e+00	 6.7157498607e+00
-7.0965236560e+00	-7.0682393848e+00	 6.2864696941e+00
-7.0979378696e+00	-7.0696535983e+00	 5.7263788948e+00
-7.0993520831e+00	-7.0710678119e+00	 5.0354774629e+00
-7.1028876171e+00	-7.0392480067e+00	 4.0377334530e+00
-7.1060695976e+00	-7.0424299873e+00	 4.3502259407e+00
-7.1092515781e+00	-7.0456119678e+00	 4.5774830113e+00
-7.1124335586e+00	-7.0487939483e+00	 4.7195046650e+00
-7.1156155391e+00	-7.0519759288e+00	 4.7762909017e+00
-7.1187975196e+00	-7.0551579093e+00	 4.7478417216e+00
-7.1219795001e+00	-7.0583398898e+00	 4.6341571247e+00
-7.1251614807e+00	-7.0615218704e+00	 4.4352371112e+00
-7.1283434612e+00	-7.0647038509e+00	 4.1510816812e+00
-7.1315254417e+00	-7.0678858314e+00	 3.7816908346e+00
-7.1347074222e+00	-7.0710678119e+00	 3.3270645716e+00
-7.1276363544e+00	-7.0144992694e+00	 2.9995415575e+00
-7.1332932086e+00	-7.0201561237e+00	 3.2341612496e+00
-7.1389500629e+00	-7.0258129779e+00	 3.4053862486e+00
-7.1446069171e+00	-7.0314698322e+00	 3.5132165552e+00
-7.1502637714e+00	-7.0371266864e+00	 3.5576521697e+00
-7.1559206256e+00	-7.0427835407e+00	 3.5386930926e+00
-7.1615774799e+00	-7.0484403949e+00	 3.4563393245e+00
-7.1672343341e+00	-7.0540972492e+00	 3.3105908659e+00
-7.1728911884e+00	-7.0597541034e+00	 3.1014477171e+00
-7.1785480426e+00	-7.0654109577e+00	 2.8289098787e+00
-7.1842048969e+00	-7.0710678119e+00	 2.4929773512e+00
-7.1594561595e+00	-6.9826794642e+00	 2.3670969329e+00
-7.1682949943e+00	-6.9915182990e+00	 2.5578186763e+00
-7.1771338291e+00	-7.0003571338e+00	 2.6979474566e+00
-7.1859726638e+00	-7.0091959685e+00	 2.7874832754e+00
-7.1948114986e+00	-7.0180348033e+00	 2.8264261348e+00
-7.2036503334e+00	-7.0268736381e+00	 2.8147760365e+00
-7.2124891681e+00	-7.0357124728e+00	 2.7525329824e+00
-7.2213280029e+00	-7.0445513076e+00	 2.6396969743e+00
-7.2301668377e+00	-7.0533901424e+00	 2.4762680142e+00
-7.2390056724e+00	-7.0622289771e+00	 2.2622461037e+00
-7.2478445072e+00	-7.0710678119e+00	 1.9976312448e+00
-7.1983470325e+00	-6.9437885913e+00	 1.9410058198e+00
-7.2110749546e+00	-6.9565165133e+00	 2.1035680783e+00
-7.2238028766e+00	-6.9692444354e+00	 2.2239461666e+00
-7.2365307987e+00	-6.9819723575e+00	 2.3021400903e+00
-7.2492587208e+00	-6.9947002795e+00	 2.3381498547e+00
-7.2619866428e+00	-7.0074282016e+00	 2.3319754656e+00
-7.2747145649e+00	-7.0201561237e+00	 2.2836169284e+00
-7.2874424869e+00	-7.0328840457e+00	 2.1930742485e+00
-7.3001704090e+00	-7.0456119678e+00	 2.0603474316e+00
-7.3128983311e+00	-7.0583398898e+00	 1.8854364831e+00
-7.3256262531e+00	-7.0710678119e+00	 1.6683414086e+00
-7.2443089733e+00	-6.8978266505e+00	 1.6340323072e+00
-7.2616330894e+00	-6.9151507666e+00	 1.7769570866e+00
-7.2789572056e+00	-6.9324748828e+00	 1.8836429925e+00
-7.2962813217e+00	-6.9497989989e+00	 1.9540900389e+00
-7.3136054378e+00	-6.9671231151e+00	 1.9882982398e+00
-7.3309295540e+00	-6.9844472312e+00	 1.9862676090e+00
-7.3482536701e+00	-7.0017713473e+00	 1.9479981605e+00
-7.3655777862e+00	-7.0190954635e+00	 1.8734899081e+00
-7.3829019024e+00	-7.0364195796e+00	 1.7627428659e+00
-7.4002260185e+00	-7.0537436958e+00	 1.6157570477e+00
-7.4175501347e+00	-7.0710678119e+00	 1.4325324674e+00
-7.2973419819e+00	-6.8447936419e+00	 1.4019751655e+00
-7.3199693989e+00	-6.8674210589e+00	 1.5303723974e+00
-7.3425968159e+00	-6.8900484759e+00	 1.6269571147e+00
-7.3652242329e+00	-6.9126758929e+00	 1.6917293484e+00
-7.3878516499e+00	-6.9353033099e+00	 1.7246891294e+00
-7.4104790669e+00	-6.9579307269e+00	 1.7258364889e+00
-7.4331064838e+00	-6.9805581439e+00	 1.6951714578e+00
-7.4557339008e+00	-7.0031855609e+00	 1.6326940671e+00
-7.4783613178e+00	-7.0258129779e+00	 1.5384043478e+00
-7.5009887348e+00	-7.0484403949e+00	 1.4123023310e+00
-7.5236161518e+00	-7.0710678119e+00	 1.2543880476e+00
-7.3574460583e+00	-6.7846895655e+00	 1.2200487861e+00
-7.3860838829e+00	-6.8133273902e+00	 1.3372098800e+00
-7.4147217075e+00	-6.8419652148e+00	 1.4259827586e+00
-7.4433595322e+00	-6.8706030394e+00	 1.4863674848e+00
-7.4719973568e+00	-6.8992408641e+00	 1.5183641213e+00
-7.5006351814e+00	-6.9278786887e+00	 1.5219727310e+00
-7.5292730061e+00	-6.9565165133e+00	 1.4971933769e+00
-7.5579108307e+00	-6.9851543380e+00	 1.4440261218e+00
-7.5865486554e+00	-7.0137921626e+00	 1.3624710285e+00
-7.6151864800e+00	-7.0424299873e+00	 1.2525281600e+00
-7.6438243046e+00	-7.0710678119e+00	 1.1141975790e+00
-7.4246212025e+00	-6.7175144213e+00	 1.0732794472e+00
-7.4599765416e+00	-6.7528697604e+00	 1.1814389790e+00
-7.4953318806e+00	-6.7882250994e+00	 1.2639392048e+00
-7.5306872197e+00	-6.8235804385e+00	 1.3207802430e+00
-7.5660425587e+00	-6.8589357775e+00	 1.3519622118e+00
-7.6013978978e+00	-6.8942911166e+00	 1.3574852296e+00
-7.6367532368e+00	-6.9296464557e+00	 1.3373494147e+00
-7.6721085759e+00	-6.9650017947e+00	 1.2915548853e+00
-7.7074639149e+00	-7.0003571338e+00	 1.2201017598e+00
-7.7428192540e+00	-7.0357124728e+00	 1.1229901564e+00
-7.7781745931e+00	-7.0710678119e+00	 1.0002201934e+00
-7.4246212025e+00	-6.7175144213e+00	 1.0732794472e+00
-7.4599765416e+00	-6.7528697604e+00	 1.1814389790e+00
-7.4953318806e+00	-6.7882250994e+00	 1.2639392048e+00
-7.5306872197e+00	-6.8235804385e+00	 1.3207802430e+00
-7.5660425587e+00	-6.8589357775e+00	 1.3519622118e+00
-7.6013978978e+00	-6.8942911166e+00	 1.3574852296e+00
-7.6367532368e+00	-6.9296464557e+00	 1.3373494147e+00
-7.6721085759e+00	-6.9650017947e+00	 1.2915548853e+00
-7.7074639149e+00	-7.0003571338e+00	 1.2201017598e+00
-7.7428192540e+00	-7.0357124728e+00	 1.1229901564e+00
-7.7781745931e+00	-7.0710678119e+00	 1.0002201934e+00
-7.4988674145e+00	-6.6432682093e+00	 9.3542339767e-01
-7.5416473748e+00	-6.6860481695e+00	 1.0395335066e+00
-7.5844273350e+00	-6.7288281298e+00	 1.1198278966e+00
-7.6272072953e+00	-6.7716080901e+00	 1.1763067771e+00
-7.6699872555e+00	-6.8143880503e+00	 1.2089703577e+00
-7.7127672158e+00	-6.8571680106e+00	 1.2178188479e+00
-7.7555471761e+00	-6.8999479708e+00	 1.2028524575e+00
-7.7983271363e+00	-6.9427279311e+00	 1.1640713958e+00
-7.8411070966e+00	-6.9855078914e+00	 1.1014758725e+00
-7.8838870568e+00	-7.0282878516e+00	 1.0150660971e+00
-7.9266670171e+00	-7.0710678119e+00	 9.0484227929e-01
-7.5801846944e+00	-6.5619509294e+00	 8.3254247916e-01
-7.6310963826e+00	-6.6128626177e+00	 9.3047353211e-01
-7.6820080708e+00	-6.6637743059e+00	 1.0062529106e+00
-7.7329197591e+00	-6.7146859942e+00	 1.0598809677e+00
-7.7838314473e+00	-6.7655976824e+00	 1.0913580568e+00
-7.8347431355e+00	-6.8165093707e+00	 1.1006845311e+00
-7.8856548238e+00	-6.8674210589e+00	 1.0878607438e+00
-7.9365665120e+00	-6.9183327472e+00	 1.0528870481e+00
-7.9874782003e+00	-6.9692444354e+00	 9.9576379726e-01
-8.0383898885e+00	-7.0201561237e+00	 9.1649134453e-01
-8.0893015768e+00	-7.0710678119e+00	 8.1507004312e-01
-7.6685730420e+00	-6.4735625818e+00	 7.5375862640e-01
-7.7283235650e+00	-6.5333131048e+00	 8.4442422255e-01
-7.7880740880e+00	-6.5930636278e+00	 9.1443853201e-01
-7.8478246110e+00	-6.6528141508e+00	 9.6380212577e-01
-7.9075751340e+00	-6.7125646738e+00	 9.9251557482e-01
-7.9673256570e+00	-6.7723151968e+00	 1.0005794501e+00
-8.0270761800e+00	-6.8320657199e+00	 9.8799432274e-01
-8.0868267030e+00	-6.8918162429e+00	 9.5476076359e-01
-8.1465772260e+00	-6.9515667659e+00	 9.0087934370e-01
-8.2063277490e+00	-7.0113172889e+00	 8.2635063408e-01
-8.2660782721e+00	-7.0710678119e+00	 7.3117520573e-01
-7.7640324575e+00	-6.3781031663e+00	 6.9202965275e-01
-7.8333289220e+00	-6.4473996309e+00	 7.7493728119e-01
-7.9026253866e+00	-6.5166960954e+00	 8.3854892326e-01
-7.9719218511e+00	-6.5859925600e+00	 8.8286546964e-01
-8.0412183156e+00	-6.6552890246e+00	 9.0788781104e-01
-8.1105147802e+00	-6.7245854891e+00	 9.1361683817e-01
-8.1798112448e+00	-6.7938819537e+00	 9.0005344174e-01
-8.2491077093e+00	-6.8631784182e+00	 8.6719851248e-01
-8.3184041739e+00	-6.9324748828e+00	 8.1505294113e-01
-8.3877006384e+00	-7.0017713473e+00	 7.4361761842e-01
-8.4569971030e+00	-7.0710678119e+00	 6.5289343510e-01
-7.8665629407e+00	-6.2755726831e+00	 6.4264412892e-01
-7.9461124536e+00	-6.3551221959e+00	 7.1764230552e-01
-8.0256619665e+00	-6.4346717088e+00	 7.7457290215e-01
-8.1052114793e+00	-6.5142212217e+00	 8.1343726626e-01
-8.1847609922e+00	-6.5937707346e+00	 8.3423674530e-01
-8.2643105051e+00	-6.6733202475e+00	 8.3697268674e-01
-8.3438600180e+00	-6.7528697604e+00	 8.2164643805e-01
-8.4234095309e+00	-6.8324192732e+00	 7.8825934672e-01
-8.5029590437e+00	-6.9119687861e+00	 7.3681276027e-01
-8.5825085566e+00	-6.9915182990e+00	 6.6730802620e-01
-8.6620580695e+00	-7.0710678119e+00	 5.7974649206e-01
-7.9761644918e+00	-6.1659711320e+00	 6.0236013642e-01
-8.0666741598e+00	-6.2564808000e+00	 6.6949188077e-01
-8.1571838278e+00	-6.3469904680e+00	 7.1967423520e-01
-8.2476934958e+00	-6.4375001359e+00	 7.5290918434e-01
-8.3382031637e+00	-6.5280098039e+00	 7.6919871286e-01
-8.4287128317e+00	-6.6185194719e+00	 7.6854480544e-01
-8.5192224997e+00	-6.7090291399e+00	 7.5094944680e-01
-8.6097321677e+00	-6.7995388079e+00	 7.1641462166e-01
-8.7002418357e+00	-6.8900484759e+00	 6.6494231477e-01
-8.7907515037e+00	-6.9805581439e+00	 5.9653451092e-01
-8.8812611717e+00	-7.0710678119e+00	 5.1844694549e-01
-8.0928371107e+00	-6.0492985131e+00	 5.6889194406e-01
-8.1950140406e+00	-6.1514754429e+00	 6.2830794918e-01
-8.2971909704e+00	-6.2536523728e+00	 6.7179738917e-01
-8.3993679003e+00	-6.3558293027e+00	 6.9936311938e-01
-8.5015448302e+00	-6.4580062326e+00	 7.1100799518e-01
-8.6037217601e+00	-6.5601831625e+00	 7.0673487195e-01
-8.7058986899e+00	-6.6623600924e+00	 6.8654660516e-01
-8.8080756198e+00	-6.7645370222e+00	 6.5044605026e-01
-8.9102525497e+00	-6.8667139521e+00	 6.0937731461e-01
-9.0124294796e+00	-6.9688908820e+00	 5.5431828128e-01
-9.1146064095e+00	-7.0710678119e+00	 4.8326526587e-01
-8.2165807974e+00	-5.9255548264e+00	 5.4059312766e-01
-8.3311320959e+00	-6.0401061249e+00	 5.9249946010e-01
-8.4456833945e+00	-6.1546574235e+00	 6.2941975292e-01
-8.5602346930e+00	-6.2692087220e+00	 6.5135802956e-01
-8.6747859916e+00	-6.3837600206e+00	 6.5831831352e-01
-8.7893372901e+00	-6.4983113191e+00	 6.5030462838e-01
-8.9038885887e+00	-6.6128626177e+00	 6.3748408532e-01
-9.0184398872e+00	-6.7274139162e+00	 6.1400542822e-01
-9.1329911858e+00	-6.8419652148e+00	 5.7547395220e-01
-9.2475424843e+00	-6.9565165133e+00	 5.2187334693e-01
-9.3620937829e+00	-7.0710678119e+00	 4.5318730204e-01
-8.3473955519e+00	-5.7947400718e+00	 5.1625488423e-01
-8.4750283259e+00	-5.9223728458e+00	 5.6088115756e-01
-8.6026610999e+00	-6.0500056198e+00	 5.9139107526e-01
-8.7302938739e+00	-6.1776383939e+00	 6.0779020262e-01
-8.8579266479e+00	-6.3052711679e+00	 6.1442363175e-01
-8.9855594219e+00	-6.4329039419e+00	 6.1880395658e-01
-9.1131921959e+00	-6.5605367159e+00	 6.0901552318e-01
-9.2408249699e+00	-6.6881694899e+00	 5.8503577118e-01
-9.3684577439e+00	-6.8158022639e+00	 5.4684214015e-01
-9.4960905179e+00	-6.9434350379e+00	 4.9441206964e-01
-9.6237232919e+00	-7.0710678119e+00	 4.2772299915e-01
-8.4852813742e+00	-5.6568542495e+00	 4.9497416252e-01
-8.6267027304e+00	-5.7982756057e+00	 5.3255409194e-01
-8.7681240867e+00	-5.9396969620e+00	 5.5682657505e-01
-8.9095454429e+00	-6.0811183182e+00	 5.7868864777e-01
-9.0509667992e+00	-6.2225396745e+00	 5.9429585109e-01
-9.1923881554e+00	-6.3639610307e+00	 5.9654902510e-01
-9.3338095116e+00	-6.5053823869e+00	 5.8541747943e-01
-9.4752308679e+00	-6.6468037432e+00	 5.6087052366e-01
-9.6166522241e+00	-6.7882250994e+00	 5.2287746732e-01
-9.7580735804e+00	-6.9296464557e+00	 4.7140761986e-01
-9.8994949366e+00	-7.0710678119e+00	 4.0643029065e-01
-7.0710678119e+00	-7.0710678119e+00	-5.9071788545e-02
-7.0710678119e+00	-7.0710678119e+00	-5.9071788545e-02
-7.0710678119e+00	-7.0710678119e+00	-5.9071788545e-02
-7.0710678119e+00	-7.0710678119e+00	-5.9071788545e-02
-7.0710678119e+00	-7.0710678119e+00	-5.9071788545e-02
-7.0710678119e+00	-7.0710678119e+00	-5.9071788545e-02
-7.0710678119e+00	-7.0710678119e+00	-5.9071788545e-02
-7.0710678119e+00	-7.0710678119e+00	-5.9071788545e-02
-7.0710678119e+00	-7.0710678119e+00	-5.9071788545e-02
-7.0710678119e+00	-7.0710678119e+00	-5.9071788545e-02
-7.0710678119e+00	-7.0710678119e+00	-5.9071788545e-02
-7.0781388797e+00	-7.0710678119e+00	 1.0224914564e+01
-7.0777853263e+00	-7.0714213653e+00	 1.0818377553e+01
-7.0774317729e+00	-7.0717749187e+00	 1.1021982875e+01
-7.0770782195e+00	-7.0721284721e+00	 1.0835730531e+01
-7.0767246661e+00	-7.0724820255e+00	 1.0259620521e+01
-7.0763711128e+00	-7.0728355789e+00	 9.2936528455e+00
-7.0760175594e+00	-7.0731891322e+00	 7.9378275035e+00
-7.0756640060e+00	-7.0735426856e+00	 6.1921444954e+00
-7.0753104526e+00	-7.0738962390e+00	 4.0566038211e+00
-7.0749568992e+00	-7.0742497924e+00	 1.5312054807e+00
-7.0746033458e+00	-7.0746033458e+00	-1.3840505258e+00
-7.0993520831e+00	-7.0710678119e+00	 4.9373544050e+00
-7.0979378696e+00	-7.0724820255e+00	 5.2731934316e+00
-7.0965236560e+00	-7.0738962390e+00	 5.4105429366e+00
-7.0951094425e+00	-7.0753104526e+00	 5.3494029199e+00
-7.0936952289e+00	-7.0767246661e+00	 5.0897733817e+00
-7.0922810153e+00	-7.0781388797e+00	 4.6316543219e+00
-7.0908668018e+00	-7.0795530933e+00	 3.9750457405e+00
-7.0894525882e+00	-7.0809673068e+00	 3.1199476375e+00
-7.0880383746e+00	-7.0823815204e+00	 2.0663600130e+00
-7.0866241611e+00	-7.0837957340e+00	 8.1428286683e-01
-7.0852099475e+00	-7.0852099475e+00	-6.3628380090e-01
-7.1347074222e+00	-7.0710678119e+00	 3.2641403665e+00
-7.1315254417e+00	-7.0742497924e+00	 3.4927258738e+00
-7.1283434612e+00	-7.0774317729e+00	 3.5886596313e+00
-7.1251614807e+00	-7.0806137534e+00	 3.5519416389e+00
-7.1219795001e+00	-7.0837957340e+00	 3.3825718968e+00
-7.1187975196e+00	-7.0869777145e+00	 3.0805504051e+00
-7.1156155391e+00	-7.0901596950e+00	 2.6458771638e+00
-7.1124335586e+00	-7.0933416755e+00	 2.0785521730e+00
-7.1092515781e+00	-7.0965236560e+00	 1.3785754327e+00
-7.1060695976e+00	-7.0997056365e+00	 5.4594694318e-01
-7.1028876171e+00	-7.1028876171e+00	-4.1933329566e-01
-7.1842048969e+00	-7.0710678119e+00	 2.4427893310e+00
-7.1785480426e+00	-7.0767246661e+00	 2.6138021781e+00
-7.1728911884e+00	-7.0823815204e+00	 2.6854662980e+00
-7.1672343341e+00	-7.0880383746e+00	 2.6577816911e+00
-7.1615774799e+00	-7.0936952289e+00	 2.5307483580e+00
-7.1559206256e+00	-7.0993520831e+00	 2.3043662991e+00
-7.1502637714e+00	-7.1050089374e+00	 1.9786355148e+00
-7.1446069171e+00	-7.1106657916e+00	 1.5535560056e+00
-7.1389500629e+00	-7.1163226459e+00	 1.0291277720e+00
-7.1332932086e+00	-7.1219795001e+00	 4.0535081429e-01
-7.1276363544e+00	-7.1276363544e+00	-3.1777486697e-01
-7.2478445072e+00	-7.0710678119e+00	 1.9535286984e+00
-7.2390056724e+00	-7.0799066467e+00	 2.0887916563e+00
-7.2301668377e+00	-7.0887454814e+00	 2.1448107254e+00
-7.2213280029e+00	-7.0975843162e+00	 2.1215859073e+00
-7.2124891681e+00	-7.1064231510e+00	 2.0191172038e+00
-7.2036503334e+00	-7.1152619857e+00	 1.8374046166e+00
-7.1948114986e+00	-7.1241008205e+00	 1.5764481474e+00
-7.1859726638e+00	-7.1329396553e+00	 1.2362477979e+00
-7.1771338291e+00	-7.1417784900e+00	 8.1680356984e-01
-7.1682949943e+00	-7.1506173248e+00	 3.1811546499e-01
-7.1594561595e+00	-7.1594561595e+00	-2.5981651496e-01
-7.3256262531e+00	-7.0710678119e+00	 1.6276474125e+00
-7.3128983311e+00	-7.0837957340e+00	 1.7386251992e+00
-7.3001704090e+00	-7.0965236560e+00	 1.7838137185e+00
-7.2874424869e+00	-7.1092515781e+00	 1.7632129755e+00
-7.2747145649e+00	-7.1219795001e+00	 1.6768229755e+00
-7.2619866428e+00	-7.1347074222e+00	 1.5246437234e+00
-7.2492587208e+00	-7.1474353443e+00	 1.3066752245e+00
-7.2365307987e+00	-7.1601632663e+00	 1.0229174839e+00
-7.2238028766e+00	-7.1728911884e+00	 6.7337050682e-01
-7.2110749546e+00	-7.1856191105e+00	 2.5803429835e-01
-7.1983470325e+00	-7.1983470325e+00	-2.2309113637e-01
-7.4175501347e+00	-7.0710678119e+00	 1.3939555505e+00
-7.4002260185e+00	-7.0883919280e+00	 1.4874114253e+00
-7.3829019024e+00	-7.1057160442e+00	 1.5247138138e+00
-7.3655777862e+00	-7.1230401603e+00	 1.5058627287e+00
-7.3482536701e+00	-7.1403642765e+00	 1.4308581833e+00
-7.3309295540e+00	-7.1576883926e+00	 1.2997001904e+00
-7.3136054378e+00	-7.1750125087e+00	 1.1123887630e+00
-7.2962813217e+00	-7.1923366249e+00	 8.6892391413e-01
-7.2789572056e+00	-7.2096607410e+00	 5.6930565679e-01
-7.2616330894e+00	-7.2269848572e+00	 2.1353400394e-01
-7.2443089733e+00	-7.2443089733e+00	-1.9839103143e-01
-7.5236161518e+00	-7.0710678119e+00	 1.2172252530e+00
-7.5009887348e+00	-7.0936952289e+00	 1.2974859489e+00
-7.4783613178e+00	-7.1163226459e+00	 1.3288340313e+00
-7.4557339008e+00	-7.1389500629e+00	 1.3112695291e+00
-7.4331064838e+00	-7.1615774799e+00	 1.2447924711e+00
-7.4104790669e+00	-7.1842048969e+00	 1.1294028865e+00
-7.3878516499e+00	-7.2068323139e+00	 9.6510080409e-01
-7.3652242329e+00	-7.2294597309e+00	 7.5188625282e-01
-7.3425968159e+00	-7.2520871479e+00	 4.8975926165e-01
-7.3199693989e+00	-7.2747145649e+00	 1.7871985951e-01
-7.2973419819e+00	-7.2973419819e+00	-1.8123192466e-01
-7.6438243046e+00	-7.0710678119e+00	 1.0780317316e+00
-7.6151864800e+00	-7.0997056365e+00	 1.1480367554e+00
-7.5865486554e+00	-7.1283434612e+00	 1.1747694581e+00
-7.5579108307e+00	-7.1569812858e+00	 1.1582298983e+00
-7.5292730061e+00	-7.1856191105e+00	 1.0984181348e+00
-7.5006351814e+00	-7.2142569351e+00	 9.9533422614e-01
-7.4719973568e+00	-7.2428947597e+00	 8.4897823107e-01
-7.4433595322e+00	-7.2715325844e+00	 6.5935020825e-01
-7.4147217075e+00	-7.3001704090e+00	 4.2645021633e-01
-7.3860838829e+00	-7.3288082336e+00	 1.5027831400e-01
-7.3574460583e+00	-7.3574460583e+00	-1.6916544009e-01
-7.7781745931e+00	-7.0710678119e+00	 9.6478706054e-01
-7.7428192540e+00	-7.1064231510e+00	 1.0266287871e+00
-7.7074639149e+00	-7.1417784900e+00	 1.0497159532e+00
-7.6721085759e+00	-7.1771338291e+00	 1.0340486693e+00
-7.6367532368e+00	-7.2124891681e+00	 9.7962704568e-01
-7.6013978978e+00	-7.2478445072e+00	 8.8645119285e-01
-7.5660425587e+00	-7.2831998463e+00	 7.5452122117e-01
-7.5306872197e+00	-7.3185551853e+00	 5.8383724104e-01
-7.4953318806e+00	-7.3539105244e+00	 3.7439936286e-01
-7.4599765416e+00	-7.3892658634e+00	 1.2620769701e-01
-7.4246212025e+00	-7.4246212025e+00	-1.6073764609e-01
-7.7781745931e+00	-7.0710678119e+00	 9.6478706054e-01
-7.7428192540e+00	-7.1064231510e+00	 1.0266287871e+00
-7.7074639149e+00	-7.1417784900e+00	 1.0497159532e+00
-7.6721085759e+00	-7.1771338291e+00	 1.0340486693e+00
-7.6367532368e+00	-7.2124891681e+00	 9.7962704568e-01
-7.6013978978e+00	-7.2478445072e+00	 8.8645119285e-01
-7.5660425587e+00	-7.2831998463e+00	 7.5452122117e-01
-7.5306872197e+00	-7.3185551853e+00	 5.8383724104e-01
-7.4953318806e+00	-7.3539105244e+00	 3.7439936286e-01
-7.4599765416e+00	-7.3892658634e+00	 1.2620769701e-01
-7.4246212025e+00	-7.4246212025e+00	-1.6073764609e-01
-7.9266670171e+00	-7.0710678119e+00	 8.4891384542e-01
-7.8838870568e+00	-7.1138477722e+00	 9.0768755133e-01
-7.8411070966e+00	-7.1566277324e+00	 9.3138561329e-01
-7.7983271363e+00	-7.1994076927e+00	 9.2000822687e-01
-7.7555471761e+00	-7.2421876530e+00	 8.7355558764e-01
-7.7127672158e+00	-7.2849676132e+00	 7.9202789119e-01
-7.6699872555e+00	-7.3277475735e+00	 6.7542533308e-01
-7.6272072953e+00	-7.3705275337e+00	 5.2374810889e-01
-7.5844273350e+00	-7.4133074940e+00	 3.3699641421e-01
-7.5416473748e+00	-7.4560874543e+00	 1.1517044459e-01
-7.4988674145e+00	-7.4988674145e+00	-1.4172960437e-01
-8.0893015768e+00	-7.0710678119e+00	 7.5388904437e-01
-8.0383898885e+00	-7.1219795001e+00	 8.1002785591e-01
-7.9874782003e+00	-7.1728911884e+00	 8.3416667686e-01
-7.9365665120e+00	-7.2238028766e+00	 8.2630583688e-01
-7.8856548238e+00	-7.2747145649e+00	 7.8644566560e-01
-7.8347431355e+00	-7.3256262531e+00	 7.1458649267e-01
-7.7838314473e+00	-7.3765379414e+00	 6.1072864771e-01
-7.7329197591e+00	-7.4274496296e+00	 4.7487246039e-01
-7.6820080708e+00	-7.4783613179e+00	 3.0701826034e-01
-7.6310963826e+00	-7.5292730061e+00	 1.0716637722e-01
-7.5801846944e+00	-7.5801846944e+00	-1.2468285933e-01
-8.2660782721e+00	-7.0710678119e+00	 6.7394749419e-01
-8.2063277490e+00	-7.1308183349e+00	 7.2783369183e-01
-8.1465772260e+00	-7.1905688579e+00	 7.5232939210e-01
-8.0868267030e+00	-7.2503193809e+00	 7.4743512784e-01
-8.0270761800e+00	-7.3100699039e+00	 7.1315143192e-01
-7.9673256570e+00	-7.3698204270e+00	 6.4947883718e-01
-7.9075751340e+00	-7.4295709500e+00	 5.5641787650e-01
-7.8478246110e+00	-7.4893214730e+00	 4.3396908272e-01
-7.7880740880e+00	-7.5490719960e+00	 2.8213298873e-01
-7.7283235650e+00	-7.6088225190e+00	 1.0091012739e-01
-7.6685730420e+00	-7.6685730420e+00	-1.0969896841e-01
-8.4569971030e+00	-7.0710678119e+00	 6.0518119638e-01
-8.3877006384e+00	-7.1403642765e+00	 6.5715160087e-01
-8.3184041739e+00	-7.2096607410e+00	 6.8197321865e-01
-8.2491077093e+00	-7.2789572056e+00	 6.7964688095e-01
-8.1798112448e+00	-7.3482536701e+00	 6.5017341897e-01
-8.1105147802e+00	-7.4175501347e+00	 5.9355366394e-01
-8.0412183156e+00	-7.4868465992e+00	 5.0978844707e-01
-7.9719218511e+00	-7.5561430638e+00	 3.9887859961e-01
-7.9026253866e+00	-7.6254395284e+00	 2.6082495279e-01
-7.8333289220e+00	-7.6947359929e+00	 9.5628337862e-02
-7.7640324575e+00	-7.7640324575e+00	-9.6710413919e-02
-8.6620580695e+00	-7.0710678119e+00	 5.4485577901e-01
-8.5825085566e+00	-7.1506173248e+00	 5.9520868327e-01
-8.5029590437e+00	-7.2301668377e+00	 6.2035908976e-01
-8.4234095309e+00	-7.3097163506e+00	 6.2030825593e-01
-8.3438600180e+00	-7.3892658634e+00	 5.9505743919e-01
-8.2643105051e+00	-7.4688153763e+00	 5.4460789702e-01
-8.1847609922e+00	-7.5483648892e+00	 4.6896088687e-01
-8.1052114793e+00	-7.6279144021e+00	 3.6811766622e-01
-8.0256619665e+00	-7.7074639150e+00	 2.4207949256e-01
-7.9461124536e+00	-7.7870134278e+00	 9.0847623385e-02
-7.8665629407e+00	-7.8665629407e+00	-8.5576683778e-02
-8.8812611717e+00	-7.0710678119e+00	 4.9825976505e-01
-8.7907515037e+00	-7.1615774799e+00	 5.4000800557e-01
-8.7002418357e+00	-7.2520871479e+00	 5.6551270604e-01
-8.6097321677e+00	-7.3425968159e+00	 5.6752196789e-01
-8.5192224997e+00	-7.4331064839e+00	 5.4603764319e-01
-8.4287128317e+00	-7.5236161519e+00	 5.0106158402e-01
-8.3382031637e+00	-7.6141258198e+00	 4.3259564248e-01
-8.2476934958e+00	-7.7046354878e+00	 3.4064167069e-01
-8.1571838278e+00	-7.7951451558e+00	 2.2520152080e-01
-8.0666741598e+00	-7.8856548238e+00	 8.6277044971e-02
-7.9761644918e+00	-7.9761644918e+00	-7.6129904609e-02
-9.1146064095e+00	-7.0710678119e+00	 4.7875273281e-01
-9.0124294796e+00	-7.1732447418e+00	 5.1378917768e-01
-8.9102525497e+00	-7.2754216717e+00	 5.2684265418e-01
-8.8080756198e+00	-7.3775986015e+00	 5.1989078853e-01
-8.7058986899e+00	-7.4797755314e+00	 5.0181597261e-01
-8.6037217601e+00	-7.5819524613e+00	 4.6175750479e-01
-8.5015448302e+00	-7.6841293912e+00	 3.9971804970e-01
-8.3993679003e+00	-7.7863063211e+00	 3.1570027197e-01
-8.2971909704e+00	-7.8884832509e+00	 2.0970683631e-01
-8.1950140406e+00	-7.9906601808e+00	 8.1740407430e-02
-8.0928371107e+00	-8.0928371107e+00	-6.8196349912e-02
-9.3620937829e+00	-7.0710678119e+00	 4.6473353035e-01
-9.2475424843e+00	-7.1856191105e+00	 4.9735691711e-01
-9.1329911858e+00	-7.3001704090e+00	 5.0934075743e-01
-9.0184398872e+00	-7.4147217076e+00	 5.0069332369e-01
-8.9038885887e+00	-7.5292730061e+00	 4.7142288840e-01
-8.7893372901e+00	-7.6438243047e+00	 4.2583335492e-01
-8.6747859916e+00	-7.7583756032e+00	 3.6960717018e-01
-8.5602346930e+00	-7.8729269017e+00	 2.9274637601e-01
-8.4456833945e+00	-7.9874782003e+00	 1.9525472719e-01
-8.3311320959e+00	-8.1020294988e+00	 7.7135978556e-02
-8.2165807974e+00	-8.2165807974e+00	-6.1606114986e-02
-9.6237232919e+00	-7.0710678119e+00	 4.5533347530e-01
-9.4960905179e+00	-7.1987005859e+00	 4.8565534585e-01
-9.3684577439e+00	-7.3263333599e+00	 4.9654096297e-01
-9.2408249699e+00	-7.4539661339e+00	 4.8800176896e-01
-9.1131921959e+00	-7.5815989079e+00	 4.6004920633e-01
-8.9855594219e+00	-7.7092316819e+00	 4.1269471784e-01
-8.8579266479e+00	-7.8368644559e+00	 3.4594974648e-01
-8.7302938739e+00	-7.9644972299e+00	 2.7137705789e-01
-8.6026610999e+00	-8.0921300039e+00	 1.8160492446e-01
-8.4750283259e+00	-8.2197627779e+00	 7.2411869942e-02
-8.3473955519e+00	-8.3473955519e+00	-5.6196911879e-02
-9.8994949366e+00	-7.0710678119e+00	 4.4986801490e-01
-9.7580735804e+00	-7.2124891681e+00	 4.7798247411e-01
-9.6166522241e+00	-7.3539105244e+00	 4.8774433966e-01
-9.4752308679e+00	-7.4953318806e+00	 4.7916917722e-01
-9.3338095116e+00	-7.6367532368e+00	 4.5227255278e-01
-9.1923881554e+00	-7.7781745931e+00	 4.0707003271e-01
-9.0509667992e+00	-7.9195959493e+00	 3.4357718374e-01
-8.9095454429e+00	-8.0610173055e+00	 2.6180957296e-01
-8.7681240867e+00	-8.2024386618e+00	 1.6858940093e-01
-8.6267027304e+00	-8.3438600180e+00	 6.7550655343e-02
-8.4852813742e+00	-8.4852813742e+00	-5.1814948780e-02
-5.6568542495e+00	-5.6568542495e+00	 5.0991110872e-01
-5.7982756057e+00	-5.5154328933e+00	 5.0140080107e-01
-5.9396969620e+00	-5.3740115370e+00	 4.8386639313e-01
-6.0811183182e+00	-5.2325901808e+00	 4.5730081940e-01
-6.2225396745e+00	-5.0911688245e+00	 4.2169701451e-01
-6.3639610307e+00	-4.9497474683e+00	 3.7704791321e-01
-6.5053823869e+00	-4.8083261121e+00	 3.2334645040e-01
-6.6468037432e+00	-4.6669047558e+00	 2.6058556109e-01
-6.7882250994e+00	-4.5254833996e+00	 1.8875818042e-01
-6.9296464557e+00	-4.3840620433e+00	 1.0785724366e-01
-7.0710678119e+00	-4.2426406871e+00	 1.7875686209e-02
-5.3740115370e+00	-5.3740115370e+00	 4.8273626963e-01
-5.5154328933e+00	-5.2325901808e+00	 4.7403601883e-01
-5.6568542495e+00	-5.0911688245e+00	 4.5714123817e-01
-5.7982756057e+00	-4.9497474683e+00	 4.3204486215e-01
-5.9396969620e+00	-4.8083261121e+00	 3.9873982540e-01
-6.0811183182e+00	-4.6669047558e+00	 3.5721906268e-01
-6.2225396745e+00	-4.5254833996e+00	 3.0747550887e-01
-6.3639610307e+00	-4.3840620433e+00	 2.4950209897e-01
-6.5053823869e+00	-4.2426406871e+00	 1.8329176814e-01
-6.6468037432e+00	-4.1012193309e+00	 1.0883745164e-01
-6.7882250994e+00	-3.9597979746e+00	 2.6132084858e-02
-5.0911688245e+00	-5.0911688245e+00	 4.5461829949e-01
-5.2325901808e+00	-4.9497474683e+00	 4.4585299023e-01
-5.3740115370e+00	-4.8083261121e+00	 4.2972272138e-01
-5.5154328933e+00	-4.6669047558e+00	 4.0622042743e-01
-5.6568542495e+00	-4.5254833996e+00	 3.7533904301e-01
-5.7982756057e+00	-4.3840620433e+00	 3.3707150287e-01
-5.9396969620e+00	-4.2426406871e+00	 2.9141074188e-01
-6.0811183182e+00	-4.1012193309e+00	 2.3834969507e-01
-6.2225396745e+00	-3.9597979746e+00	 1.7788129757e-01
-6.3639610307e+00	-3.8183766184e+00	 1.0999848463e-01
-6.5053823869e+00	-3.6769552621e+00	 3.4694191658e-02
-4.8083261121e+00	-4.8083261121e+00	 4.2549664671e-01
-4.9497474683e+00	-4.6669047558e+00	 4.1679116372e-01
-5.0911688245e+00	-4.5254833996e+00	 4.0155029122e-01
-5.2325901808e+00	-4.3840620433e+00	 3.7976696371e-01
-5.3740115370e+00	-4.2426406871e+00	 3.5143411580e-01
-5.5154328933e+00	-4.1012193309e+00	 3.1654468226e-01
-5.6568542495e+00	-3.9597979746e+00	 2.7509159796e-01
-5.7982756057e+00	-3.8183766184e+00	 2.2706779790e-01
-5.9396969620e+00	-3.6769552621e+00	 1.7246621722e-01
-6.0811183182e+00	-3.5355339059e+00	 1.1127979387e-01
-6.2225396745e+00	-3.3941125497e+00	 4.2315414306e-02
-4.5254833996e+00	-4.5254833996e+00	 3.9531076187e-01
-4.6669047558e+00	-4.3840620433e+00	 3.8678998987e-01
-4.8083261121e+00	-4.2426406871e+00	 3.7256339827e-01
-4.9497474683e+00	-4.1012193309e+00	 3.5262392158e-01
-5.0911688245e+00	-3.9597979746e+00	 3.2696449440e-01
-5.2325901808e+00	-3.8183766184e+00	 2.9557805149e-01
-5.3740115370e+00	-3.6769552621e+00	 2.5845752772e-01
-5.5154328933e+00	-3.5355339059e+00	 2.1559586082e-01
-5.6568542495e+00	-3.3941125497e+00	 1.6578624752e-01
-5.7982756057e+00	-3.2526911934e+00	 1.0821083231e-01
-5.9396969620e+00	-3.1112698372e+00	 4.4775824516e-02
-4.2426406871e+00	-4.2426406871e+00	 3.6400009767e-01
-4.3840620434e+00	-4.1012193309e+00	 3.5578892139e-01
-4.5254833996e+00	-3.9597979746e+00	 3.4270149526e-01
-4.6669047558e+00	-3.8183766184e+00	 3.2473075377e-01
-4.8083261121e+00	-3.6769552622e+00	 3.0186963154e-01
-4.9497474683e+00	-3.5355339059e+00	 2.7411106603e-01
-5.0911688245e+00	-3.3941125497e+00	 2.4023529395e-01
-5.2325901808e+00	-3.2526911934e+00	 1.9939859929e-01
-5.3740115370e+00	-3.1112698372e+00	 1.5352006524e-01
-5.5154328933e+00	-2.9698484810e+00	 1.0261173059e-01
-5.6568542495e+00	-2.8284271247e+00	 4.6685634109e-02
-3.9597979746e+00	-3.9597979746e+00	 3.3150410892e-01
-4.1012193309e+00	-3.8183766184e+00	 3.2372741313e-01
-4.2426406871e+00	-3.6769552622e+00	 3.1190403705e-01
-4.3840620434e+00	-3.5355339059e+00	 2.9602691787e-01
-4.5254833996e+00	-3.3941125497e+00	 2.7486406197e-01
-4.6669047558e+00	-3.2526911934e+00	 2.4754633831e-01
-4.8083261121e+00	-3.1112698372e+00	 2.1600452847e-01
-4.9497474683e+00	-2.9698484810e+00	 1.8025067123e-01
-5.0911688245e+00	-2.8284271247e+00	 1.4029680538e-01
-5.2325901808e+00	-2.6870057685e+00	 9.6154969691e-02
-5.3740115370e+00	-2.5455844122e+00	 4.7837202939e-02
-3.6769552622e+00	-3.6769552622e+00	 2.9776225262e-01
-3.8183766184e+00	-3.5355339059e+00	 2.9054492472e-01
-3.9597979746e+00	-3.3941125497e+00	 2.7887405995e-01
-4.1012193309e+00	-3.2526911934e+00	 2.6185555774e-01
-4.2426406871e+00	-3.1112698372e+00	 2.4143072257e-01
-4.3840620434e+00	-2.9698484810e+00	 2.1761159322e-01
-4.5254833996e+00	-2.8284271247e+00	 1.9041020845e-01
-4.6669047558e+00	-2.6870057685e+00	 1.5983860705e-01
-4.8083261121e+00	-2.5455844122e+00	 1.2590882781e-01
-4.9497474683e+00	-2.4041630560e+00	 8.8632909480e-02
-5.0911688245e+00	-2.2627416998e+00	 4.8022890856e-02
-3.3941125497e+00	-3.3941125497e+00	 2.6146679626e-01
-3.5355339059e+00	-3.2526911935e+00	 2.5152776597e-01
-3.6769552622e+00	-3.1112698372e+00	 2.3900015593e-01
-3.8183766184e+00	-2.9698484810e+00	 2.2389600491e-01
-3.9597979746e+00	-2.8284271247e+00	 2.0622735169e-01
-4.1012193309e+00	-2.6870057685e+00	 1.8600623505e-01
-4.2426406871e+00	-2.5455844123e+00	 1.6324469376e-01
-4.3840620434e+00	-2.4041630560e+00	 1.3795476661e-01
-4.5254833996e+00	-2.2627416998e+00	 1.1014849236e-01
-4.6669047558e+00	-2.1213203435e+00	 7.9837909806e-02
-4.8083261121e+00	-1.9798989873e+00	 4.7035057714e-02
-3.1112698372e+00	-3.1112698372e+00	 2.1791433691e-01
-3.2526911935e+00	-2.9698484810e+00	 2.0830541469e-01
-3.3941125497e+00	-2.8284271247e+00	 1.9694974347e-01
-3.5355339059e+00	-2.6870057685e+00	 1.8385936204e-01
-3.6769552622e+00	-2.5455844123e+00	 1.6904630918e-01
-3.8183766184e+00	-2.4041630560e+00	 1.5252262366e-01
-3.9597979746e+00	-2.2627416998e+00	 1.3430034425e-01
-4.1012193309e+00	-2.1213203435e+00	 1.1439150974e-01
-4.2426406871e+00	-1.9798989873e+00	 9.2808158907e-02
-4.3840620433e+00	-1.8384776311e+00	 6.9562330522e-02
-4.5254833996e+00	-1.6970562748e+00	 4.4666063364e-02
-2.8284271248e+00	-2.8284271248e+00	 1.6445492726e-01
-2.9698484810e+00	-2.6870057685e+00	 1.6259949641e-01
-3.1112698372e+00	-2.5455844123e+00	 1.5251518243e-01
-3.2526911935e+00	-2.4041630560e+00	 1.4153798900e-01
-3.3941125497e+00	-2.2627416998e+00	 1.2967995489e-01
-3.5355339059e+00	-2.1213203435e+00	 1.1695311889e-01
-3.6769552622e+00	-1.9798989873e+00	 1.0336951977e-01
-3.8183766184e+00	-1.8384776311e+00	 8.8941196312e-02
-3.9597979746e+00	-1.6970562748e+00	 7.3680187288e-02
-4.1012193309e+00	-1.5556349186e+00	 5.7598531478e-02
-4.2426406871e+00	-1.4142135624e+00	 4.0708267658e-02
-2.8284271248e+00	-2.8284271248e+00	 1.6445492726e-01
-2.9698484810e+00	-2.6870057685e+00	 1.6259949641e-01
-3.1112698372e+00	-2.5455844123e+00	 1.5251518243e-01
-3.2526911935e+00	-2.4041630560e+00	 1.4153798900e-01
-3.3941125497e+00	-2.2627416998e+00	 1.2967995489e-01
-3.5355339059e+00	-2.1213203435e+00	 1.1695311889e-01
-3.6769552622e+00	-1.9798989873e+00	 1.0336951977e-01
-3.8183766184e+00	-1.8384776311e+00	 8.8941196312e-02
-3.9597979746e+00	-1.6970562748e+00	 7.3680187288e-02
-4.1012193309e+00	-1.5556349186e+00	 5.7598531478e-02
-4.2426406871e+00	-1.4142135624e+00	 4.0708267658e-02
-2.5455844123e+00	-2.5455844123e+00	 1.4846019079e-01
-2.6870057685e+00	-2.4041630560e+00	 1.4730781776e-01
-2.8284271248e+00	-2.2627416998e+00	 1.4507933241e-01
-2.9698484810e+00	-2.1213203436e+00	 1.4006136710e-01
-3.1112698372e+00	-1.9798989873e+00	 1.2748163068e-01
-3.2526911935e+00	-1.8384776311e+00	 1.1413169907e-01
-3.3941125497e+00	-1.6970562748e+00	 1.0002361104e-01
-3.5355339059e+00	-1.5556349186e+00	 8.5169405357e-02
-3.6769552622e+00	-1.4142135624e+00	 6.9581120810e-02
-3.8183766184e+00	-1.2727922061e+00	 5.3270796171e-02
-3.9597979746e+00	-1.1313708499e+00	 3.6250470218e-02
-2.2627416998e+00	-2.2627416998e+00	 1.3237714896e-01
-2.4041630560e+00	-2.1213203436e+00	 1.3002237998e-01
-2.5455844123e+00	-1.9798989873e+00	 1.2667280202e-01
-2.6870057685e+00	-1.8384776311e+00	 1.2232841509e-01
-2.8284271248e+00	-1.6970562748e+00	 1.1698921919e-01
-2.9698484810e+00	-1.5556349186e+00	 1.0910676305e-01
-3.1112698372e+00	-1.4142135624e+00	 9.4410244395e-02
-3.2526911935e+00	-1.2727922061e+00	 7.9066214785e-02
-3.3941125497e+00	-1.1313708499e+00	 6.3086713003e-02
-3.5355339059e+00	-9.8994949365e-01	 4.6483777825e-02
-3.6769552621e+00	-8.4852813741e-01	 2.9269448030e-02
-1.9798989873e+00	-1.9798989873e+00	 1.1620580177e-01
-2.1213203436e+00	-1.8384776311e+00	 1.1260074683e-01
-2.2627416998e+00	-1.6970562749e+00	 1.0808218626e-01
-2.4041630560e+00	-1.5556349186e+00	 1.0265012008e-01
-2.5455844123e+00	-1.4142135624e+00	 9.6304548265e-02
-2.6870057685e+00	-1.2727922061e+00	 8.9045470830e-02
-2.8284271248e+00	-1.1313708499e+00	 8.0872887772e-02
-2.9698484810e+00	-9.8994949366e-01	 7.0423984446e-02
-3.1112698372e+00	-8.4852813742e-01	 5.3989323720e-02
-3.2526911934e+00	-7.0710678118e-01	 3.7029836293e-02
-3.3941125497e+00	-5.6568542494e-01	 1.9557560944e-02
-1.6970562749e+00	-1.6970562749e+00	 9.9946149219e-02
-1.8384776311e+00	-1.5556349186e+00	 9.5042918311e-02
-1.9798989873e+00	-1.4142135624e+00	 8.9307485130e-02
-2.1213203436e+00	-1.2727922061e+00	 8.2739849676e-02
-2.2627416998e+00	-1.1313708499e+00	 7.5340011949e-02
-2.4041630560e+00	-9.8994949366e-01	 6.7107971949e-02
-2.5455844123e+00	-8.4852813742e-01	 5.8043729675e-02
-2.6870057685e+00	-7.0710678118e-01	 4.8147285129e-02
-2.8284271247e+00	-5.6568542494e-01	 3.7418638309e-02
-2.9698484810e+00	-4.2426406870e-01	 2.4701331426e-02
-3.1112698372e+00	-2.8284271246e-01	 6.9071688142e-03
-1.4142135624e+00	-1.4142135624e+00	 8.3598191305e-02
-1.5556349186e+00	-1.2727922061e+00	 7.7348894424e-02
-1.6970562749e+00	-1.1313708499e+00	 7.0348698620e-02
-1.8384776311e+00	-9.8994949367e-01	 6.2597603893e-02
-1.9798989873e+00	-8.4852813743e-01	 5.4095610243e-02
-2.1213203436e+00	-7.0710678119e-01	 4.4842717670e-02
-2.2627416998e+00	-5.6568542495e-01	 3.4838926174e-02
-2.4041630560e+00	-4.2426406871e-01	 2.4084235754e-02
-2.5455844123e+00	-2.8284271247e-01	 1.2578646412e-02
-2.6870057685e+00	-1.4142135623e-01	 3.2215814605e-04
-2.8284271247e+00	 1.2501222280e-11	-1.2685229043e-02
-1.1313708499e+00	-1.1313708499e+00	 6.7161928030e-02
-1.2727922062e+00	-9.8994949367e-01	 5.9518675169e-02
-1.4142135624e+00	-8.4852813743e-01	 5.1205826735e-02
-1.5556349186e+00	-7.0710678119e-01	 4.2223382728e-02
-1.6970562749e+00	-5.6568542495e-01	 3.2571343147e-02
-1.8384776311e+00	-4.2426406871e-01	 2.2249707994e-02
-1.9798989873e+00	-2.8284271247e-01	 1.1258477268e-02
-2.1213203436e+00	-1.4142135623e-01	-4.0234903208e-04
-2.2627416998e+00	 8.0014328496e-12	-1.2732770905e-02
-2.4041630560e+00	 1.4142135625e-01	-2.5732788351e-02
-2.5455844123e+00	 2.8284271249e-01	-3.9402401370e-02
-8.4852813744e-01	-8.4852813744e-01	 5.0637359394e-02
-9.8994949368e-01	-7.0710678120e-01	 4.1552260545e-02
-1.1313708499e+00	-5.6568542496e-01	 3.1878869474e-02
-1.2727922062e+00	-4.2426406872e-01	 2.1617186179e-02
-1.4142135624e+00	-2.8284271248e-01	 1.0767210661e-02
-1.5556349186e+00	-1.4142135624e-01	-6.7105707974e-04
-1.6970562749e+00	 4.5017600758e-12	-1.2697617044e-02
-1.8384776311e+00	 1.4142135624e-01	-2.5312469231e-02
-1.9798989873e+00	 2.8284271248e-01	-3.8515613641e-02
-2.1213203436e+00	 4.2426406872e-01	-5.2307050274e-02
-2.2627416998e+00	 5.6568542496e-01	-6.6686779131e-02
-5.6568542496e-01	-5.6568542496e-01	 3.4024485397e-02
-7.0710678120e-01	-4.2426406872e-01	 2.3449650553e-02
-8.4852813744e-01	-2.8284271248e-01	 1.2367826837e-02
-9.8994949367e-01	-1.4142135624e-01	 7.7901424713e-04
-1.1313708499e+00	 2.0019819136e-12	-1.1316787215e-02
-1.2727922061e+00	 1.4142135624e-01	-2.3919577551e-02
-1.4142135624e+00	 2.8284271248e-01	-3.7029356760e-02
-1.5556349186e+00	 4.2426406872e-01	-5.0646124842e-02
-1.6970562749e+00	 5.6568542496e-01	-6.4769881797e-02
-1.8384776311e+00	 7.0710678120e-01	-7.9400627625e-02
-1.9798989873e+00	 8.4852813744e-01	-9.4538362326e-02
-2.8284271248e-01	-2.8284271248e-01	 1.7323306039e-02
-4.2426406872e-01	-1.4142135624e-01	 5.2108451929e-03
-5.6568542496e-01	 5.0225101855e-13	-7.3273011759e-03
-7.0710678120e-01	 1.4142135624e-01	-2.0291133068e-02
-8.4852813744e-01	 2.8284271248e-01	-3.3680650482e-02
-9.8994949367e-01	 4.2426406872e-01	-4.7495853420e-02
-1.1313708499e+00	 5.6568542496e-01	-6.1736741881e-02
-1.2727922062e+00	 7.0710678120e-01	-7.6403315865e-02
-1.4142135624e+00	 8.4852813744e-01	-9.1495575372e-02
-1.5556349186e+00	 9.8994949368e-01	-1.0701352040e-01
-1.6970562749e+00	 1.1313708499e+00	-1.2295715096e-01
 0.0000000000e+00	 0.0000000000e+00	 5.3382131974e-04
-1.4142135624e-01	 1.4142135624e-01	-1.3164155536e-02
-2.8284271248e-01	 2.8284271248e-01	-2.7206514564e-02
-4.2426406872e-01	 4.2426406872e-01	-4.1593255765e-02
-5.6568542496e-01	 5.6568542496e-01	-5.6324379139e-02
-7.0710678120e-01	 7.0710678120e-01	-7.1399884687e-02
-8.4852813744e-01	 8.4852813744e-01	-8.6819772407e-02
-9.8994949368e-01	 9.8994949368e-01	-1.0258404230e-01
-1.1313708499e+00	 1.1313708499e+00	-1.1869269437e-01
-1.2727922062e+00	 1.2727922062e+00	-1.3514572861e-01
-1.4142135624e+00	 1.4142135624e+00	-1.5194314502e-01
-1.4142135624e+01	-1.4142135624e+01	 3.9760302656e-03
-1.4283556980e+01	-1.4000714267e+01	 7.0304680676e-03
-1.4424978336e+01	-1.3859292911e+01	 9.8037214312e-03
-1.4566399692e+01	-1.3717871555e+01	 1.2304245884e-02
-1.4707821049e+01	-1.3576450199e+01	 1.4551895503e-02
-1.4849242405e+01	-1.3435028843e+01	 1.7230886530e-02
-1.4990663761e+01	-1.3293607486e+01	 1.9390318718e-02
-1.5132085117e+01	-1.3152186130e+01	 2.1023871422e-02
-1.5273506474e+01	-1.3010764774e+01	 2.2125223903e-02
-1.5414927830e+01	-1.2869343418e+01	 2.2688055331e-02
-1.5556349186e+01	-1.2727922061e+01	 2.2706044784e-02
-1.3859292911e+01	-1.3859292911e+01	 9.9988449244e-03
-1.4000714267e+01	-1.3717871555e+01	 1.4287224468e-02
-1.4142135624e+01	-1.3576450199e+01	 1.8360863819e-02
-1.4283556980e+01	-1.3435028843e+01	 2.2228218469e-02
-1.4424978336e+01	-1.3293607486e+01	 2.5897743785e-02
-1.4566399692e+01	-1.3152186130e+01	 2.9377895013e-02
-1.4707821049e+01	-1.3010764774e+01	 3.2677815283e-02
-1.4849242405e+01	-1.2869343418e+01	 3.5696280380e-02
-1.4990663761e+01	-1.2727922061e+01	 3.8228122872e-02
-1.5132085117e+01	-1.2586500705e+01	 4.0267021901e-02
-1.5273506474e+01	-1.2445079349e+01	 4.1806656513e-02
-1.3576450199e+01	-1.3576450199e+01	 1.4106925668e-02
-1.3717871555e+01	-1.3435028843e+01	 1.9487006700e-02
-1.3859292911e+01	-1.3293607486e+01	 2.4718792001e-02
-1.4000714267e+01	-1.3152186130e+01	 2.9810737024e-02
-1.4142135624e+01	-1.3010764774e+01	 3.4771297097e-02
-1.4283556980e+01	-1.2869343418e+01	 3.9608927429e-02
-1.4424978336e+01	-1.2727922061e+01	 4.4332083105e-02
-1.4566399692e+01	-1.2586500705e+01	 4.8949219088e-02
-1.4707821049e+01	-1.2445079349e+01	 5.3457083185e-02
-1.4849242405e+01	-1.2303657993e+01	 5.6849509747e-02
-1.4990663761e+01	-1.2162236636e+01	 5.9788249615e-02
-1.3293607486e+01	-1.3293607486e+01	 1.6159186684e-02
-1.3435028843e+01	-1.3152186130e+01	 2.2488729104e-02
-1.3576450199e+01	-1.3010764774e+01	 2.8736420466e-02
-1.3717871555e+01	-1.2869343418e+01	 3.4910716185e-02
-1.3859292911e+01	-1.2727922061e+01	 4.1020071554e-02
-1.4000714267e+01	-1.2586500705e+01	 4.7072941742e-02
-1.4142135624e+01	-1.2445079349e+01	 5.3077781797e-02
-1.4283556980e+01	-1.2303657993e+01	 5.9043046645e-02
-1.4424978336e+01	-1.2162236636e+01	 6.4977191089e-02
-1.4566399692e+01	-1.2020815280e+01	 7.0888669809e-02
-1.4707821049e+01	-1.1879393924e+01	 7.6760150908e-02
-1.3010764774e+01	-1.3010764774e+01	 1.6014539000e-02
-1.3152186130e+01	-1.2869343418e+01	 2.3151302857e-02
-1.3293607486e+01	-1.2727922061e+01	 3.0272660542e-02
-1.3435028843e+01	-1.2586500705e+01	 3.7387067433e-02
-1.3576450199e+01	-1.2445079349e+01	 4.4502978785e-02
-1.3717871555e+01	-1.2303657993e+01	 5.1628849731e-02
-1.3859292911e+01	-1.2162236636e+01	 5.8773135280e-02
-1.4000714267e+01	-1.2020815280e+01	 6.5944290321e-02
-1.4142135624e+01	-1.1879393924e+01	 7.3150769618e-02
-1.4283556980e+01	-1.1737972568e+01	 8.0401027816e-02
-1.4424978336e+01	-1.1596551211e+01	 8.7703519435e-02
-1.2727922061e+01	-1.2727922061e+01	 1.3531890485e-02
-1.2869343418e+01	-1.2586500705e+01	 2.1333635977e-02
-1.3010764774e+01	-1.2445079349e+01	 2.9186420398e-02
-1.3152186130e+01	-1.2303657993e+01	 3.7098699086e-02
-1.3293607486e+01	-1.2162236636e+01	 4.5078927260e-02
-1.3435028843e+01	-1.2020815280e+01	 5.3135560015e-02
-1.3576450199e+01	-1.1879393924e+01	 6.1277052323e-02
-1.3717871555e+01	-1.1737972568e+01	 6.9511859035e-02
-1.3859292911e+01	-1.1596551211e+01	 7.7848434879e-02
-1.4000714267e+01	-1.1455129855e+01	 8.6295234459e-02
-1.4142135624e+01	-1.1313708499e+01	 9.4860712260e-02
-1.2445079349e+01	-1.2445079349e+01	 8.5701458461e-03
-1.2586500705e+01	-1.2303657993e+01	 1.6894633323e-02
-1.2727922061e+01	-1.2162236636e+01	 2.5336605041e-02
-1.2869343418e+01	-1.2020815280e+01	 3.3904516302e-02
-1.3010764774e+01	-1.1879393924e+01	 4.2606822287e-02
-1.3152186130e+01	-1.1737972568e+01	 5.1451978054e-02
-1.3293607486e+01	-1.1596551211e+01	 6.0448438536e-02
-1.3435028843e+01	-1.1455129855e+01	 6.9604658548e-02
-1.3576450199e+01	-1.1313708499e+01	 7.8929092779e-02
-1.3717871555e+01	-1.1172287143e+01	 8.8430195797e-02
-1.3859292911e+01	-1.1030865787e+01	 9.8116422048e-02
-1.2162236636e+01	-1.2162236636e+01	 9.8820663126e-04
-1.2303657993e+01	-1.2020815280e+01	 9.6931965918e-03
-1.2445079349e+01	-1.1879393924e+01	 1.8582116320e-02
-1.2586500705e+01	-1.1737972568e+01	 2.7663421080e-02
-1.2727922061e+01	-1.1596551211e+01	 3.6945566015e-02
-1.2869343418e+01	-1.1455129855e+01	 4.6437006145e-02
-1.3010764774e+01	-1.1313708499e+01	 5.6146196368e-02
-1.3152186130e+01	-1.1172287143e+01	 6.6081591458e-02
-1.3293607486e+01	-1.1030865787e+01	 7.6251646068e-02
-1.3435028843e+01	-1.0889444430e+01	 8.6664814730e-02
-1.3576450199e+01	-1.0748023074e+01	 9.7329551850e-02
-1.1879393924e+01	-1.1879393924e+01	-9.3550287721e-03
-1.2020815280e+01	-1.1737972568e+01	-4.1177567831e-04
-1.2162236636e+01	-1.1596551211e+01	 8.7818529225e-03
-1.2303657993e+01	-1.1455129855e+01	 1.8234312258e-02
-1.2445079349e+01	-1.1313708499e+01	 2.7954057432e-02
-1.2586500705e+01	-1.1172287143e+01	 3.7949543429e-02
-1.2727922061e+01	-1.1030865787e+01	 4.8229225107e-02
-1.2869343418e+01	-1.0889444430e+01	 5.8801557205e-02
-1.3010764774e+01	-1.0748023074e+01	 6.9674994337e-02
-1.3152186130e+01	-1.0606601718e+01	 8.0857990997e-02
-1.3293607486e+01	-1.0465180362e+01	 9.2359001556e-02
-1.1596551211e+01	-1.1596551211e+01	-2.2600665137e-02
-1.1737972568e+01	-1.1455129855e+01	-1.3561388110e-02
-1.1879393924e+01	-1.1313708499e+01	-4.2052896235e-03
-1.2020815280e+01	-1.1172287143e+01	 5.4760855129e-03
-1.2162236636e+01	-1.1030865787e+01	 1.5491192366e-02
-1.2303657993e+01	-1.0889444430e+01	 2.5848485882e-02
-1.2445079349e+01	-1.0748023074e+01	 3.6556420882e-02
-1.2586500705e+01	-1.0606601718e+01	 4.7623452067e-02
-1.2727922061e+01	-1.0465180362e+01	 5.9058034014e-02
-1.2869343418e+01	-1.0323759005e+01	 7.0785836417e-02
-1.3010764774e+01	-1.0182337649e+01	 8.2313707306e-02
-1.1313708499e+01	-1.1313708499e+01	-3.8889810397e-02
-1.1455129855e+01	-1.1172287143e+01	-2.9896748487e-02
-1.1596551211e+01	-1.1030865787e+01	-2.0520418951e-02
-1.1737972568e+01	-1.0889444430e+01	-1.0752366637e-02
-1.1879393924e+01	-1.0748023074e+01	-5.8413651463e-04
-1.2020815280e+01	-1.0606601718e+01	 9.9927263232e-03
-1.2162236636e+01	-1.0465180362e+01	 2.0986676662e-02
-1.2303657993e+01	-1.0323759005e+01	 3.2325038055e-02
-1.2445079349e+01	-1.0182337649e+01	 4.3531786464e-02
-1.2586500705e+01	-1.0040916293e+01	 5.5008552716e-02
-1.2727922061e+01	-9.8994949366e+00	 6.6739767796e-02
-1.1313708499e+01	-1.1313708499e+01	-3.8889810397e-02
-1.1455129855e+01	-1.1172287143e+01	-2.9896748487e-02
-1.1596551211e+01	-1.1030865787e+01	-2.0520418951e-02
-1.1737972568e+01	-1.0889444430e+01	-1.0752366637e-02
-1.1879393924e+01	-1.0748023074e+01	-5.8413651463e-04
-1.2020815280e+01	-1.0606601718e+01	 9.9927263232e-03
-1.2162236636e+01	-1.0465180362e+01	 2.0986676662e-02
-1.2303657993e+01	-1.0323759005e+01	 3.2325038055e-02
-1.2445079349e+01	-1.0182337649e+01	 4.3531786464e-02
-1.2586500705e+01	-1.0040916293e+01	 5.5008552716e-02
-1.2727922061e+01	-9.8994949366e+00	 6.6739767796e-02
-1.1030865787e+01	-1.1030865787e+01	-2.2057132719e-02
-1.1172287143e+01	-1.0889444430e+01	-7.7624995972e-03
-1.1313708499e+01	-1.0748023074e+01	 5.8228340880e-03
-1.1455129855e+01	-1.0606601718e+01	 1.8707323452e-02
-1.1596551211e+01	-1.0465180362e+01	 3.0899423487e-02
-1.1737972568e+01	-1.0323759005e+01	 4.2337538733e-02
-1.1879393924e+01	-1.0182337649e+01	 5.2608735900e-02
-1.2020815280e+01	-1.0040916293e+01	 6.2056302572e-02
-1.2162236636e+01	-9.8994949366e+00	 7.0664669351e-02
-1.2303657993e+01	-9.7580735804e+00	 7.8418267196e-02
-1.2445079349e+01	-9.6166522241e+00	 8.5301527431e-02
-1.0748023074e+01	-1.0748023074e+01	-1.1074067719e-02
-1.0889444430e+01	-1.0606601718e+01	 9.4588023814e-03
-1.1030865787e+01	-1.0465180362e+01	 2.8189806197e-02
-1.1172287143e+01	-1.0323759005e+01	 4.5077856613e-02
-1.1313708499e+01	-1.0182337649e+01	 5.9819075026e-02
-1.1455129855e+01	-1.0040916293e+01	 7.2643014511e-02
-1.1596551211e+01	-9.8994949366e+00	 8.3534105281e-02
-1.1737972568e+01	-9.7580735804e+00	 9.2476777910e-02
-1.1879393924e+01	-9.6166522241e+00	 9.9455463334e-02
-1.2020815280e+01	-9.4752308679e+00	 1.0445459285e-01
-1.2162236636e+01	-9.3338095116e+00	 1.0745859812e-01
-1.0465180362e+01	-1.0465180362e+01	-6.0817328154e-03
-1.0606601718e+01	-1.0323759005e+01	 2.1606433715e-02
-1.0748023074e+01	-1.0182337649e+01	 4.6223246853e-02
-1.0889444430e+01	-1.0040916293e+01	 6.7829132531e-02
-1.1030865787e+01	-9.8994949366e+00	 8.6408520576e-02
-1.1172287143e+01	-9.7580735804e+00	 1.0194584117e-01
-1.1313708499e+01	-9.6166522241e+00	 1.1442552487e-01
-1.1455129855e+01	-9.4752308679e+00	 1.2383200258e-01
-1.1596551211e+01	-9.3338095116e+00	 1.3014970558e-01
-1.1737972568e+01	-9.1923881554e+00	 1.3336306550e-01
-1.1879393924e+01	-9.0509667992e+00	 1.3345651434e-01
-1.0182337649e+01	-1.0182337649e+01	-7.1183056118e-03
-1.0323759005e+01	-1.0040916293e+01	 2.8675100630e-02
-1.0465180362e+01	-9.8994949366e+00	 6.0348360220e-02
-1.0606601718e+01	-9.7580735804e+00	 8.7885902959e-02
-1.0748023074e+01	-9.6166522241e+00	 1.1127215901e-01
-1.0889444430e+01	-9.4752308679e+00	 1.3049155889e-01
-1.1030865787e+01	-9.3338095117e+00	 1.4552853350e-01
-1.1172287143e+01	-9.1923881554e+00	 1.5636751407e-01
-1.1313708499e+01	-9.0509667992e+00	 1.6299293223e-01
-1.1455129855e+01	-8.9095454429e+00	 1.6538921993e-01
-1.1596551211e+01	-8.7681240867e+00	 1.6354080952e-01
-9.8994949366e+00	-9.8994949366e+00	-1.3585930801e-02
-1.0040916293e+01	-9.7580735804e+00	 3.1357409243e-02
-1.0182337649e+01	-9.6166522241e+00	 7.1055812709e-02
-1.0323759005e+01	-9.4752308679e+00	 1.0549370973e-01
-1.0465180362e+01	-9.3338095117e+00	 1.3465553082e-01
-1.0606601718e+01	-9.1923881554e+00	 1.5852570682e-01
-1.0748023074e+01	-9.0509667992e+00	 1.7708866896e-01
-1.0889444430e+01	-8.9095454429e+00	 1.9032884882e-01
-1.1030865787e+01	-8.7681240867e+00	 1.9823067836e-01
-1.1172287143e+01	-8.6267027305e+00	 2.0077858989e-01
-1.1313708499e+01	-8.4852813742e+00	 1.9795701606e-01
-9.6166522241e+00	-9.6166522241e+00	-2.5163067070e-02
-9.7580735804e+00	-9.4752308679e+00	 2.9898903051e-02
-9.8994949366e+00	-9.3338095117e+00	 7.8591146467e-02
-1.0040916293e+01	-9.1923881554e+00	 1.2089809365e-01
-1.0182337649e+01	-9.0509667992e+00	 1.5680417545e-01
-1.0323759005e+01	-8.9095454429e+00	 1.8629382304e-01
-1.0465180362e+01	-8.7681240867e+00	 2.0935146800e-01
-1.0606601718e+01	-8.6267027305e+00	 2.2596154224e-01
-1.0748023074e+01	-8.4852813742e+00	 2.3610847806e-01
-1.0889444430e+01	-8.3438600180e+00	 2.3977670809e-01
-1.1030865787e+01	-8.2024386618e+00	 2.3695066534e-01
-9.3338095116e+00	-9.3338095116e+00	-4.1604170609e-02
-9.4752308679e+00	-9.1923881554e+00	 2.4545124514e-02
-9.6166522241e+00	-9.0509667992e+00	 8.3199902608e-02
-9.7580735804e+00	-8.9095454429e+00	 1.3434459449e-01
-9.8994949366e+00	-8.7681240867e+00	 1.7796363132e-01
-1.0040916293e+01	-8.6267027305e+00	 2.1404144464e-01
-1.0182337649e+01	-8.4852813742e+00	 2.4256246635e-01
-1.0323759005e+01	-8.3438600180e+00	 2.6351112871e-01
-1.0465180362e+01	-8.2024386618e+00	 2.7687186433e-01
-1.0606601718e+01	-8.0610173055e+00	 2.8262910621e-01
-1.0748023074e+01	-7.9195959493e+00	 2.8076728767e-01
-9.0509667992e+00	-9.0509667992e+00	-6.2663698644e-02
-9.1923881554e+00	-8.9095454429e+00	 1.5541615058e-02
-9.3338095116e+00	-8.7681240867e+00	 8.5127621210e-02
-9.4752308679e+00	-8.6267027305e+00	 1.4607875096e-01
-9.6166522241e+00	-8.4852813742e+00	 1.9837943582e-01
-9.7580735804e+00	-8.3438600180e+00	 2.4201410765e-01
-9.8994949366e+00	-8.2024386618e+00	 2.7696719870e-01
-1.0040916293e+01	-8.0610173055e+00	 3.0322314156e-01
-1.0182337649e+01	-7.9195959493e+00	 3.2076636918e-01
-1.0323759005e+01	-7.7781745931e+00	 3.2958131489e-01
-1.0465180362e+01	-7.6367532368e+00	 3.2965241237e-01
-8.7681240867e+00	-8.7681240867e+00	-8.1477631546e-02
-8.9095454429e+00	-8.6267027305e+00	 3.1339150741e-03
-9.0509667992e+00	-8.4852813742e+00	 8.4619841316e-02
-9.1923881554e+00	-8.3438600180e+00	 1.5634610077e-01
-9.3338095116e+00	-8.2024386618e+00	 2.1829712529e-01
-9.4752308679e+00	-8.0610173055e+00	 2.7045734707e-01
-9.6166522241e+00	-7.9195959493e+00	 3.1281119870e-01
-9.7580735804e+00	-7.7781745931e+00	 3.4534311310e-01
-9.8994949366e+00	-7.6367532368e+00	 3.6803752357e-01
-1.0040916293e+01	-7.4953318806e+00	 3.8087886376e-01
-1.0182337649e+01	-7.3539105244e+00	 3.8385156769e-01
-8.4852813742e+00	-8.4852813742e+00	-7.6484657174e-02
-8.6267027304e+00	-8.3438600180e+00	 1.1605883114e-02
-8.7681240867e+00	-8.2024386618e+00	 8.8728734043e-02
-8.9095454429e+00	-8.0610173055e+00	 1.6539218058e-01
-9.0509667992e+00	-7.9195959493e+00	 2.3796223505e-01
-9.1923881554e+00	-7.7781745931e+00	 2.9961669687e-01
-9.3338095116e+00	-7.6367532368e+00	 3.5033999897e-01
-9.4752308679e+00	-7.4953318806e+00	 3.9011657460e-01
-9.6166522241e+00	-7.3539105244e+00	 4.1893085741e-01
-9.7580735804e+00	-7.2124891681e+00	 4.3676728137e-01
-9.8994949366e+00	-7.0710678119e+00	 4.4361028086e-01
-7.0710678119e+00	-4.2426406871e+00	 2.0559620332e-01
-7.7074639150e+00	-3.6062445840e+00	 1.2502304185e-01
-8.3438600180e+00	-2.9698484810e+00	 4.0610474962e-02
-8.9802561211e+00	-2.3334523779e+00	-2.4112582646e-02
-9.6166522241e+00	-1.6970562749e+00	-3.5271197577e-02
-1.0253048327e+01	-1.0606601718e+00	-4.5916064577e-02
-1.0889444430e+01	-4.2426406872e-01	-5.5827250258e-02
-1.1525840533e+01	 2.1213203434e-01	-6.4784809184e-02
-1.2162236636e+01	 8.4852813741e-01	-7.2568790579e-02
-1.2798632739e+01	 1.4849242405e+00	-7.8959238329e-02
-1.3435028843e+01	 2.1213203435e+00	-8.3736190981e-02
-6.7882250994e+00	-3.9597979746e+00	 1.6200667383e-01
-7.4246212025e+00	-3.3234018716e+00	 8.8217785499e-02
-8.0610173055e+00	-2.6870057685e+00	 9.0893913578e-03
-8.6974134086e+00	-2.0506096654e+00	-6.3840207255e-02
-9.3338095117e+00	-1.4142135624e+00	-8.0997089327e-02
-9.9702056147e+00	-7.7781745931e-01	-8.5690014844e-02
-1.0606601718e+01	-1.4142135624e-01	-9.0526859303e-02
-1.1242997821e+01	 4.9497474682e-01	-9.5287669498e-02
-1.1879393924e+01	 1.1313708499e+00	-9.9752486879e-02
-1.2515790027e+01	 1.7677669530e+00	-1.0370134756e-01
-1.3152186130e+01	 2.4041630560e+00	-1.0691428232e-01
-6.5053823869e+00	-3.6769552621e+00	 1.2468681467e-01
-7.1417784900e+00	-3.0405591591e+00	 5.3433690920e-02
-7.7781745931e+00	-2.4041630560e+00	-1.7813674883e-02
-8.4145706961e+00	-1.7677669530e+00	-8.3140397193e-02
-9.0509667992e+00	-1.1313708499e+00	-1.2100186635e-01
-9.6873629023e+00	-4.9497474683e-01	-1.2039424108e-01
-1.0323759005e+01	 1.4142135624e-01	-1.2080813767e-01
-1.0960155108e+01	 7.7781745930e-01	-1.2202359513e-01
-1.1596551211e+01	 1.4142135624e+00	-1.2382064715e-01
-1.2232947315e+01	 2.0506096654e+00	-1.2597932208e-01
-1.2869343418e+01	 2.6870057685e+00	-1.2827964292e-01
-6.2225396745e+00	-3.3941125497e+00	 9.2390033563e-02
-6.8589357775e+00	-2.7577164466e+00	 2.3769105883e-02
-7.4953318806e+00	-2.1213203435e+00	-4.0306363910e-02
-8.1317279836e+00	-1.4849242405e+00	-9.8739342243e-02
-8.7681240867e+00	-8.4852813742e-01	-1.5043279555e-01
-9.4045201898e+00	-2.1213203435e-01	-1.4988113924e-01
-1.0040916293e+01	 4.2426406871e-01	-1.4652348284e-01
-1.0677312396e+01	 1.0606601718e+00	-1.4484498511e-01
-1.1313708499e+01	 1.6970562748e+00	-1.4462567197e-01
-1.1950104602e+01	 2.3334523779e+00	-1.4564556399e-01
-1.2586500705e+01	 2.9698484810e+00	-1.4768467639e-01
-5.9396969620e+00	-3.1112698372e+00	 6.0896402205e-02
-6.5760930650e+00	-2.4748737341e+00	-9.8360975801e-04
-7.2124891681e+00	-1.8384776311e+00	-5.8596315869e-02
-7.8488852712e+00	-1.2020815280e+00	-1.1084468255e-01
-8.4852813742e+00	-5.6568542494e-01	-1.5663167624e-01
-9.1216774773e+00	 7.0710678125e-02	-1.7400310235e-01
-9.7580735804e+00	 7.0710678119e-01	-1.6752528938e-01
-1.0394469683e+01	 1.3435028843e+00	-1.6360423553e-01
-1.1030865786e+01	 1.9798989873e+00	-1.6201995895e-01
-1.1667261890e+01	 2.6162950904e+00	-1.6255247244e-01
-1.2303657993e+01	 3.2526911935e+00	-1.6498178345e-01
-5.6568542495e+00	-2.8284271247e+00	 3.4816132422e-02
-6.2932503526e+00	-2.1920310217e+00	-2.1032096153e-02
-6.9296464556e+00	-1.5556349186e+00	-7.2891170909e-02
-7.5660425587e+00	-9.1923881553e-01	-1.1966405827e-01
-8.2024386618e+00	-2.8284271246e-01	-1.6025372468e-01
-8.8388347648e+00	 3.5355339060e-01	-1.9261252049e-01
-9.4752308679e+00	 9.8994949367e-01	-1.8366594890e-01
-1.0111626971e+01	 1.6263455967e+00	-1.7815373955e-01
-1.0748023074e+01	 2.2627416998e+00	-1.7585590279e-01
-1.1384419177e+01	 2.8991378029e+00	-1.7655244367e-01
-1.2020815280e+01	 3.5355339059e+00	-1.7780271781e-01
-5.3740115370e+00	-2.5455844122e+00	 1.3941584065e-02
-6.0104076401e+00	-1.9091883092e+00	-3.6583993448e-02
-6.6468037431e+00	-1.2727922061e+00	-8.3398569178e-02
-7.2831998462e+00	-6.3639610305e-01	-1.2540510955e-01
-7.9195959493e+00	 1.0000222872e-11	-1.6150658100e-01
-8.5559920523e+00	 6.3639610307e-01	-1.9060594995e-01
-9.1923881554e+00	 1.2727922061e+00	-1.9479785009e-01
-9.8287842585e+00	 1.9091883092e+00	-1.8834588737e-01
-1.0465180362e+01	 2.5455844123e+00	-1.8598589524e-01
-1.1101576465e+01	 3.1819805153e+00	-1.8749787095e-01
-1.1737972568e+01	 3.8183766184e+00	-1.8396012611e-01
-5.0911688245e+00	-2.2627416998e+00	-1.9348830129e-03
-5.7275649276e+00	-1.6263455967e+00	-4.7846941793e-02
-6.3639610307e+00	-9.8994949364e-01	-9.0326150824e-02
-7.0003571337e+00	-3.5355339058e-01	-1.2827547653e-01
-7.6367532368e+00	 2.8284271248e-01	-1.6059788535e-01
-8.2731493399e+00	 9.1923881555e-01	-1.8619634370e-01
-8.9095454429e+00	 1.5556349186e+00	-2.0077337941e-01
-9.5459415460e+00	 2.1920310217e+00	-1.9403306629e-01
-1.0182337649e+01	 2.8284271247e+00	-1.9226232511e-01
-1.0818733752e+01	 3.4648232278e+00	-1.9485991013e-01
-1.1455129855e+01	 4.1012193309e+00	-1.8897064152e-01
-4.8083261121e+00	-1.9798989873e+00	-1.3020908960e-02
-5.4447222151e+00	-1.3435028842e+00	-5.5028581335e-02
-6.0811183182e+00	-7.0710678117e-01	-9.3881555995e-02
-6.7175144213e+00	-7.0710678108e-02	-1.2848279937e-01
-7.3539105243e+00	 5.6568542496e-01	-1.5773527788e-01
-7.9903066274e+00	 1.2020815280e+00	-1.8054195797e-01
-8.6267027305e+00	 1.8384776311e+00	-1.9580580605e-01
-9.2630988335e+00	 2.4748737342e+00	-1.9506766062e-01
-9.8994949366e+00	 3.1112698372e+00	-1.9453757828e-01
-1.0535891040e+01	 3.7476659403e+00	-1.9373743145e-01
-1.1172287143e+01	 4.3840620434e+00	-1.9308670204e-01
-4.5254833996e+00	-1.6970562748e+00	-1.9524133925e-02
-5.1618795026e+00	-1.0606601718e+00	-5.8336552222e-02
-5.7982756057e+00	-4.2426406870e-01	-9.4272424839e-02
-6.4346717088e+00	 2.1213203436e-01	-1.2623471820e-01
-7.0710678119e+00	 8.4852813743e-01	-1.5312639874e-01
-7.7074639149e+00	 1.4849242405e+00	-1.7385043289e-01
-8.3438600180e+00	 2.1213203436e+00	-1.8730978707e-01
-8.9802561211e+00	 2.7577164466e+00	-1.9130205740e-01
-9.6166522241e+00	 3.3941125497e+00	-1.9266403768e-01
-1.0253048327e+01	 4.0305086528e+00	-1.9128234302e-01
-1.0889444430e+01	 4.6669047558e+00	-1.9656075820e-01
-4.2426406871e+00	-1.4142135624e+00	-2.1652198055e-02
-4.8790367902e+00	-7.7781745929e-01	-5.7978494602e-02
-5.5154328932e+00	-1.4142135623e-01	-9.1706397503e-02
-6.1518289963e+00	 4.9497474683e-01	-1.2173887319e-01
-6.7882250994e+00	 1.1313708499e+00	-1.4697888808e-01
-7.4246212024e+00	 1.7677669530e+00	-1.6632940861e-01
-8.0610173055e+00	 2.4041630560e+00	-1.7869340121e-01
-8.6974134086e+00	 3.0405591591e+00	-1.8297383231e-01
-9.3338095117e+00	 3.6769552622e+00	-1.8364374861e-01
-9.9702056147e+00	 4.3133513652e+00	-1.8774710523e-01
-1.0606601718e+01	 4.9497474683e+00	-1.9964527307e-01
-1.3435028843e+01	 2.1213203435e+00	-8.3736190981e-02
-1.4071424946e+01	 2.7577164466e+00	-8.3585061344e-02
-1.4707821049e+01	 3.3941125497e+00	-8.6238077014e-02
-1.5344217152e+01	 4.0305086528e+00	-8.6828809070e-02
-1.5980613255e+01	 4.6669047558e+00	-8.8423138434e-02
-1.6617009358e+01	 5.3033008589e+00	-9.1135123379e-02
-1.7253405461e+01	 5.9396969620e+00	-9.4067376906e-02
-1.7889801564e+01	 6.5760930650e+00	-9.6322410806e-02
-1.8526197667e+01	 7.2124891681e+00	-9.7002635654e-02
-1.9162593770e+01	 7.8488852711e+00	-9.5210360792e-02
-1.9798989873e+01	 8.4852813742e+00	-9.0047794322e-02
-1.3152186130e+01	 2.4041630560e+00	-1.0691428232e-01
-1.3788582233e+01	 3.0405591591e+00	-1.0553374508e-01
-1.4424978336e+01	 3.6769552622e+00	-1.0272895732e-01
-1.5061374439e+01	 4.3133513652e+00	-9.8552823335e-02
-1.5697770542e+01	 4.9497474683e+00	-9.8052347708e-02
-1.6334166645e+01	 5.5861435714e+00	-9.8784889431e-02
-1.6970562748e+01	 6.2225396744e+00	-9.9853059591e-02
-1.7606958852e+01	 6.8589357775e+00	-1.0035936807e-01
-1.8243354955e+01	 7.4953318806e+00	-9.9406223532e-02
-1.8879751058e+01	 8.1317279836e+00	-9.6095933406e-02
-1.9516147161e+01	 8.7681240867e+00	-8.9530703882e-02
-1.2869343418e+01	 2.6870057685e+00	-1.2827964292e-01
-1.3505739521e+01	 3.3234018716e+00	-1.2559937759e-01
-1.4142135624e+01	 3.9597979746e+00	-1.1575692688e-01
-1.4778531727e+01	 4.5961940777e+00	-1.1023387891e-01
-1.5414927830e+01	 5.2325901808e+00	-1.0761285304e-01
-1.6051323933e+01	 5.8689862838e+00	-1.0634021027e-01
-1.6687720036e+01	 6.5053823869e+00	-1.0551855977e-01
-1.7324116139e+01	 7.1417784900e+00	-1.0425040953e-01
-1.7960512242e+01	 7.7781745930e+00	-1.0163816628e-01
-1.8596908345e+01	 8.4145706961e+00	-9.6784135547e-02
-1.9233304448e+01	 9.0509667992e+00	-8.8790521612e-02
-1.2586500705e+01	 2.9698484810e+00	-1.4768467639e-01
-1.3222896808e+01	 3.6062445841e+00	-1.3977350398e-01
-1.3859292911e+01	 4.2426406871e+00	-1.2656606492e-01
-1.4495689014e+01	 4.8790367902e+00	-1.2060067116e-01
-1.5132085117e+01	 5.5154328933e+00	-1.1710676780e-01
-1.5768481220e+01	 6.1518289963e+00	-1.1380319964e-01
-1.6404877324e+01	 6.7882250994e+00	-1.1106599158e-01
-1.7041273427e+01	 7.4246212025e+00	-1.0799764967e-01
-1.7677669530e+01	 8.0610173055e+00	-1.0370057877e-01
-1.8314065633e+01	 8.6974134086e+00	-9.7277082469e-02
-1.8950461736e+01	 9.3338095116e+00	-8.7829363144e-02
-1.2303657993e+01	 3.2526911935e+00	-1.6498178345e-01
-1.2940054096e+01	 3.8890872965e+00	-1.4895258534e-01
-1.3576450199e+01	 4.5254833996e+00	-1.3540876467e-01
-1.4212846302e+01	 5.1618795027e+00	-1.2879997075e-01
-1.4849242405e+01	 5.7982756057e+00	-1.2653620458e-01
-1.5485638508e+01	 6.4346717088e+00	-1.2117597051e-01
-1.6122034611e+01	 7.0710678119e+00	-1.1649746835e-01
-1.6758430714e+01	 7.7074639149e+00	-1.1160320223e-01
-1.7394826817e+01	 8.3438600180e+00	-1.0559557510e-01
-1.8031222920e+01	 8.9802561211e+00	-9.7576888654e-02
-1.8667619023e+01	 9.6166522241e+00	-8.6649343335e-02
-1.2020815280e+01	 3.5355339059e+00	-1.7780271781e-01
-1.2657211383e+01	 4.1719300090e+00	-1.5644879086e-01
-1.3293607486e+01	 4.8083261121e+00	-1.4253743187e-01
-1.3930003589e+01	 5.4447222151e+00	-1.3525406896e-01
-1.4566399692e+01	 6.0811183182e+00	-1.3378417814e-01
-1.5202795796e+01	 6.7175144213e+00	-1.2846063509e-01
-1.5839191899e+01	 7.3539105243e+00	-1.2181510267e-01
-1.6475588002e+01	 7.9903066274e+00	-1.1506918017e-01
-1.7111984105e+01	 8.6267027305e+00	-1.0732526862e-01
-1.7748380208e+01	 9.2630988335e+00	-9.7685667811e-02
-1.8384776311e+01	 9.8994949366e+00	-8.5252576275e-02
-1.1737972568e+01	 3.8183766184e+00	-1.8396012611e-01
-1.2374368671e+01	 4.4547727215e+00	-1.6251453614e-01
-1.3010764774e+01	 5.0911688246e+00	-1.4820448481e-01
-1.3647160877e+01	 5.7275649276e+00	-1.4021538672e-01
-1.4283556980e+01	 6.3639610307e+00	-1.3773270437e-01
-1.4919953083e+01	 7.0003571338e+00	-1.3565930481e-01
-1.5556349186e+01	 7.6367532368e+00	-1.2702100634e-01
-1.6192745289e+01	 8.2731493399e+00	-1.1839769566e-01
-1.6829141392e+01	 8.9095454430e+00	-1.0889177189e-01
-1.7465537495e+01	 9.5459415460e+00	-9.7605532881e-02
-1.8101933598e+01	 1.0182337649e+01	-8.3641175280e-02
-1.1455129855e+01	 4.1012193309e+00	-1.8897064152e-01
-1.2091525958e+01	 4.7376154340e+00	-1.6740224933e-01
-1.2727922061e+01	 5.3740115370e+00	-1.5266235430e-01
-1.3364318164e+01	 6.0104076401e+00	-1.4393635753e-01
-1.4000714267e+01	 6.6468037432e+00	-1.4040970799e-01
-1.4637110371e+01	 7.2831998462e+00	-1.4126790259e-01
-1.5273506474e+01	 7.9195959493e+00	-1.3211729041e-01
-1.5909902577e+01	 8.5559920524e+00	-1.2159086013e-01
-1.6546298680e+01	 9.1923881554e+00	-1.1029719668e-01
-1.7182694783e+01	 9.8287842585e+00	-9.7338596031e-02
-1.7819090886e+01	 1.0465180362e+01	-8.2704376865e-02
-1.1172287143e+01	 4.3840620434e+00	-1.9308670204e-01
-1.1808683246e+01	 5.0204581464e+00	-1.7136437109e-01
-1.2445079349e+01	 5.6568542495e+00	-1.5616348369e-01
-1.3081475452e+01	 6.2932503526e+00	-1.4666942740e-01
-1.3717871555e+01	 6.9296464556e+00	-1.4206763769e-01
-1.4354267658e+01	 7.5660425587e+00	-1.4154359794e-01
-1.4990663761e+01	 8.2024386618e+00	-1.3710606513e-01
-1.5627059864e+01	 8.8388347648e+00	-1.2465078421e-01
-1.6263455967e+01	 9.4752308679e+00	-1.1154365403e-01
-1.6899852070e+01	 1.0111626971e+01	-9.6886968658e-02
-1.7536248173e+01	 1.0748023074e+01	-8.3002362857e-02
-1.0889444430e+01	 4.6669047558e+00	-1.9656075820e-01
-1.1525840533e+01	 5.3033008589e+00	-1.7465335464e-01
-1.2162236636e+01	 5.9396969620e+00	-1.5896032886e-01
-1.2798632739e+01	 6.5760930650e+00	-1.4866705490e-01
-1.3435028843e+01	 7.2124891681e+00	-1.4295895470e-01
-1.4071424946e+01	 7.8488852712e+00	-1.4102149813e-01
-1.4707821049e+01	 8.4852813742e+00	-1.4198944000e-01
-1.5344217152e+01	 9.1216774773e+00	-1.2757957777e-01
-1.5980613255e+01	 9.7580735804e+00	-1.1263325418e-01
-1.6617009358e+01	 1.0394469683e+01	-9.6819576077e-02
-1.7253405461e+01	 1.1030865787e+01	-8.3441480242e-02
-1.0606601718e+01	 4.9497474683e+00	-1.9964527307e-01
-1.1242997821e+01	 5.5861435714e+00	-1.7752166572e-01
-1.1879393924e+01	 6.2225396744e+00	-1.6130535822e-01
-1.2515790027e+01	 6.8589357775e+00	-1.5018171109e-01
-1.3152186130e+01	 7.4953318806e+00	-1.4333613277e-01
-1.3788582233e+01	 8.1317279837e+00	-1.3995407958e-01
-1.4424978336e+01	 8.7681240867e+00	-1.3922105576e-01
-1.5061374439e+01	 9.4045201898e+00	-1.3037934991e-01
-1.5697770542e+01	 1.0040916293e+01	-1.1356810661e-01
-1.6334166645e+01	 1.0677312396e+01	-9.9468880513e-02
-1.6970562749e+01	 1.1313708499e+01	-8.4012178281e-02
-4.2426406871e+00	-1.4142135624e+00	-2.1652198055e-02
-4.8790367902e+00	-7.7781745929e-01	-5.7978494602e-02
-5.5154328932e+00	-1.4142135623e-01	-9.1706397503e-02
-6.1518289963e+00	 4.9497474683e-01	-1.2173887319e-01
-6.7882250994e+00	 1.1313708499e+00	-1.4697888808e-01
-7.4246212024e+00	 1.7677669530e+00	-1.6632940861e-01
-8.0610173055e+00	 2.4041630560e+00	-1.7869340121e-01
-8.6974134086e+00	 3.0405591591e+00	-1.8297383231e-01
-9.3338095117e+00	 3.6769552622e+00	-1.8364374861e-01
-9.9702056147e+00	 4.3133513652e+00	-1.8774710523e-01
-1.0606601718e+01	 4.9497474683e+00	-1.9964527307e-01
-3.9597979746e+00	-1.1313708499e+00	-2.1489505879e-02
-4.5961940777e+00	-4.9497474682e-01	-5.6350546239e-02
-5.2325901808e+00	 1.4142135624e-01	-8.8818155051e-02
-5.8689862838e+00	 7.7781745931e-01	-1.1779529874e-01
-6.5053823869e+00	 1.4142135624e+00	-1.4218494374e-01
-7.1417784900e+00	 2.0506096654e+00	-1.6089005648e-01
-7.7781745930e+00	 2.6870057685e+00	-1.7281360338e-01
-8.4145706961e+00	 3.3234018716e+00	-1.7685855087e-01
-9.0509667992e+00	 3.9597979746e+00	-1.7449432296e-01
-9.6873629023e+00	 4.5961940777e+00	-1.8543171677e-01
-1.0323759005e+01	 5.2325901808e+00	-2.0429327182e-01
-3.6769552621e+00	-8.4852813741e-01	-2.4232484560e-02
-4.3133513652e+00	-2.1213203435e-01	-5.7394033028e-02
-4.9497474683e+00	 4.2426406871e-01	-8.8367112045e-02
-5.5861435714e+00	 1.0606601718e+00	-1.1605468804e-01
-6.2225396744e+00	 1.6970562748e+00	-1.3935972744e-01
-6.8589357775e+00	 2.3334523779e+00	-1.5718519667e-01
-7.4953318806e+00	 2.9698484810e+00	-1.6843406217e-01
-8.1317279836e+00	 3.6062445840e+00	-1.7148941511e-01
-8.7681240867e+00	 4.2426406871e+00	-1.6539262552e-01
-9.4045201898e+00	 4.8790367902e+00	-1.8091637645e-01
-1.0040916293e+01	 5.5154328932e+00	-2.0648856408e-01
-3.3941125497e+00	-5.6568542494e-01	-3.0088774245e-02
-4.0305086527e+00	 7.0710678125e-02	-6.1316595117e-02
-4.6669047558e+00	 7.0710678119e-01	-9.0560908634e-02
-5.3033008589e+00	 1.3435028842e+00	-1.1672468123e-01
-5.9396969620e+00	 1.9798989873e+00	-1.3871087932e-01
-6.5760930650e+00	 2.6162950904e+00	-1.5542246935e-01
-7.2124891681e+00	 3.2526911934e+00	-1.6576241773e-01
-7.8488852712e+00	 3.8890872965e+00	-1.6898315672e-01
-8.4852813742e+00	 4.5254833996e+00	-1.6566202001e-01
-9.1216774773e+00	 5.1618795026e+00	-1.7445358227e-01
-9.7580735804e+00	 5.7982756057e+00	-2.0648365054e-01
-3.1112698372e+00	-2.8284271246e-01	-3.9266015083e-02
-3.7476659403e+00	 3.5355339060e-01	-6.8325872653e-02
-4.3840620433e+00	 9.8994949366e-01	-9.5607184966e-02
-5.0204581464e+00	 1.6263455967e+00	-1.2001291845e-01
-5.6568542495e+00	 2.2627416998e+00	-1.4044603954e-01
-6.2932503526e+00	 2.8991378029e+00	-1.5580951465e-01
-6.9296464556e+00	 3.5355339059e+00	-1.6539919469e-01
-7.5660425587e+00	 4.1719300090e+00	-1.6999791568e-01
-8.2024386618e+00	 4.8083261121e+00	-1.6893616783e-01
-8.8388347648e+00	 5.4447222151e+00	-1.6629584475e-01
-9.4752308679e+00	 6.0811183182e+00	-2.0453104439e-01
-2.8284271247e+00	 1.2501222280e-11	-5.5767707754e-02
-3.4648232278e+00	 6.3639610307e-01	-7.8629505784e-02
-4.1012193309e+00	 1.2727922061e+00	-1.0371358119e-01
-4.7376154339e+00	 1.9091883092e+00	-1.2612703986e-01
-5.3740115370e+00	 2.5455844123e+00	-1.4477284824e-01
-6.0104076401e+00	 3.1819805153e+00	-1.5855397273e-01
-6.6468037432e+00	 3.8183766184e+00	-1.6898379091e-01
-7.2831998462e+00	 4.4547727215e+00	-1.7418964776e-01
-7.9195959493e+00	 5.0911688245e+00	-1.7487102940e-01
-8.5559920524e+00	 5.7275649276e+00	-1.7421481342e-01
-9.1923881554e+00	 6.3639610307e+00	-2.0088327139e-01
-2.5455844123e+00	 2.8284271249e-01	-7.9776621003e-02
-3.1819805153e+00	 9.1923881555e-01	-9.2435134660e-02
-3.8183766184e+00	 1.5556349186e+00	-1.1508773745e-01
-4.4547727215e+00	 2.1920310217e+00	-1.3527468561e-01
-5.0911688245e+00	 2.8284271247e+00	-1.5189894556e-01
-5.7275649276e+00	 3.4648232278e+00	-1.6404563438e-01
-6.3639610307e+00	 4.1012193309e+00	-1.7591759213e-01
-7.0003571338e+00	 4.7376154339e+00	-1.8121431317e-01
-7.6367532368e+00	 5.3740115370e+00	-1.8312255657e-01
-8.2731493399e+00	 6.0104076401e+00	-1.8482924218e-01
-8.9095454430e+00	 6.6468037431e+00	-1.9579286982e-01
-2.2627416998e+00	 5.6568542496e-01	-1.0473518579e-01
-2.8991378029e+00	 1.2020815280e+00	-1.1058706997e-01
-3.5355339059e+00	 1.8384776311e+00	-1.2993729390e-01
-4.1719300090e+00	 2.4748737341e+00	-1.4766349584e-01
-4.8083261121e+00	 3.1112698372e+00	-1.6203197167e-01
-5.4447222151e+00	 3.7476659403e+00	-1.7554596966e-01
-6.0811183182e+00	 4.3840620433e+00	-1.8585655633e-01
-6.7175144213e+00	 5.0204581464e+00	-1.9072786353e-01
-7.3539105243e+00	 5.6568542495e+00	-1.9334669261e-01
-7.9903066274e+00	 6.2932503525e+00	-1.9690000569e-01
-8.6267027305e+00	 6.9296464556e+00	-2.0457492565e-01
-1.9798989873e+00	 8.4852813744e-01	-1.3064340212e-01
-2.6162950904e+00	 1.4849242405e+00	-1.3441609191e-01
-3.2526911935e+00	 2.1213203436e+00	-1.4846989068e-01
-3.8890872965e+00	 2.7577164466e+00	-1.6350111070e-01
-4.5254833996e+00	 3.3941125497e+00	-1.7537956670e-01
-5.1618795027e+00	 4.0305086528e+00	-1.9022370761e-01
-5.7982756057e+00	 4.6669047558e+00	-1.9845663490e-01
-6.4346717088e+00	 5.3033008589e+00	-2.0238624191e-01
-7.0710678119e+00	 5.9396969620e+00	-2.0519937226e-01
-7.7074639149e+00	 6.5760930650e+00	-2.1008303032e-01
-8.3438600180e+00	 7.2124891681e+00	-2.2022438124e-01
-1.6970562749e+00	 1.1313708499e+00	-1.5750126999e-01
-2.3334523779e+00	 1.7677669530e+00	-1.5888829703e-01
-2.9698484810e+00	 2.4041630560e+00	-1.7089316795e-01
-3.6062445841e+00	 3.0405591591e+00	-1.8299517033e-01
-4.2426406871e+00	 3.6769552622e+00	-1.9574174391e-01
-4.8790367902e+00	 4.3133513652e+00	-2.0773479942e-01
-5.5154328933e+00	 4.9497474683e+00	-2.1337377069e-01
-6.1518289963e+00	 5.5861435714e+00	-2.1584538282e-01
-6.7882250994e+00	 6.2225396744e+00	-2.1833652167e-01
-7.4246212025e+00	 6.8589357775e+00	-2.2403423388e-01
-8.0610173055e+00	 7.4953318806e+00	-2.3612572687e-01
-1.4142135624e+00	 1.4142135624e+00	-1.8530878941e-01
-2.0506096655e+00	 2.0506096655e+00	-1.8400368532e-01
-2.6870057685e+00	 2.6870057685e+00	-1.9405791007e-01
-3.3234018716e+00	 3.3234018716e+00	-2.0635331490e-01
-3.9597979746e+00	 3.9597979746e+00	-2.1998831403e-01
-4.5961940777e+00	 4.5961940777e+00	-2.2773518772e-01
-5.2325901808e+00	 5.2325901808e+00	-2.3026389799e-01
-5.8689862838e+00	 5.8689862838e+00	-2.3076121218e-01
-6.5053823869e+00	 6.5053823869e+00	-2.3241405842e-01
-7.1417784900e+00	 7.1417784900e+00	-2.3840952561e-01
-7.7781745931e+00	 7.7781745931e+00	-2.5193486342e-01
-1.0606601718e+01	 4.9497474683e+00	-1.9964527307e-01
-1.1242997821e+01	 5.5861435714e+00	-1.7752166572e-01
-1.1879393924e+01	 6.2225396744e+00	-1.6130535822e-01
-1.2515790027e+01	 6.8589357775e+00	-1.5018171109e-01
-1.3152186130e+01	 7.4953318806e+00	-1.4333613277e-01
-1.3788582233e+01	 8.1317279837e+00	-1.3995407958e-01
-1.4424978336e+01	 8.7681240867e+00	-1.3922105576e-01
-1.5061374439e+01	 9.4045201898e+00	-1.3037934991e-01
-1.5697770542e+01	 1.0040916293e+01	-1.1356810661e-01
-1.6334166645e+01	 1.0677312396e+01	-9.9468880513e-02
-1.6970562749e+01	 1.1313708499e+01	-8.4012178281e-02
-1.0323759005e+01	 5.2325901808e+00	-2.0429327182e-01
-1.0960155108e+01	 5.8689862838e+00	-1.8210678458e-01
-1.1596551211e+01	 6.5053823869e+00	-1.6544319227e-01
-1.2232947315e+01	 7.1417784900e+00	-1.5348784190e-01
-1.2869343418e+01	 7.7781745931e+00	-1.4542612835e-01
-1.3505739521e+01	 8.4145706961e+00	-1.4044349445e-01
-1.4142135624e+01	 9.0509667992e+00	-1.3772543091e-01
-1.4778531727e+01	 9.6873629023e+00	-1.3442031364e-01
-1.5414927830e+01	 1.0323759005e+01	-1.1536167317e-01
-1.6051323933e+01	 1.0960155108e+01	-1.0296169019e-01
-1.6687720036e+01	 1.1596551211e+01	-8.4770812293e-02
-1.0040916293e+01	 5.5154328932e+00	-2.0648856408e-01
-1.0677312396e+01	 6.1518289963e+00	-1.8447806512e-01
-1.1313708499e+01	 6.7882250994e+00	-1.6760604402e-01
-1.1950104602e+01	 7.4246212025e+00	-1.5505783425e-01
-1.2586500705e+01	 8.0610173055e+00	-1.4601881719e-01
-1.3222896808e+01	 8.6974134086e+00	-1.3967442213e-01
-1.3859292911e+01	 9.3338095117e+00	-1.3521012626e-01
-1.4495689014e+01	 9.9702056147e+00	-1.3181145468e-01
-1.5132085117e+01	 1.0606601718e+01	-1.2129084127e-01
-1.5768481220e+01	 1.1242997821e+01	-1.0657298507e-01
-1.6404877324e+01	 1.1879393924e+01	-8.5773738113e-02
-9.7580735804e+00	 5.7982756057e+00	-2.0648365054e-01
-1.0394469683e+01	 6.4346717088e+00	-1.8488801070e-01
-1.1030865787e+01	 7.0710678119e+00	-1.6804641948e-01
-1.1667261890e+01	 7.7074639149e+00	-1.5514419684e-01
-1.2303657993e+01	 8.3438600180e+00	-1.4536671065e-01
-1.2940054096e+01	 8.9802561211e+00	-1.3789937665e-01
-1.3576450199e+01	 9.6166522241e+00	-1.3192765852e-01
-1.4212846302e+01	 1.0253048327e+01	-1.2663706783e-01
-1.4849242405e+01	 1.0889444430e+01	-1.2755138567e-01
-1.5485638508e+01	 1.1525840533e+01	-1.1029321534e-01
-1.6122034611e+01	 1.2162236636e+01	-8.7011406559e-02
-9.4752308679e+00	 6.0811183182e+00	-2.0453104439e-01
-1.0111626971e+01	 6.7175144213e+00	-1.8358913718e-01
-1.0748023074e+01	 7.3539105243e+00	-1.6701683721e-01
-1.1384419177e+01	 7.9903066274e+00	-1.5399945091e-01
-1.2020815280e+01	 8.6267027305e+00	-1.4372233262e-01
-1.2657211383e+01	 9.2630988335e+00	-1.3537088458e-01
-1.3293607486e+01	 9.8994949366e+00	-1.2813055694e-01
-1.3930003589e+01	 1.0535891040e+01	-1.2586501937e-01
-1.4566399692e+01	 1.1172287143e+01	-1.3002407466e-01
-1.5202795796e+01	 1.1808683246e+01	-1.1411283168e-01
-1.5839191899e+01	 1.2445079349e+01	-8.8474268967e-02
-9.1923881554e+00	 6.3639610307e+00	-2.0088327139e-01
-9.8287842585e+00	 7.0003571337e+00	-1.8083397299e-01
-1.0465180362e+01	 7.6367532368e+00	-1.6476982829e-01
-1.1101576465e+01	 8.2731493399e+00	-1.5187613020e-01
-1.1737972568e+01	 8.9095454429e+00	-1.4133821955e-01
-1.2374368671e+01	 9.5459415460e+00	-1.3234148504e-01
-1.3010764774e+01	 1.0182337649e+01	-1.2407136329e-01
-1.3647160877e+01	 1.0818733752e+01	-1.2737441525e-01
-1.4283556980e+01	 1.1455129855e+01	-1.2883365268e-01
-1.4919953083e+01	 1.2091525958e+01	-1.1802228533e-01
-1.5556349186e+01	 1.2727922061e+01	-9.0152777194e-02
-8.9095454430e+00	 6.6468037431e+00	-1.9579286982e-01
-9.5459415460e+00	 7.2831998462e+00	-1.7687505908e-01
-1.0182337649e+01	 7.9195959493e+00	-1.6155793636e-01
-1.0818733752e+01	 8.5559920523e+00	-1.4902678104e-01
-1.1455129855e+01	 9.1923881554e+00	-1.3846692041e-01
-1.2091525958e+01	 9.8287842585e+00	-1.2906372967e-01
-1.2727922061e+01	 1.0465180362e+01	-1.2349589378e-01
-1.3364318164e+01	 1.1101576465e+01	-1.2894187651e-01
-1.4000714267e+01	 1.1737972568e+01	-1.2789209342e-01
-1.4637110371e+01	 1.2374368671e+01	-1.2026101107e-01
-1.5273506474e+01	 1.3010764774e+01	-9.2037383612e-02
-8.6267027305e+00	 6.9296464556e+00	-2.0457492565e-01
-9.2630988336e+00	 7.5660425587e+00	-1.7196494895e-01
-9.8994949366e+00	 8.2024386618e+00	-1.5763371759e-01
-1.0535891040e+01	 8.8388347648e+00	-1.4570396225e-01
-1.1172287143e+01	 9.4752308679e+00	-1.3536099672e-01
-1.1808683246e+01	 1.0111626971e+01	-1.2579018266e-01
-1.2445079349e+01	 1.0748023074e+01	-1.2750897675e-01
-1.3081475452e+01	 1.1384419177e+01	-1.3052710720e-01
-1.3717871555e+01	 1.2020815280e+01	-1.2715910135e-01
-1.4354267658e+01	 1.2657211383e+01	-1.1731942355e-01
-1.4990663761e+01	 1.3293607486e+01	-9.4118541114e-02
-8.3438600180e+00	 7.2124891681e+00	-2.2022438124e-01
-8.9802561211e+00	 7.8488852712e+00	-1.6635620864e-01
-9.6166522241e+00	 8.4852813742e+00	-1.5324974068e-01
-1.0253048327e+01	 9.1216774773e+00	-1.4216024523e-01
-1.0889444430e+01	 9.7580735804e+00	-1.3227302254e-01
-1.1525840533e+01	 1.0394469683e+01	-1.2433669068e-01
-1.2162236636e+01	 1.1030865787e+01	-1.3130873488e-01
-1.2798632739e+01	 1.1667261890e+01	-1.3208981057e-01
-1.3435028843e+01	 1.2303657993e+01	-1.2659438018e-01
-1.4071424946e+01	 1.2940054096e+01	-1.1473690582e-01
-1.4707821049e+01	 1.3576450199e+01	-9.6386703111e-02
-8.0610173055e+00	 7.4953318806e+00	-2.3612572687e-01
-8.6974134086e+00	 8.1317279836e+00	-1.7009494316e-01
-9.3338095117e+00	 8.7681240867e+00	-1.4865858688e-01
-9.9702056147e+00	 9.4045201898e+00	-1.3864821389e-01
-1.0606601718e+01	 1.0040916293e+01	-1.2945558444e-01
-1.1242997821e+01	 1.0677312396e+01	-1.3003871589e-01
-1.1879393924e+01	 1.1313708499e+01	-1.3485487019e-01
-1.2515790027e+01	 1.1950104602e+01	-1.3358968910e-01
-1.3152186130e+01	 1.2586500705e+01	-1.2615763281e-01
-1.3788582233e+01	 1.3222896808e+01	-1.1247316122e-01
-1.4424978336e+01	 1.3859292911e+01	-9.2450733926e-02
-7.7781745931e+00	 7.7781745931e+00	-2.5193486342e-01
-8.4145706961e+00	 8.4145706961e+00	-1.8574316749e-01
-9.0509667992e+00	 9.0509667992e+00	-1.4411284998e-01
-9.6873629023e+00	 9.6873629023e+00	-1.3542046468e-01
-1.0323759005e+01	 1.0323759005e+01	-1.2716128158e-01
-1.0960155108e+01	 1.0960155108e+01	-1.3525602180e-01
-1.1596551211e+01	 1.1596551211e+01	-1.3810708393e-01
-1.2232947315e+01	 1.2232947315e+01	-1.3498644447e-01
-1.2869343418e+01	 1.2869343418e+01	-1.2580856137e-01
-1.3505739521e+01	 1.3505739521e+01	-1.1048789230e-01
-1.4142135624e+01	 1.4142135624e+01	-8.8938894655e-02
-8.4852813742e+00	-5.6568542495e+00	 2.3443103554e-01
-9.1216774773e+00	-5.0204581464e+00	 1.6659119168e-01
-9.7580735804e+00	-4.3840620434e+00	 1.4458654855e-01
-1.0394469683e+01	-3.7476659403e+00	 1.2407471432e-01
-1.1030865787e+01	-3.1112698373e+00	 9.7595705279e-02
-1.1667261890e+01	-2.4748737342e+00	 6.7060825460e-02
-1.2303657993e+01	-1.8384776311e+00	 3.8617385601e-02
-1.2940054096e+01	-1.2020815281e+00	 1.2485292280e-02
-1.3576450199e+01	-5.6568542499e-01	-1.1115542582e-02
-1.4212846302e+01	 7.0710678080e-02	-3.1965201726e-02
-1.4849242405e+01	 7.0710678115e-01	-5.5472091826e-02
-8.3438600180e+00	-5.5154328933e+00	 2.2332877442e-01
-8.9802561211e+00	-4.8790367902e+00	 1.4154805807e-01
-9.6166522241e+00	-4.2426406871e+00	 1.2305626477e-01
-1.0253048327e+01	-3.6062445841e+00	 1.0568954613e-01
-1.0889444430e+01	-2.9698484810e+00	 7.9479603327e-02
-1.1525840533e+01	-2.3334523779e+00	 5.1742381559e-02
-1.2162236636e+01	-1.6970562749e+00	 2.5811515121e-02
-1.2798632739e+01	-1.0606601718e+00	 1.9069144754e-03
-1.3435028843e+01	-4.2426406875e-01	-1.9751504572e-02
-1.4071424946e+01	 2.1213203432e-01	-3.8943820875e-02
-1.4707821049e+01	 8.4852813739e-01	-5.5522712986e-02
-8.2024386618e+00	-5.3740115370e+00	 2.1182695775e-01
-8.8388347648e+00	-4.7376154340e+00	 1.1628238986e-01
-9.4752308679e+00	-4.1012193309e+00	 1.0135845720e-01
-1.0111626971e+01	-3.4648232278e+00	 8.7191863964e-02
-1.0748023074e+01	-2.8284271248e+00	 6.1304193071e-02
-1.1384419177e+01	-2.1920310217e+00	 3.6392683419e-02
-1.2020815280e+01	-1.5556349186e+00	 1.3002443802e-02
-1.2657211383e+01	-9.1923881558e-01	-8.6466114303e-03
-1.3293607486e+01	-2.8284271251e-01	-2.8334562588e-02
-1.3930003589e+01	 3.5355339056e-01	-4.5841484641e-02
-1.4566399692e+01	 9.8994949363e-01	-6.0947447220e-02
-8.0610173055e+00	-5.2325901808e+00	 1.9991801505e-01
-8.6974134086e+00	-4.5961940777e+00	 1.0638164734e-01
-9.3338095117e+00	-3.9597979747e+00	 7.9523814289e-02
-9.9702056147e+00	-3.3234018716e+00	 6.6161937943e-02
-1.0606601718e+01	-2.6870057685e+00	 4.3087923097e-02
-1.1242997821e+01	-2.0506096655e+00	 2.1030179434e-02
-1.1879393924e+01	-1.4142135624e+00	 2.0861984740e-04
-1.2515790027e+01	-7.7781745934e-01	-1.9156837427e-02
-1.3152186130e+01	-1.4142135627e-01	-3.6846268814e-02
-1.3788582233e+01	 4.9497474680e-01	-5.2639745397e-02
-1.4424978336e+01	 1.1313708499e+00	-6.6317332923e-02
-7.9195959493e+00	-5.0911688245e+00	 1.8759437600e-01
-8.5559920524e+00	-4.4547727215e+00	 9.7971880604e-02
-9.1923881554e+00	-3.8183766184e+00	 5.7583024434e-02
-9.8287842585e+00	-3.1819805154e+00	 4.4756346844e-02
-1.0465180362e+01	-2.5455844123e+00	 2.4849242174e-02
-1.1101576465e+01	-1.9091883092e+00	 5.6733181802e-03
-1.1737972568e+01	-1.2727922062e+00	-1.2551508358e-02
-1.2374368671e+01	-6.3639610310e-01	-2.9605315321e-02
-1.3010764774e+01	-2.8000712859e-11	-4.5268175246e-02
-1.3647160877e+01	 6.3639610304e-01	-5.9320155333e-02
-1.4283556980e+01	 1.2727922061e+00	-7.1541317443e-02
-7.7781745931e+00	-4.9497474683e+00	 1.7484847038e-01
-8.4145706961e+00	-4.3133513652e+00	 8.9182111084e-02
-9.0509667992e+00	-3.6769552622e+00	 3.5566775954e-02
-9.6873629023e+00	-3.0405591591e+00	 2.3318739597e-02
-1.0323759005e+01	-2.4041630561e+00	 6.6065992554e-03
-1.0960155108e+01	-1.7677669530e+00	-9.6594515804e-03
-1.1596551211e+01	-1.1313708499e+00	-2.5259492246e-02
-1.2232947315e+01	-4.9497474686e-01	-3.9973596736e-02
-1.2869343418e+01	 1.4142135621e-01	-5.3581833701e-02
-1.3505739521e+01	 7.7781745928e-01	-6.5864266457e-02
-1.4142135624e+01	 1.4142135624e+00	-7.6600952979e-02
-7.6367532368e+00	-4.8083261121e+00	 1.6167272814e-01
-8.2731493399e+00	-4.1719300090e+00	 8.0004768723e-02
-8.9095454430e+00	-3.5355339059e+00	 1.3505762021e-02
-9.5459415460e+00	-2.8991378029e+00	 1.8675655291e-03
-1.0182337649e+01	-2.2627416998e+00	-1.1621556523e-02
-1.0818733752e+01	-1.6263455967e+00	-2.4949680904e-02
-1.1455129855e+01	-9.8994949368e-01	-3.7896883063e-02
-1.2091525958e+01	-3.5355339062e-01	-5.0243233110e-02
-1.2727922061e+01	 2.8284271245e-01	-6.1768795810e-02
-1.3364318164e+01	 9.1923881552e-01	-7.2253630592e-02
-1.4000714268e+01	 1.5556349186e+00	-8.1477791546e-02
-7.4953318806e+00	-4.6669047558e+00	 1.4805957934e-01
-8.1317279837e+00	-4.0305086528e+00	 7.0432283595e-02
-8.7681240867e+00	-3.3941125497e+00	-3.2602368490e-03
-9.4045201898e+00	-2.7577164466e+00	-1.9578725846e-02
-1.0040916293e+01	-2.1213203436e+00	-2.9816775840e-02
-1.0677312396e+01	-1.4849242405e+00	-4.0178920661e-02
-1.1313708499e+01	-8.4852813744e-01	-5.0445231874e-02
-1.1950104602e+01	-2.1213203438e-01	-6.0395775699e-02
-1.2586500705e+01	 4.2426406869e-01	-6.9810613020e-02
-1.3222896808e+01	 1.0606601718e+00	-7.8469799377e-02
-1.3859292911e+01	 1.6970562748e+00	-8.6153384976e-02
-7.3539105244e+00	-4.5254833996e+00	 1.3400145418e-01
-7.9903066274e+00	-3.8890872965e+00	 6.0457085908e-02
-8.6267027305e+00	-3.2526911935e+00	-1.2193373742e-02
-9.2630988336e+00	-2.6162950904e+00	-4.1001684834e-02
-9.8994949366e+00	-1.9798989873e+00	-4.7960609193e-02
-1.0535891040e+01	-1.3435028843e+00	-5.5328721542e-02
-1.1172287143e+01	-7.0710678120e-01	-6.2886089558e-02
-1.1808683246e+01	-7.0710678136e-02	-7.0412775577e-02
-1.2445079349e+01	 5.6568542493e-01	-7.7688836594e-02
-1.3081475452e+01	 1.2020815280e+00	-8.4494324268e-02
-1.3717871555e+01	 1.8384776311e+00	-9.0609284916e-02
-7.2124891681e+00	-4.3840620433e+00	 1.1949078300e-01
-7.8488852712e+00	-3.7476659403e+00	 5.0071606002e-02
-8.4852813743e+00	-3.1112698372e+00	-2.1536627871e-02
-9.1216774773e+00	-2.4748737342e+00	-6.2382861555e-02
-9.7580735804e+00	-1.8384776311e+00	-6.6034606895e-02
-1.0394469683e+01	-1.2020815280e+00	-7.0380634050e-02
-1.1030865787e+01	-5.6568542496e-01	-7.5201006812e-02
-1.1667261890e+01	 7.0710678104e-02	-8.0275783630e-02
-1.2303657993e+01	 7.0710678117e-01	-8.5385017615e-02
-1.2940054096e+01	 1.3435028842e+00	-9.0308756538e-02
-1.3576450199e+01	 1.9798989873e+00	-9.4827042832e-02
-7.0710678119e+00	-4.2426406871e+00	 1.0451999626e-01
-7.7074639150e+00	-3.6062445840e+00	 3.9268282477e-02
-8.3438600180e+00	-2.9698484810e+00	-3.1315954257e-02
-8.9802561211e+00	-2.3334523779e+00	-8.3703799239e-02
-9.6166522241e+00	-1.6970562749e+00	-8.4020319074e-02
-1.0253048327e+01	-1.0606601718e+00	-8.5316208507e-02
-1.0889444430e+01	-4.2426406872e-01	-8.7371534149e-02
-1.1525840533e+01	 2.1213203434e-01	-8.9966350564e-02
-1.2162236636e+01	 8.4852813741e-01	-9.2880706978e-02
-1.2798632739e+01	 1.4849242405e+00	-9.5894647275e-02
-1.3435028843e+01	 2.1213203435e+00	-9.8788210003e-02
-1.4849242405e+01	 7.0710678115e-01	-5.5472091826e-02
-1.5485638508e+01	 1.3435028842e+00	-6.0745770924e-02
-1.6122034611e+01	 1.9798989873e+00	-6.4339657069e-02
-1.6758430714e+01	 2.6162950904e+00	-6.6789455117e-02
-1.7394826817e+01	 3.2526911934e+00	-6.8630893881e-02
-1.8031222920e+01	 3.8890872965e+00	-6.8680344782e-02
-1.8667619023e+01	 4.5254833996e+00	-6.9346295544e-02
-1.9304015126e+01	 5.1618795027e+00	-7.0807318178e-02
-1.9940411229e+01	 5.7982756057e+00	-7.2165832818e-02
-2.0576807333e+01	 6.4346717088e+00	-7.2524158371e-02
-2.1213203436e+01	 7.0710678119e+00	-5.7201393366e-02
-1.4707821049e+01	 8.4852813739e-01	-5.5522712986e-02
-1.5344217152e+01	 1.4849242405e+00	-6.1804198560e-02
-1.5980613255e+01	 2.1213203435e+00	-6.6247625704e-02
-1.6617009358e+01	 2.7577164466e+00	-6.9388698029e-02
-1.7253405461e+01	 3.3941125497e+00	-7.1763143100e-02
-1.7889801564e+01	 4.0305086528e+00	-7.1340541562e-02
-1.8526197667e+01	 4.6669047558e+00	-7.2125766383e-02
-1.9162593770e+01	 5.3033008589e+00	-7.3551462030e-02
-1.9798989873e+01	 5.9396969620e+00	-7.4720047682e-02
-2.0435385976e+01	 6.5760930651e+00	-7.4733841289e-02
-2.1071782079e+01	 7.2124891681e+00	-6.2062967978e-02
-1.4566399692e+01	 9.8994949363e-01	-6.0947447220e-02
-1.5202795796e+01	 1.6263455967e+00	-6.3237795189e-02
-1.5839191899e+01	 2.2627416998e+00	-6.8496763210e-02
-1.6475588002e+01	 2.8991378028e+00	-7.2295109480e-02
-1.7111984105e+01	 3.5355339059e+00	-7.4584845626e-02
-1.7748380208e+01	 4.1719300090e+00	-7.4095582445e-02
-1.8384776311e+01	 4.8083261121e+00	-7.4989670603e-02
-1.9021172414e+01	 5.4447222151e+00	-7.6369629537e-02
-1.9657568517e+01	 6.0811183182e+00	-7.7337877471e-02
-2.0293964620e+01	 6.7175144213e+00	-7.6996731398e-02
-2.0930360723e+01	 7.3539105244e+00	-6.6949885770e-02
-1.4424978336e+01	 1.1313708499e+00	-6.6317332923e-02
-1.5061374439e+01	 1.7677669529e+00	-6.5047370266e-02
-1.5697770542e+01	 2.4041630560e+00	-7.1087879105e-02
-1.6334166645e+01	 3.0405591591e+00	-7.5509499050e-02
-1.6970562749e+01	 3.6769552622e+00	-7.7181944623e-02
-1.7606958852e+01	 4.3133513652e+00	-7.6945732203e-02
-1.8243354955e+01	 4.9497474683e+00	-7.7938273023e-02
-1.8879751058e+01	 5.5861435714e+00	-7.9262085567e-02
-1.9516147161e+01	 6.2225396745e+00	-8.0019587100e-02
-2.0152543264e+01	 6.8589357775e+00	-7.9313093659e-02
-2.0788939367e+01	 7.4953318806e+00	-7.1859882269e-02
-1.4283556980e+01	 1.2727922061e+00	-7.1541317443e-02
-1.4919953083e+01	 1.9091883092e+00	-6.7233733250e-02
-1.5556349186e+01	 2.5455844123e+00	-7.4021782908e-02
-1.6192745289e+01	 3.1819805153e+00	-7.9032676321e-02
-1.6829141392e+01	 3.8183766184e+00	-7.9884828841e-02
-1.7465537495e+01	 4.4547727215e+00	-7.9891255559e-02
-1.8101933598e+01	 5.0911688245e+00	-8.0971838415e-02
-1.8738329701e+01	 5.7275649276e+00	-8.2229094937e-02
-1.9374725805e+01	 6.3639610307e+00	-8.2765441433e-02
-2.0011121908e+01	 7.0003571338e+00	-8.1683192986e-02
-2.0647518011e+01	 7.6367532368e+00	-7.6790692979e-02
-1.4142135624e+01	 1.4142135624e+00	-7.6600952979e-02
-1.4778531727e+01	 2.0506096654e+00	-6.9797693603e-02
-1.5414927830e+01	 2.6870057685e+00	-7.7299284143e-02
-1.6051323933e+01	 3.3234018716e+00	-8.2865450877e-02
-1.6687720036e+01	 3.9597979746e+00	-8.2693762908e-02
-1.7324116139e+01	 4.5961940777e+00	-8.2932417189e-02
-1.7960512242e+01	 5.2325901808e+00	-8.4090631502e-02
-1.8596908345e+01	 5.8689862839e+00	-8.5270922417e-02
-1.9233304448e+01	 6.5053823869e+00	-8.5575705289e-02
-1.9869700551e+01	 7.1417784900e+00	-8.4107294242e-02
-2.0506096654e+01	 7.7781745931e+00	-7.9967902159e-02
-1.4000714268e+01	 1.5556349186e+00	-8.1477791546e-02
-1.4637110371e+01	 2.1920310217e+00	-7.4339717343e-02
-1.5273506474e+01	 2.8284271247e+00	-8.0921192339e-02
-1.5909902577e+01	 3.4648232278e+00	-8.6810889191e-02
-1.6546298680e+01	 4.1012193309e+00	-8.5609011406e-02
-1.7182694783e+01	 4.7376154339e+00	-8.6069481722e-02
-1.7819090886e+01	 5.3740115370e+00	-8.7294916959e-02
-1.8455486989e+01	 6.0104076401e+00	-8.8387832731e-02
-1.9091883092e+01	 6.6468037432e+00	-8.8450643437e-02
-1.9728279195e+01	 7.2831998462e+00	-8.6585662245e-02
-2.0364675298e+01	 7.9195959493e+00	-8.1895101081e-02
-1.3859292911e+01	 1.6970562748e+00	-8.6153384976e-02
-1.4495689014e+01	 2.3334523779e+00	-8.0500965105e-02
-1.5132085117e+01	 2.9698484810e+00	-8.4888317028e-02
-1.5768481220e+01	 3.6062445840e+00	-8.9466718938e-02
-1.6404877324e+01	 4.2426406871e+00	-8.8630838867e-02
-1.7041273427e+01	 4.8790367902e+00	-8.9302713737e-02
-1.7677669530e+01	 5.5154328933e+00	-9.0584959412e-02
-1.8314065633e+01	 6.1518289963e+00	-9.1580090552e-02
-1.8950461736e+01	 6.7882250994e+00	-9.1390520598e-02
-1.9586857839e+01	 7.4246212025e+00	-8.9118561762e-02
-2.0223253942e+01	 8.0610173055e+00	-8.3866425015e-02
-1.3717871555e+01	 1.8384776311e+00	-9.0609284916e-02
-1.4354267658e+01	 2.4748737341e+00	-8.6420962417e-02
-1.4990663761e+01	 3.1112698372e+00	-8.9201467743e-02
-1.5627059864e+01	 3.7476659403e+00	-9.2239804561e-02
-1.6263455967e+01	 4.3840620433e+00	-9.1759509775e-02
-1.6899852070e+01	 5.0204581464e+00	-9.2632377765e-02
-1.7536248173e+01	 5.6568542495e+00	-9.3961023440e-02
-1.8172644276e+01	 6.2932503526e+00	-9.4847960505e-02
-1.8809040380e+01	 6.9296464556e+00	-9.4395601444e-02
-1.9445436483e+01	 7.5660425587e+00	-9.1706257514e-02
-2.0081832586e+01	 8.2024386618e+00	-8.5882138728e-02
-1.3576450199e+01	 1.9798989873e+00	-9.4827042832e-02
-1.4212846302e+01	 2.6162950904e+00	-9.2081260935e-02
-1.4849242405e+01	 3.2526911934e+00	-9.3861454026e-02
-1.5485638508e+01	 3.8890872965e+00	-9.5130410449e-02
-1.6122034611e+01	 4.5254833996e+00	-9.4995288565e-02
-1.6758430714e+01	 5.1618795027e+00	-9.6058738289e-02
-1.7394826817e+01	 5.7982756057e+00	-9.7423373573e-02
-1.8031222920e+01	 6.4346717088e+00	-9.8191707167e-02
-1.8667619023e+01	 7.0710678119e+00	-9.7466150600e-02
-1.9304015126e+01	 7.7074639149e+00	-9.4349014172e-02
-1.9940411229e+01	 8.3438600180e+00	-8.7942506939e-02
-1.3435028843e+01	 2.1213203435e+00	-9.8788210003e-02
-1.4071424946e+01	 2.7577164466e+00	-9.7463412131e-02
-1.4707821049e+01	 3.3941125497e+00	-9.8869085418e-02
-1.5344217152e+01	 4.0305086528e+00	-9.8138800943e-02
-1.5980613255e+01	 4.6669047558e+00	-9.8338439627e-02
-1.6617009358e+01	 5.3033008589e+00	-9.9582059744e-02
-1.7253405461e+01	 5.9396969620e+00	-1.0097227429e-01
-1.7889801564e+01	 6.5760930650e+00	-1.0161159507e-01
-1.8526197667e+01	 7.2124891681e+00	-1.0060243264e-01
-1.9162593770e+01	 7.8488852711e+00	-9.7047096360e-02
-1.9798989873e+01	 8.4852813742e+00	-9.0047794319e-02
-9.8994949366e+00	-7.0710678119e+00	 5.7545872908e-01
-1.0535891040e+01	-6.4346717088e+00	 4.5763787508e-01
-1.1172287143e+01	-5.7982756057e+00	 3.5774651033e-01
-1.1808683246e+01	-5.1618795027e+00	 2.7436648757e-01
-1.2445079349e+01	-4.5254833996e+00	 2.0607980791e-01
-1.3081475452e+01	-3.8890872965e+00	 1.5146862084e-01
-1.3717871555e+01	-3.2526911934e+00	 1.0654052770e-01
-1.4354267658e+01	-2.6162950904e+00	 7.0598695010e-02
-1.4990663761e+01	-1.9798989873e+00	 3.3407734910e-02
-1.5627059864e+01	-1.3435028842e+00	-5.0485592325e-03
-1.6263455967e+01	-7.0710678115e-01	-2.1456695184e-02
-9.7580735804e+00	-6.9296464557e+00	 5.6202802754e-01
-1.0394469683e+01	-6.2932503526e+00	 4.4896290535e-01
-1.1030865787e+01	-5.6568542495e+00	 3.5270196501e-01
-1.1667261890e+01	-5.0204581464e+00	 2.7182707459e-01
-1.2303657993e+01	-4.3840620434e+00	 2.0492025056e-01
-1.2940054096e+01	-3.7476659403e+00	 1.5056365775e-01
-1.3576450199e+01	-3.1112698372e+00	 1.0299911706e-01
-1.4212846302e+01	-2.4748737341e+00	 6.5884124263e-02
-1.4849242405e+01	-1.8384776311e+00	 3.5580067764e-02
-1.5485638508e+01	-1.2020815280e+00	-5.9117949724e-03
-1.6122034611e+01	-5.6568542492e-01	-2.6268169012e-02
-9.6166522241e+00	-6.7882250994e+00	 5.4504957214e-01
-1.0253048327e+01	-6.1518289963e+00	 4.3713273735e-01
-1.0889444430e+01	-5.5154328933e+00	 3.4489477598e-01
-1.1525840533e+01	-4.8790367902e+00	 2.6691757147e-01
-1.2162236636e+01	-4.2426406871e+00	 2.0178315564e-01
-1.2798632739e+01	-3.6062445840e+00	 1.4807370865e-01
-1.3435028843e+01	-2.9698484810e+00	 9.8331946526e-02
-1.4071424946e+01	-2.3334523779e+00	 6.0409384444e-02
-1.4707821049e+01	-1.6970562748e+00	 3.7007326282e-02
-1.5344217152e+01	-1.0606601718e+00	-7.1420767941e-03
-1.5980613255e+01	-4.2426406869e-01	-3.1068660459e-02
-9.4752308679e+00	-6.6468037432e+00	 5.2455405351e-01
-1.0111626971e+01	-6.0104076401e+00	 4.2217806093e-01
-1.0748023074e+01	-5.3740115370e+00	 3.3435563236e-01
-1.1384419177e+01	-4.7376154340e+00	 2.5966866657e-01
-1.2020815280e+01	-4.1012193309e+00	 1.9669921074e-01
-1.2657211383e+01	-3.4648232278e+00	 1.4402946039e-01
-1.3293607486e+01	-2.8284271247e+00	 9.2557462449e-02
-1.3930003589e+01	-2.1920310217e+00	 5.4192921725e-02
-1.4566399692e+01	-1.5556349186e+00	 2.9423701281e-02
-1.5202795796e+01	-9.1923881553e-01	-8.7402139924e-03
-1.5839191899e+01	-2.8284271246e-01	-3.5858978880e-02
-9.3338095116e+00	-6.5053823869e+00	 5.0057216218e-01
-9.9702056147e+00	-5.8689862839e+00	 4.0412956588e-01
-1.0606601718e+01	-5.2325901808e+00	 3.2111522316e-01
-1.1242997821e+01	-4.5961940777e+00	 2.5011104815e-01
-1.1879393924e+01	-3.9597979746e+00	 1.8969910338e-01
-1.2515790027e+01	-3.3234018716e+00	 1.3646783189e-01
-1.3152186130e+01	-2.6870057685e+00	 8.5694111382e-02
-1.3788582233e+01	-2.0506096654e+00	 4.7253182464e-02
-1.4424978336e+01	-1.4142135624e+00	 2.1364933745e-02
-1.5061374439e+01	-7.7781745930e-01	-1.0707015866e-02
-1.5697770542e+01	-1.4142135623e-01	-4.0639933636e-02
-9.1923881554e+00	-6.3639610307e+00	 4.7313458865e-01
-9.8287842585e+00	-5.7275649276e+00	 3.8301794192e-01
-1.0465180362e+01	-5.0911688246e+00	 3.0520423736e-01
-1.1101576465e+01	-4.4547727215e+00	 2.3827540443e-01
-1.1737972568e+01	-3.8183766184e+00	 1.8081352100e-01
-1.2374368671e+01	-3.1819805153e+00	 1.2720221388e-01
-1.3010764774e+01	-2.5455844123e+00	 7.7760340060e-02
-1.3647160877e+01	-1.9091883092e+00	 3.9608613204e-02
-1.4283556980e+01	-1.2727922061e+00	 1.2966925800e-02
-1.4919953083e+01	-6.3639610307e-01	-1.3043291716e-02
-1.5556349186e+01	 5.5511151231e-17	-4.5412334091e-02
-9.0509667992e+00	-6.2225396745e+00	 4.4227202333e-01
-9.6873629022e+00	-5.5861435714e+00	 3.5887387873e-01
-1.0323759005e+01	-4.9497474683e+00	 2.8665336386e-01
-1.0960155108e+01	-4.3133513652e+00	 2.2419242355e-01
-1.1596551211e+01	-3.6769552622e+00	 1.7007315101e-01
-1.2232947315e+01	-3.0405591591e+00	 1.1651903179e-01
-1.2869343418e+01	-2.4041630560e+00	 6.8774595398e-02
-1.3505739521e+01	-1.7677669530e+00	 3.1277660667e-02
-1.4142135624e+01	-1.1313708499e+00	 4.2481239811e-03
-1.4778531727e+01	-4.9497474684e-01	-1.5749850850e-02
-1.5414927830e+01	 1.4142135623e-01	-5.0176989611e-02
-8.9095454429e+00	-6.0811183182e+00	 4.0801515658e-01
-9.5459415460e+00	-5.4447222152e+00	 3.3172806589e-01
-1.0182337649e+01	-4.8083261121e+00	 2.6549329150e-01
-1.0818733752e+01	-4.1719300090e+00	 2.0789279358e-01
-1.1455129855e+01	-3.5355339059e+00	 1.5750868071e-01
-1.2091525958e+01	-2.8991378029e+00	 1.0443673294e-01
-1.2727922061e+01	-2.2627416998e+00	 5.8755324498e-02
-1.3364318164e+01	-1.6263455967e+00	 2.2278771764e-02
-1.4000714268e+01	-9.8994949367e-01	-4.7730249967e-03
-1.4637110371e+01	-3.5355339061e-01	-2.2180160180e-02
-1.5273506474e+01	 2.8284271246e-01	-5.4934709569e-02
-8.7681240867e+00	-5.9396969620e+00	 3.7746314831e-01
-9.4045201898e+00	-5.3033008589e+00	 3.0161119293e-01
-1.0040916293e+01	-4.6669047558e+00	 2.4175470905e-01
-1.0677312396e+01	-4.0305086528e+00	 1.8940720256e-01
-1.1313708499e+01	-3.3941125497e+00	 1.4216886521e-01
-1.1950104602e+01	-2.7577164466e+00	 9.0973764786e-02
-1.2586500705e+01	-2.1213203436e+00	 4.7720974642e-02
-1.3222896808e+01	-1.4849242405e+00	 1.2630393586e-02
-1.3859292911e+01	-8.4852813744e-01	-1.4078074233e-02
-1.4495689014e+01	-2.1213203438e-01	-3.2184519325e-02
-1.5132085117e+01	 4.2426406869e-01	-5.9686303339e-02
-8.6267027304e+00	-5.7982756057e+00	 3.5446045755e-01
-9.2630988335e+00	-5.1618795027e+00	 2.6855394934e-01
-9.8994949366e+00	-4.5254833996e+00	 2.1546830523e-01
-1.0535891040e+01	-3.8890872965e+00	 1.6876633842e-01
-1.1172287143e+01	-3.2526911935e+00	 1.2350681580e-01
-1.1808683246e+01	-2.6162950904e+00	 7.6148574993e-02
-1.2445079349e+01	-1.9798989873e+00	 3.5689993299e-02
-1.3081475452e+01	-1.3435028843e+00	 2.3509734082e-03
-1.3717871555e+01	-7.0710678122e-01	-2.3648576644e-02
-1.4354267658e+01	-7.0710678148e-02	-4.2088743483e-02
-1.4990663761e+01	 5.6568542492e-01	-6.4432580299e-02
-8.4852813742e+00	-5.6568542495e+00	 3.2811004837e-01
-9.1216774773e+00	-5.0204581464e+00	 2.3258702450e-01
-9.7580735804e+00	-4.3840620434e+00	 1.8666476868e-01
-1.0394469683e+01	-3.7476659403e+00	 1.4600088907e-01
-1.1030865787e+01	-3.1112698373e+00	 1.0313540197e-01
-1.1667261890e+01	-2.4748737342e+00	 5.9979611404e-02
-1.2303657993e+01	-1.8384776311e+00	 2.2680828119e-02
-1.2940054096e+01	-1.2020815281e+00	-8.5410413098e-03
-1.3576450199e+01	-5.6568542499e-01	-3.3466084962e-02
-1.4212846302e+01	 7.0710678080e-02	-5.1874385579e-02
-1.4849242405e+01	 7.0710678115e-01	-6.9174349833e-02
-1.6263455967e+01	-7.0710678115e-01	-2.1456695184e-02
-1.6899852070e+01	-7.0710678080e-02	-1.5836616327e-02
-1.7536248173e+01	 5.6568542499e-01	-1.2007503531e-02
-1.8172644276e+01	 1.2020815281e+00	-1.0505074112e-02
-1.8809040380e+01	 1.8384776311e+00	-1.1865069337e-02
-1.9445436483e+01	 2.4748737342e+00	-1.6623254435e-02
-2.0081832586e+01	 3.1112698373e+00	-2.5315418592e-02
-2.0718228689e+01	 3.7476659403e+00	-3.6033683660e-02
-2.1354624792e+01	 4.3840620434e+00	-3.9344234235e-02
-2.1991020895e+01	 5.0204581464e+00	-4.3941221628e-02
-2.2627416998e+01	 5.6568542495e+00	-5.0150644120e-02
-1.6122034611e+01	-5.6568542492e-01	-2.6268169012e-02
-1.6758430714e+01	 7.0710678148e-02	-2.0864143319e-02
-1.7394826817e+01	 7.0710678122e-01	-1.7038398404e-02
-1.8031222920e+01	 1.3435028843e+00	-1.5326650336e-02
-1.8667619023e+01	 1.9798989873e+00	-1.6264639138e-02
-1.9304015126e+01	 2.6162950904e+00	-2.0388128791e-02
-1.9940411229e+01	 3.2526911935e+00	-2.8232907236e-02
-2.0576807333e+01	 3.8890872965e+00	-4.0335465324e-02
-2.1213203436e+01	 4.5254833996e+00	-4.2392911363e-02
-2.1849599539e+01	 5.1618795027e+00	-4.5324078196e-02
-2.2485995642e+01	 5.7982756057e+00	-4.9675728017e-02
-1.5980613255e+01	-4.2426406869e-01	-3.1068660459e-02
-1.6617009358e+01	 2.1213203438e-01	-2.5909920325e-02
-1.7253405461e+01	 8.4852813744e-01	-2.2116775476e-02
-1.7889801564e+01	 1.4849242405e+00	-2.0224940736e-02
-1.8526197667e+01	 2.1213203436e+00	-2.0770154880e-02
-1.9162593770e+01	 2.7577164466e+00	-2.4288180646e-02
-1.9798989873e+01	 3.3941125497e+00	-3.1314804726e-02
-2.0435385976e+01	 4.0305086528e+00	-4.2198771340e-02
-2.1071782079e+01	 4.6669047558e+00	-4.5644485762e-02
-2.1708178182e+01	 5.3033008589e+00	-4.6942512598e-02
-2.2344574286e+01	 5.9396969620e+00	-4.9469070232e-02
-1.5839191899e+01	-2.8284271246e-01	-3.5858978880e-02
-1.6475588002e+01	 3.5355339061e-01	-3.0974756763e-02
-1.7111984105e+01	 9.8994949367e-01	-2.7243444228e-02
-1.7748380208e+01	 1.6263455967e+00	-2.5200754852e-02
-1.8384776311e+01	 2.2627416998e+00	-2.5382426167e-02
-1.9021172414e+01	 2.8991378029e+00	-2.8324219662e-02
-1.9657568517e+01	 3.5355339059e+00	-3.4549605442e-02
-2.0293964620e+01	 4.1719300090e+00	-4.4164287945e-02
-2.0930360723e+01	 4.8083261121e+00	-4.9096693346e-02
-2.1566756826e+01	 5.4447222152e+00	-4.8794260670e-02
-2.2203152929e+01	 6.0811183182e+00	-4.9528406522e-02
-1.5697770542e+01	-1.4142135623e-01	-4.0639933636e-02
-1.6334166645e+01	 4.9497474684e-01	-3.6059462054e-02
-1.6970562748e+01	 1.1313708499e+00	-3.2419214142e-02
-1.7606958852e+01	 1.7677669530e+00	-3.0254902229e-02
-1.8243354955e+01	 2.4041630560e+00	-3.0102262604e-02
-1.8879751058e+01	 3.0405591591e+00	-3.2497055509e-02
-1.9516147161e+01	 3.6769552622e+00	-3.7848643993e-02
-2.0152543264e+01	 4.3133513652e+00	-4.6232280437e-02
-2.0788939367e+01	 4.9497474683e+00	-5.2747270004e-02
-2.1425335470e+01	 5.5861435714e+00	-5.0877058222e-02
-2.2061731573e+01	 6.2225396745e+00	-4.9851472620e-02
-1.5556349186e+01	 5.5511151231e-17	-4.5412334091e-02
-1.6192745289e+01	 6.3639610307e-01	-4.1164845624e-02
-1.6829141392e+01	 1.2727922061e+00	-3.7644894704e-02
-1.7465537495e+01	 1.9091883092e+00	-3.5388192416e-02
-1.8101933598e+01	 2.5455844123e+00	-3.4930473801e-02
-1.8738329701e+01	 3.1819805153e+00	-3.6807497856e-02
-1.9374725805e+01	 3.8183766184e+00	-4.1197600818e-02
-2.0011121908e+01	 4.4547727215e+00	-4.8403014071e-02
-2.0647518011e+01	 5.0911688246e+00	-5.6593951603e-02
-2.1283914114e+01	 5.7275649276e+00	-5.3188641045e-02
-2.1920310217e+01	 6.3639610307e+00	-5.0436004238e-02
-1.5414927830e+01	 1.4142135623e-01	-5.0176989611e-02
-1.6051323933e+01	 7.7781745930e-01	-4.6291716902e-02
-1.6687720036e+01	 1.4142135624e+00	-4.2921295406e-02
-1.7324116139e+01	 2.0506096654e+00	-4.0601434965e-02
-1.7960512242e+01	 2.6870057685e+00	-3.9867869372e-02
-1.8596908345e+01	 3.3234018716e+00	-4.1256356380e-02
-1.9233304448e+01	 3.9597979746e+00	-4.4596741074e-02
-1.9869700551e+01	 4.5961940777e+00	-5.0676754049e-02
-2.0506096654e+01	 5.2325901808e+00	-5.8834261350e-02
-2.1142492757e+01	 5.8689862839e+00	-5.5726744902e-02
-2.1778888861e+01	 6.5053823869e+00	-5.1279737061e-02
-1.5273506474e+01	 2.8284271246e-01	-5.4934709569e-02
-1.5909902577e+01	 9.1923881553e-01	-5.1440885319e-02
-1.6546298680e+01	 1.5556349186e+00	-4.8249225742e-02
-1.7182694783e+01	 2.1920310217e+00	-4.5895439430e-02
-1.7819090886e+01	 2.8284271247e+00	-4.4915258934e-02
-1.8455486989e+01	 3.4648232278e+00	-4.5804937645e-02
-1.9091883092e+01	 4.1012193309e+00	-4.8046329869e-02
-1.9728279195e+01	 4.7376154340e+00	-5.3053765527e-02
-2.0364675298e+01	 5.3740115370e+00	-5.9929667623e-02
-2.1001071401e+01	 6.0104076401e+00	-5.8489105538e-02
-2.1637467504e+01	 6.6468037432e+00	-5.2380406756e-02
-1.5132085117e+01	 4.2426406869e-01	-5.9686303339e-02
-1.5768481220e+01	 1.0606601718e+00	-5.6613160314e-02
-1.6404877324e+01	 1.6970562748e+00	-5.3629495209e-02
-1.7041273427e+01	 2.3334523779e+00	-5.1271015372e-02
-1.7677669530e+01	 2.9698484810e+00	-5.0073452108e-02
-1.8314065633e+01	 3.6062445840e+00	-5.0115968413e-02
-1.8950461736e+01	 4.2426406871e+00	-5.1546632265e-02
-1.9586857839e+01	 4.8790367902e+00	-5.5534313614e-02
-2.0223253942e+01	 5.5154328933e+00	-6.1181434508e-02
-2.0859650045e+01	 6.1518289963e+00	-6.1473458673e-02
-2.1496046148e+01	 6.7882250994e+00	-5.3735748963e-02
-1.4990663761e+01	 5.6568542492e-01	-6.4432580299e-02
-1.5627059864e+01	 1.2020815280e+00	-6.1809351325e-02
-1.6263455967e+01	 1.8384776311e+00	-5.9062913309e-02
-1.6899852070e+01	 2.4748737341e+00	-5.6728972354e-02
-1.7536248173e+01	 3.1112698372e+00	-5.5343258518e-02
-1.8172644277e+01	 3.7476659403e+00	-5.4425155734e-02
-1.8809040380e+01	 4.3840620434e+00	-5.5097913272e-02
-1.9445436483e+01	 5.0204581464e+00	-5.8118663368e-02
-2.0081832586e+01	 5.6568542495e+00	-6.2589827112e-02
-2.0718228689e+01	 6.2932503526e+00	-6.4677540002e-02
-2.1354624792e+01	 6.9296464557e+00	-5.5343499301e-02
-1.4849242405e+01	 7.0710678115e-01	-6.9174349833e-02
-1.5485638508e+01	 1.3435028842e+00	-6.7030267797e-02
-1.6122034611e+01	 1.9798989873e+00	-6.4550289548e-02
-1.6758430714e+01	 2.6162950904e+00	-6.2270119943e-02
-1.7394826817e+01	 3.2526911934e+00	-6.0725487794e-02
-1.8031222920e+01	 3.8890872965e+00	-5.8732764524e-02
-1.8667619023e+01	 4.5254833996e+00	-5.8700437856e-02
-1.9304015126e+01	 5.1618795027e+00	-6.0807079800e-02
-1.9940411229e+01	 5.7982756057e+00	-6.4155110492e-02
-2.0576807333e+01	 6.4346717088e+00	-6.7846848837e-02
-2.1213203436e+01	 7.0710678119e+00	-5.7201393366e-02
-1.5556349186e+01	-1.2727922061e+01	 2.2706044784e-02
-1.6192745289e+01	-1.2091525958e+01	 4.1104856480e-02
-1.6829141392e+01	-1.1455129855e+01	 5.8252332542e-02
-1.7465537495e+01	-1.0818733752e+01	 7.3572409313e-02
-1.8101933598e+01	-1.0182337649e+01	 8.7251633449e-02
-1.8738329701e+01	-9.5459415460e+00	 9.8524698170e-02
-1.9374725804e+01	-8.9095454429e+00	 1.0443890770e-01
-2.0011121908e+01	-8.2731493399e+00	 1.0554032386e-01
-2.0647518011e+01	-7.6367532368e+00	 1.0240968848e-01
-2.1283914114e+01	-7.0003571337e+00	 9.6820082252e-02
-2.1920310217e+01	-6.3639610306e+00	 8.9607764026e-02
-1.5273506474e+01	-1.2445079349e+01	 3.5623029653e-02
-1.5909902577e+01	-1.1808683246e+01	 5.2383383606e-02
-1.6546298680e+01	-1.1172287143e+01	 6.8052892366e-02
-1.7182694783e+01	-1.0535891040e+01	 8.2055489543e-02
-1.7819090886e+01	-9.8994949366e+00	 9.5136029324e-02
-1.8455486989e+01	-9.2630988335e+00	 1.0383768047e-01
-1.9091883092e+01	-8.6267027305e+00	 1.0764790593e-01
-1.9728279195e+01	-7.9903066274e+00	 1.0711276052e-01
-2.0364675298e+01	-7.3539105243e+00	 1.0277830626e-01
-2.1001071401e+01	-6.7175144212e+00	 9.6296235578e-02
-2.1637467504e+01	-6.0811183182e+00	 8.8896140428e-02
-1.4990663761e+01	-1.2162236636e+01	 4.9766116134e-02
-1.5627059864e+01	-1.1525840533e+01	 6.4970823543e-02
-1.6263455967e+01	-1.0889444430e+01	 7.9245179510e-02
-1.6899852070e+01	-1.0253048327e+01	 9.2329189702e-02
-1.7536248173e+01	-9.6166522241e+00	 1.0343842591e-01
-1.8172644276e+01	-8.9802561211e+00	 1.0957762211e-01
-1.8809040380e+01	-8.3438600180e+00	 1.1129281890e-01
-1.9445436483e+01	-7.7074639149e+00	 1.0913006406e-01
-2.0081832586e+01	-7.0710678118e+00	 1.0363541262e-01
-2.0718228689e+01	-6.4346717088e+00	 9.5795446462e-02
-2.1354624792e+01	-5.7982756057e+00	 8.8229835317e-02
-1.4707821049e+01	-1.1879393924e+01	 6.5244631044e-02
-1.5344217152e+01	-1.1242997821e+01	 7.8976503649e-02
-1.5980613255e+01	-1.0606601718e+01	 9.1938521873e-02
-1.6617009358e+01	-9.9702056147e+00	 1.0399798590e-01
-1.7253405461e+01	-9.3338095117e+00	 1.1208629711e-01
-1.7889801564e+01	-8.6974134086e+00	 1.1567199838e-01
-1.8526197667e+01	-8.0610173055e+00	 1.1530112327e-01
-1.9162593770e+01	-7.4246212024e+00	 1.1151971255e-01
-1.9798989873e+01	-6.7882250994e+00	 1.0487381423e-01
-2.0435385976e+01	-6.1518289963e+00	 9.5909483510e-02
-2.1071782079e+01	-5.5154328932e+00	 8.7585651626e-02
-1.4424978336e+01	-1.1596551211e+01	 7.7039733426e-02
-1.5061374439e+01	-1.0960155108e+01	 9.4509748843e-02
-1.5697770542e+01	-1.0323759005e+01	 1.0627321623e-01
-1.6334166645e+01	-9.6873629023e+00	 1.1593076955e-01
-1.6970562748e+01	-9.0509667992e+00	 1.2100712040e-01
-1.7606958852e+01	-8.4145706961e+00	 1.2204828812e-01
-1.8243354955e+01	-7.7781745930e+00	 1.1960029927e-01
-1.8879751058e+01	-7.1417784900e+00	 1.1420918761e-01
-1.9516147161e+01	-6.5053823869e+00	 1.0642099411e-01
-2.0152543264e+01	-5.8689862838e+00	 9.6781766957e-02
-2.0788939367e+01	-5.2325901808e+00	 8.6940392795e-02
-1.4142135624e+01	-1.1313708499e+01	 8.7393780343e-02
-1.4778531727e+01	-1.0677312396e+01	 1.1167988160e-01
-1.5414927830e+01	-1.0040916293e+01	 1.2186789192e-01
-1.6051323933e+01	-9.4045201898e+00	 1.2805502028e-01
-1.6687720036e+01	-8.7681240867e+00	 1.3012837678e-01
-1.7324116139e+01	-8.1317279836e+00	 1.2863397374e-01
-1.7960512242e+01	-7.4953318806e+00	 1.2411783070e-01
-1.8596908345e+01	-6.8589357775e+00	 1.1712597440e-01
-1.9233304448e+01	-6.2225396744e+00	 1.0820443880e-01
-1.9869700551e+01	-5.5861435714e+00	 9.7899265059e-02
-2.0506096654e+01	-4.9497474683e+00	 8.6756501573e-02
-1.3859292911e+01	-1.1030865787e+01	 9.6191464462e-02
-1.4495689014e+01	-1.0394469683e+01	 1.2274111077e-01
-1.5132085117e+01	-9.7580735804e+00	 1.3757254723e-01
-1.5768481220e+01	-9.1216774773e+00	 1.4029822126e-01
-1.6404877324e+01	-8.4852813742e+00	 1.3937755081e-01
-1.7041273427e+01	-7.8488852712e+00	 1.3535654117e-01
-1.7677669530e+01	-7.2124891681e+00	 1.2878120487e-01
-1.8314065633e+01	-6.5760930650e+00	 1.2019756163e-01
-1.8950461736e+01	-5.9396969620e+00	 1.1015163839e-01
-1.9586857839e+01	-5.3033008589e+00	 9.9189469299e-02
-2.0223253942e+01	-4.6669047558e+00	 8.7857095730e-02
-1.3576450199e+01	-1.0748023074e+01	 1.0329168883e-01
-1.4212846302e+01	-1.0111626971e+01	 1.2891326214e-01
-1.4849242405e+01	-9.4752308679e+00	 1.5331466750e-01
-1.5485638508e+01	-8.8388347648e+00	 1.5258785923e-01
-1.6122034611e+01	-8.2024386617e+00	 1.4868213060e-01
-1.6758430714e+01	-7.5660425587e+00	 1.4214347991e-01
-1.7394826817e+01	-6.9296464556e+00	 1.3351791267e-01
-1.8031222920e+01	-6.2932503525e+00	 1.2335144157e-01
-1.8667619023e+01	-5.6568542495e+00	 1.1219008654e-01
-1.9304015126e+01	-5.0204581464e+00	 1.0057987471e-01
-1.9940411229e+01	-4.3840620433e+00	 8.9066840441e-02
-1.3293607486e+01	-1.0465180362e+01	 1.0855335334e-01
-1.3930003589e+01	-9.8287842585e+00	 1.3185915507e-01
-1.4566399692e+01	-9.1923881554e+00	 1.6121582066e-01
-1.5202795796e+01	-8.5559920523e+00	 1.6485142444e-01
-1.5839191899e+01	-7.9195959493e+00	 1.5796960781e-01
-1.6475588002e+01	-7.2831998462e+00	 1.4892228300e-01
-1.7111984105e+01	-6.6468037431e+00	 1.3825544851e-01
-1.7748380208e+01	-6.0104076401e+00	 1.2651511002e-01
-1.8384776311e+01	-5.3740115370e+00	 1.1424728044e-01
-1.9021172414e+01	-4.7376154339e+00	 1.0199797988e-01
-1.9657568517e+01	-4.1012193309e+00	 9.0313235672e-02
-1.3010764774e+01	-1.0182337649e+01	 1.1108539414e-01
-1.3647160877e+01	-9.5459415460e+00	 1.3188203655e-01
-1.4283556980e+01	-8.9095454429e+00	 1.5902795092e-01
-1.4919953083e+01	-8.2731493399e+00	 1.7701641072e-01
-1.5556349186e+01	-7.6367532368e+00	 1.6716747764e-01
-1.6192745289e+01	-7.0003571337e+00	 1.5562044704e-01
-1.6829141392e+01	-6.3639610307e+00	 1.4292131039e-01
-1.7465537495e+01	-5.7275649276e+00	 1.2961606636e-01
-1.8101933598e+01	-5.0911688245e+00	 1.1625072084e-01
-1.8738329701e+01	-4.4547727215e+00	 1.0337128692e-01
-1.9374725804e+01	-3.8183766184e+00	 9.1523784938e-02
-1.2727922061e+01	-9.8994949366e+00	 1.1043390991e-01
-1.3364318164e+01	-9.2630988335e+00	 1.2922743807e-01
-1.4000714267e+01	-8.6267027305e+00	 1.5430092477e-01
-1.4637110371e+01	-7.9903066274e+00	 1.8423591574e-01
-1.5273506474e+01	-7.3539105243e+00	 1.7620323885e-01
-1.5909902577e+01	-6.7175144213e+00	 1.6216547216e-01
-1.6546298680e+01	-6.0811183182e+00	 1.4744299981e-01
-1.7182694783e+01	-5.4447222151e+00	 1.3258181348e-01
-1.7819090886e+01	-4.8083261121e+00	 1.1812791202e-01
-1.8455486989e+01	-4.1719300090e+00	 1.0462730153e-01
-1.9091883092e+01	-3.5355339059e+00	 9.2625995301e-02
-2.1920310217e+01	-6.3639610306e+00	 8.9607764026e-02
-2.2556706320e+01	-5.7275649276e+00	 8.1148349153e-02
-2.3193102423e+01	-5.0911688245e+00	 7.1817433522e-02
-2.3829498526e+01	-4.4547727214e+00	 6.1958745951e-02
-2.4465894629e+01	-3.8183766184e+00	 5.1915995793e-02
-2.5102290732e+01	-3.1819805153e+00	 4.2754653738e-02
-2.5738686835e+01	-2.5455844122e+00	 3.5622168301e-02
-2.6375082938e+01	-1.9091883092e+00	 2.9688549676e-02
-2.7011479041e+01	-1.2727922061e+00	 2.4458687044e-02
-2.7647875144e+01	-6.3639610306e-01	 1.9493112320e-02
-2.8284271248e+01	 0.0000000000e+00	 1.4841194254e-02
-2.1637467504e+01	-6.0811183182e+00	 8.8896140428e-02
-2.2273863607e+01	-5.4447222151e+00	 7.9922405904e-02
-2.2910259710e+01	-4.8083261120e+00	 7.0121218335e-02
-2.3546655813e+01	-4.1719300090e+00	 5.9836302920e-02
-2.4183051917e+01	-3.5355339059e+00	 4.9411365396e-02
-2.4819448020e+01	-2.8991378028e+00	 4.0814914202e-02
-2.5455844123e+01	-2.2627416998e+00	 3.3760486113e-02
-2.6092240226e+01	-1.6263455967e+00	 2.7932368198e-02
-2.6728636329e+01	-9.8994949365e-01	 2.2996558425e-02
-2.7365032432e+01	-3.5355339058e-01	 1.8272126841e-02
-2.8001428535e+01	 2.8284271248e-01	 1.3869691304e-02
-2.1354624792e+01	-5.7982756057e+00	 8.8229835317e-02
-2.1991020895e+01	-5.1618795026e+00	 7.8679702257e-02
-2.2627416998e+01	-4.5254833996e+00	 6.8346164071e-02
-2.3263813101e+01	-3.8890872965e+00	 5.7572942342e-02
-2.3900209204e+01	-3.2526911934e+00	 4.7154586531e-02
-2.4536605307e+01	-2.6162950904e+00	 3.8760246707e-02
-2.5173001410e+01	-1.9798989873e+00	 3.1753208256e-02
-2.5809397513e+01	-1.3435028842e+00	 2.5999923339e-02
-2.6445793616e+01	-7.0710678118e-01	 2.1366844120e-02
-2.7082189719e+01	-7.0710678109e-02	 1.6863776459e-02
-2.7718585823e+01	 5.6568542496e-01	 1.2668511713e-02
-2.1071782079e+01	-5.5154328932e+00	 8.7585651626e-02
-2.1708178182e+01	-4.8790367902e+00	 7.7397041854e-02
-2.2344574285e+01	-4.2426406871e+00	 6.6469075088e-02
-2.2980970389e+01	-3.6062445840e+00	 5.5145469290e-02
-2.3617366492e+01	-2.9698484810e+00	 4.4982335641e-02
-2.4253762595e+01	-2.3334523779e+00	 3.6577274382e-02
-2.4890158698e+01	-1.6970562748e+00	 2.9586957857e-02
-2.5526554801e+01	-1.0606601718e+00	 2.3877838228e-02
-2.6162950904e+01	-4.2426406870e-01	 1.9316367658e-02
-2.6799347007e+01	 2.1213203437e-01	 1.5266005602e-02
-2.7435743110e+01	 8.4852813744e-01	 1.1235599890e-02
-2.0788939367e+01	-5.2325901808e+00	 8.6940392795e-02
-2.1425335470e+01	-4.5961940777e+00	 7.6051228853e-02
-2.2061731573e+01	-3.9597979746e+00	 6.4466756255e-02
-2.2698127676e+01	-3.3234018716e+00	 5.2721257098e-02
-2.3334523779e+01	-2.6870057685e+00	 4.2699070760e-02
-2.3970919882e+01	-2.0506096654e+00	 3.4252620355e-02
-2.4607315985e+01	-1.4142135624e+00	 2.7248358045e-02
-2.5243712088e+01	-7.7781745930e-01	 2.1552735993e-02
-2.5880108191e+01	-1.4142135623e-01	 1.7032206360e-02
-2.6516504295e+01	 4.9497474684e-01	 1.3476758637e-02
-2.7152900398e+01	 1.1313708499e+00	 9.5689001881e-03
-2.0506096654e+01	-4.9497474683e+00	 8.6756501573e-02
-2.1142492757e+01	-4.3133513652e+00	 7.4619067918e-02
-2.1778888861e+01	-3.6769552622e+00	 6.2316012952e-02
-2.2415284964e+01	-3.0405591591e+00	 5.0413101572e-02
-2.3051681067e+01	-2.4041630560e+00	 4.0291415015e-02
-2.3688077170e+01	-1.7677669530e+00	 3.1772907753e-02
-2.4324473273e+01	-1.1313708499e+00	 2.4724031947e-02
-2.4960869376e+01	-4.9497474683e-01	 1.9011239761e-02
-2.5597265479e+01	 1.4142135624e-01	 1.4500983355e-02
-2.6233661582e+01	 7.7781745932e-01	 1.1059714891e-02
-2.6870057685e+01	 1.4142135624e+00	 7.6663569025e-03
-2.0223253942e+01	-4.6669047558e+00	 8.7857095730e-02
-2.0859650045e+01	-4.0305086528e+00	 7.3077364226e-02
-2.1496046148e+01	-3.3941125497e+00	 6.0013871001e-02
-2.2132442251e+01	-2.7577164466e+00	 4.7997846021e-02
-2.2768838354e+01	-2.1213203436e+00	 3.7745991535e-02
-2.3405234457e+01	-1.4849242405e+00	 2.9124759705e-02
-2.4041630560e+01	-8.4852813742e-01	 2.2000602692e-02
-2.4678026663e+01	-2.1213203435e-01	 1.6239972660e-02
-2.5314422766e+01	 4.2426406872e-01	 1.1709321770e-02
-2.5950818870e+01	 1.0606601718e+00	 8.2751021834e-03
-2.6587214973e+01	 1.6970562749e+00	 5.5259142702e-03
-1.9940411229e+01	-4.3840620433e+00	 8.9066840441e-02
-2.0576807333e+01	-3.7476659403e+00	 7.1482699648e-02
-2.1213203436e+01	-3.1112698372e+00	 5.7666417556e-02
-2.1849599539e+01	-2.4748737342e+00	 4.5462113574e-02
-2.2485995642e+01	-1.8384776311e+00	 3.5049423447e-02
-2.3122391745e+01	-1.2020815280e+00	 2.6294799338e-02
-2.3758787848e+01	-5.6568542495e-01	 1.9064693407e-02
-2.4395183951e+01	 7.0710678120e-02	 1.3225557818e-02
-2.5031580054e+01	 7.0710678119e-01	 8.6438447328e-03
-2.5667976157e+01	 1.3435028843e+00	 5.1860063125e-03
-2.6304372260e+01	 1.9798989873e+00	 2.7184947195e-03
-1.9657568517e+01	-4.1012193309e+00	 9.0313235672e-02
-2.0293964620e+01	-3.4648232278e+00	 7.1723657593e-02
-2.0930360723e+01	-2.8284271247e+00	 5.5215778053e-02
-2.1566756826e+01	-2.1920310217e+00	 4.2792527358e-02
-2.2203152929e+01	-1.5556349186e+00	 3.2188333880e-02
-2.2839549032e+01	-9.1923881554e-01	 2.3269649780e-02
-2.3475945135e+01	-2.8284271248e-01	 1.5902927221e-02
-2.4112341238e+01	 3.5355339059e-01	 9.9546183639e-03
-2.4748737342e+01	 9.8994949366e-01	 5.2911753719e-03
-2.5385133445e+01	 1.6263455967e+00	 1.7790504064e-03
-2.6021529548e+01	 2.2627416998e+00	-7.1530437031e-04
-1.9374725804e+01	-3.8183766184e+00	 9.1523784938e-02
-2.0011121908e+01	-3.1819805153e+00	 7.1609296056e-02
-2.0647518011e+01	-2.5455844123e+00	 5.2648575620e-02
-2.1283914114e+01	-1.9091883092e+00	 3.9975710501e-02
-2.1920310217e+01	-1.2727922061e+00	 2.9149345960e-02
-2.2556706320e+01	-6.3639610307e-01	 2.0035934159e-02
-2.3193102423e+01	-1.2569945085e-12	 1.2501927260e-02
-2.3829498526e+01	 6.3639610307e-01	 6.4137774243e-03
-2.4465894629e+01	 1.2727922061e+00	 1.6379368148e-03
-2.5102290732e+01	 1.9091883092e+00	-1.9591424068e-03
-2.5738686835e+01	 2.5455844123e+00	-4.5110080784e-03
-1.9091883092e+01	-3.5355339059e+00	 9.2625995301e-02
-1.9728279195e+01	-2.8991378029e+00	 7.1469209340e-02
-2.0364675298e+01	-2.2627416998e+00	 5.1780816770e-02
-2.1001071401e+01	-1.6263455967e+00	 3.6998286132e-02
-2.1637467504e+01	-9.8994949366e-01	 2.5919082817e-02
-2.2273863607e+01	-3.5355339059e-01	 1.6580275603e-02
-2.2910259710e+01	 2.8284271247e-01	 8.8483166528e-03
-2.3546655813e+01	 9.1923881554e-01	 2.5896581275e-03
-2.4183051917e+01	 1.5556349186e+00	-2.3292478106e-03
-2.4819448020e+01	 2.1920310217e+00	-6.0419489994e-03
-2.5455844123e+01	 2.8284271248e+00	-8.6819932769e-03
-1.2727922061e+01	-9.8994949366e+00	 1.1043390991e-01
-1.3364318164e+01	-9.2630988335e+00	 1.2922743807e-01
-1.4000714267e+01	-8.6267027305e+00	 1.5430092477e-01
-1.4637110371e+01	-7.9903066274e+00	 1.8423591574e-01
-1.5273506474e+01	-7.3539105243e+00	 1.7620323885e-01
-1.5909902577e+01	-6.7175144213e+00	 1.6216547216e-01
-1.6546298680e+01	-6.0811183182e+00	 1.4744299981e-01
-1.7182694783e+01	-5.4447222151e+00	 1.3258181348e-01
-1.7819090886e+01	-4.8083261121e+00	 1.1812791202e-01
-1.8455486989e+01	-4.1719300090e+00	 1.0462730153e-01
-1.9091883092e+01	-3.5355339059e+00	 9.2625995301e-02
-1.2445079349e+01	-9.6166522241e+00	 1.4431225968e-01
-1.3081475452e+01	-8.9802561211e+00	 1.5218361283e-01
-1.3717871555e+01	-8.3438600180e+00	 1.6736057033e-01
-1.4354267658e+01	-7.7074639149e+00	 1.8842470861e-01
-1.4990663761e+01	-7.0710678118e+00	 1.9244474922e-01
-1.5627059864e+01	-6.4346717088e+00	 1.7124768830e-01
-1.6263455967e+01	-5.7982756057e+00	 1.5092828216e-01
-1.6899852070e+01	-5.1618795026e+00	 1.3203251544e-01
-1.7536248173e+01	-4.5254833996e+00	 1.1510638000e-01
-1.8172644276e+01	-3.8890872965e+00	 1.0069587490e-01
-1.8809040380e+01	-3.2526911934e+00	 8.8813977720e-02
-1.2162236636e+01	-9.3338095116e+00	 1.8022906999e-01
-1.2798632739e+01	-8.6974134086e+00	 1.7673069724e-01
-1.3435028843e+01	-8.0610173055e+00	 1.8156357065e-01
-1.4071424946e+01	-7.4246212024e+00	 1.9330929734e-01
-1.4707821049e+01	-6.7882250994e+00	 2.1039888992e-01
-1.5344217152e+01	-6.1518289963e+00	 1.8146564094e-01
-1.5980613255e+01	-5.5154328932e+00	 1.5497240394e-01
-1.6617009358e+01	-4.8790367902e+00	 1.3146515655e-01
-1.7253405461e+01	-4.2426406871e+00	 1.1148988359e-01
-1.7889801564e+01	-3.6062445840e+00	 9.5592577126e-02
-1.8526197667e+01	-2.9698484810e+00	 8.3222337520e-02
-1.1879393924e+01	-9.0509667992e+00	 2.1842987531e-01
-1.2515790027e+01	-8.4145706961e+00	 2.0311421972e-01
-1.3152186130e+01	-7.7781745930e+00	 1.9715544807e-01
-1.3788582233e+01	-7.1417784900e+00	 1.9913519820e-01
-1.4424978336e+01	-6.5053823869e+00	 2.0763525635e-01
-1.5061374439e+01	-5.8689862838e+00	 1.9274684086e-01
-1.5697770542e+01	-5.2325901808e+00	 1.5950287733e-01
-1.6334166645e+01	-4.5961940777e+00	 1.3080725035e-01
-1.6970562748e+01	-3.9597979746e+00	 1.0720593774e-01
-1.7606958852e+01	-3.3234018716e+00	 8.8627693946e-02
-1.8243354955e+01	-2.6870057685e+00	 7.6113364499e-02
-1.1596551211e+01	-8.7681240867e+00	 2.5916020906e-01
-1.2232947315e+01	-8.1317279836e+00	 2.3157970763e-01
-1.2869343418e+01	-7.4953318806e+00	 2.1438172392e-01
-1.3505739521e+01	-6.8589357775e+00	 2.0614792645e-01
-1.4142135624e+01	-6.2225396744e+00	 2.0546013217e-01
-1.4778531727e+01	-5.5861435714e+00	 2.0501880239e-01
-1.5414927830e+01	-4.9497474683e+00	 1.6444721804e-01
-1.6051323933e+01	-4.3133513652e+00	 1.2998631395e-01
-1.6687720036e+01	-3.6769552622e+00	 1.0218206093e-01
-1.7324116139e+01	-3.0405591591e+00	 7.9789337253e-02
-1.7960512242e+01	-2.4041630560e+00	 6.7480584302e-02
-1.1313708499e+01	-8.4852813742e+00	 3.0266560366e-01
-1.1950104602e+01	-7.8488852712e+00	 2.6237268732e-01
-1.2586500705e+01	-7.2124891681e+00	 2.3348791845e-01
-1.3222896808e+01	-6.5760930650e+00	 2.1459299629e-01
-1.3859292911e+01	-5.9396969620e+00	 2.0426976847e-01
-1.4495689014e+01	-5.3033008589e+00	 2.0110023101e-01
-1.5132085117e+01	-4.6669047558e+00	 1.6973294534e-01
-1.5768481220e+01	-4.0305086527e+00	 1.2892986800e-01
-1.6404877324e+01	-3.3941125497e+00	 9.5935806875e-02
-1.7041273427e+01	-2.7577164466e+00	 6.9926412714e-02
-1.7677669530e+01	-2.1213203435e+00	 5.7317522514e-02
-1.1030865787e+01	-8.2024386618e+00	 3.4919159047e-01
-1.1667261890e+01	-7.5660425587e+00	 2.9573868408e-01
-1.2303657993e+01	-6.9296464556e+00	 2.5471955091e-01
-1.2940054096e+01	-6.2932503525e+00	 2.2471592089e-01
-1.3576450199e+01	-5.6568542495e+00	 2.0430967236e-01
-1.4212846302e+01	-5.0204581464e+00	 1.9208283202e-01
-1.4849242405e+01	-4.3840620433e+00	 1.7528758203e-01
-1.5485638508e+01	-3.7476659403e+00	 1.2756543669e-01
-1.6122034611e+01	-3.1112698372e+00	 8.7298570527e-02
-1.6758430714e+01	-2.4748737341e+00	 5.9032446347e-02
-1.7394826817e+01	-1.8384776311e+00	 4.5617704657e-02
-1.0748023074e+01	-7.9195959493e+00	 3.9898369982e-01
-1.1384419177e+01	-7.2831998462e+00	 3.3192322218e-01
-1.2020815280e+01	-6.6468037431e+00	 2.7832213949e-01
-1.2657211383e+01	-6.0104076401e+00	 2.3676221239e-01
-1.3293607486e+01	-5.3740115370e+00	 2.0582534991e-01
-1.3930003589e+01	-4.7376154339e+00	 1.8409360943e-01
-1.4566399692e+01	-4.1012193309e+00	 1.7014919672e-01
-1.5202795796e+01	-3.4648232278e+00	 1.2582054776e-01
-1.5839191899e+01	-2.8284271247e+00	 7.8129533876e-02
-1.6475588002e+01	-2.1920310217e+00	 4.7100964108e-02
-1.7111984105e+01	-1.5556349186e+00	 3.2374656198e-02
-1.0465180362e+01	-7.6367532368e+00	 4.5228746101e-01
-1.1101576465e+01	-7.0003571338e+00	 3.7117182486e-01
-1.1737972568e+01	-6.3639610307e+00	 3.0454120138e-01
-1.2374368671e+01	-5.7275649276e+00	 2.5097738190e-01
-1.3010764774e+01	-5.0911688245e+00	 2.0906230615e-01
-1.3647160877e+01	-4.4547727215e+00	 1.7737806222e-01
-1.4283556980e+01	-3.8183766184e+00	 1.5450688657e-01
-1.4919953083e+01	-3.1819805153e+00	 1.2100774724e-01
-1.5556349186e+01	-2.5455844122e+00	 6.8422223313e-02
-1.6192745289e+01	-1.9091883092e+00	 3.4125491892e-02
-1.6829141392e+01	-1.2727922061e+00	 1.7581902539e-02
-1.0182337649e+01	-7.3539105244e+00	 5.0934840230e-01
-1.0818733752e+01	-6.7175144213e+00	 4.1373001431e-01
-1.1455129855e+01	-6.0811183182e+00	 3.3362225270e-01
-1.2091525958e+01	-5.4447222151e+00	 2.6760693949e-01
-1.2727922061e+01	-4.8083261121e+00	 2.1426604511e-01
-1.3364318164e+01	-4.1719300090e+00	 1.7218168834e-01
-1.4000714268e+01	-3.5355339059e+00	 1.3993613634e-01
-1.4637110371e+01	-2.8991378028e+00	 1.1116269054e-01
-1.5273506474e+01	-2.2627416998e+00	 5.8170165164e-02
-1.5909902577e+01	-1.6263455967e+00	 2.0099555537e-02
-1.6546298680e+01	-9.8994949363e-01	 1.2329690253e-03
-9.8994949366e+00	-7.0710678119e+00	 5.7041205092e-01
-1.0535891040e+01	-6.4346717088e+00	 4.5984331170e-01
-1.1172287143e+01	-5.7982756057e+00	 3.6581080855e-01
-1.1808683246e+01	-5.1618795027e+00	 2.8689639419e-01
-1.2445079349e+01	-4.5254833996e+00	 2.2168206975e-01
-1.3081475452e+01	-3.8890872965e+00	 1.6874998470e-01
-1.3717871555e+01	-3.2526911934e+00	 1.2410774039e-01
-1.4354267658e+01	-2.6162950904e+00	 8.7058503343e-02
-1.4990663761e+01	-1.9798989873e+00	 4.7366885698e-02
-1.5627059864e+01	-1.3435028842e+00	 5.0166808195e-03
-1.6263455967e+01	-7.0710678115e-01	-1.6678619058e-02
-1.9091883092e+01	-3.5355339059e+00	 9.2625995301e-02
-1.9728279195e+01	-2.8991378029e+00	 7.1469209340e-02
-2.0364675298e+01	-2.2627416998e+00	 5.1780816770e-02
-2.1001071401e+01	-1.6263455967e+00	 3.6998286132e-02
-2.1637467504e+01	-9.8994949366e-01	 2.5919082817e-02
-2.2273863607e+01	-3.5355339059e-01	 1.6580275603e-02
-2.2910259710e+01	 2.8284271247e-01	 8.8483166528e-03
-2.3546655813e+01	 9.1923881554e-01	 2.5896581275e-03
-2.4183051917e+01	 1.5556349186e+00	-2.3292478106e-03
-2.4819448020e+01	 2.1920310217e+00	-6.0419489994e-03
-2.5455844123e+01	 2.8284271248e+00	-8.6819932769e-03
-1.8809040380e+01	-3.2526911934e+00	 8.8813977720e-02
-1.9445436483e+01	-2.6162950904e+00	 6.8718548033e-02
-2.0081832586e+01	-1.9798989873e+00	 5.0117579360e-02
-2.0718228689e+01	-1.3435028843e+00	 3.3679738512e-02
-2.1354624792e+01	-7.0710678118e-01	 2.3144464161e-02
-2.1991020895e+01	-7.0710678117e-02	 1.4118541649e-02
-2.2627416998e+01	 5.6568542495e-01	 6.4684231387e-03
-2.3263813101e+01	 1.2020815280e+00	 6.0560792415e-05
-2.3900209204e+01	 1.8384776311e+00	-5.2385932281e-03
-2.4536605307e+01	 2.4748737342e+00	-9.5625867608e-03
-2.5173001410e+01	 3.1112698372e+00	-1.3044967644e-02
-1.8526197667e+01	-2.9698484810e+00	 8.3222337520e-02
-1.9162593770e+01	-2.3334523779e+00	 6.4641723581e-02
-1.9798989873e+01	-1.6970562748e+00	 4.7312875022e-02
-2.0435385976e+01	-1.0606601718e+00	 3.0700054598e-02
-2.1071782079e+01	-4.2426406871e-01	 1.9411871696e-02
-2.1708178182e+01	 2.1213203436e-01	 1.0857046713e-02
-2.2344574285e+01	 8.4852813743e-01	 3.4469814701e-03
-2.2980970389e+01	 1.4849242405e+00	-2.9518718701e-03
-2.3617366492e+01	 2.1213203436e+00	-8.4730611460e-03
-2.4253762595e+01	 2.7577164466e+00	-1.3250134195e-02
-2.4890158698e+01	 3.3941125497e+00	-1.7416638856e-02
-1.8243354955e+01	-2.6870057685e+00	 7.6113364499e-02
-1.8879751058e+01	-2.0506096654e+00	 5.9232261196e-02
-1.9516147161e+01	-1.4142135624e+00	 4.3360228476e-02
-2.0152543264e+01	-7.7781745930e-01	 2.7961531589e-02
-2.0788939367e+01	-1.4142135623e-01	 1.4707928549e-02
-2.1425335470e+01	 4.9497474684e-01	 6.7824139224e-03
-2.2061731573e+01	 1.1313708499e+00	-2.2938522542e-04
-2.2698127676e+01	 1.7677669530e+00	-6.4610167323e-03
-2.3334523779e+01	 2.4041630560e+00	-1.2046028436e-02
-2.3970919882e+01	 3.0405591591e+00	-1.7117968175e-02
-2.4607315985e+01	 3.6769552622e+00	-2.2204676240e-02
-1.7960512242e+01	-2.4041630560e+00	 6.7480584302e-02
-1.8596908345e+01	-1.7677669530e+00	 5.2483686028e-02
-1.9233304448e+01	-1.1313708499e+00	 3.8253164382e-02
-1.9869700551e+01	-4.9497474682e-01	 2.4253287104e-02
-2.0506096654e+01	 1.4142135625e-01	 9.9482979759e-03
-2.1142492757e+01	 7.7781745931e-01	 1.8812664061e-03
-2.1778888861e+01	 1.4142135624e+00	-4.5740538199e-03
-2.2415284964e+01	 2.0506096654e+00	-1.0480250666e-02
-2.3051681067e+01	 2.6870057685e+00	-1.5970871971e-02
-2.3688077170e+01	 3.3234018716e+00	-2.1179465572e-02
-2.4324473273e+01	 3.9597979746e+00	-2.6914940614e-02
-1.7677669530e+01	-2.1213203435e+00	 5.7317522514e-02
-1.8314065633e+01	-1.4849242405e+00	 4.4389523171e-02
-1.8950461736e+01	-8.4852813741e-01	 3.1985207341e-02
-1.9586857839e+01	-2.1213203434e-01	 1.9568845253e-02
-2.0223253942e+01	 4.2426406873e-01	 6.6046831811e-03
-2.0859650045e+01	 1.0606601718e+00	-3.8597727085e-03
-2.1496046148e+01	 1.6970562749e+00	-9.6004011854e-03
-2.2132442251e+01	 2.3334523779e+00	-1.5022950544e-02
-2.2768838354e+01	 2.9698484810e+00	-2.0260968623e-02
-2.3405234457e+01	 3.6062445840e+00	-2.5704047143e-02
-2.4041630560e+01	 4.2426406871e+00	-3.1416063926e-02
-1.7394826817e+01	-1.8384776311e+00	 4.5617704657e-02
-1.8031222920e+01	-1.2020815280e+00	 3.4943297657e-02
-1.8667619023e+01	-5.6568542493e-01	 2.4549881891e-02
-1.9304015126e+01	 7.0710678138e-02	 1.3901730083e-02
-1.9940411229e+01	 7.0710678120e-01	 2.4630909952e-03
-2.0576807333e+01	 1.3435028843e+00	-1.0301810565e-02
-2.1213203436e+01	 1.9798989873e+00	-1.5321804194e-02
-2.1849599539e+01	 2.6162950904e+00	-2.0102493238e-02
-2.2485995642e+01	 3.2526911935e+00	-2.4929695263e-02
-2.3122391745e+01	 3.8890872965e+00	-3.0432159686e-02
-2.3758787848e+01	 4.5254833996e+00	-3.5689934534e-02
-1.7111984105e+01	-1.5556349186e+00	 3.2374656198e-02
-1.7748380208e+01	-9.1923881552e-01	 2.4138534457e-02
-1.8384776311e+01	-2.8284271245e-01	 1.5940712514e-02
-1.9021172414e+01	 3.5355339062e-01	 7.2454655809e-03
-1.9657568517e+01	 9.8994949368e-01	-2.4829550857e-03
-2.0293964620e+01	 1.6263455967e+00	-1.3780322188e-02
-2.0930360723e+01	 2.2627416998e+00	-2.1751639718e-02
-2.1566756826e+01	 2.8991378029e+00	-2.5732255620e-02
-2.2203152929e+01	 3.5355339059e+00	-3.0111938613e-02
-2.2839549032e+01	 4.1719300090e+00	-3.5085803046e-02
-2.3475945135e+01	 4.8083261121e+00	-3.9718440422e-02
-1.6829141392e+01	-1.2727922061e+00	 1.7581902539e-02
-1.7465537495e+01	-6.3639610304e-01	 1.1968758485e-02
-1.8101933598e+01	 2.8723246004e-11	 6.1512236291e-03
-1.8738329701e+01	 6.3639610310e-01	-4.0642432351e-04
-1.9374725805e+01	 1.2727922062e+00	-8.2399316258e-03
-2.0011121908e+01	 1.9091883092e+00	-1.7885068488e-02
-2.0647518011e+01	 2.5455844123e+00	-2.8903284630e-02
-2.1283914114e+01	 3.1819805154e+00	-3.1925614562e-02
-2.1920310217e+01	 3.8183766184e+00	-3.5753190177e-02
-2.2556706320e+01	 4.4547727215e+00	-3.9646865468e-02
-2.3193102423e+01	 5.0911688245e+00	-4.3483469211e-02
-1.6546298680e+01	-9.8994949363e-01	 1.2329690253e-03
-1.7182694783e+01	-3.5355339056e-01	-1.5725054083e-03
-1.7819090886e+01	 2.8284271251e-01	-4.8250604028e-03
-1.8455486989e+01	 9.1923881558e-01	-9.0604157626e-03
-1.9091883092e+01	 1.5556349186e+00	-1.4814315249e-02
-1.9728279195e+01	 2.1920310217e+00	-2.2622526580e-02
-2.0364675298e+01	 2.8284271248e+00	-3.3020841435e-02
-2.1001071401e+01	 3.4648232278e+00	-3.8713143997e-02
-2.1637467504e+01	 4.1012193309e+00	-4.1454645148e-02
-2.2273863607e+01	 4.7376154340e+00	-4.4097234827e-02
-2.2910259710e+01	 5.3740115370e+00	-4.6966908149e-02
-1.6263455967e+01	-7.0710678115e-01	-1.6678619058e-02
-1.6899852070e+01	-7.0710678080e-02	-1.6491732429e-02
-1.7536248173e+01	 5.6568542499e-01	-1.6994615281e-02
-1.8172644276e+01	 1.2020815281e+00	-1.8722984928e-02
-1.8809040380e+01	 1.8384776311e+00	-2.2212582639e-02
-1.9445436483e+01	 2.4748737342e+00	-2.7999173640e-02
-2.0081832586e+01	 3.1112698373e+00	-3.6618547119e-02
-2.0718228689e+01	 3.7476659403e+00	-4.6162824928e-02
-2.1354624792e+01	 4.3840620434e+00	-4.7198191661e-02
-2.1991020895e+01	 5.0204581464e+00	-4.8418798632e-02
-2.2627416998e+01	 5.6568542495e+00	-5.0150644120e-02
-7.0710678119e+00	-7.0710678119e+00	-5.9071788545e-02
-7.0710678119e+00	-7.0710678119e+00	-5.9071788545e-02
-7.0710678119e+00	-7.0710678119e+00	-5.9071788545e-02
-7.0710678119e+00	-7.0710678119e+00	-5.9071788545e-02
-7.0710678119e+00	-7.0710678119e+00	-5.9071788545e-02
-7.0710678119e+00	-7.0710678119e+00	-5.9071788545e-02
-7.0710678119e+00	-7.0710678119e+00	-5.9071788545e-02
-7.0710678119e+00	-7.0710678119e+00	-5.9071788545e-02
-7.0710678119e+00	-7.0710678119e+00	-5.9071788545e-02
-7.0710678119e+00	-7.0710678119e+00	-5.9071788545e-02
-7.0710678119e+00	-7.0710678119e+00	-5.9071788545e-02
-7.0746033458e+00	-7.0746033458e+00	-4.9140891351e-01
-7.0742497924e+00	-7.0749568992e+00	-1.4513933234e+00
-7.0738962390e+00	-7.0753104526e+00	-2.2297487362e+00
-7.0735426856e+00	-7.0756640060e+00	-2.8264751519e+00
-7.0731891322e+00	-7.0760175594e+00	-3.2415725705e+00
-7.0728355789e+00	-7.0763711128e+00	-3.4750409919e+00
-7.0724820255e+00	-7.0767246661e+00	-3.5268804163e+00
-7.0721284721e+00	-7.0770782195e+00	-3.3970908436e+00
-7.0717749187e+00	-7.0774317729e+00	-3.0856722737e+00
-7.0714213653e+00	-7.0777853263e+00	-2.5926247067e+00
-7.0710678119e+00	-7.0781388797e+00	-1.9179481426e+00
-7.0852099475e+00	-7.0852099475e+00	-2.6260808984e-01
-7.0837957340e+00	-7.0866241611e+00	-7.3815298620e-01
-7.0823815204e+00	-7.0880383746e+00	-1.1222198051e+00
-7.0809673068e+00	-7.0894525882e+00	-1.4148085465e+00
-7.0795530933e+00	-7.0908668018e+00	-1.6159192103e+00
-7.0781388797e+00	-7.0922810153e+00	-1.7255517967e+00
-7.0767246661e+00	-7.0936952289e+00	-1.7437063056e+00
-7.0753104526e+00	-7.0951094425e+00	-1.6703827370e+00
-7.0738962390e+00	-7.0965236560e+00	-1.5055810909e+00
-7.0724820255e+00	-7.0979378696e+00	-1.2493013672e+00
-7.0710678119e+00	-7.0993520831e+00	-9.0154356598e-01
-7.1028876171e+00	-7.1028876171e+00	-1.7473562965e-01
-7.0997056365e+00	-7.1060695976e+00	-4.9177837074e-01
-7.0965236560e+00	-7.1092515781e+00	-7.4769263492e-01
-7.0933416755e+00	-7.1124335586e+00	-9.4247842211e-01
-7.0901596950e+00	-7.1156155391e+00	-1.0761357322e+00
-7.0869777145e+00	-7.1187975196e+00	-1.1486645652e+00
-7.0837957340e+00	-7.1219795001e+00	-1.1600649209e+00
-7.0806137534e+00	-7.1251614807e+00	-1.1103367993e+00
-7.0774317729e+00	-7.1283434612e+00	-9.9948020031e-01
-7.0742497924e+00	-7.1315254417e+00	-8.2749512384e-01
-7.0710678119e+00	-7.1347074222e+00	-5.9438156980e-01
-7.1276363544e+00	-7.1276363544e+00	-1.2948298810e-01
-7.1219795001e+00	-7.1332932086e+00	-3.6776967909e-01
-7.1163226459e+00	-7.1389500629e+00	-5.6015874416e-01
-7.1106657916e+00	-7.1446069171e+00	-7.0665018287e-01
-7.1050089374e+00	-7.1502637714e+00	-8.0724399476e-01
-7.0993520831e+00	-7.1559206256e+00	-8.6194017940e-01
-7.0936952289e+00	-7.1615774799e+00	-8.7073873631e-01
-7.0880383746e+00	-7.1672343341e+00	-8.3363966506e-01
-7.0823815204e+00	-7.1728911884e+00	-7.5064296518e-01
-7.0767246661e+00	-7.1785480426e+00	-6.2174863622e-01
-7.0710678119e+00	-7.1842048969e+00	-4.4695667774e-01
-7.1594561595e+00	-7.1594561595e+00	-1.0267347306e-01
-7.1506173248e+00	-7.1682949943e+00	-2.9380749648e-01
-7.1417784900e+00	-7.1771338291e+00	-4.4820023053e-01
-7.1329396553e+00	-7.1859726638e+00	-5.6585167350e-01
-7.1241008205e+00	-7.1948114986e+00	-6.4676182366e-01
-7.1152619857e+00	-7.2036503334e+00	-6.9093067928e-01
-7.1064231510e+00	-7.2124891681e+00	-6.9835823863e-01
-7.0975843162e+00	-7.2213280029e+00	-6.6904450001e-01
-7.0887454814e+00	-7.2301668377e+00	-6.0298946167e-01
-7.0799066467e+00	-7.2390056724e+00	-5.0019312189e-01
-7.0710678119e+00	-7.2478445072e+00	-3.6065547894e-01
-7.1983470325e+00	-7.1983470325e+00	-8.5616221057e-02
-7.1856191105e+00	-7.2110749546e+00	-2.4530503733e-01
-7.1728911884e+00	-7.2238028766e+00	-3.7436405902e-01
-7.1601632663e+00	-7.2365307987e+00	-4.7279328098e-01
-7.1474353443e+00	-7.2492587208e+00	-5.4059269806e-01
-7.1347074222e+00	-7.2619866428e+00	-5.7776230510e-01
-7.1219795001e+00	-7.2747145649e+00	-5.8430209696e-01
-7.1092515781e+00	-7.2874424869e+00	-5.6021206848e-01
-7.0965236560e+00	-7.3001704090e+00	-5.0549221452e-01
-7.0837957340e+00	-7.3128983311e+00	-4.2014252991e-01
-7.0710678119e+00	-7.3256262531e+00	-3.0416300952e-01
-7.2443089733e+00	-7.2443089733e+00	-7.4427097289e-02
-7.2269848572e+00	-7.2616330894e+00	-2.1160230139e-01
-7.2096607410e+00	-7.2789572056e+00	-3.2251642046e-01
-7.1923366249e+00	-7.2962813217e+00	-4.0716944152e-01
-7.1750125087e+00	-7.3136054378e+00	-4.6556135159e-01
-7.1576883926e+00	-7.3309295540e+00	-4.9769213767e-01
-7.1403642765e+00	-7.3482536701e+00	-5.0356178677e-01
-7.1230401603e+00	-7.3655777862e+00	-4.8317028590e-01
-7.1057160442e+00	-7.3829019024e+00	-4.3651762208e-01
-7.0883919280e+00	-7.4002260185e+00	-3.6360378232e-01
-7.0710678119e+00	-7.4175501347e+00	-2.6442875362e-01
-7.2973419819e+00	-7.2973419819e+00	-6.7107182284e-02
-7.2747145649e+00	-7.3199693989e+00	-1.8732404459e-01
-7.2520871479e+00	-7.3425968159e+00	-2.8455793729e-01
-7.2294597309e+00	-7.3652242329e+00	-3.5880883145e-01
-7.2068323139e+00	-7.3878516499e+00	-4.1007669813e-01
-7.1842048969e+00	-7.4104790669e+00	-4.3836150838e-01
-7.1615774799e+00	-7.4331064838e+00	-4.4366323327e-01
-7.1389500629e+00	-7.4557339008e+00	-4.2598184386e-01
-7.1163226459e+00	-7.4783613178e+00	-3.8531731119e-01
-7.0936952289e+00	-7.5009887348e+00	-3.2166960634e-01
-7.0710678119e+00	-7.5236161518e+00	-2.3503870035e-01
-7.3574460583e+00	-7.3574460583e+00	-6.2519154049e-02
-7.3288082336e+00	-7.3860838829e+00	-1.6946141114e-01
-7.3001704090e+00	-7.4147217075e+00	-2.5597098451e-01
-7.2715325844e+00	-7.4433595322e+00	-3.2204781549e-01
-7.2428947597e+00	-7.4719973568e+00	-3.6769184541e-01
-7.2142569351e+00	-7.5006351814e+00	-3.9290301560e-01
-7.1856191105e+00	-7.5292730061e+00	-3.9768126739e-01
-7.1569812858e+00	-7.5579108307e+00	-3.8202654210e-01
-7.1283434612e+00	-7.5865486554e+00	-3.4593878105e-01
-7.0997056365e+00	-7.6151864800e+00	-2.8941792558e-01
-7.0710678119e+00	-7.6438243046e+00	-2.1246391701e-01
-7.4246212025e+00	-7.4246212025e+00	-5.9964348643e-02
-7.3892658634e+00	-7.4599765416e+00	-1.5619436323e-01
-7.3539105244e+00	-7.4953318806e+00	-2.3403198585e-01
-7.3185551853e+00	-7.5306872197e+00	-2.9347710612e-01
-7.2831998463e+00	-7.5660425587e+00	-3.3452961363e-01
-7.2478445072e+00	-7.6013978978e+00	-3.5718939796e-01
-7.2124891681e+00	-7.6367532368e+00	-3.6145634874e-01
-7.1771338291e+00	-7.6721085759e+00	-3.4733035553e-01
-7.1417784900e+00	-7.7074639149e+00	-3.1481130796e-01
-7.1064231510e+00	-7.7428192540e+00	-2.6389909560e-01
-7.0710678119e+00	-7.7781745931e+00	-1.9459360805e-01
-7.4246212025e+00	-7.4246212025e+00	-5.9964348643e-02
-7.3892658634e+00	-7.4599765416e+00	-1.5619436323e-01
-7.3539105244e+00	-7.4953318806e+00	-2.3403198585e-01
-7.3185551853e+00	-7.5306872197e+00	-2.9347710612e-01
-7.2831998463e+00	-7.5660425587e+00	-3.3452961363e-01
-7.2478445072e+00	-7.6013978978e+00	-3.5718939796e-01
-7.2124891681e+00	-7.6367532368e+00	-3.6145634874e-01
-7.1771338291e+00	-7.6721085759e+00	-3.4733035553e-01
-7.1417784900e+00	-7.7074639149e+00	-3.1481130796e-01
-7.1064231510e+00	-7.7428192540e+00	-2.6389909560e-01
-7.0710678119e+00	-7.7781745931e+00	-1.9459360805e-01
-7.4988674145e+00	-7.4988674145e+00	-4.6889448619e-02
-7.4560874543e+00	-7.5416473748e+00	-1.3357590872e-01
-7.4133074940e+00	-7.5844273350e+00	-2.0283274117e-01
-7.3705275337e+00	-7.6272072953e+00	-2.5465975038e-01
-7.3277475735e+00	-7.6699872555e+00	-2.8905674077e-01
-7.2849676132e+00	-7.7127672158e+00	-3.0602351676e-01
-7.2421876530e+00	-7.7555471761e+00	-3.0555988276e-01
-7.1994076927e+00	-7.7983271363e+00	-2.8766564318e-01
-7.1566277324e+00	-7.8411070966e+00	-2.5234060243e-01
-7.1138477722e+00	-7.8838870568e+00	-1.9958456493e-01
-7.0710678119e+00	-7.9266670171e+00	-1.2939733507e-01
-7.5801846944e+00	-7.5801846944e+00	-3.6571261572e-02
-7.5292730061e+00	-7.6310963826e+00	-1.1583301340e-01
-7.4783613179e+00	-7.6820080708e+00	-1.7870656238e-01
-7.4274496296e+00	-7.7329197591e+00	-2.2519157885e-01
-7.3765379414e+00	-7.7838314473e+00	-2.5528773316e-01
-7.3256262531e+00	-7.8347431355e+00	-2.6899469563e-01
-7.2747145649e+00	-7.8856548238e+00	-2.6631213661e-01
-7.2238028766e+00	-7.9365665120e+00	-2.4723972643e-01
-7.1728911884e+00	-7.9874782003e+00	-2.1177713542e-01
-7.1219795001e+00	-8.0383898885e+00	-1.5992403390e-01
-7.0710678119e+00	-8.0893015768e+00	-9.1680092215e-02
-7.6685730420e+00	-7.6685730420e+00	-2.8547705446e-02
-7.6088225190e+00	-7.7283235650e+00	-1.0186768246e-01
-7.5490719960e+00	-7.7880740880e+00	-1.5985000756e-01
-7.4893214730e+00	-7.8478246110e+00	-2.0249414786e-01
-7.4295709500e+00	-7.9075751340e+00	-2.2979957048e-01
-7.3698204270e+00	-7.9673256570e+00	-2.4176574250e-01
-7.3100699039e+00	-8.0270761800e+00	-2.3839213104e-01
-7.2503193809e+00	-8.0868267030e+00	-2.1967820318e-01
-7.1905688579e+00	-8.1465772260e+00	-1.8562342602e-01
-7.1308183349e+00	-8.2063277490e+00	-1.3622726663e-01
-7.0710678119e+00	-8.2660782721e+00	-7.1489192101e-02
-7.7640324575e+00	-7.7640324575e+00	-2.2449500979e-02
-7.6947359929e+00	-7.8333289220e+00	-9.0891749915e-02
-7.6254395284e+00	-7.9026253866e+00	-1.4501990289e-01
-7.5561430638e+00	-7.9719218511e+00	-1.8483312861e-01
-7.4868465992e+00	-8.0412183156e+00	-2.1033059581e-01
-7.4175501347e+00	-8.1105147802e+00	-2.2151147319e-01
-7.3482536701e+00	-8.1798112448e+00	-2.1837492944e-01
-7.2789572056e+00	-8.2491077093e+00	-2.0092013327e-01
-7.2096607410e+00	-8.3184041739e+00	-1.6914625335e-01
-7.1403642765e+00	-8.3877006384e+00	-1.2305245836e-01
-7.0710678119e+00	-8.4569971030e+00	-6.2637916972e-02
-7.8665629407e+00	-7.8665629407e+00	-1.7977587949e-02
-7.7870134278e+00	-7.9461124536e+00	-8.2320779367e-02
-7.7074639150e+00	-8.0256619665e+00	-1.3332837175e-01
-7.6279144021e+00	-8.1052114793e+00	-1.7099910754e-01
-7.5483648892e+00	-8.1847609922e+00	-1.9533172917e-01
-7.4688153763e+00	-8.2643105051e+00	-2.0632497906e-01
-7.3892658634e+00	-8.3438600180e+00	-2.0397759962e-01
-7.3097163506e+00	-8.4234095309e+00	-1.8828833324e-01
-7.2301668377e+00	-8.5029590437e+00	-1.5925592232e-01
-7.1506173248e+00	-8.5825085566e+00	-1.1687910920e-01
-7.0710678119e+00	-8.6620580695e+00	-6.1156636253e-02
-7.9761644918e+00	-7.9761644918e+00	-1.4885622120e-02
-7.8856548238e+00	-8.0666741598e+00	-7.5708297821e-02
-7.7951451558e+00	-8.1571838278e+00	-1.2412069331e-01
-7.7046354878e+00	-8.2476934958e+00	-1.6012095632e-01
-7.6141258198e+00	-8.3382031637e+00	-1.8370723459e-01
-7.5236161519e+00	-8.4287128317e+00	-1.9487767583e-01
-7.4331064839e+00	-8.5192224997e+00	-1.9363042771e-01
-7.3425968159e+00	-8.6097321677e+00	-1.7996363790e-01
-7.2520871479e+00	-8.7002418357e+00	-1.5387545404e-01
-7.1615774799e+00	-8.7907515037e+00	-1.1536402375e-01
-7.0710678119e+00	-8.8812611717e+00	-6.4427494632e-02
-8.0928371107e+00	-8.0928371107e+00	-1.2966736752e-02
-7.9906601808e+00	-8.1950140406e+00	-7.0703510035e-02
-7.8884832509e+00	-8.2971909704e+00	-1.1689954344e-01
-7.7863063211e+00	-8.3993679003e+00	-1.5155217210e-01
-7.6841293912e+00	-8.5015448302e+00	-1.7465873113e-01
-7.5819524613e+00	-8.6037217601e+00	-1.8621655559e-01
-7.4797755314e+00	-8.7058986899e+00	-1.8622298052e-01
-7.3775986015e+00	-8.8080756198e+00	-1.7467534091e-01
-7.2754216717e+00	-8.9102525497e+00	-1.5157097173e-01
-7.1732447418e+00	-9.0124294796e+00	-1.1690720792e-01
-7.0710678119e+00	-9.1146064095e+00	-7.0681384353e-02
-8.2165807974e+00	-8.2165807974e+00	-1.2043577273e-02
-8.1020294988e+00	-8.3311320959e+00	-6.7023231312e-02
-7.9874782003e+00	-8.4456833945e+00	-1.1127635032e-01
-7.8729269017e+00	-8.5602346930e+00	-1.4479917924e-01
-7.7583756032e+00	-8.6747859916e+00	-1.6758796294e-01
-7.6438243047e+00	-8.7893372901e+00	-1.7963894627e-01
-7.5292730061e+00	-8.9038885887e+00	-1.8094837398e-01
-7.4147217076e+00	-9.0184398872e+00	-1.7151249080e-01
-7.3001704090e+00	-9.1329911858e+00	-1.5132754139e-01
-7.1856191105e+00	-9.2475424843e+00	-1.2038977036e-01
-7.0710678119e+00	-9.3620937829e+00	-7.8695422261e-02
-8.3473955519e+00	-8.3473955519e+00	-1.1960766824e-02
-8.2197627779e+00	-8.4750283259e+00	-6.4432726726e-02
-8.0921300039e+00	-8.6026610999e+00	-1.0693909861e-01
-7.9644972299e+00	-8.7302938739e+00	-1.3947468844e-01
-7.8368644559e+00	-8.8579266479e+00	-1.6203430209e-01
-7.7092316819e+00	-8.9855594219e+00	-1.7461274538e-01
-7.5815989079e+00	-9.1131921959e+00	-1.7720482400e-01
-7.4539661339e+00	-9.2408249699e+00	-1.6980534358e-01
-7.3263333599e+00	-9.3684577439e+00	-1.5240910967e-01
-7.1987005859e+00	-9.4960905179e+00	-1.2501092772e-01
-7.0710678119e+00	-9.6237232919e+00	-8.7605603105e-02
-8.4852813742e+00	-8.4852813742e+00	-1.2579157180e-02
-8.3438600180e+00	-8.6267027304e+00	-6.2732295724e-02
-8.2024386618e+00	-8.7681240867e+00	-1.0363043809e-01
-8.0610173055e+00	-8.9095454429e+00	-1.3526651844e-01
-7.9195959493e+00	-9.0509667992e+00	-1.5763347078e-01
-7.7781745931e+00	-9.1923881554e+00	-1.7072422902e-01
-7.6367532368e+00	-9.3338095116e+00	-1.7453172694e-01
-7.4953318806e+00	-9.4752308679e+00	-1.6904889816e-01
-7.3539105244e+00	-9.6166522241e+00	-1.5426867621e-01
-7.2124891681e+00	-9.7580735804e+00	-1.3018399446e-01
-7.0710678119e+00	-9.8994949366e+00	-9.6787786194e-02
-7.0710678119e+00	-7.0710678119e+00	-5.9071788545e-02
-7.0710678119e+00	-7.0710678119e+00	-5.9071788545e-02
-7.0710678119e+00	-7.0710678119e+00	-5.9071788545e-02
-7.0710678119e+00	-7.0710678119e+00	-5.9071788545e-02
-7.0710678119e+00	-7.0710678119e+00	-5.9071788545e-02
-7.0710678119e+00	-7.0710678119e+00	-5.9071788545e-02
-7.0710678119e+00	-7.0710678119e+00	-5.9071788545e-02
-7.0710678119e+00	-7.0710678119e+00	-5.9071788545e-02
-7.0710678119e+00	-7.0710678119e+00	-5.9071788545e-02
-7.0710678119e+00	-7.0710678119e+00	-5.9071788545e-02
-7.0710678119e+00	-7.0710678119e+00	-5.9071788545e-02
-7.0710678119e+00	-7.0781388797e+00	-4.6435311923e+00
-7.0707142585e+00	-7.0777853263e+00	-2.9698017311e+00
-7.0703607051e+00	-7.0774317729e+00	-1.5978810846e+00
-7.0700071517e+00	-7.0770782195e+00	-5.2776925274e-01
-7.0696535983e+00	-7.0767246661e+00	 2.4053376443e-01
-7.0693000449e+00	-7.0763711128e+00	 7.0702796692e-01
-7.0689464916e+00	-7.0760175594e+00	 8.7171335474e-01
-7.0685929382e+00	-7.0756640060e+00	 7.3458992787e-01
-7.0682393848e+00	-7.0753104526e+00	 2.9565768633e-01
-7.0678858314e+00	-7.0749568992e+00	-4.4508336990e-01
-7.0675322780e+00	-7.0746033458e+00	-1.4876332408e+00
-7.0710678119e+00	-7.0993520831e+00	-2.4730457290e+00
-7.0696535983e+00	-7.0979378696e+00	-1.5900363774e+00
-7.0682393848e+00	-7.0965236560e+00	-8.6310981718e-01
-7.0668251712e+00	-7.0951094425e+00	-2.9226604841e-01
-7.0654109577e+00	-7.0936952289e+00	 1.2249492894e-01
-7.0639967441e+00	-7.0922810153e+00	 3.8117311486e-01
-7.0625825305e+00	-7.0908668018e+00	 4.8376850933e-01
-7.0611683170e+00	-7.0894525882e+00	 4.3028111235e-01
-7.0597541034e+00	-7.0880383746e+00	 2.2071092392e-01
-7.0583398898e+00	-7.0866241611e+00	-1.4494205599e-01
-7.0569256763e+00	-7.0852099475e+00	-6.6667782738e-01
-7.0710678119e+00	-7.1347074222e+00	-1.6480773246e+00
-7.0678858314e+00	-7.1315254417e+00	-1.0550906845e+00
-7.0647038509e+00	-7.1283434612e+00	-5.6694418330e-01
-7.0615218704e+00	-7.1251614807e+00	-1.8363782095e-01
-7.0583398898e+00	-7.1219795001e+00	 9.4828402432e-02
-7.0551579093e+00	-7.1187975196e+00	 2.6845448676e-01
-7.0519759288e+00	-7.1156155391e+00	 3.3724043196e-01
-7.0487939483e+00	-7.1124335586e+00	 3.0118623793e-01
-7.0456119678e+00	-7.1092515781e+00	 1.6029190458e-01
-7.0424299873e+00	-7.1060695976e+00	-8.5442568160e-02
-7.0392480067e+00	-7.1028876171e+00	-4.3601718039e-01
-7.0710678119e+00	-7.1842048969e+00	-1.2167905823e+00
-7.0654109577e+00	-7.1785480426e+00	-7.7369032178e-01
-7.0597541034e+00	-7.1728911884e+00	-4.0930857418e-01
-7.0540972492e+00	-7.1672343341e+00	-1.2364533994e-01
-7.0484403949e+00	-7.1615774799e+00	 8.3299380453e-02
-7.0427835407e+00	-7.1559206256e+00	 2.1152558652e-01
-7.0371266864e+00	-7.1502637714e+00	 2.6103327778e-01
-7.0314698322e+00	-7.1446069171e+00	 2.3182245374e-01
-7.0258129779e+00	-7.1389500629e+00	 1.2389311393e-01
-7.0201561237e+00	-7.1332932086e+00	-6.2754742154e-02
-7.0144992694e+00	-7.1276363544e+00	-3.2812111499e-01
-7.0710678119e+00	-7.2478445072e+00	-9.5218550654e-01
-7.0622289771e+00	-7.2390056724e+00	-6.0050362779e-01
-7.0533901424e+00	-7.2301668377e+00	-3.1170689056e-01
-7.0445513076e+00	-7.2213280029e+00	-8.5795296700e-02
-7.0357124728e+00	-7.2124891681e+00	 7.7231151950e-02
-7.0268736381e+00	-7.2036503334e+00	 1.7737245354e-01
-7.0180348033e+00	-7.1948114986e+00	 2.1462860622e-01
-7.0091959685e+00	-7.1859726638e+00	 1.8899960815e-01
-7.0003571338e+00	-7.1771338291e+00	 1.0048545747e-01
-6.9915182990e+00	-7.1682949943e+00	-5.0913847663e-02
-6.9826794642e+00	-7.1594561595e+00	-2.6519830910e-01
-7.0710678119e+00	-7.3256262531e+00	-7.7349596635e-01
-7.0583398898e+00	-7.3128983311e+00	-4.8331588697e-01
-7.0456119678e+00	-7.3001704090e+00	-2.4539809911e-01
-7.0328840457e+00	-7.2874424869e+00	-5.9742608271e-02
-7.0201561237e+00	-7.2747145649e+00	 7.3650580017e-02
-7.0074282016e+00	-7.2619866428e+00	 1.5478146024e-01
-6.9947002795e+00	-7.2492587208e+00	 1.8365002687e-01
-6.9819723575e+00	-7.2365307987e+00	 1.6025627440e-01
-6.9692444354e+00	-7.2238028766e+00	 8.4600197311e-02
-6.9565165133e+00	-7.2110749546e+00	-4.3318209927e-02
-6.9437885913e+00	-7.1983470325e+00	-2.2349895283e-01
-7.0710678119e+00	-7.4175501347e+00	-6.4484813608e-01
-7.0537436958e+00	-7.4002260185e+00	-3.9881629555e-01
-7.0364195796e+00	-7.3829019024e+00	-1.9742546029e-01
-7.0190954635e+00	-7.3655777862e+00	-4.0675644212e-02
-7.0017713473e+00	-7.3482536701e+00	 7.1433138760e-02
-6.9844472312e+00	-7.3309295540e+00	 1.3890087471e-01
-6.9671231151e+00	-7.3136054378e+00	 1.6172754973e-01
-6.9497989989e+00	-7.2962813217e+00	 1.3991314989e-01
-6.9324748828e+00	-7.2789572056e+00	 7.3457661278e-02
-6.9151507666e+00	-7.2616330894e+00	-3.7638930021e-02
-6.8978266505e+00	-7.2443089733e+00	-1.9337663793e-01
-7.0710678119e+00	-7.5236161518e+00	-5.4788152181e-01
-7.0484403949e+00	-7.5009887348e+00	-3.3503430407e-01
-7.0258129779e+00	-7.4783613178e+00	-1.6109303639e-01
-7.0031855609e+00	-7.4557339008e+00	-2.6057749782e-02
-6.9805581439e+00	-7.4331064838e+00	 7.0071524747e-02
-6.9579307269e+00	-7.4104790669e+00	 1.2729475619e-01
-6.9353033099e+00	-7.3878516499e+00	 1.4561191353e-01
-6.9126758929e+00	-7.3652242329e+00	 1.2502296576e-01
-6.8900484759e+00	-7.3425968159e+00	 6.5527881877e-02
-6.8674210589e+00	-7.3199693989e+00	-3.2873369137e-02
-6.8447936419e+00	-7.2973419819e+00	-1.7018081829e-01
-7.0710678119e+00	-7.6438243046e+00	-4.7221896571e-01
-7.0424299873e+00	-7.6151864800e+00	-2.8518671407e-01
-7.0137921626e+00	-7.5865486554e+00	-1.3258757693e-01
-6.9851543380e+00	-7.5579108307e+00	-1.4421617134e-02
-6.9565165133e+00	-7.5292730061e+00	 6.9311102437e-02
-6.9278786887e+00	-7.5006351814e+00	 1.1861051892e-01
-6.8992408641e+00	-7.4719973568e+00	 1.3347656945e-01
-6.8706030394e+00	-7.4433595322e+00	 1.1390919116e-01
-6.8419652148e+00	-7.4147217075e+00	 5.9908321190e-02
-6.8133273902e+00	-7.3860838829e+00	-2.8526103336e-02
-6.7846895655e+00	-7.3574460583e+00	-1.5139414528e-01
-7.0710678119e+00	-7.7781745931e+00	-4.1154565659e-01
-7.0357124728e+00	-7.7428192540e+00	-2.4513596165e-01
-7.0003571338e+00	-7.7074639149e+00	-1.0957229360e-01
-6.9650017947e+00	-7.6721085759e+00	-4.8547707365e-03
-6.9296464557e+00	-7.6367532368e+00	 6.9016488642e-02
-6.8942911166e+00	-7.6013978978e+00	 1.1204136624e-01
-6.8589357775e+00	-7.5660425587e+00	 1.2421974377e-01
-6.8235804385e+00	-7.5306872197e+00	 1.0555150293e-01
-6.7882250994e+00	-7.4953318806e+00	 5.6036525431e-02
-6.7528697604e+00	-7.4599765416e+00	-2.4325307025e-02
-6.7175144213e+00	-7.4246212025e+00	-1.3553411273e-01
-7.0710678119e+00	-7.7781745931e+00	-4.1154565659e-01
-7.0357124728e+00	-7.7428192540e+00	-2.4513596165e-01
-7.0003571338e+00	-7.7074639149e+00	-1.0957229360e-01
-6.9650017947e+00	-7.6721085759e+00	-4.8547707365e-03
-6.9296464557e+00	-7.6367532368e+00	 6.9016488642e-02
-6.8942911166e+00	-7.6013978978e+00	 1.1204136624e-01
-6.8589357775e+00	-7.5660425587e+00	 1.2421974377e-01
-6.8235804385e+00	-7.5306872197e+00	 1.0555150293e-01
-6.7882250994e+00	-7.4953318806e+00	 5.6036525431e-02
-6.7528697604e+00	-7.4599765416e+00	-2.4325307025e-02
-6.7175144213e+00	-7.4246212025e+00	-1.3553411273e-01
-7.0710678119e+00	-7.9266670171e+00	-3.7449702755e-01
-7.0282878516e+00	-7.8838870568e+00	-2.2484893566e-01
-6.9855078914e+00	-7.8411070966e+00	-1.0293621450e-01
-6.9427279311e+00	-7.7983271363e+00	-8.7590736403e-03
-6.8999479708e+00	-7.7555471761e+00	 5.7682277347e-02
-6.8571680106e+00	-7.7127672158e+00	 9.6387628895e-02
-6.8143880503e+00	-7.6699872555e+00	 1.0735677144e-01
-6.7716080901e+00	-7.6272072953e+00	 9.0589495401e-02
-6.7288281298e+00	-7.5844273350e+00	 4.6085591226e-02
-6.6860481695e+00	-7.5416473748e+00	-2.6155150655e-02
-6.6432682093e+00	-7.4988674145e+00	-1.2613293981e-01
-7.0710678119e+00	-8.0893015768e+00	-3.4218199460e-01
-7.0201561237e+00	-8.0383898885e+00	-2.0559884898e-01
-6.9692444354e+00	-7.9874782003e+00	-9.4209683176e-02
-6.9183327472e+00	-7.9365665120e+00	-8.0148504283e-03
-6.8674210589e+00	-7.8856548238e+00	 5.2985296030e-02
-6.8165093707e+00	-7.8347431355e+00	 8.8790402967e-02
-6.7655976824e+00	-7.7838314473e+00	 9.9400117151e-02
-6.7146859942e+00	-7.7329197591e+00	 8.4814085354e-02
-6.6637743059e+00	-7.6820080708e+00	 4.5031954348e-02
-6.6128626177e+00	-7.6310963826e+00	-1.9946629093e-02
-6.5619509294e+00	-7.5801846944e+00	-1.1012201819e-01
-7.0710678119e+00	-8.2660782721e+00	-3.1374267325e-01
-7.0113172889e+00	-8.2063277490e+00	-1.8755709761e-01
-6.9515667659e+00	-8.1465772260e+00	-8.4449435276e-02
-6.8918162429e+00	-8.0868267030e+00	-4.4202572590e-03
-6.8320657199e+00	-8.0270761800e+00	 5.2529865436e-02
-6.7723151968e+00	-7.9673256570e+00	 8.6400361806e-02
-6.7125646738e+00	-7.9075751340e+00	 9.7190660856e-02
-6.6528141508e+00	-7.8478246110e+00	 8.4900191591e-02
-6.5930636278e+00	-7.7880740880e+00	 4.9528383023e-02
-6.5333131048e+00	-7.7283235650e+00	-8.9253358331e-03
-6.4735625818e+00	-7.6685730420e+00	-9.0461535960e-02
-7.0710678119e+00	-8.4569971030e+00	-2.8846830425e-01
-7.0017713473e+00	-8.3877006384e+00	-1.7070381631e-01
-6.9324748828e+00	-8.3184041739e+00	-7.4226537677e-02
-6.8631784182e+00	-8.2491077093e+00	 9.6264091607e-04
-6.7938819537e+00	-8.1798112448e+00	 5.4862828722e-02
-6.7245854891e+00	-8.1105147802e+00	 8.7473135006e-02
-6.6552890246e+00	-8.0412183156e+00	 9.8792669040e-02
-6.5859925600e+00	-7.9719218511e+00	 8.8820540106e-02
-6.5166960954e+00	-7.9026253866e+00	 5.7555857490e-02
-6.4473996309e+00	-7.8333289220e+00	 4.9977304877e-03
-6.3781031663e+00	-7.7640324575e+00	-6.8854731599e-02
-7.0710678119e+00	-8.6620580695e+00	-2.6577008832e-01
-6.9915182990e+00	-8.5825085566e+00	-1.5493008565e-01
-6.9119687861e+00	-8.5029590437e+00	-6.3840325715e-02
-6.8324192732e+00	-8.4234095309e+00	 7.4978439447e-03
-6.7528697604e+00	-8.3438600180e+00	 5.9083075810e-02
-6.6733202475e+00	-8.2643105051e+00	 9.0914022374e-02
-6.5937707346e+00	-8.1847609922e+00	 1.0298933614e-01
-6.5142212217e+00	-8.1052114793e+00	 9.5307669628e-02
-6.4346717088e+00	-8.0256619665e+00	 6.7867675367e-02
-6.3551221959e+00	-7.9461124536e+00	 2.0668005905e-02
-6.2755726831e+00	-7.8665629407e+00	-4.6292686204e-02
-7.0710678119e+00	-8.8812611717e+00	-2.4515659910e-01
-6.9805581439e+00	-8.7907515037e+00	-1.4008788245e-01
-6.8900484759e+00	-8.7002418357e+00	-5.3433447275e-02
-6.7995388079e+00	-8.6097321677e+00	 1.4804721620e-02
-6.7090291399e+00	-8.5192224997e+00	 6.4624639455e-02
-6.6185194719e+00	-8.4287128317e+00	 9.6024321473e-02
-6.5280098039e+00	-8.3382031637e+00	 1.0900178294e-01
-6.4375001359e+00	-8.2476934958e+00	 1.0355503914e-01
-6.3469904680e+00	-8.1571838278e+00	 7.9682105377e-02
-6.2564808000e+00	-8.0666741598e+00	 3.7380996990e-02
-6.1659711320e+00	-7.9761644918e+00	-2.3350270671e-02
-7.0710678119e+00	-9.1146064095e+00	-2.2621296910e-01
-6.9688908820e+00	-9.0124294796e+00	-1.2601468890e-01
-6.8667139521e+00	-8.9102525497e+00	-4.3055966753e-02
-6.7645370222e+00	-8.8080756198e+00	 2.2660341747e-02
-6.6623600924e+00	-8.7058986899e+00	 7.1131381045e-02
-6.5601831625e+00	-8.6037217601e+00	 1.0235429562e-01
-6.4580062326e+00	-8.5015448302e+00	 1.1632622999e-01
-6.3558293027e+00	-8.3993679003e+00	 1.1304432870e-01
-6.2536523728e+00	-8.2971909704e+00	 9.2505736342e-02
-6.1514754429e+00	-8.1950140406e+00	 5.4707597541e-02
-6.0492985131e+00	-8.0928371107e+00	-3.5294304411e-04
-7.0710678119e+00	-9.3620937829e+00	-2.0858418293e-01
-6.9565165133e+00	-9.2475424843e+00	-1.1254544738e-01
-6.8419652148e+00	-9.1329911858e+00	-3.2702133594e-02
-6.7274139162e+00	-9.0184398872e+00	 3.0941734557e-02
-6.6128626177e+00	-8.9038885887e+00	 7.8382133266e-02
-6.4983113191e+00	-8.7893372901e+00	 1.0961503878e-01
-6.3837600206e+00	-8.6747859916e+00	 1.2463642740e-01
-6.2692087220e+00	-8.5602346930e+00	 1.2344227550e-01
-6.1546574235e+00	-8.4456833945e+00	 1.0602855949e-01
-6.0401061249e+00	-8.3311320959e+00	 7.2391255848e-02
-5.9255548264e+00	-8.2165807974e+00	 2.2526341110e-02
-7.0710678119e+00	-9.6237232919e+00	-1.9196195252e-01
-6.9434350379e+00	-9.4960905179e+00	-9.9518076506e-02
-6.8158022639e+00	-9.3684577439e+00	-2.2331967476e-02
-6.6881694899e+00	-9.2408249699e+00	 3.9590808656e-02
-6.5605367159e+00	-9.1131921959e+00	 8.6244686067e-02
-6.4329039419e+00	-8.9855594219e+00	 1.1762409902e-01
-6.3052711679e+00	-8.8579266479e+00	 1.3372348187e-01
-6.1776383939e+00	-8.7302938739e+00	 1.3453726907e-01
-6.0500056198e+00	-8.6026610999e+00	 1.2005989513e-01
-5.9223728458e+00	-8.4750283259e+00	 9.0285794689e-02
-5.7947400718e+00	-8.3473955519e+00	 4.5209402443e-02
-7.0710678119e+00	-9.8994949366e+00	-1.7607448380e-01
-6.9296464557e+00	-9.7580735804e+00	-8.6775687375e-02
-6.7882250994e+00	-9.6166522241e+00	-1.1884160496e-02
-6.6468037432e+00	-9.4752308679e+00	 4.8592525001e-02
-6.5053823869e+00	-9.3338095116e+00	 9.4646797414e-02
-6.3639610307e+00	-9.1923881554e+00	 1.2627108518e-01
-6.2225396745e+00	-9.0509667992e+00	 1.4345781686e-01
-6.0811183182e+00	-8.9095454429e+00	 1.4619942115e-01
-5.9396969620e+00	-8.7681240867e+00	 1.3448832689e-01
-5.7982756057e+00	-8.6267027304e+00	 1.0831696305e-01
-5.6568542495e+00	-8.4852813742e+00	 6.7677758728e-02
-7.0710678119e+00	-7.0710678119e+00	-5.9071788545e-02
-7.0710678119e+00	-7.0710678119e+00	-5.9071788545e-02
-7.0710678119e+00	-7.0710678119e+00	-5.9071788545e-02
-7.0710678119e+00	-7.0710678119e+00	-5.9071788545e-02
-7.0710678119e+00	-7.0710678119e+00	-5.9071788545e-02
-7.0710678119e+00	-7.0710678119e+00	-5.9071788545e-02
-7.0710678119e+00	-7.0710678119e+00	-5.9071788545e-02
-7.0710678119e+00	-7.0710678119e+00	-5.9071788545e-02
-7.0710678119e+00	-7.0710678119e+00	-5.9071788545e-02
-7.0710678119e+00	-7.0710678119e+00	-5.9071788545e-02
-7.0710678119e+00	-7.0710678119e+00	-5.9071788545e-02
-7.0675322780e+00	-7.0746033458e+00	 2.4393501151e+00
-7.0671787246e+00	-7.0742497924e+00	 4.6710011457e-01
-7.0668251712e+00	-7.0738962390e+00	-1.3286168367e+00
-7.0664716178e+00	-7.0735426856e+00	-2.9478007388e+00
-7.0661180644e+00	-7.0731891322e+00	-4.3904515917e+00
-7.0657645110e+00	-7.0728355789e+00	-5.6565693954e+00
-7.0654109577e+00	-7.0724820255e+00	-6.7461541498e+00
-7.0650574043e+00	-7.0721284721e+00	-7.6592058550e+00
-7.0647038509e+00	-7.0717749187e+00	-8.3957245111e+00
-7.0643502975e+00	-7.0714213653e+00	-8.9557101178e+00
-7.0639967441e+00	-7.0710678119e+00	-9.3391626754e+00
-7.0569256763e+00	-7.0852099475e+00	 1.1995496771e+00
-7.0555114627e+00	-7.0837957340e+00	 1.6878977844e-01
-7.0540972492e+00	-7.0823815204e+00	-7.6380070852e-01
-7.0526830356e+00	-7.0809673068e+00	-1.5982217838e+00
-7.0512688220e+00	-7.0795530933e+00	-2.3344734474e+00
-7.0498546085e+00	-7.0781388797e+00	-2.9725556994e+00
-7.0484403949e+00	-7.0767246661e+00	-3.5124685397e+00
-7.0470261813e+00	-7.0753104526e+00	-3.9542119684e+00
-7.0456119678e+00	-7.0738962390e+00	-4.2977859855e+00
-7.0441977542e+00	-7.0724820255e+00	-4.5431905909e+00
-7.0427835407e+00	-7.0710678119e+00	-4.6904257847e+00
-7.0392480067e+00	-7.1028876171e+00	 8.0671086211e-01
-7.0360660262e+00	-7.0997056365e+00	 1.1229995044e-01
-7.0328840457e+00	-7.0965236560e+00	-5.1485542010e-01
-7.0297020652e+00	-7.0933416755e+00	-1.0747552496e+00
-7.0265200847e+00	-7.0901596950e+00	-1.5673995381e+00
-7.0233381042e+00	-7.0869777145e+00	-1.9927882858e+00
-7.0201561237e+00	-7.0837957340e+00	-2.3509214926e+00
-7.0169741431e+00	-7.0806137534e+00	-2.6417991588e+00
-7.0137921626e+00	-7.0774317729e+00	-2.8654212843e+00
-7.0106101821e+00	-7.0742497924e+00	-3.0217878693e+00
-7.0074282016e+00	-7.0710678119e+00	-3.1108989139e+00
-7.0144992694e+00	-7.1276363544e+00	 6.1474828815e-01
-7.0088424152e+00	-7.1219795001e+00	 9.2820172942e-02
-7.0031855609e+00	-7.1163226459e+00	-3.7820778452e-01
-6.9975287067e+00	-7.1106657916e+00	-7.9833558474e-01
-6.9918718524e+00	-7.1050089374e+00	-1.1675632282e+00
-6.9862149982e+00	-7.0993520831e+00	-1.4858907153e+00
-6.9805581439e+00	-7.0936952289e+00	-1.7533180467e+00
-6.9749012897e+00	-7.0880383746e+00	-1.9698452227e+00
-6.9692444354e+00	-7.0823815204e+00	-2.1354722439e+00
-6.9635875812e+00	-7.0767246661e+00	-2.2501991108e+00
-6.9579307269e+00	-7.0710678119e+00	-2.3140258238e+00
-6.9826794642e+00	-7.1594561595e+00	 5.0156105972e-01
-6.9738406295e+00	-7.1506173248e+00	 8.4577686808e-02
-6.9650017947e+00	-7.1417784900e+00	-2.9160597198e-01
-6.9561629600e+00	-7.1329396553e+00	-6.2698991848e-01
-6.9473241252e+00	-7.1241008205e+00	-9.2157415456e-01
-6.9384852904e+00	-7.1152619857e+00	-1.1753586820e+00
-6.9296464557e+00	-7.1064231510e+00	-1.3883435028e+00
-6.9208076209e+00	-7.0975843162e+00	-1.5605286187e+00
-6.9119687861e+00	-7.0887454814e+00	-1.6919140315e+00
-6.9031299514e+00	-7.0799066467e+00	-1.7824997431e+00
-6.8942911166e+00	-7.0710678119e+00	-1.8322857554e+00
-6.9437885913e+00	-7.1983470325e+00	 4.2743920533e-01
-6.9310606692e+00	-7.1856191105e+00	 8.1092728703e-02
-6.9183327472e+00	-7.1728911884e+00	-2.3130692061e-01
-6.9056048251e+00	-7.1601632663e+00	-5.0975974811e-01
-6.8928769030e+00	-7.1474353443e+00	-7.5426575934e-01
-6.8801489810e+00	-7.1347074222e+00	-9.6482495980e-01
-6.8674210589e+00	-7.1219795001e+00	-1.1414373550e+00
-6.8546931369e+00	-7.1092515781e+00	-1.2841029505e+00
-6.8419652148e+00	-7.0965236560e+00	-1.3928217518e+00
-6.8292372927e+00	-7.0837957340e+00	-1.4675937644e+00
-6.8165093707e+00	-7.0710678119e+00	-1.5084189938e+00
-6.8978266505e+00	-7.2443089733e+00	 3.7560864513e-01
-6.8805025344e+00	-7.2269848572e+00	 8.0106816952e-02
-6.8631784182e+00	-7.2096607410e+00	-1.8640097114e-01
-6.8458543021e+00	-7.1923366249e+00	-4.2391473305e-01
-6.8285301859e+00	-7.1750125087e+00	-6.3243448270e-01
-6.8112060698e+00	-7.1576883926e+00	-8.1196023402e-01
-6.7938819537e+00	-7.1403642765e+00	-9.6249200090e-01
-6.7765578375e+00	-7.1230401603e+00	-1.0840297973e+00
-6.7592337214e+00	-7.1057160442e+00	-1.1765736371e+00
-6.7419096053e+00	-7.0883919280e+00	-1.2401235342e+00
-6.7245854891e+00	-7.0710678119e+00	-1.2746795025e+00
-6.8447936419e+00	-7.2973419819e+00	 3.3776449029e-01
-6.8221662249e+00	-7.2747145649e+00	 8.0662422428e-02
-6.7995388079e+00	-7.2520871479e+00	-1.5119116832e-01
-6.7769113909e+00	-7.2294597309e+00	-3.5779631297e-01
-6.7542839739e+00	-7.2068323139e+00	-5.3915304253e-01
-6.7316565569e+00	-7.1842048969e+00	-6.9526138801e-01
-6.7090291399e+00	-7.1615774799e+00	-8.2612138041e-01
-6.6864017229e+00	-7.1389500629e+00	-9.3173305076e-01
-6.6637743059e+00	-7.1163226459e+00	-1.0120964300e+00
-6.6411468889e+00	-7.0936952289e+00	-1.0672115493e+00
-6.6185194719e+00	-7.0710678119e+00	-1.0970784395e+00
-6.7846895655e+00	-7.3574460583e+00	 3.0932729090e-01
-6.7560517409e+00	-7.3288082336e+00	 8.2297007774e-02
-6.7274139162e+00	-7.3001704090e+00	-1.2241556549e-01
-6.6987760916e+00	-7.2715325844e+00	-3.0481049176e-01
-6.6701382670e+00	-7.2428947597e+00	-4.6488783390e-01
-6.6415004423e+00	-7.2142569351e+00	-6.0264765477e-01
-6.6128626177e+00	-7.1856191105e+00	-7.1809001724e-01
-6.5842247930e+00	-7.1569812858e+00	-8.1121498416e-01
-6.5555869684e+00	-7.1283434612e+00	-8.8202261841e-01
-6.5269491438e+00	-7.0997056365e+00	-9.3051298285e-01
-6.4983113191e+00	-7.0710678119e+00	-9.5668614034e-01
-6.7175144213e+00	-7.4246212025e+00	 2.8756677343e-01
-6.6821590822e+00	-7.3892658634e+00	 8.4765916161e-02
-6.6468037432e+00	-7.3539105244e+00	-9.8071975254e-02
-6.6114484041e+00	-7.3185551853e+00	-2.6094701911e-01
-6.5760930651e+00	-7.2831998463e+00	-4.0385933370e-01
-6.5407377260e+00	-7.2478445072e+00	-5.2680903731e-01
-6.5053823869e+00	-7.2124891681e+00	-6.2979624823e-01
-6.4700270479e+00	-7.1771338291e+00	-7.1282108475e-01
-6.4346717088e+00	-7.1417784900e+00	-7.7588366516e-01
-6.3993163698e+00	-7.1064231510e+00	-8.1898410775e-01
-6.3639610307e+00	-7.0710678119e+00	-8.4212253080e-01
-6.7175144213e+00	-7.4246212025e+00	 2.8756677343e-01
-6.6821590822e+00	-7.3892658634e+00	 8.4765916161e-02
-6.6468037432e+00	-7.3539105244e+00	-9.8071975254e-02
-6.6114484041e+00	-7.3185551853e+00	-2.6094701911e-01
-6.5760930651e+00	-7.2831998463e+00	-4.0385933370e-01
-6.5407377260e+00	-7.2478445072e+00	-5.2680903731e-01
-6.5053823869e+00	-7.2124891681e+00	-6.2979624823e-01
-6.4700270479e+00	-7.1771338291e+00	-7.1282108475e-01
-6.4346717088e+00	-7.1417784900e+00	-7.7588366516e-01
-6.3993163698e+00	-7.1064231510e+00	-8.1898410775e-01
-6.3639610307e+00	-7.0710678119e+00	-8.4212253080e-01
-6.6432682093e+00	-7.4988674145e+00	 2.6132618314e-01
-6.6004882490e+00	-7.4560874543e+00	 7.8128699669e-02
-6.5577082887e+00	-7.4133074940e+00	-8.7095367074e-02
-6.5149283285e+00	-7.3705275337e+00	-2.3434622664e-01
-6.4721483682e+00	-7.3277475735e+00	-3.6362408860e-01
-6.4293684080e+00	-7.2849676132e+00	-4.7492916250e-01
-6.3865884477e+00	-7.2421876530e+00	-5.6826165790e-01
-6.3438084874e+00	-7.1994076927e+00	-6.4362178435e-01
-6.3010285272e+00	-7.1566277324e+00	-7.0100975142e-01
-6.2582485669e+00	-7.1138477722e+00	-7.4042576864e-01
-6.2154686066e+00	-7.0710678119e+00	-7.6187004559e-01
-6.5619509294e+00	-7.5801846944e+00	 2.4012054702e-01
-6.5110392412e+00	-7.5292730061e+00	 7.2863966950e-02
-6.4601275529e+00	-7.4783613179e+00	-7.8060429592e-02
-6.4092158647e+00	-7.4274496296e+00	-2.1265299582e-01
-6.3583041765e+00	-7.3765379414e+00	-3.3091408494e-01
-6.3073924882e+00	-7.3256262531e+00	-4.3284405018e-01
-6.2564808000e+00	-7.2747145649e+00	-5.1844324473e-01
-6.2055691117e+00	-7.2238028766e+00	-5.8771202180e-01
-6.1546574235e+00	-7.1728911884e+00	-6.4065073459e-01
-6.1037457352e+00	-7.1219795001e+00	-6.7725973632e-01
-6.0528340470e+00	-7.0710678119e+00	-6.9753938016e-01
-6.4735625818e+00	-7.6685730420e+00	 2.2295393833e-01
-6.4138120588e+00	-7.6088225190e+00	 6.8936620519e-02
-6.3540615358e+00	-7.5490719960e+00	-7.0124110435e-02
-6.2943110128e+00	-7.4893214730e+00	-1.9422882550e-01
-6.2345604897e+00	-7.4295709500e+00	-3.0337809563e-01
-6.1748099667e+00	-7.3698204270e+00	-3.9757249180e-01
-6.1150594437e+00	-7.3100699039e+00	-4.7681258495e-01
-6.0553089207e+00	-7.2503193809e+00	-5.4109894603e-01
-5.9955583977e+00	-7.1905688579e+00	-5.9043214599e-01
-5.9358078747e+00	-7.1308183349e+00	-6.2481275578e-01
-5.8760573517e+00	-7.0710678119e+00	-6.4424134632e-01
-6.3781031663e+00	-7.7640324575e+00	 2.0910144784e-01
-6.3088067018e+00	-7.6947359929e+00	 6.6278799532e-02
-6.2395102372e+00	-7.6254395284e+00	-6.2755399633e-02
-6.1702137727e+00	-7.5561430638e+00	-1.7800204033e-01
-6.1009173081e+00	-7.4868465992e+00	-2.7946201322e-01
-6.0316208435e+00	-7.4175501347e+00	-3.6713620897e-01
-5.9623243790e+00	-7.3482536701e+00	-4.4102551822e-01
-5.8930279144e+00	-7.2789572056e+00	-5.0113083161e-01
-5.8237314499e+00	-7.2096607410e+00	-5.4745303979e-01
-5.7544349853e+00	-7.1403642765e+00	-5.7999303336e-01
-5.6851385207e+00	-7.0710678119e+00	-5.9875170297e-01
-6.2755726831e+00	-7.8665629407e+00	 1.9802516906e-01
-6.1960231702e+00	-7.7870134278e+00	 6.4816070491e-02
-6.1164736573e+00	-7.7074639150e+00	-5.5607348979e-02
-6.0369241444e+00	-7.6279144021e+00	-1.6324643675e-01
-5.9573746315e+00	-7.5483648892e+00	-2.5810254021e-01
-5.8778251186e+00	-7.4688153763e+00	-3.4017700673e-01
-5.7982756057e+00	-7.3892658634e+00	-4.0947118367e-01
-5.7187260929e+00	-7.3097163506e+00	-4.6598641838e-01
-5.6391765800e+00	-7.2301668377e+00	-5.0972405820e-01
-5.5596270671e+00	-7.1506173248e+00	-5.4068545044e-01
-5.4800775542e+00	-7.0710678119e+00	-5.5887194241e-01
-6.1659711320e+00	-7.9761644918e+00	 1.8931978382e-01
-6.0754614640e+00	-7.8856548238e+00	 6.4478751639e-02
-5.9849517960e+00	-7.7951451558e+00	-4.8445183924e-02
-5.8944421280e+00	-7.7046354878e+00	-1.4945400745e-01
-5.8039324600e+00	-7.6141258198e+00	-2.3854970350e-01
-5.7134227920e+00	-7.5236161519e+00	-3.1573425660e-01
-5.6229131240e+00	-7.4331064839e+00	-3.8100965127e-01
-5.5324034560e+00	-7.3425968159e+00	-4.3437787198e-01
-5.4418937880e+00	-7.2520871479e+00	-4.7584090322e-01
-5.3513841200e+00	-7.1615774799e+00	-5.0540072942e-01
-5.2608744520e+00	-7.0710678119e+00	-5.2305933501e-01
-6.0492985131e+00	-8.0928371107e+00	 1.8267633278e-01
-5.9471215832e+00	-7.9906601808e+00	 6.5206485554e-02
-5.8449446533e+00	-7.8884832509e+00	-4.1104231644e-02
-5.7427677234e+00	-7.7863063211e+00	-1.3625867405e-01
-5.6405907935e+00	-7.6841293912e+00	-2.2025969685e-01
-5.5384138636e+00	-7.5819524613e+00	-2.9311015520e-01
-5.4362369338e+00	-7.4797755314e+00	-3.5481290422e-01
-5.3340600039e+00	-7.3775986015e+00	-4.0537079901e-01
-5.2318830740e+00	-7.2754216717e+00	-4.4478669460e-01
-5.1297061441e+00	-7.1732447418e+00	-4.7306344600e-01
-5.0275292142e+00	-7.0710678119e+00	-4.9020390819e-01
-5.9255548264e+00	-8.2165807974e+00	 1.7785750693e-01
-5.8110035278e+00	-8.1020294988e+00	 6.6949733879e-02
-5.6964522292e+00	-7.9874782003e+00	-3.3464399226e-02
-5.5819009307e+00	-7.8729269017e+00	-1.2338891568e-01
-5.4673496321e+00	-7.7583756032e+00	-2.0282783871e-01
-5.3527983336e+00	-7.6438243047e+00	-2.7178519150e-01
-5.2382470350e+00	-7.5292730061e+00	-3.3026499718e-01
-5.1236957365e+00	-7.4147217076e+00	-3.7827127879e-01
-5.0091444379e+00	-7.3001704090e+00	-4.1580805934e-01
-4.8945931394e+00	-7.1856191105e+00	-4.4287936179e-01
-4.7800418408e+00	-7.0710678119e+00	-4.5948920901e-01
-5.7947400718e+00	-8.3473955519e+00	 1.7468044119e-01
-5.6671072978e+00	-8.2197627779e+00	 6.9669905352e-02
-5.5394745238e+00	-8.0921300039e+00	-2.5434185713e-02
-5.4118417498e+00	-7.9644972299e+00	-1.1063739703e-01
-5.2842089758e+00	-7.8368644559e+00	-1.8594529354e-01
-5.1565762018e+00	-7.7092316819e+00	-2.5136344008e-01
-5.0289434278e+00	-7.5815989079e+00	-3.0689740142e-01
-4.9013106538e+00	-7.4539661339e+00	-3.5255274223e-01
-4.7736778798e+00	-7.3263333599e+00	-3.8833502709e-01
-4.6460451058e+00	-7.1987005859e+00	-4.1424982049e-01
-4.5184123318e+00	-7.0710678119e+00	-4.3030268684e-01
-5.6568542495e+00	-8.4852813742e+00	 1.7300451497e-01
-5.5154328933e+00	-8.3438600180e+00	 7.3338926513e-02
-5.3740115370e+00	-8.2024386618e+00	-1.6940365255e-02
-5.2325901808e+00	-8.0610173055e+00	-9.7840930830e-02
-5.0911688245e+00	-7.9195959493e+00	-1.6937034058e-01
-4.9497474683e+00	-7.7781745931e+00	-2.3153616472e-01
-4.8083261121e+00	-7.6367532368e+00	-2.8434597337e-01
-4.6669047558e+00	-7.4953318806e+00	-3.2780733648e-01
-4.5254833996e+00	-7.3539105244e+00	-3.6192782388e-01
-4.3840620433e+00	-7.2124891681e+00	-3.8671500528e-01
-4.2426406871e+00	-7.0710678119e+00	-4.0217645022e-01
-7.0710678119e+00	-7.0710678119e+00	-5.9071788545e-02
-7.0710678119e+00	-7.0710678119e+00	-5.9071788545e-02
-7.0710678119e+00	-7.0710678119e+00	-5.9071788545e-02
-7.0710678119e+00	-7.0710678119e+00	-5.9071788545e-02
-7.0710678119e+00	-7.0710678119e+00	-5.9071788545e-02
-7.0710678119e+00	-7.0710678119e+00	-5.9071788545e-02
-7.0710678119e+00	-7.0710678119e+00	-5.9071788545e-02
-7.0710678119e+00	-7.0710678119e+00	-5.9071788545e-02
-7.0710678119e+00	-7.0710678119e+00	-5.9071788545e-02
-7.0710678119e+00	-7.0710678119e+00	-5.9071788545e-02
-7.0710678119e+00	-7.0710678119e+00	-5.9071788545e-02
-7.0639967441e+00	-7.0710678119e+00	-9.2098040119e+00
-7.0643502975e+00	-7.0707142585e+00	-1.0550374311e+01
-7.0647038509e+00	-7.0703607051e+00	-1.1795864124e+01
-7.0650574043e+00	-7.0700071517e+00	-1.2946273450e+01
-7.0654109577e+00	-7.0696535983e+00	-1.4001602289e+01
-7.0657645110e+00	-7.0693000449e+00	-1.4961850642e+01
-7.0661180644e+00	-7.0689464916e+00	-1.5827018509e+01
-7.0664716178e+00	-7.0685929382e+00	-1.6597105889e+01
-7.0668251712e+00	-7.0682393848e+00	-1.7272112782e+01
-7.0671787246e+00	-7.0678858314e+00	-1.7852039189e+01
-7.0675322780e+00	-7.0675322780e+00	-1.8336885110e+01
-7.0427835407e+00	-7.0710678119e+00	-4.5886151598e+00
-7.0441977542e+00	-7.0696535983e+00	-5.2364345053e+00
-7.0456119678e+00	-7.0682393848e+00	-5.8421915119e+00
-7.0470261813e+00	-7.0668251712e+00	-6.4058861797e+00
-7.0484403949e+00	-7.0654109577e+00	-6.9275185086e+00
-7.0498546085e+00	-7.0639967441e+00	-7.4070884987e+00
-7.0512688220e+00	-7.0625825305e+00	-7.8445961499e+00
-7.0526830356e+00	-7.0611683170e+00	-8.2400414623e+00
-7.0540972492e+00	-7.0597541034e+00	-8.5934244358e+00
-7.0555114627e+00	-7.0583398898e+00	-8.9047450705e+00
-7.0569256763e+00	-7.0569256763e+00	-9.1740033664e+00
-7.0074282016e+00	-7.0710678119e+00	-3.0415312282e+00
-7.0106101821e+00	-7.0678858314e+00	-3.4695687589e+00
-7.0137921626e+00	-7.0647038509e+00	-3.8702538659e+00
-7.0169741431e+00	-7.0615218704e+00	-4.2435865492e+00
-7.0201561237e+00	-7.0583398898e+00	-4.5895668089e+00
-7.0233381042e+00	-7.0551579093e+00	-4.9081946451e+00
-7.0265200847e+00	-7.0519759288e+00	-5.1994700578e+00
-7.0297020652e+00	-7.0487939483e+00	-5.4633930472e+00
-7.0328840457e+00	-7.0456119678e+00	-5.6999636132e+00
-7.0360660262e+00	-7.0424299873e+00	-5.9091817561e+00
-7.0392480067e+00	-7.0392480067e+00	-6.0910474758e+00
-6.9579307269e+00	-7.0710678119e+00	-2.2652409065e+00
-6.9635875812e+00	-7.0654109577e+00	-2.5855374065e+00
-6.9692444354e+00	-7.0597541034e+00	-2.8852808434e+00
-6.9749012897e+00	-7.0540972492e+00	-3.1644712176e+00
-6.9805581439e+00	-7.0484403949e+00	-3.4231085295e+00
-6.9862149982e+00	-7.0427835407e+00	-3.6611927797e+00
-6.9918718524e+00	-7.0371266864e+00	-3.8787239685e+00
-6.9975287067e+00	-7.0314698322e+00	-4.0757020965e+00
-7.0031855609e+00	-7.0258129779e+00	-4.2521271640e+00
-7.0088424152e+00	-7.0201561237e+00	-4.4079991716e+00
-7.0144992694e+00	-7.0144992694e+00	-4.5433181196e+00
-6.8942911166e+00	-7.0710678119e+00	-1.7972461147e+00
-6.9031299514e+00	-7.0622289771e+00	-2.0536413465e+00
-6.9119687861e+00	-7.0533901424e+00	-2.2933852160e+00
-6.9208076209e+00	-7.0445513076e+00	-2.5164777249e+00
-6.9296464557e+00	-7.0357124728e+00	-2.7229188749e+00
-6.9384852904e+00	-7.0268736381e+00	-2.9127086678e+00
-6.9473241252e+00	-7.0180348033e+00	-3.0858471052e+00
-6.9561629600e+00	-7.0091959685e+00	-3.2423341889e+00
-6.9650017947e+00	-7.0003571338e+00	-3.3821699206e+00
-6.9738406295e+00	-6.9915182990e+00	-3.5053543021e+00
-6.9826794642e+00	-6.9826794642e+00	-3.6118873350e+00
-6.8165093707e+00	-7.0710678119e+00	-1.4831243773e+00
-6.8292372927e+00	-7.0583398898e+00	-1.6972777529e+00
-6.8419652148e+00	-7.0456119678e+00	-1.8973065790e+00
-6.8546931369e+00	-7.0328840457e+00	-2.0832108609e+00
-6.8674210589e+00	-7.0201561237e+00	-2.2549906037e+00
-6.8801489810e+00	-7.0074282016e+00	-2.4126458125e+00
-6.8928769030e+00	-6.9947002795e+00	-2.5561764926e+00
-6.9056048251e+00	-6.9819723575e+00	-2.6855826490e+00
-6.9183327472e+00	-6.9692444354e+00	-2.8008642869e+00
-6.9310606692e+00	-6.9565165133e+00	-2.9020214114e+00
-6.9437885913e+00	-6.9437885913e+00	-2.9890540277e+00
-6.7245854891e+00	-7.0710678119e+00	-1.2566304371e+00
-6.7419096053e+00	-7.0537436958e+00	-1.4408309507e+00
-6.7592337214e+00	-7.0364195796e+00	-1.6126751118e+00
-6.7765578375e+00	-7.0190954635e+00	-1.7721629333e+00
-6.7938819537e+00	-7.0017713473e+00	-1.9192944284e+00
-6.8112060698e+00	-6.9844472312e+00	-2.0540696099e+00
-6.8285301859e+00	-6.9671231151e+00	-2.1764884909e+00
-6.8458543021e+00	-6.9497989989e+00	-2.2865510843e+00
-6.8631784182e+00	-6.9324748828e+00	-2.3842574031e+00
-6.8805025344e+00	-6.9151507666e+00	-2.4696074604e+00
-6.8978266505e+00	-6.8978266505e+00	-2.5426012691e+00
-6.6185194719e+00	-7.0710678119e+00	-1.0846192981e+00
-6.6411468889e+00	-7.0484403949e+00	-1.2465151616e+00
-6.6637743059e+00	-7.0258129779e+00	-1.3973604066e+00
-6.6864017229e+00	-7.0031855609e+00	-1.5371550622e+00
-6.7090291399e+00	-6.9805581439e+00	-1.6658991572e+00
-6.7316565569e+00	-6.9579307269e+00	-1.7835927205e+00
-6.7542839739e+00	-6.9353033099e+00	-1.8902357812e+00
-6.7769113909e+00	-6.9126758929e+00	-1.9858283681e+00
-6.7995388079e+00	-6.8900484759e+00	-2.0703705102e+00
-6.8221662249e+00	-6.8674210589e+00	-2.1438622365e+00
-6.8447936419e+00	-6.8447936419e+00	-2.2063035758e+00
-6.4983113191e+00	-7.0710678119e+00	-9.4866702018e-01
-6.5269491438e+00	-7.0424299873e+00	-1.0933458130e+00
-6.5555869684e+00	-7.0137921626e+00	-1.2279769917e+00
-6.5842247930e+00	-6.9851543380e+00	-1.3525606151e+00
-6.6128626177e+00	-6.9565165133e+00	-1.4670967418e+00
-6.6415004423e+00	-6.9278786887e+00	-1.5715854304e+00
-6.6701382670e+00	-6.8992408641e+00	-1.6660267397e+00
-6.6987760916e+00	-6.8706030394e+00	-1.7504207283e+00
-6.7274139162e+00	-6.8419652148e+00	-1.8247674549e+00
-6.7560517409e+00	-6.8133273902e+00	-1.8890669781e+00
-6.7846895655e+00	-6.7846895655e+00	-1.9433193567e+00
-6.3639610307e+00	-7.0710678119e+00	-8.3771357831e-01
-6.3993163698e+00	-7.0357124728e+00	-9.6873448646e-01
-6.4346717088e+00	-7.0003571338e+00	-1.0905016689e+00
-6.4700270479e+00	-6.9650017947e+00	-1.2030152359e+00
-6.5053823869e+00	-6.9296464557e+00	-1.3062752980e+00
-6.5407377260e+00	-6.8942911166e+00	-1.4002819655e+00
-6.5760930651e+00	-6.8589357775e+00	-1.4850353489e+00
-6.6114484041e+00	-6.8235804385e+00	-1.5605355585e+00
-6.6468037432e+00	-6.7882250994e+00	-1.6267827048e+00
-6.6821590822e+00	-6.7528697604e+00	-1.6837768982e+00
-6.7175144213e+00	-6.7175144213e+00	-1.7315182490e+00
-6.3639610307e+00	-7.0710678119e+00	-8.3771357831e-01
-6.3993163698e+00	-7.0357124728e+00	-9.6873448646e-01
-6.4346717088e+00	-7.0003571338e+00	-1.0905016689e+00
-6.4700270479e+00	-6.9650017947e+00	-1.2030152359e+00
-6.5053823869e+00	-6.9296464557e+00	-1.3062752980e+00
-6.5407377260e+00	-6.8942911166e+00	-1.4002819655e+00
-6.5760930651e+00	-6.8589357775e+00	-1.4850353489e+00
-6.6114484041e+00	-6.8235804385e+00	-1.5605355585e+00
-6.6468037432e+00	-6.7882250994e+00	-1.6267827048e+00
-6.6821590822e+00	-6.7528697604e+00	-1.6837768982e+00
-6.7175144213e+00	-6.7175144213e+00	-1.7315182490e+00
-6.2154686066e+00	-7.0710678119e+00	-7.8753479939e-01
-6.2582485669e+00	-7.0282878516e+00	-9.0007365069e-01
-6.3010285272e+00	-6.9855078914e+00	-1.0046474919e+00
-6.3438084874e+00	-6.9427279311e+00	-1.1012565187e+00
-6.3865884477e+00	-6.8999479708e+00	-1.1899009266e+00
-6.4293684080e+00	-6.8571680106e+00	-1.2705809113e+00
-6.4721483682e+00	-6.8143880503e+00	-1.3432966682e+00
-6.5149283285e+00	-6.7716080901e+00	-1.4080483931e+00
-6.5577082887e+00	-6.7288281298e+00	-1.4648362814e+00
-6.6004882490e+00	-6.6860481695e+00	-1.5136605288e+00
-6.6432682093e+00	-6.6432682093e+00	-1.5545213309e+00
-6.0528340470e+00	-7.0710678119e+00	-7.3289208031e-01
-6.1037457352e+00	-7.0201561237e+00	-8.3264492247e-01
-6.1546574235e+00	-6.9692444354e+00	-9.2528220697e-01
-6.2055691117e+00	-6.9183327472e+00	-1.0108042635e+00
-6.2564808000e+00	-6.8674210589e+00	-1.0892114216e+00
-6.3073924882e+00	-6.8165093707e+00	-1.1605040112e+00
-6.3583041765e+00	-6.7655976824e+00	-1.2246823617e+00
-6.4092158647e+00	-6.7146859942e+00	-1.2817468029e+00
-6.4601275529e+00	-6.6637743059e+00	-1.3316976644e+00
-6.5110392412e+00	-6.6128626177e+00	-1.3745352760e+00
-6.5619509294e+00	-6.5619509294e+00	-1.4102599672e+00
-5.8760573517e+00	-7.0710678119e+00	-6.7687546218e-01
-5.9358078747e+00	-7.0113172889e+00	-7.6769412472e-01
-5.9955583977e+00	-6.9515667659e+00	-8.5195547885e-01
-6.0553089207e+00	-6.8918162429e+00	-9.2966005749e-01
-6.1150594437e+00	-6.8320657199e+00	-1.0008083935e+00
-6.1748099667e+00	-6.7723151968e+00	-1.0654010199e+00
-6.2345604897e+00	-6.7125646738e+00	-1.1234384696e+00
-6.2943110128e+00	-6.6528141508e+00	-1.1749212754e+00
-6.3540615358e+00	-6.5930636278e+00	-1.2198499702e+00
-6.4138120588e+00	-6.5333131048e+00	-1.2582250870e+00
-6.4735625818e+00	-6.4735625818e+00	-1.2900471586e+00
-5.6851385207e+00	-7.0710678119e+00	-6.2109132282e-01
-5.7544349853e+00	-7.0017713473e+00	-7.0565354761e-01
-5.8237314499e+00	-6.9324748828e+00	-7.8401849292e-01
-5.8930279144e+00	-6.8631784182e+00	-8.5618699010e-01
-5.9623243790e+00	-6.7938819537e+00	-9.2215987047e-01
-6.0316208435e+00	-6.7245854891e+00	-9.8193796534e-01
-6.1009173081e+00	-6.6552890246e+00	-1.0355221060e+00
-6.1702137727e+00	-6.5859925600e+00	-1.0829131238e+00
-6.2395102372e+00	-6.5166960954e+00	-1.1241118501e+00
-6.3088067018e+00	-6.4473996309e+00	-1.1591191160e+00
-6.3781031663e+00	-6.3781031663e+00	-1.1879357529e+00
-5.4800775542e+00	-7.0710678119e+00	-5.6634300264e-01
-5.5596270671e+00	-6.9915182990e+00	-6.4655495617e-01
-5.6391765800e+00	-6.9119687861e+00	-7.2079157543e-01
-5.7187260929e+00	-6.8324192732e+00	-7.8905411806e-01
-5.7982756057e+00	-6.7528697604e+00	-8.5134384171e-01
-5.8778251186e+00	-6.6733202475e+00	-9.0766200399e-01
-5.9573746315e+00	-6.5937707346e+00	-9.5800986252e-01
-6.0369241444e+00	-6.5142212217e+00	-1.0023886749e+00
-6.1164736573e+00	-6.4346717088e+00	-1.0407996987e+00
-6.1960231702e+00	-6.3551221959e+00	-1.0732441915e+00
-6.2755726831e+00	-6.2755726831e+00	-1.0997234108e+00
-5.2608744520e+00	-7.0710678119e+00	-5.1299072080e-01
-5.3513841200e+00	-6.9805581439e+00	-5.9023788420e-01
-5.4418937880e+00	-6.8900484759e+00	-6.6163337837e-01
-5.5324034560e+00	-6.7995388079e+00	-7.2717905571e-01
-5.6229131240e+00	-6.7090291399e+00	-7.8687676861e-01
-5.7134227920e+00	-6.6185194719e+00	-8.4072836943e-01
-5.8039324600e+00	-6.5280098039e+00	-8.8873571052e-01
-5.8944421280e+00	-6.4375001359e+00	-9.3090064420e-01
-5.9849517960e+00	-6.3469904680e+00	-9.6722502277e-01
-6.0754614640e+00	-6.2564808000e+00	-9.9771069851e-01
-6.1659711320e+00	-6.1659711320e+00	-1.0223595237e+00
-5.0275292142e+00	-7.0710678119e+00	-4.6114821312e-01
-5.1297061441e+00	-6.9688908820e+00	-5.3645683490e-01
-5.2318830740e+00	-6.8667139521e+00	-6.0596597241e-01
-5.3340600039e+00	-6.7645370222e+00	-6.6967829076e-01
-5.4362369338e+00	-6.6623600924e+00	-7.2759645503e-01
-5.5384138636e+00	-6.5601831625e+00	-7.7972313027e-01
-5.6405907935e+00	-6.4580062326e+00	-8.2606098149e-01
-5.7427677234e+00	-6.3558293027e+00	-8.6661267366e-01
-5.8449446533e+00	-6.2536523728e+00	-9.0138087172e-01
-5.9471215832e+00	-6.1514754429e+00	-9.3036824058e-01
-6.0492985131e+00	-6.0492985131e+00	-9.5357744510e-01
-4.7800418408e+00	-7.0710678119e+00	-4.1079290233e-01
-4.8945931394e+00	-6.9565165133e+00	-4.8493684351e-01
-5.0091444379e+00	-6.8419652148e+00	-5.5328024286e-01
-5.1236957365e+00	-6.7274139162e+00	-6.1582685585e-01
-5.2382470350e+00	-6.6128626177e+00	-6.7258043789e-01
-5.3527983336e+00	-6.4983113191e+00	-7.2354474432e-01
-5.4673496321e+00	-6.3837600206e+00	-7.6872353044e-01
-5.5819009307e+00	-6.2692087220e+00	-8.0812055149e-01
-5.6964522292e+00	-6.1546574235e+00	-8.4173956267e-01
-5.8110035278e+00	-6.0401061249e+00	-8.6958431909e-01
-5.9255548264e+00	-5.9255548264e+00	-8.9165857584e-01
-4.5184123318e+00	-7.0710678119e+00	-3.6182875968e-01
-4.6460451058e+00	-6.9434350379e+00	-4.3540198970e-01
-4.7736778798e+00	-6.8158022639e+00	-5.0313282252e-01
-4.9013106538e+00	-6.6881694899e+00	-5.6502645278e-01
-5.0289434278e+00	-6.5605367159e+00	-6.2108807505e-01
-5.1565762018e+00	-6.4329039419e+00	-6.7132288381e-01
-5.2842089758e+00	-6.3052711679e+00	-7.1573607345e-01
-5.4118417498e+00	-6.1776383939e+00	-7.5433283827e-01
-5.5394745238e+00	-6.0500056198e+00	-7.8711837251e-01
-5.6671072978e+00	-5.9223728458e+00	-8.1409787030e-01
-5.7947400718e+00	-5.7947400718e+00	-8.3527652570e-01
-4.2426406871e+00	-7.0710678119e+00	-3.1412257799e-01
-4.3840620433e+00	-6.9296464557e+00	-3.8758949874e-01
-4.5254833996e+00	-6.7882250994e+00	-4.5513979131e-01
-4.6669047558e+00	-6.6468037432e+00	-5.1678052249e-01
-4.8083261121e+00	-6.5053823869e+00	-5.7251875892e-01
-4.9497474683e+00	-6.3639610307e+00	-6.2236156712e-01
-5.0911688245e+00	-6.2225396745e+00	-6.6631601347e-01
-5.2325901808e+00	-6.0811183182e+00	-7.0438916423e-01
-5.3740115370e+00	-5.9396969620e+00	-7.3658808554e-01
-5.5154328933e+00	-5.7982756057e+00	-7.6291984340e-01
-5.6568542495e+00	-5.6568542495e+00	-7.8339150370e-01
 0.0000000000e+00	 0.0000000000e+00	-1.9130475543e-02
 1.4142135624e-01	-1.4142135624e-01	-2.2344027079e-02
 2.8284271248e-01	-2.8284271248e-01	-2.7127803422e-02
 4.2426406872e-01	-4.2426406872e-01	-3.3481804572e-02
 5.6568542496e-01	-5.6568542496e-01	-4.1406030529e-02
 7.0710678120e-01	-7.0710678120e-01	-5.0900481293e-02
 8.4852813744e-01	-8.4852813744e-01	-6.1965156863e-02
 9.8994949368e-01	-9.8994949368e-01	-7.4600057240e-02
 1.1313708499e+00	-1.1313708499e+00	-8.8805182423e-02
 1.2727922062e+00	-1.2727922062e+00	-1.0458053241e-01
 1.4142135624e+00	-1.4142135624e+00	-1.2192610721e-01
-2.8284271248e-01	-2.8284271248e-01	-4.1232498481e-02
-1.4142135624e-01	-4.2426406872e-01	-4.4939836939e-02
 5.0003339143e-13	-5.6568542496e-01	-4.9898462770e-02
 1.4142135624e-01	-7.0710678120e-01	-5.6108375975e-02
 2.8284271248e-01	-8.4852813744e-01	-6.3569576554e-02
 4.2426406872e-01	-9.8994949367e-01	-7.2282064506e-02
 5.6568542496e-01	-1.1313708499e+00	-8.2245839832e-02
 7.0710678120e-01	-1.2727922062e+00	-9.3460902531e-02
 8.4852813744e-01	-1.4142135624e+00	-1.0592725260e-01
 9.8994949368e-01	-1.5556349186e+00	-1.1964489005e-01
 1.1313708499e+00	-1.6970562749e+00	-1.3461381487e-01
-5.6568542496e-01	-5.6568542496e-01	-6.2961202292e-02
-4.2426406872e-01	-7.0710678120e-01	-6.7343181148e-02
-2.8284271248e-01	-8.4852813744e-01	-7.2657509945e-02
-1.4142135624e-01	-9.8994949367e-01	-7.8904188682e-02
 2.0000077983e-12	-1.1313708499e+00	-8.6083217360e-02
 1.4142135624e-01	-1.2727922061e+00	-9.4194595978e-02
 2.8284271248e-01	-1.4142135624e+00	-1.0323832454e-01
 4.2426406872e-01	-1.5556349186e+00	-1.1321440304e-01
 5.6568542496e-01	-1.6970562749e+00	-1.2412283147e-01
 7.0710678120e-01	-1.8384776311e+00	-1.3596360985e-01
 8.4852813744e-01	-1.9798989873e+00	-1.4873673817e-01
-8.4852813744e-01	-8.4852813744e-01	-8.4316586975e-02
-7.0710678120e-01	-9.8994949368e-01	-8.9554059707e-02
-5.6568542496e-01	-1.1313708499e+00	-9.5404944946e-02
-4.2426406872e-01	-1.2727922062e+00	-1.0186924269e-01
-2.8284271248e-01	-1.4142135624e+00	-1.0894695295e-01
-1.4142135624e-01	-1.5556349186e+00	-1.1663807571e-01
 4.4998726967e-12	-1.6970562749e+00	-1.2494261098e-01
 1.4142135624e-01	-1.8384776311e+00	-1.3386055875e-01
 2.8284271248e-01	-1.9798989873e+00	-1.4339191904e-01
 4.2426406872e-01	-2.1213203436e+00	-1.5353669183e-01
 5.6568542496e-01	-2.2627416998e+00	-1.6429487712e-01
-1.1313708499e+00	-1.1313708499e+00	-1.0529865253e-01
-9.8994949367e-01	-1.2727922062e+00	-1.1157247262e-01
-8.4852813743e-01	-1.4142135624e+00	-1.1814076777e-01
-7.0710678119e-01	-1.5556349186e+00	-1.2500353801e-01
-5.6568542495e-01	-1.6970562749e+00	-1.3216078332e-01
-4.2426406871e-01	-1.8384776311e+00	-1.3961250370e-01
-2.8284271247e-01	-1.9798989873e+00	-1.4735869915e-01
-1.4142135623e-01	-2.1213203436e+00	-1.5539936968e-01
 7.9998507818e-12	-2.2627416998e+00	-1.6373451529e-01
 1.4142135625e-01	-2.4041630560e+00	-1.7236413596e-01
 2.8284271249e-01	-2.5455844123e+00	-1.8128823172e-01
-1.4142135624e+00	-1.4142135624e+00	-1.2590739896e-01
-1.2727922061e+00	-1.5556349186e+00	-1.3339841987e-01
-1.1313708499e+00	-1.6970562749e+00	-1.4086497843e-01
-9.8994949367e-01	-1.8384776311e+00	-1.4830707463e-01
-8.4852813743e-01	-1.9798989873e+00	-1.5572470847e-01
-7.0710678119e-01	-2.1213203436e+00	-1.6311787994e-01
-5.6568542495e-01	-2.2627416998e+00	-1.7048658907e-01
-4.2426406871e-01	-2.4041630560e+00	-1.7783083583e-01
-2.8284271247e-01	-2.5455844123e+00	-1.8515062023e-01
-1.4142135623e-01	-2.6870057685e+00	-1.9244594227e-01
 1.2500001034e-11	-2.8284271247e+00	-1.9971680195e-01
-1.6970562749e+00	-1.6970562749e+00	-1.4614282626e-01
-1.5556349186e+00	-1.8384776311e+00	-1.5503190148e-01
-1.4142135624e+00	-1.9798989873e+00	-1.6357757691e-01
-1.2727922061e+00	-2.1213203436e+00	-1.7177985255e-01
-1.1313708499e+00	-2.2627416998e+00	-1.7963872840e-01
-9.8994949366e-01	-2.4041630560e+00	-1.8715420445e-01
-8.4852813742e-01	-2.5455844123e+00	-1.9432628071e-01
-7.0710678118e-01	-2.6870057685e+00	-2.0115495718e-01
-5.6568542494e-01	-2.8284271247e+00	-2.0764023386e-01
-4.2426406870e-01	-2.9698484810e+00	-2.1378211074e-01
-2.8284271246e-01	-3.1112698372e+00	-2.1958058784e-01
-1.9798989873e+00	-1.9798989873e+00	-1.6600493443e-01
-1.8384776311e+00	-2.1213203436e+00	-1.7647291744e-01
-1.6970562749e+00	-2.2627416998e+00	-1.8627856322e-01
-1.5556349186e+00	-2.4041630560e+00	-1.9542187178e-01
-1.4142135624e+00	-2.5455844123e+00	-2.0390284311e-01
-1.2727922061e+00	-2.6870057685e+00	-2.1172147721e-01
-1.1313708499e+00	-2.8284271248e+00	-2.1887777410e-01
-9.8994949366e-01	-2.9698484810e+00	-2.2537173375e-01
-8.4852813742e-01	-3.1112698372e+00	-2.3120335618e-01
-7.0710678118e-01	-3.2526911934e+00	-2.3637264138e-01
-5.6568542494e-01	-3.3941125497e+00	-2.4087958936e-01
-2.2627416998e+00	-2.2627416998e+00	-1.8549372348e-01
-2.1213203436e+00	-2.4041630560e+00	-1.9772146775e-01
-1.9798989873e+00	-2.5455844123e+00	-2.0896793736e-01
-1.8384776311e+00	-2.6870057685e+00	-2.1923313231e-01
-1.6970562748e+00	-2.8284271248e+00	-2.2851705260e-01
-1.5556349186e+00	-2.9698484810e+00	-2.3681969824e-01
-1.4142135624e+00	-3.1112698372e+00	-2.4414106921e-01
-1.2727922061e+00	-3.2526911935e+00	-2.5048116553e-01
-1.1313708499e+00	-3.3941125497e+00	-2.5583998719e-01
-9.8994949365e-01	-3.5355339059e+00	-2.6215235729e-01
-8.4852813741e-01	-3.6769552621e+00	-2.6842937137e-01
-2.5455844123e+00	-2.5455844123e+00	-2.0460919340e-01
-2.4041630560e+00	-2.6870057685e+00	-2.1877755240e-01
-2.2627416998e+00	-2.8284271248e+00	-2.3164569932e-01
-2.1213203436e+00	-2.9698484810e+00	-2.4321363414e-01
-1.9798989873e+00	-3.1112698372e+00	-2.5348135688e-01
-1.8384776311e+00	-3.2526911935e+00	-2.6244886752e-01
-1.6970562748e+00	-3.3941125497e+00	-2.7011616607e-01
-1.5556349186e+00	-3.5355339059e+00	-2.7842971422e-01
-1.4142135624e+00	-3.6769552622e+00	-2.8641118266e-01
-1.2727922061e+00	-3.8183766184e+00	-2.9278533347e-01
-1.1313708499e+00	-3.9597979746e+00	-2.9754054412e-01
-2.8284271248e+00	-2.8284271248e+00	-2.2335134419e-01
-2.6870057685e+00	-2.9698484810e+00	-2.3964117141e-01
-2.5455844123e+00	-3.1112698372e+00	-2.5431184911e-01
-2.4041630560e+00	-3.2526911935e+00	-2.6736337728e-01
-2.2627416998e+00	-3.3941125497e+00	-2.7879575593e-01
-2.1213203435e+00	-3.5355339059e+00	-2.9055957849e-01
-1.9798989873e+00	-3.6769552622e+00	-3.0168993783e-01
-1.8384776311e+00	-3.8183766184e+00	-3.1091258257e-01
-1.6970562748e+00	-3.9597979746e+00	-3.1821589020e-01
-1.5556349186e+00	-4.1012193309e+00	-3.2358823522e-01
-1.4142135624e+00	-4.2426406871e+00	-3.2701799201e-01
-2.8284271248e+00	-2.8284271248e+00	-2.2335134419e-01
-2.6870057685e+00	-2.9698484810e+00	-2.3964117141e-01
-2.5455844123e+00	-3.1112698372e+00	-2.5431184911e-01
-2.4041630560e+00	-3.2526911935e+00	-2.6736337728e-01
-2.2627416998e+00	-3.3941125497e+00	-2.7879575593e-01
-2.1213203435e+00	-3.5355339059e+00	-2.9055957849e-01
-1.9798989873e+00	-3.6769552622e+00	-3.0168993783e-01
-1.8384776311e+00	-3.8183766184e+00	-3.1091258257e-01
-1.6970562748e+00	-3.9597979746e+00	-3.1821589020e-01
-1.5556349186e+00	-4.1012193309e+00	-3.2358823522e-01
-1.4142135624e+00	-4.2426406871e+00	-3.2701799201e-01
-3.1112698372e+00	-3.1112698372e+00	-2.5279324015e-01
-2.9698484810e+00	-3.2526911935e+00	-2.5676992106e-01
-2.8284271247e+00	-3.3941125497e+00	-2.6691782292e-01
-2.6870057685e+00	-3.5355339059e+00	-2.7958852410e-01
-2.5455844123e+00	-3.6769552622e+00	-2.9185234708e-01
-2.4041630560e+00	-3.8183766184e+00	-3.0244068671e-01
-2.2627416998e+00	-3.9597979746e+00	-3.1134192047e-01
-2.1213203435e+00	-4.1012193309e+00	-3.1854442308e-01
-1.9798989873e+00	-4.2426406871e+00	-3.2403656909e-01
-1.8384776311e+00	-4.3840620433e+00	-3.2780673290e-01
-1.6970562748e+00	-4.5254833996e+00	-3.2984328879e-01
-3.3941125497e+00	-3.3941125497e+00	-2.9207001452e-01
-3.2526911935e+00	-3.5355339059e+00	-2.9533474709e-01
-3.1112698372e+00	-3.6769552622e+00	-2.9822184841e-01
-2.9698484810e+00	-3.8183766184e+00	-2.9947705324e-01
-2.8284271247e+00	-3.9597979746e+00	-3.0727990634e-01
-2.6870057685e+00	-4.1012193309e+00	-3.1570228525e-01
-2.5455844123e+00	-4.2426406871e+00	-3.2264653909e-01
-2.4041630560e+00	-4.3840620434e+00	-3.2810104246e-01
-2.2627416998e+00	-4.5254833996e+00	-3.3205416981e-01
-2.1213203435e+00	-4.6669047558e+00	-3.3449429543e-01
-1.9798989873e+00	-4.8083261121e+00	-3.3540979347e-01
-3.6769552622e+00	-3.6769552622e+00	-3.3853172000e-01
-3.5355339059e+00	-3.8183766184e+00	-3.4016786099e-01
-3.3941125497e+00	-3.9597979746e+00	-3.4039790668e-01
-3.2526911934e+00	-4.1012193309e+00	-3.3921479114e-01
-3.1112698372e+00	-4.2426406871e+00	-3.3661144837e-01
-2.9698484810e+00	-4.3840620434e+00	-3.3258081219e-01
-2.8284271247e+00	-4.5254833996e+00	-3.3566027573e-01
-2.6870057685e+00	-4.6669047558e+00	-3.3963892321e-01
-2.5455844122e+00	-4.8083261121e+00	-3.4232517530e-01
-2.4041630560e+00	-4.9497474683e+00	-3.4370740618e-01
-2.2627416998e+00	-5.0911688245e+00	-3.4377398988e-01
-3.9597979746e+00	-3.9597979746e+00	-3.8747495364e-01
-3.8183766184e+00	-4.1012193309e+00	-3.8650137299e-01
-3.6769552622e+00	-4.2426406871e+00	-3.8434042990e-01
-3.5355339059e+00	-4.3840620434e+00	-3.8098505846e-01
-3.3941125497e+00	-4.5254833996e+00	-3.7642819265e-01
-3.2526911934e+00	-4.6669047558e+00	-3.7066276633e-01
-3.1112698372e+00	-4.8083261121e+00	-3.6368171320e-01
-2.9698484810e+00	-4.9497474683e+00	-3.5547796687e-01
-2.8284271247e+00	-5.0911688245e+00	-3.5490606961e-01
-2.6870057685e+00	-5.2325901808e+00	-3.5550254964e-01
-2.5455844122e+00	-5.3740115370e+00	-3.5499236296e-01
-4.2426406871e+00	-4.2426406871e+00	-4.3759198296e-01
-4.1012193309e+00	-4.3840620434e+00	-4.3427474477e-01
-3.9597979746e+00	-4.5254833996e+00	-4.2998887717e-01
-3.8183766184e+00	-4.6669047558e+00	-4.2472731427e-01
-3.6769552622e+00	-4.8083261121e+00	-4.1848299005e-01
-3.5355339059e+00	-4.9497474683e+00	-4.1124883836e-01
-3.3941125497e+00	-5.0911688245e+00	-4.0301779293e-01
-3.2526911934e+00	-5.2325901808e+00	-3.9378278734e-01
-3.1112698372e+00	-5.3740115370e+00	-3.8353675508e-01
-2.9698484810e+00	-5.5154328933e+00	-3.7227262949e-01
-2.8284271247e+00	-5.6568542495e+00	-3.6912139878e-01
-4.5254833996e+00	-4.5254833996e+00	-4.8882226492e-01
-4.3840620433e+00	-4.6669047558e+00	-4.8342743327e-01
-4.2426406871e+00	-4.8083261121e+00	-4.7728270542e-01
-4.1012193309e+00	-4.9497474683e+00	-4.7038101549e-01
-3.9597979746e+00	-5.0911688245e+00	-4.6271529747e-01
-3.8183766184e+00	-5.2325901808e+00	-4.5427848520e-01
-3.6769552621e+00	-5.3740115370e+00	-4.4506351241e-01
-3.5355339059e+00	-5.5154328933e+00	-4.3506331271e-01
-3.3941125497e+00	-5.6568542495e+00	-4.2427081956e-01
-3.2526911934e+00	-5.7982756057e+00	-4.1267896631e-01
-3.1112698372e+00	-5.9396969620e+00	-4.0028068617e-01
-4.8083261121e+00	-4.8083261121e+00	-5.4110525437e-01
-4.6669047558e+00	-4.9497474683e+00	-5.3389889332e-01
-4.5254833996e+00	-5.0911688245e+00	-5.2616136947e-01
-4.3840620433e+00	-5.2325901808e+00	-5.1788561694e-01
-4.2426406871e+00	-5.3740115370e+00	-5.0906456970e-01
-4.1012193309e+00	-5.5154328933e+00	-4.9969116162e-01
-3.9597979746e+00	-5.6568542495e+00	-4.8975832642e-01
-3.8183766184e+00	-5.7982756057e+00	-4.7925899771e-01
-3.6769552621e+00	-5.9396969620e+00	-4.6818610896e-01
-3.5355339059e+00	-6.0811183182e+00	-4.5653259352e-01
-3.3941125497e+00	-6.2225396745e+00	-4.4429138461e-01
-5.0911688245e+00	-5.0911688245e+00	-5.9438040400e-01
-4.9497474683e+00	-5.2325901808e+00	-5.8562857762e-01
-4.8083261121e+00	-5.3740115370e+00	-5.7656432200e-01
-4.6669047558e+00	-5.5154328933e+00	-5.6718057127e-01
-4.5254833996e+00	-5.6568542495e+00	-5.5747025940e-01
-4.3840620433e+00	-5.7982756057e+00	-5.4742632025e-01
-4.2426406871e+00	-5.9396969620e+00	-5.3704168757e-01
-4.1012193309e+00	-6.0811183182e+00	-5.2630929496e-01
-3.9597979746e+00	-6.2225396745e+00	-5.1522207589e-01
-3.8183766184e+00	-6.3639610307e+00	-5.0377296371e-01
-3.6769552621e+00	-6.5053823869e+00	-4.9195489166e-01
-5.3740115370e+00	-5.3740115370e+00	-6.4858716437e-01
-5.2325901808e+00	-5.5154328933e+00	-6.3855593671e-01
-5.0911688245e+00	-5.6568542495e+00	-6.2843101354e-01
-4.9497474683e+00	-5.7982756057e+00	-6.1820532900e-01
-4.8083261121e+00	-5.9396969620e+00	-6.0787181707e-01
-4.6669047558e+00	-6.0811183182e+00	-5.9742341161e-01
-4.5254833996e+00	-6.2225396745e+00	-5.8685304637e-01
-4.3840620433e+00	-6.3639610307e+00	-5.7615365494e-01
-4.2426406871e+00	-6.5053823869e+00	-5.6531817082e-01
-4.1012193309e+00	-6.6468037432e+00	-5.5433952734e-01
-3.9597979746e+00	-6.7882250994e+00	-5.4321065775e-01
-5.6568542495e+00	-5.6568542495e+00	-7.0366498391e-01
-5.5154328933e+00	-5.7982756057e+00	-6.9262041900e-01
-5.3740115370e+00	-5.9396969620e+00	-6.8170089250e-01
-5.2325901808e+00	-6.0811183182e+00	-6.7089933853e-01
-5.0911688245e+00	-6.2225396745e+00	-6.6020869110e-01
-4.9497474683e+00	-6.3639610307e+00	-6.4962188406e-01
-4.8083261121e+00	-6.5053823869e+00	-6.3913185116e-01
-4.6669047558e+00	-6.6468037432e+00	-6.2873152600e-01
-4.5254833996e+00	-6.7882250994e+00	-6.1841384207e-01
-4.3840620433e+00	-6.9296464557e+00	-6.0817173273e-01
-4.2426406871e+00	-7.0710678119e+00	-5.9799813120e-01
-8.4852813742e+00	-8.4852813742e+00	-3.7248865577e-02
-8.3438600180e+00	-8.6267027304e+00	-5.9509421797e-02
-8.2024386618e+00	-8.7681240867e+00	-7.7057955142e-02
-8.0610173055e+00	-8.9095454429e+00	-8.9887399763e-02
-7.9195959493e+00	-9.0509667992e+00	-9.7990689684e-02
-7.7781745931e+00	-9.1923881554e+00	-1.0136075880e-01
-7.6367532368e+00	-9.3338095116e+00	-9.9990540884e-02
-7.4953318806e+00	-9.4752308679e+00	-9.3872969571e-02
-7.3539105244e+00	-9.6166522241e+00	-8.3000978378e-02
-7.2124891681e+00	-9.7580735804e+00	-6.7367500690e-02
-7.0710678119e+00	-9.8994949366e+00	-4.6965469766e-02
-8.7681240867e+00	-8.7681240867e+00	-4.3325033438e-02
-8.6267027305e+00	-8.9095454429e+00	-6.4922445693e-02
-8.4852813742e+00	-9.0509667992e+00	-8.2345579919e-02
-8.3438600180e+00	-9.1923881554e+00	-9.5587370269e-02
-8.2024386618e+00	-9.3338095116e+00	-1.0464075077e-01
-8.0610173055e+00	-9.4752308679e+00	-1.0949865532e-01
-7.9195959493e+00	-9.6166522241e+00	-1.1015401770e-01
-7.7781745931e+00	-9.7580735804e+00	-1.0659977154e-01
-7.6367532368e+00	-9.8994949366e+00	-9.8828850364e-02
-7.4953318806e+00	-1.0040916293e+01	-8.6834187559e-02
-7.3539105244e+00	-1.0182337649e+01	-7.0608716387e-02
-9.0509667992e+00	-9.0509667992e+00	-2.6046172129e-02
-8.9095454429e+00	-9.1923881554e+00	-6.2707547493e-02
-8.7681240867e+00	-9.3338095116e+00	-8.9184319216e-02
-8.6267027305e+00	-9.4752308679e+00	-1.0213189509e-01
-8.4852813742e+00	-9.6166522241e+00	-1.1142880615e-01
-8.3438600180e+00	-9.7580735804e+00	-1.1706798628e-01
-8.2024386618e+00	-9.8994949366e+00	-1.1904236927e-01
-8.0610173055e+00	-1.0040916293e+01	-1.1734488876e-01
-7.9195959493e+00	-1.0182337649e+01	-1.1196847827e-01
-7.7781745931e+00	-1.0323759005e+01	-1.0290607119e-01
-7.6367532368e+00	-1.0465180362e+01	-8.8711688058e-02
-9.3338095116e+00	-9.3338095116e+00	-6.9735937917e-03
-9.1923881554e+00	-9.4752308679e+00	-4.1279758993e-02
-9.0509667992e+00	-9.6166522241e+00	-7.2294794724e-02
-8.9095454429e+00	-9.7580735804e+00	-1.0000313071e-01
-8.7681240867e+00	-9.8994949366e+00	-1.1829427641e-01
-8.6267027305e+00	-1.0040916293e+01	-1.2400817226e-01
-8.4852813742e+00	-1.0182337649e+01	-1.2659501617e-01
-8.3438600180e+00	-1.0323759005e+01	-1.2604774179e-01
-8.2024386618e+00	-1.0465180362e+01	-1.2124226541e-01
-8.0610173055e+00	-1.0606601718e+01	-1.1309203604e-01
-7.9195959493e+00	-1.0748023074e+01	-1.0179482759e-01
-9.6166522241e+00	-9.6166522241e+00	 7.0286819443e-03
-9.4752308679e+00	-9.7580735804e+00	-2.4227056002e-02
-9.3338095117e+00	-9.8994949366e+00	-5.2703898107e-02
-9.1923881554e+00	-1.0040916293e+01	-7.8386273760e-02
-9.0509667992e+00	-1.0182337649e+01	-1.0125861199e-01
-8.9095454429e+00	-1.0323759005e+01	-1.2130534145e-01
-8.7681240867e+00	-1.0465180362e+01	-1.3198675243e-01
-8.6267027305e+00	-1.0606601718e+01	-1.3095391316e-01
-8.4852813742e+00	-1.0748023074e+01	-1.2729571141e-01
-8.3438600180e+00	-1.0889444430e+01	-1.2102108673e-01
-8.2024386618e+00	-1.1030865787e+01	-1.1213897867e-01
-9.8994949366e+00	-9.8994949366e+00	 1.5715112305e-02
-9.7580735804e+00	-1.0040916293e+01	-1.1794982640e-02
-9.6166522241e+00	-1.0182337649e+01	-3.7038415574e-02
-9.4752308679e+00	-1.0323759005e+01	-5.9999615546e-02
-9.3338095117e+00	-1.0465180362e+01	-8.0234570881e-02
-9.1923881554e+00	-1.0606601718e+01	-9.8042361981e-02
-9.0509667992e+00	-1.0748023074e+01	-1.1349999321e-01
-8.9095454429e+00	-1.0889444430e+01	-1.2661592040e-01
-8.7681240867e+00	-1.1030865787e+01	-1.3198440865e-01
-8.6267027305e+00	-1.1172287143e+01	-1.2685749409e-01
-8.4852813742e+00	-1.1313708499e+01	-1.1966259184e-01
-1.0182337649e+01	-1.0182337649e+01	 1.8840153482e-02
-1.0040916293e+01	-1.0323759005e+01	-4.2290840654e-03
-9.8994949366e+00	-1.0465180362e+01	-2.5395369355e-02
-9.7580735804e+00	-1.0606601718e+01	-4.4710829504e-02
-9.6166522241e+00	-1.0748023074e+01	-6.2203677078e-02
-9.4752308679e+00	-1.0889444430e+01	-7.7882367691e-02
-9.3338095117e+00	-1.1030865787e+01	-9.1755357081e-02
-9.1923881554e+00	-1.1172287143e+01	-1.0383110111e-01
-9.0509667992e+00	-1.1313708499e+01	-1.1411805575e-01
-8.9095454429e+00	-1.1455129855e+01	-1.2262467711e-01
-8.7681240867e+00	-1.1596551211e+01	-1.2428411764e-01
-1.0465180362e+01	-1.0465180362e+01	 1.6082264161e-02
-1.0323759005e+01	-1.0606601718e+01	-1.8696079387e-03
-1.0182337649e+01	-1.0748023074e+01	-1.8526414883e-02
-1.0040916293e+01	-1.0889444430e+01	-3.3896612080e-02
-9.8994949366e+00	-1.1030865787e+01	-4.7988655058e-02
-9.7580735804e+00	-1.1172287143e+01	-6.0810999469e-02
-9.6166522241e+00	-1.1313708499e+01	-7.2372101087e-02
-9.4752308679e+00	-1.1455129855e+01	-8.2680415808e-02
-9.3338095116e+00	-1.1596551211e+01	-9.1744399653e-02
-9.1923881554e+00	-1.1737972568e+01	-9.9572508761e-02
-9.0509667992e+00	-1.1879393924e+01	-1.0617319940e-01
-1.0748023074e+01	-1.0748023074e+01	 6.8435890339e-03
-1.0606601718e+01	-1.0889444430e+01	-5.3468585014e-03
-1.0465180362e+01	-1.1030865787e+01	-1.6786698949e-02
-1.0323759005e+01	-1.1172287143e+01	-2.7484387754e-02
-1.0182337649e+01	-1.1313708499e+01	-3.7448380483e-02
-1.0040916293e+01	-1.1455129855e+01	-4.6687132825e-02
-9.8994949366e+00	-1.1596551211e+01	-5.5209100591e-02
-9.7580735804e+00	-1.1737972568e+01	-6.3022739717e-02
-9.6166522241e+00	-1.1879393924e+01	-7.0136506258e-02
-9.4752308679e+00	-1.2020815280e+01	-7.6558856394e-02
-9.3338095116e+00	-1.2162236636e+01	-8.2298246426e-02
-1.1030865787e+01	-1.1030865787e+01	-8.8376942936e-03
-1.0889444430e+01	-1.1172287143e+01	-1.4539472101e-02
-1.0748023074e+01	-1.1313708499e+01	-2.0035100675e-02
-1.0606601718e+01	-1.1455129855e+01	-2.5333035498e-02
-1.0465180362e+01	-1.1596551211e+01	-3.0441732174e-02
-1.0323759005e+01	-1.1737972568e+01	-3.5369646430e-02
-1.0182337649e+01	-1.1879393924e+01	-4.0125234116e-02
-1.0040916293e+01	-1.2020815280e+01	-4.4716951202e-02
-9.8994949366e+00	-1.2162236636e+01	-4.9153253783e-02
-9.7580735804e+00	-1.2303657993e+01	-5.3442598076e-02
-9.6166522241e+00	-1.2445079349e+01	-5.7593440420e-02
-1.1313708499e+01	-1.1313708499e+01	-3.0820468406e-02
-1.1172287143e+01	-1.1455129855e+01	-2.9306331172e-02
-1.1030865787e+01	-1.1596551211e+01	-2.8130502345e-02
-1.0889444430e+01	-1.1737972568e+01	-2.7301437446e-02
-1.0748023074e+01	-1.1879393924e+01	-2.6827592115e-02
-1.0606601718e+01	-1.2020815280e+01	-2.6717422119e-02
-1.0465180362e+01	-1.2162236636e+01	-2.6979383342e-02
-1.0323759005e+01	-1.2303657993e+01	-2.7621931796e-02
-1.0182337649e+01	-1.2445079349e+01	-2.8653523610e-02
-1.0040916293e+01	-1.2586500705e+01	-3.0082615040e-02
-9.8994949366e+00	-1.2727922061e+01	-3.1917662462e-02
-1.1313708499e+01	-1.1313708499e+01	-3.0820468406e-02
-1.1172287143e+01	-1.1455129855e+01	-2.9306331172e-02
-1.1030865787e+01	-1.1596551211e+01	-2.8130502345e-02
-1.0889444430e+01	-1.1737972568e+01	-2.7301437446e-02
-1.0748023074e+01	-1.1879393924e+01	-2.6827592115e-02
-1.0606601718e+01	-1.2020815280e+01	-2.6717422119e-02
-1.0465180362e+01	-1.2162236636e+01	-2.6979383342e-02
-1.0323759005e+01	-1.2303657993e+01	-2.7621931796e-02
-1.0182337649e+01	-1.2445079349e+01	-2.8653523610e-02
-1.0040916293e+01	-1.2586500705e+01	-3.0082615040e-02
-9.8994949366e+00	-1.2727922061e+01	-3.1917662462e-02
-1.1596551211e+01	-1.1596551211e+01	-1.9450448506e-02
-1.1455129855e+01	-1.1737972568e+01	-1.9591627364e-02
-1.1313708499e+01	-1.1879393924e+01	-1.9969029815e-02
-1.1172287143e+01	-1.2020815280e+01	-2.0591111417e-02
-1.1030865787e+01	-1.2162236636e+01	-2.1466327850e-02
-1.0889444430e+01	-1.2303657993e+01	-2.2603134914e-02
-1.0748023074e+01	-1.2445079349e+01	-2.4009988536e-02
-1.0606601718e+01	-1.2586500705e+01	-2.5695344760e-02
-1.0465180362e+01	-1.2727922061e+01	-2.7667659758e-02
-1.0323759005e+01	-1.2869343418e+01	-2.9935389820e-02
-1.0182337649e+01	-1.3010764774e+01	-3.2506991360e-02
-1.1879393924e+01	-1.1879393924e+01	-1.0210117244e-02
-1.1737972568e+01	-1.2020815280e+01	-1.1828830963e-02
-1.1596551211e+01	-1.2162236636e+01	-1.3581683249e-02
-1.1455129855e+01	-1.2303657993e+01	-1.5477129696e-02
-1.1313708499e+01	-1.2445079349e+01	-1.7523626022e-02
-1.1172287143e+01	-1.2586500705e+01	-1.9729628065e-02
-1.1030865787e+01	-1.2727922061e+01	-2.2103591788e-02
-1.0889444430e+01	-1.2869343418e+01	-2.4653973274e-02
-1.0748023074e+01	-1.3010764774e+01	-2.7389228732e-02
-1.0606601718e+01	-1.3152186130e+01	-3.0317814489e-02
-1.0465180362e+01	-1.3293607486e+01	-3.3448186998e-02
-1.2162236636e+01	-1.2162236636e+01	-2.9583666852e-03
-1.2020815280e+01	-1.2303657993e+01	-5.8768338864e-03
-1.1879393924e+01	-1.2445079349e+01	-8.8273544136e-03
-1.1737972568e+01	-1.2586500705e+01	-1.1818383899e-02
-1.1596551211e+01	-1.2727922061e+01	-1.4858378098e-02
-1.1455129855e+01	-1.2869343418e+01	-1.7955792886e-02
-1.1313708499e+01	-1.3010764774e+01	-2.1119084263e-02
-1.1172287143e+01	-1.3152186130e+01	-2.4356708352e-02
-1.1030865787e+01	-1.3293607486e+01	-2.7677121396e-02
-1.0889444430e+01	-1.3435028843e+01	-3.1088779762e-02
-1.0748023074e+01	-1.3576450199e+01	-3.4600139940e-02
-1.2445079349e+01	-1.2445079349e+01	 2.4459079430e-03
-1.2303657993e+01	-1.2586500705e+01	-1.5945312095e-03
-1.2162236636e+01	-1.2727922061e+01	-5.5649382344e-03
-1.2020815280e+01	-1.2869343418e+01	-9.4737688013e-03
-1.1879393924e+01	-1.3010764774e+01	-1.3329478702e-02
-1.1737972568e+01	-1.3152186130e+01	-1.7140523852e-02
-1.1596551211e+01	-1.3293607486e+01	-2.0915360288e-02
-1.1455129855e+01	-1.3435028843e+01	-2.4662444168e-02
-1.1313708499e+01	-1.3576450199e+01	-2.8390231776e-02
-1.1172287143e+01	-1.3717871555e+01	-3.2107179514e-02
-1.1030865787e+01	-1.3859292911e+01	-3.5821743911e-02
-1.2727922061e+01	-1.2727922061e+01	 6.1438082533e-03
-1.2586500705e+01	-1.2869343418e+01	 1.1591788301e-03
-1.2445079349e+01	-1.3010764774e+01	-3.6533327984e-03
-1.2303657993e+01	-1.3152186130e+01	-8.3021823395e-03
-1.2162236636e+01	-1.3293607486e+01	-1.2795825623e-02
-1.2020815280e+01	-1.3435028843e+01	-1.7142718600e-02
-1.1879393924e+01	-1.3576450199e+01	-2.1351317347e-02
-1.1737972568e+01	-1.3717871555e+01	-2.5430078059e-02
-1.1596551211e+01	-1.3859292911e+01	-2.9387457056e-02
-1.1455129855e+01	-1.4000714267e+01	-3.3231910781e-02
-1.1313708499e+01	-1.4142135624e+01	-3.6971895796e-02
-1.3010764774e+01	-1.3010764774e+01	 8.2764326982e-03
-1.2869343418e+01	-1.3152186130e+01	 2.5253948352e-03
-1.2727922061e+01	-1.3293607486e+01	-2.9514393528e-03
-1.2586500705e+01	-1.3435028843e+01	-8.1625256107e-03
-1.2445079349e+01	-1.3576450199e+01	-1.3116319806e-02
-1.2303657993e+01	-1.3717871555e+01	-1.7821277927e-02
-1.2162236636e+01	-1.3859292911e+01	-2.2285856087e-02
-1.2020815280e+01	-1.4000714267e+01	-2.6518510520e-02
-1.1879393924e+01	-1.4142135624e+01	-3.0527697584e-02
-1.1737972568e+01	-1.4283556980e+01	-3.4321873757e-02
-1.1596551211e+01	-1.4424978336e+01	-3.7909495641e-02
-1.3293607486e+01	-1.3293607486e+01	 8.9848765697e-03
-1.3152186130e+01	-1.3435028843e+01	 2.6452122481e-03
-1.3010764774e+01	-1.3576450199e+01	-3.3181623050e-03
-1.2869343418e+01	-1.3717871555e+01	-8.9137028720e-03
-1.2727922061e+01	-1.3859292911e+01	-1.4149865357e-02
-1.2586500705e+01	-1.4000714267e+01	-1.9035105789e-02
-1.2445079349e+01	-1.4142135624e+01	-2.3577880315e-02
-1.2303657993e+01	-1.4283556980e+01	-2.7786645209e-02
-1.2162236636e+01	-1.4424978336e+01	-3.1669856864e-02
-1.2020815280e+01	-1.4566399692e+01	-3.5235971798e-02
-1.1879393924e+01	-1.4707821049e+01	-3.8493446650e-02
-1.3576450199e+01	-1.3576450199e+01	 8.4102320001e-03
-1.3435028843e+01	-1.3717871555e+01	 1.6597233512e-03
-1.3293607486e+01	-1.3859292911e+01	-4.6124092225e-03
-1.3152186130e+01	-1.4000714267e+01	-1.0414621541e-02
-1.3010764774e+01	-1.4142135624e+01	-1.5755369546e-02
-1.2869343418e+01	-1.4283556980e+01	-2.0643109302e-02
-1.2727922061e+01	-1.4424978336e+01	-2.5086296997e-02
-1.2586500705e+01	-1.4566399692e+01	-2.9093388940e-02
-1.2445079349e+01	-1.4707821049e+01	-3.2672841564e-02
-1.2303657993e+01	-1.4849242405e+01	-3.5833111422e-02
-1.2162236636e+01	-1.4990663761e+01	-3.8582655191e-02
-1.3859292911e+01	-1.3859292911e+01	 6.6935879613e-03
-1.3717871555e+01	-1.4000714267e+01	-2.8998273332e-04
-1.3576450199e+01	-1.4142135624e+01	-6.6930908327e-03
-1.3435028843e+01	-1.4283556980e+01	-1.2524192194e-02
-1.3293607486e+01	-1.4424978336e+01	-1.7791742797e-02
-1.3152186130e+01	-1.4566399692e+01	-2.2504198745e-02
-1.3010764774e+01	-1.4707821049e+01	-2.6670016261e-02
-1.2869343418e+01	-1.4849242405e+01	-3.0297651692e-02
-1.2727922061e+01	-1.4990663761e+01	-3.3395561509e-02
-1.2586500705e+01	-1.5132085117e+01	-3.5972202303e-02
-1.2445079349e+01	-1.5273506474e+01	-3.8036030789e-02
-1.4142135624e+01	-1.4142135624e+01	 3.9760302656e-03
-1.4000714267e+01	-1.4283556980e+01	-3.0628200430e-03
-1.3859292911e+01	-1.4424978336e+01	-9.4191210231e-03
-1.3717871555e+01	-1.4566399692e+01	-1.5101328570e-02
-1.3576450199e+01	-1.4707821049e+01	-2.0117898700e-02
-1.3435028843e+01	-1.4849242405e+01	-2.4477287553e-02
-1.3293607486e+01	-1.4990663761e+01	-2.8187951392e-02
-1.3152186130e+01	-1.5132085117e+01	-3.1258346601e-02
-1.3010764774e+01	-1.5273506474e+01	-3.3696929687e-02
-1.2869343418e+01	-1.5414927830e+01	-3.5512157279e-02
-1.2727922061e+01	-1.5556349186e+01	-3.6712486130e-02
 1.4142135624e+00	-1.4142135624e+00	-1.5529175155e-01
 2.0506096655e+00	-2.0506096655e+00	-1.5151916039e-01
 2.6870057685e+00	-2.6870057685e+00	-1.5973316851e-01
 3.3234018716e+00	-3.3234018716e+00	-1.7081562717e-01
 3.9597979746e+00	-3.9597979746e+00	-1.8386495057e-01
 4.5961940777e+00	-4.5961940777e+00	-1.9165341898e-01
 5.2325901808e+00	-5.2325901808e+00	-1.9485099442e-01
 5.8689862838e+00	-5.8689862838e+00	-1.9664444424e-01
 6.5053823869e+00	-6.5053823869e+00	-2.0022069656e-01
 7.1417784900e+00	-7.1417784900e+00	-2.0876684029e-01
 7.7781745931e+00	-7.7781745931e+00	-2.2547012509e-01
 1.1313708499e+00	-1.6970562749e+00	-1.6982929292e-01
 1.7677669530e+00	-2.3334523779e+00	-1.6005049381e-01
 2.4041630560e+00	-2.9698484810e+00	-1.6338694373e-01
 3.0405591591e+00	-3.6062445841e+00	-1.7958289269e-01
 3.6769552622e+00	-4.2426406871e+00	-1.8796277252e-01
 4.3133513652e+00	-4.8790367902e+00	-1.9027431503e-01
 4.9497474683e+00	-5.5154328933e+00	-1.8970418221e-01
 5.5861435714e+00	-6.1518289963e+00	-1.8943918369e-01
 6.2225396744e+00	-6.7882250994e+00	-1.9266628984e-01
 6.8589357775e+00	-7.4246212025e+00	-2.0257263182e-01
 7.4953318806e+00	-8.0610173055e+00	-2.2234550158e-01
 8.4852813744e-01	-1.9798989873e+00	-1.8639337333e-01
 1.4849242405e+00	-2.6162950904e+00	-1.7017659070e-01
 2.1213203436e+00	-3.2526911935e+00	-1.6820370687e-01
 2.7577164466e+00	-3.8890872965e+00	-1.8741458426e-01
 3.3941125497e+00	-4.5254833996e+00	-1.9495373285e-01
 4.0305086528e+00	-5.1618795027e+00	-1.9114671863e-01
 4.6669047558e+00	-5.7982756057e+00	-1.8616724869e-01
 5.3033008589e+00	-6.4346717088e+00	-1.8320217488e-01
 5.9396969620e+00	-7.0710678119e+00	-1.8543850985e-01
 6.5760930650e+00	-7.7074639149e+00	-1.9606342702e-01
 7.2124891681e+00	-8.3438600180e+00	-2.1826426061e-01
 5.6568542496e-01	-2.2627416998e+00	-2.0498399278e-01
 1.2020815280e+00	-2.8991378029e+00	-1.8189745107e-01
 1.8384776311e+00	-3.5355339059e+00	-1.7594748507e-01
 2.4748737341e+00	-4.1719300090e+00	-1.9161565692e-01
 3.1112698372e+00	-4.8083261121e+00	-2.0449375681e-01
 3.7476659403e+00	-5.4447222151e+00	-1.9392654673e-01
 4.3840620433e+00	-6.0811183182e+00	-1.8389610243e-01
 5.0204581464e+00	-6.7175144213e+00	-1.7758931805e-01
 5.6568542495e+00	-7.3539105243e+00	-1.7819324849e-01
 6.2932503525e+00	-7.9903066274e+00	-1.8889510943e-01
 6.9296464556e+00	-8.6267027305e+00	-2.1288227737e-01
 2.8284271249e-01	-2.5455844123e+00	-2.2560115127e-01
 9.1923881555e-01	-3.1819805153e+00	-1.9521307492e-01
 1.5556349186e+00	-3.8183766184e+00	-1.8798691876e-01
 2.1920310217e+00	-4.4547727215e+00	-1.9534925932e-01
 2.8284271247e+00	-5.0911688245e+00	-2.0982179258e-01
 3.4648232278e+00	-5.7275649276e+00	-1.9826970766e-01
 4.1012193309e+00	-6.3639610307e+00	-1.8254664344e-01
 4.7376154339e+00	-7.0003571338e+00	-1.7225650485e-01
 5.3740115370e+00	-7.6367532368e+00	-1.7058638906e-01
 6.0104076401e+00	-8.2731493399e+00	-1.8072355402e-01
 6.6468037431e+00	-8.9095454430e+00	-2.0585541848e-01
 1.2500001034e-11	-2.8284271247e+00	-2.4824484880e-01
 6.3639610307e-01	-3.4648232278e+00	-2.1048590031e-01
 1.2727922061e+00	-4.1012193309e+00	-1.9997742362e-01
 1.9091883092e+00	-4.7376154339e+00	-1.9867187226e-01
 2.5455844123e+00	-5.3740115370e+00	-2.0550973470e-01
 3.1819805153e+00	-6.0104076401e+00	-2.0383210124e-01
 3.8183766184e+00	-6.6468037432e+00	-1.8177476318e-01
 4.4547727215e+00	-7.2831998462e+00	-1.6685961840e-01
 5.0911688245e+00	-7.9195959493e+00	-1.6227380633e-01
 5.7275649276e+00	-8.5559920524e+00	-1.7120462718e-01
 6.3639610307e+00	-9.1923881554e+00	-1.9683954198e-01
-2.8284271246e-01	-3.1112698372e+00	-2.7291508536e-01
 3.5355339060e-01	-3.7476659403e+00	-2.3254714723e-01
 9.8994949366e-01	-4.3840620433e+00	-2.1197548355e-01
 1.6263455967e+00	-5.0204581464e+00	-2.0163997767e-01
 2.2627416998e+00	-5.6568542495e+00	-2.0048110779e-01
 2.8991378029e+00	-6.2932503526e+00	-2.0743928988e-01
 3.5355339059e+00	-6.9296464556e+00	-1.8123634451e-01
 4.1719300090e+00	-7.5660425587e+00	-1.6105453320e-01
 4.8083261120e+00	-8.2024386618e+00	-1.5291136645e-01
 5.4447222151e+00	-8.8388347648e+00	-1.5999418674e-01
 6.0811183182e+00	-9.4752308679e+00	-1.8549049735e-01
-5.6568542494e-01	-3.3941125497e+00	-2.9961186097e-01
 7.0710678125e-02	-4.0305086527e+00	-2.5503449184e-01
 7.0710678119e-01	-4.6669047558e+00	-2.2403757961e-01
 1.3435028842e+00	-5.3033008589e+00	-2.0431005860e-01
 1.9798989873e+00	-5.9396969620e+00	-1.9479239691e-01
 2.6162950904e+00	-6.5760930650e+00	-1.9442500033e-01
 3.2526911934e+00	-7.2124891681e+00	-1.8058726175e-01
 3.8890872965e+00	-7.8488852712e+00	-1.5449711523e-01
 4.5254833996e+00	-8.4852813742e+00	-1.4215492705e-01
 5.1618795026e+00	-9.1216774773e+00	-1.4674808195e-01
 5.7982756057e+00	-9.7580735804e+00	-1.7146412550e-01
-8.4852813741e-01	-3.6769552621e+00	-3.3315074045e-01
-2.1213203435e-01	-4.3133513652e+00	-2.7800441444e-01
 4.2426406871e-01	-4.9497474683e+00	-2.3622019397e-01
 1.0606601718e+00	-5.5861435714e+00	-2.0673859924e-01
 1.6970562748e+00	-6.2225396744e+00	-1.8850008822e-01
 2.3334523779e+00	-6.8589357775e+00	-1.8044505659e-01
 2.9698484810e+00	-7.4953318806e+00	-1.7948338063e-01
 3.6062445840e+00	-8.1317279836e+00	-1.4684322187e-01
 4.2426406871e+00	-8.7681240867e+00	-1.2966033715e-01
 4.8790367902e+00	-9.4045201898e+00	-1.3112215351e-01
 5.5154328932e+00	-1.0040916293e+01	-1.5441625877e-01
-1.1313708499e+00	-3.9597979746e+00	-3.6884233407e-01
-4.9497474682e-01	-4.5961940777e+00	-3.0151339636e-01
 1.4142135624e-01	-5.2325901808e+00	-2.4857980994e-01
 7.7781745931e-01	-5.8689862838e+00	-2.0898208489e-01
 1.4142135624e+00	-6.5053823869e+00	-1.8166066905e-01
 2.0506096654e+00	-7.1417784900e+00	-1.6555594795e-01
 2.6870057685e+00	-7.7781745930e+00	-1.5960824485e-01
 3.3234018716e+00	-8.4145706961e+00	-1.3774870193e-01
 3.9597979746e+00	-9.0509667992e+00	-1.1508343724e-01
 4.5961940777e+00	-9.6873629023e+00	-1.1277223353e-01
 5.2325901808e+00	-1.0323759005e+01	-1.3400272092e-01
-1.4142135624e+00	-4.2426406871e+00	-4.0549152623e-01
-7.7781745929e-01	-4.8790367902e+00	-3.2561792003e-01
-1.4142135623e-01	-5.5154328932e+00	-2.6117291196e-01
 4.9497474683e-01	-6.1518289963e+00	-2.1109700199e-01
 1.1313708499e+00	-6.7882250994e+00	-1.7433062782e-01
 1.7677669530e+00	-7.4246212024e+00	-1.4981416485e-01
 2.4041630560e+00	-8.0610173055e+00	-1.3648792620e-01
 3.0405591591e+00	-8.6974134086e+00	-1.2686939567e-01
 3.6769552622e+00	-9.3338095117e+00	-9.8080059197e-02
 4.3133513652e+00	-9.9702056147e+00	-9.1354145559e-02
 4.9497474683e+00	-1.0606601718e+01	-1.1211926355e-01
 7.7781745931e+00	-7.7781745931e+00	-2.2547012509e-01
 8.4145706961e+00	-8.4145706961e+00	-1.6268550053e-01
 9.0509667992e+00	-9.0509667992e+00	-1.2429323271e-01
 9.6873629023e+00	-9.6873629023e+00	-1.1866987545e-01
 1.0323759005e+01	-1.0323759005e+01	-1.1331069870e-01
 1.0960155108e+01	-1.0960155108e+01	-1.2413642359e-01
 1.1596551211e+01	-1.1596551211e+01	-1.2954944872e-01
 1.2232947315e+01	-1.2232947315e+01	-1.2882175058e-01
 1.2869343418e+01	-1.2869343418e+01	-1.2186778713e-01
 1.3505739521e+01	-1.3505739521e+01	-1.0860201605e-01
 1.4142135624e+01	-1.4142135624e+01	-8.8938894701e-02
 7.4953318806e+00	-8.0610173055e+00	-2.2234550158e-01
 8.1317279836e+00	-8.6974134086e+00	-1.6191924057e-01
 8.7681240867e+00	-9.3338095117e+00	-1.1022545236e-01
 9.4045201898e+00	-9.9702056147e+00	-1.0442209109e-01
 1.0040916293e+01	-1.0606601718e+01	-1.0954013594e-01
 1.0677312396e+01	-1.1242997821e+01	-1.2074660113e-01
 1.1313708499e+01	-1.1879393924e+01	-1.2577708266e-01
 1.1950104602e+01	-1.2515790027e+01	-1.2454603656e-01
 1.2586500705e+01	-1.3152186130e+01	-1.1696791858e-01
 1.3222896808e+01	-1.3788582233e+01	-1.0295718416e-01
 1.3859292911e+01	-1.4424978336e+01	-8.2428288454e-02
 7.2124891681e+00	-8.3438600180e+00	-2.1826426061e-01
 7.8488852712e+00	-8.9802561211e+00	-1.6016240838e-01
 8.4852813742e+00	-9.6166522241e+00	-1.1118504053e-01
 9.1216774773e+00	-1.0253048327e+01	-9.0759801845e-02
 9.7580735804e+00	-1.0889444430e+01	-1.0544264164e-01
 1.0394469683e+01	-1.1525840533e+01	-1.1656888557e-01
 1.1030865787e+01	-1.2162236636e+01	-1.2139834440e-01
 1.1667261890e+01	-1.2798632739e+01	-1.1984547194e-01
 1.2303657993e+01	-1.3435028843e+01	-1.1182472168e-01
 1.2940054096e+01	-1.4071424946e+01	-9.7250546865e-02
 1.3576450199e+01	-1.4707821049e+01	-7.6037400413e-02
 6.9296464556e+00	-8.6267027305e+00	-2.1288227737e-01
 7.5660425587e+00	-9.2630988336e+00	-1.5707087081e-01
 8.2024386618e+00	-9.8994949366e+00	-1.1077596212e-01
 8.8388347648e+00	-1.0535891040e+01	-8.2775850921e-02
 9.4752308679e+00	-1.1172287143e+01	-1.0033543200e-01
 1.0111626971e+01	-1.1808683246e+01	-1.1156297534e-01
 1.0748023074e+01	-1.2445079349e+01	-1.1637293281e-01
 1.1384419177e+01	-1.3081475452e+01	-1.1467975599e-01
 1.2020815280e+01	-1.3717871555e+01	-1.0639789617e-01
 1.2657211383e+01	-1.4354267658e+01	-9.1441804331e-02
 1.3293607486e+01	-1.4990663761e+01	-6.9725931190e-02
 6.6468037431e+00	-8.9095454430e+00	-2.0585541848e-01
 7.2831998462e+00	-9.5459415460e+00	-1.5230048611e-01
 7.9195959493e+00	-1.0182337649e+01	-1.0865406705e-01
 8.5559920523e+00	-1.0818733752e+01	-8.8426438806e-02
 9.1923881554e+00	-1.1455129855e+01	-9.4178204195e-02
 9.8287842585e+00	-1.2091525958e+01	-1.0568856805e-01
 1.0465180362e+01	-1.2727922061e+01	-1.1066054595e-01
 1.1101576465e+01	-1.3364318164e+01	-1.0900858724e-01
 1.1737972568e+01	-1.4000714267e+01	-1.0064714098e-01
 1.2374368671e+01	-1.4637110371e+01	-8.5490655942e-02
 1.3010764774e+01	-1.5273506474e+01	-6.3453580608e-02
 6.3639610307e+00	-9.1923881554e+00	-1.9683954198e-01
 7.0003571337e+00	-9.8287842585e+00	-1.4550710398e-01
 7.6367532368e+00	-1.0465180362e+01	-1.0705806882e-01
 8.2731493399e+00	-1.1101576465e+01	-9.1152086633e-02
 8.9095454429e+00	-1.1737972568e+01	-8.6930654626e-02
 9.5459415460e+00	-1.2374368671e+01	-9.8905360540e-02
 1.0182337649e+01	-1.3010764774e+01	-1.0422088108e-01
 1.0818733752e+01	-1.3647160877e+01	-1.0279166338e-01
 1.1455129855e+01	-1.4283556980e+01	-9.4532154267e-02
 1.2091525958e+01	-1.4919953083e+01	-7.9356800287e-02
 1.2727922061e+01	-1.5556349186e+01	-5.7180047695e-02
 6.0811183182e+00	-9.4752308679e+00	-1.8549049735e-01
 6.7175144213e+00	-1.0111626971e+01	-1.3634656555e-01
 7.3539105243e+00	-1.0748023074e+01	-1.0548521924e-01
 7.9903066274e+00	-1.1384419177e+01	-9.0292711294e-02
 8.6267027305e+00	-1.2020815280e+01	-8.3832020072e-02
 9.2630988335e+00	-1.2657211383e+01	-9.1173048843e-02
 9.8994949366e+00	-1.3293607486e+01	-9.7013634694e-02
 1.0535891040e+01	-1.3930003589e+01	-9.5988681339e-02
 1.1172287143e+01	-1.4566399692e+01	-8.8012633389e-02
 1.1808683246e+01	-1.5202795796e+01	-7.2999935163e-02
 1.2445079349e+01	-1.5839191899e+01	-5.0865030688e-02
 5.7982756057e+00	-9.7580735804e+00	-1.7146412550e-01
 6.4346717088e+00	-1.0394469683e+01	-1.2527908995e-01
 7.0710678119e+00	-1.1030865787e+01	-1.0006640869e-01
 7.7074639149e+00	-1.1667261890e+01	-8.5941104756e-02
 8.3438600180e+00	-1.2303657993e+01	-8.0202219239e-02
 8.9802561211e+00	-1.2940054096e+01	-8.2451328204e-02
 9.6166522241e+00	-1.3576450199e+01	-8.8998502463e-02
 1.0253048327e+01	-1.4212846302e+01	-8.8559337237e-02
 1.0889444430e+01	-1.4849242405e+01	-8.1048274909e-02
 1.1525840533e+01	-1.5485638508e+01	-6.6379757572e-02
 1.2162236636e+01	-1.6122034611e+01	-4.4468227030e-02
 5.5154328932e+00	-1.0040916293e+01	-1.5441625877e-01
 6.1518289963e+00	-1.0677312396e+01	-1.1434077831e-01
 6.7882250994e+00	-1.1313708499e+01	-9.0894429139e-02
 7.4246212025e+00	-1.1950104602e+01	-7.8190058988e-02
 8.0610173055e+00	-1.2586500705e+01	-7.3526708949e-02
 8.6974134086e+00	-1.3222896808e+01	-7.4203420115e-02
 9.3338095117e+00	-1.3859292911e+01	-8.0135179284e-02
 9.9702056147e+00	-1.4495689014e+01	-8.0463326405e-02
 1.0606601718e+01	-1.5132085117e+01	-7.3598774596e-02
 1.1242997821e+01	-1.5768481220e+01	-5.9455963725e-02
 1.1879393924e+01	-1.6404877324e+01	-3.7949333370e-02
 5.2325901808e+00	-1.0323759005e+01	-1.3400272092e-01
 5.8689862838e+00	-1.0960155108e+01	-9.9388359857e-02
 6.5053823869e+00	-1.1596551211e+01	-7.8062072552e-02
 7.1417784900e+00	-1.2232947315e+01	-6.7132365959e-02
 7.7781745931e+00	-1.2869343418e+01	-6.3898281171e-02
 8.4145706961e+00	-1.3505739521e+01	-6.5658859280e-02
 9.0509667992e+00	-1.4142135624e+01	-7.0383359255e-02
 9.6873629023e+00	-1.4778531727e+01	-7.1660343382e-02
 1.0323759005e+01	-1.5414927830e+01	-6.5623827430e-02
 1.0960155108e+01	-1.6051323933e+01	-5.2188249041e-02
 1.1596551211e+01	-1.6687720036e+01	-3.1268045567e-02
 4.9497474683e+00	-1.0606601718e+01	-1.1211926355e-01
 5.5861435714e+00	-1.1242997821e+01	-8.0514626566e-02
 6.2225396744e+00	-1.1879393924e+01	-6.1662130899e-02
 6.8589357775e+00	-1.2515790027e+01	-5.2860817636e-02
 7.4953318806e+00	-1.3152186130e+01	-5.1409727871e-02
 8.1317279837e+00	-1.3788582233e+01	-5.4607902697e-02
 8.7681240867e+00	-1.4424978336e+01	-5.9754383206e-02
 9.4045201898e+00	-1.5061374439e+01	-6.2110081913e-02
 1.0040916293e+01	-1.5697770542e+01	-5.7083127595e-02
 1.0677312396e+01	-1.6334166645e+01	-4.4536308144e-02
 1.1313708499e+01	-1.6970562749e+01	-2.4384058686e-02
-1.4142135624e+00	-4.2426406871e+00	-4.0549152623e-01
-7.7781745929e-01	-4.8790367902e+00	-3.2561792003e-01
-1.4142135623e-01	-5.5154328932e+00	-2.6117291196e-01
 4.9497474683e-01	-6.1518289963e+00	-2.1109700199e-01
 1.1313708499e+00	-6.7882250994e+00	-1.7433062782e-01
 1.7677669530e+00	-7.4246212024e+00	-1.4981416485e-01
 2.4041630560e+00	-8.0610173055e+00	-1.3648792620e-01
 3.0405591591e+00	-8.6974134086e+00	-1.2686939567e-01
 3.6769552622e+00	-9.3338095117e+00	-9.8080059197e-02
 4.3133513652e+00	-9.9702056147e+00	-9.1354145559e-02
 4.9497474683e+00	-1.0606601718e+01	-1.1211926355e-01
-1.6970562748e+00	-4.5254833996e+00	-4.1217035960e-01
-1.0606601718e+00	-5.1618795026e+00	-3.3221918935e-01
-4.2426406870e-01	-5.7982756057e+00	-2.6713505203e-01
 2.1213203436e-01	-6.4346717088e+00	-2.1585843747e-01
 8.4852813743e-01	-7.0710678119e+00	-1.7732977323e-01
 1.4849242405e+00	-7.7074639149e+00	-1.5048942459e-01
 2.1213203436e+00	-8.3438600180e+00	-1.3427769452e-01
 2.7577164466e+00	-8.9802561211e+00	-1.2763482372e-01
 3.3941125497e+00	-9.6166522241e+00	-1.0530009293e-01
 4.0305086528e+00	-1.0253048327e+01	-9.3588425094e-02
 4.6669047558e+00	-1.0889444430e+01	-1.1178464898e-01
-1.9798989873e+00	-4.8083261121e+00	-4.1436266213e-01
-1.3435028842e+00	-5.4447222151e+00	-3.3457252934e-01
-7.0710678117e-01	-6.0811183182e+00	-2.6908786536e-01
-7.0710678108e-02	-6.7175144213e+00	-2.1684914990e-01
 5.6568542496e-01	-7.3539105243e+00	-1.7679680038e-01
 1.2020815280e+00	-7.9903066274e+00	-1.4787117194e-01
 1.8384776311e+00	-8.6267027305e+00	-1.2901255744e-01
 2.4748737342e+00	-9.2630988335e+00	-1.1916118742e-01
 3.1112698372e+00	-9.8994949366e+00	-1.0865342733e-01
 3.7476659403e+00	-1.0535891040e+01	-9.2151843961e-02
 4.3840620434e+00	-1.1172287143e+01	-1.0781002302e-01
-2.2627416998e+00	-5.0911688245e+00	-4.1212491764e-01
-1.6263455967e+00	-5.7275649276e+00	-3.3273442580e-01
-9.8994949364e-01	-6.3639610307e+00	-2.6708783976e-01
-3.5355339058e-01	-7.0003571337e+00	-2.1412562909e-01
 2.8284271248e-01	-7.6367532368e+00	-1.7278820108e-01
 9.1923881555e-01	-8.2731493399e+00	-1.4201590073e-01
 1.5556349186e+00	-8.9095454429e+00	-1.2074901077e-01
 2.1920310217e+00	-9.5459415460e+00	-1.0792775161e-01
 2.8284271247e+00	-1.0182337649e+01	-1.0249228135e-01
 3.4648232278e+00	-1.0818733752e+01	-8.6915855936e-02
 4.1012193309e+00	-1.1455129855e+01	-1.0028817765e-01
-2.5455844122e+00	-5.3740115370e+00	-4.0551361108e-01
-1.9091883092e+00	-6.0104076401e+00	-3.2676136568e-01
-1.2727922061e+00	-6.6468037431e+00	-2.6119146417e-01
-6.3639610305e-01	-7.2831998462e+00	-2.0774436598e-01
 9.9993208158e-12	-7.9195959493e+00	-1.6536046827e-01
 6.3639610307e-01	-8.5559920523e+00	-1.3298010590e-01
 1.2727922061e+00	-9.1923881554e+00	-1.0954355146e-01
 1.9091883092e+00	-9.8287842585e+00	-9.3991015228e-02
 2.5455844123e+00	-1.0465180362e+01	-8.4349671669e-02
 3.1819805153e+00	-1.1101576465e+01	-7.7878720816e-02
 3.8183766184e+00	-1.1737972568e+01	-8.9311904820e-02
-2.8284271247e+00	-5.6568542495e+00	-3.9458522851e-01
-2.1920310217e+00	-6.2932503526e+00	-3.1670983706e-01
-1.5556349186e+00	-6.9296464556e+00	-2.5145522867e-01
-9.1923881553e-01	-7.5660425587e+00	-1.9776185265e-01
-2.8284271246e-01	-8.2024386618e+00	-1.5457009601e-01
 3.5355339060e-01	-8.8388347648e+00	-1.2082028351e-01
 9.8994949367e-01	-9.4752308679e+00	-9.5452677575e-02
 1.6263455967e+00	-1.0111626971e+01	-7.7407478356e-02
 2.2627416998e+00	-1.0748023074e+01	-6.2989316400e-02
 2.8991378029e+00	-1.1384419177e+01	-6.3990749668e-02
 3.5355339059e+00	-1.2020815280e+01	-7.4973996509e-02
-3.1112698372e+00	-5.9396969620e+00	-3.9345935877e-01
-2.4748737341e+00	-6.5760930650e+00	-3.0263632912e-01
-1.8384776311e+00	-7.2124891681e+00	-2.3793562444e-01
-1.2020815280e+00	-7.8488852712e+00	-1.8423458228e-01
-5.6568542494e-01	-8.4852813742e+00	-1.4047357952e-01
 7.0710678124e-02	-9.1216774773e+00	-1.0559293076e-01
 7.0710678119e-01	-9.7580735804e+00	-7.8532888312e-02
 1.3435028843e+00	-1.0394469683e+01	-5.7456024808e-02
 1.9798989873e+00	-1.1030865786e+01	-3.9875379258e-02
 2.6162950904e+00	-1.1667261890e+01	-4.1027884097e-02
 3.2526911935e+00	-1.2303657993e+01	-5.7367244681e-02
-3.3941125497e+00	-6.2225396745e+00	-3.9795716133e-01
-2.7577164466e+00	-6.8589357775e+00	-2.8459733218e-01
-2.1213203435e+00	-7.4953318806e+00	-2.2068914382e-01
-1.4849242405e+00	-8.1317279836e+00	-1.6721904920e-01
-8.4852813742e-01	-8.7681240867e+00	-1.2312741510e-01
-2.1213203435e-01	-9.4045201898e+00	-8.7354545971e-02
 4.2426406871e-01	-1.0040916293e+01	-5.8840683994e-02
 1.0606601718e+00	-1.0677312396e+01	-3.1804506138e-02
 1.6970562748e+00	-1.1313708499e+01	-1.5086265951e-02
 2.3334523779e+00	-1.1950104602e+01	-1.6502703117e-02
 2.9698484810e+00	-1.2586500705e+01	-3.6584441307e-02
-3.6769552621e+00	-6.5053823869e+00	-3.9888003375e-01
-3.0405591591e+00	-7.1417784900e+00	-2.7122357594e-01
-2.4041630560e+00	-7.7781745931e+00	-1.9977228024e-01
-1.7677669530e+00	-8.4145706961e+00	-1.4677174886e-01
-1.1313708499e+00	-9.0509667992e+00	-1.0258810020e-01
-4.9497474683e-01	-9.6873629023e+00	-6.6161628595e-02
 1.4142135624e-01	-1.0323759005e+01	-3.6432566071e-02
 7.7781745930e-01	-1.0960155108e+01	-4.4433562549e-03
 1.4142135624e+00	-1.1596551211e+01	 1.1299617813e-02
 2.0506096654e+00	-1.2232947315e+01	 9.5063875666e-03
 2.6870057685e+00	-1.2869343418e+01	-1.0673819944e-02
-3.9597979746e+00	-6.7882250994e+00	-3.9616742647e-01
-3.3234018716e+00	-7.4246212025e+00	-2.7003657828e-01
-2.6870057685e+00	-8.0610173055e+00	-1.7524152828e-01
-2.0506096654e+00	-8.6974134086e+00	-1.2294917784e-01
-1.4142135624e+00	-9.3338095117e+00	-7.8912133414e-02
-7.7781745931e-01	-9.9702056147e+00	-4.2070679208e-02
-1.4142135624e-01	-1.0606601718e+01	-6.1927863885e-03
 4.9497474682e-01	-1.1242997821e+01	 2.4549019135e-02
 1.1313708499e+00	-1.1879393924e+01	 3.9203866330e-02
 1.7677669530e+00	-1.2515790027e+01	 3.6920982245e-02
 2.4041630560e+00	-1.3152186130e+01	 1.6849593934e-02
-4.2426406871e+00	-7.0710678119e+00	-3.8975878780e-01
-3.6062445840e+00	-7.7074639150e+00	-2.6536480362e-01
-2.9698484810e+00	-8.3438600180e+00	-1.4969782682e-01
-2.3334523779e+00	-8.9802561211e+00	-9.5807833832e-02
-1.6970562749e+00	-9.6166522241e+00	-5.2156014430e-02
-1.0606601718e+00	-1.0253048327e+01	-1.5138199513e-02
-4.2426406872e-01	-1.0889444430e+01	 2.6151869469e-02
 2.1213203434e-01	-1.1525840533e+01	 5.5094214326e-02
 8.4852813741e-01	-1.2162236636e+01	 6.8548073890e-02
 1.4849242405e+00	-1.2798632739e+01	 6.5662675213e-02
 2.1213203435e+00	-1.3435028843e+01	 4.5587245346e-02
 4.9497474683e+00	-1.0606601718e+01	-1.1211926355e-01
 5.5861435714e+00	-1.1242997821e+01	-8.0514626566e-02
 6.2225396744e+00	-1.1879393924e+01	-6.1662130899e-02
 6.8589357775e+00	-1.2515790027e+01	-5.2860817636e-02
 7.4953318806e+00	-1.3152186130e+01	-5.1409727871e-02
 8.1317279837e+00	-1.3788582233e+01	-5.4607902697e-02
 8.7681240867e+00	-1.4424978336e+01	-5.9754383206e-02
 9.4045201898e+00	-1.5061374439e+01	-6.2110081913e-02
 1.0040916293e+01	-1.5697770542e+01	-5.7083127595e-02
 1.0677312396e+01	-1.6334166645e+01	-4.4536308144e-02
 1.1313708499e+01	-1.6970562749e+01	-2.4384058686e-02
 4.6669047558e+00	-1.0889444430e+01	-1.1178464898e-01
 5.3033008589e+00	-1.1525840533e+01	-8.0803662221e-02
 5.9396969620e+00	-1.2162236636e+01	-6.2247480322e-02
 6.5760930650e+00	-1.2798632739e+01	-5.3415144375e-02
 7.2124891681e+00	-1.3435028843e+01	-5.1605695472e-02
 7.8488852712e+00	-1.4071424946e+01	-5.4118174707e-02
 8.4852813742e+00	-1.4707821049e+01	-5.8251623173e-02
 9.1216774773e+00	-1.5344217152e+01	-5.9847208727e-02
 9.7580735804e+00	-1.5980613255e+01	-5.3588505744e-02
 1.0394469683e+01	-1.6617009358e+01	-3.9707197463e-02
 1.1030865787e+01	-1.7253405461e+01	-1.7896305197e-02
 4.3840620434e+00	-1.1172287143e+01	-1.0781002302e-01
 5.0204581464e+00	-1.1808683246e+01	-7.7933601289e-02
 5.6568542495e+00	-1.2445079349e+01	-6.0154647960e-02
 6.2932503526e+00	-1.3081475452e+01	-5.1772204130e-02
 6.9296464556e+00	-1.3717871555e+01	-5.0085310893e-02
 7.5660425587e+00	-1.4354267658e+01	-5.2393009339e-02
 8.2024386618e+00	-1.4990663761e+01	-5.5994340564e-02
 8.8388347648e+00	-1.5627059864e+01	-5.8096186698e-02
 9.4752308679e+00	-1.6263455967e+01	-5.0914446735e-02
 1.0111626971e+01	-1.6899852070e+01	-3.6007361989e-02
 1.0748023074e+01	-1.7536248173e+01	-7.8087514544e-03
 4.1012193309e+00	-1.1455129855e+01	-1.0028817765e-01
 4.7376154340e+00	-1.2091525958e+01	-7.1997235739e-02
 5.3740115370e+00	-1.2727922061e+01	-5.5476425782e-02
 6.0104076401e+00	-1.3364318164e+01	-4.8024788872e-02
 6.6468037432e+00	-1.4000714267e+01	-4.6941366101e-02
 7.2831998462e+00	-1.4637110371e+01	-4.9525198561e-02
 7.9195959493e+00	-1.5273506474e+01	-5.3075327347e-02
 8.5559920524e+00	-1.5909902577e+01	-5.4890793551e-02
 9.1923881554e+00	-1.6546298680e+01	-4.9020642374e-02
 9.8287842585e+00	-1.7182694783e+01	-3.3396493967e-02
 1.0465180362e+01	-1.7819090886e+01	 5.1853508395e-04
 3.8183766184e+00	-1.1737972568e+01	-8.9311904820e-02
 4.4547727215e+00	-1.2374368671e+01	-6.3087357538e-02
 5.0911688246e+00	-1.3010764774e+01	-4.8305605756e-02
 5.7275649276e+00	-1.3647160877e+01	-4.2265690567e-02
 6.3639610307e+00	-1.4283556980e+01	-4.2266653065e-02
 7.0003571338e+00	-1.4919953083e+01	-4.5607534341e-02
 7.6367532368e+00	-1.5556349186e+01	-4.9587375490e-02
 8.2731493399e+00	-1.6192745289e+01	-5.1505217604e-02
 8.9095454430e+00	-1.6829141392e+01	-4.7866783675e-02
 9.5459415460e+00	-1.7465537495e+01	-2.7442424510e-02
 1.0182337649e+01	-1.8101933598e+01	 7.0845345253e-03
 3.5355339059e+00	-1.2020815280e+01	-7.4973996509e-02
 4.1719300090e+00	-1.2657211383e+01	-5.1296758656e-02
 4.8083261121e+00	-1.3293607486e+01	-3.8734979850e-02
 5.4447222151e+00	-1.3930003589e+01	-3.4587701185e-02
 6.0811183182e+00	-1.4566399692e+01	-3.6153963753e-02
 6.7175144213e+00	-1.5202795796e+01	-4.0732808648e-02
 7.3539105243e+00	-1.5839191899e+01	-4.5623276962e-02
 7.9903066274e+00	-1.6475588002e+01	-4.8124409788e-02
 8.6267027305e+00	-1.7111984105e+01	-4.5535248219e-02
 9.2630988335e+00	-1.7748380208e+01	-2.1767381749e-02
 9.8994949366e+00	-1.8384776311e+01	 1.1888227383e-02
 3.2526911935e+00	-1.2303657993e+01	-5.7367244681e-02
 3.8890872965e+00	-1.2940054096e+01	-3.6718231060e-02
 4.5254833996e+00	-1.3576450199e+01	-2.6857340033e-02
 5.1618795027e+00	-1.4212846302e+01	-2.5083612694e-02
 5.7982756057e+00	-1.4849242405e+01	-2.8696090135e-02
 6.4346717088e+00	-1.5485638508e+01	-3.4993813449e-02
 7.0710678119e+00	-1.6122034611e+01	-4.1275823730e-02
 7.7074639149e+00	-1.6758430714e+01	-4.4841162070e-02
 8.3438600180e+00	-1.7394826817e+01	-3.9971114035e-02
 8.9802561211e+00	-1.8031222920e+01	-1.7582255844e-02
 9.6166522241e+00	-1.8667619023e+01	 1.4928594575e-02
 2.9698484810e+00	-1.2586500705e+01	-3.6584441307e-02
 3.6062445841e+00	-1.3222896808e+01	-1.9444566719e-02
 4.2426406871e+00	-1.3859292911e+01	-1.2765478273e-02
 4.8790367902e+00	-1.4495689014e+01	-1.3846217061e-02
 5.5154328933e+00	-1.5132085117e+01	-1.9985824177e-02
 6.1518289963e+00	-1.5768481220e+01	-2.8483340713e-02
 6.7882250994e+00	-1.6404877324e+01	-3.6637807764e-02
 7.4246212025e+00	-1.7041273427e+01	-4.1748266420e-02
 8.0610173055e+00	-1.7677669530e+01	-3.2891053513e-02
 8.6974134086e+00	-1.8314065633e+01	-1.3715976763e-02
 9.3338095116e+00	-1.8950461736e+01	 1.6204617427e-02
 2.6870057685e+00	-1.2869343418e+01	-1.0673819944e-02
 3.3234018716e+00	-1.3505739521e+01	 4.3144239917e-04
 3.9597979746e+00	-1.4142135624e+01	 3.4478134628e-03
 4.5961940777e+00	-1.4778531727e+01	-9.6830625546e-04
 5.2325901808e+00	-1.5414927830e+01	-1.0115957848e-02
 5.8689862838e+00	-1.6051323933e+01	-2.1294182409e-02
 6.5053823869e+00	-1.6687720036e+01	-3.1802021031e-02
 7.1417784900e+00	-1.7324116139e+01	-3.7443786398e-02
 7.7781745930e+00	-1.7960512242e+01	-2.6993816646e-02
 8.4145706961e+00	-1.8596908345e+01	-9.8806090526e-03
 9.0509667992e+00	-1.9233304448e+01	 1.5715277671e-02
 2.4041630560e+00	-1.3152186130e+01	 1.6849593934e-02
 3.0405591591e+00	-1.3788582233e+01	 2.2817004326e-02
 3.6769552622e+00	-1.4424978336e+01	 2.1689743205e-02
 4.3133513652e+00	-1.5061374439e+01	 1.3457327754e-02
 4.9497474683e+00	-1.5697770542e+01	 8.2071688239e-04
 5.5861435714e+00	-1.6334166645e+01	-1.3519130505e-02
 6.2225396744e+00	-1.6970562748e+01	-2.6861255499e-02
 6.8589357775e+00	-1.7606958852e+01	-3.0195071062e-02
 7.4953318806e+00	-1.8243354955e+01	-2.2290781525e-02
 8.1317279836e+00	-1.8879751058e+01	-7.5332999688e-03
 8.7681240867e+00	-1.9516147161e+01	 1.3937419842e-02
 2.1213203435e+00	-1.3435028843e+01	 4.5587245346e-02
 2.7577164466e+00	-1.4071424946e+01	 4.6869327804e-02
 3.3941125497e+00	-1.4707821049e+01	 4.1867518985e-02
 4.0305086528e+00	-1.5344217152e+01	 2.9337893000e-02
 4.6669047558e+00	-1.5980613255e+01	 1.2731408047e-02
 5.3033008589e+00	-1.6617009358e+01	-5.2509769679e-03
 5.9396969620e+00	-1.7253405461e+01	-2.1739721823e-02
 6.5760930650e+00	-1.7889801564e+01	-2.3858078975e-02
 7.2124891681e+00	-1.8526197667e+01	-1.8793325834e-02
 7.8488852711e+00	-1.9162593770e+01	-6.6854272060e-03
 8.4852813742e+00	-1.9798989873e+01	 1.2325663206e-02
-4.2426406871e+00	-7.0710678119e+00	-2.5210098981e-01
-3.6062445840e+00	-7.7074639150e+00	-1.6799684170e-01
-2.9698484810e+00	-8.3438600180e+00	-8.7532177981e-02
-2.3334523779e+00	-8.9802561211e+00	-6.3756975067e-02
-1.6970562749e+00	-9.6166522241e+00	-4.5132422740e-02
-1.0606601718e+00	-1.0253048327e+01	-2.8054351897e-02
-4.2426406872e-01	-1.0889444430e+01	-1.6165039871e-03
 2.1213203434e-01	-1.1525840533e+01	 1.7561142799e-02
 8.4852813741e-01	-1.2162236636e+01	 2.6337827293e-02
 1.4849242405e+00	-1.2798632739e+01	 2.3862776547e-02
 2.1213203435e+00	-1.3435028843e+01	 9.2852176119e-03
-4.3840620433e+00	-7.2124891681e+00	-2.2705389893e-01
-3.7476659403e+00	-7.8488852712e+00	-1.5194322746e-01
-3.1112698372e+00	-8.4852813743e+00	-7.9222133209e-02
-2.4748737342e+00	-9.1216774773e+00	-4.9455391538e-02
-1.8384776311e+00	-9.7580735804e+00	-3.5955095934e-02
-1.2020815280e+00	-1.0394469683e+01	-2.1443000393e-02
-5.6568542496e-01	-1.1030865787e+01	 3.3371609484e-03
 7.0710678104e-02	-1.1667261890e+01	 1.9934257283e-02
 7.0710678117e-01	-1.2303657993e+01	 2.7497515664e-02
 1.3435028842e+00	-1.2940054096e+01	 2.5176163141e-02
 1.9798989873e+00	-1.3576450199e+01	 1.2119426766e-02
-4.5254833996e+00	-7.3539105244e+00	-1.9817060861e-01
-3.8890872965e+00	-7.9903066274e+00	-1.3251751663e-01
-3.2526911935e+00	-8.6267027305e+00	-6.8004095583e-02
-2.6162950904e+00	-9.2630988336e+00	-3.2689686002e-02
-1.9798989873e+00	-9.8994949366e+00	-2.4784592346e-02
-1.3435028843e+00	-1.0535891040e+01	-1.1293390127e-02
-7.0710678120e-01	-1.1172287143e+01	 9.0995919585e-03
-7.0710678136e-02	-1.1808683246e+01	 2.2676633375e-02
 5.6568542493e-01	-1.2445079349e+01	 2.8586961175e-02
 1.2020815280e+00	-1.3081475452e+01	 2.5979802408e-02
 1.8384776311e+00	-1.3717871555e+01	 1.4004384125e-02
-4.6669047558e+00	-7.4953318806e+00	-1.6544354928e-01
-4.0305086528e+00	-8.1317279837e+00	-1.0971213963e-01
-3.3941125497e+00	-8.7681240867e+00	-5.3870495529e-02
-2.7577164466e+00	-9.4045201898e+00	-1.3466920989e-02
-2.1213203436e+00	-1.0040916293e+01	-1.1627974757e-02
-1.4849242405e+00	-1.0677312396e+01	 9.4689966558e-05
-8.4852813744e-01	-1.1313708499e+01	 1.5660988330e-02
-2.1213203438e-01	-1.1950104602e+01	 2.5778470361e-02
 4.2426406869e-01	-1.2586500705e+01	 2.9596363112e-02
 1.0606601718e+00	-1.3222896808e+01	 2.6263893634e-02
 1.6970562748e+00	-1.3859292911e+01	 1.4930288978e-02
-4.8083261121e+00	-7.6367532368e+00	-1.2886515124e-01
-4.1719300090e+00	-8.2731493399e+00	-8.3519526776e-02
-3.5355339059e+00	-8.9095454430e+00	-3.6813763335e-02
-2.8991378029e+00	-9.5459415460e+00	 8.2058409008e-03
-2.2627416998e+00	-1.0182337649e+01	 3.5076939832e-03
-1.6263455967e+00	-1.0818733752e+01	 1.2711439175e-02
-9.8994949368e-01	-1.1455129855e+01	 2.3011549349e-02
-3.5355339062e-01	-1.2091525958e+01	 2.9229967528e-02
 2.8284271245e-01	-1.2727922061e+01	 3.0515920764e-02
 9.1923881552e-01	-1.3364318164e+01	 2.6018636107e-02
 1.5556349186e+00	-1.4000714268e+01	 1.4887340610e-02
-4.9497474683e+00	-7.7781745931e+00	-8.8427844658e-02
-4.3133513652e+00	-8.4145706961e+00	-5.3932108218e-02
-3.6769552622e+00	-9.0509667992e+00	-1.6826329158e-02
-3.0405591591e+00	-9.6873629023e+00	 2.3533547310e-02
-2.4041630561e+00	-1.0323759005e+01	 2.0615350954e-02
-1.7677669530e+00	-1.0960155108e+01	 2.6547056786e-02
-1.1313708499e+00	-1.1596551211e+01	 3.1141474303e-02
-4.9497474686e-01	-1.2232947315e+01	 3.3021324162e-02
 1.4142135621e-01	-1.2869343418e+01	 3.1335833416e-02
 7.7781745928e-01	-1.3505739521e+01	 2.5234229114e-02
 1.4142135624e+00	-1.4142135624e+01	 1.3865738308e-02
-5.0911688245e+00	-7.9195959493e+00	-4.4124059578e-02
-4.4547727215e+00	-8.5559920524e+00	-2.0942313990e-02
-3.8183766184e+00	-9.1923881554e+00	 6.0993769786e-03
-3.1819805154e+00	-9.8287842585e+00	 3.7645067979e-02
-2.5455844123e+00	-1.0465180362e+01	 4.2645851319e-02
-1.9091883092e+00	-1.1101576465e+01	 4.1591742084e-02
-1.2727922062e+00	-1.1737972568e+01	 4.0040962478e-02
-6.3639610310e-01	-1.2374368671e+01	 3.7142739551e-02
-2.8000601837e-11	-1.3010764774e+01	 3.2046300354e-02
 6.3639610304e-01	-1.3647160877e+01	 2.3900871940e-02
 1.2727922061e+00	-1.4283556980e+01	 1.1855681358e-02
-5.2325901808e+00	-8.0610173055e+00	 4.0537740999e-03
-4.5961940777e+00	-8.6974134086e+00	 1.5457426014e-02
-3.9597979747e+00	-9.3338095117e+00	 3.1970925187e-02
-3.3234018716e+00	-9.9702056147e+00	 5.4238326135e-02
-2.6870057685e+00	-1.0606601718e+01	 6.6841629521e-02
-2.0506096655e+00	-1.1242997821e+01	 5.7835694358e-02
-1.4142135624e+00	-1.1879393924e+01	 4.9700213160e-02
-7.7781745934e-01	-1.2515790027e+01	 4.1584412979e-02
-1.4142135627e-01	-1.3152186130e+01	 3.2637520866e-02
 4.9497474680e-01	-1.3788582233e+01	 2.2008763872e-02
 1.1313708499e+00	-1.4424978336e+01	 8.8473690484e-03
-5.3740115370e+00	-8.2024386618e+00	 5.6113226607e-02
-4.7376154340e+00	-8.8388347648e+00	 5.5274682031e-02
-4.1012193309e+00	-9.4752308679e+00	 6.0795885710e-02
-3.4648232278e+00	-1.0111626971e+01	 7.3320892028e-02
-2.8284271248e+00	-1.0748023074e+01	 9.2666378451e-02
-2.1920310217e+00	-1.1384419177e+01	 7.5269112893e-02
-1.5556349186e+00	-1.2020815280e+01	 6.0109425637e-02
-9.1923881558e-01	-1.2657211383e+01	 4.6336543736e-02
-2.8284271251e-01	-1.3293607486e+01	 3.3099694239e-02
 3.5355339056e-01	-1.3930003589e+01	 1.9548104198e-02
 9.8994949363e-01	-1.4566399692e+01	 4.8310006643e-03
-5.5154328933e+00	-8.3438600180e+00	 1.1206186831e-01
-4.8790367902e+00	-8.9802561211e+00	 9.8517024431e-02
-4.2426406871e+00	-9.6166522241e+00	 9.2581828927e-02
-3.6062445841e+00	-1.0253048327e+01	 9.4900336042e-02
-2.9698484810e+00	-1.0889444430e+01	 1.1760259021e-01
-2.3334523779e+00	-1.1525840533e+01	 9.3882196976e-02
-1.6970562749e+00	-1.2162236636e+01	 7.1258799195e-02
-1.0606601718e+00	-1.2798632739e+01	 5.1389331106e-02
-4.2426406875e-01	-1.3435028843e+01	 3.3423019758e-02
 2.1213203432e-01	-1.4071424946e+01	 1.6509092203e-02
 8.4852813739e-01	-1.4707821049e+01	-2.0322450714e-04
-5.6568542495e+00	-8.4852813742e+00	 1.7190726970e-01
-5.0204581464e+00	-9.1216774773e+00	 1.4519202372e-01
-4.3840620434e+00	-9.7580735804e+00	 1.2733632535e-01
-3.7476659403e+00	-1.0394469683e+01	 1.2018196712e-01
-3.1112698373e+00	-1.1030865787e+01	 1.3446418363e-01
-2.4748737342e+00	-1.1667261890e+01	 1.1366514589e-01
-1.8384776311e+00	-1.2303657993e+01	 8.3138533121e-02
-1.2020815281e+00	-1.2940054096e+01	 5.6732974376e-02
-5.6568542499e-01	-1.3576450199e+01	 3.3597696711e-02
 7.0710678080e-02	-1.4212846302e+01	 1.2881927175e-02
 7.0710678115e-01	-1.4849242405e+01	-6.2651071794e-03
 2.1213203435e+00	-1.3435028843e+01	 9.2852176119e-03
 2.7577164466e+00	-1.4071424946e+01	 1.8167789537e-02
 3.3941125497e+00	-1.4707821049e+01	 1.9884184253e-02
 4.0305086528e+00	-1.5344217152e+01	 1.3190475872e-02
 4.6669047558e+00	-1.5980613255e+01	 1.5376225909e-03
 5.3033008589e+00	-1.6617009358e+01	-1.2373416684e-02
 5.9396969620e+00	-1.7253405461e+01	-2.5673101732e-02
 6.5760930650e+00	-1.7889801564e+01	-2.5484685007e-02
 7.2124891681e+00	-1.8526197667e+01	-1.8995443922e-02
 7.8488852711e+00	-1.9162593770e+01	-6.3453432823e-03
 8.4852813742e+00	-1.9798989873e+01	 1.2325663210e-02
 1.9798989873e+00	-1.3576450199e+01	 1.2119426766e-02
 2.6162950904e+00	-1.4212846302e+01	 2.2032772885e-02
 3.2526911934e+00	-1.4849242405e+01	 2.5286868056e-02
 3.8890872965e+00	-1.5485638508e+01	 1.8800028344e-02
 4.5254833996e+00	-1.6122034611e+01	 7.0141549538e-03
 5.1618795027e+00	-1.6758430714e+01	-7.3697932066e-03
 5.7982756057e+00	-1.7394826817e+01	-1.9486339548e-02
 6.4346717088e+00	-1.8031222920e+01	-2.0401274555e-02
 7.0710678119e+00	-1.8667619023e+01	-1.5423965769e-02
 7.7074639149e+00	-1.9304015126e+01	-4.6943779643e-03
 8.3438600180e+00	-1.9940411229e+01	 1.1647535186e-02
 1.8384776311e+00	-1.3717871555e+01	 1.4004384125e-02
 2.4748737341e+00	-1.4354267658e+01	 2.5093947981e-02
 3.1112698372e+00	-1.4990663761e+01	 3.0329722382e-02
 3.7476659403e+00	-1.5627059864e+01	 2.4136730157e-02
 4.3840620433e+00	-1.6263455967e+01	 1.2304815478e-02
 5.0204581464e+00	-1.6899852070e+01	-2.4650627481e-03
 5.6568542495e+00	-1.7536248173e+01	-1.3438474666e-02
 6.2932503526e+00	-1.8172644276e+01	-1.5323017754e-02
 6.9296464556e+00	-1.8809040380e+01	-1.1723897797e-02
 7.5660425587e+00	-1.9445436483e+01	-2.7810795361e-03
 8.2024386618e+00	-2.0081832586e+01	 1.1365483386e-02
 1.6970562748e+00	-1.3859292911e+01	 1.4930288978e-02
 2.3334523779e+00	-1.4495689014e+01	 2.7341514110e-02
 2.9698484810e+00	-1.5132085117e+01	 3.5001148236e-02
 3.6062445840e+00	-1.5768481220e+01	 2.9188982318e-02
 4.2426406871e+00	-1.6404877324e+01	 1.7398005169e-02
 4.8790367902e+00	-1.7041273427e+01	 2.3291756952e-03
 5.5154328933e+00	-1.7677669530e+01	-7.5309291746e-03
 6.1518289963e+00	-1.8314065633e+01	-1.0251336699e-02
 6.7882250994e+00	-1.8950461736e+01	-7.8966621013e-03
 7.4246212025e+00	-1.9586857839e+01	-6.0687009389e-04
 8.0610173055e+00	-2.0223253942e+01	 1.1478085713e-02
 1.5556349186e+00	-1.4000714268e+01	 1.4887340610e-02
 2.1920310217e+00	-1.4637110371e+01	 2.8765670559e-02
 2.8284271247e+00	-1.5273506474e+01	 3.7874170584e-02
 3.4648232278e+00	-1.5909902577e+01	 3.3945185829e-02
 4.1012193309e+00	-1.6546298680e+01	 2.2282125029e-02
 4.7376154339e+00	-1.7182694783e+01	 7.0013231272e-03
 5.3740115370e+00	-1.7819090886e+01	-1.7651251414e-03
 6.0104076401e+00	-1.8455486989e+01	-5.1876534560e-03
 6.6468037432e+00	-1.9091883092e+01	-3.9436807511e-03
 7.2831998462e+00	-1.9728279195e+01	 1.8268282921e-03
 7.9195959493e+00	-2.0364675298e+01	 1.1983920094e-02
 1.4142135624e+00	-1.4142135624e+01	 1.3865738308e-02
 2.0506096654e+00	-1.4778531727e+01	 2.9356616616e-02
 2.6870057685e+00	-1.5414927830e+01	 3.9725637814e-02
 3.3234018716e+00	-1.6051323933e+01	 3.8393741694e-02
 3.9597979746e+00	-1.6687720036e+01	 2.6945576062e-02
 4.5961940777e+00	-1.7324116139e+01	 1.2246316347e-02
 5.2325901808e+00	-1.7960512242e+01	 3.8575153941e-03
 5.8689862839e+00	-1.8596908345e+01	-1.3339006697e-04
 6.5053823869e+00	-1.9233304448e+01	 1.3362421071e-04
 7.1417784900e+00	-1.9869700551e+01	 4.5185935770e-03
 7.7781745931e+00	-2.0506096654e+01	 1.2881564483e-02
 1.2727922061e+00	-1.4283556980e+01	 1.1855681358e-02
 1.9091883092e+00	-1.4919953083e+01	 2.9104551566e-02
 2.5455844123e+00	-1.5556349186e+01	 4.0879537479e-02
 3.1819805153e+00	-1.6192745289e+01	 4.2523050918e-02
 3.8183766184e+00	-1.6829141392e+01	 3.1376759273e-02
 4.4547727215e+00	-1.7465537495e+01	 1.7750423385e-02
 5.0911688245e+00	-1.8101933598e+01	 9.3355704176e-03
 5.7275649276e+00	-1.8738329701e+01	 4.9100314522e-03
 6.3639610307e+00	-1.9374725805e+01	 4.3338307667e-03
 7.0003571338e+00	-2.0011121908e+01	 7.4670037420e-03
 7.6367532368e+00	-2.0647518011e+01	 1.4169596861e-02
 1.1313708499e+00	-1.4424978336e+01	 8.8473690484e-03
 1.7677669529e+00	-1.5061374439e+01	 2.7999674697e-02
 2.4041630560e+00	-1.5697770542e+01	 4.1326068866e-02
 3.0405591591e+00	-1.6334166645e+01	 4.6321514505e-02
 3.6769552622e+00	-1.6970562749e+01	 3.5564075666e-02
 4.3133513652e+00	-1.7606958852e+01	 2.2974779103e-02
 4.9497474683e+00	-1.8243354955e+01	 1.4667617940e-02
 5.5861435714e+00	-1.8879751058e+01	 9.9411891112e-03
 6.2225396745e+00	-1.9516147161e+01	 8.6555169250e-03
 6.8589357775e+00	-2.0152543264e+01	 1.0670636794e-02
 7.4953318806e+00	-2.0788939367e+01	 1.5846595231e-02
 9.8994949363e-01	-1.4566399692e+01	 4.8310006643e-03
 1.6263455967e+00	-1.5202795796e+01	 2.6032185294e-02
 2.2627416998e+00	-1.5839191899e+01	 4.1055431260e-02
 2.8991378028e+00	-1.6475588002e+01	 4.9049965612e-02
 3.5355339059e+00	-1.7111984105e+01	 3.9495926243e-02
 4.1719300090e+00	-1.7748380208e+01	 2.7917961540e-02
 4.8083261121e+00	-1.8384776311e+01	 1.9852235999e-02
 5.4447222151e+00	-1.9021172414e+01	 1.4958660946e-02
 6.0811183182e+00	-1.9657568517e+01	 1.3097260720e-02
 6.7175144213e+00	-2.0293964620e+01	 1.4128070765e-02
 7.3539105244e+00	-2.0930360723e+01	 1.7911137625e-02
 8.4852813739e-01	-1.4707821049e+01	-2.0322450714e-04
 1.4849242405e+00	-1.5344217152e+01	 2.3192282645e-02
 2.1213203435e+00	-1.5980613255e+01	 4.0057823949e-02
 2.7577164466e+00	-1.6617009358e+01	 4.9542626454e-02
 3.3941125497e+00	-1.7253405461e+01	 4.3172650059e-02
 4.0305086528e+00	-1.7889801564e+01	 3.2578548761e-02
 4.6669047558e+00	-1.8526197667e+01	 2.4888002658e-02
 5.3033008589e+00	-1.9162593770e+01	 1.9961025017e-02
 5.9396969620e+00	-1.9798989873e+01	 1.7657640211e-02
 6.5760930651e+00	-2.0435385976e+01	 1.7837883713e-02
 7.2124891681e+00	-2.1071782079e+01	 2.0361802100e-02
 7.0710678115e-01	-1.4849242405e+01	-6.2651071794e-03
 1.3435028842e+00	-1.5485638508e+01	 1.9470166037e-02
 1.9798989873e+00	-1.6122034611e+01	 3.8323446219e-02
 2.6162950904e+00	-1.6758430714e+01	 4.9443960418e-02
 3.2526911934e+00	-1.7394826817e+01	 4.6631714668e-02
 3.8890872965e+00	-1.8031222920e+01	 3.6955118855e-02
 4.5254833996e+00	-1.8667619023e+01	 2.9773496004e-02
 5.1618795027e+00	-1.9304015126e+01	 2.4946859412e-02
 5.7982756057e+00	-1.9940411229e+01	 2.2335233483e-02
 6.4346717088e+00	-2.0576807333e+01	 2.1798653722e-02
 7.0710678119e+00	-2.1213203436e+01	 2.3197166737e-02
-5.6568542495e+00	-8.4852813742e+00	 6.6580513453e-02
-5.0204581464e+00	-9.1216774773e+00	 6.2385936930e-02
-4.3840620434e+00	-9.7580735804e+00	 6.4480075195e-02
-3.7476659403e+00	-1.0394469683e+01	 7.4704720784e-02
-3.1112698373e+00	-1.1030865787e+01	 1.0379510830e-01
-2.4748737342e+00	-1.1667261890e+01	 9.5233408748e-02
-1.8384776311e+00	-1.2303657993e+01	 7.4373301343e-02
-1.2020815281e+00	-1.2940054096e+01	 5.5063415149e-02
-5.6568542499e-01	-1.3576450199e+01	 3.6452977218e-02
 7.0710678080e-02	-1.4212846302e+01	 1.7691214600e-02
 7.0710678115e-01	-1.4849242405e+01	-2.0726456532e-03
-5.7982756057e+00	-8.6267027304e+00	 7.6483682019e-02
-5.1618795027e+00	-9.2630988335e+00	 7.2102753137e-02
-4.5254833996e+00	-9.8994949366e+00	 7.3657346496e-02
-3.8890872965e+00	-1.0535891040e+01	 8.6136922605e-02
-3.2526911935e+00	-1.1172287143e+01	 1.1271530077e-01
-2.6162950904e+00	-1.1808683246e+01	 1.1353971230e-01
-1.9798989873e+00	-1.2445079349e+01	 8.9769583463e-02
-1.3435028843e+00	-1.3081475452e+01	 6.7313709267e-02
-7.0710678122e-01	-1.3717871555e+01	 4.5321316768e-02
-7.0710678148e-02	-1.4354267658e+01	 2.2941633017e-02
 5.6568542492e-01	-1.4990663761e+01	-6.7611493623e-04
-5.9396969620e+00	-8.7681240867e+00	 8.1476443995e-02
-5.3033008589e+00	-9.4045201898e+00	 7.7463132767e-02
-4.6669047558e+00	-1.0040916293e+01	 7.9032150348e-02
-4.0305086528e+00	-1.0677312396e+01	 9.3982425930e-02
-3.3941125497e+00	-1.1313708499e+01	 1.1862676792e-01
-2.7577164466e+00	-1.1950104602e+01	 1.2926433559e-01
-2.1213203436e+00	-1.2586500705e+01	 1.0316275364e-01
-1.4849242405e+00	-1.3222896808e+01	 7.8139459779e-02
-8.4852813744e-01	-1.3859292911e+01	 5.3343681044e-02
-2.1213203438e-01	-1.4495689014e+01	 2.7924644491e-02
 4.2426406869e-01	-1.5132085117e+01	 1.0315771715e-03
-6.0811183182e+00	-8.9095454429e+00	 8.1566370282e-02
-5.4447222152e+00	-9.5459415460e+00	 7.8474646723e-02
-4.8083261121e+00	-1.0182337649e+01	 8.0612057663e-02
-4.1719300090e+00	-1.0818733752e+01	 9.8251424442e-02
-3.5355339059e+00	-1.1455129855e+01	 1.2153970341e-01
-2.8991378029e+00	-1.2091525958e+01	 1.4239747789e-01
-2.2627416998e+00	-1.2727922061e+01	 1.1454301117e-01
-1.6263455967e+00	-1.3364318164e+01	 8.7530865970e-02
-9.8994949367e-01	-1.4000714268e+01	 6.0510269333e-02
-3.5355339061e-01	-1.4637110371e+01	 3.2630448311e-02
 2.8284271246e-01	-1.5273506474e+01	 3.0406299568e-03
-6.2225396745e+00	-9.0509667992e+00	 7.6761031910e-02
-5.5861435714e+00	-9.6873629022e+00	 7.5144866045e-02
-4.9497474683e+00	-1.0323759005e+01	 7.8404639487e-02
-4.3133513652e+00	-1.0960155108e+01	 9.8954111822e-02
-3.6769552622e+00	-1.1596551211e+01	 1.2146430094e-01
-3.0405591591e+00	-1.2232947315e+01	 1.4466769780e-01
-2.4041630560e+00	-1.2869343418e+01	 1.2390055534e-01
-1.7677669530e+00	-1.3505739521e+01	 9.5478127129e-02
-1.1313708499e+00	-1.4142135624e+01	 6.6811280920e-02
-4.9497474684e-01	-1.4778531727e+01	 3.7049243762e-02
 1.4142135623e-01	-1.5414927830e+01	 5.3412427061e-03
-6.3639610307e+00	-9.1923881554e+00	 6.7068000045e-02
-5.7275649276e+00	-9.8287842585e+00	 6.7481361907e-02
-5.0911688246e+00	-1.0465180362e+01	 7.4927504901e-02
-4.4547727215e+00	-1.1101576465e+01	 9.6100681752e-02
-3.8183766184e+00	-1.1737972568e+01	 1.1841075419e-01
-3.1819805153e+00	-1.2374368671e+01	 1.4104310563e-01
-2.5455844123e+00	-1.3010764774e+01	 1.3122558542e-01
-1.9091883092e+00	-1.3647160877e+01	 1.0197144254e-01
-1.2727922061e+00	-1.4283556980e+01	 7.2236915094e-02
-6.3639610307e-01	-1.4919953083e+01	 4.1171230132e-02
-5.5511151231e-17	-1.5556349186e+01	 7.9236147061e-03
-6.5053823869e+00	-9.3338095116e+00	 5.2494845988e-02
-5.8689862839e+00	-9.9702056147e+00	 5.5491705613e-02
-5.2325901808e+00	-1.0606601718e+01	 6.7779365846e-02
-4.5961940777e+00	-1.1242997821e+01	 8.9701327915e-02
-3.9597979746e+00	-1.1879393924e+01	 1.1238925683e-01
-3.3234018716e+00	-1.2515790027e+01	 1.3502853602e-01
-2.6870057685e+00	-1.3152186130e+01	 1.3650830071e-01
-2.0506096654e+00	-1.3788582233e+01	 1.0700101149e-01
-1.4142135624e+00	-1.4424978336e+01	 7.6777371140e-02
-7.7781745930e-01	-1.5061374439e+01	 4.4986606707e-02
-1.4142135623e-01	-1.5697770542e+01	 1.0777945244e-02
-6.6468037432e+00	-9.4752308679e+00	 3.3049141172e-02
-6.0104076401e+00	-1.0111626971e+01	 3.9183468605e-02
-5.3740115370e+00	-1.0748023074e+01	 5.6517523541e-02
-4.7376154340e+00	-1.1384419177e+01	 7.9766243992e-02
-4.1012193309e+00	-1.2020815280e+01	 1.0341000256e-01
-3.4648232278e+00	-1.2657211383e+01	 1.2663418266e-01
-2.8284271247e+00	-1.3293607486e+01	 1.3973890050e-01
-2.1920310217e+00	-1.3930003589e+01	 1.1055703327e-01
-1.5556349186e+00	-1.4566399692e+01	 8.0422848345e-02
-9.1923881553e-01	-1.5202795796e+01	 4.8485572773e-02
-2.8284271246e-01	-1.5839191899e+01	 1.3894433605e-02
-6.7882250994e+00	-9.6166522241e+00	 8.7384571620e-03
-6.1518289963e+00	-1.0253048327e+01	 1.8564222455e-02
-5.5154328933e+00	-1.0889444430e+01	 4.1152171666e-02
-4.8790367902e+00	-1.1525840533e+01	 6.6305623665e-02
-4.2426406871e+00	-1.2162236636e+01	 9.1483185046e-02
-3.6062445840e+00	-1.2798632739e+01	 1.1587023923e-01
-2.9698484810e+00	-1.3435028843e+01	 1.3865216962e-01
-2.3334523779e+00	-1.4071424946e+01	 1.1262970716e-01
-1.6970562748e+00	-1.4707821049e+01	 8.3163545997e-02
-1.0606601718e+00	-1.5344217152e+01	 5.1658327617e-02
-4.2426406869e-01	-1.5980613255e+01	 1.7263279077e-02
-6.9296464557e+00	-9.7580735804e+00	-2.0429634341e-02
-6.2932503526e+00	-1.0394469683e+01	-5.4748555823e-03
-5.6568542495e+00	-1.1030865787e+01	 2.1693503903e-02
-5.0204581464e+00	-1.1667261890e+01	 4.9329660617e-02
-4.3840620434e+00	-1.2303657993e+01	 7.6618997977e-02
-3.7476659403e+00	-1.2940054096e+01	 1.0274689940e-01
-3.1112698372e+00	-1.3576450199e+01	 1.2689874831e-01
-2.4748737341e+00	-1.4212846302e+01	 1.1320923246e-01
-1.8384776311e+00	-1.4849242405e+01	 8.4989663380e-02
-1.2020815280e+00	-1.5485638508e+01	 5.4495070526e-02
-5.6568542492e-01	-1.6122034611e+01	 2.0874680946e-02
-7.0710678119e+00	-9.8994949366e+00	-5.4447561502e-02
-6.4346717088e+00	-1.0535891040e+01	-3.2448252165e-02
-5.7982756057e+00	-1.1172287143e+01	-1.8482860647e-03
-5.1618795027e+00	-1.1808683246e+01	 2.8848548529e-02
-4.5254833996e+00	-1.2445079349e+01	 5.8827635035e-02
-3.8890872965e+00	-1.3081475452e+01	 8.7274356871e-02
-3.2526911934e+00	-1.3717871555e+01	 1.1337409746e-01
-2.6162950904e+00	-1.4354267658e+01	 1.1228580843e-01
-1.9798989873e+00	-1.4990663761e+01	 8.5891399783e-02
-1.3435028842e+00	-1.5627059864e+01	 5.6986000787e-02
-7.0710678115e-01	-1.6263455967e+01	 2.4718838499e-02
 7.0710678115e-01	-1.4849242405e+01	-2.0726456532e-03
 1.3435028842e+00	-1.5485638508e+01	 2.1908684871e-02
 1.9798989873e+00	-1.6122034611e+01	 3.9304621592e-02
 2.6162950904e+00	-1.6758430714e+01	 4.9264391561e-02
 3.2526911934e+00	-1.7394826817e+01	 4.5588000813e-02
 3.8890872965e+00	-1.8031222920e+01	 3.5343859233e-02
 4.5254833996e+00	-1.8667619023e+01	 2.7891289844e-02
 5.1618795027e+00	-1.9304015126e+01	 2.3090305946e-02
 5.7982756057e+00	-1.9940411229e+01	 2.0800931942e-02
 6.4346717088e+00	-2.0576807333e+01	 2.0883203336e-02
 7.0710678119e+00	-2.1213203436e+01	 2.3197166737e-02
 5.6568542492e-01	-1.4990663761e+01	-6.7611493623e-04
 1.2020815280e+00	-1.5627059864e+01	 2.2875880353e-02
 1.8384776311e+00	-1.6263455967e+01	 3.9931257758e-02
 2.4748737341e+00	-1.6899852070e+01	 4.9639244329e-02
 3.1112698372e+00	-1.7536248173e+01	 4.8110393285e-02
 3.7476659403e+00	-1.8172644277e+01	 3.7766168754e-02
 4.3840620434e+00	-1.8809040380e+01	 3.0245737105e-02
 5.0204581464e+00	-1.9445436483e+01	 2.5409111669e-02
 5.6568542495e+00	-2.0081832586e+01	 2.3116316880e-02
 6.2932503526e+00	-2.0718228689e+01	 2.3227388275e-02
 6.9296464557e+00	-2.1354624792e+01	 2.5602372491e-02
 4.2426406869e-01	-1.5132085117e+01	 1.0315771715e-03
 1.0606601718e+00	-1.5768481220e+01	 2.4082634914e-02
 1.6970562748e+00	-1.6404877324e+01	 4.0725850689e-02
 2.3334523779e+00	-1.7041273427e+01	 5.0110451549e-02
 2.9698484810e+00	-1.7677669530e+01	 5.0702417801e-02
 3.6062445840e+00	-1.8314065633e+01	 4.0174808454e-02
 4.2426406871e+00	-1.8950461736e+01	 3.2503212503e-02
 4.8790367902e+00	-1.9586857839e+01	 2.7547643308e-02
 5.5154328933e+00	-2.0223253942e+01	 2.5168125335e-02
 6.1518289963e+00	-2.0859650045e+01	 2.5224694153e-02
 6.7882250994e+00	-2.1496046148e+01	 2.7577396429e-02
 2.8284271246e-01	-1.5273506474e+01	 3.0406299568e-03
 9.1923881553e-01	-1.5909902577e+01	 2.5519147839e-02
 1.5556349186e+00	-1.6546298680e+01	 4.1678599672e-02
 2.1920310217e+00	-1.7182694783e+01	 5.0668212507e-02
 2.8284271247e+00	-1.7819090886e+01	 5.1181625257e-02
 3.4648232278e+00	-1.8455486989e+01	 4.2568356502e-02
 4.1012193309e+00	-1.9091883092e+01	 3.4662294203e-02
 4.7376154340e+00	-1.9728279195e+01	 2.9504479027e-02
 5.3740115370e+00	-2.0364675298e+01	 2.6954935470e-02
 6.0104076401e+00	-2.1001071401e+01	 2.6873699132e-02
 6.6468037432e+00	-2.1637467504e+01	 2.9120816711e-02
 1.4142135623e-01	-1.5414927830e+01	 5.3412427061e-03
 7.7781745930e-01	-1.6051323933e+01	 2.7175618415e-02
 1.4142135624e+00	-1.6687720036e+01	 4.2779703993e-02
 2.0506096654e+00	-1.7324116139e+01	 5.0656803610e-02
 2.6870057685e+00	-1.7960512242e+01	 5.1022737978e-02
 3.3234018716e+00	-1.8596908345e+01	 4.4945391089e-02
 3.9597979746e+00	-1.9233304448e+01	 3.6721560397e-02
 4.5961940777e+00	-1.9869700551e+01	 3.1278197016e-02
 5.2325901808e+00	-2.0506096654e+01	 2.8475325473e-02
 5.8689862839e+00	-2.1142492757e+01	 2.8172981398e-02
 6.5053823869e+00	-2.1778888861e+01	 3.0231211522e-02
-5.5511151231e-17	-1.5556349186e+01	 7.9236147061e-03
 6.3639610307e-01	-1.6192745289e+01	 2.9042245929e-02
 1.2727922061e+00	-1.6829141392e+01	 4.4019362939e-02
 1.9091883092e+00	-1.7465537495e+01	 5.0200718117e-02
 2.5455844123e+00	-1.8101933598e+01	 5.0778895399e-02
 3.1819805153e+00	-1.8738329701e+01	 4.7304490434e-02
 3.8183766184e+00	-1.9374725805e+01	 3.8679589302e-02
 4.4547727215e+00	-2.0011121908e+01	 3.2867375490e-02
 5.0911688246e+00	-2.0647518011e+01	 2.9727873557e-02
 5.7275649276e+00	-2.1283914114e+01	 2.9121119164e-02
 6.3639610307e+00	-2.1920310217e+01	 3.0907159073e-02
-1.4142135623e-01	-1.5697770542e+01	 1.0777945244e-02
 4.9497474684e-01	-1.6334166645e+01	 3.1109229668e-02
 1.1313708499e+00	-1.6970562748e+01	 4.5387775797e-02
 1.7677669530e+00	-1.7606958852e+01	 4.9759334103e-02
 2.4041630560e+00	-1.8243354955e+01	 5.0459698124e-02
 3.0405591591e+00	-1.8879751058e+01	 4.9644232782e-02
 3.6769552622e+00	-1.9516147161e+01	 4.0534959161e-02
 4.3133513652e+00	-2.0152543264e+01	 3.4270592691e-02
 4.9497474683e+00	-2.0788939367e+01	 3.0711157962e-02
 5.5861435714e+00	-2.1425335470e+01	 2.9716690667e-02
 6.2225396745e+00	-2.2061731573e+01	 3.1147237600e-02
-2.8284271246e-01	-1.5839191899e+01	 1.3894433605e-02
 3.5355339061e-01	-1.6475588002e+01	 3.3366768918e-02
 9.8994949367e-01	-1.7111984105e+01	 4.6875141853e-02
 1.6263455967e+00	-1.7748380208e+01	 4.9342252107e-02
 2.2627416998e+00	-1.8384776311e+01	 5.0074746602e-02
 2.8991378029e+00	-1.9021172414e+01	 5.1147842217e-02
 3.5355339059e+00	-1.9657568517e+01	 4.2286248241e-02
 4.1719300090e+00	-2.0293964620e+01	 3.5486426884e-02
 4.8083261121e+00	-2.0930360723e+01	 3.1423756953e-02
 5.4447222152e+00	-2.1566756826e+01	 2.9958274172e-02
 6.0811183182e+00	-2.2203152929e+01	 3.0950025366e-02
-4.2426406869e-01	-1.5980613255e+01	 1.7263279077e-02
 2.1213203438e-01	-1.6617009358e+01	 3.5805062965e-02
 8.4852813744e-01	-1.7253405461e+01	 4.8312612057e-02
 1.4849242405e+00	-1.7889801564e+01	 4.8959072517e-02
 2.1213203436e+00	-1.8526197667e+01	 4.9633641133e-02
 2.7577164466e+00	-1.9162593770e+01	 5.0606631579e-02
 3.3941125497e+00	-1.9798989873e+01	 4.3932034838e-02
 4.0305086528e+00	-2.0435385976e+01	 3.6513456364e-02
 4.6669047558e+00	-2.1071782079e+01	 3.1864248822e-02
 5.3033008589e+00	-2.1708178182e+01	 2.9844447968e-02
 5.9396969620e+00	-2.2344574286e+01	 3.0314100658e-02
-5.6568542492e-01	-1.6122034611e+01	 2.0874680946e-02
 7.0710678148e-02	-1.6758430714e+01	 3.8414311097e-02
 7.0710678122e-01	-1.7394826817e+01	 4.8078737101e-02
 1.3435028843e+00	-1.8031222920e+01	 4.8619395570e-02
 1.9798989873e+00	-1.8667619023e+01	 4.9145981863e-02
 2.6162950904e+00	-1.9304015126e+01	 4.9928811455e-02
 3.2526911935e+00	-1.9940411229e+01	 4.5470897270e-02
 3.8890872965e+00	-2.0576807333e+01	 3.7350259447e-02
 4.5254833996e+00	-2.1213203436e+01	 3.2031211885e-02
 5.1618795027e+00	-2.1849599539e+01	 2.9373790370e-02
 5.7982756057e+00	-2.2485995642e+01	 2.9238041789e-02
-7.0710678115e-01	-1.6263455967e+01	 2.4718838499e-02
-7.0710678080e-02	-1.6899852070e+01	 4.1184712600e-02
 5.6568542499e-01	-1.7536248173e+01	 4.7988022161e-02
 1.2020815281e+00	-1.8172644276e+01	 4.8332821349e-02
 1.8384776311e+00	-1.8809040380e+01	 4.8621368789e-02
 2.4748737342e+00	-1.9445436483e+01	 4.9123981753e-02
 3.1112698373e+00	-2.0081832586e+01	 4.6901413883e-02
 3.7476659403e+00	-2.0718228689e+01	 3.7995414479e-02
 4.3840620434e+00	-2.1354624792e+01	 3.1923224485e-02
 5.0204581464e+00	-2.1991020895e+01	 2.8544879719e-02
 5.6568542495e+00	-2.2627416998e+01	 2.7720427100e-02
-7.0710678119e+00	-9.8994949366e+00	-1.8464061290e-02
-6.4346717088e+00	-1.0535891040e+01	-1.1117936934e-02
-5.7982756057e+00	-1.1172287143e+01	 6.8129677191e-03
-5.1618795027e+00	-1.1808683246e+01	 2.6824864399e-02
-4.5254833996e+00	-1.2445079349e+01	 4.8103136523e-02
-3.8890872965e+00	-1.3081475452e+01	 6.9833167512e-02
-3.2526911934e+00	-1.3717871555e+01	 9.1200340782e-02
-2.6162950904e+00	-1.4354267658e+01	 8.7363607981e-02
-1.9798989873e+00	-1.4990663761e+01	 6.0204879081e-02
-1.3435028842e+00	-1.5627059864e+01	 3.2519283371e-02
-7.0710678115e-01	-1.6263455967e+01	 3.4560479029e-03
-7.3539105244e+00	-1.0182337649e+01	-2.8057637256e-02
-6.7175144213e+00	-1.0818733752e+01	-1.6159574653e-02
-6.0811183182e+00	-1.1455129855e+01	 1.1679967704e-03
-5.4447222151e+00	-1.2091525958e+01	 2.0748067292e-02
-4.8083261121e+00	-1.2727922061e+01	 4.1766020331e-02
-4.1719300090e+00	-1.3364318164e+01	 6.3407239306e-02
-3.5355339059e+00	-1.4000714268e+01	 8.4857107635e-02
-2.8991378028e+00	-1.4637110371e+01	 1.0231404835e-01
-2.2627416998e+00	-1.5273506474e+01	 7.6821066589e-02
-1.6263455967e+00	-1.5909902577e+01	 5.1242649423e-02
-9.8994949363e-01	-1.6546298680e+01	 2.4728023908e-02
-7.6367532368e+00	-1.0465180362e+01	-3.4401163587e-02
-7.0003571338e+00	-1.1101576465e+01	-2.1101525281e-02
-6.3639610307e+00	-1.1737972568e+01	-4.5632642228e-03
-5.7275649276e+00	-1.2374368671e+01	 1.4399003006e-02
-5.0911688245e+00	-1.3010764774e+01	 3.4970659825e-02
-4.4547727215e+00	-1.3647160877e+01	 5.6337089650e-02
-3.8183766184e+00	-1.4283556980e+01	 7.7683675902e-02
-3.1819805153e+00	-1.4919953083e+01	 9.8195801997e-02
-2.5455844122e+00	-1.5556349186e+01	 9.0758777415e-02
-1.9091883092e+00	-1.6192745289e+01	 6.7103942323e-02
-1.2727922061e+00	-1.6829141392e+01	 4.2954330292e-02
-7.9195959493e+00	-1.0748023074e+01	-3.8015083097e-02
-7.2831998462e+00	-1.1384419177e+01	-2.5862239363e-02
-6.6468037431e+00	-1.2020815280e+01	-1.0299265804e-02
-6.0104076401e+00	-1.2657211383e+01	 7.8592209968e-03
-5.3740115370e+00	-1.3293607486e+01	 2.7798604459e-02
-4.7376154339e+00	-1.3930003589e+01	 4.8704268000e-02
-4.1012193309e+00	-1.4566399692e+01	 6.9761595039e-02
-3.4648232278e+00	-1.5202795796e+01	 9.0155968994e-02
-2.8284271247e+00	-1.5839191899e+01	 1.0193960585e-01
-2.1920310217e+00	-1.6475588002e+01	 8.0024756364e-02
-1.5556349186e+00	-1.7111984105e+01	 5.8056561348e-02
-8.2024386618e+00	-1.1030865787e+01	-4.1180239468e-02
-7.5660425587e+00	-1.1667261890e+01	-3.0360167441e-02
-6.9296464556e+00	-1.2303657993e+01	-1.5958458518e-02
-6.2932503525e+00	-1.2940054096e+01	 1.2102707201e-03
-5.6568542495e+00	-1.3576450199e+01	 2.0331403691e-02
-5.0204581464e+00	-1.4212846302e+01	 4.0590323813e-02
-4.3840620433e+00	-1.4849242405e+01	 6.1172414504e-02
-3.7476659403e+00	-1.5485638508e+01	 8.1263059183e-02
-3.1112698372e+00	-1.6122034611e+01	 1.0004764127e-01
-2.4748737341e+00	-1.6758430714e+01	 8.9926685840e-02
-1.8384776311e+00	-1.7394826817e+01	 6.7514964676e-02
-8.4852813742e+00	-1.1313708499e+01	-4.3815083246e-02
-7.8488852712e+00	-1.1950104602e+01	-3.4513760061e-02
-7.2124891681e+00	-1.2586500705e+01	-2.1459292907e-02
-6.5760930650e+00	-1.3222896808e+01	-5.4662983677e-03
-5.9396969620e+00	-1.3859292911e+01	 1.2650606977e-02
-5.3033008589e+00	-1.4495689014e+01	 3.2076806544e-02
-4.6669047558e+00	-1.5132085117e+01	 5.1997683752e-02
-4.0305086527e+00	-1.5768481220e+01	 7.1598622020e-02
-3.3941125497e+00	-1.6404877324e+01	 9.0065004766e-02
-2.7577164466e+00	-1.7041273427e+01	 9.6731325042e-02
-2.1213203435e+00	-1.7677669530e+01	 7.2454378709e-02
-8.7681240867e+00	-1.1596551211e+01	-4.5838064972e-02
-8.1317279836e+00	-1.2232947315e+01	-3.8241467764e-02
-7.4953318806e+00	-1.2869343418e+01	-2.6720219516e-02
-6.8589357775e+00	-1.3505739521e+01	-1.2088936810e-02
-6.2225396744e+00	-1.4142135624e+01	 4.8377637723e-03
-5.5861435714e+00	-1.4778531727e+01	 2.3245265650e-02
-4.9497474683e+00	-1.5414927830e+01	 4.2318952240e-02
-4.3133513652e+00	-1.6051323933e+01	 6.1244206962e-02
-3.6769552622e+00	-1.6687720036e+01	 7.9206413233e-02
-3.0405591591e+00	-1.7324116139e+01	 9.4302721936e-02
-2.4041630560e+00	-1.7960512242e+01	 7.5250191663e-02
-9.0509667992e+00	-1.1879393924e+01	-2.7418827971e-02
-8.4145706961e+00	-1.2515790027e+01	-4.1461741096e-02
-7.7781745930e+00	-1.3152186130e+01	-3.1659688889e-02
-7.1417784900e+00	-1.3788582233e+01	-1.8576095152e-02
-6.5053823869e+00	-1.4424978336e+01	-3.0255764658e-03
-5.8689862838e+00	-1.5061374439e+01	 1.4177250586e-02
-5.2325901808e+00	-1.5697770542e+01	 3.2217769423e-02
-4.5961940777e+00	-1.6334166645e+01	 5.0281363463e-02
-3.9597979746e+00	-1.6970562748e+01	 6.7553416124e-02
-3.3234018716e+00	-1.7606958852e+01	 7.9233616032e-02
-2.6870057685e+00	-1.8243354955e+01	 7.5979191189e-02
-9.3338095116e+00	-1.2162236636e+01	-5.5257815564e-03
-8.6974134086e+00	-1.2798632739e+01	-4.4093030600e-02
-8.0610173055e+00	-1.3435028843e+01	-3.6196151569e-02
-7.4246212024e+00	-1.4071424946e+01	-2.4846223935e-02
-6.7882250994e+00	-1.4707821049e+01	-1.0857864282e-02
-6.1518289963e+00	-1.5344217152e+01	 4.9543108103e-03
-5.5154328932e+00	-1.5980613255e+01	 2.1775684759e-02
-4.8790367902e+00	-1.6617009358e+01	 3.8791640982e-02
-4.2426406871e+00	-1.7253405461e+01	 5.5074963759e-02
-3.6062445840e+00	-1.7889801564e+01	 6.4459396034e-02
-2.9698484810e+00	-1.8526197667e+01	 7.3562385115e-02
-9.6166522241e+00	-1.2445079349e+01	 1.4906892575e-02
-8.9802561211e+00	-1.3081475452e+01	-3.4327352047e-02
-8.3438600180e+00	-1.3717871555e+01	-4.0248058099e-02
-7.7074639149e+00	-1.4354267658e+01	-3.0817773705e-02
-7.0710678118e+00	-1.4990663761e+01	-1.8577550219e-02
-6.4346717088e+00	-1.5627059864e+01	-4.3420042223e-03
-5.7982756057e+00	-1.6263455967e+01	 1.1074247702e-02
-5.1618795026e+00	-1.6899852070e+01	 2.6856588973e-02
-4.5254833996e+00	-1.7536248173e+01	 3.9867605742e-02
-3.8890872965e+00	-1.8172644276e+01	 4.9909479524e-02
-3.2526911934e+00	-1.8809040380e+01	 6.0098123527e-02
-9.8994949366e+00	-1.2727922061e+01	 3.4020313341e-02
-9.2630988335e+00	-1.3364318164e+01	-1.6088099259e-02
-8.6267027305e+00	-1.4000714267e+01	-4.3733859025e-02
-7.9903066274e+00	-1.4637110371e+01	-3.6409195004e-02
-7.3539105243e+00	-1.5273506474e+01	-2.6103084821e-02
-6.7175144213e+00	-1.5909902577e+01	-1.3630145055e-02
-6.0811183182e+00	-1.6546298680e+01	 1.9500770988e-04
-5.4447222151e+00	-1.7182694783e+01	 1.4557756893e-02
-4.8083261121e+00	-1.7819090886e+01	 2.5069483780e-02
-4.1719300090e+00	-1.8455486989e+01	 3.5513286054e-02
-3.5355339059e+00	-1.9091883092e+01	 4.6532070478e-02
-7.0710678115e-01	-1.6263455967e+01	 3.4560479029e-03
-7.0710678080e-02	-1.6899852070e+01	 2.3910939638e-02
 5.6568542499e-01	-1.7536248173e+01	 3.4289324928e-02
 1.2020815281e+00	-1.8172644276e+01	 3.7795257940e-02
 1.8384776311e+00	-1.8809040380e+01	 4.0830997297e-02
 2.4748737342e+00	-1.9445436483e+01	 4.3666860273e-02
 3.1112698373e+00	-2.0081832586e+01	 4.3363600510e-02
 3.7476659403e+00	-2.0718228689e+01	 3.5962967306e-02
 4.3840620434e+00	-2.1354624792e+01	 3.0982201608e-02
 5.0204581464e+00	-2.1991020895e+01	 2.8281339233e-02
 5.6568542495e+00	-2.2627416998e+01	 2.7720427099e-02
-9.8994949363e-01	-1.6546298680e+01	 2.4728023908e-02
-3.5355339056e-01	-1.7182694783e+01	 4.1544411596e-02
 2.8284271251e-01	-1.7819090886e+01	 4.5002591010e-02
 9.1923881558e-01	-1.8455486989e+01	 4.6679626832e-02
 1.5556349186e+00	-1.9091883092e+01	 4.7856701423e-02
 2.1920310217e+00	-1.9728279195e+01	 4.8804135652e-02
 2.8284271248e+00	-2.0364675298e+01	 4.9792220594e-02
 3.4648232278e+00	-2.1001071401e+01	 4.1810323642e-02
 4.1012193309e+00	-2.1637467504e+01	 3.4179305925e-02
 4.7376154340e+00	-2.2273863607e+01	 2.8947218658e-02
 5.3740115370e+00	-2.2910259710e+01	 2.5974108822e-02
-1.2727922061e+00	-1.6829141392e+01	 4.2954330292e-02
-6.3639610304e-01	-1.7465537495e+01	 5.2827712935e-02
 2.8721417822e-11	-1.8101933598e+01	 5.3686791129e-02
 6.3639610310e-01	-1.8738329701e+01	 5.3745789286e-02
 1.2727922062e+00	-1.9374725805e+01	 5.3275061663e-02
 1.9091883092e+00	-2.0011121908e+01	 5.2544932722e-02
 2.5455844123e+00	-2.0647518011e+01	 5.1825697136e-02
 3.1819805154e+00	-2.1283914114e+01	 4.7012572933e-02
 3.8183766184e+00	-2.1920310217e+01	 3.6969183274e-02
 4.4547727215e+00	-2.2556706320e+01	 2.9443750480e-02
 5.0911688245e+00	-2.3193102423e+01	 2.4296321595e-02
-1.5556349186e+00	-1.7111984105e+01	 5.8056561348e-02
-9.1923881552e-01	-1.7748380208e+01	 6.0937056755e-02
-2.8284271245e-01	-1.8384776311e+01	 6.0418721216e-02
 3.5355339062e-01	-1.9021172414e+01	 5.9070540522e-02
 9.8994949368e-01	-1.9657568517e+01	 5.7162872525e-02
 1.6263455967e+00	-2.0293964620e+01	 5.4966045283e-02
 2.2627416998e+00	-2.0930360723e+01	 5.2750357064e-02
 2.8991378029e+00	-2.1566756826e+01	 5.0786076349e-02
 3.5355339059e+00	-2.2203152929e+01	 3.9340461320e-02
 4.1719300090e+00	-2.2839549032e+01	 2.9759562352e-02
 4.8083261121e+00	-2.3475945135e+01	 2.2675693057e-02
-1.8384776311e+00	-1.7394826817e+01	 6.7514964676e-02
-1.2020815280e+00	-1.8031222920e+01	 6.6960068971e-02
-5.6568542493e-01	-1.8667619023e+01	 6.5275174775e-02
 7.0710678138e-02	-1.9304015126e+01	 6.2730673334e-02
 7.0710678120e-01	-1.9940411229e+01	 5.9596926095e-02
 1.3435028843e+00	-2.0576807333e+01	 5.6144264710e-02
 1.9798989873e+00	-2.1213203436e+01	 5.2642991042e-02
 2.6162950904e+00	-2.1849599539e+01	 4.9363377167e-02
 3.2526911935e+00	-2.2485995642e+01	 4.1281768138e-02
 3.8890872965e+00	-2.3122391745e+01	 2.9883282335e-02
 4.5254833996e+00	-2.3758787848e+01	 2.1100851258e-02
-2.1213203435e+00	-1.7677669530e+01	 7.2454378709e-02
-1.4849242405e+00	-1.8314065633e+01	 7.0973541372e-02
-8.4852813741e-01	-1.8950461736e+01	 6.8332942887e-02
-2.1213203434e-01	-1.9586857839e+01	 6.4802978094e-02
 4.2426406873e-01	-2.0223253942e+01	 6.0654012033e-02
 1.0606601718e+00	-2.0859650045e+01	 5.6156379953e-02
 1.6970562749e+00	-2.1496046148e+01	 5.1580387310e-02
 2.3334523779e+00	-2.2132442251e+01	 4.7196309776e-02
 2.9698484810e+00	-2.2768838354e+01	 4.2781732215e-02
 3.6062445840e+00	-2.3405234457e+01	 2.9803538903e-02
 4.2426406871e+00	-2.4041630560e+01	 1.9560424659e-02
-2.4041630560e+00	-1.7960512242e+01	 7.5250191663e-02
-1.7677669530e+00	-1.8596908345e+01	 7.3054263324e-02
-1.1313708499e+00	-1.9233304448e+01	 6.9668814208e-02
-4.9497474682e-01	-1.9869700551e+01	 6.5364242746e-02
 1.4142135625e-01	-2.0506096654e+01	 6.0410917575e-02
 7.7781745931e-01	-2.1142492757e+01	 5.5079177538e-02
 1.4142135624e+00	-2.1778888861e+01	 4.9639331684e-02
 2.0506096654e+00	-2.2415284964e+01	 4.4361659281e-02
 2.6870057685e+00	-2.3051681067e+01	 3.9516409812e-02
 3.3234018716e+00	-2.3688077170e+01	 2.9508960942e-02
 3.9597979746e+00	-2.4324473273e+01	 2.0855154504e-02
-2.6870057685e+00	-1.8243354955e+01	 7.5979191189e-02
-2.0506096654e+00	-1.8879751058e+01	 7.3279021768e-02
-1.4142135624e+00	-1.9516147161e+01	 6.9359574967e-02
-7.7781745930e-01	-2.0152543264e+01	 6.4491252812e-02
-1.4142135623e-01	-2.0788939367e+01	 5.8944427533e-02
 4.9497474684e-01	-2.1425335470e+01	 5.2989441565e-02
 1.1313708499e+00	-2.2061731573e+01	 4.6896607556e-02
 1.7677669530e+00	-2.2698127676e+01	 4.0936208364e-02
 2.4041630560e+00	-2.3334523779e+01	 3.5378497067e-02
 3.0405591591e+00	-2.3970919882e+01	 2.8988177746e-02
 3.6769552622e+00	-2.4607315985e+01	 2.3908239196e-02
-2.9698484810e+00	-1.8526197667e+01	 7.3562385115e-02
-2.3334523779e+00	-1.9162593770e+01	 7.1724601220e-02
-1.6970562748e+00	-1.9798989873e+01	 6.7482008972e-02
-1.0606601718e+00	-2.0435385976e+01	 6.2260791388e-02
-4.2426406871e-01	-2.1071782079e+01	 5.6331324292e-02
 2.1213203436e-01	-2.1708178182e+01	 4.9963953713e-02
 8.4852813743e-01	-2.2344574285e+01	 4.3428995892e-02
 1.4849242405e+00	-2.2980970389e+01	 3.6996737282e-02
 2.1213203436e+00	-2.3617366492e+01	 3.0937434554e-02
 2.7577164466e+00	-2.4253762595e+01	 2.7521978375e-02
 3.3941125497e+00	-2.4890158698e+01	 2.7331721680e-02
-3.2526911934e+00	-1.8809040380e+01	 6.0098123527e-02
-2.6162950904e+00	-1.9445436483e+01	 6.8467783770e-02
-1.9798989873e+00	-2.0081832586e+01	 6.4112897603e-02
-1.3435028843e+00	-2.0718228689e+01	 5.8749639146e-02
-7.0710678118e-01	-2.1354624792e+01	 5.2648387815e-02
-7.0710678117e-02	-2.1991020895e+01	 4.6079493234e-02
 5.6568542495e-01	-2.2627416998e+01	 3.9313275235e-02
 1.2020815280e+00	-2.3263813101e+01	 3.2620023866e-02
 1.8384776311e+00	-2.3900209204e+01	 2.6269999394e-02
 2.4748737342e+00	-2.4536605307e+01	 2.7644361583e-02
 3.1112698372e+00	-2.5173001410e+01	 3.1130725906e-02
-3.5355339059e+00	-1.9091883092e+01	 4.6532070478e-02
-2.8991378029e+00	-1.9728279195e+01	 6.3585349085e-02
-2.2627416998e+00	-2.0364675298e+01	 5.9329019819e-02
-1.6263455967e+00	-2.1001071401e+01	 5.4034574335e-02
-9.8994949366e-01	-2.1637467504e+01	 4.7972395641e-02
-3.5355339059e-01	-2.2273863607e+01	 4.1412836955e-02
 2.8284271247e-01	-2.2910259710e+01	 3.4626221703e-02
 9.1923881554e-01	-2.3546655813e+01	 2.7882843527e-02
 1.5556349186e+00	-2.4183051917e+01	 2.2304575379e-02
 2.1920310217e+00	-2.4819448020e+01	 2.8094615541e-02
 2.8284271248e+00	-2.5455844123e+01	 3.3887384978e-02
-9.8994949366e+00	-1.2727922061e+01	 3.4020313341e-02
-9.2630988335e+00	-1.3364318164e+01	-1.6088099259e-02
-8.6267027305e+00	-1.4000714267e+01	-4.3733859025e-02
-7.9903066274e+00	-1.4637110371e+01	-3.6409195004e-02
-7.3539105243e+00	-1.5273506474e+01	-2.6103084821e-02
-6.7175144213e+00	-1.5909902577e+01	-1.3630145055e-02
-6.0811183182e+00	-1.6546298680e+01	 1.9500770988e-04
-5.4447222151e+00	-1.7182694783e+01	 1.4557756893e-02
-4.8083261121e+00	-1.7819090886e+01	 2.5069483780e-02
-4.1719300090e+00	-1.8455486989e+01	 3.5513286054e-02
-3.5355339059e+00	-1.9091883092e+01	 4.6532070478e-02
-1.0182337649e+01	-1.3010764774e+01	 2.5834881820e-02
-9.5459415460e+00	-1.3647160877e+01	-1.8390893947e-02
-8.9095454429e+00	-1.4283556980e+01	-5.4138084838e-02
-8.2731493399e+00	-1.4919953083e+01	-4.9172960975e-02
-7.6367532368e+00	-1.5556349186e+01	-3.6391632481e-02
-7.0003571337e+00	-1.6192745289e+01	-2.2055428308e-02
-6.3639610307e+00	-1.6829141392e+01	-6.9789650355e-03
-5.7275649276e+00	-1.7465537495e+01	 6.8280578325e-03
-5.0911688245e+00	-1.8101933598e+01	 1.8117929581e-02
-4.4547727215e+00	-1.8738329701e+01	 2.9386152443e-02
-3.8183766184e+00	-1.9374725804e+01	 4.0874106923e-02
-1.0465180362e+01	-1.3293607486e+01	 1.7520318014e-02
-9.8287842585e+00	-1.3930003589e+01	-2.0980365281e-02
-9.1923881554e+00	-1.4566399692e+01	-5.1714898647e-02
-8.5559920523e+00	-1.5202795796e+01	-6.0391581369e-02
-7.9195959493e+00	-1.5839191899e+01	-4.5289669878e-02
-7.2831998462e+00	-1.6475588002e+01	-2.9244836607e-02
-6.6468037431e+00	-1.7111984105e+01	-1.3071698140e-02
-6.0104076401e+00	-1.7748380208e+01	 3.4771191538e-04
-5.3740115370e+00	-1.8384776311e+01	 1.2593081318e-02
-4.7376154339e+00	-1.9021172414e+01	 2.4461556033e-02
-4.1012193309e+00	-1.9657568517e+01	 3.6194510349e-02
-1.0748023074e+01	-1.3576450199e+01	 9.2177313568e-03
-1.0111626971e+01	-1.4212846302e+01	-2.3715403146e-02
-9.4752308679e+00	-1.4849242405e+01	-4.9594818352e-02
-8.8388347648e+00	-1.5485638508e+01	-6.9191203898e-02
-8.2024386617e+00	-1.6122034611e+01	-5.2715647553e-02
-7.5660425587e+00	-1.6758430714e+01	-3.5116820499e-02
-6.9296464556e+00	-1.7394826817e+01	-1.8502554282e-02
-6.2932503525e+00	-1.8031222920e+01	-4.5523378024e-03
-5.6568542495e+00	-1.8667619023e+01	 8.4243632352e-03
-5.0204581464e+00	-1.9304015126e+01	 2.0668922297e-02
-4.3840620433e+00	-1.9940411229e+01	 3.2422707456e-02
-1.1030865787e+01	-1.3859292911e+01	 1.0682281250e-03
-1.0394469683e+01	-1.4495689014e+01	-2.6454900593e-02
-9.7580735804e+00	-1.5132085117e+01	-4.7636736324e-02
-9.1216774773e+00	-1.5768481220e+01	-6.3247972126e-02
-8.4852813742e+00	-1.6404877324e+01	-5.8588016052e-02
-7.8488852712e+00	-1.7041273427e+01	-3.9589830525e-02
-7.2124891681e+00	-1.7677669530e+01	-2.2755292212e-02
-6.5760930650e+00	-1.8314065633e+01	-7.9426663316e-03
-5.9396969620e+00	-1.8950461736e+01	 5.5412015496e-03
-5.3033008589e+00	-1.9586857839e+01	 1.7937678681e-02
-4.6669047558e+00	-2.0223253942e+01	 2.9488126917e-02
-1.1313708499e+01	-1.4142135624e+01	-6.7870885668e-03
-1.0677312396e+01	-1.4778531727e+01	-2.9057753829e-02
-1.0040916293e+01	-1.5414927830e+01	-4.5699548097e-02
-9.4045201898e+00	-1.6051323933e+01	-5.7483167846e-02
-8.7681240867e+00	-1.6687720036e+01	-6.2825225919e-02
-8.1317279836e+00	-1.7324116139e+01	-4.2720961590e-02
-7.4953318806e+00	-1.7960512242e+01	-2.5344719915e-02
-6.8589357775e+00	-1.8596908345e+01	-9.8938467103e-03
-6.2225396744e+00	-1.9233304448e+01	 3.8730244515e-03
-5.5861435714e+00	-1.9869700551e+01	 1.6197254602e-02
-4.9497474683e+00	-2.0506096654e+01	 2.7320199380e-02
-1.1596551211e+01	-1.4424978336e+01	-1.4207118764e-02
-1.0960155108e+01	-1.5061374439e+01	-3.1382862226e-02
-1.0323759005e+01	-1.5697770542e+01	-4.3642152365e-02
-9.6873629023e+00	-1.6334166645e+01	-5.1755689077e-02
-9.0509667992e+00	-1.6970562748e+01	-5.6494222477e-02
-8.4145706961e+00	-1.7606958852e+01	-4.4486977150e-02
-7.7781745930e+00	-1.8243354955e+01	-2.6341409685e-02
-7.1417784900e+00	-1.8879751058e+01	-1.0476450004e-02
-6.5053823869e+00	-1.9516147161e+01	 3.3492621037e-03
-5.8689862838e+00	-2.0152543264e+01	 1.5377081452e-02
-5.2325901808e+00	-2.0788939367e+01	 2.5848357462e-02
-1.1879393924e+01	-1.4707821049e+01	-2.1050765673e-02
-1.1242997821e+01	-1.5344217152e+01	-3.3289128312e-02
-1.0606601718e+01	-1.5980613255e+01	-4.1323450982e-02
-9.9702056147e+00	-1.6617009358e+01	-4.5924436997e-02
-9.3338095117e+00	-1.7253405461e+01	-4.7869457493e-02
-8.6974134086e+00	-1.7889801564e+01	-4.4506666965e-02
-8.0610173055e+00	-1.8526197667e+01	-2.5815931842e-02
-7.4246212024e+00	-1.9162593770e+01	-9.7610453039e-03
-6.7882250994e+00	-1.9798989873e+01	 3.8993466418e-03
-6.1518289963e+00	-2.0435385976e+01	 1.5406592593e-02
-5.5154328932e+00	-2.1071782079e+01	 2.5002035755e-02
-1.2162236636e+01	-1.4990663761e+01	-2.7176935659e-02
-1.1525840533e+01	-1.5627059864e+01	-3.4635457779e-02
-1.0889444430e+01	-1.6263455967e+01	-3.8602348963e-02
-1.0253048327e+01	-1.6899852070e+01	-3.9848315945e-02
-9.6166522241e+00	-1.7536248173e+01	-3.9306528137e-02
-8.9802561211e+00	-1.8172644276e+01	-3.8206530168e-02
-8.3438600180e+00	-1.8809040380e+01	-2.3838854734e-02
-7.7074639149e+00	-1.9445436483e+01	-7.8181997312e-03
-7.0710678118e+00	-2.0081832586e+01	 5.4527121736e-03
-6.4346717088e+00	-2.0718228689e+01	 1.6215223362e-02
-5.7982756057e+00	-2.1354624792e+01	 2.4710670822e-02
-1.2445079349e+01	-1.5273506474e+01	-3.2444538249e-02
-1.1808683246e+01	-1.5909902577e+01	-3.5280759476e-02
-1.1172287143e+01	-1.6546298680e+01	-3.5337754483e-02
-1.0535891040e+01	-1.7182694783e+01	-3.3386233421e-02
-9.8994949366e+00	-1.7819090886e+01	-3.0576373845e-02
-9.2630988335e+00	-1.8455486989e+01	-2.7806538986e-02
-8.6267027305e+00	-1.9091883092e+01	-2.0480744736e-02
-7.9903066274e+00	-1.9728279195e+01	-4.7184784327e-03
-7.3539105243e+00	-2.0364675298e+01	 7.9387947797e-03
-6.7175144212e+00	-2.1001071401e+01	 1.7732411067e-02
-6.0811183182e+00	-2.1637467504e+01	 2.4903701201e-02
-1.2727922061e+01	-1.5556349186e+01	-3.6712486128e-02
-1.2091525958e+01	-1.6192745289e+01	-3.5083945415e-02
-1.1455129855e+01	-1.6829141392e+01	-3.1388578877e-02
-1.0818733752e+01	-1.7465537495e+01	-2.6462247009e-02
-1.0182337649e+01	-1.8101933598e+01	-2.1646516845e-02
-9.5459415460e+00	-1.8738329701e+01	-1.7401180972e-02
-8.9095454429e+00	-1.9374725804e+01	-1.3937881486e-02
-8.2731493399e+00	-2.0011121908e+01	-5.3244458331e-04
-7.6367532368e+00	-2.0647518011e+01	 1.1287032513e-02
-7.0003571337e+00	-2.1283914114e+01	 1.9887594988e-02
-6.3639610306e+00	-2.1920310217e+01	 2.5510567398e-02
-3.5355339059e+00	-1.9091883092e+01	 4.6532070478e-02
-2.8991378029e+00	-1.9728279195e+01	 6.3585349085e-02
-2.2627416998e+00	-2.0364675298e+01	 5.9329019819e-02
-1.6263455967e+00	-2.1001071401e+01	 5.4034574335e-02
-9.8994949366e-01	-2.1637467504e+01	 4.7972395641e-02
-3.5355339059e-01	-2.2273863607e+01	 4.1412836955e-02
 2.8284271247e-01	-2.2910259710e+01	 3.4626221703e-02
 9.1923881554e-01	-2.3546655813e+01	 2.7882843527e-02
 1.5556349186e+00	-2.4183051917e+01	 2.2304575379e-02
 2.1920310217e+00	-2.4819448020e+01	 2.8094615541e-02
 2.8284271248e+00	-2.5455844123e+01	 3.3887384978e-02
-3.8183766184e+00	-1.9374725804e+01	 4.0874106923e-02
-3.1819805153e+00	-2.0011121908e+01	 5.7661686089e-02
-2.5455844123e+00	-2.0647518011e+01	 5.9964439441e-02
-1.9091883092e+00	-2.1283914114e+01	 5.4217838074e-02
-1.2727922061e+00	-2.1920310217e+01	 4.7626941832e-02
-6.3639610307e-01	-2.2556706320e+01	 4.0462107527e-02
-1.2570847141e-12	-2.3193102423e+01	 3.2993662177e-02
 6.3639610307e-01	-2.3829498526e+01	 2.5491903017e-02
 1.2727922061e+00	-2.4465894629e+01	 2.4514696182e-02
 1.9091883092e+00	-2.5102290732e+01	 2.9535251922e-02
 2.5455844123e+00	-2.5738686835e+01	 3.4592496858e-02
-4.1012193309e+00	-1.9657568517e+01	 3.6194510349e-02
-3.4648232278e+00	-2.0293964620e+01	 5.1409930002e-02
-2.8284271247e+00	-2.0930360723e+01	 6.0152343805e-02
-2.1920310217e+00	-2.1566756826e+01	 5.3960633763e-02
-1.5556349186e+00	-2.2203152929e+01	 4.6848070207e-02
-9.1923881554e-01	-2.2839549032e+01	 3.9085013541e-02
-2.8284271248e-01	-2.3475945135e+01	 3.0941794378e-02
 3.5355339059e-01	-2.4112341238e+01	 2.2688713546e-02
 9.8994949366e-01	-2.4748737342e+01	 2.6440894622e-02
 1.6263455967e+00	-2.5385133445e+01	 3.0713403008e-02
 2.2627416998e+00	-2.6021529548e+01	 3.5056560035e-02
-4.3840620433e+00	-1.9940411229e+01	 3.2422707456e-02
-3.7476659403e+00	-2.0576807333e+01	 4.6074927033e-02
-3.1112698372e+00	-2.1213203436e+01	 5.6175838079e-02
-2.4748737342e+00	-2.1849599539e+01	 5.3339732377e-02
-1.8384776311e+00	-2.2485995642e+01	 4.5712551031e-02
-1.2020815280e+00	-2.3122391745e+01	 3.7358324555e-02
-5.6568542495e-01	-2.3758787848e+01	 2.8547387154e-02
 7.0710678120e-02	-2.4395183951e+01	 2.4601191938e-02
 7.0710678119e-01	-2.5031580054e+01	 2.8094461142e-02
 1.3435028843e+00	-2.5667976157e+01	 3.1640359334e-02
 1.9798989873e+00	-2.6304372260e+01	 3.5290865132e-02
-4.6669047558e+00	-2.0223253942e+01	 2.9488126917e-02
-4.0305086528e+00	-2.0859650045e+01	 4.1586107082e-02
-3.3941125497e+00	-2.1496046148e+01	 5.0304857636e-02
-2.7577164466e+00	-2.2132442251e+01	 5.2431902469e-02
-2.1213203436e+00	-2.2768838354e+01	 4.4297152146e-02
-1.4849242405e+00	-2.3405234457e+01	 3.5358807700e-02
-8.4852813742e-01	-2.4041630560e+01	 2.5887206928e-02
-2.1213203435e-01	-2.4678026663e+01	 2.6732549235e-02
 4.2426406872e-01	-2.5314422766e+01	 2.9486686548e-02
 1.0606601718e+00	-2.5950818870e+01	 3.2327411795e-02
 1.6970562749e+00	-2.6587214973e+01	 3.5306703137e-02
-4.9497474683e+00	-2.0506096654e+01	 2.7320199380e-02
-4.3133513652e+00	-2.1142492757e+01	 3.7872902026e-02
-3.6769552622e+00	-2.1778888861e+01	 4.5218452492e-02
-3.0405591591e+00	-2.2415284964e+01	 4.9598190234e-02
-2.4041630560e+00	-2.3051681067e+01	 4.2678638972e-02
-1.7677669530e+00	-2.3688077170e+01	 3.3163227687e-02
-1.1313708499e+00	-2.4324473273e+01	 2.6624549425e-02
-4.9497474683e-01	-2.4960869376e+01	 2.8592418771e-02
 1.4142135624e-01	-2.5597265479e+01	 3.0628862010e-02
 7.7781745932e-01	-2.6233661582e+01	 3.2785851650e-02
 1.4142135624e+00	-2.6870057685e+01	 3.5115365399e-02
-5.2325901808e+00	-2.0788939367e+01	 2.5848357462e-02
-4.5961940777e+00	-2.1425335470e+01	 3.4864745709e-02
-3.9597979746e+00	-2.2061731573e+01	 4.0846057723e-02
-3.3234018716e+00	-2.2698127676e+01	 4.4033626743e-02
-2.6870057685e+00	-2.3334523779e+01	 4.0933774504e-02
-2.0506096654e+00	-2.3970919882e+01	 3.0848346801e-02
-1.4142135624e+00	-2.4607315985e+01	 2.8954437257e-02
-7.7781745930e-01	-2.5243712088e+01	 3.0192091989e-02
-1.4142135623e-01	-2.5880108191e+01	 3.1532279060e-02
 4.9497474684e-01	-2.6516504295e+01	 3.3026970523e-02
 1.1313708499e+00	-2.7152900398e+01	 3.4728143630e-02
-5.5154328932e+00	-2.1071782079e+01	 2.5002035755e-02
-4.8790367902e+00	-2.1708178182e+01	 3.2491073953e-02
-4.2426406871e+00	-2.2344574285e+01	 3.7117110376e-02
-3.6062445840e+00	-2.2980970389e+01	 3.9121472050e-02
-2.9698484810e+00	-2.3617366492e+01	 3.8745480602e-02
-2.3334523779e+00	-2.4253762595e+01	 3.0569627418e-02
-1.6970562748e+00	-2.4890158698e+01	 3.1013982103e-02
-1.0606601718e+00	-2.5526554801e+01	 3.1542860695e-02
-4.2426406870e-01	-2.6162950904e+01	 3.2208229594e-02
 2.1213203437e-01	-2.6799347007e+01	 3.3062060399e-02
 8.4852813744e-01	-2.7435743110e+01	 3.4156329905e-02
-5.7982756057e+00	-2.1354624792e+01	 2.4710670822e-02
-5.1618795026e+00	-2.1991020895e+01	 3.0681324547e-02
-4.5254833996e+00	-2.2627416998e+01	 3.3961049470e-02
-3.8890872965e+00	-2.3263813101e+01	 3.4791166402e-02
-3.2526911934e+00	-2.3900209204e+01	 3.3412990756e-02
-2.6162950904e+00	-2.4536605307e+01	 3.3091416880e-02
-1.9798989873e+00	-2.5173001410e+01	 3.2814476040e-02
-1.3435028842e+00	-2.5809397513e+01	 3.2656017054e-02
-7.0710678118e-01	-2.6445793616e+01	 3.2668005869e-02
-7.0710678109e-02	-2.7082189719e+01	 3.2902413625e-02
 5.6568542496e-01	-2.7718585823e+01	 3.3411216663e-02
-6.0811183182e+00	-2.1637467504e+01	 2.4903701201e-02
-5.4447222151e+00	-2.2273863607e+01	 2.9364937256e-02
-4.8083261120e+00	-2.2910259710e+01	 3.1307315997e-02
-4.1719300090e+00	-2.3546655813e+01	 3.0972152018e-02
-3.5355339059e+00	-2.4183051917e+01	 2.9319712190e-02
-2.8991378028e+00	-2.4819448020e+01	 3.5344008742e-02
-2.2627416998e+00	-2.5455844123e+01	 3.4367211508e-02
-1.6263455967e+00	-2.6092240226e+01	 3.3542853600e-02
-9.8994949365e-01	-2.6728636329e+01	 3.2922900505e-02
-3.5355339058e-01	-2.7365032432e+01	 3.2559322912e-02
 2.8284271248e-01	-2.8001428535e+01	 3.2504096705e-02
-6.3639610306e+00	-2.1920310217e+01	 2.5510567398e-02
-5.7275649276e+00	-2.2556706320e+01	 2.8471353816e-02
-5.0911688245e+00	-2.3193102423e+01	 2.9085352920e-02
-4.4547727214e+00	-2.3829498526e+01	 2.7593873091e-02
-3.8183766184e+00	-2.4465894629e+01	 2.9272557293e-02
-3.1819805153e+00	-2.5102290732e+01	 3.4782148293e-02
-2.5455844122e+00	-2.5738686835e+01	 3.5683481312e-02
-1.9091883092e+00	-2.6375082938e+01	 3.4214663224e-02
-1.2727922061e+00	-2.7011479041e+01	 3.2984206488e-02
-6.3639610306e-01	-2.7647875144e+01	 3.2044081335e-02
 0.0000000000e+00	-2.8284271248e+01	 3.1446263195e-02
 7.0710678119e+00	 7.0710678119e+00	-5.9071788576e-02
 7.0710678119e+00	 7.0710678119e+00	-5.9071788576e-02
 7.0710678119e+00	 7.0710678119e+00	-5.9071788576e-02
 7.0710678119e+00	 7.0710678119e+00	-5.9071788576e-02
 7.0710678119e+00	 7.0710678119e+00	-5.9071788576e-02
 7.0710678119e+00	 7.0710678119e+00	-5.9071788576e-02
 7.0710678119e+00	 7.0710678119e+00	-5.9071788576e-02
 7.0710678119e+00	 7.0710678119e+00	-5.9071788576e-02
 7.0710678119e+00	 7.0710678119e+00	-5.9071788576e-02
 7.0710678119e+00	 7.0710678119e+00	-5.9071788576e-02
 7.0710678119e+00	 7.0710678119e+00	-5.9071788576e-02
 7.0675322780e+00	 7.0675322780e+00	 1.2030173121e+01
 7.0678858314e+00	 7.0671787246e+00	 1.2725950797e+01
 7.0682393848e+00	 7.0668251712e+00	 1.3061967822e+01
 7.0685929382e+00	 7.0664716178e+00	 1.3038224196e+01
 7.0689464916e+00	 7.0661180644e+00	 1.2654719919e+01
 7.0693000449e+00	 7.0657645110e+00	 1.1911454991e+01
 7.0696535983e+00	 7.0654109577e+00	 1.0808429413e+01
 7.0700071517e+00	 7.0650574043e+00	 9.3456431829e+00
 7.0703607051e+00	 7.0647038509e+00	 7.5230963021e+00
 7.0707142585e+00	 7.0643502975e+00	 5.3407887704e+00
 7.0710678119e+00	 7.0639967441e+00	 2.7987205877e+00
 7.0569256763e+00	 7.0569256763e+00	 6.0421042881e+00
 7.0583398898e+00	 7.0555114627e+00	 6.3845910932e+00
 7.0597541034e+00	 7.0540972492e+00	 6.5484447106e+00
 7.0611683170e+00	 7.0526830356e+00	 6.5336651403e+00
 7.0625825305e+00	 7.0512688220e+00	 6.3402523824e+00
 7.0639967441e+00	 7.0498546085e+00	 5.9682064367e+00
 7.0654109577e+00	 7.0484403949e+00	 5.4175273034e+00
 7.0668251712e+00	 7.0470261813e+00	 4.6882149823e+00
 7.0682393848e+00	 7.0456119678e+00	 3.7802694736e+00
 7.0696535983e+00	 7.0441977542e+00	 2.6936907771e+00
 7.0710678119e+00	 7.0427835407e+00	 1.4284788929e+00
 7.0392480067e+00	 7.0392480067e+00	 4.0062545965e+00
 7.0424299873e+00	 7.0360660262e+00	 4.2328361325e+00
 7.0456119678e+00	 7.0328840457e+00	 4.3403726745e+00
 7.0487939483e+00	 7.0297020652e+00	 4.3288642226e+00
 7.0519759288e+00	 7.0265200847e+00	 4.1983107765e+00
 7.0551579093e+00	 7.0233381042e+00	 3.9487123363e+00
 7.0583398898e+00	 7.0201561237e+00	 3.5800689019e+00
 7.0615218704e+00	 7.0169741431e+00	 3.0923804731e+00
 7.0647038509e+00	 7.0137921626e+00	 2.4856470499e+00
 7.0678858314e+00	 7.0106101821e+00	 1.7598686323e+00
 7.0710678119e+00	 7.0074282016e+00	 9.1504522003e-01
 7.0144992694e+00	 7.0144992694e+00	 2.9817395259e+00
 7.0201561237e+00	 7.0088424152e+00	 3.1506555398e+00
 7.0258129779e+00	 7.0031855609e+00	 3.2301730451e+00
 7.0314698322e+00	 6.9975287067e+00	 3.2202920413e+00
 7.0371266864e+00	 6.9918718524e+00	 3.1210125280e+00
 7.0427835407e+00	 6.9862149982e+00	 2.9323345047e+00
 7.0484403949e+00	 6.9805581439e+00	 2.6542579709e+00
 7.0540972492e+00	 6.9749012897e+00	 2.2867829263e+00
 7.0597541034e+00	 6.9692444354e+00	 1.8299093704e+00
 7.0654109577e+00	 6.9635875812e+00	 1.2836373027e+00
 7.0710678119e+00	 6.9579307269e+00	 6.4796672273e-01
 6.9826794642e+00	 6.9826794642e+00	 2.3657143311e+00
 6.9915182990e+00	 6.9738406295e+00	 2.5000687211e+00
 7.0003571338e+00	 6.9650017947e+00	 2.5627653731e+00
 7.0091959685e+00	 6.9561629600e+00	 2.5538042854e+00
 7.0180348033e+00	 6.9473241252e+00	 2.4731854563e+00
 7.0268736381e+00	 6.9384852904e+00	 2.3209088839e+00
 7.0357124728e+00	 6.9296464557e+00	 2.0969745667e+00
 7.0445513076e+00	 6.9208076209e+00	 1.8013825028e+00
 7.0533901424e+00	 6.9119687861e+00	 1.4341326906e+00
 7.0622289771e+00	 6.9031299514e+00	 9.9522512824e-01
 7.0710678119e+00	 6.8942911166e+00	 4.8465981411e-01
 6.9437885913e+00	 6.9437885913e+00	 1.9551981007e+00
 6.9565165133e+00	 6.9310606692e+00	 2.0664796504e+00
 6.9692444354e+00	 6.9183327472e+00	 2.1179111770e+00
 6.9819723575e+00	 6.9056048251e+00	 2.1094926754e+00
 6.9947002795e+00	 6.8928769030e+00	 2.0412241404e+00
 7.0074282016e+00	 6.8801489810e+00	 1.9131055667e+00
 7.0201561237e+00	 6.8674210589e+00	 1.7251369494e+00
 7.0328840457e+00	 6.8546931369e+00	 1.4773182832e+00
 7.0456119678e+00	 6.8419652148e+00	 1.1696495630e+00
 7.0583398898e+00	 6.8292372927e+00	 8.0213078360e-01
 7.0710678119e+00	 6.8165093707e+00	 3.7476193990e-01
 6.8978266505e+00	 6.8978266505e+00	 1.6627054092e+00
 6.9151507666e+00	 6.8805025344e+00	 1.7574492308e+00
 6.9324748828e+00	 6.8631784182e+00	 1.8007678034e+00
 6.9497989989e+00	 6.8458543021e+00	 1.7926611138e+00
 6.9671231151e+00	 6.8285301859e+00	 1.7331291492e+00
 6.9844472312e+00	 6.8112060698e+00	 1.6221718966e+00
 7.0017713473e+00	 6.7938819537e+00	 1.4597893429e+00
 7.0190954635e+00	 6.7765578375e+00	 1.2459814752e+00
 7.0364195796e+00	 6.7592337214e+00	 9.8074828044e-01
 7.0537436958e+00	 6.7419096053e+00	 6.6408974570e-01
 7.0710678119e+00	 6.7245854891e+00	 2.9600585797e-01
 6.8447936419e+00	 6.8447936419e+00	 1.4443353851e+00
 6.8674210589e+00	 6.8221662249e+00	 1.5266082056e+00
 6.8900484759e+00	 6.7995388079e+00	 1.5637695560e+00
 6.9126758929e+00	 6.7769113909e+00	 1.5558194073e+00
 6.9353033099e+00	 6.7542839739e+00	 1.5027577306e+00
 6.9579307269e+00	 6.7316565569e+00	 1.4045844969e+00
 6.9805581439e+00	 6.7090291399e+00	 1.2612996773e+00
 7.0031855609e+00	 6.6864017229e+00	 1.0729032428e+00
 7.0258129779e+00	 6.6637743059e+00	 8.3939516459e-01
 7.0484403949e+00	 6.6411468889e+00	 5.6077541364e-01
 7.0710678119e+00	 6.6185194719e+00	 2.3704396102e-01
 6.7846895655e+00	 6.7846895655e+00	 1.2756395989e+00
 6.8133273902e+00	 6.7560517409e+00	 1.3481406372e+00
 6.8419652148e+00	 6.7274139162e+00	 1.3804384330e+00
 6.8706030394e+00	 6.6987760916e+00	 1.3725329275e+00
 6.8992408641e+00	 6.6701382670e+00	 1.3244240621e+00
 6.9278786887e+00	 6.6415004423e+00	 1.2361117782e+00
 6.9565165133e+00	 6.6128626177e+00	 1.1075960170e+00
 6.9851543380e+00	 6.5842247930e+00	 9.3887671993e-01
 7.0137921626e+00	 6.5555869684e+00	 7.2995382828e-01
 7.0424299873e+00	 6.5269491438e+00	 4.8082728338e-01
 7.0710678119e+00	 6.4983113191e+00	 1.9149702656e-01
 6.7175144213e+00	 6.7175144213e+00	 1.1419254805e+00
 6.7528697604e+00	 6.6821590822e+00	 1.2065356297e+00
 6.7882250994e+00	 6.6468037432e+00	 1.2348679782e+00
 6.8235804385e+00	 6.6114484041e+00	 1.2269224155e+00
 6.8589357775e+00	 6.5760930651e+00	 1.1826988312e+00
 6.8942911166e+00	 6.5407377260e+00	 1.1021971150e+00
 6.9296464557e+00	 6.5053823869e+00	 9.8541715637e-01
 6.9650017947e+00	 6.4700270479e+00	 8.3235884500e-01
 7.0003571338e+00	 6.4346717088e+00	 6.4302207047e-01
 7.0357124728e+00	 6.3993163698e+00	 4.1740672239e-01
 7.0710678119e+00	 6.3639610307e+00	 1.5551269034e-01
 6.7175144213e+00	 6.7175144213e+00	 1.1419254805e+00
 6.7528697604e+00	 6.6821590822e+00	 1.2065356297e+00
 6.7882250994e+00	 6.6468037432e+00	 1.2348679782e+00
 6.8235804385e+00	 6.6114484041e+00	 1.2269224155e+00
 6.8589357775e+00	 6.5760930651e+00	 1.1826988312e+00
 6.8942911166e+00	 6.5407377260e+00	 1.1021971150e+00
 6.9296464557e+00	 6.5053823869e+00	 9.8541715637e-01
 6.9650017947e+00	 6.4700270479e+00	 8.3235884500e-01
 7.0003571338e+00	 6.4346717088e+00	 6.4302207047e-01
 7.0357124728e+00	 6.3993163698e+00	 4.1740672239e-01
 7.0710678119e+00	 6.3639610307e+00	 1.5551269034e-01
 6.6432682093e+00	 6.6432682093e+00	 1.0164217959e+00
 6.6860481695e+00	 6.6004882490e+00	 1.0765273920e+00
 6.7288281298e+00	 6.5577082887e+00	 1.1043669629e+00
 6.7716080901e+00	 6.5149283285e+00	 1.0999403132e+00
 6.8143880503e+00	 6.4721483682e+00	 1.0632472472e+00
 6.8571680106e+00	 6.4293684080e+00	 9.9428756927e-01
 6.8999479708e+00	 6.3865884477e+00	 8.9306108395e-01
 6.9427279311e+00	 6.3438084874e+00	 7.5956759562e-01
 6.9855078914e+00	 6.3010285272e+00	 5.9380690871e-01
 7.0282878516e+00	 6.2582485669e+00	 3.9577882764e-01
 7.0710678119e+00	 6.2154686066e+00	 1.6548315683e-01
 6.5619509294e+00	 6.5619509294e+00	 9.1622786273e-01
 6.6128626177e+00	 6.5110392412e+00	 9.7071617931e-01
 6.6637743059e+00	 6.4601275529e+00	 9.9601032713e-01
 6.7146859942e+00	 6.4092158647e+00	 9.9210997653e-01
 6.7655976824e+00	 6.3583041765e+00	 9.5901479786e-01
 6.8165093707e+00	 6.3073924882e+00	 8.9672446147e-01
 6.8674210589e+00	 6.2564808000e+00	 8.0523863772e-01
 6.9183327472e+00	 6.2055691117e+00	 6.8455699696e-01
 6.9692444354e+00	 6.1546574235e+00	 5.3467920955e-01
 7.0201561237e+00	 6.1037457352e+00	 3.5560494584e-01
 7.0710678119e+00	 6.0528340470e+00	 1.4733387621e-01
 6.4735625818e+00	 6.4735625818e+00	 8.3501059555e-01
 6.5333131048e+00	 6.4138120588e+00	 8.8340443346e-01
 6.5930636278e+00	 6.3540615358e+00	 9.0501140974e-01
 6.6528141508e+00	 6.2943110128e+00	 8.9983099151e-01
 6.7125646738e+00	 6.2345604897e+00	 8.6786264588e-01
 6.7723151968e+00	 6.1748099667e+00	 8.0910584000e-01
 6.8320657199e+00	 6.1150594437e+00	 7.2356004099e-01
 6.8918162429e+00	 6.0553089207e+00	 6.1122471600e-01
 6.9515667659e+00	 5.9955583977e+00	 4.7209933215e-01
 7.0113172889e+00	 5.9358078747e+00	 3.0618335660e-01
 7.0710678119e+00	 5.8760573517e+00	 1.1347625649e-01
 6.3781031663e+00	 6.3781031663e+00	 7.6841964074e-01
 6.4473996309e+00	 6.3088067018e+00	 8.1059557278e-01
 6.5166960954e+00	 6.2395102372e+00	 8.2790877064e-01
 6.5859925600e+00	 6.1702137727e+00	 8.2035840307e-01
 6.6552890246e+00	 6.1009173081e+00	 7.8794363882e-01
 6.7245854891e+00	 6.0316208435e+00	 7.3066364663e-01
 6.7938819537e+00	 5.9623243790e+00	 6.4851759529e-01
 6.8631784182e+00	 5.8930279144e+00	 5.4150465354e-01
 6.9324748828e+00	 5.8237314499e+00	 4.0962399018e-01
 7.0017713473e+00	 5.7544349853e+00	 2.5287477399e-01
 7.0710678119e+00	 5.6851385207e+00	 7.1256173753e-02
 6.2755726831e+00	 6.2755726831e+00	 7.1337408984e-01
 6.3551221959e+00	 6.1960231702e+00	 7.4940620701e-01
 6.4346717088e+00	 6.1164736573e+00	 7.6214004490e-01
 6.5142212217e+00	 6.0369241444e+00	 7.5157434600e-01
 6.5937707346e+00	 5.9573746315e+00	 7.1770785280e-01
 6.6733202475e+00	 5.8778251186e+00	 6.6053930781e-01
 6.7528697604e+00	 5.7982756057e+00	 5.8006745353e-01
 6.8324192732e+00	 5.7187260929e+00	 4.7629103251e-01
 6.9119687861e+00	 5.6391765800e+00	 3.4920878728e-01
 6.9915182990e+00	 5.5596270671e+00	 1.9881946041e-01
 7.0710678119e+00	 5.4800775542e+00	 2.5121794457e-02
 6.1659711320e+00	 6.1659711320e+00	 6.6763501500e-01
 6.2564808000e+00	 6.0754614640e+00	 6.9770605564e-01
 6.3469904680e+00	 5.9849517960e+00	 7.0577014645e-01
 6.4375001359e+00	 5.8944421280e+00	 6.9182543524e-01
 6.5280098039e+00	 5.8039324600e+00	 6.5587006984e-01
 6.6185194719e+00	 5.7134227920e+00	 5.9790219811e-01
 6.7090291399e+00	 5.6229131240e+00	 5.1791996790e-01
 6.7995388079e+00	 5.5324034560e+00	 4.1592152712e-01
 6.8900484759e+00	 5.4418937880e+00	 2.9190502367e-01
 6.9805581439e+00	 5.3513841200e+00	 1.4586860549e-01
 7.0710678119e+00	 5.2608744520e+00	-2.2189579467e-02
 6.0492985131e+00	 6.0492985131e+00	 6.2953899065e-01
 6.1514754429e+00	 5.9471215832e+00	 6.5388895330e-01
 6.2536523728e+00	 5.8449446533e+00	 6.5731235064e-01
 6.3558293027e+00	 5.7427677234e+00	 6.3980651789e-01
 6.4580062326e+00	 5.6405907935e+00	 6.0136879034e-01
 6.5601831625e+00	 5.5384138636e+00	 5.4199650327e-01
 6.6623600924e+00	 5.4362369338e+00	 4.6168699202e-01
 6.7645370222e+00	 5.3340600039e+00	 3.6043759198e-01
 6.8667139521e+00	 5.2318830740e+00	 2.3824563854e-01
 6.9688908820e+00	 5.1297061441e+00	 9.5108467154e-02
 7.0710678119e+00	 5.0275292142e+00	-6.8976586712e-02
 5.9255548264e+00	 5.9255548264e+00	 5.9782624434e-01
 6.0401061249e+00	 5.8110035278e+00	 6.1672246313e-01
 6.1546574235e+00	 5.6964522292e+00	 6.1560722841e-01
 6.2692087220e+00	 5.5819009307e+00	 5.9447678528e-01
 6.3837600206e+00	 5.4673496321e+00	 5.5332737887e-01
 6.4983113191e+00	 5.3527983336e+00	 4.9215525439e-01
 6.6128626177e+00	 5.2382470350e+00	 4.1095665710e-01
 6.7274139162e+00	 5.1236957365e+00	 3.0972783228e-01
 6.8419652148e+00	 5.0091444379e+00	 1.8846502532e-01
 6.9565165133e+00	 4.8945931394e+00	 4.7164481623e-02
 7.0710678119e+00	 4.7800418408e+00	-1.1417755334e-01
 5.7947400718e+00	 5.7947400718e+00	 5.7152651396e-01
 5.9223728458e+00	 5.6671072978e+00	 5.8524631198e-01
 6.0500056198e+00	 5.5394745238e+00	 5.7973871542e-01
 6.1776383939e+00	 5.4118417498e+00	 5.5499853047e-01
 6.3052711679e+00	 5.2842089758e+00	 5.1102056342e-01
 6.4329039419e+00	 5.1565762018e+00	 4.4779962064e-01
 6.5605367159e+00	 5.0289434278e+00	 3.6533050858e-01
 6.6881694899e+00	 4.9013106538e+00	 2.6360803377e-01
 6.8158022639e+00	 4.7736778798e+00	 1.4262700283e-01
 6.9434350379e+00	 4.6460451058e+00	 2.3822224831e-03
 7.0710678119e+00	 4.5184123318e+00	-1.5713150049e-01
 5.6568542495e+00	 5.6568542495e+00	 5.4988123797e-01
 5.7982756057e+00	 5.5154328933e+00	 5.5870208790e-01
 5.9396969620e+00	 5.3740115370e+00	 5.4897465796e-01
 6.0811183182e+00	 5.2325901808e+00	 5.2069188267e-01
 6.2225396745e+00	 5.0911688245e+00	 4.7384669665e-01
 6.3639610307e+00	 4.9497474683e+00	 4.0843203467e-01
 6.5053823869e+00	 4.8083261121e+00	 3.2444083162e-01
 6.6468037432e+00	 4.6669047558e+00	 2.2186602250e-01
 6.7882250994e+00	 4.5254833996e+00	 1.0070054246e-01
 6.9296464557e+00	 4.3840620433e+00	-3.9062673238e-02
 7.0710678119e+00	 4.2426406871e+00	-1.9743068919e-01
 7.0710678119e+00	 7.0710678119e+00	-5.9071788576e-02
 7.0710678119e+00	 7.0710678119e+00	-5.9071788576e-02
 7.0710678119e+00	 7.0710678119e+00	-5.9071788576e-02
 7.0710678119e+00	 7.0710678119e+00	-5.9071788576e-02
 7.0710678119e+00	 7.0710678119e+00	-5.9071788576e-02
 7.0710678119e+00	 7.0710678119e+00	-5.9071788576e-02
 7.0710678119e+00	 7.0710678119e+00	-5.9071788576e-02
 7.0710678119e+00	 7.0710678119e+00	-5.9071788576e-02
 7.0710678119e+00	 7.0710678119e+00	-5.9071788576e-02
 7.0710678119e+00	 7.0710678119e+00	-5.9071788576e-02
 7.0710678119e+00	 7.0710678119e+00	-5.9071788576e-02
 7.0710678119e+00	 7.0639967441e+00	 4.7008731778e+00
 7.0714213653e+00	 7.0643502975e+00	 5.4787984091e+00
 7.0717749187e+00	 7.0647038509e+00	 6.1785440687e+00
 7.0721284721e+00	 7.0650574043e+00	 6.8001101565e+00
 7.0724820255e+00	 7.0654109577e+00	 7.3434966726e+00
 7.0728355789e+00	 7.0657645110e+00	 7.8087036170e+00
 7.0731891322e+00	 7.0661180644e+00	 8.1957309897e+00
 7.0735426856e+00	 7.0664716178e+00	 8.5045787906e+00
 7.0738962390e+00	 7.0668251712e+00	 8.7352470199e+00
 7.0742497924e+00	 7.0671787246e+00	 8.8877356773e+00
 7.0746033458e+00	 7.0675322780e+00	 8.9620447631e+00
 7.0710678119e+00	 7.0427835407e+00	 1.9130199626e+00
 7.0724820255e+00	 7.0441977542e+00	 2.3577715948e+00
 7.0738962390e+00	 7.0456119678e+00	 2.7610230561e+00
 7.0753104526e+00	 7.0470261813e+00	 3.1227743464e+00
 7.0767246661e+00	 7.0484403949e+00	 3.4430254659e+00
 7.0781388797e+00	 7.0498546085e+00	 3.7217764145e+00
 7.0795530933e+00	 7.0512688220e+00	 3.9590271922e+00
 7.0809673068e+00	 7.0526830356e+00	 4.1547777991e+00
 7.0823815204e+00	 7.0540972492e+00	 4.3090282351e+00
 7.0837957340e+00	 7.0555114627e+00	 4.4217785002e+00
 7.0852099475e+00	 7.0569256763e+00	 4.4930285945e+00
 7.0710678119e+00	 7.0074282016e+00	 1.2287601018e+00
 7.0742497924e+00	 7.0106101821e+00	 1.5277987332e+00
 7.0774317729e+00	 7.0137921626e+00	 1.7991622769e+00
 7.0806137534e+00	 7.0169741431e+00	 2.0428507331e+00
 7.0837957340e+00	 7.0201561237e+00	 2.2588641018e+00
 7.0869777145e+00	 7.0233381042e+00	 2.4472023831e+00
 7.0901596950e+00	 7.0265200847e+00	 2.6078655771e+00
 7.0933416755e+00	 7.0297020652e+00	 2.7408536839e+00
 7.0965236560e+00	 7.0328840457e+00	 2.8461667035e+00
 7.0997056365e+00	 7.0360660262e+00	 2.9238046362e+00
 7.1028876171e+00	 7.0392480067e+00	 2.9737674818e+00
 7.0710678119e+00	 6.9579307269e+00	 9.3283932030e-01
 7.0767246661e+00	 6.9635875812e+00	 1.1524341378e+00
 7.0823815204e+00	 6.9692444354e+00	 1.3515663245e+00
 7.0880383746e+00	 6.9749012897e+00	 1.5302358809e+00
 7.0936952289e+00	 6.9805581439e+00	 1.6884428074e+00
 7.0993520831e+00	 6.9862149982e+00	 1.8261871045e+00
 7.1050089374e+00	 6.9918718524e+00	 1.9434687728e+00
 7.1106657916e+00	 6.9975287067e+00	 2.0402878127e+00
 7.1163226459e+00	 7.0031855609e+00	 2.1166442246e+00
 7.1219795001e+00	 7.0088424152e+00	 2.1725380091e+00
 7.1276363544e+00	 7.0144992694e+00	 2.2079691667e+00
 7.0710678119e+00	 6.8942911166e+00	 7.7032970028e-01
 7.0799066467e+00	 6.9031299514e+00	 9.4006810294e-01
 7.0887454814e+00	 6.9119687861e+00	 1.0937676098e+00
 7.0975843162e+00	 6.9208076209e+00	 1.2314282226e+00
 7.1064231510e+00	 6.9296464557e+00	 1.3530499434e+00
 7.1152619857e+00	 6.9384852904e+00	 1.4586327738e+00
 7.1241008205e+00	 6.9473241252e+00	 1.5481767158e+00
 7.1329396553e+00	 6.9561629600e+00	 1.6216817712e+00
 7.1417784900e+00	 6.9650017947e+00	 1.6791479419e+00
 7.1506173248e+00	 6.9738406295e+00	 1.7205752297e+00
 7.1594561595e+00	 6.9826794642e+00	 1.7459636365e+00
 7.0710678119e+00	 6.8165093707e+00	 6.6850612644e-01
 7.0837957340e+00	 6.8292372927e+00	 8.0401858545e-01
 7.0965236560e+00	 6.8419652148e+00	 9.2648182450e-01
 7.1092515781e+00	 6.8546931369e+00	 1.0358958491e+00
 7.1219795001e+00	 6.8674210589e+00	 1.1322606648e+00
 7.1347074222e+00	 6.8801489810e+00	 1.2155762771e+00
 7.1474353443e+00	 6.8928769030e+00	 1.2858426915e+00
 7.1601632663e+00	 6.9056048251e+00	 1.3430599135e+00
 7.1728911884e+00	 6.9183327472e+00	 1.3872279487e+00
 7.1856191105e+00	 6.9310606692e+00	 1.4183468025e+00
 7.1983470325e+00	 6.9437885913e+00	 1.4364164806e+00
 7.0710678119e+00	 6.7245854891e+00	 5.9921182215e-01
 7.0883919280e+00	 6.7419096053e+00	 7.0972235318e-01
 7.1057160442e+00	 6.7592337214e+00	 8.0933952914e-01
 7.1230401603e+00	 6.7765578375e+00	 8.9806336395e-01
 7.1403642765e+00	 6.7938819537e+00	 9.7589387152e-01
 7.1576883926e+00	 6.8112060698e+00	 1.0428310658e+00
 7.1750125087e+00	 6.8285301859e+00	 1.0988749606e+00
 7.1923366249e+00	 6.8458543021e+00	 1.1440255700e+00
 7.2096607410e+00	 6.8631784182e+00	 1.1782829078e+00
 7.2269848572e+00	 6.8805025344e+00	 1.2016469879e+00
 7.2443089733e+00	 6.8978266505e+00	 1.2141178243e+00
 7.0710678119e+00	 6.6185194719e+00	 5.4936664449e-01
 7.0936952289e+00	 6.6411468889e+00	 6.4075537099e-01
 7.1163226459e+00	 6.6637743059e+00	 7.2287944801e-01
 7.1389500629e+00	 6.6864017229e+00	 7.9573890654e-01
 7.1615774799e+00	 6.7090291399e+00	 8.5933377761e-01
 7.1842048969e+00	 6.7316565569e+00	 9.1366409223e-01
 7.2068323139e+00	 6.7542839739e+00	 9.5872988139e-01
 7.2294597309e+00	 6.7769113909e+00	 9.9453117611e-01
 7.2520871479e+00	 6.7995388079e+00	 1.0210680074e+00
 7.2747145649e+00	 6.8221662249e+00	 1.0383404063e+00
 7.2973419819e+00	 6.8447936419e+00	 1.0463484037e+00
 7.0710678119e+00	 6.4983113191e+00	 5.1210775752e-01
 7.0997056365e+00	 6.5269491438e+00	 5.8834035594e-01
 7.1283434612e+00	 6.5555869684e+00	 6.5658285342e-01
 7.1569812858e+00	 6.5842247930e+00	 7.1683531282e-01
 7.1856191105e+00	 6.6128626177e+00	 7.6909779701e-01
 7.2142569351e+00	 6.6415004423e+00	 8.1337036883e-01
 7.2428947597e+00	 6.6701382670e+00	 8.4965309117e-01
 7.2715325844e+00	 6.6987760916e+00	 8.7794602688e-01
 7.3001704090e+00	 6.7274139162e+00	 8.9824923883e-01
 7.3288082336e+00	 6.7560517409e+00	 9.1056278988e-01
 7.3574460583e+00	 6.7846895655e+00	 9.1488674290e-01
 7.0710678119e+00	 6.3639610307e+00	 4.8350813675e-01
 7.1064231510e+00	 6.3993163698e+00	 5.4737500419e-01
 7.1417784900e+00	 6.4346717088e+00	 6.0427720412e-01
 7.1771338291e+00	 6.4700270479e+00	 6.5421485485e-01
 7.2124891681e+00	 6.5053823869e+00	 6.9718807466e-01
 7.2478445072e+00	 6.5407377260e+00	 7.3319698184e-01
 7.2831998463e+00	 6.5760930651e+00	 7.6224169468e-01
 7.3185551853e+00	 6.6114484041e+00	 7.8432233146e-01
 7.3539105244e+00	 6.6468037432e+00	 7.9943901048e-01
 7.3892658634e+00	 6.6821590822e+00	 8.0759185003e-01
 7.4246212025e+00	 6.7175144213e+00	 8.0878096840e-01
 7.0710678119e+00	 6.3639610307e+00	 4.8350813675e-01
 7.1064231510e+00	 6.3993163698e+00	 5.4737500419e-01
 7.1417784900e+00	 6.4346717088e+00	 6.0427720412e-01
 7.1771338291e+00	 6.4700270479e+00	 6.5421485485e-01
 7.2124891681e+00	 6.5053823869e+00	 6.9718807466e-01
 7.2478445072e+00	 6.5407377260e+00	 7.3319698184e-01
 7.2831998463e+00	 6.5760930651e+00	 7.6224169468e-01
 7.3185551853e+00	 6.6114484041e+00	 7.8432233146e-01
 7.3539105244e+00	 6.6468037432e+00	 7.9943901048e-01
 7.3892658634e+00	 6.6821590822e+00	 8.0759185003e-01
 7.4246212025e+00	 6.7175144213e+00	 8.0878096840e-01
 7.0710678119e+00	 6.2154686066e+00	 4.0744794810e-01
 7.1138477722e+00	 6.2582485669e+00	 4.6168790807e-01
 7.1566277324e+00	 6.3010285272e+00	 5.1046135752e-01
 7.1994076927e+00	 6.3438084874e+00	 5.5376850599e-01
 7.2421876530e+00	 6.3865884477e+00	 5.9160956303e-01
 7.2849676132e+00	 6.4293684080e+00	 6.2398473820e-01
 7.3277475735e+00	 6.4721483682e+00	 6.5089424106e-01
 7.3705275337e+00	 6.5149283285e+00	 6.7233828115e-01
 7.4133074940e+00	 6.5577082887e+00	 6.8831706805e-01
 7.4560874543e+00	 6.6004882490e+00	 6.9883081130e-01
 7.4988674145e+00	 6.6432682093e+00	 7.0387972046e-01
 7.0710678119e+00	 6.0528340470e+00	 3.3363663618e-01
 7.1219795001e+00	 6.1037457352e+00	 3.8301146488e-01
 7.1728911884e+00	 6.1546574235e+00	 4.2795051319e-01
 7.2238028766e+00	 6.2055691117e+00	 4.6845413429e-01
 7.2747145649e+00	 6.2564808000e+00	 5.0452268139e-01
 7.3256262531e+00	 6.3073924882e+00	 5.3615650770e-01
 7.3765379414e+00	 6.3583041765e+00	 5.6335596641e-01
 7.4274496296e+00	 6.4092158647e+00	 5.8612141074e-01
 7.4783613179e+00	 6.4601275529e+00	 6.0445319390e-01
 7.5292730061e+00	 6.5110392412e+00	 6.1835166909e-01
 7.5801846944e+00	 6.5619509294e+00	 6.2781718953e-01
 7.0710678119e+00	 5.8760573517e+00	 2.6406275186e-01
 7.1308183349e+00	 5.9358078747e+00	 3.1150320922e-01
 7.1905688579e+00	 5.9955583977e+00	 3.5522661635e-01
 7.2503193809e+00	 6.0553089207e+00	 3.9523354417e-01
 7.3100699039e+00	 6.1150594437e+00	 4.3152456363e-01
 7.3698204270e+00	 6.1748099667e+00	 4.6410024568e-01
 7.4295709500e+00	 6.2345604897e+00	 4.9296116126e-01
 7.4893214730e+00	 6.2943110128e+00	 5.1810788132e-01
 7.5490719960e+00	 6.3540615358e+00	 5.3954097683e-01
 7.6088225190e+00	 6.4138120588e+00	 5.5726101874e-01
 7.6685730420e+00	 6.4735625818e+00	 5.7126857802e-01
 7.0710678119e+00	 5.6851385207e+00	 1.9953321759e-01
 7.1403642765e+00	 5.7544349853e+00	 2.4684827951e-01
 7.2096607410e+00	 5.8237314499e+00	 2.9095165413e-01
 7.2789572056e+00	 5.8930279144e+00	 3.3184423205e-01
 7.3482536701e+00	 5.9623243790e+00	 3.6952690391e-01
 7.4175501347e+00	 6.0316208435e+00	 4.0400056033e-01
 7.4868465992e+00	 6.1009173081e+00	 4.3526609196e-01
 7.5561430638e+00	 6.1702137727e+00	 4.6332438945e-01
 7.6254395284e+00	 6.2395102372e+00	 4.8817634344e-01
 7.6947359929e+00	 6.3088067018e+00	 5.0982284461e-01
 7.7640324575e+00	 6.3781031663e+00	 5.2826478362e-01
 7.0710678119e+00	 5.4800775542e+00	 1.4026466581e-01
 7.1506173248e+00	 5.5596270671e+00	 1.8855564584e-01
 7.2301668377e+00	 5.6391765800e+00	 2.3399157066e-01
 7.3097163506e+00	 5.7187260929e+00	 2.7657378758e-01
 7.3892658634e+00	 5.7982756057e+00	 3.1630364392e-01
 7.4688153763e+00	 5.8778251186e+00	 3.5318248702e-01
 7.5483648892e+00	 5.9573746315e+00	 3.8721166421e-01
 7.6279144021e+00	 6.0369241444e+00	 4.1839252285e-01
 7.7074639150e+00	 6.1164736573e+00	 4.4672641031e-01
 7.7870134278e+00	 6.1960231702e+00	 4.7221467398e-01
 7.8665629407e+00	 6.2755726831e+00	 4.9485866126e-01
 7.0710678119e+00	 5.2608744520e+00	 8.6184069397e-02
 7.1615774799e+00	 5.3513841200e+00	 1.3609487504e-01
 7.2520871479e+00	 5.4418937880e+00	 1.8340205069e-01
 7.3425968159e+00	 5.5324034560e+00	 2.2810758075e-01
 7.4331064839e+00	 5.6229131240e+00	 2.7021344968e-01
 7.5236161519e+00	 5.7134227920e+00	 3.0972164192e-01
 7.6141258198e+00	 5.8039324600e+00	 3.4663414196e-01
 7.7046354878e+00	 5.8944421280e+00	 3.8095293432e-01
 7.7951451558e+00	 5.9849517960e+00	 4.1268000351e-01
 7.8856548238e+00	 6.0754614640e+00	 4.4181733408e-01
 7.9761644918e+00	 6.1659711320e+00	 4.6836691062e-01
 7.0710678119e+00	 5.0275292142e+00	 3.7085090635e-02
 7.1732447418e+00	 5.1297061441e+00	 8.8957842162e-02
 7.2754216717e+00	 5.2318830740e+00	 1.3840317310e-01
 7.3775986015e+00	 5.3340600039e+00	 1.8542393841e-01
 7.4797755314e+00	 5.4362369338e+00	 2.3002299309e-01
 7.5819524613e+00	 5.5384138636e+00	 2.7220319220e-01
 7.6841293912e+00	 5.6405907935e+00	 3.1196739079e-01
 7.7863063211e+00	 5.7427677234e+00	 3.4931844399e-01
 7.8884832509e+00	 5.8449446533e+00	 3.8425920694e-01
 7.9906601808e+00	 5.9471215832e+00	 4.1679253483e-01
 8.0928371107e+00	 6.0492985131e+00	 4.4692128287e-01
 7.0710678119e+00	 4.7800418408e+00	-7.2897200379e-03
 7.1856191105e+00	 4.8945931394e+00	 4.6684412706e-02
 7.3001704090e+00	 5.0091444379e+00	 9.8353191757e-02
 7.4147217076e+00	 5.1236957365e+00	 1.4772063999e-01
 7.5292730061e+00	 5.2382470350e+00	 1.9479078034e-01
 7.6438243047e+00	 5.3527983336e+00	 2.3956763580e-01
 7.7583756032e+00	 5.4673496321e+00	 2.8205522941e-01
 7.8729269017e+00	 5.5819009307e+00	 3.2225758429e-01
 7.9874782003e+00	 5.6964522292e+00	 3.6017872360e-01
 8.1020294988e+00	 5.8110035278e+00	 3.9582267055e-01
 8.2165807974e+00	 5.9255548264e+00	 4.2919344843e-01
 7.0710678119e+00	 4.5184123318e+00	-4.7205866660e-02
 7.1987005859e+00	 4.6460451058e+00	 8.8707649546e-03
 7.3263333599e+00	 4.7736778798e+00	 6.2725017027e-02
 7.4539661339e+00	 4.9013106538e+00	 1.1436245394e-01
 7.5815989079e+00	 5.0289434278e+00	 1.6378864017e-01
 7.7092316819e+00	 5.1565762018e+00	 2.1100914027e-01
 7.8368644559e+00	 5.2842089758e+00	 2.5602951891e-01
 7.9644972299e+00	 5.4118417498e+00	 2.9885534081e-01
 8.0921300039e+00	 5.5394745238e+00	 3.3949217080e-01
 8.2197627779e+00	 5.6671072978e+00	 3.7794557380e-01
 8.3473955519e+00	 5.7947400718e+00	 4.1422111482e-01
 7.0710678119e+00	 4.2426406871e+00	-8.2914908614e-02
 7.2124891681e+00	 4.3840620433e+00	-2.4830496401e-02
 7.3539105244e+00	 4.5254833996e+00	 3.1086306126e-02
 7.4953318806e+00	 4.6669047558e+00	 8.4843068501e-02
 7.6367532368e+00	 4.8083261121e+00	 1.3644736039e-01
 7.7781745931e+00	 4.9497474683e+00	 1.8590675159e-01
 7.9195959493e+00	 5.0911688245e+00	 2.3322881204e-01
 8.0610173055e+00	 5.2325901808e+00	 2.7842111180e-01
 8.2024386618e+00	 5.3740115370e+00	 3.2149122108e-01
 8.3438600180e+00	 5.5154328933e+00	 3.6244671021e-01
 8.4852813742e+00	 5.6568542495e+00	 4.0129514965e-01
 7.0710678119e+00	 7.0710678119e+00	-5.9071788576e-02
 7.0710678119e+00	 7.0710678119e+00	-5.9071788576e-02
 7.0710678119e+00	 7.0710678119e+00	-5.9071788576e-02
 7.0710678119e+00	 7.0710678119e+00	-5.9071788576e-02
 7.0710678119e+00	 7.0710678119e+00	-5.9071788576e-02
 7.0710678119e+00	 7.0710678119e+00	-5.9071788576e-02
 7.0710678119e+00	 7.0710678119e+00	-5.9071788576e-02
 7.0710678119e+00	 7.0710678119e+00	-5.9071788576e-02
 7.0710678119e+00	 7.0710678119e+00	-5.9071788576e-02
 7.0710678119e+00	 7.0710678119e+00	-5.9071788576e-02
 7.0710678119e+00	 7.0710678119e+00	-5.9071788576e-02
 7.0746033458e+00	 7.0675322780e+00	 1.1679938416e+01
 7.0749568992e+00	 7.0678858314e+00	 1.2834690886e+01
 7.0753104526e+00	 7.0682393848e+00	 1.3706754087e+01
 7.0756640060e+00	 7.0685929382e+00	 1.4296128020e+01
 7.0760175594e+00	 7.0689464916e+00	 1.4602812685e+01
 7.0763711128e+00	 7.0693000449e+00	 1.4626808082e+01
 7.0767246661e+00	 7.0696535983e+00	 1.4368114210e+01
 7.0770782195e+00	 7.0700071517e+00	 1.3826731071e+01
 7.0774317729e+00	 7.0703607051e+00	 1.3002658663e+01
 7.0777853263e+00	 7.0707142585e+00	 1.1895896987e+01
 7.0781388797e+00	 7.0710678119e+00	 1.0506446043e+01
 7.0852099475e+00	 7.0569256763e+00	 6.0580133130e+00
 7.0866241611e+00	 7.0583398898e+00	 6.5444075749e+00
 7.0880383746e+00	 7.0597541034e+00	 6.8999912042e+00
 7.0894525882e+00	 7.0611683170e+00	 7.1247642008e+00
 7.0908668018e+00	 7.0625825305e+00	 7.2187265648e+00
 7.0922810153e+00	 7.0639967441e+00	 7.1818782961e+00
 7.0936952289e+00	 7.0654109577e+00	 7.0142193947e+00
 7.0951094425e+00	 7.0668251712e+00	 6.7157498607e+00
 7.0965236560e+00	 7.0682393848e+00	 6.2864696940e+00
 7.0979378696e+00	 7.0696535983e+00	 5.7263788948e+00
 7.0993520831e+00	 7.0710678119e+00	 5.0354774629e+00
 7.1028876171e+00	 7.0392480067e+00	 4.0377334529e+00
 7.1060695976e+00	 7.0424299873e+00	 4.3502259407e+00
 7.1092515781e+00	 7.0456119678e+00	 4.5774830113e+00
 7.1124335586e+00	 7.0487939483e+00	 4.7195046649e+00
 7.1156155391e+00	 7.0519759288e+00	 4.7762909017e+00
 7.1187975196e+00	 7.0551579093e+00	 4.7478417216e+00
 7.1219795001e+00	 7.0583398898e+00	 4.6341571247e+00
 7.1251614807e+00	 7.0615218704e+00	 4.4352371112e+00
 7.1283434612e+00	 7.0647038509e+00	 4.1510816811e+00
 7.1315254417e+00	 7.0678858314e+00	 3.7816908346e+00
 7.1347074222e+00	 7.0710678119e+00	 3.3270645716e+00
 7.1276363544e+00	 7.0144992694e+00	 2.9995415575e+00
 7.1332932086e+00	 7.0201561237e+00	 3.2341612495e+00
 7.1389500629e+00	 7.0258129779e+00	 3.4053862486e+00
 7.1446069171e+00	 7.0314698322e+00	 3.5132165551e+00
 7.1502637714e+00	 7.0371266864e+00	 3.5576521696e+00
 7.1559206256e+00	 7.0427835407e+00	 3.5386930926e+00
 7.1615774799e+00	 7.0484403949e+00	 3.4563393245e+00
 7.1672343341e+00	 7.0540972492e+00	 3.3105908658e+00
 7.1728911884e+00	 7.0597541034e+00	 3.1014477171e+00
 7.1785480426e+00	 7.0654109577e+00	 2.8289098787e+00
 7.1842048969e+00	 7.0710678119e+00	 2.4929773512e+00
 7.1594561595e+00	 6.9826794642e+00	 2.3670969329e+00
 7.1682949943e+00	 6.9915182990e+00	 2.5578186763e+00
 7.1771338291e+00	 7.0003571338e+00	 2.6979474565e+00
 7.1859726638e+00	 7.0091959685e+00	 2.7874832754e+00
 7.1948114986e+00	 7.0180348033e+00	 2.8264261348e+00
 7.2036503334e+00	 7.0268736381e+00	 2.8147760365e+00
 7.2124891681e+00	 7.0357124728e+00	 2.7525329824e+00
 7.2213280029e+00	 7.0445513076e+00	 2.6396969743e+00
 7.2301668377e+00	 7.0533901424e+00	 2.4762680141e+00
 7.2390056724e+00	 7.0622289771e+00	 2.2622461037e+00
 7.2478445072e+00	 7.0710678119e+00	 1.9976312448e+00
 7.1983470325e+00	 6.9437885913e+00	 1.9410058198e+00
 7.2110749546e+00	 6.9565165133e+00	 2.1035680783e+00
 7.2238028766e+00	 6.9692444354e+00	 2.2239461666e+00
 7.2365307987e+00	 6.9819723575e+00	 2.3021400902e+00
 7.2492587208e+00	 6.9947002795e+00	 2.3381498547e+00
 7.2619866428e+00	 7.0074282016e+00	 2.3319754656e+00
 7.2747145649e+00	 7.0201561237e+00	 2.2836169283e+00
 7.2874424869e+00	 7.0328840457e+00	 2.1930742485e+00
 7.3001704090e+00	 7.0456119678e+00	 2.0603474316e+00
 7.3128983311e+00	 7.0583398898e+00	 1.8854364831e+00
 7.3256262531e+00	 7.0710678119e+00	 1.6683414086e+00
 7.2443089733e+00	 6.8978266505e+00	 1.6340323072e+00
 7.2616330894e+00	 6.9151507666e+00	 1.7769570865e+00
 7.2789572056e+00	 6.9324748828e+00	 1.8836429925e+00
 7.2962813217e+00	 6.9497989989e+00	 1.9540900389e+00
 7.3136054378e+00	 6.9671231151e+00	 1.9882982398e+00
 7.3309295540e+00	 6.9844472312e+00	 1.9862676090e+00
 7.3482536701e+00	 7.0017713473e+00	 1.9479981604e+00
 7.3655777862e+00	 7.0190954635e+00	 1.8734899081e+00
 7.3829019024e+00	 7.0364195796e+00	 1.7627428659e+00
 7.4002260185e+00	 7.0537436958e+00	 1.6157570476e+00
 7.4175501347e+00	 7.0710678119e+00	 1.4325324673e+00
 7.2973419819e+00	 6.8447936419e+00	 1.4019751655e+00
 7.3199693989e+00	 6.8674210589e+00	 1.5303723974e+00
 7.3425968159e+00	 6.8900484759e+00	 1.6269571147e+00
 7.3652242329e+00	 6.9126758929e+00	 1.6917293483e+00
 7.3878516499e+00	 6.9353033099e+00	 1.7246891294e+00
 7.4104790669e+00	 6.9579307269e+00	 1.7258364889e+00
 7.4331064838e+00	 6.9805581439e+00	 1.6951714577e+00
 7.4557339008e+00	 7.0031855609e+00	 1.6326940670e+00
 7.4783613178e+00	 7.0258129779e+00	 1.5384043477e+00
 7.5009887348e+00	 7.0484403949e+00	 1.4123023309e+00
 7.5236161518e+00	 7.0710678119e+00	 1.2543880475e+00
 7.3574460583e+00	 6.7846895655e+00	 1.2200487860e+00
 7.3860838829e+00	 6.8133273902e+00	 1.3372098800e+00
 7.4147217075e+00	 6.8419652148e+00	 1.4259827586e+00
 7.4433595322e+00	 6.8706030394e+00	 1.4863674847e+00
 7.4719973568e+00	 6.8992408641e+00	 1.5183641212e+00
 7.5006351814e+00	 6.9278786887e+00	 1.5219727310e+00
 7.5292730061e+00	 6.9565165133e+00	 1.4971933769e+00
 7.5579108307e+00	 6.9851543380e+00	 1.4440261218e+00
 7.5865486554e+00	 7.0137921626e+00	 1.3624710285e+00
 7.6151864800e+00	 7.0424299873e+00	 1.2525281599e+00
 7.6438243046e+00	 7.0710678119e+00	 1.1141975790e+00
 7.4246212025e+00	 6.7175144213e+00	 1.0732794472e+00
 7.4599765416e+00	 6.7528697604e+00	 1.1814389789e+00
 7.4953318806e+00	 6.7882250994e+00	 1.2639392047e+00
 7.5306872197e+00	 6.8235804385e+00	 1.3207802429e+00
 7.5660425587e+00	 6.8589357775e+00	 1.3519622118e+00
 7.6013978978e+00	 6.8942911166e+00	 1.3574852296e+00
 7.6367532368e+00	 6.9296464557e+00	 1.3373494146e+00
 7.6721085759e+00	 6.9650017947e+00	 1.2915548853e+00
 7.7074639149e+00	 7.0003571338e+00	 1.2201017597e+00
 7.7428192540e+00	 7.0357124728e+00	 1.1229901563e+00
 7.7781745931e+00	 7.0710678119e+00	 1.0002201934e+00
 7.4246212025e+00	 6.7175144213e+00	 1.0732794472e+00
 7.4599765416e+00	 6.7528697604e+00	 1.1814389789e+00
 7.4953318806e+00	 6.7882250994e+00	 1.2639392047e+00
 7.5306872197e+00	 6.8235804385e+00	 1.3207802429e+00
 7.5660425587e+00	 6.8589357775e+00	 1.3519622118e+00
 7.6013978978e+00	 6.8942911166e+00	 1.3574852296e+00
 7.6367532368e+00	 6.9296464557e+00	 1.3373494146e+00
 7.6721085759e+00	 6.9650017947e+00	 1.2915548853e+00
 7.7074639149e+00	 7.0003571338e+00	 1.2201017597e+00
 7.7428192540e+00	 7.0357124728e+00	 1.1229901563e+00
 7.7781745931e+00	 7.0710678119e+00	 1.0002201934e+00
 7.4988674145e+00	 6.6432682093e+00	 9.3542339764e-01
 7.5416473748e+00	 6.6860481695e+00	 1.0395335066e+00
 7.5844273350e+00	 6.7288281298e+00	 1.1198278966e+00
 7.6272072953e+00	 6.7716080901e+00	 1.1763067770e+00
 7.6699872555e+00	 6.8143880503e+00	 1.2089703576e+00
 7.7127672158e+00	 6.8571680106e+00	 1.2178188479e+00
 7.7555471761e+00	 6.8999479708e+00	 1.2028524574e+00
 7.7983271363e+00	 6.9427279311e+00	 1.1640713957e+00
 7.8411070966e+00	 6.9855078914e+00	 1.1014758724e+00
 7.8838870568e+00	 7.0282878516e+00	 1.0150660971e+00
 7.9266670171e+00	 7.0710678119e+00	 9.0484227925e-01
 7.5801846944e+00	 6.5619509294e+00	 8.3254247913e-01
 7.6310963826e+00	 6.6128626177e+00	 9.3047353208e-01
 7.6820080708e+00	 6.6637743059e+00	 1.0062529105e+00
 7.7329197591e+00	 6.7146859942e+00	 1.0598809677e+00
 7.7838314473e+00	 6.7655976824e+00	 1.0913580568e+00
 7.8347431355e+00	 6.8165093707e+00	 1.1006845311e+00
 7.8856548238e+00	 6.8674210589e+00	 1.0878607437e+00
 7.9365665120e+00	 6.9183327472e+00	 1.0528870480e+00
 7.9874782003e+00	 6.9692444354e+00	 9.9576379722e-01
 8.0383898885e+00	 7.0201561237e+00	 9.1649134448e-01
 8.0893015768e+00	 7.0710678119e+00	 8.1507004308e-01
 7.6685730420e+00	 6.4735625818e+00	 7.5375862637e-01
 7.7283235650e+00	 6.5333131048e+00	 8.4442422251e-01
 7.7880740880e+00	 6.5930636278e+00	 9.1443853197e-01
 7.8478246110e+00	 6.6528141508e+00	 9.6380212574e-01
 7.9075751340e+00	 6.7125646738e+00	 9.9251557478e-01
 7.9673256570e+00	 6.7723151968e+00	 1.0005794501e+00
 8.0270761800e+00	 6.8320657199e+00	 9.8799432269e-01
 8.0868267030e+00	 6.8918162429e+00	 9.5476076354e-01
 8.1465772260e+00	 6.9515667659e+00	 9.0087934366e-01
 8.2063277490e+00	 7.0113172889e+00	 8.2635063403e-01
 8.2660782721e+00	 7.0710678119e+00	 7.3117520569e-01
 7.7640324575e+00	 6.3781031663e+00	 6.9202965271e-01
 7.8333289220e+00	 6.4473996309e+00	 7.7493728116e-01
 7.9026253866e+00	 6.5166960954e+00	 8.3854892322e-01
 7.9719218511e+00	 6.5859925600e+00	 8.8286546960e-01
 8.0412183156e+00	 6.6552890246e+00	 9.0788781100e-01
 8.1105147802e+00	 6.7245854891e+00	 9.1361683813e-01
 8.1798112448e+00	 6.7938819537e+00	 9.0005344170e-01
 8.2491077093e+00	 6.8631784182e+00	 8.6719851244e-01
 8.3184041739e+00	 6.9324748828e+00	 8.1505294108e-01
 8.3877006384e+00	 7.0017713473e+00	 7.4361761837e-01
 8.4569971030e+00	 7.0710678119e+00	 6.5289343506e-01
 7.8665629407e+00	 6.2755726831e+00	 6.4264412889e-01
 7.9461124536e+00	 6.3551221959e+00	 7.1764230548e-01
 8.0256619665e+00	 6.4346717088e+00	 7.7457290211e-01
 8.1052114793e+00	 6.5142212217e+00	 8.1343726622e-01
 8.1847609922e+00	 6.5937707346e+00	 8.3423674526e-01
 8.2643105051e+00	 6.6733202475e+00	 8.3697268670e-01
 8.3438600180e+00	 6.7528697604e+00	 8.2164643801e-01
 8.4234095309e+00	 6.8324192732e+00	 7.8825934668e-01
 8.5029590437e+00	 6.9119687861e+00	 7.3681276023e-01
 8.5825085566e+00	 6.9915182990e+00	 6.6730802616e-01
 8.6620580695e+00	 7.0710678119e+00	 5.7974649201e-01
 7.9761644918e+00	 6.1659711320e+00	 6.0236013639e-01
 8.0666741598e+00	 6.2564808000e+00	 6.6949188074e-01
 8.1571838278e+00	 6.3469904680e+00	 7.1967423516e-01
 8.2476934958e+00	 6.4375001359e+00	 7.5290918430e-01
 8.3382031637e+00	 6.5280098039e+00	 7.6919871282e-01
 8.4287128317e+00	 6.6185194719e+00	 7.6854480540e-01
 8.5192224997e+00	 6.7090291399e+00	 7.5094944676e-01
 8.6097321677e+00	 6.7995388079e+00	 7.1641462162e-01
 8.7002418357e+00	 6.8900484759e+00	 6.6494231473e-01
 8.7907515037e+00	 6.9805581439e+00	 5.9653451087e-01
 8.8812611717e+00	 7.0710678119e+00	 5.1844694544e-01
 8.0928371107e+00	 6.0492985131e+00	 5.6889194404e-01
 8.1950140406e+00	 6.1514754429e+00	 6.2830794915e-01
 8.2971909704e+00	 6.2536523728e+00	 6.7179738914e-01
 8.3993679003e+00	 6.3558293027e+00	 6.9936311935e-01
 8.5015448302e+00	 6.4580062326e+00	 7.1100799514e-01
 8.6037217601e+00	 6.5601831625e+00	 7.0673487192e-01
 8.7058986899e+00	 6.6623600924e+00	 6.8654660512e-01
 8.8080756198e+00	 6.7645370222e+00	 6.5044605022e-01
 8.9102525497e+00	 6.8667139521e+00	 6.0937731457e-01
 9.0124294796e+00	 6.9688908820e+00	 5.5431828124e-01
 9.1146064095e+00	 7.0710678119e+00	 4.8326526583e-01
 8.2165807974e+00	 5.9255548264e+00	 5.4059312763e-01
 8.3311320959e+00	 6.0401061249e+00	 5.9249946008e-01
 8.4456833945e+00	 6.1546574235e+00	 6.2941975289e-01
 8.5602346930e+00	 6.2692087220e+00	 6.5135802952e-01
 8.6747859916e+00	 6.3837600206e+00	 6.5831831348e-01
 8.7893372901e+00	 6.4983113191e+00	 6.5030462834e-01
 8.9038885887e+00	 6.6128626177e+00	 6.3748408528e-01
 9.0184398872e+00	 6.7274139162e+00	 6.1400542818e-01
 9.1329911858e+00	 6.8419652148e+00	 5.7547395216e-01
 9.2475424843e+00	 6.9565165133e+00	 5.2187334688e-01
 9.3620937829e+00	 7.0710678119e+00	 4.5318730199e-01
 8.3473955519e+00	 5.7947400718e+00	 5.1625488421e-01
 8.4750283259e+00	 5.9223728458e+00	 5.6088115753e-01
 8.6026610999e+00	 6.0500056198e+00	 5.9139107524e-01
 8.7302938739e+00	 6.1776383939e+00	 6.0779020259e-01
 8.8579266479e+00	 6.3052711679e+00	 6.1442363172e-01
 8.9855594219e+00	 6.4329039419e+00	 6.1880395655e-01
 9.1131921959e+00	 6.5605367159e+00	 6.0901552314e-01
 9.2408249699e+00	 6.6881694899e+00	 5.8503577113e-01
 9.3684577439e+00	 6.8158022639e+00	 5.4684214010e-01
 9.4960905179e+00	 6.9434350379e+00	 4.9441206959e-01
 9.6237232919e+00	 7.0710678119e+00	 4.2772299910e-01
 8.4852813742e+00	 5.6568542495e+00	 4.9497416250e-01
 8.6267027304e+00	 5.7982756057e+00	 5.3255409192e-01
 8.7681240867e+00	 5.9396969620e+00	 5.5682657502e-01
 8.9095454429e+00	 6.0811183182e+00	 5.7868864774e-01
 9.0509667992e+00	 6.2225396745e+00	 5.9429585106e-01
 9.1923881554e+00	 6.3639610307e+00	 5.9654902506e-01
 9.3338095116e+00	 6.5053823869e+00	 5.8541747938e-01
 9.4752308679e+00	 6.6468037432e+00	 5.6087052361e-01
 9.6166522241e+00	 6.7882250994e+00	 5.2287746727e-01
 9.7580735804e+00	 6.9296464557e+00	 4.7140761980e-01
 9.8994949366e+00	 7.0710678119e+00	 4.0643029060e-01
 7.0710678119e+00	 7.0710678119e+00	-5.9071788576e-02
 7.0710678119e+00	 7.0710678119e+00	-5.9071788576e-02
 7.0710678119e+00	 7.0710678119e+00	-5.9071788576e-02
 7.0710678119e+00	 7.0710678119e+00	-5.9071788576e-02
 7.0710678119e+00	 7.0710678119e+00	-5.9071788576e-02
 7.0710678119e+00	 7.0710678119e+00	-5.9071788576e-02
 7.0710678119e+00	 7.0710678119e+00	-5.9071788576e-02
 7.0710678119e+00	 7.0710678119e+00	-5.9071788576e-02
 7.0710678119e+00	 7.0710678119e+00	-5.9071788576e-02
 7.0710678119e+00	 7.0710678119e+00	-5.9071788576e-02
 7.0710678119e+00	 7.0710678119e+00	-5.9071788576e-02
 7.0781388797e+00	 7.0710678119e+00	 1.0224914564e+01
 7.0777853263e+00	 7.0714213653e+00	 1.0818377553e+01
 7.0774317729e+00	 7.0717749187e+00	 1.1021982875e+01
 7.0770782195e+00	 7.0721284721e+00	 1.0835730531e+01
 7.0767246661e+00	 7.0724820255e+00	 1.0259620521e+01
 7.0763711128e+00	 7.0728355789e+00	 9.2936528455e+00
 7.0760175594e+00	 7.0731891322e+00	 7.9378275034e+00
 7.0756640060e+00	 7.0735426856e+00	 6.1921444953e+00
 7.0753104526e+00	 7.0738962390e+00	 4.0566038211e+00
 7.0749568992e+00	 7.0742497924e+00	 1.5312054807e+00
 7.0746033458e+00	 7.0746033458e+00	-1.3840505258e+00
 7.0993520831e+00	 7.0710678119e+00	 4.9373544050e+00
 7.0979378696e+00	 7.0724820255e+00	 5.2731934316e+00
 7.0965236560e+00	 7.0738962390e+00	 5.4105429365e+00
 7.0951094425e+00	 7.0753104526e+00	 5.3494029199e+00
 7.0936952289e+00	 7.0767246661e+00	 5.0897733817e+00
 7.0922810153e+00	 7.0781388797e+00	 4.6316543219e+00
 7.0908668018e+00	 7.0795530933e+00	 3.9750457405e+00
 7.0894525882e+00	 7.0809673068e+00	 3.1199476375e+00
 7.0880383746e+00	 7.0823815204e+00	 2.0663600129e+00
 7.0866241611e+00	 7.0837957340e+00	 8.1428286678e-01
 7.0852099475e+00	 7.0852099475e+00	-6.3628380095e-01
 7.1347074222e+00	 7.0710678119e+00	 3.2641403665e+00
 7.1315254417e+00	 7.0742497924e+00	 3.4927258738e+00
 7.1283434612e+00	 7.0774317729e+00	 3.5886596312e+00
 7.1251614807e+00	 7.0806137534e+00	 3.5519416389e+00
 7.1219795001e+00	 7.0837957340e+00	 3.3825718968e+00
 7.1187975196e+00	 7.0869777145e+00	 3.0805504050e+00
 7.1156155391e+00	 7.0901596950e+00	 2.6458771637e+00
 7.1124335586e+00	 7.0933416755e+00	 2.0785521729e+00
 7.1092515781e+00	 7.0965236560e+00	 1.3785754327e+00
 7.1060695976e+00	 7.0997056365e+00	 5.4594694313e-01
 7.1028876171e+00	 7.1028876171e+00	-4.1933329570e-01
 7.1842048969e+00	 7.0710678119e+00	 2.4427893310e+00
 7.1785480426e+00	 7.0767246661e+00	 2.6138021781e+00
 7.1728911884e+00	 7.0823815204e+00	 2.6854662979e+00
 7.1672343341e+00	 7.0880383746e+00	 2.6577816911e+00
 7.1615774799e+00	 7.0936952289e+00	 2.5307483580e+00
 7.1559206256e+00	 7.0993520831e+00	 2.3043662991e+00
 7.1502637714e+00	 7.1050089374e+00	 1.9786355148e+00
 7.1446069171e+00	 7.1106657916e+00	 1.5535560056e+00
 7.1389500629e+00	 7.1163226459e+00	 1.0291277719e+00
 7.1332932086e+00	 7.1219795001e+00	 4.0535081425e-01
 7.1276363544e+00	 7.1276363544e+00	-3.1777486701e-01
 7.2478445072e+00	 7.0710678119e+00	 1.9535286983e+00
 7.2390056724e+00	 7.0799066467e+00	 2.0887916563e+00
 7.2301668377e+00	 7.0887454814e+00	 2.1448107254e+00
 7.2213280029e+00	 7.0975843162e+00	 2.1215859073e+00
 7.2124891681e+00	 7.1064231510e+00	 2.0191172038e+00
 7.2036503334e+00	 7.1152619857e+00	 1.8374046165e+00
 7.1948114986e+00	 7.1241008205e+00	 1.5764481473e+00
 7.1859726638e+00	 7.1329396553e+00	 1.2362477978e+00
 7.1771338291e+00	 7.1417784900e+00	 8.1680356980e-01
 7.1682949943e+00	 7.1506173248e+00	 3.1811546495e-01
 7.1594561595e+00	 7.1594561595e+00	-2.5981651501e-01
 7.3256262531e+00	 7.0710678119e+00	 1.6276474124e+00
 7.3128983311e+00	 7.0837957340e+00	 1.7386251992e+00
 7.3001704090e+00	 7.0965236560e+00	 1.7838137185e+00
 7.2874424869e+00	 7.1092515781e+00	 1.7632129755e+00
 7.2747145649e+00	 7.1219795001e+00	 1.6768229754e+00
 7.2619866428e+00	 7.1347074222e+00	 1.5246437233e+00
 7.2492587208e+00	 7.1474353443e+00	 1.3066752245e+00
 7.2365307987e+00	 7.1601632663e+00	 1.0229174839e+00
 7.2238028766e+00	 7.1728911884e+00	 6.7337050678e-01
 7.2110749546e+00	 7.1856191105e+00	 2.5803429830e-01
 7.1983470325e+00	 7.1983470325e+00	-2.2309113641e-01
 7.4175501347e+00	 7.0710678119e+00	 1.3939555505e+00
 7.4002260185e+00	 7.0883919280e+00	 1.4874114253e+00
 7.3829019024e+00	 7.1057160442e+00	 1.5247138137e+00
 7.3655777862e+00	 7.1230401603e+00	 1.5058627287e+00
 7.3482536701e+00	 7.1403642765e+00	 1.4308581832e+00
 7.3309295540e+00	 7.1576883926e+00	 1.2997001903e+00
 7.3136054378e+00	 7.1750125087e+00	 1.1123887629e+00
 7.2962813217e+00	 7.1923366249e+00	 8.6892391409e-01
 7.2789572056e+00	 7.2096607410e+00	 5.6930565675e-01
 7.2616330894e+00	 7.2269848572e+00	 2.1353400390e-01
 7.2443089733e+00	 7.2443089733e+00	-1.9839103147e-01
 7.5236161518e+00	 7.0710678119e+00	 1.2172252530e+00
 7.5009887348e+00	 7.0936952289e+00	 1.2974859489e+00
 7.4783613178e+00	 7.1163226459e+00	 1.3288340313e+00
 7.4557339008e+00	 7.1389500629e+00	 1.3112695290e+00
 7.4331064838e+00	 7.1615774799e+00	 1.2447924711e+00
 7.4104790669e+00	 7.1842048969e+00	 1.1294028865e+00
 7.3878516499e+00	 7.2068323139e+00	 9.6510080405e-01
 7.3652242329e+00	 7.2294597309e+00	 7.5188625278e-01
 7.3425968159e+00	 7.2520871479e+00	 4.8975926161e-01
 7.3199693989e+00	 7.2747145649e+00	 1.7871985947e-01
 7.2973419819e+00	 7.2973419819e+00	-1.8123192470e-01
 7.6438243046e+00	 7.0710678119e+00	 1.0780317316e+00
 7.6151864800e+00	 7.0997056365e+00	 1.1480367554e+00
 7.5865486554e+00	 7.1283434612e+00	 1.1747694580e+00
 7.5579108307e+00	 7.1569812858e+00	 1.1582298983e+00
 7.5292730061e+00	 7.1856191105e+00	 1.0984181347e+00
 7.5006351814e+00	 7.2142569351e+00	 9.9533422610e-01
 7.4719973568e+00	 7.2428947597e+00	 8.4897823103e-01
 7.4433595322e+00	 7.2715325844e+00	 6.5935020821e-01
 7.4147217075e+00	 7.3001704090e+00	 4.2645021629e-01
 7.3860838829e+00	 7.3288082336e+00	 1.5027831396e-01
 7.3574460583e+00	 7.3574460583e+00	-1.6916544013e-01
 7.7781745931e+00	 7.0710678119e+00	 9.6478706049e-01
 7.7428192540e+00	 7.1064231510e+00	 1.0266287870e+00
 7.7074639149e+00	 7.1417784900e+00	 1.0497159532e+00
 7.6721085759e+00	 7.1771338291e+00	 1.0340486692e+00
 7.6367532368e+00	 7.2124891681e+00	 9.7962704564e-01
 7.6013978978e+00	 7.2478445072e+00	 8.8645119281e-01
 7.5660425587e+00	 7.2831998463e+00	 7.5452122113e-01
 7.5306872197e+00	 7.3185551853e+00	 5.8383724100e-01
 7.4953318806e+00	 7.3539105244e+00	 3.7439936281e-01
 7.4599765416e+00	 7.3892658634e+00	 1.2620769697e-01
 7.4246212025e+00	 7.4246212025e+00	-1.6073764613e-01
 7.7781745931e+00	 7.0710678119e+00	 9.6478706049e-01
 7.7428192540e+00	 7.1064231510e+00	 1.0266287870e+00
 7.7074639149e+00	 7.1417784900e+00	 1.0497159532e+00
 7.6721085759e+00	 7.1771338291e+00	 1.0340486692e+00
 7.6367532368e+00	 7.2124891681e+00	 9.7962704564e-01
 7.6013978978e+00	 7.2478445072e+00	 8.8645119281e-01
 7.5660425587e+00	 7.2831998463e+00	 7.5452122113e-01
 7.5306872197e+00	 7.3185551853e+00	 5.8383724100e-01
 7.4953318806e+00	 7.3539105244e+00	 3.7439936281e-01
 7.4599765416e+00	 7.3892658634e+00	 1.2620769697e-01
 7.4246212025e+00	 7.4246212025e+00	-1.6073764613e-01
 7.9266670171e+00	 7.0710678119e+00	 8.4891384538e-01
 7.8838870568e+00	 7.1138477722e+00	 9.0768755128e-01
 7.8411070966e+00	 7.1566277324e+00	 9.3138561324e-01
 7.7983271363e+00	 7.1994076927e+00	 9.2000822682e-01
 7.7555471761e+00	 7.2421876530e+00	 8.7355558760e-01
 7.7127672158e+00	 7.2849676132e+00	 7.9202789114e-01
 7.6699872555e+00	 7.3277475735e+00	 6.7542533303e-01
 7.6272072953e+00	 7.3705275337e+00	 5.2374810885e-01
 7.5844273350e+00	 7.4133074940e+00	 3.3699641416e-01
 7.5416473748e+00	 7.4560874543e+00	 1.1517044455e-01
 7.4988674145e+00	 7.4988674145e+00	-1.4172960441e-01
 8.0893015768e+00	 7.0710678119e+00	 7.5388904433e-01
 8.0383898885e+00	 7.1219795001e+00	 8.1002785586e-01
 7.9874782003e+00	 7.1728911884e+00	 8.3416667682e-01
 7.9365665120e+00	 7.2238028766e+00	 8.2630583684e-01
 7.8856548238e+00	 7.2747145649e+00	 7.8644566556e-01
 7.8347431355e+00	 7.3256262531e+00	 7.1458649262e-01
 7.7838314473e+00	 7.3765379414e+00	 6.1072864767e-01
 7.7329197591e+00	 7.4274496296e+00	 4.7487246034e-01
 7.6820080708e+00	 7.4783613179e+00	 3.0701826030e-01
 7.6310963826e+00	 7.5292730061e+00	 1.0716637717e-01
 7.5801846944e+00	 7.5801846944e+00	-1.2468285938e-01
 8.2660782721e+00	 7.0710678119e+00	 6.7394749415e-01
 8.2063277490e+00	 7.1308183349e+00	 7.2783369179e-01
 8.1465772260e+00	 7.1905688579e+00	 7.5232939205e-01
 8.0868267030e+00	 7.2503193809e+00	 7.4743512780e-01
 8.0270761800e+00	 7.3100699039e+00	 7.1315143187e-01
 7.9673256570e+00	 7.3698204270e+00	 6.4947883714e-01
 7.9075751340e+00	 7.4295709500e+00	 5.5641787645e-01
 7.8478246110e+00	 7.4893214730e+00	 4.3396908268e-01
 7.7880740880e+00	 7.5490719960e+00	 2.8213298868e-01
 7.7283235650e+00	 7.6088225190e+00	 1.0091012735e-01
 7.6685730420e+00	 7.6685730420e+00	-1.0969896846e-01
 8.4569971030e+00	 7.0710678119e+00	 6.0518119634e-01
 8.3877006384e+00	 7.1403642765e+00	 6.5715160082e-01
 8.3184041739e+00	 7.2096607410e+00	 6.8197321861e-01
 8.2491077093e+00	 7.2789572056e+00	 6.7964688090e-01
 8.1798112448e+00	 7.3482536701e+00	 6.5017341892e-01
 8.1105147802e+00	 7.4175501347e+00	 5.9355366389e-01
 8.0412183156e+00	 7.4868465992e+00	 5.0978844702e-01
 7.9719218511e+00	 7.5561430638e+00	 3.9887859956e-01
 7.9026253866e+00	 7.6254395284e+00	 2.6082495274e-01
 7.8333289220e+00	 7.6947359929e+00	 9.5628337813e-02
 7.7640324575e+00	 7.7640324575e+00	-9.6710413968e-02
 8.6620580695e+00	 7.0710678119e+00	 5.4485577897e-01
 8.5825085566e+00	 7.1506173248e+00	 5.9520868322e-01
 8.5029590437e+00	 7.2301668377e+00	 6.2035908972e-01
 8.4234095309e+00	 7.3097163506e+00	 6.2030825588e-01
 8.3438600180e+00	 7.3892658634e+00	 5.9505743914e-01
 8.2643105051e+00	 7.4688153763e+00	 5.4460789697e-01
 8.1847609922e+00	 7.5483648892e+00	 4.6896088682e-01
 8.1052114793e+00	 7.6279144021e+00	 3.6811766617e-01
 8.0256619665e+00	 7.7074639150e+00	 2.4207949250e-01
 7.9461124536e+00	 7.7870134278e+00	 9.0847623334e-02
 7.8665629407e+00	 7.8665629407e+00	-8.5576683829e-02
 8.8812611717e+00	 7.0710678119e+00	 4.9825976501e-01
 8.7907515037e+00	 7.1615774799e+00	 5.4000800553e-01
 8.7002418357e+00	 7.2520871479e+00	 5.6551270599e-01
 8.6097321677e+00	 7.3425968159e+00	 5.6752196785e-01
 8.5192224997e+00	 7.4331064839e+00	 5.4603764314e-01
 8.4287128317e+00	 7.5236161519e+00	 5.0106158397e-01
 8.3382031637e+00	 7.6141258198e+00	 4.3259564243e-01
 8.2476934958e+00	 7.7046354878e+00	 3.4064167064e-01
 8.1571838278e+00	 7.7951451558e+00	 2.2520152075e-01
 8.0666741598e+00	 7.8856548238e+00	 8.6277044918e-02
 7.9761644918e+00	 7.9761644918e+00	-7.6129904662e-02
 9.1146064095e+00	 7.0710678119e+00	 4.7875273276e-01
 9.0124294796e+00	 7.1732447418e+00	 5.1378917763e-01
 8.9102525497e+00	 7.2754216717e+00	 5.2684265413e-01
 8.8080756198e+00	 7.3775986015e+00	 5.1989078848e-01
 8.7058986899e+00	 7.4797755314e+00	 5.0181597256e-01
 8.6037217601e+00	 7.5819524613e+00	 4.6175750474e-01
 8.5015448302e+00	 7.6841293912e+00	 3.9971804964e-01
 8.3993679003e+00	 7.7863063211e+00	 3.1570027192e-01
 8.2971909704e+00	 7.8884832509e+00	 2.0970683626e-01
 8.1950140406e+00	 7.9906601808e+00	 8.1740407376e-02
 8.0928371107e+00	 8.0928371107e+00	-6.8196349966e-02
 9.3620937829e+00	 7.0710678119e+00	 4.6473353030e-01
 9.2475424843e+00	 7.1856191105e+00	 4.9735691706e-01
 9.1329911858e+00	 7.3001704090e+00	 5.0934075738e-01
 9.0184398872e+00	 7.4147217076e+00	 5.0069332364e-01
 8.9038885887e+00	 7.5292730061e+00	 4.7142288835e-01
 8.7893372901e+00	 7.6438243047e+00	 4.2583335487e-01
 8.6747859916e+00	 7.7583756032e+00	 3.6960717013e-01
 8.5602346930e+00	 7.8729269017e+00	 2.9274637596e-01
 8.4456833945e+00	 7.9874782003e+00	 1.9525472713e-01
 8.3311320959e+00	 8.1020294988e+00	 7.7135978501e-02
 8.2165807974e+00	 8.2165807974e+00	-6.1606115042e-02
 9.6237232919e+00	 7.0710678119e+00	 4.5533347525e-01
 9.4960905179e+00	 7.1987005859e+00	 4.8565534580e-01
 9.3684577439e+00	 7.3263333599e+00	 4.9654096292e-01
 9.2408249699e+00	 7.4539661339e+00	 4.8800176891e-01
 9.1131921959e+00	 7.5815989079e+00	 4.6004920628e-01
 8.9855594219e+00	 7.7092316819e+00	 4.1269471779e-01
 8.8579266479e+00	 7.8368644559e+00	 3.4594974643e-01
 8.7302938739e+00	 7.9644972299e+00	 2.7137705784e-01
 8.6026610999e+00	 8.0921300039e+00	 1.8160492440e-01
 8.4750283259e+00	 8.2197627779e+00	 7.2411869886e-02
 8.3473955519e+00	 8.3473955519e+00	-5.6196911936e-02
 9.8994949366e+00	 7.0710678119e+00	 4.4986801485e-01
 9.7580735804e+00	 7.2124891681e+00	 4.7798247405e-01
 9.6166522241e+00	 7.3539105244e+00	 4.8774433961e-01
 9.4752308679e+00	 7.4953318806e+00	 4.7916917717e-01
 9.3338095116e+00	 7.6367532368e+00	 4.5227255272e-01
 9.1923881554e+00	 7.7781745931e+00	 4.0707003265e-01
 9.0509667992e+00	 7.9195959493e+00	 3.4357718368e-01
 8.9095454429e+00	 8.0610173055e+00	 2.6180957290e-01
 8.7681240867e+00	 8.2024386618e+00	 1.6858940088e-01
 8.6267027304e+00	 8.3438600180e+00	 6.7550655286e-02
 8.4852813742e+00	 8.4852813742e+00	-5.1814948838e-02
 5.6568542495e+00	 5.6568542495e+00	 5.0991110871e-01
 5.7982756057e+00	 5.5154328933e+00	 5.0140080106e-01
 5.9396969620e+00	 5.3740115370e+00	 4.8386639313e-01
 6.0811183182e+00	 5.2325901808e+00	 4.5730081939e-01
 6.2225396745e+00	 5.0911688245e+00	 4.2169701450e-01
 6.3639610307e+00	 4.9497474683e+00	 3.7704791321e-01
 6.5053823869e+00	 4.8083261121e+00	 3.2334645040e-01
 6.6468037432e+00	 4.6669047558e+00	 2.6058556109e-01
 6.7882250994e+00	 4.5254833996e+00	 1.8875818043e-01
 6.9296464557e+00	 4.3840620433e+00	 1.0785724367e-01
 7.0710678119e+00	 4.2426406871e+00	 1.7875686225e-02
 5.3740115370e+00	 5.3740115370e+00	 4.8273626962e-01
 5.5154328933e+00	 5.2325901808e+00	 4.7403601882e-01
 5.6568542495e+00	 5.0911688245e+00	 4.5714123816e-01
 5.7982756057e+00	 4.9497474683e+00	 4.3204486214e-01
 5.9396969620e+00	 4.8083261121e+00	 3.9873982540e-01
 6.0811183182e+00	 4.6669047558e+00	 3.5721906268e-01
 6.2225396745e+00	 4.5254833996e+00	 3.0747550887e-01
 6.3639610307e+00	 4.3840620433e+00	 2.4950209898e-01
 6.5053823869e+00	 4.2426406871e+00	 1.8329176816e-01
 6.6468037432e+00	 4.1012193309e+00	 1.0883745166e-01
 6.7882250994e+00	 3.9597979746e+00	 2.6132084878e-02
 5.0911688245e+00	 5.0911688245e+00	 4.5461829947e-01
 5.2325901808e+00	 4.9497474683e+00	 4.4585299022e-01
 5.3740115370e+00	 4.8083261121e+00	 4.2972272137e-01
 5.5154328933e+00	 4.6669047558e+00	 4.0622042742e-01
 5.6568542495e+00	 4.5254833996e+00	 3.7533904300e-01
 5.7982756057e+00	 4.3840620433e+00	 3.3707150287e-01
 5.9396969620e+00	 4.2426406871e+00	 2.9141074189e-01
 6.0811183182e+00	 4.1012193309e+00	 2.3834969508e-01
 6.2225396745e+00	 3.9597979746e+00	 1.7788129758e-01
 6.3639610307e+00	 3.8183766184e+00	 1.0999848465e-01
 6.5053823869e+00	 3.6769552621e+00	 3.4694191680e-02
 4.8083261121e+00	 4.8083261121e+00	 4.2549664670e-01
 4.9497474683e+00	 4.6669047558e+00	 4.1679116371e-01
 5.0911688245e+00	 4.5254833996e+00	 4.0155029121e-01
 5.2325901808e+00	 4.3840620433e+00	 3.7976696370e-01
 5.3740115370e+00	 4.2426406871e+00	 3.5143411580e-01
 5.5154328933e+00	 4.1012193309e+00	 3.1654468226e-01
 5.6568542495e+00	 3.9597979746e+00	 2.7509159796e-01
 5.7982756057e+00	 3.8183766184e+00	 2.2706779791e-01
 5.9396969620e+00	 3.6769552621e+00	 1.7246621723e-01
 6.0811183182e+00	 3.5355339059e+00	 1.1127979389e-01
 6.2225396745e+00	 3.3941125497e+00	 4.2315414331e-02
 4.5254833996e+00	 4.5254833996e+00	 3.9531076185e-01
 4.6669047558e+00	 4.3840620433e+00	 3.8678998985e-01
 4.8083261121e+00	 4.2426406871e+00	 3.7256339826e-01
 4.9497474683e+00	 4.1012193309e+00	 3.5262392157e-01
 5.0911688245e+00	 3.9597979746e+00	 3.2696449439e-01
 5.2325901808e+00	 3.8183766184e+00	 2.9557805149e-01
 5.3740115370e+00	 3.6769552621e+00	 2.5845752773e-01
 5.5154328933e+00	 3.5355339059e+00	 2.1559586083e-01
 5.6568542495e+00	 3.3941125497e+00	 1.6578624754e-01
 5.7982756057e+00	 3.2526911934e+00	 1.0821083233e-01
 5.9396969620e+00	 3.1112698372e+00	 4.4775824538e-02
 4.2426406871e+00	 4.2426406871e+00	 3.6400009764e-01
 4.3840620434e+00	 4.1012193309e+00	 3.5578892137e-01
 4.5254833996e+00	 3.9597979746e+00	 3.4270149524e-01
 4.6669047558e+00	 3.8183766184e+00	 3.2473075376e-01
 4.8083261121e+00	 3.6769552622e+00	 3.0186963153e-01
 4.9497474683e+00	 3.5355339059e+00	 2.7411106602e-01
 5.0911688245e+00	 3.3941125497e+00	 2.4023529396e-01
 5.2325901808e+00	 3.2526911934e+00	 1.9939859929e-01
 5.3740115370e+00	 3.1112698372e+00	 1.5352006525e-01
 5.5154328933e+00	 2.9698484810e+00	 1.0261173060e-01
 5.6568542495e+00	 2.8284271247e+00	 4.6685634126e-02
 3.9597979746e+00	 3.9597979746e+00	 3.3150410889e-01
 4.1012193309e+00	 3.8183766184e+00	 3.2372741310e-01
 4.2426406871e+00	 3.6769552622e+00	 3.1190403702e-01
 4.3840620434e+00	 3.5355339059e+00	 2.9602691785e-01
 4.5254833996e+00	 3.3941125497e+00	 2.7486406196e-01
 4.6669047558e+00	 3.2526911934e+00	 2.4754633830e-01
 4.8083261121e+00	 3.1112698372e+00	 2.1600452846e-01
 4.9497474683e+00	 2.9698484810e+00	 1.8025067123e-01
 5.0911688245e+00	 2.8284271247e+00	 1.4029680538e-01
 5.2325901808e+00	 2.6870057685e+00	 9.6154969697e-02
 5.3740115370e+00	 2.5455844122e+00	 4.7837202948e-02
 3.6769552622e+00	 3.6769552622e+00	 2.9776225257e-01
 3.8183766184e+00	 3.5355339059e+00	 2.9054492468e-01
 3.9597979746e+00	 3.3941125497e+00	 2.7887405992e-01
 4.1012193309e+00	 3.2526911934e+00	 2.6185555772e-01
 4.2426406871e+00	 3.1112698372e+00	 2.4143072255e-01
 4.3840620434e+00	 2.9698484810e+00	 2.1761159320e-01
 4.5254833996e+00	 2.8284271247e+00	 1.9041020844e-01
 4.6669047558e+00	 2.6870057685e+00	 1.5983860704e-01
 4.8083261121e+00	 2.5455844122e+00	 1.2590882780e-01
 4.9497474683e+00	 2.4041630560e+00	 8.8632909478e-02
 5.0911688245e+00	 2.2627416998e+00	 4.8022890857e-02
 3.3941125497e+00	 3.3941125497e+00	 2.6146679621e-01
 3.5355339059e+00	 3.2526911935e+00	 2.5152776592e-01
 3.6769552622e+00	 3.1112698372e+00	 2.3900015589e-01
 3.8183766184e+00	 2.9698484810e+00	 2.2389600487e-01
 3.9597979746e+00	 2.8284271247e+00	 2.0622735166e-01
 4.1012193309e+00	 2.6870057685e+00	 1.8600623502e-01
 4.2426406871e+00	 2.5455844123e+00	 1.6324469374e-01
 4.3840620434e+00	 2.4041630560e+00	 1.3795476659e-01
 4.5254833996e+00	 2.2627416998e+00	 1.1014849235e-01
 4.6669047558e+00	 2.1213203435e+00	 7.9837909794e-02
 4.8083261121e+00	 1.9798989873e+00	 4.7035057705e-02
 3.1112698372e+00	 3.1112698372e+00	 2.1791433684e-01
 3.2526911935e+00	 2.9698484810e+00	 2.0830541462e-01
 3.3941125497e+00	 2.8284271247e+00	 1.9694974341e-01
 3.5355339059e+00	 2.6870057685e+00	 1.8385936199e-01
 3.6769552622e+00	 2.5455844123e+00	 1.6904630913e-01
 3.8183766184e+00	 2.4041630560e+00	 1.5252262361e-01
 3.9597979746e+00	 2.2627416998e+00	 1.3430034422e-01
 4.1012193309e+00	 2.1213203435e+00	 1.1439150971e-01
 4.2426406871e+00	 1.9798989873e+00	 9.2808158879e-02
 4.3840620433e+00	 1.8384776311e+00	 6.9562330498e-02
 4.5254833996e+00	 1.6970562748e+00	 4.4666063343e-02
 2.8284271248e+00	 2.8284271248e+00	 1.6445492718e-01
 2.9698484810e+00	 2.6870057685e+00	 1.6259949633e-01
 3.1112698372e+00	 2.5455844123e+00	 1.5251518236e-01
 3.2526911935e+00	 2.4041630560e+00	 1.4153798893e-01
 3.3941125497e+00	 2.2627416998e+00	 1.2967995483e-01
 3.5355339059e+00	 2.1213203435e+00	 1.1695311884e-01
 3.6769552622e+00	 1.9798989873e+00	 1.0336951972e-01
 3.8183766184e+00	 1.8384776311e+00	 8.8941196268e-02
 3.9597979746e+00	 1.6970562748e+00	 7.3680187248e-02
 4.1012193309e+00	 1.5556349186e+00	 5.7598531442e-02
 4.2426406871e+00	 1.4142135624e+00	 4.0708267626e-02
 2.8284271248e+00	 2.8284271248e+00	 1.6445492718e-01
 2.9698484810e+00	 2.6870057685e+00	 1.6259949633e-01
 3.1112698372e+00	 2.5455844123e+00	 1.5251518236e-01
 3.2526911935e+00	 2.4041630560e+00	 1.4153798893e-01
 3.3941125497e+00	 2.2627416998e+00	 1.2967995483e-01
 3.5355339059e+00	 2.1213203435e+00	 1.1695311884e-01
 3.6769552622e+00	 1.9798989873e+00	 1.0336951972e-01
 3.8183766184e+00	 1.8384776311e+00	 8.8941196268e-02
 3.9597979746e+00	 1.6970562748e+00	 7.3680187248e-02
 4.1012193309e+00	 1.5556349186e+00	 5.7598531442e-02
 4.2426406871e+00	 1.4142135624e+00	 4.0708267626e-02
 2.5455844123e+00	 2.5455844123e+00	 1.4846019072e-01
 2.6870057685e+00	 2.4041630560e+00	 1.4730781769e-01
 2.8284271248e+00	 2.2627416998e+00	 1.4507933233e-01
 2.9698484810e+00	 2.1213203436e+00	 1.4006136702e-01
 3.1112698372e+00	 1.9798989873e+00	 1.2748163061e-01
 3.2526911935e+00	 1.8384776311e+00	 1.1413169901e-01
 3.3941125497e+00	 1.6970562748e+00	 1.0002361098e-01
 3.5355339059e+00	 1.5556349186e+00	 8.5169405302e-02
 3.6769552622e+00	 1.4142135624e+00	 6.9581120758e-02
 3.8183766184e+00	 1.2727922061e+00	 5.3270796123e-02
 3.9597979746e+00	 1.1313708499e+00	 3.6250470174e-02
 2.2627416998e+00	 2.2627416998e+00	 1.3237714890e-01
 2.4041630560e+00	 2.1213203436e+00	 1.3002237991e-01
 2.5455844123e+00	 1.9798989873e+00	 1.2667280195e-01
 2.6870057685e+00	 1.8384776311e+00	 1.2232841502e-01
 2.8284271248e+00	 1.6970562748e+00	 1.1698921912e-01
 2.9698484810e+00	 1.5556349186e+00	 1.0910676298e-01
 3.1112698372e+00	 1.4142135624e+00	 9.4410244324e-02
 3.2526911935e+00	 1.2727922061e+00	 7.9066214718e-02
 3.3941125497e+00	 1.1313708499e+00	 6.3086712940e-02
 3.5355339059e+00	 9.8994949365e-01	 4.6483777766e-02
 3.6769552621e+00	 8.4852813741e-01	 2.9269447974e-02
 1.9798989873e+00	 1.9798989873e+00	 1.1620580171e-01
 2.1213203436e+00	 1.8384776311e+00	 1.1260074677e-01
 2.2627416998e+00	 1.6970562749e+00	 1.0808218620e-01
 2.4041630560e+00	 1.5556349186e+00	 1.0265012001e-01
 2.5455844123e+00	 1.4142135624e+00	 9.6304548195e-02
 2.6870057685e+00	 1.2727922061e+00	 8.9045470758e-02
 2.8284271248e+00	 1.1313708499e+00	 8.0872887697e-02
 2.9698484810e+00	 9.8994949366e-01	 7.0423984369e-02
 3.1112698372e+00	 8.4852813742e-01	 5.3989323646e-02
 3.2526911934e+00	 7.0710678118e-01	 3.7029836223e-02
 3.3941125497e+00	 5.6568542494e-01	 1.9557560878e-02
 1.6970562749e+00	 1.6970562749e+00	 9.9946149167e-02
 1.8384776311e+00	 1.5556349186e+00	 9.5042918257e-02
 1.9798989873e+00	 1.4142135624e+00	 8.9307485073e-02
 2.1213203436e+00	 1.2727922061e+00	 8.2739849616e-02
 2.2627416998e+00	 1.1313708499e+00	 7.5340011885e-02
 2.4041630560e+00	 9.8994949366e-01	 6.7107971882e-02
 2.5455844123e+00	 8.4852813742e-01	 5.8043729605e-02
 2.6870057685e+00	 7.0710678118e-01	 4.8147285055e-02
 2.8284271247e+00	 5.6568542494e-01	 3.7418638231e-02
 2.9698484810e+00	 4.2426406870e-01	 2.4701331346e-02
 3.1112698372e+00	 2.8284271246e-01	 6.9071687370e-03
 1.4142135624e+00	 1.4142135624e+00	 8.3598191262e-02
 1.5556349186e+00	 1.2727922061e+00	 7.7348894377e-02
 1.6970562749e+00	 1.1313708499e+00	 7.0348698570e-02
 1.8384776311e+00	 9.8994949367e-01	 6.2597603840e-02
 1.9798989873e+00	 8.4852813743e-01	 5.4095610186e-02
 2.1213203436e+00	 7.0710678119e-01	 4.4842717609e-02
 2.2627416998e+00	 5.6568542495e-01	 3.4838926109e-02
 2.4041630560e+00	 4.2426406871e-01	 2.4084235686e-02
 2.5455844123e+00	 2.8284271247e-01	 1.2578646339e-02
 2.6870057685e+00	 1.4142135623e-01	 3.2215806947e-04
 2.8284271247e+00	-1.2501222280e-11	-1.2685229124e-02
 1.1313708499e+00	 1.1313708499e+00	 6.7161927995e-02
 1.2727922062e+00	 9.8994949367e-01	 5.9518675130e-02
 1.4142135624e+00	 8.4852813743e-01	 5.1205826692e-02
 1.5556349186e+00	 7.0710678119e-01	 4.2223382681e-02
 1.6970562749e+00	 5.6568542495e-01	 3.2571343097e-02
 1.8384776311e+00	 4.2426406871e-01	 2.2249707940e-02
 1.9798989873e+00	 2.8284271247e-01	 1.1258477210e-02
 2.1213203436e+00	 1.4142135623e-01	-4.0234909384e-04
 2.2627416998e+00	-8.0014328496e-12	-1.2732770971e-02
 2.4041630560e+00	-1.4142135625e-01	-2.5732788421e-02
 2.5455844123e+00	-2.8284271249e-01	-3.9402401444e-02
 8.4852813744e-01	 8.4852813744e-01	 5.0637359368e-02
 9.8994949368e-01	 7.0710678120e-01	 4.1552260515e-02
 1.1313708499e+00	 5.6568542496e-01	 3.1878869440e-02
 1.2727922062e+00	 4.2426406872e-01	 2.1617186141e-02
 1.4142135624e+00	 2.8284271248e-01	 1.0767210619e-02
 1.5556349186e+00	 1.4142135624e-01	-6.7105712580e-04
 1.6970562749e+00	-4.5017600758e-12	-1.2697617094e-02
 1.8384776311e+00	-1.4142135624e-01	-2.5312469285e-02
 1.9798989873e+00	-2.8284271248e-01	-3.8515613699e-02
 2.1213203436e+00	-4.2426406872e-01	-5.2307050337e-02
 2.2627416998e+00	-5.6568542496e-01	-6.6686779198e-02
 5.6568542496e-01	 5.6568542496e-01	 3.4024485381e-02
 7.0710678120e-01	 4.2426406872e-01	 2.3449650533e-02
 8.4852813744e-01	 2.8284271248e-01	 1.2367826812e-02
 9.8994949367e-01	 1.4142135624e-01	 7.7901421785e-04
 1.1313708499e+00	-2.0019819136e-12	-1.1316787249e-02
 1.2727922061e+00	-1.4142135624e-01	-2.3919577589e-02
 1.4142135624e+00	-2.8284271248e-01	-3.7029356802e-02
 1.5556349186e+00	-4.2426406872e-01	-5.0646124888e-02
 1.6970562749e+00	-5.6568542496e-01	-6.4769881847e-02
 1.8384776311e+00	-7.0710678120e-01	-7.9400627679e-02
 1.9798989873e+00	-8.4852813744e-01	-9.4538362385e-02
 2.8284271248e-01	 2.8284271248e-01	 1.7323306032e-02
 4.2426406872e-01	 1.4142135624e-01	 5.2108451817e-03
 5.6568542496e-01	-5.0225101855e-13	-7.3273011916e-03
 7.0710678120e-01	-1.4142135624e-01	-2.0291133088e-02
 8.4852813744e-01	-2.8284271248e-01	-3.3680650507e-02
 9.8994949367e-01	-4.2426406872e-01	-4.7495853449e-02
 1.1313708499e+00	-5.6568542496e-01	-6.1736741914e-02
 1.2727922062e+00	-7.0710678120e-01	-7.6403315902e-02
 1.4142135624e+00	-8.4852813744e-01	-9.1495575413e-02
 1.5556349186e+00	-9.8994949368e-01	-1.0701352045e-01
 1.6970562749e+00	-1.1313708499e+00	-1.2295715101e-01
 0.0000000000e+00	 0.0000000000e+00	 5.3382132316e-04
 1.4142135624e-01	-1.4142135624e-01	-1.3164155537e-02
 2.8284271248e-01	-2.8284271248e-01	-2.7206514570e-02
 4.2426406872e-01	-4.2426406872e-01	-4.1593255776e-02
 5.6568542496e-01	-5.6568542496e-01	-5.6324379154e-02
 7.0710678120e-01	-7.0710678120e-01	-7.1399884706e-02
 8.4852813744e-01	-8.4852813744e-01	-8.6819772430e-02
 9.8994949368e-01	-9.8994949368e-01	-1.0258404233e-01
 1.1313708499e+00	-1.1313708499e+00	-1.1869269440e-01
 1.2727922062e+00	-1.2727922062e+00	-1.3514572864e-01
 1.4142135624e+00	-1.4142135624e+00	-1.5194314506e-01
 1.4142135624e+01	 1.4142135624e+01	 3.9760302058e-03
 1.4283556980e+01	 1.4000714267e+01	 7.0304680048e-03
 1.4424978336e+01	 1.3859292911e+01	 9.8037213652e-03
 1.4566399692e+01	 1.3717871555e+01	 1.2304245815e-02
 1.4707821049e+01	 1.3576450199e+01	 1.4551895430e-02
 1.4849242405e+01	 1.3435028843e+01	 1.7230886455e-02
 1.4990663761e+01	 1.3293607486e+01	 1.9390318640e-02
 1.5132085117e+01	 1.3152186130e+01	 2.1023871342e-02
 1.5273506474e+01	 1.3010764774e+01	 2.2125223821e-02
 1.5414927830e+01	 1.2869343418e+01	 2.2688055248e-02
 1.5556349186e+01	 1.2727922061e+01	 2.2706044699e-02
 1.3859292911e+01	 1.3859292911e+01	 9.9988448625e-03
 1.4000714267e+01	 1.3717871555e+01	 1.4287224403e-02
 1.4142135624e+01	 1.3576450199e+01	 1.8360863751e-02
 1.4283556980e+01	 1.3435028843e+01	 2.2228218397e-02
 1.4424978336e+01	 1.3293607486e+01	 2.5897743710e-02
 1.4566399692e+01	 1.3152186130e+01	 2.9377894933e-02
 1.4707821049e+01	 1.3010764774e+01	 3.2677815199e-02
 1.4849242405e+01	 1.2869343418e+01	 3.5696280292e-02
 1.4990663761e+01	 1.2727922061e+01	 3.8228122782e-02
 1.5132085117e+01	 1.2586500705e+01	 4.0267021808e-02
 1.5273506474e+01	 1.2445079349e+01	 4.1806656417e-02
 1.3576450199e+01	 1.3576450199e+01	 1.4106925605e-02
 1.3717871555e+01	 1.3435028843e+01	 1.9487006635e-02
 1.3859292911e+01	 1.3293607486e+01	 2.4718791933e-02
 1.4000714267e+01	 1.3152186130e+01	 2.9810736951e-02
 1.4142135624e+01	 1.3010764774e+01	 3.4771297020e-02
 1.4283556980e+01	 1.2869343418e+01	 3.9608927348e-02
 1.4424978336e+01	 1.2727922061e+01	 4.4332083019e-02
 1.4566399692e+01	 1.2586500705e+01	 4.8949218998e-02
 1.4707821049e+01	 1.2445079349e+01	 5.3457083089e-02
 1.4849242405e+01	 1.2303657993e+01	 5.6849509647e-02
 1.4990663761e+01	 1.2162236636e+01	 5.9788249511e-02
 1.3293607486e+01	 1.3293607486e+01	 1.6159186622e-02
 1.3435028843e+01	 1.3152186130e+01	 2.2488729040e-02
 1.3576450199e+01	 1.3010764774e+01	 2.8736420399e-02
 1.3717871555e+01	 1.2869343418e+01	 3.4910716114e-02
 1.3859292911e+01	 1.2727922061e+01	 4.1020071478e-02
 1.4000714267e+01	 1.2586500705e+01	 4.7072941662e-02
 1.4142135624e+01	 1.2445079349e+01	 5.3077781712e-02
 1.4283556980e+01	 1.2303657993e+01	 5.9043046555e-02
 1.4424978336e+01	 1.2162236636e+01	 6.4977190993e-02
 1.4566399692e+01	 1.2020815280e+01	 7.0888669707e-02
 1.4707821049e+01	 1.1879393924e+01	 7.6760150800e-02
 1.3010764774e+01	 1.3010764774e+01	 1.6014538940e-02
 1.3152186130e+01	 1.2869343418e+01	 2.3151302794e-02
 1.3293607486e+01	 1.2727922061e+01	 3.0272660477e-02
 1.3435028843e+01	 1.2586500705e+01	 3.7387067364e-02
 1.3576450199e+01	 1.2445079349e+01	 4.4502978712e-02
 1.3717871555e+01	 1.2303657993e+01	 5.1628849654e-02
 1.3859292911e+01	 1.2162236636e+01	 5.8773135198e-02
 1.4000714267e+01	 1.2020815280e+01	 6.5944290234e-02
 1.4142135624e+01	 1.1879393924e+01	 7.3150769526e-02
 1.4283556980e+01	 1.1737972568e+01	 8.0401027718e-02
 1.4424978336e+01	 1.1596551211e+01	 8.7703519330e-02
 1.2727922061e+01	 1.2727922061e+01	 1.3531890428e-02
 1.2869343418e+01	 1.2586500705e+01	 2.1333635918e-02
 1.3010764774e+01	 1.2445079349e+01	 2.9186420335e-02
 1.3152186130e+01	 1.2303657993e+01	 3.7098699021e-02
 1.3293607486e+01	 1.2162236636e+01	 4.5078927191e-02
 1.3435028843e+01	 1.2020815280e+01	 5.3135559942e-02
 1.3576450199e+01	 1.1879393924e+01	 6.1277052245e-02
 1.3717871555e+01	 1.1737972568e+01	 6.9511858952e-02
 1.3859292911e+01	 1.1596551211e+01	 7.7848434790e-02
 1.4000714267e+01	 1.1455129855e+01	 8.6295234365e-02
 1.4142135624e+01	 1.1313708499e+01	 9.4860712159e-02
 1.2445079349e+01	 1.2445079349e+01	 8.5701457924e-03
 1.2586500705e+01	 1.2303657993e+01	 1.6894633267e-02
 1.2727922061e+01	 1.2162236636e+01	 2.5336604983e-02
 1.2869343418e+01	 1.2020815280e+01	 3.3904516241e-02
 1.3010764774e+01	 1.1879393924e+01	 4.2606822223e-02
 1.3152186130e+01	 1.1737972568e+01	 5.1451977985e-02
 1.3293607486e+01	 1.1596551211e+01	 6.0448438464e-02
 1.3435028843e+01	 1.1455129855e+01	 6.9604658470e-02
 1.3576450199e+01	 1.1313708499e+01	 7.8929092696e-02
 1.3717871555e+01	 1.1172287143e+01	 8.8430195709e-02
 1.3859292911e+01	 1.1030865787e+01	 9.8116421954e-02
 1.2162236636e+01	 1.2162236636e+01	 9.8820658167e-04
 1.2303657993e+01	 1.2020815280e+01	 9.6931965407e-03
 1.2445079349e+01	 1.1879393924e+01	 1.8582116267e-02
 1.2586500705e+01	 1.1737972568e+01	 2.7663421024e-02
 1.2727922061e+01	 1.1596551211e+01	 3.6945565957e-02
 1.2869343418e+01	 1.1455129855e+01	 4.6437006083e-02
 1.3010764774e+01	 1.1313708499e+01	 5.6146196302e-02
 1.3152186130e+01	 1.1172287143e+01	 6.6081591387e-02
 1.3293607486e+01	 1.1030865787e+01	 7.6251645993e-02
 1.3435028843e+01	 1.0889444430e+01	 8.6664814649e-02
 1.3576450199e+01	 1.0748023074e+01	 9.7329551763e-02
 1.1879393924e+01	 1.1879393924e+01	-9.3550288173e-03
 1.2020815280e+01	 1.1737972568e+01	-4.1177572452e-04
 1.2162236636e+01	 1.1596551211e+01	 8.7818528748e-03
 1.2303657993e+01	 1.1455129855e+01	 1.8234312208e-02
 1.2445079349e+01	 1.1313708499e+01	 2.7954057380e-02
 1.2586500705e+01	 1.1172287143e+01	 3.7949543373e-02
 1.2727922061e+01	 1.1030865787e+01	 4.8229225048e-02
 1.2869343418e+01	 1.0889444430e+01	 5.8801557142e-02
 1.3010764774e+01	 1.0748023074e+01	 6.9674994269e-02
 1.3152186130e+01	 1.0606601718e+01	 8.0857990925e-02
 1.3293607486e+01	 1.0465180362e+01	 9.2359001477e-02
 1.1596551211e+01	 1.1596551211e+01	-2.2600665178e-02
 1.1737972568e+01	 1.1455129855e+01	-1.3561388151e-02
 1.1879393924e+01	 1.1313708499e+01	-4.2052896654e-03
 1.2020815280e+01	 1.1172287143e+01	 5.4760854695e-03
 1.2162236636e+01	 1.1030865787e+01	 1.5491192321e-02
 1.2303657993e+01	 1.0889444430e+01	 2.5848485834e-02
 1.2445079349e+01	 1.0748023074e+01	 3.6556420831e-02
 1.2586500705e+01	 1.0606601718e+01	 4.7623452012e-02
 1.2727922061e+01	 1.0465180362e+01	 5.9058033955e-02
 1.2869343418e+01	 1.0323759005e+01	 7.0785836353e-02
 1.3010764774e+01	 1.0182337649e+01	 8.2313707237e-02
 1.1313708499e+01	 1.1313708499e+01	-3.8889810433e-02
 1.1455129855e+01	 1.1172287143e+01	-2.9896748523e-02
 1.1596551211e+01	 1.1030865787e+01	-2.0520418987e-02
 1.1737972568e+01	 1.0889444430e+01	-1.0752366674e-02
 1.1879393924e+01	 1.0748023074e+01	-5.8413655279e-04
 1.2020815280e+01	 1.0606601718e+01	 9.9927262831e-03
 1.2162236636e+01	 1.0465180362e+01	 2.0986676619e-02
 1.2303657993e+01	 1.0323759005e+01	 3.2325038009e-02
 1.2445079349e+01	 1.0182337649e+01	 4.3531786413e-02
 1.2586500705e+01	 1.0040916293e+01	 5.5008552660e-02
 1.2727922061e+01	 9.8994949366e+00	 6.6739767734e-02
 1.1313708499e+01	 1.1313708499e+01	-3.8889810433e-02
 1.1455129855e+01	 1.1172287143e+01	-2.9896748523e-02
 1.1596551211e+01	 1.1030865787e+01	-2.0520418987e-02
 1.1737972568e+01	 1.0889444430e+01	-1.0752366674e-02
 1.1879393924e+01	 1.0748023074e+01	-5.8413655279e-04
 1.2020815280e+01	 1.0606601718e+01	 9.9927262831e-03
 1.2162236636e+01	 1.0465180362e+01	 2.0986676619e-02
 1.2303657993e+01	 1.0323759005e+01	 3.2325038009e-02
 1.2445079349e+01	 1.0182337649e+01	 4.3531786413e-02
 1.2586500705e+01	 1.0040916293e+01	 5.5008552660e-02
 1.2727922061e+01	 9.8994949366e+00	 6.6739767734e-02
 1.1030865787e+01	 1.1030865787e+01	-2.2057132753e-02
 1.1172287143e+01	 1.0889444430e+01	-7.7624996306e-03
 1.1313708499e+01	 1.0748023074e+01	 5.8228340551e-03
 1.1455129855e+01	 1.0606601718e+01	 1.8707323419e-02
 1.1596551211e+01	 1.0465180362e+01	 3.0899423453e-02
 1.1737972568e+01	 1.0323759005e+01	 4.2337538699e-02
 1.1879393924e+01	 1.0182337649e+01	 5.2608735861e-02
 1.2020815280e+01	 1.0040916293e+01	 6.2056302530e-02
 1.2162236636e+01	 9.8994949366e+00	 7.0664669305e-02
 1.2303657993e+01	 9.7580735804e+00	 7.8418267146e-02
 1.2445079349e+01	 9.6166522241e+00	 8.5301527376e-02
 1.0748023074e+01	 1.0748023074e+01	-1.1074067753e-02
 1.0889444430e+01	 1.0606601718e+01	 9.4588023498e-03
 1.1030865787e+01	 1.0465180362e+01	 2.8189806167e-02
 1.1172287143e+01	 1.0323759005e+01	 4.5077856583e-02
 1.1313708499e+01	 1.0182337649e+01	 5.9819074994e-02
 1.1455129855e+01	 1.0040916293e+01	 7.2643014477e-02
 1.1596551211e+01	 9.8994949366e+00	 8.3534105244e-02
 1.1737972568e+01	 9.7580735804e+00	 9.2476777870e-02
 1.1879393924e+01	 9.6166522241e+00	 9.9455463291e-02
 1.2020815280e+01	 9.4752308679e+00	 1.0445459280e-01
 1.2162236636e+01	 9.3338095116e+00	 1.0745859807e-01
 1.0465180362e+01	 1.0465180362e+01	-6.0817328485e-03
 1.0606601718e+01	 1.0323759005e+01	 2.1606433684e-02
 1.0748023074e+01	 1.0182337649e+01	 4.6223246821e-02
 1.0889444430e+01	 1.0040916293e+01	 6.7829132498e-02
 1.1030865787e+01	 9.8994949366e+00	 8.6408520542e-02
 1.1172287143e+01	 9.7580735804e+00	 1.0194584114e-01
 1.1313708499e+01	 9.6166522241e+00	 1.1442552483e-01
 1.1455129855e+01	 9.4752308679e+00	 1.2383200254e-01
 1.1596551211e+01	 9.3338095116e+00	 1.3014970554e-01
 1.1737972568e+01	 9.1923881554e+00	 1.3336306546e-01
 1.1879393924e+01	 9.0509667992e+00	 1.3345651429e-01
 1.0182337649e+01	 1.0182337649e+01	-7.1183056483e-03
 1.0323759005e+01	 1.0040916293e+01	 2.8675100593e-02
 1.0465180362e+01	 9.8994949366e+00	 6.0348360184e-02
 1.0606601718e+01	 9.7580735804e+00	 8.7885902923e-02
 1.0748023074e+01	 9.6166522241e+00	 1.1127215897e-01
 1.0889444430e+01	 9.4752308679e+00	 1.3049155886e-01
 1.1030865787e+01	 9.3338095117e+00	 1.4552853346e-01
 1.1172287143e+01	 9.1923881554e+00	 1.5636751403e-01
 1.1313708499e+01	 9.0509667992e+00	 1.6299293218e-01
 1.1455129855e+01	 8.9095454429e+00	 1.6538921989e-01
 1.1596551211e+01	 8.7681240867e+00	 1.6354080947e-01
 9.8994949366e+00	 9.8994949366e+00	-1.3585930844e-02
 1.0040916293e+01	 9.7580735804e+00	 3.1357409201e-02
 1.0182337649e+01	 9.6166522241e+00	 7.1055812668e-02
 1.0323759005e+01	 9.4752308679e+00	 1.0549370969e-01
 1.0465180362e+01	 9.3338095117e+00	 1.3465553078e-01
 1.0606601718e+01	 9.1923881554e+00	 1.5852570677e-01
 1.0748023074e+01	 9.0509667992e+00	 1.7708866892e-01
 1.0889444430e+01	 8.9095454429e+00	 1.9032884878e-01
 1.1030865787e+01	 8.7681240867e+00	 1.9823067832e-01
 1.1172287143e+01	 8.6267027305e+00	 2.0077858984e-01
 1.1313708499e+01	 8.4852813742e+00	 1.9795701602e-01
 9.6166522241e+00	 9.6166522241e+00	-2.5163067118e-02
 9.7580735804e+00	 9.4752308679e+00	 2.9898903004e-02
 9.8994949366e+00	 9.3338095117e+00	 7.8591146422e-02
 1.0040916293e+01	 9.1923881554e+00	 1.2089809361e-01
 1.0182337649e+01	 9.0509667992e+00	 1.5680417540e-01
 1.0323759005e+01	 8.9095454429e+00	 1.8629382300e-01
 1.0465180362e+01	 8.7681240867e+00	 2.0935146796e-01
 1.0606601718e+01	 8.6267027305e+00	 2.2596154220e-01
 1.0748023074e+01	 8.4852813742e+00	 2.3610847801e-01
 1.0889444430e+01	 8.3438600180e+00	 2.3977670804e-01
 1.1030865787e+01	 8.2024386618e+00	 2.3695066529e-01
 9.3338095116e+00	 9.3338095116e+00	-4.1604170662e-02
 9.4752308679e+00	 9.1923881554e+00	 2.4545124462e-02
 9.6166522241e+00	 9.0509667992e+00	 8.3199902558e-02
 9.7580735804e+00	 8.9095454429e+00	 1.3434459444e-01
 9.8994949366e+00	 8.7681240867e+00	 1.7796363127e-01
 1.0040916293e+01	 8.6267027305e+00	 2.1404144459e-01
 1.0182337649e+01	 8.4852813742e+00	 2.4256246631e-01
 1.0323759005e+01	 8.3438600180e+00	 2.6351112866e-01
 1.0465180362e+01	 8.2024386618e+00	 2.7687186429e-01
 1.0606601718e+01	 8.0610173055e+00	 2.8262910616e-01
 1.0748023074e+01	 7.9195959493e+00	 2.8076728763e-01
 9.0509667992e+00	 9.0509667992e+00	-6.2663698702e-02
 9.1923881554e+00	 8.9095454429e+00	 1.5541615003e-02
 9.3338095116e+00	 8.7681240867e+00	 8.5127621156e-02
 9.4752308679e+00	 8.6267027305e+00	 1.4607875091e-01
 9.6166522241e+00	 8.4852813742e+00	 1.9837943577e-01
 9.7580735804e+00	 8.3438600180e+00	 2.4201410760e-01
 9.8994949366e+00	 8.2024386618e+00	 2.7696719865e-01
 1.0040916293e+01	 8.0610173055e+00	 3.0322314151e-01
 1.0182337649e+01	 7.9195959493e+00	 3.2076636913e-01
 1.0323759005e+01	 7.7781745931e+00	 3.2958131484e-01
 1.0465180362e+01	 7.6367532368e+00	 3.2965241232e-01
 8.7681240867e+00	 8.7681240867e+00	-8.1477631606e-02
 8.9095454429e+00	 8.6267027305e+00	 3.1339150162e-03
 9.0509667992e+00	 8.4852813742e+00	 8.4619841260e-02
 9.1923881554e+00	 8.3438600180e+00	 1.5634610072e-01
 9.3338095116e+00	 8.2024386618e+00	 2.1829712523e-01
 9.4752308679e+00	 8.0610173055e+00	 2.7045734702e-01
 9.6166522241e+00	 7.9195959493e+00	 3.1281119865e-01
 9.7580735804e+00	 7.7781745931e+00	 3.4534311305e-01
 9.8994949366e+00	 7.6367532368e+00	 3.6803752352e-01
 1.0040916293e+01	 7.4953318806e+00	 3.8087886371e-01
 1.0182337649e+01	 7.3539105244e+00	 3.8385156764e-01
 8.4852813742e+00	 8.4852813742e+00	-7.6484657235e-02
 8.6267027304e+00	 8.3438600180e+00	 1.1605883055e-02
 8.7681240867e+00	 8.2024386618e+00	 8.8728733986e-02
 8.9095454429e+00	 8.0610173055e+00	 1.6539218053e-01
 9.0509667992e+00	 7.9195959493e+00	 2.3796223499e-01
 9.1923881554e+00	 7.7781745931e+00	 2.9961669682e-01
 9.3338095116e+00	 7.6367532368e+00	 3.5033999892e-01
 9.4752308679e+00	 7.4953318806e+00	 3.9011657455e-01
 9.6166522241e+00	 7.3539105244e+00	 4.1893085735e-01
 9.7580735804e+00	 7.2124891681e+00	 4.3676728132e-01
 9.8994949366e+00	 7.0710678119e+00	 4.4361028081e-01
 7.0710678119e+00	 4.2426406871e+00	 2.0559620337e-01
 7.7074639150e+00	 3.6062445840e+00	 1.2502304192e-01
 8.3438600180e+00	 2.9698484810e+00	 4.0610475051e-02
 8.9802561211e+00	 2.3334523779e+00	-2.4112582548e-02
 9.6166522241e+00	 1.6970562749e+00	-3.5271197498e-02
 1.0253048327e+01	 1.0606601718e+00	-4.5916064516e-02
 1.0889444430e+01	 4.2426406872e-01	-5.5827250213e-02
 1.1525840533e+01	-2.1213203434e-01	-6.4784809154e-02
 1.2162236636e+01	-8.4852813741e-01	-7.2568790564e-02
 1.2798632739e+01	-1.4849242405e+00	-7.8959238330e-02
 1.3435028843e+01	-2.1213203435e+00	-8.3736190999e-02
 6.7882250994e+00	 3.9597979746e+00	 1.6200667388e-01
 7.4246212025e+00	 3.3234018716e+00	 8.8217785575e-02
 8.0610173055e+00	 2.6870057685e+00	 9.0893914523e-03
 8.6974134086e+00	 2.0506096654e+00	-6.3840207143e-02
 9.3338095117e+00	 1.4142135624e+00	-8.0997089230e-02
 9.9702056147e+00	 7.7781745931e-01	-8.5690014768e-02
 1.0606601718e+01	 1.4142135624e-01	-9.0526859246e-02
 1.1242997821e+01	-4.9497474682e-01	-9.5287669458e-02
 1.1879393924e+01	-1.1313708499e+00	-9.9752486857e-02
 1.2515790027e+01	-1.7677669530e+00	-1.0370134756e-01
 1.3152186130e+01	-2.4041630560e+00	-1.0691428234e-01
 6.5053823869e+00	 3.6769552621e+00	 1.2468681473e-01
 7.1417784900e+00	 3.0405591591e+00	 5.3433690999e-02
 7.7781745931e+00	 2.4041630560e+00	-1.7813674786e-02
 8.4145706961e+00	 1.7677669530e+00	-8.3140397079e-02
 9.0509667992e+00	 1.1313708499e+00	-1.2100186624e-01
 9.6873629023e+00	 4.9497474683e-01	-1.2039424099e-01
 1.0323759005e+01	-1.4142135624e-01	-1.2080813760e-01
 1.0960155108e+01	-7.7781745930e-01	-1.2202359508e-01
 1.1596551211e+01	-1.4142135624e+00	-1.2382064713e-01
 1.2232947315e+01	-2.0506096654e+00	-1.2597932207e-01
 1.2869343418e+01	-2.6870057685e+00	-1.2827964292e-01
 6.2225396745e+00	 3.3941125497e+00	 9.2390033624e-02
 6.8589357775e+00	 2.7577164466e+00	 2.3769105963e-02
 7.4953318806e+00	 2.1213203435e+00	-4.0306363812e-02
 8.1317279836e+00	 1.4849242405e+00	-9.8739342130e-02
 8.7681240867e+00	 8.4852813742e-01	-1.5043279542e-01
 9.4045201898e+00	 2.1213203435e-01	-1.4988113914e-01
 1.0040916293e+01	-4.2426406871e-01	-1.4652348276e-01
 1.0677312396e+01	-1.0606601718e+00	-1.4484498506e-01
 1.1313708499e+01	-1.6970562748e+00	-1.4462567193e-01
 1.1950104602e+01	-2.3334523779e+00	-1.4564556397e-01
 1.2586500705e+01	-2.9698484810e+00	-1.4768467639e-01
 5.9396969620e+00	 3.1112698372e+00	 6.0896402264e-02
 6.5760930650e+00	 2.4748737341e+00	-9.8360967988e-04
 7.2124891681e+00	 1.8384776311e+00	-5.8596315773e-02
 7.8488852712e+00	 1.2020815280e+00	-1.1084468244e-01
 8.4852813742e+00	 5.6568542494e-01	-1.5663167612e-01
 9.1216774773e+00	-7.0710678125e-02	-1.7400310224e-01
 9.7580735804e+00	-7.0710678119e-01	-1.6752528929e-01
 1.0394469683e+01	-1.3435028843e+00	-1.6360423547e-01
 1.1030865786e+01	-1.9798989873e+00	-1.6201995891e-01
 1.1667261890e+01	-2.6162950904e+00	-1.6255247242e-01
 1.2303657993e+01	-3.2526911935e+00	-1.6498178345e-01
 5.6568542495e+00	 2.8284271247e+00	 3.4816132477e-02
 6.2932503526e+00	 2.1920310217e+00	-2.1032096078e-02
 6.9296464556e+00	 1.5556349186e+00	-7.2891170818e-02
 7.5660425587e+00	 9.1923881553e-01	-1.1966405817e-01
 8.2024386618e+00	 2.8284271246e-01	-1.6025372456e-01
 8.8388347648e+00	-3.5355339060e-01	-1.9261252036e-01
 9.4752308679e+00	-9.8994949367e-01	-1.8366594881e-01
 1.0111626971e+01	-1.6263455967e+00	-1.7815373948e-01
 1.0748023074e+01	-2.2627416998e+00	-1.7585590275e-01
 1.1384419177e+01	-2.8991378029e+00	-1.7655244364e-01
 1.2020815280e+01	-3.5355339059e+00	-1.7780271781e-01
 5.3740115370e+00	 2.5455844122e+00	 1.3941584115e-02
 6.0104076401e+00	 1.9091883092e+00	-3.6583993379e-02
 6.6468037431e+00	 1.2727922061e+00	-8.3398569093e-02
 7.2831998462e+00	 6.3639610305e-01	-1.2540510945e-01
 7.9195959493e+00	-1.0000222872e-11	-1.6150658089e-01
 8.5559920523e+00	-6.3639610307e-01	-1.9060594983e-01
 9.1923881554e+00	-1.2727922061e+00	-1.9479784999e-01
 9.8287842585e+00	-1.9091883092e+00	-1.8834588730e-01
 1.0465180362e+01	-2.5455844123e+00	-1.8598589519e-01
 1.1101576465e+01	-3.1819805153e+00	-1.8749787093e-01
 1.1737972568e+01	-3.8183766184e+00	-1.8396012611e-01
 5.0911688245e+00	 2.2627416998e+00	-1.9348829697e-03
 5.7275649276e+00	 1.6263455967e+00	-4.7846941731e-02
 6.3639610307e+00	 9.8994949364e-01	-9.0326150747e-02
 7.0003571337e+00	 3.5355339058e-01	-1.2827547644e-01
 7.6367532368e+00	-2.8284271248e-01	-1.6059788525e-01
 8.2731493399e+00	-9.1923881555e-01	-1.8619634359e-01
 8.9095454429e+00	-1.5556349186e+00	-2.0077337930e-01
 9.5459415460e+00	-2.1920310217e+00	-1.9403306621e-01
 1.0182337649e+01	-2.8284271247e+00	-1.9226232506e-01
 1.0818733752e+01	-3.4648232278e+00	-1.9485991010e-01
 1.1455129855e+01	-4.1012193309e+00	-1.8897064153e-01
 4.8083261121e+00	 1.9798989873e+00	-1.3020908925e-02
 5.4447222151e+00	 1.3435028842e+00	-5.5028581282e-02
 6.0811183182e+00	 7.0710678117e-01	-9.3881555927e-02
 6.7175144213e+00	 7.0710678108e-02	-1.2848279929e-01
 7.3539105243e+00	-5.6568542496e-01	-1.5773527779e-01
 7.9903066274e+00	-1.2020815280e+00	-1.8054195787e-01
 8.6267027305e+00	-1.8384776311e+00	-1.9580580595e-01
 9.2630988335e+00	-2.4748737342e+00	-1.9506766054e-01
 9.8994949366e+00	-3.1112698372e+00	-1.9453757823e-01
 1.0535891040e+01	-3.7476659403e+00	-1.9373743143e-01
 1.1172287143e+01	-4.3840620434e+00	-1.9308670205e-01
 4.5254833996e+00	 1.6970562748e+00	-1.9524133900e-02
 5.1618795026e+00	 1.0606601718e+00	-5.8336552179e-02
 5.7982756057e+00	 4.2426406870e-01	-9.4272424782e-02
 6.4346717088e+00	-2.1213203436e-01	-1.2623471814e-01
 7.0710678119e+00	-8.4852813743e-01	-1.5312639867e-01
 7.7074639149e+00	-1.4849242405e+00	-1.7385043281e-01
 8.3438600180e+00	-2.1213203436e+00	-1.8730978698e-01
 8.9802561211e+00	-2.7577164466e+00	-1.9130205732e-01
 9.6166522241e+00	-3.3941125497e+00	-1.9266403763e-01
 1.0253048327e+01	-4.0305086528e+00	-1.9128234300e-01
 1.0889444430e+01	-4.6669047558e+00	-1.9656075821e-01
 4.2426406871e+00	 1.4142135624e+00	-2.1652198040e-02
 4.8790367902e+00	 7.7781745929e-01	-5.7978494570e-02
 5.5154328932e+00	 1.4142135623e-01	-9.1706397458e-02
 6.1518289963e+00	-4.9497474683e-01	-1.2173887313e-01
 6.7882250994e+00	-1.1313708499e+00	-1.4697888802e-01
 7.4246212024e+00	-1.7677669530e+00	-1.6632940855e-01
 8.0610173055e+00	-2.4041630560e+00	-1.7869340115e-01
 8.6974134086e+00	-3.0405591591e+00	-1.8297383224e-01
 9.3338095117e+00	-3.6769552622e+00	-1.8364374857e-01
 9.9702056147e+00	-4.3133513652e+00	-1.8774710522e-01
 1.0606601718e+01	-4.9497474683e+00	-1.9964527308e-01
 1.3435028843e+01	-2.1213203435e+00	-8.3736190999e-02
 1.4071424946e+01	-2.7577164466e+00	-8.3585061379e-02
 1.4707821049e+01	-3.3941125497e+00	-8.6238077068e-02
 1.5344217152e+01	-4.0305086528e+00	-8.6828809113e-02
 1.5980613255e+01	-4.6669047558e+00	-8.8423138467e-02
 1.6617009358e+01	-5.3033008589e+00	-9.1135123404e-02
 1.7253405461e+01	-5.9396969620e+00	-9.4067376922e-02
 1.7889801564e+01	-6.5760930650e+00	-9.6322410814e-02
 1.8526197667e+01	-7.2124891681e+00	-9.7002635653e-02
 1.9162593770e+01	-7.8488852711e+00	-9.5210360784e-02
 1.9798989873e+01	-8.4852813742e+00	-9.0047794305e-02
 1.3152186130e+01	-2.4041630560e+00	-1.0691428234e-01
 1.3788582233e+01	-3.0405591591e+00	-1.0553374511e-01
 1.4424978336e+01	-3.6769552622e+00	-1.0272895737e-01
 1.5061374439e+01	-4.3133513652e+00	-9.8552823388e-02
 1.5697770542e+01	-4.9497474683e+00	-9.8052347751e-02
 1.6334166645e+01	-5.5861435714e+00	-9.8784889465e-02
 1.6970562748e+01	-6.2225396744e+00	-9.9853059617e-02
 1.7606958852e+01	-6.8589357775e+00	-1.0035936809e-01
 1.8243354955e+01	-7.4953318806e+00	-9.9406223542e-02
 1.8879751058e+01	-8.1317279836e+00	-9.6095933410e-02
 1.9516147161e+01	-8.7681240867e+00	-8.9530703878e-02
 1.2869343418e+01	-2.6870057685e+00	-1.2827964292e-01
 1.3505739521e+01	-3.3234018716e+00	-1.2559937761e-01
 1.4142135624e+01	-3.9597979746e+00	-1.1575692692e-01
 1.4778531727e+01	-4.5961940777e+00	-1.1023387898e-01
 1.5414927830e+01	-5.2325901808e+00	-1.0761285309e-01
 1.6051323933e+01	-5.8689862838e+00	-1.0634021031e-01
 1.6687720036e+01	-6.5053823869e+00	-1.0551855981e-01
 1.7324116139e+01	-7.1417784900e+00	-1.0425040955e-01
 1.7960512242e+01	-7.7781745930e+00	-1.0163816630e-01
 1.8596908345e+01	-8.4145706961e+00	-9.6784135562e-02
 1.9233304448e+01	-9.0509667992e+00	-8.8790521621e-02
 1.2586500705e+01	-2.9698484810e+00	-1.4768467639e-01
 1.3222896808e+01	-3.6062445841e+00	-1.3977350400e-01
 1.3859292911e+01	-4.2426406871e+00	-1.2656606497e-01
 1.4495689014e+01	-4.8790367902e+00	-1.2060067122e-01
 1.5132085117e+01	-5.5154328933e+00	-1.1710676786e-01
 1.5768481220e+01	-6.1518289963e+00	-1.1380319969e-01
 1.6404877324e+01	-6.7882250994e+00	-1.1106599162e-01
 1.7041273427e+01	-7.4246212025e+00	-1.0799764971e-01
 1.7677669530e+01	-8.0610173055e+00	-1.0370057880e-01
 1.8314065633e+01	-8.6974134086e+00	-9.7277082495e-02
 1.8950461736e+01	-9.3338095116e+00	-8.7829363164e-02
 1.2303657993e+01	-3.2526911935e+00	-1.6498178345e-01
 1.2940054096e+01	-3.8890872965e+00	-1.4895258537e-01
 1.3576450199e+01	-4.5254833996e+00	-1.3540876471e-01
 1.4212846302e+01	-5.1618795027e+00	-1.2879997081e-01
 1.4849242405e+01	-5.7982756057e+00	-1.2653620465e-01
 1.5485638508e+01	-6.4346717088e+00	-1.2117597058e-01
 1.6122034611e+01	-7.0710678119e+00	-1.1649746840e-01
 1.6758430714e+01	-7.7074639149e+00	-1.1160320228e-01
 1.7394826817e+01	-8.3438600180e+00	-1.0559557515e-01
 1.8031222920e+01	-8.9802561211e+00	-9.7576888690e-02
 1.8667619023e+01	-9.6166522241e+00	-8.6649343367e-02
 1.2020815280e+01	-3.5355339059e+00	-1.7780271781e-01
 1.2657211383e+01	-4.1719300090e+00	-1.5644879089e-01
 1.3293607486e+01	-4.8083261121e+00	-1.4253743191e-01
 1.3930003589e+01	-5.4447222151e+00	-1.3525406901e-01
 1.4566399692e+01	-6.0811183182e+00	-1.3378417822e-01
 1.5202795796e+01	-6.7175144213e+00	-1.2846063516e-01
 1.5839191899e+01	-7.3539105243e+00	-1.2181510273e-01
 1.6475588002e+01	-7.9903066274e+00	-1.1506918023e-01
 1.7111984105e+01	-8.6267027305e+00	-1.0732526867e-01
 1.7748380208e+01	-9.2630988335e+00	-9.7685667857e-02
 1.8384776311e+01	-9.8994949366e+00	-8.5252576317e-02
 1.1737972568e+01	-3.8183766184e+00	-1.8396012611e-01
 1.2374368671e+01	-4.4547727215e+00	-1.6251453617e-01
 1.3010764774e+01	-5.0911688246e+00	-1.4820448485e-01
 1.3647160877e+01	-5.7275649276e+00	-1.4021538678e-01
 1.4283556980e+01	-6.3639610307e+00	-1.3773270444e-01
 1.4919953083e+01	-7.0003571338e+00	-1.3565930489e-01
 1.5556349186e+01	-7.6367532368e+00	-1.2702100641e-01
 1.6192745289e+01	-8.2731493399e+00	-1.1839769573e-01
 1.6829141392e+01	-8.9095454430e+00	-1.0889177194e-01
 1.7465537495e+01	-9.5459415460e+00	-9.7605532936e-02
 1.8101933598e+01	-1.0182337649e+01	-8.3641175332e-02
 1.1455129855e+01	-4.1012193309e+00	-1.8897064153e-01
 1.2091525958e+01	-4.7376154340e+00	-1.6740224935e-01
 1.2727922061e+01	-5.3740115370e+00	-1.5266235434e-01
 1.3364318164e+01	-6.0104076401e+00	-1.4393635758e-01
 1.4000714267e+01	-6.6468037432e+00	-1.4040970806e-01
 1.4637110371e+01	-7.2831998462e+00	-1.4126790267e-01
 1.5273506474e+01	-7.9195959493e+00	-1.3211729049e-01
 1.5909902577e+01	-8.5559920524e+00	-1.2159086020e-01
 1.6546298680e+01	-9.1923881554e+00	-1.1029719675e-01
 1.7182694783e+01	-9.8287842585e+00	-9.7338596094e-02
 1.7819090886e+01	-1.0465180362e+01	-8.2704376923e-02
 1.1172287143e+01	-4.3840620434e+00	-1.9308670205e-01
 1.1808683246e+01	-5.0204581464e+00	-1.7136437112e-01
 1.2445079349e+01	-5.6568542495e+00	-1.5616348373e-01
 1.3081475452e+01	-6.2932503526e+00	-1.4666942746e-01
 1.3717871555e+01	-6.9296464556e+00	-1.4206763776e-01
 1.4354267658e+01	-7.5660425587e+00	-1.4154359802e-01
 1.4990663761e+01	-8.2024386618e+00	-1.3710606521e-01
 1.5627059864e+01	-8.8388347648e+00	-1.2465078428e-01
 1.6263455967e+01	-9.4752308679e+00	-1.1154365410e-01
 1.6899852070e+01	-1.0111626971e+01	-9.6886968729e-02
 1.7536248173e+01	-1.0748023074e+01	-8.3002362919e-02
 1.0889444430e+01	-4.6669047558e+00	-1.9656075821e-01
 1.1525840533e+01	-5.3033008589e+00	-1.7465335466e-01
 1.2162236636e+01	-5.9396969620e+00	-1.5896032890e-01
 1.2798632739e+01	-6.5760930650e+00	-1.4866705495e-01
 1.3435028843e+01	-7.2124891681e+00	-1.4295895477e-01
 1.4071424946e+01	-7.8488852712e+00	-1.4102149820e-01
 1.4707821049e+01	-8.4852813742e+00	-1.4198944009e-01
 1.5344217152e+01	-9.1216774773e+00	-1.2757957785e-01
 1.5980613255e+01	-9.7580735804e+00	-1.1263325426e-01
 1.6617009358e+01	-1.0394469683e+01	-9.6819576153e-02
 1.7253405461e+01	-1.1030865787e+01	-8.3441480307e-02
 1.0606601718e+01	-4.9497474683e+00	-1.9964527308e-01
 1.1242997821e+01	-5.5861435714e+00	-1.7752166574e-01
 1.1879393924e+01	-6.2225396744e+00	-1.6130535825e-01
 1.2515790027e+01	-6.8589357775e+00	-1.5018171114e-01
 1.3152186130e+01	-7.4953318806e+00	-1.4333613283e-01
 1.3788582233e+01	-8.1317279837e+00	-1.3995407966e-01
 1.4424978336e+01	-8.7681240867e+00	-1.3922105585e-01
 1.5061374439e+01	-9.4045201898e+00	-1.3037935000e-01
 1.5697770542e+01	-1.0040916293e+01	-1.1356810669e-01
 1.6334166645e+01	-1.0677312396e+01	-9.9468880592e-02
 1.6970562749e+01	-1.1313708499e+01	-8.4012178349e-02
 4.2426406871e+00	 1.4142135624e+00	-2.1652198040e-02
 4.8790367902e+00	 7.7781745929e-01	-5.7978494570e-02
 5.5154328932e+00	 1.4142135623e-01	-9.1706397458e-02
 6.1518289963e+00	-4.9497474683e-01	-1.2173887313e-01
 6.7882250994e+00	-1.1313708499e+00	-1.4697888802e-01
 7.4246212024e+00	-1.7677669530e+00	-1.6632940855e-01
 8.0610173055e+00	-2.4041630560e+00	-1.7869340115e-01
 8.6974134086e+00	-3.0405591591e+00	-1.8297383224e-01
 9.3338095117e+00	-3.6769552622e+00	-1.8364374857e-01
 9.9702056147e+00	-4.3133513652e+00	-1.8774710522e-01
 1.0606601718e+01	-4.9497474683e+00	-1.9964527308e-01
 3.9597979746e+00	 1.1313708499e+00	-2.1489505875e-02
 4.5961940777e+00	 4.9497474682e-01	-5.6350546217e-02
 5.2325901808e+00	-1.4142135624e-01	-8.8818155016e-02
 5.8689862838e+00	-7.7781745931e-01	-1.1779529870e-01
 6.5053823869e+00	-1.4142135624e+00	-1.4218494369e-01
 7.1417784900e+00	-2.0506096654e+00	-1.6089005642e-01
 7.7781745930e+00	-2.6870057685e+00	-1.7281360332e-01
 8.4145706961e+00	-3.3234018716e+00	-1.7685855082e-01
 9.0509667992e+00	-3.9597979746e+00	-1.7449432292e-01
 9.6873629023e+00	-4.5961940777e+00	-1.8543171676e-01
 1.0323759005e+01	-5.2325901808e+00	-2.0429327183e-01
 3.6769552621e+00	 8.4852813741e-01	-2.4232484566e-02
 4.3133513652e+00	 2.1213203435e-01	-5.7394033016e-02
 4.9497474683e+00	-4.2426406871e-01	-8.8367112021e-02
 5.5861435714e+00	-1.0606601718e+00	-1.1605468801e-01
 6.2225396744e+00	-1.6970562748e+00	-1.3935972740e-01
 6.8589357775e+00	-2.3334523779e+00	-1.5718519663e-01
 7.4953318806e+00	-2.9698484810e+00	-1.6843406213e-01
 8.1317279836e+00	-3.6062445840e+00	-1.7148941508e-01
 8.7681240867e+00	-4.2426406871e+00	-1.6539262549e-01
 9.4045201898e+00	-4.8790367902e+00	-1.8091637645e-01
 1.0040916293e+01	-5.5154328932e+00	-2.0648856409e-01
 3.3941125497e+00	 5.6568542494e-01	-3.0088774261e-02
 4.0305086527e+00	-7.0710678125e-02	-6.1316595115e-02
 4.6669047558e+00	-7.0710678119e-01	-9.0560908621e-02
 5.3033008589e+00	-1.3435028842e+00	-1.1672468121e-01
 5.9396969620e+00	-1.9798989873e+00	-1.3871087930e-01
 6.5760930650e+00	-2.6162950904e+00	-1.5542246932e-01
 7.2124891681e+00	-3.2526911934e+00	-1.6576241771e-01
 7.8488852712e+00	-3.8890872965e+00	-1.6898315670e-01
 8.4852813742e+00	-4.5254833996e+00	-1.6566202000e-01
 9.1216774773e+00	-5.1618795026e+00	-1.7445358226e-01
 9.7580735804e+00	-5.7982756057e+00	-2.0648365055e-01
 3.1112698372e+00	 2.8284271246e-01	-3.9266015109e-02
 3.7476659403e+00	-3.5355339060e-01	-6.8325872662e-02
 4.3840620433e+00	-9.8994949366e-01	-9.5607184964e-02
 5.0204581464e+00	-1.6263455967e+00	-1.2001291844e-01
 5.6568542495e+00	-2.2627416998e+00	-1.4044603953e-01
 6.2932503526e+00	-2.8991378029e+00	-1.5580951464e-01
 6.9296464556e+00	-3.5355339059e+00	-1.6539919468e-01
 7.5660425587e+00	-4.1719300090e+00	-1.6999791567e-01
 8.2024386618e+00	-4.8083261121e+00	-1.6893616783e-01
 8.8388347648e+00	-5.4447222151e+00	-1.6629584475e-01
 9.4752308679e+00	-6.0811183182e+00	-2.0453104441e-01
 2.8284271247e+00	-1.2501222280e-11	-5.5767707785e-02
 3.4648232278e+00	-6.3639610307e-01	-7.8629505804e-02
 4.1012193309e+00	-1.2727922061e+00	-1.0371358120e-01
 4.7376154339e+00	-1.9091883092e+00	-1.2612703987e-01
 5.3740115370e+00	-2.5455844123e+00	-1.4477284824e-01
 6.0104076401e+00	-3.1819805153e+00	-1.5855397274e-01
 6.6468037432e+00	-3.8183766184e+00	-1.6898379091e-01
 7.2831998462e+00	-4.4547727215e+00	-1.7418964777e-01
 7.9195959493e+00	-5.0911688245e+00	-1.7487102941e-01
 8.5559920524e+00	-5.7275649276e+00	-1.7421481343e-01
 9.1923881554e+00	-6.3639610307e+00	-2.0088327141e-01
 2.5455844123e+00	-2.8284271249e-01	-7.9776621028e-02
 3.1819805153e+00	-9.1923881555e-01	-9.2435134689e-02
 3.8183766184e+00	-1.5556349186e+00	-1.1508773747e-01
 4.4547727215e+00	-2.1920310217e+00	-1.3527468562e-01
 5.0911688245e+00	-2.8284271247e+00	-1.5189894558e-01
 5.7275649276e+00	-3.4648232278e+00	-1.6404563439e-01
 6.3639610307e+00	-4.1012193309e+00	-1.7591759215e-01
 7.0003571338e+00	-4.7376154339e+00	-1.8121431318e-01
 7.6367532368e+00	-5.3740115370e+00	-1.8312255658e-01
 8.2731493399e+00	-6.0104076401e+00	-1.8482924219e-01
 8.9095454430e+00	-6.6468037431e+00	-1.9579286983e-01
 2.2627416998e+00	-5.6568542496e-01	-1.0473518581e-01
 2.8991378029e+00	-1.2020815280e+00	-1.1058707000e-01
 3.5355339059e+00	-1.8384776311e+00	-1.2993729393e-01
 4.1719300090e+00	-2.4748737341e+00	-1.4766349586e-01
 4.8083261121e+00	-3.1112698372e+00	-1.6203197169e-01
 5.4447222151e+00	-3.7476659403e+00	-1.7554596969e-01
 6.0811183182e+00	-4.3840620433e+00	-1.8585655635e-01
 6.7175144213e+00	-5.0204581464e+00	-1.9072786355e-01
 7.3539105243e+00	-5.6568542495e+00	-1.9334669263e-01
 7.9903066274e+00	-6.2932503525e+00	-1.9690000571e-01
 8.6267027305e+00	-6.9296464556e+00	-2.0457492567e-01
 1.9798989873e+00	-8.4852813744e-01	-1.3064340214e-01
 2.6162950904e+00	-1.4849242405e+00	-1.3441609194e-01
 3.2526911935e+00	-2.1213203436e+00	-1.4846989072e-01
 3.8890872965e+00	-2.7577164466e+00	-1.6350111073e-01
 4.5254833996e+00	-3.3941125497e+00	-1.7537956674e-01
 5.1618795027e+00	-4.0305086528e+00	-1.9022370765e-01
 5.7982756057e+00	-4.6669047558e+00	-1.9845663493e-01
 6.4346717088e+00	-5.3033008589e+00	-2.0238624194e-01
 7.0710678119e+00	-5.9396969620e+00	-2.0519937229e-01
 7.7074639149e+00	-6.5760930650e+00	-2.1008303034e-01
 8.3438600180e+00	-7.2124891681e+00	-2.2022438126e-01
 1.6970562749e+00	-1.1313708499e+00	-1.5750127000e-01
 2.3334523779e+00	-1.7677669530e+00	-1.5888829706e-01
 2.9698484810e+00	-2.4041630560e+00	-1.7089316799e-01
 3.6062445841e+00	-3.0405591591e+00	-1.8299517037e-01
 4.2426406871e+00	-3.6769552622e+00	-1.9574174395e-01
 4.8790367902e+00	-4.3133513652e+00	-2.0773479947e-01
 5.5154328933e+00	-4.9497474683e+00	-2.1337377073e-01
 6.1518289963e+00	-5.5861435714e+00	-2.1584538285e-01
 6.7882250994e+00	-6.2225396744e+00	-2.1833652170e-01
 7.4246212025e+00	-6.8589357775e+00	-2.2403423391e-01
 8.0610173055e+00	-7.4953318806e+00	-2.3612572689e-01
 1.4142135624e+00	-1.4142135624e+00	-1.8530878940e-01
 2.0506096655e+00	-2.0506096655e+00	-1.8400368534e-01
 2.6870057685e+00	-2.6870057685e+00	-1.9405791010e-01
 3.3234018716e+00	-3.3234018716e+00	-2.0635331494e-01
 3.9597979746e+00	-3.9597979746e+00	-2.1998831407e-01
 4.5961940777e+00	-4.5961940777e+00	-2.2773518777e-01
 5.2325901808e+00	-5.2325901808e+00	-2.3026389803e-01
 5.8689862838e+00	-5.8689862838e+00	-2.3076121222e-01
 6.5053823869e+00	-6.5053823869e+00	-2.3241405845e-01
 7.1417784900e+00	-7.1417784900e+00	-2.3840952563e-01
 7.7781745931e+00	-7.7781745931e+00	-2.5193486344e-01
 1.0606601718e+01	-4.9497474683e+00	-1.9964527308e-01
 1.1242997821e+01	-5.5861435714e+00	-1.7752166574e-01
 1.1879393924e+01	-6.2225396744e+00	-1.6130535825e-01
 1.2515790027e+01	-6.8589357775e+00	-1.5018171114e-01
 1.3152186130e+01	-7.4953318806e+00	-1.4333613283e-01
 1.3788582233e+01	-8.1317279837e+00	-1.3995407966e-01
 1.4424978336e+01	-8.7681240867e+00	-1.3922105585e-01
 1.5061374439e+01	-9.4045201898e+00	-1.3037935000e-01
 1.5697770542e+01	-1.0040916293e+01	-1.1356810669e-01
 1.6334166645e+01	-1.0677312396e+01	-9.9468880592e-02
 1.6970562749e+01	-1.1313708499e+01	-8.4012178349e-02
 1.0323759005e+01	-5.2325901808e+00	-2.0429327183e-01
 1.0960155108e+01	-5.8689862838e+00	-1.8210678460e-01
 1.1596551211e+01	-6.5053823869e+00	-1.6544319231e-01
 1.2232947315e+01	-7.1417784900e+00	-1.5348784194e-01
 1.2869343418e+01	-7.7781745931e+00	-1.4542612841e-01
 1.3505739521e+01	-8.4145706961e+00	-1.4044349453e-01
 1.4142135624e+01	-9.0509667992e+00	-1.3772543100e-01
 1.4778531727e+01	-9.6873629023e+00	-1.3442031374e-01
 1.5414927830e+01	-1.0323759005e+01	-1.1536167326e-01
 1.6051323933e+01	-1.0960155108e+01	-1.0296169027e-01
 1.6687720036e+01	-1.1596551211e+01	-8.4770812363e-02
 1.0040916293e+01	-5.5154328932e+00	-2.0648856409e-01
 1.0677312396e+01	-6.1518289963e+00	-1.8447806515e-01
 1.1313708499e+01	-6.7882250994e+00	-1.6760604406e-01
 1.1950104602e+01	-7.4246212025e+00	-1.5505783430e-01
 1.2586500705e+01	-8.0610173055e+00	-1.4601881725e-01
 1.3222896808e+01	-8.6974134086e+00	-1.3967442220e-01
 1.3859292911e+01	-9.3338095117e+00	-1.3521012634e-01
 1.4495689014e+01	-9.9702056147e+00	-1.3181145477e-01
 1.5132085117e+01	-1.0606601718e+01	-1.2129084136e-01
 1.5768481220e+01	-1.1242997821e+01	-1.0657298515e-01
 1.6404877324e+01	-1.1879393924e+01	-8.5773738184e-02
 9.7580735804e+00	-5.7982756057e+00	-2.0648365055e-01
 1.0394469683e+01	-6.4346717088e+00	-1.8488801072e-01
 1.1030865787e+01	-7.0710678119e+00	-1.6804641951e-01
 1.1667261890e+01	-7.7074639149e+00	-1.5514419689e-01
 1.2303657993e+01	-8.3438600180e+00	-1.4536671070e-01
 1.2940054096e+01	-8.9802561211e+00	-1.3789937671e-01
 1.3576450199e+01	-9.6166522241e+00	-1.3192765860e-01
 1.4212846302e+01	-1.0253048327e+01	-1.2663706792e-01
 1.4849242405e+01	-1.0889444430e+01	-1.2755138576e-01
 1.5485638508e+01	-1.1525840533e+01	-1.1029321542e-01
 1.6122034611e+01	-1.2162236636e+01	-8.7011406631e-02
 9.4752308679e+00	-6.0811183182e+00	-2.0453104441e-01
 1.0111626971e+01	-6.7175144213e+00	-1.8358913720e-01
 1.0748023074e+01	-7.3539105243e+00	-1.6701683724e-01
 1.1384419177e+01	-7.9903066274e+00	-1.5399945095e-01
 1.2020815280e+01	-8.6267027305e+00	-1.4372233267e-01
 1.2657211383e+01	-9.2630988335e+00	-1.3537088464e-01
 1.3293607486e+01	-9.8994949366e+00	-1.2813055701e-01
 1.3930003589e+01	-1.0535891040e+01	-1.2586501945e-01
 1.4566399692e+01	-1.1172287143e+01	-1.3002407474e-01
 1.5202795796e+01	-1.1808683246e+01	-1.1411283176e-01
 1.5839191899e+01	-1.2445079349e+01	-8.8474269039e-02
 9.1923881554e+00	-6.3639610307e+00	-2.0088327141e-01
 9.8287842585e+00	-7.0003571337e+00	-1.8083397301e-01
 1.0465180362e+01	-7.6367532368e+00	-1.6476982832e-01
 1.1101576465e+01	-8.2731493399e+00	-1.5187613024e-01
 1.1737972568e+01	-8.9095454429e+00	-1.4133821959e-01
 1.2374368671e+01	-9.5459415460e+00	-1.3234148509e-01
 1.3010764774e+01	-1.0182337649e+01	-1.2407136335e-01
 1.3647160877e+01	-1.0818733752e+01	-1.2737441532e-01
 1.4283556980e+01	-1.1455129855e+01	-1.2883365276e-01
 1.4919953083e+01	-1.2091525958e+01	-1.1802228540e-01
 1.5556349186e+01	-1.2727922061e+01	-9.0152777265e-02
 8.9095454430e+00	-6.6468037431e+00	-1.9579286983e-01
 9.5459415460e+00	-7.2831998462e+00	-1.7687505910e-01
 1.0182337649e+01	-7.9195959493e+00	-1.6155793639e-01
 1.0818733752e+01	-8.5559920523e+00	-1.4902678107e-01
 1.1455129855e+01	-9.1923881554e+00	-1.3846692045e-01
 1.2091525958e+01	-9.8287842585e+00	-1.2906372971e-01
 1.2727922061e+01	-1.0465180362e+01	-1.2349589383e-01
 1.3364318164e+01	-1.1101576465e+01	-1.2894187657e-01
 1.4000714267e+01	-1.1737972568e+01	-1.2789209348e-01
 1.4637110371e+01	-1.2374368671e+01	-1.2026101114e-01
 1.5273506474e+01	-1.3010764774e+01	-9.2037383682e-02
 8.6267027305e+00	-6.9296464556e+00	-2.0457492567e-01
 9.2630988336e+00	-7.5660425587e+00	-1.7196494897e-01
 9.8994949366e+00	-8.2024386618e+00	-1.5763371761e-01
 1.0535891040e+01	-8.8388347648e+00	-1.4570396228e-01
 1.1172287143e+01	-9.4752308679e+00	-1.3536099676e-01
 1.1808683246e+01	-1.0111626971e+01	-1.2579018270e-01
 1.2445079349e+01	-1.0748023074e+01	-1.2750897679e-01
 1.3081475452e+01	-1.1384419177e+01	-1.3052710725e-01
 1.3717871555e+01	-1.2020815280e+01	-1.2715910140e-01
 1.4354267658e+01	-1.2657211383e+01	-1.1731942362e-01
 1.4990663761e+01	-1.3293607486e+01	-9.4118541182e-02
 8.3438600180e+00	-7.2124891681e+00	-2.2022438126e-01
 8.9802561211e+00	-7.8488852712e+00	-1.6635620866e-01
 9.6166522241e+00	-8.4852813742e+00	-1.5324974070e-01
 1.0253048327e+01	-9.1216774773e+00	-1.4216024525e-01
 1.0889444430e+01	-9.7580735804e+00	-1.3227302256e-01
 1.1525840533e+01	-1.0394469683e+01	-1.2433669071e-01
 1.2162236636e+01	-1.1030865787e+01	-1.3130873491e-01
 1.2798632739e+01	-1.1667261890e+01	-1.3208981061e-01
 1.3435028843e+01	-1.2303657993e+01	-1.2659438022e-01
 1.4071424946e+01	-1.2940054096e+01	-1.1473690587e-01
 1.4707821049e+01	-1.3576450199e+01	-9.6386703177e-02
 8.0610173055e+00	-7.4953318806e+00	-2.3612572689e-01
 8.6974134086e+00	-8.1317279836e+00	-1.7009494317e-01
 9.3338095117e+00	-8.7681240867e+00	-1.4865858689e-01
 9.9702056147e+00	-9.4045201898e+00	-1.3864821390e-01
 1.0606601718e+01	-1.0040916293e+01	-1.2945558446e-01
 1.1242997821e+01	-1.0677312396e+01	-1.3003871592e-01
 1.1879393924e+01	-1.1313708499e+01	-1.3485487022e-01
 1.2515790027e+01	-1.1950104602e+01	-1.3358968913e-01
 1.3152186130e+01	-1.2586500705e+01	-1.2615763285e-01
 1.3788582233e+01	-1.3222896808e+01	-1.1247316126e-01
 1.4424978336e+01	-1.3859292911e+01	-9.2450733981e-02
 7.7781745931e+00	-7.7781745931e+00	-2.5193486344e-01
 8.4145706961e+00	-8.4145706961e+00	-1.8574316750e-01
 9.0509667992e+00	-9.0509667992e+00	-1.4411284999e-01
 9.6873629023e+00	-9.6873629023e+00	-1.3542046469e-01
 1.0323759005e+01	-1.0323759005e+01	-1.2716128159e-01
 1.0960155108e+01	-1.0960155108e+01	-1.3525602181e-01
 1.1596551211e+01	-1.1596551211e+01	-1.3810708394e-01
 1.2232947315e+01	-1.2232947315e+01	-1.3498644448e-01
 1.2869343418e+01	-1.2869343418e+01	-1.2580856139e-01
 1.3505739521e+01	-1.3505739521e+01	-1.1048789234e-01
 1.4142135624e+01	-1.4142135624e+01	-8.8938894698e-02
 8.4852813742e+00	 5.6568542495e+00	 2.3443103555e-01
 9.1216774773e+00	 5.0204581464e+00	 1.6659119169e-01
 9.7580735804e+00	 4.3840620434e+00	 1.4458654855e-01
 1.0394469683e+01	 3.7476659403e+00	 1.2407471431e-01
 1.1030865787e+01	 3.1112698373e+00	 9.7595705270e-02
 1.1667261890e+01	 2.4748737342e+00	 6.7060825454e-02
 1.2303657993e+01	 1.8384776311e+00	 3.8617385598e-02
 1.2940054096e+01	 1.2020815281e+00	 1.2485292278e-02
 1.3576450199e+01	 5.6568542499e-01	-1.1115542586e-02
 1.4212846302e+01	-7.0710678080e-02	-3.1965201735e-02
 1.4849242405e+01	-7.0710678115e-01	-5.5472091835e-02
 8.3438600180e+00	 5.5154328933e+00	 2.2332877444e-01
 8.9802561211e+00	 4.8790367902e+00	 1.4154805810e-01
 9.6166522241e+00	 4.2426406871e+00	 1.2305626478e-01
 1.0253048327e+01	 3.6062445841e+00	 1.0568954612e-01
 1.0889444430e+01	 2.9698484810e+00	 7.9479603324e-02
 1.1525840533e+01	 2.3334523779e+00	 5.1742381559e-02
 1.2162236636e+01	 1.6970562749e+00	 2.5811515121e-02
 1.2798632739e+01	 1.0606601718e+00	 1.9069144752e-03
 1.3435028843e+01	 4.2426406875e-01	-1.9751504575e-02
 1.4071424946e+01	-2.1213203432e-01	-3.8943820884e-02
 1.4707821049e+01	-8.4852813739e-01	-5.5522713004e-02
 8.2024386618e+00	 5.3740115370e+00	 2.1182695777e-01
 8.8388347648e+00	 4.7376154340e+00	 1.1628238989e-01
 9.4752308679e+00	 4.1012193309e+00	 1.0135845722e-01
 1.0111626971e+01	 3.4648232278e+00	 8.7191863970e-02
 1.0748023074e+01	 2.8284271248e+00	 6.1304193076e-02
 1.1384419177e+01	 2.1920310217e+00	 3.6392683424e-02
 1.2020815280e+01	 1.5556349186e+00	 1.3002443807e-02
 1.2657211383e+01	 9.1923881558e-01	-8.6466114282e-03
 1.3293607486e+01	 2.8284271251e-01	-2.8334562590e-02
 1.3930003589e+01	-3.5355339056e-01	-4.5841484650e-02
 1.4566399692e+01	-9.8994949363e-01	-6.0947447238e-02
 8.0610173055e+00	 5.2325901808e+00	 1.9991801507e-01
 8.6974134086e+00	 4.5961940777e+00	 1.0638164738e-01
 9.3338095117e+00	 3.9597979747e+00	 7.9523814318e-02
 9.9702056147e+00	 3.3234018716e+00	 6.6161937959e-02
 1.0606601718e+01	 2.6870057685e+00	 4.3087923110e-02
 1.1242997821e+01	 2.0506096655e+00	 2.1030179445e-02
 1.1879393924e+01	 1.4142135624e+00	 2.0861985611e-04
 1.2515790027e+01	 7.7781745934e-01	-1.9156837422e-02
 1.3152186130e+01	 1.4142135627e-01	-3.6846268814e-02
 1.3788582233e+01	-4.9497474680e-01	-5.2639745405e-02
 1.4424978336e+01	-1.1313708499e+00	-6.6317332941e-02
 7.9195959493e+00	 5.0911688245e+00	 1.8759437602e-01
 8.5559920524e+00	 4.4547727215e+00	 9.7971880645e-02
 9.1923881554e+00	 3.8183766184e+00	 5.7583024473e-02
 9.8287842585e+00	 3.1819805154e+00	 4.4756346871e-02
 1.0465180362e+01	 2.5455844123e+00	 2.4849242196e-02
 1.1101576465e+01	 1.9091883092e+00	 5.6733181980e-03
 1.1737972568e+01	 1.2727922062e+00	-1.2551508345e-02
 1.2374368671e+01	 6.3639610310e-01	-2.9605315313e-02
 1.3010764774e+01	 2.8000712859e-11	-4.5268175245e-02
 1.3647160877e+01	-6.3639610304e-01	-5.9320155341e-02
 1.4283556980e+01	-1.2727922061e+00	-7.1541317461e-02
 7.7781745931e+00	 4.9497474683e+00	 1.7484847041e-01
 8.4145706961e+00	 4.3133513652e+00	 8.9182111128e-02
 9.0509667992e+00	 3.6769552622e+00	 3.5566776003e-02
 9.6873629023e+00	 3.0405591591e+00	 2.3318739634e-02
 1.0323759005e+01	 2.4041630561e+00	 6.6065992863e-03
 1.0960155108e+01	 1.7677669530e+00	-9.6594515559e-03
 1.1596551211e+01	 1.1313708499e+00	-2.5259492228e-02
 1.2232947315e+01	 4.9497474686e-01	-3.9973596724e-02
 1.2869343418e+01	-1.4142135621e-01	-5.3581833698e-02
 1.3505739521e+01	-7.7781745928e-01	-6.5864266464e-02
 1.4142135624e+01	-1.4142135624e+00	-7.6600952997e-02
 7.6367532368e+00	 4.8083261121e+00	 1.6167272817e-01
 8.2731493399e+00	 4.1719300090e+00	 8.0004768772e-02
 8.9095454430e+00	 3.5355339059e+00	 1.3505762081e-02
 9.5459415460e+00	 2.8991378029e+00	 1.8675655781e-03
 1.0182337649e+01	 2.2627416998e+00	-1.1621556483e-02
 1.0818733752e+01	 1.6263455967e+00	-2.4949680872e-02
 1.1455129855e+01	 9.8994949368e-01	-3.7896883040e-02
 1.2091525958e+01	 3.5355339062e-01	-5.0243233095e-02
 1.2727922061e+01	-2.8284271245e-01	-6.1768795804e-02
 1.3364318164e+01	-9.1923881552e-01	-7.2253630597e-02
 1.4000714268e+01	-1.5556349186e+00	-8.1477791563e-02
 7.4953318806e+00	 4.6669047558e+00	 1.4805957938e-01
 8.1317279837e+00	 4.0305086528e+00	 7.0432283649e-02
 8.7681240867e+00	 3.3941125497e+00	-3.2602367783e-03
 9.4045201898e+00	 2.7577164466e+00	-1.9578725786e-02
 1.0040916293e+01	 2.1213203436e+00	-2.9816775791e-02
 1.0677312396e+01	 1.4849242405e+00	-4.0178920623e-02
 1.1313708499e+01	 8.4852813744e-01	-5.0445231845e-02
 1.1950104602e+01	 2.1213203438e-01	-6.0395775681e-02
 1.2586500705e+01	-4.2426406869e-01	-6.9810613011e-02
 1.3222896808e+01	-1.0606601718e+00	-7.8469799380e-02
 1.3859292911e+01	-1.6970562748e+00	-8.6153384992e-02
 7.3539105244e+00	 4.5254833996e+00	 1.3400145422e-01
 7.9903066274e+00	 3.8890872965e+00	 6.0457085966e-02
 8.6267027305e+00	 3.2526911935e+00	-1.2193373665e-02
 9.2630988336e+00	 2.6162950904e+00	-4.1001684762e-02
 9.8994949366e+00	 1.9798989873e+00	-4.7960609135e-02
 1.0535891040e+01	 1.3435028843e+00	-5.5328721496e-02
 1.1172287143e+01	 7.0710678120e-01	-6.2886089523e-02
 1.1808683246e+01	 7.0710678136e-02	-7.0412775554e-02
 1.2445079349e+01	-5.6568542493e-01	-7.7688836583e-02
 1.3081475452e+01	-1.2020815280e+00	-8.4494324269e-02
 1.3717871555e+01	-1.8384776311e+00	-9.0609284931e-02
 7.2124891681e+00	 4.3840620433e+00	 1.1949078304e-01
 7.8488852712e+00	 3.7476659403e+00	 5.0071606065e-02
 8.4852813743e+00	 3.1112698372e+00	-2.1536627789e-02
 9.1216774773e+00	 2.4748737342e+00	-6.2382861470e-02
 9.7580735804e+00	 1.8384776311e+00	-6.6034606827e-02
 1.0394469683e+01	 1.2020815280e+00	-7.0380633997e-02
 1.1030865787e+01	 5.6568542496e-01	-7.5201006772e-02
 1.1667261890e+01	-7.0710678104e-02	-8.0275783603e-02
 1.2303657993e+01	-7.0710678117e-01	-8.5385017600e-02
 1.2940054096e+01	-1.3435028842e+00	-9.0308756537e-02
 1.3576450199e+01	-1.9798989873e+00	-9.4827042845e-02
 7.0710678119e+00	 4.2426406871e+00	 1.0451999631e-01
 7.7074639150e+00	 3.6062445840e+00	 3.9268282545e-02
 8.3438600180e+00	 2.9698484810e+00	-3.1315954169e-02
 8.9802561211e+00	 2.3334523779e+00	-8.3703799143e-02
 9.6166522241e+00	 1.6970562749e+00	-8.4020318996e-02
 1.0253048327e+01	 1.0606601718e+00	-8.5316208446e-02
 1.0889444430e+01	 4.2426406872e-01	-8.7371534103e-02
 1.1525840533e+01	-2.1213203434e-01	-8.9966350533e-02
 1.2162236636e+01	-8.4852813741e-01	-9.2880706960e-02
 1.2798632739e+01	-1.4849242405e+00	-9.5894647271e-02
 1.3435028843e+01	-2.1213203435e+00	-9.8788210015e-02
 1.4849242405e+01	-7.0710678115e-01	-5.5472091835e-02
 1.5485638508e+01	-1.3435028842e+00	-6.0745770911e-02
 1.6122034611e+01	-1.9798989873e+00	-6.4339657040e-02
 1.6758430714e+01	-2.6162950904e+00	-6.6789455078e-02
 1.7394826817e+01	-3.2526911934e+00	-6.8630893836e-02
 1.8031222920e+01	-3.8890872965e+00	-6.8680344730e-02
 1.8667619023e+01	-4.5254833996e+00	-6.9346295485e-02
 1.9304015126e+01	-5.1618795027e+00	-7.0807318111e-02
 1.9940411229e+01	-5.7982756057e+00	-7.2165832745e-02
 2.0576807333e+01	-6.4346717088e+00	-7.2524158291e-02
 2.1213203436e+01	-7.0710678119e+00	-5.7201393301e-02
 1.4707821049e+01	-8.4852813739e-01	-5.5522713004e-02
 1.5344217152e+01	-1.4849242405e+00	-6.1804198555e-02
 1.5980613255e+01	-2.1213203435e+00	-6.6247625683e-02
 1.6617009358e+01	-2.7577164466e+00	-6.9388697998e-02
 1.7253405461e+01	-3.3941125497e+00	-7.1763143063e-02
 1.7889801564e+01	-4.0305086528e+00	-7.1340541518e-02
 1.8526197667e+01	-4.6669047558e+00	-7.2125766330e-02
 1.9162593770e+01	-5.3033008589e+00	-7.3551461970e-02
 1.9798989873e+01	-5.9396969620e+00	-7.4720047615e-02
 2.0435385976e+01	-6.5760930651e+00	-7.4733841216e-02
 2.1071782079e+01	-7.2124891681e+00	-6.2062967914e-02
 1.4566399692e+01	-9.8994949363e-01	-6.0947447238e-02
 1.5202795796e+01	-1.6263455967e+00	-6.3237795192e-02
 1.5839191899e+01	-2.2627416998e+00	-6.8496763198e-02
 1.6475588002e+01	-2.8991378028e+00	-7.2295109458e-02
 1.7111984105e+01	-3.5355339059e+00	-7.4584845597e-02
 1.7748380208e+01	-4.1719300090e+00	-7.4095582408e-02
 1.8384776311e+01	-4.8083261121e+00	-7.4989670557e-02
 1.9021172414e+01	-5.4447222151e+00	-7.6369629484e-02
 1.9657568517e+01	-6.0811183182e+00	-7.7337877412e-02
 2.0293964620e+01	-6.7175144213e+00	-7.6996731332e-02
 2.0930360723e+01	-7.3539105244e+00	-6.6949885708e-02
 1.4424978336e+01	-1.1313708499e+00	-6.6317332941e-02
 1.5061374439e+01	-1.7677669529e+00	-6.5047370278e-02
 1.5697770542e+01	-2.4041630560e+00	-7.1087879100e-02
 1.6334166645e+01	-3.0405591591e+00	-7.5509499036e-02
 1.6970562749e+01	-3.6769552622e+00	-7.7181944601e-02
 1.7606958852e+01	-4.3133513652e+00	-7.6945732172e-02
 1.8243354955e+01	-4.9497474683e+00	-7.7938272984e-02
 1.8879751058e+01	-5.5861435714e+00	-7.9262085521e-02
 1.9516147161e+01	-6.2225396745e+00	-8.0019587047e-02
 2.0152543264e+01	-6.8589357775e+00	-7.9313093600e-02
 2.0788939367e+01	-7.4953318806e+00	-7.1859882210e-02
 1.4283556980e+01	-1.2727922061e+00	-7.1541317461e-02
 1.4919953083e+01	-1.9091883092e+00	-6.7233733269e-02
 1.5556349186e+01	-2.5455844123e+00	-7.4021782911e-02
 1.6192745289e+01	-3.1819805153e+00	-7.9032676314e-02
 1.6829141392e+01	-3.8183766184e+00	-7.9884828826e-02
 1.7465537495e+01	-4.4547727215e+00	-7.9891255535e-02
 1.8101933598e+01	-5.0911688245e+00	-8.0971838383e-02
 1.8738329701e+01	-5.7275649276e+00	-8.2229094898e-02
 1.9374725805e+01	-6.3639610307e+00	-8.2765441388e-02
 2.0011121908e+01	-7.0003571338e+00	-8.1683192934e-02
 2.0647518011e+01	-7.6367532368e+00	-7.6790692922e-02
 1.4142135624e+01	-1.4142135624e+00	-7.6600952997e-02
 1.4778531727e+01	-2.0506096654e+00	-6.9797693630e-02
 1.5414927830e+01	-2.6870057685e+00	-7.7299284154e-02
 1.6051323933e+01	-3.3234018716e+00	-8.2865450878e-02
 1.6687720036e+01	-3.9597979746e+00	-8.2693762900e-02
 1.7324116139e+01	-4.5961940777e+00	-8.2932417172e-02
 1.7960512242e+01	-5.2325901808e+00	-8.4090631477e-02
 1.8596908345e+01	-5.8689862839e+00	-8.5270922386e-02
 1.9233304448e+01	-6.5053823869e+00	-8.5575705251e-02
 1.9869700551e+01	-7.1417784900e+00	-8.4107294197e-02
 2.0506096654e+01	-7.7781745931e+00	-7.9967902108e-02
 1.4000714268e+01	-1.5556349186e+00	-8.1477791563e-02
 1.4637110371e+01	-2.1920310217e+00	-7.4339717374e-02
 1.5273506474e+01	-2.8284271247e+00	-8.0921192358e-02
 1.5909902577e+01	-3.4648232278e+00	-8.6810889199e-02
 1.6546298680e+01	-4.1012193309e+00	-8.5609011405e-02
 1.7182694783e+01	-4.7376154339e+00	-8.6069481712e-02
 1.7819090886e+01	-5.3740115370e+00	-8.7294916941e-02
 1.8455486989e+01	-6.0104076401e+00	-8.8387832706e-02
 1.9091883092e+01	-6.6468037432e+00	-8.8450643406e-02
 1.9728279195e+01	-7.2831998462e+00	-8.6585662207e-02
 2.0364675298e+01	-7.9195959493e+00	-8.1895101037e-02
 1.3859292911e+01	-1.6970562748e+00	-8.6153384992e-02
 1.4495689014e+01	-2.3334523779e+00	-8.0500965136e-02
 1.5132085117e+01	-2.9698484810e+00	-8.4888317053e-02
 1.5768481220e+01	-3.6062445840e+00	-8.9466718953e-02
 1.6404877324e+01	-4.2426406871e+00	-8.8630838872e-02
 1.7041273427e+01	-4.8790367902e+00	-8.9302713733e-02
 1.7677669530e+01	-5.5154328933e+00	-9.0584959401e-02
 1.8314065633e+01	-6.1518289963e+00	-9.1580090533e-02
 1.8950461736e+01	-6.7882250994e+00	-9.1390520573e-02
 1.9586857839e+01	-7.4246212025e+00	-8.9118561731e-02
 2.0223253942e+01	-8.0610173055e+00	-8.3866424978e-02
 1.3717871555e+01	-1.8384776311e+00	-9.0609284931e-02
 1.4354267658e+01	-2.4748737341e+00	-8.6420962447e-02
 1.4990663761e+01	-3.1112698372e+00	-8.9201467776e-02
 1.5627059864e+01	-3.7476659403e+00	-9.2239804583e-02
 1.6263455967e+01	-4.3840620433e+00	-9.1759509787e-02
 1.6899852070e+01	-5.0204581464e+00	-9.2632377768e-02
 1.7536248173e+01	-5.6568542495e+00	-9.3961023435e-02
 1.8172644276e+01	-6.2932503526e+00	-9.4847960493e-02
 1.8809040380e+01	-6.9296464556e+00	-9.4395601426e-02
 1.9445436483e+01	-7.5660425587e+00	-9.1706257490e-02
 2.0081832586e+01	-8.2024386618e+00	-8.5882138697e-02
 1.3576450199e+01	-1.9798989873e+00	-9.4827042845e-02
 1.4212846302e+01	-2.6162950904e+00	-9.2081260964e-02
 1.4849242405e+01	-3.2526911934e+00	-9.3861454065e-02
 1.5485638508e+01	-3.8890872965e+00	-9.5130410477e-02
 1.6122034611e+01	-4.5254833996e+00	-9.4995288584e-02
 1.6758430714e+01	-5.1618795027e+00	-9.6058738298e-02
 1.7394826817e+01	-5.7982756057e+00	-9.7423373575e-02
 1.8031222920e+01	-6.4346717088e+00	-9.8191707162e-02
 1.8667619023e+01	-7.0710678119e+00	-9.7466150589e-02
 1.9304015126e+01	-7.7074639149e+00	-9.4349014154e-02
 1.9940411229e+01	-8.3438600180e+00	-8.7942506915e-02
 1.3435028843e+01	-2.1213203435e+00	-9.8788210015e-02
 1.4071424946e+01	-2.7577164466e+00	-9.7463412159e-02
 1.4707821049e+01	-3.3941125497e+00	-9.8869085464e-02
 1.5344217152e+01	-4.0305086528e+00	-9.8138800978e-02
 1.5980613255e+01	-4.6669047558e+00	-9.8338439651e-02
 1.6617009358e+01	-5.3033008589e+00	-9.9582059760e-02
 1.7253405461e+01	-5.9396969620e+00	-1.0097227430e-01
 1.7889801564e+01	-6.5760930650e+00	-1.0161159507e-01
 1.8526197667e+01	-7.2124891681e+00	-1.0060243264e-01
 1.9162593770e+01	-7.8488852711e+00	-9.7047096348e-02
 1.9798989873e+01	-8.4852813742e+00	-9.0047794302e-02
 9.8994949366e+00	 7.0710678119e+00	 5.7545872906e-01
 1.0535891040e+01	 6.4346717088e+00	 4.5763787505e-01
 1.1172287143e+01	 5.7982756057e+00	 3.5774651030e-01
 1.1808683246e+01	 5.1618795027e+00	 2.7436648754e-01
 1.2445079349e+01	 4.5254833996e+00	 2.0607980788e-01
 1.3081475452e+01	 3.8890872965e+00	 1.5146862081e-01
 1.3717871555e+01	 3.2526911934e+00	 1.0654052768e-01
 1.4354267658e+01	 2.6162950904e+00	 7.0598695010e-02
 1.4990663761e+01	 1.9798989873e+00	 3.3407734932e-02
 1.5627059864e+01	 1.3435028842e+00	-5.0485591834e-03
 1.6263455967e+01	 7.0710678115e-01	-2.1456695117e-02
 9.7580735804e+00	 6.9296464557e+00	 5.6202802751e-01
 1.0394469683e+01	 6.2932503526e+00	 4.4896290533e-01
 1.1030865787e+01	 5.6568542495e+00	 3.5270196498e-01
 1.1667261890e+01	 5.0204581464e+00	 2.7182707455e-01
 1.2303657993e+01	 4.3840620434e+00	 2.0492025052e-01
 1.2940054096e+01	 3.7476659403e+00	 1.5056365772e-01
 1.3576450199e+01	 3.1112698372e+00	 1.0299911705e-01
 1.4212846302e+01	 2.4748737341e+00	 6.5884124261e-02
 1.4849242405e+01	 1.8384776311e+00	 3.5580067776e-02
 1.5485638508e+01	 1.2020815280e+00	-5.9117949316e-03
 1.6122034611e+01	 5.6568542492e-01	-2.6268168952e-02
 9.6166522241e+00	 6.7882250994e+00	 5.4504957212e-01
 1.0253048327e+01	 6.1518289963e+00	 4.3713273733e-01
 1.0889444430e+01	 5.5154328933e+00	 3.4489477596e-01
 1.1525840533e+01	 4.8790367902e+00	 2.6691757144e-01
 1.2162236636e+01	 4.2426406871e+00	 2.0178315560e-01
 1.2798632739e+01	 3.6062445840e+00	 1.4807370862e-01
 1.3435028843e+01	 2.9698484810e+00	 9.8331946509e-02
 1.4071424946e+01	 2.3334523779e+00	 6.0409384439e-02
 1.4707821049e+01	 1.6970562748e+00	 3.7007326284e-02
 1.5344217152e+01	 1.0606601718e+00	-7.1420767618e-03
 1.5980613255e+01	 4.2426406869e-01	-3.1068660406e-02
 9.4752308679e+00	 6.6468037432e+00	 5.2455405349e-01
 1.0111626971e+01	 6.0104076401e+00	 4.2217806091e-01
 1.0748023074e+01	 5.3740115370e+00	 3.3435563233e-01
 1.1384419177e+01	 4.7376154340e+00	 2.5966866654e-01
 1.2020815280e+01	 4.1012193309e+00	 1.9669921071e-01
 1.2657211383e+01	 3.4648232278e+00	 1.4402946036e-01
 1.3293607486e+01	 2.8284271247e+00	 9.2557462431e-02
 1.3930003589e+01	 2.1920310217e+00	 5.4192921718e-02
 1.4566399692e+01	 1.5556349186e+00	 2.9423701280e-02
 1.5202795796e+01	 9.1923881553e-01	-8.7402139687e-03
 1.5839191899e+01	 2.8284271246e-01	-3.5858978835e-02
 9.3338095116e+00	 6.5053823869e+00	 5.0057216217e-01
 9.9702056147e+00	 5.8689862839e+00	 4.0412956586e-01
 1.0606601718e+01	 5.2325901808e+00	 3.2111522313e-01
 1.1242997821e+01	 4.5961940777e+00	 2.5011104812e-01
 1.1879393924e+01	 3.9597979746e+00	 1.8969910334e-01
 1.2515790027e+01	 3.3234018716e+00	 1.3646783186e-01
 1.3152186130e+01	 2.6870057685e+00	 8.5694111365e-02
 1.3788582233e+01	 2.0506096654e+00	 4.7253182456e-02
 1.4424978336e+01	 1.4142135624e+00	 2.1364933742e-02
 1.5061374439e+01	 7.7781745930e-01	-1.0707015851e-02
 1.5697770542e+01	 1.4142135623e-01	-4.0639933598e-02
 9.1923881554e+00	 6.3639610307e+00	 4.7313458864e-01
 9.8287842585e+00	 5.7275649276e+00	 3.8301794191e-01
 1.0465180362e+01	 5.0911688246e+00	 3.0520423734e-01
 1.1101576465e+01	 4.4547727215e+00	 2.3827540440e-01
 1.1737972568e+01	 3.8183766184e+00	 1.8081352097e-01
 1.2374368671e+01	 3.1819805153e+00	 1.2720221385e-01
 1.3010764774e+01	 2.5455844123e+00	 7.7760340044e-02
 1.3647160877e+01	 1.9091883092e+00	 3.9608613195e-02
 1.4283556980e+01	 1.2727922061e+00	 1.2966925796e-02
 1.4919953083e+01	 6.3639610307e-01	-1.3043291710e-02
 1.5556349186e+01	-5.5511151231e-17	-4.5412334060e-02
 9.0509667992e+00	 6.2225396745e+00	 4.4227202332e-01
 9.6873629022e+00	 5.5861435714e+00	 3.5887387872e-01
 1.0323759005e+01	 4.9497474683e+00	 2.8665336384e-01
 1.0960155108e+01	 4.3133513652e+00	 2.2419242352e-01
 1.1596551211e+01	 3.6769552622e+00	 1.7007315098e-01
 1.2232947315e+01	 3.0405591591e+00	 1.1651903177e-01
 1.2869343418e+01	 2.4041630560e+00	 6.8774595384e-02
 1.3505739521e+01	 1.7677669530e+00	 3.1277660659e-02
 1.4142135624e+01	 1.1313708499e+00	 4.2481239757e-03
 1.4778531727e+01	 4.9497474684e-01	-1.5749850853e-02
 1.5414927830e+01	-1.4142135623e-01	-5.0176989589e-02
 8.9095454429e+00	 6.0811183182e+00	 4.0801515658e-01
 9.5459415460e+00	 5.4447222152e+00	 3.3172806588e-01
 1.0182337649e+01	 4.8083261121e+00	 2.6549329148e-01
 1.0818733752e+01	 4.1719300090e+00	 2.0789279356e-01
 1.1455129855e+01	 3.5355339059e+00	 1.5750868068e-01
 1.2091525958e+01	 2.8991378029e+00	 1.0443673292e-01
 1.2727922061e+01	 2.2627416998e+00	 5.8755324486e-02
 1.3364318164e+01	 1.6263455967e+00	 2.2278771757e-02
 1.4000714268e+01	 9.8994949367e-01	-4.7730250025e-03
 1.4637110371e+01	 3.5355339061e-01	-2.2180160188e-02
 1.5273506474e+01	-2.8284271246e-01	-5.4934709554e-02
 8.7681240867e+00	 5.9396969620e+00	 3.7746314832e-01
 9.4045201898e+00	 5.3033008589e+00	 3.0161119294e-01
 1.0040916293e+01	 4.6669047558e+00	 2.4175470904e-01
 1.0677312396e+01	 4.0305086528e+00	 1.8940720254e-01
 1.1313708499e+01	 3.3941125497e+00	 1.4216886519e-01
 1.1950104602e+01	 2.7577164466e+00	 9.0973764770e-02
 1.2586500705e+01	 2.1213203436e+00	 4.7720974633e-02
 1.3222896808e+01	 1.4849242405e+00	 1.2630393580e-02
 1.3859292911e+01	 8.4852813744e-01	-1.4078074238e-02
 1.4495689014e+01	 2.1213203438e-01	-3.2184519333e-02
 1.5132085117e+01	-4.2426406869e-01	-5.9686303332e-02
 8.6267027304e+00	 5.7982756057e+00	 3.5446045756e-01
 9.2630988335e+00	 5.1618795027e+00	 2.6855394935e-01
 9.8994949366e+00	 4.5254833996e+00	 2.1546830523e-01
 1.0535891040e+01	 3.8890872965e+00	 1.6876633841e-01
 1.1172287143e+01	 3.2526911935e+00	 1.2350681578e-01
 1.1808683246e+01	 2.6162950904e+00	 7.6148574982e-02
 1.2445079349e+01	 1.9798989873e+00	 3.5689993292e-02
 1.3081475452e+01	 1.3435028843e+00	 2.3509734040e-03
 1.3717871555e+01	 7.0710678122e-01	-2.3648576649e-02
 1.4354267658e+01	 7.0710678148e-02	-4.2088743492e-02
 1.4990663761e+01	-5.6568542492e-01	-6.4432580300e-02
 8.4852813742e+00	 5.6568542495e+00	 3.2811004838e-01
 9.1216774773e+00	 5.0204581464e+00	 2.3258702451e-01
 9.7580735804e+00	 4.3840620434e+00	 1.8666476868e-01
 1.0394469683e+01	 3.7476659403e+00	 1.4600088906e-01
 1.1030865787e+01	 3.1112698373e+00	 1.0313540196e-01
 1.1667261890e+01	 2.4748737342e+00	 5.9979611398e-02
 1.2303657993e+01	 1.8384776311e+00	 2.2680828116e-02
 1.2940054096e+01	 1.2020815281e+00	-8.5410413117e-03
 1.3576450199e+01	 5.6568542499e-01	-3.3466084966e-02
 1.4212846302e+01	-7.0710678080e-02	-5.1874385587e-02
 1.4849242405e+01	-7.0710678115e-01	-6.9174349842e-02
 1.6263455967e+01	 7.0710678115e-01	-2.1456695117e-02
 1.6899852070e+01	 7.0710678080e-02	-1.5836616246e-02
 1.7536248173e+01	-5.6568542499e-01	-1.2007503442e-02
 1.8172644276e+01	-1.2020815281e+00	-1.0505074017e-02
 1.8809040380e+01	-1.8384776311e+00	-1.1865069237e-02
 1.9445436483e+01	-2.4748737342e+00	-1.6623254327e-02
 2.0081832586e+01	-3.1112698373e+00	-2.5315418474e-02
 2.0718228689e+01	-3.7476659403e+00	-3.6033683538e-02
 2.1354624792e+01	-4.3840620434e+00	-3.9344234137e-02
 2.1991020895e+01	-5.0204581464e+00	-4.3941221547e-02
 2.2627416998e+01	-5.6568542495e+00	-5.0150644050e-02
 1.6122034611e+01	 5.6568542492e-01	-2.6268168952e-02
 1.6758430714e+01	-7.0710678148e-02	-2.0864143245e-02
 1.7394826817e+01	-7.0710678122e-01	-1.7038398320e-02
 1.8031222920e+01	-1.3435028843e+00	-1.5326650245e-02
 1.8667619023e+01	-1.9798989873e+00	-1.6264639041e-02
 1.9304015126e+01	-2.6162950904e+00	-2.0388128688e-02
 1.9940411229e+01	-3.2526911935e+00	-2.8232907123e-02
 2.0576807333e+01	-3.8890872965e+00	-4.0335465200e-02
 2.1213203436e+01	-4.5254833996e+00	-4.2392911263e-02
 2.1849599539e+01	-5.1618795027e+00	-4.5324078114e-02
 2.2485995642e+01	-5.7982756057e+00	-4.9675727946e-02
 1.5980613255e+01	 4.2426406869e-01	-3.1068660406e-02
 1.6617009358e+01	-2.1213203438e-01	-2.5909920257e-02
 1.7253405461e+01	-8.4852813744e-01	-2.2116775398e-02
 1.7889801564e+01	-1.4849242405e+00	-2.0224940650e-02
 1.8526197667e+01	-2.1213203436e+00	-2.0770154788e-02
 1.9162593770e+01	-2.7577164466e+00	-2.4288180547e-02
 1.9798989873e+01	-3.3941125497e+00	-3.1314804618e-02
 2.0435385976e+01	-4.0305086528e+00	-4.2198771223e-02
 2.1071782079e+01	-4.6669047558e+00	-4.5644485661e-02
 2.1708178182e+01	-5.3033008589e+00	-4.6942512515e-02
 2.2344574286e+01	-5.9396969620e+00	-4.9469070161e-02
 1.5839191899e+01	 2.8284271246e-01	-3.5858978835e-02
 1.6475588002e+01	-3.5355339061e-01	-3.0974756701e-02
 1.7111984105e+01	-9.8994949367e-01	-2.7243444155e-02
 1.7748380208e+01	-1.6263455967e+00	-2.5200754771e-02
 1.8384776311e+01	-2.2627416998e+00	-2.5382426080e-02
 1.9021172414e+01	-2.8991378029e+00	-2.8324219569e-02
 1.9657568517e+01	-3.5355339059e+00	-3.4549605341e-02
 2.0293964620e+01	-4.1719300090e+00	-4.4164287834e-02
 2.0930360723e+01	-4.8083261121e+00	-4.9096693244e-02
 2.1566756826e+01	-5.4447222152e+00	-4.8794260585e-02
 2.2203152929e+01	-6.0811183182e+00	-4.9528406450e-02
 1.5697770542e+01	 1.4142135623e-01	-4.0639933598e-02
 1.6334166645e+01	-4.9497474684e-01	-3.6059461999e-02
 1.6970562748e+01	-1.1313708499e+00	-3.2419214075e-02
 1.7606958852e+01	-1.7677669530e+00	-3.0254902154e-02
 1.8243354955e+01	-2.4041630560e+00	-3.0102262523e-02
 1.8879751058e+01	-3.0405591591e+00	-3.2497055421e-02
 1.9516147161e+01	-3.6769552622e+00	-3.7848643898e-02
 2.0152543264e+01	-4.3133513652e+00	-4.6232280333e-02
 2.0788939367e+01	-4.9497474683e+00	-5.2747269901e-02
 2.1425335470e+01	-5.5861435714e+00	-5.0877058137e-02
 2.2061731573e+01	-6.2225396745e+00	-4.9851472548e-02
 1.5556349186e+01	-5.5511151231e-17	-4.5412334060e-02
 1.6192745289e+01	-6.3639610307e-01	-4.1164845576e-02
 1.6829141392e+01	-1.2727922061e+00	-3.7644894643e-02
 1.7465537495e+01	-1.9091883092e+00	-3.5388192347e-02
 1.8101933598e+01	-2.5455844123e+00	-3.4930473726e-02
 1.8738329701e+01	-3.1819805153e+00	-3.6807497775e-02
 1.9374725805e+01	-3.8183766184e+00	-4.1197600729e-02
 2.0011121908e+01	-4.4547727215e+00	-4.8403013973e-02
 2.0647518011e+01	-5.0911688246e+00	-5.6593951500e-02
 2.1283914114e+01	-5.7275649276e+00	-5.3188640959e-02
 2.1920310217e+01	-6.3639610307e+00	-5.0436004166e-02
 1.5414927830e+01	-1.4142135623e-01	-5.0176989589e-02
 1.6051323933e+01	-7.7781745930e-01	-4.6291716860e-02
 1.6687720036e+01	-1.4142135624e+00	-4.2921295352e-02
 1.7324116139e+01	-2.0506096654e+00	-4.0601434901e-02
 1.7960512242e+01	-2.6870057685e+00	-3.9867869302e-02
 1.8596908345e+01	-3.3234018716e+00	-4.1256356304e-02
 1.9233304448e+01	-3.9597979746e+00	-4.4596740991e-02
 1.9869700551e+01	-4.5961940777e+00	-5.0676753957e-02
 2.0506096654e+01	-5.2325901808e+00	-5.8834261250e-02
 2.1142492757e+01	-5.8689862839e+00	-5.5726744817e-02
 2.1778888861e+01	-6.5053823869e+00	-5.1279736990e-02
 1.5273506474e+01	-2.8284271246e-01	-5.4934709554e-02
 1.5909902577e+01	-9.1923881553e-01	-5.1440885285e-02
 1.6546298680e+01	-1.5556349186e+00	-4.8249225693e-02
 1.7182694783e+01	-2.1920310217e+00	-4.5895439373e-02
 1.7819090886e+01	-2.8284271247e+00	-4.4915258870e-02
 1.8455486989e+01	-3.4648232278e+00	-4.5804937576e-02
 1.9091883092e+01	-4.1012193309e+00	-4.8046329792e-02
 1.9728279195e+01	-4.7376154340e+00	-5.3053765442e-02
 2.0364675298e+01	-5.3740115370e+00	-5.9929667530e-02
 2.1001071401e+01	-6.0104076401e+00	-5.8489105454e-02
 2.1637467504e+01	-6.6468037432e+00	-5.2380406686e-02
 1.5132085117e+01	-4.2426406869e-01	-5.9686303332e-02
 1.5768481220e+01	-1.0606601718e+00	-5.6613160286e-02
 1.6404877324e+01	-1.6970562748e+00	-5.3629495167e-02
 1.7041273427e+01	-2.3334523779e+00	-5.1271015321e-02
 1.7677669530e+01	-2.9698484810e+00	-5.0073452050e-02
 1.8314065633e+01	-3.6062445840e+00	-5.0115968350e-02
 1.8950461736e+01	-4.2426406871e+00	-5.1546632193e-02
 1.9586857839e+01	-4.8790367902e+00	-5.5534313535e-02
 2.0223253942e+01	-5.5154328933e+00	-6.1181434422e-02
 2.0859650045e+01	-6.1518289963e+00	-6.1473458589e-02
 2.1496046148e+01	-6.7882250994e+00	-5.3735748894e-02
 1.4990663761e+01	-5.6568542492e-01	-6.4432580300e-02
 1.5627059864e+01	-1.2020815280e+00	-6.1809351304e-02
 1.6263455967e+01	-1.8384776311e+00	-5.9062913274e-02
 1.6899852070e+01	-2.4748737341e+00	-5.6728972309e-02
 1.7536248173e+01	-3.1112698372e+00	-5.5343258467e-02
 1.8172644277e+01	-3.7476659403e+00	-5.4425155676e-02
 1.8809040380e+01	-4.3840620434e+00	-5.5097913207e-02
 1.9445436483e+01	-5.0204581464e+00	-5.8118663295e-02
 2.0081832586e+01	-5.6568542495e+00	-6.2589827031e-02
 2.0718228689e+01	-6.2932503526e+00	-6.4677539919e-02
 2.1354624792e+01	-6.9296464557e+00	-5.5343499234e-02
 1.4849242405e+01	-7.0710678115e-01	-6.9174349842e-02
 1.5485638508e+01	-1.3435028842e+00	-6.7030267783e-02
 1.6122034611e+01	-1.9798989873e+00	-6.4550289519e-02
 1.6758430714e+01	-2.6162950904e+00	-6.2270119905e-02
 1.7394826817e+01	-3.2526911934e+00	-6.0725487749e-02
 1.8031222920e+01	-3.8890872965e+00	-5.8732764472e-02
 1.8667619023e+01	-4.5254833996e+00	-5.8700437796e-02
 1.9304015126e+01	-5.1618795027e+00	-6.0807079733e-02
 1.9940411229e+01	-5.7982756057e+00	-6.4155110418e-02
 2.0576807333e+01	-6.4346717088e+00	-6.7846848757e-02
 2.1213203436e+01	-7.0710678119e+00	-5.7201393301e-02
 1.5556349186e+01	 1.2727922061e+01	 2.2706044699e-02
 1.6192745289e+01	 1.2091525958e+01	 4.1104856370e-02
 1.6829141392e+01	 1.1455129855e+01	 5.8252332408e-02
 1.7465537495e+01	 1.0818733752e+01	 7.3572409158e-02
 1.8101933598e+01	 1.0182337649e+01	 8.7251633290e-02
 1.8738329701e+01	 9.5459415460e+00	 9.8524698045e-02
 1.9374725804e+01	 8.9095454429e+00	 1.0443890761e-01
 2.0011121908e+01	 8.2731493399e+00	 1.0554032381e-01
 2.0647518011e+01	 7.6367532368e+00	 1.0240968845e-01
 2.1283914114e+01	 7.0003571337e+00	 9.6820082251e-02
 2.1920310217e+01	 6.3639610306e+00	 8.9607764038e-02
 1.5273506474e+01	 1.2445079349e+01	 3.5623029567e-02
 1.5909902577e+01	 1.1808683246e+01	 5.2383383492e-02
 1.6546298680e+01	 1.1172287143e+01	 6.8052892225e-02
 1.7182694783e+01	 1.0535891040e+01	 8.2055489377e-02
 1.7819090886e+01	 9.8994949366e+00	 9.5136029171e-02
 1.8455486989e+01	 9.2630988335e+00	 1.0383768035e-01
 1.9091883092e+01	 8.6267027305e+00	 1.0764790585e-01
 1.9728279195e+01	 7.9903066274e+00	 1.0711276047e-01
 2.0364675298e+01	 7.3539105243e+00	 1.0277830623e-01
 2.1001071401e+01	 6.7175144212e+00	 9.6296235571e-02
 2.1637467504e+01	 6.0811183182e+00	 8.8896140433e-02
 1.4990663761e+01	 1.2162236636e+01	 4.9766116049e-02
 1.5627059864e+01	 1.1525840533e+01	 6.4970823427e-02
 1.6263455967e+01	 1.0889444430e+01	 7.9245179365e-02
 1.6899852070e+01	 1.0253048327e+01	 9.2329189534e-02
 1.7536248173e+01	 9.6166522241e+00	 1.0343842576e-01
 1.8172644276e+01	 8.9802561211e+00	 1.0957762199e-01
 1.8809040380e+01	 8.3438600180e+00	 1.1129281881e-01
 1.9445436483e+01	 7.7074639149e+00	 1.0913006401e-01
 2.0081832586e+01	 7.0710678118e+00	 1.0363541259e-01
 2.0718228689e+01	 6.4346717088e+00	 9.5795446454e-02
 2.1354624792e+01	 5.7982756057e+00	 8.8229835319e-02
 1.4707821049e+01	 1.1879393924e+01	 6.5244630962e-02
 1.5344217152e+01	 1.1242997821e+01	 7.8976503535e-02
 1.5980613255e+01	 1.0606601718e+01	 9.1938521725e-02
 1.6617009358e+01	 9.9702056147e+00	 1.0399798575e-01
 1.7253405461e+01	 9.3338095117e+00	 1.1208629698e-01
 1.7889801564e+01	 8.6974134086e+00	 1.1567199827e-01
 1.8526197667e+01	 8.0610173055e+00	 1.1530112319e-01
 1.9162593770e+01	 7.4246212024e+00	 1.1151971251e-01
 1.9798989873e+01	 6.7882250994e+00	 1.0487381421e-01
 2.0435385976e+01	 6.1518289963e+00	 9.5909483506e-02
 2.1071782079e+01	 5.5154328932e+00	 8.7585651630e-02
 1.4424978336e+01	 1.1596551211e+01	 7.7039733353e-02
 1.5061374439e+01	 1.0960155108e+01	 9.4509748732e-02
 1.5697770542e+01	 1.0323759005e+01	 1.0627321608e-01
 1.6334166645e+01	 9.6873629023e+00	 1.1593076941e-01
 1.6970562748e+01	 9.0509667992e+00	 1.2100712028e-01
 1.7606958852e+01	 8.4145706961e+00	 1.2204828802e-01
 1.8243354955e+01	 7.7781745930e+00	 1.1960029920e-01
 1.8879751058e+01	 7.1417784900e+00	 1.1420918757e-01
 1.9516147161e+01	 6.5053823869e+00	 1.0642099409e-01
 2.0152543264e+01	 5.8689862838e+00	 9.6781766960e-02
 2.0788939367e+01	 5.2325901808e+00	 8.6940392806e-02
 1.4142135624e+01	 1.1313708499e+01	 8.7393780280e-02
 1.4778531727e+01	 1.0677312396e+01	 1.1167988150e-01
 1.5414927830e+01	 1.0040916293e+01	 1.2186789179e-01
 1.6051323933e+01	 9.4045201898e+00	 1.2805502016e-01
 1.6687720036e+01	 8.7681240867e+00	 1.3012837667e-01
 1.7324116139e+01	 8.1317279836e+00	 1.2863397365e-01
 1.7960512242e+01	 7.4953318806e+00	 1.2411783064e-01
 1.8596908345e+01	 6.8589357775e+00	 1.1712597437e-01
 1.9233304448e+01	 6.2225396744e+00	 1.0820443879e-01
 1.9869700551e+01	 5.5861435714e+00	 9.7899265072e-02
 2.0506096654e+01	 4.9497474683e+00	 8.6756501596e-02
 1.3859292911e+01	 1.1030865787e+01	 9.6191464408e-02
 1.4495689014e+01	 1.0394469683e+01	 1.2274111068e-01
 1.5132085117e+01	 9.7580735804e+00	 1.3757254712e-01
 1.5768481220e+01	 9.1216774773e+00	 1.4029822115e-01
 1.6404877324e+01	 8.4852813742e+00	 1.3937755071e-01
 1.7041273427e+01	 7.8488852712e+00	 1.3535654109e-01
 1.7677669530e+01	 7.2124891681e+00	 1.2878120482e-01
 1.8314065633e+01	 6.5760930650e+00	 1.2019756161e-01
 1.8950461736e+01	 5.9396969620e+00	 1.1015163839e-01
 1.9586857839e+01	 5.3033008589e+00	 9.9189469325e-02
 2.0223253942e+01	 4.6669047558e+00	 8.7857095768e-02
 1.3576450199e+01	 1.0748023074e+01	 1.0329168879e-01
 1.4212846302e+01	 1.0111626971e+01	 1.2891326206e-01
 1.4849242405e+01	 9.4752308679e+00	 1.5331466740e-01
 1.5485638508e+01	 8.8388347648e+00	 1.5258785913e-01
 1.6122034611e+01	 8.2024386617e+00	 1.4868213051e-01
 1.6758430714e+01	 7.5660425587e+00	 1.4214347985e-01
 1.7394826817e+01	 6.9296464556e+00	 1.3351791263e-01
 1.8031222920e+01	 6.2932503525e+00	 1.2335144156e-01
 1.8667619023e+01	 5.6568542495e+00	 1.1219008655e-01
 1.9304015126e+01	 5.0204581464e+00	 1.0057987475e-01
 1.9940411229e+01	 4.3840620433e+00	 8.9066840495e-02
 1.3293607486e+01	 1.0465180362e+01	 1.0855335331e-01
 1.3930003589e+01	 9.8287842585e+00	 1.3185915501e-01
 1.4566399692e+01	 9.1923881554e+00	 1.6121582058e-01
 1.5202795796e+01	 8.5559920523e+00	 1.6485142435e-01
 1.5839191899e+01	 7.9195959493e+00	 1.5796960773e-01
 1.6475588002e+01	 7.2831998462e+00	 1.4892228295e-01
 1.7111984105e+01	 6.6468037431e+00	 1.3825544849e-01
 1.7748380208e+01	 6.0104076401e+00	 1.2651511002e-01
 1.8384776311e+01	 5.3740115370e+00	 1.1424728047e-01
 1.9021172414e+01	 4.7376154339e+00	 1.0199797993e-01
 1.9657568517e+01	 4.1012193309e+00	 9.0313235744e-02
 1.3010764774e+01	 1.0182337649e+01	 1.1108539411e-01
 1.3647160877e+01	 9.5459415460e+00	 1.3188203650e-01
 1.4283556980e+01	 8.9095454429e+00	 1.5902795086e-01
 1.4919953083e+01	 8.2731493399e+00	 1.7701641065e-01
 1.5556349186e+01	 7.6367532368e+00	 1.6716747758e-01
 1.6192745289e+01	 7.0003571337e+00	 1.5562044700e-01
 1.6829141392e+01	 6.3639610307e+00	 1.4292131037e-01
 1.7465537495e+01	 5.7275649276e+00	 1.2961606637e-01
 1.8101933598e+01	 5.0911688245e+00	 1.1625072088e-01
 1.8738329701e+01	 4.4547727215e+00	 1.0337128699e-01
 1.9374725804e+01	 3.8183766184e+00	 9.1523785028e-02
 1.2727922061e+01	 9.8994949366e+00	 1.1043390989e-01
 1.3364318164e+01	 9.2630988335e+00	 1.2922743803e-01
 1.4000714267e+01	 8.6267027305e+00	 1.5430092472e-01
 1.4637110371e+01	 7.9903066274e+00	 1.8423591568e-01
 1.5273506474e+01	 7.3539105243e+00	 1.7620323880e-01
 1.5909902577e+01	 6.7175144213e+00	 1.6216547212e-01
 1.6546298680e+01	 6.0811183182e+00	 1.4744299981e-01
 1.7182694783e+01	 5.4447222151e+00	 1.3258181350e-01
 1.7819090886e+01	 4.8083261121e+00	 1.1812791208e-01
 1.8455486989e+01	 4.1719300090e+00	 1.0462730161e-01
 1.9091883092e+01	 3.5355339059e+00	 9.2625995410e-02
 2.1920310217e+01	 6.3639610306e+00	 8.9607764038e-02
 2.2556706320e+01	 5.7275649276e+00	 8.1148349167e-02
 2.3193102423e+01	 5.0911688245e+00	 7.1817433526e-02
 2.3829498526e+01	 4.4547727214e+00	 6.1958745931e-02
 2.4465894629e+01	 3.8183766184e+00	 5.1915995738e-02
 2.5102290732e+01	 3.1819805153e+00	 4.2754653644e-02
 2.5738686835e+01	 2.5455844122e+00	 3.5622168173e-02
 2.6375082938e+01	 1.9091883092e+00	 2.9688549510e-02
 2.7011479041e+01	 1.2727922061e+00	 2.4458686880e-02
 2.7647875144e+01	 6.3639610306e-01	 1.9493112169e-02
 2.8284271248e+01	 0.0000000000e+00	 1.4841194117e-02
 2.1637467504e+01	 6.0811183182e+00	 8.8896140433e-02
 2.2273863607e+01	 5.4447222151e+00	 7.9922405911e-02
 2.2910259710e+01	 4.8083261120e+00	 7.0121218330e-02
 2.3546655813e+01	 4.1719300090e+00	 5.9836302888e-02
 2.4183051917e+01	 3.5355339059e+00	 4.9411365326e-02
 2.4819448020e+01	 2.8991378028e+00	 4.0814914101e-02
 2.5455844123e+01	 2.2627416998e+00	 3.3760485981e-02
 2.6092240226e+01	 1.6263455967e+00	 2.7932368030e-02
 2.6728636329e+01	 9.8994949365e-01	 2.2996558241e-02
 2.7365032432e+01	 3.5355339058e-01	 1.8272126675e-02
 2.8001428535e+01	-2.8284271248e-01	 1.3869691158e-02
 2.1354624792e+01	 5.7982756057e+00	 8.8229835319e-02
 2.1991020895e+01	 5.1618795026e+00	 7.8679702259e-02
 2.2627416998e+01	 4.5254833996e+00	 6.8346164060e-02
 2.3263813101e+01	 3.8890872965e+00	 5.7572942303e-02
 2.3900209204e+01	 3.2526911934e+00	 4.7154586457e-02
 2.4536605307e+01	 2.6162950904e+00	 3.8760246606e-02
 2.5173001410e+01	 1.9798989873e+00	 3.1753208123e-02
 2.5809397513e+01	 1.3435028842e+00	 2.5999923173e-02
 2.6445793616e+01	 7.0710678118e-01	 2.1366843919e-02
 2.7082189719e+01	 7.0710678109e-02	 1.6863776280e-02
 2.7718585823e+01	-5.6568542496e-01	 1.2668511558e-02
 2.1071782079e+01	 5.5154328932e+00	 8.7585651630e-02
 2.1708178182e+01	 4.8790367902e+00	 7.7397041858e-02
 2.2344574285e+01	 4.2426406871e+00	 6.6469075076e-02
 2.2980970389e+01	 3.6062445840e+00	 5.5145469248e-02
 2.3617366492e+01	 2.9698484810e+00	 4.4982335570e-02
 2.4253762595e+01	 2.3334523779e+00	 3.6577274284e-02
 2.4890158698e+01	 1.6970562748e+00	 2.9586957729e-02
 2.5526554801e+01	 1.0606601718e+00	 2.3877838069e-02
 2.6162950904e+01	 4.2426406870e-01	 1.9316367466e-02
 2.6799347007e+01	-2.1213203437e-01	 1.5266005410e-02
 2.7435743110e+01	-8.4852813744e-01	 1.1235599728e-02
 2.0788939367e+01	 5.2325901808e+00	 8.6940392806e-02
 2.1425335470e+01	 4.5961940777e+00	 7.6051228862e-02
 2.2061731573e+01	 3.9597979746e+00	 6.4466756247e-02
 2.2698127676e+01	 3.3234018716e+00	 5.2721257061e-02
 2.3334523779e+01	 2.6870057685e+00	 4.2699070696e-02
 2.3970919882e+01	 2.0506096654e+00	 3.4252620263e-02
 2.4607315985e+01	 1.4142135624e+00	 2.7248357924e-02
 2.5243712088e+01	 7.7781745930e-01	 2.1552735842e-02
 2.5880108191e+01	 1.4142135623e-01	 1.7032206181e-02
 2.6516504295e+01	-4.9497474684e-01	 1.3476758435e-02
 2.7152900398e+01	-1.1313708499e+00	 9.5689000209e-03
 2.0506096654e+01	 4.9497474683e+00	 8.6756501596e-02
 2.1142492757e+01	 4.3133513652e+00	 7.4619067940e-02
 2.1778888861e+01	 3.6769552622e+00	 6.2316012954e-02
 2.2415284964e+01	 3.0405591591e+00	 5.0413101546e-02
 2.3051681067e+01	 2.4041630560e+00	 4.0291414962e-02
 2.3688077170e+01	 1.7677669530e+00	 3.1772907671e-02
 2.4324473273e+01	 1.1313708499e+00	 2.4724031837e-02
 2.4960869376e+01	 4.9497474683e-01	 1.9011239622e-02
 2.5597265479e+01	-1.4142135624e-01	 1.4500983190e-02
 2.6233661582e+01	-7.7781745932e-01	 1.1059714703e-02
 2.6870057685e+01	-1.4142135624e+00	 7.6663567316e-03
 2.0223253942e+01	 4.6669047558e+00	 8.7857095768e-02
 2.0859650045e+01	 4.0305086528e+00	 7.3077364266e-02
 2.1496046148e+01	 3.3941125497e+00	 6.0013871019e-02
 2.2132442251e+01	 2.7577164466e+00	 4.7997846010e-02
 2.2768838354e+01	 2.1213203436e+00	 3.7745991495e-02
 2.3405234457e+01	 1.4849242405e+00	 2.9124759635e-02
 2.4041630560e+01	 8.4852813742e-01	 2.2000602595e-02
 2.4678026663e+01	 2.1213203435e-01	 1.6239972536e-02
 2.5314422766e+01	-4.2426406872e-01	 1.1709321622e-02
 2.5950818870e+01	-1.0606601718e+00	 8.2751020159e-03
 2.6587214973e+01	-1.6970562749e+00	 5.5259140978e-03
 1.9940411229e+01	 4.3840620433e+00	 8.9066840495e-02
 2.0576807333e+01	 3.7476659403e+00	 7.1482699712e-02
 2.1213203436e+01	 3.1112698372e+00	 5.7666417594e-02
 2.1849599539e+01	 2.4748737342e+00	 4.5462113580e-02
 2.2485995642e+01	 1.8384776311e+00	 3.5049423422e-02
 2.3122391745e+01	 1.2020815280e+00	 2.6294799283e-02
 2.3758787848e+01	 5.6568542495e-01	 1.9064693325e-02
 2.4395183951e+01	-7.0710678120e-02	 1.3225557711e-02
 2.5031580054e+01	-7.0710678119e-01	 8.6438446040e-03
 2.5667976157e+01	-1.3435028843e+00	 5.1860061671e-03
 2.6304372260e+01	-1.9798989873e+00	 2.7184945631e-03
 1.9657568517e+01	 4.1012193309e+00	 9.0313235744e-02
 2.0293964620e+01	 3.4648232278e+00	 7.1723657678e-02
 2.0930360723e+01	 2.8284271247e+00	 5.5215778114e-02
 2.1566756826e+01	 2.1920310217e+00	 4.2792527384e-02
 2.2203152929e+01	 1.5556349186e+00	 3.2188333872e-02
 2.2839549032e+01	 9.1923881554e-01	 2.3269649741e-02
 2.3475945135e+01	 2.8284271248e-01	 1.5902927154e-02
 2.4112341238e+01	-3.5355339059e-01	 9.9546182739e-03
 2.4748737342e+01	-9.8994949366e-01	 5.2911752629e-03
 2.5385133445e+01	-1.6263455967e+00	 1.7790502843e-03
 2.6021529548e+01	-2.2627416998e+00	-7.1530449910e-04
 1.9374725804e+01	 3.8183766184e+00	 9.1523785028e-02
 2.0011121908e+01	 3.1819805153e+00	 7.1609296153e-02
 2.0647518011e+01	 2.5455844123e+00	 5.2648575706e-02
 2.1283914114e+01	 1.9091883092e+00	 3.9975710549e-02
 2.1920310217e+01	 1.2727922061e+00	 2.9149345972e-02
 2.2556706320e+01	 6.3639610307e-01	 2.0035934138e-02
 2.3193102423e+01	 1.2569945085e-12	 1.2501927211e-02
 2.3829498526e+01	-6.3639610307e-01	 6.4137773528e-03
 2.4465894629e+01	-1.2727922061e+00	 1.6379367265e-03
 2.5102290732e+01	-1.9091883092e+00	-1.9591425051e-03
 2.5738686835e+01	-2.5455844123e+00	-4.5110081792e-03
 1.9091883092e+01	 3.5355339059e+00	 9.2625995410e-02
 1.9728279195e+01	 2.8991378029e+00	 7.1469209446e-02
 2.0364675298e+01	 2.2627416998e+00	 5.1780816869e-02
 2.1001071401e+01	 1.6263455967e+00	 3.6998286201e-02
 2.1637467504e+01	 9.8994949366e-01	 2.5919082848e-02
 2.2273863607e+01	 3.5355339059e-01	 1.6580275601e-02
 2.2910259710e+01	-2.8284271247e-01	 8.8483166224e-03
 2.3546655813e+01	-9.1923881554e-01	 2.5896580751e-03
 2.4183051917e+01	-1.5556349186e+00	-2.3292478779e-03
 2.4819448020e+01	-2.1920310217e+00	-6.0419490738e-03
 2.5455844123e+01	-2.8284271248e+00	-8.6819933497e-03
 1.2727922061e+01	 9.8994949366e+00	 1.1043390989e-01
 1.3364318164e+01	 9.2630988335e+00	 1.2922743803e-01
 1.4000714267e+01	 8.6267027305e+00	 1.5430092472e-01
 1.4637110371e+01	 7.9903066274e+00	 1.8423591568e-01
 1.5273506474e+01	 7.3539105243e+00	 1.7620323880e-01
 1.5909902577e+01	 6.7175144213e+00	 1.6216547212e-01
 1.6546298680e+01	 6.0811183182e+00	 1.4744299981e-01
 1.7182694783e+01	 5.4447222151e+00	 1.3258181350e-01
 1.7819090886e+01	 4.8083261121e+00	 1.1812791208e-01
 1.8455486989e+01	 4.1719300090e+00	 1.0462730161e-01
 1.9091883092e+01	 3.5355339059e+00	 9.2625995410e-02
 1.2445079349e+01	 9.6166522241e+00	 1.4431225967e-01
 1.3081475452e+01	 8.9802561211e+00	 1.5218361280e-01
 1.3717871555e+01	 8.3438600180e+00	 1.6736057028e-01
 1.4354267658e+01	 7.7074639149e+00	 1.8842470856e-01
 1.4990663761e+01	 7.0710678118e+00	 1.9244474917e-01
 1.5627059864e+01	 6.4346717088e+00	 1.7124768827e-01
 1.6263455967e+01	 5.7982756057e+00	 1.5092828216e-01
 1.6899852070e+01	 5.1618795026e+00	 1.3203251548e-01
 1.7536248173e+01	 4.5254833996e+00	 1.1510638007e-01
 1.8172644276e+01	 3.8890872965e+00	 1.0069587500e-01
 1.8809040380e+01	 3.2526911934e+00	 8.8813977840e-02
 1.2162236636e+01	 9.3338095116e+00	 1.8022906998e-01
 1.2798632739e+01	 8.6974134086e+00	 1.7673069721e-01
 1.3435028843e+01	 8.0610173055e+00	 1.8156357060e-01
 1.4071424946e+01	 7.4246212024e+00	 1.9330929729e-01
 1.4707821049e+01	 6.7882250994e+00	 2.1039888987e-01
 1.5344217152e+01	 6.1518289963e+00	 1.8146564092e-01
 1.5980613255e+01	 5.5154328932e+00	 1.5497240395e-01
 1.6617009358e+01	 4.8790367902e+00	 1.3146515659e-01
 1.7253405461e+01	 4.2426406871e+00	 1.1148988367e-01
 1.7889801564e+01	 3.6062445840e+00	 9.5592577245e-02
 1.8526197667e+01	 2.9698484810e+00	 8.3222337643e-02
 1.1879393924e+01	 9.0509667992e+00	 2.1842987529e-01
 1.2515790027e+01	 8.4145706961e+00	 2.0311421969e-01
 1.3152186130e+01	 7.7781745930e+00	 1.9715544804e-01
 1.3788582233e+01	 7.1417784900e+00	 1.9913519816e-01
 1.4424978336e+01	 6.5053823869e+00	 2.0763525631e-01
 1.5061374439e+01	 5.8689862838e+00	 1.9274684084e-01
 1.5697770542e+01	 5.2325901808e+00	 1.5950287734e-01
 1.6334166645e+01	 4.5961940777e+00	 1.3080725040e-01
 1.6970562748e+01	 3.9597979746e+00	 1.0720593783e-01
 1.7606958852e+01	 3.3234018716e+00	 8.8627694072e-02
 1.8243354955e+01	 2.6870057685e+00	 7.6113364623e-02
 1.1596551211e+01	 8.7681240867e+00	 2.5916020904e-01
 1.2232947315e+01	 8.1317279836e+00	 2.3157970760e-01
 1.2869343418e+01	 7.4953318806e+00	 2.1438172388e-01
 1.3505739521e+01	 6.8589357775e+00	 2.0614792642e-01
 1.4142135624e+01	 6.2225396744e+00	 2.0546013214e-01
 1.4778531727e+01	 5.5861435714e+00	 2.0501880238e-01
 1.5414927830e+01	 4.9497474683e+00	 1.6444721806e-01
 1.6051323933e+01	 4.3133513652e+00	 1.2998631401e-01
 1.6687720036e+01	 3.6769552622e+00	 1.0218206103e-01
 1.7324116139e+01	 3.0405591591e+00	 7.9789337373e-02
 1.7960512242e+01	 2.4041630560e+00	 6.7480584424e-02
 1.1313708499e+01	 8.4852813742e+00	 3.0266560364e-01
 1.1950104602e+01	 7.8488852712e+00	 2.6237268729e-01
 1.2586500705e+01	 7.2124891681e+00	 2.3348791842e-01
 1.3222896808e+01	 6.5760930650e+00	 2.1459299626e-01
 1.3859292911e+01	 5.9396969620e+00	 2.0426976844e-01
 1.4495689014e+01	 5.3033008589e+00	 2.0110023099e-01
 1.5132085117e+01	 4.6669047558e+00	 1.6973294535e-01
 1.5768481220e+01	 4.0305086527e+00	 1.2892986806e-01
 1.6404877324e+01	 3.3941125497e+00	 9.5935806976e-02
 1.7041273427e+01	 2.7577164466e+00	 6.9926412827e-02
 1.7677669530e+01	 2.1213203435e+00	 5.7317522630e-02
 1.1030865787e+01	 8.2024386618e+00	 3.4919159045e-01
 1.1667261890e+01	 7.5660425587e+00	 2.9573868405e-01
 1.2303657993e+01	 6.9296464556e+00	 2.5471955088e-01
 1.2940054096e+01	 6.2932503525e+00	 2.2471592086e-01
 1.3576450199e+01	 5.6568542495e+00	 2.0430967233e-01
 1.4212846302e+01	 5.0204581464e+00	 1.9208283199e-01
 1.4849242405e+01	 4.3840620433e+00	 1.7528758203e-01
 1.5485638508e+01	 3.7476659403e+00	 1.2756543674e-01
 1.6122034611e+01	 3.1112698372e+00	 8.7298570615e-02
 1.6758430714e+01	 2.4748737341e+00	 5.9032446449e-02
 1.7394826817e+01	 1.8384776311e+00	 4.5617704766e-02
 1.0748023074e+01	 7.9195959493e+00	 3.9898369980e-01
 1.1384419177e+01	 7.2831998462e+00	 3.3192322215e-01
 1.2020815280e+01	 6.6468037431e+00	 2.7832213946e-01
 1.2657211383e+01	 6.0104076401e+00	 2.3676221236e-01
 1.3293607486e+01	 5.3740115370e+00	 2.0582534987e-01
 1.3930003589e+01	 4.7376154339e+00	 1.8409360941e-01
 1.4566399692e+01	 4.1012193309e+00	 1.7014919672e-01
 1.5202795796e+01	 3.4648232278e+00	 1.2582054780e-01
 1.5839191899e+01	 2.8284271247e+00	 7.8129533949e-02
 1.6475588002e+01	 2.1920310217e+00	 4.7100964197e-02
 1.7111984105e+01	 1.5556349186e+00	 3.2374656296e-02
 1.0465180362e+01	 7.6367532368e+00	 4.5228746098e-01
 1.1101576465e+01	 7.0003571338e+00	 3.7117182483e-01
 1.1737972568e+01	 6.3639610307e+00	 3.0454120135e-01
 1.2374368671e+01	 5.7275649276e+00	 2.5097738187e-01
 1.3010764774e+01	 5.0911688245e+00	 2.0906230612e-01
 1.3647160877e+01	 4.4547727215e+00	 1.7737806220e-01
 1.4283556980e+01	 3.8183766184e+00	 1.5450688656e-01
 1.4919953083e+01	 3.1819805153e+00	 1.2100774726e-01
 1.5556349186e+01	 2.5455844122e+00	 6.8422223368e-02
 1.6192745289e+01	 1.9091883092e+00	 3.4125491967e-02
 1.6829141392e+01	 1.2727922061e+00	 1.7581902625e-02
 1.0182337649e+01	 7.3539105244e+00	 5.0934840227e-01
 1.0818733752e+01	 6.7175144213e+00	 4.1373001428e-01
 1.1455129855e+01	 6.0811183182e+00	 3.3362225267e-01
 1.2091525958e+01	 5.4447222151e+00	 2.6760693945e-01
 1.2727922061e+01	 4.8083261121e+00	 2.1426604507e-01
 1.3364318164e+01	 4.1719300090e+00	 1.7218168832e-01
 1.4000714268e+01	 3.5355339059e+00	 1.3993613633e-01
 1.4637110371e+01	 2.8991378028e+00	 1.1116269054e-01
 1.5273506474e+01	 2.2627416998e+00	 5.8170165200e-02
 1.5909902577e+01	 1.6263455967e+00	 2.0099555597e-02
 1.6546298680e+01	 9.8994949363e-01	 1.2329690983e-03
 9.8994949366e+00	 7.0710678119e+00	 5.7041205089e-01
 1.0535891040e+01	 6.4346717088e+00	 4.5984331167e-01
 1.1172287143e+01	 5.7982756057e+00	 3.6581080852e-01
 1.1808683246e+01	 5.1618795027e+00	 2.8689639416e-01
 1.2445079349e+01	 4.5254833996e+00	 2.2168206971e-01
 1.3081475452e+01	 3.8890872965e+00	 1.6874998467e-01
 1.3717871555e+01	 3.2526911934e+00	 1.2410774037e-01
 1.4354267658e+01	 2.6162950904e+00	 8.7058503340e-02
 1.4990663761e+01	 1.9798989873e+00	 4.7366885715e-02
 1.5627059864e+01	 1.3435028842e+00	 5.0166808617e-03
 1.6263455967e+01	 7.0710678115e-01	-1.6678619000e-02
 1.9091883092e+01	 3.5355339059e+00	 9.2625995410e-02
 1.9728279195e+01	 2.8991378029e+00	 7.1469209446e-02
 2.0364675298e+01	 2.2627416998e+00	 5.1780816869e-02
 2.1001071401e+01	 1.6263455967e+00	 3.6998286201e-02
 2.1637467504e+01	 9.8994949366e-01	 2.5919082848e-02
 2.2273863607e+01	 3.5355339059e-01	 1.6580275601e-02
 2.2910259710e+01	-2.8284271247e-01	 8.8483166224e-03
 2.3546655813e+01	-9.1923881554e-01	 2.5896580751e-03
 2.4183051917e+01	-1.5556349186e+00	-2.3292478779e-03
 2.4819448020e+01	-2.1920310217e+00	-6.0419490738e-03
 2.5455844123e+01	-2.8284271248e+00	-8.6819933497e-03
 1.8809040380e+01	 3.2526911934e+00	 8.8813977840e-02
 1.9445436483e+01	 2.6162950904e+00	 6.8718548149e-02
 2.0081832586e+01	 1.9798989873e+00	 5.0117579470e-02
 2.0718228689e+01	 1.3435028843e+00	 3.3679738610e-02
 2.1354624792e+01	 7.0710678118e-01	 2.3144464218e-02
 2.1991020895e+01	 7.0710678117e-02	 1.4118541671e-02
 2.2627416998e+01	-5.6568542495e-01	 6.4684231315e-03
 2.3263813101e+01	-1.2020815280e+00	 6.0560763084e-05
 2.3900209204e+01	-1.8384776311e+00	-5.2385932716e-03
 2.4536605307e+01	-2.4748737342e+00	-9.5625868098e-03
 2.5173001410e+01	-3.1112698372e+00	-1.3044967689e-02
 1.8526197667e+01	 2.9698484810e+00	 8.3222337643e-02
 1.9162593770e+01	 2.3334523779e+00	 6.4641723702e-02
 1.9798989873e+01	 1.6970562748e+00	 4.7312875140e-02
 2.0435385976e+01	 1.0606601718e+00	 3.0700054714e-02
 2.1071782079e+01	 4.2426406871e-01	 1.9411871779e-02
 2.1708178182e+01	-2.1213203436e-01	 1.0857046758e-02
 2.2344574285e+01	-8.4852813743e-01	 3.4469814858e-03
 2.2980970389e+01	-1.4849242405e+00	-2.9518718766e-03
 2.3617366492e+01	-2.1213203436e+00	-8.4730611659e-03
 2.4253762595e+01	-2.7577164466e+00	-1.3250134219e-02
 2.4890158698e+01	-3.3941125497e+00	-1.7416638874e-02
 1.8243354955e+01	 2.6870057685e+00	 7.6113364623e-02
 1.8879751058e+01	 2.0506096654e+00	 5.9232261319e-02
 1.9516147161e+01	 1.4142135624e+00	 4.3360228598e-02
 2.0152543264e+01	 7.7781745930e-01	 2.7961531710e-02
 2.0788939367e+01	 1.4142135623e-01	 1.4707928657e-02
 2.1425335470e+01	-4.9497474684e-01	 6.7824139916e-03
 2.2061731573e+01	-1.1313708499e+00	-2.2938518731e-04
 2.2698127676e+01	-1.7677669530e+00	-6.4610167166e-03
 2.3334523779e+01	-2.4041630560e+00	-1.2046028433e-02
 2.3970919882e+01	-3.0405591591e+00	-1.7117968175e-02
 2.4607315985e+01	-3.6769552622e+00	-2.2204676237e-02
 1.7960512242e+01	 2.4041630560e+00	 6.7480584424e-02
 1.8596908345e+01	 1.7677669530e+00	 5.2483686151e-02
 1.9233304448e+01	 1.1313708499e+00	 3.8253164505e-02
 1.9869700551e+01	 4.9497474682e-01	 2.4253287228e-02
 2.0506096654e+01	-1.4142135625e-01	 9.9482981019e-03
 2.1142492757e+01	-7.7781745931e-01	 1.8812664977e-03
 2.1778888861e+01	-1.4142135624e+00	-4.5740537604e-03
 2.2415284964e+01	-2.0506096654e+00	-1.0480250629e-02
 2.3051681067e+01	-2.6870057685e+00	-1.5970871946e-02
 2.3688077170e+01	-3.3234018716e+00	-2.1179465549e-02
 2.4324473273e+01	-3.9597979746e+00	-2.6914940594e-02
 1.7677669530e+01	 2.1213203435e+00	 5.7317522630e-02
 1.8314065633e+01	 1.4849242405e+00	 4.4389523290e-02
 1.8950461736e+01	 8.4852813741e-01	 3.1985207462e-02
 1.9586857839e+01	 2.1213203434e-01	 1.9568845375e-02
 2.0223253942e+01	-4.2426406873e-01	 6.6046833070e-03
 2.0859650045e+01	-1.0606601718e+00	-3.8597725960e-03
 2.1496046148e+01	-1.6970562749e+00	-9.6004011060e-03
 2.2132442251e+01	-2.3334523779e+00	-1.5022950488e-02
 2.2768838354e+01	-2.9698484810e+00	-2.0260968578e-02
 2.3405234457e+01	-3.6062445840e+00	-2.5704047102e-02
 2.4041630560e+01	-4.2426406871e+00	-3.1416063893e-02
 1.7394826817e+01	 1.8384776311e+00	 4.5617704766e-02
 1.8031222920e+01	 1.2020815280e+00	 3.4943297770e-02
 1.8667619023e+01	 5.6568542493e-01	 2.4549882007e-02
 1.9304015126e+01	-7.0710678138e-02	 1.3901730201e-02
 1.9940411229e+01	-7.0710678120e-01	 2.4630911183e-03
 2.0576807333e+01	-1.3435028843e+00	-1.0301810434e-02
 2.1213203436e+01	-1.9798989873e+00	-1.5321804097e-02
 2.1849599539e+01	-2.6162950904e+00	-2.0102493164e-02
 2.2485995642e+01	-3.2526911935e+00	-2.4929695200e-02
 2.3122391745e+01	-3.8890872965e+00	-3.0432159633e-02
 2.3758787848e+01	-4.5254833996e+00	-3.5689934489e-02
 1.7111984105e+01	 1.5556349186e+00	 3.2374656296e-02
 1.7748380208e+01	 9.1923881552e-01	 2.4138534562e-02
 1.8384776311e+01	 2.8284271245e-01	 1.5940712623e-02
 1.9021172414e+01	-3.5355339062e-01	 7.2454656937e-03
 1.9657568517e+01	-9.8994949368e-01	-2.4829549681e-03
 2.0293964620e+01	-1.6263455967e+00	-1.3780322063e-02
 2.0930360723e+01	-2.2627416998e+00	-2.1751639605e-02
 2.1566756826e+01	-2.8991378029e+00	-2.5732255530e-02
 2.2203152929e+01	-3.5355339059e+00	-3.0111938536e-02
 2.2839549032e+01	-4.1719300090e+00	-3.5085802984e-02
 2.3475945135e+01	-4.8083261121e+00	-3.9718440368e-02
 1.6829141392e+01	 1.2727922061e+00	 1.7581902625e-02
 1.7465537495e+01	 6.3639610304e-01	 1.1968758579e-02
 1.8101933598e+01	-2.8723246004e-11	 6.1512237292e-03
 1.8738329701e+01	-6.3639610310e-01	-4.0642421902e-04
 1.9374725805e+01	-1.2727922062e+00	-8.2399315161e-03
 2.0011121908e+01	-1.9091883092e+00	-1.7885068371e-02
 2.0647518011e+01	-2.5455844123e+00	-2.8903284504e-02
 2.1283914114e+01	-3.1819805154e+00	-3.1925614460e-02
 2.1920310217e+01	-3.8183766184e+00	-3.5753190093e-02
 2.2556706320e+01	-4.4547727215e+00	-3.9646865399e-02
 2.3193102423e+01	-5.0911688245e+00	-4.3483469150e-02
 1.6546298680e+01	 9.8994949363e-01	 1.2329690983e-03
 1.7182694783e+01	 3.5355339056e-01	-1.5725053257e-03
 1.7819090886e+01	-2.8284271251e-01	-4.8250603136e-03
 1.8455486989e+01	-9.1923881558e-01	-9.0604156684e-03
 1.9091883092e+01	-1.5556349186e+00	-1.4814315149e-02
 1.9728279195e+01	-2.1920310217e+00	-2.2622526473e-02
 2.0364675298e+01	-2.8284271248e+00	-3.3020841315e-02
 2.1001071401e+01	-3.4648232278e+00	-3.8713143886e-02
 2.1637467504e+01	-4.1012193309e+00	-4.1454645060e-02
 2.2273863607e+01	-4.7376154340e+00	-4.4097234753e-02
 2.2910259710e+01	-5.3740115370e+00	-4.6966908083e-02
 1.6263455967e+01	 7.0710678115e-01	-1.6678619000e-02
 1.6899852070e+01	 7.0710678080e-02	-1.6491732360e-02
 1.7536248173e+01	-5.6568542499e-01	-1.6994615205e-02
 1.8172644276e+01	-1.2020815281e+00	-1.8722984846e-02
 1.8809040380e+01	-1.8384776311e+00	-2.2212582551e-02
 1.9445436483e+01	-2.4748737342e+00	-2.7999173545e-02
 2.0081832586e+01	-3.1112698373e+00	-3.6618547012e-02
 2.0718228689e+01	-3.7476659403e+00	-4.6162824815e-02
 2.1354624792e+01	-4.3840620434e+00	-4.7198191570e-02
 2.1991020895e+01	-5.0204581464e+00	-4.8418798555e-02
 2.2627416998e+01	-5.6568542495e+00	-5.0150644051e-02
