patch_n	x	y	stress_yy
5	 0.000000000000000e+00	 0.000000000000000e+00	-1.544936261988170e+00
15	 0.000000000000000e+00	 0.000000000000000e+00	-1.528811837707143e+00
20	-2.828427124750000e+01	 0.000000000000000e+00	 0.000000000000000e+00
25	 0.000000000000000e+00	 0.000000000000000e+00	-1.544936261999481e+00
35	 0.000000000000000e+00	 0.000000000000000e+00	-1.528811837676228e+00
40	 2.828427124750000e+01	 0.000000000000000e+00	 0.000000000000000e+00
