patch_n	x	y	stress_yy
5	 0.000000000000000e+00	 0.000000000000000e+00	-1.544937536157583e+00
15	 0.000000000000000e+00	 0.000000000000000e+00	-1.528840876566403e+00
20	-2.828427124750000e+01	 0.000000000000000e+00	 0.000000000000000e+00
25	 0.000000000000000e+00	 0.000000000000000e+00	-1.544937536161973e+00
35	 0.000000000000000e+00	 0.000000000000000e+00	-1.528840876551301e+00
40	 2.828427124750000e+01	 0.000000000000000e+00	 0.000000000000000e+00
