x	y	stress_yy
 1.000000000000000e+00	 0.000000000000000e+00	 2.340392033427189e+01
 9.997942209309062e-01	 2.028585204427908e-02	 2.338860022206711e+01
 9.991701818187483e-01	 4.073018247306789e-02	 2.332523577730375e+01
 9.981180433968323e-01	 6.132186759777695e-02	 2.321325628256768e+01
 9.966282799005903e-01	 8.204920293574097e-02	 2.305246413237515e+01
 9.946917154369740e-01	 1.028999088485992e-01	 2.284305320826690e+01
 9.922995607885995e-01	 1.238611386139841e-01	 2.258562575192658e+01
 9.894434504817674e-01	 1.449194890231616e-01	 2.228120749673410e+01
 9.861154799348201e-01	 1.660610135851266e-01	 2.193126081762723e+01
 9.823082424914590e-01	 1.872712384039294e-01	 2.153769566176209e+01
 9.780148661327976e-01	 2.085351807807159e-01	 2.110287802848320e+01
 1.014285714285714e+00	 0.000000000000000e+00	 2.267086940950853e+01
 1.014076995515633e+00	 2.057564993062592e-02	 2.265702930924705e+01
 1.013444041559016e+00	 4.131204222268315e-02	 2.259824356789809e+01
 1.012376872588215e+00	 6.219789427774518e-02	 2.249404964078801e+01
 1.010865826756313e+00	 8.322133440625157e-02	 2.234433500559357e+01
 1.008901597086074e+00	 1.043699075464363e-01	 2.214935386802096e+01
 1.006475268799865e+00	 1.256305834513268e-01	 2.190974244156519e+01
 1.003578356917221e+00	 1.469897674377783e-01	 2.162653257931537e+01
 1.000202843933889e+00	 1.684333137791999e-01	 2.130116353553437e+01
 9.963412173841937e-01	 1.899465418096997e-01	 2.093549163748695e+01
 9.919865070775523e-01	 2.115142547918691e-01	 2.053179765394975e+01
 1.028571428571428e+00	 0.000000000000000e+00	 2.199212815690607e+01
 1.028359770100361e+00	 2.086544781697277e-02	 2.197977014664553e+01
 1.027717901299284e+00	 4.189390197229840e-02	 2.192533453829142e+01
 1.026635701779599e+00	 6.307392095771344e-02	 2.182846535652395e+01
 1.025103373612036e+00	 8.439346587676218e-02	 2.168913474467691e+01
 1.023111478735173e+00	 1.058399062442734e-01	 2.150765806685280e+01
 1.020650976811131e+00	 1.274000282886694e-01	 2.128470765593730e+01
 1.017713263352675e+00	 1.490600458523948e-01	 2.102132500215097e+01
 1.014290207932958e+00	 1.708056139732731e-01	 2.071893117682821e+01
 1.010374192276929e+00	 1.926218452154702e-01	 2.037933528899260e+01
 1.005958148022306e+00	 2.144933288030221e-01	 2.000474077821965e+01
 1.042857142857143e+00	 0.000000000000000e+00	 2.136271297230336e+01
 1.042642544685088e+00	 2.115524570331961e-02	 2.135183168187958e+01
 1.041991761039552e+00	 4.247576172191367e-02	 2.130152299200023e+01
 1.040894530970982e+00	 6.394994763768166e-02	 2.121153594357359e+01
 1.039340920467758e+00	 8.556559734727270e-02	 2.108192693583771e+01
 1.037321360384273e+00	 1.073099049421106e-01	 2.091307328915142e+01
 1.034826684822397e+00	 1.291694731260121e-01	 2.070568552139179e+01
 1.031848169788129e+00	 1.511303242670114e-01	 2.046081814839471e+01
 1.028377571932027e+00	 1.731779141673463e-01	 2.017987881921028e+01
 1.024407167169664e+00	 1.952971486212406e-01	 1.986463559996026e+01
 1.019929788967060e+00	 2.174724028141751e-01	 1.951722222599180e+01
 1.057142857142857e+00	 0.000000000000000e+00	 2.077790055112150e+01
 1.056925319269815e+00	 2.144504358966645e-02	 2.076848426867291e+01
 1.056265620779820e+00	 4.305762147152892e-02	 2.072208506776878e+01
 1.055153360162366e+00	 6.482597431764991e-02	 2.063855549520911e+01
 1.053578467323481e+00	 8.673772881778331e-02	 2.051803579901628e+01
 1.051531242033373e+00	 1.087799036399477e-01	 2.036096601467384e+01
 1.049002392833662e+00	 1.309389179633546e-01	 2.016809682868205e+01
 1.045983076223583e+00	 1.532006026816280e-01	 1.994049904480374e+01
 1.042464935931095e+00	 1.755502143614196e-01	 1.967957147898063e+01
 1.038440142062399e+00	 1.979724520270111e-01	 1.938704711206159e+01
 1.033901429911815e+00	 2.204514768253283e-01	 1.906499733539392e+01
 1.071428571428571e+00	 0.000000000000000e+00	 2.023321053505831e+01
 1.071208093854542e+00	 2.173484147601330e-02	 2.022524227217581e+01
 1.070539480520088e+00	 4.363948122114417e-02	 2.018254134738531e+01
 1.069412189353749e+00	 6.570200099761814e-02	 2.010506233869559e+01
 1.067816014179204e+00	 8.790986028829388e-02	 1.999302893350221e+01
 1.065741123682472e+00	 1.102499023377849e-01	 1.984694459971377e+01
 1.063178100844928e+00	 1.327083628006973e-01	 1.966760209401685e+01
 1.060117982659036e+00	 1.552708810962446e-01	 1.945609164673386e+01
 1.056552299930164e+00	 1.779225145554928e-01	 1.921380766359964e+01
 1.052473116955134e+00	 2.006477554327814e-01	 1.894245378809489e+01
 1.047873070856569e+00	 2.234305508364814e-01	 1.864404617390774e+01
 1.085714285714286e+00	 0.000000000000000e+00	 1.972438952878063e+01
 1.085490868439270e+00	 2.202463936236015e-02	 1.971784804752346e+01
 1.084813340260356e+00	 4.422134097075943e-02	 1.967864083646207e+01
 1.083671018545132e+00	 6.657802767758639e-02	 1.960682305895589e+01
 1.082053561034927e+00	 8.908199175880446e-02	 1.950270142532505e+01
 1.079951005331572e+00	 1.117199010356220e-01	 1.936684350910167e+01
 1.077353808856194e+00	 1.344778076380399e-01	 1.920008595645200e+01
 1.074252889094491e+00	 1.573411595108612e-01	 1.900354144145610e+01
 1.070639663929233e+00	 1.802948147495661e-01	 1.877860422105887e+01
 1.066506091847869e+00	 2.033230588385519e-01	 1.852695414697673e+01
 1.061844711801323e+00	 2.264096248476345e-01	 1.825055899782182e+01
 1.100000000000000e+00	 0.000000000000000e+00	 1.924739636206923e+01
 1.099773643023997e+00	 2.231443724870699e-02	 1.924225716679329e+01
 1.099087200000623e+00	 4.480320072037468e-02	 1.920634619336433e+01
 1.097929847736515e+00	 6.745405435755464e-02	 1.913981776691334e+01
 1.096291107890649e+00	 9.025412322931507e-02	 1.904306119261733e+01
 1.094160886980672e+00	 1.131898997334591e-01	 1.891670877623303e+01
 1.091529516867459e+00	 1.362472524753825e-01	 1.876164279013732e+01
 1.088387795529944e+00	 1.594114379254778e-01	 1.857900124994701e+01
 1.084727027928302e+00	 1.826671149436393e-01	 1.837018236816931e+01
 1.080539066740605e+00	 2.059983622443223e-01	 1.813684755496648e+01
 1.075816352746078e+00	 2.293886988587875e-01	 1.788092284216381e+01
 1.114285714285715e+00	 0.000000000000000e+00	 1.879838848564476e+01
 1.114056417608724e+00	 2.260423513505383e-02	 1.879462478232484e+01
 1.113361059740891e+00	 4.538506046998994e-02	 1.876182009427438e+01
 1.112188676927899e+00	 6.833008103752287e-02	 1.870022650081058e+01
 1.110528654746372e+00	 9.142625469982567e-02	 1.861031545784938e+01
 1.108370768629771e+00	 1.146598984312962e-01	 1.849278458091730e+01
 1.105705224878725e+00	 1.380166973127252e-01	 1.834856342239319e+01
 1.102522701965398e+00	 1.614817163400944e-01	 1.817881811959722e+01
 1.098814391927371e+00	 1.850394151377125e-01	 1.798495479196665e+01
 1.094572041633340e+00	 2.086736656500927e-01	 1.776862156935881e+01
 1.089787993690832e+00	 2.323677728699406e-01	 1.753170913965886e+01
 1.128571428571429e+00	 0.000000000000000e+00	 1.837370940022228e+01
 1.128339192193451e+00	 2.289403302140067e-02	 1.837129302571238e+01
 1.127634919481159e+00	 4.596692021960519e-02	 1.834141263372085e+01
 1.126447506119282e+00	 6.920610771749112e-02	 1.828441666011399e+01
 1.124766201602095e+00	 9.259838617033624e-02	 1.820085824708707e+01
 1.122580650278870e+00	 1.161298971291334e-01	 1.809150084600024e+01
 1.119880932889991e+00	 1.397861421500678e-01	 1.795732285963223e+01
 1.116657608400852e+00	 1.635519947547110e-01	 1.779952121117488e+01
 1.112901755926440e+00	 1.874117153317858e-01	 1.761951372914717e+01
 1.108605016526075e+00	 2.113489690558632e-01	 1.741894024138791e+01
 1.103759634635586e+00	 2.353468468810937e-01	 1.719966227753481e+01
 1.142857142857143e+00	 0.000000000000000e+00	 1.796987702838659e+01
 1.142621966778179e+00	 2.318383090774752e-02	 1.796877935184840e+01
 1.141908779221426e+00	 4.654877996922045e-02	 1.794164966997005e+01
 1.140706335310665e+00	 7.008213439745935e-02	 1.788893138165299e+01
 1.139003748457817e+00	 9.377051764084682e-02	 1.781125882640767e+01
 1.136790531927970e+00	 1.175998958269705e-01	 1.770946176361658e+01
 1.134056640901256e+00	 1.415555869874104e-01	 1.758456893293919e+01
 1.130792514836306e+00	 1.656222731693276e-01	 1.743781059304643e+01
 1.126989119925508e+00	 1.897840155258590e-01	 1.727061993795688e+01
 1.122637991418810e+00	 2.140242724616336e-01	 1.708463329441181e+01
 1.117731275580340e+00	 2.383259208922468e-01	 1.688168901011225e+01
 9.780148661327976e-01	 2.085351807807159e-01	 2.110287802848320e+01
 9.732290496522831e-01	 2.298373705751832e-01	 2.062534039292884e+01
 9.679450980693772e-01	 2.511618743429501e-01	 2.010318536118320e+01
 9.621579570512621e-01	 2.724923222458603e-01	 1.953875881760769e+01
 9.558632461069742e-01	 2.938119377115879e-01	 1.893478041845740e+01
 9.490572903155012e-01	 3.151035697972945e-01	 1.829434405169123e+01
 9.417371503486140e-01	 3.363497281896808e-01	 1.762091585049747e+01
 9.339006505507231e-01	 3.575326207508009e-01	 1.691832965460961e+01
 9.255464048419428e-01	 3.786341934957203e-01	 1.619077983510500e+01
 9.166738402169075e-01	 3.996361728647543e-01	 1.544281142222085e+01
 9.072832176207859e-01	 4.205201101299123e-01	 1.467930750148308e+01
 9.919865070775523e-01	 2.115142547918691e-01	 2.053179765394975e+01
 9.871323217901729e-01	 2.331207615834001e-01	 2.008820516140802e+01
 9.817728851846540e-01	 2.547499011192779e-01	 1.960245133785208e+01
 9.759030707234233e-01	 2.763850697065156e-01	 1.907681386114770e+01
 9.695184353370739e-01	 2.980092511074677e-01	 1.851391153170783e+01
 9.626152516057227e-01	 3.196050493658273e-01	 1.791670389393666e+01
 9.551905382107371e-01	 3.411547243066764e-01	 1.728848861787959e+01
 9.472420884157332e-01	 3.626402296186693e-01	 1.663289655149419e+01
 9.387684963396846e-01	 3.840432534028021e-01	 1.595388437420186e+01
 9.297691807914344e-01	 4.053452610485364e-01	 1.525572480455175e+01
 9.202444064439402e-01	 4.265275402746255e-01	 1.454299433862127e+01
 1.005958148022306e+00	 2.144933288030221e-01	 2.000474077821965e+01
 1.001035593928062e+00	 2.364041525916170e-01	 1.959287173288668e+01
 9.956006722999308e-01	 2.583379278956057e-01	 1.914110545932434e+01
 9.896481843955840e-01	 2.802778171671708e-01	 1.865165608033319e+01
 9.831736245671735e-01	 3.022065645033475e-01	 1.812704809071766e+01
 9.761732128959438e-01	 3.241065289343600e-01	 1.757011518913505e+01
 9.686439260728597e-01	 3.459597204236716e-01	 1.698399706452716e+01
 9.605835262807438e-01	 3.677478384865382e-01	 1.637213406300537e+01
 9.519905878374270e-01	 3.894523133098838e-01	 1.573825968004638e+01
 9.428645213659619e-01	 4.110543492323185e-01	 1.508639084348954e+01
 9.332055952670942e-01	 4.325349704193383e-01	 1.442081597479284e+01
 1.019929788967060e+00	 2.174724028141751e-01	 1.951722222599180e+01
 1.014938866065952e+00	 2.396875435998339e-01	 1.913497394098843e+01
 1.009428459415208e+00	 2.619259546719336e-01	 1.871491515578922e+01
 1.003393298067745e+00	 2.841705646278258e-01	 1.825920101238365e+01
 9.968288137972734e-01	 3.064038778992275e-01	 1.777026811415618e+01
 9.897311741861657e-01	 3.286080085028928e-01	 1.725083261530923e+01
 9.820973139349831e-01	 3.507647165406672e-01	 1.670388644736536e+01
 9.739249641457540e-01	 3.728554473544068e-01	 1.613269162321701e+01
 9.652126793351687e-01	 3.948613732169654e-01	 1.554077257703871e+01
 9.559598619404892e-01	 4.167634374161008e-01	 1.493190651759968e+01
 9.461667840902481e-01	 4.385424005640514e-01	 1.431011179280237e+01
 1.033901429911815e+00	 2.204514768253283e-01	 1.906499733539392e+01
 1.028842138203842e+00	 2.429709346080507e-01	 1.871038035468708e+01
 1.023256246530484e+00	 2.655139814482615e-01	 1.831987600191706e+01
 1.017138411739905e+00	 2.880633120884808e-01	 1.789558493738061e+01
 1.010484003027373e+00	 3.106011912951073e-01	 1.743986215681081e+01
 1.003289135476387e+00	 3.331094880714255e-01	 1.695531438402060e+01
 9.955507017971060e-01	 3.555697126576626e-01	 1.644479577145277e+01
 9.872664020107647e-01	 3.779630562222753e-01	 1.591140186287208e+01
 9.784347708329104e-01	 4.002704331240472e-01	 1.535846178925686e+01
 9.690552025150165e-01	 4.224725255998831e-01	 1.478952868689450e+01
 9.591279729134023e-01	 4.445498307087645e-01	 1.420836834543226e+01
 1.047873070856569e+00	 2.234305508364814e-01	 1.864404617390774e+01
 1.042745410341732e+00	 2.462543256162677e-01	 1.831517889388345e+01
 1.037084033645761e+00	 2.691020082245894e-01	 1.795219678426857e+01
 1.030883525412067e+00	 2.919560595491361e-01	 1.755715044961260e+01
 1.024139192257473e+00	 3.147985046909870e-01	 1.713231943667766e+01
 1.016847096766608e+00	 3.376109676399583e-01	 1.668020897449890e+01
 1.009004089659229e+00	 3.603747087746580e-01	 1.620354518169995e+01
 1.000607839875775e+00	 3.830706650901438e-01	 1.570526870826085e+01
 9.916568623306528e-01	 4.056794930311289e-01	 1.518852679485233e+01
 9.821505430895439e-01	 4.281816137836654e-01	 1.465666374964890e+01
 9.720891617365564e-01	 4.505572608534776e-01	 1.411320985988728e+01
 1.061844711801323e+00	 2.264096248476345e-01	 1.825055899782182e+01
 1.056648682479622e+00	 2.495377166244846e-01	 1.794566265644277e+01
 1.050911820761038e+00	 2.726900350009171e-01	 1.760828574394421e+01
 1.044628639084228e+00	 2.958488070097914e-01	 1.724043316379762e+01
 1.037794381487572e+00	 3.189958180868669e-01	 1.684431505245372e+01
 1.030405058056830e+00	 3.421124472084912e-01	 1.642234290963123e+01
 1.022457477521352e+00	 3.651797048916534e-01	 1.597712434390216e+01
 1.013949277740785e+00	 3.881782739580125e-01	 1.551145641295160e+01
 1.004878953828395e+00	 4.110885529382107e-01	 1.502831755301957e+01
 9.952458836640706e-01	 4.338907019674473e-01	 1.453085810781802e+01
 9.850503505597105e-01	 4.565646909981905e-01	 1.402238948331720e+01
 1.075816352746078e+00	 2.293886988587875e-01	 1.788092284216381e+01
 1.070551954617511e+00	 2.528211076327014e-01	 1.759831684656034e+01
 1.064739607876315e+00	 2.762780617772450e-01	 1.728473788763476e+01
 1.058373752756388e+00	 2.997415544704464e-01	 1.694214945301404e+01
 1.051449570717672e+00	 3.231931314827468e-01	 1.657269819230418e+01
 1.043963019347051e+00	 3.466139267770240e-01	 1.617870947909550e+01
 1.035910865383475e+00	 3.699847010086489e-01	 1.576268172514926e+01
 1.027290715605796e+00	 3.932858828258811e-01	 1.532727943756800e+01
 1.018101045326137e+00	 4.164976128452925e-01	 1.487532502421444e+01
 1.008341224238598e+00	 4.395997901512296e-01	 1.440978936754837e+01
 9.980115393828648e-01	 4.625721211429035e-01	 1.393378120204689e+01
 1.089787993690832e+00	 2.323677728699406e-01	 1.753170913965886e+01
 1.084455226755401e+00	 2.561044986409184e-01	 1.726980670561782e+01
 1.078567394991592e+00	 2.798660885535729e-01	 1.697832327119018e+01
 1.072118866428549e+00	 3.036343019311015e-01	 1.665918512574900e+01
 1.065104759947771e+00	 3.273904448786266e-01	 1.631448124494357e+01
 1.057520980637273e+00	 3.511154063455566e-01	 1.594645832463876e+01
 1.049364253245598e+00	 3.747896971256443e-01	 1.555751469289868e+01
 1.040632153470806e+00	 3.983934916937497e-01	 1.515019310150689e+01
 1.031323136823879e+00	 4.219066727523740e-01	 1.472717241243231e+01
 1.021436564813125e+00	 4.453088783350118e-01	 1.429125820881212e+01
 1.010972728206019e+00	 4.685795512876166e-01	 1.384537237405308e+01
 1.103759634635586e+00	 2.353468468810937e-01	 1.719966227753481e+01
 1.098358498893291e+00	 2.593878896491353e-01	 1.695696635670252e+01
 1.092395182106869e+00	 2.834541153299008e-01	 1.668597616953462e+01
 1.085863980100710e+00	 3.075270493917566e-01	 1.638858495885290e+01
 1.078759949177871e+00	 3.315877582745065e-01	 1.606682973307941e+01
 1.071078941927494e+00	 3.556168859140896e-01	 1.572288581110726e+01
 1.062817641107721e+00	 3.795946932426398e-01	 1.535906036017234e+01
 1.053973591335816e+00	 4.035011005616184e-01	 1.497778493819619e+01
 1.044545228321621e+00	 4.273157326594558e-01	 1.458160706556642e+01
 1.034531905387653e+00	 4.510179665187942e-01	 1.417318086487512e+01
 1.023933917029173e+00	 4.745869814323296e-01	 1.375525682034935e+01
 1.117731275580340e+00	 2.383259208922468e-01	 1.688168901011225e+01
 1.112261771031181e+00	 2.626712806573522e-01	 1.665678848284355e+01
 1.106222969222145e+00	 2.870421421062286e-01	 1.640478505537201e+01
 1.099609093772871e+00	 3.114197968524118e-01	 1.612754301150702e+01
 1.092415138407971e+00	 3.357850716703862e-01	 1.582705299726138e+01
 1.084636903217716e+00	 3.601183654826223e-01	 1.550542611447530e+01
 1.076271028969845e+00	 3.843996893596351e-01	 1.516488711159088e+01
 1.067315029200826e+00	 4.086087094294868e-01	 1.480776669233368e+01
 1.057767319819363e+00	 4.327247925665375e-01	 1.443649297626374e+01
 1.047627245962180e+00	 4.567270547025762e-01	 1.405358215823826e+01
 1.036895105852327e+00	 4.805944115770426e-01	 1.366162842637520e+01
 9.072832176207859e-01	 4.205201101299123e-01	 1.467930750148308e+01
 8.973756499953728e-01	 4.412674277525846e-01	 1.390354834224180e+01
 8.869531173021131e-01	 4.618594674877455e-01	 1.311790978764686e+01
 8.760184783453765e-01	 4.822775400093309e-01	 1.232620467583882e+01
 8.645754792381196e-01	 5.025029758122590e-01	 1.153229071087376e+01
 8.526287583731883e-01	 5.225171771291306e-01	 1.074005662051043e+01
 8.401838477866392e-01	 5.423016705842215e-01	 9.953408047211287e+00
 8.272471708245099e-01	 5.618381602942648e-01	 9.176253262516290e+00
 8.138260360510750e-01	 5.811085811149189e-01	 8.412488795245917e+00
 7.999286273645809e-01	 6.000951517239724e-01	 7.665985063004843e+00
 7.855639903154131e-01	 6.187804272274013e-01	 6.940572094300741e+00
 9.202444064439402e-01	 4.265275402746255e-01	 1.454299433862127e+01
 9.101953021381637e-01	 4.475712481490501e-01	 1.381797820212739e+01
 8.996238761207145e-01	 4.684574598804274e-01	 1.308216710584333e+01
 8.885330280360242e-01	 4.891672191523212e-01	 1.233920049556603e+01
 8.769265575129500e-01	 5.096815897524344e-01	 1.159275466889932e+01
 8.648091692070913e-01	 5.299817082309753e-01	 1.084652948591125e+01
 8.521864741835914e-01	 5.500488373068533e-01	 1.010423489255516e+01
 8.390649875505746e-01	 5.698644197270401e-01	 9.369577344895379e+00
 8.254521222803762e-01	 5.894101322737036e-01	 8.646246221273065e+00
 8.113561791840751e-01	 6.086679396057434e-01	 7.937900307319022e+00
 7.967863330342053e-01	 6.276201476163644e-01	 7.248154435295507e+00
 9.332055952670942e-01	 4.325349704193383e-01	 1.442081597479284e+01
 9.230149542809548e-01	 4.538750685455157e-01	 1.374291101704782e+01
 9.122946349393168e-01	 4.750554522731097e-01	 1.305335916796179e+01
 9.010475777266729e-01	 4.960568982953117e-01	 1.235563457514148e+01
 8.892776357877804e-01	 5.168602036926095e-01	 1.165324063345984e+01
 8.769895800409937e-01	 5.374462393328199e-01	 1.094969723176420e+01
 8.641891005805434e-01	 5.577960040294851e-01	 1.024852788894180e+01
 8.508828042766388e-01	 5.778906791598153e-01	 9.553246865409486e+00
 8.370782085096772e-01	 5.977116834324880e-01	 8.867346334006468e+00
 8.227837310035692e-01	 6.172407274875147e-01	 8.194283690792970e+00
 8.080086757529962e-01	 6.364598680053269e-01	 7.537469081575201e+00
 9.461667840902481e-01	 4.385424005640514e-01	 1.431011179280237e+01
 9.358346064237457e-01	 4.601788889419810e-01	 1.367593530087016e+01
 9.249653937579178e-01	 4.816534446657916e-01	 1.302932515461724e+01
 9.135621274173210e-01	 5.029465774383023e-01	 1.237359822329786e+01
 9.016287140626106e-01	 5.240388176327846e-01	 1.171209341419805e+01
 8.891699908748966e-01	 5.449107704346647e-01	 1.104815943832060e+01
 8.761917269774953e-01	 5.655431707521167e-01	 1.038514253919361e+01
 8.627006210027034e-01	 5.859169385925905e-01	 9.726374269066190e+00
 8.487042947389785e-01	 6.060132345912725e-01	 9.075159393479577e+00
 8.342112828230631e-01	 6.258135153692855e-01	 8.434764000493955e+00
 8.192310184717879e-01	 6.452995883942898e-01	 7.808403884903971e+00
 9.591279729134023e-01	 4.445498307087645e-01	 1.420836834543226e+01
 9.486542585665368e-01	 4.664827093384465e-01	 1.361477363169990e+01
 9.376361525765197e-01	 4.882514370584738e-01	 1.300802509179436e+01
 9.260766771079689e-01	 5.098362565812926e-01	 1.239129026677049e+01
 9.139797923374405e-01	 5.312174315729594e-01	 1.176775190831434e+01
 9.013504017087993e-01	 5.523753015365095e-01	 1.114059624603534e+01
 8.881943533744474e-01	 5.732903374747486e-01	 1.051300128895554e+01
 8.745184377287680e-01	 5.939431980253658e-01	 9.888125243833981e+00
 8.603303809682793e-01	 6.143147857500572e-01	 9.269095128515357e+00
 8.456388346425568e-01	 6.343863032510562e-01	 8.658995652549256e+00
 8.304533611905800e-01	 6.541393087832528e-01	 8.060858430102689e+00
 9.720891617365564e-01	 4.505572608534776e-01	 1.411320985988728e+01
 9.614739107093283e-01	 4.727865297349121e-01	 1.355727402940805e+01
 9.503069113951214e-01	 4.948494294511560e-01	 1.298753210834770e+01
 9.385912267986175e-01	 5.167259357242833e-01	 1.240701019452479e+01
 9.263308706122714e-01	 5.383960455131348e-01	 1.181874313807942e+01
 9.135308125427016e-01	 5.598398326383540e-01	 1.122576329266921e+01
 9.001969797713993e-01	 5.810375041973801e-01	 1.063108936937112e+01
 8.863362544548321e-01	 6.019694574581410e-01	 1.003771547449843e+01
 8.719564671975805e-01	 6.226163369088416e-01	 9.448600406929552e+00
 8.570663864620512e-01	 6.429590911328277e-01	 8.866657283358485e+00
 8.416757039093712e-01	 6.629790291722155e-01	 8.294743551373260e+00
 9.850503505597105e-01	 4.565646909981905e-01	 1.402238948331720e+01
 9.742935628521189e-01	 4.790903501313776e-01	 1.350140200472740e+01
 9.629776702137229e-01	 5.014474218438381e-01	 1.296602529504581e+01
 9.511057764892659e-01	 5.236156148672736e-01	 1.241915183300580e+01
 9.386819488871013e-01	 5.455746594533097e-01	 1.186367674837326e+01
 9.257112233766045e-01	 5.673043637401989e-01	 1.130248703897027e+01
 9.121996061683509e-01	 5.887846709200116e-01	 1.073845095647301e+01
 8.981540711808966e-01	 6.099957168909160e-01	 1.017440764098360e+01
 8.835825534268819e-01	 6.309178880676264e-01	 9.613157077599562e+00
 8.684939382815452e-01	 6.515318790145984e-01	 9.057450439770541e+00
 8.528980466281629e-01	 6.718187495611785e-01	 8.509980874429358e+00
 9.980115393828648e-01	 4.625721211429035e-01	 1.393378120204689e+01
 9.871132149949101e-01	 4.853941705278430e-01	 1.344523321886429e+01
 9.756484290323246e-01	 5.080454142365202e-01	 1.294178311047327e+01
 9.636203261799139e-01	 5.305052940102640e-01	 1.242619750413577e+01
 9.510330271619318e-01	 5.527532733934850e-01	 1.190123992242990e+01
 9.378916342105076e-01	 5.747688948420437e-01	 1.136966044761053e+01
 9.242022325653033e-01	 5.965318376426435e-01	 1.083418561849637e+01
 9.099718879069612e-01	 6.180219763236915e-01	 1.029750863891218e+01
 8.952086396561829e-01	 6.392194392264111e-01	 9.762279968776282e+00
 8.799214901010391e-01	 6.601046668963694e-01	 9.231098359229957e+00
 8.641203893469546e-01	 6.806584699501413e-01	 8.706502382086896e+00
 1.010972728206019e+00	 4.685795512876166e-01	 1.384537237405308e+01
 9.999328671377011e-01	 4.916979909243085e-01	 1.338694669883696e+01
 9.883191878509261e-01	 5.146434066292022e-01	 1.291317728471344e+01
 9.761348758705620e-01	 5.373949731532545e-01	 1.242671262273572e+01
 9.633841054367618e-01	 5.599318873336601e-01	 1.193019267825598e+01
 9.500720450444099e-01	 5.822334259438883e-01	 1.142623898367479e+01
 9.362048589622556e-01	 6.042790043652755e-01	 1.091744502527526e+01
 9.217897046330253e-01	 6.260482357564664e-01	 1.040636700246206e+01
 9.068347258854836e-01	 6.475209903851954e-01	 9.895515028616659e+00
 8.913490419205331e-01	 6.686774547781408e-01	 9.387344831816948e+00
 8.753427320657464e-01	 6.894981903391044e-01	 8.884250001209301e+00
 1.023933917029173e+00	 4.745869814323296e-01	 1.375525682034935e+01
 1.012752519280492e+00	 4.980018113207742e-01	 1.332481855929871e+01
 1.000989946669528e+00	 5.212413990218843e-01	 1.287866717670475e+01
 9.886494255612103e-01	 5.442846522962448e-01	 1.241934069443495e+01
 9.757351837115925e-01	 5.671105012738353e-01	 1.194936351199362e+01
 9.622524558783128e-01	 5.896979570457329e-01	 1.147123690820990e+01
 9.482074853592071e-01	 6.120261710879070e-01	 1.098742989649976e+01
 9.336075213590898e-01	 6.340744951892416e-01	 1.050037051159300e+01
 9.184608121147848e-01	 6.558225415439799e-01	 1.001243759533555e+01
 9.027765937400271e-01	 6.772502426599116e-01	 9.525953136925725e+00
 8.865650747845378e-01	 6.983379107280673e-01	 9.043175209115082e+00
 1.036895105852327e+00	 4.805944115770426e-01	 1.366162842637520e+01
 1.025572171423283e+00	 5.043056317172395e-01	 1.325721618652839e+01
 1.013660705488129e+00	 5.278393914145663e-01	 1.283679454557446e+01
 1.001163975251858e+00	 5.511743314392351e-01	 1.240279867902614e+01
 9.880862619864225e-01	 5.742891152140104e-01	 1.195764535786864e+01
 9.744328667122153e-01	 5.971624881475778e-01	 1.150372383919129e+01
 9.602101117561592e-01	 6.197733378105390e-01	 1.104338716793348e+01
 9.454253380851545e-01	 6.421007546220170e-01	 1.057894396751163e+01
 9.300868983440859e-01	 6.641240927027645e-01	 1.011265078563433e+01
 9.142041455595213e-01	 6.858230305416827e-01	 9.646705048049890e+00
 8.977874175033295e-01	 7.071776311170301e-01	 9.183238657744852e+00
 7.855639903154131e-01	 6.187804272274013e-01	 6.940572094300741e+00
 7.707420146512741e-01	 6.371473509725164e-01	 6.241911501953397e+00
 7.554734131438946e-01	 6.551793052536952e-01	 5.574544864748590e+00
 7.397696967816780e-01	 6.728601606006588e-01	 4.940313220084696e+00
 7.236431464421306e-01	 6.901743233468870e-01	 4.340696707927537e+00
 7.071067811865475e-01	 7.071067811865477e-01	 3.776816016098685e+00
 6.901743233468870e-01	 7.236431464421306e-01	 3.249436524096658e+00
 6.728601606006588e-01	 7.397696967816780e-01	 2.758975053214778e+00
 6.551793052536952e-01	 7.554734131438944e-01	 2.305509101856809e+00
 6.371473509725165e-01	 7.707420146512741e-01	 1.888788418952016e+00
 6.187804272274013e-01	 7.855639903154132e-01	 1.508248745670470e+00
 7.967863330342053e-01	 6.276201476163644e-01	 7.248154435295507e+00
 7.817526148605780e-01	 6.462494559864095e-01	 6.581675389178584e+00
 7.662658904745219e-01	 6.645390096144622e-01	 5.942162431674237e+00
 7.503378353071305e-01	 6.824724486092393e-01	 5.331493236379927e+00
 7.339809056770183e-01	 7.000339565375566e-01	 4.751217677534226e+00
 7.172083066320697e-01	 7.172083066320697e-01	 4.202558507863041e+00
 7.000339565375567e-01	 7.339809056770181e-01	 3.686414485397916e+00
 6.824724486092392e-01	 7.503378353071304e-01	 3.203365863935510e+00
 6.645390096144623e-01	 7.662658904745214e-01	 2.753682135588063e+00
 6.462494559864097e-01	 7.817526148605780e-01	 2.337331890476886e+00
 6.276201476163644e-01	 7.967863330342052e-01	 1.953994638447766e+00
 8.080086757529962e-01	 6.364598680053269e-01	 7.537469081575201e+00
 7.927632150698822e-01	 6.553515610003027e-01	 6.900686769638822e+00
 7.770583678051488e-01	 6.738987139752293e-01	 6.286893204487857e+00
 7.609059738325832e-01	 6.920847366178207e-01	 5.697992322692031e+00
 7.443186649119058e-01	 7.098935897282264e-01	 5.135590955881815e+00
 7.273098320775917e-01	 7.273098320775919e-01	 4.600998846283323e+00
 7.098935897282265e-01	 7.443186649119057e-01	 4.095230879263216e+00
 6.920847366178207e-01	 7.609059738325831e-01	 3.619011453121314e+00
 6.738987139752293e-01	 7.770583678051486e-01	 3.172780882576606e+00
 6.553515610003030e-01	 7.927632150698820e-01	 2.756703711423580e+00
 6.364598680053271e-01	 8.080086757529963e-01	 2.370678792027709e+00
 8.192310184717879e-01	 6.452995883942898e-01	 7.808403884903971e+00
 8.037738152791861e-01	 6.644536660141954e-01	 7.199083379365127e+00
 7.878508451357759e-01	 6.832584183359962e-01	 6.609106405824424e+00
 7.714741123580358e-01	 7.016970246264014e-01	 6.040393414189211e+00
 7.546564241467932e-01	 7.197532229188962e-01	 5.494596113577730e+00
 7.374113575231138e-01	 7.374113575231138e-01	 4.973096928135011e+00
 7.197532229188964e-01	 7.546564241467931e-01	 4.477010455117182e+00
 7.016970246264013e-01	 7.714741123580355e-01	 4.007186849714442e+00
 6.832584183359962e-01	 7.878508451357754e-01	 3.564217039522925e+00
 6.644536660141959e-01	 8.037738152791861e-01	 3.148439652845548e+00
 6.452995883942900e-01	 8.192310184717879e-01	 2.759949529426700e+00
 8.304533611905800e-01	 6.541393087832528e-01	 8.060858430102689e+00
 8.147844154884897e-01	 6.735557710280885e-01	 7.477001260134352e+00
 7.986433224664029e-01	 6.926181226967634e-01	 6.909157103149111e+00
 7.820422508834883e-01	 7.113093126349818e-01	 6.359253761947098e+00
 7.649941833816813e-01	 7.296128561095663e-01	 5.828976401698794e+00
 7.475128829686359e-01	 7.475128829686359e-01	 5.319766546278907e+00
 7.296128561095661e-01	 7.649941833816811e-01	 4.832822878990841e+00
 7.113093126349821e-01	 7.820422508834880e-01	 4.369103775063378e+00
 6.926181226967637e-01	 7.986433224664027e-01	 3.929331473768043e+00
 6.735557710280889e-01	 8.147844154884898e-01	 3.513997781336374e+00
 6.541393087832528e-01	 8.304533611905799e-01	 3.123371182370168e+00
 8.416757039093712e-01	 6.629790291722155e-01	 8.294743551373260e+00
 8.257950156977942e-01	 6.826578760419820e-01	 7.734575170044061e+00
 8.094357997970297e-01	 7.019778270575303e-01	 7.187387449549341e+00
 7.926103894089407e-01	 7.209216006435628e-01	 6.655106942201662e+00
 7.753319426165687e-01	 7.394724893002361e-01	 6.139441470276231e+00
 7.576144084141579e-01	 7.576144084141581e-01	 5.641878760912814e+00
 7.394724893002359e-01	 7.753319426165685e-01	 5.163686704067641e+00
 7.209216006435631e-01	 7.926103894089409e-01	 4.705915162497083e+00
 7.019778270575305e-01	 8.094357997970296e-01	 4.269399245039120e+00
 6.826578760419821e-01	 8.257950156977940e-01	 3.854763939677397e+00
 6.629790291722157e-01	 8.416757039093714e-01	 3.462429991329163e+00
 8.528980466281629e-01	 6.718187495611785e-01	 8.509980874429358e+00
 8.368056159070980e-01	 6.917599810558749e-01	 7.971938949238774e+00
 8.202282771276569e-01	 7.113375314182975e-01	 7.444127814146545e+00
 8.031785279343934e-01	 7.305338886521437e-01	 6.928464694631453e+00
 7.856697018514562e-01	 7.493321224909059e-01	 6.426669859959418e+00
 7.677159338596803e-01	 7.677159338596803e-01	 5.940264992673375e+00
 7.493321224909059e-01	 7.856697018514558e-01	 5.470573016034104e+00
 7.305338886521437e-01	 8.031785279343933e-01	 5.018719308685120e+00
 7.113375314182977e-01	 8.202282771276568e-01	 4.585634219711266e+00
 6.917599810558752e-01	 8.368056159070977e-01	 4.172056784194412e+00
 6.718187495611787e-01	 8.528980466281628e-01	 3.778539529625229e+00
 8.641203893469546e-01	 6.806584699501413e-01	 8.706502382086896e+00
 8.478162161164017e-01	 7.008620860697679e-01	 8.189225844863582e+00
 8.310207544582839e-01	 7.206972357790647e-01	 7.679697812158674e+00
 8.137466664598459e-01	 7.401461766607245e-01	 7.179818605208902e+00
 7.960074610863438e-01	 7.591917556815756e-01	 6.691311287478442e+00
 7.778174593052023e-01	 7.778174593052023e-01	 6.215719862876718e+00
 7.591917556815757e-01	 7.960074610863437e-01	 5.754408782800695e+00
 7.401461766607246e-01	 8.137466664598457e-01	 5.308563690257305e+00
 7.206972357790647e-01	 8.310207544582839e-01	 4.879193314629656e+00
 7.008620860697682e-01	 8.478162161164016e-01	 4.467132419126987e+00
 6.806584699501415e-01	 8.641203893469546e-01	 4.073045694868337e+00
 8.753427320657464e-01	 6.894981903391044e-01	 8.884250001209301e+00
 8.588268163257057e-01	 7.099641910836612e-01	 8.386568798904289e+00
 8.418132317889112e-01	 7.300569401398317e-01	 7.894407243621067e+00
 8.243148049852986e-01	 7.497584646693054e-01	 7.409641647571646e+00
 8.063452203212312e-01	 7.690513888722454e-01	 6.933988743411060e+00
 7.879189847507241e-01	 7.879189847507243e-01	 6.469003803589164e+00
 7.690513888722454e-01	 8.063452203212313e-01	 6.016079935122677e+00
 7.497584646693055e-01	 8.243148049852983e-01	 5.576448475723978e+00
 7.300569401398317e-01	 8.418132317889109e-01	 5.151180403737439e+00
 7.099641910836613e-01	 8.588268163257055e-01	 4.741188664172593e+00
 6.894981903391043e-01	 8.753427320657461e-01	 4.347231306557640e+00
 8.865650747845378e-01	 6.983379107280673e-01	 9.043175209115082e+00
 8.698374165350096e-01	 7.190662960975541e-01	 8.564100702202547e+00
 8.526057091195379e-01	 7.394166445005986e-01	 8.088556948859129e+00
 8.348829435107509e-01	 7.593707526778862e-01	 7.618389595448255e+00
 8.166829795561187e-01	 7.789110220629153e-01	 7.155300418884986e+00
 7.980205101962464e-01	 7.980205101962464e-01	 6.700845457923580e+00
 7.789110220629154e-01	 8.166829795561189e-01	 6.256434201964931e+00
 7.593707526778863e-01	 8.348829435107509e-01	 5.823329759695883e+00
 7.394166445005989e-01	 8.526057091195380e-01	 5.402649917387286e+00
 7.190662960975543e-01	 8.698374165350092e-01	 4.995368987710521e+00
 6.983379107280674e-01	 8.865650747845379e-01	 4.602320344741652e+00
 8.977874175033295e-01	 7.071776311170301e-01	 9.183238657744852e+00
 8.808480167443135e-01	 7.281684011114473e-01	 8.721954617606162e+00
 8.633981864501654e-01	 7.487763488613658e-01	 8.262439587996129e+00
 8.454510820362036e-01	 7.689830406864669e-01	 7.806502317422892e+00
 8.270207387910065e-01	 7.887706552535849e-01	 7.355821476183682e+00
 8.081220356417685e-01	 8.081220356417687e-01	 6.911943888915625e+00
 7.887706552535849e-01	 8.270207387910065e-01	 6.476283722071742e+00
 7.689830406864671e-01	 8.454510820362033e-01	 6.050122543701173e+00
 7.487763488613659e-01	 8.633981864501649e-01	 5.634610161226217e+00
 7.281684011114475e-01	 8.808480167443136e-01	 5.230766134958341e+00
 7.071776311170301e-01	 8.977874175033295e-01	 4.839481861145632e+00
 6.187804272274013e-01	 7.855639903154132e-01	 1.508248745670474e+00
 6.000951517239723e-01	 7.999286273645809e-01	 1.165052334095043e+00
 5.811085811149190e-01	 8.138260360510750e-01	 8.604847253328135e-01
 5.618381602942650e-01	 8.272471708245098e-01	 5.936341013673027e-01
 5.423016705842216e-01	 8.401838477866392e-01	 3.631946242944347e-01
 5.225171771291308e-01	 8.526287583731881e-01	 1.674862655065490e-01
 5.025029758122596e-01	 8.645754792381194e-01	 4.476788931138457e-03
 4.822775400093313e-01	 8.760184783453757e-01	-1.281943529269350e-01
 4.618594674877461e-01	 8.869531173021130e-01	-2.331904589887525e-01
 4.412674277525853e-01	 8.973756499953723e-01	-3.134506088031178e-01
 4.205201101299122e-01	 9.072832176207859e-01	-3.721615354179982e-01
 6.276201476163644e-01	 7.967863330342052e-01	 1.953994638447770e+00
 6.086679396057432e-01	 8.113561791840751e-01	 1.604686657607870e+00
 5.894101322737035e-01	 8.254521222803761e-01	 1.290524920464564e+00
 5.698644197270403e-01	 8.390649875505743e-01	 1.010851223163550e+00
 5.500488373068533e-01	 8.521864741835907e-01	 7.646464426388498e-01
 5.299817082309758e-01	 8.648091692070909e-01	 5.505477287440573e-01
 5.096815897524345e-01	 8.769265575129495e-01	 3.668676390153697e-01
 4.891672191523216e-01	 8.885330280360237e-01	 2.116150055061400e-01
 4.684574598804281e-01	 8.996238761207147e-01	 8.251731751524721e-02
 4.475712481490506e-01	 9.101953021381631e-01	-2.295559881793929e-02
 4.265275402746253e-01	 9.202444064439400e-01	-1.075668234164080e-01
 6.364598680053271e-01	 8.080086757529963e-01	 2.370678792027713e+00
 6.172407274875147e-01	 8.227837310035692e-01	 2.015603099453674e+00
 5.977116834324880e-01	 8.370782085096770e-01	 1.692455086035506e+00
 5.778906791598154e-01	 8.508828042766388e-01	 1.400808224664076e+00
 5.577960040294853e-01	 8.641891005805433e-01	 1.139906261307006e+00
 5.374462393328204e-01	 8.769895800409937e-01	 9.086779506118555e-01
 5.168602036926098e-01	 8.892776357877800e-01	 7.057535304450082e-01
 4.960568982953122e-01	 9.010475777266724e-01	 5.294827535503217e-01
 4.750554522731102e-01	 9.122946349393162e-01	 3.779542908775100e-01
 4.538750685455162e-01	 9.230149542809546e-01	 2.490163198174863e-01
 4.325349704193384e-01	 9.332055952670942e-01	 1.402981112766692e-01
 6.452995883942900e-01	 8.192310184717879e-01	 2.759949529426700e+00
 6.258135153692855e-01	 8.342112828230631e-01	 2.399548173748236e+00
 6.060132345912727e-01	 8.487042947389785e-01	 2.068102583732520e+00
 5.859169385925908e-01	 8.627006210027035e-01	 1.765396918766270e+00
 5.655431707521168e-01	 8.761917269774949e-01	 1.490914965702083e+00
 5.449107704346651e-01	 8.891699908748966e-01	 1.243852593361234e+00
 5.240388176327850e-01	 9.016287140626105e-01	 1.023131749593216e+00
 5.029465774383027e-01	 9.135621274173205e-01	 8.274158459018623e-01
 4.816534446657922e-01	 9.249653937579175e-01	 6.551263730315093e-01
 4.601788889419818e-01	 9.358346064237452e-01	 5.044605911861199e-01
 4.385424005640514e-01	 9.461667840902485e-01	 3.734101403663012e-01
 6.541393087832528e-01	 8.304533611905799e-01	 3.123371182370168e+00
 6.343863032510563e-01	 8.456388346425566e-01	 2.758178857975505e+00
 6.143147857500574e-01	 8.603303809682793e-01	 2.419200596140923e+00
 5.939431980253658e-01	 8.745184377287676e-01	 2.106411149052635e+00
 5.732903374747487e-01	 8.881943533744471e-01	 1.819512480013808e+00
 5.523753015365097e-01	 9.013504017087989e-01	 1.557944107501104e+00
 5.312174315729599e-01	 9.139797923374404e-01	 1.320894802317475e+00
 5.098362565812931e-01	 9.260766771079687e-01	 1.107315507786858e+00
 4.882514370584744e-01	 9.376361525765194e-01	 9.159333533865174e-01
 4.664827093384472e-01	 9.486542585665366e-01	 7.452666341437260e-01
 4.445498307087645e-01	 9.591279729134023e-01	 5.936406311447942e-01
 6.629790291722157e-01	 8.416757039093714e-01	 3.462429991329164e+00
 6.429590911328275e-01	 8.570663864620515e-01	 3.093068862550527e+00
 6.226163369088418e-01	 8.719564671975804e-01	 2.747394705071777e+00
 6.019694574581412e-01	 8.863362544548321e-01	 2.425553619360449e+00
 5.810375041973804e-01	 9.001969797713991e-01	 2.127444793976283e+00
 5.598398326383544e-01	 9.135308125427015e-01	 1.852728905374715e+00
 5.383960455131351e-01	 9.263308706122709e-01	 1.600837687863183e+00
 5.167259357242835e-01	 9.385912267986172e-01	 1.370984566746757e+00
 4.948494294511565e-01	 9.503069113951210e-01	 1.162176250252948e+00
 4.727865297349128e-01	 9.614739107093278e-01	 9.732251794784398e-01
 4.505572608534776e-01	 9.720891617365568e-01	 8.027627399256134e-01
 6.718187495611787e-01	 8.528980466281628e-01	 3.778539529625228e+00
 6.515318790145984e-01	 8.684939382815452e-01	 3.405714395778076e+00
 6.309178880676263e-01	 8.835825534268814e-01	 3.054248941439597e+00
 6.099957168909163e-01	 8.981540711808964e-01	 2.724442175618797e+00
 5.887846709200121e-01	 9.121996061683508e-01	 2.416370426898937e+00
 5.673043637401992e-01	 9.257112233766046e-01	 2.129893961001334e+00
 5.455746594533102e-01	 9.386819488871010e-01	 1.864664591696090e+00
 5.236156148672741e-01	 9.511057764892655e-01	 1.620134199366657e+00
 5.014474218438386e-01	 9.629776702137226e-01	 1.395564076237592e+00
 4.790903501313784e-01	 9.742935628521187e-01	 1.190035022730091e+00
 4.565646909981904e-01	 9.850503505597107e-01	 1.002458125132336e+00
 6.806584699501415e-01	 8.641203893469546e-01	 4.073045694868338e+00
 6.601046668963694e-01	 8.799214901010390e-01	 3.697539470080079e+00
 6.392194392264108e-01	 8.952086396561826e-01	 3.341251354730002e+00
 6.180219763236915e-01	 9.099718879069610e-01	 3.004615589750342e+00
 5.965318376426438e-01	 9.242022325653031e-01	 2.687866380127839e+00
 5.747688948420439e-01	 9.378916342105070e-01	 2.391042888338927e+00
 5.527532733934855e-01	 9.510330271619314e-01	 2.113995050088992e+00
 5.305052940102644e-01	 9.636203261799136e-01	 1.856390146134906e+00
 5.080454142365207e-01	 9.756484290323243e-01	 1.617720070883475e+00
 4.853941705278438e-01	 9.871132149949097e-01	 1.397309245789105e+00
 4.625721211429035e-01	 9.980115393828650e-01	 1.194323132802749e+00
 6.894981903391043e-01	 8.753427320657461e-01	 4.347231306557640e+00
 6.686774547781408e-01	 8.913490419205331e-01	 3.969900790658600e+00
 6.475209903851953e-01	 9.068347258854836e-01	 3.609819145172622e+00
 6.260482357564667e-01	 9.217897046330255e-01	 3.267538890322461e+00
 6.042790043652757e-01	 9.362048589622552e-01	 2.943433623846911e+00
 5.822334259438887e-01	 9.500720450444098e-01	 2.637701544777637e+00
 5.599318873336604e-01	 9.633841054367617e-01	 2.350369633868882e+00
 5.373949731532549e-01	 9.761348758705619e-01	 2.081298442165097e+00
 5.146434066292028e-01	 9.883191878509255e-01	 1.830187448366160e+00
 4.916979909243093e-01	 9.999328671377006e-01	 1.596580954951166e+00
 4.685795512876165e-01	 1.010972728206019e+00	 1.379874501855746e+00
 6.983379107280674e-01	 8.865650747845379e-01	 4.602320344741652e+00
 6.772502426599116e-01	 9.027765937400271e-01	 4.224092263595274e+00
 6.558225415439801e-01	 9.184608121147849e-01	 3.861303397366161e+00
 6.340744951892421e-01	 9.336075213590899e-01	 3.514608280109290e+00
 6.120261710879074e-01	 9.482074853592071e-01	 3.184502159481069e+00
 5.896979570457334e-01	 9.622524558783121e-01	 2.871323201931076e+00
 5.671105012738356e-01	 9.757351837115920e-01	 2.575255193931309e+00
 5.442846522962453e-01	 9.886494255612098e-01	 2.296330706679179e+00
 5.212413990218850e-01	 1.000989946669527e+00	 2.034434703216881e+00
 4.980018113207747e-01	 1.012752519280492e+00	 1.789308578271155e+00
 4.745869814323296e-01	 1.023933917029173e+00	 1.560554631672398e+00
 7.071776311170301e-01	 8.977874175033295e-01	 4.839481861145632e+00
 6.858230305416826e-01	 9.142041455595212e-01	 4.461349156685435e+00
 6.641240927027647e-01	 9.300868983440858e-01	 4.096993450228046e+00
 6.421007546220172e-01	 9.454253380851544e-01	 3.747155676711014e+00
 6.197733378105391e-01	 9.602101117561590e-01	 3.412435694835008e+00
 5.971624881475781e-01	 9.744328667122151e-01	 3.093293321587353e+00
 5.742891152140108e-01	 9.880862619864224e-01	 2.790049706866344e+00
 5.511743314392359e-01	 1.001163975251858e+00	 2.502889029859829e+00
 5.278393914145669e-01	 1.013660705488129e+00	 2.231860512743418e+00
 5.043056317172403e-01	 1.025572171423283e+00	 1.976880760778955e+00
 4.805944115770426e-01	 1.036895105852327e+00	 1.737736450289104e+00
 4.205201101299122e-01	 9.072832176207859e-01	-3.721615354179979e-01
 3.996361728647542e-01	 9.166738402169073e-01	-4.130933072824533e-01
 3.786341934957204e-01	 9.255464048419428e-01	-4.384672548130546e-01
 3.575326207508011e-01	 9.339006505507231e-01	-4.494628189196784e-01
 3.363497281896810e-01	 9.417371503486138e-01	-4.474458918846325e-01
 3.151035697972948e-01	 9.490572903155010e-01	-4.339553518610979e-01
 2.938119377115883e-01	 9.558632461069742e-01	-4.106886941877272e-01
 2.724923222458608e-01	 9.621579570512618e-01	-3.794868713579949e-01
 2.511618743429507e-01	 9.679450980693770e-01	-3.423184591662363e-01
 2.298373705751838e-01	 9.732290496522829e-01	-3.012632716152313e-01
 2.085351807807160e-01	 9.780148661327976e-01	-2.584955514688927e-01
 4.265275402746253e-01	 9.202444064439400e-01	-1.075668234164042e-01
 4.053452610485362e-01	 9.297691807914344e-01	-1.746415036476416e-01
 3.840432534028021e-01	 9.387684963396845e-01	-2.261311791280943e-01
 3.626402296186697e-01	 9.472420884157334e-01	-2.630380748352013e-01
 3.411547243066765e-01	 9.551905382107367e-01	-2.865425483248281e-01
 3.196050493658277e-01	 9.626152516057228e-01	-2.979913106472905e-01
 2.980092511074681e-01	 9.695184353370739e-01	-2.988847409385265e-01
 2.763850697065161e-01	 9.759030707234229e-01	-2.908633870746591e-01
 2.547499011192784e-01	 9.817728851846537e-01	-2.756937515868980e-01
 2.331207615834007e-01	 9.871323217901723e-01	-2.552534685045700e-01
 2.115142547918692e-01	 9.919865070775520e-01	-2.315159827373972e-01
 4.325349704193384e-01	 9.332055952670942e-01	 1.402981112766657e-01
 4.110543492323185e-01	 9.428645213659618e-01	 4.888896288940758e-02
 3.894523133098839e-01	 9.519905878374271e-01	-2.691048525405049e-02
 3.677478384865385e-01	 9.605835262807438e-01	-8.793817157843486e-02
 3.459597204236719e-01	 9.686439260728598e-01	-1.352024290232299e-01
 3.241065289343603e-01	 9.761732128959438e-01	-1.698718125707643e-01
 3.022065645033480e-01	 9.831736245671734e-01	-1.932640168874411e-01
 2.802778171671712e-01	 9.896481843955841e-01	-2.068339574456017e-01
 2.583379278956063e-01	 9.956006722999304e-01	-2.121610963988791e-01
 2.364041525916176e-01	 1.001035593928062e+00	-2.109361023266372e-01
 2.144933288030222e-01	 1.005958148022306e+00	-2.049469405309572e-01
 4.385424005640514e-01	 9.461667840902485e-01	 3.734101403663012e-01
 4.167634374161008e-01	 9.559598619404893e-01	 2.594492545719793e-01
 3.948613732169655e-01	 9.652126793351690e-01	 1.611135875596761e-01
 3.728554473544068e-01	 9.739249641457544e-01	 7.771713892091969e-02
 3.507647165406675e-01	 9.820973139349833e-01	 8.410697335138106e-03
 3.286080085028931e-01	 9.897311741861657e-01	-4.780951780895615e-02
 3.064038778992278e-01	 9.968288137972730e-01	-9.209230101265820e-02
 2.841705646278262e-01	 1.003393298067744e+00	-1.257210462169429e-01
 2.619259546719343e-01	 1.009428459415208e+00	-1.501025369970450e-01
 2.396875435998346e-01	 1.014938866065952e+00	-1.667550142885388e-01
 2.174724028141752e-01	 1.019929788967060e+00	-1.772956037050482e-01
 4.445498307087645e-01	 9.591279729134023e-01	 5.936406311447940e-01
 4.224725255998831e-01	 9.690552025150163e-01	 4.588859263673724e-01
 4.002704331240473e-01	 9.784347708329109e-01	 3.397564477933728e-01
 3.779630562222755e-01	 9.872664020107647e-01	 2.357063399894341e-01
 3.555697126576628e-01	 9.955507017971059e-01	 1.460331909800956e-01
 3.331094880714258e-01	 1.003289135476387e+00	 6.988521486996135e-02
 3.106011912951077e-01	 1.010484003027373e+00	 6.269352377133774e-03
 2.880633120884815e-01	 1.017138411739906e+00	-4.593974714869975e-02
 2.655139814482621e-01	 1.023256246530484e+00	-8.798990864063594e-02
 2.429709346080514e-01	 1.028842138203842e+00	-1.212408361009654e-01
 2.204514768253283e-01	 1.033901429911814e+00	-1.471528069466226e-01
 4.505572608534776e-01	 9.720891617365568e-01	 8.027627399256134e-01
 4.281816137836653e-01	 9.821505430895439e-01	 6.489481493749631e-01
 4.056794930311290e-01	 9.916568623306530e-01	 5.107372800135515e-01
 3.830706650901440e-01	 1.000607839875775e+00	 3.877131602489290e-01
 3.603747087746583e-01	 1.009004089659229e+00	 2.793084113620323e-01
 3.376109676399587e-01	 1.016847096766609e+00	 1.848110392001330e-01
 3.147985046909875e-01	 1.024139192257472e+00	 1.033711480574639e-01
 2.919560595491366e-01	 1.030883525412067e+00	 3.400855833154837e-02
 2.691020082245900e-01	 1.037084033645761e+00	-2.437870144355458e-02
 2.462543256162684e-01	 1.042745410341732e+00	-7.300506940462625e-02
 2.234305508364814e-01	 1.047873070856569e+00	-1.131873455389929e-01
 4.565646909981904e-01	 9.850503505597107e-01	 1.002458125132333e+00
 4.338907019674474e-01	 9.952458836640712e-01	 8.312943599420954e-01
 4.110885529382107e-01	 1.004878953828395e+00	 6.756856069382675e-01
 3.881782739580126e-01	 1.013949277740785e+00	 5.353330271697818e-01
 3.651797048916536e-01	 1.022457477521352e+00	 4.097930424365532e-01
 3.421124472084916e-01	 1.030405058056830e+00	 2.984818004609260e-01
 3.189958180868673e-01	 1.037794381487572e+00	 2.006805665672546e-01
 2.958488070097918e-01	 1.044628639084227e+00	 1.155420412281474e-01
 2.726900350009179e-01	 1.050911820761038e+00	 4.209759089160614e-02
 2.495377166244853e-01	 1.056648682479622e+00	-2.073463359635119e-02
 2.264096248476345e-01	 1.061844711801323e+00	-7.414073051602399e-02
 4.625721211429035e-01	 9.980115393828650e-01	 1.194323132802749e+00
 4.395997901512296e-01	 1.008341224238598e+00	 1.007498386694948e+00
 4.164976128452925e-01	 1.018101045326137e+00	 8.361473366902603e-01
 3.932858828258812e-01	 1.027290715605796e+00	 6.800790147285143e-01
 3.699847010086491e-01	 1.035910865383475e+00	 5.389629224779395e-01
 3.466139267770242e-01	 1.043963019347051e+00	 4.123322308394648e-01
 3.231931314827471e-01	 1.051449570717672e+00	 2.995879102169683e-01
 2.997415544704470e-01	 1.058373752756388e+00	 2.000038084911577e-01
 2.762780617772457e-01	 1.064739607876315e+00	 1.127326807558446e-01
 2.528211076327022e-01	 1.070551954617511e+00	 3.681316052584171e-02
 2.293886988587876e-01	 1.075816352746077e+00	-2.882235326116955e-02
 4.685795512876165e-01	 1.010972728206019e+00	 1.379874501855746e+00
 4.453088783350119e-01	 1.021436564813126e+00	 1.179055102339006e+00
 4.219066727523741e-01	 1.031323136823879e+00	 9.935903414400726e-01
 3.983934916937498e-01	 1.040632153470806e+00	 8.233873305715869e-01
 3.747896971256445e-01	 1.049364253245598e+00	 6.682184228871515e-01
 3.511154063455570e-01	 1.057520980637273e+00	 5.277232045184661e-01
 3.273904448786269e-01	 1.065104759947771e+00	 4.014114206678605e-01
 3.036343019311021e-01	 1.072118866428549e+00	 2.886668709200528e-01
 2.798660885535735e-01	 1.078567394991591e+00	 1.887522943617950e-01
 2.561044986409192e-01	 1.084455226755401e+00	 1.008152495150141e-01
 2.323677728699406e-01	 1.089787993690832e+00	 2.389497719287537e-02
 4.745869814323296e-01	 1.023933917029173e+00	 1.560554631672395e+00
 4.510179665187940e-01	 1.034531905387653e+00	 1.347385642337659e+00
 4.273157326594558e-01	 1.044545228321621e+00	 1.149409608960744e+00
 4.035011005616184e-01	 1.053973591335816e+00	 9.666223834875625e-01
 3.795946932426400e-01	 1.062817641107721e+00	 7.988894159551281e-01
 3.556168859140899e-01	 1.071078941927494e+00	 6.459465915023164e-01
 3.315877582745068e-01	 1.078759949177871e+00	 5.074020060423752e-01
 3.075270493917571e-01	 1.085863980100710e+00	 3.827387322819344e-01
 2.834541153299014e-01	 1.092395182106868e+00	 2.713186131320815e-01
 2.593878896491359e-01	 1.098358498893291e+00	 1.723871027674679e-01
 2.353468468810937e-01	 1.103759634635586e+00	 8.507915718898307e-02
 4.805944115770426e-01	 1.036895105852327e+00	 1.737736450289104e+00
 4.567270547025761e-01	 1.047627245962180e+00	 1.513842228367530e+00
 4.327247925665375e-01	 1.057767319819363e+00	 1.304932004465450e+00
 4.086087094294868e-01	 1.067315029200826e+00	 1.111081467911265e+00
 3.843996893596354e-01	 1.076271028969845e+00	 9.322398675490238e-01
 3.601183654826226e-01	 1.084636903217715e+00	 7.682297452908067e-01
 3.357850716703866e-01	 1.092415138407971e+00	 6.187476117335942e-01
 3.114197968524123e-01	 1.099609093772871e+00	 4.833656327897480e-01
 2.870421421062293e-01	 1.106222969222145e+00	 3.615343808046352e-01
 2.626712806573530e-01	 1.112261771031180e+00	 2.525866856664820e-01
 2.383259208922468e-01	 1.117731275580340e+00	 1.557426015156484e-01
 2.085351807807160e-01	 9.780148661327976e-01	-2.584955514688922e-01
 1.872712384039293e-01	 9.823082424914590e-01	-2.177739854910912e-01
 1.660610135851267e-01	 9.861154799348201e-01	-1.812141452715981e-01
 1.449194890231617e-01	 9.894434504817674e-01	-1.486131618831665e-01
 1.238611386139843e-01	 9.922995607885994e-01	-1.198030291742707e-01
 1.028999088485995e-01	 9.946917154369739e-01	-9.464871523579976e-02
 8.204920293574133e-02	 9.966282799005903e-01	-7.304572222862848e-02
 6.132186759777736e-02	 9.981180433968323e-01	-5.491715562885391e-02
 4.073018247306839e-02	 9.991701818187483e-01	-4.021037160460228e-02
 2.028585204427963e-02	 9.997942209309062e-01	-2.889327708783851e-02
 0.000000000000000e+00	 1.000000000000000e+00	-2.095036106092474e-02
 2.115142547918692e-01	 9.919865070775520e-01	-2.315159827373932e-01
 1.899465418096997e-01	 9.963412173841937e-01	-2.078327644315201e-01
 1.684333137792000e-01	 1.000202843933889e+00	-1.861234313790137e-01
 1.469897674377783e-01	 1.003578356917221e+00	-1.663101431565690e-01
 1.256305834513270e-01	 1.006475268799865e+00	-1.483583346281798e-01
 1.043699075464366e-01	 1.008901597086073e+00	-1.322735887625965e-01
 8.322133440625193e-02	 1.010865826756313e+00	-1.180979502113670e-01
 6.219789427774560e-02	 1.012376872588216e+00	-1.059057503233127e-01
 4.131204222268364e-02	 1.013444041559016e+00	-9.579902181757083e-02
 2.057564993062649e-02	 1.014076995515633e+00	-8.790258696234909e-02
 0.000000000000000e+00	 1.014285714285714e+00	-8.235890672342538e-02
 2.144933288030222e-01	 1.005958148022306e+00	-2.049469405309527e-01
 1.926218452154701e-01	 1.010374192276929e+00	-1.971960386204334e-01
 1.708056139732731e-01	 1.014290207932958e+00	-1.894354517385404e-01
 1.490600458523949e-01	 1.017713263352675e+00	-1.816829000775710e-01
 1.274000282886696e-01	 1.020650976811131e+00	-1.740077822308592e-01
 1.058399062442738e-01	 1.023111478735173e+00	-1.665270248157813e-01
 8.439346587676252e-02	 1.025103373612036e+00	-1.594003499901073e-01
 6.307392095771386e-02	 1.026635701779599e+00	-1.528250402624836e-01
 4.189390197229891e-02	 1.027717901299284e+00	-1.470302877005687e-01
 2.086544781697334e-02	 1.028359770100361e+00	-1.422712202790843e-01
 0.000000000000000e+00	 1.028571428571428e+00	-1.388227016204295e-01
 2.174724028141752e-01	 1.019929788967060e+00	-1.772956037050482e-01
 1.952971486212406e-01	 1.024407167169664e+00	-1.844293200386748e-01
 1.731779141673464e-01	 1.028377571932026e+00	-1.897637617828551e-01
 1.511303242670116e-01	 1.031848169788129e+00	-1.933839592784370e-01
 1.291694731260122e-01	 1.034826684822397e+00	-1.954350191426815e-01
 1.073099049421109e-01	 1.037321360384273e+00	-1.961171618097839e-01
 8.556559734727312e-02	 1.039340920467758e+00	-1.956801389766429e-01
 6.394994763768209e-02	 1.040894530970983e+00	-1.944171182065837e-01
 4.247576172191418e-02	 1.041991761039552e+00	-1.926581300537964e-01
 2.115524570332019e-02	 1.042642544685088e+00	-1.907631789668627e-01
 0.000000000000000e+00	 1.042857142857143e+00	-1.891151228737828e-01
 2.204514768253283e-01	 1.033901429911814e+00	-1.471528069466226e-01
 1.979724520270110e-01	 1.038440142062399e+00	-1.681788557917241e-01
 1.755502143614197e-01	 1.042464935931095e+00	-1.858002249262438e-01
 1.532006026816281e-01	 1.045983076223583e+00	-2.001421503806071e-01
 1.309389179633549e-01	 1.049002392833662e+00	-2.113983415956775e-01
 1.087799036399480e-01	 1.051531242033373e+00	-2.198254139543181e-01
 8.673772881778370e-02	 1.053578467323481e+00	-2.257366482437271e-01
 6.482597431765035e-02	 1.055153360162365e+00	-2.294951712893623e-01
 4.305762147152944e-02	 1.056265620779820e+00	-2.315066607652816e-01
 2.144504358966704e-02	 1.056925319269815e+00	-2.322116835969501e-01
 0.000000000000000e+00	 1.057142857142857e+00	-2.320777813591639e-01
 2.234305508364814e-01	 1.047873070856569e+00	-1.131873455389967e-01
 2.006477554327814e-01	 1.052473116955134e+00	-1.471661437513008e-01
 1.779225145554928e-01	 1.056552299930164e+00	-1.763097057668919e-01
 1.552708810962447e-01	 1.060117982659036e+00	-2.007574479845520e-01
 1.327083628006975e-01	 1.063178100844928e+00	-2.207256614193038e-01
 1.102499023377851e-01	 1.065741123682472e+00	-2.365015425512440e-01
 8.790986028829428e-02	 1.067816014179204e+00	-2.484364832600732e-01
 6.570200099761860e-02	 1.069412189353749e+00	-2.569387202190256e-01
 4.363948122114471e-02	 1.070539480520087e+00	-2.624654537891766e-01
 2.173484147601390e-02	 1.071208093854542e+00	-2.655145536282166e-01
 0.000000000000000e+00	 1.071428571428571e+00	-2.666159727890638e-01
 2.264096248476345e-01	 1.061844711801323e+00	-7.414073051602399e-02
 2.033230588385518e-01	 1.066506091847870e+00	-1.201828817526294e-01
 1.802948147495661e-01	 1.070639663929233e+00	-1.601251826708081e-01
 1.573411595108614e-01	 1.074252889094490e+00	-1.940962211681052e-01
 1.344778076380401e-01	 1.077353808856194e+00	-2.223098701452968e-01
 1.117199010356223e-01	 1.079951005331572e+00	-2.450591165244922e-01
 8.908199175880488e-02	 1.082053561034927e+00	-2.627090667430245e-01
 6.657802767758685e-02	 1.083671018545132e+00	-2.756892343677069e-01
 4.422134097075998e-02	 1.084813340260355e+00	-2.844852263218203e-01
 2.202463936236075e-02	 1.085490868439270e+00	-2.896299523737444e-01
 0.000000000000000e+00	 1.085714285714286e+00	-2.916944879212131e-01
 2.293886988587876e-01	 1.075816352746077e+00	-2.882235326117710e-02
 2.059983622443222e-01	 1.080539066740605e+00	-8.608631093077879e-02
 1.826671149436393e-01	 1.084727027928302e+00	-1.361432416118278e-01
 1.594114379254779e-01	 1.088387795529944e+00	-1.790868534495109e-01
 1.362472524753827e-01	 1.091529516867459e+00	-2.151045645476446e-01
 1.131898997334594e-01	 1.094160886980671e+00	-2.444713267985898e-01
 9.025412322931547e-02	 1.096291107890649e+00	-2.675425288916979e-01
 6.745405435755508e-02	 1.097929847736516e+00	-2.847460885765800e-01
 4.480320072037522e-02	 1.099087200000623e+00	-2.965738565236042e-01
 2.231443724870760e-02	 1.099773643023997e+00	-3.035724635306933e-01
 0.000000000000000e+00	 1.100000000000000e+00	-3.063337492436768e-01
 2.323677728699406e-01	 1.089787993690832e+00	 2.389497719287537e-02
 2.086736656500926e-01	 1.094572041633340e+00	-4.379491782727962e-02
 1.850394151377126e-01	 1.098814391927371e+00	-1.033199170523840e-01
 1.614817163400945e-01	 1.102522701965398e+00	-1.547156999657127e-01
 1.380166973127254e-01	 1.105705224878725e+00	-1.981201011824605e-01
 1.146598984312965e-01	 1.108370768629771e+00	-2.337671227684681e-01
 9.142625469982607e-02	 1.110528654746372e+00	-2.619799138261627e-01
 6.833008103752333e-02	 1.112188676927899e+00	-2.831628310099292e-01
 4.538506046999050e-02	 1.113361059740891e+00	-2.977927075829427e-01
 2.260423513505445e-02	 1.114056417608724e+00	-3.064094695178958e-01
 0.000000000000000e+00	 1.114285714285715e+00	-3.096062448383801e-01
 2.353468468810937e-01	 1.103759634635586e+00	 8.507915718898307e-02
 2.113489690558631e-01	 1.108605016526075e+00	 7.715536524976141e-03
 1.874117153317858e-01	 1.112901755926440e+00	-6.066684911448728e-02
 1.635519947547110e-01	 1.116657608400851e+00	-1.200233519883771e-01
 1.397861421500680e-01	 1.119880932889991e+00	-1.704199507740958e-01
 1.161298971291337e-01	 1.122580650278871e+00	-2.120276423235852e-01
 9.259838617033665e-02	 1.124766201602095e+00	-2.451156742120530e-01
 6.920610771749158e-02	 1.126447506119282e+00	-2.700437344970106e-01
 4.596692021960576e-02	 1.127634919481159e+00	-2.872532309773030e-01
 2.289403302140131e-02	 1.128339192193451e+00	-2.972578048795158e-01
 0.000000000000000e+00	 1.128571428571429e+00	-3.006332330904591e-01
 2.383259208922468e-01	 1.117731275580340e+00	 1.557426015156484e-01
 2.140242724616335e-01	 1.122637991418810e+00	 6.941568914724772e-02
 1.897840155258591e-01	 1.126989119925509e+00	-7.247729365784439e-03
 1.656222731693277e-01	 1.130792514836306e+00	-7.410118188379067e-02
 1.415555869874107e-01	 1.134056640901256e+00	-1.311173262130116e-01
 1.175998958269708e-01	 1.136790531927970e+00	-1.783829097375986e-01
 9.377051764084722e-02	 1.139003748457817e+00	-2.160924288573320e-01
 7.008213439745983e-02	 1.140706335310666e+00	-2.445406065568105e-01
 4.654877996922101e-02	 1.141908779221426e+00	-2.641138245035093e-01
 2.318383090774815e-02	 1.142621966778179e+00	-2.752806606865139e-01
 0.000000000000000e+00	 1.142857142857143e+00	-2.785816945441209e-01
 1.142857142857143e+00	 0.000000000000000e+00	 1.796987702838659e+01
 1.142621966778179e+00	 2.318383090774752e-02	 1.796877935184840e+01
 1.141908779221426e+00	 4.654877996922045e-02	 1.794164966997005e+01
 1.140706335310665e+00	 7.008213439745935e-02	 1.788893138165299e+01
 1.139003748457817e+00	 9.377051764084682e-02	 1.781125882640767e+01
 1.136790531927970e+00	 1.175998958269705e-01	 1.770946176361658e+01
 1.134056640901256e+00	 1.415555869874104e-01	 1.758456893293919e+01
 1.130792514836306e+00	 1.656222731693276e-01	 1.743781059304643e+01
 1.126989119925508e+00	 1.897840155258590e-01	 1.727061993795688e+01
 1.122637991418810e+00	 2.140242724616336e-01	 1.708463329441181e+01
 1.117731275580340e+00	 2.383259208922468e-01	 1.688168901011225e+01
 1.157142857142857e+00	 0.000000000000000e+00	 1.758859750207266e+01
 1.156904741362905e+00	 2.347362879409436e-02	 1.758879768412450e+01
 1.156182638961694e+00	 4.713063971883569e-02	 1.756427724288133e+01
 1.154965164502049e+00	 7.095816107742760e-02	 1.751557228822787e+01
 1.153241295313540e+00	 9.494264911135741e-02	 1.744339685757718e+01
 1.151000413577070e+00	 1.190698945248076e-01	 1.734864632741388e+01
 1.148232348912522e+00	 1.433250318247531e-01	 1.723239994516359e+01
 1.144927421271759e+00	 1.676925515839441e-01	 1.709592238765169e+01
 1.141076483924578e+00	 1.921563157199323e-01	 1.694066425471174e+01
 1.136670966311545e+00	 2.166995758674040e-01	 1.676826141085717e+01
 1.131702916525094e+00	 2.413049949033999e-01	 1.658053309447100e+01
 1.171428571428571e+00	 0.000000000000000e+00	 1.723239603044157e+01
 1.171187515947633e+00	 2.376342668044120e-02	 1.723387315279081e+01
 1.170456498701963e+00	 4.771249946845098e-02	 1.721184362040877e+01
 1.169223993693432e+00	 7.183418775739586e-02	 1.716693317347362e+01
 1.167478842169263e+00	 9.611478058186801e-02	 1.709993307225947e+01
 1.165210295226170e+00	 1.205398932226448e-01	 1.701180249616265e+01
 1.162408056923788e+00	 1.450944766620957e-01	 1.690367010059943e+01
 1.159062327707213e+00	 1.697628299985608e-01	 1.677683464636827e+01
 1.155163847923646e+00	 1.945286159140055e-01	 1.663276461856357e+01
 1.150703941204281e+00	 2.193748792731745e-01	 1.647309675666469e+01
 1.145674557469849e+00	 2.442840689145529e-01	 1.629963342412796e+01
 1.185714285714286e+00	 0.000000000000000e+00	 1.689921431150325e+01
 1.185470290532361e+00	 2.405322456678806e-02	 1.690193693475929e+01
 1.184730358442230e+00	 4.829435921806622e-02	 1.688227608929219e+01
 1.183482822884816e+00	 7.271021443736410e-02	 1.684094410377800e+01
 1.181716389024986e+00	 9.728691205237859e-02	 1.677880700602404e+01
 1.179420176875269e+00	 1.220098919204819e-01	 1.669688596423807e+01
 1.176583764935054e+00	 1.468639214994384e-01	 1.659635792209844e+01
 1.173197234142667e+00	 1.718331084131773e-01	 1.647855534979698e+01
 1.169251211922715e+00	 1.969009161080788e-01	 1.634496503590274e+01
 1.164736916097015e+00	 2.220501826789449e-01	 1.619722584960700e+01
 1.159646198414602e+00	 2.472631429257060e-01	 1.603712540979218e+01
 1.200000000000000e+00	 0.000000000000000e+00	 1.658708405470088e+01
 1.199753065117088e+00	 2.434302245313489e-02	 1.659101162768189e+01
 1.199004218182498e+00	 4.887621896768148e-02	 1.657359444988609e+01
 1.197741652076199e+00	 7.358624111733233e-02	 1.653562842805546e+01
 1.195953935880709e+00	 9.845904352288920e-02	 1.647805191551010e+01
 1.193630058524369e+00	 1.234798906183191e-01	 1.640194625006864e+01
 1.190759472946320e+00	 1.486333663367810e-01	 1.630853552010140e+01
 1.187332140578121e+00	 1.739033868277940e-01	 1.619918548771135e+01
 1.183338575921784e+00	 1.992732163021519e-01	 1.607540160087553e+01
 1.178769890989751e+00	 2.247254860847153e-01	 1.593882603126898e+01
 1.173617839359357e+00	 2.502422169368591e-01	 1.579123368156298e+01
 1.214285714285715e+00	 0.000000000000000e+00	 1.629412168612084e+01
 1.214035839701815e+00	 2.463282033948174e-02	 1.629920590061292e+01
 1.213278077922765e+00	 4.945807871729672e-02	 1.628390562928451e+01
 1.212000481267582e+00	 7.446226779730057e-02	 1.624909737063623e+01
 1.210191482736431e+00	 9.963117499339975e-02	 1.619578936862548e+01
 1.207839940173469e+00	 1.249498893161562e-01	 1.612512130138358e+01
 1.204935180957585e+00	 1.504028111741236e-01	 1.603836323081375e+01
 1.201467047013575e+00	 1.759736652424105e-01	 1.593691374812306e+01
 1.197425939920853e+00	 2.016455164962253e-01	 1.582229725332477e+01
 1.192802865882486e+00	 2.274007894904857e-01	 1.569616031180887e+01
 1.187589480304112e+00	 2.532212909480123e-01	 1.556026703835320e+01
 1.228571428571429e+00	 0.000000000000000e+00	 1.601852342310633e+01
 1.228318614286542e+00	 2.492261822582858e-02	 1.602470951785840e+01
 1.227551937663034e+00	 5.003993846691199e-02	 1.601139867018316e+01
 1.226259310458965e+00	 7.533829447726881e-02	 1.597954500118849e+01
 1.224429029592154e+00	 1.008033064639103e-01	 1.593022421180340e+01
 1.222049821822568e+00	 1.264198880139933e-01	 1.586463247625958e+01
 1.219110888968851e+00	 1.521722560114662e-01	 1.578408462762712e+01
 1.215601953449029e+00	 1.780439436570272e-01	 1.569001157574266e+01
 1.211513303919922e+00	 2.040178166902985e-01	 1.558395690097701e+01
 1.206835840775221e+00	 2.300760928962561e-01	 1.546757257252528e+01
 1.201561121248866e+00	 2.562003649591653e-01	 1.534261374739470e+01
 1.242857142857143e+00	 0.000000000000000e+00	 1.575856068855303e+01
 1.242601388871269e+00	 2.521241611217542e-02	 1.576578870598588e+01
 1.241825797403302e+00	 5.062179821652725e-02	 1.575434006524660e+01
 1.240518139650348e+00	 7.621432115723706e-02	 1.572524355133781e+01
 1.238666576447877e+00	 1.019754379344209e-01	 1.567963988397982e+01
 1.236259703471668e+00	 1.278898867118304e-01	 1.561877986972918e+01
 1.233286596980117e+00	 1.539417008488089e-01	 1.554402187575554e+01
 1.229736859884482e+00	 1.801142220716437e-01	 1.545682857011391e+01
 1.225600667918991e+00	 2.063901168843717e-01	 1.535876287656928e+01
 1.220868815667956e+00	 2.327513963020265e-01	 1.525148309744104e+01
 1.215532762193620e+00	 2.591794389703184e-01	 1.513673716565904e+01
 1.257142857142857e+00	 0.000000000000000e+00	 1.551257583786641e+01
 1.256884163455996e+00	 2.550221399852227e-02	 1.552078183669770e+01
 1.256099657143569e+00	 5.120365796614251e-02	 1.551106940949749e+01
 1.254776968841732e+00	 7.709034783720529e-02	 1.548453905040562e+01
 1.252904123303599e+00	 1.031475694049315e-01	 1.544239404971062e+01
 1.250469585120767e+00	 1.293598854096676e-01	 1.538593795846369e+01
 1.247462304991382e+00	 1.557111456861515e-01	 1.531657140278524e+01
 1.243871766319936e+00	 1.821845004862604e-01	 1.523578819640232e+01
 1.239688031918060e+00	 2.087624170784449e-01	 1.514517070327245e+01
 1.234901790560691e+00	 2.354266997077969e-01	 1.504638440773204e+01
 1.229504403138374e+00	 2.621585129814715e-01	 1.494117165758625e+01
 1.271428571428571e+00	 0.000000000000000e+00	 1.527897817398912e+01
 1.271166938040723e+00	 2.579201188486911e-02	 1.528809540072446e+01
 1.270373516883837e+00	 5.178551771575777e-02	 1.527999534571480e+01
 1.269035798033115e+00	 7.796637451717355e-02	 1.525584725516743e+01
 1.267141670159322e+00	 1.043197008754421e-01	 1.521691452632834e+01
 1.264679466769867e+00	 1.308298841075047e-01	 1.516455153851314e+01
 1.261638013002648e+00	 1.574805905234942e-01	 1.510019986029054e+01
 1.258006672755390e+00	 1.842547789008769e-01	 1.502538378424720e+01
 1.253775395917128e+00	 2.111347172725182e-01	 1.494170514416295e+01
 1.248934765453427e+00	 2.381020031135674e-01	 1.485083737518164e+01
 1.243476044083129e+00	 2.651375869926246e-01	 1.475451878581640e+01
 1.285714285714286e+00	 0.000000000000000e+00	 1.505624022809351e+01
 1.285449712625451e+00	 2.608180977121596e-02	 1.506620025010418e+01
 1.284647376624105e+00	 5.236737746537301e-02	 1.505959178005111e+01
 1.283294627224498e+00	 7.884240119714178e-02	 1.503764985076256e+01
 1.281379217015045e+00	 1.054918323459527e-01	 1.500169548226835e+01
 1.278889348418967e+00	 1.322998828053418e-01	 1.495313193330994e+01
 1.275813721013914e+00	 1.592500353608367e-01	 1.489344035387773e+01
 1.272141579190844e+00	 1.863250573154935e-01	 1.482417479227210e+01
 1.267862759916197e+00	 2.135070174665914e-01	 1.474695651365065e+01
 1.262967740346161e+00	 2.407773065193378e-01	 1.466346759295899e+01
 1.257447685027883e+00	 2.681166610037777e-01	 1.457544375369089e+01
 1.117731275580340e+00	 2.383259208922468e-01	 1.688168901011225e+01
 1.112261771031181e+00	 2.626712806573522e-01	 1.665678848284355e+01
 1.106222969222145e+00	 2.870421421062286e-01	 1.640478505537201e+01
 1.099609093772871e+00	 3.114197968524118e-01	 1.612754301150702e+01
 1.092415138407971e+00	 3.357850716703862e-01	 1.582705299726138e+01
 1.084636903217716e+00	 3.601183654826223e-01	 1.550542611447530e+01
 1.076271028969845e+00	 3.843996893596351e-01	 1.516488711159088e+01
 1.067315029200826e+00	 4.086087094294868e-01	 1.480776669233368e+01
 1.057767319819363e+00	 4.327247925665375e-01	 1.443649297626374e+01
 1.047627245962180e+00	 4.567270547025762e-01	 1.405358215823826e+01
 1.036895105852327e+00	 4.805944115770426e-01	 1.366162842637520e+01
 1.131702916525094e+00	 2.413049949033999e-01	 1.658053309447100e+01
 1.126165043169070e+00	 2.659546716655691e-01	 1.637221205388396e+01
 1.120050756337422e+00	 2.906301688825564e-01	 1.613789586666292e+01
 1.113354207445032e+00	 3.153125443130670e-01	 1.587942273496091e+01
 1.106070327638070e+00	 3.399823850662660e-01	 1.559874097577689e+01
 1.098194864507937e+00	 3.646198450511549e-01	 1.529790269291753e+01
 1.089724416831968e+00	 3.892046854766306e-01	 1.497905664177230e+01
 1.080656467065837e+00	 4.137163182973555e-01	 1.464444031644480e+01
 1.070989411317106e+00	 4.381338524736193e-01	 1.429637130180200e+01
 1.060722586536707e+00	 4.624361428863585e-01	 1.393723794573589e+01
 1.049856294675481e+00	 4.866018417217557e-01	 1.356948941893332e+01
 1.145674557469849e+00	 2.442840689145529e-01	 1.629963342412796e+01
 1.140068315306960e+00	 2.692380626737860e-01	 1.610685309711960e+01
 1.133878543452699e+00	 2.942181956588843e-01	 1.588911073700431e+01
 1.127099321117193e+00	 3.192052917737221e-01	 1.564822013935569e+01
 1.119725516868170e+00	 3.441796984621457e-01	 1.538608977408912e+01
 1.111752825798159e+00	 3.691213246196877e-01	 1.510471605741339e+01
 1.103177804694091e+00	 3.940096815936261e-01	 1.480617590603110e+01
 1.093997904930847e+00	 4.188239271652240e-01	 1.449261861159321e+01
 1.084211502814847e+00	 4.435429123807010e-01	 1.416625708634604e+01
 1.073817927111234e+00	 4.681452310701407e-01	 1.382935854339228e+01
 1.062817483498635e+00	 4.926092718664688e-01	 1.348423468654932e+01
 1.159646198414602e+00	 2.472631429257060e-01	 1.603712540979218e+01
 1.153971587444850e+00	 2.725214536820029e-01	 1.585890161406931e+01
 1.147706330567976e+00	 2.978062224352123e-01	 1.565667932794227e+01
 1.140844434789353e+00	 3.230980392343773e-01	 1.543224956536617e+01
 1.133380706098269e+00	 3.483770118580257e-01	 1.518748336420385e+01
 1.125310787088380e+00	 3.736228041882206e-01	 1.492432467914239e+01
 1.116631192556214e+00	 3.988146777106216e-01	 1.464478264004498e+01
 1.107339342795858e+00	 4.239315360330926e-01	 1.435092322189990e+01
 1.097433594312590e+00	 4.489519722877827e-01	 1.404486038547340e+01
 1.086913267685762e+00	 4.738543192539230e-01	 1.372874676011380e+01
 1.075778672321789e+00	 4.986167020111819e-01	 1.340476395138076e+01
 1.173617839359357e+00	 2.502422169368591e-01	 1.579123368156298e+01
 1.167874859582740e+00	 2.758048446902198e-01	 1.562663491096824e+01
 1.161534117683253e+00	 3.013942492115401e-01	 1.543893640900770e+01
 1.154589548461515e+00	 3.269907866950325e-01	 1.522990798409943e+01
 1.147035895328369e+00	 3.525743252539056e-01	 1.500138559280337e+01
 1.138868748378601e+00	 3.781242837567534e-01	 1.475526387400877e+01
 1.130084580418337e+00	 4.036196738276170e-01	 1.449348812546410e+01
 1.120680780660868e+00	 4.290391449009611e-01	 1.421804577667441e+01
 1.110655685810332e+00	 4.543610321948645e-01	 1.393095742525304e+01
 1.100008608260289e+00	 4.795634074377051e-01	 1.363426751611810e+01
 1.088739861144943e+00	 5.046241321558949e-01	 1.333003475392880e+01
 1.187589480304112e+00	 2.532212909480123e-01	 1.556026703835320e+01
 1.181778131720630e+00	 2.790882356984368e-01	 1.540841266895936e+01
 1.175361904798530e+00	 3.049822759878680e-01	 1.523429706319452e+01
 1.168334662133675e+00	 3.308835341556877e-01	 1.503967035240284e+01
 1.160691084558469e+00	 3.567716386497853e-01	 1.482633570089425e+01
 1.152426709668823e+00	 3.826257633252862e-01	 1.459614150104817e+01
 1.143537968280460e+00	 4.084246699446123e-01	 1.435097308134328e+01
 1.134022218525878e+00	 4.341467537688297e-01	 1.409274398892454e+01
 1.123877777308073e+00	 4.597700921019461e-01	 1.382338692160325e+01
 1.113103948834816e+00	 4.852724956214874e-01	 1.354484439656480e+01
 1.101701049968098e+00	 5.106315623006080e-01	 1.325905925395194e+01
 1.201561121248866e+00	 2.562003649591653e-01	 1.534261374739470e+01
 1.195681403858519e+00	 2.823716267066537e-01	 1.520267235548645e+01
 1.189189691913806e+00	 3.085703027641959e-01	 1.504125222371585e+01
 1.182079775805837e+00	 3.347762816163428e-01	 1.486008528848532e+01
 1.174346273788568e+00	 3.609689520456653e-01	 1.466094415177138e+01
 1.165984670959044e+00	 3.871272428938189e-01	 1.444563395613235e+01
 1.156991356142583e+00	 4.132296660616078e-01	 1.421598383684912e+01
 1.147363656390888e+00	 4.392543626366983e-01	 1.397383802013257e+01
 1.137099868805816e+00	 4.651791520090278e-01	 1.372104664995008e+01
 1.126199289409344e+00	 4.909815838052696e-01	 1.345945643859192e+01
 1.114662238791251e+00	 5.166389924453209e-01	 1.319090124699760e+01
 1.215532762193620e+00	 2.591794389703184e-01	 1.513673716565904e+01
 1.209584675996409e+00	 2.856550177148706e-01	 1.500792494943566e+01
 1.203017479029083e+00	 3.121583295405236e-01	 1.485836451538307e+01
 1.195824889477997e+00	 3.386690290769980e-01	 1.468977104208020e+01
 1.188001463018668e+00	 3.651662654415451e-01	 1.450388874249168e+01
 1.179542632249266e+00	 3.916287224623518e-01	 1.430248243721221e+01
 1.170444744004706e+00	 4.180346621786034e-01	 1.408732876260994e+01
 1.160705094255899e+00	 4.443619715045669e-01	 1.386020708987475e+01
 1.150321960303558e+00	 4.705882119161096e-01	 1.362289024504686e+01
 1.139294629983871e+00	 4.966906719890518e-01	 1.337713513297833e+01
 1.127623427614406e+00	 5.226464225900339e-01	 1.312467337920316e+01
 1.229504403138374e+00	 2.621585129814715e-01	 1.494117165758625e+01
 1.223487948134299e+00	 2.889384087230874e-01	 1.482275095506850e+01
 1.216845266144360e+00	 3.157463563168516e-01	 1.468426437637662e+01
 1.209570003150159e+00	 3.425617765376531e-01	 1.452741173571961e+01
 1.201656652248768e+00	 3.693635788374249e-01	 1.435391097630521e+01
 1.193100593539488e+00	 3.961302020308845e-01	 1.416548945949989e+01
 1.183898131866829e+00	 4.228396582955987e-01	 1.396387494013552e+01
 1.174046532120909e+00	 4.494695803724356e-01	 1.375078631080744e+01
 1.163544051801300e+00	 4.759972718231912e-01	 1.352792421264684e+01
 1.152389970558398e+00	 5.023997601728341e-01	 1.329696162335951e+01
 1.140584616437560e+00	 5.286538527347471e-01	 1.305953454459444e+01
 1.243476044083129e+00	 2.651375869926246e-01	 1.475451878581640e+01
 1.237391220272188e+00	 2.922217997313044e-01	 1.464579668203212e+01
 1.230673053259637e+00	 3.193343830931795e-01	 1.451764643835563e+01
 1.223315116822320e+00	 3.464545239983082e-01	 1.437175385579748e+01
 1.215311841478867e+00	 3.735608922333047e-01	 1.420981267551920e+01
 1.206658554829709e+00	 4.006316815994174e-01	 1.403351560093136e+01
 1.197351519728952e+00	 4.276446544125942e-01	 1.384454505058128e+01
 1.187387969985920e+00	 4.545771892403042e-01	 1.364456373129487e+01
 1.176766143299042e+00	 4.814063317302731e-01	 1.343520513636624e+01
 1.165485311132925e+00	 5.081088483566161e-01	 1.321806408745910e+01
 1.153545805260714e+00	 5.346612828794599e-01	 1.299468745052881e+01
 1.257447685027883e+00	 2.681166610037777e-01	 1.457544375369089e+01
 1.251294492410078e+00	 2.955051907395213e-01	 1.447577077075203e+01
 1.244500840374914e+00	 3.229224098695073e-01	 1.435726614481263e+01
 1.237060230494480e+00	 3.503472714589634e-01	 1.422160297399284e+01
 1.228967030708967e+00	 3.777582056291845e-01	 1.407045281609454e+01
 1.220216516119931e+00	 4.051331611679502e-01	 1.390547645999917e+01
 1.210804907591075e+00	 4.324496505295896e-01	 1.372831446579742e+01
 1.200729407850930e+00	 4.596847981081726e-01	 1.354057756952815e+01
 1.189988234796783e+00	 4.868153916373548e-01	 1.334383706455612e+01
 1.178580651707452e+00	 5.138179365403983e-01	 1.313961528617881e+01
 1.166506994083868e+00	 5.406687130241731e-01	 1.292937633820410e+01
 1.036895105852327e+00	 4.805944115770426e-01	 1.366162842637520e+01
 1.025572171423283e+00	 5.043056317172395e-01	 1.325721618652839e+01
 1.013660705488129e+00	 5.278393914145663e-01	 1.283679454557446e+01
 1.001163975251858e+00	 5.511743314392351e-01	 1.240279867902614e+01
 9.880862619864225e-01	 5.742891152140104e-01	 1.195764535786864e+01
 9.744328667122153e-01	 5.971624881475778e-01	 1.150372383919129e+01
 9.602101117561592e-01	 6.197733378105390e-01	 1.104338716793348e+01
 9.454253380851545e-01	 6.421007546220170e-01	 1.057894396751163e+01
 9.300868983440859e-01	 6.641240927027645e-01	 1.011265078563433e+01
 9.142041455595213e-01	 6.858230305416827e-01	 9.646705048049890e+00
 8.977874175033295e-01	 7.071776311170301e-01	 9.183238657744852e+00
 1.049856294675481e+00	 4.866018417217557e-01	 1.356948941893332e+01
 1.038391823566074e+00	 5.106094521137051e-01	 1.318935294029153e+01
 1.026331464306731e+00	 5.344373838072483e-01	 1.279296312567085e+01
 1.013678524942507e+00	 5.580640105822257e-01	 1.238265781723404e+01
 1.000437340261253e+00	 5.814677291541854e-01	 1.196075186748158e+01
 9.866132775461184e-01	 6.046270192494226e-01	 1.152952840258781e+01
 9.722127381531113e-01	 6.275205045331703e-01	 1.109123055357457e+01
 9.572431548112186e-01	 6.501270140547922e-01	 1.064805373329649e+01
 9.417129845733868e-01	 6.724256438615492e-01	 1.020213852454343e+01
 9.256316973790152e-01	 6.943958184234537e-01	 9.755564229661912e+00
 9.090097602221213e-01	 7.160173515059931e-01	 9.310343115419283e+00
 1.062817483498635e+00	 4.926092718664688e-01	 1.348423468654932e+01
 1.051211475708865e+00	 5.169132725101704e-01	 1.312679155899225e+01
 1.039002223125333e+00	 5.410353761999306e-01	 1.275288207800374e+01
 1.026193074633155e+00	 5.649536897252161e-01	 1.236475016344798e+01
 1.012788418536083e+00	 5.886463430943608e-01	 1.196461224422023e+01
 9.987936883800206e-01	 6.120915503512673e-01	 1.155464888179718e+01
 9.842153645500634e-01	 6.352676712558024e-01	 1.113699691864419e+01
 9.690609715372831e-01	 6.581532734875675e-01	 1.071374223000934e+01
 9.533390708026879e-01	 6.807271950203335e-01	 1.028691314372474e+01
 9.370592491985095e-01	 7.029686063052251e-01	 9.858474576334507e+00
 9.202321029409131e-01	 7.248570718949563e-01	 9.430322915677591e+00
 1.075778672321789e+00	 4.986167020111819e-01	 1.340476395138076e+01
 1.064031127851656e+00	 5.232170929066360e-01	 1.306853059816246e+01
 1.051672981943935e+00	 5.476333685926127e-01	 1.271564858720099e+01
 1.038707624323804e+00	 5.718433688682065e-01	 1.234827130045503e+01
 1.025139496810914e+00	 5.958249570345360e-01	 1.196852020838889e+01
 1.010974099213923e+00	 6.195560814531120e-01	 1.157847684062195e+01
 9.962179909470150e-01	 6.430148379784342e-01	 1.118017533883667e+01
 9.808787882633476e-01	 6.661795329203426e-01	 1.077559567140773e+01
 9.649651570319890e-01	 6.890287461791184e-01	 1.036665757402486e+01
 9.484868010180032e-01	 7.115413941869959e-01	 9.955215262827195e+00
 9.314544456597045e-01	 7.336967922839188e-01	 9.543052946794338e+00
 1.088739861144943e+00	 5.046241321558949e-01	 1.333003475392880e+01
 1.076850779994447e+00	 5.295209133031016e-01	 1.301362201380375e+01
 1.064343740762536e+00	 5.542313609852947e-01	 1.268040879907356e+01
 1.051222174014452e+00	 5.787330480111971e-01	 1.233246131514783e+01
 1.037490575085744e+00	 6.030035709747107e-01	 1.197180951323133e+01
 1.023154510047826e+00	 6.270206125549570e-01	 1.160043939427979e+01
 1.008220617343967e+00	 6.507620047010659e-01	 1.122028595308803e+01
 9.926966049894125e-01	 6.742057923531179e-01	 1.083322684330955e+01
 9.765912432612902e-01	 6.973302973379030e-01	 1.044107682769198e+01
 9.599143528374972e-01	 7.201141820687668e-01	 1.004558305854794e+01
 9.426767883784959e-01	 7.425365126728817e-01	 9.648421212050629e+00
 1.101701049968098e+00	 5.106315623006080e-01	 1.325905925395194e+01
 1.089670432137238e+00	 5.358247336995671e-01	 1.296116821740743e+01
 1.077014499581138e+00	 5.608293533779768e-01	 1.264635513069359e+01
 1.063736723705100e+00	 5.856227271541875e-01	 1.231660236461013e+01
 1.049841653360574e+00	 6.101821849148861e-01	 1.197385176795619e+01
 1.035334920881729e+00	 6.344851436568015e-01	 1.161999729026901e+01
 1.020223243740919e+00	 6.585091714236978e-01	 1.125687830313310e+01
 1.004514421715477e+00	 6.822320517858934e-01	 1.088627370262689e+01
 9.882173294905914e-01	 7.056318484966873e-01	 1.050989685758836e+01
 9.713419046569913e-01	 7.286869699505379e-01	 1.012939144754549e+01
 9.538991310972880e-01	 7.513762330618449e-01	 9.746328210988583e+00
 1.114662238791251e+00	 5.166389924453209e-01	 1.319090124699760e+01
 1.102490084280030e+00	 5.421285540960327e-01	 1.291031932834916e+01
 1.089685258399739e+00	 5.674273457706589e-01	 1.261272375956365e+01
 1.076251273395748e+00	 5.925124062971779e-01	 1.230001640297627e+01
 1.062192731635404e+00	 6.173607988550611e-01	 1.197405440319167e+01
 1.047515331715632e+00	 6.419496747586463e-01	 1.163664311329814e+01
 1.032225870137871e+00	 6.662563381463292e-01	 1.128952977874874e+01
 1.016332238441541e+00	 6.902583112186688e-01	 1.093439806370424e+01
 9.998434157198922e-01	 7.139333996554720e-01	 1.057286348533086e+01
 9.827694564764852e-01	 7.372597578323089e-01	 1.020646979906770e+01
 9.651214738160794e-01	 7.602159534508075e-01	 9.836686352894422e+00
 1.127623427614406e+00	 5.226464225900339e-01	 1.312467337920316e+01
 1.115309736422820e+00	 5.484323744924979e-01	 1.286027060777695e+01
 1.102356017218341e+00	 5.740253381633409e-01	 1.257879227746767e+01
 1.088765823086396e+00	 5.994020854401684e-01	 1.228206305612873e+01
 1.074543809910235e+00	 6.245394127952362e-01	 1.197185876740952e+01
 1.059695742549534e+00	 6.494142058604907e-01	 1.164989960429747e+01
 1.044228496534823e+00	 6.740035048689610e-01	 1.131784416017985e+01
 1.028150055167605e+00	 6.982845706514436e-01	 1.097728436493723e+01
 1.011469501949193e+00	 7.222349508142566e-01	 1.062974139281373e+01
 9.941970082959795e-01	 7.458325457140800e-01	 1.027666258461779e+01
 9.763438165348710e-01	 7.690556738397705e-01	 9.919419399917439e+00
 1.140584616437560e+00	 5.286538527347471e-01	 1.305953454459444e+01
 1.128129388565612e+00	 5.547361948889636e-01	 1.281026005955670e+01
 1.115026776036942e+00	 5.806233305560229e-01	 1.254387749590386e+01
 1.101280372777045e+00	 6.062917645831590e-01	 1.226213763247412e+01
 1.086894888185065e+00	 6.317180267354116e-01	 1.196673834390029e+01
 1.071876153383437e+00	 6.568787369623358e-01	 1.165931808443761e+01
 1.056231122931775e+00	 6.817506715915930e-01	 1.134145025001829e+01
 1.039967871893670e+00	 7.063108300842189e-01	 1.101463850928548e+01
 1.023095588178494e+00	 7.305365019730411e-01	 1.068031317207181e+01
 1.005624560115473e+00	 7.544053335958513e-01	 1.033982863780893e+01
 9.875661592536625e-01	 7.778953942287332e-01	 9.994461937467161e+00
 1.153545805260714e+00	 5.346612828794599e-01	 1.299468745052881e+01
 1.140949040708403e+00	 5.610400152854291e-01	 1.275956618513439e+01
 1.127697534855544e+00	 5.872213229487053e-01	 1.250733339117729e+01
 1.113794922467693e+00	 6.131814437261494e-01	 1.223966925909449e+01
 1.099245966459895e+00	 6.388966406755867e-01	 1.195819707881856e+01
 1.084056564217340e+00	 6.643432680641804e-01	 1.166447697589624e+01
 1.068233749328727e+00	 6.894978383142246e-01	 1.136000058749805e+01
 1.051785688619735e+00	 7.143370895169940e-01	 1.104618677286795e+01
 1.034721674407796e+00	 7.388380531318257e-01	 1.072437842889556e+01
 1.017052111934967e+00	 7.629781214776223e-01	 1.039584045365205e+01
 9.987885019724543e-01	 7.867351146176962e-01	 1.006175886974332e+01
 1.166506994083868e+00	 5.406687130241731e-01	 1.292937633820410e+01
 1.153768692851193e+00	 5.673438356818944e-01	 1.270750588034508e+01
 1.140368293674146e+00	 5.938193153413874e-01	 1.246854917828987e+01
 1.126309472158341e+00	 6.200711228691399e-01	 1.221411913352286e+01
 1.111597044734725e+00	 6.460752546157617e-01	 1.194576781165898e+01
 1.096236975051242e+00	 6.718077991660252e-01	 1.166498041184831e+01
 1.080236375725679e+00	 6.972450050368563e-01	 1.137317023879782e+01
 1.063603505345799e+00	 7.223633489497692e-01	 1.107167477634536e+01
 1.046347760637097e+00	 7.471396042906104e-01	 1.076175293601721e+01
 1.028479663754462e+00	 7.715509093593932e-01	 1.044458352420907e+01
 1.010010844691246e+00	 7.955748350066590e-01	 1.012126493844385e+01
 8.977874175033295e-01	 7.071776311170301e-01	 9.183238657744852e+00
 8.808480167443135e-01	 7.281684011114473e-01	 8.721954617606162e+00
 8.633981864501654e-01	 7.487763488613658e-01	 8.262439587996129e+00
 8.454510820362036e-01	 7.689830406864669e-01	 7.806502317422892e+00
 8.270207387910065e-01	 7.887706552535849e-01	 7.355821476183682e+00
 8.081220356417685e-01	 8.081220356417687e-01	 6.911943888915625e+00
 7.887706552535849e-01	 8.270207387910065e-01	 6.476283722071742e+00
 7.689830406864671e-01	 8.454510820362033e-01	 6.050122543701173e+00
 7.487763488613659e-01	 8.633981864501649e-01	 5.634610161226217e+00
 7.281684011114475e-01	 8.808480167443136e-01	 5.230766134958341e+00
 7.071776311170301e-01	 8.977874175033295e-01	 4.839481861145632e+00
 9.090097602221213e-01	 7.160173515059931e-01	 9.310343115419283e+00
 8.918586169536173e-01	 7.372705061253405e-01	 8.865923952846529e+00
 8.741906637807925e-01	 7.581360532221332e-01	 8.421686131257440e+00
 8.560192205616559e-01	 7.785953286950478e-01	 7.979397718461207e+00
 8.373584980258939e-01	 7.986302884442549e-01	 7.540709210116102e+00
 8.182235610872908e-01	 8.182235610872908e-01	 7.107151924624076e+00
 7.986302884442550e-01	 8.373584980258939e-01	 6.680137260891678e+00
 7.785953286950478e-01	 8.560192205616561e-01	 6.260956730400325e+00
 7.581360532221332e-01	 8.741906637807922e-01	 5.850782663981000e+00
 7.372705061253408e-01	 8.918586169536172e-01	 5.450669486628254e+00
 7.160173515059931e-01	 9.090097602221212e-01	 5.061555450877017e+00
 9.202321029409131e-01	 7.248570718949563e-01	 9.430322915677591e+00
 9.028692171629216e-01	 7.463726111392335e-01	 9.001687210182967e+00
 8.849831411114194e-01	 7.674957575828999e-01	 8.571770903193098e+00
 8.665873590871088e-01	 7.882076167036289e-01	 8.142299853161898e+00
 8.476962572607818e-01	 8.084899216349247e-01	 7.714894181263084e+00
 8.283250865328130e-01	 8.283250865328130e-01	 7.291066862400697e+00
 8.084899216349248e-01	 8.476962572607817e-01	 6.872223092924393e+00
 7.882076167036288e-01	 8.665873590871086e-01	 6.459660339842572e+00
 7.674957575829000e-01	 8.849831411114192e-01	 6.054568965811722e+00
 7.463726111392337e-01	 9.028692171629212e-01	 5.658033317919566e+00
 7.248570718949562e-01	 9.202321029409131e-01	 5.271033166550350e+00
 9.314544456597045e-01	 7.336967922839188e-01	 9.543052946794338e+00
 9.138798173722255e-01	 7.554747161531268e-01	 9.129212133701603e+00
 8.957756184420463e-01	 7.768554619436669e-01	 8.712749424992943e+00
 8.771554976125614e-01	 7.978199047122099e-01	 8.295347052194813e+00
 8.580340164956691e-01	 8.183495548255945e-01	 7.878592689941994e+00
 8.384266119783350e-01	 8.384266119783350e-01	 7.463978276940871e+00
 8.183495548255947e-01	 8.580340164956692e-01	 7.052899533393538e+00
 7.978199047122096e-01	 8.771554976125611e-01	 6.646656072296087e+00
 7.768554619436674e-01	 8.957756184420463e-01	 6.246451991928331e+00
 7.554747161531271e-01	 9.138798173722255e-01	 5.853396831309260e+00
 7.336967922839188e-01	 9.314544456597044e-01	 5.468506769672972e+00
 9.426767883784959e-01	 7.425365126728817e-01	 9.648421212050629e+00
 9.248904175815291e-01	 7.645768211670195e-01	 9.248475220839577e+00
 9.065680957726734e-01	 7.862151663044341e-01	 8.844681832914562e+00
 8.877236361380140e-01	 8.074321927207906e-01	 8.438678340314526e+00
 8.683717757305567e-01	 8.282091880162644e-01	 8.032018019632446e+00
 8.485281374238571e-01	 8.485281374238571e-01	 7.626169216883037e+00
 8.282091880162644e-01	 8.683717757305566e-01	 7.222515054536649e+00
 8.074321927207909e-01	 8.877236361380137e-01	 6.822353650005569e+00
 7.862151663044342e-01	 9.065680957726733e-01	 6.426898725077232e+00
 7.645768211670200e-01	 9.248904175815288e-01	 6.037280480867418e+00
 7.425365126728817e-01	 9.426767883784960e-01	 5.654546613098341e+00
 9.538991310972880e-01	 7.513762330618449e-01	 9.746328210988583e+00
 9.359010177908331e-01	 7.736789261809131e-01	 9.359461358901587e+00
 9.173605731033008e-01	 7.955748706652011e-01	 8.967632757874062e+00
 8.982917746634662e-01	 8.170444807293712e-01	 8.572433547173775e+00
 8.787095349654441e-01	 8.380688212069339e-01	 8.175380767539755e+00
 8.586296628693793e-01	 8.586296628693794e-01	 7.777916744065107e+00
 8.380688212069344e-01	 8.787095349654442e-01	 7.381409022948851e+00
 8.170444807293715e-01	 8.982917746634661e-01	 6.987150742508057e+00
 7.955748706652015e-01	 9.173605731033002e-01	 6.596361309234544e+00
 7.736789261809132e-01	 9.359010177908329e-01	 6.210187245289466e+00
 7.513762330618444e-01	 9.538991310972876e-01	 5.829703074941063e+00
 9.651214738160794e-01	 7.602159534508075e-01	 9.836686352894422e+00
 9.469116180001373e-01	 7.827810311948058e-01	 9.462163475946651e+00
 9.281530504339274e-01	 8.049345750259682e-01	 9.081671202457230e+00
 9.088599131889189e-01	 8.266567687379524e-01	 8.696753399495048e+00
 8.890472942003317e-01	 8.479284543976039e-01	 8.308889141311454e+00
 8.687311883149013e-01	 8.687311883149013e-01	 7.919492424555698e+00
 8.479284543976038e-01	 8.890472942003317e-01	 7.529912375118519e+00
 8.266567687379524e-01	 9.088599131889189e-01	 7.141433817311992e+00
 8.049345750259683e-01	 9.281530504339273e-01	 6.755278066550852e+00
 7.827810311948061e-01	 9.469116180001369e-01	 6.372603802738421e+00
 7.602159534508076e-01	 9.651214738160793e-01	 5.994507883489175e+00
 9.763438165348710e-01	 7.690556738397705e-01	 9.919419399917439e+00
 9.579222182094410e-01	 7.918831362086990e-01	 9.556582204887505e+00
 9.389455277645548e-01	 8.142942793867355e-01	 9.186870415558360e+00
 9.194280517143711e-01	 8.362690567465330e-01	 8.811779596098678e+00
 8.993850534352196e-01	 8.577880875882739e-01	 8.432749224629557e+00
 8.788327137604230e-01	 8.788327137604234e-01	 8.051162775341627e+00
 8.577880875882740e-01	 8.993850534352197e-01	 7.668348236127464e+00
 8.362690567465331e-01	 9.194280517143714e-01	 7.285578921945427e+00
 8.142942793867357e-01	 9.389455277645549e-01	 6.904074434526406e+00
 7.918831362086992e-01	 9.579222182094407e-01	 6.525001615399336e+00
 7.690556738397704e-01	 9.763438165348709e-01	 6.149475341885138e+00
 9.875661592536625e-01	 7.778953942287332e-01	 9.994461937467161e+00
 9.689328184187450e-01	 8.009852412225922e-01	 9.642725559752835e+00
 9.497380050951819e-01	 8.236539837475026e-01	 9.283307764836103e+00
 9.299961902398240e-01	 8.458813447551138e-01	 8.917654867152152e+00
 9.097228126701072e-01	 8.676477207789437e-01	 8.547165214154340e+00
 8.889342392059456e-01	 8.889342392059458e-01	 8.173189670197717e+00
 8.676477207789437e-01	 9.097228126701070e-01	 7.797032486036748e+00
 8.458813447551139e-01	 9.299961902398237e-01	 7.419952402832086e+00
 8.236539837475026e-01	 9.497380050951817e-01	 7.043163829763145e+00
 8.009852412225925e-01	 9.689328184187448e-01	 6.667837930926768e+00
 7.778953942287333e-01	 9.875661592536625e-01	 6.295103460547855e+00
 9.987885019724543e-01	 7.867351146176962e-01	 1.006175886974332e+01
 9.799434186280490e-01	 8.100873462364852e-01	 9.720608623154650e+00
 9.605304824258090e-01	 8.330136881082696e-01	 9.371064607157059e+00
 9.405643287652766e-01	 8.554936327636948e-01	 9.014523018880883e+00
 9.200605719049948e-01	 8.775073539696137e-01	 8.652339630073268e+00
 8.990357646514675e-01	 8.990357646514676e-01	 8.285830707950538e+00
 8.775073539696135e-01	 9.200605719049947e-01	 7.916274278072759e+00
 8.554936327636949e-01	 9.405643287652764e-01	 7.544911565964085e+00
 8.330136881082698e-01	 9.605304824258089e-01	 7.172948444067348e+00
 8.100873462364852e-01	 9.799434186280486e-01	 6.801556707322274e+00
 7.867351146176962e-01	 9.987885019724542e-01	 6.431875004592404e+00
 1.010010844691246e+00	 7.955748350066590e-01	 1.012126493844385e+01
 9.909540188373530e-01	 8.191894512503783e-01	 9.790253244090497e+00
 9.713229597564360e-01	 8.423733924690369e-01	 9.450226157184570e+00
 9.511324672907289e-01	 8.651059207722755e-01	 9.102528964871917e+00
 9.303983311398824e-01	 8.873669871602835e-01	 8.748473502307677e+00
 9.091372900969897e-01	 9.091372900969898e-01	 8.389339546059627e+00
 8.873669871602835e-01	 9.303983311398824e-01	 8.026376512362605e+00
 8.651059207722754e-01	 9.511324672907289e-01	 7.660805283898515e+00
 8.423733924690366e-01	 9.713229597564357e-01	 7.293819978164830e+00
 8.191894512503786e-01	 9.909540188373525e-01	 6.926589467197083e+00
 7.955748350066588e-01	 1.010010844691246e+00	 6.560258462858286e+00
 7.071776311170301e-01	 8.977874175033295e-01	 4.839481861145632e+00
 6.858230305416826e-01	 9.142041455595212e-01	 4.461349156685435e+00
 6.641240927027647e-01	 9.300868983440858e-01	 4.096993450228046e+00
 6.421007546220172e-01	 9.454253380851544e-01	 3.747155676711014e+00
 6.197733378105391e-01	 9.602101117561590e-01	 3.412435694835008e+00
 5.971624881475781e-01	 9.744328667122151e-01	 3.093293321587353e+00
 5.742891152140108e-01	 9.880862619864224e-01	 2.790049706866344e+00
 5.511743314392359e-01	 1.001163975251858e+00	 2.502889029859829e+00
 5.278393914145669e-01	 1.013660705488129e+00	 2.231860512743418e+00
 5.043056317172403e-01	 1.025572171423283e+00	 1.976880760778955e+00
 4.805944115770426e-01	 1.036895105852327e+00	 1.737736450289104e+00
 7.160173515059931e-01	 9.090097602221212e-01	 5.061555450877017e+00
 6.943958184234538e-01	 9.256316973790153e-01	 4.684046739238172e+00
 6.724256438615493e-01	 9.417129845733867e-01	 4.318786130226774e+00
 6.501270140547926e-01	 9.572431548112185e-01	 3.966587907125643e+00
 6.275205045331708e-01	 9.722127381531109e-01	 3.628142266700865e+00
 6.046270192494229e-01	 9.866132775461179e-01	 3.304015309490012e+00
 5.814677291541860e-01	 1.000437340261253e+00	 2.994649217754525e+00
 5.580640105822263e-01	 1.013678524942507e+00	 2.700362615448578e+00
 5.344373838072489e-01	 1.026331464306731e+00	 2.421351120953653e+00
 5.106094521137058e-01	 1.038391823566074e+00	 2.157688119099166e+00
 4.866018417217555e-01	 1.049856294675481e+00	 1.909325793352451e+00
 7.248570718949562e-01	 9.202321029409131e-01	 5.271033166550350e+00
 7.029686063052248e-01	 9.370592491985094e-01	 4.894202467346389e+00
 6.807271950203336e-01	 9.533390708026878e-01	 4.528211968201296e+00
 6.581532734875676e-01	 9.690609715372829e-01	 4.173938689334380e+00
 6.352676712558026e-01	 9.842153645500631e-01	 3.832151532361316e+00
 6.120915503512675e-01	 9.987936883800205e-01	 3.503510332000463e+00
 5.886463430943613e-01	 1.012788418536083e+00	 3.188564945354731e+00
 5.649536897252169e-01	 1.026193074633155e+00	 2.887754384506031e+00
 5.410353761999313e-01	 1.039002223125333e+00	 2.601406017134397e+00
 5.169132725101713e-01	 1.051211475708865e+00	 2.329734878011358e+00
 4.926092718664686e-01	 1.062817483498635e+00	 2.072843150665758e+00
 7.336967922839188e-01	 9.314544456597044e-01	 5.468506769672972e+00
 7.115413941869959e-01	 9.484868010180033e-01	 5.092454382704309e+00
 6.890287461791182e-01	 9.649651570319890e-01	 4.725946553226450e+00
 6.661795329203429e-01	 9.808787882633474e-01	 4.369912858939360e+00
 6.430148379784343e-01	 9.962179909470147e-01	 4.025189743612930e+00
 6.195560814531126e-01	 1.010974099213923e+00	 3.692518734064881e+00
 5.958249570345363e-01	 1.025139496810913e+00	 3.372544546657701e+00
 5.718433688682071e-01	 1.038707624323803e+00	 3.065813099135021e+00
 5.476333685926134e-01	 1.051672981943934e+00	 2.772769465254564e+00
 5.232170929066368e-01	 1.064031127851656e+00	 2.493755830300614e+00
 4.986167020111817e-01	 1.075778672321789e+00	 2.229009524223724e+00
 7.425365126728817e-01	 9.426767883784960e-01	 5.654546613098339e+00
 7.201141820687668e-01	 9.599143528374969e-01	 5.279416724069459e+00
 6.973302973379030e-01	 9.765912432612899e-01	 4.912639658623148e+00
 6.742057923531185e-01	 9.926966049894121e-01	 4.555187782921989e+00
 6.507620047010662e-01	 1.008220617343967e+00	 4.207954367863531e+00
 6.270206125549576e-01	 1.023154510047826e+00	 3.871751073542998e+00
 6.030035709747114e-01	 1.037490575085743e+00	 3.547305176910224e+00
 5.787330480111974e-01	 1.051222174014451e+00	 3.235256567207976e+00
 5.542313609852955e-01	 1.064343740762536e+00	 2.936154558196591e+00
 5.295209133031024e-01	 1.076850779994447e+00	 2.650454589391562e+00
 5.046241321558946e-01	 1.088739861144943e+00	 2.378514909567275e+00
 7.513762330618444e-01	 9.538991310972876e-01	 5.829703074941060e+00
 7.286869699505378e-01	 9.713419046569913e-01	 5.455681506355067e+00
 7.056318484966875e-01	 9.882173294905910e-01	 5.088916943551363e+00
 6.822320517858933e-01	 1.004514421715476e+00	 4.730415162150709e+00
 6.585091714236979e-01	 1.020223243740919e+00	 4.381115971141182e+00
 6.344851436568016e-01	 1.035334920881729e+00	 4.041890065564598e+00
 6.101821849148866e-01	 1.049841653360574e+00	 3.713535477491106e+00
 5.856227271541884e-01	 1.063736723705099e+00	 3.396773657332516e+00
 5.608293533779776e-01	 1.077014499581137e+00	 3.092245244840296e+00
 5.358247336995680e-01	 1.089670432137238e+00	 2.800505615090525e+00
 5.106315623006079e-01	 1.101701049968098e+00	 2.522020308282537e+00
 7.602159534508076e-01	 9.651214738160793e-01	 5.994507883489170e+00
 7.372597578323089e-01	 9.827694564764853e-01	 5.621819981034914e+00
 7.139333996554723e-01	 9.998434157198924e-01	 5.255381527838606e+00
 6.902583112186687e-01	 1.016332238441541e+00	 4.896222700572017e+00
 6.662563381463297e-01	 1.032225870137871e+00	 4.545319962677111e+00
 6.419496747586466e-01	 1.047515331715632e+00	 4.203592384691911e+00
 6.173607988550613e-01	 1.062192731635404e+00	 3.871897419075230e+00
 5.925124062971786e-01	 1.076251273395748e+00	 3.551026167731731e+00
 5.674273457706597e-01	 1.089685258399739e+00	 3.241698210725222e+00
 5.421285540960333e-01	 1.102490084280029e+00	 2.944556093496798e+00
 5.166389924453209e-01	 1.114662238791251e+00	 2.660159596075383e+00
 7.690556738397704e-01	 9.763438165348709e-01	 6.149475341885138e+00
 7.458325457140800e-01	 9.941970082959795e-01	 5.778383987409922e+00
 7.222349508142566e-01	 1.011469501949193e+00	 5.412615450242622e+00
 6.982845706514438e-01	 1.028150055167605e+00	 5.053215651813427e+00
 6.740035048689613e-01	 1.044228496534823e+00	 4.701188212198798e+00
 6.494142058604913e-01	 1.059695742549534e+00	 4.357490336330835e+00
 6.245394127952368e-01	 1.074543809910234e+00	 4.023028011729908e+00
 5.994020854401689e-01	 1.088765823086396e+00	 3.698650560792720e+00
 5.740253381633417e-01	 1.102356017218341e+00	 3.385144624071787e+00
 5.484323744924988e-01	 1.115309736422820e+00	 3.083227682817877e+00
 5.226464225900338e-01	 1.127623427614406e+00	 2.793541258041449e+00
 7.778953942287333e-01	 9.875661592536625e-01	 6.295103460547855e+00
 7.544053335958513e-01	 1.005624560115473e+00	 5.925907203418037e+00
 7.305365019730412e-01	 1.023095588178494e+00	 5.561181019420696e+00
 7.063108300842189e-01	 1.039967871893670e+00	 5.201978252947764e+00
 6.817506715915930e-01	 1.056231122931775e+00	 4.849320550058343e+00
 6.568787369623360e-01	 1.071876153383437e+00	 4.504193407789783e+00
 6.317180267354119e-01	 1.086894888185064e+00	 4.167540892527388e+00
 6.062917645831596e-01	 1.101280372777044e+00	 3.840259573969704e+00
 5.806233305560238e-01	 1.115026776036942e+00	 3.523191757872505e+00
 5.547361948889644e-01	 1.128129388565611e+00	 3.217118135753714e+00
 5.286538527347469e-01	 1.140584616437560e+00	 2.922750001695833e+00
 7.867351146176962e-01	 9.987885019724542e-01	 6.431875004592403e+00
 7.629781214776221e-01	 1.017052111934967e+00	 6.064906303888589e+00
 7.388380531318257e-01	 1.034721674407795e+00	 5.701622066044512e+00
 7.143370895169943e-01	 1.051785688619734e+00	 5.343075054295404e+00
 6.894978383142247e-01	 1.068233749328727e+00	 4.990296159412745e+00
 6.643432680641808e-01	 1.084056564217339e+00	 4.644289708452936e+00
 6.388966406755870e-01	 1.099245966459895e+00	 4.306027800308282e+00
 6.131814437261499e-01	 1.113794922467692e+00	 3.976443716765091e+00
 5.872213229487060e-01	 1.127697534855544e+00	 3.656424497799670e+00
 5.610400152854299e-01	 1.140949040708402e+00	 3.346802808159631e+00
 5.346612828794600e-01	 1.153545805260714e+00	 3.048348257376909e+00
 7.955748350066588e-01	 1.010010844691246e+00	 6.560258462858286e+00
 7.715509093593930e-01	 1.028479663754462e+00	 6.195882033439331e+00
 7.471396042906104e-01	 1.046347760637097e+00	 5.834465103749210e+00
 7.223633489497694e-01	 1.063603505345799e+00	 5.477052153349153e+00
 6.972450050368567e-01	 1.080236375725679e+00	 5.124674868850537e+00
 6.718077991660253e-01	 1.096236975051242e+00	 4.778347307692601e+00
 6.460752546157621e-01	 1.111597044734725e+00	 4.439059946372196e+00
 6.200711228691402e-01	 1.126309472158340e+00	 4.107772662650750e+00
 5.938193153413878e-01	 1.140368293674145e+00	 3.785406744810657e+00
 5.673438356818953e-01	 1.153768692851193e+00	 3.472836062831803e+00
 5.406687130241730e-01	 1.166506994083868e+00	 3.170877574784138e+00
 4.805944115770426e-01	 1.036895105852327e+00	 1.737736450289104e+00
 4.567270547025761e-01	 1.047627245962180e+00	 1.513842228367530e+00
 4.327247925665375e-01	 1.057767319819363e+00	 1.304932004465450e+00
 4.086087094294868e-01	 1.067315029200826e+00	 1.111081467911265e+00
 3.843996893596354e-01	 1.076271028969845e+00	 9.322398675490238e-01
 3.601183654826226e-01	 1.084636903217715e+00	 7.682297452908067e-01
 3.357850716703866e-01	 1.092415138407971e+00	 6.187476117335942e-01
 3.114197968524123e-01	 1.099609093772871e+00	 4.833656327897480e-01
 2.870421421062293e-01	 1.106222969222145e+00	 3.615343808046352e-01
 2.626712806573530e-01	 1.112261771031180e+00	 2.525866856664820e-01
 2.383259208922468e-01	 1.117731275580340e+00	 1.557426015156484e-01
 4.866018417217555e-01	 1.049856294675481e+00	 1.909325793352451e+00
 4.624361428863585e-01	 1.060722586536707e+00	 1.675860372547340e+00
 4.381338524736192e-01	 1.070989411317105e+00	 1.457140637830488e+00
 4.137163182973556e-01	 1.080656467065837e+00	 1.253316738890442e+00
 3.892046854766309e-01	 1.089724416831968e+00	 1.064416191309307e+00
 3.646198450511555e-01	 1.098194864507938e+00	 8.903425222608430e-01
 3.399823850662663e-01	 1.106070327638070e+00	 7.308748606592710e-01
 3.153125443130676e-01	 1.113354207445032e+00	 5.856685582753893e-01
 2.906301688825571e-01	 1.120050756337422e+00	 4.542569120518472e-01
 2.659546716655698e-01	 1.126165043169070e+00	 3.360540387012265e-01
 2.413049949034000e-01	 1.131702916525094e+00	 2.303589312743106e-01
 4.926092718664686e-01	 1.062817483498635e+00	 2.072843150665758e+00
 4.681452310701406e-01	 1.073817927111234e+00	 1.830492929012368e+00
 4.435429123807010e-01	 1.084211502814847e+00	 1.602641252591857e+00
 4.188239271652241e-01	 1.093997904930847e+00	 1.389510725183819e+00
 3.940096815936264e-01	 1.103177804694091e+00	 1.191205199038514e+00
 3.691213246196882e-01	 1.111752825798159e+00	 1.007707314112215e+00
 3.441796984621464e-01	 1.119725516868170e+00	 8.388769825157492e-01
 3.192052917737226e-01	 1.127099321117193e+00	 6.844509229242874e-01
 2.942181956588850e-01	 1.133878543452699e+00	 5.440433326094338e-01
 2.692380626737867e-01	 1.140068315306960e+00	 4.171477644223867e-01
 2.442840689145530e-01	 1.145674557469848e+00	 3.031402531319762e-01
 4.986167020111817e-01	 1.075778672321789e+00	 2.229009524223724e+00
 4.738543192539229e-01	 1.086913267685762e+00	 1.978444827378898e+00
 4.489519722877828e-01	 1.097433594312590e+00	 1.742122137671777e+00
 4.239315360330927e-01	 1.107339342795858e+00	 1.520334695053912e+00
 3.988146777106218e-01	 1.116631192556214e+00	 1.313260954283813e+00
 3.736228041882210e-01	 1.125310787088380e+00	 1.120960997305355e+00
 3.483770118580260e-01	 1.133380706098269e+00	 9.433738898664550e-01
 3.230980392343779e-01	 1.140844434789353e+00	 7.803161060507759e-01
 2.978062224352129e-01	 1.147706330567976e+00	 6.314811265254028e-01
 2.725214536820036e-01	 1.153971587444850e+00	 4.964402947775344e-01
 2.472631429257061e-01	 1.159646198414602e+00	 3.746449911304333e-01
 5.046241321558946e-01	 1.088739861144943e+00	 2.378514909567279e+00
 4.795634074377050e-01	 1.100008608260289e+00	 2.120390252301283e+00
 4.543610321948645e-01	 1.110655685810332e+00	 1.876241110678919e+00
 4.290391449009613e-01	 1.120680780660868e+00	 1.646429728093224e+00
 4.036196738276170e-01	 1.130084580418337e+00	 1.431207620621409e+00
 3.781242837567537e-01	 1.138868748378601e+00	 1.230710840372020e+00
 3.525743252539059e-01	 1.147035895328369e+00	 1.044956180239870e+00
 3.269907866950331e-01	 1.154589548461515e+00	 8.738384634011458e-01
 3.013942492115408e-01	 1.161534117683253e+00	 7.171290422370908e-01
 2.758048446902206e-01	 1.167874859582740e+00	 5.744756086427589e-01
 2.502422169368592e-01	 1.173617839359357e+00	 4.454033916067741e-01
 5.106315623006079e-01	 1.101701049968098e+00	 2.522020308282530e+00
 4.852724956214873e-01	 1.113103948834816e+00	 2.256974636248066e+00
 4.597700921019461e-01	 1.123877777308073e+00	 2.005627488980799e+00
 4.341467537688298e-01	 1.134022218525878e+00	 1.768408662827614e+00
 4.084246699446127e-01	 1.143537968280460e+00	 1.545641384258965e+00
 3.826257633252865e-01	 1.152426709668823e+00	 1.337536400229183e+00
 3.567716386497858e-01	 1.160691084558469e+00	 1.144187005126679e+00
 3.308835341556882e-01	 1.168334662133675e+00	 9.655651680733959e-01
 3.049822759878686e-01	 1.175361904798529e+00	 8.015189049303726e-01
 2.790882356984375e-01	 1.181778131720629e+00	 6.517710154260052e-01
 2.532212909480123e-01	 1.187589480304112e+00	 5.159192781344979e-01
 5.166389924453209e-01	 1.114662238791251e+00	 2.660159596075383e+00
 4.909815838052695e-01	 1.126199289409344e+00	 2.388816509691594e+00
 4.651791520090278e-01	 1.137099868805816e+00	 2.130883920141378e+00
 4.392543626366984e-01	 1.147363656390888e+00	 1.886857905735214e+00
 4.132296660616081e-01	 1.156991356142583e+00	 1.657132240181443e+00
 3.871272428938194e-01	 1.165984670959045e+00	 1.441991284224665e+00
 3.609689520456657e-01	 1.174346273788569e+00	 1.241603806936194e+00
 3.347762816163433e-01	 1.182079775805836e+00	 1.056017921645168e+00
 3.085703027641964e-01	 1.189189691913806e+00	 8.851573013587111e-01
 2.823716267066544e-01	 1.195681403858519e+00	 7.288188133615032e-01
 2.562003649591654e-01	 1.201561121248866e+00	 5.866716833506826e-01
 5.226464225900338e-01	 1.127623427614406e+00	 2.793541258041449e+00
 4.966906719890516e-01	 1.139294629983871e+00	 2.516509220183060e+00
 4.705882119161095e-01	 1.150321960303558e+00	 2.252588083040640e+00
 4.443619715045670e-01	 1.160705094255899e+00	 2.002339112831884e+00
 4.180346621786036e-01	 1.170444744004706e+00	 1.766225652820487e+00
 3.916287224623521e-01	 1.179542632249266e+00	 1.544604788717964e+00
 3.651662654415456e-01	 1.188001463018668e+00	 1.337719934536966e+00
 3.386690290769984e-01	 1.195824889477997e+00	 1.145694545953748e+00
 3.121583295405244e-01	 1.203017479029083e+00	 9.685271473824282e-01
 2.856550177148712e-01	 1.209584675996409e+00	 8.060878325770822e-01
 2.591794389703184e-01	 1.215532762193620e+00	 6.581163675734873e-01
 5.286538527347469e-01	 1.140584616437560e+00	 2.922750001695833e+00
 5.023997601728338e-01	 1.152389970558398e+00	 2.640622530742762e+00
 4.759972718231914e-01	 1.163544051801300e+00	 2.371294269961995e+00
 4.494695803724357e-01	 1.174046532120909e+00	 2.115390753959217e+00
 4.228396582955990e-01	 1.183898131866829e+00	 1.873444101227613e+00
 3.961302020308851e-01	 1.193100593539487e+00	 1.645883424016459e+00
 3.693635788374253e-01	 1.201656652248768e+00	 1.433026147038265e+00
 3.425617765376536e-01	 1.209570003150158e+00	 1.235070465020708e+00
 3.157463563168522e-01	 1.216845266144360e+00	 1.052089147557889e+00
 2.889384087230882e-01	 1.223487948134299e+00	 8.840248721004946e-01
 2.621585129814716e-01	 1.229504403138374e+00	 7.306872332166856e-01
 5.346612828794600e-01	 1.153545805260714e+00	 3.048348257376905e+00
 5.081088483566161e-01	 1.165485311132925e+00	 2.761704107057978e+00
 4.814063317302731e-01	 1.176766143299042e+00	 2.487534859009810e+00
 4.545771892403043e-01	 1.187387969985920e+00	 2.226529569001693e+00
 4.276446544125944e-01	 1.197351519728952e+00	 1.979288517836520e+00
 4.006316815994176e-01	 1.206658554829709e+00	 1.746312334606351e+00
 3.735608922333051e-01	 1.215311841478867e+00	 1.527992014603884e+00
 3.464545239983086e-01	 1.223315116822319e+00	 1.324600085762172e+00
 3.193343830931801e-01	 1.230673053259636e+00	 1.136283155267030e+00
 2.922217997313052e-01	 1.237391220272188e+00	 9.630560391471443e-01
 2.651375869926246e-01	 1.243476044083129e+00	 8.047976431964041e-01
 5.406687130241730e-01	 1.166506994083868e+00	 3.170877574784142e+00
 5.138179365403981e-01	 1.178580651707452e+00	 2.880280902135981e+00
 4.868153916373548e-01	 1.189988234796784e+00	 2.601821685387118e+00
 4.596847981081728e-01	 1.200729407850930e+00	 2.336251924437486e+00
 4.324496505295898e-01	 1.210804907591075e+00	 2.084239629089013e+00
 4.051331611679505e-01	 1.220216516119930e+00	 1.846356622821193e+00
 3.777582056291850e-01	 1.228967030708967e+00	 1.623067224306385e+00
 3.503472714589639e-01	 1.237060230494480e+00	 1.414718085356661e+00
 3.229224098695080e-01	 1.244500840374913e+00	 1.221529441122569e+00
 2.955051907395220e-01	 1.251294492410078e+00	 1.043587998288594e+00
 2.681166610037777e-01	 1.257447685027883e+00	 8.808416507973928e-01
 2.383259208922468e-01	 1.117731275580340e+00	 1.557426015156484e-01
 2.140242724616335e-01	 1.122637991418810e+00	 6.941568914724772e-02
 1.897840155258591e-01	 1.126989119925509e+00	-7.247729365784439e-03
 1.656222731693277e-01	 1.130792514836306e+00	-7.410118188379067e-02
 1.415555869874107e-01	 1.134056640901256e+00	-1.311173262130116e-01
 1.175998958269708e-01	 1.136790531927970e+00	-1.783829097375986e-01
 9.377051764084722e-02	 1.139003748457817e+00	-2.160924288573320e-01
 7.008213439745983e-02	 1.140706335310666e+00	-2.445406065568105e-01
 4.654877996922101e-02	 1.141908779221426e+00	-2.641138245035093e-01
 2.318383090774815e-02	 1.142621966778179e+00	-2.752806606865139e-01
 0.000000000000000e+00	 1.142857142857143e+00	-2.785816945441209e-01
 2.413049949034000e-01	 1.131702916525094e+00	 2.303589312743106e-01
 2.166995758674038e-01	 1.136670966311545e+00	 1.356683228211857e-01
 1.921563157199323e-01	 1.141076483924578e+00	 5.123679545208781e-02
 1.676925515839443e-01	 1.144927421271759e+00	-2.268070647348197e-02
 1.433250318247533e-01	 1.148232348912522e+00	-8.595676537186869e-02
 1.190698945248080e-01	 1.151000413577070e+00	-1.385871066448001e-01
 9.494264911135783e-02	 1.153241295313540e+00	-1.806847664758693e-01
 7.095816107742810e-02	 1.154965164502049e+00	-2.124729309399438e-01
 4.713063971883628e-02	 1.156182638961694e+00	-2.342765865800740e-01
 2.347362879409501e-02	 1.156904741362906e+00	-2.465131393546933e-01
 0.000000000000000e+00	 1.157142857142857e+00	-2.496821716846278e-01
 2.442840689145530e-01	 1.145674557469848e+00	 3.031402531319800e-01
 2.193748792731743e-01	 1.150703941204281e+00	 2.005934225659438e-01
 1.945286159140055e-01	 1.155163847923646e+00	 1.088590544591959e-01
 1.697628299985609e-01	 1.159062327707213e+00	 2.829312537581963e-02
 1.450944766620959e-01	 1.162408056923788e+00	-4.088407602567568e-02
 1.205398932226451e-01	 1.165210295226169e+00	-9.858421346472745e-02
 9.611478058186840e-02	 1.167478842169263e+00	-1.448455707360901e-01
 7.183418775739633e-02	 1.169223993693432e+00	-1.798262435679039e-01
 4.771249946845155e-02	 1.170456498701962e+00	-2.037959994291436e-01
 2.376342668044186e-02	 1.171187515947633e+00	-2.171269680213872e-01
 0.000000000000000e+00	 1.171428571428571e+00	-2.202833399639610e-01
 2.472631429257061e-01	 1.159646198414602e+00	 3.746449911304408e-01
 2.220501826789447e-01	 1.164736916097015e+00	 2.647372362262934e-01
 1.969009161080788e-01	 1.169251211922715e+00	 1.661558619665677e-01
 1.718331084131775e-01	 1.173197234142667e+00	 7.935080458085886e-02
 1.468639214994386e-01	 1.176583764935054e+00	 4.628366158247132e-03
 1.220098919204822e-01	 1.179420176875269e+00	-5.784569152385810e-02
 9.728691205237901e-02	 1.181716389024986e+00	-1.080413076226863e-01
 7.271021443736456e-02	 1.183482822884816e+00	-1.460576592561440e-01
 4.829435921806680e-02	 1.184730358442230e+00	-1.721152222192934e-01
 2.405322456678871e-02	 1.185470290532360e+00	-1.865465239003079e-01
 0.000000000000000e+00	 1.185714285714286e+00	-1.897857736873181e-01
 2.502422169368592e-01	 1.173617839359357e+00	 4.454033916067741e-01
 2.247254860847152e-01	 1.178769890989751e+00	 3.286180722862069e-01
 1.992732163021520e-01	 1.183338575921784e+00	 2.236362582347953e-01
 1.739033868277940e-01	 1.187332140578121e+00	 1.309951297604093e-01
 1.486333663367812e-01	 1.190759472946320e+00	 5.108048137380616e-02
 1.234798906183194e-01	 1.193630058524369e+00	-1.587082127544659e-02
 9.845904352288960e-02	 1.195953935880709e+00	-6.976648947480513e-02
 7.358624111733281e-02	 1.197741652076199e+00	-1.106526872847415e-01
 4.887621896768205e-02	 1.199004218182498e+00	-1.387062857883286e-01
 2.434302245313557e-02	 1.199753065117088e+00	-1.542256699717319e-01
 0.000000000000000e+00	 1.200000000000000e+00	-1.576202913153468e-01
 2.532212909480123e-01	 1.187589480304112e+00	 5.159192781344981e-01
 2.274007894904856e-01	 1.192802865882486e+00	 3.927280281979606e-01
 2.016455164962253e-01	 1.197425939920853e+00	 2.817832155682929e-01
 1.759736652424107e-01	 1.201467047013575e+00	 1.837028963007536e-01
 1.504028111741238e-01	 1.204935180957585e+00	 9.894616372576492e-02
 1.249498893161565e-01	 1.207839940173469e+00	 2.781497151752066e-02
 9.963117499340018e-02	 1.210191482736431e+00	-2.954199787591216e-02
 7.446226779730108e-02	 1.212000481267582e+00	-7.312354276577571e-02
 4.945807871729734e-02	 1.213278077922766e+00	-1.030683835909001e-01
 2.463282033948242e-02	 1.214035839701815e+00	-1.196460159814183e-01
 0.000000000000000e+00	 1.214285714285715e+00	-1.232461763960302e-01
 2.562003649591654e-01	 1.201561121248866e+00	 5.866716833506791e-01
 2.300760928962560e-01	 1.206835840775221e+00	 4.575345976196221e-01
 2.040178166902985e-01	 1.211513303919922e+00	 3.410552250043277e-01
 1.780439436570272e-01	 1.215601953449029e+00	 2.379264673169288e-01
 1.521722560114664e-01	 1.219110888968851e+00	 1.486748420298356e-01
 1.264198880139936e-01	 1.222049821822568e+00	 7.366167271194657e-02
 1.008033064639108e-01	 1.224429029592154e+00	 1.308647638548011e-02
 7.533829447726931e-02	 1.226259310458965e+00	-3.300757585429381e-02
 5.003993846691260e-02	 1.227551937663034e+00	-6.472628189424601e-02
 2.492261822582927e-02	 1.228318614286542e+00	-8.231530076840299e-02
 0.000000000000000e+00	 1.228571428571429e+00	-8.614952261791231e-02
 2.591794389703184e-01	 1.215532762193620e+00	 6.581163675734873e-01
 2.327513963020264e-01	 1.220868815667956e+00	 5.234821663012392e-01
 2.063901168843717e-01	 1.225600667918991e+00	 4.018877732062116e-01
 1.801142220716438e-01	 1.229736859884482e+00	 2.940952360105913e-01
 1.539417008488091e-01	 1.233286596980117e+00	 2.006929327971607e-01
 1.278898867118308e-01	 1.236259703471668e+00	 1.220961292304412e-01
 1.019754379344214e-01	 1.238666576447877e+00	 5.854988570435160e-02
 7.621432115723759e-02	 1.240518139650349e+00	 1.013419068074595e-02
 5.062179821652787e-02	 1.241825797403302e+00	-2.322883962734745e-02
 2.521241611217612e-02	 1.242601388871269e+00	-4.176588615805499e-02
 0.000000000000000e+00	 1.242857142857143e+00	-4.584169299733754e-02
 2.621585129814716e-01	 1.229504403138374e+00	 7.306872332166854e-01
 2.354266997077968e-01	 1.234901790560691e+00	 5.909934054799699e-01
 2.087624170784450e-01	 1.239688031918060e+00	 4.646947182918391e-01
 1.821845004862604e-01	 1.243871766319936e+00	 3.526169880644647e-01
 1.557111456861517e-01	 1.247462304991382e+00	 2.554051939793411e-01
 1.293598854096679e-01	 1.250469585120767e+00	 1.735233995728649e-01
 1.031475694049319e-01	 1.252904123303600e+00	 1.072571789598868e-01
 7.709034783720581e-02	 1.254776968841732e+00	 5.671842414375772e-02
 5.120365796614312e-02	 1.256099657143569e+00	 2.185237083931235e-02
 2.550221399852297e-02	 1.256884163455996e+00	 2.446646452528567e-03
 0.000000000000000e+00	 1.257142857142857e+00	-1.857884121187592e-03
 2.651375869926246e-01	 1.243476044083129e+00	 8.047976431964079e-01
 2.381020031135672e-01	 1.248934765453426e+00	 6.604705708439227e-01
 2.111347172725183e-01	 1.253775395917128e+00	 5.298695725483973e-01
 1.842547789008770e-01	 1.258006672755390e+00	 4.138791719349211e-01
 1.574805905234943e-01	 1.261638013002648e+00	 3.131959872789400e-01
 1.308298841075050e-01	 1.264679466769867e+00	 2.283280131768812e-01
 1.043197008754425e-01	 1.267141670159322e+00	 1.595965635213537e-01
 7.796637451717406e-02	 1.269035798033116e+00	 1.071407527035240e-01
 5.178551771575840e-02	 1.270373516883837e+00	 7.092434992090135e-02
 2.579201188486982e-02	 1.271166938040724e+00	 5.074480489564248e-02
 0.000000000000000e+00	 1.271428571428571e+00	 4.624421281769275e-02
 2.681166610037777e-01	 1.257447685027883e+00	 8.808416507973895e-01
 2.407773065193377e-01	 1.262967740346161e+00	 7.322967144084003e-01
 2.135070174665914e-01	 1.267862759916197e+00	 5.977866992748748e-01
 1.863250573154937e-01	 1.272141579190844e+00	 4.782500842063737e-01
 1.592500353608370e-01	 1.275813721013914e+00	 3.744304561377296e-01
 1.322998828053422e-01	 1.278889348418967e+00	 2.868751457141119e-01
 1.054918323459531e-01	 1.281379217015045e+00	 2.159366830605416e-01
 7.884240119714231e-02	 1.283294627224498e+00	 1.617769514347740e-01
 5.236737746537364e-02	 1.284647376624105e+00	 1.243738712863220e-01
 2.608180977121667e-02	 1.285449712625450e+00	 1.035304077770562e-01
 0.000000000000000e+00	 1.285714285714286e+00	 9.888566172091107e-02
 1.285714285714286e+00	 0.000000000000000e+00	 1.505624022809351e+01
 1.285449712625451e+00	 2.608180977121596e-02	 1.506620025010418e+01
 1.284647376624105e+00	 5.236737746537301e-02	 1.505959178005111e+01
 1.283294627224498e+00	 7.884240119714178e-02	 1.503764985076256e+01
 1.281379217015045e+00	 1.054918323459527e-01	 1.500169548226835e+01
 1.278889348418967e+00	 1.322998828053418e-01	 1.495313193330994e+01
 1.275813721013914e+00	 1.592500353608367e-01	 1.489344035387773e+01
 1.272141579190844e+00	 1.863250573154935e-01	 1.482417479227210e+01
 1.267862759916197e+00	 2.135070174665914e-01	 1.474695651365065e+01
 1.262967740346161e+00	 2.407773065193378e-01	 1.466346759295899e+01
 1.257447685027883e+00	 2.681166610037777e-01	 1.457544375369089e+01
 1.300000000000000e+00	 0.000000000000000e+00	 1.484507585435339e+01
 1.299732487210178e+00	 2.637160765756280e-02	 1.485583240889760e+01
 1.298921236364373e+00	 5.294923721498827e-02	 1.485062309466613e+01
 1.297553456415882e+00	 7.971842787711006e-02	 1.483074662372011e+01
 1.295616763870767e+00	 1.066639638164633e-01	 1.479757982176985e+01
 1.293099230068066e+00	 1.337698815031789e-01	 1.475257333812497e+01
 1.289989429025179e+00	 1.610194801981794e-01	 1.469724678035283e+01
 1.286276485626297e+00	 1.883953357301101e-01	 1.463318322853850e+01
 1.281950123915266e+00	 2.158793176606647e-01	 1.456202308756489e+01
 1.277000715238897e+00	 2.434526099251083e-01	 1.448545724195382e+01
 1.271419325972637e+00	 2.710957350149308e-01	 1.440521948667883e+01
 1.314285714285714e+00	 0.000000000000000e+00	 1.464656089781968e+01
 1.314015261794905e+00	 2.666140554390965e-02	 1.465809091391585e+01
 1.313195096104641e+00	 5.353109696460353e-02	 1.465421587691727e+01
 1.311812285607266e+00	 8.059445455707827e-02	 1.463629687299683e+01
 1.309854310726491e+00	 1.078360952869739e-01	 1.460576533321813e+01
 1.307309111717166e+00	 1.352398802010162e-01	 1.456411822426529e+01
 1.304165137036445e+00	 1.627889250355221e-01	 1.451291268674834e+01
 1.300411392061751e+00	 1.904656141447267e-01	 1.445376007685268e+01
 1.296037487914335e+00	 2.182516178547379e-01	 1.438831937068621e+01
 1.291033690131632e+00	 2.461279133308787e-01	 1.431828989700326e+01
 1.285390966917391e+00	 2.740748090260838e-01	 1.424540337320622e+01
 1.328571428571429e+00	 0.000000000000000e+00	 1.445978106396607e+01
 1.328298036379633e+00	 2.695120343025649e-02	 1.447206292386305e+01
 1.327468955844909e+00	 5.411295671421878e-02	 1.446946049066382e+01
 1.326071114798648e+00	 8.147048123704650e-02	 1.445339582132526e+01
 1.324091857582213e+00	 1.090082267574845e-01	 1.442535365082068e+01
 1.321518993366265e+00	 1.367098788988532e-01	 1.438687608693645e+01
 1.318340845047711e+00	 1.645583698728647e-01	 1.433955677466523e+01
 1.314546298497205e+00	 1.925358925593433e-01	 1.428503448629535e+01
 1.310124851913404e+00	 2.206239180488112e-01	 1.422498609694284e+01
 1.305066665024367e+00	 2.488032167366490e-01	 1.416111891181562e+01
 1.299362607862145e+00	 2.770538830372369e-01	 1.409516232110832e+01
 1.342857142857143e+00	 0.000000000000000e+00	 1.428385381284651e+01
 1.342580810964359e+00	 2.724100131660333e-02	 1.429686835730769e+01
 1.341742815585176e+00	 5.469481646383403e-02	 1.429548097336169e+01
 1.340329943990032e+00	 8.234650791701477e-02	 1.428117318492122e+01
 1.338329404437935e+00	 1.101803582279950e-01	 1.425548162651605e+01
 1.335728875015365e+00	 1.381798775966903e-01	 1.421999226643495e+01
 1.332516553058976e+00	 1.663278147102073e-01	 1.417633412060208e+01
 1.328681204932660e+00	 1.946061709739599e-01	 1.412617241305179e+01
 1.324212215912473e+00	 2.229962182428843e-01	 1.407120114257460e+01
 1.319099639917102e+00	 2.514785201424195e-01	 1.401313502188598e+01
 1.313334248806899e+00	 2.800329570483899e-01	 1.395370076570020e+01
 1.357142857142857e+00	 0.000000000000000e+00	 1.411792668780148e+01
 1.356863585549087e+00	 2.753079920295018e-02	 1.413165819364242e+01
 1.356016675325444e+00	 5.527667621344929e-02	 1.413143331224271e+01
 1.354588773181415e+00	 8.322253459698299e-02	 1.411879142782776e+01
 1.352566951293658e+00	 1.113524896985056e-01	 1.409531956540090e+01
 1.349938756664465e+00	 1.396498762945275e-01	 1.406264616754470e+01
 1.346692261070243e+00	 1.680972595475499e-01	 1.402243438216995e+01
 1.342816111368113e+00	 1.966764493885765e-01	 1.397637481625034e+01
 1.338299579911542e+00	 2.253685184369576e-01	 1.392617771435138e+01
 1.333132614809837e+00	 2.541538235481899e-01	 1.387356452779566e+01
 1.327305889751654e+00	 2.830120310595430e-01	 1.382025885079663e+01
 1.371428571428571e+00	 0.000000000000000e+00	 1.396117574862018e+01
 1.371146360133814e+00	 2.782059708929703e-02	 1.397561288021318e+01
 1.370290535065712e+00	 5.585853596306455e-02	 1.397650382815080e+01
 1.368847602372799e+00	 8.409856127695124e-02	 1.396544412517722e+01
 1.366804498149381e+00	 1.125246211690162e-01	 1.394406957111192e+01
 1.364148638313564e+00	 1.411198749923646e-01	 1.391404958970269e+01
 1.360867969081508e+00	 1.698667043848925e-01	 1.387708011567105e+01
 1.356951017803567e+00	 1.987467278031931e-01	 1.383487596554430e+01
 1.352386943910610e+00	 2.277408186310309e-01	 1.378916264970373e+01
 1.347165589702572e+00	 2.568291269539603e-01	 1.374166759038746e+01
 1.341277530696408e+00	 2.859911050706961e-01	 1.369411072137282e+01
 1.385714285714286e+00	 0.000000000000000e+00	 1.381280410162048e+01
 1.385429134718541e+00	 2.811039497564386e-02	 1.382794083795686e+01
 1.384564394805980e+00	 5.644039571267982e-02	 1.382990765926596e+01
 1.383106431564182e+00	 8.497458795691948e-02	 1.382035442751126e+01
 1.381042045005104e+00	 1.136967526395268e-01	 1.380096399322711e+01
 1.378358519962664e+00	 1.425898736902018e-01	 1.377344515993949e+01
 1.375043677092774e+00	 1.716361492222352e-01	 1.373952519700454e+01
 1.371085924239021e+00	 2.008170062178097e-01	 1.370094185237288e+01
 1.366474307909679e+00	 2.301131188251041e-01	 1.365943482068925e+01
 1.361198564595307e+00	 2.595044303597308e-01	 1.361673662974310e+01
 1.355249171641163e+00	 2.889701790818492e-01	 1.357456291980919e+01
 1.400000000000000e+00	 0.000000000000000e+00	 1.367204051972402e+01
 1.399711909303269e+00	 2.840019286199071e-02	 1.368787705851003e+01
 1.398838254546248e+00	 5.702225546229506e-02	 1.369088733758118e+01
 1.397365260755565e+00	 8.585061463688770e-02	 1.368277361894028e+01
 1.395279591860827e+00	 1.148688841100374e-01	 1.366526396939990e+01
 1.392568401611763e+00	 1.440598723880389e-01	 1.364010486125397e+01
 1.389219385104039e+00	 1.734055940595778e-01	 1.360905333851885e+01
 1.385220830674475e+00	 2.028872846324263e-01	 1.357386869749579e+01
 1.380561671908748e+00	 2.324854190191773e-01	 1.353630363437791e+01
 1.375231539488043e+00	 2.621797337655011e-01	 1.349809482054816e+01
 1.369220812585916e+00	 2.919492530930023e-01	 1.346095287832189e+01
 1.414285714285714e+00	 0.000000000000000e+00	 1.353813814616300e+01
 1.413994683887996e+00	 2.868999074833755e-02	 1.355468178632212e+01
 1.413112114286515e+00	 5.760411521191032e-02	 1.355871145157407e+01
 1.411624089946949e+00	 8.672664131685595e-02	 1.355197976250716e+01
 1.409517138716549e+00	 1.160410155805480e-01	 1.353625805552733e+01
 1.406778283260863e+00	 1.455298710858760e-01	 1.351332864967424e+01
 1.403395093115305e+00	 1.751750388969205e-01	 1.348497669502652e+01
 1.399355737109928e+00	 2.049575630470429e-01	 1.345298154799421e+01
 1.394649035907817e+00	 2.348577192132505e-01	 1.341910762283893e+01
 1.389264514380778e+00	 2.648550371712716e-01	 1.338509467702981e+01
 1.383192453530671e+00	 2.949283271041554e-01	 1.335264750077735e+01
 1.428571428571429e+00	 0.000000000000000e+00	 1.341037327596477e+01
 1.428277458472724e+00	 2.897978863468439e-02	 1.342763927982204e+01
 1.427385974026783e+00	 5.818597496152556e-02	 1.343267338903938e+01
 1.425882919138332e+00	 8.760266799682419e-02	 1.342727642665128e+01
 1.423754685572271e+00	 1.172131470510585e-01	 1.341326093779035e+01
 1.420988164909963e+00	 1.469998697837131e-01	 1.339244315379656e+01
 1.417570801126570e+00	 1.769444837342630e-01	 1.336663455274034e+01
 1.413490643545382e+00	 2.070278414616595e-01	 1.333763295747542e+01
 1.408736399906886e+00	 2.372300194073238e-01	 1.330721311645696e+01
 1.403297489273513e+00	 2.675303405770419e-01	 1.327711672119660e+01
 1.397164094475425e+00	 2.979074011153084e-01	 1.324904182763455e+01
 1.257447685027883e+00	 2.681166610037777e-01	 1.457544375369089e+01
 1.251294492410078e+00	 2.955051907395213e-01	 1.447577077075203e+01
 1.244500840374914e+00	 3.229224098695073e-01	 1.435726614481263e+01
 1.237060230494480e+00	 3.503472714589634e-01	 1.422160297399284e+01
 1.228967030708967e+00	 3.777582056291845e-01	 1.407045281609454e+01
 1.220216516119931e+00	 4.051331611679502e-01	 1.390547645999917e+01
 1.210804907591075e+00	 4.324496505295896e-01	 1.372831446579742e+01
 1.200729407850930e+00	 4.596847981081726e-01	 1.354057756952815e+01
 1.189988234796783e+00	 4.868153916373548e-01	 1.334383706455612e+01
 1.178580651707452e+00	 5.138179365403983e-01	 1.313961528617881e+01
 1.166506994083868e+00	 5.406687130241731e-01	 1.292937633820410e+01
 1.271419325972637e+00	 2.710957350149308e-01	 1.440521948667883e+01
 1.265197764547968e+00	 2.987885817477380e-01	 1.431404250161515e+01
 1.258328627490190e+00	 3.265104366458351e-01	 1.420459322772578e+01
 1.250805344166641e+00	 3.542400189196186e-01	 1.407853192089752e+01
 1.242622219939067e+00	 3.819555190250643e-01	 1.393750851728596e+01
 1.233774477410152e+00	 4.096346407364830e-01	 1.378315317684110e+01
 1.224258295453198e+00	 4.372546466465850e-01	 1.361706662689196e+01
 1.214070845715940e+00	 4.647924069760414e-01	 1.344081040783844e+01
 1.203210326294526e+00	 4.922244515444367e-01	 1.325589714010029e+01
 1.191675992281980e+00	 5.195270247241807e-01	 1.306378094685935e+01
 1.179468182907022e+00	 5.466761431688861e-01	 1.286584817992121e+01
 1.285390966917391e+00	 2.740748090260838e-01	 1.424540337320622e+01
 1.279101036685857e+00	 3.020719727559550e-01	 1.416224768868455e+01
 1.272156414605467e+00	 3.300984634221630e-01	 1.406134614251680e+01
 1.264550457838802e+00	 3.581327663802736e-01	 1.394434458788599e+01
 1.256277409169166e+00	 3.861528324209441e-01	 1.381287047317886e+01
 1.247332438700373e+00	 4.141361203050155e-01	 1.366852318679259e+01
 1.237711683315321e+00	 4.420596427635805e-01	 1.351286422678875e+01
 1.227412283580950e+00	 4.699000158439098e-01	 1.334740730333200e+01
 1.216432417792268e+00	 4.976335114515183e-01	 1.317360850003272e+01
 1.204771332856507e+00	 5.252361129079627e-01	 1.299285663666021e+01
 1.192429371730176e+00	 5.526835733135992e-01	 1.280646398925452e+01
 1.299362607862145e+00	 2.770538830372369e-01	 1.409516232110832e+01
 1.293004308823748e+00	 3.053553637641720e-01	 1.401956884720535e+01
 1.285984201720744e+00	 3.336864901984908e-01	 1.392672625444724e+01
 1.278295571510963e+00	 3.620255138409288e-01	 1.381826443570378e+01
 1.269932598399266e+00	 3.903501458168240e-01	 1.369578748266368e+01
 1.260890399990595e+00	 4.186375998735485e-01	 1.356086386020198e+01
 1.251165071177444e+00	 4.468646388805760e-01	 1.341501642371222e+01
 1.240753721445961e+00	 4.750076247117785e-01	 1.325971239296441e+01
 1.229654509290010e+00	 5.030425713586000e-01	 1.309635341545011e+01
 1.217866673431034e+00	 5.309452010917448e-01	 1.292626586962205e+01
 1.205390560553330e+00	 5.586910034583122e-01	 1.275069157290908e+01
 1.313334248806899e+00	 2.800329570483899e-01	 1.395370076570020e+01
 1.306907580961637e+00	 3.086387547723888e-01	 1.388522602265277e+01
 1.299811988836020e+00	 3.372745169748186e-01	 1.379997226745360e+01
 1.292040685183124e+00	 3.659182613015839e-01	 1.369955187782068e+01
 1.283587787629366e+00	 3.945474592127038e-01	 1.358554471792265e+01
 1.274448361280816e+00	 4.231390794420814e-01	 1.345948816970956e+01
 1.264618459039567e+00	 4.516696349975713e-01	 1.332286701851296e+01
 1.254095159310971e+00	 4.801152335796470e-01	 1.317710331185199e+01
 1.242876600787752e+00	 5.084516312656816e-01	 1.302354633114265e+01
 1.230962014005561e+00	 5.366542892755272e-01	 1.286346283469776e+01
 1.218351749376484e+00	 5.646984336030251e-01	 1.269802774593384e+01
 1.327305889751654e+00	 2.830120310595430e-01	 1.382025885079663e+01
 1.320810853099528e+00	 3.119221457806058e-01	 1.375847497476978e+01
 1.313639775951298e+00	 3.408625437511466e-01	 1.368035841930207e+01
 1.305785798855284e+00	 3.698110087622390e-01	 1.358750249493469e+01
 1.297242976859465e+00	 3.987447726085836e-01	 1.348146196661992e+01
 1.288006322571037e+00	 4.276405590106139e-01	 1.336374296853689e+01
 1.278071846901691e+00	 4.564746311145668e-01	 1.323579277751545e+01
 1.267436597175982e+00	 4.852228424475155e-01	 1.309898956915024e+01
 1.256098692285494e+00	 5.138606911727635e-01	 1.295463230295440e+01
 1.244057354580089e+00	 5.423633774593095e-01	 1.280393090298800e+01
 1.231312938199638e+00	 5.707058637477382e-01	 1.264799691713060e+01
 1.341277530696408e+00	 2.859911050706961e-01	 1.369411072137282e+01
 1.334714125237417e+00	 3.152055367888226e-01	 1.363860547264870e+01
 1.327467563066575e+00	 3.444505705274744e-01	 1.356719278665818e+01
 1.319530912527445e+00	 3.737037562228944e-01	 1.348144535772377e+01
 1.310898166089565e+00	 4.029420860044635e-01	 1.338289198013275e+01
 1.301564283861259e+00	 4.321420385791467e-01	 1.327300737207124e+01
 1.291525234763813e+00	 4.612796272315622e-01	 1.315320185537743e+01
 1.280778035040992e+00	 4.903304513153842e-01	 1.302481102012751e+01
 1.269320783783236e+00	 5.192697510798451e-01	 1.288908552699576e+01
 1.257152695154616e+00	 5.480724656430916e-01	 1.274718122196914e+01
 1.244274127022792e+00	 5.767132938924511e-01	 1.260014975608954e+01
 1.355249171641163e+00	 2.889701790818492e-01	 1.357456291980919e+01
 1.348617397375307e+00	 3.184889277970396e-01	 1.352493969284397e+01
 1.341295350181851e+00	 3.480385973038022e-01	 1.345981569213930e+01
 1.333276026199606e+00	 3.775965036835494e-01	 1.338074145003391e+01
 1.324553355319665e+00	 4.071393994003433e-01	 1.328921892017165e+01
 1.315122245151480e+00	 4.366435181476796e-01	 1.318669123529101e+01
 1.304978622625937e+00	 4.660846233485576e-01	 1.307453231074374e+01
 1.294119472906002e+00	 4.954380601832527e-01	 1.295403642749184e+01
 1.282542875280978e+00	 5.246788109869268e-01	 1.282640795407996e+01
 1.270248035729143e+00	 5.537815538268738e-01	 1.269275139043566e+01
 1.257235315845946e+00	 5.827207240371642e-01	 1.255406193596086e+01
 1.369220812585916e+00	 2.919492530930023e-01	 1.346095287832189e+01
 1.362520669513196e+00	 3.217723188052564e-01	 1.341683071315639e+01
 1.355123137297128e+00	 3.516266240801301e-01	 1.335759820606551e+01
 1.347021139871767e+00	 3.814892511442046e-01	 1.328478218532916e+01
 1.338208544549764e+00	 4.113367127962231e-01	 1.319985689676164e+01
 1.328680206441702e+00	 4.411449977162124e-01	 1.310423371918624e+01
 1.318432010488059e+00	 4.708896194655530e-01	 1.299925070806606e+01
 1.307460910771013e+00	 5.005456690511213e-01	 1.288616210559561e+01
 1.295764966778720e+00	 5.300878708940084e-01	 1.276612798329570e+01
 1.283343376303670e+00	 5.594906420106558e-01	 1.264020420839172e+01
 1.270196504669100e+00	 5.887281541818772e-01	 1.250933294655303e+01
 1.383192453530671e+00	 2.949283271041554e-01	 1.335264750077735e+01
 1.376423941651086e+00	 3.250557098134734e-01	 1.331366109532410e+01
 1.368950924412405e+00	 3.552146508564580e-01	 1.325994073621267e+01
 1.360766253543928e+00	 3.853819986048597e-01	 1.319298800980957e+01
 1.351863733779864e+00	 4.155340261921029e-01	 1.311424859112455e+01
 1.342238167731924e+00	 4.456464772847452e-01	 1.302510193988176e+01
 1.331885398350183e+00	 4.756946155825486e-01	 1.292685079949643e+01
 1.320802348636023e+00	 5.056532779189901e-01	 1.282071064165836e+01
 1.308987058276462e+00	 5.354969308010902e-01	 1.270779922912083e+01
 1.296438716878198e+00	 5.651997301944380e-01	 1.258912649659263e+01
 1.283157693492255e+00	 5.947355843265903e-01	 1.246558497278465e+01
 1.397164094475425e+00	 2.979074011153084e-01	 1.324904182763455e+01
 1.390327213788976e+00	 3.283391008216903e-01	 1.321484155039713e+01
 1.382778711527682e+00	 3.588026776327858e-01	 1.316627169940820e+01
 1.374511367216089e+00	 3.892747460655148e-01	 1.310480708613019e+01
 1.365518923009963e+00	 4.197313395879828e-01	 1.303186395751980e+01
 1.355796129022145e+00	 4.501479568532779e-01	 1.294878969467354e+01
 1.345338786212305e+00	 4.804996116995440e-01	 1.285685228124916e+01
 1.334143786501033e+00	 5.107608867868584e-01	 1.275722968861599e+01
 1.322209149774204e+00	 5.409059907081718e-01	 1.265099935692887e+01
 1.309534057452725e+00	 5.709088183782204e-01	 1.253912798086049e+01
 1.296118882315409e+00	 6.007430144713033e-01	 1.242246183391540e+01
 1.166506994083868e+00	 5.406687130241731e-01	 1.292937633820410e+01
 1.153768692851193e+00	 5.673438356818944e-01	 1.270750588034508e+01
 1.140368293674146e+00	 5.938193153413874e-01	 1.246854917828987e+01
 1.126309472158341e+00	 6.200711228691399e-01	 1.221411913352286e+01
 1.111597044734725e+00	 6.460752546157617e-01	 1.194576781165898e+01
 1.096236975051242e+00	 6.718077991660252e-01	 1.166498041184831e+01
 1.080236375725679e+00	 6.972450050368563e-01	 1.137317023879782e+01
 1.063603505345799e+00	 7.223633489497692e-01	 1.107167477634536e+01
 1.046347760637097e+00	 7.471396042906104e-01	 1.076175293601721e+01
 1.028479663754462e+00	 7.715509093593932e-01	 1.044458352420907e+01
 1.010010844691246e+00	 7.955748350066590e-01	 1.012126493844385e+01
 1.179468182907022e+00	 5.466761431688861e-01	 1.286584817992121e+01
 1.166588344993985e+00	 5.736476560783600e-01	 1.265639745293410e+01
 1.153039052492747e+00	 6.004173077340693e-01	 1.242990273711084e+01
 1.138824021848989e+00	 6.269608020121300e-01	 1.218791274814567e+01
 1.123948123009556e+00	 6.532538685559368e-01	 1.193191157701825e+01
 1.108417385885145e+00	 6.792723302678699e-01	 1.166331287195775e+01
 1.092239002122631e+00	 7.049921717594880e-01	 1.138345508620215e+01
 1.075421322071863e+00	 7.303896083825445e-01	 1.109359789550161e+01
 1.057973846866397e+00	 7.554411554493946e-01	 1.079491986211635e+01
 1.039907215573955e+00	 7.801236972411641e-01	 1.048851739024158e+01
 1.021233187410037e+00	 8.044145553956219e-01	 1.017540498230333e+01
 1.192429371730176e+00	 5.526835733135992e-01	 1.280646398925452e+01
 1.179407997136775e+00	 5.799514764748253e-01	 1.260865794347173e+01
 1.165709811311348e+00	 6.070153001267513e-01	 1.239385596673661e+01
 1.151338571539637e+00	 6.338504811551207e-01	 1.216354547883230e+01
 1.136299201284386e+00	 6.604324824961121e-01	 1.191914571574267e+01
 1.120597796719048e+00	 6.867368613697148e-01	 1.166200210172610e+01
 1.104241628519583e+00	 7.127393384821198e-01	 1.139338175022479e+01
 1.087239138797928e+00	 7.384158678153198e-01	 1.111447020323532e+01
 1.069599933095699e+00	 7.637427066081796e-01	 1.082636948982491e+01
 1.051334767393450e+00	 7.886964851229353e-01	 1.053009755055768e+01
 1.032455530128829e+00	 8.132542757845849e-01	 1.022658903670527e+01
 1.205390560553330e+00	 5.586910034583122e-01	 1.275069157290908e+01
 1.192227649279566e+00	 5.862552968712909e-01	 1.256380121105539e+01
 1.178380570129950e+00	 6.136132925194336e-01	 1.235996928381089e+01
 1.163853121230286e+00	 6.407401602981110e-01	 1.214062478488754e+01
 1.148650279559216e+00	 6.676110964362872e-01	 1.190712518866986e+01
 1.132778207552950e+00	 6.942013924715591e-01	 1.166075098884473e+01
 1.116244254916535e+00	 7.204865052047517e-01	 1.140270142890503e+01
 1.099056955523992e+00	 7.464421272480947e-01	 1.113409154053292e+01
 1.081226019325000e+00	 7.720442577669638e-01	 1.085595057512968e+01
 1.062762319212943e+00	 7.972692730047061e-01	 1.056922187765685e+01
 1.043677872847621e+00	 8.220939961735476e-01	 1.027476421155776e+01
 1.218351749376484e+00	 5.646984336030251e-01	 1.269802774593384e+01
 1.205047301422357e+00	 5.925591172677566e-01	 1.252136834787204e+01
 1.191051328948552e+00	 6.202112849121155e-01	 1.232782851179719e+01
 1.176367670920934e+00	 6.476298394411018e-01	 1.211878166024500e+01
 1.161001357834047e+00	 6.747897103764622e-01	 1.189552657835183e+01
 1.144958618386853e+00	 7.016659235734040e-01	 1.165928209431642e+01
 1.128246881313487e+00	 7.282336719273833e-01	 1.141118301491110e+01
 1.110874772250056e+00	 7.544683866808701e-01	 1.115227743917084e+01
 1.092852105554301e+00	 7.803458089257483e-01	 1.088352554079461e+01
 1.074189871032437e+00	 8.058420608864771e-01	 1.060579987142330e+01
 1.054900215566412e+00	 8.309337165625104e-01	 1.031988719394683e+01
 1.231312938199638e+00	 5.707058637477382e-01	 1.264799691713060e+01
 1.217866953565149e+00	 5.988629376642223e-01	 1.248092634821790e+01
 1.203722087767154e+00	 6.268092773047976e-01	 1.229704363625889e+01
 1.188882220611582e+00	 6.545195185840921e-01	 1.209766947762911e+01
 1.173352436108877e+00	 6.819683243166372e-01	 1.188404702467501e+01
 1.157139029220756e+00	 7.091304546752487e-01	 1.165733668204596e+01
 1.140249507710439e+00	 7.359808386500147e-01	 1.141861222153112e+01
 1.122692588976121e+00	 7.624946461136453e-01	 1.116885834643470e+01
 1.104478191783602e+00	 7.886473600845334e-01	 1.090896980201451e+01
 1.085617422851931e+00	 8.144148487682483e-01	 1.063975208777892e+01
 1.066122558285204e+00	 8.397734369514734e-01	 1.036192378169221e+01
 1.244274127022792e+00	 5.767132938924511e-01	 1.260014975608954e+01
 1.230686605707940e+00	 6.051667580606874e-01	 1.244206685345797e+01
 1.216392846585755e+00	 6.334072696974798e-01	 1.226724763025022e+01
 1.201396770302230e+00	 6.614091977270824e-01	 1.207696289686414e+01
 1.185703514383707e+00	 6.891469382568125e-01	 1.187240321853582e+01
 1.169319440054658e+00	 7.165949857770931e-01	 1.165467380027585e+01
 1.152252134107391e+00	 7.437280053726465e-01	 1.142479075418906e+01
 1.134510405702185e+00	 7.705209055464207e-01	 1.118367888894356e+01
 1.116104278012903e+00	 7.969489112433176e-01	 1.093217112466457e+01
 1.097044974671425e+00	 8.229876366500192e-01	 1.067100959334424e+01
 1.077344901003995e+00	 8.486131573404362e-01	 1.040084843625602e+01
 1.257235315845946e+00	 5.827207240371642e-01	 1.255406193596086e+01
 1.243506257850731e+00	 6.114705784571529e-01	 1.240440496744475e+01
 1.229063605404357e+00	 6.400052620901617e-01	 1.223809534475841e+01
 1.213911319992879e+00	 6.682988768700731e-01	 1.205635683270078e+01
 1.198054592658537e+00	 6.963255521969874e-01	 1.186033044938239e+01
 1.181499850888561e+00	 7.240595168789381e-01	 1.165106941112603e+01
 1.164254760504343e+00	 7.514751720952785e-01	 1.142953552420082e+01
 1.146328222428249e+00	 7.785471649791956e-01	 1.119659717275750e+01
 1.127730364242204e+00	 8.052504624021022e-01	 1.095302901379286e+01
 1.108472526490919e+00	 8.315604245317902e-01	 1.069951344422952e+01
 1.088567243722787e+00	 8.574528777293993e-01	 1.043664385360740e+01
 1.270196504669100e+00	 5.887281541818772e-01	 1.250933294655303e+01
 1.256325909993522e+00	 6.177743988536184e-01	 1.236757813736396e+01
 1.241734364222959e+00	 6.466032544828436e-01	 1.220926245955069e+01
 1.226425869683527e+00	 6.751885560130633e-01	 1.203556547790945e+01
 1.210405670933367e+00	 7.035041661371625e-01	 1.184758170277473e+01
 1.193680261722464e+00	 7.315240479807827e-01	 1.164631556480166e+01
 1.176257386901295e+00	 7.592223388179102e-01	 1.143267790175298e+01
 1.158146039154314e+00	 7.865734244119710e-01	 1.120748411717652e+01
 1.139356450471505e+00	 8.135520135608866e-01	 1.097145413019612e+01
 1.119900078310413e+00	 8.401332124135613e-01	 1.072521418723335e+01
 1.099789586441579e+00	 8.662925981183619e-01	 1.046930055176099e+01
 1.283157693492255e+00	 5.947355843265903e-01	 1.246558497278465e+01
 1.269145562136313e+00	 6.240782192500840e-01	 1.233124509538059e+01
 1.254405123041560e+00	 6.532012468755258e-01	 1.218044449015486e+01
 1.238940419374175e+00	 6.820782351560538e-01	 1.201432137773210e+01
 1.222756749208198e+00	 7.106827800773379e-01	 1.183392680442666e+01
 1.205860672556367e+00	 7.389885790826275e-01	 1.164021961531049e+01
 1.188260013298247e+00	 7.669695055405419e-01	 1.143406300533129e+01
 1.169963855880378e+00	 7.945996838447461e-01	 1.121622281984885e+01
 1.150982536700806e+00	 8.218535647196711e-01	 1.098736773309286e+01
 1.131327630129907e+00	 8.487060002953323e-01	 1.074807138186360e+01
 1.111011929160370e+00	 8.751323185073248e-01	 1.049881647380993e+01
 1.296118882315409e+00	 6.007430144713033e-01	 1.242246183391540e+01
 1.281965214279104e+00	 6.303820396465493e-01	 1.229508485682949e+01
 1.267075881860162e+00	 6.597992392682079e-01	 1.215135584704419e+01
 1.251454969064823e+00	 6.889679142990441e-01	 1.199237455209773e+01
 1.235107827483028e+00	 7.178613940175128e-01	 1.181915160747592e+01
 1.218041083390269e+00	 7.464531101844722e-01	 1.163260347478413e+01
 1.200262639695199e+00	 7.747166722631734e-01	 1.143354902504690e+01
 1.181781672606443e+00	 8.026259432775211e-01	 1.122270795099675e+01
 1.162608622930107e+00	 8.301551158784557e-01	 1.100070114706676e+01
 1.142755181949402e+00	 8.572787881771037e-01	 1.076805314172384e+01
 1.122234271879162e+00	 8.839720388962876e-01	 1.052519660536906e+01
 1.010010844691246e+00	 7.955748350066590e-01	 1.012126493844385e+01
 9.909540188373530e-01	 8.191894512503783e-01	 9.790253244090497e+00
 9.713229597564360e-01	 8.423733924690369e-01	 9.450226157184570e+00
 9.511324672907289e-01	 8.651059207722755e-01	 9.102528964871917e+00
 9.303983311398824e-01	 8.873669871602835e-01	 8.748473502307677e+00
 9.091372900969897e-01	 9.091372900969898e-01	 8.389339546059627e+00
 8.873669871602835e-01	 9.303983311398824e-01	 8.026376512362605e+00
 8.651059207722754e-01	 9.511324672907289e-01	 7.660805283898515e+00
 8.423733924690366e-01	 9.713229597564357e-01	 7.293819978164830e+00
 8.191894512503786e-01	 9.909540188373525e-01	 6.926589467197083e+00
 7.955748350066588e-01	 1.010010844691246e+00	 6.560258462858286e+00
 1.021233187410037e+00	 8.044145553956219e-01	 1.017540498230333e+01
 1.001964619046657e+00	 8.282915562642714e-01	 9.854037156353280e+00
 9.821154370870629e-01	 8.517330968298038e-01	 9.523108999219003e+00
 9.617006058161814e-01	 8.747182087808563e-01	 9.183914001226075e+00
 9.407360903747700e-01	 8.972266203509532e-01	 8.837718579972153e+00
 9.192388155425119e-01	 9.192388155425119e-01	 8.485763981512633e+00
 8.972266203509530e-01	 9.407360903747698e-01	 8.129268456132833e+00
 8.747182087808565e-01	 9.617006058161816e-01	 7.769429518438963e+00
 8.517330968298039e-01	 9.821154370870629e-01	 7.407426090262822e+00
 8.282915562642714e-01	 1.001964619046656e+00	 7.044420321455215e+00
 8.044145553956220e-01	 1.021233187410037e+00	 6.681558888516577e+00
 1.032455530128829e+00	 8.132542757845849e-01	 1.022658903670527e+01
 1.012975219255961e+00	 8.373936612781645e-01	 9.914312661918416e+00
 9.929079144176900e-01	 8.610928011905711e-01	 9.591993541698654e+00
 9.722687443416342e-01	 8.843304967894372e-01	 9.260872374290567e+00
 9.510738496096575e-01	 9.070862535416228e-01	 8.922168544941945e+00
 9.293403409880343e-01	 9.293403409880346e-01	 8.577082569842267e+00
 9.070862535416231e-01	 9.510738496096575e-01	 8.226798791775540e+00
 8.843304967894374e-01	 9.722687443416340e-01	 7.872488122373051e+00
 8.610928011905709e-01	 9.929079144176899e-01	 7.515310613820938e+00
 8.373936612781649e-01	 1.012975219255960e+00	 7.156417639207271e+00
 8.132542757845848e-01	 1.032455530128829e+00	 6.796953465893568e+00
 1.043677872847621e+00	 8.220939961735476e-01	 1.027476421155776e+01
 1.023985819465264e+00	 8.464957662920575e-01	 9.971074285110458e+00
 1.003700391748317e+00	 8.704525055513379e-01	 9.656918043133766e+00
 9.828368828670866e-01	 8.939427847980181e-01	 9.333482444583519e+00
 9.614116088445450e-01	 9.169458867322929e-01	 9.001938284190951e+00
 9.394418664335561e-01	 9.394418664335562e-01	 8.663443214694601e+00
 9.169458867322925e-01	 9.614116088445449e-01	 8.319145005444481e+00
 8.939427847980180e-01	 9.828368828670864e-01	 7.970184816479911e+00
 8.704525055513380e-01	 1.003700391748317e+00	 7.617700254195601e+00
 8.464957662920578e-01	 1.023985819465264e+00	 7.262827970649703e+00
 8.220939961735474e-01	 1.043677872847621e+00	 6.906705573998078e+00
 1.054900215566412e+00	 8.309337165625104e-01	 1.031988719394683e+01
 1.034996419674568e+00	 8.555978713059504e-01	 1.002432414958319e+01
 1.014492869078944e+00	 8.798122099121048e-01	 9.717926534674065e+00
 9.934050213925393e-01	 9.035550728065987e-01	 9.401826666791884e+00
 9.717493680794327e-01	 9.268055199229626e-01	 9.077145244681013e+00
 9.495433918790782e-01	 9.495433918790783e-01	 8.744994984932429e+00
 9.268055199229626e-01	 9.717493680794327e-01	 8.406484487364986e+00
 9.035550728065990e-01	 9.934050213925391e-01	 8.062722091468403e+00
 8.798122099121050e-01	 1.014492869078944e+00	 7.714819472145020e+00
 8.555978713059509e-01	 1.034996419674568e+00	 7.363894718394999e+00
 8.309337165625105e-01	 1.054900215566412e+00	 7.011074644146174e+00
 1.066122558285204e+00	 8.397734369514734e-01	 1.036192378169221e+01
 1.046007019883872e+00	 8.646999763198441e-01	 1.007407161434959e+01
 1.025285346409571e+00	 8.891719142728722e-01	 9.775068552048534e+00
 1.003973159917992e+00	 9.131673608151796e-01	 9.465991411190082e+00
 9.820871273143201e-01	 9.366651531136321e-01	 9.147909337981314e+00
 9.596449173246001e-01	 9.596449173246002e-01	 8.821888096347458e+00
 9.366651531136323e-01	 9.820871273143201e-01	 8.488994584721592e+00
 9.131673608151799e-01	 1.003973159917992e+00	 8.150301326331412e+00
 8.891719142728721e-01	 1.025285346409571e+00	 7.806890662168207e+00
 8.646999763198443e-01	 1.046007019883872e+00	 7.459858370556307e+00
 8.397734369514734e-01	 1.066122558285204e+00	 7.110316442814922e+00
 1.077344901003995e+00	 8.486131573404362e-01	 1.040084843625602e+01
 1.057017620093176e+00	 8.738020813337369e-01	 1.012033292271447e+01
 1.036077823740198e+00	 8.985316186336387e-01	 9.828398874422497e+00
 1.014541298443444e+00	 9.227796488237606e-01	 9.526066786445039e+00
 9.924248865492075e-01	 9.465247863043019e-01	 9.214352841187178e+00
 9.697464427701223e-01	 9.697464427701227e-01	 8.894273885017560e+00
 9.465247863043018e-01	 9.924248865492077e-01	 8.566852641954366e+00
 9.227796488237608e-01	 1.014541298443444e+00	 8.233122890273759e+00
 8.985316186336388e-01	 1.036077823740198e+00	 7.894134310965688e+00
 8.738020813337372e-01	 1.057017620093176e+00	 7.550956710867887e+00
 8.486131573404361e-01	 1.077344901003995e+00	 7.204683328788867e+00
 1.088567243722787e+00	 8.574528777293993e-01	 1.043664385360740e+01
 1.068028220302480e+00	 8.829041863476299e-01	 1.016313086317958e+01
 1.046870301070825e+00	 9.078913229944062e-01	 9.877977269672481e+00
 1.025109436968897e+00	 9.323919368323413e-01	 9.582146463707804e+00
 1.002762645784095e+00	 9.563844194949718e-01	 9.276600294405885e+00
 9.798479682156443e-01	 9.798479682156445e-01	 8.962304772912312e+00
 9.563844194949718e-01	 1.002762645784095e+00	 8.640236029372083e+00
 9.323919368323412e-01	 1.025109436968897e+00	 8.311386229398744e+00
 9.078913229944061e-01	 1.046870301070825e+00	 7.976769137457219e+00
 8.829041863476302e-01	 1.068028220302480e+00	 7.637425007498436e+00
 8.574528777293990e-01	 1.088567243722787e+00	 7.294424486456007e+00
 1.099789586441579e+00	 8.662925981183619e-01	 1.046930055176099e+01
 1.079038820511784e+00	 8.920062913615231e-01	 1.020249444146533e+01
 1.057662778401453e+00	 9.172510273551729e-01	 9.923868245621097e+00
 1.035677575494349e+00	 9.420042248409225e-01	 9.634327501899119e+00
 1.013100405018983e+00	 9.662440526856416e-01	 9.334778395054476e+00
 9.899494936611666e-01	 9.899494936611666e-01	 9.026134226300700e+00
 9.662440526856416e-01	 1.013100405018983e+00	 8.709322160917296e+00
 9.420042248409224e-01	 1.035677575494349e+00	 8.385289939241826e+00
 9.172510273551733e-01	 1.057662778401452e+00	 8.055012215673106e+00
 8.920062913615233e-01	 1.079038820511784e+00	 7.719496182079727e+00
 8.662925981183618e-01	 1.099789586441579e+00	 7.379786136955760e+00
 1.111011929160370e+00	 8.751323185073248e-01	 1.049881647380993e+01
 1.090049420721088e+00	 9.011083963754161e-01	 1.023845856286316e+01
 1.068455255732079e+00	 9.266107317159404e-01	 9.966140806809751e+00
 1.046245714019802e+00	 9.516165128495029e-01	 9.682710174105297e+00
 1.023438164253871e+00	 9.761036858763115e-01	 9.389015889195402e+00
 1.000051019106688e+00	 1.000051019106689e+00	 9.085916707469453e+00
 9.761036858763114e-01	 1.023438164253870e+00	 8.774288501849675e+00
 9.516165128495029e-01	 1.046245714019802e+00	 8.455031824152677e+00
 9.266107317159404e-01	 1.068455255732079e+00	 8.129079081730790e+00
 9.011083963754162e-01	 1.090049420721087e+00	 7.797400960348566e+00
 8.751323185073248e-01	 1.111011929160370e+00	 7.461011728745550e+00
 1.122234271879162e+00	 8.839720388962876e-01	 1.052519660536906e+01
 1.101060020930392e+00	 9.102105013893090e-01	 1.027106372419588e+01
 1.079247733062707e+00	 9.359704360767072e-01	 1.000486821642200e+01
 1.056813852545254e+00	 9.612288008580839e-01	 9.727397795006228e+00
 1.033775923488758e+00	 9.859633190669812e-01	 9.439443460116705e+00
 1.010152544552211e+00	 1.010152544552211e+00	 9.141807620220666e+00
 9.859633190669811e-01	 1.033775923488758e+00	 8.835312567054313e+00
 9.612288008580840e-01	 1.056813852545254e+00	 8.520808944445752e+00
 9.359704360767074e-01	 1.079247733062706e+00	 8.199183826010270e+00
 9.102105013893093e-01	 1.101060020930392e+00	 7.871368005690272e+00
 8.839720388962875e-01	 1.122234271879162e+00	 7.538342109026722e+00
 7.955748350066588e-01	 1.010010844691246e+00	 6.560258462858286e+00
 7.715509093593930e-01	 1.028479663754462e+00	 6.195882033439331e+00
 7.471396042906104e-01	 1.046347760637097e+00	 5.834465103749210e+00
 7.223633489497694e-01	 1.063603505345799e+00	 5.477052153349153e+00
 6.972450050368567e-01	 1.080236375725679e+00	 5.124674868850537e+00
 6.718077991660253e-01	 1.096236975051242e+00	 4.778347307692601e+00
 6.460752546157621e-01	 1.111597044734725e+00	 4.439059946372196e+00
 6.200711228691402e-01	 1.126309472158340e+00	 4.107772662650750e+00
 5.938193153413878e-01	 1.140368293674145e+00	 3.785406744810657e+00
 5.673438356818953e-01	 1.153768692851193e+00	 3.472836062831803e+00
 5.406687130241730e-01	 1.166506994083868e+00	 3.170877574784138e+00
 8.044145553956220e-01	 1.021233187410037e+00	 6.681558888516577e+00
 7.801236972411643e-01	 1.039907215573955e+00	 6.319943859099629e+00
 7.554411554493951e-01	 1.057973846866398e+00	 5.960609609622481e+00
 7.303896083825445e-01	 1.075421322071863e+00	 5.604589432142212e+00
 7.049921717594883e-01	 1.092239002122630e+00	 5.252912610850104e+00
 6.792723302678702e-01	 1.108417385885145e+00	 4.906599488622065e+00
 6.532538685559376e-01	 1.123948123009555e+00	 4.566655273001621e+00
 6.269608020121306e-01	 1.138824021848989e+00	 4.234062631120283e+00
 6.004173077340699e-01	 1.153039052492747e+00	 3.909773170283155e+00
 5.736476560783607e-01	 1.166588344993984e+00	 3.594697946403547e+00
 5.466761431688860e-01	 1.179468182907022e+00	 3.289697184398923e+00
 8.132542757845848e-01	 1.032455530128829e+00	 6.796953465893569e+00
 7.886964851229353e-01	 1.051334767393450e+00	 6.438062909890742e+00
 7.637427066081792e-01	 1.069599933095698e+00	 6.080809643645141e+00
 7.384158678153198e-01	 1.087239138797927e+00	 5.726217445062238e+00
 7.127393384821202e-01	 1.104241628519583e+00	 5.375315014285618e+00
 6.867368613697150e-01	 1.120597796719048e+00	 5.029130944192762e+00
 6.604324824961126e-01	 1.136299201284386e+00	 4.688687280109231e+00
 6.338504811551211e-01	 1.151338571539637e+00	 4.354991717874388e+00
 6.070153001267521e-01	 1.165709811311348e+00	 4.029028540469174e+00
 5.799514764748261e-01	 1.179407997136775e+00	 3.711748442705849e+00
 5.526835733135990e-01	 1.192429371730176e+00	 3.404057439100856e+00
 8.220939961735474e-01	 1.043677872847621e+00	 6.906705573998078e+00
 7.972692730047061e-01	 1.062762319212943e+00	 6.550517349549187e+00
 7.720442577669638e-01	 1.081226019325000e+00	 6.195356958935943e+00
 7.464421272480949e-01	 1.099056955523992e+00	 5.842240296440597e+00
 7.204865052047519e-01	 1.116244254916535e+00	 5.492197265150334e+00
 6.942013924715593e-01	 1.132778207552950e+00	 5.146266653889075e+00
 6.676110964362876e-01	 1.148650279559216e+00	 4.805489447722138e+00
 6.407401602981114e-01	 1.163853121230285e+00	 4.470900620416455e+00
 6.136132925194341e-01	 1.178380570129949e+00	 4.143519512345470e+00
 5.862552968712916e-01	 1.192227649279566e+00	 3.824338950645118e+00
 5.586910034583120e-01	 1.205390560553330e+00	 3.514313317927564e+00
 8.309337165625105e-01	 1.054900215566412e+00	 7.011074644146174e+00
 8.058420608864770e-01	 1.074189871032437e+00	 6.657580652240242e+00
 7.803458089257485e-01	 1.092852105554301e+00	 6.304537896235771e+00
 7.544683866808702e-01	 1.110874772250056e+00	 5.952955973655038e+00
 7.282336719273834e-01	 1.128246881313487e+00	 5.603867745314011e+00
 7.016659235734043e-01	 1.144958618386853e+00	 5.258324122553350e+00
 6.747897103764626e-01	 1.161001357834046e+00	 4.917387126730866e+00
 6.476298394411021e-01	 1.176367670920933e+00	 4.582121268188214e+00
 6.202112849121161e-01	 1.191051328948551e+00	 4.253583351233653e+00
 5.925591172677575e-01	 1.205047301422357e+00	 3.932810869221108e+00
 5.646984336030250e-01	 1.218351749376484e+00	 3.620809207389405e+00
 8.397734369514734e-01	 1.066122558285204e+00	 7.110316442814925e+00
 8.144148487682482e-01	 1.085617422851932e+00	 6.759521932348441e+00
 7.886473600845333e-01	 1.104478191783602e+00	 6.408633759656805e+00
 7.624946461136453e-01	 1.122692588976121e+00	 6.058656767695695e+00
 7.359808386500150e-01	 1.140249507710439e+00	 5.710628496603002e+00
 7.091304546752492e-01	 1.157139029220756e+00	 5.365613886526035e+00
 6.819683243166379e-01	 1.173352436108877e+00	 5.024698085488987e+00
 6.545195185840925e-01	 1.188882220611581e+00	 4.688977407892611e+00
 6.268092773047984e-01	 1.203722087767153e+00	 4.359548552982913e+00
 5.988629376642230e-01	 1.217866953565149e+00	 4.037496254592935e+00
 5.707058637477380e-01	 1.231312938199638e+00	 3.723879591338256e+00
 8.486131573404361e-01	 1.077344901003995e+00	 7.204683328788867e+00
 8.229876366500192e-01	 1.097044974671425e+00	 6.856606246025450e+00
 7.969489112433175e-01	 1.116104278012903e+00	 6.507921161736769e+00
 7.705209055464206e-01	 1.134510405702185e+00	 6.159629660672937e+00
 7.437280053726468e-01	 1.152252134107391e+00	 5.812775649555835e+00
 7.165949857770937e-01	 1.169319440054658e+00	 5.468439982292938e+00
 6.891469382568128e-01	 1.185703514383706e+00	 5.127733016855372e+00
 6.614091977270830e-01	 1.201396770302230e+00	 4.791785147301193e+00
 6.334072696974803e-01	 1.216392846585755e+00	 4.461735422789761e+00
 6.051667580606884e-01	 1.230686605707940e+00	 4.138718432046549e+00
 5.767132938924509e-01	 1.244274127022792e+00	 3.823849694119826e+00
 8.574528777293990e-01	 1.088567243722787e+00	 7.294424486456007e+00
 8.315604245317900e-01	 1.108472526490919e+00	 6.949094866532421e+00
 8.052504624021023e-01	 1.127730364242204e+00	 6.602672340013250e+00
 7.785471649791956e-01	 1.146328222428249e+00	 6.256156682654323e+00
 7.514751720952785e-01	 1.164254760504343e+00	 5.910599819403091e+00
 7.240595168789383e-01	 1.181499850888561e+00	 5.567100380345103e+00
 6.963255521969880e-01	 1.198054592658537e+00	 5.226796008532910e+00
 6.682988768700734e-01	 1.213911319992878e+00	 4.890853460541004e+00
 6.400052620901623e-01	 1.229063605404356e+00	 4.560456613784066e+00
 6.114705784571537e-01	 1.243506257850730e+00	 4.236792566120435e+00
 5.827207240371641e-01	 1.257235315845946e+00	 3.921036080381143e+00
 8.662925981183618e-01	 1.099789586441579e+00	 7.379786136955763e+00
 8.401332124135613e-01	 1.119900078310413e+00	 7.037245535249639e+00
 8.135520135608866e-01	 1.139356450471505e+00	 6.693155447151941e+00
 7.865734244119709e-01	 1.158146039154314e+00	 6.348515240020009e+00
 7.592223388179103e-01	 1.176257386901295e+00	 6.004386471613316e+00
 7.315240479807831e-01	 1.193680261722463e+00	 5.661887386736627e+00
 7.035041661371632e-01	 1.210405670933367e+00	 5.322184979326276e+00
 6.751885560130640e-01	 1.226425869683527e+00	 4.986484657614460e+00
 6.466032544828446e-01	 1.241734364222958e+00	 4.656017628254722e+00
 6.177743988536192e-01	 1.256325909993521e+00	 4.332026191876193e+00
 5.887281541818771e-01	 1.270196504669101e+00	 4.015747214629818e+00
 8.751323185073248e-01	 1.111011929160370e+00	 7.461011728745550e+00
 8.487060002953323e-01	 1.131327630129908e+00	 7.121312690073328e+00
 8.218535647196713e-01	 1.150982536700806e+00	 6.779634816499204e+00
 7.945996838447463e-01	 1.169963855880378e+00	 6.436978417351652e+00
 7.669695055405418e-01	 1.188260013298246e+00	 6.094416259156045e+00
 7.389885790826279e-01	 1.205860672556366e+00	 5.753088014623888e+00
 7.106827800773383e-01	 1.222756749208197e+00	 5.414192083727707e+00
 6.820782351560541e-01	 1.238940419374174e+00	 5.078974820679244e+00
 6.532012468755265e-01	 1.254405123041560e+00	 4.748717284157476e+00
 6.240782192500847e-01	 1.269145562136312e+00	 4.424719710062648e+00
 5.947355843265902e-01	 1.283157693492255e+00	 4.108283983389851e+00
 8.839720388962875e-01	 1.122234271879162e+00	 7.538342109026718e+00
 8.572787881771033e-01	 1.142755181949402e+00	 7.201547672782883e+00
 8.301551158784558e-01	 1.162608622930107e+00	 6.862371204779408e+00
 8.026259432775211e-01	 1.181781672606442e+00	 6.521815254706549e+00
 7.747166722631738e-01	 1.200262639695199e+00	 6.180965333462401e+00
 7.464531101844724e-01	 1.218041083390269e+00	 5.840984327887453e+00
 7.178613940175135e-01	 1.235107827483028e+00	 5.503104087048367e+00
 6.889679142990445e-01	 1.251454969064822e+00	 5.168614209416036e+00
 6.597992392682085e-01	 1.267075881860161e+00	 4.838848149334510e+00
 6.303820396465504e-01	 1.281965214279103e+00	 4.515166848700625e+00
 6.007430144713030e-01	 1.296118882315408e+00	 4.198940182573323e+00
 5.406687130241730e-01	 1.166506994083868e+00	 3.170877574784142e+00
 5.138179365403981e-01	 1.178580651707452e+00	 2.880280902135981e+00
 4.868153916373548e-01	 1.189988234796784e+00	 2.601821685387118e+00
 4.596847981081728e-01	 1.200729407850930e+00	 2.336251924437486e+00
 4.324496505295898e-01	 1.210804907591075e+00	 2.084239629089013e+00
 4.051331611679505e-01	 1.220216516119930e+00	 1.846356622821193e+00
 3.777582056291850e-01	 1.228967030708967e+00	 1.623067224306385e+00
 3.503472714589639e-01	 1.237060230494480e+00	 1.414718085356661e+00
 3.229224098695080e-01	 1.244500840374913e+00	 1.221529441122569e+00
 2.955051907395220e-01	 1.251294492410078e+00	 1.043587998288594e+00
 2.681166610037777e-01	 1.257447685027883e+00	 8.808416507973928e-01
 5.466761431688860e-01	 1.179468182907022e+00	 3.289697184398923e+00
 5.195270247241806e-01	 1.191675992281980e+00	 2.995629892674738e+00
 4.922244515444364e-01	 1.203210326294526e+00	 2.713382231577127e+00
 4.647924069760414e-01	 1.214070845715940e+00	 2.443759459875388e+00
 4.372546466465853e-01	 1.224258295453198e+00	 2.187487538393847e+00
 4.096346407364832e-01	 1.233774477410152e+00	 1.945199663951906e+00
 3.819555190250647e-01	 1.242622219939066e+00	 1.717423659212810e+00
 3.542400189196190e-01	 1.250805344166641e+00	 1.504570522281453e+00
 3.265104366458357e-01	 1.258328627490190e+00	 1.306924416466260e+00
 2.987885817477389e-01	 1.265197764547968e+00	 1.124634349374030e+00
 2.710957350149307e-01	 1.271419325972637e+00	 9.577077525690181e-01
 5.526835733135990e-01	 1.192429371730176e+00	 3.404057439100859e+00
 5.252361129079626e-01	 1.204771332856507e+00	 3.106929176797533e+00
 4.976335114515183e-01	 1.216432417792268e+00	 2.821351853039870e+00
 4.699000158439099e-01	 1.227412283580950e+00	 2.548165615226949e+00
 4.420596427635807e-01	 1.237711683315321e+00	 2.288135680634784e+00
 4.141361203050160e-01	 1.247332438700373e+00	 2.041937730661664e+00
 3.861528324209446e-01	 1.256277409169166e+00	 1.810144132097666e+00
 3.581327663802742e-01	 1.264550457838802e+00	 1.593211314125705e+00
 3.300984634221636e-01	 1.272156414605467e+00	 1.391468605930244e+00
 3.020719727559558e-01	 1.279101036685858e+00	 1.205108807507741e+00
 2.740748090260838e-01	 1.285390966917391e+00	 1.034180726715010e+00
 5.586910034583120e-01	 1.205390560553330e+00	 3.514313317927567e+00
 5.309452010917448e-01	 1.217866673431034e+00	 3.214533881395247e+00
 5.030425713586000e-01	 1.229654509290010e+00	 2.926080587939875e+00
 4.750076247117785e-01	 1.240753721445961e+00	 2.649810885050939e+00
 4.468646388805761e-01	 1.251165071177444e+00	 2.386511350514308e+00
 4.186375998735488e-01	 1.260890399990595e+00	 2.136882072383475e+00
 3.903501458168244e-01	 1.269932598399266e+00	 1.901521819924442e+00
 3.620255138409293e-01	 1.278295571510962e+00	 1.680914358882126e+00
 3.336864901984916e-01	 1.285984201720744e+00	 1.475416240339677e+00
 3.053553637641728e-01	 1.293004308823748e+00	 1.285246359245753e+00
 2.770538830372370e-01	 1.299362607862145e+00	 1.110477537619049e+00
 5.646984336030250e-01	 1.218351749376484e+00	 3.620809207389409e+00
 5.366542892755272e-01	 1.230962014005562e+00	 3.318788064044162e+00
 5.084516312656815e-01	 1.242876600787752e+00	 3.027907125443090e+00
 4.801152335796471e-01	 1.254095159310971e+00	 2.749024304414423e+00
 4.516696349975716e-01	 1.264618459039567e+00	 2.482930414104669e+00
 4.231390794420816e-01	 1.274448361280816e+00	 2.230332654495840e+00
 3.945474592127042e-01	 1.283587787629365e+00	 1.991838846551699e+00
 3.659182613015847e-01	 1.292040685183124e+00	 1.767942791821700e+00
 3.372745169748194e-01	 1.299811988836021e+00	 1.559011111154182e+00
 3.086387547723898e-01	 1.306907580961637e+00	 1.365271882203417e+00
 2.800329570483900e-01	 1.313334248806900e+00	 1.186805352932331e+00
 5.707058637477380e-01	 1.231312938199638e+00	 3.723879591338256e+00
 5.423633774593093e-01	 1.244057354580089e+00	 3.420025428265848e+00
 5.138606911727631e-01	 1.256098692285494e+00	 3.127159534649768e+00
 4.852228424475157e-01	 1.267436597175981e+00	 2.846124181252046e+00
 4.564746311145670e-01	 1.278071846901690e+00	 2.577698035883949e+00
 4.276405590106143e-01	 1.288006322571037e+00	 2.322578872799952e+00
 3.987447726085840e-01	 1.297242976859465e+00	 2.081366978946217e+00
 3.698110087622396e-01	 1.305785798855284e+00	 1.854549659266845e+00
 3.408625437511472e-01	 1.313639775951297e+00	 1.642487219157814e+00
 3.119221457806066e-01	 1.320810853099527e+00	 1.445400767540626e+00
 2.830120310595431e-01	 1.327305889751654e+00	 1.263362140238261e+00
 5.767132938924509e-01	 1.244274127022792e+00	 3.823849694119827e+00
 5.480724656430914e-01	 1.257152695154617e+00	 3.518569990897544e+00
 5.192697510798450e-01	 1.269320783783235e+00	 3.224155945177061e+00
 4.903304513153842e-01	 1.280778035040991e+00	 2.941418780530218e+00
 4.612796272315624e-01	 1.291525234763813e+00	 2.671109358252708e+00
 4.321420385791473e-01	 1.301564283861259e+00	 2.413900221580761e+00
 4.029420860044641e-01	 1.310898166089565e+00	 2.170368278408088e+00
 3.737037562228949e-01	 1.319530912527445e+00	 1.940978549039624e+00
 3.444505705274750e-01	 1.327467563066574e+00	 1.726069381622379e+00
 3.152055367888234e-01	 1.334714125237417e+00	 1.525839502759736e+00
 2.859911050706962e-01	 1.341277530696408e+00	 1.340337225818993e+00
 5.827207240371641e-01	 1.257235315845946e+00	 3.921036080381143e+00
 5.537815538268737e-01	 1.270248035729144e+00	 3.614736705029075e+00
 5.246788109869266e-01	 1.282542875280978e+00	 3.319205182878974e+00
 4.954380601832527e-01	 1.294119472906002e+00	 3.035206963693166e+00
 4.660846233485579e-01	 1.304978622625936e+00	 2.763450136961163e+00
 4.366435181476797e-01	 1.315122245151480e+00	 2.504566918598969e+00
 4.071393994003437e-01	 1.324553355319664e+00	 2.259095710055605e+00
 3.775965036835500e-01	 1.333276026199606e+00	 2.027464180711777e+00
 3.480385973038030e-01	 1.341295350181852e+00	 1.809973800941464e+00
 3.184889277970403e-01	 1.348617397375307e+00	 1.606786217682139e+00
 2.889701790818494e-01	 1.355249171641163e+00	 1.417911818259117e+00
 5.887281541818771e-01	 1.270196504669101e+00	 4.015747214629816e+00
 5.594906420106557e-01	 1.283343376303670e+00	 3.708832041680670e+00
 5.300878708940083e-01	 1.295764966778720e+00	 3.412607363909813e+00
 5.005456690511215e-01	 1.307460910771012e+00	 3.127778786585891e+00
 4.708896194655534e-01	 1.318432010488060e+00	 2.854997335595770e+00
 4.411449977162127e-01	 1.328680206441701e+00	 2.594840490093219e+00
 4.113367127962235e-01	 1.338208544549764e+00	 2.347793713551024e+00
 3.814892511442051e-01	 1.347021139871767e+00	 2.114232958527482e+00
 3.516266240801308e-01	 1.355123137297128e+00	 1.894408597487128e+00
 3.217723188052573e-01	 1.362520669513196e+00	 1.688431196232504e+00
 2.919492530930024e-01	 1.369220812585917e+00	 1.496259499398192e+00
 5.947355843265902e-01	 1.283157693492255e+00	 4.108283983389851e+00
 5.651997301944379e-01	 1.296438716878197e+00	 3.801154533138134e+00
 5.354969308010902e-01	 1.308987058276462e+00	 3.504654450075589e+00
 5.056532779189902e-01	 1.320802348636023e+00	 3.219416058789847e+00
 4.756946155825488e-01	 1.331885398350183e+00	 2.946019682020263e+00
 4.456464772847454e-01	 1.342238167731923e+00	 2.684974318617416e+00
 4.155340261921033e-01	 1.351863733779864e+00	 2.436698737807470e+00
 3.853819986048602e-01	 1.360766253543927e+00	 2.201503489638602e+00
 3.552146508564586e-01	 1.368950924412405e+00	 1.979574309218652e+00
 3.250557098134743e-01	 1.376423941651086e+00	 1.770957356448602e+00
 2.949283271041554e-01	 1.383192453530671e+00	 1.575546684940528e+00
 6.007430144713030e-01	 1.296118882315408e+00	 4.198940182573321e+00
 5.709088183782203e-01	 1.309534057452725e+00	 3.891995280630494e+00
 5.409059907081718e-01	 1.322209149774204e+00	 3.595630768183293e+00
 5.107608867868586e-01	 1.334143786501033e+00	 3.310392867071253e+00
 4.804996116995442e-01	 1.345338786212305e+00	 3.036778189433694e+00
 4.501479568532782e-01	 1.355796129022144e+00	 2.775214156316443e+00
 4.197313395879832e-01	 1.365518923009963e+00	 2.526039742198868e+00
 3.892747460655154e-01	 1.374511367216089e+00	 2.289487070080117e+00
 3.588026776327866e-01	 1.382778711527682e+00	 2.065664360370825e+00
 3.283391008216911e-01	 1.390327213788976e+00	 1.854540700941078e+00
 2.979074011153085e-01	 1.397164094475425e+00	 1.655933056846438e+00
 2.681166610037777e-01	 1.257447685027883e+00	 8.808416507973895e-01
 2.407773065193377e-01	 1.262967740346161e+00	 7.322967144084003e-01
 2.135070174665914e-01	 1.267862759916197e+00	 5.977866992748748e-01
 1.863250573154937e-01	 1.272141579190844e+00	 4.782500842063737e-01
 1.592500353608370e-01	 1.275813721013914e+00	 3.744304561377296e-01
 1.322998828053422e-01	 1.278889348418967e+00	 2.868751457141119e-01
 1.054918323459531e-01	 1.281379217015045e+00	 2.159366830605416e-01
 7.884240119714231e-02	 1.283294627224498e+00	 1.617769514347740e-01
 5.236737746537364e-02	 1.284647376624105e+00	 1.243738712863220e-01
 2.608180977121667e-02	 1.285449712625450e+00	 1.035304077770562e-01
 0.000000000000000e+00	 1.285714285714286e+00	 9.888566172091107e-02
 2.710957350149307e-01	 1.271419325972637e+00	 9.577077525690141e-01
 2.434526099251081e-01	 1.277000715238896e+00	 8.051887726895925e-01
 2.158793176606647e-01	 1.281950123915266e+00	 6.669569997713019e-01
 1.883953357301102e-01	 1.286276485626298e+00	 5.440153306925759e-01
 1.610194801981796e-01	 1.289989429025179e+00	 4.371646795846373e-01
 1.337698815031793e-01	 1.293099230068067e+00	 3.470018604804187e-01
 1.066639638164637e-01	 1.295616763870767e+00	 2.739204588825892e-01
 7.971842787711057e-02	 1.297553456415882e+00	 2.181145713721409e-01
 5.294923721498889e-02	 1.298921236364373e+00	 1.795852438653859e-01
 2.637160765756353e-02	 1.299732487210178e+00	 1.581493965486818e-01
 0.000000000000000e+00	 1.300000000000000e+00	 1.534509876259575e-01
 2.740748090260838e-01	 1.285390966917391e+00	 1.034180726715006e+00
 2.461279133308786e-01	 1.291033690131632e+00	 8.777577461691679e-01
 2.182516178547379e-01	 1.296037487914335e+00	 7.357855807316727e-01
 1.904656141447268e-01	 1.300411392061752e+00	 6.093565768822879e-01
 1.627889250355222e-01	 1.304165137036445e+00	 4.993537260479352e-01
 1.352398802010165e-01	 1.307309111717166e+00	 4.064475890126636e-01
 1.078360952869743e-01	 1.309854310726490e+00	 3.310963953069230e-01
 8.059445455707880e-02	 1.311812285607265e+00	 2.735491991163251e-01
 5.353109696460417e-02	 1.313195096104641e+00	 2.338519210726110e-01
 2.666140554391038e-02	 1.314015261794905e+00	 2.118560592996345e-01
 0.000000000000000e+00	 1.314285714285714e+00	 2.072298141015234e-01
 2.770538830372370e-01	 1.299362607862145e+00	 1.110477537619052e+00
 2.488032167366490e-01	 1.305066665024367e+00	 9.502064943161095e-01
 2.206239180488112e-01	 1.310124851913404e+00	 8.044668623522921e-01
 1.925358925593434e-01	 1.314546298497205e+00	 6.744648325568267e-01
 1.645583698728649e-01	 1.318340845047711e+00	 5.611895824421139e-01
 1.367098788988536e-01	 1.321518993366265e+00	 4.654090383673295e-01
 1.090082267574849e-01	 1.324091857582213e+00	 3.876690160804426e-01
 8.147048123704703e-02	 1.326071114798648e+00	 3.282956246025807e-01
 5.411295671421944e-02	 1.327468955844909e+00	 2.874007622498468e-01
 2.695120343025724e-02	 1.328298036379632e+00	 2.648904838849984e-01
 0.000000000000000e+00	 1.328571428571429e+00	 2.604759761127069e-01
 2.800329570483900e-01	 1.313334248806900e+00	 1.186805352932331e+00
 2.514785201424192e-01	 1.319099639917102e+00	 1.022728267866265e+00
 2.229962182428843e-01	 1.324212215912473e+00	 8.731856540195184e-01
 1.946061709739600e-01	 1.328681204932659e+00	 7.395213398661997e-01
 1.663278147102075e-01	 1.332516553058977e+00	 6.228541915835301e-01
 1.381798775966907e-01	 1.335728875015365e+00	 5.240725100831688e-01
 1.101803582279955e-01	 1.338329404437936e+00	 4.438320271836448e-01
 8.234650791701530e-02	 1.340329943990032e+00	 3.825573903222427e-01
 5.469481646383469e-02	 1.341742815585177e+00	 3.404469647285683e-01
 2.724100131660408e-02	 1.342580810964360e+00	 3.174807282457963e-01
 0.000000000000000e+00	 1.342857142857143e+00	 3.134309879209723e-01
 2.830120310595431e-01	 1.327305889751654e+00	 1.263362140238258e+00
 2.541538235481897e-01	 1.333132614809837e+00	 1.095507285820656e+00
 2.253685184369576e-01	 1.338299579911541e+00	 9.421177214634551e-01
 1.966764493885766e-01	 1.342816111368113e+00	 8.046981388088889e-01
 1.680972595475501e-01	 1.346692261070242e+00	 6.845200225306819e-01
 1.396498762945279e-01	 1.349938756664465e+00	 5.826144803030855e-01
 1.113524896985061e-01	 1.352566951293658e+00	 4.997689100661866e-01
 8.322253459698356e-02	 1.354588773181415e+00	 4.365273994493197e-01
 5.527667621344996e-02	 1.356016675325444e+00	 3.931946871039721e-01
 2.753079920295094e-02	 1.356863585549087e+00	 3.698434576060846e-01
 0.000000000000000e+00	 1.357142857142857e+00	 3.663246915423283e-01
 2.859911050706962e-01	 1.341277530696408e+00	 1.340337225818993e+00
 2.568291269539602e-01	 1.347165589702572e+00	 1.168719275922911e+00
 2.277408186310308e-01	 1.352386943910610e+00	 1.011430318129363e+00
 1.987467278031933e-01	 1.356951017803567e+00	 8.701585971328351e-01
 1.698667043848928e-01	 1.360867969081508e+00	 7.463506051205016e-01
 1.411198749923649e-01	 1.364148638313564e+00	 6.412021435392938e-01
 1.125246211690167e-01	 1.366804498149381e+00	 5.556534777491431e-01
 8.409856127695178e-02	 1.368847602372798e+00	 4.903884859312690e-01
 5.585853596306523e-02	 1.370290535065712e+00	 4.458376335428075e-01
 2.782059708929779e-02	 1.371146360133814e+00	 4.221845418419857e-01
 0.000000000000000e+00	 1.371428571428571e+00	 4.193758646768027e-01
 2.889701790818494e-01	 1.355249171641163e+00	 1.417911818259117e+00
 2.595044303597306e-01	 1.361198564595307e+00	 1.242531981251808e+00
 2.301131188251041e-01	 1.366474307909679e+00	 1.081282683347984e+00
 2.008170062178098e-01	 1.371085924239021e+00	 9.360579072253400e-01
 1.716361492222354e-01	 1.375043677092774e+00	 8.085010312838589e-01
 1.425898736902021e-01	 1.378358519962664e+00	 6.999939227053239e-01
 1.136967526395273e-01	 1.381042045005104e+00	 6.116503964731642e-01
 8.497458795692005e-02	 1.383106431564182e+00	 5.443139492889719e-01
 5.644039571268048e-02	 1.384564394805980e+00	 4.985596019389642e-01
 2.811039497564464e-02	 1.385429134718542e+00	 4.746996158986490e-01
 0.000000000000000e+00	 1.385714285714286e+00	 4.727927910339010e-01
 2.919492530930024e-01	 1.369220812585917e+00	 1.496259499398196e+00
 2.621797337655010e-01	 1.375231539488042e+00	 1.317105635348341e+00
 2.324854190191773e-01	 1.380561671908748e+00	 1.151826509677543e+00
 2.028872846324264e-01	 1.385220830674475e+00	 1.002543552350202e+00
 1.734055940595781e-01	 1.389219385104039e+00	 8.711184255139401e-01
 1.440598723880392e-01	 1.392568401611764e+00	 7.591399478254274e-01
 1.148688841100378e-01	 1.395279591860826e+00	 6.679156753544209e-01
 8.585061463688828e-02	 1.397365260755565e+00	 5.984680566467608e-01
 5.702225546229574e-02	 1.398838254546248e+00	 5.515349984977216e-01
 2.840019286199148e-02	 1.399711909303269e+00	 5.275746058936610e-01
 0.000000000000000e+00	 1.400000000000000e+00	 5.267737957404417e-01
 2.949283271041554e-01	 1.383192453530671e+00	 1.575546684940528e+00
 2.648550371712714e-01	 1.389264514380777e+00	 1.392593408103283e+00
 2.348577192132506e-01	 1.394649035907817e+00	 1.223206381596241e+00
 2.049575630470430e-01	 1.399355737109929e+00	 1.069755744398590e+00
 1.751750388969207e-01	 1.403395093115305e+00	 9.343423866676487e-01
 1.455298710858763e-01	 1.406778283260863e+00	 8.187825056347905e-01
 1.160410155805484e-01	 1.409517138716549e+00	 7.245971263093065e-01
 8.672664131685655e-02	 1.411624089946949e+00	 6.530065143097193e-01
 5.760411521191101e-02	 1.413112114286516e+00	 6.049293211227297e-01
 2.868999074833834e-02	 1.413994683887996e+00	 5.809862233329568e-01
 0.000000000000000e+00	 1.414285714285714e+00	 5.815077482990209e-01
 2.979074011153085e-01	 1.397164094475425e+00	 1.655933056846442e+00
 2.675303405770418e-01	 1.403297489273513e+00	 1.469141824451336e+00
 2.372300194073238e-01	 1.408736399906886e+00	 1.295560187550931e+00
 2.070278414616596e-01	 1.413490643545382e+00	 1.137827835148254e+00
 1.769444837342633e-01	 1.417570801126571e+00	 9.983054031075421e-01
 1.469998697837135e-01	 1.420988164909963e+00	 8.790564621093174e-01
 1.172131470510590e-01	 1.423754685572272e+00	 7.818347963298208e-01
 8.760266799682477e-02	 1.425882919138332e+00	 7.080769110191476e-01
 5.818597496152627e-02	 1.427385974026783e+00	 6.588996137898643e-01
 2.897978863468519e-02	 1.428277458472723e+00	 6.351024296717562e-01
 0.000000000000000e+00	 1.428571428571429e+00	 6.371745353695735e-01
 1.428571428571429e+00	 0.000000000000000e+00	 1.341037327596477e+01
 1.428277458472724e+00	 2.897978863468439e-02	 1.342763927982204e+01
 1.427385974026783e+00	 5.818597496152556e-02	 1.343267338903938e+01
 1.425882919138332e+00	 8.760266799682419e-02	 1.342727642665128e+01
 1.423754685572271e+00	 1.172131470510585e-01	 1.341326093779035e+01
 1.420988164909963e+00	 1.469998697837131e-01	 1.339244315379656e+01
 1.417570801126570e+00	 1.769444837342630e-01	 1.336663455274034e+01
 1.413490643545382e+00	 2.070278414616595e-01	 1.333763295747542e+01
 1.408736399906886e+00	 2.372300194073238e-01	 1.330721311645696e+01
 1.403297489273513e+00	 2.675303405770419e-01	 1.327711672119660e+01
 1.397164094475425e+00	 2.979074011153084e-01	 1.324904182763455e+01
 1.442857142857143e+00	 0.000000000000000e+00	 1.328909819543916e+01
 1.442560233057450e+00	 2.926958652103124e-02	 1.330708487481473e+01
 1.441659833767051e+00	 5.876783471114080e-02	 1.331311442024473e+01
 1.440141748329715e+00	 8.847869467679245e-02	 1.330902881200787e+01
 1.437992232427994e+00	 1.183852785215691e-01	 1.329667276779660e+01
 1.435198046559063e+00	 1.484698684815503e-01	 1.327788533126969e+01
 1.431746509137836e+00	 1.787139285716057e-01	 1.325449105047094e+01
 1.427625549980836e+00	 2.090981198762760e-01	 1.322829176164035e+01
 1.422823763905955e+00	 2.396023196013970e-01	 1.320108753717697e+01
 1.417330464166248e+00	 2.702056439828123e-01	 1.317463144374580e+01
 1.411135735420179e+00	 3.008864751264615e-01	 1.315061281734937e+01
 1.457142857142858e+00	 0.000000000000000e+00	 1.317477262110389e+01
 1.456843007642178e+00	 2.955938440737808e-02	 1.319345141642339e+01
 1.455933693507319e+00	 5.934969446075608e-02	 1.320041954952718e+01
 1.454400577521098e+00	 8.935472135676069e-02	 1.319756511639878e+01
 1.452229779283718e+00	 1.195574099920797e-01	 1.318677214954002e+01
 1.449407928208162e+00	 1.499398671793874e-01	 1.316991161119319e+01
 1.445922217149102e+00	 1.804833734089483e-01	 1.314883198862359e+01
 1.441760456416289e+00	 2.111683982908926e-01	 1.312534952703309e+01
 1.436911127905023e+00	 2.419746197954702e-01	 1.310123814237024e+01
 1.431363439058983e+00	 2.728809473885828e-01	 1.307821906333949e+01
 1.425107376364934e+00	 3.038655491376146e-01	 1.305796163565238e+01
 1.471428571428572e+00	 0.000000000000000e+00	 1.306686768121048e+01
 1.471125782226905e+00	 2.984918229372493e-02	 1.308624018254391e+01
 1.470207553247587e+00	 5.993155421037134e-02	 1.309411666441164e+01
 1.468659406712482e+00	 9.023074803672892e-02	 1.309243199125443e+01
 1.466467326139441e+00	 1.207295414625903e-01	 1.308310984264549e+01
 1.463617809857262e+00	 1.514098658772245e-01	 1.306805309066616e+01
 1.460097925160368e+00	 1.822528182462910e-01	 1.304913379282839e+01
 1.455895362851744e+00	 2.132386767055092e-01	 1.302818284167567e+01
 1.450998491904092e+00	 2.443469199895434e-01	 1.300697931914795e+01
 1.445396413951718e+00	 2.755562507943533e-01	 1.298723961104545e+01
 1.439079017309688e+00	 3.068446231487676e-01	 1.297060634441249e+01
 1.485714285714286e+00	 0.000000000000000e+00	 1.296487632275390e+01
 1.485408556811632e+00	 3.013898018007177e-02	 1.298497331890596e+01
 1.484481412987855e+00	 6.051341395998658e-02	 1.299375539503783e+01
 1.482918235903865e+00	 9.110677471669716e-02	 1.299320482963016e+01
 1.480704872995163e+00	 1.219016729331009e-01	 1.298528528051073e+01
 1.477827691506361e+00	 1.528798645750617e-01	 1.297193152613492e+01
 1.474273633171633e+00	 1.840222630836336e-01	 1.295503883716734e+01
 1.470030269287198e+00	 2.153089551201259e-01	 1.293645202531273e+01
 1.465085855903161e+00	 2.467192201836167e-01	 1.291795422355543e+01
 1.459429388844453e+00	 2.782315542001237e-01	 1.290125545943081e+01
 1.453050658254442e+00	 3.098236971599208e-01	 1.288798109060015e+01
 1.500000000000000e+00	 0.000000000000000e+00	 1.286831227248472e+01
 1.499691331396359e+00	 3.042877806641861e-02	 1.288919271757127e+01
 1.498755272728122e+00	 6.109527370960183e-02	 1.289890414468374e+01
 1.497177065095249e+00	 9.198280139666540e-02	 1.289947688512200e+01
 1.494942419850886e+00	 1.230738044036114e-01	 1.289291490524102e+01
 1.492037573155461e+00	 1.543498632728988e-01	 1.288118489164279e+01
 1.488449341182899e+00	 1.857917079209762e-01	 1.286620498267116e+01
 1.484165175722651e+00	 2.173792335347424e-01	 1.284983319922507e+01
 1.479173219902230e+00	 2.490915203776899e-01	 1.283385563537501e+01
 1.473462363737188e+00	 2.809068576058941e-01	 1.281997447694618e+01
 1.467022299199197e+00	 3.128027711710740e-01	 1.280979592403766e+01
 1.514285714285714e+00	 0.000000000000000e+00	 1.277670905673203e+01
 1.513974105981087e+00	 3.071857595276545e-02	 1.279845908172369e+01
 1.513029132468391e+00	 6.167713345921709e-02	 1.280914919665740e+01
 1.511435894286631e+00	 9.285882807663365e-02	 1.281085841798951e+01
 1.509179966706608e+00	 1.242459358741220e-01	 1.280563135013493e+01
 1.506247454804561e+00	 1.558198619707359e-01	 1.279546659482276e+01
 1.502625049194165e+00	 1.875611527583188e-01	 1.278230482398436e+01
 1.498300082158104e+00	 2.194495119493590e-01	 1.276801657550243e+01
 1.493260583901299e+00	 2.514638205717633e-01	 1.275438983888278e+01
 1.487495338629923e+00	 2.835821610116644e-01	 1.274311750579894e+01
 1.480993940143951e+00	 3.157818451822269e-01	 1.273578476842175e+01
 1.528571428571428e+00	 0.000000000000000e+00	 1.268961907618944e+01
 1.528256880565814e+00	 3.100837383911230e-02	 1.271235104290328e+01
 1.527302992208658e+00	 6.225899320883235e-02	 1.272409387127910e+01
 1.525694723478015e+00	 9.373485475660187e-02	 1.272697588918065e+01
 1.523417513562331e+00	 1.254180673446326e-01	 1.272308266804909e+01
 1.520457336453660e+00	 1.572898606685730e-01	 1.271444473691118e+01
 1.516800757205431e+00	 1.893305975956615e-01	 1.270302497835639e+01
 1.512434988593558e+00	 2.215197903639755e-01	 1.269070577237022e+01
 1.507347947900368e+00	 2.538361207658364e-01	 1.267927596190789e+01
 1.501528313522658e+00	 2.862574644174349e-01	 1.267041772219083e+01
 1.494965581088705e+00	 3.187609191933800e-01	 1.266569342382093e+01
 1.542857142857143e+00	 0.000000000000000e+00	 1.260661273210193e+01
 1.542539655150540e+00	 3.129817172545914e-02	 1.263046432728526e+01
 1.541576851948926e+00	 6.284085295844760e-02	 1.264335772970698e+01
 1.539953552669398e+00	 9.461088143657012e-02	 1.264747119915359e+01
 1.537655060418053e+00	 1.265901988151432e-01	 1.264493160266862e+01
 1.534667218102760e+00	 1.587598593664102e-01	 1.263780141392900e+01
 1.530976465216696e+00	 1.911000424330040e-01	 1.262806541421544e+01
 1.526569895029013e+00	 2.235900687785922e-01	 1.261761716766485e+01
 1.521435311899436e+00	 2.562084209599096e-01	 1.260824535175482e+01
 1.515561288415394e+00	 2.889327678232053e-01	 1.260162003227756e+01
 1.508937222033459e+00	 3.217399932045332e-01	 1.259927898031881e+01
 1.557142857142857e+00	 0.000000000000000e+00	 1.252727760055248e+01
 1.556822429735268e+00	 3.158796961180598e-02	 1.255241096785412e+01
 1.555850711689194e+00	 6.342271270806285e-02	 1.256657582159797e+01
 1.554212381860781e+00	 9.548690811653834e-02	 1.257200096861894e+01
 1.551892607273777e+00	 1.277623302856538e-01	 1.257085489992734e+01
 1.548877099751860e+00	 1.602298580642473e-01	 1.256523205638698e+01
 1.545152173227962e+00	 1.928694872703466e-01	 1.255713881678296e+01
 1.540704801464466e+00	 2.256603471932087e-01	 1.254847928800753e+01
 1.535522675898505e+00	 2.585807211539828e-01	 1.254104098562057e+01
 1.529594263308129e+00	 2.916080712289758e-01	 1.253648050155699e+01
 1.522908862978213e+00	 3.247190672156862e-01	 1.253630926415130e+01
 1.571428571428571e+00	 0.000000000000000e+00	 1.245121765178763e+01
 1.571105204319995e+00	 3.187776749815283e-02	 1.247781855955224e+01
 1.570124571429462e+00	 6.400457245767810e-02	 1.249339797381437e+01
 1.568471211052165e+00	 9.636293479650661e-02	 1.250023585853451e+01
 1.566130154129499e+00	 1.289344617561644e-01	 1.250054265702322e+01
 1.563086981400960e+00	 1.616998567620844e-01	 1.249644480506331e+01
 1.559327881239227e+00	 1.946389321076893e-01	 1.248996998837162e+01
 1.554839707899920e+00	 2.277306256078254e-01	 1.248303223140486e+01
 1.549610039897574e+00	 2.609530213480561e-01	 1.247741691331226e+01
 1.543627238200864e+00	 2.942833746347461e-01	 1.247476581555783e+01
 1.536880503922968e+00	 3.276981412268393e-01	 1.247656231426964e+01
 1.397164094475425e+00	 2.979074011153084e-01	 1.324904182763455e+01
 1.390327213788976e+00	 3.283391008216903e-01	 1.321484155039713e+01
 1.382778711527682e+00	 3.588026776327858e-01	 1.316627169940820e+01
 1.374511367216089e+00	 3.892747460655148e-01	 1.310480708613019e+01
 1.365518923009963e+00	 4.197313395879828e-01	 1.303186395751980e+01
 1.355796129022145e+00	 4.501479568532779e-01	 1.294878969467354e+01
 1.345338786212305e+00	 4.804996116995440e-01	 1.285685228124916e+01
 1.334143786501033e+00	 5.107608867868584e-01	 1.275722968861599e+01
 1.322209149774204e+00	 5.409059907081718e-01	 1.265099935692887e+01
 1.309534057452725e+00	 5.709088183782204e-01	 1.253912798086049e+01
 1.296118882315409e+00	 6.007430144713033e-01	 1.242246183391540e+01
 1.411135735420179e+00	 3.008864751264615e-01	 1.315061281734937e+01
 1.404230485926865e+00	 3.316224918299072e-01	 1.312085882866240e+01
 1.396606498642959e+00	 3.623907044091137e-01	 1.307709221849003e+01
 1.388256480888250e+00	 3.931674935261700e-01	 1.302076004828753e+01
 1.379174112240063e+00	 4.239286529838625e-01	 1.295324862200323e+01
 1.369354090312366e+00	 4.546494364218107e-01	 1.287587319687045e+01
 1.358792174074429e+00	 4.853046078165394e-01	 1.278986742404718e+01
 1.347485224366043e+00	 5.158684956547271e-01	 1.269637267034597e+01
 1.335431241271946e+00	 5.463150506152535e-01	 1.259642740705960e+01
 1.322629398027253e+00	 5.766179065620027e-01	 1.249095688384980e+01
 1.309080071138563e+00	 6.067504446160162e-01	 1.238076333306115e+01
 1.425107376364934e+00	 3.038655491376146e-01	 1.305796163565238e+01
 1.418133758064755e+00	 3.349058828381240e-01	 1.303232913332585e+01
 1.410434285758235e+00	 3.659787311854414e-01	 1.299303649038899e+01
 1.402001594560410e+00	 3.970602409868251e-01	 1.294150258191787e+01
 1.392829301470162e+00	 4.281259663797424e-01	 1.287908358339453e+01
 1.382912051602587e+00	 4.591509159903434e-01	 1.280706269104969e+01
 1.372245561936552e+00	 4.901096039335346e-01	 1.272663952637510e+01
 1.360826662231054e+00	 5.209761045225957e-01	 1.263891938055003e+01
 1.348653332769689e+00	 5.517241105223354e-01	 1.254490249198967e+01
 1.335724738601779e+00	 5.823269947457846e-01	 1.244547358478321e+01
 1.322041259961716e+00	 6.127578747607294e-01	 1.234139192555584e+01
 1.439079017309688e+00	 3.068446231487676e-01	 1.297060634441249e+01
 1.432037030202645e+00	 3.381892738463410e-01	 1.294888099973844e+01
 1.424262072873512e+00	 3.695667579617692e-01	 1.291376627594196e+01
 1.415746708232571e+00	 4.009529884474801e-01	 1.286671865313012e+01
 1.406484490700262e+00	 4.323232797756222e-01	 1.280907443026543e+01
 1.396470012892809e+00	 4.636523955588763e-01	 1.274208480596622e+01
 1.385698949798675e+00	 4.949146000505303e-01	 1.266691568535426e+01
 1.374168100096065e+00	 5.260837133904644e-01	 1.258463683216015e+01
 1.361875424267430e+00	 5.571331704294170e-01	 1.249621101459969e+01
 1.348820079176306e+00	 5.880360829295668e-01	 1.240248338318701e+01
 1.335002448784871e+00	 6.187653049054423e-01	 1.230417135096196e+01
 1.453050658254442e+00	 3.098236971599208e-01	 1.288798109060015e+01
 1.445940302340535e+00	 3.414726648545580e-01	 1.286995624401927e+01
 1.438089859988789e+00	 3.731547847380973e-01	 1.283888761214874e+01
 1.429491821904732e+00	 4.048457359081353e-01	 1.279610856113298e+01
 1.420139679930362e+00	 4.365205931715021e-01	 1.274294332970281e+01
 1.410027974183030e+00	 4.681538751274089e-01	 1.268068228041962e+01
 1.399152337660797e+00	 4.997195961675255e-01	 1.261045860105962e+01
 1.387509537961075e+00	 5.311913222583329e-01	 1.253330709931851e+01
 1.375097515765172e+00	 5.625422303364987e-01	 1.245015386686830e+01
 1.361915419750835e+00	 5.937451711133493e-01	 1.236180546973813e+01
 1.347963637608025e+00	 6.247727350501554e-01	 1.226893862092201e+01
 1.467022299199197e+00	 3.128027711710740e-01	 1.280979592403766e+01
 1.459843574478425e+00	 3.447560558627747e-01	 1.279518840524038e+01
 1.451917647104066e+00	 3.767428115144250e-01	 1.276789954467019e+01
 1.443236935576893e+00	 4.087384833687905e-01	 1.272922873981900e+01
 1.433794869160461e+00	 4.407179065673819e-01	 1.268040801972970e+01
 1.423585935473252e+00	 4.726553546959417e-01	 1.262261329429663e+01
 1.412605725522921e+00	 5.045245922845211e-01	 1.255704592176695e+01
 1.400850975826085e+00	 5.362989311262013e-01	 1.248472667731286e+01
 1.388319607262914e+00	 5.679512902435803e-01	 1.240654580503419e+01
 1.375010760325361e+00	 5.994542592971315e-01	 1.232327231724460e+01
 1.360924826431179e+00	 6.307801651948685e-01	 1.223554342659975e+01
 1.480993940143951e+00	 3.157818451822269e-01	 1.273578476842175e+01
 1.473746846616314e+00	 3.480394468709916e-01	 1.272432388614119e+01
 1.465745434219343e+00	 3.803308382907529e-01	 1.270054536682165e+01
 1.456982049249054e+00	 4.126312308294457e-01	 1.266571466374583e+01
 1.447450058390561e+00	 4.449152199632617e-01	 1.262102665376439e+01
 1.437143896763473e+00	 4.771568342644744e-01	 1.256759891534987e+01
 1.426059113385044e+00	 5.093295884015167e-01	 1.250646962190485e+01
 1.414192413691095e+00	 5.414065399940700e-01	 1.243870587393076e+01
 1.401541698760657e+00	 5.733603501506621e-01	 1.236521485486220e+01
 1.388106100899888e+00	 6.051633474809135e-01	 1.228672910038832e+01
 1.373886015254333e+00	 6.367875953395814e-01	 1.220384757351743e+01
 1.494965581088705e+00	 3.187609191933800e-01	 1.266569342382093e+01
 1.487650118754204e+00	 3.513228378792086e-01	 1.265712052783015e+01
 1.479573221334619e+00	 3.839188650670807e-01	 1.263659519013785e+01
 1.470727162921215e+00	 4.165239782901008e-01	 1.260534894131859e+01
 1.461105247620661e+00	 4.491125333591415e-01	 1.256453958656501e+01
 1.450701858053695e+00	 4.816583138330074e-01	 1.251524455412004e+01
 1.439512501247167e+00	 5.141345845185119e-01	 1.245845454037835e+01
 1.427533851556106e+00	 5.465141488619385e-01	 1.239506823017703e+01
 1.414763790258398e+00	 5.787694100577438e-01	 1.232600174504362e+01
 1.401201441474416e+00	 6.108724356646956e-01	 1.225203314234842e+01
 1.386847204077487e+00	 6.427950254842945e-01	 1.217372444199678e+01
 1.508937222033459e+00	 3.217399932045332e-01	 1.259927898031881e+01
 1.501553390892094e+00	 3.546062288874254e-01	 1.259334704025770e+01
 1.493401008449896e+00	 3.875068918434086e-01	 1.257582956289265e+01
 1.484472276593376e+00	 4.204167257507561e-01	 1.254792417517415e+01
 1.474760436850760e+00	 4.533098467550212e-01	 1.251075168815869e+01
 1.464259819343916e+00	 4.861597934015401e-01	 1.246534951574705e+01
 1.452965889109290e+00	 5.189395806355074e-01	 1.241266540348523e+01
 1.440875289421116e+00	 5.516217577298071e-01	 1.235355154311334e+01
 1.427985881756140e+00	 5.841784699648255e-01	 1.228875936690765e+01
 1.414296782048943e+00	 6.165815238484779e-01	 1.221905338656276e+01
 1.399808392900641e+00	 6.488024556290075e-01	 1.214505847154412e+01
 1.522908862978213e+00	 3.247190672156862e-01	 1.253630926415130e+01
 1.515456663029983e+00	 3.578896198956423e-01	 1.253278246429816e+01
 1.507228795565173e+00	 3.910949186197364e-01	 1.251803894868580e+01
 1.498217390265536e+00	 4.243094732114112e-01	 1.249324245781103e+01
 1.488415626080860e+00	 4.575071601509011e-01	 1.245947688365803e+01
 1.477817780634138e+00	 4.906612729700729e-01	 1.241773975861915e+01
 1.466419276971413e+00	 5.237445767525029e-01	 1.236893606699037e+01
 1.454216727286126e+00	 5.567293665976758e-01	 1.231387245497387e+01
 1.441207973253882e+00	 5.895875298719072e-01	 1.225325191967989e+01
 1.427392122623470e+00	 6.222906120322600e-01	 1.218766989201363e+01
 1.412769581723795e+00	 6.548098857737206e-01	 1.211774466764203e+01
 1.536880503922968e+00	 3.276981412268393e-01	 1.247656231426964e+01
 1.529359935167873e+00	 3.611730109038592e-01	 1.247521566342902e+01
 1.521056582680450e+00	 3.946829453960644e-01	 1.246302323377053e+01
 1.511962503937697e+00	 4.282022206720662e-01	 1.244111489507546e+01
 1.502070815310960e+00	 4.617044735467811e-01	 1.241053769339190e+01
 1.491375741924359e+00	 4.951627525386056e-01	 1.237224940996467e+01
 1.479872664833536e+00	 5.285495728694983e-01	 1.232711245436543e+01
 1.467558165151136e+00	 5.618369754655443e-01	 1.227588816795399e+01
 1.454430064751624e+00	 5.949965897789888e-01	 1.221923161849663e+01
 1.440487463197997e+00	 6.279997002160423e-01	 1.215768697092264e+01
 1.425730770546949e+00	 6.608173159184335e-01	 1.209168812952144e+01
 1.296118882315409e+00	 6.007430144713033e-01	 1.242246183391540e+01
 1.281965214279104e+00	 6.303820396465493e-01	 1.229508485682949e+01
 1.267075881860162e+00	 6.597992392682079e-01	 1.215135584704419e+01
 1.251454969064823e+00	 6.889679142990441e-01	 1.199237455209773e+01
 1.235107827483028e+00	 7.178613940175128e-01	 1.181915160747592e+01
 1.218041083390269e+00	 7.464531101844722e-01	 1.163260347478413e+01
 1.200262639695199e+00	 7.747166722631734e-01	 1.143354902504690e+01
 1.181781672606443e+00	 8.026259432775211e-01	 1.122270795099675e+01
 1.162608622930107e+00	 8.301551158784557e-01	 1.100070114706676e+01
 1.142755181949402e+00	 8.572787881771037e-01	 1.076805314172384e+01
 1.122234271879162e+00	 8.839720388962876e-01	 1.052519660536906e+01
 1.309080071138563e+00	 6.067504446160162e-01	 1.238076333306115e+01
 1.294784866421895e+00	 6.366858600430149e-01	 1.225994904150262e+01
 1.279746640678763e+00	 6.663972316608902e-01	 1.212289803531241e+01
 1.263969518755471e+00	 6.958575934420344e-01	 1.197067298187507e+01
 1.247458905757858e+00	 7.250400079576877e-01	 1.180424555455418e+01
 1.230221494224172e+00	 7.539176412863171e-01	 1.162449130773530e+01
 1.212265266092151e+00	 7.824638389858052e-01	 1.143218626637546e+01
 1.193599489332507e+00	 8.106522027102963e-01	 1.122800542744185e+01
 1.174234709159408e+00	 8.384566670372404e-01	 1.101252332309095e+01
 1.154182733768895e+00	 8.658515760588743e-01	 1.078621673832985e+01
 1.133456614597953e+00	 8.928117592852505e-01	 1.054946961089347e+01
 1.322041259961716e+00	 6.127578747607294e-01	 1.234139192555584e+01
 1.307604518564686e+00	 6.429896804394803e-01	 1.222678130033045e+01
 1.292417399497365e+00	 6.729952240535723e-01	 1.209605332516893e+01
 1.276484068446120e+00	 7.027472725850251e-01	 1.195023353862820e+01
 1.259809984032689e+00	 7.322186218978631e-01	 1.179025453581321e+01
 1.242401905058074e+00	 7.613821723881616e-01	 1.161695075683509e+01
 1.224267892489103e+00	 7.902110057084371e-01	 1.143105506271080e+01
 1.205417306058571e+00	 8.186784621430717e-01	 1.123319731064862e+01
 1.185860795388709e+00	 8.467582181960245e-01	 1.102390509063430e+01
 1.165610285588389e+00	 8.744243639406458e-01	 1.080360672493031e+01
 1.144678957316745e+00	 9.016514796742134e-01	 1.057263656330430e+01
 1.335002448784871e+00	 6.187653049054423e-01	 1.230417135096196e+01
 1.320424170707476e+00	 6.492935008359457e-01	 1.219542317634613e+01
 1.305088158315966e+00	 6.795932164462539e-01	 1.207068027149618e+01
 1.288998618136768e+00	 7.096369517280152e-01	 1.193093107372207e+01
 1.272161062307519e+00	 7.393972358380383e-01	 1.177706905865490e+01
 1.254582315891977e+00	 7.688467034900063e-01	 1.160988741671886e+01
 1.236270518886055e+00	 7.979581724310687e-01	 1.143007559367107e+01
 1.217235122784636e+00	 8.267047215758466e-01	 1.123821792281342e+01
 1.197486881618010e+00	 8.550597693548092e-01	 1.103479452382820e+01
 1.177037837407883e+00	 8.829971518224162e-01	 1.082018457953362e+01
 1.155901300035536e+00	 9.104912000631761e-01	 1.059467202906812e+01
 1.347963637608025e+00	 6.247727350501554e-01	 1.226893862092201e+01
 1.333243822850268e+00	 6.555973212324112e-01	 1.216572885770422e+01
 1.317758917134568e+00	 6.861912088389360e-01	 1.204664945176782e+01
 1.301513167827416e+00	 7.165266308710059e-01	 1.191265184631586e+01
 1.284512140582349e+00	 7.465758497782133e-01	 1.176459043430181e+01
 1.266762726725879e+00	 7.763112345918509e-01	 1.160321709549745e+01
 1.248273145283007e+00	 8.057053391537005e-01	 1.142917767808862e+01
 1.229052939510700e+00	 8.347309810086222e-01	 1.124301066921569e+01
 1.209112967847312e+00	 8.633613205135937e-01	 1.104514824347407e+01
 1.188465389227377e+00	 8.915699397041872e-01	 1.083591981121177e+01
 1.167123642754328e+00	 9.193309204521392e-01	 1.061555811147381e+01
 1.360924826431179e+00	 6.307801651948685e-01	 1.223554342659975e+01
 1.346063474993059e+00	 6.619011416288769e-01	 1.213756460187100e+01
 1.330429675953170e+00	 6.927892012316184e-01	 1.202384290696215e+01
 1.314027717518065e+00	 7.234163100139962e-01	 1.189529298108021e+01
 1.296863218857180e+00	 7.537544637183885e-01	 1.175273025250170e+01
 1.278943137559783e+00	 7.837757656936957e-01	 1.159686530673119e+01
 1.260275771679959e+00	 8.134525058763322e-01	 1.142830028362812e+01
 1.240870756236765e+00	 8.427572404413971e-01	 1.124752756594120e+01
 1.220739054076613e+00	 8.716628716723784e-01	 1.105493096341086e+01
 1.199892941046871e+00	 9.001427275859587e-01	 1.085078952571988e+01
 1.178345985473120e+00	 9.281706408411020e-01	 1.063528403617159e+01
 1.373886015254333e+00	 6.367875953395814e-01	 1.220384757351743e+01
 1.358883127135850e+00	 6.682049620253423e-01	 1.211080818584487e+01
 1.343100434771771e+00	 6.993871936243004e-01	 1.200215360716295e+01
 1.326542267208712e+00	 7.303059891569865e-01	 1.187876194928030e+01
 1.309214297132010e+00	 7.609330776585637e-01	 1.174140987829641e+01
 1.291123548393686e+00	 7.912402967955404e-01	 1.159076678218557e+01
 1.272278398076911e+00	 8.211996725989640e-01	 1.142739105592064e+01
 1.252688572962829e+00	 8.507834998741723e-01	 1.125172878587062e+01
 1.232365140305914e+00	 8.799644228311629e-01	 1.106411505390985e+01
 1.211320492866365e+00	 9.087155154677291e-01	 1.086477800691681e+01
 1.189568328191911e+00	 9.370103612300648e-01	 1.065384575129682e+01
 1.386847204077487e+00	 6.427950254842945e-01	 1.217372444199678e+01
 1.371702779278641e+00	 6.745087824218076e-01	 1.208534838070395e+01
 1.355771193590373e+00	 7.059851860169823e-01	 1.198148494023213e+01
 1.339056816899361e+00	 7.371956682999771e-01	 1.186297607169594e+01
 1.321565375406840e+00	 7.681116915987388e-01	 1.173055996941208e+01
 1.303303959227588e+00	 7.987048278973852e-01	 1.158486500400884e+01
 1.284281024473862e+00	 8.289468393215954e-01	 1.142640586593666e+01
 1.264506389688894e+00	 8.588097593069473e-01	 1.125558222173756e+01
 1.243991226535215e+00	 8.882659739899472e-01	 1.107268012098268e+01
 1.222748044685859e+00	 9.172883033495005e-01	 1.087787631295318e+01
 1.200790670910703e+00	 9.458500816190278e-01	 1.067124554122408e+01
 1.399808392900641e+00	 6.488024556290075e-01	 1.214505847154412e+01
 1.384522431421432e+00	 6.808126028182733e-01	 1.206108444890400e+01
 1.368441952408974e+00	 7.125831784096643e-01	 1.196175022205922e+01
 1.351571366590009e+00	 7.440853474429676e-01	 1.184786204196361e+01
 1.333916453681670e+00	 7.752903055389139e-01	 1.172012001293330e+01
 1.315484370061490e+00	 8.061693589992297e-01	 1.157911175507316e+01
 1.296283650870814e+00	 8.366940060442271e-01	 1.142530837441574e+01
 1.276324206414958e+00	 8.668360187397227e-01	 1.125906306515046e+01
 1.255617312764516e+00	 8.965675251487321e-01	 1.108061260057122e+01
 1.234175596505353e+00	 9.258610912312717e-01	 1.089008188626961e+01
 1.212013013629494e+00	 9.546898020079905e-01	 1.068749165306847e+01
 1.412769581723795e+00	 6.548098857737206e-01	 1.211774466764203e+01
 1.397342083564223e+00	 6.871164232147388e-01	 1.203792566286567e+01
 1.381112711227576e+00	 7.191811708023466e-01	 1.194287222700173e+01
 1.364085916280657e+00	 7.509750265859578e-01	 1.183335546902865e+01
 1.346267531956501e+00	 7.824689194790889e-01	 1.171003788002389e+01
 1.327664780895393e+00	 8.136338901010746e-01	 1.157346668631232e+01
 1.308286277267767e+00	 8.444411727668589e-01	 1.142406961225773e+01
 1.288142023141023e+00	 8.748622781724978e-01	 1.126215340055260e+01
 1.267243398993817e+00	 9.048690763075167e-01	 1.108790536666384e+01
 1.245603148324847e+00	 9.344338791130424e-01	 1.090139817651864e+01
 1.223235356348286e+00	 9.635295223969533e-01	 1.070259793511531e+01
 1.425730770546949e+00	 6.608173159184335e-01	 1.209168812952144e+01
 1.410161735707014e+00	 6.934202436112044e-01	 1.201579084349649e+01
 1.393783470046178e+00	 7.257791631950287e-01	 1.192478273723176e+01
 1.376600465971305e+00	 7.578647057289485e-01	 1.181940043749174e+01
 1.358618610231331e+00	 7.896475334192641e-01	 1.170026939754464e+01
 1.339845191729296e+00	 8.210984212029193e-01	 1.156789689997487e+01
 1.320288903664719e+00	 8.521883394894908e-01	 1.142266757585973e+01
 1.299959839867087e+00	 8.828885376052731e-01	 1.126484181317007e+01
 1.278869485223118e+00	 9.131706274663013e-01	 1.109455735245139e+01
 1.257030700144342e+00	 9.430066669948136e-01	 1.091183427558719e+01
 1.234457699067077e+00	 9.723692427859159e-01	 1.071658348641888e+01
 1.122234271879162e+00	 8.839720388962876e-01	 1.052519660536906e+01
 1.101060020930392e+00	 9.102105013893090e-01	 1.027106372419588e+01
 1.079247733062707e+00	 9.359704360767072e-01	 1.000486821642200e+01
 1.056813852545254e+00	 9.612288008580839e-01	 9.727397795006228e+00
 1.033775923488758e+00	 9.859633190669812e-01	 9.439443460116705e+00
 1.010152544552211e+00	 1.010152544552211e+00	 9.141807620220666e+00
 9.859633190669811e-01	 1.033775923488758e+00	 8.835312567054313e+00
 9.612288008580840e-01	 1.056813852545254e+00	 8.520808944445752e+00
 9.359704360767074e-01	 1.079247733062706e+00	 8.199183826010270e+00
 9.102105013893093e-01	 1.101060020930392e+00	 7.871368005690272e+00
 8.839720388962875e-01	 1.122234271879162e+00	 7.538342109026722e+00
 1.133456614597953e+00	 8.928117592852505e-01	 1.054946961089347e+01
 1.112070621139696e+00	 9.193126064032021e-01	 1.030129070986819e+01
 1.090040210393333e+00	 9.453301404374740e-01	 1.004096511234719e+01
 1.067381991070706e+00	 9.708410888666645e-01	 9.769223804806536e+00
 1.044113682723645e+00	 9.958229522576511e-01	 9.486802097087729e+00
 1.020254069997733e+00	 1.020254069997733e+00	 9.194448600759992e+00
 9.958229522576508e-01	 1.044113682723645e+00	 8.892934607982514e+00
 9.708410888666648e-01	 1.067381991070707e+00	 8.583063486813641e+00
 9.453301404374745e-01	 1.090040210393333e+00	 8.265679681466356e+00
 9.193126064032022e-01	 1.112070621139695e+00	 7.941676893331308e+00
 8.928117592852507e-01	 1.133456614597953e+00	 7.612005021827422e+00
 1.144678957316745e+00	 9.016514796742134e-01	 1.057263656330430e+01
 1.123081221348999e+00	 9.284147114170951e-01	 1.033007952128539e+01
 1.100832687723960e+00	 9.546898447982411e-01	 1.007529567371849e+01
 1.077950129596159e+00	 9.804533768752455e-01	 9.808964881625982e+00
 1.054451441958533e+00	 1.005682585448321e+00	 9.531772937541454e+00
 1.030355595443255e+00	 1.030355595443255e+00	 9.244421383566493e+00
 1.005682585448321e+00	 1.054451441958533e+00	 8.947637776554890e+00
 9.804533768752451e-01	 1.077950129596159e+00	 8.642185991771512e+00
 9.546898447982416e-01	 1.100832687723960e+00	 8.328876126299274e+00
 9.284147114170953e-01	 1.123081221348999e+00	 8.008573549063074e+00
 9.016514796742131e-01	 1.144678957316745e+00	 7.682206646844136e+00
 1.155901300035536e+00	 9.104912000631761e-01	 1.059467202906812e+01
 1.134091821558303e+00	 9.375168164309883e-01	 1.035741899132896e+01
 1.111625165054588e+00	 9.640495491590083e-01	 1.010786554493502e+01
 1.088518268121612e+00	 9.900656648838261e-01	 9.846645844575983e+00
 1.064789201193421e+00	 1.015542218638991e+00	 9.574402134548352e+00
 1.040457120888777e+00	 1.040457120888777e+00	 9.291795390830458e+00
 1.015542218638990e+00	 1.064789201193420e+00	 8.999516457321958e+00
 9.900656648838260e-01	 1.088518268121612e+00	 8.698297242372780e+00
 9.640495491590085e-01	 1.111625165054588e+00	 8.388921508891130e+00
 9.375168164309888e-01	 1.134091821558303e+00	 8.072234775080256e+00
 9.104912000631760e-01	 1.155901300035536e+00	 7.749152844559666e+00
 1.167123642754328e+00	 9.193309204521392e-01	 1.061555811147381e+01
 1.145102421767607e+00	 9.466189214448812e-01	 1.038330496025576e+01
 1.122417642385215e+00	 9.734092535197754e-01	 1.013868676044842e+01
 1.099086406647064e+00	 9.996779528924072e-01	 9.882297203592994e+00
 1.075126960428308e+00	 1.025401851829660e+00	 9.614740756799787e+00
 1.050558646334299e+00	 1.050558646334299e+00	 9.336644115064852e+00
 1.025401851829661e+00	 1.075126960428308e+00	 9.048668195606261e+00
 9.996779528924071e-01	 1.099086406647064e+00	 8.751520214457248e+00
 9.734092535197755e-01	 1.122417642385215e+00	 8.445965349803503e+00
 9.466189214448816e-01	 1.145102421767607e+00	 8.132837478364664e+00
 9.193309204521390e-01	 1.167123642754328e+00	 7.813048471957043e+00
 1.178345985473120e+00	 9.281706408411020e-01	 1.063528403617159e+01
 1.156113021976911e+00	 9.557210264587743e-01	 1.040773988456844e+01
 1.133210119715842e+00	 9.827689578805423e-01	 1.016777738289737e+01
 1.109654545172517e+00	 1.009290240900988e+00	 9.915954832462479e+00
 1.085464719663195e+00	 1.035261485020330e+00	 9.652844501805074e+00
 1.060660171779821e+00	 1.060660171779821e+00	 9.379044877384530e+00
 1.035261485020330e+00	 1.085464719663195e+00	 9.095193505370966e+00
 1.009290240900988e+00	 1.109654545172517e+00	 8.801979938184873e+00
 9.827689578805424e-01	 1.133210119715841e+00	 8.500158260595269e+00
 9.557210264587747e-01	 1.156113021976911e+00	 8.190558649929342e+00
 9.281706408411020e-01	 1.178345985473120e+00	 7.874097424835790e+00
 1.189568328191911e+00	 9.370103612300648e-01	 1.065384575129682e+01
 1.167123622186215e+00	 9.648231314726673e-01	 1.043073245910915e+01
 1.144002597046469e+00	 9.921286622413095e-01	 1.019516115281663e+01
 1.120222683697969e+00	 1.018902528909569e+00	 9.947659651498052e+00
 1.095802478898083e+00	 1.045121118211000e+00	 9.688773416572362e+00
 1.070761697225343e+00	 1.070761697225343e+00	 9.419078590866810e+00
 1.045121118211000e+00	 1.095802478898083e+00	 9.139195679554046e+00
 1.018902528909569e+00	 1.120222683697969e+00	 8.849803359228826e+00
 9.921286622413097e-01	 1.144002597046469e+00	 8.551651859327649e+00
 9.648231314726675e-01	 1.167123622186215e+00	 8.245575337633642e+00
 9.370103612300645e-01	 1.189568328191911e+00	 7.932502670462336e+00
 1.200790670910703e+00	 9.458500816190278e-01	 1.067124554122408e+01
 1.178134222395519e+00	 9.739252364865605e-01	 1.045229725151088e+01
 1.154795074377095e+00	 1.001488366602076e+00	 1.022086714916319e+01
 1.130790822223422e+00	 1.028514816918149e+00	 9.977457319244468e+00
 1.106140238132971e+00	 1.054980751401670e+00	 9.722591625284023e+00
 1.080863222670865e+00	 1.080863222670865e+00	 9.456829528659526e+00
 1.054980751401670e+00	 1.106140238132971e+00	 9.180780602706328e+00
 1.028514816918149e+00	 1.130790822223422e+00	 8.895119199651315e+00
 1.001488366602077e+00	 1.154795074377096e+00	 8.600598682973155e+00
 9.739252364865609e-01	 1.178134222395519e+00	 8.298064612988799e+00
 9.458500816190276e-01	 1.200790670910703e+00	 7.988466271186962e+00
 1.212013013629494e+00	 9.546898020079905e-01	 1.068749165306847e+01
 1.189144822604823e+00	 9.830273415004536e-01	 1.047245434820647e+01
 1.165587551707723e+00	 1.010848070962844e+00	 1.024492945995850e+01
 1.141358960748874e+00	 1.038127104926730e+00	 1.000539793261900e+01
 1.116477997367858e+00	 1.064840384592340e+00	 9.754367063513504e+00
 1.090964748116387e+00	 1.090964748116387e+00	 9.492385096530230e+00
 1.064840384592340e+00	 1.116477997367858e+00	 9.220056565784503e+00
 1.038127104926731e+00	 1.141358960748874e+00	 8.938057818481921e+00
 1.010848070962844e+00	 1.165587551707723e+00	 8.647152096929345e+00
 9.830273415004539e-01	 1.189144822604823e+00	 8.348203532344876e+00
 9.546898020079907e-01	 1.212013013629495e+00	 8.042189399612599e+00
 1.223235356348286e+00	 9.635295223969533e-01	 1.070259793511531e+01
 1.200155422814127e+00	 9.921294465143466e-01	 1.049122901125230e+01
 1.176380029038349e+00	 1.020207775323611e+00	 1.026738686239709e+01
 1.151927099274327e+00	 1.047739392935311e+00	 1.003153573494984e+01
 1.126815756602746e+00	 1.074700017783009e+00	 9.784171218563095e+00
 1.101066273561909e+00	 1.101066273561909e+00	 9.525835609570368e+00
 1.074700017783009e+00	 1.126815756602746e+00	 9.257134082960039e+00
 1.047739392935311e+00	 1.151927099274327e+00	 8.978751072018230e+00
 1.020207775323611e+00	 1.176380029038349e+00	 8.691466201822896e+00
 9.921294465143470e-01	 1.200155422814127e+00	 8.396169092818841e+00
 9.635295223969534e-01	 1.223235356348286e+00	 8.093872345858136e+00
 1.234457699067077e+00	 9.723692427859159e-01	 1.071658348641888e+01
 1.211166023023431e+00	 1.001231551528240e+00	 1.050865134527858e+01
 1.187172506368977e+00	 1.029567479684378e+00	 1.028828251181915e+01
 1.162495237799779e+00	 1.057351680943892e+00	 1.005592883140893e+01
 1.137153515837634e+00	 1.084559650973679e+00	 9.812078875533256e+00
 1.111167799007432e+00	 1.111167799007432e+00	 9.557274072790285e+00
 1.084559650973679e+00	 1.137153515837633e+00	 9.292125710316661e+00
 1.057351680943892e+00	 1.162495237799779e+00	 9.017332173865704e+00
 1.029567479684378e+00	 1.187172506368976e+00	 8.733695737777163e+00
 1.001231551528240e+00	 1.211166023023430e+00	 8.442138183298692e+00
 9.723692427859164e-01	 1.234457699067078e+00	 8.143714517419303e+00
 8.839720388962875e-01	 1.122234271879162e+00	 7.538342109026718e+00
 8.572787881771033e-01	 1.142755181949402e+00	 7.201547672782883e+00
 8.301551158784558e-01	 1.162608622930107e+00	 6.862371204779408e+00
 8.026259432775211e-01	 1.181781672606442e+00	 6.521815254706549e+00
 7.747166722631738e-01	 1.200262639695199e+00	 6.180965333462401e+00
 7.464531101844724e-01	 1.218041083390269e+00	 5.840984327887453e+00
 7.178613940175135e-01	 1.235107827483028e+00	 5.503104087048367e+00
 6.889679142990445e-01	 1.251454969064822e+00	 5.168614209416036e+00
 6.597992392682085e-01	 1.267075881860161e+00	 4.838848149334510e+00
 6.303820396465504e-01	 1.281965214279103e+00	 4.515166848700625e+00
 6.007430144713030e-01	 1.296118882315408e+00	 4.198940182573323e+00
 8.928117592852507e-01	 1.133456614597953e+00	 7.612005021827420e+00
 8.658515760588741e-01	 1.154182733768895e+00	 7.278152245527855e+00
 8.384566670372403e-01	 1.174234709159408e+00	 6.941559893635099e+00
 8.106522027102964e-01	 1.193599489332507e+00	 6.603224721820859e+00
 7.824638389858054e-01	 1.212265266092150e+00	 6.264236547201259e+00
 7.539176412863172e-01	 1.230221494224171e+00	 5.925772737187750e+00
 7.250400079576885e-01	 1.247458905757858e+00	 5.589089664864545e+00
 6.958575934420352e-01	 1.263969518755471e+00	 5.255511154089912e+00
 6.663972316608908e-01	 1.279746640678763e+00	 4.926414032331145e+00
 6.366858600430156e-01	 1.294784866421894e+00	 4.603211002641901e+00
 6.067504446160161e-01	 1.309080071138563e+00	 4.287331134762363e+00
 9.016514796742131e-01	 1.144678957316745e+00	 7.682206646844136e+00
 8.744243639406456e-01	 1.165610285588389e+00	 7.351317167096703e+00
 8.467582181960247e-01	 1.185860795388709e+00	 7.017391102546364e+00
 8.186784621430718e-01	 1.205417306058571e+00	 6.681402432351300e+00
 7.902110057084374e-01	 1.224267892489103e+00	 6.344427268514085e+00
 7.613821723881621e-01	 1.242401905058074e+00	 6.007638620216725e+00
 7.322186218978637e-01	 1.259809984032688e+00	 5.672297917812692e+00
 7.027472725850255e-01	 1.276484068446119e+00	 5.339743310834734e+00
 6.729952240535729e-01	 1.292417399497365e+00	 5.011374855209452e+00
 6.429896804394812e-01	 1.307604518564685e+00	 4.688636804439533e+00
 6.127578747607291e-01	 1.322041259961716e+00	 4.372997314193199e+00
 9.104912000631760e-01	 1.155901300035536e+00	 7.749152844559666e+00
 8.829971518224164e-01	 1.177037837407884e+00	 7.421273510177581e+00
 8.550597693548094e-01	 1.197486881618010e+00	 7.090113329538985e+00
 8.267047215758470e-01	 1.217235122784636e+00	 6.756607027872816e+00
 7.979581724310690e-01	 1.236270518886055e+00	 6.421799540707974e+00
 7.688467034900066e-01	 1.254582315891977e+00	 6.086841254045572e+00
 7.393972358380387e-01	 1.272161062307518e+00	 5.752979795116424e+00
 7.096369517280160e-01	 1.288998618136767e+00	 5.421548376532503e+00
 6.795932164462547e-01	 1.305088158315966e+00	 5.093950803756799e+00
 6.492935008359467e-01	 1.320424170707476e+00	 4.771643361869381e+00
 6.187653049054422e-01	 1.335002448784871e+00	 4.456113898731624e+00
 9.193309204521390e-01	 1.167123642754328e+00	 7.813048471957043e+00
 8.915699397041873e-01	 1.188465389227377e+00	 7.488250360924103e+00
 8.633613205135939e-01	 1.209112967847312e+00	 7.159972375034175e+00
 8.347309810086225e-01	 1.229052939510700e+00	 6.829093989309190e+00
 8.057053391537007e-01	 1.248273145283006e+00	 6.496612006630153e+00
 7.763112345918516e-01	 1.266762726725880e+00	 6.163636473273655e+00
 7.465758497782141e-01	 1.284512140582349e+00	 5.831382933401782e+00
 7.165266308710065e-01	 1.301513167827415e+00	 5.501161011027149e+00
 6.861912088389368e-01	 1.317758917134567e+00	 5.174359421653546e+00
 6.555973212324122e-01	 1.333243822850267e+00	 4.852427628640811e+00
 6.247727350501552e-01	 1.347963637608025e+00	 4.536854467272813e+00
 9.281706408411020e-01	 1.178345985473120e+00	 7.874097424835786e+00
 9.001427275859586e-01	 1.199892941046871e+00	 7.552474918850274e+00
 8.716628716723785e-01	 1.220739054076613e+00	 7.227211486610283e+00
 8.427572404413972e-01	 1.240870756236764e+00	 6.899115814753724e+00
 8.134525058763323e-01	 1.260275771679958e+00	 6.569120108690892e+00
 7.837757656936962e-01	 1.278943137559783e+00	 6.238276882387962e+00
 7.537544637183889e-01	 1.296863218857179e+00	 5.907751872552577e+00
 7.234163100139969e-01	 1.314027717518063e+00	 5.578813048695521e+00
 6.927892012316189e-01	 1.330429675953169e+00	 5.252815811063750e+00
 6.619011416288779e-01	 1.346063474993059e+00	 4.931184588420190e+00
 6.307801651948685e-01	 1.360924826431180e+00	 4.615391162736055e+00
 9.370103612300645e-01	 1.189568328191911e+00	 7.932502670462338e+00
 9.087155154677293e-01	 1.211320492866365e+00	 7.614172584160354e+00
 8.799644228311632e-01	 1.232365140305914e+00	 7.292071489039358e+00
 8.507834998741728e-01	 1.252688572962829e+00	 6.966922181091336e+00
 8.211996725989641e-01	 1.272278398076910e+00	 6.639576271841124e+00
 7.912402967955408e-01	 1.291123548393684e+00	 6.311012050795251e+00
 7.609330776585642e-01	 1.309214297132009e+00	 5.982328254461931e+00
 7.303059891569875e-01	 1.326542267208712e+00	 5.654733693575057e+00
 6.993871936243012e-01	 1.343100434771771e+00	 5.329532817817709e+00
 6.682049620253433e-01	 1.358883127135849e+00	 5.008107424786905e+00
 6.367875953395813e-01	 1.373886015254333e+00	 4.691894842573537e+00
 9.458500816190276e-01	 1.200790670910703e+00	 7.988466271186962e+00
 9.172883033495004e-01	 1.222748044685859e+00	 7.673567033334763e+00
 8.882659739899476e-01	 1.243991226535214e+00	 7.354790900562952e+00
 8.588097593069477e-01	 1.264506389688894e+00	 7.032760090482279e+00
 8.289468393215963e-01	 1.284281024473862e+00	 6.708230070619379e+00
 7.987048278973854e-01	 1.303303959227587e+00	 6.382088691661638e+00
 7.681116915987394e-01	 1.321565375406839e+00	 6.055351005797585e+00
 7.371956682999777e-01	 1.339056816899360e+00	 5.729149699123984e+00
 7.059851860169833e-01	 1.355771193590372e+00	 5.404721202193045e+00
 6.745087824218086e-01	 1.371702779278640e+00	 5.083387678043263e+00
 6.427950254842943e-01	 1.386847204077487e+00	 4.766535217610169e+00
 9.546898020079907e-01	 1.212013013629495e+00	 8.042189399612599e+00
 9.258610912312716e-01	 1.234175596505353e+00	 7.730880283733292e+00
 8.965675251487322e-01	 1.255617312764516e+00	 7.415606036297987e+00
 8.668360187397230e-01	 1.276324206414958e+00	 7.096874002687953e+00
 8.366940060442277e-01	 1.296283650870814e+00	 6.775328381301257e+00
 8.061693589992303e-01	 1.315484370061490e+00	 6.451750825608123e+00
 7.752903055389145e-01	 1.333916453681670e+00	 6.127056505818423e+00
 7.440853474429683e-01	 1.351571366590008e+00	 5.802285533610092e+00
 7.125831784096652e-01	 1.368441952408973e+00	 5.478589796229974e+00
 6.808126028182739e-01	 1.384522431421431e+00	 5.157215389729172e+00
 6.488024556290073e-01	 1.399808392900641e+00	 4.839480979970704e+00
 9.635295223969534e-01	 1.223235356348286e+00	 8.093872345858136e+00
 9.344338791130427e-01	 1.245603148324847e+00	 7.786332747921660e+00
 9.048690763075167e-01	 1.267243398993816e+00	 7.474751099600375e+00
 8.748622781724982e-01	 1.288142023141022e+00	 7.159505954148958e+00
 8.444411727668591e-01	 1.308286277267766e+00	 6.841115520107126e+00
 8.136338901010751e-01	 1.327664780895393e+00	 6.520239930235326e+00
 7.824689194790896e-01	 1.346267531956500e+00	 6.197678740201177e+00
 7.509750265859586e-01	 1.364085916280657e+00	 5.874363532050831e+00
 7.191811708023473e-01	 1.381112711227575e+00	 5.551345648443069e+00
 6.871164232147396e-01	 1.397342083564222e+00	 5.229779235632497e+00
 6.548098857737203e-01	 1.412769581723795e+00	 4.910899920795405e+00
 9.723692427859164e-01	 1.234457699067078e+00	 8.143714517419303e+00
 9.430066669948137e-01	 1.257030700144342e+00	 7.840143278374379e+00
 9.131706274663016e-01	 1.278869485223118e+00	 7.532458262151590e+00
 8.828885376052734e-01	 1.299959839867087e+00	 7.220895664657512e+00
 8.521883394894909e-01	 1.320288903664719e+00	 6.905833368356703e+00
 8.210984212029198e-01	 1.339845191729296e+00	 6.587795076378738e+00
 7.896475334192649e-01	 1.358618610231331e+00	 6.267449441768188e+00
 7.578647057289489e-01	 1.376600465971305e+00	 5.945604035560827e+00
 7.257791631950296e-01	 1.393783470046177e+00	 5.623194156733386e+00
 6.934202436112055e-01	 1.410161735707014e+00	 5.301266648025893e+00
 6.608173159184336e-01	 1.425730770546950e+00	 4.980959038393024e+00
 6.007430144713030e-01	 1.296118882315408e+00	 4.198940182573321e+00
 5.709088183782203e-01	 1.309534057452725e+00	 3.891995280630494e+00
 5.409059907081718e-01	 1.322209149774204e+00	 3.595630768183293e+00
 5.107608867868586e-01	 1.334143786501033e+00	 3.310392867071253e+00
 4.804996116995442e-01	 1.345338786212305e+00	 3.036778189433694e+00
 4.501479568532782e-01	 1.355796129022144e+00	 2.775214156316443e+00
 4.197313395879832e-01	 1.365518923009963e+00	 2.526039742198868e+00
 3.892747460655154e-01	 1.374511367216089e+00	 2.289487070080117e+00
 3.588026776327866e-01	 1.382778711527682e+00	 2.065664360370825e+00
 3.283391008216911e-01	 1.390327213788976e+00	 1.854540700941078e+00
 2.979074011153085e-01	 1.397164094475425e+00	 1.655933056846438e+00
 6.067504446160161e-01	 1.309080071138563e+00	 4.287331134762363e+00
 5.766179065620025e-01	 1.322629398027252e+00	 3.980666183776055e+00
 5.463150506152535e-01	 1.335431241271946e+00	 3.684481763751737e+00
 5.158684956547273e-01	 1.347485224366044e+00	 3.399243860656549e+00
 4.853046078165397e-01	 1.358792174074429e+00	 3.125371483307300e+00
 4.546494364218110e-01	 1.369354090312366e+00	 2.863216755254443e+00
 4.239286529838629e-01	 1.379174112240062e+00	 2.613045237853550e+00
 3.931674935261704e-01	 1.388256480888249e+00	 2.375017035419520e+00
 3.623907044091144e-01	 1.396606498642958e+00	 2.149169212891157e+00
 3.316224918299081e-01	 1.404230485926865e+00	 1.935400020558849e+00
 3.008864751264616e-01	 1.411135735420179e+00	 1.733455370732075e+00
 6.127578747607291e-01	 1.322041259961716e+00	 4.372997314193197e+00
 5.823269947457845e-01	 1.335724738601779e+00	 4.066390673023641e+00
 5.517241105223354e-01	 1.348653332769689e+00	 3.770056139311718e+00
 5.209761045225958e-01	 1.360826662231054e+00	 3.484403276201277e+00
 4.901096039335350e-01	 1.372245561936551e+00	 3.209797962068886e+00
 4.591509159903437e-01	 1.382912051602587e+00	 2.946541929074421e+00
 4.281259663797430e-01	 1.392829301470162e+00	 2.694852437655508e+00
 3.970602409868257e-01	 1.402001594560410e+00	 2.454842666882631e+00
 3.659787311854421e-01	 1.410434285758235e+00	 2.226503380993228e+00
 3.349058828381249e-01	 1.418133758064755e+00	 2.009686396449367e+00
 3.038655491376146e-01	 1.425107376364933e+00	 1.804090323185857e+00
 6.187653049054422e-01	 1.335002448784871e+00	 4.456113898731621e+00
 5.880360829295668e-01	 1.348820079176306e+00	 4.149320928171060e+00
 5.571331704294170e-01	 1.361875424267430e+00	 3.852486970476719e+00
 5.260837133904646e-01	 1.374168100096065e+00	 3.565988482902625e+00
 4.949146000505306e-01	 1.385698949798674e+00	 3.290162199263131e+00
 4.636523955588766e-01	 1.396470012892809e+00	 3.025283889676242e+00
 4.323232797756227e-01	 1.406484490700262e+00	 2.771547160135402e+00
 4.009529884474808e-01	 1.415746708232571e+00	 2.529042903642576e+00
 3.695667579617701e-01	 1.424262072873512e+00	 2.297739995852857e+00
 3.381892738463418e-01	 1.432037030202645e+00	 2.077689768031489e+00
 3.068446231487678e-01	 1.439079017309688e+00	 1.869879433706086e+00
 6.247727350501552e-01	 1.347963637608025e+00	 4.536854467272813e+00
 5.937451711133491e-01	 1.361915419750834e+00	 4.229608009231158e+00
 5.625422303364987e-01	 1.375097515765172e+00	 3.931906506098225e+00
 5.311913222583332e-01	 1.387509537961075e+00	 3.644116153882712e+00
 4.997195961675259e-01	 1.399152337660797e+00	 3.366568065200627e+00
 4.681538751274092e-01	 1.410027974183030e+00	 3.099536025750996e+00
 4.365205931715027e-01	 1.420139679930362e+00	 2.843214193262390e+00
 4.048457359081360e-01	 1.429491821904732e+00	 2.597711862455228e+00
 3.731547847380980e-01	 1.438089859988789e+00	 2.364675747606510e+00
 3.414726648545588e-01	 1.445940302340534e+00	 2.144408991172511e+00
 3.098236971599208e-01	 1.453050658254442e+00	 1.935734251561108e+00
 6.307801651948685e-01	 1.360924826431180e+00	 4.615391162736055e+00
 5.994542592971314e-01	 1.375010760325361e+00	 4.307402000660164e+00
 5.679512902435805e-01	 1.388319607262914e+00	 4.008446301185647e+00
 5.362989311262015e-01	 1.400850975826085e+00	 3.718902394101054e+00
 5.045245922845213e-01	 1.412605725522921e+00	 3.439118855008736e+00
 4.726553546959421e-01	 1.423585935473252e+00	 3.169391034964128e+00
 4.407179065673824e-01	 1.433794869160461e+00	 2.910478932042767e+00
 4.087384833687913e-01	 1.443236935576893e+00	 2.665073862908685e+00
 3.767428115144258e-01	 1.451917647104065e+00	 2.432622112892743e+00
 3.447560558627756e-01	 1.459843574478424e+00	 2.212001344659013e+00
 3.128027711710739e-01	 1.467022299199197e+00	 2.002020316479989e+00
 6.367875953395813e-01	 1.373886015254333e+00	 4.691894842573537e+00
 6.051633474809133e-01	 1.388106100899889e+00	 4.382852144536823e+00
 5.733603501506623e-01	 1.401541698760656e+00	 4.082237339772730e+00
 5.414065399940703e-01	 1.414192413691095e+00	 3.790462858832599e+00
 5.093295884015170e-01	 1.426059113385044e+00	 3.507917407551501e+00
 4.771568342644750e-01	 1.437143896763473e+00	 3.236422296850576e+00
 4.449152199632624e-01	 1.447450058390561e+00	 2.978893256454001e+00
 4.126312308294463e-01	 1.456982049249054e+00	 2.734464805144072e+00
 3.803308382907538e-01	 1.465745434219343e+00	 2.502079306457208e+00
 3.480394468709926e-01	 1.473746846616314e+00	 2.280614832848479e+00
 3.157818451822270e-01	 1.480993940143951e+00	 2.068884905655053e+00
 6.427950254842943e-01	 1.386847204077487e+00	 4.766535217610169e+00
 6.108724356646957e-01	 1.401201441474416e+00	 4.456106963415221e+00
 5.787694100577438e-01	 1.414763790258398e+00	 4.153410148389227e+00
 5.465141488619386e-01	 1.427533851556105e+00	 3.858912863328027e+00
 5.141345845185123e-01	 1.439512501247167e+00	 3.575505977528597e+00
 4.816583138330077e-01	 1.450701858053694e+00	 3.306172093034284e+00
 4.491125333591421e-01	 1.461105247620660e+00	 3.050007474982821e+00
 4.165239782901014e-01	 1.470727162921214e+00	 2.806028199096589e+00
 3.839188650670816e-01	 1.479573221334619e+00	 2.573191185022220e+00
 3.513228378792095e-01	 1.487650118754204e+00	 2.350393389986912e+00
 3.187609191933802e-01	 1.494965581088705e+00	 2.136471253196588e+00
 6.488024556290073e-01	 1.399808392900641e+00	 4.839480979970702e+00
 6.165815238484779e-01	 1.414296782048943e+00	 4.527314373521658e+00
 5.841784699648256e-01	 1.427985881756140e+00	 4.222094900745962e+00
 5.516217577298074e-01	 1.440875289421115e+00	 3.927474034011655e+00
 5.189395806355078e-01	 1.452965889109289e+00	 3.646817092076419e+00
 4.861597934015404e-01	 1.464259819343916e+00	 3.379280259210223e+00
 4.533098467550220e-01	 1.474760436850760e+00	 3.123961011812411e+00
 4.204167257507567e-01	 1.484472276593376e+00	 2.879903604956950e+00
 3.875068918434094e-01	 1.493401008449896e+00	 2.646097674096308e+00
 3.546062288874263e-01	 1.501553390892093e+00	 2.421477034474288e+00
 3.217399932045332e-01	 1.508937222033459e+00	 2.204918707348428e+00
 6.548098857737203e-01	 1.412769581723795e+00	 4.910899920795405e+00
 6.222906120322599e-01	 1.427392122623470e+00	 4.596621788914170e+00
 5.895875298719073e-01	 1.441207973253882e+00	 4.291707324735772e+00
 5.567293665976759e-01	 1.454216727286126e+00	 4.000453316358469e+00
 5.237445767525033e-01	 1.466419276971413e+00	 3.722116978575599e+00
 4.906612729700732e-01	 1.477817780634137e+00	 3.455882890839190e+00
 4.575071601509016e-01	 1.488415626080859e+00	 3.200889438410195e+00
 4.243094732114117e-01	 1.498217390265536e+00	 2.956226772376437e+00
 3.910949186197373e-01	 1.507228795565172e+00	 2.720934910510974e+00
 3.578896198956433e-01	 1.515456663029984e+00	 2.494002014862490e+00
 3.247190672156863e-01	 1.522908862978213e+00	 2.274362879225521e+00
 6.608173159184336e-01	 1.425730770546950e+00	 4.980959038393026e+00
 6.279997002160421e-01	 1.440487463197997e+00	 4.667094432254602e+00
 5.949965897789892e-01	 1.454430064751624e+00	 4.366286432192683e+00
 5.618369754655447e-01	 1.467558165151136e+00	 4.078009887733774e+00
 5.285495728694986e-01	 1.479872664833536e+00	 3.801539521551511e+00
 4.951627525386059e-01	 1.491375741924358e+00	 3.536112280047559e+00
 4.617044735467815e-01	 1.502070815310959e+00	 3.280924603341247e+00
 4.282022206720670e-01	 1.511962503937697e+00	 3.035129772419176e+00
 3.946829453960652e-01	 1.521056582680450e+00	 2.797835377460517e+00
 3.611730109038602e-01	 1.529359935167873e+00	 2.568100948113010e+00
 3.276981412268394e-01	 1.536880503922968e+00	 2.344935783613176e+00
 2.979074011153085e-01	 1.397164094475425e+00	 1.655933056846442e+00
 2.675303405770418e-01	 1.403297489273513e+00	 1.469141824451336e+00
 2.372300194073238e-01	 1.408736399906886e+00	 1.295560187550931e+00
 2.070278414616596e-01	 1.413490643545382e+00	 1.137827835148254e+00
 1.769444837342633e-01	 1.417570801126571e+00	 9.983054031075421e-01
 1.469998697837135e-01	 1.420988164909963e+00	 8.790564621093174e-01
 1.172131470510590e-01	 1.423754685572272e+00	 7.818347963298208e-01
 8.760266799682477e-02	 1.425882919138332e+00	 7.080769110191476e-01
 5.818597496152627e-02	 1.427385974026783e+00	 6.588996137898643e-01
 2.897978863468519e-02	 1.428277458472723e+00	 6.351024296717562e-01
 0.000000000000000e+00	 1.428571428571429e+00	 6.371745353695735e-01
 3.008864751264616e-01	 1.411135735420179e+00	 1.733455370732071e+00
 2.702056439828123e-01	 1.417330464166248e+00	 1.542708053215674e+00
 2.396023196013971e-01	 1.422823763905955e+00	 1.364855337278716e+00
 2.090981198762763e-01	 1.427625549980836e+00	 1.202807208430988e+00
 1.787139285716060e-01	 1.431746509137837e+00	 1.059333041836461e+00
 1.484698684815507e-01	 1.435198046559063e+00	 9.369034328789033e-01
 1.183852785215696e-01	 1.437992232427994e+00	 8.372666528979776e-01
 8.847869467679305e-02	 1.440141748329715e+00	 7.619055974871838e-01
 5.876783471114152e-02	 1.441659833767051e+00	 7.120397396086355e-01
 2.926958652103205e-02	 1.442560233057451e+00	 6.886159268407983e-01
 0.000000000000000e+00	 1.442857142857143e+00	 6.923019202651222e-01
 3.038655491376146e-01	 1.425107376364933e+00	 1.804090323185857e+00
 2.728809473885828e-01	 1.431363439058983e+00	 1.609328548131430e+00
 2.419746197954702e-01	 1.436911127905023e+00	 1.428152696935510e+00
 2.111683982908927e-01	 1.441760456416289e+00	 1.263416145890779e+00
 1.804833734089485e-01	 1.445922217149102e+00	 1.117559354454957e+00
 1.499398671793878e-01	 1.449407928208162e+00	 9.928011854455134e-01
 1.195574099920802e-01	 1.452229779283718e+00	 8.911191096245857e-01
 8.935472135676129e-02	 1.454400577521098e+00	 8.142323874273942e-01
 5.934969446075680e-02	 1.455933693507319e+00	 7.635882351881258e-01
 2.955938440737890e-02	 1.456843007642178e+00	 7.403509529284965e-01
 0.000000000000000e+00	 1.457142857142858e+00	 7.453939626430204e-01
 3.068446231487678e-01	 1.439079017309688e+00	 1.869879433706090e+00
 2.755562507943531e-01	 1.445396413951718e+00	 1.673550628610055e+00
 2.443469199895435e-01	 1.450998491904093e+00	 1.490396954872511e+00
 2.132386767055093e-01	 1.455895362851743e+00	 1.323289085584534e+00
 1.822528182462912e-01	 1.460097925160367e+00	 1.174898943716116e+00
 1.514098658772249e-01	 1.463617809857261e+00	 1.047674785660196e+00
 1.207295414625908e-01	 1.466467326139440e+00	 9.438193506599234e-01
 9.023074803672951e-02	 1.468659406712482e+00	 8.652711261991721e-01
 5.993155421037206e-02	 1.470207553247587e+00	 8.136887453065577e-01
 2.984918229372574e-02	 1.471125782226905e+00	 7.904384995621083e-01
 0.000000000000000e+00	 1.471428571428572e+00	 7.965849216431485e-01
 3.098236971599208e-01	 1.453050658254442e+00	 1.935734251561112e+00
 2.782315542001235e-01	 1.459429388844453e+00	 1.737690093383853e+00
 2.467192201836167e-01	 1.465085855903161e+00	 1.552279220037024e+00
 2.153089551201260e-01	 1.470030269287197e+00	 1.382584610655168e+00
 1.840222630836339e-01	 1.474273633171634e+00	 1.231491091139408e+00
 1.528798645750621e-01	 1.477827691506361e+00	 1.101658327226933e+00
 1.219016729331014e-01	 1.480704872995163e+00	 9.954970019445316e-01
 9.110677471669777e-02	 1.482918235903865e+00	 9.151482378874742e-01
 6.051341395998732e-02	 1.484481412987854e+00	 8.624662888480641e-01
 3.013898018007261e-02	 1.485408556811632e+00	 8.390044914027086e-01
 0.000000000000000e+00	 1.485714285714286e+00	 8.460044353930783e-01
 3.128027711710739e-01	 1.467022299199197e+00	 2.002020316479991e+00
 2.809068576058939e-01	 1.473462363737188e+00	 1.801896134149686e+00
 2.490915203776900e-01	 1.479173219902230e+00	 1.613944849895655e+00
 2.173792335347426e-01	 1.484165175722651e+00	 1.441443272350678e+00
 1.857917079209765e-01	 1.488449341182899e+00	 1.287471129055251e+00
 1.543498632728992e-01	 1.492037573155461e+00	 1.154882060302839e+00
 1.230738044036120e-01	 1.494942419850886e+00	 1.046277906178614e+00
 9.198280139666601e-02	 1.497177065095249e+00	 9.639863574480733e-01
 6.109527370960258e-02	 1.498755272728123e+00	 9.100420033761037e-01
 3.042877806641945e-02	 1.499691331396360e+00	 8.861707739949811e-01
 0.000000000000000e+00	 1.500000000000000e+00	 8.937777410564367e-01
 3.157818451822270e-01	 1.480993940143951e+00	 2.068884905655055e+00
 2.835821610116643e-01	 1.487495338629923e+00	 1.866313800109761e+00
 2.514638205717633e-01	 1.493260583901299e+00	 1.675535168301040e+00
 2.194495119493592e-01	 1.498300082158105e+00	 1.500001717085934e+00
 1.875611527583191e-01	 1.502625049194165e+00	 1.342970611960919e+00
 1.558198619707364e-01	 1.506247454804561e+00	 1.207472561268609e+00
 1.242459358741226e-01	 1.509179966706608e+00	 1.096284292827430e+00
 9.285882807663430e-02	 1.511435894286632e+00	 1.011904503716387e+00
 6.167713345921785e-02	 1.513029132468391e+00	 9.565333248275039e-01
 3.071857595276631e-02	 1.513974105981087e+00	 9.320553047085155e-01
 0.000000000000000e+00	 1.514285714285714e+00	 9.400258824254796e-01
 3.187609191933802e-01	 1.494965581088705e+00	 2.136471253196588e+00
 2.862574644174347e-01	 1.501528313522658e+00	 1.931084165305889e+00
 2.538361207658364e-01	 1.507347947900368e+00	 1.737187631775087e+00
 2.215197903639757e-01	 1.512434988593559e+00	 1.558392850555899e+00
 1.893305975956618e-01	 1.516800757205431e+00	 1.398117478317642e+00
 1.572898606685734e-01	 1.520457336453660e+00	 1.259552893010448e+00
 1.254180673446331e-01	 1.523417513562331e+00	 1.145634938612274e+00
 9.373485475660252e-02	 1.525694723478015e+00	 1.059018242723821e+00
 6.225899320883311e-02	 1.527302992208658e+00	 1.002054157133912e+00
 3.100837383911315e-02	 1.528256880565813e+00	 9.767723329726610e-01
 0.000000000000000e+00	 1.528571428571428e+00	 9.848659058729382e-01
 3.217399932045332e-01	 1.508937222033459e+00	 2.204918707348428e+00
 2.889327678232051e-01	 1.515561288415394e+00	 1.996344486793949e+00
 2.562084209599097e-01	 1.521435311899436e+00	 1.799035986654376e+00
 2.235900687785924e-01	 1.526569895029013e+00	 1.616745992803326e+00
 1.911000424330044e-01	 1.530976465216696e+00	 1.453036203407629e+00
 1.587598593664106e-01	 1.534667218102759e+00	 1.311242756328805e+00
 1.265901988151437e-01	 1.537655060418054e+00	 1.194445319103295e+00
 9.461088143657075e-02	 1.539953552669398e+00	 1.105439841950846e+00
 6.284085295844836e-02	 1.541576851948926e+00	 1.046715032424051e+00
 3.129817172546000e-02	 1.542539655150541e+00	 1.020432570499492e+00
 0.000000000000000e+00	 1.542857142857143e+00	 1.028411045417869e+00
 3.247190672156863e-01	 1.522908862978213e+00	 2.274362879225523e+00
 2.916080712289756e-01	 1.529594263308129e+00	 2.062228354245219e+00
 2.585807211539830e-01	 1.535522675898505e+00	 1.861210417686254e+00
 2.256603471932089e-01	 1.540704801464466e+00	 1.675187024822481e+00
 1.928694872703469e-01	 1.545152173227962e+00	 1.507847943825301e+00
 1.602298580642477e-01	 1.548877099751859e+00	 1.362658633043815e+00
 1.277623302856543e-01	 1.551892607273776e+00	 1.242827751986318e+00
 9.548690811653901e-02	 1.554212381860782e+00	 1.151278416098020e+00
 6.342271270806363e-02	 1.555850711689194e+00	 1.090623262410468e+00
 3.158796961180686e-02	 1.556822429735268e+00	 1.063143352137627e+00
 0.000000000000000e+00	 1.557142857142857e+00	 1.070770897604165e+00
 3.276981412268394e-01	 1.536880503922968e+00	 2.344935783613174e+00
 2.942833746347460e-01	 1.543627238200864e+00	 2.128865831522090e+00
 2.609530213480562e-01	 1.549610039897574e+00	 1.923837688617688e+00
 2.277306256078256e-01	 1.554839707899921e+00	 1.733838527235922e+00
 1.946389321076896e-01	 1.559327881239228e+00	 1.562670674135781e+00
 1.616998567620849e-01	 1.563086981400959e+00	 1.413913921325088e+00
 1.289344617561649e-01	 1.566130154129499e+00	 1.290891532532063e+00
 9.636293479650726e-02	 1.568471211052165e+00	 1.196640064914516e+00
 6.400457245767889e-02	 1.570124571429461e+00	 1.133883081522874e+00
 3.187776749815371e-02	 1.571105204319996e+00	 1.105008787952193e+00
 0.000000000000000e+00	 1.571428571428571e+00	 1.112051586840392e+00
 1.571428571428571e+00	 0.000000000000000e+00	 1.245121765178763e+01
 1.571105204319995e+00	 3.187776749815283e-02	 1.247781855955224e+01
 1.570124571429462e+00	 6.400457245767810e-02	 1.249339797381437e+01
 1.568471211052165e+00	 9.636293479650661e-02	 1.250023585853451e+01
 1.566130154129499e+00	 1.289344617561644e-01	 1.250054265702322e+01
 1.563086981400960e+00	 1.616998567620844e-01	 1.249644480506331e+01
 1.559327881239227e+00	 1.946389321076893e-01	 1.248996998837162e+01
 1.554839707899920e+00	 2.277306256078254e-01	 1.248303223140486e+01
 1.549610039897574e+00	 2.609530213480561e-01	 1.247741691331226e+01
 1.543627238200864e+00	 2.942833746347461e-01	 1.247476581555783e+01
 1.536880503922968e+00	 3.276981412268393e-01	 1.247656231426964e+01
 1.585714285714286e+00	 0.000000000000000e+00	 1.237867836409412e+01
 1.585387978904722e+00	 3.216756538449967e-02	 1.240689382881400e+01
 1.584398431169730e+00	 6.458643220729335e-02	 1.242400305303837e+01
 1.582730040243548e+00	 9.723896147647484e-02	 1.243233611253518e+01
 1.580367700985222e+00	 1.301065932266749e-01	 1.243414414738267e+01
 1.577296863050059e+00	 1.631698554599215e-01	 1.243158411904847e+01
 1.573503589250493e+00	 1.964083769450319e-01	 1.242670333517817e+01
 1.568974614335374e+00	 2.298009040224420e-01	 1.242142383649104e+01
 1.563697403896643e+00	 2.633253215421293e-01	 1.241752674923662e+01
 1.557660213093599e+00	 2.969586780405165e-01	 1.241663671558138e+01
 1.550852144867722e+00	 3.306772152379924e-01	 1.242020652295021e+01
 1.600000000000000e+00	 0.000000000000000e+00	 1.230996978197889e+01
 1.599670753489450e+00	 3.245736327084651e-02	 1.233989778260512e+01
 1.598672290909998e+00	 6.516829195690864e-02	 1.235861482413371e+01
 1.596988869434932e+00	 9.811498815644311e-02	 1.236849845013925e+01
 1.594605247840945e+00	 1.312787246971855e-01	 1.237183771286154e+01
 1.591506744699159e+00	 1.646398541577587e-01	 1.237081718580703e+01
 1.587679297261759e+00	 1.981778217823746e-01	 1.236750076911330e+01
 1.583109520770828e+00	 2.318711824370586e-01	 1.236381538946293e+01
 1.577784767895711e+00	 2.656976217362025e-01	 1.236153470562906e+01
 1.571693187986334e+00	 2.996339814462870e-01	 1.236226293982185e+01
 1.564823785812476e+00	 3.336562892491454e-01	 1.236741896376092e+01
 1.614285714285714e+00	 0.000000000000000e+00	 1.224481322169151e+01
 1.613953528074177e+00	 3.274716115719337e-02	 1.227655916136858e+01
 1.612946150650265e+00	 6.575015170652387e-02	 1.229696944477446e+01
 1.611247698626314e+00	 9.899101483641133e-02	 1.230846651756528e+01
 1.608842794696668e+00	 1.324508561676961e-01	 1.231337463979532e+01
 1.605716626348258e+00	 1.661098528555958e-01	 1.231390316534102e+01
 1.601855005273025e+00	 1.999472666197172e-01	 1.231212964080229e+01
 1.597244427206282e+00	 2.339414608516752e-01	 1.230998283305335e+01
 1.591872131894781e+00	 2.680699219302758e-01	 1.230922580413135e+01
 1.585726162879069e+00	 3.023092848520574e-01	 1.231143916138810e+01
 1.578795426757230e+00	 3.366353632602985e-01	 1.231800461966316e+01
 1.628571428571428e+00	 0.000000000000000e+00	 1.218294112577385e+01
 1.628236302658904e+00	 3.303695904354021e-02	 1.221661761247394e+01
 1.627220010390533e+00	 6.633201145613912e-02	 1.223881375571685e+01
 1.625506527817698e+00	 9.986704151637955e-02	 1.225199441322770e+01
 1.623080341552390e+00	 1.336229876382067e-01	 1.225851642617715e+01
 1.619926507997358e+00	 1.675798515534329e-01	 1.226061117647132e+01
 1.616030713284290e+00	 2.017167114570599e-01	 1.226036699187171e+01
 1.611379333641735e+00	 2.360117392662917e-01	 1.225971151550267e+01
 1.605959495893850e+00	 2.704422221243490e-01	 1.226039416601815e+01
 1.599759137771804e+00	 3.049845882578278e-01	 1.226396882406624e+01
 1.592767067701984e+00	 3.396144372714515e-01	 1.227177688957713e+01
 1.642857142857143e+00	 0.000000000000000e+00	 1.212409657930824e+01
 1.642519077243632e+00	 3.332675692988706e-02	 1.215982321253920e+01
 1.641493870130801e+00	 6.691387120575437e-02	 1.218390480940619e+01
 1.639765357009081e+00	 1.007430681963478e-01	 1.219884622296212e+01
 1.637317888408113e+00	 1.347951191087173e-01	 1.220703432395821e+01
 1.634136389646457e+00	 1.690498502512701e-01	 1.221071984679300e+01
 1.630206421295556e+00	 2.034861562944024e-01	 1.221199911326329e+01
 1.625514240077189e+00	 2.380820176809083e-01	 1.221279575805809e+01
 1.620046859892919e+00	 2.728145223184222e-01	 1.221484258983043e+01
 1.613792112664539e+00	 3.076598916635982e-01	 1.221966373115654e+01
 1.606738708646739e+00	 3.425935112826046e-01	 1.222855718961025e+01
 1.657142857142857e+00	 0.000000000000000e+00	 1.206803285118732e+01
 1.656801851828358e+00	 3.361655481623389e-02	 1.210593601446227e+01
 1.655767729871068e+00	 6.749573095536965e-02	 1.213200942297457e+01
 1.654024186200464e+00	 1.016190948763160e-01	 1.214879557931008e+01
 1.651555435263836e+00	 1.359672505792279e-01	 1.215870890505637e+01
 1.648346271295556e+00	 1.705198489491072e-01	 1.216401688596226e+01
 1.644382129306822e+00	 2.052556011317451e-01	 1.216682112647029e+01
 1.639649146512643e+00	 2.401522960955249e-01	 1.216903844494705e+01
 1.634134223891987e+00	 2.751868225124955e-01	 1.217238215098925e+01
 1.627825087557275e+00	 3.103351950693686e-01	 1.217834365574494e+01
 1.620710349591493e+00	 3.455725852937577e-01	 1.218817457511581e+01
 1.671428571428571e+00	 0.000000000000000e+00	 1.201451295890843e+01
 1.671084626413086e+00	 3.390635270258074e-02	 1.205472561768376e+01
 1.670041589611336e+00	 6.807759070498488e-02	 1.208290375417052e+01
 1.668283015391848e+00	 1.024951215562843e-01	 1.210162524342369e+01
 1.665792982119558e+00	 1.371393820497384e-01	 1.211332964965491e+01
 1.662556152944656e+00	 1.719898476469443e-01	 1.212029868091901e+01
 1.658557837318088e+00	 2.070250459690877e-01	 1.212463658632474e+01
 1.653784052948096e+00	 2.422225745101414e-01	 1.212825063448026e+01
 1.648221587891056e+00	 2.775591227065688e-01	 1.213283182207496e+01
 1.641858062450009e+00	 3.130104984751390e-01	 1.213983597112669e+01
 1.634681990536247e+00	 3.485516593049109e-01	 1.215046538233551e+01
 1.685714285714285e+00	 0.000000000000000e+00	 1.196330925549714e+01
 1.685367400997813e+00	 3.419615058892758e-02	 1.200597076030279e+01
 1.684315449351604e+00	 6.865945045460013e-02	 1.203637289885987e+01
 1.682541844583231e+00	 1.033711482362525e-01	 1.205712670824834e+01
 1.680030528975281e+00	 1.383115135202490e-01	 1.207069455546893e+01
 1.676766034593755e+00	 1.734598463447814e-01	 1.207936991174388e+01
 1.672733545329353e+00	 2.087944908064303e-01	 1.208525710405714e+01
 1.667918959383551e+00	 2.442928529247581e-01	 1.209025119003069e+01
 1.662308951890125e+00	 2.799314229006420e-01	 1.209601811254563e+01
 1.655891037342745e+00	 3.156858018809094e-01	 1.210397530018670e+01
 1.648653631481001e+00	 3.515307333160639e-01	 1.211527288846417e+01
 1.699999999999999e+00	 0.000000000000000e+00	 1.191420303725820e+01
 1.699650175582540e+00	 3.448594847527441e-02	 1.195945893176062e+01
 1.698589309091872e+00	 6.924131020421538e-02	 1.199221050882902e+01
 1.696800673774614e+00	 1.042471749162208e-01	 1.201509982173191e+01
 1.694268075831003e+00	 1.394836449907596e-01	 1.203060976674587e+01
 1.690975916242855e+00	 1.749298450426185e-01	 1.204104318693582e+01
 1.686909253340619e+00	 2.105639356437730e-01	 1.204850198943609e+01
 1.682053865819004e+00	 2.463631313393747e-01	 1.205486642971942e+01
 1.676396315889194e+00	 2.823037230947152e-01	 1.206177472675153e+01
 1.669924012235480e+00	 3.183611052866799e-01	 1.207060318262143e+01
 1.662625272425756e+00	 3.545098073272170e-01	 1.208244698905306e+01
 1.714285714285714e+00	 0.000000000000000e+00	 1.186698417113888e+01
 1.713932950167268e+00	 3.477574636162127e-02	 1.191498600489212e+01
 1.712863168832140e+00	 6.982316995383066e-02	 1.195021842870650e+01
 1.711059502965998e+00	 1.051232015961890e-01	 1.197535242889210e+01
 1.708505622686727e+00	 1.406557764612702e-01	 1.199288922184946e+01
 1.705185797891956e+00	 1.763998437404557e-01	 1.200513869697746e+01
 1.701084961351885e+00	 2.123333804811157e-01	 1.201419791087500e+01
 1.696188772254459e+00	 2.484334097539913e-01	 1.202192979371726e+01
 1.690483679888263e+00	 2.846760232887885e-01	 1.202994223917808e+01
 1.683956987128216e+00	 3.210364086924503e-01	 1.203956775896158e+01
 1.676596913370510e+00	 3.574888813383701e-01	 1.205184389174027e+01
 1.536880503922968e+00	 3.276981412268393e-01	 1.247656231426964e+01
 1.529359935167873e+00	 3.611730109038592e-01	 1.247521566342902e+01
 1.521056582680450e+00	 3.946829453960644e-01	 1.246302323377053e+01
 1.511962503937697e+00	 4.282022206720662e-01	 1.244111489507546e+01
 1.502070815310960e+00	 4.617044735467811e-01	 1.241053769339190e+01
 1.491375741924359e+00	 4.951627525386056e-01	 1.237224940996467e+01
 1.479872664833536e+00	 5.285495728694983e-01	 1.232711245436543e+01
 1.467558165151136e+00	 5.618369754655443e-01	 1.227588816795399e+01
 1.454430064751624e+00	 5.949965897789888e-01	 1.221923161849663e+01
 1.440487463197997e+00	 6.279997002160423e-01	 1.215768697092264e+01
 1.425730770546949e+00	 6.608173159184335e-01	 1.209168812952144e+01
 1.550852144867722e+00	 3.306772152379924e-01	 1.242020652295021e+01
 1.543263207305763e+00	 3.644564019120761e-01	 1.242082303307957e+01
 1.534884369795726e+00	 3.982709721723922e-01	 1.241096700293118e+01
 1.525707617609859e+00	 4.320949681327215e-01	 1.239173372203163e+01
 1.515726004541059e+00	 4.659017869426607e-01	 1.236413268771733e+01
 1.504933703214580e+00	 4.996642321071384e-01	 1.232908123779746e+01
 1.493326052695659e+00	 5.333545689864937e-01	 1.228739852871563e+01
 1.480899603016147e+00	 5.669445843334130e-01	 1.223979993547788e+01
 1.467652156249367e+00	 6.004056496860709e-01	 1.218689195444926e+01
 1.453582803772525e+00	 6.337087883998246e-01	 1.212916769444630e+01
 1.438691959370104e+00	 6.668247460631467e-01	 1.206700304515118e+01
 1.564823785812476e+00	 3.336562892491454e-01	 1.236741896376092e+01
 1.557166479443652e+00	 3.677397929202930e-01	 1.236978986232602e+01
 1.548712156911003e+00	 4.018589989487200e-01	 1.236206371163053e+01
 1.539452731282019e+00	 4.359877155933766e-01	 1.234529981179859e+01
 1.529381193771159e+00	 4.700991003385406e-01	 1.232046865979641e+01
 1.518491664504802e+00	 5.041657116756713e-01	 1.228844566337976e+01
 1.506779440557782e+00	 5.381595651034889e-01	 1.225000521206288e+01
 1.494241040881157e+00	 5.720521932012815e-01	 1.220581518143435e+01
 1.480874247747108e+00	 6.058147095931524e-01	 1.215643195212009e+01
 1.466678144347052e+00	 6.394178765836067e-01	 1.210229602919107e+01
 1.451653148193258e+00	 6.728321762078596e-01	 1.204372835160922e+01
 1.578795426757230e+00	 3.366353632602985e-01	 1.231800461966316e+01
 1.571069751581543e+00	 3.710231839285100e-01	 1.232193171038779e+01
 1.562539944026279e+00	 4.054470257250479e-01	 1.231613933632745e+01
 1.553197844954180e+00	 4.398804630540316e-01	 1.230164943578415e+01
 1.543036383001258e+00	 4.742964137344203e-01	 1.227939209197985e+01
 1.532049625795023e+00	 5.086671912442039e-01	 1.225019933569473e+01
 1.520232828419905e+00	 5.429645612204846e-01	 1.221479931665198e+01
 1.507582478746167e+00	 5.771598020691500e-01	 1.217381091995322e+01
 1.494096339244851e+00	 6.112237695002342e-01	 1.212773890898322e+01
 1.479773484921579e+00	 6.451269647673891e-01	 1.207696968087214e+01
 1.464614337016412e+00	 6.788396063525726e-01	 1.202176772460504e+01
 1.592767067701984e+00	 3.396144372714515e-01	 1.227177688957713e+01
 1.584973023719432e+00	 3.743065749367267e-01	 1.227707218606703e+01
 1.576367731141557e+00	 4.090350525013756e-01	 1.227302754033106e+01
 1.566942958626341e+00	 4.437732105146868e-01	 1.226062619226712e+01
 1.556691572231358e+00	 4.784937271303002e-01	 1.224075643534383e+01
 1.545607587085245e+00	 5.131686708127365e-01	 1.221420551519661e+01
 1.533686216282028e+00	 5.477695573374801e-01	 1.218165390887742e+01
 1.520923916611178e+00	 5.822674109370186e-01	 1.214367006095971e+01
 1.507318430742593e+00	 6.166328294073159e-01	 1.210070565795357e+01
 1.492868825496106e+00	 6.508360529511709e-01	 1.205309152733108e+01
 1.477575525839566e+00	 6.848470364972855e-01	 1.200103425167328e+01
 1.606738708646739e+00	 3.425935112826046e-01	 1.222855718961025e+01
 1.598876295857322e+00	 3.775899659449437e-01	 1.223504256194406e+01
 1.590195518256833e+00	 4.126230792777034e-01	 1.223256930087335e+01
 1.580688072298502e+00	 4.476659579753420e-01	 1.222208064629489e+01
 1.570346761461457e+00	 4.826910405261801e-01	 1.220442176239846e+01
 1.559165548375466e+00	 5.176701503812695e-01	 1.218033373935535e+01
 1.547139604144151e+00	 5.525745534544754e-01	 1.215044798772907e+01
 1.534265354476188e+00	 5.873750198048872e-01	 1.211528110162530e+01
 1.520540522240334e+00	 6.220418893143975e-01	 1.207523027198783e+01
 1.505964166070634e+00	 6.565451411349534e-01	 1.203056933647241e+01
 1.490536714662720e+00	 6.908544666419987e-01	 1.198144555675409e+01
 1.620710349591493e+00	 3.455725852937577e-01	 1.218817457511581e+01
 1.612779567995212e+00	 3.808733569531607e-01	 1.219568140877137e+01
 1.604023305372110e+00	 4.162111060540314e-01	 1.219461255575549e+01
 1.594433185970663e+00	 4.515587054359971e-01	 1.218586998853408e+01
 1.584001950691557e+00	 4.868883539220599e-01	 1.217025443813109e+01
 1.572723509665688e+00	 5.221716299498023e-01	 1.214845950591688e+01
 1.560592992006274e+00	 5.573795495714710e-01	 1.212106618033065e+01
 1.547606792341198e+00	 5.924826286727556e-01	 1.208853783428299e+01
 1.533762613738076e+00	 6.274509492214794e-01	 1.205121578451308e+01
 1.519059506645160e+00	 6.622542293187352e-01	 1.200931549937948e+01
 1.503497903485874e+00	 6.968618967867117e-01	 1.196292354620956e+01
 1.634681990536247e+00	 3.485516593049109e-01	 1.215046538233551e+01
 1.626682840133101e+00	 3.841567479613774e-01	 1.215883424885779e+01
 1.617851092487387e+00	 4.197991328303592e-01	 1.215901186839662e+01
 1.608178299642824e+00	 4.554514528966522e-01	 1.215185771194053e+01
 1.597657139921657e+00	 4.910856673179397e-01	 1.213812680828697e+01
 1.586281470955909e+00	 5.266731095183350e-01	 1.211846397281847e+01
 1.574046379868397e+00	 5.621845456884662e-01	 1.209339845354799e+01
 1.560948230206208e+00	 5.975902375406242e-01	 1.206333906982204e+01
 1.546984705235818e+00	 6.328600091285610e-01	 1.202856992473579e+01
 1.532154847219687e+00	 6.679633175025174e-01	 1.198924677770214e+01
 1.516459092309028e+00	 7.028693269314247e-01	 1.194539416848921e+01
 1.648653631481001e+00	 3.515307333160639e-01	 1.211527288846417e+01
 1.640586112270991e+00	 3.874401389695944e-01	 1.212435322731624e+01
 1.631678879602664e+00	 4.233871596066871e-01	 1.212562811019387e+01
 1.621923413314984e+00	 4.593442003573073e-01	 1.211991330519143e+01
 1.611312329151756e+00	 4.952829807138194e-01	 1.210791690386526e+01
 1.599839432246130e+00	 5.311745890868675e-01	 1.209023367377166e+01
 1.587499767730520e+00	 5.669895418054617e-01	 1.206733984071441e+01
 1.574289668071219e+00	 6.026978464084928e-01	 1.203958837564344e+01
 1.560206796733560e+00	 6.382690690356425e-01	 1.200720486694887e+01
 1.545250187794215e+00	 6.736724056862997e-01	 1.197028406446911e+01
 1.529420281132182e+00	 7.088767570761374e-01	 1.192878718663534e+01
 1.662625272425756e+00	 3.545098073272170e-01	 1.208244698905306e+01
 1.654489384408881e+00	 3.907235299778112e-01	 1.209209680012417e+01
 1.645506666717941e+00	 4.269751863830149e-01	 1.209432815917492e+01
 1.635668526987145e+00	 4.632369478179624e-01	 1.208991196189367e+01
 1.624967518381856e+00	 4.994802941096994e-01	 1.207950816087597e+01
 1.613397393536351e+00	 5.356760686554004e-01	 1.206366024859075e+01
 1.600953155592644e+00	 5.717945379224573e-01	 1.204279018258357e+01
 1.587631105936229e+00	 6.078054552763614e-01	 1.201719382732022e+01
 1.573428888231302e+00	 6.436781289427244e-01	 1.198703699301307e+01
 1.558345528368742e+00	 6.793814938700821e-01	 1.195235215753539e+01
 1.542381469955336e+00	 7.148841872208506e-01	 1.191303596287282e+01
 1.676596913370510e+00	 3.574888813383701e-01	 1.205184389174027e+01
 1.668392656546771e+00	 3.940069209860282e-01	 1.206192943801630e+01
 1.659334453833218e+00	 4.305632131593429e-01	 1.206498461399285e+01
 1.649413640659306e+00	 4.671296952786177e-01	 1.206173430464804e+01
 1.638622707611956e+00	 5.036776075055792e-01	 1.205278915446812e+01
 1.626955354826573e+00	 5.401775482239333e-01	 1.203864018740689e+01
 1.614406543454767e+00	 5.765995340394527e-01	 1.201965388167962e+01
 1.600972543801240e+00	 6.129130641442300e-01	 1.199606777316265e+01
 1.586650979729045e+00	 6.490871888498062e-01	 1.196798666724431e+01
 1.571440868943270e+00	 6.850905820538644e-01	 1.193537954492804e+01
 1.555342658778490e+00	 7.208916173655637e-01	 1.189807725457822e+01
 1.425730770546949e+00	 6.608173159184335e-01	 1.209168812952144e+01
 1.410161735707014e+00	 6.934202436112044e-01	 1.201579084349649e+01
 1.393783470046178e+00	 7.257791631950287e-01	 1.192478273723176e+01
 1.376600465971305e+00	 7.578647057289485e-01	 1.181940043749174e+01
 1.358618610231331e+00	 7.896475334192641e-01	 1.170026939754464e+01
 1.339845191729296e+00	 8.210984212029193e-01	 1.156789689997487e+01
 1.320288903664719e+00	 8.521883394894908e-01	 1.142266757585973e+01
 1.299959839867087e+00	 8.828885376052731e-01	 1.126484181317006e+01
 1.278869485223118e+00	 9.131706274663013e-01	 1.109455735245139e+01
 1.257030700144342e+00	 9.430066669948136e-01	 1.091183427558719e+01
 1.234457699067077e+00	 9.723692427859159e-01	 1.071658348641888e+01
 1.438691959370104e+00	 6.668247460631467e-01	 1.206700304515118e+01
 1.422981387849805e+00	 6.997240640076697e-01	 1.199482823160938e+01
 1.406454228864779e+00	 7.323771555877107e-01	 1.190759778773165e+01
 1.389115015661953e+00	 7.647543848719386e-01	 1.180607747371996e+01
 1.370969688506161e+00	 7.968261473594389e-01	 1.169085925740155e+01
 1.352025602563199e+00	 8.285629523047642e-01	 1.156241417309337e+01
 1.332291530061670e+00	 8.599355062121224e-01	 1.142108754070303e+01
 1.311777656593151e+00	 8.909147970380484e-01	 1.126709720976728e+01
 1.290495571452419e+00	 9.214721786250853e-01	 1.110053514944563e+01
 1.268458251963835e+00	 9.515794548765845e-01	 1.092137260836429e+01
 1.245680041785870e+00	 9.812089631748793e-01	 1.072946895531163e+01
 1.451653148193258e+00	 6.728321762078596e-01	 1.204372835160922e+01
 1.435801039992596e+00	 7.060278844041350e-01	 1.197516370050127e+01
 1.419124987683381e+00	 7.389751479803927e-01	 1.189144192920659e+01
 1.401629565352602e+00	 7.716440640149292e-01	 1.179347825618661e+01
 1.383320766780991e+00	 8.040047612996142e-01	 1.168186723958481e+01
 1.364206013397101e+00	 8.360274834066088e-01	 1.155705051398804e+01
 1.344294156458623e+00	 8.676826729347542e-01	 1.141934126493986e+01
 1.323595473319216e+00	 8.989410564708233e-01	 1.126892223391958e+01
 1.302121657681720e+00	 9.297737297838702e-01	 1.110584723141696e+01
 1.279885803783329e+00	 9.601522427583558e-01	 1.093004640168233e+01
 1.256902384504661e+00	 9.900486835638418e-01	 1.074133536375310e+01
 1.464614337016412e+00	 6.788396063525726e-01	 1.202176772460504e+01
 1.448620692135387e+00	 7.123317048006008e-01	 1.195659107333324e+01
 1.431795746501982e+00	 7.455731403730749e-01	 1.187626631554061e+01
 1.414144115043250e+00	 7.785337431579197e-01	 1.178157494115250e+01
 1.395671845055821e+00	 8.111833752397896e-01	 1.167328221886426e+01
 1.376386424231004e+00	 8.434920145084532e-01	 1.155181283700265e+01
 1.356296782855575e+00	 8.754298396573859e-01	 1.141745496942178e+01
 1.335413290045280e+00	 9.069673159035985e-01	 1.127036360604624e+01
 1.313747743911021e+00	 9.380752809426548e-01	 1.111056191646879e+01
 1.291313355602823e+00	 9.687250306401264e-01	 1.093794655255316e+01
 1.268124727223453e+00	 9.988884039528049e-01	 1.075229702966103e+01
 1.477575525839566e+00	 6.848470364972855e-01	 1.200103425167328e+01
 1.461440344278178e+00	 7.186355251970660e-01	 1.193901774152591e+01
 1.444466505320585e+00	 7.521711327657569e-01	 1.186190742295309e+01
 1.426658664733898e+00	 7.854234223009101e-01	 1.177034637980985e+01
 1.408022923330651e+00	 8.183619891799643e-01	 1.166509905401332e+01
 1.388566835064907e+00	 8.509565456102980e-01	 1.154671328569634e+01
 1.368299409252526e+00	 8.831770063800175e-01	 1.141545931412352e+01
 1.347231106771345e+00	 9.149935753363739e-01	 1.127147166867240e+01
 1.325373830140322e+00	 9.463768321014391e-01	 1.111475030898836e+01
 1.302740907422317e+00	 9.772978185218976e-01	 1.094516589743568e+01
 1.279347069942244e+00	 1.007728124341767e+00	 1.076246935994473e+01
 1.490536714662720e+00	 6.908544666419987e-01	 1.198144555675409e+01
 1.474259996420969e+00	 7.249393455935317e-01	 1.192237223963973e+01
 1.457137264139186e+00	 7.587691251584391e-01	 1.184826063770965e+01
 1.439173214424546e+00	 7.923131014439005e-01	 1.175971615267412e+01
 1.420374001605482e+00	 8.255406031201394e-01	 1.165731824705815e+01
 1.400747245898809e+00	 8.584210767121424e-01	 1.154176891219627e+01
 1.380302035649479e+00	 8.909241731026496e-01	 1.141338910052634e+01
 1.359048923497409e+00	 9.230198347691492e-01	 1.127230011460256e+01
 1.336999916369623e+00	 9.546783832602238e-01	 1.111848605618130e+01
 1.314168459241811e+00	 9.858706064036686e-01	 1.095179899949237e+01
 1.290569412661036e+00	 1.016567844730730e+00	 1.077196867061622e+01
 1.503497903485874e+00	 6.968618967867117e-01	 1.196292354620956e+01
 1.487079648563760e+00	 7.312431659899971e-01	 1.190658701023035e+01
 1.469808022957787e+00	 7.653671175511210e-01	 1.183527074061469e+01
 1.451687764115194e+00	 7.992027805868908e-01	 1.174954842378671e+01
 1.432725079880312e+00	 8.327192170603147e-01	 1.164993667103860e+01
 1.412927656732712e+00	 8.658856078139876e-01	 1.153700136584850e+01
 1.392304662046431e+00	 8.986713398252809e-01	 1.141128298186439e+01
 1.370866740223474e+00	 9.310460942019244e-01	 1.127290572141640e+01
 1.348626002598924e+00	 9.629799344190080e-01	 1.112184510929449e+01
 1.325596011061305e+00	 9.944433942854394e-01	 1.095794193882099e+01
 1.301791755379827e+00	 1.025407565119693e+00	 1.078091200809580e+01
 1.516459092309028e+00	 7.028693269314247e-01	 1.194539416848921e+01
 1.499899300706551e+00	 7.375469863864624e-01	 1.189159817728278e+01
 1.482478781776389e+00	 7.719651099438031e-01	 1.182288577498422e+01
 1.464202313805843e+00	 8.060924597298814e-01	 1.173980293319427e+01
 1.445076158155143e+00	 8.398978310004899e-01	 1.164284018488818e+01
 1.425108067566615e+00	 8.733501389158324e-01	 1.153243659061076e+01
 1.404307288443382e+00	 9.064185065479126e-01	 1.140918318076302e+01
 1.382684556949538e+00	 9.390723536346993e-01	 1.127334809190842e+01
 1.360252088828225e+00	 9.712814855777927e-01	 1.112490548924735e+01
 1.337023562880800e+00	 1.003016182167210e+00	 1.096369210548315e+01
 1.313014098098619e+00	 1.034247285508656e+00	 1.078941697164034e+01
 1.529420281132182e+00	 7.088767570761374e-01	 1.192878718663534e+01
 1.512718952849342e+00	 7.438508067829279e-01	 1.187734533182184e+01
 1.495149540594990e+00	 7.785631023364850e-01	 1.181105684787974e+01
 1.476716863496491e+00	 8.129821388728719e-01	 1.173044391056442e+01
 1.457427236429973e+00	 8.470764449406649e-01	 1.163597534574905e+01
 1.437288478400517e+00	 8.808146700176768e-01	 1.152806472819181e+01
 1.416309914840334e+00	 9.141656732705443e-01	 1.140713521383107e+01
 1.394502373675602e+00	 9.470986130674746e-01	 1.127368940011894e+01
 1.371878175057526e+00	 9.795830367365774e-01	 1.112774705640971e+01
 1.348451114700293e+00	 1.011588970048982e+00	 1.096914799516409e+01
 1.324236440817411e+00	 1.043087005897619e+00	 1.079760153682786e+01
 1.542381469955336e+00	 7.148841872208506e-01	 1.191303596287282e+01
 1.525538604992133e+00	 7.501546271793936e-01	 1.186377132898254e+01
 1.507820299413592e+00	 7.851610947291672e-01	 1.179973794204767e+01
 1.489231413187139e+00	 8.198718180158620e-01	 1.172143802284888e+01
 1.469778314704803e+00	 8.542550588808401e-01	 1.162932297536612e+01
 1.449468889234420e+00	 8.882792011195216e-01	 1.152379136936983e+01
 1.428312541237287e+00	 9.219128399931762e-01	 1.140518762279777e+01
 1.406320190401667e+00	 9.551248725002499e-01	 1.127399414262737e+01
 1.383504261286827e+00	 9.878845878953617e-01	 1.113045128428239e+01
 1.359878666519787e+00	 1.020161757930753e+00	 1.097440900730854e+01
 1.335458783536202e+00	 1.051926726286582e+00	 1.080558388003606e+01
 1.555342658778490e+00	 7.208916173655637e-01	 1.189807725457822e+01
 1.538358257134925e+00	 7.564584475758592e-01	 1.185082209587220e+01
 1.520491058232194e+00	 7.917590871218493e-01	 1.178888573794012e+01
 1.501745962877788e+00	 8.267614971588527e-01	 1.171275421259013e+01
 1.482129392979634e+00	 8.614336728210154e-01	 1.162286570463188e+01
 1.461649300068323e+00	 8.957437322213666e-01	 1.151960838627988e+01
 1.440315167634239e+00	 9.296600067158080e-01	 1.140331888949889e+01
 1.418138007127731e+00	 9.631511319330253e-01	 1.127432889480108e+01
 1.395130347516129e+00	 9.961861390541467e-01	 1.113310103685296e+01
 1.371306218339282e+00	 1.028734545812524e+00	 1.097957524558864e+01
 1.346681126254994e+00	 1.060766446675545e+00	 1.081348220385717e+01
 1.234457699067077e+00	 9.723692427859159e-01	 1.071658348641888e+01
 1.211166023023431e+00	 1.001231551528240e+00	 1.050865134527858e+01
 1.187172506368977e+00	 1.029567479684378e+00	 1.028828251181915e+01
 1.162495237799779e+00	 1.057351680943892e+00	 1.005592883140893e+01
 1.137153515837634e+00	 1.084559650973679e+00	 9.812078875533256e+00
 1.111167799007432e+00	 1.111167799007432e+00	 9.557274072790287e+00
 1.084559650973679e+00	 1.137153515837633e+00	 9.292125710316661e+00
 1.057351680943892e+00	 1.162495237799779e+00	 9.017332173865700e+00
 1.029567479684378e+00	 1.187172506368976e+00	 8.733695737777163e+00
 1.001231551528240e+00	 1.211166023023430e+00	 8.442138183298692e+00
 9.723692427859164e-01	 1.234457699067078e+00	 8.143714517419303e+00
 1.245680041785870e+00	 9.812089631748793e-01	 1.072946895531163e+01
 1.222176623232734e+00	 1.010333656542133e+00	 1.052480530968682e+01
 1.197964983699604e+00	 1.038927184045144e+00	 1.030778332500417e+01
 1.173063376325232e+00	 1.066963968952472e+00	 1.007883803152330e+01
 1.147491275072521e+00	 1.094419284164349e+00	 9.838445900676867e+00
 1.121269324452954e+00	 1.121269324452954e+00	 9.587141817124936e+00
 1.094419284164349e+00	 1.147491275072521e+00	 9.325536995502933e+00
 1.066963968952473e+00	 1.173063376325232e+00	 9.054337177404530e+00
 1.038927184045145e+00	 1.197964983699604e+00	 8.774360382794196e+00
 1.010333656542133e+00	 1.222176623232734e+00	 8.486553454176860e+00
 9.812089631748793e-01	 1.245680041785870e+00	 8.192006623906360e+00
 1.256902384504661e+00	 9.900486835638418e-01	 1.074133536375310e+01
 1.233187223442039e+00	 1.019435761556026e+00	 1.053984217098646e+01
 1.208757461030231e+00	 1.048286888405912e+00	 1.032612480750083e+01
 1.183631514850685e+00	 1.076576256961054e+00	 1.010058867134263e+01
 1.157829034307408e+00	 1.104278917355019e+00	 9.863683612618184e+00
 1.131370849898476e+00	 1.131370849898476e+00	 9.615921894496964e+00
 1.104278917355019e+00	 1.157829034307408e+00	 9.357897194317651e+00
 1.076576256961054e+00	 1.183631514850685e+00	 9.090303945069211e+00
 1.048286888405912e+00	 1.208757461030231e+00	 8.813956251383082e+00
 1.019435761556027e+00	 1.233187223442038e+00	 8.529805574868476e+00
 9.900486835638419e-01	 1.256902384504661e+00	 8.238956373760523e+00
 1.268124727223453e+00	 9.988884039528049e-01	 1.075229702966103e+01
 1.244197823651342e+00	 1.028537866569919e+00	 1.055389679639054e+01
 1.219549938360858e+00	 1.057646592766679e+00	 1.034345609497668e+01
 1.194199653376137e+00	 1.086188544969634e+00	 1.012133818380102e+01
 1.168166793542296e+00	 1.114138550545689e+00	 9.887952091756649e+00
 1.141472375343998e+00	 1.141472375343998e+00	 9.643771715948322e+00
 1.114138550545689e+00	 1.168166793542297e+00	 9.389356076332081e+00
 1.086188544969634e+00	 1.194199653376137e+00	 9.125369989673532e+00
 1.057646592766679e+00	 1.219549938360858e+00	 8.852604353843368e+00
 1.028537866569919e+00	 1.244197823651342e+00	 8.571995190367426e+00
 9.988884039528049e-01	 1.268124727223452e+00	 8.284640581097428e+00
 1.279347069942244e+00	 1.007728124341767e+00	 1.076246935994473e+01
 1.255208423860646e+00	 1.037639971583812e+00	 1.056710441962042e+01
 1.230342415691486e+00	 1.067006297127446e+00	 1.035992621477003e+01
 1.204767791901590e+00	 1.095800832978215e+00	 1.014124365427970e+01
 1.178504552777184e+00	 1.123998183736358e+00	 9.911411053715831e+00
 1.151573900789520e+00	 1.151573900789520e+00	 9.670848517414569e+00
 1.123998183736358e+00	 1.178504552777183e+00	 9.420063616075424e+00
 1.095800832978215e+00	 1.204767791901590e+00	 9.159673581683942e+00
 1.067006297127446e+00	 1.230342415691485e+00	 8.890427164559529e+00
 1.037639971583813e+00	 1.255208423860646e+00	 8.613225250053869e+00
 1.007728124341768e+00	 1.279347069942244e+00	 8.329139317907234e+00
 1.290569412661036e+00	 1.016567844730730e+00	 1.077196867061622e+01
 1.266219024069950e+00	 1.046742076597705e+00	 1.057960049033608e+01
 1.241134893022112e+00	 1.076366001488213e+00	 1.037568395591583e+01
 1.215335930427042e+00	 1.105413120986796e+00	 1.016046170300220e+01
 1.188842312012071e+00	 1.133857816927028e+00	 9.934219736410084e+00
 1.161675426235042e+00	 1.161675426235042e+00	 9.697309244322591e+00
 1.133857816927028e+00	 1.188842312012071e+00	 9.450169868605826e+00
 1.105413120986796e+00	 1.215335930427042e+00	 9.193353609813187e+00
 1.076366001488213e+00	 1.241134893022111e+00	 8.927548462295519e+00
 1.046742076597705e+00	 1.266219024069950e+00	 8.653600823016484e+00
 1.016567844730730e+00	 1.290569412661036e+00	 8.372535700397723e+00
 1.301791755379827e+00	 1.025407565119693e+00	 1.078091200809580e+01
 1.277229624279254e+00	 1.055844181611598e+00	 1.059152052320740e+01
 1.251927370352739e+00	 1.085725705848980e+00	 1.039087773775362e+01
 1.225904068952494e+00	 1.115025408995377e+00	 1.017914836542240e+01
 1.199180071246959e+00	 1.143717450117698e+00	 9.956536784956970e+00
 1.171776951680564e+00	 1.171776951680564e+00	 9.723310434297115e+00
 1.143717450117698e+00	 1.199180071246959e+00	 9.479824843832358e+00
 1.115025408995377e+00	 1.225904068952494e+00	 9.226549441352134e+00
 1.085725705848981e+00	 1.251927370352739e+00	 8.964093171524524e+00
 1.055844181611599e+00	 1.277229624279254e+00	 8.693228915979130e+00
 1.025407565119693e+00	 1.301791755379828e+00	 8.414915679744819e+00
 1.313014098098619e+00	 1.034247285508656e+00	 1.078941697164034e+01
 1.288240224488558e+00	 1.064946286625491e+00	 1.060299994664701e+01
 1.262719847683366e+00	 1.095085410209747e+00	 1.040565547720259e+01
 1.236472207477947e+00	 1.124637697003957e+00	 1.019745897072661e+01
 1.209517830481846e+00	 1.153577083308367e+00	 9.978520134564185e+00
 1.181878477126086e+00	 1.181878477126086e+00	 9.749008098089670e+00
 1.153577083308368e+00	 1.209517830481846e+00	 9.509178379662883e+00
 1.124637697003958e+00	 1.236472207477947e+00	 9.259400782255133e+00
 1.095085410209748e+00	 1.262719847683366e+00	 9.000187204730164e+00
 1.064946286625492e+00	 1.288240224488557e+00	 8.732218293674309e+00
 1.034247285508656e+00	 1.313014098098619e+00	 8.456367836986800e+00
 1.324236440817411e+00	 1.043087005897619e+00	 1.079760153682786e+01
 1.299250824697862e+00	 1.074048391639384e+00	 1.061417395122547e+01
 1.273512325013993e+00	 1.104445114570514e+00	 1.042016445478252e+01
 1.247040346003400e+00	 1.134249985012538e+00	 1.021554801856039e+01
 1.219855589716734e+00	 1.163436716499038e+00	 1.000032689151124e+01
 1.191980002571608e+00	 1.191980002571608e+00	 9.774557598834660e+00
 1.163436716499038e+00	 1.219855589716734e+00	 9.538380014047073e+00
 1.134249985012539e+00	 1.247040346003399e+00	 9.292047536993371e+00
 1.104445114570514e+00	 1.273512325013993e+00	 9.035957305623263e+00
 1.074048391639385e+00	 1.299250824697862e+00	 8.770679301520174e+00
 1.043087005897619e+00	 1.324236440817410e+00	 8.496983181816283e+00
 1.335458783536202e+00	 1.051926726286582e+00	 1.080558388003606e+01
 1.310261424907166e+00	 1.083150496653277e+00	 1.062517733778702e+01
 1.284304802344620e+00	 1.113804818931281e+00	 1.043455117945497e+01
 1.257608484528852e+00	 1.143862273021119e+00	 1.023356905408554e+01
 1.230193348951621e+00	 1.173296349689707e+00	 1.002211321233813e+01
 1.202081528017131e+00	 1.202081528017130e+00	 9.800113529731679e+00
 1.173296349689708e+00	 1.230193348951621e+00	 9.567578855979811e+00
 1.143862273021120e+00	 1.257608484528852e+00	 9.324629668190441e+00
 1.113804818931282e+00	 1.284304802344620e+00	 9.071530893219249e+00
 1.083150496653278e+00	 1.310261424907165e+00	 8.808723690463900e+00
 1.051926726286582e+00	 1.335458783536202e+00	 8.536854955040827e+00
 1.346681126254994e+00	 1.060766446675545e+00	 1.081348220385717e+01
 1.321272025116470e+00	 1.092252601667171e+00	 1.063614436528364e+01
 1.295097279675248e+00	 1.123164523292048e+00	 1.044896125235299e+01
 1.268176623054305e+00	 1.153474561029700e+00	 1.025167454146411e+01
 1.240531108186509e+00	 1.183155982880377e+00	 1.004403418134513e+01
 1.212183053462653e+00	 1.212183053462653e+00	 9.825829590245526e+00
 1.183155982880377e+00	 1.240531108186509e+00	 9.596923455525591e+00
 1.153474561029701e+00	 1.268176623054305e+00	 9.357287056052163e+00
 1.123164523292049e+00	 1.295097279675247e+00	 9.107035906726413e+00
 1.092252601667171e+00	 1.321272025116470e+00	 8.846464443866063e+00
 1.060766446675545e+00	 1.346681126254994e+00	 8.576078434498177e+00
 9.723692427859164e-01	 1.234457699067078e+00	 8.143714517419303e+00
 9.430066669948137e-01	 1.257030700144342e+00	 7.840143278374379e+00
 9.131706274663016e-01	 1.278869485223118e+00	 7.532458262151592e+00
 8.828885376052734e-01	 1.299959839867087e+00	 7.220895664657510e+00
 8.521883394894909e-01	 1.320288903664719e+00	 6.905833368356701e+00
 8.210984212029198e-01	 1.339845191729296e+00	 6.587795076378736e+00
 7.896475334192649e-01	 1.358618610231331e+00	 6.267449441768187e+00
 7.578647057289489e-01	 1.376600465971305e+00	 5.945604035560828e+00
 7.257791631950296e-01	 1.393783470046177e+00	 5.623194156733386e+00
 6.934202436112055e-01	 1.410161735707014e+00	 5.301266648025894e+00
 6.608173159184336e-01	 1.425730770546950e+00	 4.980959038393022e+00
 9.812089631748793e-01	 1.245680041785870e+00	 8.192006623906360e+00
 9.515794548765846e-01	 1.268458251963835e+00	 7.892364378896319e+00
 9.214721786250856e-01	 1.290495571452418e+00	 7.588464296832177e+00
 8.909147970380484e-01	 1.311777656593151e+00	 7.280403482950833e+00
 8.599355062121232e-01	 1.332291530061670e+00	 6.968423529300831e+00
 8.285629523047646e-01	 1.352025602563199e+00	 6.652916539529956e+00
 7.968261473594400e-01	 1.370969688506161e+00	 6.334425901350060e+00
 7.647543848719395e-01	 1.389115015661953e+00	 6.013641617926750e+00
 7.323771555877113e-01	 1.406454228864779e+00	 5.691390177587323e+00
 6.997240640076707e-01	 1.422981387849804e+00	 5.368619111532823e+00
 6.668247460631466e-01	 1.438691959370104e+00	 5.048470920677791e+00
 9.900486835638419e-01	 1.256902384504661e+00	 8.238956373760523e+00
 9.601522427583559e-01	 1.279885803783329e+00	 7.942938311201754e+00
 9.297737297838703e-01	 1.302121657681720e+00	 7.642377938322877e+00
 8.989410564708238e-01	 1.323595473319216e+00	 7.337252717925552e+00
 8.676826729347549e-01	 1.344294156458623e+00	 7.027689675657058e+00
 8.360274834066094e-01	 1.364206013397101e+00	 6.713973171814526e+00
 8.040047612996150e-01	 1.383320766780991e+00	 6.396547152524830e+00
 7.716440640149302e-01	 1.401629565352601e+00	 6.076011659829791e+00
 7.389751479803938e-01	 1.419124987683381e+00	 5.753113557542900e+00
 7.060278844041363e-01	 1.435801039992596e+00	 5.429790939810449e+00
 6.728321762078597e-01	 1.451653148193258e+00	 5.114741662485661e+00
 9.988884039528049e-01	 1.268124727223452e+00	 8.284640581097428e+00
 9.687250306401261e-01	 1.291313355602823e+00	 7.991920641494684e+00
 9.380752809426548e-01	 1.313747743911021e+00	 7.694241461010487e+00
 9.069673159035991e-01	 1.335413290045280e+00	 7.391479685443104e+00
 8.754298396573863e-01	 1.356296782855575e+00	 7.083668855789007e+00
 8.434920145084538e-01	 1.376386424231004e+00	 6.771008789150150e+00
 8.111833752397901e-01	 1.395671845055821e+00	 6.453869149683255e+00
 7.785337431579205e-01	 1.414144115043249e+00	 6.132786958034055e+00
 7.455731403730758e-01	 1.431795746501982e+00	 5.808666054431184e+00
 7.123317048006017e-01	 1.448620692135387e+00	 5.489857083462107e+00
 6.788396063525725e-01	 1.464614337016411e+00	 5.180062598913291e+00
 1.007728124341768e+00	 1.279347069942244e+00	 8.329139317907234e+00
 9.772978185218977e-01	 1.302740907422317e+00	 8.039371041443703e+00
 9.463768321014395e-01	 1.325373830140322e+00	 7.744101791144224e+00
 9.149935753363746e-01	 1.347231106771345e+00	 7.443125613816334e+00
 8.831770063800182e-01	 1.368299409252526e+00	 7.136403021851226e+00
 8.509565456102984e-01	 1.388566835064906e+00	 6.824071851048917e+00
 8.183619891799651e-01	 1.408022923330651e+00	 6.506451997920184e+00
 7.854234223009112e-01	 1.426658664733898e+00	 6.184043754355944e+00
 7.521711327657579e-01	 1.444466505320584e+00	 5.862565345609748e+00
 7.186355251970672e-01	 1.461440344278178e+00	 5.549539419956636e+00
 6.848470364972853e-01	 1.477575525839566e+00	 5.244555969391413e+00
 1.016567844730730e+00	 1.290569412661036e+00	 8.372535700397723e+00
 9.858706064036687e-01	 1.314168459241811e+00	 8.085353050817570e+00
 9.546783832602239e-01	 1.336999916369622e+00	 7.792010259272161e+00
 9.230198347691496e-01	 1.359048923497409e+00	 7.492236398632271e+00
 8.909241731026497e-01	 1.380302035649478e+00	 7.185938798608987e+00
 8.584210767121432e-01	 1.400747245898808e+00	 6.873215254031583e+00
 8.255406031201403e-01	 1.420374001605481e+00	 6.554359780590714e+00
 7.923131014439014e-01	 1.439173214424546e+00	 6.232068595784922e+00
 7.587691251584401e-01	 1.457137264139186e+00	 5.916655793009742e+00
 7.249393455935327e-01	 1.474259996420969e+00	 5.608922849352034e+00
 6.908544666419983e-01	 1.490536714662719e+00	 5.308340140987839e+00
 1.025407565119693e+00	 1.301791755379828e+00	 8.414915679744819e+00
 9.944433942854396e-01	 1.325596011061305e+00	 8.129933846082684e+00
 9.629799344190084e-01	 1.348626002598924e+00	 7.838022359515821e+00
 9.310460942019247e-01	 1.370866740223473e+00	 7.538862364651724e+00
 8.986713398252816e-01	 1.392304662046430e+00	 7.232327258985716e+00
 8.658856078139883e-01	 1.412927656732712e+00	 6.918496130878373e+00
 8.327192170603155e-01	 1.432725079880312e+00	 6.597992275863120e+00
 7.992027805868919e-01	 1.451687764115194e+00	 6.280783378143788e+00
 7.653671175511222e-01	 1.469808022957787e+00	 5.970990189738158e+00
 7.312431659899982e-01	 1.487079648563759e+00	 5.668089549483522e+00
 6.968618967867116e-01	 1.503497903485874e+00	 5.371529716574987e+00
 1.034247285508656e+00	 1.313014098098619e+00	 8.456367836986800e+00
 1.003016182167211e+00	 1.337023562880799e+00	 8.173184014605827e+00
 9.712814855777929e-01	 1.360252088828225e+00	 7.882197515273022e+00
 9.390723536346998e-01	 1.382684556949537e+00	 7.583058034363129e+00
 9.064185065479133e-01	 1.404307288443382e+00	 7.275623705935167e+00
 8.733501389158328e-01	 1.425108067566614e+00	 6.959975655367244e+00
 8.398978310004906e-01	 1.445076158155142e+00	 6.641645129625742e+00
 8.060924597298820e-01	 1.464202313805842e+00	 6.330286240652462e+00
 7.719651099438040e-01	 1.482478781776388e+00	 6.025619552670030e+00
 7.375469863864635e-01	 1.499899300706550e+00	 5.727119032592976e+00
 7.028693269314246e-01	 1.516459092309028e+00	 5.434235638364507e+00
 1.043087005897619e+00	 1.324236440817410e+00	 8.496983181816283e+00
 1.011588970048982e+00	 1.348451114700293e+00	 8.215177334130010e+00
 9.795830367365774e-01	 1.371878175057526e+00	 7.924598850967179e+00
 9.470986130674751e-01	 1.394502373675602e+00	 7.624881902795016e+00
 9.141656732705449e-01	 1.416309914840334e+00	 7.315887460263896e+00
 8.808146700176775e-01	 1.437288478400517e+00	 6.999139065273178e+00
 8.470764449406656e-01	 1.457427236429972e+00	 6.686620770845309e+00
 8.129821388728727e-01	 1.476716863496490e+00	 6.380602235477838e+00
 7.785631023364860e-01	 1.495149540594990e+00	 6.080593137414368e+00
 7.438508067829290e-01	 1.512718952849342e+00	 5.786088200089369e+00
 7.088767570761375e-01	 1.529420281132182e+00	 5.496565287083452e+00
 1.051926726286582e+00	 1.335458783536202e+00	 8.536854955040827e+00
 1.020161757930753e+00	 1.359878666519787e+00	 8.255990557212556e+00
 9.878845878953622e-01	 1.383504261286827e+00	 7.965292969488605e+00
 9.551248725002501e-01	 1.406320190401667e+00	 7.664396218219886e+00
 9.219128399931764e-01	 1.428312541237286e+00	 7.353181654053155e+00
 8.882792011195221e-01	 1.449468889234420e+00	 7.039916831926751e+00
 8.542550588808409e-01	 1.469778314704802e+00	 6.732923598988349e+00
 8.198718180158628e-01	 1.489231413187139e+00	 6.431755364298383e+00
 7.851610947291682e-01	 1.507820299413591e+00	 6.135958453635337e+00
 7.501546271793946e-01	 1.525538604992132e+00	 5.845071395550443e+00
 7.148841872208505e-01	 1.542381469955336e+00	 5.558622577048675e+00
 1.060766446675545e+00	 1.346681126254994e+00	 8.576078434498177e+00
 1.028734545812524e+00	 1.371306218339282e+00	 8.295703200336559e+00
 9.961861390541472e-01	 1.395130347516129e+00	 8.004349734994621e+00
 9.631511319330257e-01	 1.418138007127731e+00	 7.701666768404890e+00
 9.296600067158087e-01	 1.440315167634238e+00	 7.390064044245935e+00
 8.957437322213671e-01	 1.461649300068322e+00	 7.082523333112431e+00
 8.614336728210163e-01	 1.482129392979633e+00	 6.780557482559366e+00
 8.267614971588537e-01	 1.501745962877787e+00	 6.483768563246368e+00
 7.917590871218502e-01	 1.520491058232193e+00	 6.191761280706665e+00
 7.564584475758603e-01	 1.538358257134924e+00	 5.904140456068599e+00
 7.208916173655637e-01	 1.555342658778490e+00	 5.620508047378115e+00
 6.608173159184336e-01	 1.425730770546950e+00	 4.980959038393026e+00
 6.279997002160421e-01	 1.440487463197997e+00	 4.667094432254602e+00
 5.949965897789892e-01	 1.454430064751624e+00	 4.366286432192683e+00
 5.618369754655447e-01	 1.467558165151136e+00	 4.078009887733776e+00
 5.285495728694986e-01	 1.479872664833536e+00	 3.801539521551511e+00
 4.951627525386059e-01	 1.491375741924358e+00	 3.536112280047558e+00
 4.617044735467815e-01	 1.502070815310959e+00	 3.280924603341245e+00
 4.282022206720670e-01	 1.511962503937697e+00	 3.035129772419176e+00
 3.946829453960652e-01	 1.521056582680450e+00	 2.797835377460515e+00
 3.611730109038602e-01	 1.529359935167873e+00	 2.568100948113011e+00
 3.276981412268394e-01	 1.536880503922968e+00	 2.344935783613174e+00
 6.668247460631466e-01	 1.438691959370104e+00	 5.048470920677793e+00
 6.337087883998245e-01	 1.453582803772524e+00	 4.739437350731781e+00
 6.004056496860710e-01	 1.467652156249367e+00	 4.442443609484077e+00
 5.669445843334131e-01	 1.480899603016147e+00	 4.156842684332627e+00
 5.333545689864940e-01	 1.493326052695659e+00	 3.881958795560065e+00
 4.996642321071389e-01	 1.504933703214580e+00	 3.617084073947561e+00
 4.659017869426613e-01	 1.515726004541059e+00	 3.361475243267338e+00
 4.320949681327221e-01	 1.525707617609859e+00	 3.114350360108896e+00
 3.982709721723930e-01	 1.534884369795726e+00	 2.874885659731420e+00
 3.644564019120771e-01	 1.543263207305763e+00	 2.642212553190115e+00
 3.306772152379925e-01	 1.550852144867721e+00	 2.415414817930563e+00
 6.728321762078597e-01	 1.451653148193258e+00	 5.114741662485663e+00
 6.394178765836066e-01	 1.466678144347052e+00	 4.810293263600916e+00
 6.058147095931525e-01	 1.480874247747109e+00	 4.516815735788206e+00
 5.720521932012816e-01	 1.494241040881157e+00	 4.233697741077723e+00
 5.381595651034895e-01	 1.506779440557782e+00	 3.960303763569361e+00
 5.041657116756717e-01	 1.518491664504802e+00	 3.695970357345866e+00
 4.700991003385412e-01	 1.529381193771159e+00	 3.440002381504456e+00
 4.359877155933772e-01	 1.539452731282019e+00	 3.191669278023659e+00
 4.018589989487209e-01	 1.548712156911003e+00	 2.950201444191769e+00
 3.677397929202940e-01	 1.557166479443652e+00	 2.714786747694629e+00
 3.336562892491454e-01	 1.564823785812476e+00	 2.484567229288429e+00
 6.788396063525725e-01	 1.464614337016411e+00	 5.180062598913291e+00
 6.451269647673888e-01	 1.479773484921579e+00	 4.879821272367762e+00
 6.112237695002343e-01	 1.494096339244850e+00	 4.589586386552728e+00
 5.771598020691503e-01	 1.507582478746167e+00	 4.308774953873550e+00
 5.429645612204850e-01	 1.520232828419904e+00	 4.036782765022457e+00
 5.086671912442046e-01	 1.532049625795023e+00	 3.772980338403414e+00
 4.742964137344209e-01	 1.543036383001258e+00	 3.516708845844623e+00
 4.398804630540324e-01	 1.553197844954180e+00	 3.267276071948062e+00
 4.054470257250487e-01	 1.562539944026279e+00	 3.023952460198401e+00
 3.710231839285109e-01	 1.571069751581542e+00	 2.785967295172501e+00
 3.366353632602986e-01	 1.578795426757230e+00	 2.552505066942344e+00
 6.848470364972853e-01	 1.477575525839566e+00	 5.244555969391413e+00
 6.508360529511710e-01	 1.492868825496106e+00	 4.948175445193819e+00
 6.166328294073158e-01	 1.507318430742592e+00	 4.660933346700327e+00
 5.822674109370189e-01	 1.520923916611177e+00	 4.382267951826137e+00
 5.477695573374803e-01	 1.533686216282028e+00	 4.111597666377411e+00
 5.131686708127371e-01	 1.545607587085244e+00	 3.848316804422821e+00
 4.784937271303007e-01	 1.556691572231357e+00	 3.591791341016268e+00
 4.437732105146876e-01	 1.566942958626341e+00	 3.341354694629664e+00
 4.090350525013766e-01	 1.576367731141557e+00	 3.096303592191849e+00
 3.743065749367279e-01	 1.584973023719432e+00	 2.855894065715875e+00
 3.396144372714516e-01	 1.592767067701985e+00	 2.619337626220735e+00
 6.908544666419983e-01	 1.490536714662719e+00	 5.308340140987841e+00
 6.565451411349532e-01	 1.505964166070633e+00	 5.015504978331531e+00
 6.220418893143977e-01	 1.520540522240335e+00	 4.731028807912692e+00
 5.873750198048873e-01	 1.534265354476187e+00	 4.454364318312647e+00
 5.525745534544757e-01	 1.547139604144151e+00	 4.184944094360278e+00
 5.176701503812700e-01	 1.559165548375466e+00	 3.922176356182460e+00
 4.826910405261807e-01	 1.570346761461457e+00	 3.665440673527843e+00
 4.476659579753428e-01	 1.580688072298502e+00	 3.414083711123154e+00
 4.126230792777045e-01	 1.590195518256833e+00	 3.167415056118196e+00
 3.775899659449447e-01	 1.598876295857322e+00	 2.924703174648398e+00
 3.425935112826048e-01	 1.606738708646739e+00	 2.685171541289462e+00
 6.968618967867116e-01	 1.503497903485874e+00	 5.371529716574987e+00
 6.622542293187351e-01	 1.519059506645161e+00	 5.081954350028019e+00
 6.274509492214794e-01	 1.533762613738076e+00	 4.800039556433067e+00
 5.924826286727558e-01	 1.547606792341198e+00	 4.525245801245605e+00
 5.573795495714714e-01	 1.560592992006274e+00	 4.257011657695757e+00
 5.221716299498026e-01	 1.572723509665687e+00	 3.994749630611866e+00
 4.868883539220605e-01	 1.584001950691557e+00	 3.737841965271069e+00
 4.515587054359978e-01	 1.594433185970662e+00	 3.485636493836179e+00
 4.162111060540324e-01	 1.604023305372110e+00	 3.237442566988389e+00
 3.808733569531617e-01	 1.612779567995211e+00	 2.992527114248058e+00
 3.455725852937579e-01	 1.620710349591493e+00	 2.750110873283514e+00
 7.028693269314246e-01	 1.516459092309028e+00	 5.434235638364509e+00
 6.679633175025173e-01	 1.532154847219687e+00	 5.147663467349131e+00
 6.328600091285610e-01	 1.546984705235819e+00	 4.868127151951872e+00
 5.975902375406245e-01	 1.560948230206208e+00	 4.595088513177760e+00
 5.621845456884668e-01	 1.574046379868397e+00	 4.327984158005313e+00
 5.266731095183355e-01	 1.586281470955908e+00	 4.066221512507064e+00
 4.910856673179403e-01	 1.597657139921656e+00	 3.809174856556602e+00
 4.554514528966531e-01	 1.608178299642824e+00	 3.556181407892847e+00
 4.197991328303602e-01	 1.617851092487387e+00	 3.306537498106587e+00
 3.841567479613786e-01	 1.626682840133101e+00	 3.059494878924705e+00
 3.485516593049110e-01	 1.634681990536247e+00	 2.814257194083944e+00
 7.088767570761375e-01	 1.529420281132182e+00	 5.496565287083449e+00
 6.736724056862996e-01	 1.545250187794215e+00	 5.212767806342562e+00
 6.382690690356427e-01	 1.560206796733560e+00	 4.935448098106450e+00
 6.026978464084930e-01	 1.574289668071218e+00	 4.664063121850604e+00
 5.669895418054623e-01	 1.587499767730520e+00	 4.398039790515020e+00
 5.311745890868682e-01	 1.599839432246130e+00	 4.136771335935343e+00
 4.952829807138202e-01	 1.611312329151756e+00	 3.879613699207961e+00
 4.593442003573082e-01	 1.621923413314984e+00	 3.625881987389786e+00
 4.233871596066879e-01	 1.631678879602664e+00	 3.374847032461068e+00
 3.874401389695955e-01	 1.640586112270991e+00	 3.125732084239886e+00
 3.515307333160640e-01	 1.648653631481002e+00	 2.877709665996794e+00
 7.148841872208505e-01	 1.542381469955336e+00	 5.558622577048675e+00
 6.793814938700818e-01	 1.558345528368742e+00	 5.277398545933080e+00
 6.436781289427244e-01	 1.573428888231302e+00	 5.002154005087295e+00
 6.078054552763618e-01	 1.587631105936229e+00	 4.732335031748827e+00
 5.717945379224576e-01	 1.600953155592643e+00	 4.467351335172555e+00
 5.356760686554010e-01	 1.613397393536351e+00	 4.206573075935861e+00
 4.994802941096999e-01	 1.624967518381855e+00	 3.949327740299592e+00
 4.632369478179631e-01	 1.635668526987144e+00	 3.694897103079573e+00
 4.269751863830159e-01	 1.645506666717941e+00	 3.442514306738995e+00
 3.907235299778124e-01	 1.654489384408881e+00	 3.191361080131546e+00
 3.545098073272172e-01	 1.662625272425756e+00	 2.940565117576832e+00
 7.208916173655637e-01	 1.555342658778490e+00	 5.620508047378115e+00
 6.850905820538642e-01	 1.571440868943270e+00	 5.341682695914564e+00
 6.490871888498062e-01	 1.586650979729045e+00	 5.068391744810858e+00
 6.129130641442304e-01	 1.600972543801240e+00	 4.800064557184685e+00
 5.765995340394531e-01	 1.614406543454766e+00	 4.536086338732966e+00
 5.401775482239338e-01	 1.626955354826574e+00	 4.275795531083109e+00
 5.036776075055799e-01	 1.638622707611955e+00	 4.018481297084241e+00
 4.671296952786185e-01	 1.649413640659306e+00	 3.763381121982915e+00
 4.305632131593439e-01	 1.659334453833218e+00	 3.509678548395065e+00
 3.940069209860292e-01	 1.668392656546771e+00	 3.256501058681760e+00
 3.574888813383703e-01	 1.676596913370510e+00	 3.002918115819484e+00
 3.276981412268394e-01	 1.536880503922968e+00	 2.344935783613174e+00
 2.942833746347460e-01	 1.543627238200864e+00	 2.128865831522091e+00
 2.609530213480562e-01	 1.549610039897574e+00	 1.923837688617690e+00
 2.277306256078256e-01	 1.554839707899921e+00	 1.733838527235922e+00
 1.946389321076896e-01	 1.559327881239228e+00	 1.562670674135780e+00
 1.616998567620849e-01	 1.563086981400959e+00	 1.413913921325089e+00
 1.289344617561649e-01	 1.566130154129499e+00	 1.290891532532061e+00
 9.636293479650726e-02	 1.568471211052165e+00	 1.196640064914519e+00
 6.400457245767889e-02	 1.570124571429461e+00	 1.133883081522874e+00
 3.187776749815371e-02	 1.571105204319996e+00	 1.105008787952189e+00
 0.000000000000000e+00	 1.571428571428571e+00	 1.112051586840392e+00
 3.306772152379925e-01	 1.550852144867721e+00	 2.415414817930562e+00
 2.969586780405165e-01	 1.557660213093599e+00	 2.195343528775058e+00
 2.633253215421294e-01	 1.563697403896643e+00	 1.986269724834554e+00
 2.298009040224422e-01	 1.568974614335374e+00	 1.792260188108372e+00
 1.964083769450323e-01	 1.573503589250493e+00	 1.617201803963522e+00
 1.631698554599220e-01	 1.577296863050058e+00	 1.464762425244951e+00
 1.301065932266755e-01	 1.580367700985222e+00	 1.338355474247565e+00
 9.723896147647550e-02	 1.582730040243548e+00	 1.241108411892954e+00
 6.458643220729415e-02	 1.584398431169730e+00	 1.175835158515922e+00
 3.216756538450056e-02	 1.585387978904722e+00	 1.145012507685007e+00
 0.000000000000000e+00	 1.585714285714286e+00	 1.150760533772590e+00
 3.336562892491454e-01	 1.564823785812476e+00	 2.484567229288433e+00
 2.996339814462869e-01	 1.571693187986334e+00	 2.260717097052751e+00
 2.656976217362026e-01	 1.577784767895711e+00	 2.047811129481473e+00
 2.318711824370587e-01	 1.583109520770827e+00	 1.849952889825192e+00
 1.981778217823749e-01	 1.587679297261759e+00	 1.671073740683328e+00
 1.646398541577591e-01	 1.591506744699158e+00	 1.514892416613766e+00
 1.312787246971861e-01	 1.594605247840945e+00	 1.384878346724221e+00
 9.811498815644375e-02	 1.596988869434931e+00	 1.284218866982691e+00
 6.516829195690942e-02	 1.598672290909997e+00	 1.215790416456587e+00
 3.245736327084742e-02	 1.599670753489450e+00	 1.182133768054092e+00
 0.000000000000000e+00	 1.600000000000000e+00	 1.185433302911829e+00
 3.366353632602986e-01	 1.578795426757230e+00	 2.552505066942344e+00
 3.023092848520573e-01	 1.585726162879069e+00	 2.325066360698840e+00
 2.680699219302758e-01	 1.591872131894781e+00	 2.108514692160759e+00
 2.339414608516754e-01	 1.597244427206281e+00	 1.906948651278003e+00
 1.999472666197175e-01	 1.601855005273025e+00	 1.724305025515619e+00
 1.661098528555962e-01	 1.605716626348258e+00	 1.564317234037083e+00
 1.324508561676967e-01	 1.608842794696667e+00	 1.430477494238611e+00
 9.899101483641200e-02	 1.611247698626315e+00	 1.326002871397726e+00
 6.575015170652469e-02	 1.612946150650265e+00	 1.253805316353726e+00
 3.274716115719427e-02	 1.613953528074177e+00	 1.216465752086076e+00
 0.000000000000000e+00	 1.614285714285714e+00	 1.216212228119979e+00
 3.396144372714516e-01	 1.592767067701985e+00	 2.619337626220733e+00
 3.049845882578276e-01	 1.599759137771804e+00	 2.388469532780844e+00
 2.704422221243490e-01	 1.605959495893849e+00	 2.168432535868424e+00
 2.360117392662919e-01	 1.611379333641735e+00	 1.963279532782322e+00
 2.017167114570602e-01	 1.616030713284290e+00	 1.776914675531628e+00
 1.675798515534334e-01	 1.619926507997358e+00	 1.613050817618797e+00
 1.336229876382073e-01	 1.623080341552390e+00	 1.475170646126493e+00
 9.986704151638025e-02	 1.625506527817698e+00	 1.366491661513661e+00
 6.633201145613994e-02	 1.627220010390533e+00	 1.289935121636312e+00
 3.303695904354111e-02	 1.628236302658904e+00	 1.248099022282791e+00
 0.000000000000000e+00	 1.628571428571428e+00	 1.243235144274941e+00
 3.425935112826048e-01	 1.606738708646739e+00	 2.685171541289462e+00
 3.076598916635981e-01	 1.613792112664539e+00	 2.451003261752290e+00
 2.728145223184223e-01	 1.620046859892918e+00	 2.227616126075013e+00
 2.380820176809085e-01	 1.625514240077189e+00	 2.018977617738618e+00
 2.034861562944028e-01	 1.630206421295556e+00	 1.828922149619537e+00
 1.690498502512705e-01	 1.634136389646457e+00	 1.661107672445961e+00
 1.347951191087179e-01	 1.637317888408113e+00	 1.518975892407236e+00
 1.007430681963485e-01	 1.639765357009081e+00	 1.405716272576294e+00
 6.691387120575519e-02	 1.641493870130801e+00	 1.324233947131772e+00
 3.332675692988796e-02	 1.642519077243632e+00	 1.277121633208850e+00
 0.000000000000000e+00	 1.642857142857143e+00	 1.266635582878876e+00
 3.455725852937579e-01	 1.620710349591493e+00	 2.750110873283512e+00
 3.103351950693684e-01	 1.627825087557274e+00	 2.512742675827495e+00
 2.751868225124956e-01	 1.634134223891988e+00	 2.286116279431263e+00
 2.401522960955250e-01	 1.639649146512643e+00	 2.074074995308680e+00
 2.052556011317454e-01	 1.644382129306822e+00	 1.880347316257354e+00
 1.705198489491076e-01	 1.648346271295556e+00	 1.708502833992191e+00
 1.359672505792285e-01	 1.651555435263836e+00	 1.561911660686007e+00
 1.016190948763167e-01	 1.654024186200465e+00	 1.443707542226917e+00
 6.749573095537045e-02	 1.655767729871069e+00	 1.356754805513529e+00
 3.361655481623482e-02	 1.656801851828358e+00	 1.303619238257202e+00
 0.000000000000000e+00	 1.657142857142857e+00	 1.286542957548331e+00
 3.485516593049110e-01	 1.634681990536247e+00	 2.814257194083944e+00
 3.130104984751388e-01	 1.641858062450009e+00	 2.573761425206817e+00
 2.775591227065688e-01	 1.648221587891056e+00	 2.343983172119539e+00
 2.422225745101416e-01	 1.653784052948096e+00	 2.128603744046785e+00
 2.070250459690880e-01	 1.658557837318087e+00	 1.931210422983012e+00
 1.719898476469448e-01	 1.662556152944656e+00	 1.755251835323850e+00
 1.371393820497390e-01	 1.665792982119558e+00	 1.603996694257297e+00
 1.024951215562850e-01	 1.668283015391848e+00	 1.480496113855049e+00
 6.807759070498574e-02	 1.670041589611337e+00	 1.387549651370414e+00
 3.390635270258167e-02	 1.671084626413085e+00	 1.327675190939122e+00
 0.000000000000000e+00	 1.671428571428571e+00	 1.303082739992406e+00
 3.515307333160640e-01	 1.648653631481002e+00	 2.877709665996792e+00
 3.156858018809093e-01	 1.655891037342745e+00	 2.634131722278388e+00
 2.799314229006420e-01	 1.662308951890124e+00	 2.401266347872995e+00
 2.442928529247582e-01	 1.667918959383550e+00	 2.182595916429227e+00
 2.087944908064307e-01	 1.672733545329353e+00	 1.981532067461889e+00
 1.734598463447819e-01	 1.676766034593756e+00	 1.801370676002332e+00
 1.383115135202496e-01	 1.680030528975281e+00	 1.645250031338759e+00
 1.033711482362532e-01	 1.682541844583231e+00	 1.516112439789717e+00
 6.865945045460098e-02	 1.684315449351604e+00	 1.416669423038661e+00
 3.419615058892853e-02	 1.685367400997813e+00	 1.349370641025739e+00
 0.000000000000000e+00	 1.685714285714285e+00	 1.316376627042612e+00
 3.545098073272172e-01	 1.662625272425756e+00	 2.940565117576832e+00
 3.183611052866797e-01	 1.669924012235480e+00	 2.693924379917102e+00
 2.823037230947152e-01	 1.676396315889193e+00	 2.458014725682577e+00
 2.463631313393748e-01	 1.682053865819005e+00	 2.236083524229208e+00
 2.105639356437733e-01	 1.686909253340619e+00	 2.031333170057648e+00
 1.749298450426190e-01	 1.690975916242855e+00	 1.846875792582397e+00
 1.394836449907602e-01	 1.694268075831003e+00	 1.685690985368006e+00
 1.042471749162215e-01	 1.696800673774614e+00	 1.550586784337778e+00
 6.924131020421623e-02	 1.698589309091872e+00	 1.444164082327599e+00
 3.448594847527537e-02	 1.699650175582540e+00	 1.368784625842296e+00
 0.000000000000000e+00	 1.699999999999999e+00	 1.326542699261370e+00
 3.574888813383703e-01	 1.676596913370510e+00	 3.002918115819484e+00
 3.210364086924502e-01	 1.683956987128215e+00	 2.753208847990052e+00
 2.846760232887887e-01	 1.690483679888263e+00	 2.514276607208420e+00
 2.484334097539916e-01	 1.696188772254459e+00	 2.289098524687565e+00
 2.123333804811160e-01	 1.701084961351885e+00	 2.080634947818530e+00
 1.763998437404562e-01	 1.705185797891955e+00	 1.891784030614226e+00
 1.406557764612708e-01	 1.708505622686726e+00	 1.725339126301636e+00
 1.051232015961897e-01	 1.711059502965998e+00	 1.583949226678710e+00
 6.982316995383152e-02	 1.712863168832140e+00	 1.470082652263023e+00
 3.477574636162224e-02	 1.713932950167268e+00	 1.385994156998283e+00
 0.000000000000000e+00	 1.714285714285714e+00	 1.333695571619502e+00
 1.714285714285714e+00	 0.000000000000000e+00	 1.186698417113888e+01
 1.713932950167268e+00	 3.477574636162127e-02	 1.191498600489212e+01
 1.712863168832140e+00	 6.982316995383066e-02	 1.195021842870650e+01
 1.711059502965998e+00	 1.051232015961890e-01	 1.197535242889210e+01
 1.708505622686727e+00	 1.406557764612702e-01	 1.199288922184946e+01
 1.705185797891956e+00	 1.763998437404557e-01	 1.200513869697746e+01
 1.701084961351885e+00	 2.123333804811157e-01	 1.201419791087500e+01
 1.696188772254459e+00	 2.484334097539913e-01	 1.202192979371726e+01
 1.690483679888263e+00	 2.846760232887885e-01	 1.202994223917808e+01
 1.683956987128216e+00	 3.210364086924503e-01	 1.203956775896158e+01
 1.676596913370510e+00	 3.574888813383701e-01	 1.205184389174027e+01
 1.728571428571429e+00	 0.000000000000000e+00	 1.182229204354314e+01
 1.728215724751995e+00	 3.506554424796810e-02	 1.187290828565385e+01
 1.727137028572408e+00	 7.040502970344592e-02	 1.191054589230175e+01
 1.725318332157382e+00	 1.059992282761573e-01	 1.193789429192981e+01
 1.722743169542449e+00	 1.418279079317808e-01	 1.195746185539608e+01
 1.719395679541055e+00	 1.778698424382929e-01	 1.197155372621222e+01
 1.715260669363150e+00	 2.141028253184583e-01	 1.198224974756096e+01
 1.710323678689913e+00	 2.505036881686079e-01	 1.199138265439134e+01
 1.704571043887331e+00	 2.870483234828617e-01	 1.200051670937559e+01
 1.697989962020950e+00	 3.237117120982207e-01	 1.201092697111277e+01
 1.690568554315264e+00	 3.604679553495232e-01	 1.202357939151738e+01
 1.742857142857143e+00	 0.000000000000000e+00	 1.178083598051193e+01
 1.742498499336722e+00	 3.535534213431496e-02	 1.183364952427222e+01
 1.741410888312676e+00	 7.098688945306120e-02	 1.187340533558093e+01
 1.739577161348765e+00	 1.068752549561255e-01	 1.190279267858516e+01
 1.736980716398172e+00	 1.430000394022914e-01	 1.192430726044835e+01
 1.733605561190154e+00	 1.793398411361300e-01	 1.194022853498046e+01
 1.729436377374416e+00	 2.158722701558009e-01	 1.195259716228479e+01
 1.724458585125366e+00	 2.525739665832245e-01	 1.196319280018209e+01
 1.718658407886400e+00	 2.894206236769349e-01	 1.197351241350327e+01
 1.712022936913685e+00	 3.263870155039911e-01	 1.198474929669170e+01
 1.704540195260018e+00	 3.634470293606763e-01	 1.199777301335994e+01
 1.757142857142857e+00	 0.000000000000000e+00	 1.174252032400434e+01
 1.756781273921449e+00	 3.564514002066180e-02	 1.179711614227377e+01
 1.755684748052944e+00	 7.156874920267643e-02	 1.183870266478826e+01
 1.753835990540148e+00	 1.077512816360937e-01	 1.186995087264680e+01
 1.751218263253894e+00	 1.441721708728019e-01	 1.189332449769967e+01
 1.747815442839254e+00	 1.808098398339671e-01	 1.191105688440279e+01
 1.743612085385682e+00	 2.176417149931436e-01	 1.192512808051769e+01
 1.738593491560819e+00	 2.546442449978411e-01	 1.193724233992378e+01
 1.732745771885470e+00	 2.917929238710082e-01	 1.194880623083842e+01
 1.726055911806421e+00	 3.290623189097615e-01	 1.196090755167926e+01
 1.718511836204773e+00	 3.664261033718293e-01	 1.197429526448906e+01
 1.771428571428571e+00	 0.000000000000000e+00	 1.170725374093499e+01
 1.771064048506176e+00	 3.593493790700865e-02	 1.176321882483760e+01
 1.769958607793211e+00	 7.215060895229167e-02	 1.180634806821533e+01
 1.768094819731531e+00	 1.086273083160620e-01	 1.183927652257921e+01
 1.765455810109618e+00	 1.453443023433125e-01	 1.186441712331755e+01
 1.762025324488354e+00	 1.822798385318042e-01	 1.188393719341628e+01
 1.757787793396948e+00	 2.194111598304861e-01	 1.189973526228935e+01
 1.752728397996273e+00	 2.567145234124576e-01	 1.191341839053733e+01
 1.746833135884538e+00	 2.941652240650814e-01	 1.192628020103142e+01
 1.740088886699156e+00	 3.317376223155319e-01	 1.193927982509194e+01
 1.732483477149527e+00	 3.694051773829823e-01	 1.195302197953055e+01
 1.785714285714285e+00	 0.000000000000000e+00	 1.167494905017584e+01
 1.785346823090904e+00	 3.622473579335549e-02	 1.173187234708226e+01
 1.784232467533479e+00	 7.273246870190694e-02	 1.177625583864056e+01
 1.782353648922915e+00	 1.095033349960302e-01	 1.181068145761018e+01
 1.779693356965340e+00	 1.465164338138231e-01	 1.183749299682547e+01
 1.776235206137453e+00	 1.837498372296414e-01	 1.185877233726889e+01
 1.771963501408213e+00	 2.211806046678288e-01	 1.187631609080444e+01
 1.766863304431727e+00	 2.587848018270742e-01	 1.189161285598610e+01
 1.760920499883607e+00	 2.965375242591547e-01	 1.190582129434069e+01
 1.754121861591891e+00	 3.344129257213024e-01	 1.191974924217176e+01
 1.746455118094281e+00	 3.723842513941356e-01	 1.193383407908103e+01
 1.800000000000000e+00	 0.000000000000000e+00	 1.164552305779590e+01
 1.799629597675631e+00	 3.651453367970232e-02	 1.170299540862681e+01
 1.798506327273747e+00	 7.331432845152218e-02	 1.174834420423165e+01
 1.796612478114298e+00	 1.103793616759985e-01	 1.178408151259361e+01
 1.793930903821063e+00	 1.476885652843337e-01	 1.181246409816476e+01
 1.790445087786553e+00	 1.852198359274785e-01	 1.183546945565885e+01
 1.786139209419479e+00	 2.229500495051713e-01	 1.185477237119544e+01
 1.780998210867181e+00	 2.608550802416908e-01	 1.187172221685264e+01
 1.775007863882676e+00	 2.989098244532278e-01	 1.188732119293220e+01
 1.768154836484626e+00	 3.370882291270728e-01	 1.190220373900731e+01
 1.760426759039036e+00	 3.753633254052886e-01	 1.191661733995888e+01
 1.814285714285714e+00	 0.000000000000000e+00	 1.161889640008505e+01
 1.813912372260358e+00	 3.680433156604918e-02	 1.167651047596958e+01
 1.812780187014015e+00	 7.389618820113744e-02	 1.172253516744481e+01
 1.810871307305681e+00	 1.112553883559667e-01	 1.175939636116430e+01
 1.808168450676785e+00	 1.488606967548443e-01	 1.178924635343060e+01
 1.804654969435653e+00	 1.866898346253157e-01	 1.181393976998699e+01
 1.800314917430745e+00	 2.247194943425140e-01	 1.183501013885312e+01
 1.795133117302635e+00	 2.629253586563075e-01	 1.185364732995114e+01
 1.789095227881745e+00	 3.012821246473012e-01	 1.187067608263332e+01
 1.782187811377361e+00	 3.397635325328432e-01	 1.188653584795536e+01
 1.774398399983790e+00	 3.783423994164416e-01	 1.190126217649581e+01
 1.828571428571428e+00	 0.000000000000000e+00	 1.159499339393598e+01
 1.828195146845086e+00	 3.709412945239601e-02	 1.165234363225764e+01
 1.827054046754282e+00	 7.447804795075269e-02	 1.169875435148336e+01
 1.825130136497064e+00	 1.121314150359349e-01	 1.173654935673108e+01
 1.822405997532508e+00	 1.500328282253548e-01	 1.176775946880765e+01
 1.818864851084752e+00	 1.881598333231528e-01	 1.179409840922359e+01
 1.814490625442010e+00	 2.264889391798566e-01	 1.181693947681080e+01
 1.809268023738089e+00	 2.649956370709240e-01	 1.183729323742681e+01
 1.803182591880814e+00	 3.036544248413743e-01	 1.185578645456966e+01
 1.796220786270096e+00	 3.424388359386136e-01	 1.187264249327285e+01
 1.788370040928544e+00	 3.813214734275946e-01	 1.188766343226535e+01
 1.842857142857143e+00	 0.000000000000000e+00	 1.157374189418520e+01
 1.842477921429813e+00	 3.738392733874286e-02	 1.163042443404551e+01
 1.841327906494550e+00	 7.505990770036795e-02	 1.167693085390546e+01
 1.839388965688448e+00	 1.130074417159032e-01	 1.171546738088286e+01
 1.836643544388231e+00	 1.512049596958655e-01	 1.174792677226051e+01
 1.833074732733852e+00	 1.896298320209898e-01	 1.177586424392283e+01
 1.828666333453276e+00	 2.282583840171993e-01	 1.180047434169119e+01
 1.823402930173542e+00	 2.670659154855406e-01	 1.182256898482725e+01
 1.817269955879882e+00	 3.060267250354475e-01	 1.184255691614832e+01
 1.810253761162831e+00	 3.451141393443841e-01	 1.186042479640478e+01
 1.802341681873298e+00	 3.843005474387477e-01	 1.187572018168187e+01
 1.857142857142857e+00	 0.000000000000000e+00	 1.155507315753826e+01
 1.856760696014540e+00	 3.767372522508970e-02	 1.161068577466689e+01
 1.855601766234818e+00	 7.564176744998323e-02	 1.165699710699617e+01
 1.853647794879831e+00	 1.138834683958714e-01	 1.169608069880873e+01
 1.850881091243954e+00	 1.523770911663761e-01	 1.172967506256127e+01
 1.847284614382952e+00	 1.910998307188271e-01	 1.175915972794540e+01
 1.842842041464542e+00	 2.300278288545419e-01	 1.178553239775475e+01
 1.837537836608996e+00	 2.691361939001572e-01	 1.180938744766286e+01
 1.831357319878951e+00	 3.083990252295208e-01	 1.183089601088452e+01
 1.824286736055566e+00	 3.477894427501544e-01	 1.184978789040843e+01
 1.816313322818053e+00	 3.872796214499010e-01	 1.186533554093874e+01
 1.676596913370510e+00	 3.574888813383701e-01	 1.205184389174027e+01
 1.668392656546771e+00	 3.940069209860282e-01	 1.206192943801630e+01
 1.659334453833218e+00	 4.305632131593429e-01	 1.206498461399285e+01
 1.649413640659306e+00	 4.671296952786177e-01	 1.206173430464804e+01
 1.638622707611956e+00	 5.036776075055792e-01	 1.205278915446812e+01
 1.626955354826573e+00	 5.401775482239333e-01	 1.203864018740689e+01
 1.614406543454767e+00	 5.765995340394527e-01	 1.201965388167962e+01
 1.600972543801240e+00	 6.129130641442300e-01	 1.199606777316265e+01
 1.586650979729045e+00	 6.490871888498062e-01	 1.196798666724431e+01
 1.571440868943270e+00	 6.850905820538644e-01	 1.193537954492804e+01
 1.555342658778490e+00	 7.208916173655637e-01	 1.189807725457822e+01
 1.690568554315264e+00	 3.604679553495232e-01	 1.202357939151738e+01
 1.682295928684661e+00	 3.972903119942450e-01	 1.203401110467760e+01
 1.673162240948495e+00	 4.341512399356706e-01	 1.203778661717914e+01
 1.663158754331468e+00	 4.710224427392730e-01	 1.203558502036885e+01
 1.652277896842055e+00	 5.078749209014590e-01	 1.202796807554245e+01
 1.640513316116795e+00	 5.446790277924662e-01	 1.201537497351061e+01
 1.627859931316890e+00	 5.814045301564480e-01	 1.199811755962460e+01
 1.614313981666250e+00	 6.180206730120988e-01	 1.197637609726050e+01
 1.599873071226787e+00	 6.544962487568878e-01	 1.195019564899181e+01
 1.584536209517797e+00	 6.907996702376465e-01	 1.191948316085345e+01
 1.568303847601644e+00	 7.268990475102770e-01	 1.188400534096587e+01
 1.704540195260018e+00	 3.634470293606763e-01	 1.199777301335994e+01
 1.696199200822550e+00	 4.005737030024619e-01	 1.200849983896913e+01
 1.686990028063771e+00	 4.377392667119985e-01	 1.201291688591366e+01
 1.676903868003628e+00	 4.749151901999280e-01	 1.201165897235317e+01
 1.665933086072156e+00	 5.120722342973388e-01	 1.200524093826101e+01
 1.654071277407016e+00	 5.491805073609990e-01	 1.199405254333714e+01
 1.641313319179012e+00	 5.862095262734434e-01	 1.197835383702438e+01
 1.627655419531260e+00	 6.231282818799673e-01	 1.195827107266948e+01
 1.613095162724529e+00	 6.599053086639695e-01	 1.193379324429945e+01
 1.597631550092324e+00	 6.965087584214290e-01	 1.190476933092247e+01
 1.581265036424798e+00	 7.329064776549900e-01	 1.187090633945856e+01
 1.718511836204773e+00	 3.664261033718293e-01	 1.197429526448906e+01
 1.710102472960440e+00	 4.038570940106789e-01	 1.198526570771410e+01
 1.700817815179048e+00	 4.413272934883264e-01	 1.199024660539058e+01
 1.690648981675789e+00	 4.788079376605831e-01	 1.198982997702018e+01
 1.679588275302255e+00	 5.162695476932188e-01	 1.198448565106817e+01
 1.667629238697238e+00	 5.536819869295316e-01	 1.197455629998618e+01
 1.654766707041136e+00	 5.910145223904388e-01	 1.196025295003327e+01
 1.640996857396271e+00	 6.282358907478361e-01	 1.194165103679236e+01
 1.626317254222270e+00	 6.653143685710513e-01	 1.191868708394683e+01
 1.610726890666851e+00	 7.022178466052109e-01	 1.189115608963411e+01
 1.594226225247952e+00	 7.389139077997031e-01	 1.185870971127448e+01
 1.732483477149527e+00	 3.694051773829823e-01	 1.195302197953055e+01
 1.724005745098330e+00	 4.071404850188958e-01	 1.196418409785911e+01
 1.714645602294325e+00	 4.449153202646543e-01	 1.196965222230729e+01
 1.704394095347949e+00	 4.827006851212383e-01	 1.196997700415207e+01
 1.693243464532354e+00	 5.204668610890986e-01	 1.196558512014412e+01
 1.681187199987459e+00	 5.581834664980645e-01	 1.195677444342921e+01
 1.668220094903258e+00	 5.958195185074344e-01	 1.194370968804568e+01
 1.654338295261281e+00	 6.333434996157044e-01	 1.192641859656130e+01
 1.639539345720013e+00	 6.707234284781328e-01	 1.190478874736072e+01
 1.623822231241378e+00	 7.079269347889933e-01	 1.187856506520563e+01
 1.607187414071107e+00	 7.449213379444160e-01	 1.184734812571166e+01
 1.746455118094281e+00	 3.723842513941356e-01	 1.193383407908103e+01
 1.737909017236220e+00	 4.104238760271128e-01	 1.194513547296904e+01
 1.728473389409602e+00	 4.485033470409822e-01	 1.195101520142415e+01
 1.718139209020110e+00	 4.865934325818933e-01	 1.195198393557675e+01
 1.706898653762454e+00	 5.246641744849783e-01	 1.194842701218131e+01
 1.694745161277681e+00	 5.626849460665971e-01	 1.194059973925390e+01
 1.681673482765381e+00	 6.006245146244299e-01	 1.192862317017682e+01
 1.667679733126291e+00	 6.384511084835731e-01	 1.191248041430898e+01
 1.652761437217755e+00	 6.761324883852148e-01	 1.189201355940790e+01
 1.636917571815907e+00	 7.136360229727752e-01	 1.186692128868697e+01
 1.620148602894261e+00	 7.509287680891290e-01	 1.183675728284563e+01
 1.760426759039036e+00	 3.753633254052886e-01	 1.191661733995888e+01
 1.751812289374109e+00	 4.137072670353297e-01	 1.192800514154128e+01
 1.742301176524879e+00	 4.520913738173099e-01	 1.193422179397827e+01
 1.731884322692272e+00	 4.904861800425485e-01	 1.193573933564296e+01
 1.720553842992553e+00	 5.288614878808581e-01	 1.193290352879889e+01
 1.708303122567902e+00	 5.671864256351300e-01	 1.192592929880342e+01
 1.695126870627504e+00	 6.054295107414253e-01	 1.191489663281140e+01
 1.681021170991301e+00	 6.435587173514415e-01	 1.189974700430133e+01
 1.665983528715497e+00	 6.815415482922965e-01	 1.188028039736924e+01
 1.650012912390433e+00	 7.193451111565574e-01	 1.185615301270820e+01
 1.633109791717414e+00	 7.569361982338418e-01	 1.182687574525011e+01
 1.774398399983790e+00	 3.783423994164416e-01	 1.190126217649581e+01
 1.765715561511999e+00	 4.169906580435464e-01	 1.191268303648791e+01
 1.756128963640156e+00	 4.556794005936378e-01	 1.191916281729837e+01
 1.745629436364432e+00	 4.943789275032036e-01	 1.192113623283801e+01
 1.734209032222652e+00	 5.330588012767379e-01	 1.191891119195395e+01
 1.721861083858123e+00	 5.716879052036626e-01	 1.191266437008277e+01
 1.708580258489627e+00	 6.102345068584206e-01	 1.190243722761000e+01
 1.694362608856312e+00	 6.486663262193102e-01	 1.188813253934407e+01
 1.679205620213238e+00	 6.869506081993780e-01	 1.186951150753382e+01
 1.663108252964960e+00	 7.250541993403397e-01	 1.184619153932916e+01
 1.646070980540568e+00	 7.629436283785549e-01	 1.181764477824317e+01
 1.788370040928544e+00	 3.813214734275946e-01	 1.188766343226535e+01
 1.779618833649888e+00	 4.202740490517633e-01	 1.189906350517496e+01
 1.769956750755433e+00	 4.592674273699658e-01	 1.190573344500760e+01
 1.759374550036592e+00	 4.982716749638587e-01	 1.190807191193885e+01
 1.747864221452752e+00	 5.372561146726177e-01	 1.190635063974784e+01
 1.735419045148345e+00	 5.761893847721955e-01	 1.190071013884326e+01
 1.722033646351751e+00	 6.150395029754161e-01	 1.189115582940126e+01
 1.707704046721322e+00	 6.537739350871786e-01	 1.187755466691214e+01
 1.692427711710980e+00	 6.923596681064600e-01	 1.185963233088723e+01
 1.676203593539487e+00	 7.307632875241218e-01	 1.183697105649363e+01
 1.659032169363722e+00	 7.689510585232679e-01	 1.180900819819295e+01
 1.802341681873298e+00	 3.843005474387477e-01	 1.187572018168187e+01
 1.793522105787778e+00	 4.235574400599802e-01	 1.188704510944604e+01
 1.783784537870709e+00	 4.628554541462934e-01	 1.189383300724037e+01
 1.773119663708754e+00	 5.021644224245138e-01	 1.189644771612458e+01
 1.761519410682852e+00	 5.414534280684974e-01	 1.189512643206389e+01
 1.748977006438566e+00	 5.806908643407283e-01	 1.188997553929274e+01
 1.735487034213874e+00	 6.198444990924115e-01	 1.188096685342363e+01
 1.721045484586332e+00	 6.588815439550472e-01	 1.186793433428523e+01
 1.705649803208722e+00	 6.977687280135416e-01	 1.185057133740038e+01
 1.689298934114015e+00	 7.364723757079041e-01	 1.182842848262062e+01
 1.671993358186877e+00	 7.749584886679810e-01	 1.180091222844535e+01
 1.816313322818053e+00	 3.872796214499010e-01	 1.186533554093874e+01
 1.807425377925668e+00	 4.268408310681971e-01	 1.187653043509259e+01
 1.797612324985986e+00	 4.664434809226215e-01	 1.188336480033356e+01
 1.786864777380915e+00	 5.060571698851692e-01	 1.188616885851436e+01
 1.775174599912952e+00	 5.456507414643776e-01	 1.188514686550675e+01
 1.762534967728788e+00	 5.851923439092610e-01	 1.188037307391345e+01
 1.748940422075997e+00	 6.246494952094070e-01	 1.187178808141307e+01
 1.734386922451343e+00	 6.639891528229159e-01	 1.185919562220466e+01
 1.718871894706465e+00	 7.031777879206232e-01	 1.184225986845569e+01
 1.702394274688542e+00	 7.421814638916866e-01	 1.182050331889532e+01
 1.684954547010031e+00	 7.809659188126941e-01	 1.179330536246324e+01
 1.555342658778490e+00	 7.208916173655637e-01	 1.189807725457822e+01
 1.538358257134925e+00	 7.564584475758592e-01	 1.185082209587220e+01
 1.520491058232194e+00	 7.917590871218493e-01	 1.178888573794012e+01
 1.501745962877788e+00	 8.267614971588527e-01	 1.171275421259013e+01
 1.482129392979634e+00	 8.614336728210154e-01	 1.162286570463188e+01
 1.461649300068323e+00	 8.957437322213666e-01	 1.151960838627988e+01
 1.440315167634239e+00	 9.296600067158080e-01	 1.140331888949889e+01
 1.418138007127731e+00	 9.631511319330253e-01	 1.127432889480108e+01
 1.395130347516129e+00	 9.961861390541467e-01	 1.113310103685296e+01
 1.371306218339282e+00	 1.028734545812524e+00	 1.097957524558864e+01
 1.346681126254994e+00	 1.060766446675545e+00	 1.081348220385717e+01
 1.568303847601644e+00	 7.268990475102770e-01	 1.188400534096587e+01
 1.551177909277715e+00	 7.627622679723246e-01	 1.183857425130629e+01
 1.533161817050795e+00	 7.983570795145313e-01	 1.177856413618468e+01
 1.514260512568436e+00	 8.336511763018434e-01	 1.170444712371109e+01
 1.494480471254464e+00	 8.686122867611905e-01	 1.161665068815659e+01
 1.473829710902226e+00	 9.032082633232112e-01	 1.151555531268902e+01
 1.452317794031190e+00	 9.374071734384397e-01	 1.140149275770058e+01
 1.429955823853795e+00	 9.711773913658003e-01	 1.127474506627246e+01
 1.406756433745430e+00	 1.004487690212931e+00	 1.113572513824273e+01
 1.382733770158776e+00	 1.037307333694295e+00	 1.098464256107033e+01
 1.357903468973786e+00	 1.069606167064508e+00	 1.082124722615033e+01
 1.581265036424798e+00	 7.329064776549900e-01	 1.187090633945856e+01
 1.563997561420507e+00	 7.690660883687901e-01	 1.182709843862313e+01
 1.545832575869397e+00	 8.049550719072134e-01	 1.176883221484731e+01
 1.526775062259084e+00	 8.405408554448337e-01	 1.169656674747366e+01
 1.506831549529293e+00	 8.757909007013653e-01	 1.161071966996824e+01
 1.486010121736128e+00	 9.106727944250558e-01	 1.151166464588575e+01
 1.464320420428143e+00	 9.451543401610712e-01	 1.139972941704988e+01
 1.441773640579860e+00	 9.792036507985753e-01	 1.127519456141619e+01
 1.418382519974731e+00	 1.012789241371716e+00	 1.113833742788405e+01
 1.394161321978270e+00	 1.045880121576066e+00	 1.098958734157073e+01
 1.369125811692577e+00	 1.078445887453471e+00	 1.082880524440086e+01
 1.594226225247952e+00	 7.389139077997031e-01	 1.185870971127448e+01
 1.576817213563297e+00	 7.753699087652558e-01	 1.181633602521427e+01
 1.558503334687998e+00	 8.115530642998954e-01	 1.175964324665706e+01
 1.539289611949733e+00	 8.474305345878239e-01	 1.168907826455638e+01
 1.519182627804124e+00	 8.829695146415405e-01	 1.160504974458004e+01
 1.498190532570031e+00	 9.181373255269004e-01	 1.150792540301081e+01
 1.476323046825095e+00	 9.529015068837030e-01	 1.139802981842836e+01
 1.453591457305925e+00	 9.872299102313508e-01	 1.127564292479372e+01
 1.430008606204032e+00	 1.021090792530500e+00	 1.114099933101786e+01
 1.405588873797764e+00	 1.054452909457837e+00	 1.099448168875486e+01
 1.380348154411368e+00	 1.087285607842434e+00	 1.083623823259071e+01
 1.607187414071107e+00	 7.449213379444160e-01	 1.184734812571166e+01
 1.589636865706088e+00	 7.816737291617211e-01	 1.180623118829099e+01
 1.571174093506600e+00	 8.181510566925775e-01	 1.175095291936119e+01
 1.551804161640380e+00	 8.543202137308142e-01	 1.168194887981898e+01
 1.531533706078954e+00	 8.901481285817157e-01	 1.159961964435108e+01
 1.510370943403934e+00	 9.256018566287455e-01	 1.150432785778496e+01
 1.488325673222046e+00	 9.606486736063348e-01	 1.139639579369902e+01
 1.465409274031989e+00	 9.952561696641259e-01	 1.127610356529881e+01
 1.441634692433333e+00	 1.029392343689285e+00	 1.114368814105047e+01
 1.417016425617257e+00	 1.063025697339608e+00	 1.099939856464707e+01
 1.391570497130161e+00	 1.096125328231396e+00	 1.084362863859223e+01
 1.620148602894261e+00	 7.509287680891290e-01	 1.183675728284563e+01
 1.602456517848880e+00	 7.879775495581867e-01	 1.179673075169975e+01
 1.583844852325202e+00	 8.247490490852598e-01	 1.174271918654722e+01
 1.564318711331028e+00	 8.612098928738048e-01	 1.167514768699942e+01
 1.543884784353785e+00	 8.973267425218909e-01	 1.159440961790683e+01
 1.522551354237836e+00	 9.330663877305899e-01	 1.150086343248314e+01
 1.500328299618998e+00	 9.683958403289665e-01	 1.139482996104590e+01
 1.477227090758053e+00	 1.003282429096901e+00	 1.127659032199984e+01
 1.453260778662633e+00	 1.037693894848069e+00	 1.114638461524017e+01
 1.428443977436752e+00	 1.071598485221379e+00	 1.100441156456174e+01
 1.402792839848952e+00	 1.104965048620359e+00	 1.085105916801071e+01
 1.633109791717414e+00	 7.569361982338418e-01	 1.182687574525011e+01
 1.615276169991670e+00	 7.942813699546521e-01	 1.178778403112240e+01
 1.596515611143803e+00	 8.313470414779417e-01	 1.173490212621449e+01
 1.576833261021677e+00	 8.680995720167953e-01	 1.166864554052825e+01
 1.556235862628615e+00	 9.045053564620659e-01	 1.158940131504874e+01
 1.534731765071739e+00	 9.405309188324346e-01	 1.149752459577296e+01
 1.512330926015951e+00	 9.761430070515982e-01	 1.139333563555838e+01
 1.489044907484118e+00	 1.011308688529676e+00	 1.127711738727115e+01
 1.464886864891935e+00	 1.045995446006854e+00	 1.114911385637712e+01
 1.439871529256245e+00	 1.080171273103150e+00	 1.100952938097680e+01
 1.414015182567744e+00	 1.113804769009322e+00	 1.085861257085365e+01
 1.646070980540568e+00	 7.629436283785549e-01	 1.181764477824317e+01
 1.628095822134461e+00	 8.005851903511175e-01	 1.177934268719949e+01
 1.609186369962404e+00	 8.379450338706237e-01	 1.172746380666826e+01
 1.589347810712325e+00	 8.749892511597857e-01	 1.166241493406803e+01
 1.568586940903445e+00	 9.116839704022413e-01	 1.158457767779455e+01
 1.546912175905641e+00	 9.479954499342793e-01	 1.149430476609415e+01
 1.524333552412902e+00	 9.838901737742300e-01	 1.139191674477128e+01
 1.500862724210182e+00	 1.019334947962451e+00	 1.127769923429979e+01
 1.476512951121236e+00	 1.054296997165638e+00	 1.115190092272925e+01
 1.451299081075740e+00	 1.088744060984921e+00	 1.101473247163914e+01
 1.425237525286535e+00	 1.122644489398285e+00	 1.086637143087071e+01
 1.659032169363722e+00	 7.689510585232679e-01	 1.180900819819295e+01
 1.640915474277252e+00	 8.068890107475829e-01	 1.177136058614308e+01
 1.621857128781007e+00	 8.445430262633060e-01	 1.172036815933585e+01
 1.601862360402973e+00	 8.818789303027761e-01	 1.165642988540998e+01
 1.580938019178275e+00	 9.188625843424161e-01	 1.157992283721465e+01
 1.559092586739545e+00	 9.554599810361241e-01	 1.149119822027639e+01
 1.536336178809854e+00	 9.916373404968616e-01	 1.139057774888982e+01
 1.512680540936246e+00	 1.027361207395227e+00	 1.127835054872862e+01
 1.488139037350537e+00	 1.062598548324423e+00	 1.115477077090076e+01
 1.462726632895233e+00	 1.097316848866692e+00	 1.102005610428163e+01
 1.436459868005327e+00	 1.131484209787248e+00	 1.087438736908409e+01
 1.671993358186877e+00	 7.749584886679810e-01	 1.180091222844535e+01
 1.653735126420044e+00	 8.131928311440486e-01	 1.176379366743266e+01
 1.634527887599609e+00	 8.511410186559879e-01	 1.171358085812921e+01
 1.614376910093621e+00	 8.887686094457664e-01	 1.165066582738299e+01
 1.593289097453105e+00	 9.260411982825911e-01	 1.157542201574953e+01
 1.571272997573447e+00	 9.629245121379688e-01	 1.148820000711074e+01
 1.548338805206807e+00	 9.993845072194939e-01	 1.138932356544497e+01
 1.524498357662311e+00	 1.035387466828002e+00	 1.127908616421105e+01
 1.499765123579838e+00	 1.070900099483207e+00	 1.115774820208915e+01
 1.474154184714727e+00	 1.105889636748463e+00	 1.102553510182545e+01
 1.447682210724119e+00	 1.140323930176210e+00	 1.088263648593919e+01
 1.684954547010031e+00	 7.809659188126941e-01	 1.179330536246324e+01
 1.666554778562835e+00	 8.194966515405140e-01	 1.175659981821294e+01
 1.647198646418210e+00	 8.577390110486701e-01	 1.170706920500134e+01
 1.626891459784270e+00	 8.956582885887572e-01	 1.164509950445097e+01
 1.605640175727937e+00	 9.332198122227667e-01	 1.157106143471348e+01
 1.583453408407349e+00	 9.703890432398138e-01	 1.148530586560830e+01
 1.560341431603759e+00	 1.007131673942125e+00	 1.138815949814080e+01
 1.536316174388376e+00	 1.043413726260777e+00	 1.127992100166710e+01
 1.511391209809139e+00	 1.079201650641992e+00	 1.116085781155691e+01
 1.485581736534221e+00	 1.114462424630234e+00	 1.103120379435221e+01
 1.458904553442911e+00	 1.149163650565174e+00	 1.089115798535732e+01
 1.346681126254994e+00	 1.060766446675545e+00	 1.081348220385717e+01
 1.321272025116470e+00	 1.092252601667171e+00	 1.063614436528364e+01
 1.295097279675248e+00	 1.123164523292048e+00	 1.044896125235299e+01
 1.268176623054305e+00	 1.153474561029700e+00	 1.025167454146411e+01
 1.240531108186509e+00	 1.183155982880377e+00	 1.004403418134513e+01
 1.212183053462653e+00	 1.212183053462653e+00	 9.825829590245526e+00
 1.183155982880377e+00	 1.240531108186509e+00	 9.596923455525587e+00
 1.153474561029701e+00	 1.268176623054305e+00	 9.357287056052163e+00
 1.123164523292049e+00	 1.295097279675247e+00	 9.107035906726413e+00
 1.092252601667171e+00	 1.321272025116470e+00	 8.846464443866063e+00
 1.060766446675545e+00	 1.346681126254994e+00	 8.576078434498179e+00
 1.357903468973786e+00	 1.069606167064508e+00	 1.082124722615033e+01
 1.332282625325774e+00	 1.101354706681063e+00	 1.064696405577149e+01
 1.305889757005875e+00	 1.132524227652816e+00	 1.046320472888675e+01
 1.278744761579758e+00	 1.163086849038281e+00	 1.026958129668176e+01
 1.250868867421397e+00	 1.193015616071047e+00	 1.006570242537406e+01
 1.222284578908175e+00	 1.222284578908175e+00	 9.851206892591264e+00
 1.193015616071047e+00	 1.250868867421397e+00	 9.625799984229680e+00
 1.163086849038282e+00	 1.278744761579758e+00	 9.389291652132213e+00
 1.132524227652816e+00	 1.305889757005875e+00	 9.141635162735533e+00
 1.101354706681064e+00	 1.332282625325773e+00	 8.882964879214654e+00
 1.069606167064508e+00	 1.357903468973785e+00	 8.613631779344432e+00
 1.369125811692577e+00	 1.078445887453471e+00	 1.082880524440086e+01
 1.343293225535078e+00	 1.110456811694957e+00	 1.065749676697084e+01
 1.316682234336502e+00	 1.141883932013583e+00	 1.047706054234825e+01
 1.289312900105210e+00	 1.172699137046862e+00	 1.028697424031290e+01
 1.261206626656284e+00	 1.202875249261717e+00	 1.008669947720371e+01
 1.232386104353697e+00	 1.232386104353697e+00	 9.875717713415590e+00
 1.202875249261717e+00	 1.261206626656284e+00	 9.653569369140360e+00
 1.172699137046862e+00	 1.289312900105210e+00	 9.419894956116689e+00
 1.141883932013583e+00	 1.316682234336501e+00	 9.174476883366474e+00
 1.110456811694957e+00	 1.343293225535077e+00	 8.917280499845932e+00
 1.078445887453471e+00	 1.369125811692577e+00	 8.648492891679680e+00
 1.380348154411368e+00	 1.087285607842434e+00	 1.083623823259071e+01
 1.354303825744382e+00	 1.119558916708850e+00	 1.066783350829257e+01
 1.327474711667129e+00	 1.151243636374349e+00	 1.049062692990442e+01
 1.299881038630663e+00	 1.182311425055443e+00	 1.030395710243678e+01
 1.271544385891172e+00	 1.212734882452386e+00	 1.010713288496874e+01
 1.242487629799219e+00	 1.242487629799219e+00	 9.899471792476442e+00
 1.212734882452387e+00	 1.271544385891172e+00	 9.680341953883730e+00
 1.182311425055443e+00	 1.299881038630663e+00	 9.449206358964329e+00
 1.151243636374350e+00	 1.327474711667128e+00	 9.205667976834283e+00
 1.119558916708850e+00	 1.354303825744381e+00	 8.949514225873740e+00
 1.087285607842434e+00	 1.380348154411368e+00	 8.680759224386824e+00
 1.391570497130161e+00	 1.096125328231396e+00	 1.084362863859223e+01
 1.365314425953686e+00	 1.128661021722743e+00	 1.067806544925450e+01
 1.338267188997756e+00	 1.160603340735117e+00	 1.050400207923647e+01
 1.310449177156115e+00	 1.191923713064023e+00	 1.032063345457649e+01
 1.281882145126060e+00	 1.222594515643057e+00	 1.012711002498984e+01
 1.252589155244741e+00	 1.252589155244741e+00	 9.922578774573093e+00
 1.222594515643057e+00	 1.281882145126059e+00	 9.706228147471661e+00
 1.191923713064023e+00	 1.310449177156114e+00	 9.477335553388448e+00
 1.160603340735117e+00	 1.338267188997755e+00	 9.235315957292414e+00
 1.128661021722744e+00	 1.365314425953685e+00	 8.979769946504419e+00
 1.096125328231397e+00	 1.391570497130161e+00	 8.710529612203711e+00
 1.402792839848952e+00	 1.104965048620359e+00	 1.085105916801071e+01
 1.376325026162989e+00	 1.137763126736636e+00	 1.068828371360379e+01
 1.349059666328383e+00	 1.169963045095884e+00	 1.051728393106516e+01
 1.321017315681568e+00	 1.201536001072604e+00	 1.033710651887045e+01
 1.292219904360947e+00	 1.232454148833726e+00	 1.014673791595680e+01
 1.262690680690263e+00	 1.262690680690263e+00	 9.945148027227910e+00
 1.232454148833726e+00	 1.292219904360947e+00	 9.731338244093116e+00
 1.201536001072604e+00	 1.321017315681567e+00	 9.504392354492015e+00
 1.169963045095884e+00	 1.349059666328382e+00	 9.263528765170484e+00
 1.137763126736637e+00	 1.376325026162989e+00	 9.008152339061253e+00
 1.104965048620359e+00	 1.402792839848952e+00	 8.737904088544663e+00
 1.414015182567744e+00	 1.113804769009322e+00	 1.085861257085365e+01
 1.387335626372293e+00	 1.146865231750529e+00	 1.069857917574209e+01
 1.359852143659010e+00	 1.179322749456650e+00	 1.053056998358520e+01
 1.331585454207021e+00	 1.211148289081185e+00	 1.035347897888356e+01
 1.302557663595835e+00	 1.242313782024396e+00	 1.016612303459888e+01
 1.272792206135785e+00	 1.272792206135785e+00	 9.967288459813954e+00
 1.242313782024396e+00	 1.302557663595835e+00	 9.755782244411789e+00
 1.211148289081185e+00	 1.331585454207020e+00	 9.530486522064358e+00
 1.179322749456651e+00	 1.359852143659010e+00	 9.290414589414517e+00
 1.146865231750529e+00	 1.387335626372293e+00	 9.034766690229246e+00
 1.113804769009322e+00	 1.414015182567743e+00	 8.762983704928022e+00
 1.425237525286535e+00	 1.122644489398285e+00	 1.086637143087071e+01
 1.398346226581598e+00	 1.155967336764422e+00	 1.070904225932665e+01
 1.370644620989637e+00	 1.188682453817418e+00	 1.054395709870341e+01
 1.342153592732473e+00	 1.220760577089766e+00	 1.036985279196735e+01
 1.312895422830722e+00	 1.252173415215065e+00	 1.018537113276045e+01
 1.282893731581308e+00	 1.282893731581307e+00	 9.989108344048024e+00
 1.252173415215066e+00	 1.312895422830722e+00	 9.779669678286970e+00
 1.220760577089767e+00	 1.342153592732473e+00	 9.555727584447641e+00
 1.188682453817418e+00	 1.370644620989637e+00	 9.316081691524959e+00
 1.155967336764423e+00	 1.398346226581597e+00	 9.059718719398365e+00
 1.122644489398285e+00	 1.425237525286535e+00	 8.785870352866398e+00
 1.436459868005327e+00	 1.131484209787248e+00	 1.087438736908409e+01
 1.409356826790901e+00	 1.165069441778315e+00	 1.071976273792818e+01
 1.381437098320264e+00	 1.198042158178185e+00	 1.055754130998205e+01
 1.352721731257925e+00	 1.230372865098347e+00	 1.038632900308454e+01
 1.323233182065610e+00	 1.262033048405736e+00	 1.020458705580516e+01
 1.292995257026830e+00	 1.292995257026829e+00	 1.001071513577509e+01
 1.262033048405736e+00	 1.323233182065610e+00	 9.803109428839820e+00
 1.230372865098347e+00	 1.352721731257925e+00	 9.580224663887549e+00
 1.198042158178185e+00	 1.381437098320263e+00	 9.340638231294090e+00
 1.165069441778316e+00	 1.409356826790900e+00	 9.083114403990081e+00
 1.131484209787248e+00	 1.436459868005326e+00	 8.807594075256796e+00
 1.447682210724119e+00	 1.140323930176210e+00	 1.088263648593919e+01
 1.420367427000205e+00	 1.174171546792208e+00	 1.073082953763381e+01
 1.392229575650891e+00	 1.207401862538952e+00	 1.057141763219490e+01
 1.363289869783378e+00	 1.239985153106927e+00	 1.040300756001847e+01
 1.333570941300497e+00	 1.271892681596405e+00	 1.022387456227666e+01
 1.303096782472351e+00	 1.303096782472351e+00	 1.003221529797369e+01
 1.271892681596406e+00	 1.333570941300497e+00	 9.826209557792081e+00
 1.239985153106928e+00	 1.363289869783378e+00	 9.604086303287412e+00
 1.207401862538952e+00	 1.392229575650890e+00	 9.364192094150896e+00
 1.174171546792209e+00	 1.420367427000204e+00	 9.105059806660035e+00
 1.140323930176211e+00	 1.447682210724118e+00	 8.830862107294317e+00
 1.458904553442911e+00	 1.149163650565174e+00	 1.089115798535732e+01
 1.431378027209509e+00	 1.183273651806101e+00	 1.074232689028645e+01
 1.403022052981518e+00	 1.216761566899719e+00	 1.058567987240900e+01
 1.373858008308830e+00	 1.249597441115509e+00	 1.041998712989300e+01
 1.343908700535385e+00	 1.281752314787076e+00	 1.024333614474785e+01
 1.313198307917874e+00	 1.313198307917874e+00	 1.005371412491659e+01
 1.281752314787075e+00	 1.343908700535385e+00	 9.849077132008702e+00
 1.249597441115509e+00	 1.373858008308831e+00	 9.627420294290390e+00
 1.216761566899719e+00	 1.403022052981518e+00	 9.386850720026214e+00
 1.183273651806102e+00	 1.431378027209509e+00	 9.125771238809389e+00
 1.149163650565174e+00	 1.458904553442910e+00	 8.855826644531156e+00
 1.060766446675545e+00	 1.346681126254994e+00	 8.576078434498177e+00
 1.028734545812524e+00	 1.371306218339282e+00	 8.295703200336559e+00
 9.961861390541472e-01	 1.395130347516129e+00	 8.004349734994621e+00
 9.631511319330257e-01	 1.418138007127731e+00	 7.701666768404889e+00
 9.296600067158087e-01	 1.440315167634238e+00	 7.390064044245935e+00
 8.957437322213671e-01	 1.461649300068322e+00	 7.082523333112433e+00
 8.614336728210163e-01	 1.482129392979633e+00	 6.780557482559366e+00
 8.267614971588537e-01	 1.501745962877787e+00	 6.483768563246368e+00
 7.917590871218502e-01	 1.520491058232193e+00	 6.191761280706665e+00
 7.564584475758603e-01	 1.538358257134924e+00	 5.904140456068597e+00
 7.208916173655637e-01	 1.555342658778490e+00	 5.620508047378117e+00
 1.069606167064508e+00	 1.357903468973785e+00	 8.613631779344434e+00
 1.037307333694295e+00	 1.382733770158775e+00	 8.333230434542724e+00
 1.004487690212931e+00	 1.406756433745429e+00	 8.040646913011997e+00
 9.711773913658011e-01	 1.429955823853795e+00	 7.735590879921430e+00
 9.374071734384403e-01	 1.452317794031190e+00	 7.428057520374640e+00
 9.032082633232120e-01	 1.473829710902225e+00	 7.125768116732637e+00
 8.686122867611914e-01	 1.494480471254463e+00	 6.828377539057192e+00
 8.336511763018440e-01	 1.514260512568435e+00	 6.535555138670352e+00
 7.983570795145323e-01	 1.533161817050795e+00	 6.246982086183028e+00
 7.627622679723256e-01	 1.551177909277714e+00	 5.962348101869443e+00
 7.268990475102767e-01	 1.568303847601644e+00	 5.681347680482101e+00
 1.078445887453471e+00	 1.369125811692577e+00	 8.648492891679680e+00
 1.045880121576066e+00	 1.394161321978270e+00	 8.367494033826992e+00
 1.012789241371716e+00	 1.418382519974730e+00	 8.073073705843051e+00
 9.792036507985761e-01	 1.441773640579860e+00	 7.767971956343626e+00
 9.451543401610719e-01	 1.464320420428142e+00	 7.465955337422387e+00
 9.106727944250566e-01	 1.486010121736128e+00	 7.168471907242868e+00
 8.757909007013664e-01	 1.506831549529293e+00	 6.875247511534521e+00
 8.405408554448347e-01	 1.526775062259083e+00	 6.586032909445258e+00
 8.049550719072148e-01	 1.545832575869397e+00	 6.300600287243943e+00
 7.690660883687913e-01	 1.563997561420506e+00	 6.018739107002521e+00
 7.329064776549898e-01	 1.581265036424798e+00	 5.740251405055525e+00
 1.087285607842434e+00	 1.380348154411368e+00	 8.680759224386824e+00
 1.054452909457837e+00	 1.405588873797764e+00	 8.398586800266711e+00
 1.021090792530500e+00	 1.430008606204031e+00	 8.101755630042142e+00
 9.872299102313512e-01	 1.453591457305924e+00	 7.800716443914849e+00
 9.529015068837035e-01	 1.476323046825094e+00	 7.503754314579516e+00
 9.181373255269011e-01	 1.498190532570030e+00	 7.210639807768649e+00
 8.829695146415416e-01	 1.519182627804124e+00	 6.921182970257654e+00
 8.474305345878251e-01	 1.539289611949732e+00	 6.635229742345620e+00
 8.115530642998967e-01	 1.558503334687998e+00	 6.352657517201726e+00
 7.753699087652568e-01	 1.576817213563297e+00	 6.073369977933298e+00
 7.389139077997030e-01	 1.594226225247952e+00	 5.797291341311643e+00
 1.096125328231397e+00	 1.391570497130161e+00	 8.710529612203713e+00
 1.063025697339608e+00	 1.417016425617257e+00	 8.426603297365494e+00
 1.029392343689285e+00	 1.441634692433333e+00	 8.129513537342685e+00
 9.952561696641264e-01	 1.465409274031988e+00	 7.833814748875760e+00
 9.606486736063353e-01	 1.488325673222046e+00	 7.541450542889133e+00
 9.256018566287459e-01	 1.510370943403933e+00	 7.252276044234094e+00
 8.901481285817167e-01	 1.531533706078954e+00	 6.966198390024664e+00
 8.543202137308155e-01	 1.551804161640380e+00	 6.683172132261016e+00
 8.181510566925788e-01	 1.571174093506600e+00	 6.403193714093386e+00
 7.816737291617224e-01	 1.589636865706088e+00	 6.126295166710346e+00
 7.449213379444161e-01	 1.607187414071107e+00	 5.852537171360150e+00
 1.104965048620359e+00	 1.402792839848952e+00	 8.737904088544663e+00
 1.071598485221379e+00	 1.428443977436751e+00	 8.451639666831991e+00
 1.037693894848070e+00	 1.453260778662634e+00	 8.158084049088185e+00
 1.003282429096902e+00	 1.477227090758053e+00	 7.867256590112652e+00
 9.683958403289671e-01	 1.500328299618997e+00	 7.579039360760673e+00
 9.330663877305905e-01	 1.522551354237836e+00	 7.293383947764545e+00
 8.973267425218917e-01	 1.543884784353784e+00	 7.010307142265722e+00
 8.612098928738057e-01	 1.564318711331028e+00	 6.729885206394647e+00
 8.247490490852607e-01	 1.583844852325201e+00	 6.452247138961804e+00
 7.879775495581880e-01	 1.602456517848879e+00	 6.177567104891960e+00
 7.509287680891289e-01	 1.620148602894261e+00	 5.906056189914882e+00
 1.113804769009322e+00	 1.414015182567743e+00	 8.762983704928022e+00
 1.080171273103150e+00	 1.439871529256245e+00	 8.475807216804927e+00
 1.045995446006854e+00	 1.464886864891934e+00	 8.187453221285406e+00
 1.011308688529677e+00	 1.489044907484117e+00	 7.901030973891466e+00
 9.761430070515988e-01	 1.512330926015950e+00	 7.616515332110030e+00
 9.405309188324353e-01	 1.534731765071738e+00	 7.333965939284933e+00
 9.045053564620669e-01	 1.556235862628615e+00	 7.053521488774055e+00
 8.680995720167961e-01	 1.576833261021676e+00	 6.775392729412880e+00
 8.313470414779427e-01	 1.596515611143802e+00	 6.499854394314308e+00
 7.942813699546533e-01	 1.615276169991670e+00	 6.227236236803453e+00
 7.569361982338417e-01	 1.633109791717414e+00	 5.957913353435583e+00
 1.122644489398285e+00	 1.425237525286535e+00	 8.785870352866398e+00
 1.088744060984921e+00	 1.451299081075740e+00	 8.501234340793488e+00
 1.054296997165639e+00	 1.476512951121236e+00	 8.217606353074098e+00
 1.019334947962452e+00	 1.500862724210182e+00	 7.935126171334396e+00
 9.838901737742304e-01	 1.524333552412902e+00	 7.653872226981077e+00
 9.479954499342802e-01	 1.546912175905641e+00	 7.374023516193141e+00
 9.116839704022418e-01	 1.568586940903445e+00	 7.095852576976971e+00
 8.749892511597867e-01	 1.589347810712324e+00	 6.819717109492164e+00
 8.379450338706251e-01	 1.609186369962404e+00	 6.546050442748438e+00
 8.005851903511185e-01	 1.628095822134461e+00	 6.275351052163064e+00
 7.629436283785549e-01	 1.646070980540568e+00	 6.008171327789892e+00
 1.131484209787248e+00	 1.436459868005326e+00	 8.807594075256796e+00
 1.097316848866692e+00	 1.462726632895233e+00	 8.527905557283070e+00
 1.062598548324423e+00	 1.488139037350537e+00	 8.248527966995839e+00
 1.027361207395227e+00	 1.512680540936246e+00	 7.969529698488298e+00
 9.916373404968621e-01	 1.536336178809854e+00	 7.691103004513730e+00
 9.554599810361248e-01	 1.559092586739544e+00	 7.413557240994699e+00
 9.188625843424173e-01	 1.580938019178275e+00	 7.137310436663585e+00
 8.818789303027772e-01	 1.601862360402972e+00	 6.862879405215262e+00
 8.445430262633069e-01	 1.621857128781006e+00	 6.590868625735495e+00
 8.068890107475842e-01	 1.640915474277252e+00	 6.321958118109849e+00
 7.689510585232677e-01	 1.659032169363722e+00	 6.056890534516604e+00
 1.140323930176211e+00	 1.447682210724118e+00	 8.830862107294321e+00
 1.105889636748463e+00	 1.474154184714728e+00	 8.555804228199175e+00
 1.070900099483208e+00	 1.499765123579838e+00	 8.280201791800106e+00
 1.035387466828002e+00	 1.524498357662311e+00	 8.004228298844893e+00
 9.993845072194940e-01	 1.548338805206806e+00	 7.728199798130331e+00
 9.629245121379696e-01	 1.571272997573446e+00	 7.452566731792478e+00
 9.260411982825920e-01	 1.593289097453106e+00	 7.177903978089560e+00
 8.887686094457674e-01	 1.614376910093621e+00	 6.904899333270455e+00
 8.511410186559888e-01	 1.634527887599607e+00	 6.634340682554037e+00
 8.131928311440497e-01	 1.653735126420043e+00	 6.367102110666840e+00
 7.749584886679808e-01	 1.671993358186876e+00	 6.104129195765903e+00
 1.149163650565174e+00	 1.458904553442910e+00	 8.855826644531156e+00
 1.114462424630234e+00	 1.485581736534222e+00	 8.584912806100220e+00
 1.079201650641992e+00	 1.511391209809139e+00	 8.312610747650465e+00
 1.043413726260778e+00	 1.536316174388376e+00	 8.039207928180549e+00
 1.007131673942126e+00	 1.560341431603758e+00	 7.765153902821574e+00
 9.703890432398143e-01	 1.583453408407350e+00	 7.491050654531426e+00
 9.332198122227675e-01	 1.605640175727936e+00	 7.217640991384834e+00
 8.956582885887581e-01	 1.626891459784269e+00	 6.945795276910209e+00
 8.577390110486710e-01	 1.647198646418209e+00	 6.676496769364598e+00
 8.194966515405154e-01	 1.666554778562834e+00	 6.410825845669542e+00
 7.809659188126938e-01	 1.684954547010031e+00	 6.149943377988032e+00
 7.208916173655637e-01	 1.555342658778490e+00	 5.620508047378117e+00
 6.850905820538642e-01	 1.571440868943270e+00	 5.341682695914564e+00
 6.490871888498062e-01	 1.586650979729045e+00	 5.068391744810857e+00
 6.129130641442304e-01	 1.600972543801240e+00	 4.800064557184688e+00
 5.765995340394531e-01	 1.614406543454766e+00	 4.536086338732970e+00
 5.401775482239338e-01	 1.626955354826574e+00	 4.275795531083109e+00
 5.036776075055799e-01	 1.638622707611955e+00	 4.018481297084239e+00
 4.671296952786185e-01	 1.649413640659306e+00	 3.763381121982915e+00
 4.305632131593439e-01	 1.659334453833218e+00	 3.509678548395063e+00
 3.940069209860292e-01	 1.668392656546771e+00	 3.256501058681760e+00
 3.574888813383703e-01	 1.676596913370510e+00	 3.002918115819484e+00
 7.268990475102767e-01	 1.568303847601644e+00	 5.681347680482101e+00
 6.907996702376463e-01	 1.584536209517797e+00	 5.404814143562390e+00
 6.544962487568879e-01	 1.599873071226787e+00	 5.133417561322554e+00
 6.180206730120991e-01	 1.614313981666250e+00	 4.866570306233280e+00
 5.814045301564486e-01	 1.627859931316890e+00	 4.603631953691988e+00
 5.446790277924667e-01	 1.640513316116795e+00	 4.343907300149509e+00
 5.078749209014598e-01	 1.652277896842055e+00	 4.086644515141015e+00
 4.710224427392737e-01	 1.663158754331467e+00	 3.831033440804532e+00
 4.341512399356717e-01	 1.673162240948494e+00	 3.576204046115009e+00
 3.972903119942462e-01	 1.682295928684661e+00	 3.321225038715837e+00
 3.604679553495234e-01	 1.690568554315264e+00	 3.065102634944360e+00
 7.329064776549898e-01	 1.581265036424798e+00	 5.740251405055525e+00
 6.965087584214289e-01	 1.597631550092325e+00	 5.465964173397873e+00
 6.599053086639698e-01	 1.613095162724529e+00	 5.196462662483127e+00
 6.231282818799674e-01	 1.627655419531260e+00	 4.931147326493813e+00
 5.862095262734439e-01	 1.641313319179012e+00	 4.669356937233241e+00
 5.491805073609994e-01	 1.654071277407016e+00	 4.410367209636300e+00
 5.120722342973396e-01	 1.665933086072155e+00	 4.153389606573644e+00
 4.749151901999289e-01	 1.676903868003628e+00	 3.897570326026778e+00
 4.377392667119995e-01	 1.686990028063771e+00	 3.641989466973809e+00
 4.005737030024631e-01	 1.696199200822550e+00	 3.385660365887384e+00
 3.634470293606764e-01	 1.704540195260018e+00	 3.127529093659176e+00
 7.389139077997030e-01	 1.594226225247952e+00	 5.797291341311642e+00
 7.022178466052109e-01	 1.610726890666851e+00	 5.525220675039852e+00
 6.653143685710514e-01	 1.626317254222271e+00	 5.257630440111727e+00
 6.282358907478365e-01	 1.640996857396271e+00	 4.993914120792895e+00
 5.910145223904391e-01	 1.654766707041136e+00	 4.733394388438491e+00
 5.536819869295322e-01	 1.667629238697238e+00	 4.475322317619309e+00
 5.162695476932192e-01	 1.679588275302254e+00	 4.218876830394599e+00
 4.788079376605839e-01	 1.690648981675789e+00	 3.963164361148096e+00
 4.413272934883275e-01	 1.700817815179048e+00	 3.707218727222879e+00
 4.038570940106800e-01	 1.710102472960439e+00	 3.450001186008979e+00
 3.664261033718295e-01	 1.718511836204773e+00	 3.190400657212282e+00
 7.449213379444161e-01	 1.607187414071107e+00	 5.852537171360150e+00
 7.079269347889930e-01	 1.623822231241378e+00	 5.582668709926105e+00
 6.707234284781328e-01	 1.639539345720012e+00	 5.317021074186146e+00
 6.333434996157046e-01	 1.654338295261281e+00	 5.054985605917798e+00
 5.958195185074345e-01	 1.668220094903258e+00	 4.795873458529804e+00
 5.581834664980648e-01	 1.681187199987459e+00	 4.538915387645483e+00
 5.204668610890992e-01	 1.693243464532354e+00	 4.283261822192333e+00
 4.827006851212390e-01	 1.704394095347949e+00	 4.027983197590885e+00
 4.449153202646553e-01	 1.714645602294325e+00	 3.772070524940839e+00
 4.071404850188969e-01	 1.724005745098329e+00	 3.514436165334550e+00
 3.694051773829825e-01	 1.732483477149527e+00	 3.253914776621116e+00
 7.509287680891289e-01	 1.620148602894261e+00	 5.906056189914882e+00
 7.136360229727752e-01	 1.636917571815906e+00	 5.638390579229418e+00
 6.761324883852148e-01	 1.652761437217755e+00	 5.374731617892002e+00
 6.384511084835732e-01	 1.667679733126291e+00	 5.114473214607431e+00
 6.006245146244302e-01	 1.681673482765381e+00	 4.856919469492935e+00
 5.626849460665977e-01	 1.694745161277680e+00	 4.601285023559552e+00
 5.246641744849790e-01	 1.706898653762454e+00	 4.346695744615051e+00
 4.865934325818942e-01	 1.718139209020110e+00	 4.092189720176910e+00
 4.485033470409830e-01	 1.728473389409602e+00	 3.836718519717508e+00
 4.104238760271138e-01	 1.737909017236219e+00	 3.579148683553121e+00
 3.723842513941356e-01	 1.746455118094281e+00	 3.318263393963913e+00
 7.569361982338417e-01	 1.633109791717414e+00	 5.957913353435583e+00
 7.193451111565575e-01	 1.650012912390433e+00	 5.692465889293636e+00
 6.815415482922965e-01	 1.665983528715497e+00	 5.430856079286604e+00
 6.435587173514418e-01	 1.681021170991301e+00	 5.172484993266421e+00
 6.054295107414257e-01	 1.695126870627504e+00	 4.916654027551275e+00
 5.671864256351304e-01	 1.708303122567901e+00	 4.662565798337043e+00
 5.288614878808590e-01	 1.720553842992553e+00	 4.409325431047145e+00
 4.904861800425494e-01	 1.731884322692271e+00	 4.155942205019785e+00
 4.520913738173108e-01	 1.742301176524878e+00	 3.901331504023686e+00
 4.137072670353307e-01	 1.751812289374108e+00	 3.644317017787120e+00
 3.753633254052887e-01	 1.760426759039036e+00	 3.383633138048449e+00
 7.629436283785549e-01	 1.646070980540568e+00	 6.008171327789894e+00
 7.250541993403395e-01	 1.663108252964961e+00	 5.744971614726278e+00
 6.869506081993783e-01	 1.679205620213238e+00	 5.485485499763280e+00
 6.486663262193104e-01	 1.694362608856311e+00	 5.229125695636492e+00
 6.102345068584211e-01	 1.708580258489627e+00	 4.975195131775084e+00
 5.716879052036633e-01	 1.721861083858123e+00	 4.722888377252913e+00
 5.330588012767387e-01	 1.734209032222653e+00	 4.471293522853086e+00
 4.943789275032046e-01	 1.745629436364432e+00	 4.219394470253313e+00
 4.556794005936389e-01	 1.756128963640155e+00	 3.966073566725992e+00
 4.169906580435476e-01	 1.765715561511998e+00	 3.710114518090696e+00
 3.783423994164417e-01	 1.774398399983790e+00	 3.450205510987105e+00
 7.689510585232677e-01	 1.659032169363722e+00	 6.056890534516604e+00
 7.307632875241217e-01	 1.676203593539487e+00	 5.795982159276575e+00
 6.923596681064599e-01	 1.692427711710981e+00	 5.538708029491467e+00
 6.537739350871791e-01	 1.707704046721322e+00	 5.284496872647869e+00
 6.150395029754165e-01	 1.722033646351750e+00	 5.032657278090790e+00
 5.761893847721959e-01	 1.735419045148344e+00	 4.782379635695834e+00
 5.372561146726186e-01	 1.747864221452752e+00	 4.532738600541230e+00
 4.982716749638598e-01	 1.759374550036593e+00	 4.282696019986906e+00
 4.592674273699666e-01	 1.769956750755432e+00	 4.031104249175717e+00
 4.202740490517646e-01	 1.779618833649889e+00	 3.776709774912811e+00
 3.813214734275949e-01	 1.788370040928544e+00	 3.518157066176910e+00
 7.749584886679808e-01	 1.671993358186876e+00	 6.104129195765903e+00
 7.364723757079040e-01	 1.689298934114015e+00	 5.845569414618069e+00
 6.977687280135416e-01	 1.705649803208722e+00	 5.590608999997062e+00
 6.588815439550476e-01	 1.721045484586332e+00	 5.338696958656620e+00
 6.198444990924119e-01	 1.735487034213874e+00	 5.089151558941011e+00
 5.806908643407288e-01	 1.748977006438566e+00	 4.841162771918842e+00
 5.414534280684983e-01	 1.761519410682852e+00	 4.593795309176718e+00
 5.021644224245149e-01	 1.773119663708754e+00	 4.345992181855705e+00
 4.628554541462946e-01	 1.783784537870709e+00	 4.096578694274214e+00
 4.235574400599815e-01	 1.793522105787778e+00	 3.844266778961213e+00
 3.843005474387480e-01	 1.802341681873299e+00	 3.587659578149892e+00
 7.809659188126938e-01	 1.684954547010031e+00	 6.149943377988032e+00
 7.421814638916863e-01	 1.702394274688543e+00	 5.893802817149808e+00
 7.031777879206234e-01	 1.718871894706465e+00	 5.641270994036135e+00
 6.639891528229160e-01	 1.734386922451343e+00	 5.391821354263451e+00
 6.246494952094075e-01	 1.748940422075997e+00	 5.144785758828933e+00
 5.851923439092619e-01	 1.762534967728788e+00	 4.899357414998977e+00
 5.456507414643782e-01	 1.775174599912952e+00	 4.654594478353767e+00
 5.060571698851701e-01	 1.786864777380915e+00	 4.409424238510884e+00
 4.664434809226226e-01	 1.797612324985986e+00	 4.162647788894411e+00
 4.268408310681985e-01	 1.807425377925668e+00	 3.912945073876574e+00
 3.872796214499012e-01	 1.816313322818053e+00	 3.658880204732121e+00
 3.574888813383703e-01	 1.676596913370510e+00	 3.002918115819484e+00
 3.210364086924502e-01	 1.683956987128215e+00	 2.753208847990052e+00
 2.846760232887887e-01	 1.690483679888263e+00	 2.514276607208420e+00
 2.484334097539916e-01	 1.696188772254459e+00	 2.289098524687565e+00
 2.123333804811160e-01	 1.701084961351885e+00	 2.080634947818528e+00
 1.763998437404562e-01	 1.705185797891955e+00	 1.891784030614226e+00
 1.406557764612708e-01	 1.708505622686726e+00	 1.725339126301634e+00
 1.051232015961897e-01	 1.711059502965998e+00	 1.583949226678706e+00
 6.982316995383152e-02	 1.712863168832140e+00	 1.470082652263023e+00
 3.477574636162224e-02	 1.713932950167268e+00	 1.385994156998283e+00
 0.000000000000000e+00	 1.714285714285714e+00	 1.333695571619504e+00
 3.604679553495234e-01	 1.690568554315264e+00	 3.065102634944362e+00
 3.237117120982206e-01	 1.697989962020950e+00	 2.812630517244036e+00
 2.870483234828618e-01	 1.704571043887332e+00	 2.571011615049206e+00
 2.505036881686081e-01	 1.710323678689912e+00	 2.342856537361709e+00
 2.141028253184586e-01	 1.715260669363150e+00	 2.130789185401963e+00
 1.778698424382933e-01	 1.719395679541055e+00	 1.937401853417434e+00
 1.418279079317814e-01	 1.722743169542450e+00	 1.765212860696660e+00
 1.059992282761580e-01	 1.725318332157382e+00	 1.616626972645497e+00
 7.040502970344679e-02	 1.727137028572408e+00	 1.493898830455185e+00
 3.506554424796907e-02	 1.728215724751995e+00	 1.399099570555495e+00
 0.000000000000000e+00	 1.728571428571429e+00	 1.334086776966154e+00
 3.634470293606764e-01	 1.704540195260018e+00	 3.127529093659176e+00
 3.263870155039911e-01	 1.712022936913685e+00	 2.872925827297157e+00
 2.894206236769351e-01	 1.718658407886401e+00	 2.629269404342201e+00
 2.525739665832247e-01	 1.724458585125366e+00	 2.398648674596304e+00
 2.158722701558012e-01	 1.729436377374416e+00	 2.183197198193266e+00
 1.793398411361305e-01	 1.733605561190154e+00	 1.985049966832360e+00
 1.430000394022920e-01	 1.736980716398172e+00	 1.806302306162027e+00
 1.068752549561262e-01	 1.739577161348765e+00	 1.648971226164878e+00
 7.098688945306204e-02	 1.741410888312676e+00	 1.514959451480371e+00
 3.535534213431592e-02	 1.742498499336722e+00	 1.406022328307558e+00
 0.000000000000000e+00	 1.742857142857143e+00	 1.323737769084284e+00
 3.664261033718295e-01	 1.718511836204773e+00	 3.190400657212282e+00
 3.290623189097613e-01	 1.726055911806420e+00	 2.934295478941535e+00
 2.917929238710082e-01	 1.732745771885470e+00	 2.689229104376869e+00
 2.546442449978413e-01	 1.738593491560819e+00	 2.456617248645924e+00
 2.176417149931439e-01	 1.743612085385682e+00	 2.237953070384878e+00
 1.808098398339676e-01	 1.747815442839254e+00	 2.034766609197682e+00
 1.441721708728026e-01	 1.751218263253894e+00	 1.848585975990456e+00
 1.077512816360945e-01	 1.753835990540148e+00	 1.680900567815395e+00
 7.156874920267729e-02	 1.755684748052943e+00	 1.533126548505432e+00
 3.564514002066279e-02	 1.756781273921450e+00	 1.406574805229559e+00
 0.000000000000000e+00	 1.757142857142857e+00	 1.302421559328724e+00
 3.694051773829825e-01	 1.732483477149527e+00	 3.253914776621116e+00
 3.317376223155319e-01	 1.740088886699155e+00	 2.996934580765791e+00
 2.941652240650815e-01	 1.746833135884538e+00	 2.751064975497587e+00
 2.567145234124579e-01	 1.752728397996273e+00	 2.516900901441292e+00
 2.194111598304865e-01	 1.757787793396947e+00	 2.295148764936083e+00
 1.822798385318048e-01	 1.762025324488354e+00	 2.086589673745786e+00
 1.453443023433132e-01	 1.765455810109617e+00	 1.892043920009876e+00
 1.086273083160627e-01	 1.768094819731531e+00	 1.712336982681419e+00
 7.215060895229257e-02	 1.769958607793211e+00	 1.548267297040744e+00
 3.593493790700963e-02	 1.771064048506176e+00	 1.400576012957987e+00
 0.000000000000000e+00	 1.771428571428571e+00	 1.269918936520998e+00
 3.723842513941356e-01	 1.746455118094281e+00	 3.318263393963915e+00
 3.344129257213023e-01	 1.754121861591890e+00	 3.061032852496316e+00
 2.965375242591547e-01	 1.760920499883607e+00	 2.814946586422219e+00
 2.587848018270745e-01	 1.766863304431727e+00	 2.579634736808467e+00
 2.211806046678291e-01	 1.771963501408213e+00	 2.354874196568899e+00
 1.837498372296419e-01	 1.776235206137454e+00	 2.140556713143360e+00
 1.465164338138238e-01	 1.779693356965340e+00	 1.936657656256012e+00
 1.095033349960310e-01	 1.782353648922915e+00	 1.743205719471224e+00
 7.273246870190783e-02	 1.784232467533479e+00	 1.560253806434770e+00
 3.622473579335649e-02	 1.785346823090904e+00	 1.387851333091142e+00
 0.000000000000000e+00	 1.785714285714285e+00	 1.226018155850602e+00
 3.753633254052887e-01	 1.760426759039036e+00	 3.383633138048451e+00
 3.370882291270726e-01	 1.768154836484625e+00	 3.126774818770756e+00
 2.989098244532279e-01	 1.775007863882676e+00	 2.881038983203879e+00
 2.608550802416911e-01	 1.780998210867182e+00	 2.644950446454350e+00
 2.229500495051717e-01	 1.786139209419479e+00	 2.417217301329212e+00
 1.852198359274790e-01	 1.790445087786553e+00	 2.196704943842690e+00
 1.476885652843344e-01	 1.793930903821063e+00	 1.982410105915216e+00
 1.103793616759992e-01	 1.796612478114298e+00	 1.773435156351696e+00
 7.331432845152309e-02	 1.798506327273746e+00	 1.568962921300331e+00
 3.651453367970334e-02	 1.799629597675631e+00	 1.368232263190663e+00
 0.000000000000000e+00	 1.800000000000000e+00	 1.170514642590646e+00
 3.783423994164417e-01	 1.774398399983790e+00	 3.450205510987105e+00
 3.397635325328431e-01	 1.782187811377361e+00	 3.194339993873137e+00
 3.012821246473013e-01	 1.789095227881745e+00	 2.949502850295448e+00
 2.629253586563077e-01	 1.795133117302635e+00	 2.712976430060905e+00
 2.247194943425144e-01	 1.800314917430744e+00	 2.482264102904050e+00
 1.866898346253162e-01	 1.804654969435653e+00	 2.255071250253969e+00
 1.488606967548450e-01	 1.808168450676785e+00	 2.029285531355329e+00
 1.112553883559674e-01	 1.810871307305681e+00	 1.802956673129019e+00
 7.389618820113837e-02	 1.812780187014014e+00	 1.574276032325309e+00
 3.680433156605019e-02	 1.813912372260358e+00	 1.341556174782183e+00
 0.000000000000000e+00	 1.814285714285714e+00	 1.103210709811016e+00
 3.813214734275949e-01	 1.788370040928544e+00	 3.518157066176908e+00
 3.424388359386135e-01	 1.796220786270096e+00	 3.263903057924360e+00
 3.036544248413745e-01	 1.803182591880814e+00	 3.020494664149565e+00
 2.649956370709242e-01	 1.809268023738089e+00	 2.783837909810505e+00
 2.264889391798570e-01	 1.814490625442010e+00	 2.550098775871131e+00
 1.881598333231533e-01	 1.818864851084752e+00	 2.315692188748662e+00
 1.500328282253555e-01	 1.822405997532508e+00	 2.077269477077566e+00
 1.121314150359357e-01	 1.825130136497064e+00	 1.831704529429056e+00
 7.447804795075362e-02	 1.827054046754282e+00	 1.576078895955198e+00
 3.709412945239704e-02	 1.828195146845085e+00	 1.307666082701977e+00
 0.000000000000000e+00	 1.828571428571428e+00	 1.023915289323800e+00
 3.843005474387480e-01	 1.802341681873299e+00	 3.587659578149894e+00
 3.451141393443839e-01	 1.810253761162831e+00	 3.335634024990910e+00
 3.060267250354476e-01	 1.817269955879882e+00	 3.094166839758392e+00
 2.670659154855408e-01	 1.823402930173542e+00	 2.857657039645280e+00
 2.282583840171996e-01	 1.828666333453276e+00	 2.620803706047300e+00
 1.896298320209904e-01	 1.833074732733851e+00	 2.378603991502395e+00
 1.512049596958661e-01	 1.836643544388231e+00	 2.126348713429608e+00
 1.130074417159039e-01	 1.839388965688447e+00	 1.859615748551551e+00
 7.505990770036886e-02	 1.841327906494550e+00	 1.574261462464880e+00
 3.738392733874390e-02	 1.842477921429813e+00	 1.266410425171725e+00
 0.000000000000000e+00	 1.842857142857143e+00	 9.324436751430927e-01
 3.872796214499012e-01	 1.816313322818053e+00	 3.658880204732121e+00
 3.477894427501543e-01	 1.824286736055566e+00	 3.409698403548441e+00
 3.083990252295210e-01	 1.831357319878951e+00	 3.170667870514464e+00
 2.691361939001575e-01	 1.837537836608996e+00	 2.934553009543091e+00
 2.300278288545423e-01	 1.842842041464542e+00	 2.694459548093064e+00
 1.910998307188276e-01	 1.847284614382951e+00	 2.443842570186736e+00
 1.523770911663767e-01	 1.850881091243954e+00	 2.176511182931779e+00
 1.138834683958722e-01	 1.853647794879832e+00	 1.886630006692076e+00
 7.564176744998415e-02	 1.855601766234818e+00	 1.568717711969311e+00
 3.767372522509075e-02	 1.856760696014540e+00	 1.217642854023799e+00
 0.000000000000000e+00	 1.857142857142857e+00	 8.286172787846390e-01
 1.857142857142857e+00	 0.000000000000000e+00	 1.155507315753826e+01
 1.856760696014540e+00	 3.767372522508970e-02	 1.161068577466689e+01
 1.855601766234818e+00	 7.564176744998323e-02	 1.165699710699617e+01
 1.853647794879831e+00	 1.138834683958714e-01	 1.169608069880873e+01
 1.850881091243954e+00	 1.523770911663761e-01	 1.172967506256127e+01
 1.847284614382952e+00	 1.910998307188271e-01	 1.175915972794540e+01
 1.842842041464542e+00	 2.300278288545419e-01	 1.178553239775475e+01
 1.837537836608996e+00	 2.691361939001572e-01	 1.180938744766286e+01
 1.831357319878951e+00	 3.083990252295208e-01	 1.183089601088452e+01
 1.824286736055566e+00	 3.477894427501544e-01	 1.184978789040843e+01
 1.816313322818053e+00	 3.872796214499010e-01	 1.186533554093874e+01
 1.871428571428572e+00	 0.000000000000000e+00	 1.153970748099593e+01
 1.871043470599267e+00	 3.796352311143655e-02	 1.159339742376805e+01
 1.869875625975086e+00	 7.622362719959845e-02	 1.163896515197599e+01
 1.867906624071215e+00	 1.147594950758397e-01	 1.167828626209100e+01
 1.865118638099676e+00	 1.535492226368867e-01	 1.171288392022036e+01
 1.861494496032051e+00	 1.925698294166642e-01	 1.174390571378427e+01
 1.857017749475808e+00	 2.317972736918846e-01	 1.177210177916095e+01
 1.851672743044450e+00	 2.712064723147739e-01	 1.179780444446528e+01
 1.845444683878020e+00	 3.107713254235941e-01	 1.182090962875236e+01
 1.838319710948301e+00	 3.504647461559249e-01	 1.184086023877041e+01
 1.830284963762807e+00	 3.902586954610540e-01	 1.185663180183597e+01
 1.885714285714286e+00	 0.000000000000000e+00	 1.152935508192249e+01
 1.885326245183995e+00	 3.825332099778341e-02	 1.157949549314098e+01
 1.884149485715354e+00	 7.680548694921373e-02	 1.162323049823532e+01
 1.882165453262598e+00	 1.156355217558080e-01	 1.166212370931516e+01
 1.879356184955399e+00	 1.547213541073972e-01	 1.169737820465085e+01
 1.875704377681151e+00	 1.940398281145013e-01	 1.172981545936830e+01
 1.871193457487073e+00	 2.335667185292272e-01	 1.175985571926450e+01
 1.865807649479904e+00	 2.732767507293904e-01	 1.178750004745415e+01
 1.859532047877089e+00	 3.131436256176673e-01	 1.181231427321546e+01
 1.852352685841037e+00	 3.531400495616954e-01	 1.183341506972468e+01
 1.844256604707561e+00	 3.932377694722071e-01	 1.184945838230563e+01
 1.900000000000000e+00	 0.000000000000000e+00	 1.152540343825756e+01
 1.899609019768722e+00	 3.854311888413024e-02	 1.156989457677488e+01
 1.898423345455622e+00	 7.738734669882900e-02	 1.161029252709966e+01
 1.896424282453981e+00	 1.165115484357762e-01	 1.164773729074463e+01
 1.893593731811122e+00	 1.558934855779079e-01	 1.168300938257964e+01
 1.889914259330250e+00	 1.955098268123384e-01	 1.171651210077356e+01
 1.885369165498339e+00	 2.353361633665698e-01	 1.174825540501823e+01
 1.879942555915358e+00	 2.753470291440070e-01	 1.177784161189683e+01
 1.873619411876158e+00	 3.155159258117405e-01	 1.180445311272760e+01
 1.866385660733772e+00	 3.558153529674657e-01	 1.182684231340048e+01
 1.858228245652316e+00	 3.962168434833602e-01	 1.184332398764385e+01
 1.914285714285714e+00	 0.000000000000000e+00	 1.152919975742264e+01
 1.913891794353449e+00	 3.883291677047709e-02	 1.156548308996888e+01
 1.912697205195890e+00	 7.796920644844424e-02	 1.160063680847596e+01
 1.910683111645364e+00	 1.173875751157444e-01	 1.163526801632752e+01
 1.907831278666844e+00	 1.570656170484184e-01	 1.166963438804464e+01
 1.904124140979350e+00	 1.969798255101755e-01	 1.170363102301074e+01
 1.899544873509605e+00	 2.371056082039125e-01	 1.173677907066783e+01
 1.894077462350812e+00	 2.774173075586236e-01	 1.176821630392384e+01
 1.887706775875227e+00	 3.178882260058138e-01	 1.179668981007488e+01
 1.880418635626507e+00	 3.584906563732363e-01	 1.182055095898283e+01
 1.872199886597070e+00	 3.991959174945133e-01	 1.183775279664746e+01
 1.928571428571428e+00	 0.000000000000000e+00	 1.154205246782167e+01
 1.928174568938176e+00	 3.912271465682392e-02	 1.156712423599904e+01
 1.926971064936157e+00	 7.855106619805947e-02	 1.159473560664665e+01
 1.924941940836748e+00	 1.182636017957127e-01	 1.162485376723943e+01
 1.922068825522567e+00	 1.582377485189289e-01	 1.165711540880817e+01
 1.918334022628450e+00	 1.984498242080127e-01	 1.169081939275224e+01
 1.913720581520870e+00	 2.388750530412551e-01	 1.172492135036023e+01
 1.908212368786266e+00	 2.794875859732402e-01	 1.175803034849553e+01
 1.901794139874295e+00	 3.202605261998870e-01	 1.178840774285586e+01
 1.894451610519242e+00	 3.611659597790065e-01	 1.181396832629002e+01
 1.886171527541824e+00	 4.021749915056664e-01	 1.183228386403657e+01
 1.942857142857142e+00	 0.000000000000000e+00	 1.156523264454029e+01
 1.942457343522903e+00	 3.941251254317078e-02	 1.157565693014040e+01
 1.941244924676425e+00	 7.913292594767478e-02	 1.159304836375673e+01
 1.939200770028131e+00	 1.191396284756809e-01	 1.161662940252181e+01
 1.936306372378290e+00	 1.594098799894396e-01	 1.164531968222273e+01
 1.932543904277549e+00	 1.999198229058498e-01	 1.167773571172009e+01
 1.927896289532136e+00	 2.406444978785977e-01	 1.171219265937866e+01
 1.922347275221719e+00	 2.815578643878568e-01	 1.174670831063506e+01
 1.915881503873364e+00	 3.226328263939603e-01	 1.177900925846640e+01
 1.908484585411977e+00	 3.638412631847770e-01	 1.180653936963012e+01
 1.900143168486578e+00	 4.051540655168194e-01	 1.182647054941458e+01
 1.957142857142857e+00	 0.000000000000000e+00	 1.159997537260557e+01
 1.956740118107630e+00	 3.970231042951762e-02	 1.159189668322239e+01
 1.955518784416693e+00	 7.971478569729003e-02	 1.159602216213325e+01
 1.953459599219514e+00	 1.200156551556491e-01	 1.161072686106627e+01
 1.950543919234012e+00	 1.605820114599502e-01	 1.163411930006588e+01
 1.946753785926649e+00	 2.013898216036869e-01	 1.166404938967857e+01
 1.942071997543402e+00	 2.424139427159403e-01	 1.169811860254171e+01
 1.936482181657173e+00	 2.836281428024734e-01	 1.173369240822755e+01
 1.929968867872432e+00	 3.250051265880335e-01	 1.176791496182621e+01
 1.922517560304712e+00	 3.665165665905474e-01	 1.179772601228745e+01
 1.914114809431332e+00	 4.081331395279725e-01	 1.181987997141021e+01
 1.971428571428571e+00	 0.000000000000000e+00	 1.164748105097367e+01
 1.971022892692358e+00	 3.999210831586446e-02	 1.161663644677093e+01
 1.969792644156961e+00	 8.029664544690526e-02	 1.160409216651146e+01
 1.967718428410897e+00	 1.208916818356174e-01	 1.160727525918123e+01
 1.964781466089736e+00	 1.617541429304608e-01	 1.162339102188939e+01
 1.960963667575749e+00	 2.028598203015241e-01	 1.164944033603725e+01
 1.956247705554667e+00	 2.441833875532830e-01	 1.168223940838844e+01
 1.950617088092627e+00	 2.856984212170900e-01	 1.171844185478468e+01
 1.944056231871502e+00	 3.273774267821068e-01	 1.175456303418621e+01
 1.936550535197447e+00	 3.691918699963179e-01	 1.178700651008517e+01
 1.928086450376086e+00	 4.111122135391256e-01	 1.181209248572410e+01
 1.985714285714285e+00	 0.000000000000000e+00	 1.170891664023023e+01
 1.985305667277085e+00	 4.028190620221130e-02	 1.165064742167097e+01
 1.984066503897229e+00	 8.087850519652053e-02	 1.161768204717889e+01
 1.981977257602281e+00	 1.217677085155856e-01	 1.160640098396282e+01
 1.979019012945458e+00	 1.629262744009713e-01	 1.161301609645392e+01
 1.975173549224848e+00	 2.043298189993612e-01	 1.163359856912730e+01
 1.970423413565933e+00	 2.459528323906256e-01	 1.166410938785091e+01
 1.964751994528080e+00	 2.877686996317065e-01	 1.170043223066520e+01
 1.958143595870570e+00	 3.297497269761800e-01	 1.173840858145175e+01
 1.950583510090182e+00	 3.718671734020883e-01	 1.177387484255978e+01
 1.942058091320841e+00	 4.140912875502787e-01	 1.180270118587585e+01
 2.000000000000000e+00	 0.000000000000000e+00	 1.178541685681790e+01
 1.999588441861812e+00	 4.057170408855815e-02	 1.169467983217430e+01
 1.998340363637497e+00	 8.146036494613579e-02	 1.163720438499223e+01
 1.996236086793665e+00	 1.226437351955539e-01	 1.160822778268070e+01
 1.993256559801181e+00	 1.640984058714819e-01	 1.160288009084492e+01
 1.989383430873948e+00	 2.057998176971984e-01	 1.161622384226735e+01
 1.984599121577199e+00	 2.477222772279683e-01	 1.164329641619011e+01
 1.978886900963535e+00	 2.898389780463232e-01	 1.167915488132905e+01
 1.972230959869640e+00	 3.321220271702533e-01	 1.171892301054554e+01
 1.964616484982918e+00	 3.745424768078588e-01	 1.175784013036685e+01
 1.956029732265595e+00	 4.170703615614318e-01	 1.179131142551694e+01
 1.816313322818053e+00	 3.872796214499010e-01	 1.186533554093874e+01
 1.807425377925668e+00	 4.268408310681971e-01	 1.187653043509259e+01
 1.797612324985986e+00	 4.664434809226215e-01	 1.188336480033356e+01
 1.786864777380915e+00	 5.060571698851692e-01	 1.188616885851436e+01
 1.775174599912952e+00	 5.456507414643776e-01	 1.188514686550675e+01
 1.762534967728788e+00	 5.851923439092610e-01	 1.188037307391345e+01
 1.748940422075997e+00	 6.246494952094070e-01	 1.187178808141307e+01
 1.734386922451343e+00	 6.639891528229159e-01	 1.185919562220466e+01
 1.718871894706465e+00	 7.031777879206232e-01	 1.184225986845569e+01
 1.702394274688542e+00	 7.421814638916866e-01	 1.182050331889532e+01
 1.684954547010031e+00	 7.809659188126941e-01	 1.179330536246324e+01
 1.830284963762807e+00	 3.902586954610540e-01	 1.185663180183597e+01
 1.821328650063559e+00	 4.301242220764143e-01	 1.186760692672256e+01
 1.811440112101263e+00	 4.700315076989492e-01	 1.187435923261725e+01
 1.800609891053076e+00	 5.099499173458243e-01	 1.187720019665317e+01
 1.788829789143052e+00	 5.498480548602573e-01	 1.187631431693233e+01
 1.776092929019010e+00	 5.896938234777940e-01	 1.187175504376821e+01
 1.762393809938120e+00	 6.294544913264023e-01	 1.186344107982922e+01
 1.747728360316353e+00	 6.690967616907845e-01	 1.185115310586067e+01
 1.732093986204207e+00	 7.085868478277051e-01	 1.183453099860013e+01
 1.715489615263070e+00	 7.478905520754687e-01	 1.181307161834407e+01
 1.697915735833185e+00	 7.869733489574072e-01	 1.178612725509566e+01
 1.844256604707561e+00	 3.932377694722071e-01	 1.184945838230563e+01
 1.835231922201447e+00	 4.334076130846310e-01	 1.186018961431180e+01
 1.825267899216540e+00	 4.736195344752773e-01	 1.186676232938307e+01
 1.814355004725237e+00	 5.138426648064794e-01	 1.186949750802596e+01
 1.802484978373151e+00	 5.540453682561373e-01	 1.186858440002785e+01
 1.789650890309231e+00	 5.941953030463267e-01	 1.186407610624001e+01
 1.775847197800243e+00	 6.342594874433982e-01	 1.185588553086662e+01
 1.761069798181364e+00	 6.742043705586529e-01	 1.184378176378073e+01
 1.745316077701950e+00	 7.139959077347867e-01	 1.182738696277088e+01
 1.728584955837597e+00	 7.535996402592509e-01	 1.180617381696819e+01
 1.710876924656339e+00	 7.929807791021203e-01	 1.177946368472637e+01
 1.858228245652316e+00	 3.962168434833602e-01	 1.184332398764385e+01
 1.849135194339338e+00	 4.366910040928479e-01	 1.185393393131058e+01
 1.839095686331816e+00	 4.772075612516050e-01	 1.186035921575322e+01
 1.828100118397398e+00	 5.177354122671347e-01	 1.186295809892123e+01
 1.816140167603251e+00	 5.582426816520172e-01	 1.186194867690450e+01
 1.803208851599452e+00	 5.986967826148596e-01	 1.185740380221254e+01
 1.789300585662366e+00	 6.390644835603934e-01	 1.184924639228021e+01
 1.774411236046374e+00	 6.793119794265218e-01	 1.183724519415260e+01
 1.758538169199691e+00	 7.194049676418685e-01	 1.182101108207742e+01
 1.741680296412124e+00	 7.593087284430331e-01	 1.179999397647885e+01
 1.723838113479493e+00	 7.989882092468331e-01	 1.177348048521169e+01
 1.872199886597070e+00	 3.991959174945133e-01	 1.183775279664746e+01
 1.863038466477227e+00	 4.399743951010648e-01	 1.184850636432561e+01
 1.852923473447093e+00	 4.807955880279328e-01	 1.185494215808817e+01
 1.841845232069558e+00	 5.216281597277898e-01	 1.185748302776988e+01
 1.829795356833351e+00	 5.624399950478969e-01	 1.185639960817801e+01
 1.816766812889674e+00	 6.031982621833923e-01	 1.185180426365713e+01
 1.802753973524489e+00	 6.438694796773888e-01	 1.184364546050177e+01
 1.787752673911384e+00	 6.844195882943902e-01	 1.183170264314716e+01
 1.771760260697433e+00	 7.248140275489501e-01	 1.181558170118382e+01
 1.754775636986651e+00	 7.650178166268151e-01	 1.179471112628656e+01
 1.736799302302648e+00	 8.049956393915464e-01	 1.176833897082550e+01
 1.886171527541824e+00	 4.021749915056664e-01	 1.183228386403657e+01
 1.876941738615117e+00	 4.432577861092817e-01	 1.184358401740738e+01
 1.866751260562370e+00	 4.843836148042608e-01	 1.185031027140258e+01
 1.855590345741720e+00	 5.255209071884449e-01	 1.185297693641189e+01
 1.843450546063450e+00	 5.666373084437768e-01	 1.185193048833024e+01
 1.830324774179895e+00	 6.076997417519249e-01	 1.184734223292422e+01
 1.816207361386612e+00	 6.486744757943843e-01	 1.183920145336008e+01
 1.801094111776395e+00	 6.895271971622586e-01	 1.182730913030614e+01
 1.784982352195175e+00	 7.302230874560320e-01	 1.181127233542410e+01
 1.767870977561179e+00	 7.707269048105972e-01	 1.179049941130832e+01
 1.749760491125801e+00	 8.110030695362590e-01	 1.176419606371324e+01
 1.900143168486578e+00	 4.051540655168194e-01	 1.182647054941458e+01
 1.890845010753007e+00	 4.465411771174986e-01	 1.183885419576755e+01
 1.880579047677646e+00	 4.879716415805885e-01	 1.184626923993213e+01
 1.869335459413880e+00	 5.294136546491001e-01	 1.184934788908630e+01
 1.857105735293550e+00	 5.708346218396565e-01	 1.184853538423914e+01
 1.843882735470116e+00	 6.122012213204578e-01	 1.184408108153846e+01
 1.829660749248735e+00	 6.534794719113795e-01	 1.183603008954443e+01
 1.814435549641405e+00	 6.946348060301275e-01	 1.182421556882881e+01
 1.798204443692917e+00	 7.356321473631136e-01	 1.180825181189491e+01
 1.780966318135706e+00	 7.764359929943796e-01	 1.178752823375732e+01
 1.762721679948956e+00	 8.170104996809723e-01	 1.176120441626041e+01
 1.914114809431332e+00	 4.081331395279725e-01	 1.181987997141021e+01
 1.904748282890896e+00	 4.498245681257155e-01	 1.183401400793350e+01
 1.894406834792923e+00	 4.915596683569164e-01	 1.184263105017895e+01
 1.883080573086041e+00	 5.333064021097551e-01	 1.184650721874973e+01
 1.870760924523649e+00	 5.750319352355362e-01	 1.184620907671507e+01
 1.857440696760338e+00	 6.167027008889905e-01	 1.184208282852285e+01
 1.843114137110859e+00	 6.582844680283750e-01	 1.183424416497802e+01
 1.827776987506415e+00	 6.997424148979960e-01	 1.182256888101815e+01
 1.811426535190659e+00	 7.410412072701953e-01	 1.180668440483313e+01
 1.794061658710233e+00	 7.821450811781617e-01	 1.178596238922236e+01
 1.775682868772110e+00	 8.230179298256854e-01	 1.175951252863525e+01
 1.928086450376086e+00	 4.111122135391256e-01	 1.181209248572410e+01
 1.918651555028787e+00	 4.531079591339324e-01	 1.182876998540494e+01
 1.908234621908200e+00	 4.951476951332443e-01	 1.183921373580286e+01
 1.896825686758202e+00	 5.371991495704104e-01	 1.184436938035185e+01
 1.884416113753749e+00	 5.792292486314160e-01	 1.184494700489110e+01
 1.870998658050559e+00	 6.212041804575233e-01	 1.184140815827554e+01
 1.856567524972981e+00	 6.630894641453706e-01	 1.183395362625798e+01
 1.841118425371425e+00	 7.048500237658645e-01	 1.182251210913201e+01
 1.824648626688401e+00	 7.464502671772769e-01	 1.180672996556839e+01
 1.807156999284760e+00	 7.878541693619439e-01	 1.178596219732708e+01
 1.788644057595264e+00	 8.290253599703984e-01	 1.175926486175035e+01
 1.942058091320841e+00	 4.140912875502787e-01	 1.180270118587585e+01
 1.932554827166676e+00	 4.563913501421493e-01	 1.182283771893123e+01
 1.922062409023478e+00	 4.987357219095723e-01	 1.183584113376181e+01
 1.910570800430363e+00	 5.410918970310654e-01	 1.184285181071723e+01
 1.898071302983849e+00	 5.834265620272959e-01	 1.184474521332354e+01
 1.884556619340781e+00	 6.257056600260561e-01	 1.184211643802230e+01
 1.870020912835105e+00	 6.678944602623660e-01	 1.183526564130964e+01
 1.854459863236436e+00	 7.099576326337331e-01	 1.182418452187081e+01
 1.837870718186143e+00	 7.518593270843589e-01	 1.180854404732377e+01
 1.820252339859287e+00	 7.935632575457262e-01	 1.178768362724156e+01
 1.801605246418418e+00	 8.350327901151113e-01	 1.176060194587401e+01
 1.956029732265595e+00	 4.170703615614318e-01	 1.179131142551694e+01
 1.946458099304566e+00	 4.596747411503663e-01	 1.181594151057826e+01
 1.935890196138754e+00	 5.023237486859001e-01	 1.183234265113912e+01
 1.924315914102524e+00	 5.449846444917207e-01	 1.184187479470350e+01
 1.911726492213948e+00	 5.876238754231758e-01	 1.184560030166710e+01
 1.898114580631002e+00	 6.302071395945890e-01	 1.184426573486529e+01
 1.883474300697228e+00	 6.726994563793616e-01	 1.183828466739444e+01
 1.867801301101446e+00	 7.150652415016019e-01	 1.182772171671970e+01
 1.851092809683886e+00	 7.572683869914406e-01	 1.181227802512210e+01
 1.833347680433815e+00	 7.992723457295086e-01	 1.179127841830388e+01
 1.814566435241572e+00	 8.410402202598246e-01	 1.176366048510884e+01
 1.684954547010031e+00	 7.809659188126941e-01	 1.179330536246324e+01
 1.666554778562835e+00	 8.194966515405140e-01	 1.175659981821294e+01
 1.647198646418210e+00	 8.577390110486701e-01	 1.170706920500134e+01
 1.626891459784270e+00	 8.956582885887572e-01	 1.164509950445097e+01
 1.605640175727937e+00	 9.332198122227667e-01	 1.157106143471348e+01
 1.583453408407349e+00	 9.703890432398138e-01	 1.148530586560830e+01
 1.560341431603759e+00	 1.007131673942125e+00	 1.138815949814080e+01
 1.536316174388376e+00	 1.043413726260777e+00	 1.127992100166710e+01
 1.511391209809139e+00	 1.079201650641992e+00	 1.116085781155691e+01
 1.485581736534221e+00	 1.114462424630234e+00	 1.103120379435221e+01
 1.458904553442911e+00	 1.149163650565174e+00	 1.089115798535732e+01
 1.697915735833185e+00	 7.869733489574072e-01	 1.178612725509566e+01
 1.679374430705627e+00	 8.258004719369799e-01	 1.174979774881610e+01
 1.659869405236812e+00	 8.643370034413524e-01	 1.170094078476418e+01
 1.639406009474919e+00	 9.025479677317478e-01	 1.163993022438670e+01
 1.617991254002767e+00	 9.403984261629419e-01	 1.156712770965468e+01
 1.595633819241253e+00	 9.778535743416581e-01	 1.148287778785140e+01
 1.572344058000711e+00	 1.014878840664757e+00	 1.138750325969247e+01
 1.548133991114441e+00	 1.051439985693553e+00	 1.128130095176970e+01
 1.523017296038441e+00	 1.087503201800777e+00	 1.116453812520965e+01
 1.497009288353716e+00	 1.123035212512005e+00	 1.103744973773656e+01
 1.470126896161702e+00	 1.158003370954136e+00	 1.090023677520741e+01
 1.710876924656339e+00	 7.929807791021203e-01	 1.177946368472637e+01
 1.692194082848417e+00	 8.321042923334450e-01	 1.174352679486945e+01
 1.672540164055414e+00	 8.709349958340343e-01	 1.169539734378009e+01
 1.651920559165566e+00	 9.094376468747377e-01	 1.163542417236003e+01
 1.630342332277597e+00	 9.475770401031167e-01	 1.156394637962041e+01
 1.607814230075155e+00	 9.853181054435031e-01	 1.148128822143072e+01
 1.584346684397663e+00	 1.022626007387389e+00	 1.138775419625560e+01
 1.559951807840505e+00	 1.059466245126328e+00	 1.128362452620065e+01
 1.534643382267742e+00	 1.095804752959561e+00	 1.116915125387350e+01
 1.508436840173210e+00	 1.131608000393776e+00	 1.104455518199537e+01
 1.481349238880494e+00	 1.166843091343100e+00	 1.091002388249623e+01
 1.723838113479493e+00	 7.989882092468331e-01	 1.177348048521169e+01
 1.705013734991208e+00	 8.384081127299104e-01	 1.173792433660890e+01
 1.685210922874015e+00	 8.775329882267161e-01	 1.169054641824266e+01
 1.664435108856215e+00	 9.163273260177285e-01	 1.163165786995802e+01
 1.642693410552427e+00	 9.547556540432919e-01	 1.156156200916548e+01
 1.619994640909058e+00	 9.927826365453479e-01	 1.148054906682469e+01
 1.596349310794615e+00	 1.030373174110020e+00	 1.138889107866874e+01
 1.571769624566569e+00	 1.067492504559103e+00	 1.128683714693042e+01
 1.546269468497042e+00	 1.104106304118346e+00	 1.117460930127742e+01
 1.519864391992704e+00	 1.140180788275547e+00	 1.105239919520144e+01
 1.492571581599285e+00	 1.175682811732062e+00	 1.092036587480617e+01
 1.736799302302648e+00	 8.049956393915464e-01	 1.176833897082550e+01
 1.717833387133999e+00	 8.447119331263760e-01	 1.173312405546196e+01
 1.697881681692616e+00	 8.841309806193980e-01	 1.168649271112996e+01
 1.676949658546863e+00	 9.232170051607189e-01	 1.162870590995167e+01
 1.655044488827258e+00	 9.619342679834672e-01	 1.156001817101974e+01
 1.632175051742961e+00	 1.000247167647193e+00	 1.148067219587838e+01
 1.608351937191566e+00	 1.038120340832652e+00	 1.139089363198925e+01
 1.583587441292633e+00	 1.075518763991878e+00	 1.129088618600027e+01
 1.557895554726344e+00	 1.112407855277130e+00	 1.118082732331940e+01
 1.531291943812198e+00	 1.148753576157318e+00	 1.106086479912251e+01
 1.503793924318077e+00	 1.184522532121025e+00	 1.093111426751268e+01
 1.749760491125801e+00	 8.110030695362590e-01	 1.176419606371324e+01
 1.730653039276790e+00	 8.510157535228415e-01	 1.172925602974486e+01
 1.710552440511218e+00	 8.907289730120804e-01	 1.168333815448425e+01
 1.689464208237511e+00	 9.301066843037094e-01	 1.162664098371646e+01
 1.667395567102088e+00	 9.691128819236425e-01	 1.155935743743590e+01
 1.644355462576863e+00	 1.007711698749037e+00	 1.148166940610248e+01
 1.620354563588519e+00	 1.045867507555284e+00	 1.139374245201273e+01
 1.595405258018698e+00	 1.083545023424654e+00	 1.129572084378418e+01
 1.569521640955645e+00	 1.120709406435915e+00	 1.118772316785165e+01
 1.542719495631692e+00	 1.157326364039089e+00	 1.106983877057440e+01
 1.515016267036868e+00	 1.193362252509988e+00	 1.094212528701717e+01
 1.762721679948956e+00	 8.170104996809723e-01	 1.176120441626041e+01
 1.743472691419581e+00	 8.573195739193069e-01	 1.172644682670694e+01
 1.723223199329819e+00	 8.973269654047624e-01	 1.168118196954254e+01
 1.701978757928159e+00	 9.369963634466999e-01	 1.162553390806788e+01
 1.679746645376918e+00	 9.762914958638175e-01	 1.155962137256693e+01
 1.656535873410766e+00	 1.015176229850882e+00	 1.148355237765583e+01
 1.632357189985470e+00	 1.053614674277916e+00	 1.139741892615858e+01
 1.607223074744762e+00	 1.091571282857428e+00	 1.130129203331641e+01
 1.581147727184946e+00	 1.129010957594699e+00	 1.119521732223632e+01
 1.554147047451186e+00	 1.165899151920861e+00	 1.107921145224322e+01
 1.526238609755660e+00	 1.202201972898951e+00	 1.095325964513018e+01
 1.775682868772110e+00	 8.230179298256854e-01	 1.175951252863525e+01
 1.756292343562372e+00	 8.636233943157723e-01	 1.172481959110885e+01
 1.735893958148422e+00	 9.039249577974445e-01	 1.168012072482768e+01
 1.714493307618807e+00	 9.438860425896902e-01	 1.162545365154193e+01
 1.692097723651748e+00	 9.834701098039924e-01	 1.156085052582036e+01
 1.668716284244668e+00	 1.022640760952727e+00	 1.148633263287445e+01
 1.644359816382422e+00	 1.061361841000548e+00	 1.140190515849833e+01
 1.619040891470826e+00	 1.099597542290204e+00	 1.130755227037447e+01
 1.592773813414247e+00	 1.137312508753484e+00	 1.120323276827474e+01
 1.565574599270680e+00	 1.174471939802631e+00	 1.108887657249332e+01
 1.537460952474451e+00	 1.211041693287914e+00	 1.096438232403528e+01
 1.788644057595264e+00	 8.290253599703984e-01	 1.175926486175035e+01
 1.769111995705163e+00	 8.699272147122379e-01	 1.172449413051042e+01
 1.748564716967023e+00	 9.105229501901266e-01	 1.168024839230360e+01
 1.727007857309455e+00	 9.507757217326804e-01	 1.162646736014859e+01
 1.704448801926579e+00	 9.906487237441676e-01	 1.156308442613988e+01
 1.680896695078571e+00	 1.030105292054571e+00	 1.149002149821773e+01
 1.656362442779374e+00	 1.069109007723179e+00	 1.140718389871685e+01
 1.630858708196891e+00	 1.107623801722979e+00	 1.131445556902588e+01
 1.604399899643548e+00	 1.145614059912269e+00	 1.121169484413610e+01
 1.577002151090173e+00	 1.183044727684402e+00	 1.109873107370499e+01
 1.548683295193243e+00	 1.219881413676877e+00	 1.097536237129652e+01
 1.801605246418418e+00	 8.350327901151113e-01	 1.176060194587401e+01
 1.781931647847955e+00	 8.762310351087036e-01	 1.172558699743395e+01
 1.761235475785625e+00	 9.171209425828086e-01	 1.168165640169195e+01
 1.739522407000104e+00	 9.576654008756710e-01	 1.162864038262504e+01
 1.716799880201409e+00	 9.978273376843427e-01	 1.156636157716773e+01
 1.693077105912474e+00	 1.037569823156416e+00	 1.149463006851012e+01
 1.668365069176326e+00	 1.076856174445811e+00	 1.141323847480806e+01
 1.642676524922955e+00	 1.115650061155754e+00	 1.132195734236312e+01
 1.616025985872849e+00	 1.153915611071053e+00	 1.122053111293329e+01
 1.588429702909667e+00	 1.191617515566173e+00	 1.110867494871241e+01
 1.559905637912035e+00	 1.228721134065840e+00	 1.098607270440406e+01
 1.814566435241572e+00	 8.410402202598246e-01	 1.176366048510884e+01
 1.794751299990746e+00	 8.825348555051692e-01	 1.172821156855913e+01
 1.773906234604226e+00	 9.237189349754910e-01	 1.168443369304232e+01
 1.752036956690753e+00	 9.645550800186617e-01	 1.163203629521333e+01
 1.729150958476239e+00	 1.005005951624518e+00	 1.157071945324357e+01
 1.705257516746377e+00	 1.045034354258261e+00	 1.150016917336368e+01
 1.680367695573278e+00	 1.084603341168443e+00	 1.142005272931867e+01
 1.654494341649020e+00	 1.123676320588530e+00	 1.133001430816813e+01
 1.627652072102150e+00	 1.162217162229838e+00	 1.122967123761311e+01
 1.599857254729162e+00	 1.200190303447945e+00	 1.111861108493682e+01
 1.571127980630826e+00	 1.237560854454803e+00	 1.099638992438113e+01
 1.458904553442911e+00	 1.149163650565174e+00	 1.089115798535732e+01
 1.431378027209509e+00	 1.183273651806101e+00	 1.074232689028645e+01
 1.403022052981518e+00	 1.216761566899719e+00	 1.058567987240900e+01
 1.373858008308830e+00	 1.249597441115509e+00	 1.041998712989300e+01
 1.343908700535385e+00	 1.281752314787076e+00	 1.024333614474785e+01
 1.313198307917874e+00	 1.313198307917874e+00	 1.005371412491659e+01
 1.281752314787075e+00	 1.343908700535385e+00	 9.849077132008702e+00
 1.249597441115509e+00	 1.373858008308831e+00	 9.627420294290390e+00
 1.216761566899719e+00	 1.403022052981518e+00	 9.386850720026214e+00
 1.183273651806102e+00	 1.431378027209509e+00	 9.125771238809389e+00
 1.149163650565174e+00	 1.458904553442910e+00	 8.855826644531160e+00
 1.470126896161702e+00	 1.158003370954136e+00	 1.090023677520741e+01
 1.442388627418814e+00	 1.192375756819995e+00	 1.075432879977539e+01
 1.413814530312146e+00	 1.226121271260486e+00	 1.060027946069989e+01
 1.384426146834283e+00	 1.259209729124089e+00	 1.043697389328284e+01
 1.354246459770273e+00	 1.291611947977745e+00	 1.026241136808638e+01
 1.323299833363396e+00	 1.323299833363396e+00	 1.007438050130567e+01
 1.291611947977745e+00	 1.354246459770273e+00	 9.870626007734110e+00
 1.259209729124090e+00	 1.384426146834283e+00	 9.648923098830805e+00
 1.226121271260486e+00	 1.413814530312145e+00	 9.407154892519412e+00
 1.192375756819996e+00	 1.442388627418813e+00	 9.146033380710714e+00
 1.158003370954136e+00	 1.470126896161702e+00	 8.880888159768009e+00
 1.481349238880494e+00	 1.166843091343100e+00	 1.091002388249623e+01
 1.453399227628117e+00	 1.201477861833888e+00	 1.076677723296569e+01
 1.424607007642773e+00	 1.235480975621253e+00	 1.061500137151511e+01
 1.394994285359735e+00	 1.268822017132670e+00	 1.045350934447425e+01
 1.364584219005160e+00	 1.301471581168415e+00	 1.028038824018281e+01
 1.333401358808918e+00	 1.333401358808918e+00	 1.009325575942377e+01
 1.301471581168416e+00	 1.364584219005160e+00	 9.889676834080110e+00
 1.268822017132670e+00	 1.394994285359735e+00	 9.667242075922735e+00
 1.235480975621254e+00	 1.424607007642772e+00	 9.423649529179652e+00
 1.201477861833888e+00	 1.453399227628116e+00	 9.165219034814308e+00
 1.166843091343100e+00	 1.481349238880494e+00	 8.904581339749196e+00
 1.492571581599285e+00	 1.175682811732062e+00	 1.092036587480617e+01
 1.464409827837421e+00	 1.210579966847780e+00	 1.077949492142195e+01
 1.435399484973399e+00	 1.244840679982020e+00	 1.062967089005116e+01
 1.405562423885188e+00	 1.278434305141251e+00	 1.046944817279368e+01
 1.374921978240047e+00	 1.311331214359085e+00	 1.029714456074325e+01
 1.343502884254441e+00	 1.343502884254441e+00	 1.011025585450481e+01
 1.311331214359085e+00	 1.374921978240047e+00	 9.906197968955054e+00
 1.278434305141251e+00	 1.405562423885188e+00	 9.682411351319859e+00
 1.244840679982020e+00	 1.435399484973399e+00	 9.437049297304043e+00
 1.210579966847781e+00	 1.464409827837421e+00	 9.183409732807469e+00
 1.175682811732063e+00	 1.492571581599285e+00	 8.927086086163953e+00
 1.503793924318077e+00	 1.184522532121025e+00	 1.093111426751268e+01
 1.475420428046725e+00	 1.219682071861674e+00	 1.079231028915247e+01
 1.446191962304027e+00	 1.254200384342787e+00	 1.064404613701094e+01
 1.416130562410641e+00	 1.288046593149832e+00	 1.048465020048416e+01
 1.385259737474935e+00	 1.321190847549754e+00	 1.031256271969346e+01
 1.353604409699962e+00	 1.353604409699962e+00	 1.012530039616881e+01
 1.321190847549754e+00	 1.385259737474935e+00	 9.920160113128489e+00
 1.288046593149832e+00	 1.416130562410641e+00	 9.694465725046395e+00
 1.254200384342788e+00	 1.446191962304026e+00	 9.449616691070890e+00
 1.219682071861674e+00	 1.475420428046724e+00	 9.200682815540185e+00
 1.184522532121025e+00	 1.503793924318077e+00	 8.948575281212346e+00
 1.515016267036868e+00	 1.193362252509988e+00	 1.094212528701717e+01
 1.486431028256029e+00	 1.228784176875567e+00	 1.080505718701401e+01
 1.456984439634653e+00	 1.263560088703555e+00	 1.065794727014482e+01
 1.426698700936093e+00	 1.297658881158413e+00	 1.049897994052078e+01
 1.395597496709823e+00	 1.331050480740424e+00	 1.032652928005105e+01
 1.363705935145484e+00	 1.363705935145484e+00	 1.013831227320500e+01
 1.331050480740424e+00	 1.395597496709823e+00	 9.931535992986284e+00
 1.297658881158414e+00	 1.426698700936093e+00	 9.703440427311392e+00
 1.263560088703555e+00	 1.456984439634653e+00	 9.461547892614970e+00
 1.228784176875568e+00	 1.486431028256028e+00	 9.217111551563512e+00
 1.193362252509988e+00	 1.515016267036868e+00	 8.969215011345073e+00
 1.526238609755660e+00	 1.202201972898951e+00	 1.095325964513018e+01
 1.497441628465332e+00	 1.237886281889460e+00	 1.081757463953401e+01
 1.467776916965281e+00	 1.272919793064321e+00	 1.067120658998356e+01
 1.437266839461546e+00	 1.307271169166994e+00	 1.051227068253460e+01
 1.405935255944711e+00	 1.340910113931094e+00	 1.033893457238026e+01
 1.373807460591006e+00	 1.373807460591007e+00	 1.014921728820481e+01
 1.340910113931094e+00	 1.405935255944710e+00	 9.940300050726828e+00
 1.307271169166994e+00	 1.437266839461545e+00	 9.710264573782464e+00
 1.272919793064322e+00	 1.467776916965280e+00	 9.472831722400255e+00
 1.237886281889461e+00	 1.497441628465332e+00	 9.232765252214556e+00
 1.202201972898951e+00	 1.526238609755659e+00	 8.989164782833907e+00
 1.537460952474451e+00	 1.211041693287914e+00	 1.096438232403528e+01
 1.508452228674637e+00	 1.246988386903353e+00	 1.082970660351473e+01
 1.478569394295908e+00	 1.282279497425088e+00	 1.068366156411729e+01
 1.447834977986998e+00	 1.316883457175574e+00	 1.052431233221692e+01
 1.416273015179598e+00	 1.350769747121764e+00	 1.034967230023797e+01
 1.383908986036529e+00	 1.383908986036529e+00	 1.015794380154077e+01
 1.350769747121764e+00	 1.416273015179598e+00	 9.946428141618306e+00
 1.316883457175575e+00	 1.447834977986998e+00	 9.716614354849053e+00
 1.282279497425089e+00	 1.478569394295907e+00	 9.483455399662548e+00
 1.246988386903354e+00	 1.508452228674636e+00	 9.247709383423800e+00
 1.211041693287913e+00	 1.537460952474451e+00	 9.008577729590728e+00
 1.548683295193243e+00	 1.219881413676877e+00	 1.097536237129652e+01
 1.519462828883940e+00	 1.256090491917246e+00	 1.084130173782289e+01
 1.489361871626535e+00	 1.291639201785856e+00	 1.069515458729951e+01
 1.458403116512451e+00	 1.326495745184155e+00	 1.053495323552911e+01
 1.426610774414486e+00	 1.360629380312434e+00	 1.035863915605321e+01
 1.394010511482051e+00	 1.394010511482051e+00	 1.016442238421768e+01
 1.360629380312434e+00	 1.426610774414485e+00	 9.949897237958858e+00
 1.326495745184155e+00	 1.458403116512450e+00	 9.722451348031752e+00
 1.291639201785856e+00	 1.489361871626534e+00	 9.493404569339718e+00
 1.256090491917246e+00	 1.519462828883940e+00	 9.262005674411974e+00
 1.219881413676876e+00	 1.548683295193243e+00	 9.027600813627780e+00
 1.559905637912035e+00	 1.228721134065840e+00	 1.098607270440406e+01
 1.530473429093244e+00	 1.265192596931139e+00	 1.085221318380038e+01
 1.500154348957162e+00	 1.300998906146623e+00	 1.070553275258161e+01
 1.468971255037903e+00	 1.336108033192736e+00	 1.054404776890878e+01
 1.436948533649373e+00	 1.370489013503104e+00	 1.036570270068463e+01
 1.404112036927572e+00	 1.404112036927573e+00	 1.016858547914872e+01
 1.370489013503104e+00	 1.436948533649373e+00	 9.951438058409105e+00
 1.336108033192736e+00	 1.468971255037903e+00	 9.727695320481844e+00
 1.300998906146623e+00	 1.500154348957161e+00	 9.502663329642210e+00
 1.265192596931140e+00	 1.530473429093244e+00	 9.275712223432160e+00
 1.228721134065839e+00	 1.559905637912034e+00	 9.046375018530458e+00
 1.571127980630826e+00	 1.237560854454803e+00	 1.099638992438113e+01
 1.541484029302548e+00	 1.274294701945033e+00	 1.086229835576579e+01
 1.510946826287789e+00	 1.310358610507390e+00	 1.071464763292649e+01
 1.479539393563356e+00	 1.345720321201318e+00	 1.055145462505413e+01
 1.447286292884261e+00	 1.380348646693774e+00	 1.037068890338836e+01
 1.414213562373095e+00	 1.414213562373095e+00	 1.017036707043617e+01
 1.380348646693774e+00	 1.447286292884261e+00	 9.952467670365952e+00
 1.345720321201318e+00	 1.479539393563356e+00	 9.732266253944710e+00
 1.310358610507390e+00	 1.510946826287789e+00	 9.511214260232798e+00
 1.274294701945033e+00	 1.541484029302548e+00	 9.288883600705383e+00
 1.237560854454803e+00	 1.571127980630826e+00	 9.065035536290781e+00
 1.149163650565174e+00	 1.458904553442910e+00	 8.855826644531156e+00
 1.114462424630234e+00	 1.485581736534222e+00	 8.584912806100220e+00
 1.079201650641992e+00	 1.511391209809139e+00	 8.312610747650465e+00
 1.043413726260778e+00	 1.536316174388376e+00	 8.039207928180549e+00
 1.007131673942126e+00	 1.560341431603758e+00	 7.765153902821574e+00
 9.703890432398143e-01	 1.583453408407350e+00	 7.491050654531426e+00
 9.332198122227675e-01	 1.605640175727936e+00	 7.217640991384834e+00
 8.956582885887581e-01	 1.626891459784269e+00	 6.945795276910207e+00
 8.577390110486710e-01	 1.647198646418209e+00	 6.676496769364600e+00
 8.194966515405154e-01	 1.666554778562834e+00	 6.410825845669543e+00
 7.809659188126938e-01	 1.684954547010031e+00	 6.149943377988032e+00
 1.158003370954136e+00	 1.470126896161702e+00	 8.880888159768009e+00
 1.123035212512005e+00	 1.497009288353715e+00	 8.613812822872738e+00
 1.087503201800777e+00	 1.523017296038440e+00	 8.344637131232506e+00
 1.051439985693553e+00	 1.548133991114440e+00	 8.073745694618912e+00
 1.014878840664758e+00	 1.572344058000710e+00	 7.801700692116736e+00
 9.778535743416589e-01	 1.595633819241252e+00	 7.529230906467660e+00
 9.403984261629427e-01	 1.617991254002766e+00	 7.257218719590737e+00
 9.025479677317487e-01	 1.639406009474918e+00	 6.986685360145357e+00
 8.643370034413534e-01	 1.659869405236811e+00	 6.718774702190902e+00
 8.258004719369808e-01	 1.679374430705626e+00	 6.454735913005107e+00
 7.869733489574070e-01	 1.697915735833185e+00	 6.195905239068785e+00
 1.166843091343100e+00	 1.481349238880494e+00	 8.904581339749196e+00
 1.131608000393776e+00	 1.508436840173209e+00	 8.641280598173704e+00
 1.095804752959562e+00	 1.534643382267741e+00	 8.375394511158273e+00
 1.059466245126328e+00	 1.559951807840504e+00	 8.107363266573303e+00
 1.022626007387389e+00	 1.584346684397662e+00	 7.837811181012462e+00
 9.853181054435035e-01	 1.607814230075155e+00	 7.567534977947012e+00
 9.475770401031175e-01	 1.630342332277596e+00	 7.297489981385530e+00
 9.094376468747392e-01	 1.651920559165566e+00	 7.028774532851012e+00
 8.709349958340354e-01	 1.672540164055413e+00	 6.762612946938136e+00
 8.321042923334465e-01	 1.692194082848416e+00	 6.500337318514083e+00
 7.929807791021201e-01	 1.710876924656339e+00	 6.243368483976958e+00
 1.175682811732063e+00	 1.492571581599285e+00	 8.927086086163953e+00
 1.140180788275547e+00	 1.519864391992704e+00	 8.667582758022725e+00
 1.104106304118346e+00	 1.546269468497042e+00	 8.405203617179755e+00
 1.067492504559103e+00	 1.571769624566569e+00	 8.140403922820107e+00
 1.030373174110021e+00	 1.596349310794614e+00	 7.873820839614877e+00
 9.927826365453484e-01	 1.619994640909057e+00	 7.606261493148113e+00
 9.547556540432930e-01	 1.642693410552427e+00	 7.338688953295083e+00
 9.163273260177298e-01	 1.664435108856214e+00	 7.072206463932785e+00
 8.775329882267175e-01	 1.685210922874014e+00	 6.808040243600123e+00
 8.384081127299120e-01	 1.705013734991207e+00	 6.547521177932850e+00
 7.989882092468330e-01	 1.723838113479493e+00	 6.292065712168158e+00
 1.184522532121025e+00	 1.503793924318077e+00	 8.948575281212346e+00
 1.148753576157318e+00	 1.531291943812197e+00	 8.692976429045256e+00
 1.112407855277130e+00	 1.557895554726343e+00	 8.434374174570690e+00
 1.075518763991879e+00	 1.583587441292633e+00	 8.173199375628416e+00
 1.038120340832653e+00	 1.608351937191566e+00	 7.910053916922844e+00
 1.000247167647193e+00	 1.632175051742960e+00	 7.645699068677723e+00
 9.619342679834680e-01	 1.655044488827257e+00	 7.381041843190539e+00
 9.232170051607199e-01	 1.676949658546862e+00	 7.117119671957524e+00
 8.841309806193993e-01	 1.697881681692616e+00	 6.855083730579377e+00
 8.447119331263774e-01	 1.717833387133998e+00	 6.596181232893574e+00
 8.049956393915462e-01	 1.736799302302648e+00	 6.341737001078108e+00
 1.193362252509988e+00	 1.515016267036868e+00	 8.969215011345073e+00
 1.157326364039089e+00	 1.542719495631692e+00	 8.717709554302889e+00
 1.120709406435915e+00	 1.569521640955645e+00	 8.463205275790358e+00
 1.083545023424654e+00	 1.595405258018697e+00	 8.206070163220776e+00
 1.045867507555284e+00	 1.620354563588517e+00	 7.946823820414835e+00
 1.007711698749038e+00	 1.644355462576863e+00	 7.686126648112425e+00
 9.691128819236432e-01	 1.667395567102087e+00	 7.424767149242196e+00
 9.301066843037101e-01	 1.689464208237511e+00	 7.163647679720746e+00
 8.907289730120815e-01	 1.710552440511217e+00	 6.903768967921511e+00
 8.510157535228425e-01	 1.730653039276789e+00	 6.646213717828283e+00
 8.110030695362590e-01	 1.749760491125801e+00	 6.392129593732197e+00
 1.202201972898951e+00	 1.526238609755659e+00	 8.989164782833907e+00
 1.165899151920860e+00	 1.554147047451186e+00	 8.742021196811100e+00
 1.129010957594699e+00	 1.581147727184945e+00	 8.491985737286170e+00
 1.091571282857428e+00	 1.607223074744761e+00	 8.239326026365804e+00
 1.053614674277916e+00	 1.632357189985470e+00	 7.984433480242364e+00
 1.015176229850882e+00	 1.656535873410765e+00	 7.727813823039678e+00
 9.762914958638181e-01	 1.679746645376917e+00	 7.470075908610664e+00
 9.369963634467007e-01	 1.701978757928158e+00	 7.211919163060694e+00
 8.973269654047638e-01	 1.723223199329819e+00	 6.954119960495674e+00
 8.573195739193085e-01	 1.743472691419580e+00	 6.697517233621584e+00
 8.170104996809723e-01	 1.762721679948956e+00	 6.442997600923258e+00
 1.211041693287913e+00	 1.537460952474451e+00	 9.008577729590730e+00
 1.174471939802632e+00	 1.565574599270680e+00	 8.766141831373989e+00
 1.137312508753484e+00	 1.592773813414247e+00	 8.520994442194397e+00
 1.099597542290204e+00	 1.619040891470826e+00	 8.273266269913012e+00
 1.061361841000548e+00	 1.644359816382422e+00	 8.023175698816296e+00
 1.022640760952727e+00	 1.668716284244668e+00	 7.771021141287019e+00
 9.834701098039931e-01	 1.692097723651747e+00	 7.517171936400293e+00
 9.438860425896912e-01	 1.714493307618807e+00	 7.262058094212985e+00
 9.039249577974455e-01	 1.735893958148421e+00	 7.006159181122546e+00
 8.636233943157737e-01	 1.756292343562371e+00	 6.749992627667917e+00
 8.230179298256852e-01	 1.775682868772110e+00	 6.494101717213098e+00
 1.219881413676876e+00	 1.548683295193243e+00	 9.027600813627780e+00
 1.183044727684402e+00	 1.577002151090174e+00	 8.790293625328511e+00
 1.145614059912269e+00	 1.604399899643547e+00	 8.550500669654557e+00
 1.107623801722979e+00	 1.630858708196891e+00	 8.308180110034135e+00
 1.069109007723180e+00	 1.656362442779374e+00	 8.063333486527920e+00
 1.030105292054572e+00	 1.680896695078571e+00	 7.816000402990206e+00
 9.906487237441680e-01	 1.704448801926578e+00	 7.566252055368178e+00
 9.507757217326818e-01	 1.727007857309455e+00	 7.314183879982858e+00
 9.105229501901277e-01	 1.748564716967022e+00	 7.059907593653744e+00
 8.699272147122393e-01	 1.769111995705162e+00	 6.803542880007734e+00
 8.290253599703982e-01	 1.788644057595263e+00	 6.545208950056578e+00
 1.228721134065839e+00	 1.559905637912034e+00	 9.046375018530458e+00
 1.191617515566173e+00	 1.588429702909667e+00	 8.814690708756428e+00
 1.153915611071053e+00	 1.616025985872848e+00	 8.580764411411327e+00
 1.115650061155755e+00	 1.642676524922955e+00	 8.344347007889901e+00
 1.076856174445811e+00	 1.668365069176326e+00	 8.105180384301587e+00
 1.037569823156417e+00	 1.693077105912473e+00	 7.862994945112263e+00
 9.978273376843434e-01	 1.716799880201408e+00	 7.617506316854705e+00
 9.576654008756720e-01	 1.739522407000103e+00	 7.368411494996099e+00
 9.171209425828099e-01	 1.761235475785623e+00	 7.115384676004535e+00
 8.762310351087046e-01	 1.781931647847953e+00	 6.858072995236646e+00
 8.350327901151112e-01	 1.801605246418418e+00	 6.596092361387566e+00
 1.237560854454803e+00	 1.571127980630826e+00	 9.065035536290781e+00
 1.200190303447945e+00	 1.599857254729162e+00	 8.839539434691027e+00
 1.162217162229838e+00	 1.627652072102150e+00	 8.612036676339912e+00
 1.123676320588530e+00	 1.654494341649020e+00	 8.382036990402003e+00
 1.084603341168443e+00	 1.680367695573278e+00	 8.148980773638751e+00
 1.045034354258262e+00	 1.705257516746376e+00	 7.912239914990913e+00
 1.005005951624519e+00	 1.729150958476239e+00	 7.671118213374404e+00
 9.645550800186625e-01	 1.752036956690751e+00	 7.424851610274078e+00
 9.237189349754922e-01	 1.773906234604226e+00	 7.172608443141904e+00
 8.825348555051705e-01	 1.794751299990745e+00	 6.913489899899740e+00
 8.410402202598244e-01	 1.814566435241572e+00	 6.646530821043124e+00
 7.809659188126938e-01	 1.684954547010031e+00	 6.149943377988032e+00
 7.421814638916863e-01	 1.702394274688543e+00	 5.893802817149810e+00
 7.031777879206234e-01	 1.718871894706465e+00	 5.641270994036135e+00
 6.639891528229160e-01	 1.734386922451343e+00	 5.391821354263451e+00
 6.246494952094075e-01	 1.748940422075997e+00	 5.144785758828933e+00
 5.851923439092619e-01	 1.762534967728788e+00	 4.899357414998977e+00
 5.456507414643782e-01	 1.775174599912952e+00	 4.654594478353767e+00
 5.060571698851701e-01	 1.786864777380915e+00	 4.409424238510884e+00
 4.664434809226226e-01	 1.797612324985986e+00	 4.162647788894414e+00
 4.268408310681985e-01	 1.807425377925668e+00	 3.912945073876574e+00
 3.872796214499012e-01	 1.816313322818053e+00	 3.658880204732121e+00
 7.869733489574070e-01	 1.697915735833185e+00	 6.195905239068785e+00
 7.478905520754687e-01	 1.715489615263070e+00	 5.941985071609087e+00
 7.085868478277054e-01	 1.732093986204207e+00	 5.691523769154738e+00
 6.690967616907848e-01	 1.747728360316354e+00	 5.444070655887458e+00
 6.294544913264030e-01	 1.762393809938120e+00	 5.199030108906050e+00
 5.896938234777944e-01	 1.776092929019010e+00	 4.955664265650123e+00
 5.498480548602581e-01	 1.788829789143052e+00	 4.713096452472666e+00
 5.099499173458253e-01	 1.800609891053076e+00	 4.470315242416806e+00
 4.700315076989505e-01	 1.811440112101263e+00	 4.226179036953675e+00
 4.301242220764153e-01	 1.821328650063558e+00	 3.979421058588025e+00
 3.902586954610542e-01	 1.830284963762807e+00	 3.728654638872880e+00
 7.929807791021201e-01	 1.710876924656339e+00	 6.243368483976958e+00
 7.535996402592507e-01	 1.728584955837597e+00	 5.991098909217706e+00
 7.139959077347867e-01	 1.745316077701949e+00	 5.741818887348781e+00
 6.742043705586536e-01	 1.761069798181364e+00	 5.495250636506465e+00
 6.342594874433986e-01	 1.775847197800243e+00	 5.250983135235616e+00
 5.941953030463272e-01	 1.789650890309230e+00	 5.008473204715226e+00
 5.540453682561378e-01	 1.802484978373151e+00	 4.767047309671886e+00
 5.138426648064803e-01	 1.814355004725237e+00	 4.525903996874360e+00
 4.736195344752783e-01	 1.825267899216539e+00	 4.284116875296151e+00
 4.334076130846323e-01	 1.835231922201447e+00	 4.040638032839385e+00
 3.932377694722073e-01	 1.844256604707561e+00	 3.794301780994311e+00
 7.989882092468330e-01	 1.723838113479493e+00	 6.292065712168158e+00
 7.593087284430330e-01	 1.741680296412124e+00	 6.040741030370102e+00
 7.194049676418686e-01	 1.758538169199691e+00	 5.791680418454543e+00
 6.793119794265220e-01	 1.774411236046374e+00	 5.544873403496788e+00
 6.390644835603936e-01	 1.789300585662365e+00	 5.300202839339471e+00
 5.986967826148601e-01	 1.803208851599452e+00	 5.057442980017881e+00
 5.582426816520176e-01	 1.816140167603251e+00	 4.816258217597024e+00
 5.177354122671355e-01	 1.828100118397398e+00	 4.576202429280087e+00
 4.772075612516061e-01	 1.839095686331816e+00	 4.336718861974336e+00
 4.366910040928493e-01	 1.849135194339337e+00	 4.097140471434141e+00
 3.962168434833604e-01	 1.858228245652315e+00	 3.856690627752570e+00
 8.049956393915462e-01	 1.736799302302648e+00	 6.341737001078105e+00
 7.650178166268149e-01	 1.754775636986651e+00	 6.090519790868532e+00
 7.248140275489502e-01	 1.771760260697433e+00	 5.840646376376576e+00
 6.844195882943905e-01	 1.787752673911384e+00	 5.592465485008287e+00
 6.438694796773894e-01	 1.802753973524490e+00	 5.346260391205161e+00
 6.031982621833930e-01	 1.816766812889674e+00	 5.102242615066436e+00
 5.624399950478975e-01	 1.829795356833350e+00	 4.860546179914142e+00
 5.216281597277908e-01	 1.841845232069558e+00	 4.621222414589616e+00
 4.807955880279339e-01	 1.852923473447093e+00	 4.384235267364172e+00
 4.399743951010661e-01	 1.863038466477227e+00	 4.149457084888392e+00
 3.991959174945134e-01	 1.872199886597070e+00	 3.916664801752024e+00
 8.110030695362590e-01	 1.749760491125801e+00	 6.392129593732199e+00
 7.707269048105972e-01	 1.767870977561179e+00	 6.140054735417832e+00
 7.302230874560319e-01	 1.784982352195175e+00	 5.888268168631594e+00
 6.895271971622591e-01	 1.801094111776394e+00	 5.637567262886585e+00
 6.486744757943846e-01	 1.816207361386613e+00	 5.388739609847073e+00
 6.076997417519256e-01	 1.830324774179894e+00	 5.142550998231303e+00
 5.666373084437774e-01	 1.843450546063450e+00	 4.899733791605408e+00
 5.255209071884458e-01	 1.855590345741720e+00	 4.660975750583587e+00
 4.843836148042617e-01	 1.866751260562369e+00	 4.426909319452362e+00
 4.432577861092830e-01	 1.876941738615117e+00	 4.198101380859490e+00
 4.021749915056664e-01	 1.886171527541824e+00	 3.975043471195000e+00
 8.170104996809723e-01	 1.762721679948956e+00	 6.442997600923258e+00
 7.764359929943795e-01	 1.780966318135706e+00	 6.188976152400578e+00
 7.356321473631138e-01	 1.798204443692917e+00	 5.934110070793383e+00
 6.946348060301275e-01	 1.814435549641404e+00	 5.679732431150326e+00
 6.534794719113801e-01	 1.829660749248735e+00	 5.427236467246866e+00
 6.122012213204584e-01	 1.843882735470117e+00	 5.178056490441898e+00
 5.708346218396572e-01	 1.857105735293550e+00	 4.933649005391862e+00
 5.294136546491010e-01	 1.869335459413880e+00	 4.695474134499442e+00
 4.879716415805896e-01	 1.880579047677646e+00	 4.464977438526127e+00
 4.465411771174999e-01	 1.890845010753007e+00	 4.243572200985307e+00
 4.051540655168196e-01	 1.900143168486578e+00	 4.032622229098522e+00
 8.230179298256852e-01	 1.775682868772110e+00	 6.494101717213095e+00
 7.821450811781615e-01	 1.794061658710233e+00	 6.236924648844520e+00
 7.410412072701955e-01	 1.811426535190659e+00	 5.977748724564786e+00
 6.997424148979963e-01	 1.827776987506415e+00	 5.718527478717346e+00
 6.582844680283753e-01	 1.843114137110858e+00	 5.461358614478435e+00
 6.167027008889912e-01	 1.857440696760338e+00	 5.208456550455954e+00
 5.750319352355371e-01	 1.870760924523649e+00	 4.962124908716669e+00
 5.333064021097560e-01	 1.883080573086040e+00	 4.724729140961045e+00
 4.915596683569175e-01	 1.894406834792923e+00	 4.498669461808519e+00
 4.498245681257169e-01	 1.904748282890896e+00	 4.286354234391450e+00
 4.081331395279726e-01	 1.914114809431332e+00	 4.090173934146543e+00
 8.290253599703982e-01	 1.788644057595263e+00	 6.545208950056578e+00
 7.878541693619437e-01	 1.807156999284760e+00	 6.283550744558339e+00
 7.464502671772770e-01	 1.824648626688401e+00	 6.018772658279344e+00
 7.048500237658647e-01	 1.841118425371425e+00	 5.753531195149604e+00
 6.630894641453710e-01	 1.856567524972981e+00	 5.490724928892432e+00
 6.212041804575239e-01	 1.870998658050559e+00	 5.233457376810605e+00
 5.792292486314167e-01	 1.884416113753749e+00	 4.984999510750685e+00
 5.371991495704113e-01	 1.896825686758201e+00	 4.748752201138108e+00
 4.951476951332454e-01	 1.908234621908200e+00	 4.528208858548359e+00
 4.531079591339337e-01	 1.918651555028786e+00	 4.326918509049466e+00
 4.111122135391259e-01	 1.928086450376087e+00	 4.148449515121624e+00
 8.350327901151112e-01	 1.801605246418418e+00	 6.596092361387566e+00
 7.935632575457260e-01	 1.820252339859287e+00	 6.328514484470736e+00
 7.518593270843588e-01	 1.837870718186143e+00	 6.056781828703087e+00
 7.099576326337335e-01	 1.854459863236435e+00	 5.784334198257888e+00
 6.678944602623664e-01	 1.870020912835104e+00	 5.514965081299597e+00
 6.257056600260567e-01	 1.884556619340780e+00	 5.252773565614952e+00
 5.834265620272967e-01	 1.898071302983848e+00	 5.002115538918089e+00
 5.410918970310664e-01	 1.910570800430362e+00	 4.767554583076205e+00
 4.987357219095733e-01	 1.922062409023477e+00	 4.553812936045321e+00
 4.563913501421506e-01	 1.932554827166675e+00	 4.365722862101354e+00
 4.140912875502789e-01	 1.942058091320841e+00	 4.208178740751967e+00
 8.410402202598244e-01	 1.814566435241572e+00	 6.646530821043122e+00
 7.992723457295084e-01	 1.833347680433815e+00	 6.371485068261361e+00
 7.572683869914407e-01	 1.851092809683886e+00	 6.091387183070710e+00
 7.150652415016021e-01	 1.867801301101446e+00	 5.810538482473371e+00
 6.726994563793620e-01	 1.883474300697228e+00	 5.533719122152672e+00
 6.302071395945896e-01	 1.898114580631002e+00	 5.266127783391517e+00
 5.876238754231766e-01	 1.911726492213948e+00	 5.013320244464033e+00
 5.449846444917216e-01	 1.924315914102524e+00	 4.781147373135719e+00
 5.023237486859014e-01	 1.935890196138754e+00	 4.575693037064410e+00
 4.596747411503677e-01	 1.946458099304566e+00	 4.403212390202536e+00
 4.170703615614320e-01	 1.956029732265595e+00	 4.270070956701353e+00
 3.872796214499012e-01	 1.816313322818053e+00	 3.658880204732123e+00
 3.477894427501543e-01	 1.824286736055566e+00	 3.409698403548439e+00
 3.083990252295210e-01	 1.831357319878951e+00	 3.170667870514464e+00
 2.691361939001575e-01	 1.837537836608996e+00	 2.934553009543091e+00
 2.300278288545423e-01	 1.842842041464542e+00	 2.694459548093066e+00
 1.910998307188276e-01	 1.847284614382951e+00	 2.443842570186734e+00
 1.523770911663767e-01	 1.850881091243954e+00	 2.176511182931779e+00
 1.138834683958722e-01	 1.853647794879832e+00	 1.886630006692076e+00
 7.564176744998415e-02	 1.855601766234818e+00	 1.568717711969311e+00
 3.767372522509075e-02	 1.856760696014540e+00	 1.217642854023799e+00
 0.000000000000000e+00	 1.857142857142857e+00	 8.286172787846390e-01
 3.902586954610542e-01	 1.830284963762807e+00	 3.728654638872880e+00
 3.504647461559247e-01	 1.838319710948301e+00	 3.483476256204736e+00
 3.107713254235941e-01	 1.845444683878020e+00	 3.248220840925952e+00
 2.712064723147741e-01	 1.851672743044451e+00	 3.013784978164896e+00
 2.317972736918850e-01	 1.857017749475808e+00	 2.771434416855341e+00
 1.925698294166647e-01	 1.861494496032051e+00	 2.512824759204107e+00
 1.535492226368874e-01	 1.865118638099676e+00	 2.230017763958776e+00
 1.147594950758405e-01	 1.867906624071215e+00	 1.915493411646760e+00
 7.622362719959944e-02	 1.869875625975086e+00	 1.562157927332027e+00
 3.796352311143760e-02	 1.871043470599267e+00	 1.163347998182993e+00
 0.000000000000000e+00	 1.871428571428572e+00	 7.128314585972690e-01
 3.932377694722073e-01	 1.844256604707561e+00	 3.794301780994311e+00
 3.531400495616952e-01	 1.852352685841036e+00	 3.555008531935902e+00
 3.131436256176673e-01	 1.859532047877089e+00	 3.325787929565222e+00
 2.732767507293907e-01	 1.865807649479905e+00	 3.095333842512713e+00
 2.335667185292276e-01	 1.871193457487073e+00	 2.852709416759057e+00
 1.940398281145019e-01	 1.875704377681151e+00	 2.587384646180129e+00
 1.547213541073980e-01	 1.879356184955399e+00	 2.289268477160822e+00
 1.156355217558087e-01	 1.882165453262598e+00	 1.948735521186489e+00
 7.680548694921467e-02	 1.884149485715354e+00	 1.556647514297467e+00
 3.825332099778447e-02	 1.885326245183995e+00	 1.104369721079616e+00
 0.000000000000000e+00	 1.885714285714286e+00	 5.837825325826903e-01
 3.962168434833604e-01	 1.858228245652315e+00	 3.856690627752570e+00
 3.558153529674657e-01	 1.866385660733772e+00	 3.625423250162163e+00
 3.155159258117406e-01	 1.873619411876158e+00	 3.404595643685868e+00
 2.753470291440072e-01	 1.879942555915358e+00	 3.180372728459647e+00
 2.353361633665702e-01	 1.885369165498339e+00	 2.939261453911710e+00
 1.955098268123390e-01	 1.889914259330250e+00	 2.668169423979334e+00
 1.558934855779085e-01	 1.893593731811122e+00	 2.354456917314430e+00
 1.165115484357770e-01	 1.896424282453981e+00	 1.985982270151933e+00
 7.738734669882996e-02	 1.898423345455622e+00	 1.551140675200421e+00
 3.854311888413130e-02	 1.899609019768721e+00	 1.038896528985503e+00
 0.000000000000000e+00	 1.900000000000000e+00	 4.388095313556430e-01
 3.991959174945134e-01	 1.872199886597070e+00	 3.916664801752024e+00
 3.584906563732360e-01	 1.880418635626507e+00	 3.695815389395536e+00
 3.178882260058138e-01	 1.887706775875227e+00	 3.485834560914553e+00
 2.774173075586239e-01	 1.894077462350812e+00	 3.270040461381604e+00
 2.371056082039129e-01	 1.899544873509605e+00	 3.032039009796078e+00
 1.969798255101761e-01	 1.904124140979350e+00	 2.755807703087537e+00
 1.570656170484191e-01	 1.907831278666844e+00	 2.425771617338364e+00
 1.173875751157452e-01	 1.910683111645365e+00	 2.026871435991397e+00
 7.796920644844518e-02	 1.912697205195890e+00	 1.544623444292520e+00
 3.883291677047816e-02	 1.913891794353449e+00	 9.651715317783374e-01
 0.000000000000000e+00	 1.914285714285714e+00	 2.753313387307966e-01
 4.021749915056664e-01	 1.886171527541824e+00	 3.975043471195000e+00
 3.611659597790064e-01	 1.894451610519242e+00	 3.767248093224210e+00
 3.202605261998870e-01	 1.901794139874295e+00	 3.570660644637019e+00
 2.794875859732404e-01	 1.908212368786265e+00	 3.365442823609872e+00
 2.388750530412555e-01	 1.913720581520870e+00	 3.131963183450249e+00
 1.984498242080132e-01	 1.918334022628450e+00	 2.850910191520871e+00
 1.582377485189297e-01	 1.922068825522567e+00	 2.503396229558100e+00
 1.182636017957135e-01	 1.924941940836748e+00	 2.071052195865794e+00
 7.855106619806047e-02	 1.926971064936157e+00	 1.536112506208255e+00
 3.912271465682501e-02	 1.928174568938176e+00	 8.814904194510446e-01
 0.000000000000000e+00	 1.928571428571428e+00	 9.084373419748926e-02
 4.051540655168196e-01	 1.900143168486578e+00	 4.032622229098522e+00
 3.638412631847768e-01	 1.908484585411977e+00	 3.840753823199414e+00
 3.226328263939603e-01	 1.915881503873364e+00	 3.660196501432085e+00
 2.815578643878570e-01	 1.922347275221719e+00	 3.467653756463983e+00
 2.406444978785980e-01	 1.927896289532136e+00	 3.239928687708044e+00
 1.999198229058504e-01	 1.932543904277549e+00	 2.954070344763774e+00
 1.594098799894403e-01	 1.936306372378290e+00	 2.587509698988358e+00
 1.191396284756817e-01	 1.939200770028131e+00	 2.118184703301638e+00
 7.913292594767572e-02	 1.941244924676425e+00	 1.524654066560633e+00
 3.941251254317185e-02	 1.942457343522903e+00	 7.861995278924907e-01
 0.000000000000000e+00	 1.942857142857142e+00	-1.170834341278547e-01
 4.081331395279726e-01	 1.914114809431332e+00	 4.090173934146543e+00
 3.665165665905473e-01	 1.922517560304712e+00	 3.917335461338179e+00
 3.250051265880335e-01	 1.929968867872433e+00	 3.755532583515314e+00
 2.836281428024737e-01	 1.936482181657173e+00	 3.577716509698491e+00
 2.424139427159407e-01	 1.942071997543402e+00	 3.356804801846952e+00
 2.013898216036875e-01	 1.946753785926649e+00	 3.065864987266803e+00
 1.605820114599509e-01	 1.950543919234012e+00	 2.678286429041423e+00
 1.200156551556500e-01	 1.953459599219514e+00	 2.167939683390649e+00
 7.971478569729099e-02	 1.955518784416693e+00	 1.509322772001243e+00
 3.970231042951870e-02	 1.956740118107630e+00	 6.776939893797909e-01
 0.000000000000000e+00	 1.957142857142857e+00	-3.508089527357517e-01
 4.111122135391259e-01	 1.928086450376087e+00	 4.148449515121624e+00
 3.691918699963176e-01	 1.936550535197447e+00	 3.997967364797765e+00
 3.273774267821067e-01	 1.944056231871502e+00	 3.857728338981115e+00
 2.856984212170902e-01	 1.950617088092627e+00	 3.696644741029386e+00
 2.441833875532833e-01	 1.956247705554667e+00	 3.483436282854758e+00
 2.028598203015246e-01	 1.960963667575748e+00	 3.186854906947630e+00
 1.617541429304614e-01	 1.964781466089735e+00	 2.775896440044085e+00
 1.208916818356182e-01	 1.967718428410897e+00	 2.219998045597356e+00
 8.029664544690623e-02	 1.969792644156961e+00	 1.489220677239439e+00
 3.999210831586556e-02	 1.971022892692357e+00	 5.544159634840029e-01
 0.000000000000000e+00	 1.971428571428571e+00	-6.126228284265490e-01
 4.140912875502789e-01	 1.942058091320841e+00	 4.208178740751967e+00
 3.718671734020881e-01	 1.950583510090182e+00	 4.083596375129809e+00
 3.297497269761800e-01	 1.958143595870570e+00	 3.967813312472916e+00
 2.877686996317068e-01	 1.964751994528080e+00	 3.825423568255424e+00
 2.459528323906260e-01	 1.970423413565933e+00	 3.620644237399441e+00
 2.043298189993618e-01	 1.975173549224848e+00	 3.317585424054459e+00
 1.629262744009720e-01	 1.979019012945457e+00	 2.880505520927170e+00
 1.217677085155864e-01	 1.981977257602280e+00	 2.274050513287769e+00
 8.087850519652148e-02	 1.984066503897228e+00	 1.463476256651108e+00
 4.028190620221241e-02	 1.985305667277085e+00	 4.148529443410589e-01
 0.000000000000000e+00	 1.985714285714285e+00	-9.047487623999513e-01
 4.170703615614320e-01	 1.956029732265595e+00	 4.270070956701353e+00
 3.745424768078587e-01	 1.964616484982918e+00	 4.175142784385551e+00
 3.321220271702534e-01	 1.972230959869640e+00	 4.086788198758752e+00
 2.898389780463234e-01	 1.978886900963535e+00	 3.965010576343201e+00
 2.477222772279686e-01	 1.984599121577199e+00	 3.769226956466431e+00
 2.057998176971989e-01	 1.989383430873948e+00	 3.458586935673483e+00
 1.640984058714827e-01	 1.993256559801181e+00	 2.992275374427768e+00
 1.226437351955547e-01	 1.996236086793665e+00	 2.329797269141397e+00
 8.146036494613679e-02	 1.998340363637497e+00	 1.431243458251771e+00
 4.057170408855926e-02	 1.999588441861812e+00	 2.575361404680636e-01
 0.000000000000000e+00	 2.000000000000000e+00	-1.229346518312228e+00
