x	y	stress_xx
 1.0000000000e+00	 0.0000000000e+00	 4.4807378428e-02
 9.9979422093e-01	 2.0285852044e-02	 5.7831477602e-02
 9.9917018182e-01	 4.0730182473e-02	 8.9482070591e-02
 9.9811804340e-01	 6.1321867598e-02	 1.3956020829e-01
 9.9662827990e-01	 8.2049202936e-02	 2.0790321263e-01
 9.9469171544e-01	 1.0289990885e-01	 2.9438587851e-01
 9.9229956079e-01	 1.2386113861e-01	 3.9892140283e-01
 9.8944345048e-01	 1.4491948902e-01	 5.2146201594e-01
 9.8611547993e-01	 1.6606101359e-01	 6.6199929210e-01
 9.8230824249e-01	 1.8727123840e-01	 8.2056411681e-01
 9.7801486613e-01	 2.0853518078e-01	 9.9722629076e-01
 1.0142857143e+00	 0.0000000000e+00	 3.2191165983e-01
 1.0140769955e+00	 2.0575649931e-02	 3.3349270445e-01
 1.0134440416e+00	 4.1312042223e-02	 3.6115273851e-01
 1.0123768726e+00	 6.2197894278e-02	 4.0470974766e-01
 1.0108658268e+00	 8.3221334406e-02	 4.6402125769e-01
 1.0089015971e+00	 1.0436990755e-01	 5.3898547605e-01
 1.0064752688e+00	 1.2563058345e-01	 6.2954214724e-01
 1.0035783569e+00	 1.4698976744e-01	 7.3567309800e-01
 1.0002028439e+00	 1.6843331378e-01	 8.5740244858e-01
 9.9634121738e-01	 1.8994654181e-01	 9.9479646862e-01
 9.9198650708e-01	 2.1151425479e-01	 1.1479630575e+00
 1.0285714286e+00	 0.0000000000e+00	 5.8881698357e-01
 1.0283597701e+00	 2.0865447817e-02	 5.9910770118e-01
 1.0277179013e+00	 4.1893901972e-02	 6.2306515337e-01
 1.0266357018e+00	 6.3073920958e-02	 6.6052781462e-01
 1.0251033736e+00	 8.4393465877e-02	 7.1137679241e-01
 1.0231114787e+00	 1.0583990624e-01	 7.7553688121e-01
 1.0206509768e+00	 1.2740002829e-01	 8.5297731687e-01
 1.0177132634e+00	 1.4906004585e-01	 9.4371220750e-01
 1.0142902079e+00	 1.7080561397e-01	 1.0478006176e+00
 1.0103741923e+00	 1.9262184522e-01	 1.1653462843e+00
 1.0059581480e+00	 2.1449332880e-01	 1.2964969463e+00
 1.0428571429e+00	 0.0000000000e+00	 8.4338751927e-01
 1.0426425447e+00	 2.1155245703e-02	 8.5253019730e-01
 1.0419917610e+00	 4.2475761722e-02	 8.7306073770e-01
 1.0408945310e+00	 6.3949947638e-02	 9.0484156376e-01
 1.0393409205e+00	 8.5565597347e-02	 9.4778064603e-01
 1.0373213604e+00	 1.0730990494e-01	 1.0018324422e+00
 1.0348266848e+00	 1.2916947313e-01	 1.0669985234e+00
 1.0318481698e+00	 1.5113032427e-01	 1.1433278637e+00
 1.0283775719e+00	 1.7317791417e-01	 1.2309167692e+00
 1.0244071672e+00	 1.9529714862e-01	 1.3299084277e+00
 1.0199297890e+00	 2.1747240281e-01	 1.4404920582e+00
 1.0571428571e+00	 0.0000000000e+00	 1.0835989936e+00
 1.0569253193e+00	 2.1445043590e-02	 1.0917262246e+00
 1.0562656208e+00	 4.3057621472e-02	 1.1090940778e+00
 1.0551533602e+00	 6.4825974318e-02	 1.1355922946e+00
 1.0535784673e+00	 8.6737728818e-02	 1.1711588969e+00
 1.0515312420e+00	 1.0877990364e-01	 1.2157809869e+00
 1.0490023928e+00	 1.3093891796e-01	 1.2694952190e+00
 1.0459830762e+00	 1.5320060268e-01	 1.3323879205e+00
 1.0424649359e+00	 1.7555021436e-01	 1.4045948398e+00
 1.0384401421e+00	 1.9797245203e-01	 1.4863005014e+00
 1.0339014299e+00	 2.2045147683e-01	 1.5777371503e+00
 1.0714285714e+00	 0.0000000000e+00	 1.3075312529e+00
 1.0712080939e+00	 2.1734841476e-02	 1.3147666444e+00
 1.0705394805e+00	 4.3639481221e-02	 1.3292254075e+00
 1.0694121894e+00	 6.5702000998e-02	 1.3508278833e+00
 1.0678160142e+00	 8.7909860288e-02	 1.3795452437e+00
 1.0657411237e+00	 1.1024990234e-01	 1.4154001251e+00
 1.0631781008e+00	 1.3270836280e-01	 1.4584669196e+00
 1.0601179827e+00	 1.5527088110e-01	 1.5088717020e+00
 1.0565522999e+00	 1.7792251456e-01	 1.5667917693e+00
 1.0524731170e+00	 2.0064775543e-01	 1.6324547759e+00
 1.0478730709e+00	 2.2343055084e-01	 1.7061374457e+00
 1.0857142857e+00	 0.0000000000e+00	 1.5133614135e+00
 1.0854908684e+00	 2.2024639362e-02	 1.5198202648e+00
 1.0848133403e+00	 4.4221340971e-02	 1.5316136849e+00
 1.0836710185e+00	 6.6578027678e-02	 1.5486958120e+00
 1.0820535610e+00	 8.9081991759e-02	 1.5710739789e+00
 1.0799510053e+00	 1.1171990104e-01	 1.5988091571e+00
 1.0773538089e+00	 1.3447780764e-01	 1.6320160415e+00
 1.0742528891e+00	 1.5734115951e-01	 1.6708627574e+00
 1.0706396639e+00	 1.8029481475e-01	 1.7155701664e+00
 1.0665060918e+00	 2.0332305884e-01	 1.7664107552e+00
 1.0618447118e+00	 2.2640962485e-01	 1.8237070907e+00
 1.1000000000e+00	 0.0000000000e+00	 1.6993575454e+00
 1.0997736430e+00	 2.2314437249e-02	 1.7051474937e+00
 1.0990872000e+00	 4.4803200720e-02	 1.7145102090e+00
 1.0979298477e+00	 6.7454054358e-02	 1.7274367405e+00
 1.0962911079e+00	 9.0254123229e-02	 1.7439735091e+00
 1.0941608870e+00	 1.1318989973e-01	 1.7642225359e+00
 1.0915295169e+00	 1.3624725248e-01	 1.7883412961e+00
 1.0883877955e+00	 1.5941143793e-01	 1.8165421809e+00
 1.0847270279e+00	 1.8266711494e-01	 1.8490915441e+00
 1.0805390667e+00	 2.0599836224e-01	 1.8863083202e+00
 1.0758163527e+00	 2.2938869886e-01	 1.9285621968e+00
 1.1142857143e+00	 0.0000000000e+00	 1.8638728416e+00
 1.1140564176e+00	 2.2604235135e-02	 1.8690944814e+00
 1.1133610597e+00	 4.5385060470e-02	 1.8762527270e+00
 1.1121886769e+00	 6.8330081038e-02	 1.8853785734e+00
 1.1105286547e+00	 9.1426254700e-02	 1.8965603743e+00
 1.1083707686e+00	 1.1465989843e-01	 1.9099438310e+00
 1.1057052249e+00	 1.3801669731e-01	 1.9257315920e+00
 1.1025227020e+00	 1.6148171634e-01	 1.9441824439e+00
 1.0988143919e+00	 1.8503941514e-01	 1.9656100755e+00
 1.0945720416e+00	 2.0867366565e-01	 1.9903813993e+00
 1.0897879937e+00	 2.3236777287e-01	 2.0189144175e+00
 1.1285714286e+00	 0.0000000000e+00	 2.0053402311e+00
 1.1283391922e+00	 2.2894033021e-02	 2.0100877061e+00
 1.1276349195e+00	 4.5966920220e-02	 2.0152599891e+00
 1.1264475061e+00	 6.9206107717e-02	 2.0209309768e+00
 1.1247662016e+00	 9.2598386170e-02	 2.0272337205e+00
 1.1225806503e+00	 1.1612989713e-01	 2.0343601510e+00
 1.1198809329e+00	 1.3978614215e-01	 2.0425603998e+00
 1.1166576084e+00	 1.6355199475e-01	 2.0521416959e+00
 1.1129017559e+00	 1.8741171533e-01	 2.0634668225e+00
 1.1086050165e+00	 2.1134896906e-01	 2.0769521181e+00
 1.1037596346e+00	 2.3534684688e-01	 2.0930650122e+00
 1.1428571429e+00	 0.0000000000e+00	 2.1222673950e+00
 1.1426219668e+00	 2.3183830908e-02	 2.1266289675e+00
 1.1419087792e+00	 4.6548779969e-02	 2.1300267118e+00
 1.1407063353e+00	 7.0082134397e-02	 2.1325803068e+00
 1.1390037485e+00	 9.3770517641e-02	 2.1344701873e+00
 1.1367905319e+00	 1.1759989583e-01	 2.1359369837e+00
 1.1340566409e+00	 1.4155558699e-01	 2.1372805395e+00
 1.1307925148e+00	 1.6562227317e-01	 2.1388584920e+00
 1.1269891199e+00	 1.8978401553e-01	 2.1410843970e+00
 1.1226379914e+00	 2.1402427246e-01	 2.1444253873e+00
 1.1177312756e+00	 2.3832592089e-01	 2.1493993534e+00
 9.7801486613e-01	 2.0853518078e-01	 9.9722629076e-01
 9.7322904965e-01	 2.2983737058e-01	 1.1896309970e+00
 9.6794509807e-01	 2.5116187434e-01	 1.3937451622e+00
 9.6215795705e-01	 2.7249232225e-01	 1.6071486304e+00
 9.5586324611e-01	 2.9381193771e-01	 1.8274322475e+00
 9.4905729032e-01	 3.1510356980e-01	 2.0522143840e+00
 9.4173715035e-01	 3.3634972819e-01	 2.2791580193e+00
 9.3390065055e-01	 3.5753262075e-01	 2.5059882599e+00
 9.2554640484e-01	 3.7863419350e-01	 2.7305101503e+00
 9.1667384022e-01	 3.9963617286e-01	 2.9506266268e+00
 9.0728321762e-01	 4.2052011013e-01	 3.1643564528e+00
 9.9198650708e-01	 2.1151425479e-01	 1.1479630575e+00
 9.8713232179e-01	 2.3312076158e-01	 1.3146226600e+00
 9.8177288518e-01	 2.5474990112e-01	 1.4909928280e+00
 9.7590307072e-01	 2.7638506971e-01	 1.6749589279e+00
 9.6951843534e-01	 2.9800925111e-01	 1.8644190794e+00
 9.6261525161e-01	 3.1960504937e-01	 2.0572987615e+00
 9.5519053821e-01	 3.4115472431e-01	 2.2515659105e+00
 9.4724208842e-01	 3.6264022962e-01	 2.4452463949e+00
 9.3876849634e-01	 3.8404325340e-01	 2.6364397438e+00
 9.2976918079e-01	 4.0534526105e-01	 2.8233349946e+00
 9.2024440644e-01	 4.2652754027e-01	 3.0042265178e+00
 1.0059581480e+00	 2.1449332880e-01	 1.2964969463e+00
 1.0010355939e+00	 2.3640415259e-01	 1.4390347386e+00
 9.9560067230e-01	 2.5833792790e-01	 1.5894000845e+00
 9.8964818440e-01	 2.8027781717e-01	 1.7457638296e+00
 9.8317362457e-01	 3.0220656450e-01	 1.9063110990e+00
 9.7617321290e-01	 3.2410652893e-01	 2.0692541025e+00
 9.6864392607e-01	 3.4595972042e-01	 2.2328453669e+00
 9.6058352628e-01	 3.6774783849e-01	 2.3953912930e+00
 9.5199058784e-01	 3.8945231331e-01	 2.5552659299e+00
 9.4286452137e-01	 4.1105434923e-01	 2.7109248476e+00
 9.3320559527e-01	 4.3253497042e-01	 2.8609189841e+00
 1.0199297890e+00	 2.1747240281e-01	 1.4404920582e+00
 1.0149388661e+00	 2.3968754360e-01	 1.5604997445e+00
 1.0094284594e+00	 2.6192595467e-01	 1.6865694381e+00
 1.0033932981e+00	 2.8417056463e-01	 1.8171381985e+00
 9.9682881380e-01	 3.0640387790e-01	 1.9506586659e+00
 9.8973117419e-01	 3.2860800850e-01	 2.0856101789e+00
 9.8209731393e-01	 3.5076471654e-01	 2.2205102577e+00
 9.7392496415e-01	 3.7285544735e-01	 2.3539263661e+00
 9.6521267934e-01	 3.9486137322e-01	 2.4844878553e+00
 9.5595986194e-01	 4.1676343742e-01	 2.6108979888e+00
 9.4616678409e-01	 4.3854240056e-01	 2.7319459403e+00
 1.0339014299e+00	 2.2045147683e-01	 1.5777371503e+00
 1.0288421382e+00	 2.4297093461e-01	 1.6767768058e+00
 1.0232562465e+00	 2.6551398145e-01	 1.7802318850e+00
 1.0171384117e+00	 2.8806331209e-01	 1.8867871294e+00
 1.0104840030e+00	 3.1060119130e-01	 1.9951439388e+00
 1.0032891355e+00	 3.3310948807e-01	 2.1040299110e+00
 9.9555070180e-01	 3.5556971266e-01	 2.2122086904e+00
 9.8726640201e-01	 3.7796305622e-01	 2.3184900517e+00
 9.7843477083e-01	 4.0027043312e-01	 2.4217401360e+00
 9.6905520252e-01	 4.2247252560e-01	 2.5208917509e+00
 9.5912797291e-01	 4.4454983071e-01	 2.6149546434e+00
 1.0478730709e+00	 2.2343055084e-01	 1.7061374457e+00
 1.0427454103e+00	 2.4625432562e-01	 1.7857433561e+00
 1.0370840336e+00	 2.6910200822e-01	 1.8682384831e+00
 1.0308835254e+00	 2.9195605955e-01	 1.9525374114e+00
 1.0241391923e+00	 3.1479850469e-01	 2.0375722398e+00
 1.0168470968e+00	 3.3761096764e-01	 2.1223006481e+00
 1.0090040897e+00	 3.6037470877e-01	 2.2057142226e+00
 1.0006078399e+00	 3.8307066509e-01	 2.2868469763e+00
 9.9165686233e-01	 4.0567949303e-01	 2.3647839951e+00
 9.8215054309e-01	 4.2818161378e-01	 2.4386701332e+00
 9.7208916174e-01	 4.5055726085e-01	 2.5077186822e+00
 1.0618447118e+00	 2.2640962485e-01	 1.8237070907e+00
 1.0566486825e+00	 2.4953771662e-01	 1.8853874780e+00
 1.0509118208e+00	 2.7269003500e-01	 1.9485525870e+00
 1.0446286391e+00	 2.9584880701e-01	 2.0123296627e+00
 1.0377943815e+00	 3.1899581809e-01	 2.0758640985e+00
 1.0304050581e+00	 3.4211244721e-01	 2.1383261340e+00
 1.0224574775e+00	 3.6517970489e-01	 2.1989177653e+00
 1.0139492777e+00	 3.8817827396e-01	 2.2568798140e+00
 1.0048789538e+00	 4.1108855294e-01	 2.3114990968e+00
 9.9524588366e-01	 4.3389070197e-01	 2.3621156346e+00
 9.8505035056e-01	 4.5656469100e-01	 2.4081298341e+00
 1.0758163527e+00	 2.2938869886e-01	 1.9285621968e+00
 1.0705519546e+00	 2.5282110763e-01	 1.9738008415e+00
 1.0647396079e+00	 2.7627806178e-01	 2.0192426871e+00
 1.0583737528e+00	 2.9974155447e-01	 2.0642110761e+00
 1.0514495707e+00	 3.2319313148e-01	 2.1080479134e+00
 1.0439630193e+00	 3.4661392678e-01	 2.1501190963e+00
 1.0359108654e+00	 3.6998470101e-01	 2.1898201144e+00
 1.0272907156e+00	 3.9328588283e-01	 2.2265817757e+00
 1.0181010453e+00	 4.1649761285e-01	 2.2598760131e+00
 1.0083412242e+00	 4.3959979015e-01	 2.2892217181e+00
 9.9801153938e-01	 4.6257212114e-01	 2.3141905524e+00
 1.0897879937e+00	 2.3236777287e-01	 2.0189144175e+00
 1.0844552268e+00	 2.5610449864e-01	 2.0491721843e+00
 1.0785673950e+00	 2.7986608855e-01	 2.0784757974e+00
 1.0721188664e+00	 3.0363430193e-01	 2.1063287208e+00
 1.0651047599e+00	 3.2739044488e-01	 2.1322531763e+00
 1.0575209806e+00	 3.5111540635e-01	 2.1557944037e+00
 1.0493642532e+00	 3.7478969713e-01	 2.1765250529e+00
 1.0406321535e+00	 3.9839349169e-01	 2.1940496737e+00
 1.0313231368e+00	 4.2190667275e-01	 2.2080092662e+00
 1.0214365648e+00	 4.4530887834e-01	 2.2180858522e+00
 1.0109727282e+00	 4.6857955129e-01	 2.2240070263e+00
 1.1037596346e+00	 2.3534684688e-01	 2.0930650122e+00
 1.0983584989e+00	 2.5938788965e-01	 2.1097812862e+00
 1.0923951821e+00	 2.8345411533e-01	 2.1245113439e+00
 1.0858639801e+00	 3.0752704939e-01	 2.1369233506e+00
 1.0787599492e+00	 3.3158775827e-01	 2.1467042080e+00
 1.0710789419e+00	 3.5561688591e-01	 2.1535627395e+00
 1.0628176411e+00	 3.7959469324e-01	 2.1572329753e+00
 1.0539735913e+00	 4.0350110056e-01	 2.1574775085e+00
 1.0445452283e+00	 4.2731573266e-01	 2.1540908963e+00
 1.0345319054e+00	 4.5101796652e-01	 2.1469030762e+00
 1.0239339170e+00	 4.7458698143e-01	 2.1357827649e+00
 1.1177312756e+00	 2.3832592089e-01	 2.1493993534e+00
 1.1122617710e+00	 2.6267128066e-01	 2.1539933936e+00
 1.1062229692e+00	 2.8704214211e-01	 2.1556955096e+00
 1.0996090938e+00	 3.1141979685e-01	 2.1543236751e+00
 1.0924151384e+00	 3.3578507167e-01	 2.1497143623e+00
 1.0846369032e+00	 3.6011836548e-01	 2.1417247479e+00
 1.0762710290e+00	 3.8439968936e-01	 2.1302349863e+00
 1.0673150292e+00	 4.0860870943e-01	 2.1151505349e+00
 1.0577673198e+00	 4.3272479257e-01	 2.0964045084e+00
 1.0476272460e+00	 4.5672705470e-01	 2.0739600444e+00
 1.0368951059e+00	 4.8059441158e-01	 2.0478126582e+00
 9.0728321762e-01	 4.2052011013e-01	 3.1643564528e+00
 8.9737565000e-01	 4.4126742775e-01	 3.3690818173e+00
 8.8695311730e-01	 4.6185946749e-01	 3.5611867069e+00
 8.7601847835e-01	 4.8227754001e-01	 3.7373742796e+00
 8.6457547924e-01	 5.0250297581e-01	 3.8944833423e+00
 8.5262875837e-01	 5.2251717713e-01	 4.0295175691e+00
 8.4018384779e-01	 5.4230167058e-01	 4.1396743540e+00
 8.2724717082e-01	 5.6183816029e-01	 4.2223730074e+00
 8.1382603605e-01	 5.8110858111e-01	 4.2752820008e+00
 7.9992862736e-01	 6.0009515172e-01	 4.2963449653e+00
 7.8556399032e-01	 6.1878042723e-01	 4.2838051576e+00
 9.2024440644e-01	 4.2652754027e-01	 3.0042265178e+00
 9.1019530214e-01	 4.4757124815e-01	 3.1766382677e+00
 8.9962387612e-01	 4.6845745988e-01	 3.3372271795e+00
 8.8853302804e-01	 4.8916721915e-01	 3.4831511878e+00
 8.7692655751e-01	 5.0968158975e-01	 3.6116899037e+00
 8.6480916921e-01	 5.2998170823e-01	 3.7202705129e+00
 8.5218647418e-01	 5.5004883731e-01	 3.8064933611e+00
 8.3906498755e-01	 5.6986441973e-01	 3.8681569656e+00
 8.2545212228e-01	 5.8941013227e-01	 3.9032821913e+00
 8.1135617918e-01	 6.0866793961e-01	 3.9101353272e+00
 7.9678633303e-01	 6.2762014762e-01	 3.8872498076e+00
 9.3320559527e-01	 4.3253497042e-01	 2.8609189841e+00
 9.2301495428e-01	 4.5387506855e-01	 3.0029062078e+00
 9.1229463494e-01	 4.7505545227e-01	 3.1337980637e+00
 9.0104757773e-01	 4.9605689830e-01	 3.2511734593e+00
 8.8927763579e-01	 5.1686020369e-01	 3.3527198473e+00
 8.7698958004e-01	 5.3744623933e-01	 3.4362560349e+00
 8.6418910058e-01	 5.5779600403e-01	 3.4997547289e+00
 8.5088280428e-01	 5.7789067916e-01	 3.5413645875e+00
 8.3707820851e-01	 5.9771168343e-01	 3.5594315445e+00
 8.2278373100e-01	 6.1724072749e-01	 3.5525191739e+00
 8.0800867575e-01	 6.3645986801e-01	 3.5194278645e+00
 9.4616678409e-01	 4.3854240056e-01	 2.7319459403e+00
 9.3583460642e-01	 4.6017888894e-01	 2.8454157350e+00
 9.2496539376e-01	 4.8165344467e-01	 2.9484557159e+00
 9.1356212742e-01	 5.0294657744e-01	 3.0390332833e+00
 9.0162871406e-01	 5.2403881763e-01	 3.1152120665e+00
 8.8916999087e-01	 5.4491077043e-01	 3.1751718665e+00
 8.7619172698e-01	 5.6554317075e-01	 3.2172283840e+00
 8.6270062100e-01	 5.8591693859e-01	 3.2398525279e+00
 8.4870429474e-01	 6.0601323459e-01	 3.2416891002e+00
 8.3421128282e-01	 6.2581351537e-01	 3.2215746510e+00
 8.1923101847e-01	 6.4529958839e-01	 3.1785543000e+00
 9.5912797291e-01	 4.4454983071e-01	 2.6149546434e+00
 9.4865425857e-01	 4.6648270934e-01	 2.7018313265e+00
 9.3763615258e-01	 4.8825143706e-01	 2.7788896271e+00
 9.2607667711e-01	 5.0983625658e-01	 2.8444542110e+00
 9.1397979234e-01	 5.3121743157e-01	 2.8969344448e+00
 9.0135040171e-01	 5.5237530154e-01	 2.9348416909e+00
 8.8819435337e-01	 5.7329033747e-01	 2.9568064331e+00
 8.7451843773e-01	 5.9394319803e-01	 2.9615950536e+00
 8.6033038097e-01	 6.1431478575e-01	 2.9481260840e+00
 8.4563883464e-01	 6.3438630325e-01	 2.9154857479e+00
 8.3045336119e-01	 6.5413930878e-01	 2.8629426171e+00
 9.7208916174e-01	 4.5055726085e-01	 2.5077186822e+00
 9.6147391071e-01	 4.7278652973e-01	 2.5699430568e+00
 9.5030691140e-01	 4.9484942945e-01	 2.6229137255e+00
 9.3859122680e-01	 5.1672593572e-01	 2.6652825769e+00
 9.2633087061e-01	 5.3839604551e-01	 2.6957754368e+00
 9.1353081254e-01	 5.5983983264e-01	 2.7132069277e+00
 9.0019697977e-01	 5.8103750420e-01	 2.7164952003e+00
 8.8633625445e-01	 6.0196945746e-01	 2.7046763859e+00
 8.7195646720e-01	 6.2261633691e-01	 2.6769186121e+00
 8.5706638646e-01	 6.4295909113e-01	 2.6325354262e+00
 8.4167570391e-01	 6.6297902917e-01	 2.5709984678e+00
 9.8505035056e-01	 4.5656469100e-01	 2.4081298341e+00
 9.7429356285e-01	 4.7909035013e-01	 2.4476585049e+00
 9.6297767021e-01	 5.0144742184e-01	 2.4784583608e+00
 9.5110577649e-01	 5.2361561487e-01	 2.4994795930e+00
 9.3868194889e-01	 5.4557465945e-01	 2.5097363088e+00
 9.2571122338e-01	 5.6730436374e-01	 2.5083191602e+00
 9.1219960617e-01	 5.8878467092e-01	 2.4944078864e+00
 8.9815407118e-01	 6.0999571689e-01	 2.4672836404e+00
 8.8358255343e-01	 6.3091788807e-01	 2.4263409653e+00
 8.6849393828e-01	 6.5153187901e-01	 2.3710992839e+00
 8.5289804663e-01	 6.7181874956e-01	 2.3012137661e+00
 9.9801153938e-01	 4.6257212114e-01	 2.3141905524e+00
 9.8711321499e-01	 4.8539417053e-01	 2.3329952869e+00
 9.7564842903e-01	 5.0804541424e-01	 2.3435629080e+00
 9.6362032618e-01	 5.3050529401e-01	 2.3451140540e+00
 9.5103302716e-01	 5.5275327339e-01	 2.3369239782e+00
 9.3789163421e-01	 5.7476889484e-01	 2.3183331475e+00
 9.2420223257e-01	 5.9653183764e-01	 2.2887577942e+00
 9.0997188791e-01	 6.1802197632e-01	 2.2477003119e+00
 8.9520863966e-01	 6.3921943923e-01	 2.1947593809e+00
 8.7992149010e-01	 6.6010466690e-01	 2.1296397066e+00
 8.6412038935e-01	 6.8065846995e-01	 2.0521612543e+00
 1.0109727282e+00	 4.6857955129e-01	 2.2240070263e+00
 9.9993286714e-01	 4.9169799092e-01	 2.2240741581e+00
 9.8831918785e-01	 5.1464340663e-01	 2.2163689356e+00
 9.7613487587e-01	 5.3739497315e-01	 2.2003555977e+00
 9.6338410544e-01	 5.5993188733e-01	 2.1755443980e+00
 9.5007204504e-01	 5.8223342594e-01	 2.1415003676e+00
 9.3620485896e-01	 6.0427900437e-01	 2.0978520694e+00
 9.2178970463e-01	 6.2604823576e-01	 2.0443002535e+00
 9.0683472589e-01	 6.4752099039e-01	 1.9806263157e+00
 8.9134904192e-01	 6.6867745478e-01	 1.9067004623e+00
 8.7534273207e-01	 6.8949819034e-01	 1.8224894802e+00
 1.0239339170e+00	 4.7458698143e-01	 2.1357827649e+00
 1.0127525193e+00	 4.9800181132e-01	 2.1191126357e+00
 1.0009899467e+00	 5.2124139902e-01	 2.0951138875e+00
 9.8864942556e-01	 5.4428465230e-01	 2.0634684729e+00
 9.7573518371e-01	 5.6711050127e-01	 2.0238964392e+00
 9.6225245588e-01	 5.8969795705e-01	 1.9761630460e+00
 9.4820748536e-01	 6.1202617109e-01	 1.9200859106e+00
 9.3360752136e-01	 6.3407449519e-01	 1.8555421071e+00
 9.1846081211e-01	 6.5582254154e-01	 1.7824751384e+00
 9.0277659374e-01	 6.7725024266e-01	 1.7009016998e+00
 8.8656507478e-01	 6.9833791073e-01	 1.6109181488e+00
 1.0368951059e+00	 4.8059441158e-01	 2.0478126582e+00
 1.0255721714e+00	 5.0430563172e-01	 2.0164190942e+00
 1.0136607055e+00	 5.2783939141e-01	 1.9781252343e+00
 1.0011639753e+00	 5.5117433144e-01	 1.9328057690e+00
 9.8808626199e-01	 5.7428911521e-01	 1.8803662257e+00
 9.7443286671e-01	 5.9716248815e-01	 1.8207486261e+00
 9.6021011176e-01	 6.1977333781e-01	 1.7539372077e+00
 9.4542533809e-01	 6.4210075462e-01	 1.6799641456e+00
 9.3008689834e-01	 6.6412409270e-01	 1.5989152138e+00
 9.1420414556e-01	 6.8582303054e-01	 1.5109353164e+00
 8.9778741750e-01	 7.0717763112e-01	 1.4162338167e+00
 7.8556399032e-01	 6.1878042723e-01	 4.2838051576e+00
 7.7074201465e-01	 6.3714735097e-01	 4.2382942071e+00
 7.5547341314e-01	 6.5517930525e-01	 4.1611147909e+00
 7.3976969678e-01	 6.7286016060e-01	 4.0518711202e+00
 7.2364314644e-01	 6.9017432335e-01	 3.9103308042e+00
 7.0710678119e-01	 7.0710678119e-01	 3.7364351019e+00
 6.9017432335e-01	 7.2364314644e-01	 3.5303080074e+00
 6.7286016060e-01	 7.3976969678e-01	 3.2922640481e+00
 6.5517930525e-01	 7.5547341314e-01	 3.0228146860e+00
 6.3714735097e-01	 7.7074201465e-01	 2.7226732289e+00
 6.1878042723e-01	 7.8556399032e-01	 2.3927581788e+00
 7.9678633303e-01	 6.2762014762e-01	 3.8872498076e+00
 7.8175261486e-01	 6.4624945599e-01	 3.8349088257e+00
 7.6626589047e-01	 6.6453900961e-01	 3.7540127662e+00
 7.5033783531e-01	 6.8247244861e-01	 3.6443371082e+00
 7.3398090568e-01	 7.0003395654e-01	 3.5058032114e+00
 7.1720830663e-01	 7.1720830663e-01	 3.3384871319e+00
 7.0003395654e-01	 7.3398090568e-01	 3.1426273979e+00
 6.8247244861e-01	 7.5033783531e-01	 2.9186316371e+00
 6.6453900961e-01	 7.6626589047e-01	 2.6670819566e+00
 6.4624945599e-01	 7.8175261486e-01	 2.3887389914e+00
 6.2762014762e-01	 7.9678633303e-01	 2.0845445561e+00
 8.0800867575e-01	 6.3645986801e-01	 3.5194278645e+00
 7.9276321507e-01	 6.5535156100e-01	 3.4601425821e+00
 7.7705836781e-01	 6.7389871398e-01	 3.3752149039e+00
 7.6090597383e-01	 6.9208473662e-01	 3.2645756793e+00
 7.4431866491e-01	 7.0989358973e-01	 3.1282851346e+00
 7.2730983208e-01	 7.2730983208e-01	 2.9665403726e+00
 7.0989358973e-01	 7.4431866491e-01	 2.7796819524e+00
 6.9208473662e-01	 7.6090597383e-01	 2.5681994500e+00
 6.7389871398e-01	 7.7705836781e-01	 2.3327359121e+00
 6.5535156100e-01	 7.9276321507e-01	 2.0740911277e+00
 6.3645986801e-01	 8.0800867575e-01	 1.7932236562e+00
 8.1923101847e-01	 6.4529958839e-01	 3.1785543000e+00
 8.0377381528e-01	 6.6445366601e-01	 3.1123595078e+00
 7.8785084514e-01	 6.8325841834e-01	 3.0232409224e+00
 7.7147411236e-01	 7.0169702463e-01	 2.9112696143e+00
 7.5465642415e-01	 7.1975322292e-01	 2.7766305151e+00
 7.3741135752e-01	 7.3741135752e-01	 2.6196287183e+00
 7.1975322292e-01	 7.5465642415e-01	 2.4406949713e+00
 7.0169702463e-01	 7.7147411236e-01	 2.2403902722e+00
 6.8325841834e-01	 7.8785084514e-01	 2.0194094903e+00
 6.6445366601e-01	 8.0377381528e-01	 1.7785839428e+00
 6.4529958839e-01	 8.1923101847e-01	 1.5188828713e+00
 8.3045336119e-01	 6.5413930878e-01	 2.8629426171e+00
 8.1478441549e-01	 6.7355577103e-01	 2.7900141799e+00
 7.9864332247e-01	 6.9261812270e-01	 2.6966927277e+00
 7.8204225088e-01	 7.1130931263e-01	 2.5831751110e+00
 7.6499418338e-01	 7.2961285611e-01	 2.4497574890e+00
 7.4751288297e-01	 7.4751288297e-01	 2.2968405442e+00
 7.2961285611e-01	 7.6499418338e-01	 2.1249339950e+00
 7.1130931263e-01	 7.8204225088e-01	 1.9346603269e+00
 6.9261812270e-01	 7.9864332247e-01	 1.7267576698e+00
 6.7355577103e-01	 8.1478441549e-01	 1.5020817602e+00
 6.5413930878e-01	 8.3045336119e-01	 1.2616069372e+00
 8.4167570391e-01	 6.6297902917e-01	 2.5709984678e+00
 8.2579501570e-01	 6.8265787604e-01	 2.4916458712e+00
 8.0943579980e-01	 7.0197782706e-01	 2.3942491224e+00
 7.9261038941e-01	 7.2092160064e-01	 2.2791170797e+00
 7.7533194262e-01	 7.3947248930e-01	 2.1466442978e+00
 7.5761440841e-01	 7.5761440841e-01	 1.9973152668e+00
 7.3947248930e-01	 7.7533194262e-01	 1.8317080491e+00
 7.2092160064e-01	 7.9261038941e-01	 1.6504972414e+00
 7.0197782706e-01	 8.0943579980e-01	 1.4544561973e+00
 6.8265787604e-01	 8.2579501570e-01	 1.2444584532e+00
 6.6297902917e-01	 8.4167570391e-01	 1.0214783108e+00
 8.5289804663e-01	 6.7181874956e-01	 2.3012137661e+00
 8.3680561591e-01	 6.9175998106e-01	 2.2158731554e+00
 8.2022827713e-01	 7.1133753142e-01	 2.1146609248e+00
 8.0317852793e-01	 7.3053388865e-01	 1.9979848018e+00
 7.8566970185e-01	 7.4933212249e-01	 1.8663255156e+00
 7.6771593386e-01	 7.6771593386e-01	 1.7202401689e+00
 7.4933212249e-01	 7.8566970185e-01	 1.5603650995e+00
 7.3053388865e-01	 8.0317852793e-01	 1.3874181679e+00
 7.1133753142e-01	 8.2022827713e-01	 1.2022004106e+00
 6.9175998106e-01	 8.3680561591e-01	 1.0055970065e+00
 6.7181874956e-01	 8.5289804663e-01	 7.9857751190e-01
 8.6412038935e-01	 6.8065846995e-01	 2.0521612543e+00
 8.4781621612e-01	 7.0086208607e-01	 1.9613889259e+00
 8.3102075446e-01	 7.2069723578e-01	 1.8567464618e+00
 8.1374666646e-01	 7.4014617666e-01	 1.7387279201e+00
 7.9600746109e-01	 7.5919175568e-01	 1.6078885629e+00
 7.7781745931e-01	 7.7781745931e-01	 1.4648474646e+00
 7.5919175568e-01	 7.9600746109e-01	 1.3102896989e+00
 7.4014617666e-01	 8.1374666646e-01	 1.1449680428e+00
 7.2069723578e-01	 8.3102075446e-01	 9.6970414480e-01
 7.0086208607e-01	 8.4781621612e-01	 7.8538910587e-01
 6.8065846995e-01	 8.6412038935e-01	 5.9298343222e-01
 8.7534273207e-01	 6.8949819034e-01	 1.8224894802e+00
 8.5882681633e-01	 7.0996419108e-01	 1.7269557907e+00
 8.4181323179e-01	 7.3005694014e-01	 1.6193874016e+00
 8.2431480499e-01	 7.4975846467e-01	 1.5003527316e+00
 8.0634522032e-01	 7.6905138887e-01	 1.3704704817e+00
 7.8791898475e-01	 7.8791898475e-01	 1.2304115837e+00
 7.6905138887e-01	 8.0634522032e-01	 1.0809008081e+00
 7.4975846467e-01	 8.2431480499e-01	 9.2271797479e-01
 7.3005694014e-01	 8.4181323179e-01	 7.5669871753e-01
 7.0996419108e-01	 8.5882681633e-01	 5.8373475296e-01
 6.8949819034e-01	 8.7534273207e-01	 4.0477361422e-01
 8.8656507478e-01	 6.9833791073e-01	 1.6109181488e+00
 8.6983741654e-01	 7.1906629610e-01	 1.5114018108e+00
 8.5260570912e-01	 7.3941664450e-01	 1.4015248962e+00
 8.3488294351e-01	 7.5937075268e-01	 1.2819187535e+00
 8.1668297956e-01	 7.7891102206e-01	 1.1532549490e+00
 7.9802051020e-01	 7.9802051020e-01	 1.0162466556e+00
 7.7891102206e-01	 8.1668297956e-01	 8.7164977586e-01
 7.5937075268e-01	 8.3488294351e-01	 7.2026374749e-01
 7.3941664450e-01	 8.5260570912e-01	 5.6293198398e-01
 7.1906629610e-01	 8.6983741654e-01	 4.0054190304e-01
 6.9833791073e-01	 8.8656507478e-01	 2.3402450288e-01
 8.9778741750e-01	 7.0717763112e-01	 1.4162338167e+00
 8.8084801674e-01	 7.2816840111e-01	 1.3136165511e+00
 8.6339818645e-01	 7.4877634886e-01	 1.2021560063e+00
 8.4545108204e-01	 7.6898304069e-01	 1.0825355412e+00
 8.2702073879e-01	 7.8877065525e-01	 9.5546950735e-01
 8.0812203564e-01	 8.0812203564e-01	 8.2170417487e-01
 7.8877065525e-01	 8.2702073879e-01	 6.8201846339e-01
 7.6898304069e-01	 8.4545108204e-01	 5.3722442857e-01
 7.4877634886e-01	 8.6339818645e-01	 3.8816745692e-01
 7.2816840111e-01	 8.8084801674e-01	 2.3572612369e-01
 7.0717763112e-01	 8.9778741750e-01	 8.0811672546e-02
 6.1878042723e-01	 7.8556399032e-01	 2.3927581788e+00
 6.0009515172e-01	 7.9992862736e-01	 2.0370982345e+00
 5.8110858111e-01	 8.1382603605e-01	 1.6613081042e+00
 5.6183816029e-01	 8.2724717082e-01	 1.2687527645e+00
 5.4230167058e-01	 8.4018384779e-01	 8.6266873895e-01
 5.2251717713e-01	 8.5262875837e-01	 4.4615060901e-01
 5.0250297581e-01	 8.6457547924e-01	 2.2138819405e-02
 4.8227754001e-01	 8.7601847835e-01	-4.0659115224e-01
 4.6185946749e-01	 8.8695311730e-01	-8.3743820286e-01
 4.4126742775e-01	 8.9737565000e-01	-1.2679835455e+00
 4.2052011013e-01	 9.0728321762e-01	-1.6959971554e+00
 6.2762014762e-01	 7.9678633303e-01	 2.0845445561e+00
 6.0866793961e-01	 8.1135617918e-01	 1.7576322738e+00
 5.8941013227e-01	 8.2545212228e-01	 1.4125341489e+00
 5.6986441973e-01	 8.3906498755e-01	 1.0523467678e+00
 5.5004883731e-01	 8.5218647418e-01	 6.8004995302e-01
 5.2998170823e-01	 8.6480916921e-01	 2.9849430797e-01
 5.0968158975e-01	 8.7692655751e-01	-8.9610078393e-02
 4.8916721915e-01	 8.8853302804e-01	-4.8170370085e-01
 4.6845745988e-01	 8.9962387612e-01	-8.7538642582e-01
 4.4757124815e-01	 9.1019530214e-01	-1.2684249553e+00
 4.2652754027e-01	 9.2024440644e-01	-1.6587589362e+00
 6.3645986801e-01	 8.0800867575e-01	 1.7932236562e+00
 6.1724072749e-01	 8.2278373100e-01	 1.4924706314e+00
 5.9771168343e-01	 8.3707820851e-01	 1.1753945604e+00
 5.7789067916e-01	 8.5088280428e-01	 8.4483968352e-01
 5.5779600403e-01	 8.6418910058e-01	 5.0354436711e-01
 5.3744623933e-01	 8.7698958004e-01	 1.5412962187e-01
 5.1686020369e-01	 8.8927763579e-01	-2.0091134577e-01
 4.9605689830e-01	 9.0104757773e-01	-5.5922248753e-01
 4.7505545227e-01	 9.1229463494e-01	-9.1859311970e-01
 4.5387506855e-01	 9.2301495428e-01	-1.2769649403e+00
 4.3253497042e-01	 9.3320559527e-01	-1.6324378250e+00
 6.4529958839e-01	 8.1923101847e-01	 1.5188828713e+00
 6.2581351537e-01	 8.3421128282e-01	 1.2419374706e+00
 6.0601323459e-01	 8.4870429474e-01	 9.5044534220e-01
 5.8591693859e-01	 8.6270062100e-01	 6.4701405599e-01
 5.6554317075e-01	 8.7619172698e-01	 3.3415543400e-01
 5.4491077043e-01	 8.8916999087e-01	 1.4274984203e-02
 5.2403881763e-01	 9.0162871406e-01	-3.1033775315e-01
 5.0294657744e-01	 9.1356212742e-01	-6.3751788876e-01
 4.8165344467e-01	 9.2496539376e-01	-9.6523284704e-01
 4.6017888894e-01	 9.3583460642e-01	-1.2915889670e+00
 4.3854240056e-01	 9.4616678409e-01	-1.6148370083e+00
 6.5413930878e-01	 8.3045336119e-01	 1.2616069372e+00
 6.3438630325e-01	 8.4563883464e-01	 1.0063414039e+00
 6.1431478575e-01	 8.6033038097e-01	 7.3821429882e-01
 5.9394319803e-01	 8.7451843773e-01	 4.5961184761e-01
 5.7329033747e-01	 8.8819435337e-01	 1.7283392503e-01
 5.5237530154e-01	 9.0135040171e-01	-1.1991565299e-01
 5.3121743157e-01	 9.1397979234e-01	-4.1653803871e-01
 5.0983625658e-01	 9.2607667711e-01	-7.1504740913e-01
 4.8825143706e-01	 9.3763615258e-01	-1.0135781223e+00
 4.6648270934e-01	 9.4865425857e-01	-1.3103909323e+00
 4.4454983071e-01	 9.5912797291e-01	-1.6038782293e+00
 6.6297902917e-01	 8.4167570391e-01	 1.0214783108e+00
 6.4295909113e-01	 8.5706638646e-01	 7.8597673158e-01
 6.2261633691e-01	 8.7195646720e-01	 5.3920311851e-01
 6.0196945746e-01	 8.8633625445e-01	 2.8333734804e-01
 5.8103750420e-01	 9.0019697977e-01	 2.0481646322e-02
 5.5983983264e-01	 9.1353081254e-01	-2.4734831650e-01
 5.3839604551e-01	 9.2633087061e-01	-5.1823164091e-01
 5.1672593572e-01	 9.3859122680e-01	-7.9034967128e-01
 4.9484942945e-01	 9.5030691140e-01	-1.0619926824e+00
 4.7278652973e-01	 9.6147391071e-01	-1.3315657388e+00
 4.5055726085e-01	 9.7208916174e-01	-1.5975936920e+00
 6.7181874956e-01	 8.5289804663e-01	 7.9857751190e-01
 6.5153187901e-01	 8.6849393828e-01	 5.8112457691e-01
 6.3091788807e-01	 8.8358255343e-01	 3.5388928624e-01
 6.0999571689e-01	 8.9815407118e-01	 1.1885984828e-01
 5.8878467092e-01	 9.1219960617e-01	-1.2204514372e-01
 5.6730436374e-01	 9.2571122338e-01	-3.6698486971e-01
 5.4557465945e-01	 9.3868194889e-01	-6.1420385137e-01
 5.2361561487e-01	 9.5110577649e-01	-8.6203888454e-01
 5.0144742184e-01	 9.6297767021e-01	-1.1089252923e+00
 4.7909035013e-01	 9.7429356285e-01	-1.3534024586e+00
 4.5656469100e-01	 9.8505035056e-01	-1.5941186068e+00
 6.8065846995e-01	 8.6412038935e-01	 5.9298343222e-01
 6.6010466690e-01	 8.7992149010e-01	 3.9205392643e-01
 6.3921943923e-01	 8.9520863966e-01	 1.8272784168e-01
 6.1802197632e-01	 9.0997188791e-01	-3.3183899035e-02
 5.9653183764e-01	 9.2420223257e-01	-2.5393258828e-01
 5.7476889484e-01	 9.3789163421e-01	-4.7783919811e-01
 5.5275327339e-01	 9.5103302716e-01	-7.0330135013e-01
 5.3050529401e-01	 9.6362032618e-01	-9.2879974894e-01
 5.0804541424e-01	 9.7564842903e-01	-1.1529040376e+00
 4.8539417053e-01	 9.8711321499e-01	-1.3742780352e+00
 4.6257212114e-01	 9.9801153938e-01	-1.5916843207e+00
 6.8949819034e-01	 8.7534273207e-01	 4.0477361422e-01
 6.6867745478e-01	 8.9134904192e-01	 2.1902258461e-01
 6.4752099039e-01	 9.0683472589e-01	 2.6152996281e-02
 6.2604823576e-01	 9.2178970463e-01	-1.7218741413e-01
 6.0427900437e-01	 9.3620485896e-01	-3.7440633327e-01
 5.8223342594e-01	 9.5007204504e-01	-5.7897369299e-01
 5.5993188733e-01	 9.6338410544e-01	-7.8442808882e-01
 5.3739497315e-01	 9.7613487587e-01	-9.8938275538e-01
 5.1464340663e-01	 9.8831918785e-01	-1.1925310595e+00
 4.9169799092e-01	 9.9993286714e-01	-1.3926514721e+00
 4.6857955129e-01	 1.0109727282e+00	-1.5886119794e+00
 6.9833791073e-01	 8.8656507478e-01	 2.3402450288e-01
 6.7725024266e-01	 9.0277659374e-01	 6.2278050032e-02
 6.5582254154e-01	 9.1846081211e-01	-1.1542037797e-01
 6.3407449519e-01	 9.3360752136e-01	-2.9757240189e-01
 6.1202617109e-01	 9.4820748536e-01	-4.8272885356e-01
 5.8969795705e-01	 9.6225245588e-01	-6.6949600700e-01
 5.6711050127e-01	 9.7573518371e-01	-8.5654149098e-01
 5.4428465230e-01	 9.8864942556e-01	-1.0425998469e+00
 5.2124139902e-01	 1.0009899467e+00	-1.2264776944e+00
 4.9800181132e-01	 1.0127525193e+00	-1.4070584664e+00
 4.7458698143e-01	 1.0239339170e+00	-1.5833066731e+00
 7.0717763112e-01	 8.9778741750e-01	 8.0811672546e-02
 6.8582303054e-01	 9.1420414556e-01	-7.7941679899e-02
 6.6412409270e-01	 9.3008689834e-01	-2.4159537712e-01
 6.4210075462e-01	 9.4542533809e-01	-4.0878682558e-01
 6.1977333781e-01	 9.6021011176e-01	-5.7819698484e-01
 5.9716248815e-01	 9.7443286671e-01	-7.4855605772e-01
 5.7428911521e-01	 9.8808626199e-01	-9.1864894179e-01
 5.5117433144e-01	 1.0011639753e+00	-1.0873204094e+00
 5.2783939141e-01	 1.0136607055e+00	-1.2534799805e+00
 5.0430563172e-01	 1.0255721714e+00	-1.4161064494e+00
 4.8059441158e-01	 1.0368951059e+00	-1.5742520258e+00
 4.2052011013e-01	 9.0728321762e-01	-1.6959971554e+00
 3.9963617286e-01	 9.1667384022e-01	-2.1185043610e+00
 3.7863419350e-01	 9.2554640484e-01	-2.5315962992e+00
 3.5753262075e-01	 9.3390065055e-01	-2.9320588372e+00
 3.3634972819e-01	 9.4173715035e-01	-3.3170466800e+00
 3.1510356980e-01	 9.4905729032e-01	-3.6840877727e+00
 2.9381193771e-01	 9.5586324611e-01	-4.0310847748e+00
 2.7249232225e-01	 9.6215795705e-01	-4.3563137003e+00
 2.5116187434e-01	 9.6794509807e-01	-4.6584198408e+00
 2.2983737058e-01	 9.7322904965e-01	-4.9364111142e+00
 2.0853518078e-01	 9.7801486613e-01	-5.1896490025e+00
 4.2652754027e-01	 9.2024440644e-01	-1.6587589362e+00
 4.0534526105e-01	 9.2976918079e-01	-2.0439896387e+00
 3.8404325340e-01	 9.3876849634e-01	-2.4208940014e+00
 3.6264022962e-01	 9.4724208842e-01	-2.7865538214e+00
 3.4115472431e-01	 9.5519053821e-01	-3.1383840327e+00
 3.1960504937e-01	 9.6261525161e-01	-3.4741369408e+00
 2.9800925111e-01	 9.6951843534e-01	-3.7919038002e+00
 2.7638506971e-01	 9.7590307072e-01	-4.0901138102e+00
 2.5474990112e-01	 9.8177288518e-01	-4.3675306340e+00
 2.3312076158e-01	 9.8713232179e-01	-4.6232465628e+00
 2.1151425479e-01	 9.9198650708e-01	-4.8566744690e+00
 4.3253497042e-01	 9.3320559527e-01	-1.6324378250e+00
 4.1105434923e-01	 9.4286452137e-01	-1.9831290344e+00
 3.8945231331e-01	 9.5199058784e-01	-2.3264327994e+00
 3.6774783849e-01	 9.6058352628e-01	-2.6597073608e+00
 3.4595972042e-01	 9.6864392607e-01	-2.9806110785e+00
 3.2410652893e-01	 9.7617321290e-01	-3.2871065129e+00
 3.0220656450e-01	 9.8317362457e-01	-3.5774620992e+00
 2.8027781717e-01	 9.8964818440e-01	-3.8502514773e+00
 2.5833792790e-01	 9.9560067230e-01	-4.1043505651e+00
 2.3640415259e-01	 1.0010355939e+00	-4.3389324807e+00
 2.1449332880e-01	 1.0059581480e+00	-4.5534604386e+00
 4.3854240056e-01	 9.4616678409e-01	-1.6148370083e+00
 4.1676343742e-01	 9.5595986194e-01	-1.9335552850e+00
 3.9486137322e-01	 9.6521267934e-01	-2.2456921754e+00
 3.7285544735e-01	 9.7392496415e-01	-2.5488634016e+00
 3.5076471654e-01	 9.8209731393e-01	-2.8409543818e+00
 3.2860800850e-01	 9.8973117419e-01	-3.1201241732e+00
 3.0640387790e-01	 9.9682881380e-01	-3.3848072390e+00
 2.8417056463e-01	 1.0033932981e+00	-3.6337130908e+00
 2.6192595467e-01	 1.0094284594e+00	-3.8658238768e+00
 2.3968754360e-01	 1.0149388661e+00	-4.0803900086e+00
 2.1747240281e-01	 1.0199297890e+00	-4.2769239309e+00
 4.4454983071e-01	 9.5912797291e-01	-1.6038782293e+00
 4.2247252560e-01	 9.6905520252e-01	-1.8930291865e+00
 4.0027043312e-01	 9.7843477083e-01	-2.1762882552e+00
 3.7796305622e-01	 9.8726640201e-01	-2.4515101705e+00
 3.5556971266e-01	 9.9555070180e-01	-2.7167914507e+00
 3.3310948807e-01	 1.0032891355e+00	-2.9704742176e+00
 3.1060119130e-01	 1.0104840030e+00	-3.2111480534e+00
 2.8806331209e-01	 1.0171384117e+00	-3.4376499350e+00
 2.6551398145e-01	 1.0232562465e+00	-3.6490623021e+00
 2.4297093461e-01	 1.0288421382e+00	-3.8447093350e+00
 2.2045147683e-01	 1.0339014299e+00	-4.0241515324e+00
 4.5055726085e-01	 9.7208916174e-01	-1.5975936920e+00
 4.2818161378e-01	 9.8215054309e-01	-1.8594308678e+00
 4.0567949303e-01	 9.9165686233e-01	-2.1159645157e+00
 3.8307066509e-01	 1.0006078399e+00	-2.3652703794e+00
 3.6037470877e-01	 1.0090040897e+00	-2.6056405045e+00
 3.3761096764e-01	 1.0168470968e+00	-2.8355869506e+00
 3.1479850469e-01	 1.0241391923e+00	-3.0538437375e+00
 2.9195605955e-01	 1.0308835254e+00	-3.2593670525e+00
 2.6910200822e-01	 1.0370840336e+00	-3.4513337644e+00
 2.4625432562e-01	 1.0427454103e+00	-3.6291383024e+00
 2.2343055084e-01	 1.0478730709e+00	-3.7923879787e+00
 4.5656469100e-01	 9.8505035056e-01	-1.5941186068e+00
 4.3389070197e-01	 9.9524588366e-01	-1.8307517578e+00
 4.1108855294e-01	 1.0048789538e+00	-2.0625832286e+00
 3.8817827396e-01	 1.0139492777e+00	-2.2878922058e+00
 3.6517970489e-01	 1.0224574775e+00	-2.5051510508e+00
 3.4211244721e-01	 1.0304050581e+00	-2.7130289215e+00
 3.1899581809e-01	 1.0377943815e+00	-2.9103938060e+00
 2.9584880701e-01	 1.0446286391e+00	-3.0963129874e+00
 2.7269003500e-01	 1.0509118208e+00	-3.2700519701e+00
 2.4953771662e-01	 1.0566486825e+00	-3.4310719138e+00
 2.2640962485e-01	 1.0618447118e+00	-3.5790256389e+00
 4.6257212114e-01	 9.9801153938e-01	-1.5916843207e+00
 4.3959979015e-01	 1.0083412242e+00	-1.8050871805e+00
 4.1649761285e-01	 1.0181010453e+00	-2.0141175741e+00
 3.9328588283e-01	 1.0272907156e+00	-2.2172409780e+00
 3.6998470101e-01	 1.0359108654e+00	-2.4130951994e+00
 3.4661392678e-01	 1.0439630193e+00	-2.6004939232e+00
 3.2319313148e-01	 1.0514495707e+00	-2.7784288352e+00
 2.9974155447e-01	 1.0583737528e+00	-2.9460703291e+00
 2.7627806178e-01	 1.0647396079e+00	-3.1027668137e+00
 2.5282110763e-01	 1.0705519546e+00	-3.2480426581e+00
 2.2938869886e-01	 1.0758163527e+00	-3.3815948209e+00
 4.6857955129e-01	 1.0109727282e+00	-1.5886119794e+00
 4.4530887834e-01	 1.0214365648e+00	-1.7806295226e+00
 4.2190667275e-01	 1.0313231368e+00	-1.9686443627e+00
 3.9839349169e-01	 1.0406321535e+00	-2.1512915030e+00
 3.7478969713e-01	 1.0493642532e+00	-2.3273596460e+00
 3.5111540635e-01	 1.0575209806e+00	-2.4957946851e+00
 3.2739044488e-01	 1.0651047599e+00	-2.6557019190e+00
 3.0363430193e-01	 1.0721188664e+00	-2.8063469851e+00
 2.7986608855e-01	 1.0785673950e+00	-2.9471555217e+00
 2.5610449864e-01	 1.0844552268e+00	-3.0777115801e+00
 2.3236777287e-01	 1.0897879937e+00	-3.1977548222e+00
 4.7458698143e-01	 1.0239339170e+00	-1.5833066731e+00
 4.5101796652e-01	 1.0345319054e+00	-1.7556619236e+00
 4.2731573266e-01	 1.0445452283e+00	-1.9243373140e+00
 4.0350110056e-01	 1.0539735913e+00	-2.0881209783e+00
 3.7959469324e-01	 1.0628176411e+00	-2.2459382667e+00
 3.5561688591e-01	 1.0710789419e+00	-2.3968551993e+00
 3.3158775827e-01	 1.0787599492e+00	-2.5400807744e+00
 3.0752704939e-01	 1.0858639801e+00	-2.6749681176e+00
 2.8345411533e-01	 1.0923951821e+00	-2.8010144706e+00
 2.5938788965e-01	 1.0983584989e+00	-2.9178600303e+00
 2.3534684688e-01	 1.1037596346e+00	-3.0252856620e+00
 4.8059441158e-01	 1.0368951059e+00	-1.5742520258e+00
 4.5672705470e-01	 1.0476272460e+00	-1.7285524413e+00
 4.3272479257e-01	 1.0577673198e+00	-1.8794608405e+00
 4.0860870943e-01	 1.0673150292e+00	-2.0259024390e+00
 3.8439968936e-01	 1.0762710290e+00	-2.1669252707e+00
 3.6011836548e-01	 1.0846369032e+00	-2.3017036229e+00
 3.3578507167e-01	 1.0924151384e+00	-2.4295404418e+00
 3.1141979685e-01	 1.0996090938e+00	-2.5498686864e+00
 2.8704214211e-01	 1.1062229692e+00	-2.6622516193e+00
 2.6267128066e-01	 1.1122617710e+00	-2.7663820341e+00
 2.3832592089e-01	 1.1177312756e+00	-2.8620804333e+00
 2.0853518078e-01	 9.7801486613e-01	-5.1896490025e+00
 1.8727123840e-01	 9.8230824249e-01	-5.4187880368e+00
 1.6606101359e-01	 9.8611547993e-01	-5.6241693670e+00
 1.4491948902e-01	 9.8944345048e-01	-5.8051141230e+00
 1.2386113861e-01	 9.9229956079e-01	-5.9611660643e+00
 1.0289990885e-01	 9.9469171544e-01	-6.0920835815e+00
 8.2049202936e-02	 9.9662827990e-01	-6.1978305014e+00
 6.1321867598e-02	 9.9811804340e-01	-6.2785658388e+00
 4.0730182473e-02	 9.9917018182e-01	-6.3346326452e+00
 2.0285852044e-02	 9.9979422093e-01	-6.3665461034e+00
 0.0000000000e+00	 1.0000000000e+00	-6.3749810178e+00
 2.1151425479e-01	 9.9198650708e-01	-4.8566744690e+00
 1.8994654181e-01	 9.9634121738e-01	-5.0681284762e+00
 1.6843331378e-01	 1.0002028439e+00	-5.2576499459e+00
 1.4698976744e-01	 1.0035783569e+00	-5.4246407090e+00
 1.2563058345e-01	 1.0064752688e+00	-5.5687150783e+00
 1.0436990755e-01	 1.0089015971e+00	-5.6896918500e+00
 8.3221334406e-02	 1.0108658268e+00	-5.7875851598e+00
 6.2197894278e-02	 1.0123768726e+00	-5.8625943341e+00
 4.1312042223e-02	 1.0134440416e+00	-5.9150928832e+00
 2.0575649931e-02	 1.0140769955e+00	-5.9456167790e+00
 0.0000000000e+00	 1.0142857143e+00	-5.9548521674e+00
 2.1449332880e-01	 1.0059581480e+00	-4.5534604386e+00
 1.9262184522e-01	 1.0103741923e+00	-4.7479872592e+00
 1.7080561397e-01	 1.0142902079e+00	-4.9223246164e+00
 1.4906004585e-01	 1.0177132634e+00	-5.0759428487e+00
 1.2740002829e-01	 1.0206509768e+00	-5.2085153972e+00
 1.0583990624e-01	 1.0231114787e+00	-5.3199108613e+00
 8.4393465877e-02	 1.0251033736e+00	-5.4101839529e+00
 6.3073920958e-02	 1.0266357018e+00	-5.4795654857e+00
 4.1893901972e-02	 1.0277179013e+00	-5.5284515397e+00
 2.0865447817e-02	 1.0283597701e+00	-5.5573919442e+00
 0.0000000000e+00	 1.0285714286e+00	-5.5670782217e+00
 2.1747240281e-01	 1.0199297890e+00	-4.2769239309e+00
 1.9529714862e-01	 1.0244071672e+00	-4.4552876855e+00
 1.7317791417e-01	 1.0283775719e+00	-4.6151252104e+00
 1.5113032427e-01	 1.0318481698e+00	-4.7559636708e+00
 1.2916947313e-01	 1.0348266848e+00	-4.8775247000e+00
 1.0730990494e-01	 1.0373213604e+00	-4.9797165661e+00
 8.5565597347e-02	 1.0393409205e+00	-5.0626252700e+00
 6.3949947638e-02	 1.0408945310e+00	-5.1265047090e+00
 4.2475761722e-02	 1.0419917610e+00	-5.1717660422e+00
 2.1155245703e-02	 1.0426425447e+00	-5.1989663977e+00
 0.0000000000e+00	 1.0428571429e+00	-5.2087970605e+00
 2.2045147683e-01	 1.0339014299e+00	-4.0241515324e+00
 1.9797245203e-01	 1.0384401421e+00	-4.1871225622e+00
 1.7555021436e-01	 1.0424649359e+00	-4.3331528678e+00
 1.5320060268e-01	 1.0459830762e+00	-4.4618152395e+00
 1.3093891796e-01	 1.0490023928e+00	-4.5728690279e+00
 1.0877990364e-01	 1.0515312420e+00	-4.6662524745e+00
 8.6737728818e-02	 1.0535784673e+00	-4.7420739996e+00
 6.4825974318e-02	 1.0551533602e+00	-4.8006025770e+00
 4.3057621472e-02	 1.0562656208e+00	-4.8422573282e+00
 2.1445043590e-02	 1.0569253193e+00	-4.8675964737e+00
 0.0000000000e+00	 1.0571428571e+00	-4.8773057759e+00
 2.2343055084e-01	 1.0478730709e+00	-3.7923879787e+00
 2.0064775543e-01	 1.0524731170e+00	-3.9407428022e+00
 1.7792251456e-01	 1.0565522999e+00	-4.0736666585e+00
 1.5527088110e-01	 1.0601179827e+00	-4.1907672140e+00
 1.3270836280e-01	 1.0631781008e+00	-4.2918314938e+00
 1.1024990234e-01	 1.0657411237e+00	-4.3768184303e+00
 8.7909860288e-02	 1.0678160142e+00	-4.4458503866e+00
 6.5702000998e-02	 1.0694121894e+00	-4.4992037782e+00
 4.3639481221e-02	 1.0705394805e+00	-4.5372989244e+00
 2.1734841476e-02	 1.0712080939e+00	-4.5606892625e+00
 0.0000000000e+00	 1.0714285714e+00	-4.5700500578e+00
 2.2640962485e-01	 1.0618447118e+00	-3.5790256389e+00
 2.0332305884e-01	 1.0665060918e+00	-3.7135469216e+00
 1.8029481475e-01	 1.0706396639e+00	-3.8340731041e+00
 1.5734115951e-01	 1.0742528891e+00	-3.9402364037e+00
 1.3447780764e-01	 1.0773538089e+00	-4.0318418832e+00
 1.1171990104e-01	 1.0799510053e+00	-4.1088602722e+00
 8.9081991759e-02	 1.0820535610e+00	-4.1714197689e+00
 6.6578027678e-02	 1.0836710185e+00	-4.2197969461e+00
 4.4221340971e-02	 1.0848133403e+00	-4.2544068873e+00
 2.2024639362e-02	 1.0854908684e+00	-4.2757926827e+00
 0.0000000000e+00	 1.0857142857e+00	-4.2846144182e+00
 2.2938869886e-01	 1.0758163527e+00	-3.3815948209e+00
 2.0599836224e-01	 1.0805390667e+00	-3.5030713581e+00
 1.8266711494e-01	 1.0847270279e+00	-3.6119165161e+00
 1.5941143793e-01	 1.0883877955e+00	-3.7077771364e+00
 1.3624725248e-01	 1.0915295169e+00	-3.7904670656e+00
 1.1318989973e-01	 1.0941608870e+00	-3.8599603003e+00
 9.0254123229e-02	 1.0962911079e+00	-3.9163831139e+00
 6.7454054358e-02	 1.0979298477e+00	-3.9600052814e+00
 4.4803200720e-02	 1.0990872000e+00	-3.9912305279e+00
 2.2314437249e-02	 1.0997736430e+00	-4.0105863262e+00
 0.0000000000e+00	 1.1000000000e+00	-4.0187131760e+00
 2.3236777287e-01	 1.0897879937e+00	-3.1977548222e+00
 2.0867366565e-01	 1.0945720416e+00	-3.3069815332e+00
 1.8503941514e-01	 1.0988143919e+00	-3.4048700775e+00
 1.6148171634e-01	 1.1025227020e+00	-3.4910723694e+00
 1.3801669731e-01	 1.1057052249e+00	-3.5654021434e+00
 1.1465989843e-01	 1.1083707686e+00	-3.6278284767e+00
 9.1426254700e-02	 1.1105286547e+00	-3.6784682835e+00
 6.8330081038e-02	 1.1121886769e+00	-3.7175778956e+00
 4.5385060470e-02	 1.1133610597e+00	-3.7455438502e+00
 2.2604235135e-02	 1.1140564176e+00	-3.7628730087e+00
 0.0000000000e+00	 1.1142857143e+00	-3.7701821368e+00
 2.3534684688e-01	 1.1037596346e+00	-3.0252856620e+00
 2.1134896906e-01	 1.1086050165e+00	-3.1230635946e+00
 1.8741171533e-01	 1.1129017559e+00	-3.2107276030e+00
 1.6355199475e-01	 1.1166576084e+00	-3.2879254748e+00
 1.3978614215e-01	 1.1198809329e+00	-3.3544622742e+00
 1.1612989713e-01	 1.1225806503e+00	-3.4102942939e+00
 9.2598386170e-02	 1.1247662016e+00	-3.4555219616e+00
 6.9206107717e-02	 1.1264475061e+00	-3.4903818118e+00
 4.5966920220e-02	 1.1276349195e+00	-3.5152376396e+00
 2.2894033021e-02	 1.1283391922e+00	-3.5305709606e+00
 0.0000000000e+00	 1.1285714286e+00	-3.5369709036e+00
 2.3832592089e-01	 1.1177312756e+00	-2.8620804333e+00
 2.1402427246e-01	 1.1226379914e+00	-2.9492167780e+00
 1.8978401553e-01	 1.1269891199e+00	-3.0273959169e+00
 1.6562227317e-01	 1.1307925148e+00	-3.0962526418e+00
 1.4155558699e-01	 1.1340566409e+00	-3.1555751054e+00
 1.1759989583e-01	 1.1367905319e+00	-3.2052992536e+00
 9.3770517641e-02	 1.1390037485e+00	-3.2455021885e+00
 7.0082134397e-02	 1.1407063353e+00	-3.2763945661e+00
 4.6548779969e-02	 1.1419087792e+00	-3.2983121447e+00
 2.3183830908e-02	 1.1426219668e+00	-3.3117066046e+00
 0.0000000000e+00	 1.1428571429e+00	-3.3171357642e+00
 1.1428571429e+00	 0.0000000000e+00	 2.1222673950e+00
 1.1426219668e+00	 2.3183830908e-02	 2.1266289675e+00
 1.1419087792e+00	 4.6548779969e-02	 2.1300267118e+00
 1.1407063353e+00	 7.0082134397e-02	 2.1325803068e+00
 1.1390037485e+00	 9.3770517641e-02	 2.1344701873e+00
 1.1367905319e+00	 1.1759989583e-01	 2.1359369837e+00
 1.1340566409e+00	 1.4155558699e-01	 2.1372805395e+00
 1.1307925148e+00	 1.6562227317e-01	 2.1388584920e+00
 1.1269891199e+00	 1.8978401553e-01	 2.1410843970e+00
 1.1226379914e+00	 2.1402427246e-01	 2.1444253873e+00
 1.1177312756e+00	 2.3832592089e-01	 2.1493993534e+00
 1.1571428571e+00	 0.0000000000e+00	 2.2246313330e+00
 1.1569047414e+00	 2.3473628794e-02	 2.2286792579e+00
 1.1561826390e+00	 4.7130639719e-02	 2.2304697599e+00
 1.1549651645e+00	 7.0958161077e-02	 2.2301691612e+00
 1.1532412953e+00	 9.4942649111e-02	 2.2280059791e+00
 1.1510004136e+00	 1.1906989452e-01	 2.2242700702e+00
 1.1482323489e+00	 1.4332503182e-01	 2.2193113389e+00
 1.1449274213e+00	 1.6769255158e-01	 2.2135379914e+00
 1.1410764839e+00	 1.9215631572e-01	 2.2074143234e+00
 1.1366709663e+00	 2.1669957587e-01	 2.2014580276e+00
 1.1317029165e+00	 2.4130499490e-01	 2.1962370142e+00
 1.1714285714e+00	 0.0000000000e+00	 2.3227600783e+00
 1.1711875159e+00	 2.3763426680e-02	 2.3265478208e+00
 1.1704564987e+00	 4.7712499468e-02	 2.3268522191e+00
 1.1692239937e+00	 7.1834187757e-02	 2.3238851617e+00
 1.1674788422e+00	 9.6114780582e-02	 2.3179220407e+00
 1.1652102952e+00	 1.2053989322e-01	 2.3093006061e+00
 1.1624080569e+00	 1.4509447666e-01	 2.2984193711e+00
 1.1590623277e+00	 1.6976283000e-01	 2.2857355488e+00
 1.1551638479e+00	 1.9452861591e-01	 2.2717625101e+00
 1.1507039412e+00	 2.1937487927e-01	 2.2570667508e+00
 1.1456745575e+00	 2.4428406891e-01	 2.2422643611e+00
 1.1857142857e+00	 0.0000000000e+00	 2.4157715012e+00
 1.1854702905e+00	 2.4053224567e-02	 2.4193434424e+00
 1.1847303584e+00	 4.8294359218e-02	 2.4182737804e+00
 1.1834828229e+00	 7.2710214437e-02	 2.4128189371e+00
 1.1817163890e+00	 9.7286912052e-02	 2.4033000135e+00
 1.1794201769e+00	 1.2200989192e-01	 2.3901013611e+00
 1.1765837649e+00	 1.4686392150e-01	 2.3736686901e+00
 1.1731972341e+00	 1.7183310841e-01	 2.3545066971e+00
 1.1692512119e+00	 1.9690091611e-01	 2.3331762016e+00
 1.1647369161e+00	 2.2205018268e-01	 2.3102907818e+00
 1.1596461984e+00	 2.4726314293e-01	 2.2865129049e+00
 1.2000000000e+00	 0.0000000000e+00	 2.5028220487e+00
 1.1997530651e+00	 2.4343022453e-02	 2.5062142020e+00
 1.1990042182e+00	 4.8876218968e-02	 2.5038741562e+00
 1.1977416521e+00	 7.3586241117e-02	 2.4961018721e+00
 1.1959539359e+00	 9.8459043523e-02	 2.4832630319e+00
 1.1936300585e+00	 1.2347989062e-01	 2.4657873333e+00
 1.1907594729e+00	 1.4863336634e-01	 2.4441663074e+00
 1.1873321406e+00	 1.7390338683e-01	 2.4189506455e+00
 1.1833385759e+00	 1.9927321630e-01	 2.3907470230e+00
 1.1787698910e+00	 2.2472548608e-01	 2.3602144139e+00
 1.1736178394e+00	 2.5024221694e-01	 2.3280598908e+00
 1.2142857143e+00	 0.0000000000e+00	 2.5831044750e+00
 1.2140358397e+00	 2.4632820339e-02	 2.5863451734e+00
 1.2132780779e+00	 4.9458078717e-02	 2.5828307503e+00
 1.2120004813e+00	 7.4462267797e-02	 2.5729037458e+00
 1.2101914827e+00	 9.9631174993e-02	 2.5569733292e+00
 1.2078399402e+00	 1.2494988932e-01	 2.5355133216e+00
 1.2049351810e+00	 1.5040281117e-01	 2.5090597309e+00
 1.2014670470e+00	 1.7597366524e-01	 2.4782077850e+00
 1.1974259399e+00	 2.0164551650e-01	 2.4436084530e+00
 1.1928028659e+00	 2.2740078949e-01	 2.4059644473e+00
 1.1875894803e+00	 2.5322129095e-01	 2.3660257038e+00
 1.2285714286e+00	 0.0000000000e+00	 2.6558457301e+00
 1.2283186143e+00	 2.4922618226e-02	 2.6589562857e+00
 1.2275519377e+00	 5.0039938467e-02	 2.6543564903e+00
 1.2262593105e+00	 7.5338294477e-02	 2.6424305345e+00
 1.2244290296e+00	 1.0080330646e-01	 2.6236300102e+00
 1.2220498218e+00	 1.2641988801e-01	 2.5984716679e+00
 1.2191108890e+00	 1.5217225601e-01	 2.5675346757e+00
 1.2156019534e+00	 1.7804394366e-01	 2.5314573679e+00
 1.2115133039e+00	 2.0401781669e-01	 2.4909334714e+00
 1.2068358408e+00	 2.3007609290e-01	 2.4467078061e+00
 1.2015611212e+00	 2.5620036496e-01	 2.3995714552e+00
 1.2428571429e+00	 0.0000000000e+00	 2.7203049954e+00
 1.2426013889e+00	 2.5212416112e-02	 2.7233003328e+00
 1.2418257974e+00	 5.0621798217e-02	 2.7176978098e+00
 1.2405181397e+00	 7.6214321157e-02	 2.7039223659e+00
 1.2386665764e+00	 1.0197543793e-01	 2.6824669770e+00
 1.2362597035e+00	 1.2788988671e-01	 2.6538901535e+00
 1.2332865970e+00	 1.5394170085e-01	 2.6188129320e+00
 1.2297368599e+00	 1.8011422207e-01	 2.5779153461e+00
 1.2256006679e+00	 2.0639011688e-01	 2.5319323685e+00
 1.2208688157e+00	 2.3275139630e-01	 2.4816493184e+00
 1.2155327622e+00	 2.5917943897e-01	 2.4278967334e+00
 1.2571428571e+00	 0.0000000000e+00	 2.7757718519e+00
 1.2568841635e+00	 2.5502213999e-02	 2.7786611171e+00
 1.2560996571e+00	 5.1203657966e-02	 2.7721327678e+00
 1.2547769688e+00	 7.7090347837e-02	 2.7566516131e+00
 1.2529041233e+00	 1.0314756940e-01	 2.7327509962e+00
 1.2504695851e+00	 1.2935988541e-01	 2.7010300402e+00
 1.2474623050e+00	 1.5571114569e-01	 2.6621503784e+00
 1.2438717663e+00	 1.8218450049e-01	 2.6168323574e+00
 1.2396880319e+00	 2.0876241708e-01	 2.5658507033e+00
 1.2349017906e+00	 2.3542669971e-01	 2.5100296471e+00
 1.2295044031e+00	 2.6215851298e-01	 2.4502375077e+00
 1.2714285714e+00	 0.0000000000e+00	 2.8215645720e+00
 1.2711669380e+00	 2.5792011885e-02	 2.8243517200e+00
 1.2703735169e+00	 5.1785517716e-02	 2.8169692949e+00
 1.2690357980e+00	 7.7966374517e-02	 2.7999211162e+00
 1.2671416702e+00	 1.0431970088e-01	 2.7737798968e+00
 1.2646794668e+00	 1.3082988411e-01	 2.7391842420e+00
 1.2616380130e+00	 1.5748059052e-01	 2.6968351283e+00
 1.2580066728e+00	 1.8425477890e-01	 2.6474918455e+00
 1.2537753959e+00	 2.1113471727e-01	 2.5919673985e+00
 1.2489347655e+00	 2.3810200311e-01	 2.5311233592e+00
 1.2434760441e+00	 2.6513758699e-01	 2.4658641724e+00
 1.2857142857e+00	 0.0000000000e+00	 2.8570285265e+00
 1.2854497126e+00	 2.6081809771e-02	 2.8597128862e+00
 1.2846473766e+00	 5.2367377465e-02	 2.8515435562e+00
 1.2832946272e+00	 7.8842401197e-02	 2.8330625234e+00
 1.2813792170e+00	 1.0549183235e-01	 2.8048808868e+00
 1.2788893484e+00	 1.3229988281e-01	 2.7676756192e+00
 1.2758137210e+00	 1.5925003536e-01	 2.7221857997e+00
 1.2721415792e+00	 1.8632505732e-01	 2.6692083066e+00
 1.2678627599e+00	 2.1350701747e-01	 2.6095929620e+00
 1.2629677403e+00	 2.4077730652e-01	 2.5442371230e+00
 1.2574476850e+00	 2.6811666100e-01	 2.4740797196e+00
 1.1177312756e+00	 2.3832592089e-01	 2.1493993534e+00
 1.1122617710e+00	 2.6267128066e-01	 2.1539933936e+00
 1.1062229692e+00	 2.8704214211e-01	 2.1556955096e+00
 1.0996090938e+00	 3.1141979685e-01	 2.1543236751e+00
 1.0924151384e+00	 3.3578507167e-01	 2.1497143623e+00
 1.0846369032e+00	 3.6011836548e-01	 2.1417247479e+00
 1.0762710290e+00	 3.8439968936e-01	 2.1302349863e+00
 1.0673150292e+00	 4.0860870943e-01	 2.1151505349e+00
 1.0577673198e+00	 4.3272479257e-01	 2.0964045084e+00
 1.0476272460e+00	 4.5672705470e-01	 2.0739600444e+00
 1.0368951059e+00	 4.8059441158e-01	 2.0478126582e+00
 1.1317029165e+00	 2.4130499490e-01	 2.1962370142e+00
 1.1261650432e+00	 2.6595467167e-01	 2.1897486582e+00
 1.1200507563e+00	 2.9063016888e-01	 2.1795502023e+00
 1.1133542074e+00	 3.1531254431e-01	 2.1655976955e+00
 1.1060703276e+00	 3.3998238507e-01	 2.1478652932e+00
 1.0981948645e+00	 3.6461984505e-01	 2.1263465549e+00
 1.0897244168e+00	 3.8920468548e-01	 2.1010557838e+00
 1.0806564671e+00	 4.1371631830e-01	 2.0720293974e+00
 1.0709894113e+00	 4.3813385247e-01	 2.0393273161e+00
 1.0607225865e+00	 4.6243614289e-01	 2.0030343593e+00
 1.0498562947e+00	 4.8660184172e-01	 1.9632616365e+00
 1.1456745575e+00	 2.4428406891e-01	 2.2422643611e+00
 1.1400683153e+00	 2.6923806267e-01	 2.2253616134e+00
 1.1338785435e+00	 2.9421819566e-01	 2.2039791314e+00
 1.1270993211e+00	 3.1920529177e-01	 2.1782023209e+00
 1.1197255169e+00	 3.4417969846e-01	 2.1481342074e+00
 1.1117528258e+00	 3.6912132462e-01	 2.1138958796e+00
 1.1031778047e+00	 3.9400968159e-01	 2.0756269490e+00
 1.0939979049e+00	 4.1882392717e-01	 2.0334860223e+00
 1.0842115028e+00	 4.4354291238e-01	 1.9876511818e+00
 1.0738179271e+00	 4.6814523107e-01	 1.9383204692e+00
 1.0628174835e+00	 4.9260927187e-01	 1.8857123717e+00
 1.1596461984e+00	 2.4726314293e-01	 2.2865129049e+00
 1.1539715874e+00	 2.7252145368e-01	 2.2598564938e+00
 1.1477063306e+00	 2.9780622244e-01	 2.2279999846e+00
 1.1408444348e+00	 3.2309803923e-01	 2.1911496980e+00
 1.1333807061e+00	 3.4837701186e-01	 2.1495289954e+00
 1.1253107871e+00	 3.7362280419e-01	 2.1033779187e+00
 1.1166311926e+00	 3.9881467771e-01	 2.0529528245e+00
 1.1073393428e+00	 4.2393153603e-01	 1.9985260131e+00
 1.0974335943e+00	 4.4895197229e-01	 1.9403853555e+00
 1.0869132677e+00	 4.7385431925e-01	 1.8788339224e+00
 1.0757786723e+00	 4.9861670201e-01	 1.8141896206e+00
 1.1736178394e+00	 2.5024221694e-01	 2.3280598908e+00
 1.1678748596e+00	 2.7580484469e-01	 2.2923039048e+00
 1.1615341177e+00	 3.0139424921e-01	 2.2506774128e+00
 1.1545895485e+00	 3.2699078670e-01	 2.2034994708e+00
 1.1470358953e+00	 3.5257432525e-01	 2.1511055051e+00
 1.1388687484e+00	 3.7812428376e-01	 2.0938461999e+00
 1.1300845804e+00	 4.0361967383e-01	 2.0320863572e+00
 1.1206807807e+00	 4.2903914490e-01	 1.9662037366e+00
 1.1106556858e+00	 4.5436103219e-01	 1.8965878828e+00
 1.1000086083e+00	 4.7956340744e-01	 1.8236389550e+00
 1.0887398611e+00	 5.0462413216e-01	 1.7477665683e+00
 1.1875894803e+00	 2.5322129095e-01	 2.3660257038e+00
 1.1817781317e+00	 2.7908823570e-01	 2.3218181966e+00
 1.1753619048e+00	 3.0498227599e-01	 2.2711203738e+00
 1.1683346621e+00	 3.3088353416e-01	 2.2143560958e+00
 1.1606910846e+00	 3.5677163865e-01	 2.1519648338e+00
 1.1524267097e+00	 3.8262576333e-01	 2.0843998540e+00
 1.1435379683e+00	 4.0842466994e-01	 2.0121263552e+00
 1.1340222185e+00	 4.3414675377e-01	 1.9356195709e+00
 1.1238777773e+00	 4.5977009210e-01	 1.8553628509e+00
 1.1131039488e+00	 4.8527249562e-01	 1.7718457433e+00
 1.1017010500e+00	 5.1063156230e-01	 1.6855620956e+00
 1.2015611212e+00	 2.5620036496e-01	 2.3995714552e+00
 1.1956814039e+00	 2.8237162671e-01	 2.3475550201e+00
 1.1891896919e+00	 3.0857030276e-01	 2.2884796596e+00
 1.1820797758e+00	 3.3477628162e-01	 2.2228663437e+00
 1.1743462738e+00	 3.6096895205e-01	 2.1512508061e+00
 1.1659846710e+00	 3.8712724289e-01	 2.0741810742e+00
 1.1569913561e+00	 4.1322966606e-01	 1.9922149335e+00
 1.1473636564e+00	 4.3925436264e-01	 1.9059173432e+00
 1.1370998688e+00	 4.6517915201e-01	 1.8158578239e+00
 1.1261992894e+00	 4.9098158381e-01	 1.7226078442e+00
 1.1146622388e+00	 5.1663899245e-01	 1.6267382320e+00
 1.2155327622e+00	 2.5917943897e-01	 2.4278967334e+00
 1.2095846760e+00	 2.8565501771e-01	 2.3687090499e+00
 1.2030174790e+00	 3.1215832954e-01	 2.3019455928e+00
 1.1958248895e+00	 3.3866902908e-01	 2.2282169712e+00
 1.1880014630e+00	 3.6516626544e-01	 2.1481476250e+00
 1.1795426322e+00	 3.9162872246e-01	 2.0623727493e+00
 1.1704447440e+00	 4.1803466218e-01	 1.9715351335e+00
 1.1607050943e+00	 4.4436197150e-01	 1.8762819410e+00
 1.1503219603e+00	 4.7058821192e-01	 1.7772614527e+00
 1.1392946300e+00	 4.9669067199e-01	 1.6751198087e+00
 1.1276234276e+00	 5.2264642259e-01	 1.5704977815e+00
 1.2295044031e+00	 2.6215851298e-01	 2.4502375077e+00
 1.2234879481e+00	 2.8893840872e-01	 2.3845118616e+00
 1.2168452661e+00	 3.1574635632e-01	 2.3107458790e+00
 1.2095700032e+00	 3.4256177654e-01	 2.2296325500e+00
 1.2016566522e+00	 3.6936357884e-01	 2.1418776802e+00
 1.1931005935e+00	 3.9613020203e-01	 2.0481962549e+00
 1.1838981319e+00	 4.2283965830e-01	 1.9493087020e+00
 1.1740465321e+00	 4.4946958037e-01	 1.8459370830e+00
 1.1635440518e+00	 4.7599727182e-01	 1.7388012428e+00
 1.1523899706e+00	 5.0239976017e-01	 1.6286149551e+00
 1.1405846164e+00	 5.2865385273e-01	 1.5160821063e+00
 1.2434760441e+00	 2.6513758699e-01	 2.4658641724e+00
 1.2373912203e+00	 2.9222179973e-01	 2.3942299506e+00
 1.2306730533e+00	 3.1933438309e-01	 2.3141436014e+00
 1.2233151168e+00	 3.4645452400e-01	 2.2263734403e+00
 1.2153118415e+00	 3.7356089223e-01	 2.1316995024e+00
 1.2066585548e+00	 4.0063168160e-01	 2.0309093922e+00
 1.1973515197e+00	 4.2764465441e-01	 1.9247940173e+00
 1.1873879700e+00	 4.5457718924e-01	 1.8141432382e+00
 1.1767661433e+00	 4.8140633173e-01	 1.6997414716e+00
 1.1654853111e+00	 5.0810884836e-01	 1.5823632885e+00
 1.1535458053e+00	 5.3466128288e-01	 1.4627690557e+00
 1.2574476850e+00	 2.6811666100e-01	 2.4740797196e+00
 1.2512944924e+00	 2.9550519074e-01	 2.3971628819e+00
 1.2445008404e+00	 3.2292240987e-01	 2.3114353489e+00
 1.2370602305e+00	 3.5034727146e-01	 2.2177338977e+00
 1.2289670307e+00	 3.7775820563e-01	 2.1169058521e+00
 1.2202165161e+00	 4.0513316117e-01	 2.0098044616e+00
 1.2108049076e+00	 4.3244965053e-01	 1.8972841518e+00
 1.2007294079e+00	 4.5968479811e-01	 1.7801956805e+00
 1.1899882348e+00	 4.8681539164e-01	 1.6593812400e+00
 1.1785806517e+00	 5.1381793654e-01	 1.5356695555e+00
 1.1665069941e+00	 5.4066871302e-01	 1.4098710304e+00
 1.0368951059e+00	 4.8059441158e-01	 2.0478126582e+00
 1.0255721714e+00	 5.0430563172e-01	 2.0164190942e+00
 1.0136607055e+00	 5.2783939141e-01	 1.9781252343e+00
 1.0011639753e+00	 5.5117433144e-01	 1.9328057690e+00
 9.8808626199e-01	 5.7428911521e-01	 1.8803662257e+00
 9.7443286671e-01	 5.9716248815e-01	 1.8207486261e+00
 9.6021011176e-01	 6.1977333781e-01	 1.7539372077e+00
 9.4542533809e-01	 6.4210075462e-01	 1.6799641456e+00
 9.3008689834e-01	 6.6412409270e-01	 1.5989152138e+00
 9.1420414556e-01	 6.8582303054e-01	 1.5109353164e+00
 8.9778741750e-01	 7.0717763112e-01	 1.4162338167e+00
 1.0498562947e+00	 4.8660184172e-01	 1.9632616365e+00
 1.0383918236e+00	 5.1060945211e-01	 1.9185358277e+00
 1.0263314643e+00	 5.3443738381e-01	 1.8673178495e+00
 1.0136785249e+00	 5.5806401058e-01	 1.8096562223e+00
 1.0004373403e+00	 5.8146772915e-01	 1.7456235291e+00
 9.8661327755e-01	 6.0462701925e-01	 1.6753207498e+00
 9.7221273815e-01	 6.2752050453e-01	 1.5988816927e+00
 9.5724315481e-01	 6.5012701405e-01	 1.5164774740e+00
 9.4171298457e-01	 6.7242564386e-01	 1.4283209969e+00
 9.2563169738e-01	 6.9439581842e-01	 1.3346713755e+00
 9.0900976022e-01	 7.1601735151e-01	 1.2358382429e+00
 1.0628174835e+00	 4.9260927187e-01	 1.8857123717e+00
 1.0512114757e+00	 5.1691327251e-01	 1.8284222839e+00
 1.0390022231e+00	 5.4103537620e-01	 1.7650214028e+00
 1.0261930746e+00	 5.6495368973e-01	 1.6957189591e+00
 1.0127884185e+00	 5.8864634309e-01	 1.6207417817e+00
 9.9879368838e-01	 6.1209155035e-01	 1.5403373991e+00
 9.8421536455e-01	 6.3526767126e-01	 1.4547772687e+00
 9.6906097154e-01	 6.5815327349e-01	 1.3643601012e+00
 9.5333907080e-01	 6.8072719502e-01	 1.2694152443e+00
 9.3705924920e-01	 7.0296860631e-01	 1.1703060806e+00
 9.2023210294e-01	 7.2485707189e-01	 1.0674333946e+00
 1.0757786723e+00	 4.9861670201e-01	 1.8141896206e+00
 1.0640311279e+00	 5.2321709291e-01	 1.7451151340e+00
 1.0516729819e+00	 5.4763336859e-01	 1.6702871114e+00
 1.0387076243e+00	 5.7184336887e-01	 1.5900628140e+00
 1.0251394968e+00	 5.9582495703e-01	 1.5048109396e+00
 1.0109740992e+00	 6.1955608145e-01	 1.4149135764e+00
 9.9621799095e-01	 6.4301483798e-01	 1.3207683169e+00
 9.8087878826e-01	 6.6617953292e-01	 1.2227905131e+00
 9.6496515703e-01	 6.8902874618e-01	 1.1214156454e+00
 9.4848680102e-01	 7.1154139419e-01	 1.0171017777e+00
 9.3145444566e-01	 7.3369679228e-01	 9.1033205932e-01
 1.0887398611e+00	 5.0462413216e-01	 1.7477665683e+00
 1.0768507800e+00	 5.2952091330e-01	 1.6676990775e+00
 1.0643437408e+00	 5.5423136099e-01	 1.5822136826e+00
 1.0512221740e+00	 5.7873304801e-01	 1.4918034162e+00
 1.0374905751e+00	 6.0300357097e-01	 1.3969668797e+00
 1.0231545100e+00	 6.2702061255e-01	 1.2982091339e+00
 1.0082206173e+00	 6.5076200470e-01	 1.1960427823e+00
 9.9269660499e-01	 6.7420579235e-01	 1.0909892375e+00
 9.7659124326e-01	 6.9733029734e-01	 9.8358015894e-01
 9.5991435284e-01	 7.2011418207e-01	 8.7435904120e-01
 9.4267678838e-01	 7.4253651267e-01	 7.6388292778e-01
 1.1017010500e+00	 5.1063156230e-01	 1.6855620956e+00
 1.0896704321e+00	 5.3582473370e-01	 1.5953041308e+00
 1.0770144996e+00	 5.6082935338e-01	 1.4999446328e+00
 1.0637367237e+00	 5.8562272715e-01	 1.4001005475e+00
 1.0498416534e+00	 6.1018218491e-01	 1.2963888077e+00
 1.0353349209e+00	 6.3448514366e-01	 1.1894262440e+00
 1.0202232437e+00	 6.5850917142e-01	 1.0798297168e+00
 1.0045144217e+00	 6.8223205179e-01	 9.6821647681e-01
 9.8821732949e-01	 7.0563184850e-01	 8.5520474817e-01
 9.7134190466e-01	 7.2868696995e-01	 7.4141452802e-01
 9.5389913110e-01	 7.5137623306e-01	 6.2746858422e-01
 1.1146622388e+00	 5.1663899245e-01	 1.6267382320e+00
 1.1024900843e+00	 5.4212855410e-01	 1.5271031015e+00
 1.0896852584e+00	 5.6742734577e-01	 1.4226657900e+00
 1.0762512734e+00	 5.9251240630e-01	 1.3141556808e+00
 1.0621927316e+00	 6.1736079886e-01	 1.2022968429e+00
 1.0475153317e+00	 6.4194967476e-01	 1.0878070391e+00
 1.0322258701e+00	 6.6625633815e-01	 9.7139698882e-01
 1.0163322384e+00	 6.9025831122e-01	 8.5376989833e-01
 9.9984341572e-01	 7.1393339966e-01	 7.3562126787e-01
 9.8276945648e-01	 7.3725975783e-01	 6.1763897556e-01
 9.6512147382e-01	 7.6021595345e-01	 5.0050363135e-01
 1.1276234276e+00	 5.2264642259e-01	 1.5704977815e+00
 1.1153097364e+00	 5.4843237449e-01	 1.4623092327e+00
 1.1023560172e+00	 5.7402533816e-01	 1.3496029626e+00
 1.0887658231e+00	 5.9940208544e-01	 1.2332096833e+00
 1.0745438099e+00	 6.2453941280e-01	 1.1139497631e+00
 1.0596957425e+00	 6.4941420586e-01	 9.9263141090e-01
 1.0442284965e+00	 6.7400350487e-01	 8.7004914556e-01
 1.0281500552e+00	 6.9828457065e-01	 7.4698257317e-01
 1.0114695019e+00	 7.2223495081e-01	 6.2419549160e-01
 9.9419700830e-01	 7.4583254571e-01	 5.0243533198e-01
 9.7634381653e-01	 7.6905567384e-01	 3.8243293835e-01
 1.1405846164e+00	 5.2865385273e-01	 1.5160821063e+00
 1.1281293886e+00	 5.5473619489e-01	 1.4001740038e+00
 1.1150267760e+00	 5.8062333056e-01	 1.2800197649e+00
 1.1012803728e+00	 6.0629176458e-01	 1.1565406718e+00
 1.0868948882e+00	 6.3171802674e-01	 1.0306428999e+00
 1.0718761534e+00	 6.5687873696e-01	 9.0321495334e-01
 1.0562311229e+00	 6.8175067159e-01	 7.7512541581e-01
 1.0399678719e+00	 7.0631083008e-01	 6.4722104910e-01
 1.0230955882e+00	 7.3053650197e-01	 5.2032526764e-01
 1.0056245601e+00	 7.5440533360e-01	 3.9523700806e-01
 9.8756615925e-01	 7.7789539423e-01	 2.7273000253e-01
 1.1535458053e+00	 5.3466128288e-01	 1.4627690557e+00
 1.1409490407e+00	 5.6104001529e-01	 1.3399850753e+00
 1.1276975349e+00	 5.8722132295e-01	 1.2132155828e+00
 1.1137949225e+00	 6.1318144373e-01	 1.0834620080e+00
 1.0992459665e+00	 6.3889664068e-01	 9.5170617039e-01
 1.0840565642e+00	 6.6434326806e-01	 8.1890703997e-01
 1.0682337493e+00	 6.8949783831e-01	 6.8599784194e-01
 1.0517856886e+00	 7.1433708952e-01	 5.5388354841e-01
 1.0347216744e+00	 7.3883805313e-01	 4.2343879382e-01
 1.0170521119e+00	 7.6297812148e-01	 2.9550624118e-01
 9.9878850197e-01	 7.8673511462e-01	 1.7089541553e-01
 1.1665069941e+00	 5.4066871302e-01	 1.4098710304e+00
 1.1537686929e+00	 5.6734383568e-01	 1.2810643676e+00
 1.1403682937e+00	 5.9381931534e-01	 1.1485236730e+00
 1.1263094722e+00	 6.2007112287e-01	 1.0133204232e+00
 1.1115970447e+00	 6.4607525462e-01	 8.7650223542e-01
 1.0962369751e+00	 6.7180779917e-01	 7.3908902429e-01
 1.0802363757e+00	 6.9724500504e-01	 6.0206953141e-01
 1.0636035053e+00	 7.2236334895e-01	 4.6639828037e-01
 1.0463477606e+00	 7.4713960429e-01	 3.3299300169e-01
 1.0284796638e+00	 7.7155090936e-01	 2.0273256273e-01
 1.0100108447e+00	 7.9557483501e-01	 7.6455426024e-02
 8.9778741750e-01	 7.0717763112e-01	 1.4162338167e+00
 8.8084801674e-01	 7.2816840111e-01	 1.3136165511e+00
 8.6339818645e-01	 7.4877634886e-01	 1.2021560063e+00
 8.4545108204e-01	 7.6898304069e-01	 1.0825355412e+00
 8.2702073879e-01	 7.8877065525e-01	 9.5546950735e-01
 8.0812203564e-01	 8.0812203564e-01	 8.2170417487e-01
 7.8877065525e-01	 8.2702073879e-01	 6.8201846339e-01
 7.6898304069e-01	 8.4545108204e-01	 5.3722442857e-01
 7.4877634886e-01	 8.6339818645e-01	 3.8816745692e-01
 7.2816840111e-01	 8.8084801674e-01	 2.3572612369e-01
 7.0717763112e-01	 8.9778741750e-01	 8.0811672546e-02
 9.0900976022e-01	 7.1601735151e-01	 1.2358382429e+00
 8.9185861695e-01	 7.3727050613e-01	 1.1305690788e+00
 8.7419066378e-01	 7.5813605322e-01	 1.0178518321e+00
 8.5601922056e-01	 7.7859532870e-01	 8.9841371678e-01
 8.3735849803e-01	 7.9863028844e-01	 7.7300442018e-01
 8.1822356109e-01	 8.1822356109e-01	 6.4239663942e-01
 7.9863028844e-01	 8.3735849803e-01	 5.0738648763e-01
 7.7859532870e-01	 8.5601922056e-01	 3.6879372335e-01
 7.5813605322e-01	 8.7419066378e-01	 2.2746175625e-01
 7.3727050613e-01	 8.9185861695e-01	 8.4257383825e-02
 7.1601735151e-01	 9.0900976022e-01	-5.9929783386e-02
 9.2023210294e-01	 7.2485707189e-01	 1.0674333946e+00
 9.0286921716e-01	 7.4637261114e-01	 9.5950047279e-01
 8.8498314111e-01	 7.6749575758e-01	 8.4542654716e-01
 8.6658735909e-01	 7.8820761670e-01	 7.2597712042e-01
 8.4769625726e-01	 8.0848992163e-01	 6.0193222674e-01
 8.2832508653e-01	 8.2832508653e-01	 4.7408662544e-01
 8.0848992163e-01	 8.4769625726e-01	 3.4324992643e-01
 7.8820761670e-01	 8.6658735909e-01	 2.1024660194e-01
 7.6749575758e-01	 8.8498314111e-01	 7.5915838116e-02
 7.4637261114e-01	 9.0286921716e-01	-5.8888819755e-02
 7.2485707189e-01	 9.2023210294e-01	-1.9330007219e-01
 9.3145444566e-01	 7.3369679228e-01	 9.1033205932e-01
 9.1387981737e-01	 7.5547471615e-01	 7.9977841912e-01
 8.9577561844e-01	 7.7685546194e-01	 6.8430581091e-01
 8.7715549761e-01	 7.9781990471e-01	 5.6471268262e-01
 8.5803401650e-01	 8.1834955483e-01	 4.4180463499e-01
 8.3842661198e-01	 8.3842661198e-01	 3.1639431893e-01
 8.1834955483e-01	 8.5803401650e-01	 1.8930132300e-01
 7.9781990471e-01	 8.7715549761e-01	 6.1352006541e-02
 7.7685546194e-01	 8.9577561844e-01	-6.6620768446e-02
 7.5547471615e-01	 9.1387981737e-01	-1.9377805384e-01
 7.3369679228e-01	 9.3145444566e-01	-3.1927542652e-01
 9.4267678838e-01	 7.4253651267e-01	 7.6388292778e-01
 9.2489041758e-01	 7.6457682117e-01	 6.5080396066e-01
 9.0656809577e-01	 7.8621516630e-01	 5.3394593793e-01
 8.8772363614e-01	 8.0743219272e-01	 4.1413512074e-01
 8.6837177573e-01	 8.2820918802e-01	 2.9219809435e-01
 8.4852813742e-01	 8.4852813742e-01	 1.6896141458e-01
 8.2820918802e-01	 8.6837177573e-01	 4.5251299655e-02
 8.0743219272e-01	 8.8772363614e-01	-7.8106676918e-02
 7.8621516630e-01	 9.0656809577e-01	-2.0028793988e-01
 7.6457682117e-01	 9.2489041758e-01	-3.2046936134e-01
 7.4253651267e-01	 9.4267678838e-01	-4.3782985389e-01
 9.5389913110e-01	 7.5137623306e-01	 6.2746858422e-01
 9.3590101779e-01	 7.7367892618e-01	 5.1200963752e-01
 9.1736057310e-01	 7.9557487067e-01	 3.9383219773e-01
 8.9829177466e-01	 8.1704448073e-01	 2.7378540842e-01
 8.7870953497e-01	 8.3806882121e-01	 1.5271244553e-01
 8.5862966287e-01	 8.5862966287e-01	 3.1449957577e-02
 8.3806882121e-01	 8.7870953497e-01	-8.9172396494e-02
 8.1704448073e-01	 8.9829177466e-01	-2.0833235659e-01
 7.9557487067e-01	 9.1736057310e-01	-3.2521546672e-01
 7.7367892618e-01	 9.3590101779e-01	-4.3901552739e-01
 7.5137623306e-01	 9.5389913110e-01	-5.4893514673e-01
 9.6512147382e-01	 7.6021595345e-01	 5.0050363135e-01
 9.4691161800e-01	 7.8278103119e-01	 3.8285775104e-01
 9.2815305043e-01	 8.0493457503e-01	 2.6347722692e-01
 9.0885991319e-01	 8.2665676874e-01	 1.4322934557e-01
 8.8904729420e-01	 8.4792845440e-01	 2.2969658454e-02
 8.6873118831e-01	 8.6873118831e-01	-9.6458739934e-02
 8.4792845440e-01	 8.8904729420e-01	-2.1422578725e-01
 8.2665676874e-01	 9.0885991319e-01	-3.2951492717e-01
 8.0493457503e-01	 9.2815305043e-01	-4.4152353266e-01
 7.8278103119e-01	 9.4691161800e-01	-5.4946333274e-01
 7.6021595345e-01	 9.6512147382e-01	-6.5256089742e-01
 9.7634381653e-01	 7.6905567384e-01	 3.8243293835e-01
 9.5792221821e-01	 7.9188313621e-01	 2.6283874143e-01
 9.3894552776e-01	 8.1429427939e-01	 1.4241954485e-01
 9.1942805171e-01	 8.3626905675e-01	 2.2056220791e-02
 8.9938505344e-01	 8.5778808759e-01	-9.7387348958e-02
 8.7883271376e-01	 8.7883271376e-01	-2.1506511373e-01
 8.5778808759e-01	 8.9938505344e-01	-3.3014950156e-01
 8.3626905675e-01	 9.1942805171e-01	-4.4183192044e-01
 8.1429427939e-01	 9.3894552776e-01	-5.4932316635e-01
 7.9188313621e-01	 9.5792221821e-01	-6.5185379524e-01
 7.6905567384e-01	 9.7634381653e-01	-7.4867451772e-01
 9.8756615925e-01	 7.7789539423e-01	 2.7273000253e-01
 9.6893281842e-01	 8.0098524122e-01	 1.5146967006e-01
 9.4973800510e-01	 8.2365398375e-01	 3.0222164277e-02
 9.2999619024e-01	 8.4588134476e-01	-9.0122441061e-02
 9.0972281267e-01	 8.6764772078e-01	-2.0869581759e-01
 8.8893423921e-01	 8.8893423921e-01	-3.2465229931e-01
 8.6764772078e-01	 9.0972281267e-01	-4.3716956249e-01
 8.4588134476e-01	 9.2999619024e-01	-5.4544911748e-01
 8.2365398375e-01	 9.4973800510e-01	-6.4871666824e-01
 8.0098524122e-01	 9.6893281842e-01	-7.4622240056e-01
 7.7789539423e-01	 9.8756615925e-01	-8.3724126233e-01
 9.9878850197e-01	 7.8673511462e-01	 1.7089541553e-01
 9.7994341863e-01	 8.1008734624e-01	 4.8292798109e-02
 9.6053048243e-01	 8.3301368811e-01	-7.3528710232e-02
 9.4056432877e-01	 8.5549363276e-01	-1.9367405294e-01
 9.2006057190e-01	 8.7750735397e-01	-3.1127418531e-01
 8.9903576465e-01	 8.9903576465e-01	-4.2548702548e-01
 8.7750735397e-01	 9.2006057190e-01	-5.3549812717e-01
 8.5549363276e-01	 9.4056432877e-01	-6.4052112536e-01
 8.3301368811e-01	 9.6053048243e-01	-7.3979801428e-01
 8.1008734624e-01	 9.7994341863e-01	-8.3259932289e-01
 7.8673511462e-01	 9.9878850197e-01	-9.1822425626e-01
 1.0100108447e+00	 7.9557483501e-01	 7.6455426024e-02
 9.9095401884e-01	 8.1918945125e-01	-4.7125745955e-02
 9.7132295976e-01	 8.4237339247e-01	-1.6922490304e-01
 9.5113246729e-01	 8.6510592077e-01	-2.8894606731e-01
 9.3039833114e-01	 8.8736698716e-01	-4.0542306184e-01
 9.0913729010e-01	 9.0913729010e-01	-5.1782045427e-01
 8.8736698716e-01	 9.3039833114e-01	-6.2533418314e-01
 8.6510592077e-01	 9.5113246729e-01	-7.2719192112e-01
 8.4237339247e-01	 9.7132295976e-01	-8.2265323838e-01
 8.1918945125e-01	 9.9095401884e-01	-9.1100963639e-01
 7.9557483501e-01	 1.0100108447e+00	-9.9158452571e-01
 7.0717763112e-01	 8.9778741750e-01	 8.0811672546e-02
 6.8582303054e-01	 9.1420414556e-01	-7.7941679899e-02
 6.6412409270e-01	 9.3008689834e-01	-2.4159537712e-01
 6.4210075462e-01	 9.4542533809e-01	-4.0878682558e-01
 6.1977333781e-01	 9.6021011176e-01	-5.7819698484e-01
 5.9716248815e-01	 9.7443286671e-01	-7.4855605772e-01
 5.7428911521e-01	 9.8808626199e-01	-9.1864894179e-01
 5.5117433144e-01	 1.0011639753e+00	-1.0873204094e+00
 5.2783939141e-01	 1.0136607055e+00	-1.2534799805e+00
 5.0430563172e-01	 1.0255721714e+00	-1.4161064494e+00
 4.8059441158e-01	 1.0368951059e+00	-1.5742520258e+00
 7.1601735151e-01	 9.0900976022e-01	-5.9929783386e-02
 6.9439581842e-01	 9.2563169738e-01	-2.0668956036e-01
 6.7242564386e-01	 9.4171298457e-01	-3.5737427523e-01
 6.5012701405e-01	 9.5724315481e-01	-5.1074713159e-01
 6.2752050453e-01	 9.7221273815e-01	-6.6560975448e-01
 6.0462701925e-01	 9.8661327755e-01	-8.2080737132e-01
 5.8146772915e-01	 1.0004373403e+00	-9.7523382973e-01
 5.5806401058e-01	 1.0136785249e+00	-1.1278364228e+00
 5.3443738381e-01	 1.0263314643e+00	-1.2776204880e+00
 5.1060945211e-01	 1.0383918236e+00	-1.4236537410e+00
 4.8660184172e-01	 1.0498562947e+00	-1.5650703041e+00
 7.2485707189e-01	 9.2023210294e-01	-1.9330007219e-01
 7.0296860631e-01	 9.3705924920e-01	-3.2909574645e-01
 6.8072719502e-01	 9.5333907080e-01	-4.6787841901e-01
 6.5815327349e-01	 9.6906097154e-01	-6.0853060008e-01
 6.3526767126e-01	 9.8421536455e-01	-7.4996859120e-01
 6.1209155035e-01	 9.9879368838e-01	-8.9114717053e-01
 5.8864634309e-01	 1.0127884185e+00	-1.0310641872e+00
 5.6495368973e-01	 1.0261930746e+00	-1.1687650389e+00
 5.4103537620e-01	 1.0390022231e+00	-1.3033470000e+00
 5.1691327251e-01	 1.0512114757e+00	-1.4339633644e+00
 4.9260927187e-01	 1.0628174835e+00	-1.5598273586e+00
 7.3369679228e-01	 9.3145444566e-01	-3.1927542652e-01
 7.1154139419e-01	 9.4848680102e-01	-4.4504647113e-01
 6.8902874618e-01	 9.6496515703e-01	-5.7290729518e-01
 6.6617953292e-01	 9.8087878826e-01	-7.0185334241e-01
 6.4301483798e-01	 9.9621799095e-01	-8.3090969904e-01
 6.1955608145e-01	 1.0109740992e+00	-9.5913529638e-01
 5.9582495703e-01	 1.0251394968e+00	-1.0856270915e+00
 5.7184336887e-01	 1.0387076243e+00	-1.2095242035e+00
 5.4763336859e-01	 1.0516729819e+00	-1.3300119754e+00
 5.2321709291e-01	 1.0640311279e+00	-1.4463259252e+00
 4.9861670201e-01	 1.0757786723e+00	-1.5577555436e+00
 7.4253651267e-01	 9.4267678838e-01	-4.3782985389e-01
 7.2011418207e-01	 9.5991435284e-01	-5.5443009104e-01
 6.9733029734e-01	 9.7659124326e-01	-6.7226672781e-01
 6.7420579235e-01	 9.9269660499e-01	-7.9044188121e-01
 6.5076200470e-01	 1.0082206173e+00	-9.0808362378e-01
 6.2702061255e-01	 1.0231545100e+00	-1.0243497159e+00
 6.0300357097e-01	 1.0374905751e+00	-1.1384313817e+00
 5.7873304801e-01	 1.0512221740e+00	-1.2495571106e+00
 5.5423136099e-01	 1.0643437408e+00	-1.3569964561e+00
 5.2952091330e-01	 1.0768507800e+00	-1.4600637966e+00
 5.0462413216e-01	 1.0887398611e+00	-1.5581220162e+00
 7.5137623306e-01	 9.5389913110e-01	-5.4893514673e-01
 7.2868696995e-01	 9.7134190466e-01	-6.5713683763e-01
 7.0563184850e-01	 9.8821732949e-01	-7.6576837834e-01
 6.8223205179e-01	 1.0045144217e+00	-8.7403240772e-01
 6.5850917142e-01	 1.0202232437e+00	-9.8115427634e-01
 6.3448514366e-01	 1.0353349209e+00	-1.0863853202e+00
 6.1018218491e-01	 1.0498416534e+00	-1.1890062407e+00
 5.8562272715e-01	 1.0637367237e+00	-1.2883305771e+00
 5.6082935338e-01	 1.0770144996e+00	-1.3837082453e+00
 5.3582473370e-01	 1.0896704321e+00	-1.4745291106e+00
 5.1063156230e-01	 1.1017010500e+00	-1.5602265484e+00
 7.6021595345e-01	 9.6512147382e-01	-6.5256089742e-01
 7.3725975783e-01	 9.8276945648e-01	-7.5305859095e-01
 7.1393339966e-01	 9.9984341572e-01	-8.5322928566e-01
 6.9025831122e-01	 1.0163322384e+00	-9.5237009580e-01
 6.6625633815e-01	 1.0322258701e+00	-1.0497980288e+00
 6.4194967476e-01	 1.0475153317e+00	-1.1448528111e+00
 6.1736079886e-01	 1.0621927316e+00	-1.2368998808e+00
 5.9251240630e-01	 1.0762512734e+00	-1.3253335358e+00
 5.6742734577e-01	 1.0896852584e+00	-1.4095802167e+00
 5.4212855410e-01	 1.1024900843e+00	-1.4891018913e+00
 5.1663899245e-01	 1.1146622388e+00	-1.5633994955e+00
 7.6905567384e-01	 9.7634381653e-01	-7.4867451772e-01
 7.4583254571e-01	 9.9419700830e-01	-8.4208867436e-01
 7.2223495081e-01	 1.0114695019e+00	-9.3447144297e-01
 6.9828457065e-01	 1.0281500552e+00	-1.0252084682e+00
 6.7400350487e-01	 1.0442284965e+00	-1.1137028774e+00
 6.4941420586e-01	 1.0596957425e+00	-1.1993776687e+00
 6.2453941280e-01	 1.0745438099e+00	-1.2816783235e+00
 5.9940208544e-01	 1.0887658231e+00	-1.3600756362e+00
 5.7402533816e-01	 1.1023560172e+00	-1.4340687435e+00
 5.4843237449e-01	 1.1153097364e+00	-1.5031883216e+00
 5.2264642259e-01	 1.1276234276e+00	-1.5669999069e+00
 7.7789539423e-01	 9.8756615925e-01	-8.3724126233e-01
 7.5440533360e-01	 1.0056245601e+00	-9.2412166850e-01
 7.3053650197e-01	 1.0230955882e+00	-1.0093214085e+00
 7.0631083008e-01	 1.0399678719e+00	-1.0923088108e+00
 6.8175067159e-01	 1.0562311229e+00	-1.1725676673e+00
 6.5687873696e-01	 1.0718761534e+00	-1.2495991933e+00
 6.3171802674e-01	 1.0868948882e+00	-1.3229242666e+00
 6.0629176458e-01	 1.1012803728e+00	-1.3920859437e+00
 5.8062333056e-01	 1.1150267760e+00	-1.4566522379e+00
 5.5473619489e-01	 1.1281293886e+00	-1.5162191303e+00
 5.2865385273e-01	 1.1405846164e+00	-1.5704137695e+00
 7.8673511462e-01	 9.9878850197e-01	-9.1822425626e-01
 7.6297812148e-01	 1.0170521119e+00	-9.9905324298e-01
 7.3883805313e-01	 1.0347216744e+00	-1.0776099475e+00
 7.1433708952e-01	 1.0517856886e+00	-1.1534396309e+00
 6.8949783831e-01	 1.0682337493e+00	-1.2261013739e+00
 6.6434326806e-01	 1.0840565642e+00	-1.2951696167e+00
 6.3889664068e-01	 1.0992459665e+00	-1.3602360321e+00
 6.1318144373e-01	 1.1137949225e+00	-1.4209117310e+00
 5.8722132295e-01	 1.1276975349e+00	-1.4768297932e+00
 5.6104001529e-01	 1.1409490407e+00	-1.5276480917e+00
 5.3466128288e-01	 1.1535458053e+00	-1.5730523714e+00
 7.9557483501e-01	 1.0100108447e+00	-9.9158452571e-01
 7.7155090936e-01	 1.0284796638e+00	-1.0667800044e+00
 7.4713960429e-01	 1.0463477606e+00	-1.1391717029e+00
 7.2236334895e-01	 1.0636035053e+00	-1.2083761567e+00
 6.9724500504e-01	 1.0802363757e+00	-1.2740224364e+00
 6.7180779917e-01	 1.0962369751e+00	-1.3357532767e+00
 6.4607525462e-01	 1.1115970447e+00	-1.3932265871e+00
 6.2007112287e-01	 1.1263094722e+00	-1.4461173529e+00
 5.9381931534e-01	 1.1403682937e+00	-1.4941199185e+00
 5.6734383568e-01	 1.1537686929e+00	-1.5369506274e+00
 5.4066871302e-01	 1.1665069941e+00	-1.5743507782e+00
 4.8059441158e-01	 1.0368951059e+00	-1.5742520258e+00
 4.5672705470e-01	 1.0476272460e+00	-1.7285524413e+00
 4.3272479257e-01	 1.0577673198e+00	-1.8794608405e+00
 4.0860870943e-01	 1.0673150292e+00	-2.0259024390e+00
 3.8439968936e-01	 1.0762710290e+00	-2.1669252707e+00
 3.6011836548e-01	 1.0846369032e+00	-2.3017036229e+00
 3.3578507167e-01	 1.0924151384e+00	-2.4295404418e+00
 3.1141979685e-01	 1.0996090938e+00	-2.5498686864e+00
 2.8704214211e-01	 1.1062229692e+00	-2.6622516193e+00
 2.6267128066e-01	 1.1122617710e+00	-2.7663820341e+00
 2.3832592089e-01	 1.1177312756e+00	-2.8620804333e+00
 4.8660184172e-01	 1.0498562947e+00	-1.5650703041e+00
 4.6243614289e-01	 1.0607225865e+00	-1.7026814155e+00
 4.3813385247e-01	 1.0709894113e+00	-1.8371546855e+00
 4.1371631830e-01	 1.0806564671e+00	-1.9675406243e+00
 3.8920468548e-01	 1.0897244168e+00	-2.0929994610e+00
 3.6461984505e-01	 1.0981948645e+00	-2.2128045848e+00
 3.3998238507e-01	 1.1060703276e+00	-2.3263450635e+00
 3.1531254431e-01	 1.1133542074e+00	-2.4331272078e+00
 2.9063016888e-01	 1.1200507563e+00	-2.5327751613e+00
 2.6595467167e-01	 1.1261650432e+00	-2.6250305045e+00
 2.4130499490e-01	 1.1317029165e+00	-2.7097508767e+00
 4.9260927187e-01	 1.0628174835e+00	-1.5598273586e+00
 4.6814523107e-01	 1.0738179271e+00	-1.6819086340e+00
 4.4354291238e-01	 1.0842115028e+00	-1.8010684253e+00
 4.1882392717e-01	 1.0939979049e+00	-1.9164748892e+00
 3.9400968159e-01	 1.1031778047e+00	-2.0273933402e+00
 3.6912132462e-01	 1.1117528258e+00	-2.1331897276e+00
 3.4417969846e-01	 1.1197255169e+00	-2.2333332937e+00
 3.1920529177e-01	 1.1270993211e+00	-2.3273983712e+00
 2.9421819566e-01	 1.1338785435e+00	-2.4150652897e+00
 2.6923806267e-01	 1.1400683153e+00	-2.4961203713e+00
 2.4428406891e-01	 1.1456745575e+00	-2.5704550060e+00
 4.9861670201e-01	 1.0757786723e+00	-1.5577555436e+00
 4.7385431925e-01	 1.0869132677e+00	-1.6654115138e+00
 4.4895197229e-01	 1.0974335943e+00	-1.7703277019e+00
 4.2393153603e-01	 1.1073393428e+00	-1.8717824049e+00
 3.9881467771e-01	 1.1166311926e+00	-1.9691390329e+00
 3.7362280419e-01	 1.1253107871e+00	-2.0618496533e+00
 3.4837701186e-01	 1.1333807061e+00	-2.1494578142e+00
 3.2309803923e-01	 1.1408444348e+00	-2.2316005982e+00
 2.9780622244e-01	 1.1477063306e+00	-2.3080098653e+00
 2.7252145368e-01	 1.1539715874e+00	-2.3785126538e+00
 2.4726314293e-01	 1.1596461984e+00	-2.4430307208e+00
 5.0462413216e-01	 1.0887398611e+00	-1.5581220162e+00
 4.7956340744e-01	 1.1000086083e+00	-1.6524051721e+00
 4.5436103219e-01	 1.1106556858e+00	-1.7440986227e+00
 4.2903914490e-01	 1.1206807807e+00	-1.8325834323e+00
 4.0361967383e-01	 1.1300845804e+00	-1.9173142298e+00
 3.7812428376e-01	 1.1388687484e+00	-1.9978228498e+00
 3.5257432525e-01	 1.1470358953e+00	-2.0737213493e+00
 3.2699078670e-01	 1.1545895485e+00	-2.1447043413e+00
 3.0139424921e-01	 1.1615341177e+00	-2.2105505933e+00
 2.7580484469e-01	 1.1678748596e+00	-2.2711238504e+00
 2.5024221694e-01	 1.1736178394e+00	-2.3263728515e+00
 5.1063156230e-01	 1.1017010500e+00	-1.5602265484e+00
 4.8527249562e-01	 1.1131039488e+00	-1.6421400687e+00
 4.5977009210e-01	 1.1238777773e+00	-1.7215852427e+00
 4.3414675377e-01	 1.1340222185e+00	-1.7980386536e+00
 4.0842466994e-01	 1.1435379683e+00	-1.8710393766e+00
 3.8262576333e-01	 1.1524267097e+00	-1.9401927478e+00
 3.5677163865e-01	 1.1606910846e+00	-2.0051736016e+00
 3.3088353416e-01	 1.1683346621e+00	-2.0657289079e+00
 3.0498227599e-01	 1.1753619048e+00	-2.1216797477e+00
 2.7908823570e-01	 1.1817781317e+00	-2.1729225741e+00
 2.5322129095e-01	 1.1875894803e+00	-2.2194297175e+00
 5.1663899245e-01	 1.1146622388e+00	-1.5633994955e+00
 4.9098158381e-01	 1.1261992894e+00	-1.6338998170e+00
 4.6517915201e-01	 1.1370998688e+00	-1.7020272251e+00
 4.3925436264e-01	 1.1473636564e+00	-1.7673466907e+00
 4.1322966606e-01	 1.1569913561e+00	-1.8294750605e+00
 3.8712724289e-01	 1.1659846710e+00	-1.8880849843e+00
 3.6096895205e-01	 1.1743462738e+00	-1.9429084017e+00
 3.3477628162e-01	 1.1820797758e+00	-1.9937395074e+00
 3.0857030276e-01	 1.1891896919e+00	-2.0404371249e+00
 2.8237162671e-01	 1.1956814039e+00	-2.0829264236e+00
 2.5620036496e-01	 1.2015611212e+00	-2.1211999264e+00
 5.2264642259e-01	 1.1276234276e+00	-1.5669999069e+00
 4.9669067199e-01	 1.1392946300e+00	-1.6269991479e+00
 4.7058821192e-01	 1.1503219603e+00	-1.6846976659e+00
 4.4436197150e-01	 1.1607050943e+00	-1.7397417984e+00
 4.1803466218e-01	 1.1704447440e+00	-1.7918195793e+00
 3.9162872246e-01	 1.1795426322e+00	-1.8406648569e+00
 3.6516626544e-01	 1.1880014630e+00	-1.8860610570e+00
 3.3866902908e-01	 1.1958248895e+00	-1.9278445029e+00
 3.1215832954e-01	 1.2030174790e+00	-1.9659072088e+00
 2.8565501771e-01	 1.2095846760e+00	-2.0001990711e+00
 2.5917943897e-01	 1.2155327622e+00	-2.0307293941e+00
 5.2865385273e-01	 1.1405846164e+00	-1.5704137695e+00
 5.0239976017e-01	 1.1523899706e+00	-1.6207820150e+00
 4.7599727182e-01	 1.1635440518e+00	-1.6689010684e+00
 4.4946958037e-01	 1.1740465321e+00	-1.7144917154e+00
 4.2283965830e-01	 1.1838981319e+00	-1.7573066778e+00
 3.9613020203e-01	 1.1931005935e+00	-1.7971349527e+00
 3.6936357884e-01	 1.2016566522e+00	-1.8338058819e+00
 3.4256177654e-01	 1.2095700032e+00	-1.8671928517e+00
 3.1574635632e-01	 1.2168452661e+00	-1.8972165296e+00
 2.8893840872e-01	 1.2234879481e+00	-1.9238475491e+00
 2.6215851298e-01	 1.2295044031e+00	-1.9471085690e+00
 5.3466128288e-01	 1.1535458053e+00	-1.5730523714e+00
 5.0810884836e-01	 1.1654853111e+00	-1.6146198308e+00
 4.8140633173e-01	 1.1767661433e+00	-1.6539714575e+00
 4.5457718924e-01	 1.1873879700e+00	-1.6908956641e+00
 4.2764465441e-01	 1.1973515197e+00	-1.7252034391e+00
 4.0063168160e-01	 1.2066585548e+00	-1.7567329397e+00
 3.7356089223e-01	 1.2153118415e+00	-1.7853538962e+00
 3.4645452400e-01	 1.2233151168e+00	-1.8109717193e+00
 3.1933438309e-01	 1.2306730533e+00	-1.8335312024e+00
 2.9222179973e-01	 1.2373912203e+00	-1.8530197215e+00
 2.6513758699e-01	 1.2434760441e+00	-1.8694698438e+00
 5.4066871302e-01	 1.1665069941e+00	-1.5743507782e+00
 5.1381793654e-01	 1.1785806517e+00	-1.6079098221e+00
 4.8681539164e-01	 1.1899882348e+00	-1.6392706211e+00
 4.5968479811e-01	 1.2007294079e+00	-1.6682824838e+00
 4.3244965053e-01	 1.2108049076e+00	-1.6948083174e+00
 4.0513316117e-01	 1.2202165161e+00	-1.7187295055e+00
 3.7775820563e-01	 1.2289670307e+00	-1.7399506783e+00
 3.5034727146e-01	 1.2370602305e+00	-1.7584042535e+00
 3.2292240987e-01	 1.2445008404e+00	-1.7740546301e+00
 2.9550519074e-01	 1.2512944924e+00	-1.7869019233e+00
 2.6811666100e-01	 1.2574476850e+00	-1.7969851411e+00
 2.3832592089e-01	 1.1177312756e+00	-2.8620804333e+00
 2.1402427246e-01	 1.1226379914e+00	-2.9492167780e+00
 1.8978401553e-01	 1.1269891199e+00	-3.0273959169e+00
 1.6562227317e-01	 1.1307925148e+00	-3.0962526418e+00
 1.4155558699e-01	 1.1340566409e+00	-3.1555751054e+00
 1.1759989583e-01	 1.1367905319e+00	-3.2052992536e+00
 9.3770517641e-02	 1.1390037485e+00	-3.2455021885e+00
 7.0082134397e-02	 1.1407063353e+00	-3.2763945661e+00
 4.6548779969e-02	 1.1419087792e+00	-3.2983121447e+00
 2.3183830908e-02	 1.1426219668e+00	-3.3117066046e+00
 0.0000000000e+00	 1.1428571429e+00	-3.3171357642e+00
 2.4130499490e-01	 1.1317029165e+00	-2.7097508767e+00
 2.1669957587e-01	 1.1366709663e+00	-2.7869204115e+00
 1.9215631572e-01	 1.1410764839e+00	-2.8562298986e+00
 1.6769255158e-01	 1.1449274213e+00	-2.9172974721e+00
 1.4332503182e-01	 1.1482323489e+00	-2.9698910430e+00
 1.1906989452e-01	 1.1510004136e+00	-3.0139232397e+00
 9.4942649111e-02	 1.1532412953e+00	-3.0494452486e+00
 7.0958161077e-02	 1.1549651645e+00	-3.0766396563e+00
 4.7130639719e-02	 1.1561826390e+00	-3.0958124050e+00
 2.3473628794e-02	 1.1569047414e+00	-3.1073839810e+00
 0.0000000000e+00	 1.1571428571e+00	-3.1118799591e+00
 2.4428406891e-01	 1.1456745575e+00	-2.5704550060e+00
 2.1937487927e-01	 1.1507039412e+00	-2.6381810720e+00
 1.9452861591e-01	 1.1551638479e+00	-2.6990916048e+00
 1.6976283000e-01	 1.1590623277e+00	-2.7527893268e+00
 1.4509447666e-01	 1.1624080569e+00	-2.7990232022e+00
 1.2053989322e-01	 1.1652102952e+00	-2.8376838872e+00
 9.6114780582e-02	 1.1674788422e+00	-2.8687980499e+00
 7.1834187757e-02	 1.1692239937e+00	-2.8925216569e+00
 4.7712499468e-02	 1.1704564987e+00	-2.9091323362e+00
 2.3763426680e-02	 1.1711875159e+00	-2.9190209312e+00
 0.0000000000e+00	 1.1714285714e+00	-2.9226823723e+00
 2.4726314293e-01	 1.1596461984e+00	-2.4430307208e+00
 2.2205018268e-01	 1.1647369161e+00	-2.5018153436e+00
 1.9690091611e-01	 1.1692512119e+00	-2.5547761096e+00
 1.7183310841e-01	 1.1731972341e+00	-2.6015014454e+00
 1.4686392150e-01	 1.1765837649e+00	-2.6417225365e+00
 1.2200989192e-01	 1.1794201769e+00	-2.6753092901e+00
 9.7286912052e-02	 1.1817163890e+00	-2.7022651368e+00
 7.2710214437e-02	 1.1834828229e+00	-2.7227207623e+00
 4.8294359218e-02	 1.1847303584e+00	-2.7369268778e+00
 2.4053224567e-02	 1.1854702905e+00	-2.7452461396e+00
 0.0000000000e+00	 1.1857142857e+00	-2.7481443438e+00
 2.5024221694e-01	 1.1736178394e+00	-2.3263728515e+00
 2.2472548608e-01	 1.1787698910e+00	-2.3766980977e+00
 1.9927321630e-01	 1.1833385759e+00	-2.4221381267e+00
 1.7390338683e-01	 1.1873321406e+00	-2.4622680572e+00
 1.4863336634e-01	 1.1907594729e+00	-2.4968023398e+00
 1.2347989062e-01	 1.1936300585e+00	-2.5255912362e+00
 9.8459043523e-02	 1.1959539359e+00	-2.5486161053e+00
 7.3586241117e-02	 1.1977416521e+00	-2.5659835829e+00
 4.8876218968e-02	 1.1990042182e+00	-2.5779187590e+00
 2.4343022453e-02	 1.1997530651e+00	-2.5847574638e+00
 0.0000000000e+00	 1.2000000000e+00	-2.5869377833e+00
 2.5322129095e-01	 1.1875894803e+00	-2.2194297175e+00
 2.2740078949e-01	 1.1928028659e+00	-2.2617589798e+00
 2.0164551650e-01	 1.1974259399e+00	-2.3000884254e+00
 1.7597366524e-01	 1.2014670470e+00	-2.3339807274e+00
 1.5040281117e-01	 1.2049351810e+00	-2.3631345228e+00
 1.2494988932e-01	 1.2078399402e+00	-2.3873814133e+00
 9.9631174993e-02	 1.2101914827e+00	-2.4066817393e+00
 7.4462267797e-02	 1.2120004813e+00	-2.4211192108e+00
 4.9458078717e-02	 1.2132780779e+00	-2.4308944926e+00
 2.4632820339e-02	 1.2140358397e+00	-2.4363178570e+00
 0.0000000000e+00	 1.2142857143e+00	-2.4378010191e+00
 2.5620036496e-01	 1.2015611212e+00	-2.1211999264e+00
 2.3007609290e-01	 1.2068358408e+00	-2.1559791423e+00
 2.0401781669e-01	 1.2115133039e+00	-2.1875904979e+00
 1.7804394366e-01	 1.2156019534e+00	-2.2155849588e+00
 1.5217225601e-01	 1.2191108890e+00	-2.2396461493e+00
 1.2641988801e-01	 1.2220498218e+00	-2.2595878804e+00
 1.0080330646e-01	 1.2244290296e+00	-2.2753504166e+00
 7.5338294477e-02	 1.2262593105e+00	-2.2869955602e+00
 5.0039938467e-02	 1.2275519377e+00	-2.2947006491e+00
 2.4922618226e-02	 1.2283186143e+00	-2.2987515744e+00
 0.0000000000e+00	 1.2285714286e+00	-2.2995349366e+00
 2.5917943897e-01	 1.2155327622e+00	-2.0307293941e+00
 2.3275139630e-01	 1.2208688157e+00	-2.0583882026e+00
 2.0639011688e-01	 1.2256006679e+00	-2.0836574556e+00
 1.8011422207e-01	 1.2297368599e+00	-2.1060770275e+00
 1.5394170085e-01	 1.2332865970e+00	-2.1253162117e+00
 1.2788988671e-01	 1.2362597035e+00	-2.1411717830e+00
 1.0197543793e-01	 1.2386665764e+00	-2.1535647623e+00
 7.6214321157e-02	 1.2405181397e+00	-2.1625359600e+00
 5.0621798217e-02	 1.2418257974e+00	-2.1682403873e+00
 2.5212416112e-02	 1.2426013889e+00	-2.1709406416e+00
 0.0000000000e+00	 1.2428571429e+00	-2.1709993826e+00
 2.6215851298e-01	 1.2295044031e+00	-1.9471085690e+00
 2.3542669971e-01	 1.2349017906e+00	-1.9680614094e+00
 2.0876241708e-01	 1.2396880319e+00	-1.9873491387e+00
 1.8218450049e-01	 1.2438717663e+00	-2.0045010353e+00
 1.5571114569e-01	 1.2474623050e+00	-2.0191726263e+00
 1.2935988541e-01	 1.2504695851e+00	-2.0311442910e+00
 1.0314756940e-01	 1.2529041233e+00	-2.0403185316e+00
 7.7090347837e-02	 1.2547769688e+00	-2.0467159788e+00
 5.1203657966e-02	 1.2560996571e+00	-2.0504702220e+00
 2.5502213999e-02	 1.2568841635e+00	-2.0518215638e+00
 0.0000000000e+00	 1.2571428571e+00	-2.0511098161e+00
 2.6513758699e-01	 1.2434760441e+00	-1.8694698438e+00
 2.3810200311e-01	 1.2489347655e+00	-1.8841170006e+00
 2.1113471727e-01	 1.2537753959e+00	-1.8977694202e+00
 1.8425477890e-01	 1.2580066728e+00	-1.9099461609e+00
 1.5748059052e-01	 1.2616380130e+00	-1.9202894316e+00
 1.3082988411e-01	 1.2646794668e+00	-1.9285637452e+00
 1.0431970088e-01	 1.2671416702e+00	-1.9346537017e+00
 7.7966374517e-02	 1.2690357980e+00	-1.9385604640e+00
 5.1785517716e-02	 1.2703735169e+00	-1.9403970092e+00
 2.5792011885e-02	 1.2711669380e+00	-1.9403822564e+00
 0.0000000000e+00	 1.2714285714e+00	-1.9388341830e+00
 2.6811666100e-01	 1.2574476850e+00	-1.7969851411e+00
 2.4077730652e-01	 1.2629677403e+00	-1.8057137377e+00
 2.1350701747e-01	 1.2678627599e+00	-1.8140636902e+00
 1.8632505732e-01	 1.2721415792e+00	-1.8215440945e+00
 1.5925003536e-01	 1.2758137210e+00	-1.8277841738e+00
 1.3229988281e-01	 1.2788893484e+00	-1.8325329922e+00
 1.0549183235e-01	 1.2813792170e+00	-1.8356577585e+00
 7.8842401197e-02	 1.2832946272e+00	-1.8371407782e+00
 5.2367377465e-02	 1.2846473766e+00	-1.8370751325e+00
 2.6081809771e-02	 1.2854497126e+00	-1.8356591809e+00
 0.0000000000e+00	 1.2857142857e+00	-1.8331900009e+00
 1.2857142857e+00	 0.0000000000e+00	 2.8570285265e+00
 1.2854497126e+00	 2.6081809771e-02	 2.8597128862e+00
 1.2846473766e+00	 5.2367377465e-02	 2.8515435562e+00
 1.2832946272e+00	 7.8842401197e-02	 2.8330625234e+00
 1.2813792170e+00	 1.0549183235e-01	 2.8048808868e+00
 1.2788893484e+00	 1.3229988281e-01	 2.7676756192e+00
 1.2758137210e+00	 1.5925003536e-01	 2.7221857997e+00
 1.2721415792e+00	 1.8632505732e-01	 2.6692083066e+00
 1.2678627599e+00	 2.1350701747e-01	 2.6095929620e+00
 1.2629677403e+00	 2.4077730652e-01	 2.5442371230e+00
 1.2574476850e+00	 2.6811666100e-01	 2.4740797196e+00
 1.3000000000e+00	 0.0000000000e+00	 2.8864763206e+00
 1.2997324872e+00	 2.6371607658e-02	 2.8890894827e+00
 1.2989212364e+00	 5.2949237215e-02	 2.8802037461e+00
 1.2975534564e+00	 7.9718427877e-02	 2.8604001617e+00
 1.2956167639e+00	 1.0666396382e-01	 2.8303290444e+00
 1.2930992301e+00	 1.3376988150e-01	 2.7907064903e+00
 1.2899894290e+00	 1.6101948020e-01	 2.7423103618e+00
 1.2862764856e+00	 1.8839533573e-01	 2.6859757253e+00
 1.2819501239e+00	 2.1587931766e-01	 2.6225897357e+00
 1.2770007152e+00	 2.4345260993e-01	 2.5530859604e+00
 1.2714193260e+00	 2.7109573501e-01	 2.4784381455e+00
 1.3142857143e+00	 0.0000000000e+00	 2.9143756988e+00
 1.3140152618e+00	 2.6661405544e-02	 2.9169818379e+00
 1.3131950961e+00	 5.3531096965e-02	 2.9074539366e+00
 1.3118122856e+00	 8.0594454557e-02	 2.8864146539e+00
 1.3098543107e+00	 1.0783609529e-01	 2.8545560645e+00
 1.3073091117e+00	 1.3523988020e-01	 2.8126359198e+00
 1.3041651370e+00	 1.6278892504e-01	 2.7614733677e+00
 1.3004113921e+00	 1.9046561414e-01	 2.7019441191e+00
 1.2960374879e+00	 2.1825161785e-01	 2.6349750534e+00
 1.2910336901e+00	 2.4612791333e-01	 2.5615382570e+00
 1.2853909669e+00	 2.7407480903e-01	 2.4826444961e+00
 1.3285714286e+00	 0.0000000000e+00	 2.9403348206e+00
 1.3282980364e+00	 2.6951203430e-02	 2.9429947717e+00
 1.3274689558e+00	 5.4112956714e-02	 2.9328957977e+00
 1.3260711148e+00	 8.1470481237e-02	 2.9107045832e+00
 1.3240918576e+00	 1.0900822676e-01	 2.8771573789e+00
 1.3215189934e+00	 1.3670987890e-01	 2.8330559911e+00
 1.3183408450e+00	 1.6455836987e-01	 2.7792632223e+00
 1.3145462985e+00	 1.9253589256e-01	 2.7166977503e+00
 1.3101248519e+00	 2.2062391805e-01	 2.6463284374e+00
 1.3050666650e+00	 2.4880321674e-01	 2.5691680645e+00
 1.2993626079e+00	 2.7705388304e-01	 2.4862664903e+00
 1.3428571429e+00	 0.0000000000e+00	 2.9639754545e+00
 1.3425808110e+00	 2.7241001317e-02	 2.9667472200e+00
 1.3417428156e+00	 5.4694816464e-02	 2.9561456192e+00
 1.3403299440e+00	 8.2346507917e-02	 2.9328836566e+00
 1.3383294044e+00	 1.1018035823e-01	 2.8977440482e+00
 1.3357288750e+00	 1.3817987760e-01	 2.8515749265e+00
 1.3325165531e+00	 1.6632781471e-01	 2.7952849876e+00
 1.3286812049e+00	 1.9460617097e-01	 2.7298380681e+00
 1.3242122159e+00	 2.2299621824e-01	 2.6562471410e+00
 1.3190996399e+00	 2.5147852014e-01	 2.5755677277e+00
 1.3133342488e+00	 2.8003295705e-01	 2.4888907245e+00
 1.3571428571e+00	 0.0000000000e+00	 2.9849322619e+00
 1.3568635855e+00	 2.7530799203e-02	 2.9878715030e+00
 1.3560166753e+00	 5.5276676213e-02	 2.9768335630e+00
 1.3545887732e+00	 8.3222534597e-02	 2.9525799395e+00
 1.3525669513e+00	 1.1135248970e-01	 2.9159419792e+00
 1.3499387567e+00	 1.3964987629e-01	 2.8678162861e+00
 1.3466922611e+00	 1.6809725955e-01	 2.8091595620e+00
 1.3428161114e+00	 1.9667644939e-01	 2.7409828660e+00
 1.3382995799e+00	 2.2536851844e-01	 2.6643452828e+00
 1.3331326148e+00	 2.5415382355e-01	 2.5803469944e+00
 1.3273058898e+00	 2.8301203106e-01	 2.4901217561e+00
 1.3714285714e+00	 0.0000000000e+00	 3.0028521257e+00
 1.3711463601e+00	 2.7820597089e-02	 3.0060126389e+00
 1.3702905351e+00	 5.5858535963e-02	 2.9946029614e+00
 1.3688476024e+00	 8.4098561277e-02	 2.9694351385e+00
 1.3668044981e+00	 1.1252462117e-01	 2.9313911912e+00
 1.3641486383e+00	 1.4111987499e-01	 2.8814182168e+00
 1.3608679691e+00	 1.6986670438e-01	 2.8205229101e+00
 1.3569510178e+00	 1.9874672780e-01	 2.7497654921e+00
 1.3523869439e+00	 2.2774081863e-01	 2.6702530354e+00
 1.3471655897e+00	 2.5682912695e-01	 2.5831321803e+00
 1.3412775307e+00	 2.8599110507e-01	 2.4895812421e+00
 1.3857142857e+00	 0.0000000000e+00	 3.0173935200e+00
 1.3854291347e+00	 2.8110394976e-02	 3.0208276996e+00
 1.3845643948e+00	 5.6440395713e-02	 3.0091096590e+00
 1.3831064316e+00	 8.4974587957e-02	 2.9831039284e+00
 1.3810420450e+00	 1.1369675264e-01	 2.9437451274e+00
 1.3783585200e+00	 1.4258987369e-01	 2.8920327471e+00
 1.3750436771e+00	 1.7163614922e-01	 2.8290253403e+00
 1.3710859242e+00	 2.0081700622e-01	 2.7558341071e+00
 1.3664743079e+00	 2.3011311883e-01	 2.6736158631e+00
 1.3611985646e+00	 2.5950443036e-01	 2.5835653849e+00
 1.3552491716e+00	 2.8897017908e-01	 2.4869071313e+00
 1.4000000000e+00	 0.0000000000e+00	 3.0282259189e+00
 1.3997119093e+00	 2.8400192862e-02	 3.0319852068e+00
 1.3988382545e+00	 5.7022255462e-02	 3.0200213950e+00
 1.3973652608e+00	 8.5850614637e-02	 2.9932533207e+00
 1.3952795919e+00	 1.1486888411e-01	 2.9526700087e+00
 1.3925684016e+00	 1.4405987239e-01	 2.8993251250e+00
 1.3892193851e+00	 1.7340559406e-01	 2.8343308259e+00
 1.3852208307e+00	 2.0288728463e-01	 2.7588509878e+00
 1.3805616719e+00	 2.3248541902e-01	 2.6740938059e+00
 1.3752315395e+00	 2.6217973377e-01	 2.5813037539e+00
 1.3692208126e+00	 2.9194925309e-01	 2.4817529040e+00
 1.4142857143e+00	 0.0000000000e+00	 3.0350292409e+00
 1.4139946839e+00	 2.8689990748e-02	 3.0391645638e+00
 1.4131121143e+00	 5.7604115212e-02	 3.0270172225e+00
 1.4116240899e+00	 8.6726641317e-02	 2.9995620697e+00
 1.4095171387e+00	 1.1604101558e-01	 2.9578442260e+00
 1.4067782833e+00	 1.4552987109e-01	 2.9029731961e+00
 1.4033950931e+00	 1.7517503890e-01	 2.8361163672e+00
 1.3993557371e+00	 2.0495756305e-01	 2.7584918722e+00
 1.3946490359e+00	 2.3485771921e-01	 2.6713608060e+00
 1.3892645144e+00	 2.6485503717e-01	 2.5760187865e+00
 1.3831924535e+00	 2.9492832710e-01	 2.4737868575e+00
 1.4285714286e+00	 0.0000000000e+00	 3.0374933267e+00
 1.4282774585e+00	 2.8979788635e-02	 3.0420555217e+00
 1.4273859740e+00	 5.8185974962e-02	 3.0297869631e+00
 1.4258829191e+00	 8.7602667997e-02	 3.0017201147e+00
 1.4237546856e+00	 1.1721314705e-01	 2.9589577689e+00
 1.4209881649e+00	 1.4699986978e-01	 2.9026668182e+00
 1.4175708011e+00	 1.7694448373e-01	 2.8340713917e+00
 1.4134906435e+00	 2.0702784146e-01	 2.7544453436e+00
 1.4087363999e+00	 2.3723001941e-01	 2.6651040750e+00
 1.4032974893e+00	 2.6753034058e-01	 2.5673956831e+00
 1.3971640945e+00	 2.9790740112e-01	 2.4626914336e+00
 1.2574476850e+00	 2.6811666100e-01	 2.4740797196e+00
 1.2512944924e+00	 2.9550519074e-01	 2.3971628819e+00
 1.2445008404e+00	 3.2292240987e-01	 2.3114353489e+00
 1.2370602305e+00	 3.5034727146e-01	 2.2177338977e+00
 1.2289670307e+00	 3.7775820563e-01	 2.1169058521e+00
 1.2202165161e+00	 4.0513316117e-01	 2.0098044616e+00
 1.2108049076e+00	 4.3244965053e-01	 1.8972841518e+00
 1.2007294079e+00	 4.5968479811e-01	 1.7801956805e+00
 1.1899882348e+00	 4.8681539164e-01	 1.6593812400e+00
 1.1785806517e+00	 5.1381793654e-01	 1.5356695555e+00
 1.1665069941e+00	 5.4066871302e-01	 1.4098710304e+00
 1.2714193260e+00	 2.7109573501e-01	 2.4784381455e+00
 1.2651977645e+00	 2.9878858175e-01	 2.3966917744e+00
 1.2583286275e+00	 3.2651043665e-01	 2.3058182437e+00
 1.2508053442e+00	 3.5424001892e-01	 2.2067162491e+00
 1.2426222199e+00	 3.8195551903e-01	 2.1002938463e+00
 1.2337744774e+00	 4.0963464074e-01	 1.9874634057e+00
 1.2242582955e+00	 4.3725464665e-01	 1.8691364239e+00
 1.2140708457e+00	 4.6479240698e-01	 1.7462182305e+00
 1.2032103263e+00	 4.9222445154e-01	 1.6196026364e+00
 1.1916759923e+00	 5.1952702472e-01	 1.4901665751e+00
 1.1794681829e+00	 5.4667614317e-01	 1.3587647961e+00
 1.2853909669e+00	 2.7407480903e-01	 2.4826444961e+00
 1.2791010367e+00	 3.0207197276e-01	 2.3963462971e+00
 1.2721564146e+00	 3.3009846342e-01	 2.3006358283e+00
 1.2645504578e+00	 3.5813276638e-01	 2.1964674636e+00
 1.2562774092e+00	 3.8615283242e-01	 2.0848038018e+00
 1.2473324387e+00	 4.1413612031e-01	 1.9666102406e+00
 1.2377116833e+00	 4.4205964276e-01	 1.8428493941e+00
 1.2274122836e+00	 4.6990001584e-01	 1.7144753955e+00
 1.2164324178e+00	 4.9763351145e-01	 1.5824281327e+00
 1.2047713329e+00	 5.2523611291e-01	 1.4476274763e+00
 1.1924293717e+00	 5.5268357331e-01	 1.3109675612e+00
 1.2993626079e+00	 2.7705388304e-01	 2.4862664903e+00
 1.2930043088e+00	 3.0535536376e-01	 2.3956877782e+00
 1.2859842017e+00	 3.3368649020e-01	 2.2954439747e+00
 1.2782955715e+00	 3.6202551384e-01	 2.1865390459e+00
 1.2699325984e+00	 3.9035014582e-01	 2.0699841003e+00
 1.2608904000e+00	 4.1863759987e-01	 1.9467916257e+00
 1.2511650712e+00	 4.4686463888e-01	 1.8179695563e+00
 1.2407537214e+00	 4.7500762471e-01	 1.6845152140e+00
 1.2296545093e+00	 5.0304257136e-01	 1.5474091751e+00
 1.2178666734e+00	 5.3094520109e-01	 1.4076091241e+00
 1.2053905606e+00	 5.5869100346e-01	 1.2660437645e+00
 1.3133342488e+00	 2.8003295705e-01	 2.4888907245e+00
 1.3069075810e+00	 3.0863875477e-01	 2.3942969945e+00
 1.2998119888e+00	 3.3727451697e-01	 2.2898185174e+00
 1.2920406852e+00	 3.6591826130e-01	 2.1765029131e+00
 1.2835877876e+00	 3.9454745921e-01	 2.0554039143e+00
 1.2744483613e+00	 4.2313907944e-01	 1.9275753109e+00
 1.2646184590e+00	 4.5166963500e-01	 1.7940647092e+00
 1.2540951593e+00	 4.8011523358e-01	 1.6559071537e+00
 1.2428766008e+00	 5.0845163127e-01	 1.5141186657e+00
 1.2309620140e+00	 5.3665428928e-01	 1.3696897643e+00
 1.2183517494e+00	 5.6469843360e-01	 1.2235790433e+00
 1.3273058898e+00	 2.8301203106e-01	 2.4901217561e+00
 1.3208108531e+00	 3.1192214578e-01	 2.3917732273e+00
 1.3136397760e+00	 3.4086254375e-01	 2.2833542846e+00
 1.3057857989e+00	 3.6981100876e-01	 2.1659504023e+00
 1.2972429769e+00	 3.9874477261e-01	 2.0406521946e+00
 1.2880063226e+00	 4.2764055901e-01	 1.9085491081e+00
 1.2780718469e+00	 4.5647463111e-01	 1.7707229158e+00
 1.2674365972e+00	 4.8522284245e-01	 1.6282410613e+00
 1.2560986923e+00	 5.1386069117e-01	 1.4821499090e+00
 1.2440573546e+00	 5.4236337746e-01	 1.3334679708e+00
 1.2313129382e+00	 5.7070586375e-01	 1.1831791867e+00
 1.3412775307e+00	 2.8599110507e-01	 2.4895812421e+00
 1.3347141252e+00	 3.1520553679e-01	 2.3877333759e+00
 1.3274675631e+00	 3.4445057053e-01	 2.2756641872e+00
 1.3195309125e+00	 3.7370375622e-01	 2.1544913396e+00
 1.3108981661e+00	 4.0294208600e-01	 2.0253367204e+00
 1.3015642839e+00	 4.3214203858e-01	 1.8893199247e+00
 1.2915252348e+00	 4.6127962723e-01	 1.7475515248e+00
 1.2807780350e+00	 4.9033045132e-01	 1.6011261765e+00
 1.2693207838e+00	 5.1926975108e-01	 1.4511156209e+00
 1.2571526952e+00	 5.4807246564e-01	 1.2985616548e+00
 1.2442741270e+00	 5.7671329389e-01	 1.1444691501e+00
 1.3552491716e+00	 2.8897017908e-01	 2.4869071313e+00
 1.3486173974e+00	 3.1848892780e-01	 2.3818111247e+00
 1.3412953502e+00	 3.4803859730e-01	 2.2663783641e+00
 1.3332760262e+00	 3.7759650368e-01	 2.1417531635e+00
 1.3245533553e+00	 4.0713939940e-01	 2.0090832053e+00
 1.3151222452e+00	 4.3664351815e-01	 1.8695128557e+00
 1.3049786226e+00	 4.6608462335e-01	 1.7241762504e+00
 1.2941194729e+00	 4.9543806018e-01	 1.5741902030e+00
 1.2825428753e+00	 5.2467881099e-01	 1.4206469964e+00
 1.2702480357e+00	 5.5378155383e-01	 1.2646071330e+00
 1.2572353158e+00	 5.8272072404e-01	 1.1070921287e+00
 1.3692208126e+00	 2.9194925309e-01	 2.4817529040e+00
 1.3625206695e+00	 3.2177231881e-01	 2.3736561608e+00
 1.3551231373e+00	 3.5162662408e-01	 2.2551433775e+00
 1.3470211399e+00	 3.8148925114e-01	 2.1273801020e+00
 1.3382085445e+00	 4.1133671280e-01	 1.9915344569e+00
 1.3286802064e+00	 4.4114499772e-01	 1.8487703280e+00
 1.3184320105e+00	 4.7088961947e-01	 1.7002403058e+00
 1.3074609108e+00	 5.0054566905e-01	 1.5470784348e+00
 1.2957649668e+00	 5.3008787089e-01	 1.3903928312e+00
 1.2833433763e+00	 5.5949064201e-01	 1.2312582490e+00
 1.2701965047e+00	 5.8872815418e-01	 1.0707086827e+00
 1.3831924535e+00	 2.9492832710e-01	 2.4737868575e+00
 1.3764239417e+00	 3.2505570981e-01	 2.3629334366e+00
 1.3689509244e+00	 3.5521465086e-01	 2.2416214565e+00
 1.3607662535e+00	 3.8538199860e-01	 2.1110323969e+00
 1.3518637338e+00	 4.1553402619e-01	 1.9723495853e+00
 1.3422381677e+00	 4.4564647728e-01	 1.8267512958e+00
 1.3318853984e+00	 4.7569461558e-01	 1.6754035879e+00
 1.3208023486e+00	 5.0565327792e-01	 1.5194529326e+00
 1.3089870583e+00	 5.3549693080e-01	 1.3600186940e+00
 1.2964387169e+00	 5.6519973019e-01	 1.1981855458e+00
 1.2831576935e+00	 5.9473558433e-01	 1.0349959133e+00
 1.3971640945e+00	 2.9790740112e-01	 2.4626914336e+00
 1.3903272138e+00	 3.2833910082e-01	 2.3493224772e+00
 1.3827787115e+00	 3.5880267763e-01	 2.2254897838e+00
 1.3745113672e+00	 3.8927474607e-01	 2.0923855740e+00
 1.3655189230e+00	 4.1973133959e-01	 1.9512032571e+00
 1.3557961290e+00	 4.5014795685e-01	 1.8031304817e+00
 1.3453387862e+00	 4.8049961170e-01	 1.6493419075e+00
 1.3341437865e+00	 5.1076088679e-01	 1.4909917470e+00
 1.3222091498e+00	 5.4090599071e-01	 1.3292061462e+00
 1.3095340575e+00	 5.7090881838e-01	 1.1650754835e+00
 1.2961188823e+00	 6.0074301447e-01	 9.9964668501e-01
 1.1665069941e+00	 5.4066871302e-01	 1.4098710304e+00
 1.1537686929e+00	 5.6734383568e-01	 1.2810643676e+00
 1.1403682937e+00	 5.9381931534e-01	 1.1485236730e+00
 1.1263094722e+00	 6.2007112287e-01	 1.0133204232e+00
 1.1115970447e+00	 6.4607525462e-01	 8.7650223542e-01
 1.0962369751e+00	 6.7180779917e-01	 7.3908902429e-01
 1.0802363757e+00	 6.9724500504e-01	 6.0206953141e-01
 1.0636035053e+00	 7.2236334895e-01	 4.6639828037e-01
 1.0463477606e+00	 7.4713960429e-01	 3.3299300169e-01
 1.0284796638e+00	 7.7155090936e-01	 2.0273256273e-01
 1.0100108447e+00	 7.9557483501e-01	 7.6455426024e-02
 1.1794681829e+00	 5.4667614317e-01	 1.3587647961e+00
 1.1665883450e+00	 5.7364765608e-01	 1.2245265256e+00
 1.1530390525e+00	 6.0041730773e-01	 1.0867923879e+00
 1.1388240218e+00	 6.2696080201e-01	 9.4669637841e-01
 1.1239481230e+00	 6.5325386856e-01	 8.0534463437e-01
 1.1084173859e+00	 6.7927233027e-01	 6.6381103906e-01
 1.0922390021e+00	 7.0499217176e-01	 5.2313322746e-01
 1.0754213221e+00	 7.3038960838e-01	 3.8430905436e-01
 1.0579738469e+00	 7.5544115545e-01	 2.4829357769e-01
 1.0399072156e+00	 7.8012369724e-01	 1.1599659951e-01
 1.0212331874e+00	 8.0441455540e-01	-1.1719205270e-02
 1.1924293717e+00	 5.5268357331e-01	 1.3109675612e+00
 1.1794079971e+00	 5.7995147647e-01	 1.1716267969e+00
 1.1657098113e+00	 6.0701530013e-01	 1.0290106409e+00
 1.1513385715e+00	 6.3385048116e-01	 8.8431055046e-01
 1.1362992013e+00	 6.6043248250e-01	 7.3868637298e-01
 1.1205977967e+00	 6.8673686137e-01	 5.9326142948e-01
 1.1042416285e+00	 7.1273933848e-01	 4.4911802802e-01
 1.0872391388e+00	 7.3841586782e-01	 3.0729347532e-01
 1.0695999331e+00	 7.6374270661e-01	 1.6877664786e-01
 1.0513347674e+00	 7.8869648512e-01	 3.4505172151e-02
 1.0324555301e+00	 8.1325427578e-01	-9.4636749336e-02
 1.2053905606e+00	 5.5869100346e-01	 1.2660437645e+00
 1.1922276493e+00	 5.8625529687e-01	 1.1219389588e+00
 1.1783805701e+00	 6.1361329252e-01	 9.7476293515e-01
 1.1638531212e+00	 6.4074016030e-01	 8.2575971232e-01
 1.1486502796e+00	 6.6761109644e-01	 6.7613818853e-01
 1.1327782076e+00	 6.9420139247e-01	 5.2706673643e-01
 1.1162442549e+00	 7.2048650520e-01	 3.7966825378e-01
 1.0990569555e+00	 7.4644212725e-01	 2.3501574795e-01
 1.0812260193e+00	 7.7204425777e-01	 9.4128522941e-02
 1.0627623192e+00	 7.9726927300e-01	-4.2030974003e-02
 1.0436778728e+00	 8.2209399617e-01	-1.7255960311e-01
 1.2183517494e+00	 5.6469843360e-01	 1.2235790433e+00
 1.2050473014e+00	 5.9255911727e-01	 1.0750577155e+00
 1.1910513289e+00	 6.2021128491e-01	 9.2365435763e-01
 1.1763676709e+00	 6.4762983944e-01	 7.7066080007e-01
 1.1610013578e+00	 6.7478971038e-01	 6.1733047923e-01
 1.1449586184e+00	 7.0166592357e-01	 4.6487257303e-01
 1.1282468813e+00	 7.2823367193e-01	 3.1444661805e-01
 1.1108747723e+00	 7.5446838668e-01	 1.6715769480e-01
 1.0928521056e+00	 7.8034580893e-01	 2.4052257593e-02
 1.0741898710e+00	 8.0584206089e-01	-1.1388532629e-01
 1.0549002156e+00	 8.3093371656e-01	-2.4573547906e-01
 1.2313129382e+00	 5.7070586375e-01	 1.1831791867e+00
 1.2178669536e+00	 5.9886293766e-01	 1.0305976617e+00
 1.2037220878e+00	 6.2680927730e-01	 8.7530955633e-01
 1.1888822206e+00	 6.5451951858e-01	 7.1864990886e-01
 1.1733524361e+00	 6.8196832432e-01	 5.6191232268e-01
 1.1571390292e+00	 7.0913045468e-01	 4.0634267035e-01
 1.1402495077e+00	 7.3598083865e-01	 2.5313330480e-01
 1.1226925890e+00	 7.6249464611e-01	 1.0341787201e-01
 1.1044781918e+00	 7.8864736008e-01	-4.1733190325e-02
 1.0856174229e+00	 8.1441484877e-01	-1.8131639615e-01
 1.0661225583e+00	 8.3977343695e-01	-3.1439814106e-01
 1.2442741270e+00	 5.7671329389e-01	 1.1444691501e+00
 1.2306866057e+00	 6.0516675806e-01	 9.8819230739e-01
 1.2163928466e+00	 6.3340726970e-01	 8.2937177820e-01
 1.2013967703e+00	 6.6140919773e-01	 6.6938134733e-01
 1.1857035144e+00	 6.8914693826e-01	 5.0955055123e-01
 1.1693194401e+00	 7.1659498578e-01	 3.5115797816e-01
 1.1522521341e+00	 7.4372800537e-01	 1.9542509952e-01
 1.1345104057e+00	 7.7052090555e-01	 4.3510735401e-02
 1.1161042780e+00	 7.9694891124e-01	-1.0349375321e-01
 1.0970449747e+00	 8.2298763665e-01	-2.4456846642e-01
 1.0773449010e+00	 8.4861315734e-01	-3.7876809973e-01
 1.2572353158e+00	 5.8272072404e-01	 1.1070921287e+00
 1.2435062579e+00	 6.1147057846e-01	 9.4749315895e-01
 1.2290636054e+00	 6.4000526209e-01	 7.8550196242e-01
 1.2139113200e+00	 6.6829887687e-01	 6.2252674639e-01
 1.1980545927e+00	 6.9632555220e-01	 4.5992888015e-01
 1.1814998509e+00	 7.2405951688e-01	 2.9901581665e-01
 1.1642547605e+00	 7.5147517210e-01	 1.4103456900e-01
 1.1463282224e+00	 7.7854716498e-01	-1.2834146910e-02
 1.1277303642e+00	 8.0525046240e-01	-1.6148100320e-01
 1.1084725265e+00	 8.3156042453e-01	-3.0387229765e-01
 1.0885672437e+00	 8.5745287773e-01	-4.3905327009e-01
 1.2701965047e+00	 5.8872815418e-01	 1.0707086827e+00
 1.2563259100e+00	 6.1777439885e-01	 9.0816885333e-01
 1.2417343642e+00	 6.4660325448e-01	 7.4337788531e-01
 1.2264258697e+00	 6.7518855601e-01	 5.7777421855e-01
 1.2104056709e+00	 7.0350416614e-01	 4.1274708488e-01
 1.1936802617e+00	 7.3152404798e-01	 2.4962907557e-01
 1.1762573869e+00	 7.5922233882e-01	 8.9689286655e-02
 1.1581460392e+00	 7.8657342441e-01	-6.5872838560e-02
 1.1393564505e+00	 8.1355201356e-01	-2.1593286080e-01
 1.1199000783e+00	 8.4013321241e-01	-3.5944579637e-01
 1.0997895864e+00	 8.6629259812e-01	-4.9544959430e-01
 1.2831576935e+00	 5.9473558433e-01	 1.0349959133e+00
 1.2691455621e+00	 6.2407821925e-01	 8.6990434092e-01
 1.2544051230e+00	 6.5320124688e-01	 7.0269335335e-01
 1.2389404194e+00	 6.8207823516e-01	 5.3482756405e-01
 1.2227567492e+00	 7.1068278008e-01	 3.6772022380e-01
 1.2058606726e+00	 7.3898857908e-01	 2.0272545743e-01
 1.1882600133e+00	 7.6696950554e-01	 4.1131100033e-02
 1.1699638559e+00	 7.9459968384e-01	-1.1584773878e-01
 1.1509825367e+00	 8.2185356472e-01	-2.6707426565e-01
 1.1313276301e+00	 8.4870600030e-01	-4.1149464805e-01
 1.1110119292e+00	 8.7513231851e-01	-5.4814163187e-01
 1.2961188823e+00	 6.0074301447e-01	 9.9964668501e-01
 1.2819652143e+00	 6.3038203965e-01	 8.3240011394e-01
 1.2670758819e+00	 6.5979923927e-01	 6.6315744078e-01
 1.2514549691e+00	 6.8896791430e-01	 4.9340552061e-01
 1.2351078275e+00	 7.1786139402e-01	 3.2457790346e-01
 1.2180410834e+00	 7.4645311018e-01	 1.5804676159e-01
 1.2002626397e+00	 7.7471667226e-01	-4.8845623108e-03
 1.1817816726e+00	 8.0262594328e-01	-1.6298824881e-01
 1.1626086229e+00	 8.3015511588e-01	-3.1511781193e-01
 1.1427551819e+00	 8.5727878818e-01	-4.6021291713e-01
 1.1222342719e+00	 8.8397203890e-01	-5.9730311970e-01
 1.0100108447e+00	 7.9557483501e-01	 7.6455426024e-02
 9.9095401884e-01	 8.1918945125e-01	-4.7125745955e-02
 9.7132295976e-01	 8.4237339247e-01	-1.6922490304e-01
 9.5113246729e-01	 8.6510592077e-01	-2.8894606731e-01
 9.3039833114e-01	 8.8736698716e-01	-4.0542306184e-01
 9.0913729010e-01	 9.0913729010e-01	-5.1782045427e-01
 8.8736698716e-01	 9.3039833114e-01	-6.2533418314e-01
 8.6510592077e-01	 9.5113246729e-01	-7.2719192112e-01
 8.4237339247e-01	 9.7132295976e-01	-8.2265323838e-01
 8.1918945125e-01	 9.9095401884e-01	-9.1100963639e-01
 7.9557483501e-01	 1.0100108447e+00	-9.9158452571e-01
 1.0212331874e+00	 8.0441455540e-01	-1.1719205270e-02
 1.0019646190e+00	 8.2829155626e-01	-1.3610906551e-01
 9.8211543709e-01	 8.5173309683e-01	-2.5836681571e-01
 9.6170060582e-01	 8.7471820878e-01	-3.7759812314e-01
 9.4073609037e-01	 8.9722662035e-01	-4.9294200102e-01
 9.1923881554e-01	 9.1923881554e-01	-6.0357171557e-01
 8.9722662035e-01	 9.4073609037e-01	-7.0869533740e-01
 8.7471820878e-01	 9.6170060582e-01	-8.0755599435e-01
 8.5173309683e-01	 9.8211543709e-01	-8.9943189382e-01
 8.2829155626e-01	 1.0019646190e+00	-9.8363618982e-01
 8.0441455540e-01	 1.0212331874e+00	-1.0595167746e+00
 1.0324555301e+00	 8.1325427578e-01	-9.4636749336e-02
 1.0129752193e+00	 8.3739366128e-01	-2.1986571410e-01
 9.9290791442e-01	 8.6109280119e-01	-3.4234811742e-01
 9.7226874434e-01	 8.8433049679e-01	-4.6119241669e-01
 9.5107384961e-01	 9.0708625354e-01	-5.7554394303e-01
 9.2934034099e-01	 9.2934034099e-01	-6.8458575531e-01
 9.0708625354e-01	 9.5107384961e-01	-7.8753909802e-01
 8.8433049679e-01	 9.7226874434e-01	-8.8366352434e-01
 8.6109280119e-01	 9.9290791442e-01	-9.7225675686e-01
 8.3739366128e-01	 1.0129752193e+00	-1.0526543670e+00
 8.1325427578e-01	 1.0324555301e+00	-1.1242293597e+00
 1.0436778728e+00	 8.2209399617e-01	-1.7255960311e-01
 1.0239858195e+00	 8.4649576629e-01	-2.9863001009e-01
 1.0037003917e+00	 8.7045250555e-01	-4.2137505758e-01
 9.8283688287e-01	 8.9394278480e-01	-5.3990709728e-01
 9.6141160884e-01	 9.1694588673e-01	-6.5337886811e-01
 9.3944186643e-01	 9.3944186643e-01	-7.6098428025e-01
 9.1694588673e-01	 9.6141160884e-01	-8.6195876130e-01
 8.9394278480e-01	 9.8283688287e-01	-9.5557922966e-01
 8.7045250555e-01	 1.0037003917e+00	-1.0411637729e+00
 8.4649576629e-01	 1.0239858195e+00	-1.1180711183e+00
 8.2209399617e-01	 1.0436778728e+00	-1.1856999891e+00
 1.0549002156e+00	 8.3093371656e-01	-2.4573547906e-01
 1.0349964197e+00	 8.5559787131e-01	-3.7262272499e-01
 1.0144928691e+00	 8.7981220991e-01	-4.9564147877e-01
 9.9340502139e-01	 9.0355507281e-01	-6.1390905199e-01
 9.7174936808e-01	 9.2680551992e-01	-7.2658664544e-01
 9.4954339188e-01	 9.4954339188e-01	-8.3288004656e-01
 9.2680551992e-01	 9.7174936808e-01	-9.3203984520e-01
 9.0355507281e-01	 9.9340502139e-01	-1.0233612374e+00
 8.7981220991e-01	 1.0144928691e+00	-1.1061835001e+00
 8.5559787131e-01	 1.0349964197e+00	-1.1798892315e+00
 8.3093371656e-01	 1.0549002156e+00	-1.2439034566e+00
 1.0661225583e+00	 8.3977343695e-01	-3.1439814106e-01
 1.0460070199e+00	 8.6469997632e-01	-4.4205176027e-01
 1.0252853464e+00	 8.8917191427e-01	-5.6532943371e-01
 1.0039731599e+00	 9.1316736082e-01	-6.8335446171e-01
 9.8208712731e-01	 9.3666515311e-01	-7.9529752749e-01
 9.5964491732e-01	 9.5964491732e-01	-9.0037729116e-01
 9.3666515311e-01	 9.8208712731e-01	-9.9786045645e-01
 9.1316736082e-01	 1.0039731599e+00	-1.0870613845e+00
 8.8917191427e-01	 1.0252853464e+00	-1.1673413440e+00
 8.6469997632e-01	 1.0460070199e+00	-1.2381074981e+00
 8.3977343695e-01	 1.0661225583e+00	-1.2988117379e+00
 1.0773449010e+00	 8.4861315734e-01	-3.7876809973e-01
 1.0570176201e+00	 8.7380208133e-01	-5.0711278742e-01
 1.0360778237e+00	 8.9853161863e-01	-6.3060976918e-01
 1.0145412984e+00	 9.2277964882e-01	-7.4838932817e-01
 9.9242488655e-01	 9.4652478630e-01	-8.5963261901e-01
 9.6974644277e-01	 9.6974644277e-01	-9.6357214162e-01
 9.4652478630e-01	 9.9242488655e-01	-1.0594916401e+00
 9.2277964882e-01	 1.0145412984e+00	-1.1467255062e+00
 8.9853161863e-01	 1.0360778237e+00	-1.2246577824e+00
 8.7380208133e-01	 1.0570176201e+00	-1.2927208737e+00
 8.4861315734e-01	 1.0773449010e+00	-1.3503940851e+00
 1.0885672437e+00	 8.5745287773e-01	-4.3905327009e-01
 1.0680282203e+00	 8.8290418635e-01	-5.6798985374e-01
 1.0468703011e+00	 9.0789132299e-01	-6.9164267937e-01
 1.0251094370e+00	 9.3239193683e-01	-8.0914997381e-01
 1.0027626458e+00	 9.5638441949e-01	-9.1970432249e-01
 9.7984796822e-01	 9.7984796822e-01	-1.0225530062e+00
 9.5638441949e-01	 1.0027626458e+00	-1.1169977131e+00
 9.3239193683e-01	 1.0251094370e+00	-1.2023937112e+00
 9.0789132299e-01	 1.0468703011e+00	-1.2781485820e+00
 8.8290418635e-01	 1.0680282203e+00	-1.3437206339e+00
 8.5745287773e-01	 1.0885672437e+00	-1.3986171205e+00
 1.0997895864e+00	 8.6629259812e-01	-4.9544959430e-01
 1.0790388205e+00	 8.9200629136e-01	-6.2485595659e-01
 1.0576627784e+00	 9.1725102736e-01	-7.4857823072e-01
 1.0356775755e+00	 9.4200422484e-01	-8.6576351657e-01
 1.0131004050e+00	 9.6624405269e-01	-9.7561676190e-01
 9.8994949366e-01	 9.8994949366e-01	-1.0774009453e+00
 9.6624405269e-01	 1.0131004050e+00	-1.1704365825e+00
 9.4200422484e-01	 1.0356775755e+00	-1.2541006457e+00
 9.1725102736e-01	 1.0576627784e+00	-1.3278250064e+00
 8.9200629136e-01	 1.0790388205e+00	-1.3910945257e+00
 8.6629259812e-01	 1.0997895864e+00	-1.4434449296e+00
 1.1110119292e+00	 8.7513231851e-01	-5.4814163187e-01
 1.0900494207e+00	 9.0110839638e-01	-6.7787358808e-01
 1.0684552557e+00	 9.2661073172e-01	-8.0155686045e-01
 1.0462457140e+00	 9.5161651285e-01	-9.1834832123e-01
 1.0234381643e+00	 9.7610368588e-01	-1.0274661861e+00
 1.0000510191e+00	 1.0000510191e+00	-1.1281900263e+00
 9.7610368588e-01	 1.0234381643e+00	-1.2198600499e+00
 9.5161651285e-01	 1.0462457140e+00	-1.3018757468e+00
 9.2661073172e-01	 1.0684552557e+00	-1.3736940172e+00
 9.0110839638e-01	 1.0900494207e+00	-1.4348269145e+00
 8.7513231851e-01	 1.1110119292e+00	-1.4848391531e+00
 1.1222342719e+00	 8.8397203890e-01	-5.9730311970e-01
 1.1010600209e+00	 9.1021050139e-01	-7.2719525235e-01
 1.0792477331e+00	 9.3597043608e-01	-8.5070985038e-01
 1.0568138525e+00	 9.6122880086e-01	-9.6701442915e-01
 1.0337759235e+00	 9.8596331907e-01	-1.0753413534e+00
 1.0101525446e+00	 1.0101525446e+00	-1.1749876617e+00
 9.8596331907e-01	 1.0337759235e+00	-1.2653141029e+00
 9.6122880086e-01	 1.0568138525e+00	-1.3457434856e+00
 9.3597043608e-01	 1.0792477331e+00	-1.4157584675e+00
 9.1021050139e-01	 1.1010600209e+00	-1.4748989276e+00
 8.8397203890e-01	 1.1222342719e+00	-1.5227590788e+00
 7.9557483501e-01	 1.0100108447e+00	-9.9158452571e-01
 7.7155090936e-01	 1.0284796638e+00	-1.0667800044e+00
 7.4713960429e-01	 1.0463477606e+00	-1.1391717029e+00
 7.2236334895e-01	 1.0636035053e+00	-1.2083761567e+00
 6.9724500504e-01	 1.0802363757e+00	-1.2740224364e+00
 6.7180779917e-01	 1.0962369751e+00	-1.3357532767e+00
 6.4607525462e-01	 1.1115970447e+00	-1.3932265871e+00
 6.2007112287e-01	 1.1263094722e+00	-1.4461173529e+00
 5.9381931534e-01	 1.1403682937e+00	-1.4941199185e+00
 5.6734383568e-01	 1.1537686929e+00	-1.5369506274e+00
 5.4066871302e-01	 1.1665069941e+00	-1.5743507782e+00
 8.0441455540e-01	 1.0212331874e+00	-1.0595167746e+00
 7.8012369724e-01	 1.0399072156e+00	-1.1294899648e+00
 7.5544115545e-01	 1.0579738469e+00	-1.1961728228e+00
 7.3038960838e-01	 1.0754213221e+00	-1.2592485474e+00
 7.0499217176e-01	 1.0922390021e+00	-1.3184116644e+00
 6.7927233027e-01	 1.1084173859e+00	-1.3733687567e+00
 6.5325386856e-01	 1.1239481230e+00	-1.4238396231e+00
 6.2696080201e-01	 1.1388240218e+00	-1.4695588849e+00
 6.0041730773e-01	 1.1530390525e+00	-1.5102780339e+00
 5.7364765608e-01	 1.1665883450e+00	-1.5457679001e+00
 5.4667614317e-01	 1.1794681829e+00	-1.5758214969e+00
 8.1325427578e-01	 1.0324555301e+00	-1.1242293597e+00
 7.8869648512e-01	 1.0513347674e+00	-1.1894058996e+00
 7.6374270661e-01	 1.0695999331e+00	-1.2508334931e+00
 7.3841586782e-01	 1.0872391388e+00	-1.3082584390e+00
 7.1273933848e-01	 1.1042416285e+00	-1.3614369605e+00
 6.8673686137e-01	 1.1205977967e+00	-1.4101355462e+00
 6.6043248250e-01	 1.1362992013e+00	-1.4541317746e+00
 6.3385048116e-01	 1.1513385715e+00	-1.4932156437e+00
 6.0701530013e-01	 1.1657098113e+00	-1.5271914039e+00
 5.7995147647e-01	 1.1794079971e+00	-1.5558798760e+00
 5.5268357331e-01	 1.1924293717e+00	-1.5791212121e+00
 8.2209399617e-01	 1.0436778728e+00	-1.1856999891e+00
 7.9726927300e-01	 1.0627623192e+00	-1.2464759402e+00
 7.7204425777e-01	 1.0812260193e+00	-1.3030719256e+00
 7.4644212725e-01	 1.0990569555e+00	-1.3552938748e+00
 7.2048650520e-01	 1.1162442549e+00	-1.4029560402e+00
 6.9420139247e-01	 1.1327782076e+00	-1.4458809623e+00
 6.6761109644e-01	 1.1486502796e+00	-1.4838999737e+00
 6.4074016030e-01	 1.1638531212e+00	-1.5168542682e+00
 6.1361329252e-01	 1.1783805701e+00	-1.5445965392e+00
 5.8625529687e-01	 1.1922276493e+00	-1.5669931695e+00
 5.5869100346e-01	 1.2053905606e+00	-1.5839269323e+00
 8.3093371656e-01	 1.0549002156e+00	-1.2439034566e+00
 8.0584206089e-01	 1.0741898710e+00	-1.3006465816e+00
 7.8034580893e-01	 1.0928521056e+00	-1.3528060052e+00
 7.5446838668e-01	 1.1108747723e+00	-1.4002439095e+00
 7.2823367193e-01	 1.1282468813e+00	-1.4428289972e+00
 7.0166592357e-01	 1.1449586184e+00	-1.4804360925e+00
 6.7478971038e-01	 1.1610013578e+00	-1.5129463379e+00
 6.4762983944e-01	 1.1763676709e+00	-1.5402480192e+00
 6.2021128491e-01	 1.1910513289e+00	-1.5622380274e+00
 5.9255911727e-01	 1.2050473014e+00	-1.5788239423e+00
 5.6469843360e-01	 1.2183517494e+00	-1.5899266983e+00
 8.3977343695e-01	 1.0661225583e+00	-1.2988117379e+00
 8.1441484877e-01	 1.0856174229e+00	-1.3518627058e+00
 7.8864736008e-01	 1.1044781918e+00	-1.3999532396e+00
 7.6249464611e-01	 1.1226925890e+00	-1.4429984842e+00
 7.3598083865e-01	 1.1402495077e+00	-1.4809181012e+00
 7.0913045468e-01	 1.1571390292e+00	-1.5136355143e+00
 6.8196832432e-01	 1.1733524361e+00	-1.5410778114e+00
 6.5451951858e-01	 1.1888822206e+00	-1.5631763407e+00
 6.2680927730e-01	 1.2037220878e+00	-1.5798680140e+00
 5.9886293766e-01	 1.2178669536e+00	-1.5910973053e+00
 5.7070586375e-01	 1.2313129382e+00	-1.5968189035e+00
 8.4861315734e-01	 1.0773449010e+00	-1.3503940851e+00
 8.2298763665e-01	 1.0970449747e+00	-1.4000676096e+00
 7.9694891124e-01	 1.1161042780e+00	-1.4444307169e+00
 7.7052090555e-01	 1.1345104057e+00	-1.4834483133e+00
 7.4372800537e-01	 1.1522521341e+00	-1.5170876127e+00
 7.1659498578e-01	 1.1693194401e+00	-1.5453170366e+00
 6.8914693826e-01	 1.1857035144e+00	-1.5681058319e+00
 6.6140919773e-01	 1.2013967703e+00	-1.5854244521e+00
 6.3340726970e-01	 1.2163928466e+00	-1.5972457198e+00
 6.0516675806e-01	 1.2306866057e+00	-1.6035467593e+00
 5.7671329389e-01	 1.2442741270e+00	-1.6043116601e+00
 8.5745287773e-01	 1.0885672437e+00	-1.3986171205e+00
 8.3156042453e-01	 1.1084725265e+00	-1.4452030342e+00
 8.0525046240e-01	 1.1277303642e+00	-1.4861550708e+00
 7.7854716498e-01	 1.1463282224e+00	-1.5214847823e+00
 7.5147517210e-01	 1.1642547605e+00	-1.5512036132e+00
 7.2405951688e-01	 1.1814998509e+00	-1.5753214612e+00
 6.9632555220e-01	 1.1980545927e+00	-1.5938460221e+00
 6.6829887687e-01	 1.2139113200e+00	-1.6067829693e+00
 6.4000526209e-01	 1.2290636054e+00	-1.6141369905e+00
 6.1147057846e-01	 1.2435062579e+00	-1.6159136740e+00
 5.8272072404e-01	 1.2572353158e+00	-1.6121222064e+00
 8.6629259812e-01	 1.0997895864e+00	-1.4434449296e+00
 8.4013321241e-01	 1.1199000783e+00	-1.4872091984e+00
 8.1355201356e-01	 1.1393564505e+00	-1.5250424519e+00
 7.8657342441e-01	 1.1581460392e+00	-1.5569998571e+00
 7.5922233882e-01	 1.1762573869e+00	-1.5831338496e+00
 7.3152404798e-01	 1.1936802617e+00	-1.6034923620e+00
 7.0350416614e-01	 1.2104056709e+00	-1.6181179040e+00
 6.7518855601e-01	 1.2264258697e+00	-1.6270475522e+00
 6.4660325448e-01	 1.2417343642e+00	-1.6303138772e+00
 6.1777439885e-01	 1.2563259100e+00	-1.6279468017e+00
 5.8872815418e-01	 1.2701965047e+00	-1.6199763533e+00
 8.7513231851e-01	 1.1110119292e+00	-1.4848391531e+00
 8.4870600030e-01	 1.1313276301e+00	-1.5260248345e+00
 8.2185356472e-01	 1.1509825367e+00	-1.5610085056e+00
 7.9459968384e-01	 1.1699638559e+00	-1.5898860019e+00
 7.6696950554e-01	 1.1882600133e+00	-1.6127475927e+00
 7.3898857908e-01	 1.2058606726e+00	-1.6296758823e+00
 7.1068278008e-01	 1.2227567492e+00	-1.6407446328e+00
 6.8207823516e-01	 1.2389404194e+00	-1.6460185765e+00
 6.5320124688e-01	 1.2544051230e+00	-1.6455542459e+00
 6.2407821925e-01	 1.2691455621e+00	-1.6394018229e+00
 5.9473558433e-01	 1.2831576935e+00	-1.6276079669e+00
 8.8397203890e-01	 1.1222342719e+00	-1.5227590788e+00
 8.5727878818e-01	 1.1427551819e+00	-1.5615872264e+00
 8.3015511588e-01	 1.1626086229e+00	-1.5939683557e+00
 8.0262594328e-01	 1.1817816726e+00	-1.6200361074e+00
 7.7471667226e-01	 1.2002626397e+00	-1.6399155080e+00
 7.4645311018e-01	 1.2180410834e+00	-1.6537205473e+00
 7.1786139402e-01	 1.2351078275e+00	-1.6615527522e+00
 6.8896791430e-01	 1.2514549691e+00	-1.6635008290e+00
 6.5979923927e-01	 1.2670758819e+00	-1.6596414129e+00
 6.3038203965e-01	 1.2819652143e+00	-1.6500409224e+00
 6.0074301447e-01	 1.2961188823e+00	-1.6347584845e+00
 5.4066871302e-01	 1.1665069941e+00	-1.5743507782e+00
 5.1381793654e-01	 1.1785806517e+00	-1.6079098221e+00
 4.8681539164e-01	 1.1899882348e+00	-1.6392706211e+00
 4.5968479811e-01	 1.2007294079e+00	-1.6682824838e+00
 4.3244965053e-01	 1.2108049076e+00	-1.6948083174e+00
 4.0513316117e-01	 1.2202165161e+00	-1.7187295055e+00
 3.7775820563e-01	 1.2289670307e+00	-1.7399506783e+00
 3.5034727146e-01	 1.2370602305e+00	-1.7584042535e+00
 3.2292240987e-01	 1.2445008404e+00	-1.7740546301e+00
 2.9550519074e-01	 1.2512944924e+00	-1.7869019233e+00
 2.6811666100e-01	 1.2574476850e+00	-1.7969851411e+00
 5.4667614317e-01	 1.1794681829e+00	-1.5758214969e+00
 5.1952702472e-01	 1.1916759923e+00	-1.6020216187e+00
 4.9222445154e-01	 1.2032103263e+00	-1.6260154963e+00
 4.6479240698e-01	 1.2140708457e+00	-1.6477119651e+00
 4.3725464665e-01	 1.2242582955e+00	-1.6670248048e+00
 4.0963464074e-01	 1.2337744774e+00	-1.6838778963e+00
 3.8195551903e-01	 1.2426222199e+00	-1.6982103515e+00
 3.5424001892e-01	 1.2508053442e+00	-1.7099814818e+00
 3.2651043665e-01	 1.2583286275e+00	-1.7191754769e+00
 2.9878858175e-01	 1.2651977645e+00	-1.7258056687e+00
 2.7109573501e-01	 1.2714193260e+00	-1.7299182683e+00
 5.5268357331e-01	 1.1924293717e+00	-1.5791212121e+00
 5.2523611291e-01	 1.2047713329e+00	-1.5984739686e+00
 4.9763351145e-01	 1.2164324178e+00	-1.6155776077e+00
 4.6990001584e-01	 1.2274122836e+00	-1.6304042619e+00
 4.4205964276e-01	 1.2377116833e+00	-1.6429226194e+00
 4.1413612031e-01	 1.2473324387e+00	-1.6531033174e+00
 3.8615283242e-01	 1.2562774092e+00	-1.6609243895e+00
 3.5813276638e-01	 1.2645504578e+00	-1.6663766241e+00
 3.3009846342e-01	 1.2721564146e+00	-1.6694686913e+00
 3.0207197276e-01	 1.2791010367e+00	-1.6702319023e+00
 2.7407480903e-01	 1.2853909669e+00	-1.6687244751e+00
 5.5869100346e-01	 1.2053905606e+00	-1.5839269323e+00
 5.3094520109e-01	 1.2178666734e+00	-1.5969160373e+00
 5.0304257136e-01	 1.2296545093e+00	-1.6075813240e+00
 4.7500762471e-01	 1.2407537214e+00	-1.6159617526e+00
 4.4686463888e-01	 1.2511650712e+00	-1.6220847026e+00
 4.1863759987e-01	 1.2608904000e+00	-1.6259715603e+00
 3.9035014582e-01	 1.2699325984e+00	-1.6276434448e+00
 3.6202551384e-01	 1.2782955715e+00	-1.6271269197e+00
 3.3368649020e-01	 1.2859842017e+00	-1.6244595333e+00
 3.0535536376e-01	 1.2930043088e+00	-1.6196950413e+00
 2.7705388304e-01	 1.2993626079e+00	-1.6129081731e+00
 5.6469843360e-01	 1.2183517494e+00	-1.5899266983e+00
 5.3665428928e-01	 1.2309620140e+00	-1.5970094572e+00
 5.0845163127e-01	 1.2428766008e+00	-1.6016648101e+00
 4.8011523358e-01	 1.2540951593e+00	-1.6040018447e+00
 4.5166963500e-01	 1.2646184590e+00	-1.6041101698e+00
 4.2313907944e-01	 1.2744483613e+00	-1.6020656564e+00
 3.9454745921e-01	 1.2835877876e+00	-1.5979364061e+00
 3.6591826130e-01	 1.2920406852e+00	-1.5917887790e+00
 3.3727451697e-01	 1.2998119888e+00	-1.5836933164e+00
 3.0863875477e-01	 1.3069075810e+00	-1.5737303965e+00
 2.8003295705e-01	 1.3133342488e+00	-1.5619954725e+00
 5.7070586375e-01	 1.2313129382e+00	-1.5968189035e+00
 5.4236337746e-01	 1.2440573546e+00	-1.5984275711e+00
 5.1386069117e-01	 1.2560986923e+00	-1.5974792003e+00
 4.8522284245e-01	 1.2674365972e+00	-1.5941560830e+00
 4.5647463111e-01	 1.2780718469e+00	-1.5886133587e+00
 4.2764055901e-01	 1.2880063226e+00	-1.5809848713e+00
 3.9874477261e-01	 1.2972429769e+00	-1.5713893420e+00
 3.6981100876e-01	 1.3057857989e+00	-1.5599366818e+00
 3.4086254375e-01	 1.3136397760e+00	-1.5467342649e+00
 3.1192214578e-01	 1.3208108531e+00	-1.5318929897e+00
 2.8301203106e-01	 1.3273058898e+00	-1.5155329634e+00
 5.7671329389e-01	 1.2442741270e+00	-1.6043116601e+00
 5.4807246564e-01	 1.2571526952e+00	-1.6008547259e+00
 5.1926975108e-01	 1.2693207838e+00	-1.5946878245e+00
 4.9033045132e-01	 1.2807780350e+00	-1.5860693146e+00
 4.6127962723e-01	 1.2915252348e+00	-1.5752229398e+00
 4.3214203858e-01	 1.3015642839e+00	-1.5623437637e+00
 4.0294208600e-01	 1.3108981661e+00	-1.5476045137e+00
 3.7370375622e-01	 1.3195309125e+00	-1.5311621464e+00
 3.4445057053e-01	 1.3274675631e+00	-1.5131644422e+00
 3.1520553679e-01	 1.3347141252e+00	-1.4937564458e+00
 2.8599110507e-01	 1.3412775307e+00	-1.4730865732e+00
 5.8272072404e-01	 1.2572353158e+00	-1.6121222064e+00
 5.5378155383e-01	 1.2702480357e+00	-1.6039856112e+00
 5.2467881099e-01	 1.2825428753e+00	-1.5929654854e+00
 4.9543806018e-01	 1.2941194729e+00	-1.5793989090e+00
 4.6608462335e-01	 1.3049786226e+00	-1.5635810823e+00
 4.3664351815e-01	 1.3151222452e+00	-1.5457713030e+00
 4.0713939940e-01	 1.3245533553e+00	-1.5261994486e+00
 3.7759650368e-01	 1.3332760262e+00	-1.5050727631e+00
 3.4803859730e-01	 1.3412953502e+00	-1.4825827475e+00
 3.1848892780e-01	 1.3486173974e+00	-1.4589119542e+00
 2.8897017908e-01	 1.3552491716e+00	-1.4342404954e+00
 5.8872815418e-01	 1.2701965047e+00	-1.6199763533e+00
 5.5949064201e-01	 1.2833433763e+00	-1.6075246422e+00
 5.3008787089e-01	 1.2957649668e+00	-1.5919977810e+00
 5.0054566905e-01	 1.3074609108e+00	-1.5738140261e+00
 4.7088961947e-01	 1.3184320105e+00	-1.5533426734e+00
 4.4114499772e-01	 1.3286802064e+00	-1.5309100440e+00
 4.1133671280e-01	 1.3382085445e+00	-1.5068060724e+00
 3.8148925114e-01	 1.3470211399e+00	-1.4812912877e+00
 3.5162662408e-01	 1.3551231373e+00	-1.4546039737e+00
 3.2177231881e-01	 1.3625206695e+00	-1.4269672946e+00
 2.9194925309e-01	 1.3692208126e+00	-1.3985961845e+00
 5.9473558433e-01	 1.2831576935e+00	-1.6276079669e+00
 5.6519973019e-01	 1.2964387169e+00	-1.6111853809e+00
 5.3549693080e-01	 1.3089870583e+00	-1.5914804711e+00
 5.0565327792e-01	 1.3208023486e+00	-1.5689949316e+00
 4.7569461558e-01	 1.3318853984e+00	-1.5441745869e+00
 4.4564647728e-01	 1.3422381677e+00	-1.5174153514e+00
 4.1553402619e-01	 1.3518637338e+00	-1.4890698952e+00
 3.8538199860e-01	 1.3607662535e+00	-1.4594547919e+00
 3.5521465086e-01	 1.3689509244e+00	-1.4288579243e+00
 3.2505570981e-01	 1.3764239417e+00	-1.3975459221e+00
 2.9492832710e-01	 1.3831924535e+00	-1.3657714128e+00
 6.0074301447e-01	 1.2961188823e+00	-1.6347584845e+00
 5.7090881838e-01	 1.3095340575e+00	-1.6146899956e+00
 5.4090599071e-01	 1.3222091498e+00	-1.5911188833e+00
 5.1076088679e-01	 1.3341437865e+00	-1.5646323552e+00
 4.8049961170e-01	 1.3453387862e+00	-1.5357549963e+00
 4.5014795685e-01	 1.3557961290e+00	-1.5049546734e+00
 4.1973133959e-01	 1.3655189230e+00	-1.4726492474e+00
 3.8927474607e-01	 1.3745113672e+00	-1.4392138641e+00
 3.5880267763e-01	 1.3827787115e+00	-1.4049885834e+00
 3.2833910082e-01	 1.3903272138e+00	-1.3702861086e+00
 2.9790740112e-01	 1.3971640945e+00	-1.3353993842e+00
 2.6811666100e-01	 1.2574476850e+00	-1.7969851411e+00
 2.4077730652e-01	 1.2629677403e+00	-1.8057137377e+00
 2.1350701747e-01	 1.2678627599e+00	-1.8140636902e+00
 1.8632505732e-01	 1.2721415792e+00	-1.8215440945e+00
 1.5925003536e-01	 1.2758137210e+00	-1.8277841738e+00
 1.3229988281e-01	 1.2788893484e+00	-1.8325329922e+00
 1.0549183235e-01	 1.2813792170e+00	-1.8356577585e+00
 7.8842401197e-02	 1.2832946272e+00	-1.8371407782e+00
 5.2367377465e-02	 1.2846473766e+00	-1.8370751325e+00
 2.6081809771e-02	 1.2854497126e+00	-1.8356591809e+00
 0.0000000000e+00	 1.2857142857e+00	-1.8331900009e+00
 2.7109573501e-01	 1.2714193260e+00	-1.7299182683e+00
 2.4345260993e-01	 1.2770007152e+00	-1.7330981131e+00
 2.1587931766e-01	 1.2819501239e+00	-1.7364851463e+00
 1.8839533573e-01	 1.2862764856e+00	-1.7395719081e+00
 1.6101948020e-01	 1.2899894290e+00	-1.7419682864e+00
 1.3376988150e-01	 1.2930992301e+00	-1.7434018396e+00
 1.0666396382e-01	 1.2956167639e+00	-1.7437166662e+00
 7.9718427877e-02	 1.2975534564e+00	-1.7428708723e+00
 5.2949237215e-02	 1.2989212364e+00	-1.7409327115e+00
 2.6371607658e-02	 1.2997324872e+00	-1.7380754915e+00
 0.0000000000e+00	 1.3000000000e+00	-1.7345713576e+00
 2.7407480903e-01	 1.2853909669e+00	-1.6687244751e+00
 2.4612791333e-01	 1.2910336901e+00	-1.6667091985e+00
 2.1825161785e-01	 1.2960374879e+00	-1.6654803995e+00
 1.9046561414e-01	 1.3004113921e+00	-1.6645009013e+00
 1.6278892504e-01	 1.3041651370e+00	-1.6633484992e+00
 1.3523988020e-01	 1.3073091117e+00	-1.6617169827e+00
 1.0783609529e-01	 1.3098543107e+00	-1.6594156504e+00
 8.0594454557e-02	 1.3118122856e+00	-1.6563673642e+00
 5.3531096965e-02	 1.3131950961e+00	-1.6526052125e+00
 2.6661405544e-02	 1.3140152618e+00	-1.6482678717e+00
 0.0000000000e+00	 1.3142857143e+00	-1.6435937776e+00
 2.7705388304e-01	 1.2993626079e+00	-1.6129081731e+00
 2.4880321674e-01	 1.3050666650e+00	-1.6060412942e+00
 2.2062391805e-01	 1.3101248519e+00	-1.6005329907e+00
 1.9253589256e-01	 1.3145462985e+00	-1.5958034991e+00
 1.6455836987e-01	 1.3183408450e+00	-1.5913860509e+00
 1.3670987890e-01	 1.3215189934e+00	-1.5869286814e+00
 1.0900822676e-01	 1.3240918576e+00	-1.5821944712e+00
 8.1470481237e-02	 1.3260711148e+00	-1.5770602575e+00
 5.4112956714e-02	 1.3274689558e+00	-1.5715138818e+00
 2.6951203430e-02	 1.3282980364e+00	-1.5656500591e+00
 0.0000000000e+00	 1.3285714286e+00	-1.5596649794e+00
 2.8003295705e-01	 1.3133342488e+00	-1.5619954725e+00
 2.5147852014e-01	 1.3190996399e+00	-1.5506112065e+00
 2.2299621824e-01	 1.3242122159e+00	-1.5411497934e+00
 1.9460617097e-01	 1.3286812049e+00	-1.5329762897e+00
 1.6632781471e-01	 1.3325165531e+00	-1.5255671604e+00
 1.3817987760e-01	 1.3357288750e+00	-1.5185129646e+00
 1.1018035823e-01	 1.3383294044e+00	-1.5115194019e+00
 8.2346507917e-02	 1.3403299440e+00	-1.5044067530e+00
 5.4694816464e-02	 1.3417428156e+00	-1.4971077727e+00
 2.7241001317e-02	 1.3425808110e+00	-1.4896641196e+00
 0.0000000000e+00	 1.3428571429e+00	-1.4822214296e+00
 2.8301203106e-01	 1.3273058898e+00	-1.5155329634e+00
 2.5415382355e-01	 1.3331326148e+00	-1.4999569917e+00
 2.2536851844e-01	 1.3382995799e+00	-1.4868597218e+00
 1.9667644939e-01	 1.3428161114e+00	-1.4755386960e+00
 1.6809725955e-01	 1.3466922611e+00	-1.4654016642e+00
 1.3964987629e-01	 1.3499387567e+00	-1.4559702336e+00
 1.1135248970e-01	 1.3525669513e+00	-1.4468818011e+00
 8.3222534597e-02	 1.3545887732e+00	-1.4378897930e+00
 5.5276676213e-02	 1.3560166753e+00	-1.4288622661e+00
 2.7530799203e-02	 1.3568635855e+00	-1.4197789489e+00
 0.0000000000e+00	 1.3571428571e+00	-1.4107268302e+00
 2.8599110507e-01	 1.3412775307e+00	-1.4730865732e+00
 2.5682912695e-01	 1.3471655897e+00	-1.4536367804e+00
 2.2774081863e-01	 1.3523869439e+00	-1.4372125201e+00
 1.9874672780e-01	 1.3569510178e+00	-1.4230317312e+00
 1.6986670438e-01	 1.3608679691e+00	-1.4104217379e+00
 1.4111987499e-01	 1.3641486383e+00	-1.3988239526e+00
 1.1252462117e-01	 1.3668044981e+00	-1.3877967739e+00
 8.4098561277e-02	 1.3688476024e+00	-1.3770166969e+00
 5.5858535963e-02	 1.3702905351e+00	-1.3662776831e+00
 2.7820597089e-02	 1.3711463601e+00	-1.3554888667e+00
 0.0000000000e+00	 1.3714285714e+00	-1.3446706999e+00
 2.8897017908e-01	 1.3552491716e+00	-1.4342404954e+00
 2.5950443036e-01	 1.3611985646e+00	-1.4112276737e+00
 2.3011311883e-01	 1.3664743079e+00	-1.3917776268e+00
 2.0081700622e-01	 1.3710859242e+00	-1.3750168307e+00
 1.7163614922e-01	 1.3750436771e+00	-1.3601806975e+00
 1.4258987369e-01	 1.3783585200e+00	-1.3466194202e+00
 1.1369675264e-01	 1.3810420450e+00	-1.3338019166e+00
 8.4974587957e-02	 1.3831064316e+00	-1.3213178808e+00
 5.6440395713e-02	 1.3845643948e+00	-1.3088779845e+00
 2.8110394976e-02	 1.3854291347e+00	-1.2963122994e+00
 0.0000000000e+00	 1.3857142857e+00	-1.2835670435e+00
 2.9194925309e-01	 1.3692208126e+00	-1.3985961845e+00
 2.6217973377e-01	 1.3752315395e+00	-1.3723247086e+00
 2.3248541902e-01	 1.3805616719e+00	-1.3501431094e+00
 2.0288728463e-01	 1.3852208307e+00	-1.3310747564e+00
 1.7340559406e-01	 1.3892193851e+00	-1.3142518740e+00
 1.4405987239e-01	 1.3925684016e+00	-1.2989226164e+00
 1.1486888411e-01	 1.3952795919e+00	-1.2844561377e+00
 8.5850614637e-02	 1.3973652608e+00	-1.2703456562e+00
 5.7022255462e-02	 1.3988382545e+00	-1.2562095487e+00
 2.8400192862e-02	 1.3997119093e+00	-1.2417905419e+00
 0.0000000000e+00	 1.4000000000e+00	-1.2269531022e+00
 2.9492832710e-01	 1.3831924535e+00	-1.3657714128e+00
 2.6485503717e-01	 1.3892645144e+00	-1.3365398860e+00
 2.3485771921e-01	 1.3946490359e+00	-1.3119146634e+00
 2.0495756305e-01	 1.3993557371e+00	-1.2908045675e+00
 1.7517503890e-01	 1.4033950931e+00	-1.2722275568e+00
 1.4552987109e-01	 1.4067782833e+00	-1.2553191196e+00
 1.1604101558e-01	 1.4095171387e+00	-1.2393385508e+00
 8.6726641317e-02	 1.4116240899e+00	-1.2236731007e+00
 5.7604115212e-02	 1.4131121143e+00	-1.2078400245e+00
 2.8689990748e-02	 1.4139946839e+00	-1.1914865953e+00
 0.0000000000e+00	 1.4142857143e+00	-1.1743881806e+00
 2.9790740112e-01	 1.3971640945e+00	-1.3353993842e+00
 2.6753034058e-01	 1.4032974893e+00	-1.3035012572e+00
 2.3723001941e-01	 1.4087363999e+00	-1.2767146720e+00
 2.0702784146e-01	 1.4134906435e+00	-1.2538226535e+00
 1.7694448373e-01	 1.4175708011e+00	-1.2337180006e+00
 1.4699986978e-01	 1.4209881649e+00	-1.2154130888e+00
 1.1721314705e-01	 1.4237546856e+00	-1.1980474339e+00
 8.7602667997e-02	 1.4258829191e+00	-1.1808929973e+00
 5.8185974962e-02	 1.4273859740e+00	-1.1633572527e+00
 2.8979788635e-02	 1.4282774585e+00	-1.1449840743e+00
 0.0000000000e+00	 1.4285714286e+00	-1.1254525431e+00
 1.4285714286e+00	 0.0000000000e+00	 3.0374933267e+00
 1.4282774585e+00	 2.8979788635e-02	 3.0420555217e+00
 1.4273859740e+00	 5.8185974962e-02	 3.0297869631e+00
 1.4258829191e+00	 8.7602667997e-02	 3.0017201147e+00
 1.4237546856e+00	 1.1721314705e-01	 2.9589577689e+00
 1.4209881649e+00	 1.4699986978e-01	 2.9026668182e+00
 1.4175708011e+00	 1.7694448373e-01	 2.8340713917e+00
 1.4134906435e+00	 2.0702784146e-01	 2.7544453436e+00
 1.4087363999e+00	 2.3723001941e-01	 2.6651040750e+00
 1.4032974893e+00	 2.6753034058e-01	 2.5673956831e+00
 1.3971640945e+00	 2.9790740112e-01	 2.4626914336e+00
 1.4428571429e+00	 0.0000000000e+00	 3.0377360429e+00
 1.4425602331e+00	 2.9269586521e-02	 3.0427158153e+00
 1.4416598338e+00	 5.8767834711e-02	 3.0303877954e+00
 1.4401417483e+00	 8.8478694677e-02	 3.0018251876e+00
 1.4379922324e+00	 1.1838527852e-01	 2.9581668103e+00
 1.4351980466e+00	 1.4846986848e-01	 2.9006114364e+00
 1.4317465091e+00	 1.7871392857e-01	 2.8304113678e+00
 1.4276255500e+00	 2.0909811988e-01	 2.7488675356e+00
 1.4228237639e+00	 2.3960231960e-01	 2.6573906973e+00
 1.4173304642e+00	 2.7020564398e-01	 2.5574067783e+00
 1.4111357354e+00	 3.0088647513e-01	 2.4503353540e+00
 1.4571428571e+00	 0.0000000000e+00	 3.0379212978e+00
 1.4568430076e+00	 2.9559384407e-02	 3.0432001416e+00
 1.4559336935e+00	 5.9349694461e-02	 3.0307277480e+00
 1.4544005775e+00	 8.9354721357e-02	 3.0016258808e+00
 1.4522297793e+00	 1.1955740999e-01	 2.9570820622e+00
 1.4494079282e+00	 1.4993986718e-01	 2.8983434954e+00
 1.4459222171e+00	 1.8048337341e-01	 2.8267101967e+00
 1.4417604564e+00	 2.1116839829e-01	 2.7435273423e+00
 1.4369111279e+00	 2.4197461980e-01	 2.6501768427e+00
 1.4313634391e+00	 2.7288094739e-01	 2.5480681680e+00
 1.4251073764e+00	 3.0386554914e-01	 2.4386546603e+00
 1.4714285714e+00	 0.0000000000e+00	 3.0378224318e+00
 1.4711257822e+00	 2.9849182294e-02	 3.0432948065e+00
 1.4702075532e+00	 5.9931554210e-02	 3.0306004058e+00
 1.4686594067e+00	 9.0230748037e-02	 3.0009076732e+00
 1.4664673261e+00	 1.2072954146e-01	 2.9554506018e+00
 1.4636178099e+00	 1.5140986588e-01	 2.8955222344e+00
 1.4600979252e+00	 1.8225281825e-01	 2.8224673522e+00
 1.4558953629e+00	 2.1323867671e-01	 2.7376743573e+00
 1.4509984919e+00	 2.4434691999e-01	 2.6425663667e+00
 1.4453964140e+00	 2.7555625079e-01	 2.5385915428e+00
 1.4390790173e+00	 3.0684462315e-01	 2.4272126950e+00
 1.4857142857e+00	 0.0000000000e+00	 3.0372221367e+00
 1.4854085568e+00	 3.0138980180e-02	 3.0427952807e+00
 1.4844814130e+00	 6.0513413960e-02	 3.0298124752e+00
 1.4829182359e+00	 9.1106774717e-02	 2.9994870395e+00
 1.4807048730e+00	 1.2190167293e-01	 2.9530972856e+00
 1.4778276915e+00	 1.5287986458e-01	 2.8919795930e+00
 1.4742736332e+00	 1.8402226308e-01	 2.8175206515e+00
 1.4700302693e+00	 2.1530895512e-01	 2.7311488817e+00
 1.4650858559e+00	 2.4671922018e-01	 2.6343250513e+00
 1.4594293888e+00	 2.7823155420e-01	 2.5285321171e+00
 1.4530506583e+00	 3.0982369716e-01	 2.4152643300e+00
 1.5000000000e+00	 0.0000000000e+00	 3.0359120095e+00
 1.4996913314e+00	 3.0428778066e-02	 3.0415054725e+00
 1.4987552727e+00	 6.1095273710e-02	 3.0281786924e+00
 1.4971770651e+00	 9.1982801397e-02	 2.9971881323e+00
 1.4949424199e+00	 1.2307380440e-01	 2.9498543498e+00
 1.4920375732e+00	 1.5434986327e-01	 2.8875546423e+00
 1.4884493412e+00	 1.8579170792e-01	 2.8117148428e+00
 1.4841651757e+00	 2.1737923353e-01	 2.7238002782e+00
 1.4791732199e+00	 2.4909152038e-01	 2.6253059129e+00
 1.4734623637e+00	 2.8090685761e-01	 2.5177457075e+00
 1.4670222992e+00	 3.1280277117e-01	 2.4026412375e+00
 1.5142857143e+00	 0.0000000000e+00	 3.0336921330e+00
 1.5139741060e+00	 3.0718575953e-02	 3.0392373285e+00
 1.5130291325e+00	 6.1677133459e-02	 3.0255214409e+00
 1.5114358943e+00	 9.2858828077e-02	 2.9938424150e+00
 1.5091799667e+00	 1.2424593587e-01	 2.9455610563e+00
 1.5062474548e+00	 1.5581986197e-01	 2.8820932423e+00
 1.5026250492e+00	 1.8756115276e-01	 2.8049012698e+00
 1.4983000822e+00	 2.1944951195e-01	 2.7154843530e+00
 1.4932605839e+00	 2.5146382057e-01	 2.6153682960e+00
 1.4874953386e+00	 2.8358216101e-01	 2.5060943766e+00
 1.4809939401e+00	 3.1578184518e-01	 2.3892074858e+00
 1.5285714286e+00	 0.0000000000e+00	 3.0303706790e+00
 1.5282568806e+00	 3.1008373839e-02	 3.0358104562e+00
 1.5273029922e+00	 6.2258993209e-02	 3.0216703914e+00
 1.5256947235e+00	 9.3734854757e-02	 2.9892883162e+00
 1.5234175136e+00	 1.2541806734e-01	 2.9400633585e+00
 1.5204573365e+00	 1.5728986067e-01	 2.8754477161e+00
 1.5168007572e+00	 1.8933059760e-01	 2.7969375544e+00
 1.5124349886e+00	 2.2151979036e-01	 2.7060630440e+00
 1.5073479479e+00	 2.5383612077e-01	 2.6043775665e+00
 1.5015283135e+00	 2.8625746442e-01	 2.4934461287e+00
 1.4949655811e+00	 3.1876091919e-01	 2.3748330325e+00
 1.5428571429e+00	 0.0000000000e+00	 3.0257635336e+00
 1.5425396552e+00	 3.1298171725e-02	 3.0310517678e+00
 1.5415768519e+00	 6.2840852958e-02	 3.0164621613e+00
 1.5399535527e+00	 9.4610881437e-02	 2.9833709022e+00
 1.5376550604e+00	 1.2659019882e-01	 2.9332135851e+00
 1.5346672181e+00	 1.5875985937e-01	 2.8674765441e+00
 1.5309764652e+00	 1.9110004243e-01	 2.7876872977e+00
 1.5265698950e+00	 2.2359006878e-01	 2.6954041276e+00
 1.5214353119e+00	 2.5620842096e-01	 2.5922048214e+00
 1.5155612884e+00	 2.8893276782e-01	 2.4796746222e+00
 1.5089372220e+00	 3.2173999320e-01	 2.3593934383e+00
 1.5571428571e+00	 0.0000000000e+00	 3.0196939438e+00
 1.5568224297e+00	 3.1587969612e-02	 3.0247951437e+00
 1.5558507117e+00	 6.3422712708e-02	 3.0097399931e+00
 1.5542123819e+00	 9.5486908117e-02	 2.9759415682e+00
 1.5518926073e+00	 1.2776233029e-01	 2.9248701426e+00
 1.5488770998e+00	 1.6022985806e-01	 2.8580440742e+00
 1.5451521732e+00	 1.9286948727e-01	 2.7770197970e+00
 1.5407048015e+00	 2.2566034719e-01	 2.6833809410e+00
 1.5355226759e+00	 2.5858072115e-01	 2.5787266150e+00
 1.5295942633e+00	 2.9160807123e-01	 2.4646588980e+00
 1.5229088630e+00	 3.2471906722e-01	 2.3427695968e+00
 1.5714285714e+00	 0.0000000000e+00	 3.0119921826e+00
 1.5711052043e+00	 3.1877767498e-02	 3.0168811142e+00
 1.5701245714e+00	 6.4004572458e-02	 3.0013534500e+00
 1.5684712111e+00	 9.6362934797e-02	 2.9668577464e+00
 1.5661301541e+00	 1.2893446176e-01	 2.9148972325e+00
 1.5630869814e+00	 1.6169985676e-01	 2.8470202479e+00
 1.5593278812e+00	 1.9463893211e-01	 2.7648097787e+00
 1.5548397079e+00	 2.2773062561e-01	 2.6698721196e+00
 1.5496100399e+00	 2.6095302135e-01	 2.5638247001e+00
 1.5436272382e+00	 2.9428337463e-01	 2.4482831230e+00
 1.5368805039e+00	 3.2769814123e-01	 2.3248474784e+00
 1.3971640945e+00	 2.9790740112e-01	 2.4626914336e+00
 1.3903272138e+00	 3.2833910082e-01	 2.3493224772e+00
 1.3827787115e+00	 3.5880267763e-01	 2.2254897838e+00
 1.3745113672e+00	 3.8927474607e-01	 2.0923855740e+00
 1.3655189230e+00	 4.1973133959e-01	 1.9512032571e+00
 1.3557961290e+00	 4.5014795685e-01	 1.8031304817e+00
 1.3453387862e+00	 4.8049961170e-01	 1.6493419075e+00
 1.3341437865e+00	 5.1076088679e-01	 1.4909917470e+00
 1.3222091498e+00	 5.4090599071e-01	 1.3292061462e+00
 1.3095340575e+00	 5.7090881838e-01	 1.1650754835e+00
 1.2961188823e+00	 6.0074301447e-01	 9.9964668501e-01
 1.4111357354e+00	 3.0088647513e-01	 2.4503353540e+00
 1.4042304859e+00	 3.3162249183e-01	 2.3345777142e+00
 1.3966064986e+00	 3.6239070441e-01	 2.2083794056e+00
 1.3882564809e+00	 3.9316749353e-01	 2.0729400364e+00
 1.3791741122e+00	 4.2392865298e-01	 1.9294597735e+00
 1.3693540903e+00	 4.5464943642e-01	 1.7791323695e+00
 1.3587921741e+00	 4.8530460782e-01	 1.6231378908e+00
 1.3474852244e+00	 5.1586849565e-01	 1.4626351967e+00
 1.3354312413e+00	 5.4631505062e-01	 1.2987542383e+00
 1.3226293980e+00	 5.7661790656e-01	 1.1325882597e+00
 1.3090800711e+00	 6.0675044462e-01	 9.6518600138e-01
 1.4251073764e+00	 3.0386554914e-01	 2.4386546603e+00
 1.4181337581e+00	 3.3490588284e-01	 2.3205263192e+00
 1.4104342858e+00	 3.6597873119e-01	 2.1919989444e+00
 1.4020015946e+00	 3.9706024099e-01	 2.0542779499e+00
 1.3928293015e+00	 4.2812596638e-01	 1.9085686706e+00
 1.3829120516e+00	 4.5915091599e-01	 1.7560693743e+00
 1.3722455619e+00	 4.9010960393e-01	 1.5979639556e+00
 1.3608266622e+00	 5.2097610452e-01	 1.4354143584e+00
 1.3486533328e+00	 5.5172411052e-01	 1.2695527982e+00
 1.3357247386e+00	 5.8232699475e-01	 1.1014738688e+00
 1.3220412600e+00	 6.1275787476e-01	 9.3222663586e-01
 1.4390790173e+00	 3.0684462315e-01	 2.4272126950e+00
 1.4320370302e+00	 3.3818927385e-01	 2.3069496557e+00
 1.4242620729e+00	 3.6956675796e-01	 2.1761596631e+00
 1.4157467082e+00	 4.0095298845e-01	 2.0362154766e+00
 1.4064844907e+00	 4.3232327978e-01	 1.8883506858e+00
 1.3964700129e+00	 4.6365239556e-01	 1.7337665051e+00
 1.3856989498e+00	 4.9491460005e-01	 1.5736491032e+00
 1.3741681001e+00	 5.2608371339e-01	 1.4091619764e+00
 1.3618754243e+00	 5.5713317043e-01	 1.2414380989e+00
 1.3488200792e+00	 5.8803608293e-01	 1.0715719372e+00
 1.3350024488e+00	 6.1876530491e-01	 9.0061143513e-01
 1.4530506583e+00	 3.0982369716e-01	 2.4152643300e+00
 1.4459403023e+00	 3.4147266485e-01	 2.2931266822e+00
 1.4380898600e+00	 3.7315478474e-01	 2.1605063368e+00
 1.4294918219e+00	 4.0484573591e-01	 2.0185761625e+00
 1.4201396799e+00	 4.3652059317e-01	 1.8686355485e+00
 1.4100279742e+00	 4.6815387513e-01	 1.7120577864e+00
 1.3991523377e+00	 4.9971959617e-01	 1.5500313608e+00
 1.3875095380e+00	 5.3119132226e-01	 1.3837198183e+00
 1.3750975158e+00	 5.6254223034e-01	 1.2142554210e+00
 1.3619154198e+00	 5.9374517111e-01	 1.0427310702e+00
 1.3479636376e+00	 6.2477273505e-01	 8.7019218431e-01
 1.4670222992e+00	 3.1280277117e-01	 2.4026412375e+00
 1.4598435745e+00	 3.4475605586e-01	 2.2786896592e+00
 1.4519176471e+00	 3.7674281151e-01	 2.1443537040e+00
 1.4432369356e+00	 4.0873848337e-01	 2.0008048390e+00
 1.4337948692e+00	 4.4071790657e-01	 1.8492137262e+00
 1.4235859355e+00	 4.7265535470e-01	 1.6907858838e+00
 1.4126057255e+00	 5.0452459228e-01	 1.5269574030e+00
 1.4008509758e+00	 5.3629893113e-01	 1.3589382922e+00
 1.3883196073e+00	 5.6795129024e-01	 1.1878586655e+00
 1.3750107603e+00	 5.9945425930e-01	 1.0148084615e+00
 1.3609248264e+00	 6.3078016519e-01	 8.4082921232e-01
 1.4809939401e+00	 3.1578184518e-01	 2.3892074858e+00
 1.4737468466e+00	 3.4803944687e-01	 2.2635042916e+00
 1.4657454342e+00	 3.8033083829e-01	 2.1275325426e+00
 1.4569820492e+00	 4.1263123083e-01	 1.9824611616e+00
 1.4474500584e+00	 4.4491521996e-01	 1.8294571357e+00
 1.4371438968e+00	 4.7715683426e-01	 1.6696793227e+00
 1.4260591134e+00	 5.0932958840e-01	 1.5042821925e+00
 1.4141924137e+00	 5.4140653999e-01	 1.3346760829e+00
 1.4015416988e+00	 5.7336035015e-01	 1.1621099862e+00
 1.3881061009e+00	 6.0516334748e-01	 9.8766952104e-01
 1.3738860153e+00	 6.3678759534e-01	 8.1239101640e-01
 1.4949655811e+00	 3.1876091919e-01	 2.3748330325e+00
 1.4876501188e+00	 3.5132283788e-01	 2.2474421356e+00
 1.4795732213e+00	 3.8391886507e-01	 2.1099159265e+00
 1.4707271629e+00	 4.1652397829e-01	 1.9634196643e+00
 1.4611052476e+00	 4.4911253336e-01	 1.8091154781e+00
 1.4507018581e+00	 4.8165831383e-01	 1.6481561524e+00
 1.4395125012e+00	 5.1413458452e-01	 1.4816787562e+00
 1.4275338516e+00	 5.4651414886e-01	 1.3107998065e+00
 1.4147637903e+00	 5.7876941006e-01	 1.1368794404e+00
 1.4012014415e+00	 6.1087243566e-01	 9.6118752149e-01
 1.3868472041e+00	 6.4279502548e-01	 7.8475390472e-01
 1.5089372220e+00	 3.2173999320e-01	 2.3593934383e+00
 1.5015533909e+00	 3.5460622889e-01	 2.2303803136e+00
 1.4934010084e+00	 3.8750689184e-01	 2.0913824621e+00
 1.4844722766e+00	 4.2041672575e-01	 1.9435603822e+00
 1.4747604369e+00	 4.5330984676e-01	 1.7880701856e+00
 1.4642598193e+00	 4.8615979340e-01	 1.6260573662e+00
 1.4529658891e+00	 5.1893958064e-01	 1.4586504189e+00
 1.4408752894e+00	 5.5162175773e-01	 1.2869543528e+00
 1.4279858818e+00	 5.8417846996e-01	 1.1120446551e+00
 1.4142967820e+00	 6.1658152385e-01	 9.3524326154e-01
 1.3998083929e+00	 6.4880245563e-01	 7.5780165575e-01
 1.5229088630e+00	 3.2471906722e-01	 2.3427695968e+00
 1.5154566630e+00	 3.5788961990e-01	 2.2122012437e+00
 1.5072287956e+00	 3.9109491862e-01	 2.0718160185e+00
 1.4982173903e+00	 4.2430947321e-01	 1.9227685831e+00
 1.4884156261e+00	 4.5750716015e-01	 1.7662078936e+00
 1.4778177806e+00	 4.9066127297e-01	 1.6032709602e+00
 1.4664192770e+00	 5.2374457675e-01	 1.4350764592e+00
 1.4542167273e+00	 5.5672936660e-01	 1.2627182453e+00
 1.4412079733e+00	 5.8958752987e-01	 1.0872588181e+00
 1.4273921226e+00	 6.2229061203e-01	 9.0972474471e-01
 1.4127695817e+00	 6.5480988577e-01	 7.3142519332e-01
 1.5368805039e+00	 3.2769814123e-01	 2.3248474784e+00
 1.5293599352e+00	 3.6117301090e-01	 2.1927923853e+00
 1.5210565827e+00	 3.9468294540e-01	 2.0511054732e+00
 1.5119625039e+00	 4.2820222067e-01	 1.9009345123e+00
 1.5020708153e+00	 4.6170447355e-01	 1.7434201870e+00
 1.4913757419e+00	 4.9516275254e-01	 1.5796898518e+00
 1.4798726648e+00	 5.2854957287e-01	 1.4108511432e+00
 1.4675581652e+00	 5.6183697547e-01	 1.2379854969e+00
 1.4544300648e+00	 5.9499658978e-01	 1.0621416230e+00
 1.4404874632e+00	 6.2799970022e-01	 8.8432900093e-01
 1.4257307705e+00	 6.6081731592e-01	 7.0552227654e-01
 1.2961188823e+00	 6.0074301447e-01	 9.9964668501e-01
 1.2819652143e+00	 6.3038203965e-01	 8.3240011394e-01
 1.2670758819e+00	 6.5979923927e-01	 6.6315744078e-01
 1.2514549691e+00	 6.8896791430e-01	 4.9340552061e-01
 1.2351078275e+00	 7.1786139402e-01	 3.2457790346e-01
 1.2180410834e+00	 7.4645311018e-01	 1.5804676159e-01
 1.2002626397e+00	 7.7471667226e-01	-4.8845623108e-03
 1.1817816726e+00	 8.0262594328e-01	-1.6298824881e-01
 1.1626086229e+00	 8.3015511588e-01	-3.1511781193e-01
 1.1427551819e+00	 8.5727878818e-01	-4.6021291713e-01
 1.1222342719e+00	 8.8397203890e-01	-5.9730311970e-01
 1.3090800711e+00	 6.0675044462e-01	 9.6518600138e-01
 1.2947848664e+00	 6.3668586004e-01	 7.9605034411e-01
 1.2797466407e+00	 6.6639723166e-01	 6.2503809066e-01
 1.2639695188e+00	 6.9585759344e-01	 4.5365478707e-01
 1.2474589058e+00	 7.2504000796e-01	 2.8335085064e-01
 1.2302214942e+00	 7.5391764129e-01	 1.1551320388e-01
 1.2122652661e+00	 7.8246383899e-01	-4.8542449155e-02
 1.1935994893e+00	 8.1065220271e-01	-2.0757855823e-01
 1.1742347092e+00	 8.3845666704e-01	-3.6044173988e-01
 1.1541827338e+00	 8.6585157606e-01	-5.0606775152e-01
 1.1334566146e+00	 8.9281175929e-01	-6.4348533264e-01
 1.3220412600e+00	 6.1275787476e-01	 9.3222663586e-01
 1.3076045186e+00	 6.4298968044e-01	 7.6133413015e-01
 1.2924173995e+00	 6.7299522405e-01	 5.8868476454e-01
 1.2764840684e+00	 7.0274727259e-01	 4.1579958974e-01
 1.2598099840e+00	 7.3221862190e-01	 2.4414273168e-01
 1.2424019051e+00	 7.6138217239e-01	 7.5112742925e-02
 1.2242678925e+00	 7.9021100571e-01	-8.9965381749e-02
 1.2054173061e+00	 8.1867846214e-01	-2.4984737007e-01
 1.1858607954e+00	 8.4675821820e-01	-4.0337587457e-01
 1.1656102856e+00	 8.7442436394e-01	-5.4948558790e-01
 1.1446789573e+00	 9.0165147967e-01	-6.8720717033e-01
 1.3350024488e+00	 6.1876530491e-01	 9.0061143513e-01
 1.3204241707e+00	 6.4929350084e-01	 7.2809748229e-01
 1.3050881583e+00	 6.7959321645e-01	 5.5394669176e-01
 1.2889986181e+00	 7.0963695173e-01	 3.7969253190e-01
 1.2721610623e+00	 7.3939723584e-01	 2.0680977777e-01
 1.2545823159e+00	 7.6884670349e-01	 3.6705589300e-02
 1.2362705189e+00	 7.9795817243e-01	-1.2928872373e-01
 1.2172351228e+00	 8.2670472158e-01	-2.8992508482e-01
 1.1974868816e+00	 8.5505976935e-01	-4.4404503005e-01
 1.1770378374e+00	 8.8299715182e-01	-5.9058495082e-01
 1.1559013000e+00	 9.1049120006e-01	-7.2858009188e-01
 1.3479636376e+00	 6.2477273505e-01	 8.7019218431e-01
 1.3332438229e+00	 6.5559732123e-01	 6.9619529573e-01
 1.3177589171e+00	 6.8619120884e-01	 5.2068191842e-01
 1.3015131678e+00	 7.1652663087e-01	 3.4519494938e-01
 1.2845121406e+00	 7.4657584978e-01	 1.7121685101e-01
 1.2667627267e+00	 7.7631123459e-01	 1.6046423569e-04
 1.2482731453e+00	 8.0570533915e-01	-1.6663946835e-01
 1.2290529395e+00	 8.3473098101e-01	-3.2793389427e-01
 1.2091129678e+00	 8.6336132051e-01	-4.8256599632e-01
 1.1884653892e+00	 8.9156993970e-01	-6.2947654983e-01
 1.1671236428e+00	 9.1933092045e-01	-7.6770797665e-01
 1.3609248264e+00	 6.3078016519e-01	 8.4082921232e-01
 1.3460634750e+00	 6.6190114163e-01	 6.6549095269e-01
 1.3304296760e+00	 6.9278920123e-01	 4.8875690680e-01
 1.3140277175e+00	 7.2341631001e-01	 3.1217650808e-01
 1.2968632189e+00	 7.5375446372e-01	 1.3723704117e-01
 1.2789431376e+00	 7.8377576569e-01	-3.4645803254e-02
 1.2602757717e+00	 8.1345250588e-01	-2.0213663963e-01
 1.2408707562e+00	 8.4275724044e-01	-3.6398817940e-01
 1.2207390541e+00	 8.7166287167e-01	-5.1904793211e-01
 1.1998929410e+00	 9.0014272759e-01	-6.6626366542e-01
 1.1783459855e+00	 9.2817064084e-01	-8.0468750118e-01
 1.3738860153e+00	 6.3678759534e-01	 8.1239101640e-01
 1.3588831271e+00	 6.6820496203e-01	 6.3585594363e-01
 1.3431004348e+00	 6.9938719362e-01	 4.5804615382e-01
 1.3265422672e+00	 7.3030598916e-01	 2.8051482054e-01
 1.3092142971e+00	 7.6093307766e-01	 1.0475128124e-01
 1.2911235484e+00	 7.9124029680e-01	-6.7828660662e-02
 1.2722783981e+00	 8.2119967260e-01	-2.3589167513e-01
 1.2526885730e+00	 8.5078349987e-01	-3.9819489019e-01
 1.2323651403e+00	 8.7996442283e-01	-5.5359274019e-01
 1.2113204929e+00	 9.0871551547e-01	-7.0104251792e-01
 1.1895683282e+00	 9.3701036123e-01	-8.3960849990e-01
 1.3868472041e+00	 6.4279502548e-01	 7.8475390472e-01
 1.3717027793e+00	 6.7450878242e-01	 6.0716950645e-01
 1.3557711936e+00	 7.0598518602e-01	 4.2843182741e-01
 1.3390568169e+00	 7.3719566830e-01	 2.5009508020e-01
 1.3215653754e+00	 7.6811169160e-01	 7.3647980589e-02
 1.3033039592e+00	 7.9870482790e-01	-9.9496198886e-02
 1.2842810245e+00	 8.2894683932e-01	-2.6800879168e-01
 1.2645063897e+00	 8.5880975931e-01	-4.3065390874e-01
 1.2439912265e+00	 8.8826597399e-01	-5.8629542628e-01
 1.2227480447e+00	 9.1728830335e-01	-7.3390262052e-01
 1.2007906709e+00	 9.4585008162e-01	-8.7255431033e-01
 1.3998083929e+00	 6.4880245563e-01	 7.5780165575e-01
 1.3845224314e+00	 6.8081260282e-01	 5.7931828239e-01
 1.3684419524e+00	 7.1258317841e-01	 3.9980341958e-01
 1.3515713666e+00	 7.4408534744e-01	 2.2080971232e-01
 1.3339164537e+00	 7.7529030554e-01	 4.3822674577e-02
 1.3154843701e+00	 8.0616935900e-01	-1.2974950286e-01
 1.2962836509e+00	 8.3669400604e-01	-2.9858533507e-01
 1.2763242064e+00	 8.6683601874e-01	-4.6145839661e-01
 1.2556173128e+00	 8.9656752515e-01	-6.1724444256e-01
 1.2341755965e+00	 9.2586109123e-01	-7.6492711736e-01
 1.2120130136e+00	 9.5468980201e-01	-9.0360210399e-01
 1.4127695817e+00	 6.5480988577e-01	 7.3142519332e-01
 1.3973420836e+00	 6.8711642321e-01	 5.5219598768e-01
 1.3811127112e+00	 7.1918117080e-01	 3.7205741508e-01
 1.3640859163e+00	 7.5097502659e-01	 1.9255804038e-01
 1.3462675320e+00	 7.8246891948e-01	 1.5177689530e-02
 1.3276647809e+00	 8.1363389010e-01	-1.5868298700e-01
 1.3082862773e+00	 8.4444117277e-01	-3.2771211469e-01
 1.2881420231e+00	 8.7486227817e-01	-4.9069512748e-01
 1.2672433990e+00	 9.0486907631e-01	-6.4652201687e-01
 1.2456031483e+00	 9.3443387911e-01	-7.9419310771e-01
 1.2232353563e+00	 9.6352952240e-01	-9.3282320384e-01
 1.4257307705e+00	 6.6081731592e-01	 7.0552227654e-01
 1.4101617357e+00	 6.9342024361e-01	 5.2570309987e-01
 1.3937834700e+00	 7.2577916320e-01	 3.4509697471e-01
 1.3766004660e+00	 7.5786470573e-01	 1.6524596703e-01
 1.3586186102e+00	 7.8964753342e-01	-1.2378177835e-02
 1.3398451917e+00	 8.2109842120e-01	-1.8638471633e-01
 1.3202889037e+00	 8.5218833949e-01	-3.5547372424e-01
 1.2999598399e+00	 8.8288853761e-01	-5.1844480606e-01
 1.2788694852e+00	 9.1317062747e-01	-6.7420446852e-01
 1.2570307001e+00	 9.4300666699e-01	-8.2177195705e-01
 1.2344576991e+00	 9.7236924279e-01	-9.6028338917e-01
 1.1222342719e+00	 8.8397203890e-01	-5.9730311970e-01
 1.1010600209e+00	 9.1021050139e-01	-7.2719525235e-01
 1.0792477331e+00	 9.3597043608e-01	-8.5070985038e-01
 1.0568138525e+00	 9.6122880086e-01	-9.6701442915e-01
 1.0337759235e+00	 9.8596331907e-01	-1.0753413534e+00
 1.0101525446e+00	 1.0101525446e+00	-1.1749876617e+00
 9.8596331907e-01	 1.0337759235e+00	-1.2653141029e+00
 9.6122880086e-01	 1.0568138525e+00	-1.3457434856e+00
 9.3597043608e-01	 1.0792477331e+00	-1.4157584675e+00
 9.1021050139e-01	 1.1010600209e+00	-1.4748989276e+00
 8.8397203890e-01	 1.1222342719e+00	-1.5227590788e+00
 1.1334566146e+00	 8.9281175929e-01	-6.4348533264e-01
 1.1120706211e+00	 9.1931260640e-01	-7.7345253213e-01
 1.0900402104e+00	 9.4533014044e-01	-8.9674554590e-01
 1.0673819911e+00	 9.7084108887e-01	-1.0125426394e+00
 1.0441136827e+00	 9.9582295226e-01	-1.1200902078e+00
 1.0202540700e+00	 1.0202540700e+00	-1.2187024041e+00
 9.9582295226e-01	 1.0441136827e+00	-1.3077599209e+00
 9.7084108887e-01	 1.0673819911e+00	-1.3867080342e+00
 9.4533014044e-01	 1.0900402104e+00	-1.4550540435e+00
 9.1931260640e-01	 1.1120706211e+00	-1.5123642630e+00
 8.9281175929e-01	 1.1334566146e+00	-1.5582607303e+00
 1.1446789573e+00	 9.0165147967e-01	-6.8720717033e-01
 1.1230812213e+00	 9.2841471142e-01	-8.1725255105e-01
 1.1008326877e+00	 9.5468984480e-01	-9.4035430231e-01
 1.0779501296e+00	 9.8045337688e-01	-1.0557008226e+00
 1.0544514420e+00	 1.0056825854e+00	-1.1625514658e+00
 1.0303555954e+00	 1.0303555954e+00	-1.2602359719e+00
 1.0056825854e+00	 1.0544514420e+00	-1.3481529940e+00
 9.8045337688e-01	 1.0779501296e+00	-1.4257678374e+00
 9.5468984480e-01	 1.1008326877e+00	-1.4926095543e+00
 9.2841471142e-01	 1.1230812213e+00	-1.5482675566e+00
 9.0165147967e-01	 1.1446789573e+00	-1.5923879296e+00
 1.1559013000e+00	 9.1049120006e-01	-7.2858009188e-01
 1.1340918216e+00	 9.3751681643e-01	-8.5869823453e-01
 1.1116251651e+00	 9.6404954916e-01	-9.8162840895e-01
 1.0885182681e+00	 9.9006566488e-01	-1.0965685610e+00
 1.0647892012e+00	 1.0155422186e+00	-1.2027899773e+00
 1.0404571209e+00	 1.0404571209e+00	-1.2996365170e+00
 1.0155422186e+00	 1.0647892012e+00	-1.3865228837e+00
 9.9006566488e-01	 1.0885182681e+00	-1.4629320603e+00
 9.6404954916e-01	 1.1116251651e+00	-1.5284120593e+00
 9.3751681643e-01	 1.1340918216e+00	-1.5825721621e+00
 9.1049120006e-01	 1.1559013000e+00	-1.6250788409e+00
 1.1671236428e+00	 9.1933092045e-01	-7.6770797665e-01
 1.1451024218e+00	 9.4661892144e-01	-8.9788521539e-01
 1.1224176424e+00	 9.7340925352e-01	-1.0206532259e+00
 1.0990864066e+00	 9.9967795289e-01	-1.1352189459e+00
 1.0751269604e+00	 1.0254018518e+00	-1.2408646133e+00
 1.0505586463e+00	 1.0505586463e+00	-1.3369467974e+00
 1.0254018518e+00	 1.0751269604e+00	-1.4228944138e+00
 9.9967795289e-01	 1.0990864066e+00	-1.4982058558e+00
 9.7340925352e-01	 1.1224176424e+00	-1.5624454002e+00
 9.4661892144e-01	 1.1451024218e+00	-1.6152390755e+00
 9.1933092045e-01	 1.1671236428e+00	-1.6562701965e+00
 1.1783459855e+00	 9.2817064084e-01	-8.0468750118e-01
 1.1561130220e+00	 9.5572102646e-01	-9.3490219872e-01
 1.1332101197e+00	 9.8276895788e-01	-1.0575075320e+00
 1.1096545452e+00	 1.0092902409e+00	-1.1717189046e+00
 1.0854647197e+00	 1.0352614850e+00	-1.2768285678e+00
 1.0606601718e+00	 1.0606601718e+00	-1.3722044487e+00
 1.0352614850e+00	 1.0854647197e+00	-1.4572879079e+00
 1.0092902409e+00	 1.1096545452e+00	-1.5315905644e+00
 9.8276895788e-01	 1.1332101197e+00	-1.5946903581e+00
 9.5572102646e-01	 1.1561130220e+00	-1.6462270472e+00
 9.2817064084e-01	 1.1783459855e+00	-1.6858973578e+00
 1.1895683282e+00	 9.3701036123e-01	-8.3960849990e-01
 1.1671236222e+00	 9.6482313147e-01	-9.6983131102e-01
 1.1440025970e+00	 9.9212866224e-01	-1.0922638587e+00
 1.1202226837e+00	 1.0189025289e+00	-1.2061295144e+00
 1.0958024789e+00	 1.0451211182e+00	-1.3107296469e+00
 1.0707616972e+00	 1.0707616972e+00	-1.4054422458e+00
 1.0451211182e+00	 1.0958024789e+00	-1.4897194184e+00
 1.0189025289e+00	 1.1202226837e+00	-1.5630839070e+00
 9.9212866224e-01	 1.1440025970e+00	-1.6251248066e+00
 9.6482313147e-01	 1.1671236222e+00	-1.6754926907e+00
 9.3701036123e-01	 1.1895683282e+00	-1.7138943787e+00
 1.2007906709e+00	 9.4585008162e-01	-8.7255431033e-01
 1.1781342224e+00	 9.7392523649e-01	-1.0027484347e+00
 1.1547950744e+00	 1.0014883666e+00	-1.1249888093e+00
 1.1307908222e+00	 1.0285148169e+00	-1.2385063027e+00
 1.1061402381e+00	 1.0549807514e+00	-1.3426105472e+00
 1.0808632227e+00	 1.0808632227e+00	-1.4366883542e+00
 1.0549807514e+00	 1.1061402381e+00	-1.5202009477e+00
 1.0285148169e+00	 1.1307908222e+00	-1.5926801719e+00
 1.0014883666e+00	 1.1547950744e+00	-1.6537238605e+00
 9.7392523649e-01	 1.1781342224e+00	-1.7029905913e+00
 9.4585008162e-01	 1.2007906709e+00	-1.7401940686e+00
 1.2120130136e+00	 9.5468980201e-01	-9.0360210399e-01
 1.1891448226e+00	 9.8302734150e-01	-1.0337235291e+00
 1.1655875517e+00	 1.0108480710e+00	-1.1557433663e+00
 1.1413589607e+00	 1.0381271049e+00	-1.2688995371e+00
 1.1164779974e+00	 1.0648403846e+00	-1.3725091235e+00
 1.0909647481e+00	 1.0909647481e+00	-1.4659665721e+00
 1.0648403846e+00	 1.1164779974e+00	-1.5487406616e+00
 1.0381271049e+00	 1.1413589607e+00	-1.6203703957e+00
 1.0108480710e+00	 1.1655875517e+00	-1.6804600223e+00
 9.8302734150e-01	 1.1891448226e+00	-1.7286734123e+00
 9.5468980201e-01	 1.2120130136e+00	-1.7647280575e+00
 1.2232353563e+00	 9.6352952240e-01	-9.3282320384e-01
 1.2001554228e+00	 9.9212944651e-01	-1.0628209380e+00
 1.1763800290e+00	 1.0202077753e+00	-1.1845831860e+00
 1.1519270993e+00	 1.0477393929e+00	-1.2973545030e+00
 1.1268157566e+00	 1.0747000178e+00	-1.4004586465e+00
 1.1010662736e+00	 1.1010662736e+00	-1.4932965651e+00
 1.0747000178e+00	 1.1268157566e+00	-1.5753430963e+00
 1.0477393929e+00	 1.1519270993e+00	-1.6461425401e+00
 1.0202077753e+00	 1.1763800290e+00	-1.7053033236e+00
 9.9212944651e-01	 1.2001554228e+00	-1.7524920006e+00
 9.6352952240e-01	 1.2232353563e+00	-1.7874268611e+00
 1.2344576991e+00	 9.7236924279e-01	-9.6028338917e-01
 1.2111660230e+00	 1.0012315515e+00	-1.0900996865e+00
 1.1871725064e+00	 1.0295674797e+00	-1.2115588826e+00
 1.1624952378e+00	 1.0573516809e+00	-1.3239117719e+00
 1.1371535158e+00	 1.0845596510e+00	-1.4264880517e+00
 1.1111677990e+00	 1.1111677990e+00	-1.5186940921e+00
 1.0845596510e+00	 1.1371535158e+00	-1.6000093586e+00
 1.0573516809e+00	 1.1624952378e+00	-1.6699816626e+00
 1.0295674797e+00	 1.1871725064e+00	-1.7282214647e+00
 1.0012315515e+00	 1.2111660230e+00	-1.7743954904e+00
 9.7236924279e-01	 1.2344576991e+00	-1.8082199470e+00
 8.8397203890e-01	 1.1222342719e+00	-1.5227590788e+00
 8.5727878818e-01	 1.1427551819e+00	-1.5615872264e+00
 8.3015511588e-01	 1.1626086229e+00	-1.5939683557e+00
 8.0262594328e-01	 1.1817816726e+00	-1.6200361074e+00
 7.7471667226e-01	 1.2002626397e+00	-1.6399155080e+00
 7.4645311018e-01	 1.2180410834e+00	-1.6537205473e+00
 7.1786139402e-01	 1.2351078275e+00	-1.6615527522e+00
 6.8896791430e-01	 1.2514549691e+00	-1.6635008290e+00
 6.5979923927e-01	 1.2670758819e+00	-1.6596414129e+00
 6.3038203965e-01	 1.2819652143e+00	-1.6500409224e+00
 6.0074301447e-01	 1.2961188823e+00	-1.6347584845e+00
 8.9281175929e-01	 1.1334566146e+00	-1.5582607303e+00
 8.6585157606e-01	 1.1541827338e+00	-1.5949381054e+00
 8.3845666704e-01	 1.1742347092e+00	-1.6249362119e+00
 8.1065220271e-01	 1.1935994893e+00	-1.6484280436e+00
 7.8246383899e-01	 1.2122652661e+00	-1.6655749885e+00
 7.5391764129e-01	 1.2302214942e+00	-1.6765240439e+00
 7.2504000796e-01	 1.2474589058e+00	-1.6814061027e+00
 6.9585759344e-01	 1.2639695188e+00	-1.6803353923e+00
 6.6639723166e-01	 1.2797466407e+00	-1.6734101093e+00
 6.3668586004e-01	 1.2947848664e+00	-1.6607142536e+00
 6.0675044462e-01	 1.3090800711e+00	-1.6423206265e+00
 9.0165147967e-01	 1.1446789573e+00	-1.5923879296e+00
 8.7442436394e-01	 1.1656102856e+00	-1.6271044527e+00
 8.4675821820e-01	 1.1858607954e+00	-1.6549109511e+00
 8.1867846214e-01	 1.2054173061e+00	-1.6760255545e+00
 7.9021100571e-01	 1.2242678925e+00	-1.6906521162e+00
 7.6138217239e-01	 1.2424019051e+00	-1.6989769827e+00
 7.3221862190e-01	 1.2598099840e+00	-1.7011669119e+00
 7.0274727259e-01	 1.2764840684e+00	-1.6973682296e+00
 6.7299522405e-01	 1.2924173995e+00	-1.6877072740e+00
 6.4298968044e-01	 1.3076045186e+00	-1.6722921370e+00
 6.1275787476e-01	 1.3220412600e+00	-1.6512156685e+00
 9.1049120006e-01	 1.1559013000e+00	-1.6250788409e+00
 8.8299715182e-01	 1.1770378374e+00	-1.6579999660e+00
 8.5505976935e-01	 1.1974868816e+00	-1.6837845404e+00
 8.2670472158e-01	 1.2172351228e+00	-1.7027014398e+00
 7.9795817243e-01	 1.2362705189e+00	-1.7150029006e+00
 7.6884670349e-01	 1.2545823159e+00	-1.7209207635e+00
 7.3939723584e-01	 1.2721610623e+00	-1.7206639424e+00
 7.0963695173e-01	 1.2889986181e+00	-1.7144172192e+00
 6.7959321645e-01	 1.3050881583e+00	-1.7023414232e+00
 6.4929350084e-01	 1.3204241707e+00	-1.6845750078e+00
 6.1876530491e-01	 1.3350024488e+00	-1.6612369958e+00
 9.1933092045e-01	 1.1671236428e+00	-1.6562701965e+00
 8.9156993970e-01	 1.1884653892e+00	-1.6875378183e+00
 8.6336132051e-01	 1.2091129678e+00	-1.7114492382e+00
 8.3473098101e-01	 1.2290529395e+00	-1.7283295232e+00
 8.0570533915e-01	 1.2482731453e+00	-1.7384850359e+00
 7.7631123459e-01	 1.2667627267e+00	-1.7421990694e+00
 7.4657584978e-01	 1.2845121406e+00	-1.7397287862e+00
 7.1652663087e-01	 1.3015131678e+00	-1.7313035734e+00
 6.8619120884e-01	 1.3177589171e+00	-1.7171248805e+00
 6.5559732123e-01	 1.3332438229e+00	-1.6973675620e+00
 6.2477273505e-01	 1.3479636376e+00	-1.6721826973e+00
 9.2817064084e-01	 1.1783459855e+00	-1.6858973578e+00
 9.0014272759e-01	 1.1998929410e+00	-1.7156306709e+00
 8.7166287167e-01	 1.2207390541e+00	-1.7377975613e+00
 8.4275724044e-01	 1.2408707562e+00	-1.7527845790e+00
 8.1345250588e-01	 1.2602757717e+00	-1.7609577894e+00
 7.8377576569e-01	 1.2789431376e+00	-1.7626577196e+00
 7.5375446372e-01	 1.2968632189e+00	-1.7581956858e+00
 7.2341631001e-01	 1.3140277175e+00	-1.7478516294e+00
 6.9278920123e-01	 1.3304296760e+00	-1.7318735401e+00
 6.6190114163e-01	 1.3460634750e+00	-1.7104784925e+00
 6.3078016519e-01	 1.3609248264e+00	-1.6838552759e+00
 9.3701036123e-01	 1.1895683282e+00	-1.7138943787e+00
 9.0871551547e-01	 1.2113204929e+00	-1.7421906888e+00
 8.7996442283e-01	 1.2323651403e+00	-1.7627222589e+00
 8.5078349987e-01	 1.2526885730e+00	-1.7759422662e+00
 8.2119967260e-01	 1.2722783981e+00	-1.7822819001e+00
 7.9124029680e-01	 1.2911235484e+00	-1.7821445353e+00
 7.6093307766e-01	 1.3092142971e+00	-1.7759013682e+00
 7.3030598916e-01	 1.3265422672e+00	-1.7638886555e+00
 6.9938719362e-01	 1.3431004348e+00	-1.7464066459e+00
 6.6820496203e-01	 1.3588831271e+00	-1.7237202429e+00
 6.3678759534e-01	 1.3738860153e+00	-1.6960613785e+00
 9.4585008162e-01	 1.2007906709e+00	-1.7401940686e+00
 9.1728830335e-01	 1.2227480447e+00	-1.7671295611e+00
 8.8826597399e-01	 1.2439912265e+00	-1.7861162910e+00
 8.5880975931e-01	 1.2645063897e+00	-1.7976790705e+00
 8.2894683932e-01	 1.2842810245e+00	-1.8023194858e+00
 7.9870482790e-01	 1.3033039592e+00	-1.8005092153e+00
 7.6811169160e-01	 1.3215653754e+00	-1.7926848928e+00
 7.3719566830e-01	 1.3390568169e+00	-1.7792446707e+00
 7.0598518602e-01	 1.3557711936e+00	-1.7605465862e+00
 6.7450878242e-01	 1.3717027793e+00	-1.7369087781e+00
 6.4279502548e-01	 1.3868472041e+00	-1.7086115431e+00
 9.5468980201e-01	 1.2120130136e+00	-1.7647280575e+00
 9.2586109123e-01	 1.2341755965e+00	-1.7903585234e+00
 8.9656752515e-01	 1.2556173128e+00	-1.8078728134e+00
 8.6683601874e-01	 1.2763242064e+00	-1.8178722534e+00
 8.3669400604e-01	 1.2962836509e+00	-1.8209339603e+00
 8.0616935900e-01	 1.3154843701e+00	-1.8176032226e+00
 7.7529030554e-01	 1.3339164537e+00	-1.8083875093e+00
 7.4408534744e-01	 1.3515713666e+00	-1.7937522782e+00
 7.1258317841e-01	 1.3684419524e+00	-1.7741187019e+00
 6.8081260282e-01	 1.3845224314e+00	-1.7498633700e+00
 6.4880245563e-01	 1.3998083929e+00	-1.7213199623e+00
 9.6352952240e-01	 1.2232353563e+00	-1.7874268611e+00
 9.3443387911e-01	 1.2456031483e+00	-1.8117883835e+00
 9.0486907631e-01	 1.2672433990e+00	-1.8278851666e+00
 8.7486227817e-01	 1.2881420231e+00	-1.8363998078e+00
 8.4444117277e-01	 1.3082862773e+00	-1.8379899578e+00
 8.1363389010e-01	 1.3276647809e+00	-1.8332796812e+00
 7.8246891948e-01	 1.3462675320e+00	-1.8228525283e+00
 7.5097502659e-01	 1.3640859163e+00	-1.8072465099e+00
 7.1918117080e-01	 1.3811127112e+00	-1.7869511090e+00
 6.8711642321e-01	 1.3973420836e+00	-1.7624063970e+00
 6.5480988577e-01	 1.4127695817e+00	-1.7340042622e+00
 9.7236924279e-01	 1.2344576991e+00	-1.8082199470e+00
 9.4300666699e-01	 1.2570307001e+00	-1.8313295499e+00
 9.1317062747e-01	 1.2788694852e+00	-1.8460468699e+00
 8.8288853761e-01	 1.2999598399e+00	-1.8531404199e+00
 8.5218833949e-01	 1.3202889037e+00	-1.8533532657e+00
 8.2109842120e-01	 1.3398451917e+00	-1.8473932810e+00
 7.8964753342e-01	 1.3586186102e+00	-1.8359252007e+00
 7.5786470573e-01	 1.3766004660e+00	-1.8195646836e+00
 7.2577916320e-01	 1.3937834700e+00	-1.7988745327e+00
 6.9342024361e-01	 1.4101617357e+00	-1.7743631582e+00
 6.6081731592e-01	 1.4257307705e+00	-1.7464852960e+00
 6.0074301447e-01	 1.2961188823e+00	-1.6347584845e+00
 5.7090881838e-01	 1.3095340575e+00	-1.6146899956e+00
 5.4090599071e-01	 1.3222091498e+00	-1.5911188833e+00
 5.1076088679e-01	 1.3341437865e+00	-1.5646323552e+00
 4.8049961170e-01	 1.3453387862e+00	-1.5357549963e+00
 4.5014795685e-01	 1.3557961290e+00	-1.5049546734e+00
 4.1973133959e-01	 1.3655189230e+00	-1.4726492474e+00
 3.8927474607e-01	 1.3745113672e+00	-1.4392138641e+00
 3.5880267763e-01	 1.3827787115e+00	-1.4049885834e+00
 3.2833910082e-01	 1.3903272138e+00	-1.3702861086e+00
 2.9790740112e-01	 1.3971640945e+00	-1.3353993842e+00
 6.0675044462e-01	 1.3090800711e+00	-1.6423206265e+00
 5.7661790656e-01	 1.3226293980e+00	-1.6190048175e+00
 5.4631505062e-01	 1.3354312413e+00	-1.5919786391e+00
 5.1586849565e-01	 1.3474852244e+00	-1.5619083314e+00
 4.8530460782e-01	 1.3587921741e+00	-1.5293909685e+00
 4.5464943642e-01	 1.3693540903e+00	-1.4949603385e+00
 4.2392865298e-01	 1.3791741122e+00	-1.4590937381e+00
 3.9316749353e-01	 1.3882564809e+00	-1.4222194393e+00
 3.6239070441e-01	 1.3966064986e+00	-1.3847245742e+00
 3.3162249183e-01	 1.4042304859e+00	-1.3469631872e+00
 3.0088647513e-01	 1.4111357354e+00	-1.3092642076e+00
 6.1275787476e-01	 1.3220412600e+00	-1.6512156685e+00
 5.8232699475e-01	 1.3357247386e+00	-1.6251327087e+00
 5.5172411052e-01	 1.3486533328e+00	-1.5951689726e+00
 5.2097610452e-01	 1.3608266622e+00	-1.5620550412e+00
 4.9010960393e-01	 1.3722455619e+00	-1.5264460395e+00
 4.5915091599e-01	 1.3829120516e+00	-1.4889275921e+00
 4.2812596638e-01	 1.3928293015e+00	-1.4500227949e+00
 3.9706024099e-01	 1.4020015946e+00	-1.4101999472e+00
 3.6597873119e-01	 1.4104342858e+00	-1.3698807785e+00
 3.3490588284e-01	 1.4181337581e+00	-1.3294489032e+00
 3.0386554914e-01	 1.4251073764e+00	-1.2892582416e+00
 6.1876530491e-01	 1.3350024488e+00	-1.6612369958e+00
 5.8803608293e-01	 1.3488200792e+00	-1.6328608370e+00
 5.5713317043e-01	 1.3618754243e+00	-1.6004718640e+00
 5.2608371339e-01	 1.3741681001e+00	-1.5648506283e+00
 4.9491460005e-01	 1.3856989498e+00	-1.5266961727e+00
 4.6365239556e-01	 1.3964700129e+00	-1.4866321584e+00
 4.3232327978e-01	 1.4064844907e+00	-1.4452141085e+00
 4.0095298845e-01	 1.4157467082e+00	-1.4029374960e+00
 3.6956675796e-01	 1.4242620729e+00	-1.3602463983e+00
 3.3818927385e-01	 1.4320370302e+00	-1.3174471811e+00
 3.0684462315e-01	 1.4390790173e+00	-1.2743421722e+00
 6.2477273505e-01	 1.3479636376e+00	-1.6721826973e+00
 5.9374517111e-01	 1.3619154198e+00	-1.6419815141e+00
 5.6254223034e-01	 1.3750975158e+00	-1.6076748669e+00
 5.3119132226e-01	 1.3875095380e+00	-1.5700792171e+00
 4.9971959617e-01	 1.3991523377e+00	-1.5299236822e+00
 4.6815387513e-01	 1.4100279742e+00	-1.4878564324e+00
 4.3652059317e-01	 1.4201396799e+00	-1.4444522982e+00
 4.0484573591e-01	 1.4294918219e+00	-1.4002142423e+00
 3.7315478474e-01	 1.4380898600e+00	-1.3548761837e+00
 3.4147266485e-01	 1.4459403023e+00	-1.3086356291e+00
 3.0982369716e-01	 1.4530506583e+00	-1.2622219544e+00
 6.3078016519e-01	 1.3609248264e+00	-1.6838552759e+00
 5.9945425930e-01	 1.3750107603e+00	-1.6522918817e+00
 5.6795129024e-01	 1.3883196073e+00	-1.6165707720e+00
 5.3629893113e-01	 1.4008509758e+00	-1.5775305537e+00
 5.0452459228e-01	 1.4126057255e+00	-1.5359168549e+00
 4.7265535470e-01	 1.4235859355e+00	-1.4923890863e+00
 4.4071790657e-01	 1.4337948692e+00	-1.4472961150e+00
 4.0873848337e-01	 1.4432369356e+00	-1.4000407441e+00
 3.7674281151e-01	 1.4519176471e+00	-1.3513002232e+00
 3.4475605586e-01	 1.4598435745e+00	-1.3018879633e+00
 3.1280277117e-01	 1.4670222992e+00	-1.2525427959e+00
 6.3678759534e-01	 1.3738860153e+00	-1.6960613785e+00
 6.0516334748e-01	 1.3881061009e+00	-1.6635936177e+00
 5.7336035015e-01	 1.4015416988e+00	-1.6269572905e+00
 5.4140653999e-01	 1.4141924137e+00	-1.5869996696e+00
 5.0932958840e-01	 1.4260591134e+00	-1.5444695960e+00
 4.7715683426e-01	 1.4371438968e+00	-1.4993885947e+00
 4.4491521996e-01	 1.4474500584e+00	-1.4511850620e+00
 4.1263123083e-01	 1.4569820492e+00	-1.4007894632e+00
 3.8033083829e-01	 1.4657454342e+00	-1.3491025115e+00
 3.4803944687e-01	 1.4737468466e+00	-1.2969427974e+00
 3.1578184518e-01	 1.4809939401e+00	-1.2450501227e+00
 6.4279502548e-01	 1.3868472041e+00	-1.7086115431e+00
 6.1087243566e-01	 1.4012014415e+00	-1.6756926608e+00
 5.7876941006e-01	 1.4147637903e+00	-1.6386367577e+00
 5.4651414886e-01	 1.4275338516e+00	-1.5982865652e+00
 5.1413458452e-01	 1.4395125012e+00	-1.5543330893e+00
 4.8165831383e-01	 1.4507018581e+00	-1.5063011609e+00
 4.4911253336e-01	 1.4611052476e+00	-1.4552612794e+00
 4.1652397829e-01	 1.4707271629e+00	-1.4022028189e+00
 3.8391886507e-01	 1.4795732213e+00	-1.3480265248e+00
 3.5132283788e-01	 1.4876501188e+00	-1.2935472791e+00
 3.1876091919e-01	 1.4949655811e+00	-1.2394976007e+00
 6.4880245563e-01	 1.3998083929e+00	-1.7213199623e+00
 6.1658152385e-01	 1.4142967820e+00	-1.6883989529e+00
 5.8417846996e-01	 1.4279858818e+00	-1.6514158545e+00
 5.5162175773e-01	 1.4408752894e+00	-1.6098615153e+00
 5.1893958064e-01	 1.4529658891e+00	-1.5632224155e+00
 4.8615979340e-01	 1.4642598193e+00	-1.5126683668e+00
 4.5330984676e-01	 1.4747604369e+00	-1.4592769500e+00
 4.2041672575e-01	 1.4844722766e+00	-1.4040316775e+00
 3.8750689184e-01	 1.4934010084e+00	-1.3478240953e+00
 3.5460622889e-01	 1.5015533909e+00	-1.2914567286e+00
 3.2173999320e-01	 1.5089372220e+00	-1.2356467865e+00
 6.5480988577e-01	 1.4127695817e+00	-1.7340042622e+00
 6.2229061203e-01	 1.4273921226e+00	-1.7015261973e+00
 5.8958752987e-01	 1.4412079733e+00	-1.6636942776e+00
 5.5672936660e-01	 1.4542167273e+00	-1.6197191880e+00
 5.2374457675e-01	 1.4664192770e+00	-1.5708511366e+00
 4.9066127297e-01	 1.4778177806e+00	-1.5182537886e+00
 4.5750716015e-01	 1.4884156261e+00	-1.4629923650e+00
 4.2430947321e-01	 1.4982173903e+00	-1.4060350036e+00
 3.9109491862e-01	 1.5072287956e+00	-1.3482550644e+00
 3.5788961990e-01	 1.5154566630e+00	-1.2904342987e+00
 3.2471906722e-01	 1.5229088630e+00	-1.2332667960e+00
 6.6081731592e-01	 1.4257307705e+00	-1.7464852960e+00
 6.2799970022e-01	 1.4404874632e+00	-1.7136388986e+00
 5.9499658978e-01	 1.4544300648e+00	-1.6735957667e+00
 5.6183697547e-01	 1.4675581652e+00	-1.6276325595e+00
 5.2854957287e-01	 1.4798726648e+00	-1.5769954264e+00
 4.9516275254e-01	 1.4913757419e+00	-1.5228287282e+00
 4.6170447355e-01	 1.5020708153e+00	-1.4661755969e+00
 4.2820222067e-01	 1.5119625039e+00	-1.4079795315e+00
 3.9468294540e-01	 1.5210565827e+00	-1.3490869551e+00
 3.6117301090e-01	 1.5293599352e+00	-1.2902506512e+00
 3.2769814123e-01	 1.5368805039e+00	-1.2321339913e+00
 2.9790740112e-01	 1.3971640945e+00	-1.3353993842e+00
 2.6753034058e-01	 1.4032974893e+00	-1.3035012572e+00
 2.3723001941e-01	 1.4087363999e+00	-1.2767146720e+00
 2.0702784146e-01	 1.4134906435e+00	-1.2538226535e+00
 1.7694448373e-01	 1.4175708011e+00	-1.2337180006e+00
 1.4699986978e-01	 1.4209881649e+00	-1.2154130888e+00
 1.1721314705e-01	 1.4237546856e+00	-1.1980474339e+00
 8.7602667997e-02	 1.4258829191e+00	-1.1808929973e+00
 5.8185974962e-02	 1.4273859740e+00	-1.1633572527e+00
 2.8979788635e-02	 1.4282774585e+00	-1.1449840743e+00
 0.0000000000e+00	 1.4285714286e+00	-1.1254525431e+00
 3.0088647513e-01	 1.4111357354e+00	-1.3092642076e+00
 2.7020564398e-01	 1.4173304642e+00	-1.2749592348e+00
 2.3960231960e-01	 1.4228237639e+00	-1.2462245415e+00
 2.0909811988e-01	 1.4276255500e+00	-1.2217166658e+00
 1.7871392857e-01	 1.4317465091e+00	-1.2001386794e+00
 1.4846986848e-01	 1.4351980466e+00	-1.1803097900e+00
 1.1838527852e-01	 1.4379922324e+00	-1.1613504628e+00
 8.8478694677e-02	 1.4401417483e+00	-1.1424893871e+00
 5.8767834711e-02	 1.4416598338e+00	-1.1230647090e+00
 2.9269586521e-02	 1.4425602331e+00	-1.1025299517e+00
 0.0000000000e+00	 1.4428571429e+00	-1.0804586558e+00
 3.0386554914e-01	 1.4251073764e+00	-1.2892582416e+00
 2.7288094739e-01	 1.4313634391e+00	-1.2527272259e+00
 2.4197461980e-01	 1.4369111279e+00	-1.2217639695e+00
 2.1116839829e-01	 1.4417604564e+00	-1.1950374763e+00
 1.8048337341e-01	 1.4459222171e+00	-1.1713773673e+00
 1.4993986718e-01	 1.4494079282e+00	-1.1496945016e+00
 1.1955740999e-01	 1.4522297793e+00	-1.1289919291e+00
 8.9354721357e-02	 1.4544005775e+00	-1.1083745278e+00
 5.9349694461e-02	 1.4559336935e+00	-1.0870572993e+00
 2.9559384407e-02	 1.4568430076e+00	-1.0643723114e+00
 0.0000000000e+00	 1.4571428571e+00	-1.0397742935e+00
 3.0684462315e-01	 1.4390790173e+00	-1.2743421722e+00
 2.7555625079e-01	 1.4453964140e+00	-1.2346913155e+00
 2.4434691999e-01	 1.4509984919e+00	-1.2010394849e+00
 2.1323867671e-01	 1.4558953629e+00	-1.1720425445e+00
 1.8225281825e-01	 1.4600979252e+00	-1.1464205730e+00
 1.5140986588e-01	 1.4636178099e+00	-1.1229713076e+00
 1.2072954146e-01	 1.4664673261e+00	-1.1005822787e+00
 9.0230748037e-02	 1.4686594067e+00	-1.0782415842e+00
 5.9931554210e-02	 1.4702075532e+00	-1.0550472731e+00
 2.9849182294e-02	 1.4711257822e+00	-1.0302153194e+00
 0.0000000000e+00	 1.4714285714e+00	-1.0030861848e+00
 3.0982369716e-01	 1.4530506583e+00	-1.2622219544e+00
 2.7823155420e-01	 1.4594293888e+00	-1.2196656654e+00
 2.4671922018e-01	 1.4650858559e+00	-1.1835621967e+00
 2.1530895512e-01	 1.4700302693e+00	-1.1524727256e+00
 1.8402226308e-01	 1.4742736332e+00	-1.1250170581e+00
 1.5287986458e-01	 1.4778276915e+00	-1.0998882704e+00
 1.2190167293e-01	 1.4807048730e+00	-1.0758660125e+00
 9.1106774717e-02	 1.4829182359e+00	-1.0518284162e+00
 6.0513413960e-02	 1.4844814130e+00	-1.0267625678e+00
 3.0138980180e-02	 1.4854085568e+00	-9.9977352073e-01
 0.0000000000e+00	 1.4857142857e+00	-9.7009184072e-01
 3.1280277117e-01	 1.4670222992e+00	-1.2525427959e+00
 2.8090685761e-01	 1.4734623637e+00	-1.2073950253e+00
 2.4909152038e-01	 1.4791732199e+00	-1.1690830226e+00
 2.1737923353e-01	 1.4841651757e+00	-1.1360830732e+00
 1.8579170792e-01	 1.4884493412e+00	-1.1069237292e+00
 1.5434986327e-01	 1.4920375732e+00	-1.0802016287e+00
 1.2307380440e-01	 1.4949424199e+00	-1.0545959578e+00
 9.1982801397e-02	 1.4971770651e+00	-1.0288814869e+00
 6.1095273710e-02	 1.4987552727e+00	-1.0019401346e+00
 3.0428778066e-02	 1.4996913314e+00	-9.7277102746e-01
 0.0000000000e+00	 1.5000000000e+00	-9.4049904123e-01
 3.1578184518e-01	 1.4809939401e+00	-1.2450501227e+00
 2.8358216101e-01	 1.4874953386e+00	-1.1976324269e+00
 2.5146382057e-01	 1.4932605839e+00	-1.1573609068e+00
 2.1944951195e-01	 1.4983000822e+00	-1.1226364967e+00
 1.8756115276e-01	 1.5026250492e+00	-1.0919052718e+00
 1.5581986197e-01	 1.5062474548e+00	-1.0636754276e+00
 1.2424593587e-01	 1.5091799667e+00	-1.0365328878e+00
 9.2858828077e-02	 1.5114358943e+00	-1.0091554653e+00
 6.1677133459e-02	 1.5130291325e+00	-9.8032551943e-01
 3.0718575953e-02	 1.5139741060e+00	-9.4894107051e-01
 0.0000000000e+00	 1.5142857143e+00	-9.1402535080e-01
 3.1876091919e-01	 1.4949655811e+00	-1.2394976007e+00
 2.8625746442e-01	 1.5015283135e+00	-1.1901388257e+00
 2.5383612077e-01	 1.5073479479e+00	-1.1481624711e+00
 2.2151979036e-01	 1.5124349886e+00	-1.1119034167e+00
 1.8933059760e-01	 1.5168007572e+00	-1.0797338066e+00
 1.5728986067e-01	 1.5204573365e+00	-1.0500811696e+00
 1.2541806734e-01	 1.5234175136e+00	-1.0214451627e+00
 9.3734854757e-02	 1.5256947235e+00	-9.9241285251e-01
 6.2258993209e-02	 1.5273029922e+00	-9.6167246764e-01
 3.1008373839e-02	 1.5282568806e+00	-9.2802557643e-01
 0.0000000000e+00	 1.5285714286e+00	-8.9039766125e-01
 3.2173999320e-01	 1.5089372220e+00	-1.2356467865e+00
 2.8893276782e-01	 1.5155612884e+00	-1.1846827625e+00
 2.5620842096e-01	 1.5214353119e+00	-1.1412616842e+00
 2.2359006878e-01	 1.5265698950e+00	-1.1036614394e+00
 1.9110004243e-01	 1.5309764652e+00	-1.0701885636e+00
 1.5875985937e-01	 1.5346672181e+00	-1.0391974845e+00
 1.2659019882e-01	 1.5376550604e+00	-1.0091083906e+00
 9.4610881437e-02	 1.5399535527e+00	-9.7842362784e-01
 6.2840852958e-02	 1.5415768519e+00	-9.4574254999e-01
 3.1298171725e-02	 1.5425396552e+00	-9.0977476775e-01
 0.0000000000e+00	 1.5428571429e+00	-8.6935175985e-01
 3.2471906722e-01	 1.5229088630e+00	-1.2332667960e+00
 2.9160807123e-01	 1.5295942633e+00	-1.1810400432e+00
 2.5858072115e-01	 1.5355226759e+00	-1.1364395499e+00
 2.2566034719e-01	 1.5407048015e+00	-1.0976950482e+00
 1.9286948727e-01	 1.5451521732e+00	-1.0630555741e+00
 1.6022985806e-01	 1.5488770998e+00	-1.0308098181e+00
 1.2776233029e-01	 1.5518926073e+00	-9.9930510735e-01
 9.5486908117e-02	 1.5542123819e+00	-9.6696491484e-01
 6.3422712708e-02	 1.5558507117e+00	-9.3230480964e-01
 3.1587969612e-02	 1.5568224297e+00	-8.9394678525e-01
 0.0000000000e+00	 1.5571428571e+00	-8.5063192134e-01
 3.2769814123e-01	 1.5368805039e+00	-1.2321339913e+00
 2.9428337463e-01	 1.5436272382e+00	-1.1789934366e+00
 2.6095302135e-01	 1.5496100399e+00	-1.1334838113e+00
 2.2773062561e-01	 1.5548397079e+00	-1.0937953127e+00
 1.9463893211e-01	 1.5593278812e+00	-1.0581273805e+00
 1.6169985676e-01	 1.5630869814e+00	-1.0247101371e+00
 1.2893446176e-01	 1.5661301541e+00	-9.9182447321e-01
 9.6362934797e-02	 1.5684712111e+00	-9.5782066538e-01
 6.4004572458e-02	 1.5701245714e+00	-9.2113542832e-01
 3.1877767498e-02	 1.5711052043e+00	-8.8030733094e-01
 0.0000000000e+00	 1.5714285714e+00	-8.3399052209e-01
 1.5714285714e+00	 0.0000000000e+00	 3.0119921826e+00
 1.5711052043e+00	 3.1877767498e-02	 3.0168811142e+00
 1.5701245714e+00	 6.4004572458e-02	 3.0013534500e+00
 1.5684712111e+00	 9.6362934797e-02	 2.9668577464e+00
 1.5661301541e+00	 1.2893446176e-01	 2.9148972325e+00
 1.5630869814e+00	 1.6169985676e-01	 2.8470202479e+00
 1.5593278812e+00	 1.9463893211e-01	 2.7648097787e+00
 1.5548397079e+00	 2.2773062561e-01	 2.6698721196e+00
 1.5496100399e+00	 2.6095302135e-01	 2.5638247001e+00
 1.5436272382e+00	 2.9428337463e-01	 2.4482831230e+00
 1.5368805039e+00	 3.2769814123e-01	 2.3248474784e+00
 1.5857142857e+00	 0.0000000000e+00	 3.0039315015e+00
 1.5853879789e+00	 3.2167565384e-02	 3.0084511248e+00
 1.5843984312e+00	 6.4586432207e-02	 2.9923343204e+00
 1.5827300402e+00	 9.7238961476e-02	 2.9570615437e+00
 1.5803677010e+00	 1.3010659323e-01	 2.9041650052e+00
 1.5772968631e+00	 1.6316985546e-01	 2.8352186678e+00
 1.5735035893e+00	 1.9640837695e-01	 2.7518273419e+00
 1.5689746143e+00	 2.2980090402e-01	 2.6556149052e+00
 1.5636974039e+00	 2.6332532154e-01	 2.5482116932e+00
 1.5576602131e+00	 2.9695867804e-01	 2.4312411096e+00
 1.5508521449e+00	 3.3067721524e-01	 2.3063055248e+00
 1.6000000000e+00	 0.0000000000e+00	 2.9968128234e+00
 1.5996707535e+00	 3.2457363271e-02	 3.0006711102e+00
 1.5986722909e+00	 6.5168291957e-02	 2.9837356856e+00
 1.5969888694e+00	 9.8114988156e-02	 2.9475132353e+00
 1.5946052478e+00	 1.3127872470e-01	 2.8935588124e+00
 1.5915067447e+00	 1.6463985416e-01	 2.8234654186e+00
 1.5876792973e+00	 1.9817782178e-01	 2.7388526843e+00
 1.5831095208e+00	 2.3187118244e-01	 2.6413546811e+00
 1.5777847679e+00	 2.6569762174e-01	 2.5326069127e+00
 1.5716931880e+00	 2.9963398145e-01	 2.4142325409e+00
 1.5648237858e+00	 3.3365628925e-01	 2.2878279147e+00
 1.6142857143e+00	 0.0000000000e+00	 2.9905167124e+00
 1.6139535281e+00	 3.2747161157e-02	 2.9934267115e+00
 1.6129461507e+00	 6.5750151707e-02	 2.9754470855e+00
 1.6112476986e+00	 9.8991014836e-02	 2.9381052632e+00
 1.6088427947e+00	 1.3245085617e-01	 2.8829731904e+00
 1.6057166263e+00	 1.6610985286e-01	 2.8116565174e+00
 1.6018550053e+00	 1.9994726662e-01	 2.7257828924e+00
 1.5972444272e+00	 2.3394146085e-01	 2.6269893981e+00
 1.5918721319e+00	 2.6806992193e-01	 2.5169091809e+00
 1.5857261629e+00	 3.0230928485e-01	 2.3971573336e+00
 1.5787954268e+00	 3.3663536326e-01	 2.2693161025e+00
 1.6285714286e+00	 0.0000000000e+00	 2.9849285011e+00
 1.6282363027e+00	 3.3036959044e-02	 2.9866081642e+00
 1.6272200104e+00	 6.6332011456e-02	 2.9673625231e+00
 1.6255065278e+00	 9.9867041516e-02	 2.9287344373e+00
 1.6230803416e+00	 1.3362298764e-01	 2.8723069771e+00
 1.6199265080e+00	 1.6757985155e-01	 2.7996922400e+00
 1.6160307133e+00	 2.0171671146e-01	 2.7125192838e+00
 1.6113793336e+00	 2.3601173927e-01	 2.6124212190e+00
 1.6059594959e+00	 2.7044222212e-01	 2.5010215133e+00
 1.5997591378e+00	 3.0498458826e-01	 2.3799195721e+00
 1.5927670677e+00	 3.3961443727e-01	 2.2506756699e+00
 1.6428571429e+00	 0.0000000000e+00	 2.9799380831e+00
 1.6425190772e+00	 3.3326756930e-02	 2.9801100974e+00
 1.6414938701e+00	 6.6913871206e-02	 2.9593802676e+00
 1.6397653570e+00	 1.0074306820e-01	 2.9193017409e+00
 1.6373178884e+00	 1.3479511911e-01	 2.8614631200e+00
 1.6341363896e+00	 1.6904985025e-01	 2.7874769296e+00
 1.6302064213e+00	 2.0348615629e-01	 2.6989672158e+00
 1.6255142401e+00	 2.3808201768e-01	 2.5975563265e+00
 1.6200468599e+00	 2.7281452232e-01	 2.4848509265e+00
 1.6137921127e+00	 3.0765989166e-01	 2.3624273165e+00
 1.6067387086e+00	 3.4259351128e-01	 2.2318161347e+00
 1.6571428571e+00	 0.0000000000e+00	 2.9754397164e+00
 1.6568018518e+00	 3.3616554816e-02	 2.9738313423e+00
 1.6557677299e+00	 6.7495730955e-02	 2.9514026674e+00
 1.6540241862e+00	 1.0161909488e-01	 2.9097121471e+00
 1.6515554353e+00	 1.3596725058e-01	 2.8503484937e+00
 1.6483462713e+00	 1.7051984895e-01	 2.7749188141e+00
 1.6443821293e+00	 2.0525560113e-01	 2.6850359031e+00
 1.6396491465e+00	 2.4015229610e-01	 2.5823047409e+00
 1.6341342239e+00	 2.7518682251e-01	 2.4683082554e+00
 1.6278250876e+00	 3.1033519507e-01	 2.3445924198e+00
 1.6207103496e+00	 3.4557258529e-01	 2.2126507688e+00
 1.6714285714e+00	 0.0000000000e+00	 2.9713318372e+00
 1.6710846264e+00	 3.3906352703e-02	 2.9676747518e+00
 1.6700415896e+00	 6.8077590705e-02	 2.9433359735e+00
 1.6682830154e+00	 1.0249512156e-01	 2.8998744441e+00
 1.6657929821e+00	 1.3713938205e-01	 2.8388737263e+00
 1.6625561529e+00	 1.7198984765e-01	 2.7619298343e+00
 1.6585578373e+00	 2.0702504597e-01	 2.6706382456e+00
 1.6537840529e+00	 2.4222257451e-01	 2.5665801474e+00
 1.6482215879e+00	 2.7755912271e-01	 2.4513079805e+00
 1.6418580625e+00	 3.1301049848e-01	 2.3263303552e+00
 1.6346819905e+00	 3.4855165930e-01	 2.1930964261e+00
 1.6857142857e+00	 0.0000000000e+00	 2.9675168824e+00
 1.6853674010e+00	 3.4196150589e-02	 2.9615470281e+00
 1.6843154494e+00	 6.8659450455e-02	 2.9350901709e+00
 1.6825418446e+00	 1.0337114824e-01	 2.8897010693e+00
 1.6800305290e+00	 1.3831151352e-01	 2.8269530355e+00
 1.6767660346e+00	 1.7345984634e-01	 2.7484254793e+00
 1.6727335453e+00	 2.0879449081e-01	 2.6556906642e+00
 1.6679189594e+00	 2.4429285292e-01	 2.5502997321e+00
 1.6623089519e+00	 2.7993142290e-01	 2.4337680636e+00
 1.6558910373e+00	 3.1568580188e-01	 2.3075600518e+00
 1.6486536315e+00	 3.5153073332e-01	 2.1730733786e+00
 1.7000000000e+00	 0.0000000000e+00	 2.9639011219e+00
 1.6996501756e+00	 3.4485948475e-02	 2.9553585602e+00
 1.6985893091e+00	 6.9241310204e-02	 2.9265788191e+00
 1.6968006738e+00	 1.0424717492e-01	 2.8791079520e+00
 1.6942680758e+00	 1.3948364499e-01	 2.8145040722e+00
 1.6909759162e+00	 1.7492984504e-01	 2.7343246317e+00
 1.6869092533e+00	 2.1056393564e-01	 2.6401129458e+00
 1.6820538658e+00	 2.4636313134e-01	 2.5333840264e+00
 1.6763963159e+00	 2.8230372309e-01	 2.4156097920e+00
 1.6699240122e+00	 3.1836110529e-01	 2.2882037388e+00
 1.6626252724e+00	 3.5450980733e-01	 2.1525051619e+00
 1.7142857143e+00	 0.0000000000e+00	 2.9603944987e+00
 1.7139329502e+00	 3.4775746362e-02	 2.9490232684e+00
 1.7128631688e+00	 6.9823169954e-02	 2.9177189007e+00
 1.7110595030e+00	 1.0512320160e-01	 2.8680143640e+00
 1.7085056227e+00	 1.4065577646e-01	 2.8014477726e+00
 1.7051857979e+00	 1.7639984374e-01	 2.7195494196e+00
 1.7010849614e+00	 2.1233338048e-01	 2.6238280956e+00
 1.6961887723e+00	 2.4843340975e-01	 2.5157567588e+00
 1.6904836799e+00	 2.8467602329e-01	 2.3967576302e+00
 1.6839569871e+00	 3.2103640869e-01	 2.2681867978e+00
 1.6765969134e+00	 3.5748888134e-01	 2.1313184271e+00
 1.5368805039e+00	 3.2769814123e-01	 2.3248474784e+00
 1.5293599352e+00	 3.6117301090e-01	 2.1927923853e+00
 1.5210565827e+00	 3.9468294540e-01	 2.0511054732e+00
 1.5119625039e+00	 4.2820222067e-01	 1.9009345123e+00
 1.5020708153e+00	 4.6170447355e-01	 1.7434201870e+00
 1.4913757419e+00	 4.9516275254e-01	 1.5796898518e+00
 1.4798726648e+00	 5.2854957287e-01	 1.4108511432e+00
 1.4675581652e+00	 5.6183697547e-01	 1.2379854969e+00
 1.4544300648e+00	 5.9499658978e-01	 1.0621416230e+00
 1.4404874632e+00	 6.2799970022e-01	 8.8432900093e-01
 1.4257307705e+00	 6.6081731592e-01	 7.0552227654e-01
 1.5508521449e+00	 3.3067721524e-01	 2.3063055248e+00
 1.5432632073e+00	 3.6445640191e-01	 2.1728181484e+00
 1.5348843698e+00	 3.9827097217e-01	 2.0299010644e+00
 1.5257076176e+00	 4.3209496813e-01	 1.8786926388e+00
 1.5157260045e+00	 4.6590178694e-01	 1.7203226942e+00
 1.5049337032e+00	 4.9966423211e-01	 1.5559062787e+00
 1.4933260527e+00	 5.3335456899e-01	 1.3865372962e+00
 1.4808996030e+00	 5.6694458433e-01	 1.2132820463e+00
 1.4676521562e+00	 6.0040564969e-01	 1.0371727282e+00
 1.4535828038e+00	 6.3370878840e-01	 8.5920096747e-01
 1.4386919594e+00	 6.6682474606e-01	 6.8031143419e-01
 1.5648237858e+00	 3.3365628925e-01	 2.2878279147e+00
 1.5571664794e+00	 3.6773979292e-01	 2.1529489360e+00
 1.5487121569e+00	 4.0185899895e-01	 2.0088593335e+00
 1.5394527313e+00	 4.3598771559e-01	 1.8566841522e+00
 1.5293811938e+00	 4.7009910034e-01	 1.6975383433e+00
 1.5184916645e+00	 5.0416571168e-01	 1.5325205740e+00
 1.5067794406e+00	 5.3815956510e-01	 1.3627069051e+00
 1.4942410409e+00	 5.7205219320e-01	 1.1891443858e+00
 1.4808742477e+00	 6.0581470959e-01	 1.0128446160e+00
 1.4666781443e+00	 6.3941787658e-01	 8.3477733989e-01
 1.4516531482e+00	 6.7283217621e-01	 6.5586413259e-01
 1.5787954268e+00	 3.3663536326e-01	 2.2693161025e+00
 1.5710697516e+00	 3.7102318393e-01	 2.1330880104e+00
 1.5625399440e+00	 4.0544702573e-01	 1.9878853643e+00
 1.5531978450e+00	 4.3988046305e-01	 1.8348160686e+00
 1.5430363830e+00	 4.7429641373e-01	 1.6749762923e+00
 1.5320496258e+00	 5.0866719124e-01	 1.5094443473e+00
 1.5202328284e+00	 5.4296456122e-01	 1.3392744427e+00
 1.5075824787e+00	 5.7715980207e-01	 1.1654903638e+00
 1.4940963392e+00	 6.1122376950e-01	 9.8907912643e-01
 1.4797734849e+00	 6.4512696477e-01	 8.1098466604e-01
 1.4646143370e+00	 6.7883960635e-01	 6.3210162825e-01
 1.5927670677e+00	 3.3961443727e-01	 2.2506756699e+00
 1.5849730237e+00	 3.7430657494e-01	 2.1131427124e+00
 1.5763677311e+00	 4.0903505250e-01	 1.9668882702e+00
 1.5669429586e+00	 4.4377321051e-01	 1.8129993814e+00
 1.5566915722e+00	 4.7849372713e-01	 1.6525496177e+00
 1.5456075871e+00	 5.1316867081e-01	 1.4865930577e+00
 1.5336862163e+00	 5.4776955734e-01	 1.3161581479e+00
 1.5209239166e+00	 5.8226741094e-01	 1.1422414953e+00
 1.5073184307e+00	 6.1663282941e-01	 9.6580164392e-01
 1.4928688255e+00	 6.5083605295e-01	 7.8775289284e-01
 1.4775755258e+00	 6.8484703650e-01	 6.0895922047e-01
 1.6067387086e+00	 3.4259351128e-01	 2.2318161347e+00
 1.5988762959e+00	 3.7758996594e-01	 2.0930242709e+00
 1.5901955183e+00	 4.1262307928e-01	 1.9457810049e+00
 1.5806880723e+00	 4.4766595798e-01	 1.7911488737e+00
 1.5703467615e+00	 4.8269104053e-01	 1.6301751280e+00
 1.5591655484e+00	 5.1767015038e-01	 1.4638858292e+00
 1.5471396041e+00	 5.5257455345e-01	 1.2932798441e+00
 1.5342653545e+00	 5.8737501980e-01	 1.1193227820e+00
 1.5205405222e+00	 6.2204188931e-01	 9.4294092328e-01
 1.5059641661e+00	 6.5654514113e-01	 7.6501519708e-01
 1.4905367147e+00	 6.9085446664e-01	 5.8637527159e-01
 1.6207103496e+00	 3.4557258529e-01	 2.2126507688e+00
 1.6127795680e+00	 3.8087335695e-01	 2.0726476220e+00
 1.6040233054e+00	 4.1621110605e-01	 1.9244801829e+00
 1.5944331860e+00	 4.5155870544e-01	 1.7691829394e+00
 1.5840019507e+00	 4.8688835392e-01	 1.6077731870e+00
 1.5727235097e+00	 5.2217162995e-01	 1.4412452756e+00
 1.5605929920e+00	 5.5737954957e-01	 1.2705647668e+00
 1.5476067923e+00	 5.9248262867e-01	 1.0966625441e+00
 1.5337626137e+00	 6.2745094922e-01	 9.2042892426e-01
 1.5190595066e+00	 6.6225422932e-01	 7.4270782519e-01
 1.5034979035e+00	 6.9686189679e-01	 5.6429105290e-01
 1.6346819905e+00	 3.4855165930e-01	 2.1930964261e+00
 1.6266828401e+00	 3.8415674796e-01	 2.0519312377e+00
 1.6178510925e+00	 4.1979913283e-01	 1.9029059089e+00
 1.6081782996e+00	 4.5545145290e-01	 1.7470234145e+00
 1.5976571399e+00	 4.9108566732e-01	 1.5852675461e+00
 1.5862814710e+00	 5.2667310952e-01	 1.4185973349e+00
 1.5740463799e+00	 5.6218454569e-01	 1.2479413998e+00
 1.5609482302e+00	 5.9759023754e-01	 1.0741922591e+00
 1.5469847052e+00	 6.3286000913e-01	 8.9820065496e-01
 1.5321548472e+00	 6.6796331750e-01	 7.2076994142e-01
 1.5164590923e+00	 7.0286932693e-01	 5.4265059861e-01
 1.6486536315e+00	 3.5153073332e-01	 2.1730733786e+00
 1.6405861123e+00	 3.8744013897e-01	 2.0307969639e+00
 1.6316788796e+00	 4.2338715961e-01	 1.8809816167e+00
 1.6219234133e+00	 4.5934420036e-01	 1.7245954165e+00
 1.6113123292e+00	 4.9528298071e-01	 1.5625851850e+00
 1.5998394322e+00	 5.3117458909e-01	 1.3958711119e+00
 1.5874997677e+00	 5.6698954181e-01	 1.2253413202e+00
 1.5742896681e+00	 6.0269784641e-01	 1.0518464100e+00
 1.5602067967e+00	 6.3826906904e-01	 8.7619402328e-01
 1.5452501878e+00	 6.7367240569e-01	 6.9914348372e-01
 1.5294202811e+00	 7.0887675708e-01	 5.2140056735e-01
 1.6626252724e+00	 3.5450980733e-01	 2.1525051619e+00
 1.6544893844e+00	 3.9072352998e-01	 2.0091698655e+00
 1.6455066667e+00	 4.2697518638e-01	 1.8586339155e+00
 1.6356685270e+00	 4.6323694782e-01	 1.7018271922e+00
 1.6249675184e+00	 4.9948029411e-01	 1.5396561612e+00
 1.6133973935e+00	 5.3567606866e-01	 1.3729987286e+00
 1.6009531556e+00	 5.7179453792e-01	 1.2026990516e+00
 1.5876311059e+00	 6.0780545528e-01	 1.0295623406e+00
 1.5734288882e+00	 6.4367812894e-01	 8.5434969602e-01
 1.5583455284e+00	 6.7938149387e-01	 6.7777302728e-01
 1.5423814700e+00	 7.1488418722e-01	 5.0049011087e-01
 1.6765969134e+00	 3.5748888134e-01	 2.1313184271e+00
 1.6683926565e+00	 3.9400692099e-01	 1.9869780805e+00
 1.6593344538e+00	 4.3056321316e-01	 1.8357924450e+00
 1.6494136407e+00	 4.6712969528e-01	 1.6786499733e+00
 1.6386227076e+00	 5.0367760751e-01	 1.5164134664e+00
 1.6269553548e+00	 5.4017754822e-01	 1.3499151834e+00
 1.6144065435e+00	 5.7659953404e-01	 1.1799519241e+00
 1.6009725438e+00	 6.1291306414e-01	 1.0072801190e+00
 1.5866509797e+00	 6.4908718885e-01	 8.3261096521e-01
 1.5714408689e+00	 6.8509058205e-01	 6.5660565481e-01
 1.5553426588e+00	 7.2089161737e-01	 4.7987074940e-01
 1.4257307705e+00	 6.6081731592e-01	 7.0552227654e-01
 1.4101617357e+00	 6.9342024361e-01	 5.2570309987e-01
 1.3937834700e+00	 7.2577916320e-01	 3.4509697471e-01
 1.3766004660e+00	 7.5786470573e-01	 1.6524596703e-01
 1.3586186102e+00	 7.8964753342e-01	-1.2378177835e-02
 1.3398451917e+00	 8.2109842120e-01	-1.8638471633e-01
 1.3202889037e+00	 8.5218833949e-01	-3.5547372424e-01
 1.2999598399e+00	 8.8288853761e-01	-5.1844480606e-01
 1.2788694852e+00	 9.1317062747e-01	-6.7420446852e-01
 1.2570307001e+00	 9.4300666699e-01	-8.2177195705e-01
 1.2344576991e+00	 9.7236924279e-01	-9.6028338917e-01
 1.4386919594e+00	 6.6682474606e-01	 6.8031143419e-01
 1.4229813878e+00	 6.9972406401e-01	 5.0011668193e-01
 1.4064542289e+00	 7.3237715559e-01	 3.1911023050e-01
 1.3891150157e+00	 7.6475438487e-01	 1.3896583968e-01
 1.3709696885e+00	 7.9682614736e-01	-3.8851922218e-02
 1.3520256026e+00	 8.2856295230e-01	-2.1296120653e-01
 1.3322915301e+00	 8.5993550621e-01	-3.8207294325e-01
 1.3117776566e+00	 8.9091479704e-01	-5.4499975128e-01
 1.2904955715e+00	 9.2147217863e-01	-7.0066345927e-01
 1.2684582520e+00	 9.5157945488e-01	-8.4810102398e-01
 1.2456800418e+00	 9.8120896317e-01	-9.8646866991e-01
 1.4516531482e+00	 6.7283217621e-01	 6.5586413259e-01
 1.4358010400e+00	 7.0602788440e-01	 4.7566846469e-01
 1.4191249877e+00	 7.3897514798e-01	 2.9431119101e-01
 1.4016295654e+00	 7.7164406401e-01	 1.1383973930e-01
 1.3833207668e+00	 8.0400476130e-01	-6.4216745234e-02
 1.3642060134e+00	 8.3602748341e-01	-2.3848102215e-01
 1.3442941565e+00	 8.6768267293e-01	-4.0767044906e-01
 1.3235954733e+00	 8.9894105647e-01	-5.7060614243e-01
 1.3021216577e+00	 9.2977372978e-01	-7.2622069491e-01
 1.2798858038e+00	 9.6015224276e-01	-8.7356422343e-01
 1.2569023845e+00	 9.9004868356e-01	-1.0118085608e+00
 1.4646143370e+00	 6.7883960635e-01	 6.3210162825e-01
 1.4486206921e+00	 7.1233170480e-01	 4.5198166310e-01
 1.4317957465e+00	 7.4557314037e-01	 2.7063717556e-01
 1.4141441150e+00	 7.7853374316e-01	 8.9826206680e-02
 1.3956718451e+00	 8.1118337524e-01	-8.8505457355e-02
 1.3763864242e+00	 8.4349201451e-01	-2.6296795292e-01
 1.3562967829e+00	 8.7542983966e-01	-4.3228070405e-01
 1.3354132900e+00	 9.0696731590e-01	-5.9526887947e-01
 1.3137477439e+00	 9.3807528094e-01	-7.5087135641e-01
 1.2913133556e+00	 9.6872503064e-01	-8.9814694685e-01
 1.2681247272e+00	 9.9888840395e-01	-1.0362786869e+00
 1.4775755258e+00	 6.8484703650e-01	 6.0895922047e-01
 1.4614403443e+00	 7.1863552520e-01	 4.2895745856e-01
 1.4444665053e+00	 7.5217113277e-01	 2.4776406095e-01
 1.4266586647e+00	 7.8542342230e-01	 6.6887996709e-02
 1.4080229233e+00	 8.1836198918e-01	-1.1174698479e-01
 1.3885668351e+00	 8.5095654561e-01	-2.8644224851e-01
 1.3682994093e+00	 8.8317700638e-01	-4.5591498349e-01
 1.3472311068e+00	 9.1499357534e-01	-6.1899003153e-01
 1.3253738301e+00	 9.4637683210e-01	-7.7460814815e-01
 1.3027409074e+00	 9.7729781852e-01	-9.2183245598e-01
 1.2793470699e+00	 1.0077281243e+00	-1.0598528782e+00
 1.4905367147e+00	 6.9085446664e-01	 5.8637527159e-01
 1.4742599964e+00	 7.2493934559e-01	 4.0654022040e-01
 1.4571372641e+00	 7.5876912516e-01	 2.2553197287e-01
 1.4391732144e+00	 7.9231310144e-01	 4.4854715022e-02
 1.4203740016e+00	 8.2554060312e-01	-1.3396656818e-01
 1.4007472459e+00	 8.5842107671e-01	-3.0892080896e-01
 1.3803020356e+00	 8.9092417310e-01	-4.7858155683e-01
 1.3590489235e+00	 9.2301983477e-01	-6.4176900823e-01
 1.3369999164e+00	 9.5467838326e-01	-7.9742145859e-01
 1.3141684592e+00	 9.8587060640e-01	-9.4460203243e-01
 1.2905694127e+00	 1.0165678447e+00	-1.0825033077e+00
 1.5034979035e+00	 6.9686189679e-01	 5.6429105290e-01
 1.4870796486e+00	 7.3124316599e-01	 3.8467703902e-01
 1.4698080230e+00	 7.6536711755e-01	 2.0389456063e-01
 1.4516877641e+00	 7.9920278059e-01	 2.3450532157e-02
 1.4327250799e+00	 8.3271921706e-01	-1.5520637800e-01
 1.4129276567e+00	 8.6588560781e-01	-3.3041736915e-01
 1.3923046620e+00	 8.9867133983e-01	-5.0028586362e-01
 1.3708667402e+00	 9.3104609420e-01	-6.6360272633e-01
 1.3486260026e+00	 9.6297993442e-01	-8.1929951695e-01
 1.3255960111e+00	 9.9444339429e-01	-9.6643512384e-01
 1.3017917554e+00	 1.0254075651e+00	-1.1042006266e+00
 1.5164590923e+00	 7.0286932693e-01	 5.4265059861e-01
 1.4998993007e+00	 7.3754698639e-01	 3.6331758687e-01
 1.4824787818e+00	 7.7196510994e-01	 1.8280785075e-01
 1.4642023138e+00	 8.0609245973e-01	 2.6340416598e-03
 1.4450761582e+00	 8.3989783100e-01	-1.7574955105e-01
 1.4251080676e+00	 8.7335013892e-01	-3.5094267757e-01
 1.4043072884e+00	 9.0641850655e-01	-5.2103068440e-01
 1.3826845569e+00	 9.3907235363e-01	-6.8448577191e-01
 1.3602520888e+00	 9.7128148558e-01	-8.4022854608e-01
 1.3370235629e+00	 1.0030161822e+00	-9.8730948695e-01
 1.3130140981e+00	 1.0342472855e+00	-1.1249140971e+00
 1.5294202811e+00	 7.0887675708e-01	 5.2140056735e-01
 1.5127189528e+00	 7.4385080678e-01	 3.4241398653e-01
 1.4951495406e+00	 7.7856310234e-01	 1.6223012276e-01
 1.4767168635e+00	 8.1298213887e-01	-1.7629699327e-02
 1.4574272364e+00	 8.4707644494e-01	-1.9570243849e-01
 1.4372884784e+00	 8.8081467002e-01	-3.7059303065e-01
 1.4163099148e+00	 9.1416567327e-01	-5.4081630682e-01
 1.3945023737e+00	 9.4709861307e-01	-7.0441055840e-01
 1.3718781751e+00	 9.7958303674e-01	-8.6019291184e-01
 1.3484511147e+00	 1.0115889700e+00	-1.0072013278e+00
 1.3242364408e+00	 1.0430870059e+00	-1.1446117231e+00
 1.5423814700e+00	 7.1488418722e-01	 5.0049011087e-01
 1.5255386050e+00	 7.5015462718e-01	 3.2192068577e-01
 1.5078202994e+00	 7.8516109473e-01	 1.4212179140e-01
 1.4892314132e+00	 8.1987181802e-01	-3.7373707617e-02
 1.4697783147e+00	 8.5425505888e-01	-2.1509095971e-01
 1.4494688892e+00	 8.8827920112e-01	-3.8962309018e-01
 1.4283125412e+00	 9.2191283999e-01	-5.5964068728e-01
 1.4063201904e+00	 9.5512487250e-01	-7.2336748073e-01
 1.3835042613e+00	 9.8788458790e-01	-8.7917526900e-01
 1.3598786665e+00	 1.0201617579e+00	-1.0260854388e+00
 1.3354587835e+00	 1.0519267263e+00	-1.1632603783e+00
 1.5553426588e+00	 7.2089161737e-01	 4.7987074940e-01
 1.5383582571e+00	 7.5645844758e-01	 3.0179433882e-01
 1.5204910582e+00	 7.9175908712e-01	 1.2244529485e-01
 1.5017459629e+00	 8.2676149716e-01	-5.6629178068e-02
 1.4821293930e+00	 8.6143367282e-01	-2.3393942937e-01
 1.4616493001e+00	 8.9574373222e-01	-4.0806362324e-01
 1.4403151676e+00	 9.2966000672e-01	-5.7765761157e-01
 1.4181380071e+00	 9.6315113193e-01	-7.4134506573e-01
 1.3951303475e+00	 9.9618613905e-01	-8.9715670415e-01
 1.3713062183e+00	 1.0287345458e+00	-1.0439353338e+00
 1.3466811263e+00	 1.0607664467e+00	-1.1808259327e+00
 1.2344576991e+00	 9.7236924279e-01	-9.6028338917e-01
 1.2111660230e+00	 1.0012315515e+00	-1.0900996865e+00
 1.1871725064e+00	 1.0295674797e+00	-1.2115588826e+00
 1.1624952378e+00	 1.0573516809e+00	-1.3239117719e+00
 1.1371535158e+00	 1.0845596510e+00	-1.4264880517e+00
 1.1111677990e+00	 1.1111677990e+00	-1.5186940921e+00
 1.0845596510e+00	 1.1371535158e+00	-1.6000093586e+00
 1.0573516809e+00	 1.1624952378e+00	-1.6699816626e+00
 1.0295674797e+00	 1.1871725064e+00	-1.7282214647e+00
 1.0012315515e+00	 1.2111660230e+00	-1.7743954904e+00
 9.7236924279e-01	 1.2344576991e+00	-1.8082199470e+00
 1.2456800418e+00	 9.8120896317e-01	-9.8646866991e-01
 1.2221766232e+00	 1.0103336565e+00	-1.1160749591e+00
 1.1979649837e+00	 1.0389271840e+00	-1.2371975217e+00
 1.1730633763e+00	 1.0669639690e+00	-1.3490969564e+00
 1.1474912751e+00	 1.0944192842e+00	-1.4511126093e+00
 1.1212693245e+00	 1.1212693245e+00	-1.5426600886e+00
 1.0944192842e+00	 1.1474912751e+00	-1.6232273686e+00
 1.0669639690e+00	 1.1730633763e+00	-1.6923696707e+00
 1.0389271840e+00	 1.1979649837e+00	-1.7497033550e+00
 1.0103336565e+00	 1.2221766232e+00	-1.7948990985e+00
 9.8120896317e-01	 1.2456800418e+00	-1.8276746658e+00
 1.2569023845e+00	 9.9004868356e-01	-1.0118085608e+00
 1.2331872234e+00	 1.0194357616e+00	-1.1412039718e+00
 1.2087574610e+00	 1.0482868884e+00	-1.2619692898e+00
 1.1836315149e+00	 1.0765762570e+00	-1.3733823030e+00
 1.1578290343e+00	 1.1042789174e+00	-1.4748000115e+00
 1.1313708499e+00	 1.1313708499e+00	-1.5656558155e+00
 1.1042789174e+00	 1.1578290343e+00	-1.6454552222e+00
 1.0765762570e+00	 1.1836315149e+00	-1.7137702678e+00
 1.0482868884e+00	 1.2087574610e+00	-1.7702329039e+00
 1.0194357616e+00	 1.2331872234e+00	-1.8145276390e+00
 9.9004868356e-01	 1.2569023845e+00	-1.8463837576e+00
 1.2681247272e+00	 9.9888840395e-01	-1.0362786869e+00
 1.2441978237e+00	 1.0285378666e+00	-1.1654537654e+00
 1.2195499384e+00	 1.0576465928e+00	-1.2858347996e+00
 1.1941996534e+00	 1.0861885450e+00	-1.3967239730e+00
 1.1681667935e+00	 1.1141385505e+00	-1.4975037647e+00
 1.1414723753e+00	 1.1414723753e+00	-1.5876337400e+00
 1.1141385505e+00	 1.1681667935e+00	-1.6666457805e+00
 1.0861885450e+00	 1.1941996534e+00	-1.7341379605e+00
 1.0576465928e+00	 1.2195499384e+00	-1.7897673338e+00
 1.0285378666e+00	 1.2441978237e+00	-1.8332419376e+00
 9.9888840395e-01	 1.2681247272e+00	-1.8643123574e+00
 1.2793470699e+00	 1.0077281243e+00	-1.0598528782e+00
 1.2552084239e+00	 1.0376399716e+00	-1.1887898661e+00
 1.2303424157e+00	 1.0670062971e+00	-1.3087533403e+00
 1.2047677919e+00	 1.0958008330e+00	-1.4190769132e+00
 1.1785045528e+00	 1.1239981837e+00	-1.5191761938e+00
 1.1515739008e+00	 1.1515739008e+00	-1.6085451117e+00
 1.1239981837e+00	 1.1785045528e+00	-1.6867505910e+00
 1.0958008330e+00	 1.2047677919e+00	-1.7534257942e+00
 1.0670062971e+00	 1.2303424157e+00	-1.8082622147e+00
 1.0376399716e+00	 1.2552084239e+00	-1.8510009438e+00
 1.0077281243e+00	 1.2793470699e+00	-1.8814234765e+00
 1.2905694127e+00	 1.0165678447e+00	-1.0825033077e+00
 1.2662190241e+00	 1.0467420766e+00	-1.2111764131e+00
 1.2411348930e+00	 1.0763660015e+00	-1.3306829984e+00
 1.2153359304e+00	 1.1054131210e+00	-1.4403949715e+00
 1.1888423120e+00	 1.1338578169e+00	-1.5397685552e+00
 1.1616754262e+00	 1.1616754262e+00	-1.6283400754e+00
 1.1338578169e+00	 1.1888423120e+00	-1.7057200014e+00
 1.1054131210e+00	 1.2153359304e+00	-1.7715854688e+00
 1.0763660015e+00	 1.2411348930e+00	-1.8256715841e+00
 1.0467420766e+00	 1.2662190241e+00	-1.8677618543e+00
 1.0165678447e+00	 1.2905694127e+00	-1.8976781298e+00
 1.3017917554e+00	 1.0254075651e+00	-1.1042006266e+00
 1.2772296243e+00	 1.0558441816e+00	-1.2325762848e+00
 1.2519273704e+00	 1.0857257058e+00	-1.3515807769e+00
 1.2259040690e+00	 1.1150254090e+00	-1.4606310114e+00
 1.1991800712e+00	 1.1437174501e+00	-1.5592311483e+00
 1.1717769517e+00	 1.1717769517e+00	-1.6469677827e+00
 1.1437174501e+00	 1.1991800712e+00	-1.7235032722e+00
 1.1150254090e+00	 1.2259040690e+00	-1.7885674536e+00
 1.0857257058e+00	 1.2519273704e+00	-1.8419480644e+00
 1.0558441816e+00	 1.2772296243e+00	-1.8834802346e+00
 1.0254075651e+00	 1.3017917554e+00	-1.9130354621e+00
 1.3130140981e+00	 1.0342472855e+00	-1.1249140971e+00
 1.2882402245e+00	 1.0649462866e+00	-1.2529512221e+00
 1.2627198477e+00	 1.0950854102e+00	-1.3714027118e+00
 1.2364722075e+00	 1.1246376970e+00	-1.4797370250e+00
 1.2095178305e+00	 1.1535770833e+00	-1.5775134271e+00
 1.1818784771e+00	 1.1818784771e+00	-1.6643765018e+00
 1.1535770833e+00	 1.2095178305e+00	-1.7400486873e+00
 1.1246376970e+00	 1.2364722075e+00	-1.8043211003e+00
 1.0950854102e+00	 1.2627198477e+00	-1.8570429792e+00
 1.0649462866e+00	 1.2882402245e+00	-1.8981101387e+00
 1.0342472855e+00	 1.3130140981e+00	-1.9274528708e+00
 1.3242364408e+00	 1.0430870059e+00	-1.1446117231e+00
 1.2992508247e+00	 1.0740483916e+00	-1.2722619507e+00
 1.2735123250e+00	 1.1044451146e+00	-1.3901039887e+00
 1.2470403460e+00	 1.1342499850e+00	-1.4976642449e+00
 1.2198555897e+00	 1.1634367165e+00	-1.5945641095e+00
 1.1919800026e+00	 1.1919800026e+00	-1.6805137271e+00
 1.1634367165e+00	 1.2198555897e+00	-1.7553036647e+00
 1.1342499850e+00	 1.2470403460e+00	-1.8187947549e+00
 1.1044451146e+00	 1.2735123250e+00	-1.8709064678e+00
 1.0740483916e+00	 1.2992508247e+00	-1.9116042262e+00
 1.0430870059e+00	 1.3242364408e+00	-1.9408861273e+00
 1.3354587835e+00	 1.0519267263e+00	-1.1632603783e+00
 1.3102614249e+00	 1.0831504967e+00	-1.2904683015e+00
 1.2843048023e+00	 1.1138048189e+00	-1.4076390571e+00
 1.2576084845e+00	 1.1438622730e+00	-1.5143632549e+00
 1.2301933490e+00	 1.1732963497e+00	-1.6103312859e+00
 1.2020815280e+00	 1.2020815280e+00	-1.6953262872e+00
 1.1732963497e+00	 1.2301933490e+00	-1.7692148644e+00
 1.1438622730e+00	 1.2576084845e+00	-1.8319358679e+00
 1.1138048189e+00	 1.2843048023e+00	-1.8834875979e+00
 1.0831504967e+00	 1.3102614249e+00	-1.9239138787e+00
 1.0519267263e+00	 1.3354587835e+00	-1.9532894954e+00
 1.3466811263e+00	 1.0607664467e+00	-1.1808259327e+00
 1.3212720251e+00	 1.0922526017e+00	-1.3075293290e+00
 1.2950972797e+00	 1.1231645233e+00	-1.4239617435e+00
 1.2681766231e+00	 1.1534745610e+00	-1.5297840998e+00
 1.2405311082e+00	 1.1831559829e+00	-1.6247625273e+00
 1.2121830535e+00	 1.2121830535e+00	-1.7087604522e+00
 1.1831559829e+00	 1.2405311082e+00	-1.7817282973e+00
 1.1534745610e+00	 1.2681766231e+00	-1.8436911044e+00
 1.1231645233e+00	 1.2950972797e+00	-1.8947344772e+00
 1.0922526017e+00	 1.3212720251e+00	-1.9349893134e+00
 1.0607664467e+00	 1.3466811263e+00	-1.9646158488e+00
 9.7236924279e-01	 1.2344576991e+00	-1.8082199470e+00
 9.4300666699e-01	 1.2570307001e+00	-1.8313295499e+00
 9.1317062747e-01	 1.2788694852e+00	-1.8460468699e+00
 8.8288853761e-01	 1.2999598399e+00	-1.8531404199e+00
 8.5218833949e-01	 1.3202889037e+00	-1.8533532657e+00
 8.2109842120e-01	 1.3398451917e+00	-1.8473932810e+00
 7.8964753342e-01	 1.3586186102e+00	-1.8359252007e+00
 7.5786470573e-01	 1.3766004660e+00	-1.8195646836e+00
 7.2577916320e-01	 1.3937834700e+00	-1.7988745327e+00
 6.9342024361e-01	 1.4101617357e+00	-1.7743631582e+00
 6.6081731592e-01	 1.4257307705e+00	-1.7464852960e+00
 9.8120896317e-01	 1.2456800418e+00	-1.8276746658e+00
 9.5157945488e-01	 1.2684582520e+00	-1.8496329404e+00
 9.2147217863e-01	 1.2904955715e+00	-1.8631215930e+00
 8.9091479704e-01	 1.3117776566e+00	-1.8689939267e+00
 8.5993550621e-01	 1.3322915301e+00	-1.8680767129e+00
 8.2856295230e-01	 1.3520256026e+00	-1.8611593247e+00
 7.9682614736e-01	 1.3709696885e+00	-1.8489847603e+00
 7.6475438487e-01	 1.3891150157e+00	-1.8322427881e+00
 7.3237715559e-01	 1.4064542289e+00	-1.8115653811e+00
 6.9972406401e-01	 1.4229813878e+00	-1.7875245371e+00
 6.6682474606e-01	 1.4386919594e+00	-1.7597338505e+00
 9.9004868356e-01	 1.2569023845e+00	-1.8463837576e+00
 9.6015224276e-01	 1.2798858038e+00	-1.8673887036e+00
 9.2977372978e-01	 1.3021216577e+00	-1.8799212638e+00
 8.9894105647e-01	 1.3235954733e+00	-1.8849128674e+00
 8.6768267293e-01	 1.3442941565e+00	-1.8832659443e+00
 8.3602748341e-01	 1.3642060134e+00	-1.8758419821e+00
 8.0400476130e-01	 1.3833207668e+00	-1.8634515787e+00
 7.7164406401e-01	 1.4016295654e+00	-1.8468467396e+00
 7.3897514798e-01	 1.4191249877e+00	-1.8267156063e+00
 7.0602788440e-01	 1.4358010400e+00	-1.8032254049e+00
 6.7283217621e-01	 1.4516531482e+00	-1.7736163391e+00
 9.9888840395e-01	 1.2681247272e+00	-1.8643123574e+00
 9.6872503064e-01	 1.2913133556e+00	-1.8845640207e+00
 9.3807528094e-01	 1.3137477439e+00	-1.8964101465e+00
 9.0696731590e-01	 1.3354132900e+00	-1.9008538657e+00
 8.7542983966e-01	 1.3562967829e+00	-1.8988654750e+00
 8.4349201451e-01	 1.3763864242e+00	-1.8913694632e+00
 8.1118337524e-01	 1.3956718451e+00	-1.8792336477e+00
 7.7853374316e-01	 1.4141441150e+00	-1.8632606909e+00
 7.4557314037e-01	 1.4317957465e+00	-1.8440930017e+00
 7.1233170480e-01	 1.4486206921e+00	-1.8191624902e+00
 6.7883960635e-01	 1.4646143370e+00	-1.7878520875e+00
 1.0077281243e+00	 1.2793470699e+00	-1.8814234765e+00
 9.7729781852e-01	 1.3027409074e+00	-1.9011237847e+00
 9.4637683210e-01	 1.3253738301e+00	-1.9125502367e+00
 9.1499357534e-01	 1.3472311068e+00	-1.9167714737e+00
 8.8317700638e-01	 1.3682994093e+00	-1.9148181188e+00
 8.5095654561e-01	 1.3885668351e+00	-1.9076688136e+00
 8.1836198918e-01	 1.4080229233e+00	-1.8962384915e+00
 7.8542342230e-01	 1.4266586647e+00	-1.8813691780e+00
 7.5217113277e-01	 1.4444665053e+00	-1.8616585113e+00
 7.1863552520e-01	 1.4614403443e+00	-1.8348976688e+00
 6.8484703650e-01	 1.4775755258e+00	-1.8022382190e+00
 1.0165678447e+00	 1.2905694127e+00	-1.8976781298e+00
 9.8587060640e-01	 1.3141684592e+00	-1.9170307297e+00
 9.5467838326e-01	 1.3369999164e+00	-1.9283013818e+00
 9.2301983477e-01	 1.3590489235e+00	-1.9326182762e+00
 8.9092417310e-01	 1.3803020356e+00	-1.9310650680e+00
 8.5842107671e-01	 1.4007472459e+00	-1.9246659632e+00
 8.2554060312e-01	 1.4203740016e+00	-1.9143731782e+00
 7.9231310144e-01	 1.4391732144e+00	-1.9001106675e+00
 7.5876912516e-01	 1.4571372641e+00	-1.8785169960e+00
 7.2493934559e-01	 1.4742599964e+00	-1.8502700720e+00
 6.9085446664e-01	 1.4905367147e+00	-1.8165786583e+00
 1.0254075651e+00	 1.3017917554e+00	-1.9130354621e+00
 9.9444339429e-01	 1.3255960111e+00	-1.9322455560e+00
 9.6297993442e-01	 1.3486260026e+00	-1.9436213982e+00
 9.3104609420e-01	 1.3708667402e+00	-1.9483449925e+00
 8.9867133983e-01	 1.3923046620e+00	-1.9475459729e+00
 8.6588560781e-01	 1.4129276567e+00	-1.9422857755e+00
 8.3271921706e-01	 1.4327250799e+00	-1.9334020736e+00
 7.9920278059e-01	 1.4516877641e+00	-1.9177211943e+00
 7.6536711755e-01	 1.4698080230e+00	-1.8945441547e+00
 7.3124316599e-01	 1.4870796486e+00	-1.8651242482e+00
 6.9686189679e-01	 1.5034979035e+00	-1.8306838851e+00
 1.0342472855e+00	 1.3130140981e+00	-1.9274528708e+00
 1.0030161822e+00	 1.3370235629e+00	-1.9467270532e+00
 9.7128148558e-01	 1.3602520888e+00	-1.9584661873e+00
 9.3907235363e-01	 1.3826845569e+00	-1.9639005770e+00
 9.0641850655e-01	 1.4043072884e+00	-1.9641990199e+00
 8.7335013892e-01	 1.4251080676e+00	-1.9604520979e+00
 8.3989783100e-01	 1.4450761582e+00	-1.9514198280e+00
 8.0609245973e-01	 1.4642023138e+00	-1.9340768883e+00
 7.7196510994e-01	 1.4824787818e+00	-1.9096199282e+00
 7.3754698639e-01	 1.4998993007e+00	-1.8793099773e+00
 7.0286932693e-01	 1.5164590923e+00	-1.8443706993e+00
 1.0430870059e+00	 1.3242364408e+00	-1.9408861273e+00
 1.0115889700e+00	 1.3484511147e+00	-1.9604322210e+00
 9.7958303674e-01	 1.3718781751e+00	-1.9727898482e+00
 9.4709861307e-01	 1.3945023737e+00	-1.9792323180e+00
 9.1416567327e-01	 1.4163099148e+00	-1.9809610098e+00
 8.8081467002e-01	 1.4372884784e+00	-1.9784790621e+00
 8.4707644494e-01	 1.4574272364e+00	-1.9678037870e+00
 8.1298213887e-01	 1.4767168635e+00	-1.9490880218e+00
 7.7856310234e-01	 1.4951495406e+00	-1.9236283664e+00
 7.4385080678e-01	 1.5127189528e+00	-1.8926820949e+00
 7.0887675708e-01	 1.5294202811e+00	-1.8574619974e+00
 1.0519267263e+00	 1.3354587835e+00	-1.9532894954e+00
 1.0201617579e+00	 1.3598786665e+00	-1.9733163879e+00
 9.8788458790e-01	 1.3835042613e+00	-1.9865447893e+00
 9.5512487250e-01	 1.4063201904e+00	-1.9942859356e+00
 9.2191283999e-01	 1.4283125412e+00	-1.9977674351e+00
 8.8827920112e-01	 1.4494688892e+00	-1.9946328923e+00
 8.5425505888e-01	 1.4697783147e+00	-1.9824896710e+00
 8.1987181802e-01	 1.4892314132e+00	-1.9626680408e+00
 7.8516109473e-01	 1.5078202994e+00	-1.9364575002e+00
 7.5015462718e-01	 1.5255386050e+00	-1.9051003240e+00
 7.1488418722e-01	 1.5423814700e+00	-1.8697865600e+00
 1.0607664467e+00	 1.3466811263e+00	-1.9646158488e+00
 1.0287345458e+00	 1.3713062183e+00	-1.9853333274e+00
 9.9618613905e-01	 1.3951303475e+00	-1.9996818378e+00
 9.6315113193e-01	 1.4181380071e+00	-2.0090056770e+00
 9.2966000672e-01	 1.4403151676e+00	-2.0134850432e+00
 8.9574373222e-01	 1.4616493001e+00	-2.0087735314e+00
 8.6143367282e-01	 1.4821293930e+00	-1.9954156165e+00
 8.2676149716e-01	 1.5017459629e+00	-1.9747334781e+00
 7.9175908712e-01	 1.5204910582e+00	-1.9479992195e+00
 7.5645844758e-01	 1.5383582571e+00	-1.9164291141e+00
 7.2089161737e-01	 1.5553426588e+00	-1.8811788482e+00
 6.6081731592e-01	 1.4257307705e+00	-1.7464852960e+00
 6.2799970022e-01	 1.4404874632e+00	-1.7136388986e+00
 5.9499658978e-01	 1.4544300648e+00	-1.6735957667e+00
 5.6183697547e-01	 1.4675581652e+00	-1.6276325595e+00
 5.2854957287e-01	 1.4798726648e+00	-1.5769954264e+00
 4.9516275254e-01	 1.4913757419e+00	-1.5228287282e+00
 4.6170447355e-01	 1.5020708153e+00	-1.4661755969e+00
 4.2820222067e-01	 1.5119625039e+00	-1.4079795315e+00
 3.9468294540e-01	 1.5210565827e+00	-1.3490869551e+00
 3.6117301090e-01	 1.5293599352e+00	-1.2902506512e+00
 3.2769814123e-01	 1.5368805039e+00	-1.2321339913e+00
 6.6682474606e-01	 1.4386919594e+00	-1.7597338505e+00
 6.3370878840e-01	 1.4535828038e+00	-1.7248719288e+00
 6.0040564969e-01	 1.4676521562e+00	-1.6829931734e+00
 5.6694458433e-01	 1.4808996030e+00	-1.6354232958e+00
 5.3335456899e-01	 1.4933260527e+00	-1.5833849860e+00
 4.9966423211e-01	 1.5049337032e+00	-1.5279975649e+00
 4.6590178694e-01	 1.5157260045e+00	-1.4702777495e+00
 4.3209496813e-01	 1.5257076176e+00	-1.4111414639e+00
 3.9827097217e-01	 1.5348843698e+00	-1.3514066195e+00
 3.6445640191e-01	 1.5432632073e+00	-1.2917967809e+00
 3.3067721524e-01	 1.5508521449e+00	-1.2329456257e+00
 6.7283217621e-01	 1.4516531482e+00	-1.7736163391e+00
 6.3941787658e-01	 1.4666781443e+00	-1.7370664350e+00
 6.0581470959e-01	 1.4808742477e+00	-1.6937159538e+00
 5.7205219320e-01	 1.4942410409e+00	-1.6448624304e+00
 5.3815956510e-01	 1.5067794406e+00	-1.5917011275e+00
 5.0416571168e-01	 1.5184916645e+00	-1.5353248224e+00
 4.7009910034e-01	 1.5293811938e+00	-1.4767247020e+00
 4.3598771559e-01	 1.5394527313e+00	-1.4167922970e+00
 4.0185899895e-01	 1.5487121569e+00	-1.3563223788e+00
 3.6773979292e-01	 1.5571664794e+00	-1.2960167358e+00
 3.3365628925e-01	 1.5648237858e+00	-1.2364887369e+00
 6.7883960635e-01	 1.4646143370e+00	-1.7878520875e+00
 6.4512696477e-01	 1.4797734849e+00	-1.7499784534e+00
 6.1122376950e-01	 1.4940963392e+00	-1.7054964623e+00
 5.7715980207e-01	 1.5075824787e+00	-1.6556690746e+00
 5.4296456122e-01	 1.5202328284e+00	-1.6016602080e+00
 5.0866719124e-01	 1.5320496258e+00	-1.5445346012e+00
 4.7429641373e-01	 1.5430363830e+00	-1.4852587626e+00
 4.3988046305e-01	 1.5531978450e+00	-1.4247029375e+00
 4.0544702573e-01	 1.5625399440e+00	-1.3636440171e+00
 3.7102318393e-01	 1.5710697516e+00	-1.3027693080e+00
 3.3663536326e-01	 1.5787954268e+00	-1.2426810722e+00
 6.8484703650e-01	 1.4775755258e+00	-1.8022382190e+00
 6.5083605295e-01	 1.4928688255e+00	-1.7633721997e+00
 6.1663282941e-01	 1.5073184307e+00	-1.7180759887e+00
 5.8226741094e-01	 1.5209239166e+00	-1.6675716650e+00
 5.4776955734e-01	 1.5336862163e+00	-1.6129879332e+00
 5.1316867081e-01	 1.5456075871e+00	-1.5553600064e+00
 4.7849372713e-01	 1.5566915722e+00	-1.4956305349e+00
 4.4377321051e-01	 1.5669429586e+00	-1.4346515164e+00
 4.0903505250e-01	 1.5763677311e+00	-1.3731871146e+00
 3.7430657494e-01	 1.5849730237e+00	-1.3119173066e+00
 3.3961443727e-01	 1.5927670677e+00	-1.2514422717e+00
 6.9085446664e-01	 1.4905367147e+00	-1.8165786583e+00
 6.5654514113e-01	 1.5059641661e+00	-1.7770197597e+00
 6.2204188931e-01	 1.5205405222e+00	-1.7312044141e+00
 5.8737501980e-01	 1.5342653545e+00	-1.6803076010e+00
 5.5257455345e-01	 1.5471396041e+00	-1.6254189918e+00
 5.1767015038e-01	 1.5591655484e+00	-1.5675427957e+00
 4.8269104053e-01	 1.5703467615e+00	-1.5075985949e+00
 4.4766595798e-01	 1.5806880723e+00	-1.4464231109e+00
 4.1262307928e-01	 1.5901955183e+00	-1.3847728296e+00
 3.7758996594e-01	 1.5988762959e+00	-1.3233274131e+00
 3.4259351128e-01	 1.6067387086e+00	-1.2626938138e+00
 6.9686189679e-01	 1.5034979035e+00	-1.8306838851e+00
 6.6225422932e-01	 1.5190595066e+00	-1.7907007954e+00
 6.2745094922e-01	 1.5337626137e+00	-1.7446398851e+00
 5.9248262867e-01	 1.5476067923e+00	-1.6936229015e+00
 5.5737954957e-01	 1.5605929920e+00	-1.6386967097e+00
 5.2217162995e-01	 1.5727235097e+00	-1.5808330452e+00
 4.8688835392e-01	 1.5840019507e+00	-1.5209291846e+00
 4.5155870544e-01	 1.5944331860e+00	-1.4598094796e+00
 4.1621110605e-01	 1.6040233054e+00	-1.3982276900e+00
 3.8087335695e-01	 1.6127795680e+00	-1.3368700457e+00
 3.4557258529e-01	 1.6207103496e+00	-1.2763589642e+00
 7.0286932693e-01	 1.5164590923e+00	-1.8443706993e+00
 6.6796331750e-01	 1.5321548472e+00	-1.8042022658e+00
 6.3286000913e-01	 1.5469847052e+00	-1.7581485031e+00
 5.9759023754e-01	 1.5609482302e+00	-1.7072718775e+00
 5.6218454569e-01	 1.5740463799e+00	-1.6525727203e+00
 5.2667310952e-01	 1.5862814710e+00	-1.5949888324e+00
 4.9108566732e-01	 1.5976571399e+00	-1.5353959202e+00
 4.5545145290e-01	 1.6081782996e+00	-1.4746088115e+00
 4.1979913283e-01	 1.6178510925e+00	-1.4133833960e+00
 3.8415674796e-01	 1.6266828401e+00	-1.3524192284e+00
 3.4855165930e-01	 1.6346819905e+00	-1.2923627266e+00
 7.0887675708e-01	 1.5294202811e+00	-1.8574619974e+00
 6.7367240569e-01	 1.5452501878e+00	-1.8173181605e+00
 6.3826906904e-01	 1.5602067967e+00	-1.7715040296e+00
 6.0269784641e-01	 1.5742896681e+00	-1.7210168218e+00
 5.6698954181e-01	 1.5874997677e+00	-1.6668066515e+00
 5.3117458909e-01	 1.5998394322e+00	-1.6097759341e+00
 4.9528298071e-01	 1.6113123292e+00	-1.5507795156e+00
 4.5934420036e-01	 1.6219234133e+00	-1.4906254866e+00
 4.2338715961e-01	 1.6316788796e+00	-1.4300766328e+00
 3.8744013897e-01	 1.6405861123e+00	-1.3698524684e+00
 3.5153073332e-01	 1.6486536315e+00	-1.3106317958e+00
 7.1488418722e-01	 1.5423814700e+00	-1.8697865600e+00
 6.7938149387e-01	 1.5583455284e+00	-1.8298492466e+00
 6.4367812894e-01	 1.5734288882e+00	-1.7844876048e+00
 6.0780545528e-01	 1.5876311059e+00	-1.7346277126e+00
 5.7179453792e-01	 1.6009531556e+00	-1.6811658285e+00
 5.3567606866e-01	 1.6133973935e+00	-1.6249675400e+00
 4.9948029411e-01	 1.6249675184e+00	-1.5668675188e+00
 4.6323694782e-01	 1.6356685270e+00	-1.5076698493e+00
 4.2697518638e-01	 1.6455066667e+00	-1.4481488917e+00
 3.9072352998e-01	 1.6544893844e+00	-1.3890506376e+00
 3.5450980733e-01	 1.6626252724e+00	-1.3310945135e+00
 7.2089161737e-01	 1.5553426588e+00	-1.8811788482e+00
 6.8509058205e-01	 1.5714408689e+00	-1.8416028276e+00
 6.4908718885e-01	 1.5866509797e+00	-1.7968874805e+00
 6.1291306414e-01	 1.6009725438e+00	-1.7478819328e+00
 5.7659953404e-01	 1.6144065435e+00	-1.6954249901e+00
 5.4017754822e-01	 1.6269553548e+00	-1.6403439793e+00
 5.0367760751e-01	 1.6386227076e+00	-1.5834540617e+00
 4.6712969528e-01	 1.6494136407e+00	-1.5255579921e+00
 4.3056321316e-01	 1.6593344538e+00	-1.4674463003e+00
 3.9400692099e-01	 1.6683926565e+00	-1.4098978617e+00
 3.5748888134e-01	 1.6765969134e+00	-1.3536808256e+00
 3.2769814123e-01	 1.5368805039e+00	-1.2321339913e+00
 2.9428337463e-01	 1.5436272382e+00	-1.1789934366e+00
 2.6095302135e-01	 1.5496100399e+00	-1.1334838113e+00
 2.2773062561e-01	 1.5548397079e+00	-1.0937953127e+00
 1.9463893211e-01	 1.5593278812e+00	-1.0581273805e+00
 1.6169985676e-01	 1.5630869814e+00	-1.0247101371e+00
 1.2893446176e-01	 1.5661301541e+00	-9.9182447321e-01
 9.6362934797e-02	 1.5684712111e+00	-9.5782066538e-01
 6.4004572458e-02	 1.5701245714e+00	-9.2113542832e-01
 3.1877767498e-02	 1.5711052043e+00	-8.8030733094e-01
 0.0000000000e+00	 1.5714285714e+00	-8.3399052209e-01
 3.3067721524e-01	 1.5508521449e+00	-1.2329456257e+00
 2.9695867804e-01	 1.5576602131e+00	-1.1790545200e+00
 2.6332532154e-01	 1.5636974039e+00	-1.1327363910e+00
 2.2980090402e-01	 1.5689746143e+00	-1.0921611129e+00
 1.9640837695e-01	 1.5735035893e+00	-1.0554950459e+00
 1.6316985546e-01	 1.5772968631e+00	-1.0209235849e+00
 1.3010659323e-01	 1.5803677010e+00	-9.8667238822e-01
 9.7238961476e-02	 1.5827300402e+00	-9.5102715899e-01
 6.4586432207e-02	 1.5843984312e+00	-9.1235187265e-01
 3.2167565385e-02	 1.5853879789e+00	-8.6910536704e-01
 0.0000000000e+00	 1.5857142857e+00	-8.1985623156e-01
 3.3365628925e-01	 1.5648237858e+00	-1.2364887369e+00
 2.9963398145e-01	 1.5716931880e+00	-1.1818587019e+00
 2.6569762174e-01	 1.5777847679e+00	-1.1346865580e+00
 2.3187118244e-01	 1.5831095208e+00	-1.0931513997e+00
 1.9817782178e-01	 1.5876792973e+00	-1.0554114213e+00
 1.6463985416e-01	 1.5915067447e+00	-1.0196276314e+00
 1.3127872470e-01	 1.5946052478e+00	-9.8398631147e-01
 9.8114988156e-02	 1.5969888694e+00	-9.4672007606e-01
 6.5168291957e-02	 1.5986722909e+00	-9.0612741666e-01
 3.2457363271e-02	 1.5996707535e+00	-8.6059062914e-01
 0.0000000000e+00	 1.6000000000e+00	-8.0859205018e-01
 3.3663536326e-01	 1.5787954268e+00	-1.2426810722e+00
 3.0230928485e-01	 1.5857261629e+00	-1.1873794420e+00
 2.6806992193e-01	 1.5918721319e+00	-1.1393467618e+00
 2.3394146085e-01	 1.5972444272e+00	-1.0968003036e+00
 1.9994726662e-01	 1.6018550053e+00	-1.0579145015e+00
 1.6610985286e-01	 1.6057166263e+00	-1.0208458862e+00
 1.3245085617e-01	 1.6088427947e+00	-9.8375685882e-01
 9.8991014836e-02	 1.6112476986e+00	-9.4483814502e-01
 6.5750151707e-02	 1.6129461507e+00	-9.0232979212e-01
 3.2747161157e-02	 1.6139535281e+00	-8.5454059602e-01
 0.0000000000e+00	 1.6142857143e+00	-7.9986586560e-01
 3.3961443727e-01	 1.5927670677e+00	-1.2514422717e+00
 3.0498458826e-01	 1.5997591378e+00	-1.1955900875e+00
 2.7044222212e-01	 1.6059594959e+00	-1.1467279270e+00
 2.3601173927e-01	 1.6113793336e+00	-1.1031396325e+00
 2.0171671146e-01	 1.6160307133e+00	-1.0630397926e+00
 1.6757985155e-01	 1.6199265080e+00	-1.0245999518e+00
 1.3362298764e-01	 1.6230803416e+00	-9.8597378299e-01
 9.9867041516e-02	 1.6255065278e+00	-9.4532104658e-01
 6.6332011456e-02	 1.6272200104e+00	-9.0083017844e-01
 3.3036959044e-02	 1.6282363027e+00	-8.5073937479e-01
 0.0000000000e+00	 1.6285714286e+00	-7.9335606310e-01
 3.4259351128e-01	 1.6067387086e+00	-1.2626938138e+00
 3.0765989166e-01	 1.6137921127e+00	-1.2064639038e+00
 2.7281452232e-01	 1.6200468599e+00	-1.1568395427e+00
 2.3808201768e-01	 1.6255142401e+00	-1.1121989916e+00
 2.0348615629e-01	 1.6302064213e+00	-1.0708204367e+00
 1.6904985025e-01	 1.6341363896e+00	-1.0309095256e+00
 1.3479511911e-01	 1.6373178884e+00	-9.9062602235e-01
 1.0074306820e-01	 1.6397653570e+00	-9.4810938072e-01
 6.6913871206e-02	 1.6414938701e+00	-9.0150305824e-01
 3.3326756930e-02	 1.6425190772e+00	-8.4897741541e-01
 0.0000000000e+00	 1.6428571429e+00	-7.8875106918e-01
 3.4557258529e-01	 1.6207103496e+00	-1.2763589642e+00
 3.1033519507e-01	 1.6278250876e+00	-1.2199741031e+00
 2.7518682251e-01	 1.6341342239e+00	-1.1696897466e+00
 2.4015229610e-01	 1.6396491465e+00	-1.1240058991e+00
 2.0525560113e-01	 1.6443821293e+00	-1.0812873313e+00
 1.7051984895e-01	 1.6483462713e+00	-1.0397924960e+00
 1.3596725058e-01	 1.6515554353e+00	-9.9770174715e-01
 1.0161909488e-01	 1.6540241862e+00	-9.5314463534e-01
 6.7495730955e-02	 1.6557677299e+00	-9.0422608045e-01
 3.3616554816e-02	 1.6568018518e+00	-8.4905124001e-01
 0.0000000000e+00	 1.6571428571e+00	-7.8574891874e-01
 3.4855165930e-01	 1.6346819905e+00	-1.2923627266e+00
 3.1301049848e-01	 1.6418580625e+00	-1.2360938712e+00
 2.7755912271e-01	 1.6482215879e+00	-1.1852854053e+00
 2.4222257451e-01	 1.6537840529e+00	-1.1385858943e+00
 2.0702504597e-01	 1.6585578373e+00	-1.0944692412e+00
 1.7198984765e-01	 1.6625561529e+00	-1.0512650332e+00
 1.3713938205e-01	 1.6657929821e+00	-1.0071884034e+00
 1.0249512156e-01	 1.6682830154e+00	-9.6036915651e-01
 6.8077590705e-02	 1.6700415896e+00	-9.0887993043e-01
 3.3906352703e-02	 1.6710846264e+00	-8.5076318605e-01
 0.0000000000e+00	 1.6714285714e+00	-7.8405684445e-01
 3.5153073332e-01	 1.6486536315e+00	-1.3106317958e+00
 3.1568580188e-01	 1.6558910373e+00	-1.2547963934e+00
 2.7993142290e-01	 1.6623089519e+00	-1.2036321897e+00
 2.4429285292e-01	 1.6679189594e+00	-1.1559626406e+00
 2.0879449081e-01	 1.6727335453e+00	-1.1103929060e+00
 1.7345984634e-01	 1.6767660346e+00	-1.0653416759e+00
 1.3831151352e-01	 1.6800305290e+00	-1.0190727544e+00
 1.0337114824e-01	 1.6825418446e+00	-9.6972612027e-01
 6.8659450455e-02	 1.6843154494e+00	-9.1534820659e-01
 3.4196150589e-02	 1.6853674010e+00	-8.5392116250e-01
 0.0000000000e+00	 1.6857142857e+00	-7.8339088704e-01
 3.5450980733e-01	 1.6626252724e+00	-1.3310945135e+00
 3.1836110529e-01	 1.6699240122e+00	-1.2760548785e+00
 2.8230372309e-01	 1.6763963159e+00	-1.2247346466e+00
 2.4636313134e-01	 1.6820538658e+00	-1.1761580235e+00
 2.1056393564e-01	 1.6869092533e+00	-1.1290831410e+00
 1.7492984504e-01	 1.6909759162e+00	-1.0820354134e+00
 1.3948364499e-01	 1.6942680758e+00	-1.0333409202e+00
 1.0424717492e-01	 1.6968006738e+00	-9.8115950569e-01
 6.9241310204e-02	 1.6985893091e+00	-9.2351730335e-01
 3.4485948475e-02	 1.6996501756e+00	-8.5833841843e-01
 0.0000000000e+00	 1.7000000000e+00	-7.8347552520e-01
 3.5748888134e-01	 1.6765969134e+00	-1.3536808256e+00
 3.2103640869e-01	 1.6839569871e+00	-1.2998425813e+00
 2.8467602329e-01	 1.6904836799e+00	-1.2485962675e+00
 2.4843340975e-01	 1.6961887723e+00	-1.1991922432e+00
 2.1233338048e-01	 1.7010849614e+00	-1.1505629337e+00
 1.7639984374e-01	 1.7051857979e+00	-1.1013577636e+00
 1.4065577646e-01	 1.7085056227e+00	-1.0499784153e+00
 1.0512320160e-01	 1.7110595030e+00	-9.9461406945e-01
 6.9823169954e-02	 1.7128631688e+00	-9.3327629986e-01
 3.4775746362e-02	 1.7139329502e+00	-8.6383332307e-01
 0.0000000000e+00	 1.7142857143e+00	-7.8404332400e-01
 1.7142857143e+00	 0.0000000000e+00	 2.9603944987e+00
 1.7139329502e+00	 3.4775746362e-02	 2.9490232684e+00
 1.7128631688e+00	 6.9823169954e-02	 2.9177189007e+00
 1.7110595030e+00	 1.0512320160e-01	 2.8680143640e+00
 1.7085056227e+00	 1.4065577646e-01	 2.8014477726e+00
 1.7051857979e+00	 1.7639984374e-01	 2.7195494196e+00
 1.7010849614e+00	 2.1233338048e-01	 2.6238280956e+00
 1.6961887723e+00	 2.4843340975e-01	 2.5157567588e+00
 1.6904836799e+00	 2.8467602329e-01	 2.3967576302e+00
 1.6839569871e+00	 3.2103640869e-01	 2.2681867978e+00
 1.6765969134e+00	 3.5748888134e-01	 2.1313184271e+00
 1.7285714286e+00	 0.0000000000e+00	 2.9588434724e+00
 1.7282157248e+00	 3.5065544248e-02	 2.9437154804e+00
 1.7271370286e+00	 7.0405029703e-02	 2.9091812904e+00
 1.7253183322e+00	 1.0599922828e-01	 2.8567377940e+00
 1.7227431695e+00	 1.4182790793e-01	 2.7878785351e+00
 1.7193956795e+00	 1.7786984244e-01	 2.7040806084e+00
 1.7152606694e+00	 2.1410282532e-01	 2.6067909021e+00
 1.7103236787e+00	 2.5050368817e-01	 2.4974117517e+00
 1.7045710439e+00	 2.8704832348e-01	 2.3772860853e+00
 1.6979899620e+00	 3.2371171210e-01	 2.2476821462e+00
 1.6905685543e+00	 3.6046795535e-01	 2.1097778897e+00
 1.7428571429e+00	 0.0000000000e+00	 2.9611244770e+00
 1.7424984993e+00	 3.5355342134e-02	 2.9406435727e+00
 1.7414108883e+00	 7.0986889453e-02	 2.9016714293e+00
 1.7395771613e+00	 1.0687525496e-01	 2.8456279241e+00
 1.7369807164e+00	 1.4300003940e-01	 2.7739183809e+00
 1.7336055612e+00	 1.7933984114e-01	 2.6879205346e+00
 1.7294363774e+00	 2.1587227016e-01	 2.5889709292e+00
 1.7244585851e+00	 2.5257396658e-01	 2.4783508204e+00
 1.7186584079e+00	 2.8942062368e-01	 2.3572716651e+00
 1.7120229369e+00	 3.2638701550e-01	 2.2268602870e+00
 1.7045401953e+00	 3.6344702936e-01	 2.0881438168e+00
 1.7571428571e+00	 0.0000000000e+00	 2.9671965161e+00
 1.7567812739e+00	 3.5645140021e-02	 2.9397762852e+00
 1.7556847481e+00	 7.1568749203e-02	 2.8951617191e+00
 1.7538359905e+00	 1.0775128164e-01	 2.8346558555e+00
 1.7512182633e+00	 1.4417217087e-01	 2.7595333022e+00
 1.7478154428e+00	 1.8080983983e-01	 2.6710274661e+00
 1.7436120854e+00	 2.1764171499e-01	 2.5703173352e+00
 1.7385934916e+00	 2.5464424500e-01	 2.4585138900e+00
 1.7327457719e+00	 2.9179292387e-01	 2.3366462290e+00
 1.7260559118e+00	 3.2906231891e-01	 2.2056474982e+00
 1.7185118362e+00	 3.6642610337e-01	 2.0663407245e+00
 1.7714285714e+00	 0.0000000000e+00	 2.9770204471e+00
 1.7710640485e+00	 3.5934937907e-02	 2.9410838875e+00
 1.7699586078e+00	 7.2150608952e-02	 2.8896259652e+00
 1.7680948197e+00	 1.0862730832e-01	 2.8237941288e+00
 1.7654558101e+00	 1.4534430234e-01	 2.7446908911e+00
 1.7620253245e+00	 1.8227983853e-01	 2.6533615170e+00
 1.7577877934e+00	 2.1941115983e-01	 2.5507814166e+00
 1.7527283980e+00	 2.5671452341e-01	 2.4378433215e+00
 1.7468331359e+00	 2.9416522407e-01	 2.3153443340e+00
 1.7400888867e+00	 3.3173762232e-01	 2.1839729375e+00
 1.7324834771e+00	 3.6940517738e-01	 2.0442960694e+00
 1.7857142857e+00	 0.0000000000e+00	 2.9905589065e+00
 1.7853468231e+00	 3.6224735793e-02	 2.9445381168e+00
 1.7842324675e+00	 7.2732468702e-02	 2.8850393182e+00
 1.7823536489e+00	 1.0950333500e-01	 2.8130166630e+00
 1.7796933570e+00	 1.4651643381e-01	 2.7293602704e+00
 1.7762352061e+00	 1.8374983723e-01	 2.6348845676e+00
 1.7719635014e+00	 2.2118060467e-01	 2.5303165159e+00
 1.7668633044e+00	 2.5878480183e-01	 2.4162838071e+00
 1.7609204999e+00	 2.9653752426e-01	 2.2933031181e+00
 1.7541218616e+00	 3.3441292572e-01	 2.1617685180e+00
 1.7464551181e+00	 3.7238425139e-01	 2.0219401204e+00
 1.8000000000e+00	 0.0000000000e+00	 3.0077762398e+00
 1.7996295977e+00	 3.6514533680e-02	 2.9501121178e+00
 1.7985063273e+00	 7.3314328452e-02	 2.8813782180e+00
 1.7966124781e+00	 1.1037936168e-01	 2.8022986967e+00
 1.7939309038e+00	 1.4768856528e-01	 2.7135120283e+00
 1.7904450878e+00	 1.8521983593e-01	 2.6155601883e+00
 1.7861392094e+00	 2.2295004951e-01	 2.5088779337e+00
 1.7809982109e+00	 2.6085508024e-01	 2.3937822692e+00
 1.7750078639e+00	 2.9890982445e-01	 2.2704621893e+00
 1.7681548365e+00	 3.3708822913e-01	 2.1389687892e+00
 1.7604267590e+00	 3.7536332541e-01	 1.9992058363e+00
 1.8142857143e+00	 0.0000000000e+00	 3.0286384340e+00
 1.8139123723e+00	 3.6804331566e-02	 2.9577803865e+00
 1.8127801870e+00	 7.3896188201e-02	 2.8786203400e+00
 1.8108713073e+00	 1.1125538836e-01	 2.7916167327e+00
 1.8081684507e+00	 1.4886069675e-01	 2.6971181558e+00
 1.8046549694e+00	 1.8668983463e-01	 2.5953535674e+00
 1.8003149174e+00	 2.2471949434e-01	 2.4864228442e+00
 1.7951331173e+00	 2.6292535866e-01	 2.3702877654e+00
 1.7890952279e+00	 3.0128212465e-01	 2.2467635191e+00
 1.7821878114e+00	 3.3976353253e-01	 2.1155108234e+00
 1.7743984000e+00	 3.7834239942e-01	 1.9760287502e+00
 1.8285714286e+00	 0.0000000000e+00	 3.0531130534e+00
 1.8281951468e+00	 3.7094129452e-02	 2.9675187159e+00
 1.8270540468e+00	 7.4478047951e-02	 2.8767445451e+00
 1.8251301365e+00	 1.1213141504e-01	 2.7809484849e+00
 1.8224059975e+00	 1.5003282823e-01	 2.6801519873e+00
 1.8188648511e+00	 1.8815983332e-01	 2.5742314421e+00
 1.8144906254e+00	 2.2648893918e-01	 2.4629102158e+00
 1.8092680237e+00	 2.6499563707e-01	 2.3457513972e+00
 1.8031825919e+00	 3.0365442484e-01	 2.2221513424e+00
 1.7962207863e+00	 3.4243883594e-01	 2.0913341081e+00
 1.7883700409e+00	 3.8132147343e-01	 1.9523468580e+00
 1.8428571429e+00	 0.0000000000e+00	 3.0811691788e+00
 1.8424779214e+00	 3.7383927339e-02	 2.9793041443e+00
 1.8413279065e+00	 7.5059907700e-02	 2.8757308304e+00
 1.8393889657e+00	 1.1300744172e-01	 2.7702728276e+00
 1.8366435444e+00	 1.5120495970e-01	 2.6625881435e+00
 1.8330747327e+00	 1.8962983202e-01	 2.5521620327e+00
 1.8286663335e+00	 2.2825838402e-01	 2.4383007346e+00
 1.8234029302e+00	 2.6706591549e-01	 2.3201262232e+00
 1.8172699559e+00	 3.0602672504e-01	 2.1965720608e+00
 1.8102537612e+00	 3.4511413934e-01	 2.0663804430e+00
 1.8023416819e+00	 3.8430054744e-01	 1.9281005138e+00
 1.8571428571e+00	 0.0000000000e+00	 3.1127773488e+00
 1.8567606960e+00	 3.7673725225e-02	 2.9931149064e+00
 1.8556017662e+00	 7.5641767450e-02	 2.8755602838e+00
 1.8536477949e+00	 1.1388346840e-01	 2.7595697473e+00
 1.8508810912e+00	 1.5237709117e-01	 2.6444024776e+00
 1.8472846144e+00	 1.9109983072e-01	 2.5291149798e+00
 1.8428420415e+00	 2.3002782885e-01	 2.4125567319e+00
 1.8375378366e+00	 2.6913619390e-01	 2.2933671765e+00
 1.8313573199e+00	 3.0839902523e-01	 2.1699741513e+00
 1.8242867361e+00	 3.4778944275e-01	 2.0405938422e+00
 1.8163133228e+00	 3.8727962145e-01	 1.9032323287e+00
 1.6765969134e+00	 3.5748888134e-01	 2.1313184271e+00
 1.6683926565e+00	 3.9400692099e-01	 1.9869780805e+00
 1.6593344538e+00	 4.3056321316e-01	 1.8357924450e+00
 1.6494136407e+00	 4.6712969528e-01	 1.6786499733e+00
 1.6386227076e+00	 5.0367760751e-01	 1.5164134664e+00
 1.6269553548e+00	 5.4017754822e-01	 1.3499151834e+00
 1.6144065435e+00	 5.7659953404e-01	 1.1799519241e+00
 1.6009725438e+00	 6.1291306414e-01	 1.0072801190e+00
 1.5866509797e+00	 6.4908718885e-01	 8.3261096521e-01
 1.5714408689e+00	 6.8509058205e-01	 6.5660565481e-01
 1.5553426588e+00	 7.2089161737e-01	 4.7987074940e-01
 1.6905685543e+00	 3.6046795535e-01	 2.1097778897e+00
 1.6822959287e+00	 3.9729031199e-01	 1.9645510128e+00
 1.6731622409e+00	 4.3415123994e-01	 1.8128223930e+00
 1.6631587543e+00	 4.7102244274e-01	 1.6554394961e+00
 1.6522778968e+00	 5.0787492090e-01	 1.4932220145e+00
 1.6405133161e+00	 5.4467902779e-01	 1.3269572332e+00
 1.6278599313e+00	 5.8140453016e-01	 1.1573953869e+00
 1.6143139817e+00	 6.1802067301e-01	 9.8524503674e-01
 1.5998730712e+00	 6.5449624876e-01	 8.1116850533e-01
 1.5845362095e+00	 6.9079967024e-01	 6.3577741122e-01
 1.5683038476e+00	 7.2689904751e-01	 4.5962835543e-01
 1.7045401953e+00	 3.6344702936e-01	 2.0881438168e+00
 1.6961992008e+00	 4.0057370300e-01	 1.9422133970e+00
 1.6869900281e+00	 4.3773926671e-01	 1.7900846825e+00
 1.6769038680e+00	 4.7491519020e-01	 1.6325681364e+00
 1.6659330861e+00	 5.1207223430e-01	 1.4704446324e+00
 1.6540712774e+00	 5.4918050736e-01	 1.3044610579e+00
 1.6413133192e+00	 5.8620952627e-01	 1.1353259206e+00
 1.6276554195e+00	 6.2312828188e-01	 9.6370498617e-01
 1.6130951627e+00	 6.5990530866e-01	 7.9021698003e-01
 1.5976315501e+00	 6.9650875842e-01	 6.1542939512e-01
 1.5812650364e+00	 7.3290647765e-01	 4.3985445266e-01
 1.7185118362e+00	 3.6642610337e-01	 2.0663407245e+00
 1.7101024730e+00	 4.0385709401e-01	 1.9198908491e+00
 1.7008178152e+00	 4.4132729349e-01	 1.7675069601e+00
 1.6906489817e+00	 4.7880793766e-01	 1.6099663896e+00
 1.6795882753e+00	 5.1626954769e-01	 1.4480153657e+00
 1.6676292387e+00	 5.5368198693e-01	 1.2823648334e+00
 1.6547667070e+00	 5.9101452239e-01	 1.1136862875e+00
 1.6409968574e+00	 6.2823589075e-01	 9.4260764386e-01
 1.6263172542e+00	 6.6531436857e-01	 7.6970917875e-01
 1.6107268907e+00	 7.0221784661e-01	 5.9551957524e-01
 1.5942262252e+00	 7.3891390780e-01	 4.2051212203e-01
 1.7324834771e+00	 3.6940517738e-01	 2.0442960694e+00
 1.7240057451e+00	 4.0714048502e-01	 1.8975118943e+00
 1.7146456023e+00	 4.4491532026e-01	 1.7450197214e+00
 1.7043940953e+00	 4.8270068512e-01	 1.5875675136e+00
 1.6932434645e+00	 5.2046686109e-01	 1.4258709139e+00
 1.6811872000e+00	 5.5818346650e-01	 1.2606092627e+00
 1.6682200949e+00	 5.9581951851e-01	 1.0924216358e+00
 1.6543382953e+00	 6.3334349962e-01	 9.2190292166e-01
 1.6395393457e+00	 6.7072342848e-01	 7.4959996918e-01
 1.6238222312e+00	 7.0792693479e-01	 5.7600783992e-01
 1.6071874141e+00	 7.4492133794e-01	 4.0156620840e-01
 1.7464551181e+00	 3.7238425139e-01	 2.0219401204e+00
 1.7379090172e+00	 4.1042387603e-01	 1.8750078393e+00
 1.7284733894e+00	 4.4850334704e-01	 1.7225561840e+00
 1.7181392090e+00	 4.8659343258e-01	 1.5653074052e+00
 1.7068986538e+00	 5.2466417448e-01	 1.4039505104e+00
 1.6947451613e+00	 5.6268494607e-01	 1.2391374609e+00
 1.6816734828e+00	 6.0062451462e-01	 1.0714793895e+00
 1.6676797331e+00	 6.3845110848e-01	 9.0154286090e-01
 1.6527614372e+00	 6.7613248839e-01	 7.2984619683e-01
 1.6369175718e+00	 7.1363602297e-01	 5.5685590216e-01
 1.6201486029e+00	 7.5092876809e-01	 3.8298323083e-01
 1.7604267590e+00	 3.7536332541e-01	 1.9992058363e+00
 1.7518122894e+00	 4.1370726704e-01	 1.8523126506e+00
 1.7423011765e+00	 4.5209137382e-01	 1.7000521682e+00
 1.7318843227e+00	 4.9048618004e-01	 1.5431244822e+00
 1.7205538430e+00	 5.2886148788e-01	 1.3821958087e+00
 1.7083031226e+00	 5.6718642564e-01	 1.2178948440e+00
 1.6951268706e+00	 6.0542951074e-01	 1.0508091423e+00
 1.6810211710e+00	 6.4355871735e-01	 8.8148153169e-01
 1.6659835287e+00	 6.8154154829e-01	 7.1040658950e-01
 1.6500129124e+00	 7.1934511116e-01	 5.3802720922e-01
 1.6331097917e+00	 7.5693619823e-01	 3.6473129724e-01
 1.7743984000e+00	 3.7834239942e-01	 1.9760287502e+00
 1.7657155615e+00	 4.1699065804e-01	 1.8293628384e+00
 1.7561289636e+00	 4.5567940059e-01	 1.6774459825e+00
 1.7456294364e+00	 4.9437892750e-01	 1.5209595723e+00
 1.7342090322e+00	 5.3305880128e-01	 1.3605507731e+00
 1.7218610839e+00	 5.7168790520e-01	 1.1968290247e+00
 1.7085802585e+00	 6.1023450686e-01	 1.0303625571e+00
 1.6943626089e+00	 6.4866632622e-01	 8.6167493721e-01
 1.6792056202e+00	 6.8695060820e-01	 6.9124166638e-01
 1.6631082530e+00	 7.2505419934e-01	 5.1948685665e-01
 1.6460709805e+00	 7.6294362838e-01	 3.4678002326e-01
 1.7883700409e+00	 3.8132147343e-01	 1.9523468580e+00
 1.7796188336e+00	 4.2027404905e-01	 1.8060973469e+00
 1.7699567508e+00	 4.5926742737e-01	 1.6546783143e+00
 1.7593745500e+00	 4.9827167496e-01	 1.4987558055e+00
 1.7478642215e+00	 5.3725611467e-01	 1.3389615756e+00
 1.7354190451e+00	 5.7618938477e-01	 1.1758897126e+00
 1.7220336464e+00	 6.1503950298e-01	 1.0100932706e+00
 1.7077040467e+00	 6.5377393509e-01	 8.4208092247e-01
 1.6924277117e+00	 6.9235966811e-01	 6.7231365160e-01
 1.6762035935e+00	 7.3076328752e-01	 5.0120150656e-01
 1.6590321694e+00	 7.6895105852e-01	 3.2910045497e-01
 1.8023416819e+00	 3.8430054744e-01	 1.9281005138e+00
 1.7935221058e+00	 4.2355744006e-01	 1.7824574486e+00
 1.7837845379e+00	 4.6285545415e-01	 1.6316921266e+00
 1.7731196637e+00	 5.0216442242e-01	 1.4764585133e+00
 1.7615194107e+00	 5.4145342807e-01	 1.3173764970e+00
 1.7489770064e+00	 5.8069086434e-01	 1.1550286189e+00
 1.7354870342e+00	 6.1984449909e-01	 9.8995680209e-01
 1.7210454846e+00	 6.5888154396e-01	 8.2265908759e-01
 1.7056498032e+00	 6.9776872801e-01	 6.5358639188e-01
 1.6892989341e+00	 7.3647237571e-01	 4.8313930974e-01
 1.6719933582e+00	 7.7495848867e-01	 3.1166499552e-01
 1.8163133228e+00	 3.8727962145e-01	 1.9032323287e+00
 1.8074253779e+00	 4.2684083107e-01	 1.7583866447e+00
 1.7976123250e+00	 4.6644348092e-01	 1.6084325591e+00
 1.7868647774e+00	 5.0605716989e-01	 1.4540151317e+00
 1.7751745999e+00	 5.4565074146e-01	 1.2957458333e+00
 1.7625349677e+00	 5.8519234391e-01	 1.1341993657e+00
 1.7489404221e+00	 6.2464949521e-01	 9.6991046665e-01
 1.7343869225e+00	 6.6398915282e-01	 8.0337070508e-01
 1.7188718947e+00	 7.0317778792e-01	 6.3502527812e-01
 1.7023942747e+00	 7.4218146389e-01	 4.6526983156e-01
 1.6849545470e+00	 7.8096591881e-01	 2.9444733507e-01
 1.5553426588e+00	 7.2089161737e-01	 4.7987074940e-01
 1.5383582571e+00	 7.5645844758e-01	 3.0179433882e-01
 1.5204910582e+00	 7.9175908712e-01	 1.2244529485e-01
 1.5017459629e+00	 8.2676149716e-01	-5.6629178068e-02
 1.4821293930e+00	 8.6143367282e-01	-2.3393942937e-01
 1.4616493001e+00	 8.9574373222e-01	-4.0806362324e-01
 1.4403151676e+00	 9.2966000672e-01	-5.7765761157e-01
 1.4181380071e+00	 9.6315113193e-01	-7.4134506573e-01
 1.3951303475e+00	 9.9618613905e-01	-8.9715670415e-01
 1.3713062183e+00	 1.0287345458e+00	-1.0439353338e+00
 1.3466811263e+00	 1.0607664467e+00	-1.1808259327e+00
 1.5683038476e+00	 7.2689904751e-01	 4.5962835543e-01
 1.5511779093e+00	 7.6276226797e-01	 2.8207857001e-01
 1.5331618171e+00	 7.9835707951e-01	 1.0320927533e-01
 1.5142605126e+00	 8.3365117630e-01	-7.5416968815e-02
 1.4944804713e+00	 8.6861228676e-01	-2.5229458134e-01
 1.4738297109e+00	 9.0320826332e-01	-4.2598553146e-01
 1.4523177940e+00	 9.3740717344e-01	-5.9512953816e-01
 1.4299558239e+00	 9.7117739137e-01	-7.5845373408e-01
 1.4067564337e+00	 1.0044876902e+00	-9.1427722068e-01
 1.3827337702e+00	 1.0373073337e+00	-1.0609289713e+00
 1.3579034690e+00	 1.0696061671e+00	-1.1975325034e+00
 1.5812650364e+00	 7.3290647765e-01	 4.3985445266e-01
 1.5639975614e+00	 7.6906608837e-01	 2.6282280474e-01
 1.5458325759e+00	 8.0495507191e-01	 8.4428032767e-02
 1.5267750623e+00	 8.4054085544e-01	-9.3752656551e-02
 1.5068315495e+00	 8.7579090070e-01	-2.7019841542e-01
 1.4860101217e+00	 9.1067279443e-01	-4.4345563758e-01
 1.4643204204e+00	 9.4515434016e-01	-6.1214848562e-01
 1.4417736406e+00	 9.7920365080e-01	-7.7498889353e-01
 1.4183825200e+00	 1.0127892414e+00	-9.3067394774e-01
 1.3941613220e+00	 1.0458801216e+00	-1.0772419140e+00
 1.3691258117e+00	 1.0784458875e+00	-1.2136020586e+00
 1.5942262252e+00	 7.3891390780e-01	 4.2051212203e-01
 1.5768172136e+00	 7.7536990877e-01	 2.4399524511e-01
 1.5585033347e+00	 8.1155306430e-01	 6.6075081482e-02
 1.5392896119e+00	 8.4743053459e-01	-1.1165719878e-01
 1.5191826278e+00	 8.8296951464e-01	-2.8766612024e-01
 1.4981905326e+00	 9.1813732553e-01	-4.6048309646e-01
 1.4763230468e+00	 9.5290150688e-01	-6.2871728666e-01
 1.4535914573e+00	 9.8722991023e-01	-7.9106593952e-01
 1.4300086062e+00	 1.0210907925e+00	-9.4632404392e-01
 1.4055888738e+00	 1.0544529095e+00	-1.0928426055e+00
 1.3803481544e+00	 1.0872856078e+00	-1.2289961578e+00
 1.6071874141e+00	 7.4492133794e-01	 4.0156620840e-01
 1.5896368657e+00	 7.8167372916e-01	 2.2556570209e-01
 1.5711740935e+00	 8.1815105669e-01	 4.8125384608e-02
 1.5518041616e+00	 8.5432021373e-01	-1.2915026968e-01
 1.5315337061e+00	 8.9014812858e-01	-3.0471177253e-01
 1.5103709434e+00	 9.2560185663e-01	-4.7707612877e-01
 1.4883256732e+00	 9.6064867361e-01	-6.4483802421e-01
 1.4654092740e+00	 9.9525616966e-01	-8.0668051344e-01
 1.4416346924e+00	 1.0293923437e+00	-9.6138502056e-01
 1.4170164256e+00	 1.0630256973e+00	-1.1076987916e+00
 1.3915704971e+00	 1.0961253282e+00	-1.2436759090e+00
 1.6201486029e+00	 7.5092876809e-01	 3.8298323083e-01
 1.6024565178e+00	 7.8797754956e-01	 2.0750551100e-01
 1.5838448523e+00	 8.2474904909e-01	 3.0555274992e-02
 1.5643187113e+00	 8.6120989287e-01	-1.4625033364e-01
 1.5438847844e+00	 8.9732674252e-01	-3.2134840482e-01
 1.5225513542e+00	 9.3306638773e-01	-4.9324208262e-01
 1.5003282996e+00	 9.6839584033e-01	-6.6051208663e-01
 1.4772270908e+00	 1.0032824291e+00	-8.2182774683e-01
 1.4532607787e+00	 1.0376938948e+00	-9.7595735813e-01
 1.4284439774e+00	 1.0715984852e+00	-1.1217776410e+00
 1.4027928398e+00	 1.1049650486e+00	-1.2576020829e+00
 1.6331097917e+00	 7.5693619823e-01	 3.6473129724e-01
 1.6152761700e+00	 7.9428136995e-01	 1.8978745113e-01
 1.5965156111e+00	 8.3134704148e-01	 1.3342379983e-02
 1.5768332610e+00	 8.6809957202e-01	-1.6297471508e-01
 1.5562358626e+00	 9.0450535646e-01	-3.3758806970e-01
 1.5347317651e+00	 9.4053091883e-01	-5.0898749208e-01
 1.5123309260e+00	 9.7614300705e-01	-6.7574022027e-01
 1.4890449075e+00	 1.0113086885e+00	-8.3650230751e-01
 1.4648868649e+00	 1.0459954460e+00	-9.9002933494e-01
 1.4398715293e+00	 1.0801712731e+00	-1.1351862477e+00
 1.4140151826e+00	 1.1138047690e+00	-1.2707352271e+00
 1.6460709805e+00	 7.6294362838e-01	 3.4678002326e-01
 1.6280958221e+00	 8.0058519035e-01	 1.7238566938e-01
 1.6091863700e+00	 8.3794503387e-01	-3.5344500719e-03
 1.5893478107e+00	 8.7498925116e-01	-1.7933966494e-01
 1.5685869409e+00	 9.1168397040e-01	-3.5344190105e-01
 1.5469121759e+00	 9.4799544993e-01	-5.2431813284e-01
 1.5243335524e+00	 9.8389017377e-01	-6.9052257927e-01
 1.5008627242e+00	 1.0193349480e+00	-8.5069844345e-01
 1.4765129511e+00	 1.0542969972e+00	-1.0035889880e+00
 1.4512990811e+00	 1.0887440610e+00	-1.1480477346e+00
 1.4252375253e+00	 1.1226444894e+00	-1.2830357779e+00
 1.6590321694e+00	 7.6895105852e-01	 3.2910045497e-01
 1.6409154743e+00	 8.0688901075e-01	 1.5527560753e-01
 1.6218571288e+00	 8.4454302626e-01	-2.0095209850e-02
 1.6018623604e+00	 8.8187893030e-01	-1.9536042381e-01
 1.5809380192e+00	 9.1886258434e-01	-3.6892017213e-01
 1.5590925867e+00	 9.5545998104e-01	-5.3923907509e-01
 1.5363361788e+00	 9.9163734050e-01	-7.0485877307e-01
 1.5126805409e+00	 1.0273612074e+00	-8.6441002449e-01
 1.4881390374e+00	 1.0625985483e+00	-1.0166241488e+00
 1.4627266329e+00	 1.0973168489e+00	-1.1603435950e+00
 1.4364598680e+00	 1.1314842098e+00	-1.2945314161e+00
 1.6719933582e+00	 7.7495848867e-01	 3.1166499552e-01
 1.6537351264e+00	 8.1319283114e-01	 1.3843393311e-01
 1.6345278876e+00	 8.5114101866e-01	-3.6358803762e-02
 1.6143769101e+00	 8.8876860945e-01	-2.1105128206e-01
 1.5932890975e+00	 9.2604119828e-01	-3.8403235091e-01
 1.5712729976e+00	 9.6292451214e-01	-5.5375473385e-01
 1.5483388052e+00	 9.9938450722e-01	-7.1874791146e-01
 1.5244983577e+00	 1.0353874668e+00	-8.7763058198e-01
 1.4997651236e+00	 1.0709000995e+00	-1.0291224773e+00
 1.4741541847e+00	 1.1058896367e+00	-1.1720553062e+00
 1.4476822107e+00	 1.1403239302e+00	-1.3053825972e+00
 1.6849545470e+00	 7.8096591881e-01	 2.9444733507e-01
 1.6665547786e+00	 8.1949665154e-01	 1.2183847351e-01
 1.6471986464e+00	 8.5773901105e-01	-5.2343107545e-02
 1.6268914598e+00	 8.9565828859e-01	-2.2642563700e-01
 1.6056401757e+00	 9.3321981222e-01	-3.9878715267e-01
 1.5834534084e+00	 9.7038904324e-01	-5.6786891684e-01
 1.5603414316e+00	 1.0071316739e+00	-7.3218864751e-01
 1.5363161744e+00	 1.0434137263e+00	-8.9035334649e-01
 1.5113912098e+00	 1.0792016506e+00	-1.0410714939e+00
 1.4855817365e+00	 1.1144624246e+00	-1.1831643728e+00
 1.4589045534e+00	 1.1491636506e+00	-1.3155762868e+00
 1.3466811263e+00	 1.0607664467e+00	-1.1808259327e+00
 1.3212720251e+00	 1.0922526017e+00	-1.3075293290e+00
 1.2950972797e+00	 1.1231645233e+00	-1.4239617435e+00
 1.2681766231e+00	 1.1534745610e+00	-1.5297840998e+00
 1.2405311082e+00	 1.1831559829e+00	-1.6247625273e+00
 1.2121830535e+00	 1.2121830535e+00	-1.7087604522e+00
 1.1831559829e+00	 1.2405311082e+00	-1.7817282973e+00
 1.1534745610e+00	 1.2681766231e+00	-1.8436911044e+00
 1.1231645233e+00	 1.2950972797e+00	-1.8947344772e+00
 1.0922526017e+00	 1.3212720251e+00	-1.9349893134e+00
 1.0607664467e+00	 1.3466811263e+00	-1.9646158488e+00
 1.3579034690e+00	 1.0696061671e+00	-1.1975325034e+00
 1.3322826253e+00	 1.1013547067e+00	-1.3237255710e+00
 1.3058897570e+00	 1.1325242277e+00	-1.4394185342e+00
 1.2787447616e+00	 1.1630868490e+00	-1.5443464205e+00
 1.2508688674e+00	 1.1930156161e+00	-1.6383554201e+00
 1.2222845789e+00	 1.2222845789e+00	-1.7213940550e+00
 1.1930156161e+00	 1.2508688674e+00	-1.7935017973e+00
 1.1630868490e+00	 1.2787447616e+00	-1.8547954698e+00
 1.1325242277e+00	 1.3058897570e+00	-1.9054538515e+00
 1.1013547067e+00	 1.3322826253e+00	-1.9457009842e+00
 1.0696061671e+00	 1.3579034690e+00	-1.9757887359e+00
 1.3691258117e+00	 1.0784458875e+00	-1.2136020586e+00
 1.3432932255e+00	 1.1104568117e+00	-1.3393352223e+00
 1.3166822343e+00	 1.1418839320e+00	-1.4543528202e+00
 1.2893129001e+00	 1.1726991370e+00	-1.5584655238e+00
 1.2612066267e+00	 1.2028752493e+00	-1.6516015657e+00
 1.2323861044e+00	 1.2323861044e+00	-1.7337969562e+00
 1.2028752493e+00	 1.2612066267e+00	-1.8051829801e+00
 1.1726991370e+00	 1.2893129001e+00	-1.8659713271e+00
 1.1418839320e+00	 1.3166822343e+00	-1.9164373017e+00
 1.1104568117e+00	 1.3432932255e+00	-1.9569016409e+00
 1.0784458875e+00	 1.3691258117e+00	-1.9877115271e+00
 1.3803481544e+00	 1.0872856078e+00	-1.2289961578e+00
 1.3543038257e+00	 1.1195589167e+00	-1.3543130725e+00
 1.3274747117e+00	 1.1512436364e+00	-1.4687132832e+00
 1.2998810386e+00	 1.1823114251e+00	-1.5720846156e+00
 1.2715443859e+00	 1.2127348825e+00	-1.6644393037e+00
 1.2424876298e+00	 1.2424876298e+00	-1.7459032241e+00
 1.2127348825e+00	 1.2715443859e+00	-1.8167022299e+00
 1.1823114251e+00	 1.2998810386e+00	-1.8771459615e+00
 1.1512436364e+00	 1.3274747117e+00	-1.9276096032e+00
 1.1195589167e+00	 1.3543038257e+00	-1.9685141460e+00
 1.0872856078e+00	 1.3803481544e+00	-2.0003057802e+00
 1.3915704971e+00	 1.0961253282e+00	-1.2436759090e+00
 1.3653144260e+00	 1.1286610217e+00	-1.3686136801e+00
 1.3382671890e+00	 1.1606033407e+00	-1.4824485503e+00
 1.3104491772e+00	 1.1919237131e+00	-1.5851469806e+00
 1.2818821451e+00	 1.2225945156e+00	-1.6768071444e+00
 1.2525891552e+00	 1.2525891552e+00	-1.7576471487e+00
 1.2225945156e+00	 1.2818821451e+00	-1.8279901650e+00
 1.1919237131e+00	 1.3104491772e+00	-1.8882468691e+00
 1.1606033407e+00	 1.3382671890e+00	-1.9388956858e+00
 1.1286610217e+00	 1.3653144260e+00	-1.9804614310e+00
 1.0961253282e+00	 1.3915704971e+00	-2.0134930106e+00
 1.4027928398e+00	 1.1049650486e+00	-1.2576020829e+00
 1.3763250262e+00	 1.1377631267e+00	-1.3821914813e+00
 1.3490596663e+00	 1.1699630451e+00	-1.4955072978e+00
 1.3210173157e+00	 1.2015360011e+00	-1.5975960808e+00
 1.2922199044e+00	 1.2324541488e+00	-1.6886438617e+00
 1.2626906807e+00	 1.2626906807e+00	-1.7689633301e+00
 1.2324541488e+00	 1.2922199044e+00	-1.8389777223e+00
 1.2015360011e+00	 1.3210173157e+00	-1.8992018376e+00
 1.1699630451e+00	 1.3490596663e+00	-1.9502207120e+00
 1.1377631267e+00	 1.3763250262e+00	-1.9926665718e+00
 1.1049650486e+00	 1.4027928398e+00	-2.0271947647e+00
 1.4140151826e+00	 1.1138047690e+00	-1.2707352271e+00
 1.3873356264e+00	 1.1468652318e+00	-1.3950008976e+00
 1.3598521437e+00	 1.1793227495e+00	-1.5078383523e+00
 1.3315854542e+00	 1.2111482891e+00	-1.6093756523e+00
 1.3025576636e+00	 1.2423137820e+00	-1.6998885855e+00
 1.2727922061e+00	 1.2727922061e+00	-1.7797867673e+00
 1.2423137820e+00	 1.3025576636e+00	-1.8495962425e+00
 1.2111482891e+00	 1.3315854542e+00	-1.9099390284e+00
 1.1793227495e+00	 1.3598521437e+00	-1.9615101558e+00
 1.1468652318e+00	 1.3873356264e+00	-2.0050528643e+00
 1.1138047690e+00	 1.4140151826e+00	-2.0413326924e+00
 1.4252375253e+00	 1.1226444894e+00	-1.2830357779e+00
 1.3983462266e+00	 1.1559673368e+00	-1.4069964420e+00
 1.3706446210e+00	 1.1886824538e+00	-1.5193907931e+00
 1.3421535927e+00	 1.2207605771e+00	-1.6204298021e+00
 1.3128954228e+00	 1.2521734152e+00	-1.7104808951e+00
 1.2828937316e+00	 1.2828937316e+00	-1.7900529467e+00
 1.2521734152e+00	 1.3128954228e+00	-1.8597775551e+00
 1.2207605771e+00	 1.3421535927e+00	-1.9203870586e+00
 1.1886824538e+00	 1.3706446210e+00	-1.9726898811e+00
 1.1559673368e+00	 1.3983462266e+00	-2.0175439009e+00
 1.1226444894e+00	 1.4252375253e+00	-2.0558286213e+00
 1.4364598680e+00	 1.1314842098e+00	-1.2945314161e+00
 1.4093568268e+00	 1.1650694418e+00	-1.4181328250e+00
 1.3814370983e+00	 1.1980421582e+00	-1.5301140522e+00
 1.3527217313e+00	 1.2303728651e+00	-1.6307031048e+00
 1.3232331821e+00	 1.2620330484e+00	-1.7203609107e+00
 1.2929952570e+00	 1.2929952570e+00	-1.7996979311e+00
 1.2620330484e+00	 1.3232331821e+00	-1.8694540642e+00
 1.2303728651e+00	 1.3527217313e+00	-1.9304750828e+00
 1.1980421582e+00	 1.3814370983e+00	-1.9836862214e+00
 1.1650694418e+00	 1.4093568268e+00	-2.0300636465e+00
 1.1314842098e+00	 1.4364598680e+00	-2.0702074355e+00
 1.4476822107e+00	 1.1403239302e+00	-1.3053825972e+00
 1.4203674270e+00	 1.1741715468e+00	-1.4283650594e+00
 1.3922295757e+00	 1.2074018625e+00	-1.5399580155e+00
 1.3632898698e+00	 1.2399851531e+00	-1.6401406983e+00
 1.3335709413e+00	 1.2718926816e+00	-1.7294693862e+00
 1.3030967825e+00	 1.3030967825e+00	-1.8086584479e+00
 1.2718926816e+00	 1.3335709413e+00	-1.8785588331e+00
 1.2399851531e+00	 1.3632898698e+00	-1.9401328756e+00
 1.2074018625e+00	 1.3922295757e+00	-1.9944260590e+00
 1.1741715468e+00	 1.4203674270e+00	-2.0425365155e+00
 1.1403239302e+00	 1.4476822107e+00	-2.0832789640e+00
 1.4589045534e+00	 1.1491636506e+00	-1.3155762868e+00
 1.4313780272e+00	 1.1832736518e+00	-1.4376568993e+00
 1.4030220530e+00	 1.2167615669e+00	-1.5488731219e+00
 1.3738580083e+00	 1.2495974411e+00	-1.6486883800e+00
 1.3439087005e+00	 1.2817523148e+00	-1.7377478011e+00
 1.3131983079e+00	 1.3131983079e+00	-1.8168719786e+00
 1.2817523148e+00	 1.3439087005e+00	-1.8870256704e+00
 1.2495974411e+00	 1.3738580083e+00	-1.9492909140e+00
 1.2167615669e+00	 1.4030220530e+00	-2.0048369047e+00
 1.1832736518e+00	 1.4313780272e+00	-2.0548401784e+00
 1.1491636506e+00	 1.4589045534e+00	-2.0949509312e+00
 1.0607664467e+00	 1.3466811263e+00	-1.9646158488e+00
 1.0287345458e+00	 1.3713062183e+00	-1.9853333274e+00
 9.9618613905e-01	 1.3951303475e+00	-1.9996818378e+00
 9.6315113193e-01	 1.4181380071e+00	-2.0090056770e+00
 9.2966000672e-01	 1.4403151676e+00	-2.0134850432e+00
 8.9574373222e-01	 1.4616493001e+00	-2.0087735314e+00
 8.6143367282e-01	 1.4821293930e+00	-1.9954156165e+00
 8.2676149716e-01	 1.5017459629e+00	-1.9747334781e+00
 7.9175908712e-01	 1.5204910582e+00	-1.9479992195e+00
 7.5645844758e-01	 1.5383582571e+00	-1.9164291141e+00
 7.2089161737e-01	 1.5553426588e+00	-1.8811788482e+00
 1.0696061671e+00	 1.3579034690e+00	-1.9757887359e+00
 1.0373073337e+00	 1.3827337702e+00	-1.9974448931e+00
 1.0044876902e+00	 1.4067564337e+00	-2.0131837054e+00
 9.7117739137e-01	 1.4299558239e+00	-2.0243633049e+00
 9.3740717344e-01	 1.4523177940e+00	-2.0279503727e+00
 9.0320826332e-01	 1.4738297109e+00	-2.0218813309e+00
 8.6861228676e-01	 1.4944804713e+00	-2.0075143683e+00
 8.3365117630e-01	 1.5142605126e+00	-1.9861548983e+00
 7.9835707951e-01	 1.5331618171e+00	-1.9590489975e+00
 7.6276226797e-01	 1.5511779093e+00	-1.9273779000e+00
 7.2689904751e-01	 1.5683038476e+00	-1.8922535638e+00
 1.0784458875e+00	 1.3691258117e+00	-1.9877115271e+00
 1.0458801216e+00	 1.3941613220e+00	-2.0105912324e+00
 1.0127892414e+00	 1.4183825200e+00	-2.0280116488e+00
 9.7920365080e-01	 1.4417736406e+00	-2.0400722940e+00
 9.4515434016e-01	 1.4643204204e+00	-2.0421618070e+00
 9.1067279443e-01	 1.4860101217e+00	-2.0349291616e+00
 8.7579090070e-01	 1.5068315495e+00	-2.0197185925e+00
 8.4054085544e-01	 1.5267750623e+00	-1.9978119050e+00
 8.0495507191e-01	 1.5458325759e+00	-1.9704221410e+00
 7.6906608837e-01	 1.5639975614e+00	-1.9386883817e+00
 7.3290647765e-01	 1.5812650364e+00	-1.9036716937e+00
 1.0872856078e+00	 1.3803481544e+00	-2.0003057802e+00
 1.0544529095e+00	 1.4055888738e+00	-2.0246923118e+00
 1.0210907925e+00	 1.4300086062e+00	-2.0440681903e+00
 9.8722991023e-01	 1.4535914573e+00	-2.0552708269e+00
 9.5290150688e-01	 1.4763230468e+00	-2.0560735691e+00
 9.1813732553e-01	 1.4981905326e+00	-2.0478653038e+00
 8.8296951464e-01	 1.5191826278e+00	-2.0319698568e+00
 8.4743053459e-01	 1.5392896119e+00	-2.0096387486e+00
 8.1155306430e-01	 1.5585033347e+00	-1.9820451469e+00
 7.7536990877e-01	 1.5768172136e+00	-1.9502790335e+00
 7.3891390780e-01	 1.5942262252e+00	-1.9153435887e+00
 1.0961253282e+00	 1.3915704971e+00	-2.0134930106e+00
 1.0630256973e+00	 1.4170164256e+00	-2.0396679521e+00
 1.0293923437e+00	 1.4416346924e+00	-2.0601021437e+00
 9.9525616966e-01	 1.4654092740e+00	-2.0699200835e+00
 9.6064867361e-01	 1.4883256732e+00	-2.0696419268e+00
 9.2560185663e-01	 1.5103709434e+00	-2.0606402065e+00
 8.9014812858e-01	 1.5315337061e+00	-2.0442120433e+00
 8.5432021373e-01	 1.5518041616e+00	-2.0215721581e+00
 8.1815105669e-01	 1.5711740935e+00	-1.9938471663e+00
 7.8167372916e-01	 1.5896368657e+00	-1.9620711668e+00
 7.4492133794e-01	 1.6071874141e+00	-1.9271826208e+00
 1.1049650486e+00	 1.4027928398e+00	-2.0271947647e+00
 1.0715984852e+00	 1.4284439774e+00	-2.0554378976e+00
 1.0376938948e+00	 1.4532607787e+00	-2.0753301408e+00
 1.0032824291e+00	 1.4772270908e+00	-2.0839831544e+00
 9.6839584033e-01	 1.5003282996e+00	-2.0828251505e+00
 9.3306638773e-01	 1.5225513542e+00	-2.0732064390e+00
 8.9732674252e-01	 1.5438847844e+00	-2.0563912946e+00
 8.6120989287e-01	 1.5643187113e+00	-2.0335512795e+00
 8.2474904909e-01	 1.5838448523e+00	-2.0057599358e+00
 7.8797754956e-01	 1.6024565178e+00	-1.9739888537e+00
 7.5092876809e-01	 1.6201486029e+00	-1.9391050998e+00
 1.1138047690e+00	 1.4140151826e+00	-2.0413326924e+00
 1.0801712731e+00	 1.4398715293e+00	-2.0710595448e+00
 1.0459954460e+00	 1.4648868649e+00	-2.0897208758e+00
 1.0113086885e+00	 1.4890449075e+00	-2.0974250033e+00
 9.7614300705e-01	 1.5123309260e+00	-2.0955834707e+00
 9.4053091883e-01	 1.5347317651e+00	-2.0855186443e+00
 9.0450535646e-01	 1.5562358626e+00	-2.0684559612e+00
 8.6809957202e-01	 1.5768332610e+00	-2.0455176168e+00
 8.3134704148e-01	 1.5965156111e+00	-2.0177177117e+00
 7.9428136995e-01	 1.6152761700e+00	-1.9859588533e+00
 7.5693619823e-01	 1.6331097917e+00	-1.9510301914e+00
 1.1226444894e+00	 1.4252375253e+00	-2.0558286213e+00
 1.0887440610e+00	 1.4512990811e+00	-2.0855867144e+00
 1.0542969972e+00	 1.4765129511e+00	-2.1032448242e+00
 1.0193349480e+00	 1.5008627242e+00	-2.1102124294e+00
 9.8389017377e-01	 1.5243335524e+00	-2.1078790373e+00
 9.4799544993e-01	 1.5469121759e+00	-2.0975334932e+00
 9.1168397040e-01	 1.5685869409e+00	-2.0803565499e+00
 8.7498925116e-01	 1.5893478107e+00	-2.0574149748e+00
 8.3794503387e-01	 1.6091863700e+00	-2.0296572055e+00
 8.0058519035e-01	 1.6280958221e+00	-1.9979105416e+00
 7.6294362838e-01	 1.6460709805e+00	-1.9628798403e+00
 1.1314842098e+00	 1.4364598680e+00	-2.0702074355e+00
 1.0973168489e+00	 1.4627266329e+00	-2.0989940612e+00
 1.0625985483e+00	 1.4881390374e+00	-2.1158742087e+00
 1.0273612074e+00	 1.5126805409e+00	-2.1223140309e+00
 9.9163734050e-01	 1.5363361788e+00	-2.1196758795e+00
 9.5545998104e-01	 1.5590925867e+00	-2.1092096397e+00
 9.1886258434e-01	 1.5809380192e+00	-2.0920456743e+00
 8.8187893030e-01	 1.6018623604e+00	-2.0691894034e+00
 8.4454302626e-01	 1.6218571288e+00	-2.0415175230e+00
 8.0688901075e-01	 1.6409154743e+00	-2.0097758423e+00
 7.6895105852e-01	 1.6590321694e+00	-1.9745786947e+00
 1.1403239302e+00	 1.4476822107e+00	-2.0832789640e+00
 1.1058896367e+00	 1.4741541847e+00	-2.1112580451e+00
 1.0709000995e+00	 1.4997651236e+00	-2.1275829645e+00
 1.0353874668e+00	 1.5244983577e+00	-2.1337001687e+00
 9.9938450722e-01	 1.5483388052e+00	-2.1309398660e+00
 9.6292451214e-01	 1.5712729976e+00	-2.1205076777e+00
 9.2604119828e-01	 1.5932890975e+00	-2.1034780067e+00
 8.8876860945e-01	 1.6143769101e+00	-2.0807891438e+00
 8.5114101866e-01	 1.6345278876e+00	-2.0532401039e+00
 8.1319283114e-01	 1.6537351264e+00	-2.0214891619e+00
 7.7495848867e-01	 1.6719933582e+00	-1.9860540346e+00
 1.1491636506e+00	 1.4589045534e+00	-2.0949509312e+00
 1.1144624246e+00	 1.4855817365e+00	-2.1223567881e+00
 1.0792016506e+00	 1.5113912098e+00	-2.1383467066e+00
 1.0434137263e+00	 1.5363161744e+00	-2.1443429307e+00
 1.0071316739e+00	 1.5603414316e+00	-2.1416386667e+00
 9.7038904324e-01	 1.5834534084e+00	-2.1313900980e+00
 9.3321981222e-01	 1.6056401757e+00	-2.1146102304e+00
 8.9565828859e-01	 1.6268914598e+00	-2.0921645765e+00
 8.5773901105e-01	 1.6471986464e+00	-2.0647686641e+00
 8.1949665154e-01	 1.6665547786e+00	-2.0329873254e+00
 7.8096591881e-01	 1.6849545470e+00	-1.9972357021e+00
 7.2089161737e-01	 1.5553426588e+00	-1.8811788482e+00
 6.8509058205e-01	 1.5714408689e+00	-1.8416028276e+00
 6.4908718885e-01	 1.5866509797e+00	-1.7968874805e+00
 6.1291306414e-01	 1.6009725438e+00	-1.7478819328e+00
 5.7659953404e-01	 1.6144065435e+00	-1.6954249901e+00
 5.4017754822e-01	 1.6269553548e+00	-1.6403439793e+00
 5.0367760751e-01	 1.6386227076e+00	-1.5834540617e+00
 4.6712969528e-01	 1.6494136407e+00	-1.5255579921e+00
 4.3056321316e-01	 1.6593344538e+00	-1.4674463003e+00
 3.9400692099e-01	 1.6683926565e+00	-1.4098978617e+00
 3.5748888134e-01	 1.6765969134e+00	-1.3536808256e+00
 7.2689904751e-01	 1.5683038476e+00	-1.8922535638e+00
 6.9079967024e-01	 1.5845362095e+00	-1.8530969117e+00
 6.5449624876e-01	 1.5998730712e+00	-1.8091302249e+00
 6.1802067301e-01	 1.6143139817e+00	-1.7611221156e+00
 5.8140453016e-01	 1.6278599313e+00	-1.7098513834e+00
 5.4467902779e-01	 1.6405133161e+00	-1.6561055303e+00
 5.0787492090e-01	 1.6522778968e+00	-1.6006796040e+00
 4.7102244274e-01	 1.6631587543e+00	-1.5443753556e+00
 4.3415123994e-01	 1.6731622409e+00	-1.4880006967e+00
 3.9729031199e-01	 1.6822959287e+00	-1.4323694389e+00
 3.6046795535e-01	 1.6905685543e+00	-1.3783012970e+00
 7.3290647765e-01	 1.5812650364e+00	-1.9036716937e+00
 6.9650875842e-01	 1.5976315501e+00	-1.8649074830e+00
 6.5990530866e-01	 1.6130951627e+00	-1.8217058237e+00
 6.2312828188e-01	 1.6276554195e+00	-1.7747534721e+00
 5.8620952627e-01	 1.6413133192e+00	-1.7247677048e+00
 5.4918050736e-01	 1.6540712774e+00	-1.6724945215e+00
 5.1207223430e-01	 1.6659330861e+00	-1.6187070320e+00
 4.7491519020e-01	 1.6769038680e+00	-1.5642040248e+00
 4.3773926671e-01	 1.6869900281e+00	-1.5098087142e+00
 4.0057370300e-01	 1.6961992008e+00	-1.4563676615e+00
 3.6344702936e-01	 1.7045401953e+00	-1.4047498646e+00
 7.3891390780e-01	 1.5942262252e+00	-1.9153435887e+00
 7.0221784661e-01	 1.6107268907e+00	-1.8769360499e+00
 6.6531436857e-01	 1.6263172542e+00	-1.8345055087e+00
 6.2823589075e-01	 1.6409968574e+00	-1.7886555470e+00
 5.9101452239e-01	 1.6547667070e+00	-1.7400404325e+00
 5.5368198693e-01	 1.6676292387e+00	-1.6893630224e+00
 5.1626954769e-01	 1.6795882753e+00	-1.6373727078e+00
 4.7880793766e-01	 1.6906489817e+00	-1.5848634056e+00
 4.4132729349e-01	 1.7008178152e+00	-1.5326716084e+00
 4.0385709401e-01	 1.7101024730e+00	-1.4816745001e+00
 3.6642610337e-01	 1.7185118362e+00	-1.4327881441e+00
 7.4492133794e-01	 1.6071874141e+00	-1.9271826208e+00
 7.0792693479e-01	 1.6238222312e+00	-1.8890873491e+00
 6.7072342848e-01	 1.6395393457e+00	-1.8474239914e+00
 6.3334349962e-01	 1.6543382953e+00	-1.8027116607e+00
 5.9581951851e-01	 1.6682200949e+00	-1.7555401602e+00
 5.5818346650e-01	 1.6811872000e+00	-1.7065676018e+00
 5.2046686109e-01	 1.6932434645e+00	-1.6565179190e+00
 4.8270068512e-01	 1.7043940953e+00	-1.6061782966e+00
 4.4491532026e-01	 1.7146456023e+00	-1.5563965350e+00
 4.0714048502e-01	 1.7240057451e+00	-1.5080783719e+00
 3.6940517738e-01	 1.7324834771e+00	-1.4621847811e+00
 7.5092876809e-01	 1.6201486029e+00	-1.9391050998e+00
 7.1363602297e-01	 1.6369175718e+00	-1.9012692516e+00
 6.7613248839e-01	 1.6527614372e+00	-1.8603593585e+00
 6.3845110848e-01	 1.6676797331e+00	-1.8168087925e+00
 6.0062451462e-01	 1.6816734828e+00	-1.7711414669e+00
 5.6268494607e-01	 1.6947451613e+00	-1.7239691802e+00
 5.2466417448e-01	 1.7068986538e+00	-1.6759887123e+00
 4.8659343258e-01	 1.7181392090e+00	-1.6279787026e+00
 4.4850334704e-01	 1.7284733894e+00	-1.5807963411e+00
 4.1042387603e-01	 1.7379090172e+00	-1.5353739080e+00
 3.7238425139e-01	 1.7464551181e+00	-1.4927151938e+00
 7.5693619823e-01	 1.6331097917e+00	-1.9510301914e+00
 7.1934511116e-01	 1.6500129124e+00	-1.9133926743e+00
 6.8154154829e-01	 1.6659835287e+00	-1.8732129728e+00
 6.4355871735e-01	 1.6810211710e+00	-1.8308374695e+00
 6.0542951074e-01	 1.6951268706e+00	-1.7867227905e+00
 5.6718642564e-01	 1.7083031226e+00	-1.7414328890e+00
 5.2886148788e-01	 1.7205538430e+00	-1.6956357356e+00
 4.9048618004e-01	 1.7318843227e+00	-1.6500996573e+00
 4.5209137382e-01	 1.7423011765e+00	-1.6056893676e+00
 4.1370726704e-01	 1.7518122894e+00	-1.5633617334e+00
 3.7536332541e-01	 1.7604267590e+00	-1.5241613285e+00
 7.6294362838e-01	 1.6460709805e+00	-1.9628798403e+00
 7.2505419934e-01	 1.6631082530e+00	-1.9253714939e+00
 6.8695060820e-01	 1.6792056202e+00	-1.8858893781e+00
 6.4866632622e-01	 1.6943626089e+00	-1.8446916593e+00
 6.1023450686e-01	 1.7085802585e+00	-1.8021663085e+00
 5.7168790520e-01	 1.7218610839e+00	-1.7588279354e+00
 5.3305880128e-01	 1.7342090322e+00	-1.7153140860e+00
 4.9437892750e-01	 1.7456294364e+00	-1.6723810538e+00
 4.5567940059e-01	 1.7561289636e+00	-1.6308992591e+00
 4.1699065804e-01	 1.7657155615e+00	-1.5918482554e+00
 3.7834239942e-01	 1.7743984000e+00	-1.5563114253e+00
 7.6895105852e-01	 1.6590321694e+00	-1.9745786947e+00
 7.3076328752e-01	 1.6762035935e+00	-1.9371224643e+00
 6.9235966811e-01	 1.6924277117e+00	-1.8982962070e+00
 6.5377393509e-01	 1.7077040467e+00	-1.8582686683e+00
 6.1503950298e-01	 1.7220336464e+00	-1.8173578231e+00
 5.7618938477e-01	 1.7354190451e+00	-1.7760274738e+00
 5.3725611467e-01	 1.7478642215e+00	-1.7348831658e+00
 4.9827167496e-01	 1.7593745500e+00	-1.6946674823e+00
 4.5926742737e-01	 1.7699567508e+00	-1.6562547835e+00
 4.2027404905e-01	 1.7796188336e+00	-1.6206454632e+00
 3.8132147343e-01	 1.7883700409e+00	-1.5889597961e+00
 7.7495848867e-01	 1.6719933582e+00	-1.9860540346e+00
 7.3647237571e-01	 1.6892989341e+00	-1.9485651379e+00
 6.9776872801e-01	 1.7056498032e+00	-1.9103440936e+00
 6.5888154396e-01	 1.7210454846e+00	-1.8714690427e+00
 6.1984449909e-01	 1.7354870342e+00	-1.8321866511e+00
 5.8069086434e-01	 1.7489770064e+00	-1.7929084824e+00
 5.4145342807e-01	 1.7615194107e+00	-1.7542065440e+00
 5.0216442242e-01	 1.7731196637e+00	-1.7168080756e+00
 4.6285545415e-01	 1.7837845379e+00	-1.6815896594e+00
 4.2355744006e-01	 1.7935221058e+00	-1.6495707357e+00
 3.8430054744e-01	 1.8023416819e+00	-1.6219066112e+00
 7.8096591881e-01	 1.6849545470e+00	-1.9972357021e+00
 7.4218146389e-01	 1.7023942747e+00	-1.9596217892e+00
 7.0317778792e-01	 1.7188718947e+00	-1.9219465891e+00
 6.6398915282e-01	 1.7343869225e+00	-1.8841964755e+00
 6.2464949521e-01	 1.7489404221e+00	-1.8465455187e+00
 5.8519234391e-01	 1.7625349677e+00	-1.8093516451e+00
 5.4565074146e-01	 1.7751745999e+00	-1.7731518240e+00
 5.0605716989e-01	 1.7868647774e+00	-1.7386563616e+00
 4.6644348092e-01	 1.7976123250e+00	-1.7067423914e+00
 4.2684083107e-01	 1.8074253779e+00	-1.6784466582e+00
 3.8727962145e-01	 1.8163133228e+00	-1.6549576970e+00
 3.5748888134e-01	 1.6765969134e+00	-1.3536808256e+00
 3.2103640869e-01	 1.6839569871e+00	-1.2998425813e+00
 2.8467602329e-01	 1.6904836799e+00	-1.2485962675e+00
 2.4843340975e-01	 1.6961887723e+00	-1.1991922432e+00
 2.1233338048e-01	 1.7010849614e+00	-1.1505629337e+00
 1.7639984374e-01	 1.7051857979e+00	-1.1013577636e+00
 1.4065577646e-01	 1.7085056227e+00	-1.0499784153e+00
 1.0512320160e-01	 1.7110595030e+00	-9.9461406945e-01
 6.9823169954e-02	 1.7128631688e+00	-9.3327629986e-01
 3.4775746362e-02	 1.7139329502e+00	-8.6383332307e-01
 0.0000000000e+00	 1.7142857143e+00	-7.8404332400e-01
 3.6046795535e-01	 1.6905685543e+00	-1.3783012970e+00
 3.2371171210e-01	 1.6979899620e+00	-1.3259885795e+00
 2.8704832348e-01	 1.7045710439e+00	-1.2749539669e+00
 2.5050368817e-01	 1.7103236787e+00	-1.2247181940e+00
 2.1410282532e-01	 1.7152606694e+00	-1.1744315295e+00
 1.7786984244e-01	 1.7193956795e+00	-1.1229099975e+00
 1.4182790793e-01	 1.7227431695e+00	-1.0686722475e+00
 1.0599922828e-01	 1.7253183322e+00	-1.0099766940e+00
 7.0405029703e-02	 1.7271370286e+00	-9.4485856811e-01
 3.5065544248e-02	 1.7282157248e+00	-8.7116654388e-01
 0.0000000000e+00	 1.7285714286e+00	-7.8659862842e-01
 3.6344702936e-01	 1.7045401953e+00	-1.4047498646e+00
 3.2638701550e-01	 1.7120229369e+00	-1.3541713285e+00
 2.8942062368e-01	 1.7186584079e+00	-1.3033845270e+00
 2.5257396658e-01	 1.7244585851e+00	-1.2522428173e+00
 2.1587227016e-01	 1.7294363774e+00	-1.2001792272e+00
 1.7933984114e-01	 1.7336055612e+00	-1.1462433461e+00
 1.4300003940e-01	 1.7369807164e+00	-1.0891392051e+00
 1.0687525496e-01	 1.7395771613e+00	-1.0272637415e+00
 7.0986889453e-02	 1.7414108883e+00	-9.5874545645e-01
 3.5355342134e-02	 1.7424984993e+00	-8.8148289921e-01
 0.0000000000e+00	 1.7428571429e+00	-7.9318263462e-01
 3.6642610337e-01	 1.7185118362e+00	-1.4327881441e+00
 3.2906231891e-01	 1.7260559118e+00	-1.3841437947e+00
 2.9179292387e-01	 1.7327457719e+00	-1.3336556663e+00
 2.5464424500e-01	 1.7385934916e+00	-1.2815703934e+00
 2.1764171499e-01	 1.7436120854e+00	-1.2276670415e+00
 1.8080983983e-01	 1.7478154428e+00	-1.1712940549e+00
 1.4417217087e-01	 1.7512182633e+00	-1.1114075580e+00
 1.0775128164e-01	 1.7538359905e+00	-1.0466105744e+00
 7.1568749203e-02	 1.7556847481e+00	-9.7519274955e-01
 3.5645140021e-02	 1.7567812739e+00	-8.9517018095e-01
 0.0000000000e+00	 1.7571428571e+00	-8.0432498276e-01
 3.6940517738e-01	 1.7324834771e+00	-1.4621847811e+00
 3.3173762232e-01	 1.7400888867e+00	-1.4156661839e+00
 2.9416522407e-01	 1.7468331359e+00	-1.3655418022e+00
 2.5671452341e-01	 1.7527283980e+00	-1.3125106632e+00
 2.1941115983e-01	 1.7577877934e+00	-1.2567595632e+00
 1.8227983853e-01	 1.7620253245e+00	-1.1979994725e+00
 1.4534430234e-01	 1.7654558101e+00	-1.1355036714e+00
 1.0862730832e-01	 1.7680948197e+00	-1.0681471646e+00
 7.2150608952e-02	 1.7699586078e+00	-9.9444693468e-01
 3.5934937907e-02	 1.7710640485e+00	-9.1260261236e-01
 0.0000000000e+00	 1.7714285714e+00	-8.2053716561e-01
 3.7238425139e-01	 1.7464551181e+00	-1.4927151938e+00
 3.3441292572e-01	 1.7541218616e+00	-1.4485056740e+00
 2.9653752426e-01	 1.7609204999e+00	-1.3988238035e+00
 2.5878480183e-01	 1.7668633044e+00	-1.3448786266e+00
 2.2118060467e-01	 1.7719635014e+00	-1.2873248321e+00
 1.8374983723e-01	 1.7762352061e+00	-1.2262980189e+00
 1.4651643381e-01	 1.7796933570e+00	-1.1614520917e+00
 1.0950333500e-01	 1.7823536489e+00	-1.0919983167e+00
 7.2732468702e-02	 1.7842324675e+00	-1.0167455786e+00
 3.6224735793e-02	 1.7853468231e+00	-9.3414139332e-01
 0.0000000000e+00	 1.7857142857e+00	-8.4231325437e-01
 3.7536332541e-01	 1.7604267590e+00	-1.5241613285e+00
 3.3708822913e-01	 1.7681548365e+00	-1.4824361604e+00
 2.9890982445e-01	 1.7750078639e+00	-1.4332887531e+00
 2.6085508024e-01	 1.7809982109e+00	-1.3784943512e+00
 2.2295004951e-01	 1.7861392094e+00	-1.3192342142e+00
 1.8521983593e-01	 1.7904450878e+00	-1.2561291556e+00
 1.4768856528e-01	 1.7939309038e+00	-1.1892756291e+00
 1.1037936168e-01	 1.7966124781e+00	-1.1182838805e+00
 7.3314328452e-02	 1.7985063273e+00	-1.0423176865e+00
 3.6514533680e-02	 1.7996295977e+00	-9.6013521954e-01
 0.0000000000e+00	 1.8000000000e+00	-8.7013059008e-01
 3.7834239942e-01	 1.7743984000e+00	-1.5563114253e+00
 3.3976353253e-01	 1.7821878114e+00	-1.5172380124e+00
 3.0128212465e-01	 1.7890952279e+00	-1.4687297234e+00
 2.6292535866e-01	 1.7951331173e+00	-1.4131827904e+00
 2.2471949434e-01	 1.8003149174e+00	-1.3523622864e+00
 1.8668983463e-01	 1.8046549694e+00	-1.2874333568e+00
 1.4886069675e-01	 1.8081684507e+00	-1.2189954358e+00
 1.1125538836e-01	 1.8108713073e+00	-1.1471189533e+00
 7.3896188201e-02	 1.8127801870e+00	-1.0713840440e+00
 3.6804331566e-02	 1.8139123723e+00	-9.9092077734e-01
 0.0000000000e+00	 1.8142857143e+00	-9.0445044225e-01
 3.8132147343e-01	 1.7883700409e+00	-1.5889597961e+00
 3.4243883594e-01	 1.7962207863e+00	-1.5526978417e+00
 3.0365442484e-01	 1.8031825919e+00	-1.5049455607e+00
 2.6499563707e-01	 1.8092680237e+00	-1.4487736088e+00
 2.2648893918e-01	 1.8144906254e+00	-1.3865867248e+00
 1.8815983332e-01	 1.8188648511e+00	-1.3201520823e+00
 1.5003282823e-01	 1.8224059975e+00	-1.2506310802e+00
 1.1213141504e-01	 1.8251301365e+00	-1.1786140733e+00
 7.4478047951e-02	 1.8270540468e+00	-1.1041575432e+00
 3.7094129452e-02	 1.8281951468e+00	-1.0268232152e+00
 0.0000000000e+00	 1.8285714286e+00	-9.4571863664e-01
 3.8430054744e-01	 1.8023416819e+00	-1.6219066112e+00
 3.4511413934e-01	 1.8102537612e+00	-1.5886082815e+00
 3.0602672504e-01	 1.8172699559e+00	-1.5417406810e+00
 2.6706591549e-01	 1.8234029302e+00	-1.4851010166e+00
 2.2825838402e-01	 1.8286663335e+00	-1.4217881997e+00
 1.8962983202e-01	 1.8330747327e+00	-1.3542277513e+00
 1.5120495970e-01	 1.8366435444e+00	-1.2842006185e+00
 1.1300744172e-01	 1.8393889657e+00	-1.2128754032e+00
 7.5059907700e-02	 1.8413279065e+00	-1.1408434932e+00
 3.7383927339e-02	 1.8424779214e+00	-1.0681565931e+00
 0.0000000000e+00	 1.8428571429e+00	-9.9436615390e-01
 3.8727962145e-01	 1.8163133228e+00	-1.6549576970e+00
 3.4778944275e-01	 1.8242867361e+00	-1.6247677750e+00
 3.0839902523e-01	 1.8313573199e+00	-1.5789248735e+00
 2.6913619390e-01	 1.8375378366e+00	-1.5220036111e+00
 2.3002782885e-01	 1.8428420415e+00	-1.4578502743e+00
 1.9109983072e-01	 1.8472846144e+00	-1.3896037171e+00
 1.5237709117e-01	 1.8508810912e+00	-1.3197206621e+00
 1.1388346840e-01	 1.8536477949e+00	-1.2500049059e+00
 7.5641767450e-02	 1.8556017662e+00	-1.1816399168e+00
 3.7673725225e-02	 1.8567606960e+00	-1.1152243120e+00
 0.0000000000e+00	 1.8571428571e+00	-1.0508097005e+00
 1.8571428571e+00	 0.0000000000e+00	 3.1127773488e+00
 1.8567606960e+00	 3.7673725225e-02	 2.9931149064e+00
 1.8556017662e+00	 7.5641767450e-02	 2.8755602838e+00
 1.8536477949e+00	 1.1388346840e-01	 2.7595697473e+00
 1.8508810912e+00	 1.5237709117e-01	 2.6444024776e+00
 1.8472846144e+00	 1.9109983072e-01	 2.5291149798e+00
 1.8428420415e+00	 2.3002782885e-01	 2.4125567319e+00
 1.8375378366e+00	 2.6913619390e-01	 2.2933671765e+00
 1.8313573199e+00	 3.0839902523e-01	 2.1699741513e+00
 1.8242867361e+00	 3.4778944275e-01	 2.0405938422e+00
 1.8163133228e+00	 3.8727962145e-01	 1.9032323287e+00
 1.8714285714e+00	 0.0000000000e+00	 3.1492658427e+00
 1.8710434706e+00	 3.7963523111e-02	 3.0093257475e+00
 1.8698756260e+00	 7.6223627200e-02	 2.8760011376e+00
 1.8679066241e+00	 1.1475949508e-01	 2.7482914856e+00
 1.8651186381e+00	 1.5354922264e-01	 2.6249655641e+00
 1.8614944960e+00	 1.9256982942e-01	 2.5045580576e+00
 1.8570177495e+00	 2.3179727369e-01	 2.3853677907e+00
 1.8516727430e+00	 2.7120647231e-01	 2.2654576816e+00
 1.8454446839e+00	 3.1077132542e-01	 2.1426565117e+00
 1.8383197109e+00	 3.5046474616e-01	 2.0145625886e+00
 1.8302849638e+00	 3.9025869546e-01	 1.8785493614e+00
 1.8857142857e+00	 0.0000000000e+00	 3.1923871918e+00
 1.8853262452e+00	 3.8253320998e-02	 3.0286030431e+00
 1.8841494857e+00	 7.6805486949e-02	 2.8769931477e+00
 1.8821654533e+00	 1.1563552176e-01	 2.7359559497e+00
 1.8793561850e+00	 1.5472135411e-01	 2.6036237628e+00
 1.8757043777e+00	 1.9403982811e-01	 2.4778626358e+00
 1.8711934575e+00	 2.3356671853e-01	 2.3562742847e+00
 1.8658076495e+00	 2.7327675073e-01	 2.2362001971e+00
 1.8595320479e+00	 3.1314362562e-01	 2.1147279896e+00
 1.8523526858e+00	 3.5314004956e-01	 1.9887000839e+00
 1.8442566047e+00	 3.9323776947e-01	 1.8547247350e+00
 1.9000000000e+00	 0.0000000000e+00	 3.2427360293e+00
 1.8996090198e+00	 3.8543118884e-02	 3.0513543023e+00
 1.8984233455e+00	 7.7387346699e-02	 2.8787704258e+00
 1.8964242825e+00	 1.1651154844e-01	 2.7226409726e+00
 1.8935937318e+00	 1.5589348558e-01	 2.5803191608e+00
 1.8899142593e+00	 1.9550982681e-01	 2.4488590122e+00
 1.8853691655e+00	 2.3533616337e-01	 2.3250220985e+00
 1.8799425559e+00	 2.7534702914e-01	 2.2052869713e+00
 1.8736194119e+00	 3.1551592581e-01	 2.0858613427e+00
 1.8663856607e+00	 3.5581535297e-01	 1.9626970581e+00
 1.8582282457e+00	 3.9621684348e-01	 1.8315078687e+00
 1.9142857143e+00	 0.0000000000e+00	 3.3008897301e+00
 1.9138917944e+00	 3.8832916770e-02	 3.0779753397e+00
 1.9126972052e+00	 7.7969206448e-02	 2.8815605464e+00
 1.9106831116e+00	 1.1738757512e-01	 2.7084224985e+00
 1.9078312787e+00	 1.5706561705e-01	 2.5549959940e+00
 1.9041241410e+00	 1.9697982551e-01	 2.4173829579e+00
 1.8995448735e+00	 2.3710560820e-01	 2.2913650993e+00
 1.8940774624e+00	 2.7741730756e-01	 2.1724198281e+00
 1.8877067759e+00	 3.1788822601e-01	 2.0557394784e+00
 1.8804186356e+00	 3.5849065637e-01	 1.9362538490e+00
 1.8721998866e+00	 3.9919591749e-01	 1.8086560333e+00
 1.9285714286e+00	 0.0000000000e+00	 3.3674090490e+00
 1.9281745689e+00	 3.9122714657e-02	 3.1088507078e+00
 1.9269710649e+00	 7.8551066198e-02	 2.8855847865e+00
 1.9249419408e+00	 1.1826360180e-01	 2.6933746493e+00
 1.9220688255e+00	 1.5823774852e-01	 2.5276005631e+00
 1.9183340226e+00	 1.9844982421e-01	 2.3832755095e+00
 1.9137205815e+00	 2.3887505304e-01	 2.2550648354e+00
 1.9082123688e+00	 2.7948758597e-01	 2.1373098048e+00
 1.9017941399e+00	 3.2026052620e-01	 2.0240550705e+00
 1.8944516105e+00	 3.6116595978e-01	 1.9090800382e+00
 1.8861715275e+00	 4.0217499151e-01	 1.7859340512e+00
 1.9428571429e+00	 0.0000000000e+00	 3.4428387325e+00
 1.9424573435e+00	 3.9412512543e-02	 3.1443541094e+00
 1.9412449247e+00	 7.9132925948e-02	 2.8910583550e+00
 1.9392007700e+00	 1.1913962848e-01	 2.6775697881e+00
 1.9363063724e+00	 1.5940987999e-01	 2.4980811533e+00
 1.9325439043e+00	 1.9991982291e-01	 2.3463827697e+00
 1.9278962895e+00	 2.4064449788e-01	 2.2158902470e+00
 1.9223472752e+00	 2.8155786439e-01	 2.0996768066e+00
 1.9158815039e+00	 3.2263282639e-01	 1.9905101926e+00
 1.9084845854e+00	 3.6384126318e-01	 1.8808941025e+00
 1.9001431685e+00	 4.0515406552e-01	 1.7631140101e+00
 1.9571428571e+00	 0.0000000000e+00	 3.5277081029e+00
 1.9567401181e+00	 3.9702310430e-02	 3.1848487928e+00
 1.9555187844e+00	 7.9714785697e-02	 2.8981906115e+00
 1.9534595992e+00	 1.2001565516e-01	 2.6610785800e+00
 1.9505439192e+00	 1.6058201146e-01	 2.4663879574e+00
 1.9467537859e+00	 2.0138982160e-01	 2.3065557178e+00
 1.9420719975e+00	 2.4241394272e-01	 2.1736173913e+00
 1.9364821817e+00	 2.8362814280e-01	 2.0592492760e+00
 1.9299688679e+00	 3.2500512659e-01	 1.9548159671e+00
 1.9225175603e+00	 3.6651656659e-01	 1.8514230816e+00
 1.9141148094e+00	 4.0813313953e-01	 1.7399749886e+00
 1.9714285714e+00	 0.0000000000e+00	 3.6225316167e+00
 1.9710228927e+00	 3.9992108316e-02	 3.2306879287e+00
 1.9697926442e+00	 8.0296645447e-02	 2.9071852761e+00
 1.9677184284e+00	 1.2089168184e-01	 2.6439700505e+00
 1.9647814661e+00	 1.6175414293e-01	 2.4324730023e+00
 1.9609636676e+00	 2.0285982030e-01	 2.2636500271e+00
 1.9562477056e+00	 2.4418338755e-01	 2.1280291777e+00
 1.9506170881e+00	 2.8569842122e-01	 2.0157638769e+00
 1.9440562319e+00	 3.2737742678e-01	 1.9166922301e+00
 1.9365505352e+00	 3.6919187000e-01	 1.8204022589e+00
 1.9280864504e+00	 4.1111221354e-01	 1.7163027941e+00
 1.9857142857e+00	 0.0000000000e+00	 3.7278093999e+00
 1.9853056673e+00	 4.0281906202e-02	 3.2822149723e+00
 1.9840665039e+00	 8.0878505197e-02	 2.9182406300e+00
 1.9819772576e+00	 1.2176770852e-01	 2.6263116408e+00
 1.9790190129e+00	 1.6292627440e-01	 2.3962900792e+00
 1.9751735492e+00	 2.0432981900e-01	 2.2175258917e+00
 1.9704234136e+00	 2.4595283239e-01	 2.0789151160e+00
 1.9647519945e+00	 2.8776869963e-01	 1.9689651919e+00
 1.9581435959e+00	 3.2974972698e-01	 1.8758672105e+00
 1.9505835101e+00	 3.7186717340e-01	 1.7875748577e+00
 1.9420580913e+00	 4.1409128755e-01	 1.6918897122e+00
 2.0000000000e+00	 0.0000000000e+00	 3.8440277597e+00
 1.9995884419e+00	 4.0571704089e-02	 3.3397640086e+00
 1.9983403636e+00	 8.1460364946e-02	 2.9315497075e+00
 1.9962360868e+00	 1.2264373520e-01	 2.6081692614e+00
 1.9932565598e+00	 1.6409840587e-01	 2.3577946759e+00
 1.9893834309e+00	 2.0579981770e-01	 2.1680478593e+00
 1.9845991216e+00	 2.4772227723e-01	 2.0260710745e+00
 1.9788869010e+00	 2.8983897805e-01	 1.9186054333e+00
 1.9722309599e+00	 3.3212202717e-01	 1.8320772230e+00
 1.9646164850e+00	 3.7454247681e-01	 1.7526917489e+00
 1.9560297323e+00	 4.1707036156e-01	 1.6665342667e+00
 1.8163133228e+00	 3.8727962145e-01	 1.9032323287e+00
 1.8074253779e+00	 4.2684083107e-01	 1.7583866447e+00
 1.7976123250e+00	 4.6644348092e-01	 1.6084325591e+00
 1.7868647774e+00	 5.0605716989e-01	 1.4540151317e+00
 1.7751745999e+00	 5.4565074146e-01	 1.2957458333e+00
 1.7625349677e+00	 5.8519234391e-01	 1.1341993657e+00
 1.7489404221e+00	 6.2464949521e-01	 9.6991046665e-01
 1.7343869225e+00	 6.6398915282e-01	 8.0337070508e-01
 1.7188718947e+00	 7.0317778792e-01	 6.3502527812e-01
 1.7023942747e+00	 7.4218146389e-01	 4.6526983156e-01
 1.6849545470e+00	 7.8096591881e-01	 2.9444733507e-01
 1.8302849638e+00	 3.9025869546e-01	 1.8785493614e+00
 1.8213286501e+00	 4.3012422208e-01	 1.7348034994e+00
 1.8114401121e+00	 4.7003150770e-01	 1.5858275017e+00
 1.8006098911e+00	 5.0994991735e-01	 1.4322812244e+00
 1.7888297891e+00	 5.4984805486e-01	 1.2747911781e+00
 1.7760929290e+00	 5.8969382348e-01	 1.1139472468e+00
 1.7623938099e+00	 6.2945449133e-01	 9.5029937303e-01
 1.7477283603e+00	 6.6909676169e-01	 7.8435421172e-01
 1.7320939862e+00	 7.0858684783e-01	 6.1657176478e-01
 1.7154896153e+00	 7.4789055208e-01	 4.4736201631e-01
 1.6979157358e+00	 7.8697334896e-01	 2.7708160070e-01
 1.8442566047e+00	 3.9323776947e-01	 1.8547247350e+00
 1.8352319222e+00	 4.3340761308e-01	 1.7125446378e+00
 1.8252678992e+00	 4.7361953448e-01	 1.5647698493e+00
 1.8143550047e+00	 5.1384266481e-01	 1.4121186713e+00
 1.8024849784e+00	 5.5404536826e-01	 1.2552755506e+00
 1.7896508903e+00	 5.9419530305e-01	 1.0948873358e+00
 1.7758471978e+00	 6.3425948744e-01	 9.3155947191e-01
 1.7610697982e+00	 6.7420437056e-01	 7.6585214028e-01
 1.7453160777e+00	 7.1399590773e-01	 5.9827635568e-01
 1.7285849558e+00	 7.5359964026e-01	 4.2929004425e-01
 1.7108769247e+00	 7.9298077910e-01	 2.5929413807e-01
 1.8582282457e+00	 3.9621684348e-01	 1.8315078687e+00
 1.8491351943e+00	 4.3669100409e-01	 1.6914365608e+00
 1.8390956863e+00	 4.7720756125e-01	 1.5451564931e+00
 1.8281001184e+00	 5.1773541227e-01	 1.3934871241e+00
 1.8161401676e+00	 5.5824268165e-01	 1.2372128101e+00
 1.8032088516e+00	 5.9869678261e-01	 1.0770782403e+00
 1.7893005857e+00	 6.3906448356e-01	 9.1378377816e-01
 1.7744112360e+00	 6.7931197943e-01	 7.4798071798e-01
 1.7585381692e+00	 7.1940496764e-01	 5.8026647434e-01
 1.7416802964e+00	 7.5930872844e-01	 4.1117973549e-01
 1.7238381135e+00	 7.9898820925e-01	 2.4119562271e-01
 1.8721998866e+00	 3.9919591749e-01	 1.8086560333e+00
 1.8630384665e+00	 4.3997439510e-01	 1.6713113168e+00
 1.8529234734e+00	 4.8079558803e-01	 1.5268877679e+00
 1.8418452321e+00	 5.2162815973e-01	 1.3763478033e+00
 1.8297953568e+00	 5.6243999505e-01	 1.2206167643e+00
 1.8167668129e+00	 6.0319826218e-01	 1.0605771792e+00
 1.8027539735e+00	 6.4386947968e-01	 8.9706288997e-01
 1.7877526739e+00	 6.8441958829e-01	 7.3085306153e-01
 1.7717602607e+00	 7.2481402755e-01	 5.6266609872e-01
 1.7547756370e+00	 7.6501781663e-01	 3.9315351183e-01
 1.7367993023e+00	 8.0499563939e-01	 2.2289378368e-01
 1.8861715275e+00	 4.0217499151e-01	 1.7859340512e+00
 1.8769417386e+00	 4.4325778611e-01	 1.6520062863e+00
 1.8667512606e+00	 4.8438361480e-01	 1.5098673141e+00
 1.8555903457e+00	 5.2552090719e-01	 1.3606634278e+00
 1.8434505461e+00	 5.6663730844e-01	 1.2055011595e+00
 1.8303247742e+00	 6.0769974175e-01	 1.0454400219e+00
 1.8162073614e+00	 6.4867447579e-01	 8.8148506509e-01
 1.8010941118e+00	 6.8952719716e-01	 7.1457927829e-01
 1.7849823522e+00	 7.3022308746e-01	 5.4559587405e-01
 1.7678709776e+00	 7.7072690481e-01	 3.7533050707e-01
 1.7497604911e+00	 8.1100306954e-01	 2.0449349628e-01
 1.9001431685e+00	 4.0515406552e-01	 1.7631140101e+00
 1.8908450108e+00	 4.4654117712e-01	 1.6333639760e+00
 1.8805790477e+00	 4.8797164158e-01	 1.4940019460e+00
 1.8693354594e+00	 5.2941365465e-01	 1.3463981497e+00
 1.8571057353e+00	 5.7083462184e-01	 1.1918796714e+00
 1.8438827355e+00	 6.1220122132e-01	 1.0317213256e+00
 1.8296607492e+00	 6.5347947191e-01	 8.6713629388e-01
 1.8144355496e+00	 6.9463480603e-01	 6.9926656320e-01
 1.7982044437e+00	 7.3563214736e-01	 5.2917322083e-01
 1.7809663181e+00	 7.7643599299e-01	 3.5782667254e-01
 1.7627216799e+00	 8.1701049968e-01	 1.8609687080e-01
 1.9141148094e+00	 4.0813313953e-01	 1.7399749886e+00
 1.9047482829e+00	 4.4982456813e-01	 1.6152318226e+00
 1.8944068348e+00	 4.9155966836e-01	 1.4792015255e+00
 1.8830805731e+00	 5.3330640211e-01	 1.3335174907e+00
 1.8707609245e+00	 5.7503193524e-01	 1.1797658956e+00
 1.8574406968e+00	 6.1670270089e-01	 1.0194743708e+00
 1.8431141371e+00	 6.5828446803e-01	 8.5410036920e-01
 1.8277769875e+00	 6.9974241490e-01	 6.8501929144e-01
 1.8114265352e+00	 7.4104120727e-01	 5.1351243825e-01
 1.7940616587e+00	 7.8214508118e-01	 3.4075487817e-01
 1.7756828688e+00	 8.2301792983e-01	 1.6780333744e-01
 1.9280864504e+00	 4.1111221354e-01	 1.7163027941e+00
 1.9186515550e+00	 4.5310795913e-01	 1.5974620042e+00
 1.9082346219e+00	 4.9514769513e-01	 1.4653788415e+00
 1.8968256868e+00	 5.3719914957e-01	 1.3219882821e+00
 1.8844161138e+00	 5.7922924863e-01	 1.1691733401e+00
 1.8709986581e+00	 6.2120418046e-01	 1.0087511957e+00
 1.8565675250e+00	 6.6308946415e-01	 8.4245895344e-01
 1.8411184254e+00	 7.0485002377e-01	 6.7193910737e-01
 1.8246486267e+00	 7.4645026718e-01	 4.9872480315e-01
 1.8071569993e+00	 7.8785416936e-01	 3.2422500924e-01
 1.7886440576e+00	 8.2902535997e-01	 1.4970972783e-01
 1.9420580913e+00	 4.1409128755e-01	 1.6918897122e+00
 1.9325548272e+00	 4.5639135014e-01	 1.5799112609e+00
 1.9220624090e+00	 4.9873572191e-01	 1.4524494951e+00
 1.9105708004e+00	 5.4109189703e-01	 1.3117786067e+00
 1.8980713030e+00	 5.8342656203e-01	 1.1601154164e+00
 1.8845566193e+00	 6.2570566003e-01	 9.9960262910e-01
 1.8700209128e+00	 6.6789446026e-01	 8.3229164268e-01
 1.8544598632e+00	 7.0995763263e-01	 6.6012500958e-01
 1.8378707182e+00	 7.5185932708e-01	 4.8491866496e-01
 1.8202523399e+00	 7.9356325755e-01	 3.0834405918e-01
 1.8016052464e+00	 8.3503279012e-01	 1.3191035295e-01
 1.9560297323e+00	 4.1707036156e-01	 1.6665342667e+00
 1.9464580993e+00	 4.5967474115e-01	 1.5624407223e+00
 1.9358901961e+00	 5.0232374869e-01	 1.4403317893e+00
 1.9243159141e+00	 5.4498464449e-01	 1.3028577443e+00
 1.9117264922e+00	 5.8762387542e-01	 1.1526054327e+00
 1.8981145806e+00	 6.3020713959e-01	 9.9207832224e-01
 1.8834743007e+00	 6.7269945638e-01	 8.2367602834e-01
 1.8678013011e+00	 7.1506524150e-01	 6.4967343249e-01
 1.8510928097e+00	 7.5726838699e-01	 4.7219953659e-01
 1.8333476804e+00	 7.9927234573e-01	 2.9321621840e-01
 1.8145664352e+00	 8.4104022026e-01	 1.1449707804e-01
 1.6849545470e+00	 7.8096591881e-01	 2.9444733507e-01
 1.6665547786e+00	 8.1949665154e-01	 1.2183847351e-01
 1.6471986464e+00	 8.5773901105e-01	-5.2343107545e-02
 1.6268914598e+00	 8.9565828859e-01	-2.2642563700e-01
 1.6056401757e+00	 9.3321981222e-01	-3.9878715267e-01
 1.5834534084e+00	 9.7038904324e-01	-5.6786891684e-01
 1.5603414316e+00	 1.0071316739e+00	-7.3218864751e-01
 1.5363161744e+00	 1.0434137263e+00	-8.9035334649e-01
 1.5113912098e+00	 1.0792016506e+00	-1.0410714939e+00
 1.4855817365e+00	 1.1144624246e+00	-1.1831643728e+00
 1.4589045534e+00	 1.1491636506e+00	-1.3155762868e+00
 1.6979157358e+00	 7.8697334896e-01	 2.7708160070e-01
 1.6793744307e+00	 8.2580047194e-01	 1.0503627060e-01
 1.6598694052e+00	 8.6433700344e-01	-6.8542599072e-02
 1.6394060095e+00	 9.0254796773e-01	-2.4198047151e-01
 1.6179912540e+00	 9.4039842616e-01	-4.1365182634e-01
 1.5956338192e+00	 9.7785357434e-01	-5.8199385710e-01
 1.5723440580e+00	 1.0148788407e+00	-7.4552000856e-01
 1.5481339911e+00	 1.0514399857e+00	-9.0283312870e-01
 1.5230172960e+00	 1.0875032018e+00	-1.0526379977e+00
 1.4970092884e+00	 1.1230352125e+00	-1.1937529896e+00
 1.4701268962e+00	 1.1580033710e+00	-1.3251206199e+00
 1.7108769247e+00	 7.9298077910e-01	 2.5929413807e-01
 1.6921940828e+00	 8.3210429233e-01	 8.7648462979e-02
 1.6725401641e+00	 8.7093499583e-01	-8.5396405378e-02
 1.6519205592e+00	 9.0943764687e-01	-2.5817662630e-01
 1.6303423323e+00	 9.4757704010e-01	-4.2907698567e-01
 1.6078142301e+00	 9.8531810544e-01	-5.9654479071e-01
 1.5843466844e+00	 1.0226260074e+00	-7.5910362527e-01
 1.5599518078e+00	 1.0594662451e+00	-9.1536673486e-01
 1.5346433823e+00	 1.0958047530e+00	-1.0640497971e+00
 1.5084368402e+00	 1.1316080004e+00	-1.2039828256e+00
 1.4813492389e+00	 1.1668430913e+00	-1.3341209526e+00
 1.7238381135e+00	 7.9898820925e-01	 2.4119562271e-01
 1.7050137350e+00	 8.3840811273e-01	 6.9763110293e-02
 1.6852109229e+00	 8.7753298823e-01	-1.0283984380e-01
 1.6644351089e+00	 9.1632732602e-01	-2.7497329907e-01
 1.6426934106e+00	 9.5475565404e-01	-4.4504594930e-01
 1.6199946409e+00	 9.9278263655e-01	-6.1152913113e-01
 1.5963493108e+00	 1.0303731741e+00	-7.7297071074e-01
 1.5717696246e+00	 1.0674925046e+00	-9.2800861240e-01
 1.5462694685e+00	 1.1041063041e+00	-1.0753837388e+00
 1.5198643920e+00	 1.1401807883e+00	-1.2139520241e+00
 1.4925715816e+00	 1.1756828117e+00	-1.3426953583e+00
 1.7367993023e+00	 8.0499563939e-01	 2.2289378368e-01
 1.7178333871e+00	 8.4471193313e-01	 5.1466001159e-02
 1.6978816817e+00	 8.8413098062e-01	-1.2080980376e-01
 1.6769496585e+00	 9.2321700516e-01	-2.9233054451e-01
 1.6550444888e+00	 9.6193426798e-01	-4.6154216896e-01
 1.6321750517e+00	 1.0002471676e+00	-6.2695369990e-01
 1.6083519372e+00	 1.0381203408e+00	-7.8715116748e-01
 1.5835874413e+00	 1.0755187640e+00	-9.4081119335e-01
 1.5578955547e+00	 1.1124078553e+00	-1.0867139707e+00
 1.5312919438e+00	 1.1487535762e+00	-1.2237553754e+00
 1.5037939243e+00	 1.1845225321e+00	-1.3509579387e+00
 1.7497604911e+00	 8.1100306954e-01	 2.0449349628e-01
 1.7306530393e+00	 8.5101575352e-01	 3.2840719924e-02
 1.7105524405e+00	 8.9072897301e-01	-1.3924470683e-01
 1.6894642082e+00	 9.3010668430e-01	-3.1020926174e-01
 1.6673955671e+00	 9.6911288192e-01	-4.7854924484e-01
 1.6443554626e+00	 1.0077116987e+00	-6.4282476980e-01
 1.6203545636e+00	 1.0458675076e+00	-8.0167365815e-01
 1.5954052580e+00	 1.0835450234e+00	-9.5382499223e-01
 1.5695216410e+00	 1.1207094064e+00	-1.0981120664e+00
 1.5427194956e+00	 1.1573263640e+00	-1.2334844657e+00
 1.5150162670e+00	 1.1933622525e+00	-1.3590189974e+00
 1.7627216799e+00	 8.1701049968e-01	 1.8609687080e-01
 1.7434726914e+00	 8.5731957392e-01	 1.3968710648e-02
 1.7232231993e+00	 8.9732696540e-01	-1.5808446836e-01
 1.7019787579e+00	 9.3699636345e-01	-3.2857118226e-01
 1.6797466454e+00	 9.7629149586e-01	-4.9605093999e-01
 1.6565358734e+00	 1.0151762299e+00	-6.5914810596e-01
 1.6323571900e+00	 1.0536146743e+00	-8.1656567314e-01
 1.6072230747e+00	 1.0915712829e+00	-9.6709869953e-01
 1.5811477272e+00	 1.1290109576e+00	-1.1096471432e+00
 1.5541470475e+00	 1.1658991519e+00	-1.2432278201e+00
 1.5262386098e+00	 1.2022019729e+00	-1.3669852048e+00
 1.7756828688e+00	 8.2301792983e-01	 1.6780333744e-01
 1.7562923436e+00	 8.6362339432e-01	-5.0706615992e-03
 1.7358939581e+00	 9.0392495780e-01	-1.7727046072e-01
 1.7144933076e+00	 9.4388604259e-01	-3.4737885822e-01
 1.6920977237e+00	 9.8347010980e-01	-5.1403119411e-01
 1.6687162842e+00	 1.0226407610e+00	-6.7592900508e-01
 1.6443598164e+00	 1.0613618410e+00	-8.3185359505e-01
 1.6190408915e+00	 1.0995975423e+00	-9.8067927101e-01
 1.5927738134e+00	 1.1373125088e+00	-1.1213859760e+00
 1.5655745993e+00	 1.1744719398e+00	-1.2530710390e+00
 1.5374609525e+00	 1.2110416933e+00	-1.3749597568e+00
 1.7886440576e+00	 8.2902535997e-01	 1.4970972783e-01
 1.7691119957e+00	 8.6992721471e-01	-2.4200051968e-02
 1.7485647170e+00	 9.1052295019e-01	-1.9674547795e-01
 1.7270078573e+00	 9.5077572173e-01	-3.6659565117e-01
 1.7044488019e+00	 9.9064872374e-01	-5.3247413651e-01
 1.6808966951e+00	 1.0301052921e+00	-6.9317233280e-01
 1.6563624428e+00	 1.0691090077e+00	-8.4756276025e-01
 1.6308587082e+00	 1.1076238017e+00	-9.9461201297e-01
 1.6043998996e+00	 1.1456140599e+00	-1.1333931054e+00
 1.5770021511e+00	 1.1830447277e+00	-1.2630969283e+00
 1.5486832952e+00	 1.2198814137e+00	-1.3830425258e+00
 1.8016052464e+00	 8.3503279012e-01	 1.3191035295e-01
 1.7819316478e+00	 8.7623103511e-01	-4.3344079467e-02
 1.7612354758e+00	 9.1712094258e-01	-2.1645370186e-01
 1.7395224070e+00	 9.5766540088e-01	-3.8618572102e-01
 1.7167998802e+00	 9.9782733768e-01	-5.5136409846e-01
 1.6930771059e+00	 1.0375698232e+00	-7.1088255936e-01
 1.6683650692e+00	 1.0768561744e+00	-8.6371751767e-01
 1.6426765249e+00	 1.1156500612e+00	-1.0089406638e+00
 1.6160259859e+00	 1.1539156111e+00	-1.1457309412e+00
 1.5884297029e+00	 1.1916175156e+00	-1.2733856244e+00
 1.5599056379e+00	 1.2287211341e+00	-1.3913302056e+00
 1.8145664352e+00	 8.4104022026e-01	 1.1449707804e-01
 1.7947513000e+00	 8.8253485551e-01	-6.2429272887e-02
 1.7739062346e+00	 9.2371893498e-01	-2.3634066945e-01
 1.7520369567e+00	 9.6455508002e-01	-4.0611401551e-01
 1.7291509585e+00	 1.0050059516e+00	-5.7068562486e-01
 1.7052575167e+00	 1.0450343543e+00	-7.2906379361e-01
 1.6803676956e+00	 1.0846033412e+00	-8.8034128499e-01
 1.6544943416e+00	 1.1236763206e+00	-1.0237074719e+00
 1.6276520721e+00	 1.1622171622e+00	-1.1584598616e+00
 1.5998572547e+00	 1.2001903034e+00	-1.2840147131e+00
 1.5711279806e+00	 1.2375608545e+00	-1.3999164495e+00
 1.4589045534e+00	 1.1491636506e+00	-1.3155762868e+00
 1.4313780272e+00	 1.1832736518e+00	-1.4376568993e+00
 1.4030220530e+00	 1.2167615669e+00	-1.5488731219e+00
 1.3738580083e+00	 1.2495974411e+00	-1.6486883800e+00
 1.3439087005e+00	 1.2817523148e+00	-1.7377478011e+00
 1.3131983079e+00	 1.3131983079e+00	-1.8168719786e+00
 1.2817523148e+00	 1.3439087005e+00	-1.8870256704e+00
 1.2495974411e+00	 1.3738580083e+00	-1.9492909140e+00
 1.2167615669e+00	 1.4030220530e+00	-2.0048369047e+00
 1.1832736518e+00	 1.4313780272e+00	-2.0548401784e+00
 1.1491636506e+00	 1.4589045534e+00	-2.0949509312e+00
 1.4701268962e+00	 1.1580033710e+00	-1.3251206199e+00
 1.4423886274e+00	 1.1923757568e+00	-1.4461265407e+00
 1.4138145303e+00	 1.2261212713e+00	-1.5567634359e+00
 1.3844261468e+00	 1.2592097291e+00	-1.6562434501e+00
 1.3542464598e+00	 1.2916119480e+00	-1.7451160413e+00
 1.3232998334e+00	 1.3232998334e+00	-1.8243108544e+00
 1.2916119480e+00	 1.3542464598e+00	-1.8949077476e+00
 1.2592097291e+00	 1.3844261468e+00	-1.9581081617e+00
 1.2261212713e+00	 1.4138145303e+00	-2.0152030624e+00
 1.1923757568e+00	 1.4423886274e+00	-2.0664076001e+00
 1.1580033710e+00	 1.4701268962e+00	-2.1058435925e+00
 1.4813492389e+00	 1.1668430913e+00	-1.3341209526e+00
 1.4533992276e+00	 1.2014778618e+00	-1.4539053886e+00
 1.4246070076e+00	 1.2354809756e+00	-1.5636480822e+00
 1.3949942854e+00	 1.2688220171e+00	-1.6628140658e+00
 1.3645842190e+00	 1.3014715812e+00	-1.7515918288e+00
 1.3334013588e+00	 1.3334013588e+00	-1.8310233547e+00
 1.3014715812e+00	 1.3645842190e+00	-1.9023034158e+00
 1.2688220171e+00	 1.3949942854e+00	-1.9667491421e+00
 1.2354809756e+00	 1.4246070076e+00	-2.0257659898e+00
 1.2014778618e+00	 1.4533992276e+00	-2.0772090075e+00
 1.1668430913e+00	 1.4813492389e+00	-2.1164127178e+00
 1.4925715816e+00	 1.1756828117e+00	-1.3426953583e+00
 1.4644098278e+00	 1.2105799668e+00	-1.4611247397e+00
 1.4353994850e+00	 1.2448406800e+00	-1.5696961956e+00
 1.4055624239e+00	 1.2784343051e+00	-1.6685098626e+00
 1.3749219782e+00	 1.3113312144e+00	-1.7572614828e+00
 1.3435028843e+00	 1.3435028843e+00	-1.8370597411e+00
 1.3113312144e+00	 1.3749219782e+00	-1.9092141305e+00
 1.2784343051e+00	 1.4055624239e+00	-1.9751538147e+00
 1.2448406800e+00	 1.4353994850e+00	-2.0361336972e+00
 1.2105799668e+00	 1.4644098278e+00	-2.0870821657e+00
 1.1756828117e+00	 1.4925715816e+00	-2.1263991020e+00
 1.5037939243e+00	 1.1845225321e+00	-1.3509579387e+00
 1.4754204280e+00	 1.2196820719e+00	-1.4679114956e+00
 1.4461919623e+00	 1.2542003843e+00	-1.5752079088e+00
 1.4161305624e+00	 1.2880465931e+00	-1.6734367013e+00
 1.3852597375e+00	 1.3211908475e+00	-1.7622081731e+00
 1.3536044097e+00	 1.3536044097e+00	-1.8424681009e+00
 1.3211908475e+00	 1.3852597375e+00	-1.9156404980e+00
 1.2880465931e+00	 1.4161305624e+00	-1.9832629680e+00
 1.2542003843e+00	 1.4461919623e+00	-2.0452567236e+00
 1.2196820719e+00	 1.4754204280e+00	-2.0958708193e+00
 1.1845225321e+00	 1.5037939243e+00	-2.1355523594e+00
 1.5150162670e+00	 1.1933622525e+00	-1.3590189974e+00
 1.4864310283e+00	 1.2287841769e+00	-1.4743883531e+00
 1.4569844396e+00	 1.2635600887e+00	-1.5803231638e+00
 1.4266987009e+00	 1.2976588812e+00	-1.6776969406e+00
 1.3955974967e+00	 1.3310504807e+00	-1.7665121691e+00
 1.3637059351e+00	 1.3637059351e+00	-1.8472945566e+00
 1.3310504807e+00	 1.3955974967e+00	-1.9215824331e+00
 1.2976588812e+00	 1.4266987009e+00	-1.9910183102e+00
 1.2635600887e+00	 1.4569844396e+00	-2.0529762417e+00
 1.2287841769e+00	 1.4864310283e+00	-2.1034244972e+00
 1.1933622525e+00	 1.5150162670e+00	-2.1436306218e+00
 1.5262386098e+00	 1.2022019729e+00	-1.3669852048e+00
 1.4974416285e+00	 1.2378862819e+00	-1.4806739852e+00
 1.4677769170e+00	 1.2729197931e+00	-1.5851616158e+00
 1.4372668395e+00	 1.3072711692e+00	-1.6814674044e+00
 1.4059352559e+00	 1.3409101139e+00	-1.7702510811e+00
 1.3738074606e+00	 1.3738074606e+00	-1.8515834713e+00
 1.3409101139e+00	 1.4059352559e+00	-1.9270393141e+00
 1.3072711692e+00	 1.4372668395e+00	-1.9979801598e+00
 1.2729197931e+00	 1.4677769170e+00	-2.0592249474e+00
 1.2378862819e+00	 1.4974416285e+00	-2.1095983242e+00
 1.2022019729e+00	 1.5262386098e+00	-2.1504002499e+00
 1.5374609525e+00	 1.2110416933e+00	-1.3749597568e+00
 1.5084522287e+00	 1.2469883869e+00	-1.4868832145e+00
 1.4785693943e+00	 1.2822794974e+00	-1.5898390100e+00
 1.4478349780e+00	 1.3168834572e+00	-1.6849976792e+00
 1.4162730152e+00	 1.3507697471e+00	-1.7735000958e+00
 1.3839089860e+00	 1.3839089860e+00	-1.8553776485e+00
 1.3507697471e+00	 1.4162730152e+00	-1.9320101339e+00
 1.3168834572e+00	 1.4478349780e+00	-2.0033940381e+00
 1.2822794974e+00	 1.4785693943e+00	-2.0639387399e+00
 1.2469883869e+00	 1.5084522287e+00	-2.1142528399e+00
 1.2110416933e+00	 1.5374609525e+00	-2.1556355560e+00
 1.5486832952e+00	 1.2198814137e+00	-1.3830425258e+00
 1.5194628289e+00	 1.2560904919e+00	-1.4931271790e+00
 1.4893618716e+00	 1.2916392018e+00	-1.5944673502e+00
 1.4584031165e+00	 1.3264957452e+00	-1.6883936016e+00
 1.4266107744e+00	 1.3606293803e+00	-1.7763322040e+00
 1.3940105115e+00	 1.3940105115e+00	-1.8587185271e+00
 1.3606293803e+00	 1.4266107744e+00	-1.9364936496e+00
 1.3264957452e+00	 1.4584031165e+00	-2.0072434388e+00
 1.2916392018e+00	 1.4893618716e+00	-2.0670566279e+00
 1.2560904919e+00	 1.5194628289e+00	-2.1172538242e+00
 1.2198814137e+00	 1.5486832952e+00	-2.1591185371e+00
 1.5599056379e+00	 1.2287211341e+00	-1.3913302056e+00
 1.5304734291e+00	 1.2651925969e+00	-1.4995134905e+00
 1.5001543490e+00	 1.3009989061e+00	-1.5991550605e+00
 1.4689712550e+00	 1.3361080332e+00	-1.6917541200e+00
 1.4369485336e+00	 1.3704890135e+00	-1.7788882936e+00
 1.4041120369e+00	 1.4041120369e+00	-1.8616463719e+00
 1.3704890135e+00	 1.4369485336e+00	-1.9401664397e+00
 1.3361080332e+00	 1.4689712550e+00	-2.0095311586e+00
 1.3009989061e+00	 1.5001543490e+00	-2.0685206385e+00
 1.2651925969e+00	 1.5304734291e+00	-2.1184721291e+00
 1.2287211341e+00	 1.5599056379e+00	-2.1606386187e+00
 1.5711279806e+00	 1.2375608545e+00	-1.3999164495e+00
 1.5414840293e+00	 1.2742947019e+00	-1.5061463864e+00
 1.5109468263e+00	 1.3103586105e+00	-1.6040071392e+00
 1.4795393936e+00	 1.3457203212e+00	-1.6951749937e+00
 1.4472862929e+00	 1.3803486467e+00	-1.7813804501e+00
 1.4142135624e+00	 1.4142135624e+00	-1.8642004593e+00
 1.3803486467e+00	 1.4472862929e+00	-1.9424155074e+00
 1.3457203212e+00	 1.4795393936e+00	-2.0102612401e+00
 1.3103586105e+00	 1.5109468263e+00	-2.0682757282e+00
 1.2742947019e+00	 1.5414840293e+00	-2.1177835165e+00
 1.2375608545e+00	 1.5711279806e+00	-2.1599924085e+00
 1.1491636506e+00	 1.4589045534e+00	-2.0949509312e+00
 1.1144624246e+00	 1.4855817365e+00	-2.1223567881e+00
 1.0792016506e+00	 1.5113912098e+00	-2.1383467066e+00
 1.0434137263e+00	 1.5363161744e+00	-2.1443429307e+00
 1.0071316739e+00	 1.5603414316e+00	-2.1416386667e+00
 9.7038904324e-01	 1.5834534084e+00	-2.1313900980e+00
 9.3321981222e-01	 1.6056401757e+00	-2.1146102304e+00
 8.9565828859e-01	 1.6268914598e+00	-2.0921645765e+00
 8.5773901105e-01	 1.6471986464e+00	-2.0647686641e+00
 8.1949665154e-01	 1.6665547786e+00	-2.0329873254e+00
 7.8096591881e-01	 1.6849545470e+00	-1.9972357021e+00
 1.1580033710e+00	 1.4701268962e+00	-2.1058435925e+00
 1.1230352125e+00	 1.4970092884e+00	-2.1330455700e+00
 1.0875032018e+00	 1.5230172960e+00	-2.1490318863e+00
 1.0514399857e+00	 1.5481339911e+00	-2.1551787323e+00
 1.0148788407e+00	 1.5723440580e+00	-2.1527256842e+00
 9.7785357434e-01	 1.5956338192e+00	-2.1427681402e+00
 9.4039842616e-01	 1.6179912540e+00	-2.1262516554e+00
 9.0254796773e-01	 1.6394060095e+00	-2.1039681764e+00
 8.6433700344e-01	 1.6598694052e+00	-2.0765541503e+00
 8.2580047194e-01	 1.6793744307e+00	-2.0444904559e+00
 7.8697334896e-01	 1.6979157358e+00	-2.0081040835e+00
 1.1668430913e+00	 1.4813492389e+00	-2.1164127178e+00
 1.1316080004e+00	 1.5084368402e+00	-2.1438574879e+00
 1.0958047530e+00	 1.5346433823e+00	-2.1602494417e+00
 1.0594662451e+00	 1.5599518078e+00	-2.1668799104e+00
 1.0226260074e+00	 1.5843466844e+00	-2.1649067312e+00
 9.8531810544e-01	 1.6078142301e+00	-2.1553471721e+00
 9.4757704010e-01	 1.6303423323e+00	-2.1390727350e+00
 9.0943764687e-01	 1.6519205592e+00	-2.1168058299e+00
 8.7093499583e-01	 1.6725401641e+00	-2.0891182922e+00
 8.3210429233e-01	 1.6921940828e+00	-2.0564316812e+00
 7.9298077910e-01	 1.7108769247e+00	-2.0190192850e+00
 1.1756828117e+00	 1.4925715816e+00	-2.1263991020e+00
 1.1401807883e+00	 1.5198643920e+00	-2.1544473574e+00
 1.1041063041e+00	 1.5462694685e+00	-2.1716028377e+00
 1.0674925046e+00	 1.5717696246e+00	-2.1790339129e+00
 1.0303731741e+00	 1.5963493108e+00	-2.1777891172e+00
 9.9278263655e-01	 1.6199946409e+00	-2.1687906275e+00
 9.5475565404e-01	 1.6426934106e+00	-2.1528295125e+00
 9.1632732602e-01	 1.6644351089e+00	-2.1305627399e+00
 8.7753298823e-01	 1.6852109229e+00	-2.1025119101e+00
 8.3840811273e-01	 1.7050137350e+00	-2.0690636530e+00
 7.9898820925e-01	 1.7238381135e+00	-2.0304716109e+00
 1.1845225321e+00	 1.5037939243e+00	-2.1355523594e+00
 1.1487535762e+00	 1.5312919438e+00	-2.1644813226e+00
 1.1124078553e+00	 1.5578955547e+00	-2.1827083411e+00
 1.0755187640e+00	 1.5835874413e+00	-2.1912414073e+00
 1.0381203408e+00	 1.6083519372e+00	-2.1909927165e+00
 1.0002471676e+00	 1.6321750517e+00	-2.1827727657e+00
 9.6193426798e-01	 1.6550444888e+00	-2.1672860268e+00
 9.2321700516e-01	 1.6769496585e+00	-2.1451281818e+00
 8.8413098062e-01	 1.6978816817e+00	-2.1167848838e+00
 8.4471193313e-01	 1.7178333871e+00	-2.0826319859e+00
 8.0499563939e-01	 1.7367993023e+00	-2.0429371604e+00
 1.1933622525e+00	 1.5150162670e+00	-2.1436306218e+00
 1.1573263640e+00	 1.5427194956e+00	-2.1736364613e+00
 1.1207094064e+00	 1.5695216410e+00	-2.1931945721e+00
 1.0835450234e+00	 1.5954052580e+00	-2.2031158166e+00
 1.0458675076e+00	 1.6203545636e+00	-2.2041495284e+00
 1.0077116987e+00	 1.6443554626e+00	-2.1969782964e+00
 9.6911288192e-01	 1.6673955671e+00	-2.1822140424e+00
 9.3010668430e-01	 1.6894642082e+00	-2.1603953791e+00
 8.9072897301e-01	 1.7105524405e+00	-2.1319862140e+00
 8.5101575352e-01	 1.7306530393e+00	-2.0973755453e+00
 8.1100306954e-01	 1.7497604911e+00	-2.0568783815e+00
 1.2022019729e+00	 1.5262386098e+00	-2.1504002499e+00
 1.1658991519e+00	 1.5541470475e+00	-2.1816004076e+00
 1.1290109576e+00	 1.5811477272e+00	-2.2027020742e+00
 1.0915712829e+00	 1.6072230747e+00	-2.2142828747e+00
 1.0536146743e+00	 1.6323571900e+00	-2.2169032558e+00
 1.0151762299e+00	 1.6565358734e+00	-2.2111020204e+00
 9.7629149586e-01	 1.6797466454e+00	-2.1973927902e+00
 9.3699636345e-01	 1.7019787579e+00	-2.1762613838e+00
 8.9732696540e-01	 1.7232231993e+00	-2.1481640802e+00
 8.5731957392e-01	 1.7434726914e+00	-2.1135267211e+00
 8.1701049968e-01	 1.7627216799e+00	-2.0727445984e+00
 1.2110416933e+00	 1.5374609525e+00	-2.1556355560e+00
 1.1744719398e+00	 1.5655745993e+00	-2.1880709892e+00
 1.1373125088e+00	 1.5927738134e+00	-2.2108829020e+00
 1.0995975423e+00	 1.6190408915e+00	-2.2243802001e+00
 1.0613618410e+00	 1.6443598164e+00	-2.2289089013e+00
 1.0226407610e+00	 1.6687162842e+00	-2.2248484847e+00
 9.8347010980e-01	 1.6920977237e+00	-2.2126087193e+00
 9.4388604259e-01	 1.7144933076e+00	-2.1926269613e+00
 9.0392495780e-01	 1.7358939581e+00	-2.1653658958e+00
 8.6362339432e-01	 1.7562923436e+00	-2.1313116898e+00
 8.2301792983e-01	 1.7756828688e+00	-2.0909725166e+00
 1.2198814137e+00	 1.5486832952e+00	-2.1591185371e+00
 1.1830447277e+00	 1.5770021511e+00	-2.1927558796e+00
 1.1456140599e+00	 1.6043998996e+00	-2.2174002252e+00
 1.1076238017e+00	 1.6308587082e+00	-2.2330568869e+00
 1.0691090077e+00	 1.6563624428e+00	-2.2398323802e+00
 1.0301052921e+00	 1.6808966951e+00	-2.2379316524e+00
 9.9064872374e-01	 1.7044488019e+00	-2.2276552586e+00
 9.5077572173e-01	 1.7270078573e+00	-2.2093964789e+00
 9.1052295019e-01	 1.7485647170e+00	-2.1836383597e+00
 8.6992721471e-01	 1.7691119957e+00	-2.1509506633e+00
 8.2902535997e-01	 1.7886440576e+00	-2.1119867040e+00
 1.2287211341e+00	 1.5599056379e+00	-2.1606386187e+00
 1.1916175156e+00	 1.5884297029e+00	-2.1953722640e+00
 1.1539156111e+00	 1.6160259859e+00	-2.2219279496e+00
 1.1156500612e+00	 1.6426765249e+00	-2.2399731127e+00
 1.0768561744e+00	 1.6683650692e+00	-2.2493501486e+00
 1.0375698232e+00	 1.6930771059e+00	-2.2500745846e+00
 9.9782733768e-01	 1.7167998802e+00	-2.2423325871e+00
 9.5766540088e-01	 1.7395224070e+00	-2.2264777986e+00
 9.1712094258e-01	 1.7612354758e+00	-2.2030275045e+00
 8.7623103511e-01	 1.7819316478e+00	-2.1726581268e+00
 8.3503279012e-01	 1.8016052464e+00	-2.1362000515e+00
 1.2375608545e+00	 1.5711279806e+00	-2.1599924085e+00
 1.2001903034e+00	 1.5998572547e+00	-2.1956465184e+00
 1.1622171622e+00	 1.6276520721e+00	-2.2241503527e+00
 1.1236763206e+00	 1.6544943416e+00	-2.2447997622e+00
 1.0846033412e+00	 1.6803676956e+00	-2.2571488466e+00
 1.0450343543e+00	 1.7052575167e+00	-2.2610091366e+00
 1.0050059516e+00	 1.7291509585e+00	-2.2564474139e+00
 9.6455508002e-01	 1.7520369567e+00	-2.2437821741e+00
 9.2371893498e-01	 1.7739062346e+00	-2.2235787426e+00
 8.8253485551e-01	 1.7947513000e+00	-2.1966430662e+00
 8.4104022026e-01	 1.8145664352e+00	-2.1640142132e+00
 7.8096591881e-01	 1.6849545470e+00	-1.9972357021e+00
 7.4218146389e-01	 1.7023942747e+00	-1.9596217892e+00
 7.0317778792e-01	 1.7188718947e+00	-1.9219465891e+00
 6.6398915282e-01	 1.7343869225e+00	-1.8841964755e+00
 6.2464949521e-01	 1.7489404221e+00	-1.8465455187e+00
 5.8519234391e-01	 1.7625349677e+00	-1.8093516451e+00
 5.4565074146e-01	 1.7751745999e+00	-1.7731518240e+00
 5.0605716989e-01	 1.7868647774e+00	-1.7386563616e+00
 4.6644348092e-01	 1.7976123250e+00	-1.7067423914e+00
 4.2684083107e-01	 1.8074253779e+00	-1.6784466582e+00
 3.8727962145e-01	 1.8163133228e+00	-1.6549576970e+00
 7.8697334896e-01	 1.6979157358e+00	-2.0081040835e+00
 7.4789055208e-01	 1.7154896153e+00	-1.9700413719e+00
 7.0858684783e-01	 1.7320939862e+00	-1.9326600281e+00
 6.6909676169e-01	 1.7477283603e+00	-1.8958869094e+00
 6.2945449133e-01	 1.7623938099e+00	-1.8598418057e+00
 5.8969382348e-01	 1.7760929290e+00	-1.8248337226e+00
 5.4984805486e-01	 1.7888297891e+00	-1.7913561383e+00
 5.0994991735e-01	 1.8006098911e+00	-1.7600813170e+00
 4.7003150770e-01	 1.8114401121e+00	-1.7318537721e+00
 4.3012422208e-01	 1.8213286501e+00	-1.7076829777e+00
 3.9025869546e-01	 1.8302849638e+00	-1.6887354369e+00
 7.9298077910e-01	 1.7108769247e+00	-2.0190192850e+00
 7.5359964026e-01	 1.7285849558e+00	-1.9800997075e+00
 7.1399590773e-01	 1.7453160777e+00	-1.9426509173e+00
 6.7420437056e-01	 1.7610697982e+00	-1.9066053746e+00
 6.3425948744e-01	 1.7758471978e+00	-1.8720662353e+00
 5.9419530305e-01	 1.7896508903e+00	-1.8393044120e+00
 5.5404536826e-01	 1.8024849784e+00	-1.8087547411e+00
 5.1384266481e-01	 1.8143550047e+00	-1.7810113267e+00
 4.7361953448e-01	 1.8252678992e+00	-1.7568221376e+00
 4.3340761308e-01	 1.8352319222e+00	-1.7370829478e+00
 3.9323776947e-01	 1.8442566047e+00	-1.7228307094e+00
 7.9898820925e-01	 1.7238381135e+00	-2.0304716109e+00
 7.5930872844e-01	 1.7416802964e+00	-1.9904955031e+00
 7.1940496764e-01	 1.7585381692e+00	-1.9527316543e+00
 6.7931197943e-01	 1.7744112360e+00	-1.9171824685e+00
 6.3906448356e-01	 1.7893005857e+00	-1.8839717420e+00
 5.9869678261e-01	 1.8032088516e+00	-1.8533431485e+00
 5.5824268165e-01	 1.8161401676e+00	-1.8256581452e+00
 5.1773541227e-01	 1.8281001184e+00	-1.8013933425e+00
 4.7720756125e-01	 1.8390956863e+00	-1.7811373853e+00
 4.3669100409e-01	 1.8491351943e+00	-1.7655874024e+00
 3.9621684348e-01	 1.8582282457e+00	-1.7555450857e+00
 8.0499563939e-01	 1.7367993023e+00	-2.0429371604e+00
 7.6501781663e-01	 1.7547756370e+00	-2.0019069639e+00
 7.2481402755e-01	 1.7717602607e+00	-1.9636906632e+00
 6.8441958829e-01	 1.7877526739e+00	-1.9284241913e+00
 6.4386947968e-01	 1.8027539735e+00	-1.8962888996e+00
 6.0319826218e-01	 1.8167668129e+00	-1.8675121026e+00
 5.6243999505e-01	 1.8297953568e+00	-1.8423675409e+00
 5.2162815973e-01	 1.8418452321e+00	-1.8211757614e+00
 4.8079558803e-01	 1.8529234734e+00	-1.8043044151e+00
 4.3997439510e-01	 1.8630384665e+00	-1.7921684833e+00
 3.9919591749e-01	 1.8721998866e+00	-1.7852304433e+00
 8.1100306954e-01	 1.7497604911e+00	-2.0568783815e+00
 7.7072690481e-01	 1.7678709776e+00	-2.0149925803e+00
 7.3022308746e-01	 1.7849823522e+00	-1.9762933095e+00
 6.8952719716e-01	 1.8010941118e+00	-1.9411128844e+00
 6.4867447579e-01	 1.8162073614e+00	-1.9097267763e+00
 6.0769974175e-01	 1.8303247742e+00	-1.8823568451e+00
 5.6663730844e-01	 1.8434505461e+00	-1.8591751673e+00
 5.2552090719e-01	 1.8555903457e+00	-1.8403083964e+00
 4.8438361480e-01	 1.8667512606e+00	-1.8258425979e+00
 4.4325778611e-01	 1.8769417386e+00	-1.8158285024e+00
 4.0217499151e-01	 1.8861715275e+00	-1.8102871234e+00
 8.1701049968e-01	 1.7627216799e+00	-2.0727445984e+00
 7.7643599299e-01	 1.7809663181e+00	-2.0303918781e+00
 7.3563214736e-01	 1.7982044437e+00	-1.9912827744e+00
 6.9463480603e-01	 1.8144355496e+00	-1.9560081263e+00
 6.5347947191e-01	 1.8296607492e+00	-1.9249737508e+00
 6.1220122132e-01	 1.8438827355e+00	-1.8984069833e+00
 5.7083462184e-01	 1.8571057353e+00	-1.8763646658e+00
 5.2941365465e-01	 1.8693354594e+00	-1.8587424483e+00
 4.8797164158e-01	 1.8805790477e+00	-1.8452852658e+00
 4.4654117712e-01	 1.8908450108e+00	-1.8355988544e+00
 4.0515406552e-01	 1.9001431685e+00	-1.8291621697e+00
 8.2301792983e-01	 1.7756828688e+00	-2.0909725166e+00
 7.8214508118e-01	 1.7940616587e+00	-2.0487261375e+00
 7.4104120727e-01	 1.8114265352e+00	-2.0093808902e+00
 6.9974241490e-01	 1.8277769875e+00	-1.9738475889e+00
 6.5828446803e-01	 1.8431141371e+00	-1.9426982933e+00
 6.1670270089e-01	 1.8574406968e+00	-1.9161767679e+00
 5.7503193524e-01	 1.8707609245e+00	-1.8942114181e+00
 5.3330640211e-01	 1.8830805731e+00	-1.8764304785e+00
 4.9155966836e-01	 1.8944068348e+00	-1.8621792256e+00
 4.4982456813e-01	 1.9047482829e+00	-1.8505389771e+00
 4.0813313953e-01	 1.9141148094e+00	-1.8403476437e+00
 8.2902535997e-01	 1.7886440576e+00	-2.1119867040e+00
 7.8785416936e-01	 1.8071569993e+00	-2.0705990776e+00
 7.4645026718e-01	 1.8246486267e+00	-2.0312889381e+00
 7.0485002377e-01	 1.8411184254e+00	-1.9953478558e+00
 6.6308946415e-01	 1.8565675250e+00	-1.9635497108e+00
 6.2120418046e-01	 1.8709986581e+00	-1.9361656744e+00
 5.7922924863e-01	 1.8844161138e+00	-1.9129828694e+00
 5.3719914957e-01	 1.8968256868e+00	-1.8933263830e+00
 4.9514769513e-01	 1.9082346219e+00	-1.8760842923e+00
 4.5310795913e-01	 1.9186515550e+00	-1.8597353556e+00
 4.1111221354e-01	 1.9280864504e+00	-1.8423790135e+00
 8.3503279012e-01	 1.8016052464e+00	-2.1362000515e+00
 7.9356325755e-01	 1.8202523399e+00	-2.0965975132e+00
 7.5185932708e-01	 1.8378707182e+00	-2.0576884123e+00
 7.0995763263e-01	 1.8544598632e+00	-2.0212052055e+00
 6.6789446026e-01	 1.8700209128e+00	-1.9881588608e+00
 6.2570566003e-01	 1.8845566193e+00	-1.9588589575e+00
 5.8342656203e-01	 1.8980713030e+00	-1.9329388373e+00
 5.4109189703e-01	 1.9105708004e+00	-1.9093853667e+00
 4.9873572191e-01	 1.9220624090e+00	-1.8865728434e+00
 4.5639135014e-01	 1.9325548272e+00	-1.8623005709e+00
 4.1409128755e-01	 1.9420580913e+00	-1.8338336121e+00
 8.4104022026e-01	 1.8145664352e+00	-2.1640142132e+00
 7.9927234573e-01	 1.8333476804e+00	-2.1272919810e+00
 7.5726838699e-01	 1.8510928097e+00	-2.0892417496e+00
 7.1506524150e-01	 1.8678013011e+00	-2.0520963597e+00
 6.7269945638e-01	 1.8834743007e+00	-2.0171388340e+00
 6.3020713959e-01	 1.8981145806e+00	-1.9847281829e+00
 5.8762387542e-01	 1.9117264922e+00	-1.9543318065e+00
 5.4498464449e-01	 1.9243159141e+00	-1.9245639189e+00
 5.0232374869e-01	 1.9358901961e+00	-1.8932293911e+00
 4.5967474115e-01	 1.9464580993e+00	-1.8573723878e+00
 4.1707036156e-01	 1.9560297323e+00	-1.8133291610e+00
 3.8727962145e-01	 1.8163133228e+00	-1.6549576970e+00
 3.4778944275e-01	 1.8242867361e+00	-1.6247677750e+00
 3.0839902523e-01	 1.8313573199e+00	-1.5789248735e+00
 2.6913619390e-01	 1.8375378366e+00	-1.5220036111e+00
 2.3002782885e-01	 1.8428420415e+00	-1.4578502743e+00
 1.9109983072e-01	 1.8472846144e+00	-1.3896037171e+00
 1.5237709117e-01	 1.8508810912e+00	-1.3197206621e+00
 1.1388346840e-01	 1.8536477949e+00	-1.2500049059e+00
 7.5641767450e-02	 1.8556017662e+00	-1.1816399168e+00
 3.7673725225e-02	 1.8567606960e+00	-1.1152243120e+00
 0.0000000000e+00	 1.8571428571e+00	-1.0508097005e+00
 3.9025869546e-01	 1.8302849638e+00	-1.6887354369e+00
 3.5046474616e-01	 1.8383197109e+00	-1.6619329476e+00
 3.1077132542e-01	 1.8454446839e+00	-1.6172901911e+00
 2.7120647231e-01	 1.8516727430e+00	-1.5601797506e+00
 2.3179727369e-01	 1.8570177495e+00	-1.4952543782e+00
 1.9256982942e-01	 1.8614944960e+00	-1.4264614645e+00
 1.5354922264e-01	 1.8651186381e+00	-1.3570622671e+00
 1.1475949508e-01	 1.8679066241e+00	-1.2896554329e+00
 7.6223627200e-02	 1.8698756260e+00	-1.2262043289e+00
 3.7963523111e-02	 1.8710434706e+00	-1.1680676847e+00
 0.0000000000e+00	 1.8714285714e+00	-1.1160330493e+00
 3.9323776947e-01	 1.8442566047e+00	-1.7228307094e+00
 3.5314004956e-01	 1.8523526858e+00	-1.6994715794e+00
 3.1314362562e-01	 1.8595320479e+00	-1.6560778301e+00
 2.7327675073e-01	 1.8658076495e+00	-1.5988095767e+00
 2.3356671853e-01	 1.8711934575e+00	-1.5331896330e+00
 1.9403982811e-01	 1.8757043777e+00	-1.4641072937e+00
 1.5472135411e-01	 1.8793561850e+00	-1.3958269547e+00
 1.1563552176e-01	 1.8821654533e+00	-1.3320011895e+00
 7.6805486949e-02	 1.8841494857e+00	-1.2756878780e+00
 3.8253320998e-02	 1.8853262452e+00	-1.2293709635e+00
 0.0000000000e+00	 1.8857142857e+00	-1.1949844006e+00
 3.9621684348e-01	 1.8582282457e+00	-1.7555450857e+00
 3.5581535297e-01	 1.8663856607e+00	-1.7351541528e+00
 3.1551592581e-01	 1.8736194119e+00	-1.6928314571e+00
 2.7534702914e-01	 1.8799425559e+00	-1.6355120118e+00
 2.3533616337e-01	 1.8853691655e+00	-1.5696490170e+00
 1.9550982681e-01	 1.8899142593e+00	-1.5012027562e+00
 1.5589348558e-01	 1.8935937318e+00	-1.4356341293e+00
 1.1651154844e-01	 1.8964242825e+00	-1.3779025817e+00
 7.7387346699e-02	 1.8984233455e+00	-1.3324681605e+00
 3.8543118884e-02	 1.8996090198e+00	-1.3032973956e+00
 0.0000000000e+00	 1.9000000000e+00	-1.2938726830e+00
 3.9919591749e-01	 1.8721998866e+00	-1.7852304433e+00
 3.5849065637e-01	 1.8804186356e+00	-1.7668172276e+00
 3.1788822601e-01	 1.8877067759e+00	-1.7251675080e+00
 2.7741730756e-01	 1.8940774624e+00	-1.6679764255e+00
 2.3710560820e-01	 1.8995448735e+00	-1.6026847189e+00
 1.9697982551e-01	 1.9041241410e+00	-1.5364485908e+00
 1.5706561705e-01	 1.9078312787e+00	-1.4761137306e+00
 1.1738757512e-01	 1.9106831116e+00	-1.4281934544e+00
 7.7969206448e-02	 1.9126972052e+00	-1.3988508778e+00
 3.8832916770e-02	 1.9138917944e+00	-1.3938849947e+00
 0.0000000000e+00	 1.9142857143e+00	-1.4187205010e+00
 4.0217499151e-01	 1.8861715275e+00	-1.8102871234e+00
 3.6116595978e-01	 1.8944516105e+00	-1.7923610133e+00
 3.2026052620e-01	 1.9017941399e+00	-1.7507725102e+00
 2.7948758597e-01	 1.9082123688e+00	-1.6939600408e+00
 2.3887505304e-01	 1.9137205815e+00	-1.6304059582e+00
 1.9844982421e-01	 1.9183340226e+00	-1.5685832835e+00
 1.5823774852e-01	 1.9220688255e+00	-1.5169058527e+00
 1.1826360180e-01	 1.9249419408e+00	-1.4836820817e+00
 7.8551066198e-02	 1.9269710649e+00	-1.4770725042e+00
 3.9122714657e-02	 1.9281745689e+00	-1.5050511820e+00
 0.0000000000e+00	 1.9285714286e+00	-1.5753710358e+00
 4.0515406552e-01	 1.9001431685e+00	-1.8291621697e+00
 3.6384126318e-01	 1.9084845854e+00	-1.8097470476e+00
 3.2263282639e-01	 1.9158815039e+00	-1.7674005226e+00
 2.8155786439e-01	 1.9223472752e+00	-1.7112854549e+00
 2.4064449788e-01	 1.9278962895e+00	-1.6509769018e+00
 1.9991982291e-01	 1.9325439043e+00	-1.5963816913e+00
 1.5940987999e-01	 1.9363063724e+00	-1.5576603800e+00
 1.1913962848e-01	 1.9392007700e+00	-1.5451521136e+00
 7.9132925948e-02	 1.9412449247e+00	-1.5693028360e+00
 3.9412512543e-02	 1.9424573435e+00	-1.6405972222e+00
 0.0000000000e+00	 1.9428571429e+00	-1.7694946416e+00
 4.0813313953e-01	 1.9141148094e+00	-1.8403476437e+00
 3.6651656659e-01	 1.9225175603e+00	-1.8169959766e+00
 3.2500512659e-01	 1.9299688679e+00	-1.7728706876e+00
 2.8362814280e-01	 1.9364821817e+00	-1.7178382683e+00
 2.4241394272e-01	 1.9420719975e+00	-1.6626146719e+00
 2.0138982160e-01	 1.9467537859e+00	-1.6186537256e+00
 1.6058201146e-01	 1.9505439192e+00	-1.5980366386e+00
 1.2001565516e-01	 1.9534595992e+00	-1.6133634820e+00
 7.9714785697e-02	 1.9555187844e+00	-1.6776474299e+00
 3.9702310430e-02	 1.9567401181e+00	-1.8042124644e+00
 0.0000000000e+00	 1.9571428571e+00	-2.0065951538e+00
 4.1111221354e-01	 1.9280864504e+00	-1.8423790135e+00
 3.6919187000e-01	 1.9365505352e+00	-1.8121854319e+00
 3.2737742678e-01	 1.9440562319e+00	-1.7650648903e+00
 2.8569842122e-01	 1.9506170881e+00	-1.7115648169e+00
 2.4418338755e-01	 1.9562477056e+00	-1.6635874398e+00
 2.0285982030e-01	 1.9609636676e+00	-1.6342430929e+00
 1.6175414293e-01	 1.9647814661e+00	-1.6377030632e+00
 1.2089168184e-01	 1.9677184284e+00	-1.6890532661e+00
 8.0296645447e-02	 1.9697926442e+00	-1.8041499349e+00
 3.9992108316e-02	 1.9710228927e+00	-1.9994784001e+00
 0.0000000000e+00	 1.9714285714e+00	-2.2920159214e+00
 4.1409128755e-01	 1.9420580913e+00	-1.8338336121e+00
 3.7186717340e-01	 1.9505835101e+00	-1.7934479982e+00
 3.2974972698e-01	 1.9581435959e+00	-1.7419255176e+00
 2.8776869963e-01	 1.9647519945e+00	-1.6904700023e+00
 2.4595283239e-01	 1.9704234136e+00	-1.6522126032e+00
 2.0432981900e-01	 1.9751735492e+00	-1.6420260907e+00
 1.6292627440e-01	 1.9790190129e+00	-1.6763368782e+00
 1.2176770852e-01	 1.9819772576e+00	-1.7729365216e+00
 8.0878505197e-02	 1.9840665039e+00	-1.9507943234e+00
 4.0281906202e-02	 1.9853056673e+00	-2.2298725442e+00
 0.0000000000e+00	 1.9857142857e+00	-2.6309455807e+00
 4.1707036156e-01	 1.9560297323e+00	-1.8133291610e+00
 3.7454247681e-01	 1.9646164850e+00	-1.7589692689e+00
 3.3212202717e-01	 1.9722309599e+00	-1.7014533136e+00
 2.8983897805e-01	 1.9788869010e+00	-1.6526152140e+00
 2.4772227723e-01	 1.9845991216e+00	-1.6268550401e+00
 2.0579981770e-01	 1.9893834309e+00	-1.6409104533e+00
 1.6409840587e-01	 1.9932565598e+00	-1.7136237925e+00
 1.2264373520e-01	 1.9962360868e+00	-1.8657070735e+00
 8.1460364946e-02	 1.9983403636e+00	-2.1195070274e+00
 4.0571704089e-02	 1.9995884419e+00	-2.4987721517e+00
 0.0000000000e+00	 2.0000000000e+00	-3.0284235801e+00
