label=Stress xy
num_items=16288

0:-6.3981644814796652e-04
1:2.2123392989039864e-03
2:-4.0041236576030242e-03
3:-7.8494470718715927e-03
4:-3.8825000714425620e-03
5:-2.1564258833548869e-04
6:2.1772786401025404e-03
7:1.5961805094781452e-03
8:3.9041102517495172e-03
9:-1.3345656851789490e-03
10:2.0217244163204848e-04
11:3.3127142008791779e-03
12:9.2093277719279085e-03
13:-9.0762342326937211e-04
14:-4.3056414085712539e-03
15:-7.4345278276737742e-04
16:-6.9464973335492284e-03
17:1.3334898641261018e-03
18:1.4772497366406854e-02
19:1.7525881833443072e-02
20:3.6789101193073761e-04
21:-1.7373578741017204e-03
22:-3.4064252374097471e-03
23:-3.6104202449696006e-03
24:4.1602673881854443e-03
25:1.6540274740265302e-03
26:-4.4967719429175766e-03
27:-6.2307319784507820e-03
28:2.5772217090096142e-03
29:5.3848724560846646e-03
30:4.2487143607833778e-03
31:2.6423791041967270e-03
32:1.3450211180656462e-02
33:-1.7835821520531853e-03
34:-1.0924295027566037e-02
35:1.3554617019080010e-02
36:-3.4259907180161776e-03
37:-3.8702259878498090e-03
38:1.2910648232441547e-03
39:1.6806352436927314e-02
40:-4.6260272193164292e-03
41:-9.3147569859004114e-04
42:-1.4491301577247855e-02
43:-5.6596346957338721e-02
44:2.9264973001835040e-03
45:7.1690415743000408e-03
46:-2.1656074152563112e-02
47:-1.0960299327883206e-01
48:4.4849809053699563e-02
49:1.1423294344497269e-01
50:6.5119982107483876e-02
51:-2.2565757666134079e-01
52:3.3864354277237246e-02
53:1.0770039239722261e-01
54:1.8217838951955267e-01
55:1.1970729619542478e-01
56:-8.9714747514188245e-02
57:-7.4449110561874379e-02
58:1.0340094718020032e-01
59:3.4678060850320525e-01
60:-1.8483686709368199e-01
61:-2.4954486715117999e-01
62:-7.1999536068457465e-02
63:3.4373379782655211e-01
64:-5.1463480094008229e-01
65:-1.2755274242561188e+00
66:-2.3143944703037338e+00
67:-2.7968034846390153e+00
68:6.7056133864198545e-03
69:-4.3600940780432013e-01
70:-1.1891452354897600e+00
71:-1.6276740903918900e+00
72:4.9410646302074335e-01
73:5.4097463375481891e-01
74:2.3955080993895417e-01
75:-1.3579821728167366e-01
76:6.6604802630433768e-01
77:1.0837678531516612e+00
78:1.1758390580582150e+00
79:8.9467279155170032e-01
80:-2.8374359032807508e+00
81:-2.4909012531921166e+00
82:-1.5679265069438917e+00
83:-8.2721051607469087e-01
84:-1.7250477863263172e+00
85:-1.5556093553316994e+00
86:-9.2081612607148922e-01
87:-3.8650789730860974e-01
88:-3.3242815919456709e-01
89:-4.4376814943532628e-01
90:-2.2175867960324785e-01
91:5.5929035834337053e-02
92:6.4032441600019463e-01
93:3.3187625926432840e-01
94:2.4505735332405440e-01
95:3.3437329669094545e-01
96:-5.1901962298234128e-01
97:-1.5417258562555886e-01
98:2.1697316748658765e-02
99:3.4992171457171851e-02
100:-1.6607044948530458e-01
101:7.9226008753073326e-02
102:1.7015340479093413e-01
103:1.5802044604340523e-01
104:1.8666045306818096e-01
105:3.1947919780601419e-01
106:3.3864187539704466e-01
107:3.0654742078675118e-01
108:4.0547348687074741e-01
109:4.6911679007148349e-01
110:4.5028223723224542e-01
111:4.0950287736539875e-01
112:3.1505354322820832e-02
113:2.7535745415925857e-02
114:2.5491384737071660e-02
115:2.4607168361583873e-02
116:1.4993079461168943e-01
117:1.3859679638394198e-01
118:1.2667088897530540e-01
119:1.1780573633166912e-01
120:2.9325461470135111e-01
121:2.7278251053420288e-01
122:2.4905428937871157e-01
123:2.3113507732196431e-01
124:3.9302687558497218e-01
125:3.6647623079263120e-01
126:3.3492830755272052e-01
127:3.1114481494569113e-01
128:2.3882632730243721e-02
129:2.2122188854620028e-02
130:1.9563260283813257e-02
131:1.7811279917166151e-02
132:1.1268867269775831e-01
133:1.0349468447954564e-01
134:9.2890311727278685e-02
135:8.6084768934554926e-02
136:2.2120578444139236e-01
137:2.0376215306749235e-01
138:1.8389517817426249e-01
139:1.7096054881348371e-01
140:2.9816617408122009e-01
141:2.7542670815867010e-01
142:2.4941406608254893e-01
143:2.3223276906644136e-01
144:1.7066953239787512e-02
145:1.5936831737488222e-02
146:1.4756283274636756e-02
147:1.3894494439659517e-02
148:8.2973724849393471e-02
149:7.7582143934271264e-02
150:7.1062506686579430e-02
151:6.6231665674332849e-02
152:1.6486276727261237e-01
153:1.5415285484445992e-01
154:1.4114598096775813e-01
155:1.3162445937518105e-01
156:2.2400125064458626e-01
157:2.0951959203136553e-01
158:1.9199415773977485e-01
159:1.7926488323892389e-01
160:1.3401268359539333e-02
161:1.2479058723602528e-02
162:1.1355844966676779e-02
163:1.0605144315430026e-02
164:6.3669002780718520e-02
165:5.9208843122179632e-02
166:5.4128922837064580e-02
167:5.0781337597716907e-02
168:1.2665358204846375e-01
169:1.1801704727148377e-01
170:1.0812983529908361e-01
171:1.0152482518795058e-01
172:1.7266263196558926e-01
173:1.6115415872370720e-01
174:1.4787108817921224e-01
175:1.3890292178014116e-01
176:1.0256308207386556e-02
177:9.6586161007838449e-03
178:8.9522859577347898e-03
179:8.4408832563023992e-03
180:4.9175253215193615e-02
181:4.6315710400905215e-02
182:4.2814873943863317e-02
183:4.0273593748889697e-02
184:9.8311146703716226e-02
185:9.2591086031092520e-02
186:8.5624413896078500e-02
187:8.0607008839880520e-02
188:1.3450617356823663e-01
189:1.2670075875495446e-01
190:1.1724677392974955e-01
191:1.1047337091627212e-01
192:8.1724797466371738e-03
193:7.6960614821710883e-03
194:7.1334777885644846e-03
195:6.7478952874908439e-03
196:3.8964812352779502e-02
197:3.6678851457342385e-02
198:3.4019001458368454e-02
199:3.2199654075122396e-02
200:7.8038164443797617e-02
201:7.3537963099718412e-02
202:6.8266808264751289e-02
203:6.4634167139803037e-02
204:1.0701417141551668e-01
205:1.0093246580006328e-01
206:9.3765064646176843e-02
207:8.8797770889774086e-02
208:6.5581098855359635e-03
209:6.2204230040233165e-03
210:5.8105058059100389e-03
211:5.5167853779630443e-03
212:3.1297218773049376e-02
213:2.9682626572185813e-02
214:2.7714484913731754e-02
215:2.6304868161885656e-02
216:6.2823829976498755e-02
217:5.9591949759991145e-02
218:5.5667708881390589e-02
219:5.2865800197756316e-02
220:8.6315523837466379e-02
221:8.1893253132554189e-02
222:7.6540259296445867e-02
223:7.2725827496762346e-02
224:5.3668820889711637e-03
225:5.1018652480166052e-03
226:4.7861567269157582e-03
227:4.5645887154633089e-03
228:2.5587649763127440e-02
229:2.4320936584197071e-02
230:2.2812702997989900e-02
231:2.1753966777251325e-02
232:5.1441783275641577e-02
233:4.8920506855115252e-02
234:4.5907162502403336e-02
235:4.3785740622107210e-02
236:7.0787810269525478e-02
237:6.7349064446910870e-02
238:6.3226477845615248e-02
239:6.0317582786239173e-02
240:4.4528534620132103e-03
241:4.2525394934071125e-03
242:4.0084346589767473e-03
243:3.8339031158001486e-03
244:2.1219789226914594e-02
245:2.0262984375057521e-02
246:1.9098416623075275e-02
247:1.8266304094843453e-02
248:4.2714278072615186e-02
249:4.0797271734952539e-02
250:3.8467264366958631e-02
251:3.6803249657491689e-02
252:5.8847324484280698e-02
253:5.6219058014177724e-02
254:5.3027749979097011e-02
255:5.0749215674141750e-02
256:3.7451859043979734e-03
257:3.5870039193489820e-03
258:3.3956160628603057e-03
259:3.2591390700909503e-03
260:1.7843319914848860e-02
261:1.7088613581710366e-02
262:1.6174797224847701e-02
263:1.5523069411578692e-02
264:3.5957092992323178e-02
265:3.4445561983297478e-02
266:3.2612657205992067e-02
267:3.1304297917301091e-02
268:4.9590135481141169e-02
269:4.7517596290155256e-02
270:4.5001295353250419e-02
271:4.3203701670683742e-02
272:3.1896306634632667e-03
273:3.0646097543938337e-03
274:2.9115260952875012e-03
275:2.8014069183275904e-03
276:1.5191250672776203e-02
277:1.4594770990390589e-02
278:1.3864878752102605e-02
279:1.3340003620458368e-02
280:3.0638073900270166e-02
281:2.9440710794594829e-02
282:2.7975615301983021e-02
283:2.6921669968432510e-02
284:4.2288189034048365e-02
285:4.0643023361685272e-02
286:3.8630030526230534e-02
287:3.7181502545483913e-02
288:2.7451305246445567e-03
289:2.6437286424277604e-03
290:2.5190606881981994e-03
291:2.4288280096441003e-03
292:1.3071765377773086e-02
293:1.2588456189115069e-02
294:1.1994302502036716e-02
295:1.1564301751772713e-02
296:2.6382784211232132e-02
297:2.5411395657245865e-02
298:2.4216616808416278e-02
299:2.3351659383620809e-02
300:3.6440563646828211e-02
301:3.5104413619065196e-02
302:3.3460170281797090e-02
303:3.2269407412533514e-02
304:2.3824607166723116e-03
305:2.2983539004752134e-03
306:2.1938944109433432e-03
307:2.1175248524520078e-03
308:1.1343350316679070e-02
309:1.0942527974606084e-02
310:1.0444703261609664e-02
311:1.0080804962340609e-02
312:2.2907168506789009e-02
313:2.2100678008642280e-02
314:2.1098630194630222e-02
315:2.0365805300731139e-02
316:3.1657406251616609e-02
317:3.0546827013399665e-02
318:2.9166553697913617e-02
319:2.8156728670256991e-02
320:2.0780175241885859e-03
321:2.0057472657637682e-03
322:1.9147718827183312e-03
323:1.8473210567632255e-03
324:9.8925980733309236e-03
325:9.5484529774629342e-03
326:9.1154246960340191e-03
327:8.7944250760911072e-03
328:1.9986653828931802e-02
329:1.9293206248877218e-02
330:1.8420404392788435e-02
331:1.7773224500987377e-02
332:2.7634100649906471e-02
333:2.6678022993419544e-02
334:2.5474289067132286e-02
335:2.4581468919260902e-02
336:1.8120892413926706e-03
337:1.7469506783528530e-03
338:1.6635522809348639e-03
339:1.6006065280728689e-03
340:8.6267465308843549e-03
341:8.3166799297399556e-03
342:7.9196632902497049e-03
343:7.6200598547151608e-03
344:1.7435098875491446e-02
345:1.6809676359256277e-02
346:1.6008538136812838e-02
347:1.5403726949722887e-02
348:2.4114924025581776e-02
349:2.3251790152380946e-02
350:2.2145795681362442e-02
351:2.1310557768222719e-02
352:1.5673140358828757e-03
353:1.5048494185673489e-03
354:1.4230830151580949e-03
355:1.3600198276085774e-03
356:7.4616380577064417e-03
357:7.1645042344224367e-03
358:6.7756918296400237e-03
359:6.4758566922536575e-03
360:1.5083840158415662e-02
361:1.4483757533615159e-02
362:1.3698317517297555e-02
363:1.3092459719743163e-02
364:2.0868700008869555e-02
365:2.0039665207761855e-02
366:1.8954285131163297e-02
367:1.8116867963078674e-02
368:1.3261903599080325e-03
369:1.2617310196216070e-03
370:1.1753812931469029e-03
371:1.1072662227557411e-03
372:6.3150085554892670e-03
373:6.0085061323160438e-03
374:5.5979290746560805e-03
375:5.2741115214191654e-03
376:1.2767385737991901e-02
377:1.2147823300732987e-02
378:1.1317666063909769e-02
379:1.0662784029963675e-02
380:1.7667483050027095e-02
381:1.6810869271996386e-02
382:1.5662849197963846e-02
383:1.4757047737192053e-02
384:1.0701835165624906e-03
385:9.9839727342185139e-04
386:9.0006252316888948e-04
387:8.2090834510369917e-04
388:5.0978552746877388e-03
389:4.7567194768252732e-03
390:4.2894913309354165e-03
391:3.9133913009326516e-03
392:1.0306282606533804e-02
393:9.6162260191963080e-03
394:8.6709822498968175e-03
395:7.9100030750976300e-03
396:1.4263897445274955e-02
397:1.3309261373934352e-02
398:1.2001456822307780e-02
399:1.0948497211878400e-02
400:7.7727398870308998e-04
401:6.9167860867422283e-04
402:5.7221651961869709e-04
403:4.7440560561815221e-04
404:3.7060443266399186e-03
405:3.2992798062238204e-03
406:2.7316288852042700e-03
407:2.2669828104411975e-03
408:7.4904361686994568e-03
409:6.6673027636215323e-03
410:5.5185442674783348e-03
411:4.5782247537996977e-03
412:1.0367916243675774e-02
413:9.2288631251119281e-03
414:7.6391625814647372e-03
415:6.3378830357007860e-03
416:4.1991778285312598e-04
417:3.1199095009092434e-04
418:1.5954475212158009e-04
419:3.3556891593446258e-05
420:2.0082060129147416e-03
421:1.4956286508927144e-03
422:7.7104427857218585e-04
423:1.7131058723957040e-04
424:4.0545323400382541e-03
425:3.0171967922405902e-03
426:1.5506853265339284e-03
427:3.3670262368126167e-04
428:5.6131560873857907e-03
429:4.1776260332884374e-03
430:2.1482293082744886e-03
431:4.6834314820337532e-04
432:8.7734545264979563e-03
433:-3.8233936335877784e-04
434:-6.1296119652202458e-03
435:-3.6134853583481103e-03
436:6.0599548370790220e-04
437:1.7023722804185331e-04
438:-4.3536738111492638e-03
439:-4.4743593423119035e-03
440:-1.3530856579032750e-02
441:1.6182798852441638e-03
442:3.7009435970112980e-03
443:-2.2835575101482998e-03
444:-1.6868471828943899e-02
445:4.9564951746879369e-03
446:9.4494557286338050e-03
447:-4.3466013990810870e-03
448:4.2964389294638546e-04
449:6.3588619344842412e-03
450:9.1636753802295991e-03
451:7.3482921932804257e-03
452:-1.6908028010946320e-03
453:4.5322293014177732e-03
454:7.0733776876914164e-03
455:-1.2676898170575234e-03
456:-5.7942631914266098e-03
457:-4.1165859576993494e-03
458:2.3333455782998161e-03
459:-2.2326256651478771e-03
460:-1.5617971500837782e-02
461:-1.4539670255369631e-02
462:1.8200726183333307e-02
463:4.9996898013437659e-02
464:6.0456094164902160e-03
465:1.2155545414614300e-02
466:-1.5772406983335575e-02
467:-1.1625655056439468e-01
468:-8.5057334791880743e-03
469:5.4196373265036650e-03
470:1.7571604647495711e-02
471:-4.1015352145654882e-02
472:-7.5847085066499276e-03
473:3.8935025989138713e-02
474:1.6587051655947543e-01
475:2.5906898139360590e-01
476:6.8334147839871365e-02
477:1.7027613931849342e-01
478:4.1792056003497996e-01
479:6.6537687642448429e-01
480:-2.0699531756663322e-01
481:-3.1756690122508918e-01
482:-1.7304519669440227e-01
483:2.9388266750482628e-01
484:-1.1206125723596920e-01
485:-2.3213315580558427e-01
486:-1.1872442553689859e-01
487:3.8602371192320384e-01
488:2.8749237534575156e-01
489:2.8084877206422187e-01
490:4.1175105737558204e-01
491:8.6372167439060621e-01
492:7.9973968086869118e-01
493:9.3792623138128961e-01
494:1.1049716601902912e+00
495:1.4433683769942338e+00
496:6.8563618661029468e-01
497:1.2767869549171265e+00
498:1.5831864862160097e+00
499:1.3752324705714878e+00
500:8.4250068681976620e-01
501:1.6286240471733040e+00
502:2.2010048567805400e+00
503:2.0856077873097707e+00
504:1.2840470152391974e+00
505:2.0719420920813887e+00
506:2.7134440988270074e+00
507:2.6212317157246305e+00
508:1.7532528881321330e+00
509:2.3660902211993866e+00
510:2.8651412766204025e+00
511:2.7256529462867709e+00
512:1.1060435262619257e+00
513:7.1453734005427938e-01
514:4.7774189688726998e-01
515:4.7092002266143174e-01
516:1.7938079006214100e+00
517:1.2782474226606477e+00
518:8.1743939846190417e-01
519:6.6849005174149378e-01
520:2.3076068573660264e+00
521:1.6938302538537002e+00
522:1.0613792524378103e+00
523:8.0788976128544643e-01
524:2.4050786529085708e+00
525:1.7701323749717472e+00
526:1.1017525555989531e+00
527:8.2966858228963902e-01
528:5.1129258476490769e-01
529:5.4016368246447144e-01
530:5.0373605126856313e-01
531:4.5970487619706296e-01
532:6.6463079960632887e-01
533:6.4505226204057098e-01
534:5.8642948102848347e-01
535:5.3950646942857083e-01
536:7.7421681378271900e-01
537:7.2567544791975525e-01
538:6.5930520960899874e-01
539:6.1453694824747340e-01
540:7.9335564881022891e-01
541:7.4691000165199828e-01
542:6.8918067705272823e-01
543:6.4999169805241130e-01
544:4.4188994369794349e-01
545:4.1262566009421764e-01
546:3.7749811691570312e-01
547:3.5100637163633214e-01
548:5.2014021973621383e-01
549:4.8736963285880636e-01
550:4.4732716820179208e-01
551:4.1699073046697493e-01
552:5.9496787407775120e-01
553:5.6068525283131998e-01
554:5.1776375577323952e-01
555:4.8487999740938842e-01
556:6.3155346280262614e-01
557:5.9832021275712599e-01
558:5.5577834076589105e-01
559:5.2278656433660098e-01
560:3.3662237480642937e-01
561:3.1142188188354170e-01
562:2.8249961186095096e-01
563:2.6325967381174548e-01
564:4.0059262549344016e-01
565:3.7182718388930747e-01
566:3.3858354319574424e-01
567:3.1617685832867803e-01
568:4.6711163271223710e-01
569:4.3583364585399109e-01
570:3.9928770543234898e-01
571:3.7419823174913763e-01
572:5.0492150836808491e-01
573:4.7334913450572058e-01
574:4.3607132007218025e-01
575:4.1005756894757267e-01
576:2.5397686818140996e-01
577:2.3764038096824966e-01
578:2.1790556634831854e-01
579:2.0361618455280317e-01
580:3.0523364973056827e-01
581:2.8594323921762904e-01
582:2.6266742489136274e-01
583:2.4587382075931793e-01
584:3.6174580424416175e-01
585:3.3970032306937359e-01
586:3.1304386535415074e-01
587:2.9383305552356931e-01
588:3.9696775618020569e-01
589:3.7367415913437418e-01
590:3.4538466343685259e-01
591:3.2496402658892626e-01
592:1.9622200251820915e-01
593:1.8330545124491507e-01
594:1.6833023316440598e-01
595:1.5816681064059621e-01
596:2.3721037734326525e-01
597:2.2202289915696347e-01
598:2.0428039579835466e-01
599:1.9212638231262097e-01
600:2.8394438996873306e-01
601:2.6654144241946931e-01
602:2.4603114528229408e-01
603:2.3181793166931558e-01
604:3.1445739698538389e-01
605:2.9591933914429530e-01
606:2.7393771106292381e-01
607:2.5857482322025277e-01
608:1.5316718585902298e-01
609:1.4430416080589575e-01
610:1.3359808053056904e-01
611:1.2594484188665614e-01
612:1.8610892902131765e-01
613:1.7545355022840345e-01
614:1.6262041386947362e-01
615:1.5347280405284550e-01
616:2.2472016367967440e-01
617:2.1214101689426820e-01
618:1.9699993949800479e-01
619:1.8622219780672189e-01
620:2.5085152458612947e-01
621:2.3713504885914133e-01
622:2.2059704866709981e-01
623:2.0881683976304799e-01
624:1.2203966504525164e-01
625:1.1516018216377231e-01
626:1.0702645259418184e-01
627:1.0137363381481611e-01
628:1.4881126653056764e-01
629:1.4057500710383872e-01
630:1.3078711042508870e-01
631:1.2395051587285422e-01
632:1.8073560013979639e-01
633:1.7101449750067299e-01
634:1.5940001706134635e-01
635:1.5123839891772783e-01
636:2.0282025916337684e-01
637:1.9217876034888665e-01
638:1.7942238700114535e-01
639:1.7042046654710591e-01
640:9.8545233476036276e-02
641:9.3511498595960835e-02
642:8.7427433079210901e-02
643:8.3095750031758342e-02
644:1.2052031145419125e-01
645:1.1442074220735024e-01
646:1.0705928603576315e-01
647:1.0182276421138124e-01
648:1.4712688962929102e-01
649:1.3981266867269035e-01
650:1.3098462807394909e-01
651:1.2470426467395496e-01
652:1.6587137850843636e-01
653:1.5776907569619386e-01
654:1.4797738624595921e-01
655:1.4100459833476775e-01
656:8.0894951191351275e-02
657:7.6985406464521997e-02
658:7.2290755652731103e-02
659:6.8974289334583647e-02
660:9.9162255639104385e-02
661:9.4427965458567145e-02
662:8.8728096592404881e-02
663:8.4692495768497786e-02
664:1.2151270792839389e-01
665:1.1582416089314884e-01
666:1.0895643124214288e-01
667:1.0408004791468015e-01
668:1.3745940682997104e-01
669:1.3113445126602211e-01
670:1.2348484460315788e-01
671:1.1804191464253987e-01
672:6.7297389736543214e-02
673:6.4300973028654645e-02
674:6.0664360494809437e-02
675:5.8068097411983259e-02
676:8.2649803544599540e-02
677:7.9000545155302110e-02
678:7.4572628380982178e-02
679:7.1410854579059269e-02
680:1.0160736726853142e-01
681:9.7187727978404831e-02
682:9.1821521318168411e-02
683:8.7986646569316082e-02
684:1.1527780594806354e-01
685:1.1033332917320271e-01
686:1.0432351319097591e-01
687:1.0002431308124254e-01
688:5.6747080490335000e-02
689:5.4383728924686209e-02
690:5.1512384923892332e-02
691:4.9460211693150180e-02
692:6.9801397837996521e-02
693:6.6919558314752936e-02
694:6.3414064445198828e-02
695:6.0906159185740397e-02
696:8.6033272354876802e-02
697:8.2532341039457086e-02
698:7.8267542377472826e-02
699:7.5211945897251789e-02
700:9.7833026559464673e-02
701:9.3903133889520693e-02
702:8.9110618599373886e-02
703:8.5672817675232577e-02
704:4.8414903133455811e-02
705:4.6536606427547061e-02
706:4.4238343600407876e-02
707:4.2584250385171878e-02
708:5.9628102016422768e-02
709:5.7331252608940342e-02
710:5.4519980819460578e-02
711:5.2495644112939832e-02
712:7.3653352205126990e-02
713:7.0850830680285928e-02
714:6.7417767851040672e-02
715:6.4943354023904845e-02
716:8.3917806382942634e-02
717:8.0760226257971204e-02
718:7.6888820102278335e-02
719:7.4095938789726479e-02
720:4.1737973821263749e-02
721:4.0211507501237816e-02
722:3.8332499745040875e-02
723:3.6971409095697287e-02
724:5.1459468082607408e-02
725:4.9589604508031800e-02
726:4.7286388508511336e-02
727:4.5617029376452123e-02
728:6.3675933487591166e-02
729:6.1387291946408386e-02
730:5.8565484373489705e-02
731:5.6518223619386673e-02
732:7.2664535429921934e-02
733:7.0078416834247009e-02
734:6.6887196484697944e-02
735:6.4569884078556281e-02
736:3.6271795463172121e-02
737:3.5002125652509930e-02
738:3.3423873052698491e-02
739:3.2268955165087571e-02
740:4.4758669334754121e-02
741:4.3200459698832051e-02
742:4.1262614981572319e-02
743:3.9843779857991153e-02
744:5.5464869556185230e-02
745:5.3551619911245664e-02
746:5.1170171132414427e-02
747:4.9424928587504566e-02
748:6.3376866008110155e-02
749:6.1208814129286644e-02
750:5.8508067619500080e-02
751:5.6527196377595977e-02
752:3.1671132966746826e-02
753:3.0577345604143609e-02
754:2.9199963794165874e-02
755:2.8178162801917168e-02
756:3.9109052625164793e-02
757:3.7764312901940600e-02
758:3.6070048353678316e-02
759:3.4812539579412966e-02
760:4.8520600030679394e-02
761:4.6864496605977281e-02
762:4.4776135191219167e-02
763:4.3224766799115265e-02
764:5.5500203291101870e-02
765:5.3618517567267598e-02
766:5.1243877767889121e-02
767:4.9478461191496168e-02
768:2.7644159144881067e-02
769:2.6656109376566664e-02
770:2.5389822795674019e-02
771:2.4433354160205208e-02
772:3.4155139418277872e-02
773:3.2938386006801448e-02
774:3.1378234271669928e-02
775:3.0199219278940589e-02
776:4.2413273687206127e-02
777:4.0910488562907563e-02
778:3.8981981524385707e-02
779:3.7523390821134095e-02
780:4.8554520522600460e-02
781:4.6842661399835665e-02
782:4.4644248808266236e-02
783:4.2980313180460639e-02
784:2.3927299370813306e-02
785:2.2977717238890888e-02
786:2.1734333587541524e-02
787:2.0774876331782707e-02
788:2.9575215683949500e-02
789:2.8403973673227095e-02
790:2.6869716929401793e-02
791:2.5685343635251802e-02
792:3.6751001189188955e-02
793:3.5300525132905533e-02
794:3.3399133819462537e-02
795:3.1930353440181219e-02
796:4.2098767313317506e-02
797:4.0442587122746065e-02
798:3.8270180989005656e-02
799:3.6591043544018702e-02
800:2.0259955647254465e-02
801:1.9278339110060765e-02
802:1.7962643367851201e-02
803:1.6924435543992880e-02
804:2.5049558474174800e-02
805:2.3837259304643872e-02
806:2.2211859661421873e-02
807:2.0928897423596868e-02
808:3.1141558324686999e-02
809:2.9636923053785427e-02
810:2.7618487815364374e-02
811:2.6024515203503882e-02
812:3.5688938443758977e-02
813:3.3967587635764865e-02
814:3.1657360485215932e-02
815:2.9832185840143910e-02
816:1.6359163033706246e-02
817:1.5264864356198105e-02
818:1.3765642065382173e-02
819:1.2558505048084820e-02
820:2.0230242595741497e-02
821:1.8877549835922925e-02
822:1.7023995274587235e-02
823:1.5531335496020272e-02
824:2.5156239837697165e-02
825:2.3474743026343784e-02
826:2.1169931730548389e-02
827:1.9313391423433735e-02
828:2.8837715909958754e-02
829:2.6911442013110541e-02
830:2.4270419917232479e-02
831:2.2142579009330574e-02
832:1.1892895290414516e-02
833:1.0587006537374741e-02
834:8.7644402693380901e-03
835:7.2725287325163231e-03
836:1.4708221148836534e-02
837:1.3093241033827568e-02
838:1.0839171052152562e-02
839:8.9939678810229060e-03
840:1.8289468640430014e-02
841:1.6280323285943941e-02
842:1.3475837596114029e-02
843:1.1179898738259777e-02
844:2.0968879833080045e-02
845:1.8665681888652915e-02
846:1.5450491976831031e-02
847:1.2818176678296021e-02
848:6.4416293747340207e-03
849:4.7958203788096149e-03
850:2.4692299377929590e-03
851:5.4340738061586119e-04
852:7.9662921965339573e-03
853:5.9307823866819806e-03
854:3.0534775972907552e-03
855:6.7197684541462418e-04
856:9.9011538071838070e-03
857:7.3684670261799307e-03
858:3.7886819336153156e-03
859:8.2602199687100330e-04
860:1.1352052894495500e-02
861:8.4483537472645372e-03
862:4.3444480241614574e-03
863:9.4825928696676374e-04
864:-1.2959191154246591e-02
865:7.9670342013411100e-03
866:1.0634946214654438e-02
867:-9.0078214542547285e-03
868:1.9617059948487972e-04
869:1.0673688574799884e-02
870:8.6794532145080157e-03
871:-1.3577259785564589e-02
872:-6.6776478072780926e-03
873:-1.5652579790627518e-02
874:2.5237157418554840e-02
875:8.4217413123302970e-02
876:-6.2498624298447575e-02
877:-8.0374611096650492e-02
878:7.8301735073146916e-02
879:3.2659545601236323e-01
880:-2.5206026813968125e-02
881:-2.1148754323935679e-02
882:4.0616090945013644e-02
883:1.1181133171040374e-01
884:-3.0868201429439003e-02
885:9.1191033450402196e-04
886:1.6138314884757288e-01
887:3.5412757253260574e-01
888:1.2570805669338081e-01
889:2.8792177336315167e-01
890:6.5788520129501593e-01
891:1.0427400296268889e+00
892:4.9920070971948732e-01
893:8.7883122722234364e-01
894:1.4631651167182826e+00
895:1.9634133159581961e+00
896:1.5577419488800059e-01
897:3.0339247334410085e-01
898:6.2347461118096403e-01
899:9.5496930592272611e-01
900:4.7573936949590390e-01
901:7.4930677210054120e-01
902:1.2170039116537379e+00
903:1.6781326822137599e+00
904:1.2744519452125307e+00
905:1.7051528441116444e+00
906:2.2925949675578248e+00
907:2.8037931109295990e+00
908:2.2393725359281236e+00
909:2.7022375377470902e+00
910:3.2352123362593730e+00
911:3.6376962003693767e+00
912:1.1471318428632105e+00
913:1.3681781110231825e+00
914:1.5514349718667919e+00
915:1.8029702468112705e+00
916:1.9501095236188084e+00
917:2.2667928951223959e+00
918:2.3963373708540239e+00
919:2.4172822073425202e+00
920:3.0930482991850368e+00
921:3.3867096943634412e+00
922:3.3060015619218959e+00
923:2.9685131905896029e+00
924:3.8496314129098939e+00
925:3.9958103398306153e+00
926:3.6844009746751492e+00
927:3.1026861052591936e+00
928:2.0276062698576314e+00
929:2.4916994473430782e+00
930:2.8551311635958481e+00
931:2.6732885237256734e+00
932:2.4461485832016385e+00
933:2.5812853274607108e+00
934:2.6683188464852039e+00
935:2.4286091129432417e+00
936:2.7304893462155992e+00
937:2.4307638448156794e+00
938:2.1808306810301259e+00
939:1.9118387662914109e+00
940:2.7045512677449421e+00
941:2.1443228382071879e+00
942:1.7003506632415508e+00
943:1.4378629140105188e+00
944:2.3546133631927608e+00
945:1.7296760563833360e+00
946:1.0760204028112628e+00
947:8.1451161882020318e-01
948:2.1386354581289475e+00
949:1.5769918746087930e+00
950:9.9316473115606296e-01
951:7.6732460927905677e-01
952:1.6938335726395668e+00
953:1.2737932387714666e+00
954:8.3576124566630183e-01
955:6.7576609801440424e-01
956:1.2848132411001474e+00
957:9.9114355404005705e-01
958:6.8452976414292788e-01
959:5.8310336223555514e-01
960:7.8306688472155461e-01
961:7.4508772933920886e-01
962:6.9623480193176723e-01
963:6.6114319818888045e-01
964:7.4689948181467813e-01
965:7.2617343774483578e-01
966:6.9465611311874076e-01
967:6.6775758637180316e-01
968:6.7119260727963892e-01
969:6.7335036939034776e-01
970:6.6451646246400864e-01
971:6.4908630615174079e-01
972:5.9158972342423743e-01
973:6.1173661771776344e-01
974:6.2050305148796936e-01
975:6.1454823931892300e-01
976:6.4371607059600855e-01
977:6.1176911720402283e-01
978:5.7030717443630607e-01
979:5.3789906702293944e-01
980:6.5271702109673069e-01
981:6.2427414917812263e-01
982:5.8640341657602546e-01
983:5.5629478271996979e-01
984:6.3810180717940923e-01
985:6.1634202005304894e-01
986:5.8615717766949316e-01
987:5.6130235807226037e-01
988:6.0742781634827614e-01
989:5.9243001583521160e-01
990:5.7038138432499308e-01
991:5.5117588921206506e-01
992:5.2031722238704958e-01
993:4.8916028122953081e-01
994:4.5212542900499830e-01
995:4.2602239373411621e-01
996:5.3985189073568030e-01
997:5.1045669853654640e-01
998:4.7490941381185653e-01
999:4.4930842973873120e-01
1000:5.4745363035577088e-01
1001:5.2213092220013757e-01
1002:4.9038197529162125e-01
1003:4.6665997367443474e-01
1004:5.4008944891628086e-01
1005:5.1912088933520939e-01
1006:4.9158057825801699e-01
1007:4.7017007359227225e-01
1008:4.1278084656929903e-01
1009:3.8913592335840969e-01
1010:3.6032332649678017e-01
1011:3.3948741155894419e-01
1012:4.3611766834340526e-01
1013:4.1242340572606689e-01
1014:3.8336647000169460e-01
1015:3.6225159937207879e-01
1016:4.5416242565008225e-01
1017:4.3156211577512565e-01
1018:4.0361135778103729e-01
1019:3.8311108174735758e-01
1020:4.5865886606709638e-01
1021:4.3774555594555514e-01
1022:4.1169830212931413e-01
1023:3.9240241131013442e-01
1024:3.2876421029539948e-01
1025:3.0981950525842222e-01
1026:2.8728616644731358e-01
1027:2.7146792348206389e-01
1028:3.5136001453686894e-01
1029:3.3205037264465825e-01
1030:3.0892783255407597e-01
1031:2.9255950340629627e-01
1032:3.7246690811951827e-01
1033:3.5345603580600776e-01
1034:3.3042184632956295e-01
1035:3.1391557007322224e-01
1036:3.8230054484212689e-01
1037:3.6410134104515424e-01
1038:3.4177302826986405e-01
1039:3.2558787830150121e-01
1040:2.6348743247947715e-01
1041:2.4929197334626296e-01
1042:2.3214865724372910e-01
1043:2.1992464929921998e-01
1044:2.8425061179172195e-01
1045:2.6942868071881343e-01
1046:2.5146676511516608e-01
1047:2.3862080678472852e-01
1048:3.0547179578389994e-01
1049:2.9035692677647906e-01
1050:2.7194892862750558e-01
1051:2.5871193260652614e-01
1052:3.1725561475370723e-01
1053:3.0230311239409408e-01
1054:2.8401912677446012e-01
1055:2.7080318479900889e-01
1056:2.1370019721400654e-01
1057:2.0264644910724702e-01
1058:1.8937544888988783e-01
1059:1.7999079278686086e-01
1060:2.3206904358642436e-01
1061:2.2041370753651945e-01
1062:2.0637609338539425e-01
1063:1.9641111050373719e-01
1064:2.5193503560884656e-01
1065:2.3983901005170621e-01
1066:2.2519508466318139e-01
1067:2.1474297336892009e-01
1068:2.6400983191438432e-01
1069:2.5184134949282300e-01
1070:2.3703351408639911e-01
1071:2.2641182160170897e-01
1072:1.7524050051121998e-01
1073:1.6677236047984037e-01
1074:1.5652765089975698e-01
1075:1.4922596879054850e-01
1076:1.9135280974859140e-01
1077:1.8232020711810740e-01
1078:1.7136748279026071e-01
1079:1.6354432818472231e-01
1080:2.0941845446404014e-01
1081:1.9988898112773265e-01
1082:1.8829469454484180e-01
1083:1.7998344493861082e-01
1084:2.2098482910407694e-01
1085:2.1125471451625674e-01
1086:1.9938302693433790e-01
1087:1.9084548766428513e-01
1088:1.4551197068527433e-01
1089:1.3888283446549524e-01
1090:1.3085848058974123e-01
1091:1.2514276039598224e-01
1092:1.5955998016535580e-01
1093:1.5244082967208822e-01
1094:1.4380804150561044e-01
1095:1.3764616713826100e-01
1096:1.7574024838639785e-01
1097:1.6814468203674360e-01
1098:1.5890813033677562e-01
1099:1.5229533034600148e-01
1100:1.8647669614012377e-01
1101:1.7864216537366251e-01
1102:1.6908944994431177e-01
1103:1.6223165769333811e-01
1104:1.2223774624998399e-01
1105:1.1703840301623598e-01
1106:1.1071415906730601e-01
1107:1.0618692707356134e-01
1108:1.3450967941527328e-01
1109:1.2888996319030230e-01
1110:1.2204374955118394e-01
1111:1.1713530847584083e-01
1112:1.4892242121343033e-01
1113:1.4286986809192714e-01
1114:1.3547931877851652e-01
1115:1.3016778148588962e-01
1116:1.5872766306713548e-01
1117:1.5243188849374922e-01
1118:1.4472923221935341e-01
1119:1.3918161088116671e-01
1120:1.0387847433933790e-01
1121:9.9737038760354280e-02
1122:9.4683654171993772e-02
1123:9.1056325111944378e-02
1124:1.1463004421435183e-01
1125:1.1013211702925800e-01
1126:1.0463706488370247e-01
1127:1.0068734615529390e-01
1128:1.2745240943768604e-01
1129:1.2257124854939137e-01
1130:1.1659664800085023e-01
1131:1.1229345944022535e-01
1132:1.3634141479696124e-01
1133:1.3123006652812833e-01
1134:1.2496291442630712e-01
1135:1.2044085160255097e-01
1136:8.9203672492810707e-02
1137:8.5869187680255032e-02
1138:8.1778670560022276e-02
1139:7.8826110935637572e-02
1140:9.8668099256095460e-02
1141:9.5031000825667455e-02
1142:9.0564173112483090e-02
1143:8.7336221915932918e-02
1144:1.1009043148689290e-01
1145:1.0611784135879614e-01
1146:1.0123063565050483e-01
1147:9.7692580511854393e-02
1148:1.1812297030118075e-01
1149:1.1393923129352736e-01
1150:1.0878463238987217e-01
1151:1.0504716104840280e-01
1152:7.7312335254777695e-02
1153:7.4576580798477565e-02
1154:7.1199127153049796e-02
1155:6.8745334014951170e-02
1156:8.5679979102238207e-02
1157:8.2684821611599263e-02
1158:7.8983389876388185e-02
1159:7.6291312928857796e-02
1160:9.5875048477013808e-02
1161:9.2584909692909029e-02
1162:8.8512611678678590e-02
1163:8.5545921586268697e-02
1164:1.0312515506030172e-01
1165:9.9642797864398155e-02
1166:9.5326686406990629e-02
1167:9.2177857675484615e-02
1168:6.7481606441899003e-02
1169:6.5184354747614442e-02
1170:6.2321337512495696e-02
1171:6.0220445341508957e-02
1172:7.4903836143161276e-02
1173:7.2379999329055755e-02
1174:6.9231498819157314e-02
1175:6.6918769907264058e-02
1176:8.4015195832732634e-02
1177:8.1228062958453487e-02
1178:7.7745902344366513e-02
1179:7.5184126412278368e-02
1180:9.0551574074639249e-02
1181:8.7587933892363343e-02
1182:8.3880439770592882e-02
1183:8.1149219898477495e-02
1184:5.9130879129219681e-02
1185:5.7133967626012659e-02
1186:5.4612801957932618e-02
1187:5.2737600176461889e-02
1188:6.5718523833242767e-02
1189:6.3517392489577870e-02
1190:6.0735749051633890e-02
1191:5.8664790341939076e-02
1192:7.3853249765220425e-02
1193:7.1410225376482797e-02
1194:6.8318402760669375e-02
1195:6.6013090749708181e-02
1196:7.9729032335872196e-02
1197:7.7119905859579618e-02
1198:7.3813713398148878e-02
1199:7.1345401886252491e-02
1200:5.1755904753168581e-02
1201:4.9936528801303059e-02
1202:4.7599063281513601e-02
1203:4.5829146442938673e-02
1204:5.7579907324912492e-02
1205:5.5568084709102517e-02
1206:5.2981055238444624e-02
1207:5.1020429948278406e-02
1208:6.4804244661343449e-02
1209:6.2560489465968649e-02
1210:5.9671282030581176e-02
1211:5.7478693522899950e-02
1212:7.0049979531991893e-02
1213:6.7643629468444683e-02
1214:6.4541417057438377e-02
1215:6.2184453225170896e-02
1216:4.4891198640016325e-02
1217:4.3128617214345383e-02
1218:4.0815814486915146e-02
1219:3.9027546207126146e-02
1220:4.9980817872973655e-02
1221:4.8026144982923742e-02
1222:4.5459301404500135e-02
1223:4.3473143626738833e-02
1224:5.6315065641552524e-02
1225:5.4125439792309417e-02
1226:5.1246680573372200e-02
1227:4.9016678447469542e-02
1228:6.0932649709241088e-02
1229:5.8575463650556665e-02
1230:5.5473298721104652e-02
1231:5.3067945425737367e-02
1232:3.8066604110629954e-02
1233:3.6232636166289654e-02
1234:3.3770618291748621e-02
1235:3.1825056717411919e-02
1236:4.2405368744820371e-02
1237:4.0366676171570172e-02
1238:3.7628274147505254e-02
1239:3.5463190633395300e-02
1240:4.7816968240085779e-02
1241:4.5524950842341719e-02
1242:4.2443634262348019e-02
1243:4.0005530935133385e-02
1244:5.1773124091552422e-02
1245:4.9298092340317193e-02
1246:4.5968307170924046e-02
1247:4.3331858898476731e-02
1248:3.0764839524492747e-02
1249:2.8710980664160397e-02
1250:2.5894614669149583e-02
1251:2.3625212204850008e-02
1252:3.4282981265010531e-02
1253:3.1996107969421712e-02
1254:2.8859207080379114e-02
1255:2.6330822025855960e-02
1256:3.8675873494914248e-02
1257:3.6098450770762090e-02
1258:3.2561271754086407e-02
1259:2.9709063450345588e-02
1260:4.1893460267454337e-02
1261:3.9104370072227133e-02
1262:3.5275123920561702e-02
1263:3.2186317087840088e-02
1264:2.2373339834843398e-02
1265:1.9916647434739299e-02
1266:1.6487044041989415e-02
1267:1.3679103273419592e-02
1268:2.4935871633560619e-02
1269:2.2198171117622831e-02
1270:1.8375922010581119e-02
1271:1.5246302074943496e-02
1272:2.8135086714546509e-02
1273:2.5045633903059625e-02
1274:2.0731673860275648e-02
1275:1.7199089369559009e-02
1276:3.0481438829474961e-02
1277:2.7134687776876318e-02
1278:2.2460898887167804e-02
1279:1.8633339911471432e-02
1280:1.2115144178167263e-02
1281:9.0177462422880682e-03
1282:4.6402432403024633e-03
1283:1.0177749168644623e-03
1284:1.3503131355026206e-02
1285:1.0050943484475893e-02
1286:5.1723745359484301e-03
1287:1.1355684593506701e-03
1288:1.5231394813765464e-02
1289:1.1334776381763376e-02
1290:5.8287301878065887e-03
1291:1.2732289988413692e-03
1292:1.6501273596943936e-02
1293:1.2279367075209808e-02
1294:6.3142496881761923e-03
1295:1.3794297018275134e-03
1296:-1.1915020451950288e-01
1297:-1.3664733811025614e-01
1298:1.2869563484756594e-01
1299:5.4102992621902046e-01
1300:-2.0974216353483113e-01
1301:-2.2771343005263076e-01
1302:2.8575933248398905e-01
1303:1.0818268113390712e+00
1304:2.8004640775077277e-02
1305:-4.8266081601379518e-02
1306:6.8562603760190077e-01
1307:1.8838641516917696e+00
1308:7.7594263476531988e-01
1309:5.6102019738580655e-01
1310:1.2068165509521491e+00
1311:2.4149469305673850e+00
1312:8.2562926586758656e-01
1313:1.3756714930190206e+00
1314:2.0900958335378310e+00
1315:2.6226294333274995e+00
1316:1.6279444462510295e+00
1317:2.5557451622922946e+00
1318:3.5032907611847728e+00
1319:4.0224081770937907e+00
1320:2.7128631786512156e+00
1321:4.0200102743408772e+00
1322:5.1184187577134139e+00
1323:5.4999715415465031e+00
1324:3.2728116690463596e+00
1325:4.5795182816971538e+00
1326:5.5592315925023241e+00
1327:5.7684191132192417e+00
1328:2.8934926586233067e+00
1329:3.3165752695572959e+00
1330:3.7405683224464266e+00
1331:4.0157265368080202e+00
1332:4.2234158870103036e+00
1333:4.4571457914373021e+00
1334:4.5282086250060845e+00
1335:4.4483811008463814e+00
1336:5.5465173159183623e+00
1337:5.4352724272687620e+00
1338:4.9571918874583316e+00
1339:4.3706413065953535e+00
1340:5.6992986154499770e+00
1341:5.3667852723594853e+00
1342:4.5871178256802745e+00
1343:3.7476637738961838e+00
1344:4.1470401325010240e+00
1345:4.1636475161809123e+00
1346:3.7164986819304815e+00
1347:3.0386067694025485e+00
1348:4.3671492985700704e+00
1349:4.0695978005871671e+00
1350:3.3760703035940183e+00
1351:2.6070088406526666e+00
1352:3.9969792388500207e+00
1353:3.2974721145967596e+00
1354:2.3802252370993968e+00
1355:1.6450317213461214e+00
1356:3.2340582347596070e+00
1357:2.3661701607779579e+00
1358:1.4244925319344881e+00
1359:8.0933467766620659e-01
1360:2.5874399542310993e+00
1361:1.9386456391324589e+00
1362:1.4296666779497955e+00
1363:1.1800471039826308e+00
1364:2.1310583219234034e+00
1365:1.4377536275450382e+00
1366:9.0927574956649082e-01
1367:7.1420015033639173e-01
1368:1.2447242576841775e+00
1369:6.6817077165294347e-01
1370:2.5948272435866354e-01
1371:1.7217600792543541e-01
1372:5.1271409288628178e-01
1373:9.7127981400572633e-02
1374:-1.6519920500191457e-01
1375:-1.6635332853545415e-01
1376:1.0604503990496048e+00
1377:8.3251337756393295e-01
1378:5.9609863622729498e-01
1379:5.2649821707340783e-01
1380:6.5657764976620081e-01
1381:5.4599205864142886e-01
1382:4.3266907276584876e-01
1383:4.1755789433576523e-01
1384:1.8765864770205873e-01
1385:2.0899243251033406e-01
1386:2.3039307905579992e-01
1387:2.7274454905334061e-01
1388:-1.0757748733940126e-01
1389:-1.0829815656510797e-02
1390:8.6387102114104344e-02
1391:1.6012273354567313e-01
1392:5.4209002439334097e-01
1393:5.7189922370875068e-01
1394:5.9009603621286555e-01
1395:5.8943521901618612e-01
1396:4.4472462077951563e-01
1397:4.9051101913424189e-01
1398:5.2524643038481755e-01
1399:5.3457413196121428e-01
1400:3.1114641144424143e-01
1401:3.7325686884599391e-01
1402:4.2722735789941790e-01
1403:4.4971787775910455e-01
1404:2.0416470645429929e-01
1405:2.7549565587122615e-01
1406:3.4259541873507787e-01
1407:3.7537979648762398e-01
1408:5.8463650075032803e-01
1409:5.7379000431764582e-01
1410:5.5679554075706306e-01
1411:5.4110260248426845e-01
1412:5.3437086148441815e-01
1413:5.3164142811537340e-01
1414:5.2435972810322939e-01
1415:5.1540518272783453e-01
1416:4.5596973590639184e-01
1417:4.6435701695778037e-01
1418:4.6989529945833614e-01
1419:4.6972064163399424e-01
1420:3.8697355348948032e-01
1421:4.0431289500060363e-01
1422:4.1972179245887348e-01
1423:4.2613431001393176e-01
1424:5.3172331404764162e-01
1425:5.1345479812666961e-01
1426:4.8856932903705941e-01
1427:4.6867579034042878e-01
1428:5.0933717090987163e-01
1429:4.9644511118559115e-01
1430:4.7708360341201528e-01
1431:4.6048379879892781e-01
1432:4.6801799605974925e-01
1433:4.6251299463698908e-01
1434:4.5125210086334255e-01
1435:4.3977338936920080e-01
1436:4.2771673454863479e-01
1437:4.2800969700126068e-01
1438:4.2352137731790290e-01
1439:4.1656293596599919e-01
1440:4.5784097978702337e-01
1441:4.3810730312170859e-01
1442:4.1342419945486308e-01
1443:3.9501583130918289e-01
1444:4.5114410093316271e-01
1445:4.3399045460290242e-01
1446:4.1226727376507499e-01
1447:3.9580739578854696e-01
1448:4.3281519595331502e-01
1449:4.1970423580897082e-01
1450:4.0253730475636712e-01
1451:3.8908988587545512e-01
1452:4.1175873588495987e-01
1453:4.0225433397829757e-01
1454:3.8907472142736538e-01
1455:3.7825028647483078e-01
1456:3.8532276703487311e-01
1457:3.6775531453474414e-01
1458:3.4602215077875481e-01
1459:3.3015389779900611e-01
1460:3.8703448389404294e-01
1461:3.7094336506523629e-01
1462:3.5069657499899215e-01
1463:3.3568403958690318e-01
1464:3.8177136950702462e-01
1465:3.6810959217446376e-01
1466:3.5047444317741344e-01
1467:3.3707059311100884e-01
1468:3.7221104369707358e-01
1469:3.6074888751016776e-01
1470:3.4558829899770638e-01
1471:3.3377759568122223e-01
1472:3.2195382783050924e-01
1473:3.0721909231841377e-01
1474:2.8916066894361175e-01
1475:2.7606751835583931e-01
1476:3.2785903732270633e-01
1477:3.1374961947563335e-01
1478:2.9636497592140554e-01
1479:2.8367847079808117e-01
1480:3.2997813378482288e-01
1481:3.1709517172890356e-01
1482:3.0105618404890355e-01
1483:2.8922476183645024e-01
1484:3.2742879724108542e-01
1485:3.1579204150889922e-01
1486:3.0112760286032803e-01
1487:2.9018668664355479e-01
1488:2.6932049772824113e-01
1489:2.5720728464277498e-01
1490:2.4241833351811723e-01
1491:2.3177770352459165e-01
1492:2.7710920618480156e-01
1493:2.6526274304012709e-01
1494:2.5070482265868943e-01
1495:2.4016360391152713e-01
1496:2.8305447388654242e-01
1497:2.7185931087329263e-01
1498:2.5797253369100054e-01
1499:2.4781953487528516e-01
1500:2.8444226476119583e-01
1501:2.7396570901009498e-01
1502:2.6086417825088265e-01
1503:2.5120070208330064e-01
1504:2.2633143194342417e-01
1505:2.1655718135109980e-01
1506:2.0461285607849680e-01
1507:1.9600712961649261e-01
1508:2.3474732841400103e-01
1509:2.2500574399315451e-01
1510:2.1306144224002882e-01
1511:2.0442331036945452e-01
1512:2.4256997920212520e-01
1513:2.3309314018644947e-01
1514:2.2141011710488245e-01
1515:2.1291253534911528e-01
1516:2.4617453796999861e-01
1517:2.3706699741090378e-01
1518:2.2577947510375396e-01
1519:2.1752596279565431e-01
1520:1.9159744652465138e-01
1521:1.8368075633467976e-01
1522:1.7401199615921370e-01
1523:1.6705952643665964e-01
1524:1.9998521959486243e-01
1525:1.9199992547609471e-01
1526:1.8221504635986713e-01
1527:1.7515530824430395e-01
1528:2.0852993018330149e-01
1529:2.0061957257412893e-01
1530:1.9087953245225270e-01
1531:1.8381644870048858e-01
1532:2.1325483514374577e-01
1533:2.0552463390884412e-01
1534:1.9596598368194482e-01
1535:1.8900304949602112e-01
1536:1.6350349125956740e-01
1537:1.5710960557320738e-01
1538:1.4927815184320772e-01
1539:1.4363086128171609e-01
1540:1.7153655873463949e-01
1541:1.6502015226854150e-01
1542:1.5702030352838439e-01
1543:1.5123729886734968e-01
1544:1.8018384315394065e-01
1545:1.7362741491624875e-01
1546:1.6555057024682718e-01
1547:1.5969056937241702e-01
1548:1.8541107918625141e-01
1549:1.7891441751044890e-01
1550:1.7088639037748143e-01
1551:1.6504310432475219e-01
1552:1.4073718588696205e-01
1553:1.3552607206197959e-01
1554:1.2913006484874223e-01
1555:1.2451013207380396e-01
1556:1.4826905700714230e-01
1557:1.4291635931957333e-01
1558:1.3633293232621663e-01
1559:1.3156731986806258e-01
1560:1.5667540724505594e-01
1561:1.5122720366829759e-01
1562:1.4450575116906131e-01
1563:1.3962455723114892e-01
1564:1.6203014043394579e-01
1565:1.5657637061795815e-01
1566:1.4982993547226967e-01
1567:1.4491673371933794e-01
1568:1.2214042147028595e-01
1569:1.1786075348953202e-01
1570:1.1258346238596496e-01
1571:1.0875357096682926e-01
1572:1.2911936065517227e-01
1573:1.2469335935029537e-01
1574:1.1922613018519042e-01
1575:1.1525110051195556e-01
1576:1.3711182890514134e-01
1577:1.3256108533857985e-01
1578:1.2692535045048003e-01
1579:1.2281674656384761e-01
1580:1.4238273788096864e-01
1581:1.3778674919430905e-01
1582:1.3208232205428511e-01
1583:1.2791395891937996e-01
1584:1.0678282961339042e-01
1585:1.0321032526535977e-01
1586:9.8778973070990955e-02
1587:9.5543389488823446e-02
1588:1.1320312727062216e-01
1589:1.0948670788941386e-01
1590:1.0486939845357138e-01
1591:1.0149234719878079e-01
1592:1.2069609423545521e-01
1593:1.1684180164667989e-01
1594:1.1204178629027468e-01
1595:1.0852238087552997e-01
1596:1.2575908953796369e-01
1597:1.2183731429177025e-01
1598:1.1694315150456625e-01
1599:1.1334699762850999e-01
1600:9.3871365009508101e-02
1601:9.0822878501093579e-02
1602:8.7006389280020788e-02
1603:8.4192698257050891e-02
1604:9.9745232809080292e-02
1605:9.6556661569743074e-02
1606:9.2558703632306408e-02
1607:8.9606569060572058e-02
1608:1.0669857548658904e-01
1609:1.0336516114956672e-01
1610:9.9176233567122477e-02
1611:9.6075925755768968e-02
1612:1.1148073127602004e-01
1613:1.0806541658515191e-01
1614:1.0376533695332198e-01
1615:1.0057647177380105e-01
1616:8.2728866152691108e-02
1617:8.0038280476534954e-02
1618:7.6626410172872139e-02
1619:7.4077336150070047e-02
1620:8.8069081608297003e-02
1621:8.5240377385448360e-02
1622:8.1648098638886071e-02
1623:7.8960238989930862e-02
1624:9.4458761121200302e-02
1625:9.1479234998577103e-02
1626:8.7687287666749741e-02
1627:8.4843855958476863e-02
1628:9.8910911498661949e-02
1629:9.5838482076041370e-02
1630:9.1921115862113809e-02
1631:8.8978195350200837e-02
1632:7.2738877134814389e-02
1633:7.0251461042758812e-02
1634:6.7042591939112536e-02
1635:6.4602983336400993e-02
1636:7.7547512526122520e-02
1637:7.4919662938688958e-02
1638:7.1525003680180346e-02
1639:6.8940675552235889e-02
1640:8.3347210789637763e-02
1641:8.0559530246868030e-02
1642:7.6951247179677829e-02
1643:7.4198924120328497e-02
1644:8.7427291749650096e-02
1645:8.4535268339763311e-02
1646:8.0785642794118248e-02
1647:7.7920799175255170e-02
1648:6.3306732097209023e-02
1649:6.0864886645153812e-02
1650:5.7649479091071841e-02
1651:5.5154973910738023e-02
1652:6.7566335023000565e-02
1653:6.4975310709918729e-02
1654:6.1559526967347053e-02
1655:5.8906670420312945e-02
1656:7.2733396650943832e-02
1657:6.9967242912807495e-02
1658:6.6314485995614417e-02
1659:6.3473099559329560e-02
1660:7.6393738303275172e-02
1661:7.3508618369780454e-02
1662:6.9693415634775852e-02
1663:6.6721737802487663e-02
1664:5.3811706772977357e-02
1665:5.1243305181643453e-02
1666:4.7786480184042628e-02
1667:4.5048422816685967e-02
1668:5.7477153220125976e-02
1669:5.4742181042562697e-02
1670:5.1058089347894499e-02
1671:4.8137812496066607e-02
1672:6.1940477550978340e-02
1673:5.9005680725470327e-02
1674:5.5047653547285351e-02
1675:5.1906819607457570e-02
1676:6.5117513614661393e-02
1677:6.2043366946204673e-02
1678:5.7893242750989060e-02
1679:5.4596991704649100e-02
1680:4.3554253786046479e-02
1681:4.0656509158058796e-02
1682:3.6677166223895323e-02
1683:3.3466650783257994e-02
1684:4.6543483251740424e-02
1685:4.3450378032410406e-02
1686:3.9200762283855405e-02
1687:3.5770818654855353e-02
1688:5.0190959527838079e-02
1689:4.6860352320899898e-02
1690:4.2281346914765747e-02
1691:3.8583421952503770e-02
1692:5.2795251618402823e-02
1693:4.9296442561945451e-02
1694:4.4483500561800803e-02
1695:4.0594802266803211e-02
1696:3.1694399357208677e-02
1697:2.8215184237200739e-02
1698:2.3356091261428267e-02
1699:1.9376595193301746e-02
1700:3.3877016633377333e-02
1701:3.0158724296819737e-02
1702:2.4965041443906495e-02
1703:2.0711118926421669e-02
1704:3.6541002971930449e-02
1705:3.2530209799899804e-02
1706:2.6926882883713907e-02
1707:2.2336806765957874e-02
1708:3.8446447004551361e-02
1709:3.4227010462697167e-02
1710:2.8331260490900009e-02
1711:2.3501093312925561e-02
1712:1.7159857415759431e-02
1713:1.2770422160733022e-02
1714:6.5689591471663183e-03
1715:1.4389223554559902e-03
1716:1.8341430830202451e-02
1717:1.3649430133312362e-02
1718:7.0212680674701265e-03
1719:1.5389206030562137e-03
1720:1.9779729300181462e-02
1721:1.4717152277557991e-02
1722:7.5666840618563149e-03
1723:1.6533552173334711e-03
1724:2.0810149843315428e-02
1725:1.5482938732720539e-02
1726:7.9597331799036875e-03
1727:1.7390564914544480e-03
1728:1.4615722170636349e+00
1729:1.1249005191897683e+00
1730:1.5805374538200554e+00
1731:2.6226751145183242e+00
1732:3.1720067810785801e+00
1733:2.5370357397341010e+00
1734:2.4087414705935730e+00
1735:2.8584074547551213e+00
1736:5.4153743095008151e+00
1737:4.3828484750683590e+00
1738:3.3592507665695575e+00
1739:2.8336942947247779e+00
1740:6.4038260977809509e+00
1741:5.1757738264900777e+00
1742:3.6430650109873381e+00
1743:2.5277180926179095e+00
1744:3.3871201774299089e+00
1745:4.5305357340536521e+00
1746:5.3303208905991921e+00
1747:5.4320173671108032e+00
1748:3.2666771759325437e+00
1749:3.8396574136257255e+00
1750:4.1290419527230400e+00
1751:4.0245255576197927e+00
1752:2.6395201937734285e+00
1753:2.2799550455260849e+00
1754:1.8132069839256963e+00
1755:1.4815861226196503e+00
1756:1.9608790155008173e+00
1757:1.0370825880763497e+00
1758:1.4280763285905115e-01
1759:-2.8656409989100479e-01
1760:5.3176400793642555e+00
1761:4.9176039259975362e+00
1762:4.0747012058117447e+00
1763:3.1982908421705112e+00
1764:3.8642548526940308e+00
1765:3.4384167566542057e+00
1766:2.6557046566537434e+00
1767:1.8861389325543636e+00
1768:1.3182285055403375e+00
1769:9.8474010928775046e-01
1770:4.8138645683059073e-01
1771:3.9894947673076324e-02
1772:-4.2695163227850930e-01
1773:-6.5740557214810091e-01
1774:-9.2595735882800401e-01
1775:-1.1112950924125924e+00
1776:2.6682745228651625e+00
1777:1.7996409230439723e+00
1778:9.1808473372925492e-01
1779:3.9289506865014678e-01
1780:1.4304544408431870e+00
1781:7.1751961986851698e-01
1782:6.5967481332715031e-02
1783:-2.6428189121193418e-01
1784:-2.0800263907270672e-01
1785:-5.6098671123390165e-01
1786:-8.1591428608532657e-01
1787:-8.9400510827651358e-01
1788:-1.2004303187986409e+00
1789:-1.2929222926585688e+00
1790:-1.2889644286745017e+00
1791:-1.2224462343513247e+00
1792:1.5637486750411755e-01
1793:-1.6728354097502657e-01
1794:-3.4977002912896177e-01
1795:-3.1131590459403014e-01
1796:-3.9365312900222443e-01
1797:-5.5727229927457422e-01
1798:-6.0772560381168139e-01
1799:-5.1430594809880603e-01
1800:-9.0706384183109290e-01
1801:-9.0036980241277553e-01
1802:-8.1755905624354797e-01
1803:-6.8243929589370034e-01
1804:-1.1747659537544892e+00
1805:-1.0781949852372037e+00
1806:-9.2520736369870948e-01
1807:-7.7314784299413153e-01
1808:-2.3606951446322397e-01
1809:-1.1107829656918407e-01
1810:1.4619992396778343e-02
1811:9.9999642998018196e-02
1812:-4.2136384456360293e-01
1813:-2.6541717155147126e-01
1814:-1.0654801819018934e-01
1815:-7.2092787477407855e-03
1816:-5.8454092605610808e-01
1817:-4.1842903797306985e-01
1818:-2.4415275168413772e-01
1819:-1.3710566248995257e-01
1820:-6.7811245933711994e-01
1821:-5.1553601227000256e-01
1822:-3.4029294869522903e-01
1823:-2.3110041744898760e-01
1824:1.4600915958061586e-01
1825:2.2112665622862218e-01
1826:2.9463625765196549e-01
1827:3.3294942670908056e-01
1828:4.1067781135435695e-02
1829:1.2125864319494863e-01
1830:2.0465978254507725e-01
1831:2.5234220809082064e-01
1832:-8.7453042379248266e-02
1833:-3.2304584701468987e-03
1834:8.9509277521162667e-02
1835:1.4712180337793979e-01
1836:-1.8056461348600292e-01
1837:-9.3922944723095314e-02
1838:4.0391268651490458e-03
1839:6.7416407567976414e-02
1840:3.4751697029391332e-01
1841:3.6976027018804786e-01
1842:3.9041161880841879e-01
1843:4.0023870649706689e-01
1844:2.7222819006116522e-01
1845:3.0334388185904615e-01
1846:3.3350663048233936e-01
1847:3.4944898169235911e-01
1848:1.7304637031290285e-01
1849:2.1454888424513602e-01
1850:2.5619786948615569e-01
1851:2.7960243247970717e-01
1852:9.7012920674151307e-02
1853:1.4516713339219955e-01
1854:1.9469803696781790e-01
1855:2.2349609062395046e-01
1856:4.0351620552536782e-01
1857:4.0688535620818478e-01
1858:4.0614087047759384e-01
1859:4.0177062266980101e-01
1860:3.5570800612861397e-01
1861:3.6451885366573561e-01
1862:3.7052388946909087e-01
1863:3.7095617341134107e-01
1864:2.8946133069332780e-01
1865:3.0483204825851867e-01
1866:3.1907026137736189e-01
1867:3.2552772774454486e-01
1868:2.3600146311153203e-01
1869:2.5614226679612379e-01
1870:2.7631931717509267e-01
1871:2.8715790552641168e-01
1872:3.9822165865463099e-01
1873:3.9080523772179993e-01
1874:3.7990755057259712e-01
1875:3.7057461113769741e-01
1876:3.6979587430536687e-01
1877:3.6639162637258715e-01
1878:3.5991545102730721e-01
1879:3.5347608504793065e-01
1880:3.2745050191607900e-01
1881:3.2931958039904258e-01
1882:3.2877631244043953e-01
1883:3.2626376338109964e-01
1884:2.9135761164660334e-01
1885:2.9720202797840145e-01
1886:3.0125703449963009e-01
1887:3.0185168968045190e-01
1888:3.6526407729602184e-01
1889:3.5507377629058512e-01
1890:3.4137845188291632e-01
1891:3.3053346495951808e-01
1892:3.4957306381267628e-01
1893:3.4184547213456346e-01
1894:3.3101422836516170e-01
1895:3.2208872144155892e-01
1896:3.2426960012893918e-01
1897:3.1988407382047085e-01
1898:3.1296990573687733e-01
1899:3.0671639472998269e-01
1900:3.0137837558524255e-01
1901:2.9965364474722544e-01
1902:2.9586747829848586e-01
1903:2.9177092442502278e-01
1904:3.2464178602625554e-01
1905:3.1377167584465071e-01
1906:2.9995426600309549e-01
1907:2.8956562572804689e-01
1908:3.1712042522046441e-01
1909:3.0781315866778036e-01
1910:2.9574208005509373e-01
1911:2.8650218214328371e-01
1912:3.0305746634828190e-01
1913:2.9599488493979081e-01
1914:2.8647315385983180e-01
1915:2.7893147822236031e-01
1916:2.8918228739595492e-01
1917:2.8397468520603625e-01
1918:2.7659038959812116e-01
1919:2.7048924546461683e-01
1920:2.8408749532493693e-01
1921:2.7406608073631888e-01
1922:2.6147304718470338e-01
1923:2.5213513154954320e-01
1924:2.8157986711083527e-01
1925:2.7251308014616388e-01
1926:2.6099853195203204e-01
1927:2.5236316940258308e-01
1928:2.7483487562156050e-01
1929:2.6719360809089859e-01
1930:2.5730925139926558e-01
1931:2.4975652788830138e-01
1932:2.6709665425171408e-01
1933:2.6067589948759973e-01
1934:2.5220056499920707e-01
1935:2.4559740916748071e-01
1936:2.4726058074726798e-01
1937:2.3840666734202068e-01
1938:2.2739670763096836e-01
1939:2.1931992459681618e-01
1940:2.4782106699200632e-01
1941:2.3952983700512612e-01
1942:2.2914702320003472e-01
1943:2.2147789565036705e-01
1944:2.4573585419602653e-01
1945:2.3833817816253822e-01
1946:2.2896979579412180e-01
1947:2.2197306557526383e-01
1948:2.4204003566543295e-01
1949:2.3544294575770053e-01
1950:2.2699428399470714e-01
1951:2.2061457398631965e-01
1952:2.1513178872560870e-01
1953:2.0753962715011620e-01
1954:1.9812815748144458e-01
1955:1.9125404143163147e-01
1956:2.1748402530437211e-01
1957:2.1021956509358833e-01
1958:2.0116726166678267e-01
1959:1.9451880946613576e-01
1960:2.1830384759364613e-01
1961:2.1159421363685194e-01
1962:2.0316537896579981e-01
1963:1.9692245610193837e-01
1964:2.1724563131749891e-01
1965:2.1105361258023106e-01
1966:2.0321599886070646e-01
1967:1.9736605726520928e-01
1968:1.8770147785092861e-01
1969:1.8126804800665483e-01
1970:1.7330354491170530e-01
1971:1.6749557344071911e-01
1972:1.9107014130916891e-01
1973:1.8480894846139323e-01
1974:1.7702867041336046e-01
1975:1.7133327079090793e-01
1976:1.9366612135745767e-01
1977:1.8773131826690892e-01
1978:1.8031474751059098e-01
1979:1.7485398076707051e-01
1980:1.9429941430688444e-01
1981:1.8869042126162605e-01
1982:1.8164415971343950e-01
1983:1.7642817823921747e-01
1984:1.6449710791503999e-01
1985:1.5906401194715192e-01
1986:1.5233254575237876e-01
1987:1.4742212146005304e-01
1988:1.6838549541445474e-01
1989:1.6303304073588540e-01
1990:1.5638011155844578e-01
1991:1.5151058375614129e-01
1992:1.7201681817435677e-01
1993:1.6684902122370407e-01
1994:1.6039478653982120e-01
1995:1.5564706497283948e-01
1996:1.7370865926407386e-01
1997:1.6874124240991872e-01
1998:1.6251094261692897e-01
1999:1.5790785214659567e-01
2000:1.4488675138479012e-01
2001:1.4028435158789809e-01
2002:1.3456461190676394e-01
2003:1.3037944940211094e-01
2004:1.4899066305321393e-01
2005:1.4440842836579676e-01
2006:1.3869895309556493e-01
2007:1.3451000365479363e-01
2008:1.5318201615690680e-01
2009:1.4868811607773566e-01
2010:1.4306717060622759e-01
2011:1.3892672265116629e-01
2012:1.5551097204888503e-01
2013:1.5113142954894856e-01
2014:1.4563481230622616e-01
2015:1.4157167594048076e-01
2016:1.2821394441406067e-01
2017:1.2426972273604650e-01
2018:1.1934164410615225e-01
2019:1.1571606595300414e-01
2020:1.3233860532652117e-01
2021:1.2837737674961608e-01
2022:1.2341603707202940e-01
2023:1.1975681165159853e-01
2024:1.3677473694475908e-01
2025:1.3283978664610921e-01
2026:1.2789384891942968e-01
2027:1.2423259511114243e-01
2028:1.3945491695411882e-01
2029:1.3557654887840820e-01
2030:1.3068674810529216e-01
2031:1.2705561414050903e-01
2032:1.1383296343276106e-01
2033:1.1038434741965931e-01
2034:1.0603756893593652e-01
2035:1.0281043122168304e-01
2036:1.1785303811292244e-01
2037:1.1436149091286867e-01
2038:1.0995087762616244e-01
2039:1.0666892453998039e-01
2040:1.2232310230947742e-01
2041:1.1881362166281939e-01
2042:1.1436608807813728e-01
2043:1.1104577757715405e-01
2044:1.2515785026855303e-01
2045:1.2166351205137553e-01
2046:1.1722287483338251e-01
2047:1.1389835393841286e-01
2048:1.0112360712939343e-01
2049:9.8009782127275985e-02
2050:9.4035465497379858e-02
2051:9.1046606253765941e-02
2052:1.0495085051642593e-01
2053:1.0177489261942219e-01
2054:9.7712720026682631e-02
2055:9.4651316794881923e-02
2056:1.0930381659953231e-01
2057:1.0607716848481531e-01
2058:1.0193758783872181e-01
2059:9.8808335066877293e-02
2060:1.1215091837359062e-01
2061:1.0890853178756303e-01
2062:1.0473799885842616e-01
2063:1.0157722276849428e-01
2064:8.9470398050891714e-02
2065:8.6529293477575986e-02
2066:8.2712404881062712e-02
2067:7.9793456090335627e-02
2068:9.3034604161961729e-02
2069:9.0014031529319860e-02
2070:8.6086565649111685e-02
2071:8.3077483550236794e-02
2072:9.7152489364160821e-02
2073:9.4053077526657383e-02
2074:9.0012144575039546e-02
2075:8.6907939528446762e-02
2076:9.9901880310611410e-02
2077:9.6761077525153436e-02
2078:9.2656816290345181e-02
2079:8.9496980060544434e-02
2080:7.8236622520216487e-02
2081:7.5293624923248495e-02
2082:7.1398805222629980e-02
2083:6.8362852803362378e-02
2084:8.1470662675407007e-02
2085:7.8429824321820704e-02
2086:7.4399183322240769e-02
2087:7.1252711540658251e-02
2088:8.5247511851291452e-02
2089:8.2100302327140426e-02
2090:7.7919345446179206e-02
2091:7.4648699303422009e-02
2092:8.7804402154037411e-02
2093:8.4592065095336635e-02
2094:8.0316664491036360e-02
2095:7.6966339117306146e-02
2096:6.6723169882534808e-02
2097:6.3579788996670245e-02
2098:5.9333810982547946e-02
2099:5.5959719031209831e-02
2100:6.9551773887684687e-02
2101:6.6288320679165222e-02
2102:6.1875244893743436e-02
2103:5.8364855329421088e-02
2104:7.2878337050332226e-02
2105:6.9477801288714752e-02
2106:6.4872144548885888e-02
2107:6.1203411326843982e-02
2108:7.5150900212515748e-02
2109:7.1660488948369239e-02
2110:6.6927000085465538e-02
2111:6.3152078766791089e-02
2112:5.4114872733943706e-02
2113:5.0531495733546879e-02
2114:4.5600684838443588e-02
2115:4.1615694344233949e-02
2116:5.6444338597758978e-02
2117:5.2712212867233578e-02
2118:4.7573556944103146e-02
2119:4.3418413762109136e-02
2120:5.9194582811190145e-02
2121:5.5288245826305232e-02
2122:4.9905082055022025e-02
2123:4.5549036919668058e-02
2124:6.1083684612398936e-02
2125:5.7059324901858006e-02
2126:5.1509600647322719e-02
2127:4.7016082651477949e-02
2128:3.9413816001729017e-02
2129:3.5088911435111121e-02
2130:2.9045262568172379e-02
2131:2.4093617425984336e-02
2132:4.1121849615815165e-02
2133:3.6610251060366535e-02
2134:3.0304626608790457e-02
2135:2.5137706244611646e-02
2136:4.3140452412969821e-02
2137:3.8407744938820237e-02
2138:3.1791496057284235e-02
2139:2.6369118830157634e-02
2140:4.4530658291668440e-02
2141:3.9646085815771573e-02
2142:3.2816193482476767e-02
2143:2.7217946181321444e-02
2144:2.1334932618037698e-02
2145:1.5873843081388010e-02
2146:8.1621640749084522e-03
2147:1.7861596388217796e-03
2148:2.2258954261607566e-02
2149:1.6560643235926133e-02
2150:8.5151873995892493e-03
2151:1.8642655256783194e-03
2152:2.3347847000739674e-02
2153:1.7368101942529465e-02
2154:8.9270473377988015e-03
2155:1.9506249504209572e-03
2156:2.4098521746459777e-02
2157:1.7925083973347779e-02
2158:9.2120982015375143e-03
2159:2.0122187284124116e-03
2160:6.4500556941173954e+00
2161:5.1912949162423478e+00
2162:3.5330812453268945e+00
2163:2.2520613333350030e+00
2164:5.6293528150644319e+00
2165:4.4572931890519296e+00
2166:2.8448784939734044e+00
2167:1.5418029872609804e+00
2168:3.5552719241955306e+00
2169:2.6688654282412014e+00
2170:1.4544175659595626e+00
2171:4.7321496630944287e-01
2172:1.9011973674756120e+00
2173:1.2649939155100975e+00
2174:4.2295775121473100e-01
2175:-2.3587615206902399e-01
2176:1.5759448471036492e+00
2177:4.9195073938442202e-01
2178:-5.1151222021177134e-01
2179:-9.5347814818592458e-01
2180:8.3545426292046587e-01
2181:-2.8139674678378934e-01
2182:-1.2772941443123671e+00
2183:-1.6830445060948294e+00
2184:-5.9131568106235821e-02
2185:-8.9557339259677438e-01
2186:-1.6326007895350687e+00
2187:-1.9277774211458671e+00
2188:-5.8701646162378673e-01
2189:-1.1402516328137813e+00
2190:-1.6354446793739985e+00
2191:-1.8438312110878103e+00
2192:-1.0782897954620179e+00
2193:-1.2615599873409209e+00
2194:-1.4366765046071830e+00
2195:-1.5247048960711835e+00
2196:-1.7803359167734207e+00
2197:-1.8995370358053845e+00
2198:-1.9648696442659841e+00
2199:-1.9467202523795757e+00
2200:-1.9962972555686214e+00
2201:-2.0704657030064886e+00
2202:-2.0834635642890631e+00
2203:-2.0291136775498484e+00
2204:-1.8985363363863450e+00
2205:-1.9595177362158431e+00
2206:-1.9707674971286731e+00
2207:-1.9273372039314620e+00
2208:-1.5543677041710653e+00
2209:-1.5528316548607206e+00
2210:-1.4609878520924771e+00
2211:-1.3478209902751592e+00
2212:-1.9134704689643225e+00
2213:-1.8164253258346830e+00
2214:-1.6411679701999469e+00
2215:-1.4859937041605122e+00
2216:-1.9783541350307554e+00
2217:-1.8621981788797568e+00
2218:-1.6819705199559198e+00
2219:-1.5296048580832022e+00
2220:-1.8866368815582331e+00
2221:-1.7925521179059329e+00
2222:-1.6425158081385085e+00
2223:-1.5107008782775548e+00
2224:-1.2806632092041157e+00
2225:-1.1537848084318647e+00
2226:-9.7564029467218771e-01
2227:-8.1785532916389336e-01
2228:-1.4011888935432433e+00
2229:-1.2464443016018090e+00
2230:-1.0465716196486687e+00
2231:-8.8775408897586605e-01
2232:-1.4460892903985285e+00
2233:-1.2932559669390571e+00
2234:-1.0996713237491449e+00
2235:-9.5277390076250612e-01
2236:-1.4362065684420695e+00
2237:-1.2978076388281024e+00
2238:-1.1206919330641514e+00
2239:-9.8662364407445768e-01
2240:-7.2471528791062079e-01
2241:-5.6473938615544750e-01
2242:-3.8986698908265016e-01
2243:-2.7965838557332190e-01
2244:-8.0007260482169873e-01
2245:-6.4772701852515446e-01
2246:-4.7615830008522436e-01
2247:-3.6482974893598574e-01
2248:-8.7459238083152757e-01
2249:-7.3595582356031863e-01
2250:-5.7309588260186239e-01
2251:-4.6249474234445309e-01
2252:-9.1573542367640337e-01
2253:-7.8817216355009045e-01
2254:-6.3406385346599037e-01
2255:-5.2602451982090181e-01
2256:-2.2842524329740407e-01
2257:-1.4035972377555311e-01
2258:-4.0056615731856191e-02
2259:2.5721111215663030e-02
2260:-3.1220628767419273e-01
2261:-2.2148185070743656e-01
2262:-1.1745067599672107e-01
2263:-4.8244009549045917e-02
2264:-4.0863208988161198e-01
2265:-3.1547870433951070e-01
2266:-2.0833772532829486e-01
2267:-1.3651071851892246e-01
2268:-4.7223737443611929e-01
2269:-3.7887258512747518e-01
2270:-2.7111705701522049e-01
2271:-1.9849982293922647e-01
2272:5.6856880975926234e-02
2273:1.0796506639930867e-01
2274:1.6128453689765357e-01
2275:1.9284471246301804e-01
2276:-1.4982698106228421e-02
2277:4.0428084397721449e-02
2278:9.9720836832815699e-02
2279:1.3595581479519850e-01
2280:-1.0166857569347626e-01
2281:-4.2647624700400420e-02
2282:2.2432170209276039e-02
2283:6.3705757887893316e-02
2284:-1.6308767277938863e-01
2285:-1.0241974459443884e-01
2286:-3.4170612660319427e-02
2287:1.0152740209051218e-02
2288:2.0674563912315722e-01
2289:2.2937349890397590e-01
2290:2.5259553464416545e-01
2291:2.6566387351848791e-01
2292:1.5231972487340076e-01
2293:1.7933855990443023e-01
2294:2.0790139200524621e-01
2295:2.2485394472083389e-01
2296:8.2877782946486803e-02
2297:1.1493765880830735e-01
2298:1.4964767689592676e-01
2299:1.7107962520361042e-01
2300:3.1101500720803064e-02
2301:6.6399433232168792e-02
2302:1.0513910923479107e-01
2303:1.2957110842944214e-01
2304:2.7102510234866845e-01
2305:2.7892852865527967e-01
2306:2.8541939996595600e-01
2307:2.8769147446661919e-01
2308:2.3223223048110955e-01
2309:2.4374737775390309e-01
2310:2.5458715731082993e-01
2311:2.5990983939500584e-01
2312:1.8078911991577346e-01
2313:1.9654060929413997e-01
2314:2.1260603524216262e-01
2315:2.2168436634235925e-01
2316:1.4086461750119930e-01
2317:1.5953907579344337e-01
2318:1.7928855273846803e-01
2319:1.9106710079803269e-01
2320:2.8804636206469320e-01
2321:2.8776953884060774e-01
2322:2.8568570356221351e-01
2323:2.8276788266430464e-01
2324:2.6178890036651559e-01
2325:2.6418535000526255e-01
2326:2.6525777366351638e-01
2327:2.6453697491864669e-01
2328:2.2546873121518954e-01
2329:2.3122609552485432e-01
2330:2.3629885848318374e-01
2331:2.3838897926025709e-01
2332:1.9623712811081503e-01
2333:2.0445374002853359e-01
2334:2.1248176214381023e-01
2335:2.1667156400133736e-01
2336:2.8076742466383869e-01
2337:2.7658579987551785e-01
2338:2.7039427707073843e-01
2339:2.6510307516949494e-01
2340:2.6363739134748954e-01
2341:2.6138487230875962e-01
2342:2.5745198865699864e-01
2343:2.5370559548189231e-01
2344:2.3890768339014898e-01
2345:2.3915745406856947e-01
2346:2.3818502668953034e-01
2347:2.3648530335863588e-01
2348:2.1825821941742457e-01
2349:2.2040563516227260e-01
2350:2.2170232685564137e-01
2351:2.2158831659994327e-01
2352:2.6210777416136777e-01
2353:2.5637758411565353e-01
2354:2.4870389162301640e-01
2355:2.4264543895116947e-01
2356:2.5147160633607923e-01
2357:2.4706992050036405e-01
2358:2.4094886275168179e-01
2359:2.3595406593807239e-01
2360:2.3526705947051127e-01
2361:2.3264735233711509e-01
2362:2.2862733192308279e-01
2363:2.2508679799301337e-01
2364:2.2116249103856900e-01
2365:2.1993921026656427e-01
2366:2.1757741245527035e-01
2367:2.1519406944933103e-01
2368:2.3935569796443498e-01
2369:2.3322299847304975e-01
2370:2.2531088493855425e-01
2371:2.1929318415205432e-01
2372:2.3319010506800253e-01
2373:2.2797289429683379e-01
2374:2.2112379908875418e-01
2375:2.1582711338065275e-01
2376:2.2304708233734763e-01
2377:2.1909724438914346e-01
2378:2.1373087877570118e-01
2379:2.0944813153235525e-01
2380:2.1373407015924584e-01
2381:2.1080368170528924e-01
2382:2.0663923004812812e-01
2383:2.0318537435827783e-01
2384:2.1610106682503208e-01
2385:2.1021524620535906e-01
2386:2.0273035969705097e-01
2387:1.9711746052405862e-01
2388:2.1298848333549247e-01
2389:2.0771752620155703e-01
2390:2.0094654157279393e-01
2391:1.9581795807943017e-01
2392:2.0710944735596273e-01
2393:2.0271290973313461e-01
2394:1.9696664070933886e-01
2395:1.9254077970001574e-01
2396:2.0125779676102845e-01
2397:1.9758338012352741e-01
2398:1.9268914329728898e-01
2399:1.8885214473724021e-01
2400:1.9416622512636803e-01
2401:1.8875648587618993e-01
2402:1.8193854486153657e-01
2403:1.7687496277111717e-01
2404:1.9310416906170511e-01
2405:1.8810613562659947e-01
2406:1.8176309506765129e-01
2407:1.7701896057136876e-01
2408:1.9017422759545194e-01
2409:1.8578153024280006e-01
2410:1.8014278117446406e-01
2411:1.7587716657862718e-01
2412:1.8677820391355773e-01
2413:1.8289797274104327e-01
2414:1.7785998553570018e-01
2415:1.7400614519731483e-01
2416:1.7422923715500316e-01
2417:1.6938854432795569e-01
2418:1.6330200083643437e-01
2419:1.5879357697928284e-01
2420:1.7452882370147482e-01
2421:1.6995703519127953e-01
2422:1.6417899485673718e-01
2423:1.5987656670764097e-01
2424:1.7362184212797227e-01
2425:1.6945878957914898e-01
2426:1.6415541113707094e-01
2427:1.6017457151969619e-01
2428:1.7195418401575538e-01
2429:1.6814696670638987e-01
2430:1.6326034712451726e-01
2431:1.5956468863695680e-01
2432:1.5644202278473460e-01
2433:1.5213950797924558e-01
2434:1.4672862160765049e-01
2435:1.4272052897471685e-01
2436:1.5762470639509762e-01
2437:1.5349308481045174e-01
2438:1.4827529878826115e-01
2439:1.4439363625543727e-01
2440:1.5808006604615238e-01
2441:1.5422064968201477e-01
2442:1.4931531246929611e-01
2443:1.4564228853212738e-01
2444:1.5761075861430918e-01
2445:1.5399610433906979e-01
2446:1.4937485426522767e-01
2447:1.4589412438760468e-01
2448:1.4062956247347921e-01
2449:1.3679394211372140e-01
2450:1.3194942845848726e-01
2451:1.2834536765508384e-01
2452:1.4236288188697555e-01
2453:1.3862880875291961e-01
2454:1.3389555710032619e-01
2455:1.3036131298380277e-01
2456:1.4371247445161017e-01
2457:1.4015135335609474e-01
2458:1.3561318449424561e-01
2459:1.3220619575967948e-01
2460:1.4405832888324929e-01
2461:1.4065989142570379e-01
2462:1.3630842566908469e-01
2463:1.3302592594206414e-01
2464:1.2645947465255586e-01
2465:1.2298329109189209e-01
2466:1.1855862901698623e-01
2467:1.1524067801583074e-01
2468:1.2850744449343041e-01
2469:1.2508290113346374e-01
2470:1.2070979546197591e-01
2471:1.1741974214895567e-01
2472:1.3041267046322300e-01
2473:1.2708901065441713e-01
2474:1.2282442602659092e-01
2475:1.1960062380271262e-01
2476:1.3129249187869549e-01
2477:1.2807117594293949e-01
2478:1.2392064843338418e-01
2479:1.2077003326547038e-01
2480:1.1349481952483940e-01
2481:1.1025215123357024e-01
2482:1.0607509739833698e-01
2483:1.0290473800890811e-01
2484:1.1568481870481359e-01
2485:1.1245606788929241e-01
2486:1.0828466682928813e-01
2487:1.0510934538275292e-01
2488:1.1789529103305099e-01
2489:1.1471248556306543e-01
2490:1.1058292693045874e-01
2491:1.0742626343855341e-01
2492:1.1909890562925997e-01
2493:1.1597223338004280e-01
2494:1.1190072639765758e-01
2495:1.0877733657899623e-01
2496:1.0122271008591893e-01
2497:9.8066575262797703e-02
2498:9.3936932009765620e-02
2499:9.0753574809234100e-02
2500:1.0342148236949227e-01
2501:1.0024880106823912e-01
2502:9.6086812566684623e-02
2503:9.2870565919341147e-02
2504:1.0574375469357479e-01
2505:1.0257313716173228e-01
2506:9.8398578764783515e-02
2507:9.5161273003745994e-02
2508:1.0710873217801574e-01
2509:1.0395759275090728e-01
2510:9.9795862336218941e-02
2511:9.6559014933696494e-02
2512:8.9047036423888962e-02
2513:8.5805822671134707e-02
2514:8.1487489744349009e-02
2515:7.8100233955245291e-02
2516:9.1143675936128682e-02
2517:8.7859051186579412e-02
2518:8.3473891793165500e-02
2519:8.0027651534487571e-02
2520:9.3419202775996010e-02
2521:9.0098929508309486e-02
2522:8.5653382019263674e-02
2523:8.2150345928651197e-02
2524:9.4813960959161406e-02
2525:9.1482348916056402e-02
2526:8.7010958448186612e-02
2527:8.3479794546993016e-02
2528:7.6263681120830304e-02
2529:7.2730811875371032e-02
2530:6.7936289381400811e-02
2531:6.4110229544780753e-02
2532:7.8156915788956144e-02
2533:7.4554566561753910e-02
2534:6.9658849126479946e-02
2535:6.5747112218236911e-02
2536:8.0245651033647988e-02
2537:7.6572614381170481e-02
2538:7.1571022986439067e-02
2539:6.7567703496532003e-02
2540:8.1557209398391090e-02
2541:7.7845278344516461e-02
2542:7.2782592736120116e-02
2543:6.8724588729010383e-02
2544:6.2013012165926834e-02
2545:5.7931335866895667e-02
2546:5.2300360677299165e-02
2547:4.7739537757434565e-02
2548:6.3601328655631104e-02
2549:5.9422663459229752e-02
2550:5.3653477166793861e-02
2551:4.8977682837905073e-02
2552:6.5369408577468688e-02
2553:6.1084985925117095e-02
2554:5.5163542632329164e-02
2555:5.0360060335261046e-02
2556:6.6494386255139065e-02
2557:6.2144886370811135e-02
2558:5.6128343261585278e-02
2559:5.1244178525022742e-02
2560:4.5216420264730724e-02
2561:4.0257275047655347e-02
2562:3.3322358442417911e-02
2563:2.7637589485763600e-02
2564:4.6390032151509601e-02
2565:4.1303063155470672e-02
2566:3.4187900313181044e-02
2567:2.8354509818940492e-02
2568:4.7700429739372323e-02
2569:4.2470566304053006e-02
2570:3.5153423352052182e-02
2571:2.9153213252076909e-02
2572:4.8538790286588446e-02
2573:4.3217802294187362e-02
2574:3.5771424773554314e-02
2575:2.9664230069371519e-02
2576:2.4469864276467357e-02
2577:1.8201163045028584e-02
2578:9.3545684275780621e-03
2579:2.0450130387884200e-03
2580:2.5103790481033002e-02
2581:1.8671506627531028e-02
2582:9.5957569356600481e-03
2583:2.0983299946128490e-03
2584:2.5809281577926203e-02
2585:1.9193493514129349e-02
2586:9.8612467748648118e-03
2587:2.1540240611609245e-03
2588:2.6260469424249359e-02
2589:1.9527084168940858e-02
2590:1.0030949735483949e-02
2591:2.1901058337732171e-03
2592:1.2087989687215921e+00
2593:6.8618278201997862e-01
2594:8.8287706675385050e-03
2595:-5.0911566947243903e-01
2596:3.8043194301910860e-01
2597:7.8948828146418112e-03
2598:-4.5860448781682889e-01
2599:-8.0030482656731228e-01
2600:-3.1551269415959871e-02
2601:-3.0300020016584261e-01
2602:-6.3654922834921035e-01
2603:-8.7347630649439512e-01
2604:-6.9287953403948180e-02
2605:-3.0754475717266233e-01
2606:-6.0161195812746693e-01
2607:-8.1115330993683210e-01
2608:-7.8129151365780236e-01
2609:-1.2128098206521178e+00
2610:-1.6072853980741910e+00
2611:-1.7821791562391469e+00
2612:-9.7477343090001001e-01
2613:-1.2564870343343348e+00
2614:-1.5283808956842080e+00
2615:-1.6638044571382353e+00
2616:-9.9168397131624964e-01
2617:-1.1879638070285294e+00
2618:-1.3912963322795537e+00
2619:-1.5061001750417575e+00
2620:-9.1593185525160303e-01
2621:-1.0920693070496943e+00
2622:-1.2795360500926036e+00
2623:-1.3900660080591962e+00
2624:-1.8330858575736835e+00
2625:-1.8919525828598736e+00
2626:-1.9065261948413663e+00
2627:-1.8708909867343357e+00
2628:-1.7111133861944494e+00
2629:-1.7697032167703943e+00
2630:-1.7921153863339883e+00
2631:-1.7695811993003234e+00
2632:-1.5526595183023018e+00
2633:-1.6147867969006293e+00
2634:-1.6489112584010899e+00
2635:-1.6410781107699104e+00
2636:-1.4369880261038834e+00
2637:-1.5023972515496737e+00
2638:-1.5450316214412469e+00
2639:-1.5465894103902444e+00
2640:-1.8362191883147598e+00
2641:-1.7540184326397772e+00
2642:-1.6189582568393885e+00
2643:-1.4972555495038316e+00
2644:-1.7444482264730947e+00
2645:-1.6813020806173278e+00
2646:-1.5712520559320871e+00
2647:-1.4675767390971728e+00
2648:-1.6257769666391877e+00
2649:-1.5826320997489149e+00
2650:-1.5003712739613586e+00
2651:-1.4184561637610231e+00
2652:-1.5371606145706915e+00
2653:-1.5059101499278003e+00
2654:-1.4407174046445961e+00
2655:-1.3730452303219511e+00
2656:-1.4273994957418825e+00
2657:-1.2966138185255143e+00
2658:-1.1281136383388866e+00
2659:-1.0003132979528992e+00
2660:-1.4065209016531961e+00
2661:-1.2901976635273302e+00
2662:-1.1374537262312767e+00
2663:-1.0202568850139695e+00
2664:-1.3687993138586012e+00
2665:-1.2714761248218551e+00
2666:-1.1390697471046232e+00
2667:-1.0346310035606781e+00
2668:-1.3312885232917198e+00
2669:-1.2476899967020909e+00
2670:-1.1306658181813014e+00
2671:-1.0360618125309207e+00
2672:-9.3278821921099753e-01
2673:-8.1063122346816940e-01
2674:-6.6149251311963553e-01
2675:-5.5558490855389076e-01
2676:-9.5809026285807020e-01
2677:-8.4482164964117368e-01
2678:-7.0465794103691293e-01
2679:-6.0346307011540334e-01
2680:-9.7845986545544461e-01
2681:-8.7547377645064350e-01
2682:-7.4676205496667591e-01
2683:-6.5269672003632906e-01
2684:-9.8446684596688938e-01
2685:-8.8941024719899930e-01
2686:-7.6981106788127418e-01
2687:-6.8172278987431090e-01
2688:-5.0235713562402928e-01
2689:-4.0969233912265002e-01
2690:-3.0234112958380238e-01
2691:-2.2966478655888647e-01
2692:-5.5196797224251426e-01
2693:-4.6171947944510583e-01
2694:-3.5611474505390972e-01
2695:-2.8378986793697547e-01
2696:-6.0436749761178055e-01
2697:-5.1876451674434809e-01
2698:-4.1688479962648467e-01
2699:-3.4583278796505440e-01
2700:-6.3618404394704542e-01
2701:-5.5476991915735674e-01
2702:-4.5648223764166163e-01
2703:-3.8697630485099177e-01
2704:-1.9409191709517715e-01
2705:-1.3281670993484793e-01
2706:-6.3247377405454733e-02
2707:-1.7588573516841406e-02
2708:-2.4808487304810087e-01
2709:-1.8606337198449299e-01
2710:-1.1467316714928788e-01
2711:-6.7076695562523589e-02
2712:-3.1032608708584875e-01
2713:-2.4815745029097805e-01
2714:-1.7567390147464781e-01
2715:-1.2659345560791244e-01
2716:-3.5194994099725457e-01
2717:-2.9035932251377050e-01
2718:-2.1801132963495418e-01
2719:-1.6852219734103394e-01
2720:4.1534949950693964e-03
2721:4.0924718517893352e-02
2722:8.1553533216294577e-02
2723:1.0743480695061586e-01
2724:-4.4153587071534606e-02
2725:-5.1122801171974291e-03
2726:3.8564928424845289e-02
2727:6.6870351508038745e-02
2728:-1.0267274975789378e-01
2729:-6.1543847720575980e-02
2730:-1.4787717522109663e-02
2731:1.6117545317825260e-02
2732:-1.4419542599628271e-01
2733:-1.0204587573660180e-01
2734:-5.3546785322595450e-02
2735:-2.1061164126546399e-02
2736:1.1950765398528987e-01
2737:1.3963388712237296e-01
2738:1.6123411959785439e-01
2739:1.7438238049109980e-01
2740:8.0268359243825263e-02
2741:1.0286982277524022e-01
2742:1.2764072030721690e-01
2743:1.4315496145237983e-01
2744:3.0969593637299512e-02
2745:5.6298753057621123e-02
2746:8.4599430368676815e-02
2747:1.0279468539703589e-01
2748:-5.3065395190025292e-03
2749:2.1727588085158945e-02
2750:5.2273768142927703e-02
2751:7.2222084724204147e-02
2752:1.8025914857735728e-01
2753:1.8973598739348221e-01
2754:1.9929014091782446e-01
2755:2.0457353081594309e-01
2756:1.5026194942561552e-01
2757:1.6195103245234771e-01
2758:1.7421531893665998e-01
2759:1.8145949997833932e-01
2760:1.1131831182585394e-01
2761:1.2559345677541633e-01
2762:1.4108694445141340e-01
2763:1.5070170108310757e-01
2764:8.1693555570349879e-02
2765:9.7730201139255068e-02
2766:1.1546979924246832e-01
2767:1.2675755481069334e-01
2768:2.0671970394588166e-01
2769:2.0986606082039991e-01
2770:2.1236570057473642e-01
2771:2.1309842495436376e-01
2772:1.8461368525118238e-01
2773:1.8956487031766328e-01
2774:1.9424940669667587e-01
2775:1.9653086464822558e-01
2776:1.5508243424934345e-01
2777:1.6223897323818287e-01
2778:1.6961526150505535e-01
2779:1.7382616848246513e-01
2780:1.3200885347166955e-01
2781:1.4073780406637360e-01
2782:1.5005086287991820e-01
2783:1.5566710827545513e-01
2784:2.1309770448812634e-01
2785:2.1262557893981604e-01
2786:2.1115940060528399e-01
2787:2.0940389350115804e-01
2788:1.9731206333428652e-01
2789:1.9822696938562320e-01
2790:1.9842338322177613e-01
2791:1.9783909767556743e-01
2792:1.7559031668114491e-01
2793:1.7825982530778706e-01
2794:1.8057710603209454e-01
2795:1.8149812016956177e-01
2796:1.5815415473604580e-01
2797:1.6212260169726492e-01
2798:1.6602358671883627e-01
2799:1.6807718566503396e-01
2800:2.0825943488657622e-01
2801:2.0588574002480872e-01
2802:2.0238109502467408e-01
2803:1.9938494252941869e-01
2804:1.9728498886632528e-01
2805:1.9595586786346544e-01
2806:1.9369549323213417e-01
2807:1.9156756224998461e-01
2808:1.8170601164728420e-01
2809:1.8173087650440573e-01
2810:1.8109498432306889e-01
2811:1.8011012403368626e-01
2812:1.6886084096268125e-01
2813:1.6991296556736951e-01
2814:1.7051811405170361e-01
2815:1.7041348962084255e-01
2816:1.9768529208301419e-01
2817:1.9441218236826799e-01
2818:1.8999313415285138e-01
2819:1.8648585577354918e-01
2820:1.9030211026646687e-01
2821:1.8779546233267577e-01
2822:1.8428740821846917e-01
2823:1.8141477651011698e-01
2824:1.7941979386474136e-01
2825:1.7793225961193970e-01
2826:1.7564228322312339e-01
2827:1.7362324292714534e-01
2828:1.7016856433202726e-01
2829:1.6947322761210501e-01
2830:1.6813529473862759e-01
2831:1.6678725083804985e-01
2832:1.8457622369841428e-01
2833:1.8098456518375913e-01
2834:1.7628646423499458e-01
2835:1.7266685774237722e-01
2836:1.7982228335487579e-01
2837:1.7678921269727682e-01
2838:1.7275213465050598e-01
2839:1.6959047585037482e-01
2840:1.7245902222200638e-01
2841:1.7018329342379271e-01
2842:1.6704822544343895e-01
2843:1.6451590541099270e-01
2844:1.6596100207860154e-01
2845:1.6428509641973157e-01
2846:1.6186855192892838e-01
2847:1.5984069521258140e-01
2848:1.7073103248379548e-01
2849:1.6712758071288800e-01
2850:1.6248065174048459e-01
2851:1.5894983223486200e-01
2852:1.6788254300526331e-01
2853:1.6467994035991262e-01
2854:1.6050640368728036e-01
2855:1.5730263091313446e-01
2856:1.6312269342922966e-01
2857:1.6047555732997903e-01
2858:1.5696156962932817e-01
2859:1.5421628407516608e-01
2860:1.5870084111295357e-01
2861:1.5650224476501942e-01
2862:1.5352345003414478e-01
2863:1.5115228238392048e-01
2864:1.5707745765969020e-01
2865:1.5360529693150393e-01
2866:1.4915041728131098e-01
2867:1.4578310508602979e-01
2868:1.5559261258926699e-01
2869:1.5240505758414519e-01
2870:1.4828428325121282e-01
2871:1.4514615068635353e-01
2872:1.5273491263063957e-01
2873:1.4994989499994812e-01
2874:1.4630497265552297e-01
2875:1.4349581129031810e-01
2876:1.4985824155394234e-01
2877:1.4740422993364458e-01
2878:1.4415289292228298e-01
2879:1.4161759805030724e-01
2880:1.4400306344756400e-01
2881:1.4070155515918731e-01
2882:1.3646223429081214e-01
2883:1.3325526059128706e-01
2884:1.4347927577252961e-01
2885:1.4037526079579163e-01
2886:1.3636592075657566e-01
2887:1.3331505964793280e-01
2888:1.4199228910861783e-01
2889:1.3917470220144876e-01
2890:1.3550158331617893e-01
2891:1.3268115578608886e-01
2892:1.4025069145881264e-01
2893:1.3767358475375788e-01
2894:1.3428459860749711e-01
2895:1.3166042032750319e-01
2896:1.3155857215093980e-01
2897:1.2840035003377046e-01
2898:1.2432119542985345e-01
2899:1.2121729377557816e-01
2900:1.3169479489929389e-01
2901:1.2866862980657426e-01
2902:1.2474054918867200e-01
2903:1.2173693868561580e-01
2904:1.3117453685426833e-01
2905:1.2834620799080970e-01
2906:1.2464738438885052e-01
2907:1.2179839047500463e-01
2908:1.3025115982433100e-01
2909:1.2759328438154038e-01
2910:1.2409391746586158e-01
2911:1.2138102124451580e-01
2912:1.1956836950840669e-01
2913:1.1647883521726486e-01
2914:1.1244725418203101e-01
2915:1.0934817485232023e-01
2916:1.2013623712850111e-01
2917:1.1712838200058465e-01
2918:1.1318678097162889e-01
2919:1.1014444735642148e-01
2920:1.2027296727410261e-01
2921:1.1739431931340741e-01
2922:1.1359862942232646e-01
2923:1.1065146386680783e-01
2924:1.1992246026011551e-01
2925:1.1715965165787653e-01
2926:1.1349701213158184e-01
2927:1.1063855095543222e-01
2928:1.0769038350035616e-01
2929:1.0455584829207759e-01
2930:1.0040878485960081e-01
2931:9.7177982959270284e-02
2932:1.0851274121049788e-01
2933:1.0542003063122893e-01
2934:1.0131403623812286e-01
2935:9.8104701976447301e-02
2936:1.0906481825707642e-01
2937:1.0604700790784359e-01
2938:1.0202047710090095e-01
2939:9.8858537990810610e-02
2940:1.0909468156117384e-01
2941:1.0614948782923897e-01
2942:1.0220325593287373e-01
2943:9.9092197321589526e-02
2944:9.5434367433792813e-02
2945:9.2102315875287874e-02
2946:8.7624333341713392e-02
2947:8.4083601260231858e-02
2948:9.6369098831667693e-02
2949:9.3046102405060060e-02
2950:8.8568505963756289e-02
2951:8.5019522031775402e-02
2952:9.7143579127721466e-02
2953:9.3851371728588956e-02
2954:8.9398826948694221e-02
2955:8.5857787084165638e-02
2956:9.7400721738850976e-02
2957:9.4146391172735489e-02
2958:8.9731548760025620e-02
2959:8.6210722588481212e-02
2960:8.2154350308372842e-02
2961:7.8427085351831280e-02
2962:7.3338930596510060e-02
2963:6.9257276163927239e-02
2964:8.3082920181620612e-02
2965:7.9336624056639146e-02
2966:7.4213563479764447e-02
2967:7.0097569617508210e-02
2968:8.3921553070703023e-02
2969:8.0169258731211793e-02
2970:7.5025601299061689e-02
2971:7.0884266404433238e-02
2972:8.4282296700930931e-02
2973:8.0539647295759478e-02
2974:7.5399088081891594e-02
2975:7.1253079172556327e-02
2976:6.7013025896248718e-02
2977:6.2634514497550253e-02
2978:5.6574961056393890e-02
2979:5.1653907562152393e-02
2980:6.7832381892032487e-02
2981:6.3409862281103027e-02
2982:5.7283770826062563e-02
2983:5.2304820353470463e-02
2984:6.8602282205786527e-02
2985:6.4142593493015251e-02
2986:5.7957216353587630e-02
2987:5.2924740774776428e-02
2988:6.8966199288760355e-02
2989:6.4493382037583202e-02
2990:5.8283455142330395e-02
2991:5.3226668157168769e-02
2992:4.8927481484246638e-02
2993:4.3564476378821944e-02
2994:3.6058327958758317e-02
2995:2.9901549290470234e-02
2996:4.9545134744235386e-02
2997:4.4115461414613998e-02
2998:3.6514116245277013e-02
2999:3.0278161923282674e-02
3000:5.0133752586856609e-02
3001:4.4640776380977423e-02
3002:3.6948214441115103e-02
3003:3.0635927834609642e-02
3004:5.0420870216381024e-02
3005:4.4897354699680127e-02
3006:3.7159919278921184e-02
3007:3.0809595030442595e-02
3008:2.6470038799135044e-02
3009:1.9682186375595701e-02
3010:1.0110345833506756e-02
3011:2.2079547328001134e-03
3012:2.6802300409335438e-02
3013:1.9927563398088332e-02
3014:1.0235387770070128e-02
3015:2.2355409200996673e-03
3016:2.7117215800347726e-02
3017:2.0158905306419804e-02
3018:1.0351940871506392e-02
3019:2.2599717982654454e-03
3020:2.7269433536156101e-02
3021:2.0269659225732938e-02
3022:1.0406711501019508e-02
3023:2.2706729153536705e-03
3024:-6.1564096770011713e-02
3025:-2.8905793038627403e-01
3026:-5.7007785760841789e-01
3027:-7.7083562025431340e-01
3028:-5.2079802771209230e-02
3029:-2.6105424657824755e-01
3030:-5.1922469031779328e-01
3031:-7.0422221312049826e-01
3032:-4.7196857582719055e-02
3033:-2.3374688202137239e-01
3034:-4.6443996353374212e-01
3035:-6.3030106517613871e-01
3036:-4.5461138198089827e-02
3037:-2.1573409926300380e-01
3038:-4.2702987740789722e-01
3039:-5.7954478037387125e-01
3040:-8.7150912210362796e-01
3041:-1.0413088545308484e+00
3042:-1.2233832589916840e+00
3043:-1.3321353603996833e+00
3044:-7.9736910753414891e-01
3045:-9.5537619102248028e-01
3046:-1.1269833009224381e+00
3047:-1.2317050668673406e+00
3048:-7.1415071029821520e-01
3049:-8.5745582044656821e-01
3050:-1.0155448400647182e+00
3051:-1.1143292165117991e+00
3052:-6.5689606609965989e-01
3053:-7.8990632654328741e-01
3054:-9.3833711513174090e-01
3055:-1.0325153956329525e+00
3056:-1.3789788953210695e+00
3057:-1.4456302959297525e+00
3058:-1.4921519297735553e+00
3059:-1.4980458558277012e+00
3060:-1.2778711433856087e+00
3061:-1.3457351036012000e+00
3062:-1.3980353108529497e+00
3063:-1.4109989764950617e+00
3064:-1.1589184137306112e+00
3065:-1.2266429502896277e+00
3066:-1.2838529326850487e+00
3067:-1.3041014945839435e+00
3068:-1.0756110165254866e+00
3069:-1.1422889121941291e+00
3070:-1.2015640832563792e+00
3071:-1.2260170817251745e+00
3072:-1.4912757766086902e+00
3073:-1.4652850269733624e+00
3074:-1.4076111268214044e+00
3075:-1.3463823009649103e+00
3076:-1.4087143925842838e+00
3077:-1.3915980270838848e+00
3078:-1.3464739479738450e+00
3079:-1.2958281141968844e+00
3080:-1.3067663821969357e+00
3081:-1.2996579571267051e+00
3082:-1.2687215721024561e+00
3083:-1.2297833114487509e+00
3084:-1.2318037401574149e+00
3085:-1.2313342731307757e+00
3086:-1.2101263007690024e+00
3087:-1.1791917245799213e+00
3088:-1.3083152130346736e+00
3089:-1.2314390037332039e+00
3090:-1.1224752163746672e+00
3091:-1.0333466459864320e+00
3092:-1.2637651843655020e+00
3093:-1.1980628688017316e+00
3094:-1.1030591411797752e+00
3095:-1.0239040683242810e+00
3096:-1.2042249063831947e+00
3097:-1.1508235204878190e+00
3098:-1.0717887628705689e+00
3099:-1.0046364608121676e+00
3100:-1.1580051210321727e+00
3101:-1.1128293688437796e+00
3102:-1.0445274289604041e+00
3103:-9.8558535122785806e-01
3104:-9.8438231076485028e-01
3105:-8.9384688505652965e-01
3106:-7.7934707251168911e-01
3107:-6.9453794047410544e-01
3108:-9.7991462819832054e-01
3109:-8.9789340457701727e-01
3110:-7.9286121941369025e-01
3111:-7.1404762553919698e-01
3112:-9.6686933241671758e-01
3113:-8.9549737444320976e-01
3114:-8.0226080926709342e-01
3115:-7.3092910197719152e-01
3116:-9.5214968366644981e-01
3117:-8.8824329479634911e-01
3118:-8.0341275810520119e-01
3119:-7.3758037221405170e-01
3120:-6.5051166987256548e-01
3121:-5.7139533561320766e-01
3122:-4.7517474897013073e-01
3123:-4.0668034817404397e-01
3124:-6.7276587568136870e-01
3125:-5.9794732325951472e-01
3126:-5.0587044483052279e-01
3127:-4.3962805103581376e-01
3128:-6.9310514999353545e-01
3129:-6.2396282613904874e-01
3130:-5.3784754957533143e-01
3131:-4.7517514245390841e-01
3132:-7.0238364532651687e-01
3133:-6.3774112133287775e-01
3134:-5.5664348103509920e-01
3135:-4.9712996566885603e-01
3136:-3.7203838530043198e-01
3137:-3.1101118214522327e-01
3138:-2.3906512984671546e-01
3139:-1.8958660510723313e-01
3140:-4.0592416500331846e-01
3141:-3.4630837052449409e-01
3142:-2.7549317256077804e-01
3143:-2.2629221816376804e-01
3144:-4.4305277423946116e-01
3145:-3.8584801743590874e-01
3146:-3.1711788322342455e-01
3147:-2.6872721499715857e-01
3148:-4.6643650970071882e-01
3149:-4.1142467858948178e-01
3150:-3.4468466131496367e-01
3151:-2.9723474668530470e-01
3152:-1.6515036902391014e-01
3153:-1.2263348653897914e-01
3154:-7.3404977972439278e-02
3155:-4.0220040097994625e-02
3156:-2.0178828490596371e-01
3157:-1.5886309591593614e-01
3158:-1.0865856384459369e-01
3159:-7.4462380129675709e-02
3160:-2.4439241441807333e-01
3161:-2.0146890909958107e-01
3162:-1.5073701545979534e-01
3163:-1.1578199973634468e-01
3164:-2.7322481524777381e-01
3165:-2.3070242450669051e-01
3166:-1.8010863811578251e-01
3167:-1.4496617047637467e-01
3168:-2.4060698910166843e-02
3169:3.7447521222174558e-03
3170:3.5327174719637151e-02
3171:5.6106139604151568e-02
3172:-5.7697006319465047e-02
3173:-2.8698938010374563e-02
3174:4.5519250707138663e-03
3175:2.6709962300302110e-02
3176:-9.8504949377333062e-02
3177:-6.8412579565336723e-02
3178:-3.3490754116347908e-02
3179:-9.8734432372736998e-03
3180:-1.2748813614431087e-01
3181:-9.6875592305307109e-02
3182:-6.1031747902125580e-02
3183:-3.6547408132765670e-02
3184:6.6035701714429476e-02
3185:8.2934718162460258e-02
3186:1.0178962750780277e-01
3187:1.1391591188103727e-01
3188:3.7411010157208040e-02
3189:5.5769167822528658e-02
3190:7.6524045024339196e-02
3191:9.0090556260523549e-02
3192:1.6618580123200779e-03
3193:2.1610702809537294e-02
3194:4.4465395514654227e-02
3195:5.9651826713954623e-02
3196:-2.4504010632029505e-02
3197:-3.5734079600815379e-03
3198:2.0607457467569416e-02
3199:3.6845543691652119e-02
3200:1.1960509024257933e-01
3201:1.2912780040307434e-01
3202:1.3942543624709722e-01
3203:1.4576248351959392e-01
3204:9.6536703461441012e-02
3205:1.0744183237094247e-01
3206:1.1947266071187990e-01
3207:1.2709101407858894e-01
3208:6.6961311207330829e-02
3209:7.9463834879058365e-02
3210:9.3532378454163526e-02
3211:1.0267916382486604e-01
3212:4.4726985080077004e-02
3213:5.8303849892494423e-02
3214:7.3768210652576299e-02
3215:8.3976781379361543e-02
3216:1.4862281383627893e-01
3217:1.5326495816796590e-01
3218:1.5799205799517510e-01
3219:1.6063943931400465e-01
3220:1.3061857718738989e-01
3221:1.3646824494375440e-01
3222:1.4268225575991858e-01
3223:1.4640352319081262e-01
3224:1.0700870052838138e-01
3225:1.1431631954228279e-01
3226:1.2233885525304103e-01
3227:1.2737760394660458e-01
3228:8.8867254892391612e-02
3229:9.7200348234922337e-02
3230:1.0650694843197461e-01
3231:1.1249126208198551e-01
3232:1.6172581665983793e-01
3233:1.6331953618787504e-01
3234:1.6458198706546484e-01
3235:1.6494597370088296e-01
3236:1.4803934296562887e-01
3237:1.5061951249934910e-01
3238:1.5308556202833679e-01
3239:1.5431229429838733e-01
3240:1.2969182409114718e-01
3241:1.3349662965009693e-01
3242:1.3746880259926661e-01
3243:1.3978356642783588e-01
3244:1.1529615894119198e-01
3245:1.1999165235771964e-01
3246:1.2506768115042494e-01
3247:1.2818568428236674e-01
3248:1.6493902796023149e-01
3249:1.6466799212845240e-01
3250:1.6384180578232727e-01
3251:1.6285579858060600e-01
3252:1.5474501536009938e-01
3253:1.5525971398146929e-01
3254:1.5538456787912774e-01
3255:1.5507395814219974e-01
3256:1.4077347790356240e-01
3257:1.4228761231678491e-01
3258:1.4362905972917445e-01
3259:1.4418773225221279e-01
3260:1.2958878148820610e-01
3261:1.3184697684936589e-01
3262:1.3409977335526346e-01
3263:1.3531393748180245e-01
3264:1.6221236793788257e-01
3265:1.6086165423374779e-01
3266:1.5883603636243060e-01
3267:1.5708369312980106e-01
3268:1.5477248884387756e-01
3269:1.5403143404168013e-01
3270:1.5274133983472013e-01
3271:1.5150938799204100e-01
3272:1.4432824195300742e-01
3273:1.4437779812143234e-01
3274:1.4404646911780908e-01
3275:1.4349662090832671e-01
3276:1.3578922056842627e-01
3277:1.3643956309990415e-01
3278:1.3684036933507937e-01
3279:1.3681409340440967e-01
3280:1.5608257271428758e-01
3281:1.5413006178720373e-01
3282:1.5144579391339127e-01
3283:1.4928122420541598e-01
3284:1.5077101258199971e-01
3285:1.4928554532694413e-01
3286:1.4716208046951829e-01
3287:1.4539226466422581e-01
3288:1.4310395316001906e-01
3289:1.4223493466920004e-01
3290:1.4085525570642632e-01
3291:1.3961168715913608e-01
3292:1.3668772540227977e-01
3293:1.3629502298860366e-01
3294:1.3549278365605569e-01
3295:1.3465981732714039e-01
3296:1.4809089072144593e-01
3297:1.4582052134843479e-01
3298:1.4278829347008529e-01
3299:1.4040603655756875e-01
3300:1.4440056334428775e-01
3301:1.4248263267905129e-01
3302:1.3987226856270893e-01
3303:1.3778573567298869e-01
3304:1.3888570558201099e-01
3305:1.3744058393279013e-01
3306:1.3539872836251693e-01
3307:1.3371273954673157e-01
3308:1.3414186253398011e-01
3309:1.3306787311394133e-01
3310:1.3147413938176594e-01
3311:1.3010534810061547e-01
3312:1.3911567501023064e-01
3313:1.3667361480053208e-01
3314:1.3344479344959376e-01
3315:1.3093173217655563e-01
3316:1.3664367355379195e-01
3317:1.3446385938086175e-01
3318:1.3154721535562508e-01
3319:1.2925162885678046e-01
3320:1.3277227348969264e-01
3321:1.3095010328203038e-01
3322:1.2846138543796137e-01
3323:1.2646559717575617e-01
3324:1.2932506023045115e-01
3325:1.2778789357383141e-01
3326:1.2564177798793802e-01
3327:1.2388723672444187e-01
3328:1.2957778002452350e-01
3329:1.2701704201920375e-01
3330:1.2363194338845288e-01
3331:1.2099750622594616e-01
3332:1.2800624578690820e-01
3333:1.2563671055664227e-01
3334:1.2247757426189254e-01
3335:1.1999913265491913e-01
3336:1.2537048202234802e-01
3337:1.2326655686093142e-01
3338:1.2042324000686866e-01
3339:1.1816438726166326e-01
3340:1.2291347609791466e-01
3341:1.2102474778991766e-01
3342:1.1843867707119921e-01
3343:1.1635979388103999e-01
3344:1.1957767470669407e-01
3345:1.1688229249313151e-01
3346:1.1329776955374099e-01
3347:1.1049195738850380e-01
3348:1.1865662275846235e-01
3349:1.1609642118458649e-01
3350:1.1266965404737624e-01
3351:1.0997110880106005e-01
3352:1.1693130473285569e-01
3353:1.1456344630848808e-01
3354:1.1136321283880105e-01
3355:1.0882039326474779e-01
3356:1.1521680769977213e-01
3357:1.1300803198591063e-01
3358:1.0999659143296121e-01
3359:1.0758471599021802e-01
3360:1.0897370134554016e-01
3361:1.0607241569865671e-01
3362:1.0217563705545867e-01
3363:9.9096705982485114e-02
3364:1.0850540009592013e-01
3365:1.0569487763492881e-01
3366:1.0190174943436520e-01
3367:9.8891385079631411e-02
3368:1.0743161569194487e-01
3369:1.0475517690392114e-01
3370:1.0111766198287540e-01
3371:9.8212360791209333e-02
3372:1.0626106554238381e-01
3373:1.0369894528707160e-01
3374:1.0019576401802145e-01
3375:9.7382551045944898e-02
3376:9.7420388209564154e-02
3377:9.4191177760621317e-02
3378:8.9802837738204910e-02
3379:8.6297689480068190e-02
3380:9.7247916293081479e-02
3381:9.4074141114089516e-02
3382:8.9746444385617838e-02
3383:8.6279160907836716e-02
3384:9.6620071683502146e-02
3385:9.3534324673771221e-02
3386:8.9306450597470360e-02
3387:8.5904630185442227e-02
3388:9.5835664987552069e-02
3389:9.2829053638620498e-02
3390:8.8693093423180741e-02
3391:8.5353417364513642e-02
3392:8.4376042622051464e-02
3393:8.0643493283637832e-02
3394:7.5511173410087812e-02
3395:7.1367827404989939e-02
3396:8.4374772735237719e-02
3397:8.0669830053007735e-02
3398:7.5564570835034511e-02
3399:7.1435370715908622e-02
3400:8.4031402393362056e-02
3401:8.0378980487407312e-02
3402:7.5331184168994328e-02
3403:7.1237943845489690e-02
3404:8.3510520505517147e-02
3405:7.9910672587926029e-02
3406:7.4923474605951876e-02
3407:7.0870886778945194e-02
3408:6.9081129192869573e-02
3409:6.4606692216856249e-02
3410:5.8391001914533038e-02
3411:5.3327120067974035e-02
3412:6.9153992184408944e-02
3413:6.4686152203706757e-02
3414:5.8472843928693528e-02
3415:5.3406268640441956e-02
3416:6.8973040408857128e-02
3417:6.4532271817766704e-02
3418:5.8347376268630589e-02
3419:5.3297663501122985e-02
3420:6.8625745651381312e-02
3421:6.4219544582557783e-02
3422:5.8075366153687850e-02
3423:5.3053831561691606e-02
3424:5.0516651408666312e-02
3425:4.4983169833804092e-02
3426:3.7230607549068720e-02
3427:3.0867195111239362e-02
3428:5.0592889082414751e-02
3429:4.5052194894763462e-02
3430:3.7287290080580467e-02
3431:3.0912455911718408e-02
3432:5.0491721490380830e-02
3433:4.4963667376585914e-02
3434:3.7213448126282259e-02
3435:3.0848924374175021e-02
3436:5.0262001503573794e-02
3437:4.4760137700547445e-02
3438:3.7044205244068859e-02
3439:3.0706436815744535e-02
3440:2.7319601090439020e-02
3441:2.0305655250528940e-02
3442:1.0424092339363100e-02
3443:2.2738694107489275e-03
3444:2.7358234321440678e-02
3445:2.0332209203804883e-02
3446:1.0436261964769197e-02
3447:2.2764502835665519e-03
3448:2.7300100799937364e-02
3449:2.0286150682557909e-02
3450:1.0410813694586123e-02
3451:2.2711054453345742e-03
3452:2.7172250409134645e-02
3453:2.0188348885383199e-02
3454:1.0358196386702644e-02
3455:2.2582178559464841e-03
3456:-4.4148192292645466e-02
3457:-2.0601065216388273e-01
3458:-4.0755769409287124e-01
3459:-5.5349869176042144e-01
3460:-4.0713170107338444e-02
3461:-1.8835314453606697e-01
3462:-3.7327705748149304e-01
3463:-5.0792722026581094e-01
3464:-3.5473908144007839e-02
3465:-1.6760539139467787e-01
3466:-3.3391434026421762e-01
3467:-4.5563157335047405e-01
3468:-3.1856068633090658e-02
3469:-1.5420093316333977e-01
3470:-3.0829071485247367e-01
3471:-4.2123879333628239e-01
3472:-6.2767295317969996e-01
3473:-7.5566337834254316e-01
3474:-8.9935711259161244e-01
3475:-9.9119469710481423e-01
3476:-5.7662144249843805e-01
3477:-6.9588301051789103e-01
3478:-8.3121714629340115e-01
3479:-9.1884227587030864e-01
3480:-5.1796805845439864e-01
3481:-6.2691286551532921e-01
3482:-7.5205365826672688e-01
3483:-8.3435130671664881e-01
3484:-4.7918542187617341e-01
3485:-5.8083134112883783e-01
3486:-6.9847053668672943e-01
3487:-7.7666583888486895e-01
3488:-1.0334693546462790e+00
3489:-1.0993831514398382e+00
3490:-1.1592727921168522e+00
3491:-1.1855157858967058e+00
3492:-9.5960838245197622e-01
3493:-1.0240031619962695e+00
3494:-1.0845828667416682e+00
3495:-1.1135043415528507e+00
3496:-8.7314843529396879e-01
3497:-9.3538097651604180e-01
3498:-9.9610196294685727e-01
3499:-1.0273795088041422e+00
3500:-8.1388802328309195e-01
3501:-8.7426930143670067e-01
3502:-9.3458317893527809e-01
3503:-9.6695141075537738e-01
3504:-1.1927301493321185e+00
3505:-1.1954640836152954e+00
3506:-1.1791541909137460e+00
3507:-1.1523061832567547e+00
3508:-1.1229144977890804e+00
3509:-1.1307361882734084e+00
3510:-1.1225127205799519e+00
3511:-1.1026448663664434e+00
3512:-1.0388191655245524e+00
3513:-1.0515651122704246e+00
3514:-1.0516527038034800e+00
3515:-1.0393792486800724e+00
3516:-9.7942145704104500e-01
3517:-9.9478490502223460e-01
3518:-9.9959025642293597e-01
3519:-9.9191959219892678e-01
3520:-1.1333437742198080e+00
3521:-1.0922807324318660e+00
3522:-1.0292334487441825e+00
3523:-9.7426130623159291e-01
3524:-1.0875624836855950e+00
3525:-1.0536804269450815e+00
3526:-9.9976817235598647e-01
3527:-9.5164662151739232e-01
3528:-1.0286794545936271e+00
3529:-1.0030230990552984e+00
3530:-9.5969680063104956e-01
3531:-9.1954851270228766e-01
3532:-9.8399514195527471e-01
3533:-9.6370878776602664e-01
3534:-9.2753987570833141e-01
3535:-8.9292135169153819e-01
3536:-9.4291515415323834e-01
3537:-8.8264748185394937e-01
3538:-8.0201838159190075e-01
3539:-7.3904145684745326e-01
3540:-9.2388934929806110e-01
3541:-8.6995903249243478e-01
3542:-7.9683180500010697e-01
3543:-7.3908489906405528e-01
3544:-8.9597198496826858e-01
3545:-8.4957536903445385e-01
3546:-7.8564263544231594e-01
3547:-7.3446823249248239e-01
3548:-8.7228121630452471e-01
3549:-8.3126804138174204e-01
3550:-7.7403940896755719e-01
3551:-7.2770886741826835e-01
3552:-7.0525500463433821e-01
3553:-6.4308100927756151e-01
3554:-5.6480329363438264e-01
3555:-5.0709095725687092e-01
3556:-7.0791979335642907e-01
3557:-6.5032079107676299e-01
3558:-5.7725483561336410e-01
3559:-5.2288775672427268e-01
3560:-7.0663233227641475e-01
3561:-6.5480046958965310e-01
3562:-5.8827422545386354e-01
3563:-5.3815477296411185e-01
3564:-7.0232698444085107e-01
3565:-6.5471669180012759e-01
3566:-5.9297542486284405e-01
3567:-5.4602288682073796e-01
3568:-4.7721357681205789e-01
3569:-4.2346042754317947e-01
3570:-3.5789655820987937e-01
3571:-3.1105427838414240e-01
3572:-4.9454312350474766e-01
3573:-4.4321615444448187e-01
3574:-3.8004076762731903e-01
3575:-3.3452698322485658e-01
3576:-5.1180189215626815e-01
3577:-4.6375162496930949e-01
3578:-4.0402043264908599e-01
3579:-3.6056846136792009e-01
3580:-5.2119758646348957e-01
3581:-4.7574660893629744e-01
3582:-4.1888387144713385e-01
3583:-3.7722659594504382e-01
3584:-2.8728531878349650e-01
3585:-2.4511221124700466e-01
3586:-1.9476938875875519e-01
3587:-1.5965195876724800e-01
3588:-3.1131862905353019e-01
3589:-2.6998640250951761e-01
3590:-2.2032675718812816e-01
3591:-1.8540691099400139e-01
3592:-3.3827298160545766e-01
3593:-2.9834469255763740e-01
3594:-2.4993327773134766e-01
3595:-2.1553908459199328e-01
3596:-3.5574393298748291e-01
3597:-3.1708606032285225e-01
3598:-2.6987098854600805e-01
3599:-2.3607383015488809e-01
3600:-1.4212629079476441e-01
3601:-1.1133757164726182e-01
3602:-7.5121014080052007e-02
3603:-5.0261589908503525e-02
3604:-1.6787151638709230e-01
3605:-1.3690993427484466e-01
3606:-1.0021053723099244e-01
3607:-7.4814983719471262e-02
3608:-1.9814021448469671e-01
3609:-1.6725124206258943e-01
3610:-1.3032904828300662e-01
3611:-1.0454350992685872e-01
3612:-2.1889260503492772e-01
3613:-1.8828191779986791e-01
3614:-1.5148437234236850e-01
3615:-1.2561748932257502e-01
3616:-3.7993910545872117e-02
3617:-1.6623398831869224e-02
3618:8.1665559180845899e-03
3619:2.4900687237341741e-02
3620:-6.2213903512255725e-02
3621:-4.0167483081131640e-02
3622:-1.4402994265440073e-02
3623:3.1498093516368806e-03
3624:-9.1665864041623302e-02
3625:-6.9009065146792878e-02
3626:-4.2283610750868963e-02
3627:-2.3875684616020670e-02
3628:-1.1263680511755897e-01
3629:-8.9700751966026546e-02
3630:-6.2460599371153856e-02
3631:-4.3555257974313741e-02
3632:3.3056782924397038e-02
3633:4.7155122102303410e-02
3634:6.3305259060976837e-02
3635:7.4040078252873606e-02
3636:1.1766216173440589e-02
3637:2.6743664696775513e-02
3638:4.4058723356914166e-02
3639:5.5694486797567964e-02
3640:-1.4766074267214557e-02
3641:1.1641743478797084e-03
3642:1.9762345749770573e-02
3643:3.2407437846570297e-02
3644:-3.4149362026274242e-02
3645:-1.7635816955739642e-02
3646:1.7693404844542466e-03
3647:1.5066531311660837e-02
3648:7.9209706818174005e-02
3649:8.8055508767866261e-02
3650:9.8009139177961099e-02
3651:1.0447404629483559e-01
3652:6.1344675734205184e-02
3653:7.1079082764787999e-02
3654:8.2165305956282686e-02
3655:8.9479341691566169e-02
3656:3.8602416962625806e-02
3657:4.9355946336821069e-02
3658:6.1761965445602175e-02
3659:7.0079497958778894e-02
3660:2.1619743964924002e-02
3661:3.3052460725014957e-02
3662:4.6353166519369680e-02
3663:5.5360634244224022e-02
3664:1.0752982234381724e-01
3665:1.1268237389164945e-01
3666:1.1832758463750967e-01
3667:1.2186161531604978e-01
3668:9.2980829150676417e-02
3669:9.8947630925025454e-02
3670:1.0561084228007898e-01
3671:1.0989209372273198e-01
3672:7.4111929691957179e-02
3673:8.1053314723067010e-02
3674:8.8943703174898275e-02
3675:9.4132670015072972e-02
3676:5.9760909920315179e-02
3677:6.7381533432568752e-02
3678:7.6135130675379470e-02
3679:8.1968870378389569e-02
3680:1.2347930331269678e-01
3681:1.2612502328340039e-01
3682:1.2885459656033266e-01
3683:1.3041330567559775e-01
3684:1.1189635328388986e-01
3685:1.1524239039545511e-01
3686:1.1883776896799252e-01
3687:1.2102524806569488e-01
3688:9.6609067928783099e-02
3689:1.0081467191048900e-01
3690:1.0548052414554612e-01
3691:1.0845103977578061e-01
3692:8.4782878862166053e-02
3693:8.9606291937036953e-02
3694:9.5047139914450435e-02
3695:9.8588509805062480e-02
3696:1.3106511043427976e-01
3697:1.3203290662007311e-01
3698:1.3282177426967462e-01
3699:1.3307391860000917e-01
3700:1.2200021637986747e-01
3701:1.2355039051262373e-01
3702:1.2505336649482587e-01
3703:1.2581953593779335e-01
3704:1.0983030482604582e-01
3705:1.1211149460798964e-01
3706:1.1451535135646761e-01
3707:1.1593343647630536e-01
3708:1.0026380055458629e-01
3709:1.0308218817602698e-01
3710:1.0615177033213914e-01
3711:1.0805442334074565e-01
3712:1.3308947547001462e-01
3713:1.3295114218392096e-01
3714:1.3245824545271373e-01
3715:1.3184597189828676e-01
3716:1.2609770685459190e-01
3717:1.2643101818993976e-01
3718:1.2651352945268896e-01
3719:1.2631315605816351e-01
3720:1.1654587487408351e-01
3721:1.1748136734535876e-01
3722:1.1830200841844289e-01
3723:1.1863263299040759e-01
3724:1.0891629907870228e-01
3725:1.1030253519653768e-01
3726:1.1167822999202316e-01
3727:1.1241005669913690e-01
3728:1.3144007638514923e-01
3729:1.3056634492862473e-01
3730:1.2921505173693282e-01
3731:1.2801837033022545e-01
3732:1.2611688687697989e-01
3733:1.2561844252411919e-01
3734:1.2472273643477308e-01
3735:1.2385043175734579e-01
3736:1.1870750277681938e-01
3737:1.1869578546069300e-01
3738:1.1839341494577327e-01
3739:1.1794543621835836e-01
3740:1.1269044271519905e-01
3741:1.1304865869004073e-01
3742:1.1319914567044444e-01
3743:1.1307646816799381e-01
3744:1.2732517427992870e-01
3745:1.2594325381128901e-01
3746:1.2398430038421113e-01
3747:1.2236196746161625e-01
3748:1.2332171218787630e-01
3749:1.2223350498700393e-01
3750:1.2062965312574324e-01
3751:1.1925893979387252e-01
3752:1.1763252532827609e-01
3753:1.1693070091480041e-01
3754:1.1579590712621234e-01
3755:1.1475904989957335e-01
3756:1.1292950168779729e-01
3757:1.1252553008889625e-01
3758:1.1175374159590072e-01
3759:1.1097635449266990e-01
3760:1.2145485874627499e-01
3761:1.1968455654520564e-01
3762:1.1724051038288694e-01
3763:1.1526135568801786e-01
3764:1.1847896246070284e-01
3765:1.1693499408955123e-01
3766:1.1476324959942985e-01
3767:1.1297598218857681e-01
3768:1.1414828525170038e-01
3769:1.1290642748722057e-01
3770:1.1109980723102431e-01
3771:1.0957112930671048e-01
3772:1.1049749088567203e-01
3773:1.0949176213544530e-01
3774:1.0797174383971403e-01
3775:1.0664699383522910e-01
3776:1.1416843175335437e-01
3777:1.1204828502096773e-01
3778:1.0914249096405532e-01
3779:1.0680426577209298e-01
3780:1.1197962879501218e-01
3781:1.1003086947423645e-01
3782:1.0733020607353516e-01
3783:1.0513565702413977e-01
3784:1.0870538062685629e-01
3785:1.0698920144125081e-01
3786:1.0456847438898963e-01
3787:1.0257125079684494e-01
3788:1.0588458270501470e-01
3789:1.0435299968988555e-01
3790:1.0215558559635213e-01
3791:1.0031667627146527e-01
3792:1.0551738686261847e-01
3793:1.0302006861055746e-01
3794:9.9593557615727690e-02
3795:9.6833336648684334e-02
3796:1.0392076209793959e-01
3797:1.0155075872807835e-01
3798:9.8275803768709938e-02
3799:9.5621086705188776e-02
3800:1.0145568476736806e-01
3801:9.9262206363545519e-02
3802:9.6199085345639895e-02
3803:9.3693209484708107e-02
3804:9.9281134842578889e-02
3805:9.7230472690621100e-02
3806:9.4339929336520453e-02
3807:9.1956273115725615e-02
3808:9.5312744273933214e-02
3809:9.2352275979982371e-02
3810:8.8270556144789472e-02
3811:8.4968095072142730e-02
3812:9.4153128869062991e-02
3813:9.1285566300031776e-02
3814:8.7314151487528052e-02
3815:8.4088278554933116e-02
3816:9.2300023721265639e-02
3817:8.9565407051264603e-02
3818:8.5753794922047266e-02
3819:8.2640482702449794e-02
3820:9.0624843849818643e-02
3821:8.8000691824668714e-02
3822:8.4323191260370300e-02
3823:8.1305422269453267e-02
3824:8.3143573103301574e-02
3825:7.9575973193926439e-02
3826:7.4626765787589713e-02
3827:7.0600355293558070e-02
3828:8.2301919833736942e-02
3829:7.8801948680656292e-02
3830:7.3933738601469290e-02
3831:6.9964228495524874e-02
3832:8.0910820600184494e-02
3833:7.7512447464236661e-02
3834:7.2768186048476582e-02
3835:6.8887582467920330e-02
3836:7.9624288307273139e-02
3837:7.6313609200351198e-02
3838:7.1677793787523536e-02
3839:6.7876136738606027e-02
3840:6.8368208244960066e-02
3841:6.3985201039609141e-02
3842:5.7869268040783454e-02
3843:5.2868026596839077e-02
3844:6.7760737437791319e-02
3845:6.3429583587276170e-02
3846:5.7378169228997258e-02
3847:5.2424349612125644e-02
3848:6.6729545103125593e-02
3849:6.2481781441512764e-02
3850:5.6536319948601525e-02
3851:5.1662049490682642e-02
3852:6.5758881729920907e-02
3853:6.1586630260719116e-02
3854:5.5738424797104294e-02
3855:5.0938154903892342e-02
3856:5.0086627911298094e-02
3857:4.4604432253642086e-02
3858:3.6914741721980969e-02
3859:3.0597755461391249e-02
3860:4.9667697469604852e-02
3861:4.4232585935232958e-02
3862:3.6606389249650380e-02
3863:3.0340094168238817e-02
3864:4.8947475715815175e-02
3865:4.3593059575556210e-02
3866:3.6076675310753190e-02
3867:2.9898645314696177e-02
3868:4.8263049613089207e-02
3869:4.2984674963791068e-02
3870:3.5572311969008050e-02
3871:2.9478213326218004e-02
3872:2.7075002503521663e-02
3873:2.0114305247937263e-02
3874:1.0318387061692939e-02
3875:2.2479795014163440e-03
3876:2.6845315328895964e-02
3877:1.9941070273044811e-02
3878:1.0227623175254020e-02
3879:2.2277737110369769e-03
3880:2.6452699414693914e-02
3881:1.9646518894977694e-02
3882:1.0075115684733849e-02
3883:2.1957718792718984e-03
3884:2.6078767561660460e-02
3885:1.9365686381143089e-02
3886:9.9284324404909034e-03
3887:2.1623103715022246e-03
3888:-3.0348279823234122e-02
3889:-1.4810931736314559e-01
3890:-2.9629639026624832e-01
3891:-4.0490416508264271e-01
3892:-2.8174756298891185e-02
3893:-1.3771295244084342e-01
3894:-2.7544181888802494e-01
3895:-3.7642925581459979e-01
3896:-2.6082860374024703e-02
3897:-1.2544406219108964e-01
3898:-2.5057175293740819e-01
3899:-3.4255647086874291e-01
3900:-2.4603185044612449e-02
3901:-1.1655367678151225e-01
3902:-2.3275339232390058e-01
3903:-3.1848435988703455e-01
3904:-4.6064872154133157e-01
3905:-5.5856833170085096e-01
3906:-6.7226880495655195e-01
3907:-7.4823917357522518e-01
3908:-4.2832231610332894e-01
3909:-5.1970536385431199e-01
3910:-6.2641906271466696e-01
3911:-6.9834193089419871e-01
3912:-3.8993819931175128e-01
3913:-4.7367039550581624e-01
3914:-5.7212805892216057e-01
3915:-6.3911869015548584e-01
3916:-3.6275781865759743e-01
3917:-4.4124498633985054e-01
3918:-5.3402995337357084e-01
3919:-5.9755524336859644e-01
3920:-7.8458328452330650e-01
3921:-8.4389566330010890e-01
3922:-9.0383189441371237e-01
3923:-9.3658148625604321e-01
3924:-7.3303354051084668e-01
3925:-7.9024366690049208e-01
3926:-8.4923355046705939e-01
3927:-8.8247623111154572e-01
3928:-6.7170528620979997e-01
3929:-7.2606838126918405e-01
3930:-7.8342910719221148e-01
3931:-8.1692692596185756e-01
3932:-6.2860875270207039e-01
3933:-6.8077663254942411e-01
3934:-7.3664451519436946e-01
3935:-7.7006273020434579e-01
3936:-9.4945599809861114e-01
3937:-9.6587084914681531e-01
3938:-9.7265428759121997e-01
3939:-9.6700742944254581e-01
3940:-8.9598885781798410e-01
3941:-9.1412102849633936e-01
3942:-9.2418697449314180e-01
3943:-9.2190479610489173e-01
3944:-8.3106748760105875e-01
3945:-8.5104998903490681e-01
3946:-8.6478001399623650e-01
3947:-8.6624468331394844e-01
3948:-7.8453378578073751e-01
3949:-8.0567098400371662e-01
3950:-8.2183662650229872e-01
3951:-8.2580003975041283e-01
3952:-9.6034389146614951e-01
3953:-9.4257785187827781e-01
3954:-9.0990231586333736e-01
3955:-8.7806483549394287e-01
3956:-9.1733578573086516e-01
3957:-9.0380059352124831e-01
3958:-8.7708575179370529e-01
3959:-8.5006775314663241e-01
3960:-8.6398743375438625e-01
3961:-8.5515078939400646e-01
3962:-8.3514489746890774e-01
3963:-8.1363516864077345e-01
3964:-8.2506807548686845e-01
3965:-8.1932061615378915e-01
3966:-8.0373228057984769e-01
3967:-7.8587331651318260e-01
3968:-8.5892427765668045e-01
3969:-8.2068185015386497e-01
3970:-7.6692327637316560e-01
3971:-7.2309696148363956e-01
3972:-8.3355053137431456e-01
3973:-8.0015982441168576e-01
3974:-7.5248967421616009e-01
3975:-7.1307811294283718e-01
3976:-8.0014743056061788e-01
3977:-7.7236833993130449e-01
3978:-7.3178172016191800e-01
3979:-6.9757313965302081e-01
3980:-7.7440596293521724e-01
3981:-7.5038145655468547e-01
3982:-7.1458581727897119e-01
3983:-6.8396615768394808e-01
3984:-6.9897741515424205e-01
3985:-6.5353226754822702e-01
3986:-5.9425412702476654e-01
3987:-5.4895921196435071e-01
3988:-6.9119640907612656e-01
3989:-6.4963316905599555e-01
3990:-5.9484843742049276e-01
3991:-5.5262508708926095e-01
3992:-6.7836547840608241e-01
3993:-6.4153533618282887e-01
3994:-5.9237950834520070e-01
3995:-5.5408062628674382e-01
3996:-6.6663794818019051e-01
3997:-6.3320582107497936e-01
3998:-5.8819486238929186e-01
3999:-5.5283059301048310e-01
4000:-5.2494988534451426e-01
4001:-4.8091242473949930e-01
4002:-4.2564535222757072e-01
4003:-3.8500397010465515e-01
4004:-5.3013930144543586e-01
4005:-4.8874062126285711e-01
4006:-4.3645800838974269e-01
4007:-3.9773176357117856e-01
4008:-5.3355401424664972e-01
4009:-4.9554098246570544e-01
4010:-4.4709581867893111e-01
4011:-4.1086682025140747e-01
4012:-5.3377323795409759e-01
4013:-4.9829571025869129e-01
4014:-4.5273885522425589e-01
4015:-4.1842352076160050e-01
4016:-3.6398468324995820e-01
4017:-3.2605814030965447e-01
4018:-2.7955423579305200e-01
4019:-2.4614014132897227e-01
4020:-3.7759593690513810e-01
4021:-3.4109282290178466e-01
4022:-2.9603095422947295e-01
4023:-2.6344075446330573e-01
4024:-3.9190622741495545e-01
4025:-3.5735162108075641e-01
4026:-3.1436382185594514e-01
4027:-2.8303124912916461e-01
4028:-4.0038374520329456e-01
4029:-3.6739240645210852e-01
4030:-3.2612917427092503e-01
4031:-2.9588116781381979e-01
4032:-2.2911400629931067e-01
4033:-1.9872716347109190e-01
4034:-1.6209315797780519e-01
4035:-1.3625236195489743e-01
4036:-2.4676629456272456e-01
4037:-2.1690694788641726e-01
4038:-1.8070834339567995e-01
4039:-1.5500938325630123e-01
4040:-2.6691806235753762e-01
4041:-2.3792874413256015e-01
4042:-2.0252099161808063e-01
4043:-1.7717551103470230e-01
4044:-2.8026348422545339e-01
4045:-2.5205939275698036e-01
4046:-2.1741061056531169e-01
4047:-1.9245860838941148e-01
4048:-1.2325093879645399e-01
4049:-1.0022629403880379e-01
4050:-7.2785338383837231e-02
4051:-5.3669311479752027e-02
4052:-1.4201777807688787e-01
4053:-1.1892124271923353e-01
4054:-9.1230598510473382e-02
4055:-7.1817437479940655e-02
4056:-1.6428835863986541e-01
4057:-1.4127595217343675e-01
4058:-1.1349741868115602e-01
4059:-9.3877576892707773e-02
4060:-1.7972050195568048e-01
4061:-1.5690502148945665e-01
4062:-1.2923204649889869e-01
4063:-1.0958202740224067e-01
4064:-4.4134275932317016e-02
4065:-2.7361228645871531e-02
4066:-7.5867305103868785e-03
4067:6.0168291880548447e-03
4068:-6.2091717272350987e-02
4069:-4.4921969328687368e-02
4070:-2.4559461585275388e-02
4071:-1.0453079448228044e-02
4072:-8.3996992000299281e-02
4073:-6.6474495956356378e-02
4074:-4.5539542630052283e-02
4075:-3.0913825019296046e-02
4076:-9.9648186427583815e-02
4077:-8.1971237927584331e-02
4078:-6.0737599994406338e-02
4079:-4.5814950043050237e-02
4080:1.2741051168543098e-02
4081:2.4501168225283892e-02
4082:3.8238180923577100e-02
4083:4.7585201698545021e-02
4084:-3.4438732160215059e-03
4085:8.8657424895108774e-03
4086:2.3341755258599845e-02
4087:3.3268918176295847e-02
4088:-2.3602174967482882e-02
4089:-1.0701039345671253e-02
4090:4.5856384321614893e-03
4091:1.5160743378152649e-02
4092:-3.8323783568607266e-02
4093:-2.5063446036531756e-02
4094:-9.2694791760910347e-03
4095:1.7223045461557257e-03
4096:5.2167397643653288e-02
4097:6.0125593642315574e-02
4098:6.9311487129513794e-02
4099:7.5470690741577223e-02
4100:3.8163707257967978e-02
4101:4.6705561715470759e-02
4102:5.6645606990918633e-02
4103:6.3377345669152110e-02
4104:2.0408728817666082e-02
4105:2.9617154211679823e-02
4106:4.0431204944966069e-02
4107:4.7835189873346499e-02
4108:7.2012526849103455e-03
4109:1.6851156966330338e-02
4110:2.8253656267520903e-02
4111:3.6116591074370263e-02
4112:7.8456004462269496e-02
4113:8.3593977010498088e-02
4114:8.9431270291881942e-02
4115:9.3265949868749615e-02
4116:6.6665510362169556e-02
4117:7.2361185938538769e-02
4118:7.8904248815383701e-02
4119:8.3263312721130481e-02
4120:5.1481640702834355e-02
4121:5.7840356141969397e-02
4122:6.5228587252126172e-02
4123:7.0220343969693774e-02
4124:4.0009563982248024e-02
4125:4.6827267019984846e-02
4126:5.4805897143901827e-02
4127:6.0243742931659280e-02
4128:9.5093759829722360e-02
4129:9.8189653176502134e-02
4130:1.0160453758190832e-01
4131:1.0375959122876977e-01
4132:8.5364591522555475e-02
4133:8.8959490943469249e-02
4134:9.2997990563633406e-02
4135:9.5610863153317627e-02
4136:7.2653260324038599e-02
4137:7.6856080480821015e-02
4138:8.1659409675697583e-02
4139:8.4837466105627271e-02
4140:6.2911926118167955e-02
4141:6.7548124632973591e-02
4142:7.2900477675774039e-02
4143:7.6486938068789548e-02
4144:1.0475175700970429e-01
4145:1.0637391212942282e-01
4146:1.0804099349636273e-01
4147:1.0898408730028680e-01
4148:9.6840015459778744e-02
4149:9.8892126790151622e-02
4150:1.0109180643454040e-01
4151:1.0242224317507069e-01
4152:8.6360397826035218e-02
4153:8.8947175231536696e-02
4154:9.1812297892463562e-02
4155:9.3629092174657966e-02
4156:7.8223034776433789e-02
4157:8.1199099430311145e-02
4158:8.4551263982052913e-02
4159:8.6725959086943513e-02
4160:1.0937291716338758e-01
4161:1.0992669301560719e-01
4162:1.1031725584352693e-01
4163:1.1036754586184644e-01
4164:1.0301031422886400e-01
4165:1.0392406825539542e-01
4166:1.0475783922722959e-01
4167:1.0512841829780793e-01
4168:9.4468176211913515e-02
4169:9.5836762686655655e-02
4170:9.7232991171042601e-02
4171:9.8011883573828354e-02
4172:8.7750429742307595e-02
4173:8.9455932200000934e-02
4174:9.1270645268837630e-02
4175:9.2354706640545223e-02
4176:1.1030899183715126e-01
4177:1.1006397067088544e-01
4178:1.0948639223793935e-01
4179:1.0884820127180457e-01
4180:1.0523391450351019e-01
4181:1.0528431858560026e-01
4182:1.0506862721677013e-01
4183:1.0469052459111675e-01
4184:9.8327149766111135e-02
4185:9.8756272832453168e-02
4186:9.9006321972930120e-02
4187:9.8964342763676494e-02
4188:9.2827221460053691e-02
4189:9.3540978485034815e-02
4190:9.4142465921027429e-02
4191:9.4355188666157178e-02
4192:1.0844023166079692e-01
4193:1.0756163588302201e-01
4194:1.0619634632690143e-01
4195:1.0498201784374558e-01
4196:1.0441527262561830e-01
4197:1.0377508947422250e-01
4198:1.0270075750843900e-01
4199:1.0169468575925067e-01
4200:9.8861098969030115e-02
4201:9.8530702602522488e-02
4202:9.7835955936863603e-02
4203:9.7102754774680250e-02
4204:9.4382661127998341e-02
4205:9.4288278728820785e-02
4206:9.3883857733466025e-02
4207:9.3360234976862813e-02
4208:1.0427567776878634e-01
4209:1.0284445143933041e-01
4210:1.0076882518227318e-01
4211:9.9016559293196110e-02
4212:1.0109431675265500e-01
4213:9.9853129733131457e-02
4214:9.8008850007515649e-02
4215:9.6421740191718203e-02
4216:9.6641655196499407e-02
4217:9.5650931684778298e-02
4218:9.4112940320000157e-02
4219:9.2745570517950418e-02
4220:9.3006411400318442e-02
4221:9.2209139955403321e-02
4222:9.0908741667241652e-02
4223:8.9712625915223901e-02
4224:9.8024925800497278e-02
4225:9.6052822649749403e-02
4226:9.3257603921473642e-02
4227:9.0941772221968337e-02
4228:9.5514009213148746e-02
4229:9.3692392305370173e-02
4230:9.1080509582530139e-02
4231:8.8895707061512605e-02
4232:9.1949864151382163e-02
4233:9.0329869253139169e-02
4234:8.7964998533027167e-02
4235:8.5957825645430475e-02
4236:8.9004513167832269e-02
4237:8.7542674276997370e-02
4238:8.5372559466907846e-02
4239:8.3506222631849411e-02
4240:8.9644730747355073e-02
4241:8.7082301992648270e-02
4242:8.3480165182129695e-02
4243:8.0516429513951424e-02
4244:8.7665313697909947e-02
4245:8.5222908406741890e-02
4246:8.1768106956714159e-02
4247:7.8910630872585916e-02
4248:8.4818183804932792e-02
4249:8.2539940738457523e-02
4250:7.9288109319296585e-02
4251:7.6578163279893238e-02
4252:8.2438820044050357e-02
4253:8.0291769559657652e-02
4254:7.7203166442871229e-02
4255:7.4612665484205434e-02
4256:7.8862866782933763e-02
4257:7.5602238523524642e-02
4258:7.1028767074462582e-02
4259:6.7272847294585325e-02
4260:7.7311517339159821e-02
4261:7.4150145603693540e-02
4262:6.9701120825991891e-02
4263:6.6037128774412035e-02
4264:7.5055063616753223e-02
4265:7.2033006394069538e-02
4266:6.7760113566148847e-02
4267:6.4227356438091049e-02
4268:7.3151398389699376e-02
4269:7.0243176742835214e-02
4270:6.6115198829018021e-02
4271:6.2691179721118762e-02
4272:6.5179345190690588e-02
4273:6.1051278335822655e-02
4274:5.5260363791150513e-02
4275:5.0503968391289365e-02
4276:6.3991591303613926e-02
4277:5.9953114108041501e-02
4278:5.4279049516105467e-02
4279:4.9612640274577367e-02
4280:6.2250689781000193e-02
4281:5.8341496481103261e-02
4282:5.2837254261859493e-02
4283:4.8302495981211932e-02
4284:6.0771843920280767e-02
4285:5.6970696508040937e-02
4286:5.1609165044156240e-02
4287:4.7185607085774656e-02
4288:4.7852356146363413e-02
4289:4.2619341333555022e-02
4290:3.5269177177246883e-02
4291:2.9225352172121556e-02
4292:4.7009374422108167e-02
4293:4.1869886309066746e-02
4294:3.4648247912859829e-02
4295:2.8708470637224686e-02
4296:4.5770242457029174e-02
4297:4.0768434148760822e-02
4298:3.3736466161345596e-02
4299:2.7950510123194498e-02
4300:4.4713516375804674e-02
4301:3.9828541369167969e-02
4302:3.2957810963647124e-02
4303:2.7302783180090183e-02
4304:2.5853776571270550e-02
4305:1.9196413888342669e-02
4306:9.8392444873349715e-03
4307:2.1405457726407346e-03
4308:2.5394609813202147e-02
4309:1.8852510161024204e-02
4310:9.6606932791388645e-03
4311:2.1009331093338503e-03
4312:2.4722028691284734e-02
4313:1.8350221180175354e-02
4314:9.4021350730451522e-03
4315:2.0466889657393744e-03
4316:2.4147006291762085e-02
4317:1.7920053018558323e-02
4318:9.1788974861356665e-03
4319:1.9965878837024885e-03
4320:-2.3732881538876479e-02
4321:-1.1188591224315116e-01
4322:-2.2357930790950437e-01
4323:-3.0618540090957891e-01
4324:-2.2029928554255923e-02
4325:-1.0372928933005592e-01
4326:-2.0764202515536404e-01
4327:-2.8476440849380313e-01
4328:-1.9875931797775338e-02
4329:-9.4413476238588215e-02
4330:-1.8942379315947319e-01
4331:-2.6009476000909615e-01
4332:-1.8435927850348401e-02
4333:-8.8314942409532055e-02
4334:-1.7734526802874484e-01
4335:-2.4356946536408028e-01
4336:-3.4891115671549733e-01
4337:-4.2480056029152208e-01
4338:-5.1478457026334168e-01
4339:-5.7658457493072501e-01
4340:-3.2474593606655622e-01
4341:-3.9600900029903724e-01
4342:-4.8098343888897854e-01
4343:-5.3969351748481176e-01
4344:-2.9679486285371870e-01
4345:-3.6246574019264305e-01
4346:-4.4130701346072115e-01
4347:-4.9620717178674956e-01
4348:-2.7797638580233464e-01
4349:-3.3968202960086991e-01
4350:-4.1408839677985632e-01
4351:-4.6619172868073699e-01
4352:-6.0686129973025482e-01
4353:-6.5787684226916165e-01
4354:-7.1288511768616425e-01
4355:-7.4617192860704684e-01
4356:-5.6858043600466501e-01
4357:-6.1751193209565081e-01
4358:-6.7088845985771683e-01
4359:-7.0380461508234793e-01
4360:-5.2338054831749847e-01
4361:-5.6971555945038321e-01
4362:-6.2093784088600079e-01
4363:-6.5316161137020379e-01
4364:-4.9209995928630296e-01
4365:-5.3650346104488233e-01
4366:-5.8604862498823107e-01
4367:-6.1760694933734905e-01
4368:-7.6076659937042923e-01
4369:-7.8243122438465618e-01
4370:-7.9978298221377164e-01
4371:-8.0497468377991466e-01
4372:-7.1852325382393967e-01
4373:-7.4093566834156499e-01
4374:-7.6015267323118407e-01
4375:-7.6736062064790889e-01
4376:-6.6785228149975229e-01
4377:-6.9079031407142788e-01
4378:-7.1174102082706014e-01
4379:-7.2101218258609423e-01
4380:-6.3215378450140425e-01
4381:-6.5518938615544386e-01
4382:-6.7697280009482841e-01
4383:-6.8741265064973545e-01
4384:-8.0498849280885465e-01
4385:-8.0073926451394994e-01
4386:-7.8727862934865411e-01
4387:-7.7117481316742942e-01
4388:-7.6862210293123745e-01
4389:-7.6690433963759563e-01
4390:-7.5707763504806447e-01
4391:-7.4399544333637913e-01
4392:-7.2360495091494936e-01
4393:-7.2465767123400027e-01
4394:-7.1891712272036568e-01
4395:-7.0929768865997311e-01
4396:-6.9080772328985551e-01
4397:-6.9359698876505194e-01
4398:-6.9052295576057110e-01
4399:-6.8322519870740472e-01
4400:-7.6067989895986687e-01
4401:-7.3846930068432204e-01
4402:-7.0501309673191981e-01
4403:-6.7617544470301860e-01
4404:-7.3518213652228626e-01
4405:-7.1613019311216708e-01
4406:-6.8678501283352522e-01
4407:-6.6109989975772787e-01
4408:-7.0243044434077639e-01
4409:-6.8707750096659570e-01
4410:-6.6261143259069266e-01
4411:-6.4069540890128829e-01
4412:-6.7768030164952475e-01
4413:-6.6487393507231973e-01
4414:-6.4381213888376831e-01
4415:-6.2454152443120148e-01
4416:-6.5979401295901718e-01
4417:-6.2809635254736373e-01
4418:-5.8523162073069457e-01
4419:-5.5139822022610274e-01
4420:-6.4639813187633910e-01
4421:-6.1777897510251301e-01
4422:-5.7873258604450251e-01
4423:-5.4763708003407652e-01
4424:-6.2800428486370208e-01
4425:-6.0306447823052456e-01
4426:-5.6859178784589193e-01
4427:-5.4080570049056009e-01
4428:-6.1326129277515662e-01
4429:-5.9089844942685343e-01
4430:-5.5963847382897203e-01
4431:-5.3420282017462539e-01
4432:-5.3310765200179844e-01
4433:-4.9895393688994405e-01
4434:-4.5491393422392179e-01
4435:-4.2161795809264913e-01
4436:-5.3072577022715262e-01
4437:-4.9897396647510106e-01
4438:-4.5772379275500619e-01
4439:-4.2632824760283200e-01
4440:-5.2557976167451481e-01
4441:-4.9680478602649097e-01
4442:-4.5908186548097418e-01
4443:-4.3013039074324499e-01
4444:-5.2018900878386298e-01
4445:-4.9358472000021214e-01
4446:-4.5847965374928662e-01
4447:-4.3136600524880736e-01
4448:-4.0407619214286383e-01
4449:-3.7194067867965286e-01
4450:-3.3163720819538467e-01
4451:-3.0200177663128280e-01
4452:-4.0972236438098603e-01
4453:-3.7919824808878255e-01
4454:-3.4070936161889531e-01
4455:-3.1224165608295751e-01
4456:-4.1473806755537951e-01
4457:-3.8630778103240915e-01
4458:-3.5019214864885317e-01
4459:-3.2327349113833054e-01
4460:-4.1689095135393345e-01
4461:-3.9004794151581318e-01
4462:-3.5574762573583635e-01
4463:-3.3003437967891680e-01
4464:-2.8666634466251140e-01
4465:-2.5891508593965384e-01
4466:-2.2471855221658837e-01
4467:-2.0001709527775785e-01
4468:-2.9744941674645525e-01
4469:-2.7058427393916440e-01
4470:-2.3730262728813822e-01
4471:-2.1313331586944609e-01
4472:-3.0921357208066841e-01
4473:-2.8356975771405946e-01
4474:-2.5159982961604427e-01
4475:-2.2823293543916676e-01
4476:-3.1655450544413821e-01
4477:-2.9189554891611097e-01
4478:-2.6101405201243616e-01
4479:-2.3833487167822012e-01
4480:-1.8738209877926360e-01
4481:-1.6471642076670587e-01
4482:-1.3715687782797664e-01
4483:-1.1753221342335744e-01
4484:-2.0072749764023076e-01
4485:-1.7840773004516822e-01
4486:-1.5114113335250742e-01
4487:-1.3162308251662058e-01
4488:-2.1618723491888642e-01
4489:-1.9443048976271085e-01
4490:-1.6768743613425760e-01
4491:-1.4841626958227494e-01
4492:-2.2660525051747091e-01
4493:-2.0535469703437856e-01
4494:-1.7911124415829568e-01
4495:-1.6010755098597282e-01
4496:-1.0759086332876587e-01
4497:-8.9869104345349490e-02
4498:-6.8522871505958358e-02
4499:-5.3476579246200924e-02
4500:-1.2169868698756352e-01
4501:-1.0395209187168504e-01
4502:-8.2473187300209250e-02
4503:-6.7255225373603511e-02
4504:-1.3857212938274030e-01
4505:-1.2090427616591080e-01
4506:-9.9398981400000405e-02
4507:-8.4068541847348979e-02
4508:-1.5036818056809648e-01
4509:-1.3284280381335123e-01
4510:-1.1142397758322344e-01
4511:-9.6087040202222196e-02
4512:-4.5907935803265916e-02
4513:-3.2488789281832048e-02
4514:-1.6463592488614943e-02
4515:-5.2768908924227826e-03
4516:-5.9572979878878711e-02
4517:-4.5912264741258306e-02
4518:-2.9520577946943880e-02
4519:-1.8015526884147440e-02
4520:-7.6296324115488340e-02
4521:-6.2424278761487602e-02
4522:-4.5679915914699179e-02
4523:-3.3849214557181234e-02
4524:-8.8287053630234216e-02
4525:-7.4326998139271086e-02
4526:-5.7403150086664224e-02
4527:-4.5389026121764722e-02
4528:3.1172571957643110e-04
4529:1.0173292173036412e-02
4530:2.1861268509273845e-02
4531:2.9949018532006318e-02
4532:-1.2245072891984390e-02
4533:-2.0296551601574724e-03
4534:1.0140640891187453e-02
4535:1.8611892624230745e-02
4536:-2.7887403926753523e-02
4537:-1.7293416818726471e-02
4538:-4.5960323664790354e-03
4539:4.3024013346108598e-03
4540:-3.9314831268166969e-02
4541:-2.8492647566147132e-02
4542:-1.5467007300119491e-02
4543:-6.2949987726838366e-03
4544:3.3963397540879042e-02
4545:4.1008249113831781e-02
4546:4.9281212549389886e-02
4547:5.4943083421815933e-02
4548:2.2834618915487673e-02
4549:3.0271556440254622e-02
4550:3.9056770501346830e-02
4551:4.5111505881585523e-02
4552:8.7599407856410703e-03
4553:1.6643290880686751e-02
4554:2.6019852079564199e-02
4555:3.2533738987037777e-02
4556:-1.6845977983264485e-03
4557:6.4930121971034241e-03
4558:1.6265716942855328e-02
4559:2.3091473014745300e-02
4560:5.7729977190713676e-02
4561:6.2585589613645437e-02
4562:6.8217205818385376e-02
4563:7.2012317370797010e-02
4564:4.8107528702721530e-02
4565:5.3350821595298636e-02
4566:5.9477965293819574e-02
4567:6.3644902428356756e-02
4568:3.5775943124424232e-02
4569:4.1477917167857516e-02
4570:4.8195666966959344e-02
4571:5.2809072863203514e-02
4572:2.6502215067946137e-02
4573:3.2520148359970261e-02
4574:3.9648410824772780e-02
4575:4.4574928853251948e-02
4576:7.3857617000526413e-02
4577:7.7033607560066608e-02
4578:8.0636851503934293e-02
4579:8.2996769830302602e-02
4580:6.5685364044833314e-02
4581:6.9219609675499810e-02
4582:7.3274567412797087e-02
4583:7.5969039992648479e-02
4584:5.5085028451095919e-02
4585:5.9053433603066335e-02
4586:6.3659257502953842e-02
4587:6.6764226649871708e-02
4588:4.7016999368598399e-02
4589:5.1293103506392358e-02
4590:5.6291961365988831e-02
4591:5.9691693729295094e-02
4592:8.4117429905865598e-02
4593:8.5998094071215281e-02
4594:8.8031017705818712e-02
4595:8.9274678169119964e-02
4596:7.7263881345907712e-02
4597:7.9462338652221659e-02
4598:8.1892294682072903e-02
4599:8.3427210822500583e-02
4600:6.8273619510706068e-02
4601:7.0864727438195566e-02
4602:7.3787505458217897e-02
4603:7.5685675737838493e-02
4604:6.1355767857452032e-02
4605:6.4230912966509054e-02
4606:6.7512002221059658e-02
4607:6.9675654712851115e-02
4608:8.9829593781066072e-02
4609:9.0692766932725391e-02
4610:9.1479240592849342e-02
4611:9.1826412090052087e-02
4612:8.4132805051169574e-02
4613:8.5269700681596380e-02
4614:8.6396006559396735e-02
4615:8.6990885708766660e-02
4616:7.6579801064172948e-02
4617:7.8060151133618208e-02
4618:7.9614689133999758e-02
4619:8.0523084575464310e-02
4620:7.0708043973968862e-02
4621:7.2441015403920395e-02
4622:7.4311914261682238e-02
4623:7.5452954699678595e-02
4624:9.1923018259303879e-02
4625:9.1953667046577120e-02
4626:9.1703443981366747e-02
4627:9.1291435104429358e-02
4628:8.7215111597635953e-02
4629:8.7476953150042905e-02
4630:8.7512595186601261e-02
4631:8.7308076439137391e-02
4632:8.0909308985255141e-02
4633:8.1465377271922032e-02
4634:8.1866269268799127e-02
4635:8.1927971752790485e-02
4636:7.5959744616037120e-02
4637:7.6735365174916373e-02
4638:7.7409913549589621e-02
4639:7.7671924096437056e-02
4640:9.0994849865840582e-02
4641:9.0300979129284531e-02
4642:8.9127928891226005e-02
4643:8.8023878873827982e-02
4644:8.7118100182601646e-02
4645:8.6617165744231839e-02
4646:8.5682410939899686e-02
4647:8.4751159572680701e-02
4648:8.1875174343733093e-02
4649:8.1623168586897096e-02
4650:8.0997159419819581e-02
4651:8.0290793480293596e-02
4652:7.7722640121149600e-02
4653:7.7658972703049986e-02
4654:7.7267522477864628e-02
4655:7.6732746303637286e-02
4656:8.7362954762956024e-02
4657:8.5986489773127658e-02
4658:8.3921843082890787e-02
4659:8.2132039219947953e-02
4660:8.4178991699363923e-02
4661:8.2963434884485834e-02
4662:8.1098215751181493e-02
4663:7.9453631736248198e-02
4664:7.9834492707700100e-02
4665:7.8829622544234562e-02
4666:7.7226755762356589e-02
4667:7.5774169631905156e-02
4668:7.6365116350860421e-02
4669:7.5521943519720372e-02
4670:7.4121329787494888e-02
4671:7.2817458687818817e-02
4672:8.1103988623656018e-02
4673:7.9028576958538571e-02
4674:7.6029444859719811e-02
4675:7.3504680078605375e-02
4676:7.8500433090744087e-02
4677:7.6561617130967263e-02
4678:7.3733730650480417e-02
4679:7.1335287025579786e-02
4680:7.4920278172367211e-02
4681:7.3163305375771079e-02
4682:7.0564602545940852e-02
4683:6.8336156441491255e-02
4684:7.2040737211446840e-02
4685:7.0425517152964412e-02
4686:6.8006338823517198e-02
4687:6.5911723507395548e-02
4688:7.2077537040162065e-02
4689:6.9232304785227738e-02
4690:6.5184834921360693e-02
4691:6.1821470326042682e-02
4692:6.9973897980866423e-02
4693:6.7250359870340864e-02
4694:6.3359045385509155e-02
4695:6.0113792865135587e-02
4696:6.7063589879688523e-02
4697:6.4505028098710546e-02
4698:6.0826538690870013e-02
4699:5.7743113079660853e-02
4700:6.4709318805852470e-02
4701:6.2281485384238854e-02
4702:5.8772428641225595e-02
4703:5.5818426426398678e-02
4704:5.9934198680683011e-02
4705:5.6193612904723217e-02
4706:5.0912319158822321e-02
4707:4.6551459055501523e-02
4708:5.8289119833400516e-02
4709:5.4667025843344243e-02
4710:4.9543194778672521e-02
4711:4.5305713888648229e-02
4712:5.6004499366347223e-02
4713:5.2545770424041439e-02
4714:4.7639885815692472e-02
4715:4.3573781908498303e-02
4716:5.4148841512936183e-02
4717:5.0821463814698362e-02
4718:4.6091390982933703e-02
4719:4.2163940558971630e-02
4720:4.4113346014591499e-02
4721:3.9294410461715230e-02
4722:3.2514903364209632e-02
4723:2.6933999541026821e-02
4724:4.2934570664986675e-02
4725:3.8245916095957067e-02
4726:3.1646551267179239e-02
4727:2.6212126199435328e-02
4728:4.1295853294856931e-02
4729:3.6788739530264930e-02
4730:3.0440703062134231e-02
4731:2.5210816383959420e-02
4732:3.9961556185683762e-02
4733:3.5601697651545444e-02
4734:2.9457714275161442e-02
4735:2.4393999532020028e-02
4736:2.3819392761182646e-02
4737:1.7674413274171290e-02
4738:9.0502330458601971e-03
4739:1.9656894546318145e-03
4740:2.3178897629204272e-02
4741:1.7195869465594458e-02
4742:8.8025811348035037e-03
4743:1.9108309097257306e-03
4744:2.2291255745837825e-02
4745:1.6534283087549766e-02
4746:8.4628823440341984e-03
4747:1.8395665963619086e-03
4748:2.1566804521618844e-02
4749:1.5993402841294569e-02
4750:8.1831000441392084e-03
4751:1.7772777663033229e-03
4752:-1.7785750846630709e-02
4753:-8.5421393831341966e-02
4754:-1.7152012706875602e-01
4755:-2.3553737466327190e-01
4756:-1.6711201377783709e-02
4757:-8.0290471339634281e-02
4758:-1.6116862487462891e-01
4759:-2.2130671331977889e-01
4760:-1.5488947203028179e-02
4761:-7.4034742799245531e-02
4762:-1.4859301324808094e-01
4763:-2.0412861643861258e-01
4764:-1.4611091065602308e-02
4765:-6.9510113770613613e-02
4766:-1.3957964533233624e-01
4767:-1.9189352657924988e-01
4768:-2.6879943315405219e-01
4769:-3.2850317878403945e-01
4770:-4.0063340746706427e-01
4771:-4.5128006473289428e-01
4772:-2.5257015212051565e-01
4773:-3.0876970191953584e-01
4774:-3.7688179250835080e-01
4775:-4.2492007202707066e-01
4776:-2.3304439846668551e-01
4777:-2.8512496137084492e-01
4778:-3.4847698666012089e-01
4779:-3.9337166857273081e-01
4780:-2.1917613237008574e-01
4781:-2.6839789119369728e-01
4782:-3.2843908847585462e-01
4783:-3.7112287783113634e-01
4784:-4.7652414057560061e-01
4785:-5.1990986251607829e-01
4786:-5.6855126054867056e-01
4787:-5.9971694493798477e-01
4788:-4.4895789819291509e-01
4789:-4.9047535257424579e-01
4790:-5.3742426158766854e-01
4791:-5.6782729643578134e-01
4792:-4.1592773950611006e-01
4793:-4.5510872200736496e-01
4794:-4.9987365350727470e-01
4795:-5.2924474996095006e-01
4796:-3.9262131262920574e-01
4797:-4.3010207428650304e-01
4798:-4.7322363686445240e-01
4799:-5.0178077050238079e-01
4800:-6.1415277922849509e-01
4801:-6.3714986476992819e-01
4802:-6.5922250144944339e-01
4803:-6.7015210623278398e-01
4804:-5.8203386614549613e-01
4805:-6.0490265051839376e-01
4806:-6.2740469499518159e-01
4807:-6.3912959495241872e-01
4808:-5.4312086041181429e-01
4809:-5.6574159400720025e-01
4810:-5.8863528115915642e-01
4811:-6.0120173174614366e-01
4812:-5.1538131634307571e-01
4813:-5.3775718523606819e-01
4814:-5.6083973639277029e-01
4815:-5.7392130732188840e-01
4816:-6.7390300515370627e-01
4817:-6.7749047473556379e-01
4818:-6.7568538827734237e-01
4819:-6.6951726565366354e-01
4820:-6.4346808238693420e-01
4821:-6.4838835980616183e-01
4822:-6.4872692787230590e-01
4823:-6.4448312533718810e-01
4824:-6.0617434402290660e-01
4825:-6.1255076831746802e-01
4826:-6.1526393869715934e-01
4827:-6.1317489428188532e-01
4828:-5.7929142555046476e-01
4829:-5.8659231928519184e-01
4830:-5.9083529189958262e-01
4831:-5.9015104948292163e-01
4832:-6.6462261653819077e-01
4833:-6.5307958033051439e-01
4834:-6.3372098873121607e-01
4835:-6.1577833894140399e-01
4836:-6.4070124080232360e-01
4837:-6.3132985018460319e-01
4838:-6.1492023615879765e-01
4839:-5.9929524680233481e-01
4840:-6.1064690802594401e-01
4841:-6.0373778664263922e-01
4842:-5.9070995381506997e-01
4843:-5.7777998217043725e-01
4844:-5.8844635004015611e-01
4845:-5.8316408449238544e-01
4846:-5.7239808808868753e-01
4847:-5.6129876654628241e-01
4848:-6.0520600988954132e-01
4849:-5.8413513822556062e-01
4850:-5.5449055792222790e-01
4851:-5.3024662718811000e-01
4852:-5.8996567591906757e-01
4853:-5.7117655322789207e-01
4854:-5.4440784732520564e-01
4855:-5.2229951918150019e-01
4856:-5.6991124755217670e-01
4857:-5.5383383087717564e-01
4858:-5.3052892384508987e-01
4859:-5.1101686208506958e-01
4860:-5.5443447003105772e-01
4861:-5.4024441934604772e-01
4862:-5.1938457300109120e-01
4863:-5.0172167227039355e-01
4864:-5.1685279440646059e-01
4865:-4.9136777955526806e-01
4866:-4.5762547359552341e-01
4867:-4.3147447293597285e-01
4868:-5.1002029286864914e-01
4869:-4.8654978472434063e-01
4870:-4.5526628179092593e-01
4871:-4.3085926424346316e-01
4872:-5.0009741911813688e-01
4873:-4.7908706069105378e-01
4874:-4.5081763546286091e-01
4875:-4.2856442415041957e-01
4876:-4.9177352083513381e-01
4877:-4.7252330822445870e-01
4878:-4.4642187561210717e-01
4879:-4.2573275000825739e-01
4880:-4.1748082020631383e-01
4881:-3.9147324402198869e-01
4882:-3.5813583509815966e-01
4883:-3.3307036707773013e-01
4884:-4.1774129431395507e-01
4885:-3.9326359562412477e-01
4886:-3.6170897372833216e-01
4887:-3.3785702735979523e-01
4888:-4.1653621463048340e-01
4889:-3.9398183159658018e-01
4890:-3.6470287630870357e-01
4891:-3.4242278029106116e-01
4892:-4.1450316049689734e-01
4893:-3.9337159481081480e-01
4894:-3.6579802541598111e-01
4895:-3.4470915174788214e-01
4896:-3.1990601562853777e-01
4897:-2.9578776646634763e-01
4898:-2.6551193240362114e-01
4899:-2.4322082204258633e-01
4900:-3.2528831438363370e-01
4901:-3.0219398385264890e-01
4902:-2.7307163288760833e-01
4903:-2.5152627968863078e-01
4904:-3.3063224055877283e-01
4905:-3.0888117651947411e-01
4906:-2.8128529059231766e-01
4907:-2.6074106334573899e-01
4908:-3.3351188765773288e-01
4909:-3.1278967121802087e-01
4910:-2.8637485804767876e-01
4911:-2.6661760656389982e-01
4912:-2.3167130837285041e-01
4913:-2.1071295458708583e-01
4914:-1.8476691714536980e-01
4915:-1.6593173687034957e-01
4916:-2.4032603352542195e-01
4917:-2.1994227104156211e-01
4918:-1.9459747384169790e-01
4919:-1.7611706094198692e-01
4920:-2.5001641200193137e-01
4921:-2.3042931623546090e-01
4922:-2.0594593638961292e-01
4923:-1.8799633313834585e-01
4924:-2.5627237740990061e-01
4925:-2.3733022406018051e-01
4926:-2.1356141491321790e-01
4927:-1.9606526232247101e-01
4928:-1.5626288392834295e-01
4929:-1.3884109119459409e-01
4930:-1.1750373176999081e-01
4931:-1.0218938711538698e-01
4932:-1.6660246456415970e-01
4933:-1.4941554806052801e-01
4934:-1.2828240242604350e-01
4935:-1.1304902361422489e-01
4936:-1.7872123284322583e-01
4937:-1.6191187387357356e-01
4938:-1.4113698249945369e-01
4939:-1.2607987978159163e-01
4940:-1.8699955037789340e-01
4941:-1.7052829021948854e-01
4942:-1.5009264282797158e-01
4943:-1.3522181765985752e-01
4944:-9.4387961874934687e-02
4945:-8.0405244174253127e-02
4946:-6.3416087857263839e-02
4947:-5.1326759435294654e-02
4948:-1.0526531880774574e-01
4949:-9.1278689154817905e-02
4950:-7.4217616604143416e-02
4951:-6.2025772675706130e-02
4952:-1.1835733376932424e-01
4953:-1.0443768309344119e-01
4954:-8.7377130702592870e-02
4955:-7.5123110223623474e-02
4956:-1.2757415908822275e-01
4957:-1.1375873974458017e-01
4958:-9.6767207864736846e-02
4959:-8.4517084034598483e-02
4960:-4.5204487176237665e-02
4961:-3.4281999131014658e-02
4962:-2.1107329534212023e-02
4963:-1.1807848059547968e-02
4964:-5.5833603381414437e-02
4965:-4.4759410395067215e-02
4966:-3.1349571456147966e-02
4967:-2.1842774152602603e-02
4968:-6.8877255442916716e-02
4969:-5.7672766503957779e-02
4970:-4.4039189484220836e-02
4971:-3.4322133246993521e-02
4972:-7.8256935177371395e-02
4973:-6.7001250180272282e-02
4974:-5.3256632383199685e-02
4975:-4.3422786707646696e-02
4976:-7.1251855797851973e-03
4977:1.1928976952613332e-03
4978:1.1157030779264686e-02
4979:1.8135025282082849e-02
4980:-1.7040800983458348e-02
4981:-8.4886390677553856e-03
4982:1.7982500558237310e-03
4983:9.0356018162051216e-03
4984:-2.9395515713892623e-02
4985:-2.0594252639046018e-02
4986:-9.9558082067737180e-03
4987:-2.4302153675668137e-03
4988:-3.8423674168761510e-02
4989:-2.9473270807988092e-02
4990:-1.8616837930103766e-02
4991:-1.0907300619070711e-02
4992:2.1628509298859830e-02
4993:2.7802321180719472e-02
4994:3.5134558269805299e-02
4995:4.0217737010630354e-02
4996:1.2670932690147163e-02
4997:1.9113465518324015e-02
4998:2.6800079261455466e-02
4999:3.2157383581086642e-02
5000:1.3646489665292518e-03
5001:8.1124101106700500e-03
5002:1.6206945917167571e-02
5003:2.1883567241718981e-02
5004:-7.0089529065758601e-03
5005:-6.0733629708172565e-05
5006:8.3060441894649718e-03
5007:1.4198742040816533e-02
5008:4.2743287548470260e-02
5009:4.7174541017168108e-02
5010:5.2372500093321950e-02
5011:5.5922209457838747e-02
5012:3.4829636658662330e-02
5013:3.9534373630769656e-02
5014:4.5084830379463807e-02
5015:4.8901220547376174e-02
5016:2.4727908433028294e-02
5017:2.9755128337466848e-02
5018:3.5724365926246268e-02
5019:3.9859933624860969e-02
5020:1.7160464954238581e-02
5021:2.2409042806050442e-02
5022:2.8668348767089926e-02
5023:3.3026941172041357e-02
5024:5.7665202185251729e-02
5025:6.0685616417174834e-02
5026:6.4150633190144316e-02
5027:6.6451068268866140e-02
5028:5.0784940954669976e-02
5029:5.4065064844190956e-02
5030:5.7860152822135372e-02
5031:6.0406977128457426e-02
5032:4.1912895037594287e-02
5033:4.5506655048103854e-02
5034:4.9702773427200878e-02
5035:5.2550729950984948e-02
5036:3.5198823479286385e-02
5037:3.9013989783817885e-02
5038:4.3495082620217847e-02
5039:4.6558381662251035e-02
5040:6.7554868277102303e-02
5041:6.9418575982909278e-02
5042:7.1453683694547868e-02
5043:7.2715840860320083e-02
5044:6.1639722081009776e-02
5045:6.3739957353209017e-02
5046:6.6073018770713615e-02
5047:6.7555600046872930e-02
5048:5.3941663607856925e-02
5049:5.6332974751896428e-02
5050:5.9034421040699746e-02
5051:6.0790836051085317e-02
5052:4.8062889078579238e-02
5053:5.0663897714702102e-02
5054:5.3632095357435912e-02
5055:5.5587823228523799e-02
5056:7.3285521825009012e-02
5057:7.4175874319837964e-02
5058:7.4993822684491646e-02
5059:7.5361098407838251e-02
5060:6.8239969674835269e-02
5061:6.9339937298440610e-02
5062:7.0420620960250174e-02
5063:7.0981326650114390e-02
5064:6.1618139968980419e-02
5065:6.2980102541640853e-02
5066:6.4390612523963553e-02
5067:6.5195227591074920e-02
5068:5.6519519730988239e-02
5069:5.8073409836309077e-02
5070:5.9726630848645594e-02
5071:6.0711552617334366e-02
5072:7.5466317828271082e-02
5073:7.5501991516767217e-02
5074:7.5234596988278585e-02
5075:7.4790829379273324e-02
5076:7.1186895971259156e-02
5077:7.1405800872424485e-02
5078:7.1367855345052078e-02
5079:7.1092901307612408e-02
5080:6.5527713008904684e-02
5081:6.5978991423122080e-02
5082:6.6233257903041159e-02
5083:6.6174235789250926e-02
5084:6.1138142802899649e-02
5085:6.1762202151813148e-02
5086:6.2234672420475104e-02
5087:6.2337604318053588e-02
5088:7.4470319844940347e-02
5089:7.3713234203347480e-02
5090:7.2420610629776602e-02
5091:7.1196383817936137e-02
5092:7.0859969750414475e-02
5093:7.0263193835277696e-02
5094:6.9172267109728000e-02
5095:6.8097256448700377e-02
5096:6.6053660340747472e-02
5097:6.5663138977506835e-02
5098:6.4832858666252130e-02
5099:6.3951552278989535e-02
5100:6.2301549169426068e-02
5101:6.2066620681551610e-02
5102:6.1433809666465750e-02
5103:6.0699900833104684e-02
5104:7.0461076008250148e-02
5105:6.8922078966453110e-02
5106:6.6599726940428886e-02
5107:6.4577517285132835e-02
5108:6.7439702517190281e-02
5109:6.6044106360751517e-02
5110:6.3904485127096386e-02
5111:6.2019353549614166e-02
5112:6.3395244582823640e-02
5113:6.2186929017349776e-02
5114:6.0287024313965445e-02
5115:5.8582535024173467e-02
5116:6.0220862440238998e-02
5117:5.9155878420923437e-02
5118:5.7440213254839848e-02
5119:5.5875149568708704e-02
5120:6.3413150693867701e-02
5121:6.1056327675871123e-02
5122:5.7639565333754257e-02
5123:5.4756257614995675e-02
5124:6.0927152969581511e-02
5125:5.8705317994826582e-02
5126:5.5464512425935232e-02
5127:5.2716359673302467e-02
5128:5.7585720607024916e-02
5129:5.5542803317798151e-02
5130:5.2536159389251574e-02
5131:4.9968567806843923e-02
5132:5.4952162210245285e-02
5133:5.3048075133238164e-02
5134:5.0223793190235913e-02
5135:4.7797311446402591e-02
5136:5.3124443980331698e-02
5137:4.9869040789220213e-02
5138:4.5235489651274004e-02
5139:4.1384291639846187e-02
5140:5.1156885816679071e-02
5141:4.8039530761712260e-02
5142:4.3591476805845131e-02
5143:3.9887080019560303e-02
5144:4.8505972459262810e-02
5145:4.5573862069482302e-02
5146:4.1375391806215606e-02
5147:3.7868982166841224e-02
5148:4.6410592348140697e-02
5149:4.3623820665600610e-02
5150:3.9621625309726426e-02
5151:3.6271234712622315e-02
5152:3.9223493774450106e-02
5153:3.4944737110462129e-02
5154:2.8913194233438581e-02
5155:2.3941077823433174e-02
5156:3.7806425242142769e-02
5157:3.3684048356861056e-02
5158:2.7869438683882076e-02
5159:2.3074115167111563e-02
5160:3.5896560352128112e-02
5161:3.1985521878965660e-02
5162:2.6464302552128671e-02
5163:2.1908201803335019e-02
5164:3.4384202561363007e-02
5165:3.0639991242724925e-02
5166:2.5350502380689938e-02
5167:2.0983420102904961e-02
5168:2.1164802320668891e-02
5169:1.5692557973608374e-02
5170:8.0260328355764455e-03
5171:1.7398934392167747e-03
5172:2.0396131750454592e-02
5173:1.5119088694515035e-02
5174:7.7298375833288234e-03
5175:1.6743583591624649e-03
5176:1.9363240250984452e-02
5177:1.4350236854527488e-02
5178:7.3357104735563821e-03
5179:1.5916779213408013e-03
5180:1.8543574185289364e-02
5181:1.3739113273646597e-02
5182:7.0202966663024955e-03
5183:1.5218284532230800e-03
5184:-1.4142946374408437e-02
5185:-6.7183910730205271e-02
5186:-1.3498434570001247e-01
5187:-1.8567597363754235e-01
5188:-1.3293585653978006e-02
5189:-6.3119119384292155e-02
5190:-1.2694290974452305e-01
5191:-1.7475478897967212e-01
5192:-1.2271760992874081e-02
5193:-5.8399154859359328e-02
5194:-1.1755353860576574e-01
5195:-1.6191948266305789e-01
5196:-1.1573367976283546e-02
5197:-5.5193200465119607e-02
5198:-1.1112476383576837e-01
5199:-1.5307832575557181e-01
5200:-2.1213655068312870e-01
5201:-2.5992386762975278e-01
5202:-3.1830775036665154e-01
5203:-3.5988194456945277e-01
5204:-1.9974446815798161e-01
5205:-2.4496143454395158e-01
5206:-3.0037511845917730e-01
5207:-3.3996348377212865e-01
5208:-1.8512984671363789e-01
5209:-2.2722350779454495e-01
5210:-2.7901308951066384e-01
5211:-3.1617529387878968e-01
5212:-1.7503373722066154e-01
5213:-2.1490955994870639e-01
5214:-2.6410286964839086e-01
5215:-2.9951532348265675e-01
5216:-3.8084628297837725e-01
5217:-4.1745716682900236e-01
5218:-4.5971834919036036e-01
5219:-4.8783558089559820e-01
5220:-3.5997341855817855e-01
5221:-3.9502223087902294e-01
5222:-4.3571579211786060e-01
5223:-4.6300564587035448e-01
5224:-3.3502014315893175e-01
5225:-3.6815161358828763e-01
5226:-4.0688488407621920e-01
5227:-4.3309471628468443e-01
5228:-3.1751748701451715e-01
5229:-3.4925588018058407e-01
5230:-3.8654226625879479e-01
5231:-4.1192528800727940e-01
5232:-5.0128177486118020e-01
5233:-5.2350891360444929e-01
5234:-5.4665613864371532e-01
5235:-5.5997106074691760e-01
5236:-4.7614709433185953e-01
5237:-4.9804721891880532e-01
5238:-5.2122133209753041e-01
5239:-5.3488186355924949e-01
5240:-4.4581246734082858e-01
5241:-4.6719781670782462e-01
5242:-4.9022994087914945e-01
5243:-5.0416974351198385e-01
5244:-4.2430191604229528e-01
5245:-4.4523371004072321e-01
5246:-4.6803507906132791e-01
5247:-4.8206997325450446e-01
5248:-5.6552517506808730e-01
5249:-5.7325831316574438e-01
5250:-5.7822471331334047e-01
5251:-5.7821090178304246e-01
5252:-5.4072671392263105e-01
5253:-5.4916500388128797e-01
5254:-5.5534531022317568e-01
5255:-5.5647596907215569e-01
5256:-5.1029367290353911e-01
5257:-5.1945833710273992e-01
5258:-5.2696115430638857e-01
5259:-5.2937857858467585e-01
5260:-4.8833829957744146e-01
5261:-4.9792426342404045e-01
5262:-5.0625550102963157e-01
5263:-5.0951101489496886e-01
5264:-5.7690121710172237e-01
5265:-5.7240274843414585e-01
5266:-5.6273543219505018e-01
5267:-5.5253471095718965e-01
5268:-5.5584604656401693e-01
5269:-5.5270331129492234e-01
5270:-5.4494708758431321e-01
5271:-5.3631543353684119e-01
5272:-5.2952381625444456e-01
5273:-5.2794220017174742e-01
5274:-5.2240866510755035e-01
5275:-5.1561257431157037e-01
5276:-5.1016967183478035e-01
5277:-5.0963533085578316e-01
5278:-5.0561255849302644e-01
5279:-5.0007369369035792e-01
5280:-5.4616750411391646e-01
5281:-5.3291916825206553e-01
5282:-5.1329054656914208e-01
5283:-4.9656398864765050e-01
5284:-5.3081776088254118e-01
5285:-5.1922034370418546e-01
5286:-5.0175879847102267e-01
5287:-4.8668819898971144e-01
5288:-5.1113420838536516e-01
5289:-5.0147661437458380e-01
5290:-4.8657530061194881e-01
5291:-4.7347624860460447e-01
5292:-4.9629536900301030e-01
5293:-4.8797315521991813e-01
5294:-4.7484464621793476e-01
5295:-4.6312253393780478e-01
5296:-4.8710850479372148e-01
5297:-4.6875266449611330e-01
5298:-4.4375807576507476e-01
5299:-4.2387350623636311e-01
5300:-4.7810731151447700e-01
5301:-4.6134653692562799e-01
5302:-4.3833941638721707e-01
5303:-4.1990884141547319e-01
5304:-4.6594348733796825e-01
5305:-4.5110858613136268e-01
5306:-4.3052569097894461e-01
5307:-4.1388409194246312e-01
5308:-4.5632713363661820e-01
5309:-4.4285730814722157e-01
5310:-4.2400938282541717e-01
5311:-4.0865786337556831e-01
5312:-4.1305744435851893e-01
5313:-3.9266657668009536e-01
5314:-3.6598685161421046e-01
5315:-3.4552569531584065e-01
5316:-4.0984293849515158e-01
5317:-3.9079795386853600e-01
5318:-3.6574700796881937e-01
5319:-3.4643415324811949e-01
5320:-4.0474541199319669e-01
5321:-3.8736788878450512e-01
5322:-3.6434439075264724e-01
5323:-3.4647082642514981e-01
5324:-4.0019032152205014e-01
5325:-3.8402327562798555e-01
5326:-3.6248049899863044e-01
5327:-3.4566710466041761e-01
5328:-3.3464189108508646e-01
5329:-3.1446521705832331e-01
5330:-2.8868153041220773e-01
5331:-2.6934960129059909e-01
5332:-3.3612577191478743e-01
5333:-3.1695595347952460e-01
5334:-2.9234756806758405e-01
5335:-2.7381557976585463e-01
5336:-3.3688820060799735e-01
5337:-3.1899835141644600e-01
5338:-2.9590253130400673e-01
5339:-2.7841307202942706e-01
5340:-3.3662296918740037e-01
5341:-3.1968974893406288e-01
5342:-2.9773637029035055e-01
5343:-2.8104231170523114e-01
5344:-2.5921146085599517e-01
5345:-2.4062405364126205e-01
5346:-2.1725304598153725e-01
5347:-2.0001281081849859e-01
5348:-2.6406958967629912e-01
5349:-2.4615646727074453e-01
5350:-2.2354668743805911e-01
5351:-2.0680093418600190e-01
5352:-2.6918230837420937e-01
5353:-2.5215965018563813e-01
5354:-2.3056504630748578e-01
5355:-2.1448825501189173e-01
5356:-2.7220707523325638e-01
5357:-2.5587159161042083e-01
5358:-2.3506850023068901e-01
5359:-2.1952096507515020e-01
5360:-1.9106651154646206e-01
5361:-1.7479052361680220e-01
5362:-1.5455641948649720e-01
5363:-1.3980180393159206e-01
5364:-1.9808744914268431e-01
5365:-1.8219679405446568e-01
5366:-1.6236992493608804e-01
5367:-1.4785840316954843e-01
5368:-2.0609391003875363e-01
5369:-1.9073969848660341e-01
5370:-1.7149607202088460e-01
5371:-1.5734625936928029e-01
5372:-2.1138237375490460e-01
5373:-1.9646353634875030e-01
5374:-1.7770365224989196e-01
5375:-1.6386210291421932e-01
5376:-1.3220347358498277e-01
5377:-1.1846131876804294e-01
5378:-1.0152937060398717e-01
5379:-8.9298325758447455e-02
5380:-1.4036670313848765e-01
5381:-1.2678830375354053e-01
5382:-1.1000205785118007e-01
5383:-9.7832617918659631e-02
5384:-1.5001858979934676e-01
5385:-1.3670065531014264e-01
5386:-1.2016571818132135e-01
5387:-1.0812402697272612e-01
5388:-1.5667736544428873e-01
5389:-1.4359173421879323e-01
5390:-1.2729292039365264e-01
5391:-1.1538343770961232e-01
5392:-8.3039383845328607e-02
5393:-7.1772527758546020e-02
5394:-5.7989007748008886e-02
5395:-4.8108000106487907e-02
5396:-9.1589672439011879e-02
5397:-8.0327678710811978e-02
5398:-6.6504785823542772e-02
5399:-5.6560817405856771e-02
5400:-1.0192745273717643e-01
5401:-9.0719877364613052e-02
5402:-7.6908239481866980e-02
5403:-6.6929608066676888e-02
5404:-1.0924106589716971e-01
5405:-9.8110333151255433e-02
5406:-8.4352894119433239e-02
5407:-7.4382081407422584e-02
5408:-4.3078144447287317e-02
5409:-3.4062562298184766e-02
5410:-2.3107534006515384e-02
5411:-1.5312573423246446e-02
5412:-5.1486714758767191e-02
5413:-4.2373195051922767e-02
5414:-3.1263261589244230e-02
5415:-2.3329874866441877e-02
5416:-6.1822723270464827e-02
5417:-5.2626778815838000e-02
5418:-4.1371124643005575e-02
5419:-3.3298411929702496e-02
5420:-6.9268084543578218e-02
5421:-6.0041838637020561e-02
5422:-4.8715669869957748e-02
5423:-4.0566566604580759e-02
5424:-1.1365478394462915e-02
5425:-4.3218825085282941e-03
5426:4.1760594957694786e-03
5427:1.0173959530409551e-02
5428:-1.9302561997701018e-02
5429:-1.2100435883927433e-02
5430:-3.3816963756541749e-03
5431:2.7952473885348053e-03
5432:-2.9187806348461635e-02
5433:-2.1817713699928368e-02
5434:-1.2859113088453781e-02
5435:-6.4835424414084932e-03
5436:-3.6407941855860382e-02
5437:-2.8937889550533911e-02
5438:-1.9831109800273510e-02
5439:-1.3329138823985457e-02
5440:1.3193174389654481e-02
5441:1.8550709878657191e-02
5442:2.4953805997205456e-02
5443:2.9423699878267911e-02
5444:5.9129420794722934e-03
5445:1.1458139703179306e-02
5446:1.8110768649904310e-02
5447:2.2775152956573019e-02
5448:-3.2552647063297771e-03
5449:2.5027313286145837e-03
5450:9.4420583684134696e-03
5451:1.4332530794700534e-02
5452:-1.0029323884696338e-02
5453:-4.1319401485597545e-03
5454:2.9982424819230136e-03
5455:8.0413370795727242e-03
5456:3.1655180958020668e-02
5457:3.5581678446441965e-02
5458:4.0206738852960833e-02
5459:4.3379310714297729e-02
5460:2.5111213308176710e-02
5461:2.9233685512832140e-02
5462:3.4113319630008791e-02
5463:3.7479971293231829e-02
5464:1.6791007385612892e-02
5465:2.1144121542904404e-02
5466:2.6325678836471095e-02
5467:2.9924231681567579e-02
5468:1.0583123843309035e-02
5469:1.5094225596474284e-02
5470:2.0484508705086276e-02
5471:2.4244789880041421e-02
5472:4.4941609919443716e-02
5473:4.7649585682737548e-02
5474:5.0754353104868456e-02
5475:5.2812498900380665e-02
5476:3.9145208139702417e-02
5477:4.2044199838922831e-02
5478:4.5393765626357975e-02
5479:4.7636176270003737e-02
5480:3.1713055663435574e-02
5481:3.4842341324814022e-02
5482:3.8488837388654010e-02
5483:4.0956076697149617e-02
5484:2.6120281265175769e-02
5485:2.9411820498425185e-02
5486:3.3268919399360178e-02
5487:3.5896644788594285e-02
5488:5.3797967107133630e-02
5489:5.5450923020039816e-02
5490:5.7229808824736862e-02
5491:5.8308373786780693e-02
5492:4.8718620118523223e-02
5493:5.0550605148494743e-02
5494:5.2557287687566095e-02
5495:5.3806133498698852e-02
5496:4.2157292334495049e-02
5497:4.4209264813311611e-02
5498:4.6497232281885223e-02
5499:4.7957382885234469e-02
5500:3.7182985467662126e-02
5501:3.9393190394243216e-02
5502:4.1884556602481346e-02
5503:4.3498313830290278e-02
5504:5.8783937297366931e-02
5505:5.9498085271207167e-02
5506:6.0084657369044163e-02
5507:6.0272527982038034e-02
5508:5.4370936082827649e-02
5509:5.5249566093511664e-02
5510:5.6045084188887581e-02
5511:5.6388968464608634e-02
5512:4.8633287595338151e-02
5513:4.9717321919832129e-02
5514:5.0774968944848280e-02
5515:5.1315483278191437e-02
5516:4.4255264806616568e-02
5517:4.5489613532527354e-02
5518:4.6739994921788201e-02
5519:4.7425767520253237e-02
5520:6.0280888381814071e-02
5521:6.0127876011581795e-02
5522:5.9599320421915576e-02
5523:5.8943453354713127e-02
5524:5.6479075626107343e-02
5525:5.6477116743025878e-02
5526:5.6141363344474816e-02
5527:5.5630244297254813e-02
5528:5.1508935220147732e-02
5529:5.1698490630192044e-02
5530:5.1608248255734221e-02
5531:5.1282259303208191e-02
5532:4.7695801164448992e-02
5533:4.8027689396799716e-02
5534:4.8120708985924965e-02
5535:4.7933515142806880e-02
5536:5.8505404147751898e-02
5537:5.7516591149293542e-02
5538:5.5899102017916633e-02
5539:5.4408534387591488e-02
5540:5.5268368809732266e-02
5541:5.4421376984161371e-02
5542:5.2987191954162037e-02
5543:5.1636101395958409e-02
5544:5.1018092840238415e-02
5545:5.0353520818304492e-02
5546:4.9156081349929298e-02
5547:4.7985858090687401e-02
5548:4.7742813504195653e-02
5549:4.7215767580357657e-02
5550:4.6197516839095905e-02
5551:4.5164716737068372e-02
5552:5.3525062611535557e-02
5553:5.1695401305249758e-02
5554:4.8969104137870950e-02
5555:4.6618605290080627e-02
5556:5.0826747103692976e-02
5557:4.9136911853186860e-02
5558:4.6595134283859078e-02
5559:4.4388039445091947e-02
5560:4.7272866281076444e-02
5561:4.5765251284469073e-02
5562:4.3464744165847106e-02
5563:4.1445748221344440e-02
5564:4.4525122231963907e-02
5565:4.3156607097886560e-02
5566:4.1040851791398145e-02
5567:3.9166311225759871e-02
5568:4.5272797614055657e-02
5569:4.2564473142480401e-02
5570:3.8668366767556049e-02
5571:3.5402410299924733e-02
5572:4.3119550713258500e-02
5573:4.0559648522863929e-02
5574:3.6864557655018990e-02
5575:3.3758790208682998e-02
5576:4.0278872938995243e-02
5577:3.7914329135146793e-02
5578:3.4484359639748649e-02
5579:3.1590239845465863e-02
5580:3.8077611677389787e-02
5581:3.5863573500369991e-02
5582:3.2638226455140001e-02
5583:2.9907714176027705e-02
5584:3.3561621259656053e-02
5585:2.9907784007419651e-02
5586:2.4743867804789713e-02
5587:2.0479233356225555e-02
5588:3.2005797065489484e-02
5589:2.8523603156702243e-02
5590:2.3598269095573603e-02
5591:1.9528326832216347e-02
5592:2.9953360355987810e-02
5593:2.6698278117825096e-02
5594:2.2088774150223308e-02
5595:1.8276636717436560e-02
5596:2.8360670920165455e-02
5597:2.5281368981832204e-02
5598:2.0916398472615137e-02
5599:1.7303909621902744e-02
5600:1.8096362355290489e-02
5601:1.3404898015664203e-02
5602:6.8462192260374082e-03
5603:1.4806601198108071e-03
5604:1.7253737660154141e-02
5605:1.2776962146624715e-02
5606:6.5223830134587910e-03
5607:1.4090846661252048e-03
5608:1.6145439381158287e-02
5609:1.1952838592309858e-02
5610:6.1004784282372385e-03
5611:1.3205785166465656e-03
5612:1.5283759689718282e-02
5613:1.1311132219843955e-02
5614:5.7698834950591429e-03
5615:1.2476686089107911e-03
5616:-1.1235428028406998e-02
5617:-5.3614551463248575e-02
5618:-1.0793965787087974e-01
5619:-1.4868518703320147e-01
5620:-1.0642420406687681e-02
5621:-5.0789251286823739e-02
5622:-1.0224888427095223e-01
5623:-1.4085635851978998e-01
5624:-9.9316336848585818e-03
5625:-4.7341185218176735e-02
5626:-9.5331386868147697e-02
5627:-1.3137744856884800e-01
5628:-9.4235595978458247e-03
5629:-4.4871327266261071e-02
5630:-9.0396691653087793e-02
5631:-1.2463409531415320e-01
5632:-1.7001094014634960e-01
5633:-2.0876765037204861e-01
5634:-2.5663953148220492e-01
5635:-2.9115435860598915e-01
5636:-1.6107233221532866e-01
5637:-1.9785190737818104e-01
5638:-2.4337548543521800e-01
5639:-2.7628219815655175e-01
5640:-1.5027085693802103e-01
5641:-1.8468957172332018e-01
5642:-2.2739174257448508e-01
5643:-2.5834757741178499e-01
5644:-1.4259575801801730e-01
5645:-1.7535058890083532e-01
5646:-2.1605844957781545e-01
5647:-2.4562685543151863e-01
5648:-3.0872228274006142e-01
5649:-3.3974100895109738e-01
5650:-3.7627366526167833e-01
5651:-4.0121751242841813e-01
5652:-2.9306687794496605e-01
5653:-3.2278198923574231e-01
5654:-3.5793967446616443e-01
5655:-3.8207459825860213e-01
5656:-2.7417365945797567e-01
5657:-3.0228183631794553e-01
5658:-3.3572496940988339e-01
5659:-3.5883672845727910e-01
5660:-2.6076680548928660e-01
5661:-2.8771577733599774e-01
5662:-3.1990590710736494e-01
5663:-3.4225813294096868e-01
5664:-4.1340820484659779e-01
5665:-4.3408140354125369e-01
5666:-4.5672302405825804e-01
5667:-4.7077194297955721e-01
5668:-3.9391960597093290e-01
5669:-4.1410401463513663e-01
5670:-4.3642157922459840e-01
5671:-4.5046245027601628e-01
5672:-3.7023908353988505e-01
5673:-3.8978502392117931e-01
5674:-4.1164371016826329e-01
5675:-4.2561696356308704e-01
5676:-3.5332756815010924e-01
5677:-3.7238431325176397e-01
5678:-3.9386641872495476e-01
5679:-4.0774760442011437e-01
5680:-4.7709559345400926e-01
5681:-4.8686319327746586e-01
5682:-4.9557583241522929e-01
5683:-4.9922892260889457e-01
5684:-4.5686589330265076e-01
5685:-4.6691990298164576e-01
5686:-4.7626017024704542e-01
5687:-4.8057965953070908e-01
5688:-4.3208304464003661e-01
5689:-4.4241526076098381e-01
5690:-4.5241797806709771e-01
5691:-4.5746455934782421e-01
5692:-4.1423232678546851e-01
5693:-4.2471072240188107e-01
5694:-4.3511252286923380e-01
5695:-4.4061836996237025e-01
5696:-5.0013417420297290e-01
5697:-5.0010806196065383e-01
5698:-4.9682636503654426e-01
5699:-4.9190823170422487e-01
5700:-4.8190144329931084e-01
5701:-4.8274070297263494e-01
5702:-4.8073389761927204e-01
5703:-4.7689297976402140e-01
5704:-4.5924694644887770e-01
5705:-4.6105506441575111e-01
5706:-4.6049882463246827e-01
5707:-4.5790101053413673e-01
5708:-4.4269695838315026e-01
5709:-4.4513656425027831e-01
5710:-4.4554217807695051e-01
5711:-4.4378119853145187e-01
5712:-4.8847640141800142e-01
5713:-4.8081632245793821e-01
5714:-4.6857051961772406e-01
5715:-4.5753813826994133e-01
5716:-4.7406559246239643e-01
5717:-4.6756540207571845e-01
5718:-4.5687417784584033e-01
5719:-4.4706197974535872e-01
5720:-4.5577726208528774e-01
5721:-4.5063730205559516e-01
5722:-4.4178563607920007e-01
5723:-4.3342727536351067e-01
5724:-4.4213560323017886e-01
5725:-4.3792781540162551e-01
5726:-4.3034959675158457e-01
5727:-4.2300519577595747e-01
5728:-4.5111393209522938e-01
5729:-4.3833449207464120e-01
5730:-4.2036902670316156e-01
5731:-4.0567644668186315e-01
5732:-4.4129607289451384e-01
5733:-4.2974324990818674e-01
5734:-4.1335034550824057e-01
5735:-3.9983603338490442e-01
5736:-4.2844843887242701e-01
5737:-4.1836609404723529e-01
5738:-4.0386738280475304e-01
5739:-3.9178066398057143e-01
5740:-4.1857729463714849e-01
5741:-4.0952755292660126e-01
5742:-3.9636664710705083e-01
5743:-3.8529525285489730e-01
5744:-3.9755238521125263e-01
5745:-3.8200635804762895e-01
5746:-3.6122698379492407e-01
5747:-3.4496375321923400e-01
5748:-3.9232778931957940e-01
5749:-3.7789920758188311e-01
5750:-3.5850116172904639e-01
5751:-3.4323897855514290e-01
5752:-3.8502202803805252e-01
5753:-3.7196125232410066e-01
5754:-3.5426771427833209e-01
5755:-3.4025011185661630e-01
5756:-3.7907262890515631e-01
5757:-3.6699525772686681e-01
5758:-3.5053641363237276e-01
5759:-3.3742631972192211e-01
5760:-3.3620053318938026e-01
5761:-3.1976845882875482e-01
5762:-2.9841700371990204e-01
5763:-2.8214420968246706e-01
5764:-3.3498869086425964e-01
5765:-3.1947344016081219e-01
5766:-2.9922669783780714e-01
5767:-2.8373017986179855e-01
5768:-3.3264039019575237e-01
5769:-3.1827334329735257e-01
5770:-2.9941714407654396e-01
5771:-2.8490429406969620e-01
5772:-3.3028544278151983e-01
5773:-3.1676148898688722e-01
5774:-2.9893237353378865e-01
5775:-2.8515163415952421e-01
5776:-2.7351910850109684e-01
5777:-2.5755004791697061e-01
5778:-2.3717207375080557e-01
5779:-2.2191161112504632e-01
5780:-2.7549360170557069e-01
5781:-2.6020506724775705e-01
5782:-2.4062256098951618e-01
5783:-2.2590381638045876e-01
5784:-2.7716279106223574e-01
5785:-2.6274706032195716e-01
5786:-2.4419532913565517e-01
5787:-2.3018630288594014e-01
5788:-2.7778087024392312e-01
5789:-2.6402268130783685e-01
5790:-2.4625456561146664e-01
5791:-2.3279008130694659e-01
5792:-2.1391288960444771e-01
5793:-1.9923379754927495e-01
5794:-1.8074329764808764e-01
5795:-1.6707573695568700e-01
5796:-2.1817062081973257e-01
5797:-2.0394851111797879e-01
5798:-1.8597523751847828e-01
5799:-1.7264509488189997e-01
5800:-2.2280358409216755e-01
5801:-2.0918802515841892e-01
5802:-1.9190833130556939e-01
5803:-1.7903708216678954e-01
5804:-2.2567791108208271e-01
5805:-2.1253311456829793e-01
5806:-1.9579718389055117e-01
5807:-1.8329062071772373e-01
5808:-1.5997253757956004e-01
5809:-1.4702104804240762e-01
5810:-1.3086217032459213e-01
5811:-1.1903449075994300e-01
5812:-1.6570143141943158e-01
5813:-1.5301523195130415e-01
5814:-1.3713894750269817e-01
5815:-1.2548158450760399e-01
5816:-1.7231308744046761e-01
5817:-1.5999721069688058e-01
5818:-1.4452550048769214e-01
5819:-1.3312051511976372e-01
5820:-1.7674321431015561e-01
5821:-1.6472842220809306e-01
5822:-1.4959222501934394e-01
5823:-1.3840191943817523e-01
5824:-1.1292724538209484e-01
5825:-1.0184919874503155e-01
5826:-8.8135815239320778e-02
5827:-7.8180584168154849e-02
5828:-1.1944961902289035e-01
5829:-1.0848806026094804e-01
5830:-9.4880332143942009e-02
5831:-8.4971981969545557e-02
5832:-1.2720354702650358e-01
5833:-1.1642570703392438e-01
5834:-1.0299764557168381e-01
5835:-9.3182933991176345e-02
5836:-1.3258486686816728e-01
5837:-1.2197027064587736e-01
5838:-1.0870984193375205e-01
5839:-9.8990424756991199e-02
5840:-7.3068770774201430e-02
5841:-6.3837336280519963e-02
5842:-5.2487441349377620e-02
5843:-4.4307947948165588e-02
5844:-7.9873683572398602e-02
5845:-7.0650171490975994e-02
5846:-5.9278664027737800e-02
5847:-5.1059514705129136e-02
5848:-8.8119741982458422e-02
5849:-7.8939410296928650e-02
5850:-6.7582386595050878e-02
5851:-5.9343872215941541e-02
5852:-9.3966890242073262e-02
5853:-8.4843619104224346e-02
5854:-7.3528793605924431e-02
5855:-6.5298980810027121e-02
5856:-4.0129133332100900e-02
5857:-3.2615636479049012e-02
5858:-2.3442062036179306e-02
5859:-1.6881548911418957e-02
5860:-4.6851963427152338e-02
5861:-3.9273637317444161e-02
5862:-2.9995554946325539e-02
5863:-2.3340459542606641e-02
5864:-5.5115875691874115e-02
5865:-4.7484147417577539e-02
5866:-3.8108811157874317e-02
5867:-3.1359142948310312e-02
5868:-6.1067698908160682e-02
5869:-5.3417757924618059e-02
5870:-4.3996519591001655e-02
5871:-3.7195606779556287e-02
5872:-1.3548124438025649e-02
5873:-7.5845798156947940e-03
5874:-3.6263163243959595e-04
5875:4.7546438775987404e-03
5876:-1.9951868514420993e-02
5877:-1.3878554519659051e-02
5878:-6.5022873643957209e-03
5879:-1.2588290480186667e-03
5880:-2.7913553863793832e-02
5881:-2.1724326886822035e-02
5882:-1.4180718388658756e-02
5883:-8.7974141263940306e-03
5884:-3.3717409452375120e-02
5885:-2.7459545325535208e-02
5886:-1.9812842235516367e-02
5887:-1.4340700933693469e-02
5888:7.3371740422727922e-03
5889:1.1925935178547238e-02
5890:1.7419551824707637e-02
5891:2.1260434880956393e-02
5892:1.3934683208047670e-03
5893:6.1159443744276112e-03
5894:1.1788827678626664e-02
5895:1.5770503305236223e-02
5896:-6.0668332892235988e-03
5897:-1.1928289005859254e-03
5898:4.6859061870149800e-03
5899:8.8311638349409440e-03
5900:-1.1559554850755275e-02
5901:-6.5864218761215428e-03
5902:-5.7078250904189147e-04
5903:3.6848232599111432e-03
5904:2.3179298471283773e-02
5905:2.6552312817622967e-02
5906:3.0515673015139206e-02
5907:3.3224740982689717e-02
5908:1.7765442892937466e-02
5909:2.1281842424083052e-02
5910:2.5433095868126407e-02
5911:2.8286653316759263e-02
5912:1.0915113665005303e-02
5913:1.4600228583700312e-02
5914:1.8974347586183944e-02
5915:2.2000603862940525e-02
5916:5.8293161694452852e-03
5917:9.6299695068531067e-03
5918:1.4158165625996158e-02
5919:1.7304883469456876e-02
5920:3.4554350652636422e-02
5921:3.6845191410785183e-02
5922:3.9440602823686492e-02
5923:4.1133228720785377e-02
5924:2.9693346932636793e-02
5925:3.2128220826225400e-02
5926:3.4910199611446514e-02
5927:3.6744784080480708e-02
5928:2.3499879010308328e-02
5929:2.6108490832468415e-02
5930:2.9116922001029114e-02
5931:3.1124855883814282e-02
5932:1.8869096392908350e-02
5933:2.1600159493368343e-02
5934:2.4769297641257394e-02
5935:2.6901061751560425e-02
5936:4.1931893741499526e-02
5937:4.3243777832517073e-02
5938:4.4593897125643253e-02
5939:4.5355079554576162e-02
5940:3.7618715409600781e-02
5941:3.9070806384660393e-02
5942:4.0601868509199029e-02
5943:4.1500302049272283e-02
5944:3.2091052419855146e-02
5945:3.3715614749548081e-02
5946:3.5470404065637770e-02
5947:3.6539405802682140e-02
5948:2.7933440888265763e-02
5949:2.9682184292915099e-02
5950:3.1598948477702969e-02
5951:3.2792104796063766e-02
5952:4.5664953057433781e-02
5953:4.6071032541064864e-02
5954:4.6259858087180077e-02
5955:4.6145434823829920e-02
5956:4.1882841691022910e-02
5957:4.2424516940941334e-02
5958:4.2788969413819773e-02
5959:4.2808342279775119e-02
5960:3.7012551285477813e-02
5961:3.7723825860359370e-02
5962:3.8308958663400082e-02
5963:3.8497208156039547e-02
5964:3.3331431166856378e-02
5965:3.4166985249140934e-02
5966:3.4914590537651190e-02
5967:3.5227740244392021e-02
5968:4.5993324129163314e-02
5969:4.5538647509605484e-02
5970:4.4614932024470630e-02
5971:4.3654812904916650e-02
5972:4.2727322395082437e-02
5973:4.2406201722025159e-02
5974:4.1657407163949244e-02
5975:4.0832113025046544e-02
5976:3.8506180336073344e-02
5977:3.8354581201509086e-02
5978:3.7828682736615597e-02
5979:3.7175838675434170e-02
5980:3.5303464838052440e-02
5981:3.5277948583316052e-02
5982:3.4918474558941405e-02
5983:3.4394865976482440e-02
5984:4.3054098608474520e-02
5985:4.1759371239479405e-02
5986:3.9741814128009922e-02
5987:3.7944194345379698e-02
5988:4.0303639373310024e-02
5989:3.9146210441415745e-02
5990:3.7311743890668152e-02
5991:3.5657811842380316e-02
5992:3.6739986311906114e-02
5993:3.5758961980464826e-02
5994:3.4160427371402097e-02
5995:3.2692152853752356e-02
5996:3.4028586361313035e-02
5997:3.3180336844538555e-02
5998:3.1759879330367356e-02
5999:3.0432094040528965e-02
6000:3.6897168901852115e-02
6001:3.4763430721242203e-02
6002:3.1647377970107124e-02
6003:2.9004336353776482e-02
6004:3.4688722144598581e-02
6005:3.2705287202214231e-02
6006:2.9794043200119909e-02
6007:2.7315075624239411e-02
6008:3.1823927615285477e-02
6009:3.0035257272894397e-02
6010:2.7389834974232533e-02
6011:2.5124112340291743e-02
6012:2.9640311278950844e-02
6013:2.7999416452619622e-02
6014:2.5555980207412940e-02
6015:2.3452495195989503e-02
6016:2.7505348228343461e-02
6017:2.4520093930072009e-02
6018:2.0285980093432930e-02
6019:1.6780339335363447e-02
6020:2.5906276214745033e-02
6021:2.3097569338786900e-02
6022:1.9109153880640200e-02
6023:1.5804155903762784e-02
6024:2.3832618269412749e-02
6025:2.1253608822987251e-02
6026:1.7584941910527122e-02
6027:1.4541089951633512e-02
6028:2.2250307881589004e-02
6029:1.9846210999285446e-02
6030:1.6421070784948602e-02
6031:1.3576123591824765e-02
6032:1.4819619489087395e-02
6033:1.0964679908012901e-02
6034:5.5897937790061920e-03
6035:1.2053036112330854e-03
6036:1.3955035920847981e-02
6037:1.0321030225401619e-02
6038:5.2583019066918838e-03
6039:1.1321079075519392e-03
6040:1.2837218944172876e-02
6041:9.4906328518011701e-03
6042:4.8336989787763195e-03
6043:1.0430339713310454e-03
6044:1.1982876490701762e-02
6045:8.8550900984987989e-03
6046:4.5068333944646337e-03
6047:9.7120582421947842e-04
6048:-9.1628453222150075e-03
6049:-4.3615301212498091e-02
6050:-8.7892976150505994e-02
6051:-1.2121506917472728e-01
6052:-8.6983886810514319e-03
6053:-4.1396817779637177e-02
6054:-8.3461189997579940e-02
6055:-1.1514878361109382e-01
6056:-8.1416418916440293e-03
6057:-3.8758617649150097e-02
6058:-7.8171251728163832e-02
6059:-1.0788308859187389e-01
6060:-7.7516422653662953e-03
6061:-3.6913205981287486e-02
6062:-7.4458721796287208e-02
6063:-1.0277132990288494e-01
6064:-1.3870479028257832e-01
6065:-1.7061742395083504e-01
6066:-2.1031611163859978e-01
6067:-2.3918144205355202e-01
6068:-1.3179228765410078e-01
6069:-1.6219403799535720e-01
6070:-2.0008225722546299e-01
6071:-2.2768659366820490e-01
6072:-1.2349837658771731e-01
6073:-1.5206098683877378e-01
6074:-1.8774128409812524e-01
6075:-2.1380567496556124e-01
6076:-1.1765611118624771e-01
6077:-1.4490825950595523e-01
6078:-1.7900860904899898e-01
6079:-2.0396650598907431e-01
6080:-2.5397285784569318e-01
6081:-2.8032982056532474e-01
6082:-3.1187405528969114e-01
6083:-3.3383033368921550e-01
6084:-2.4185294226458845e-01
6085:-2.6714483033991737e-01
6086:-2.9751876999785160e-01
6087:-3.1874977268902172e-01
6088:-2.2720800372465280e-01
6089:-2.5119247678978390e-01
6090:-2.8011575834848523e-01
6091:-3.0043384060471162e-01
6092:-2.1681836315432199e-01
6093:-2.3985701365755435e-01
6094:-2.6772145619259430e-01
6095:-2.8736385040724738e-01
6096:-3.4472459177051629e-01
6097:-3.6352084501109749e-01
6098:-3.8479415110723331e-01
6099:-3.9861303781091911e-01
6100:-3.2931963170273626e-01
6101:-3.4762664632551193e-01
6102:-3.6849186842721071e-01
6103:-3.8217007312337181e-01
6104:-3.1058901752643847e-01
6105:-3.2825789138924938e-01
6106:-3.4856200499125950e-01
6107:-3.6201435923386477e-01
6108:-2.9720782338063129e-01
6109:-3.1438887826348288e-01
6110:-3.3424433977602369e-01
6111:-3.4749521363465602e-01
6112:-4.0509804845252656e-01
6113:-4.1563261148395686e-01
6114:-4.2621241508365576e-01
6115:-4.3193209374211489e-01
6116:-3.8863929585991397e-01
6117:-3.9924430082437895e-01
6118:-4.1010503896950273e-01
6119:-4.1618001364391050e-01
6120:-3.6843397451085025e-01
6121:-3.7906823311856880e-01
6122:-3.9019923283119862e-01
6123:-3.9665364820106408e-01
6124:-3.5385718313697995e-01
6125:-3.6447054930060352e-01
6126:-3.7574045054924571e-01
6127:-3.8242501881798846e-01
6128:-4.3415069322519567e-01
6129:-4.3689156745163804e-01
6130:-4.3776134710387132e-01
6131:-4.3640826580613312e-01
6132:-4.1863514679510982e-01
6133:-4.2188952298376947e-01
6134:-4.2355759589728975e-01
6135:-4.2291035213422357e-01
6136:-3.9936923695480758e-01
6137:-4.0319874620668222e-01
6138:-4.0577591083479486e-01
6139:-4.0594115005604775e-01
6140:-3.8530523664083666e-01
6141:-3.8950699619436308e-01
6142:-3.9268603290524551e-01
6143:-3.9339690469961824e-01
6144:-4.3499719896948119e-01
6145:-4.3124937937776747e-01
6146:-4.2430401896064518e-01
6147:-4.1746614540669202e-01
6148:-4.2190639563313848e-01
6149:-4.1895978860733890e-01
6150:-4.1312225170739431e-01
6151:-4.0717516827511746e-01
6152:-4.0540824105561524e-01
6153:-4.0339348972729927e-01
6154:-3.9885423499156403e-01
6155:-3.9395884280798577e-01
6156:-3.9318245364814758e-01
6157:-3.9180134103017522e-01
6158:-3.8815230751804891e-01
6159:-3.8398397523417804e-01
6160:-4.1331417015647548e-01
6161:-4.0478289078941077e-01
6162:-3.9229666825921228e-01
6163:-3.8173999896211963e-01
6164:-4.0350990013840132e-01
6165:-3.9589603480329877e-01
6166:-3.8460904056253631e-01
6167:-3.7497110405751138e-01
6168:-3.9087103764942088e-01
6169:-3.8435113459512660e-01
6170:-3.7450397405225300e-01
6171:-3.6597576274060006e-01
6172:-3.8129755977144925e-01
6173:-3.7554206174702237e-01
6174:-3.6670799670109150e-01
6175:-3.5896524129141982e-01
6176:-3.7579016317491992e-01
6177:-3.6421493998081117e-01
6178:-3.4838932816013535e-01
6179:-3.3574639771432702e-01
6180:-3.6950939781869124e-01
6181:-3.5883429147039569e-01
6182:-3.4414688750465250e-01
6183:-3.3234625494483178e-01
6184:-3.6110572118156470e-01
6185:-3.5152455062557042e-01
6186:-3.3822654961153492e-01
6187:-3.2745940104052806e-01
6188:-3.5451538965615331e-01
6189:-3.4571348427259757e-01
6190:-3.3341032394009706e-01
6191:-3.2338757272838747e-01
6192:-3.2884737757966176e-01
6193:-3.1575938928751468e-01
6194:-2.9846374760028005e-01
6195:-2.8506538161946260e-01
6196:-3.2588431798096584e-01
6197:-3.1358653316941271e-01
6198:-2.9726230079045157e-01
6199:-2.8456351099698934e-01
6200:-3.2153586379756482e-01
6201:-3.1021581145512550e-01
6202:-2.9510156599819498e-01
6203:-2.8327987737336363e-01
6204:-3.1785355148023220e-01
6205:-3.0724397158726069e-01
6206:-2.9301451650071142e-01
6207:-2.8183801273626052e-01
6208:-2.7788908290185366e-01
6209:-2.6447702520827215e-01
6210:-2.4712353356603703e-01
6211:-2.3394864660134071e-01
6212:-2.7774410240677544e-01
6213:-2.6496858590769329e-01
6214:-2.4838018611842208e-01
6215:-2.3574189147854024e-01
6216:-2.7690976537909223e-01
6217:-2.6493802787853565e-01
6218:-2.4932076515881216e-01
6219:-2.3736798053414512e-01
6220:-2.7579960647036827e-01
6221:-2.6442319869367892e-01
6222:-2.4952929539623045e-01
6223:-2.3809066481141380e-01
6224:-2.2698083903410513e-01
6225:-2.1408814048389332e-01
6226:-1.9764535333275426e-01
6227:-1.8533711681735512e-01
6228:-2.2904244976745333e-01
6229:-2.1662021114585950e-01
6230:-2.0072803753075122e-01
6231:-1.8879509397762864e-01
6232:-2.3101315140655407e-01
6233:-2.1919841200050358e-01
6234:-2.0402364383916446e-01
6235:-1.9258452619843069e-01
6236:-2.3199570338429676e-01
6237:-2.2064145990902298e-01
6238:-2.0601490569904252e-01
6239:-1.9495640646089615e-01
6240:-1.7888643078606051e-01
6241:-1.6703758565368132e-01
6242:-1.5208827870396072e-01
6243:-1.4101913150241288e-01
6244:-1.8252842191064267e-01
6245:-1.7099662830256351e-01
6246:-1.5640707772785345e-01
6247:-1.4557350580936526e-01
6248:-1.8656167756149408e-01
6249:-1.7545240918572849e-01
6250:-1.6134729547083632e-01
6251:-1.5083533932361978e-01
6252:-1.8912260380971607e-01
6253:-1.7834272392141678e-01
6254:-1.6461899364859653e-01
6255:-1.5436348796399937e-01
6256:-1.3525906942070362e-01
6257:-1.2473867702703068e-01
6258:-1.1157735566457611e-01
6259:-1.0191651441874298e-01
6260:-1.3992521474973707e-01
6261:-1.2959139639665976e-01
6262:-1.1663012269578522e-01
6263:-1.0709083255360693e-01
6264:-1.4534143432947952e-01
6265:-1.3526856337515805e-01
6266:-1.2259363313238865e-01
6267:-1.1323394515140797e-01
6268:-1.4899398886830689e-01
6269:-1.3913358762738162e-01
6270:-1.2669614624391096e-01
6271:-1.1748903673643017e-01
6272:-9.6918369477519389e-02
6273:-8.7833507732004629e-02
6274:-7.6551547871651277e-02
6275:-6.8334227688847907e-02
6276:-1.0214677099449326e-01
6277:-9.3146157292280304e-02
6278:-8.1941854111099902e-02
6279:-7.3760303396669905e-02
6280:-1.0837208850406357e-01
6281:-9.9503498517509253e-02
6282:-8.8429772825240699e-02
6283:-8.0317650710749366e-02
6284:-1.1269844662077785e-01
6285:-1.0394681448574686e-01
6286:-9.2994225414918349e-02
6287:-8.4951835756106389e-02
6288:-6.4105328746261833e-02
6289:-5.6453295125677760e-02
6290:-4.7017256135352278e-02
6291:-4.0196247344938305e-02
6292:-6.9542468107668634e-02
6293:-6.1898850338603227e-02
6294:-5.2451025810883428e-02
6295:-4.5604426626212988e-02
6296:-7.6126491790484058e-02
6297:-6.8516829862809298e-02
6298:-5.9083459766383052e-02
6299:-5.2226120186212512e-02
6300:-8.0790052717434321e-02
6301:-7.3223187936838935e-02
6302:-6.3822676687468188e-02
6303:-5.6973639968068618e-02
6304:-3.6704449529175787e-02
6305:-3.0416901647972235e-02
6306:-2.2723851699001860e-02
6307:-1.7210640683403305e-02
6308:-4.2093497199056272e-02
6309:-3.5761961357475620e-02
6310:-2.7996663802676014e-02
6311:-2.2417249430632526e-02
6312:-4.8702177954044905e-02
6313:-4.2335202699069686e-02
6314:-3.4503344053288351e-02
6315:-2.8858088139159847e-02
6316:-5.3448448172100836e-02
6317:-4.7070375908562889e-02
6318:-3.9207857517251504e-02
6319:-3.3527293754460903e-02
6320:-1.4405776662830374e-02
6321:-9.3856525323241877e-03
6322:-3.3042449677588600e-03
6323:1.0049663576568704e-03
6324:-1.9573521074603747e-02
6325:-1.4475509171306449e-02
6326:-8.2835236733664087e-03
6327:-3.8831029167626699e-03
6328:-2.5974352105166101e-02
6329:-2.0794264578974517e-02
6330:-1.4482434727476535e-02
6331:-9.9808979199679116e-03
6332:-3.0620813517725047e-02
6333:-2.5392299756164048e-02
6334:-1.9006731786624133e-02
6335:-1.4440973980761072e-02
6336:3.1790587319550311e-03
6337:7.0364980516004422e-03
6338:1.1640976542960767e-02
6339:1.4847736348199757e-02
6340:-1.6583012031653245e-03
6341:2.2969749327415301e-03
6342:7.0338947163008370e-03
6343:1.0345625062847252e-02
6344:-7.6991620866398835e-03
6345:-3.6329152609664650e-03
6346:1.2562725190587165e-03
6347:4.6901389599093412e-03
6348:-1.2122457403817012e-02
6349:-7.9835721353456665e-03
6350:-2.9930077745467911e-03
6351:5.2336501249058054e-04
6352:1.6444450619538704e-02
6353:1.9237016637609714e-02
6354:2.2487273680767177e-02
6355:2.4681835237207086e-02
6356:1.1999400085861383e-02
6357:1.4900323791772757e-02
6358:1.8294212457972202e-02
6359:2.0600492237102530e-02
6360:6.4107800780322998e-03
6361:9.4394422352978360e-03
6362:1.3004077708985623e-02
6363:1.5444214757506637e-02
6364:2.2895605504802828e-03
6365:5.4058691104606864e-03
6366:9.0888188973000383e-03
6367:1.1622552793498841e-02
6368:2.5747875784913329e-02
6369:2.7559948432499117e-02
6370:2.9559637238507561e-02
6371:3.0816594991449953e-02
6372:2.1726596956646513e-02
6373:2.3651981817552147e-02
6374:2.5800632788824291e-02
6375:2.7172637910733859e-02
6376:1.6642642425748054e-02
6377:1.8705074114647825e-02
6378:2.1035039863658126e-02
6379:2.2547929318854187e-02
6380:1.2871834608175311e-02
6381:1.5031109950881909e-02
6382:1.7490100766292548e-02
6383:1.9103904014300215e-02
6384:3.1390012934019051e-02
6385:3.2289727964898339e-02
6386:3.3121479786388491e-02
6387:3.3499515485340747e-02
6388:2.7807679714969617e-02
6389:2.8823629215658210e-02
6390:2.9808312385552989e-02
6391:3.0304640730417227e-02
6392:2.3258723904610833e-02
6393:2.4418056827242577e-02
6394:2.5592342450556728e-02
6395:2.6236035865948013e-02
6396:1.9869182482247772e-02
6397:2.1132026347154123e-02
6398:2.2443919809691244e-02
6399:2.3195106541964761e-02
6400:3.3609985994250420e-02
6401:3.3650216103285231e-02
6402:3.3377747909671858e-02
6403:3.2921867381458261e-02
6404:3.0478581829855276e-02
6405:3.0639130711050584e-02
6406:3.0526302824001584e-02
6407:3.0194997245940026e-02
6408:2.6489288765777178e-02
6409:2.6800605147894563e-02
6410:2.6888608919250993e-02
6411:2.6714602449782521e-02
6412:2.3506396070350290e-02
6413:2.3928351353675315e-02
6414:2.4164323942034358e-02
6415:2.4106643482208812e-02
6416:3.2592104049518678e-02
6417:3.1813634245117732e-02
6418:3.0486933223835583e-02
6419:2.9233235341433659e-02
6420:2.9932502997957734e-02
6421:2.9282748608793600e-02
6422:2.8129304339522633e-02
6423:2.7012740992089734e-02
6424:2.6537243114068396e-02
6425:2.6050707839427596e-02
6426:2.5117551990214464e-02
6427:2.4175770082345525e-02
6428:2.3992387317824462e-02
6429:2.3627065053446424e-02
6430:2.2857932308828877e-02
6431:2.2046594927995301e-02
6432:2.8481804032112267e-02
6433:2.6918970452922377e-02
6434:2.4582328808058444e-02
6435:2.2564688441692102e-02
6436:2.6336072874137337e-02
6437:2.4917975655777771e-02
6438:2.2779528158951495e-02
6439:2.0921324947500156e-02
6440:2.3594526107385102e-02
6441:2.2361353918173267e-02
6442:2.0476462993821481e-02
6443:1.8822454847266211e-02
6444:2.1536667240237357e-02
6445:2.0441833738210891e-02
6446:1.8746851755397097e-02
6447:1.7245934050752212e-02
6448:2.1409775431775264e-02
6449:1.9098278693585279e-02
6450:1.5802072071584506e-02
6451:1.3062433686570583e-02
6452:1.9854249497236305e-02
6453:1.7714828288282310e-02
6454:1.4658230914293292e-02
6455:1.2114296722540044e-02
6456:1.7867939661498456e-02
6457:1.5949056133555888e-02
6458:1.3199563360558440e-02
6459:1.0906446717551053e-02
6460:1.6375851948324749e-02
6461:1.4622409074523890e-02
6462:1.2103288102356077e-02
6463:9.9982964757206940e-03
6464:1.1527752213356507e-02
6465:8.5157628984676905e-03
6466:4.3307842866112658e-03
6467:9.2999313985218219e-04
6468:1.0688445643897683e-02
6469:7.8915679520692294e-03
6470:4.0097462973762701e-03
6471:8.5917675999645532e-04
6472:9.6200568273302599e-03
6473:7.0986932746962975e-03
6474:3.6048371309541582e-03
6475:7.7423497743615323e-04
6476:8.8164918409019792e-03
6477:6.5016284959075197e-03
6478:3.2983038653000172e-03
6479:7.0711242250917194e-04
6480:-7.5562105745206800e-03
6481:-3.5985205127367560e-02
6482:-7.2588913352077913e-02
6483:-1.0019484611244428e-01
6484:-7.2067175043933418e-03
6485:-3.4320609745285280e-02
6486:-6.9239022185753105e-02
6487:-9.5584195261014915e-02
6488:-6.7815509034255686e-03
6489:-3.2290218736043333e-02
6490:-6.5160162075469832e-02
6491:-8.9978306711109166e-02
6492:-6.4776248494745935e-03
6493:-3.0838231835916718e-02
6494:-6.2246301230473006e-02
6495:-8.5976098498409301e-02
6496:-1.1471048686149858e-01
6497:-1.4129872042599825e-01
6498:-1.7459518582437314e-01
6499:-1.9898758882081283e-01
6500:-1.0944229287861858e-01
6501:-1.3484596121163783e-01
6502:-1.6670320574155978e-01
6503:-1.9007897468065887e-01
6504:-1.0304130347642902e-01
6505:-1.2700991232821487e-01
6506:-1.5711657130942513e-01
6507:-1.7924948392307433e-01
6508:-9.8472527711557997e-02
6509:-1.2141728724820655e-01
6510:-1.5027168657885018e-01
6511:-1.7151239531048448e-01
6512:-2.1155727454618189e-01
6513:-2.3410988862080301e-01
6514:-2.6142740420910399e-01
6515:-2.8071797346258220e-01
6516:-2.0213977674206654e-01
6517:-2.2381392045818174e-01
6518:-2.5013913245812486e-01
6519:-2.6878807952664463e-01
6520:-1.9068566825424746e-01
6521:-2.1127784127285223e-01
6522:-2.3637351429937609e-01
6523:-2.5422117486125140e-01
6524:-1.8249884445636302e-01
6525:-2.0230911628212750e-01
6526:-2.2651035051273410e-01
6527:-2.4377012149628891e-01
6528:-2.9039861822389956e-01
6529:-3.0732085118163849e-01
6530:-3.2693217839070277e-01
6531:-3.4006726458682690e-01
6532:-2.7816947976872480e-01
6533:-2.9461440099650449e-01
6534:-3.1376834883440696e-01
6535:-3.2667902757658712e-01
6536:-2.6322629871736541e-01
6537:-2.7906545730715437e-01
6538:-2.9762605195486452e-01
6539:-3.1023220418212843e-01
6540:-2.5249716156116703e-01
6541:-2.6788444399018863e-01
6542:-2.8599286206608221e-01
6543:-2.9835721998350428e-01
6544:-3.4639256454148359e-01
6545:-3.5698125192869762e-01
6546:-3.6830311329447341e-01
6547:-3.7509027097225084e-01
6548:-3.3292902931707191e-01
6549:-3.4345445021408488e-01
6550:-3.5484262371554065e-01
6551:-3.6179168496382241e-01
6552:-3.1637267416536208e-01
6553:-3.2678566590726038e-01
6554:-3.3820493881265640e-01
6555:-3.4531063148455443e-01
6556:-3.0440564152694727e-01
6557:-3.1471129372264778e-01
6558:-3.2611561190676580e-01
6559:-3.3330341364910898e-01
6560:-3.7804652978535153e-01
6561:-3.8242383206118780e-01
6562:-3.8589222242876381e-01
6563:-3.8686854617331490e-01
6564:-3.6487212596635293e-01
6565:-3.6954191452692980e-01
6566:-3.7350165421376247e-01
6567:-3.7493431093769897e-01
6568:-3.4851998421343083e-01
6569:-3.5350472174317293e-01
6570:-3.5801125878784529e-01
6571:-3.5996238679860226e-01
6572:-3.3658862151670077e-01
6573:-3.4176811153184694e-01
6574:-3.4662693770975056e-01
6575:-3.4892040244850608e-01
6576:-3.8680987833816571e-01
6577:-3.8574002767771198e-01
6578:-3.8253089896804626e-01
6579:-3.7872391241889153e-01
6580:-3.7514508136483865e-01
6581:-3.7461602534832056e-01
6582:-3.7217549884636675e-01
6583:-3.6900277999052206e-01
6584:-3.6048242444514489e-01
6585:-3.6057895088417269e-01
6586:-3.5903593357609548e-01
6587:-3.5660942625605924e-01
6588:-3.4964706784216254e-01
6589:-3.5016543417002499e-01
6590:-3.4923432145303451e-01
6591:-3.4732096246794752e-01
6592:-3.7623773790152365e-01
6593:-3.7086489807311601e-01
6594:-3.6254026464119465e-01
6595:-3.5519395668637810e-01
6596:-3.6686901617766099e-01
6597:-3.6217120327478364e-01
6598:-3.5474827488729588e-01
6599:-3.4810600630701244e-01
6600:-3.5489199859289960e-01
6601:-3.5099461520802205e-01
6602:-3.4464675533519346e-01
6603:-3.3884845176958445e-01
6604:-3.4589119264625834e-01
6605:-3.4254920245207099e-01
6606:-3.3695197663371301e-01
6607:-3.3174659947203156e-01
6608:-3.5095664409521415e-01
6609:-3.4254980547389208e-01
6610:-3.3075294483740741e-01
6611:-3.2111068197196990e-01
6612:-3.4424696967641011e-01
6613:-3.3654503106540046e-01
6614:-3.2565488615599253e-01
6615:-3.1669646633324250e-01
6616:-3.3544453502180105e-01
6617:-3.2859399897905966e-01
6618:-3.1880512115219245e-01
6619:-3.1068158141470265e-01
6620:-3.2866374538692023e-01
6621:-3.2241624953163028e-01
6622:-3.1341176139937410e-01
6623:-3.0588589857720550e-01
6624:-3.1577638147755077e-01
6625:-3.0553208676659099e-01
6626:-2.9175927182145223e-01
6627:-2.8091691465508373e-01
6628:-3.1172192699503198e-01
6629:-3.0213673919379630e-01
6630:-2.8919005859049757e-01
6631:-2.7895401060547914e-01
6632:-3.0614765342415146e-01
6633:-2.9737176461424436e-01
6634:-2.8544370260530721e-01
6635:-2.7595877137273639e-01
6636:-3.0166836642402162e-01
6637:-2.9347526148842268e-01
6638:-2.8228412015741450e-01
6639:-2.7334542523439309e-01
6640:-2.7505067106609832e-01
6641:-2.6398396103346494e-01
6642:-2.4946787197607376e-01
6643:-2.3829908091541521e-01
6644:-2.7340083616724792e-01
6645:-2.6289870839817209e-01
6646:-2.4907409955902229e-01
6647:-2.3840122092096847e-01
6648:-2.7079480216797058e-01
6649:-2.6099720929410847e-01
6650:-2.4804045459477436e-01
6651:-2.3799361098227420e-01
6652:-2.6846557902246704e-01
6653:-2.5918422228780580e-01
6654:-2.4686688456826175e-01
6655:-2.3728380468056112e-01
6656:-2.3234100130546728e-01
6657:-2.2123008156868840e-01
6658:-2.0689457991568019e-01
6659:-1.9603916019756507e-01
6660:-2.3269540512036277e-01
6661:-2.2203386146107751e-01
6662:-2.0823775499556638e-01
6663:-1.9776025054353744e-01
6664:-2.3260746745846897e-01
6665:-2.2251714260625061e-01
6666:-2.0941026134894916e-01
6667:-1.9941867043335190e-01
6668:-2.3213530635696578e-01
6669:-2.2247098450359570e-01
6670:-2.0988090536704426e-01
6671:-2.0025601385991620e-01
6672:-1.9030656776267529e-01
6673:-1.7970365095505608e-01
6674:-1.6618610954749560e-01
6675:-1.5607035808040459e-01
6676:-1.9221660401660248e-01
6677:-1.8194520319143093e-01
6678:-1.6881618479080571e-01
6679:-1.5896555883419450e-01
6680:-1.9411914022838883e-01
6681:-1.8427819177931024e-01
6682:-1.7165775468696509e-01
6683:-1.6215736554761670e-01
6684:-1.9514160907316852e-01
6685:-1.8562862356429188e-01
6686:-1.7339856193126874e-01
6687:-1.6416920486795494e-01
6688:-1.5076908856212190e-01
6689:-1.4102589833034129e-01
6690:-1.2872079789351915e-01
6691:-1.1959979974346920e-01
6692:-1.5379437644094596e-01
6693:-1.4427561915932774e-01
6694:-1.3222585609737691e-01
6695:-1.2327266286718264e-01
6696:-1.5715917157521642e-01
6697:-1.4794061222977828e-01
6698:-1.3623595406619857e-01
6699:-1.2751263158664691e-01
6700:-1.5930565734838198e-01
6701:-1.5032203388223001e-01
6702:-1.3889006893632977e-01
6703:-1.3035061167265655e-01
6704:-1.1484985176960356e-01
6705:-1.0616567198437601e-01
6706:-9.5284559971596572e-02
6707:-8.7284817891279565e-02
6708:-1.1860258259471904e-01
6709:-1.1005217922879564e-01
6710:-9.9315358857041749e-02
6711:-9.1403950899189013e-02
6712:-1.2295318766677596e-01
6713:-1.1459027709130352e-01
6714:-1.0406012874421673e-01
6715:-9.6279083601766000e-02
6716:-1.2588053808190128e-01
6717:-1.1767056937274396e-01
6718:-1.0731198668429331e-01
6719:-9.9641673357920790e-02
6720:-8.3141672219860560e-02
6721:-7.5603223202395278e-02
6722:-6.6227515373765422e-02
6723:-5.9388447026719589e-02
6724:-8.7300355009589506e-02
6725:-7.9823902196317451e-02
6726:-7.0506172960940514e-02
6727:-6.3694652560564002e-02
6728:-9.2235432473122561e-02
6729:-8.4855742663430669e-02
6730:-7.5634723995502515e-02
6731:-6.8875544227434429e-02
6732:-9.5649942268022259e-02
6733:-8.8355833203753231e-02
6734:-7.9224186118506915e-02
6735:-7.2517066712303471e-02
6736:-5.5865517709629588e-02
6737:-4.9486941714097621e-02
6738:-4.1614974366052569e-02
6739:-3.5920750817627120e-02
6740:-6.0180701794636915e-02
6741:-5.3810038330751278e-02
6742:-4.5931810564948869e-02
6743:-4.0220653871581517e-02
6744:-6.5382123982494392e-02
6745:-5.9038321584267126e-02
6746:-5.1173399226575503e-02
6747:-4.5456470753288430e-02
6748:-6.9045827260842518e-02
6749:-6.2734716567921969e-02
6750:-5.4895727969811937e-02
6751:-4.9186348622646738e-02
6752:-3.3004852657231819e-02
6753:-2.7755479644923180e-02
6754:-2.1336815820918759e-02
6755:-1.6741386822382270e-02
6756:-3.7291674166390669e-02
6757:-3.2011606374009766e-02
6758:-2.5541515191264377e-02
6759:-2.0898327783135526e-02
6760:-4.2519047615917828e-02
6761:-3.7214833103523949e-02
6762:-3.0697812119360693e-02
6763:-2.6007330487627250e-02
6764:-4.6248785426604710e-02
6765:-4.0937761066382722e-02
6766:-3.4399657583371310e-02
6767:-2.9684051628100026e-02
6768:-1.4405623452813925e-02
6769:-1.0232300371326943e-02
6770:-5.1930052277501170e-03
6771:-1.6365137500231775e-03
6772:-1.8534326698826358e-02
6773:-1.4303924963560206e-02
6774:-9.1826327476981686e-03
6775:-5.5577918693717251e-03
6776:-2.3614331201153037e-02
6777:-1.9323824416128316e-02
6778:-1.4113580331768709e-02
6779:-1.0412827302676385e-02
6780:-2.7274651184404433e-02
6781:-2.2948757328194534e-02
6782:-1.7683763579483657e-02
6783:-1.3934723373010034e-02
6784:1.5197873423341337e-04
6785:3.3114233569913891e-03
6786:7.0530418153924570e-03
6787:9.6335043501390959e-03
6788:-3.7310432163186850e-03
6789:-4.9715100235743796e-04
6790:3.3465267842120870e-03
6791:6.0088531905649724e-03
6792:-8.5430323420357251e-03
6793:-5.2244795350521456e-03
6794:-1.2631114389156548e-03
6795:1.4947723582834291e-03
6796:-1.2037065442864692e-02
6797:-8.6629588817704588e-03
6798:-4.6229995591954808e-03
6799:-1.8003522158174523e-03
6800:1.0908280702115511e-02
6801:1.3116281793091718e-02
6802:1.5640517861936862e-02
6803:1.7305589633663337e-02
6804:7.3284833364892785e-03
6805:9.6225242284362130e-03
6806:1.2262560443677909e-02
6807:1.4019058498905106e-02
6808:2.8671377773266515e-03
6809:5.2629642398254817e-03
6810:8.0411683326131848e-03
6811:9.9076104188355676e-03
6812:-3.9193754383279100e-04
6813:2.0739786373857000e-03
6814:4.9482759711667480e-03
6815:6.8918694854362261e-03
6816:1.8098628446757477e-02
6817:1.9414351199271949e-02
6818:2.0796804059929931e-02
6819:2.1603301303453504e-02
6820:1.4861748263059631e-02
6821:1.6272301303118613e-02
6822:1.7781770737644899e-02
6823:1.8688186049891281e-02
6824:1.0810296611555586e-02
6825:1.2335935558350162e-02
6826:1.4000486885869017e-02
6827:1.5029581085446619e-02
6828:7.8368866390331974e-03
6829:9.4441150052965456e-03
6830:1.1219340031775146e-02
6831:1.2336512823300248e-02
6832:2.1944518593641452e-02
6833:2.2423637275851078e-02
6834:2.2736266714340453e-02
6835:2.2739000066486156e-02
6836:1.9083586350571231e-02
6837:1.9666397543001111e-02
6838:2.0118456281794060e-02
6839:2.0231349134748326e-02
6840:1.5491736712049807e-02
6841:1.6202687451070206e-02
6842:1.6827772608730775e-02
6843:1.7077895808890336e-02
6844:1.2846772889643606e-02
6845:1.3650358306389030e-02
6846:1.4401080562099907e-02
6847:1.4751248430413521e-02
6848:2.2657566336710414e-02
6849:2.2355371511344948e-02
6850:2.1671807866019223e-02
6851:2.0928625860092479e-02
6852:2.0209855876573018e-02
6853:2.0023091047224145e-02
6854:1.9496260380746814e-02
6855:1.8878105259598030e-02
6856:1.7131248054575478e-02
6857:1.7088893288627373e-02
6858:1.6758649885267644e-02
6859:1.6297670057786082e-02
6860:1.4859297189569512e-02
6861:1.4922681487967616e-02
6862:1.4736754342073810e-02
6863:1.4391419845074695e-02
6864:2.0455993220417940e-02
6865:1.9433547942689131e-02
6866:1.7838013526923872e-02
6867:1.6417312232973665e-02
6868:1.8473948876524888e-02
6869:1.7584492189050966e-02
6870:1.6171791871089584e-02
6871:1.4898655613523880e-02
6872:1.5979710895972755e-02
6873:1.5257802064445505e-02
6874:1.4075687609379273e-02
6875:1.2988812247823727e-02
6876:1.4136965057666219e-02
6877:1.3538594400667214e-02
6878:1.2526662750659921e-02
6879:1.1577362029971205e-02
6880:1.5591485296681152e-02
6881:1.3924758470654526e-02
6882:1.1526378578569864e-02
6883:9.5199737298778241e-03
6884:1.4154264189199644e-02
6885:1.2647106537994316e-02
6886:1.0470885082688695e-02
6887:8.6458486293781601e-03
6888:1.2347253433533682e-02
6889:1.1041581046006031e-02
6890:9.1458143619337559e-03
6891:7.5496727682102319e-03
6892:1.1011784498434273e-02
6893:9.8549680717311457e-03
6894:8.1663341336556741e-03
6895:6.7391814665821682e-03
6896:8.3929696158955621e-03
6897:6.1862655153682019e-03
6898:3.1350206122147100e-03
6899:6.6907647835139582e-04
6900:7.6196448707938269e-03
6901:5.6118082609072960e-03
6902:2.8400081635045721e-03
6903:6.0406421104360975e-04
6904:6.6506494564218272e-03
6905:4.8935593818281590e-03
6906:2.4737442391372377e-03
6907:5.2722248028217432e-04
6908:5.9340228778612574e-03
6909:4.3618594846034971e-03
6910:2.2013447142619031e-03
6911:4.6780767583635692e-04
6912:-6.3229780621084962e-03
6913:-3.0100266102401175e-02
6914:-6.0765469520709159e-02
6915:-8.3941751462702247e-02
6916:-6.0466072802122968e-03
6917:-2.8782417411055812e-02
6918:-5.8117876608691818e-02
6919:-8.0300719347563429e-02
6920:-5.7114987701975426e-03
6921:-2.7185617763066480e-02
6922:-5.4904768010121369e-02
6923:-7.5876075842917542e-02
6924:-5.4725477111296078e-03
6925:-2.6047402884260978e-02
6926:-5.2612106810316396e-02
6927:-7.2716346043031010e-02
6928:-9.6149774393489998e-02
6929:-1.1857314848596796e-01
6930:-1.4678934216681744e-01
6931:-1.6757477443044608e-01
6932:-9.1990234531121137e-02
6933:-1.1347579482850857e-01
6934:-1.4054334928677864e-01
6935:-1.6050875978368276e-01
6936:-8.6931931428209708e-02
6937:-1.0727018313206965e-01
6938:-1.3293023630522746e-01
6939:-1.5188892136766727e-01
6940:-8.3318118691064563e-02
6941:-1.0283296629602848e-01
6942:-1.2748028466118044e-01
6943:-1.4571244213465132e-01
6944:-1.7833144245451835e-01
6945:-1.9774120799924882e-01
6946:-2.2148213733430414e-01
6947:-2.3843754971691561e-01
6948:-1.7085125332265541e-01
6949:-1.8953753467062268e-01
6950:-2.1244348706653673e-01
6951:-2.2884384900128787e-01
6952:-1.6172212961652527e-01
6953:-1.7951588629461571e-01
6954:-2.0138551815470826e-01
6955:-2.1709168175508453e-01
6956:-1.5517725287632872e-01
6957:-1.7232328432360611e-01
6958:-1.9343642180193751e-01
6959:-2.0863211896815587e-01
6960:-2.4701989694873769e-01
6961:-2.6217061214578402e-01
6962:-2.8003905214699043e-01
6963:-2.9227184810008106e-01
6964:-2.3716113659314239e-01
6965:-2.5187616135103263e-01
6966:-2.6929747615595723e-01
6967:-2.8128012959023863e-01
6968:-2.2507533334312549e-01
6969:-2.3923769134503953e-01
6970:-2.5608246593348583e-01
6971:-2.6773357746140575e-01
6972:-2.1636895473800505e-01
6973:-2.3011941207398390e-01
6974:-2.4652781277416355e-01
6975:-2.5792168278093769e-01
6976:-2.9826856826137149e-01
6977:-3.0851016208922283e-01
6978:-3.1989407107593038e-01
6979:-3.2711354100172801e-01
6980:-2.8717612174151941e-01
6981:-2.9728755327173068e-01
6982:-3.0861466911871760e-01
6983:-3.1587538453090608e-01
6984:-2.7349179291486869e-01
6985:-2.8341579246604626e-01
6986:-2.9463534796403568e-01
6987:-3.0191660869827947e-01
6988:-2.6357007896981915e-01
6989:-2.7333825007309287e-01
6990:-2.8445159020330818e-01
6991:-2.9172464331578568e-01
6992:-3.3043187615896524e-01
6993:-3.3570017427722293e-01
6994:-3.4072498826814507e-01
6995:-3.4318276149018501e-01
6996:-3.1924485610426329e-01
6997:-3.2465696498994617e-01
6998:-3.2995947627556033e-01
6999:-3.3269678416937565e-01
7000:-3.0533253424415624e-01
7001:-3.1089035971172724e-01
7002:-3.1649328113483371e-01
7003:-3.1954255921183145e-01
7004:-2.9516151227594645e-01
7005:-3.0080077481503387e-01
7006:-3.0658946246802421e-01
7007:-3.0984009085563280e-01
7008:-3.4400946393202214e-01
7009:-3.4473348456971731e-01
7010:-3.4410314358265270e-01
7011:-3.4244361455759725e-01
7012:-3.3369493014487750e-01
7013:-3.3477351739882882e-01
7014:-3.3466549891969327e-01
7015:-3.3344931933199862e-01
7016:-3.2073455882088509e-01
7017:-3.2221813566754354e-01
7018:-3.2271395075728154e-01
7019:-3.2201521093608543e-01
7020:-3.1115935216794771e-01
7021:-3.1291207639847635e-01
7022:-3.1381493279096434e-01
7023:-3.1346886578085958e-01
7024:-3.4115662715752720e-01
7025:-3.3809117937010752e-01
7026:-3.3286942471826525e-01
7027:-3.2796196070726802e-01
7028:-3.3241253735722176e-01
7029:-3.2983315083471371e-01
7030:-3.2527404603865900e-01
7031:-3.2089428344113685e-01
7032:-3.2127202212349260e-01
7033:-3.1926575899968135e-01
7034:-3.1549307152716649e-01
7035:-3.1174313249958946e-01
7036:-3.1292701613828627e-01
7037:-3.1131591064607916e-01
7038:-3.0808929455816475e-01
7039:-3.0477937182119308e-01
7040:-3.2504089554562271e-01
7041:-3.1909808586155641e-01
7042:-3.1049134105658588e-01
7043:-3.0326952372152016e-01
7044:-3.1826043454660591e-01
7045:-3.1285954822976397e-01
7046:-3.0496223289255592e-01
7047:-2.9828425850258289e-01
7048:-3.0945324099908073e-01
7049:-3.0470327596456848e-01
7050:-2.9766190598436804e-01
7051:-2.9164309472991828e-01
7052:-3.0273065067632865e-01
7053:-2.9843861302088143e-01
7054:-2.9200243610147464e-01
7055:-2.8645205908724142e-01
7056:-2.9921326090482359e-01
7057:-2.9131780837861310e-01
7058:-2.8050429949506978e-01
7059:-2.7184655579054368e-01
7060:-2.9451701145766640e-01
7061:-2.8715611008623471e-01
7062:-2.7702292697371445e-01
7063:-2.6887291676967606e-01
7064:-2.8822724222443435e-01
7065:-2.8151837568008553e-01
7066:-2.7221899027754931e-01
7067:-2.6469411047781122e-01
7068:-2.8328678420990927e-01
7069:-2.7704444322762084e-01
7070:-2.6834451114910152e-01
7071:-2.6127111789410862e-01
7072:-2.6711323136104193e-01
7073:-2.5809872588292321e-01
7074:-2.4611304505980633e-01
7075:-2.3677131449266225e-01
7076:-2.6440492203327881e-01
7077:-2.5587444277984317e-01
7078:-2.4449190129298815e-01
7079:-2.3559033744793367e-01
7080:-2.6055374628114897e-01
7081:-2.5262243936946976e-01
7082:-2.4198951980304756e-01
7083:-2.3363747216226341e-01
7084:-2.5736805715784389e-01
7085:-2.4987189362311565e-01
7086:-2.3978573367990874e-01
7087:-2.3183640609788392e-01
7088:-2.3174675611508055e-01
7089:-2.2230509532199583e-01
7090:-2.0998613952327416e-01
7091:-2.0055445790808060e-01
7092:-2.3079228715445479e-01
7093:-2.2175846134474922e-01
7094:-2.0993786105729362e-01
7095:-2.0086266196747485e-01
7096:-2.2912312149063371e-01
7097:-2.2060181518793534e-01
7098:-2.0941073298855498e-01
7099:-2.0078826862375765e-01
7100:-2.2753068175091351e-01
7101:-2.1938752409838919e-01
7102:-2.0866325459710783e-01
7103:-2.0037823810153038e-01
7104:-1.9553790783115946e-01
7105:-1.8619877754111122e-01
7106:-1.7417658444682474e-01
7107:-1.6509224803111935e-01
7108:-1.9602712781189871e-01
7109:-1.8701029442544800e-01
7110:-1.7537481787963188e-01
7111:-1.6656139277665599e-01
7112:-1.9618346314158266e-01
7113:-1.8757873536215769e-01
7114:-1.7644032826986103e-01
7115:-1.6797725863485102e-01
7116:-1.9594599834430595e-01
7117:-1.8765047461533421e-01
7118:-1.7688700176842601e-01
7119:-1.6868982589090351e-01
7120:-1.6030099301043854e-01
7121:-1.5144394119869978e-01
7122:-1.4015977714316535e-01
7123:-1.3172072225509948e-01
7124:-1.6190561006754212e-01
7125:-1.5328651883457259e-01
7126:-1.4228174799622939e-01
7127:-1.3403370279126334e-01
7128:-1.6349748776843853e-01
7129:-1.5518900483794193e-01
7130:-1.4455172014061493e-01
7131:-1.3655711276425758e-01
7132:-1.6434424657740204e-01
7133:-1.5627361137143572e-01
7134:-1.4591972277662157e-01
7135:-1.3812211100519303e-01
7136:-1.2729973927173033e-01
7137:-1.1917424968709567e-01
7138:-1.0891135949288881e-01
7139:-1.0130357610985850e-01
7140:-1.2970656029371233e-01
7141:-1.2174326165414423e-01
7142:-1.1166550900912980e-01
7143:-1.0417990911688382e-01
7144:-1.3235528422379134e-01
7145:-1.2460986481638010e-01
7146:-1.1478343167883491e-01
7147:-1.0746590989744437e-01
7148:-1.3401824860556574e-01
7149:-1.2644409509441529e-01
7150:-1.1681710903811679e-01
7151:-1.0963456455754035e-01
7152:-9.7341464344431833e-02
7153:-9.0096711453586664e-02
7154:-8.1017742374141444e-02
7155:-7.4342353537345987e-02
7156:-1.0027615291546706e-01
7157:-9.3129502715711368e-02
7158:-8.4157026801726098e-02
7159:-7.7547367257348246e-02
7160:-1.0364330364107482e-01
7161:-9.6634618195755320e-02
7162:-8.7815064086979991e-02
7163:-8.1302530638751591e-02
7164:-1.0587774522318676e-01
7165:-9.8981964694497840e-02
7166:-9.0289692972755242e-02
7167:-8.3859814965424981e-02
7168:-7.0885095378537391e-02
7169:-6.4595471589878523e-02
7170:-5.6775599780857437e-02
7171:-5.1074282183691824e-02
7172:-7.4119740114932386e-02
7173:-6.7876878851774722e-02
7174:-6.0101389076446708e-02
7175:-5.4421787019802007e-02
7176:-7.7919816844351189e-02
7177:-7.1749873886772286e-02
7178:-6.4048100483218559e-02
7179:-5.8409135777532761e-02
7180:-8.0516049087423838e-02
7181:-7.4410636613943884e-02
7182:-6.6776896284237802e-02
7183:-6.1178096178928110e-02
7184:-4.8138783499235269e-02
7185:-4.2828092928691830e-02
7186:-3.6283818996463810e-02
7187:-3.1558624472960671e-02
7188:-5.1493689768781360e-02
7189:-4.6190228067878217e-02
7190:-3.9642930224645941e-02
7191:-3.4906237426595377e-02
7192:-5.5497306319370145e-02
7193:-5.0215677809250674e-02
7194:-4.3680548697705338e-02
7195:-3.8941117584652955e-02
7196:-5.8283594148026301e-02
7197:-5.3027827356933961e-02
7198:-4.6513906336208180e-02
7199:-4.1781434101759100e-02
7200:-2.9142478782086010e-02
7201:-2.4801390682289554e-02
7202:-1.9511836608774414e-02
7203:-1.5740473796454827e-02
7204:-3.2480865817027763e-02
7205:-2.8117601195365594e-02
7206:-2.2790009582314939e-02
7207:-1.8982759541820708e-02
7208:-3.6510198239257489e-02
7209:-3.2130004407434805e-02
7210:-2.6768086634330033e-02
7211:-2.2925459796472300e-02
7212:-3.9351061181056878e-02
7213:-3.4966785206036639e-02
7214:-2.9589928039702701e-02
7215:-2.5728717883316148e-02
7216:-1.3829738221158830e-02
7217:-1.0429255682697414e-02
7218:-6.3514455967042822e-03
7219:-3.4972385706088472e-03
7220:-1.7050620384265094e-02
7221:-1.3606399798177337e-02
7222:-9.4648142805860702e-03
7223:-6.5567425320674604e-03
7224:-2.0971391076437813e-02
7225:-1.7481128283804832e-02
7226:-1.3270255912951699e-02
7227:-1.0302217145398397e-02
7228:-2.3762319727518102e-02
7229:-2.0245013339456878e-02
7230:-1.5991472047411005e-02
7231:-1.2985218584303416e-02
7232:-2.0711392681360113e-03
7233:4.2935488469370123e-04
7234:3.3514179738756179e-03
7235:5.3336187815632170e-03
7236:-5.1002405523714418e-03
7237:-2.5399405250380275e-03
7238:4.6540265288531126e-04
7239:2.5153885043094912e-03
7240:-8.8114133709199030e-03
7241:-6.1828972509203935e-03
7242:-3.0812086158090888e-03
7243:-9.5184806946546879e-04
7244:-1.1472161688241804e-02
7245:-8.7987610821208418e-03
7246:-5.6325413095269740e-03
7247:-3.4492252812917219e-03
7248:6.2999037187901836e-03
7249:7.9482667075685565e-03
7250:9.7795553885199546e-03
7251:1.0941537398386511e-02
7252:3.5191699174361912e-03
7253:5.2403154697388760e-03
7254:7.1712862629529136e-03
7255:8.4132902641659135e-03
7256:9.6152557093519953e-05
7257:1.9036492683923592e-03
7258:3.9538521807436083e-03
7259:5.2922684886661103e-03
7260:-2.3709113552394102e-03
7261:-5.0379613472232947e-04
7262:1.6295088616648053e-03
7263:3.0356805802509252e-03
7264:1.1476333749357075e-02
7265:1.2327274742499056e-02
7266:1.3142420848612222e-02
7267:1.3544031179934230e-02
7268:8.9920211289345395e-03
7269:9.9279510105927758e-03
7270:1.0859079256843363e-02
7271:1.1353560754207206e-02
7272:5.9241634079912411e-03
7273:6.9633173865435169e-03
7274:8.0360184778409983e-03
7275:8.6443678535309248e-03
7276:3.7051209618979160e-03
7277:4.8174735363356600e-03
7278:5.9911192030379845e-03
7279:6.6810517984842253e-03
7280:1.3680251225947557e-02
7281:1.3798167468328992e-02
7282:1.3686796104901231e-02
7283:1.3401295699922065e-02
7284:1.1540724706548267e-02
7285:1.1757383578197377e-02
7286:1.1781245404100861e-02
7287:1.1604438244325327e-02
7288:8.8941585174796261e-03
7289:9.2324522811332195e-03
7290:9.4233449722139519e-03
7291:9.3810993372677887e-03
7292:6.9758404307271645e-03
7293:7.4017192130278690e-03
7294:7.7132229146161108e-03
7295:7.7683772590921869e-03
7296:1.3179725961270001e-02
7297:1.2645361045838908e-02
7298:1.1721655173052358e-02
7299:1.0843709222004118e-02
7300:1.1442657933192707e-02
7301:1.1024721744447640e-02
7302:1.0261593826193779e-02
7303:9.5135765471939630e-03
7304:9.2934350845713005e-03
7305:9.0199307643114932e-03
7306:8.4561664736104662e-03
7307:7.8695605274950193e-03
7308:7.7344333347909196e-03
7309:7.5656889074058372e-03
7310:7.1466399045414944e-03
7311:6.6772665765316595e-03
7312:1.0317548840163929e-02
7313:9.2379455010727154e-03
7314:7.6567241369759481e-03
7315:6.3171768795939826e-03
7316:9.0592041444329374e-03
7317:8.1202018828953650e-03
7318:6.7345089959926037e-03
7319:5.5543757214707706e-03
7320:7.5043938586059344e-03
7321:6.7400518363779551e-03
7322:5.5971046708191601e-03
7323:4.6147510546676457e-03
7324:6.3769036530599670e-03
7325:5.7393913541004980e-03
7326:4.7725795664101383e-03
7327:3.9336181833359036e-03
7328:5.5606663994553791e-03
7329:4.0842955662291590e-03
7330:2.0579904747455961e-03
7331:4.3460633386310234e-04
7332:4.8863634286574337e-03
7333:3.5841527476281948e-03
7334:1.8016408065772869e-03
7335:3.7818546908917870e-04
7336:4.0564793289770201e-03
7337:2.9700234146272722e-03
7338:1.4890898165706061e-03
7339:3.1261217003924981e-04
7340:3.4548607663047195e-03
7341:2.5245595359791313e-03
7342:1.2615327985903151e-03
7343:2.6323055882884072e-04
7344:-5.3509914616741740e-03
7345:-2.5468394452812293e-02
7346:-5.1445573820110301e-02
7347:-7.1108387062431805e-02
7348:-5.1320319028321506e-03
7349:-2.4425702956298798e-02
7350:-4.9345616866486870e-02
7351:-6.8214556272976359e-02
7352:-4.8633737863301692e-03
7353:-2.3146687191013444e-02
7354:-4.6770539509762801e-02
7355:-6.4666727550779887e-02
7356:-4.6699173157245489e-03
7357:-2.2225680057710421e-02
7358:-4.4916071172569634e-02
7359:-6.2111385675006146e-02
7360:-8.1478921113912459e-02
7361:-1.0057392933573571e-01
7362:-1.2470369987931784e-01
7363:-1.4256360192332987e-01
7364:-7.8169328399684726e-02
7365:-9.6508680376543102e-02
7366:-1.1970512549374723e-01
7367:-1.3689225517117137e-01
7368:-7.4112092879600605e-02
7369:-9.1524277615172289e-02
7370:-1.1357264231855704e-01
7371:-1.2992984121873585e-01
7372:-7.1189556124555228e-02
7373:-8.7932591271817698e-02
7374:-1.0915060948719688e-01
7375:-1.2490613752358404e-01
7376:-1.5183928314540593e-01
7377:-1.6865209047423718e-01
7378:-1.8937463475523064e-01
7379:-2.0430558311030111e-01
7380:-1.4582558319677302e-01
7381:-1.6203429971347180e-01
7382:-1.8204683570453070e-01
7383:-1.9649484078025028e-01
7384:-1.3843996092222768e-01
7385:-1.5390024255712736e-01
7386:-1.7302949363634665e-01
7387:-1.8687346913074096e-01
7388:-1.3310889895602437e-01
7389:-1.4802435561359367e-01
7390:-1.6650781570157064e-01
7391:-1.7990768012143907e-01
7392:-2.1191393774723760e-01
7393:-2.2544897495917288e-01
7394:-2.4162697341416006e-01
7395:-2.5288299855814772e-01
7396:-2.0386812487570835e-01
7397:-2.1700749754200707e-01
7398:-2.3275903191296668e-01
7399:-2.4375693368698528e-01
7400:-1.9395140518289480e-01
7401:-2.0659077444566454e-01
7402:-2.2179724934589265e-01
7403:-2.3245973685770951e-01
7404:-1.8676743336684382e-01
7405:-1.9903526796696211e-01
7406:-2.1383215850159187e-01
7407:-2.2423854934222037e-01
7408:-2.5847163075918078e-01
7409:-2.6815296693097396e-01
7410:-2.7920201438719977e-01
7411:-2.8646280553567832e-01
7412:-2.4923233263227282e-01
7413:-2.5874621135386466e-01
7414:-2.6966397791443297e-01
7415:-2.7689004806084550e-01
7416:-2.3778558861711643e-01
7417:-2.4707307073477741e-01
7418:-2.5780055422090620e-01
7419:-2.6496024508012062e-01
7420:-2.2944848232955029e-01
7421:-2.3855681313353566e-01
7422:-2.4912499281485820e-01
7423:-2.5621890381038154e-01
7424:-2.8990597368155724e-01
7425:-2.9557861304755889e-01
7426:-3.0145159297789276e-01
7427:-3.0479707000713474e-01
7428:-2.8033758875722870e-01
7429:-2.8605721861958344e-01
7430:-2.9206497382763930e-01
7431:-2.9556835286012967e-01
7432:-2.6840003715611555e-01
7433:-2.7415253114523924e-01
7434:-2.8029324242772358e-01
7435:-2.8396563290498750e-01
7436:-2.5964324720494381e-01
7437:-2.6540070139699884e-01
7438:-2.7161259559648310e-01
7439:-2.7538788390556984e-01
7440:-3.0617712807752051e-01
7441:-3.0805966060563883e-01
7442:-3.0916095074525218e-01
7443:-3.0898822289431188e-01
7444:-2.9705109895561316e-01
7445:-2.9915497090955795e-01
7446:-3.0059812423105808e-01
7447:-3.0072628295274018e-01
7448:-2.8556130054098511e-01
7449:-2.8791279237944989e-01
7450:-2.8974542697324429e-01
7451:-2.9022085110536877e-01
7452:-2.7705490444293862e-01
7453:-2.7956644024907490e-01
7454:-2.8165667393209404e-01
7455:-2.8236544723813028e-01
7456:-3.0854577672970701e-01
7457:-3.0713051416005305e-01
7458:-3.0417588535330609e-01
7459:-3.0108606060447701e-01
7460:-3.0045707481342010e-01
7461:-2.9938428314079862e-01
7462:-2.9690741842868612e-01
7463:-2.9420573538769262e-01
7464:-2.9015293972303530e-01
7465:-2.8948034592181704e-01
7466:-2.8756594641788241e-01
7467:-2.8532419619937449e-01
7468:-2.8243390089722964e-01
7469:-2.8203422390709254e-01
7470:-2.8050672817210909e-01
7471:-2.7858372139195881e-01
7472:-2.9915827726254879e-01
7473:-2.9509642785038842e-01
7474:-2.8896556773223431e-01
7475:-2.8365237076339495e-01
7476:-2.9249173558688957e-01
7477:-2.8883774396657064e-01
7478:-2.8324964869630198e-01
7479:-2.7835939109619351e-01
7480:-2.8386451893827019e-01
7481:-2.8069754106472611e-01
7482:-2.7576092785095352e-01
7483:-2.7138074947110979e-01
7484:-2.7730108345789223e-01
7485:-2.7447451696151742e-01
7486:-2.6999584152782302e-01
7487:-2.6597603439859285e-01
7488:-2.8061427595174165e-01
7489:-2.7460924594670344e-01
7490:-2.6621520264820908e-01
7491:-2.5937287443590812e-01
7492:-2.7554852061254465e-01
7493:-2.6996820193805882e-01
7494:-2.6212300698661489e-01
7495:-2.5569635822843795e-01
7496:-2.6884472478043708e-01
7497:-2.6377949699882652e-01
7498:-2.5660263980618825e-01
7499:-2.5068427192988946e-01
7500:-2.6363479406005791e-01
7501:-2.5893568119344951e-01
7502:-2.5223597166432477e-01
7503:-2.4668212565498396e-01
7504:-2.5559148836758067e-01
7505:-2.4831885833002187e-01
7506:-2.3851441881963772e-01
7507:-2.3077327860835009e-01
7508:-2.5213425222140662e-01
7509:-2.4526522282353813e-01
7510:-2.3597088786661705e-01
7511:-2.2860779190835925e-01
7512:-2.4739105719908022e-01
7513:-2.4101836894389544e-01
7514:-2.3235405342131343e-01
7515:-2.2545986826763892e-01
7516:-2.4358234241201762e-01
7517:-2.3756777413082120e-01
7518:-2.2936002957083196e-01
7519:-2.2280712257235946e-01
7520:-2.2657565575688574e-01
7521:-2.1862885767719725e-01
7522:-2.0814776136078300e-01
7523:-2.0003909589709304e-01
7524:-2.2460684261245728e-01
7525:-2.1701788003875783e-01
7526:-2.0698108546535982e-01
7527:-1.9919554779642729e-01
7528:-2.2170354543590523e-01
7529:-2.1456078179371646e-01
7530:-2.0508021626479903e-01
7531:-1.9770097698505454e-01
7532:-2.1922933735518765e-01
7533:-2.1241308616800866e-01
7534:-2.0334126040790029e-01
7535:-1.9626194862273386e-01
7536:-1.9569723343844850e-01
7537:-1.8756399463052956e-01
7538:-1.7699800397938387e-01
7539:-1.6894144482207979e-01
7540:-1.9501962108086301e-01
7541:-1.8718496790264091e-01
7542:-1.7698353469259581e-01
7543:-1.6918749407803188e-01
7544:-1.9373435024609195e-01
7545:-1.8627749591239920e-01
7546:-1.7653960382921682e-01
7547:-1.6907654559216637e-01
7548:-1.9245032604276918e-01
7549:-1.8527414034079626e-01
7550:-1.7588227840365392e-01
7551:-1.6866904282276840e-01
7552:-1.6466704303123536e-01
7553:-1.5672291070971558e-01
7554:-1.4652040519549842e-01
7555:-1.3882852871616194e-01
7556:-1.6504529415482891e-01
7557:-1.5733664543862497e-01
7558:-1.4741696751631622e-01
7559:-1.3992346767363448e-01
7560:-1.6510392771921212e-01
7561:-1.5769833253406637e-01
7562:-1.4814459430587518e-01
7563:-1.4090935192964427e-01
7564:-1.6482409358268985e-01
7565:-1.5764739423734159e-01
7566:-1.4837152896451866e-01
7567:-1.4133358334649340e-01
7568:-1.3477743042914386e-01
7569:-1.2729583536049266e-01
7570:-1.1777727553414888e-01
7571:-1.1066863824500733e-01
7572:-1.3597167541766317e-01
7573:-1.2866483708930881e-01
7574:-1.1935208901695245e-01
7575:-1.1238462084148769e-01
7576:-1.3708743550756286e-01
7577:-1.3001018975320533e-01
7578:-1.2096986851914175e-01
7579:-1.1419087964415944e-01
7580:-1.3761132855059807e-01
7581:-1.3071102040635091e-01
7582:-1.2188211592578146e-01
7583:-1.1525055174918288e-01
7584:-1.0694804326367496e-01
7585:-1.0011476919733098e-01
7586:-9.1493636899227723e-02
7587:-8.5110517858186963e-02
7588:-1.0873354496282593e-01
7589:-1.0202076445250743e-01
7590:-9.3537847970870960e-02
7591:-8.7246487450556548e-02
7592:-1.1063321736484619e-01
7593:-1.0408333602278637e-01
7594:-9.5789276130819292e-02
7595:-8.9624969169652804e-02
7596:-1.1176637798475270e-01
7597:-1.0534536606668690e-01
7598:-9.7202151816058679e-02
7599:-9.1140522306173630e-02
7600:-8.1789005633604348e-02
7601:-7.5720856672506082e-02
7602:-6.8127233094052358e-02
7603:-6.2552873993255348e-02
7604:-8.3969004266586447e-02
7605:-7.7975223504376190e-02
7606:-7.0462995189689029e-02
7607:-6.4939404202888087e-02
7608:-8.6409105549129187e-02
7609:-8.0520559717049106e-02
7610:-7.3125881726633465e-02
7611:-6.7677668413228267e-02
7612:-8.7974916738145559e-02
7613:-8.2172999830696772e-02
7614:-7.4876705289503631e-02
7615:-6.9492952903428037e-02
7616:-5.9669247771973778e-02
7617:-5.4430353044656821e-02
7618:-4.7931766790536533e-02
7619:-4.3206085226145260e-02
7620:-6.2078865403693721e-02
7621:-5.6876713522777463e-02
7622:-5.0413616334803735e-02
7623:-4.5705873038659695e-02
7624:-6.4852255355746291e-02
7625:-5.9707560478218666e-02
7626:-5.3303390963865181e-02
7627:-4.8628861750019570e-02
7628:-6.6698128204104215e-02
7629:-6.1604463126366138e-02
7630:-5.5254766980149646e-02
7631:-5.0612952763876465e-02
7632:-4.0777639240498265e-02
7633:-3.6394226577077179e-02
7634:-3.1013307040077806e-02
7635:-2.7145129656311606e-02
7636:-4.3283824033689286e-02
7637:-3.8907239951868330e-02
7638:-3.3525454610376017e-02
7639:-2.9649341131877591e-02
7640:-4.6220423474283498e-02
7641:-4.1862627368998963e-02
7642:-3.6492561720487572e-02
7643:-3.2615887461980977e-02
7644:-4.8218849867452437e-02
7645:-4.3882788709488481e-02
7646:-3.8531264711897037e-02
7647:-3.4661460065595215e-02
7648:-2.5173705820228764e-02
7649:-2.1644836575854118e-02
7650:-1.7372171487902804e-02
7651:-1.4348243620821899e-02
7652:-2.7671205266362357e-02
7653:-2.4125677242370382e-02
7654:-1.9823569018920111e-02
7655:-1.6771308450360942e-02
7656:-3.0634184314965843e-02
7657:-2.7076557845467572e-02
7658:-2.2748389947910883e-02
7659:-1.9668458687323882e-02
7660:-3.2680895891042387e-02
7661:-2.9121199809987029e-02
7662:-2.4782317879761488e-02
7663:-2.1688163241771325e-02
7664:-1.2824732674169347e-02
7665:-1.0129992954683050e-02
7666:-6.9326422075817549e-03
7667:-4.7229888000093773e-03
7668:-1.5230717807174972e-02
7669:-1.2500620227588497e-02
7670:-9.2508130000833796e-03
7671:-6.9961884761536941e-03
7672:-1.8110473040221269e-02
7673:-1.5343285722365334e-02
7674:-1.2036570124999308e-02
7675:-9.7319033780674368e-03
7676:-2.0120525543573003e-02
7677:-1.7331727260737975e-02
7678:-1.3990106987512907e-02
7679:-1.1653621968864476e-02
7680:-3.6297800530535507e-03
7681:-1.7332092097711051e-03
7682:4.4145016149912090e-04
7683:1.8815487068876528e-03
7684:-5.8773598552920520e-03
7685:-3.9298175553884552e-03
7686:-1.6830363266879872e-03
7687:-1.8337533781518078e-04
7688:-8.5841748226469713e-03
7689:-6.5785008412859031e-03
7690:-4.2483131645166625e-03
7691:-2.6789650994690595e-03
7692:-1.0487176234856996e-02
7693:-8.4433075013349498e-03
7694:-6.0573384146255368e-03
7695:-4.4407097144948046e-03
7696:2.5698572853679680e-03
7697:3.7191055861188638e-03
7698:4.9438344327307673e-03
7699:5.6751953897654908e-03
7700:5.3818638606722177e-04
7701:1.7526647106671422e-03
7702:3.0680829193039300e-03
7703:3.8732598100171840e-03
7704:-1.9182383413659952e-03
7705:-6.2651831177986728e-04
7706:7.9704750770897539e-04
7707:1.6907860358263457e-03
7708:-3.6531958730935950e-03
7709:-2.3083050451585935e-03
7710:-8.0967389194338635e-04
7711:1.4596984332898531e-04
7712:5.9928804109433314e-03
7713:6.4633928085071875e-03
7714:6.8364805369687635e-03
7715:6.9414504729534941e-03
7716:4.2318273706075374e-03
7717:4.7821604628728569e-03
7718:5.2656049246313239e-03
7719:5.4599968105968075e-03
7720:2.0985755249053320e-03
7721:2.7452593720766680e-03
7722:3.3623531180635539e-03
7723:3.6653430458922749e-03
7724:5.8830475635931003e-04
7725:1.3028074723007276e-03
7726:2.0143204179999636e-03
7727:2.3942691334592442e-03
7728:6.9350075913803318e-03
7729:6.8199172768129172e-03
7730:6.4750219822285616e-03
7731:6.0657404922846263e-03
7732:5.5029671732906744e-03
7733:5.4843241322721729e-03
7734:5.2727865005031786e-03
7735:4.9716070908597245e-03
7736:3.7684152906415770e-03
7737:3.8671609213958985e-03
7738:3.8180444473647711e-03
7739:3.6485824889346580e-03
7740:2.5400049262255626e-03
7741:2.7221362868835672e-03
7742:2.7884677179477032e-03
7743:2.7126651275095888e-03
7744:5.7985988464610049e-03
7745:5.2260826989236958e-03
7746:4.3494793234838515e-03
7747:3.5839100680358431e-03
7748:4.7642337901573802e-03
7749:4.3086045074532987e-03
7750:3.5941141788912428e-03
7751:2.9603418246634569e-03
7752:3.5140404266120091e-03
7753:3.2007399248713793e-03
7754:2.6834004200977364e-03
7755:2.2097051364963253e-03
7756:2.6299122616188246e-03
7757:2.4177270250388037e-03
7758:2.0402340967352228e-03
7759:1.6799100807711013e-03
7760:3.1458309832982537e-03
7761:2.2953492870190144e-03
7762:1.1435677108725861e-03
7763:2.3611991057715547e-04
7764:2.5952734950953809e-03
7765:1.8879211007978604e-03
7766:9.3533949839319595e-04
7767:1.9036112143894500e-04
7768:1.9332306808790879e-03
7769:1.3992756808444569e-03
7770:6.8742923483733711e-04
7771:1.3833785962290697e-04
7772:1.4661090701660708e-03
7773:1.0545810333483206e-03
7774:5.1220461848969950e-04
7775:1.0062262035130143e-04
7776:-4.5710369814438304e-03
7777:-2.1754839872271298e-02
7778:-4.3967695038690635e-02
7779:-6.0804172991938917e-02
7780:-4.3926733631496758e-03
7781:-2.0905301905507569e-02
7782:-4.2255728214447889e-02
7783:-5.8443522288050956e-02
7784:-4.1730676115200888e-03
7785:-1.9859156638624104e-02
7786:-4.0146407453811900e-02
7787:-5.5533579485517848e-02
7788:-4.0139837549692638e-03
7789:-1.9101441327416965e-02
7790:-3.8618172478831980e-02
7791:-5.3424642531273173e-02
7792:-6.9694226881412275e-02
7793:-8.6094220647966388e-02
7794:-1.0688608806096621e-01
7795:-1.2233244071356306e-01
7796:-6.6993277034797488e-02
7797:-8.2772362732267499e-02
7798:-1.0279215561261226e-01
7799:-1.1767772462487756e-01
7800:-6.3662962776701387e-02
7801:-7.8674313207306820e-02
7802:-9.7737880756328846e-02
7803:-1.1192754035501264e-01
7804:-6.1248924455818095e-02
7805:-7.5702455249219688e-02
7806:-9.4069896291175487e-02
7807:-1.0775176239680849e-01
7808:-1.3037710847204009e-01
7809:-1.4501187980227742e-01
7810:-1.6316164002240577e-01
7811:-1.7633113891259602e-01
7812:-1.2543537198947713e-01
7813:-1.3955972994513274e-01
7814:-1.5710094663547383e-01
7815:-1.6984893870824630e-01
7816:-1.1932843715560100e-01
7817:-1.3281680584687325e-01
7818:-1.4959653408062373e-01
7819:-1.6181448890353814e-01
7820:-1.1489186525738142e-01
7821:-1.2791413951807692e-01
7822:-1.4413343359221470e-01
7823:-1.5595940727689242e-01
7824:-1.8307735848296011e-01
7825:-1.9515111879151067e-01
7826:-2.0973250289708389e-01
7827:-2.2000278047986321e-01
7828:-1.7638688080792170e-01
7829:-1.8810350284284930e-01
7830:-2.0228591200282331e-01
7831:-2.1230203499660602e-01
7832:-1.6808953780784969e-01
7833:-1.7935332232852580e-01
7834:-1.9302540485088904e-01
7835:-2.0271243558139382e-01
7836:-1.6203932129918000e-01
7837:-1.7296547413744234e-01
7838:-1.8625379627336891e-01
7839:-1.9569043295938976e-01
7840:-2.2515052776098507e-01
7841:-2.3416156947149760e-01
7842:-2.4464048804376229e-01
7843:-2.5169450551572276e-01
7844:-2.1733274204578204e-01
7845:-2.2615879567529393e-01
7846:-2.3646370149540299e-01
7847:-2.4343538577842608e-01
7848:-2.0758988632394393e-01
7849:-2.1617022817167600e-01
7850:-2.2623613798118833e-01
7851:-2.3308659974325574e-01
7852:-2.0045004444940001e-01
7853:-2.0883893046232030e-01
7854:-2.1871299020065024e-01
7855:-2.2546051297499373e-01
7856:-2.5510752639446493e-01
7857:-2.6086100868459811e-01
7858:-2.6710071065618968e-01
7859:-2.7092200281270051e-01
7860:-2.4682233443055770e-01
7861:-2.5255793640724900e-01
7862:-2.5883365513555184e-01
7863:-2.6272700851043379e-01
7864:-2.3643060553638862e-01
7865:-2.4212359126174435e-01
7866:-2.4841640288162564e-01
7867:-2.5237738966131423e-01
7868:-2.2876511763754057e-01
7869:-2.3441143693795624e-01
7870:-2.4069567855576307e-01
7871:-2.4468940820384569e-01
7872:-2.7262199605606202e-01
7873:-2.7520891586523316e-01
7874:-2.7742277395228521e-01
7875:-2.7824493624910068e-01
7876:-2.6448065336478160e-01
7877:-2.6719281898773833e-01
7878:-2.6961613146922159e-01
7879:-2.7063283411374700e-01
7880:-2.5418582403733758e-01
7881:-2.5703136307611896e-01
7882:-2.5968613426171072e-01
7883:-2.6092274974268970e-01
7884:-2.4652883744028523e-01
7885:-2.4945485715306837e-01
7886:-2.5225671050051834e-01
7887:-2.5363726893663302e-01
7888:-2.7838006675350718e-01
7889:-2.7811450649711744e-01
7890:-2.7677837021055279e-01
7891:-2.7501387825687279e-01
7892:-2.7088306638184423e-01
7893:-2.7085016095012332e-01
7894:-2.6984801060708569e-01
7895:-2.6836157627005863e-01
7896:-2.6130451085897871e-01
7897:-2.6153971131773124e-01
7898:-2.6092643616522787e-01
7899:-2.5976648553872589e-01
7900:-2.5410629926536243e-01
7901:-2.5452122163220897e-01
7902:-2.5417186059053609e-01
7903:-2.5323567092354193e-01
7904:-2.7381956997847456e-01
7905:-2.7116333435604695e-01
7906:-2.6691469631256914e-01
7907:-2.6307655389511714e-01
7908:-2.6732266002117666e-01
7909:-2.6496684121053188e-01
7910:-2.6112536672206660e-01
7911:-2.5760982451358333e-01
7912:-2.5891089648887866e-01
7913:-2.5691098804505480e-01
7914:-2.5355469428225452e-01
7915:-2.5042562760799197e-01
7916:-2.5250642352208991e-01
7917:-2.5075297633169619e-01
7918:-2.4773488697108328e-01
7919:-2.4487685077566859e-01
7920:-2.6083371663481997e-01
7921:-2.5631994689142373e-01
7922:-2.4986255048896594e-01
7923:-2.4449441092807486e-01
7924:-2.5554209263227723e-01
7925:-2.5135880526877158e-01
7926:-2.4533474551383069e-01
7927:-2.4029964871570478e-01
7928:-2.4856837821895159e-01
7929:-2.4478363069024353e-01
7930:-2.3928457217628732e-01
7931:-2.3465473789628519e-01
7932:-2.4316776572213991e-01
7933:-2.3966455430548700e-01
7934:-2.3453822316246692e-01
7935:-2.3019745310555395e-01
7936:-2.4149338168780460e-01
7937:-2.3566201310202686e-01
7938:-2.2768851201440229e-01
7939:-2.2131119231888366e-01
7940:-2.3747604278754544e-01
7941:-2.3197435906606628e-01
7942:-2.2442345779702247e-01
7943:-2.1836372982462157e-01
7944:-2.3204762824565819e-01
7945:-2.2694927546151555e-01
7946:-2.1991741121578556e-01
7947:-2.1424932522482926e-01
7948:-2.2774521904292014e-01
7949:-2.2293620844256024e-01
7950:-2.1627827709101313e-01
7951:-2.1089356724264652e-01
7952:-2.1782543252878678e-01
7953:-2.1117778562032841e-01
7954:-2.0231763520369658e-01
7955:-1.9539413022566310e-01
7956:-2.1504471143023501e-01
7957:-2.0870310565027453e-01
7958:-2.0022822893737788e-01
7959:-1.9358910748431055e-01
7960:-2.1113649171534829e-01
7961:-2.0517436734074435e-01
7962:-1.9717921265864738e-01
7963:-1.9089568525990253e-01
7964:-2.0793035751008215e-01
7965:-2.0224440445764238e-01
7966:-1.9459986893644390e-01
7967:-1.8857735051555521e-01
7968:-1.9166320460764011e-01
7969:-1.8463343620178893e-01
7970:-1.7542265018309872e-01
7971:-1.6834056632616476e-01
7972:-1.9000575084210386e-01
7973:-1.8324419492933380e-01
7974:-1.7436601192068726e-01
7975:-1.6752553749244140e-01
7976:-1.8749736771121273e-01
7977:-1.8107301049737473e-01
7978:-1.7261471187643021e-01
7979:-1.6608061467738727e-01
7980:-1.8531523730960689e-01
7981:-1.7913976426307338e-01
7982:-1.7099271156822124e-01
7983:-1.6468676490544537e-01
7984:-1.6456278741093389e-01
7985:-1.5750677733372323e-01
7986:-1.4837794245624125e-01
7987:-1.4144480512912858e-01
7988:-1.6387175850713526e-01
7989:-1.5703901492029299e-01
7990:-1.4818308542167644e-01
7991:-1.4144519030538497e-01
7992:-1.6258457358463843e-01
7993:-1.5603673551619021e-01
7994:-1.4753077731637065e-01
7995:-1.4104458402273451e-01
7996:-1.6130856481020617e-01
7997:-1.5497423801685326e-01
7998:-1.4673183078755170e-01
7999:-1.4043616044621046e-01
8000:-1.3777564461928002e-01
8001:-1.3096985341105583e-01
8002:-1.2225437387532050e-01
8003:-1.1570228563930680e-01
8004:-1.3787518932201334e-01
8005:-1.3124633609549458e-01
8006:-1.2274401050473335e-01
8007:-1.1634193373926131e-01
8008:-1.3760288878293134e-01
8009:-1.3120377481259715e-01
8010:-1.2297977590839097e-01
8011:-1.1677482805650087e-01
8012:-1.3709193002751158e-01
8013:-1.3086792927538987e-01
8014:-1.2285725344957044e-01
8015:-1.1680432862127292e-01
8016:-1.1225786830476896e-01
8017:-1.0590681445119805e-01
8018:-9.7845971662925191e-02
8019:-9.1840807325786575e-02
8020:-1.1297280062856042e-01
8021:-1.0675465101404849e-01
8022:-9.8851143185066895e-02
8023:-9.2954513366763969e-02
8024:-1.1350508860532268e-01
8025:-1.0746321478274211e-01
8026:-9.9769976340114738e-02
8027:-9.4019665545450160e-02
8028:-1.1361158337798578e-01
8029:-1.0770685242653483e-01
8030:-1.0017836034843255e-01
8031:-9.4543604673349269e-02
8032:-8.8702990777380392e-02
8033:-8.2949229716025918e-02
8034:-7.5708139838296259e-02
8035:-7.0360987839293843e-02
8036:-8.9870365970967703e-02
8037:-8.4210038367683940e-02
8038:-7.7076924065872937e-02
8039:-7.1802083919318235e-02
8040:-9.1008341038634699e-02
8041:-8.5475591529968614e-02
8042:-7.8491519499571630e-02
8043:-7.3317830061065015e-02
8044:-9.1590127373292515e-02
8045:-8.6159297499288467e-02
8046:-7.9295448161577603e-02
8047:-7.4204300377692212e-02
8048:-6.7583699667605357e-02
8049:-6.2519593164320458e-02
8050:-5.6202088632450999e-02
8051:-5.1580184663183017e-02
8052:-6.9059726286221354e-02
8053:-6.4055005181201954e-02
8054:-5.7803232065714354e-02
8055:-5.3222912493992997e-02
8056:-7.0624851402160627e-02
8057:-6.5704999345021581e-02
8058:-5.9549056531660823e-02
8059:-5.5031000998137306e-02
8060:-7.1551979272267432e-02
8061:-6.6702642795549313e-02
8062:-6.0627616591448594e-02
8063:-5.6163232389628504e-02
8064:-4.9195056235494007e-02
8065:-4.4873090815749105e-02
8066:-3.9534730916777450e-02
8067:-3.5671100214836791e-02
8068:-5.0856917778864398e-02
8069:-4.6565745739121506e-02
8070:-4.1257813077372474e-02
8071:-3.7410189657840813e-02
8072:-5.2694325759271701e-02
8073:-4.8451594204391983e-02
8074:-4.3194284971947106e-02
8075:-3.9376007654433998e-02
8076:-5.3852268003374025e-02
8077:-4.9652819192376400e-02
8078:-4.4442467493792021e-02
8079:-4.0653014901131705e-02
8080:-3.3692478626916648e-02
8081:-3.0134168456213636e-02
8082:-2.5792785614302587e-02
8083:-2.2693478748022057e-02
8084:-3.5437577698695204e-02
8085:-3.1886299583085025e-02
8086:-2.7545982561025986e-02
8087:-2.4441395443024639e-02
8088:-3.7415768577147339e-02
8089:-3.3882171435280398e-02
8090:-2.9554320897155956e-02
8091:-2.6451299443323070e-02
8092:-3.8705655709238715e-02
8093:-3.5191992274687951e-02
8094:-3.0882019654251490e-02
8095:-2.7786561191679056e-02
8096:-2.1121978888254164e-02
8097:-1.8324041161559803e-02
8098:-1.4966865614390661e-02
8099:-1.2615714928020424e-02
8100:-2.2864974463639037e-02
8101:-2.0054218596877622e-02
8102:-1.6673436002696836e-02
8103:-1.4298987720193302e-02
8104:-2.4872945405464475e-02
8105:-2.2053833310975313e-02
8106:-1.8653054488493286e-02
8107:-1.6256397955646311e-02
8108:-2.6210106233905153e-02
8109:-2.3390900656876764e-02
8110:-1.9982959215878376e-02
8111:-1.7575479578681143e-02
8112:-1.1440499714236451e-02
8113:-9.3785131451601771e-03
8114:-6.9656896735670586e-03
8115:-5.3260324076222082e-03
8116:-1.3109546519788606e-02
8117:-1.1017715397964605e-02
8118:-8.5598603810174111e-03
8119:-6.8810543488878259e-03
8120:-1.5052725916843784e-02
8121:-1.2930030118709055e-02
8122:-1.0423858508201581e-02
8123:-8.7018993948984828e-03
8124:-1.6364181959284976e-02
8125:-1.4223954898314611e-02
8126:-1.1688679655411061e-02
8127:-9.9396749710992296e-03
8128:-4.5253879259401541e-03
8129:-3.1543017292827119e-03
8130:-1.6184505195205100e-03
8131:-6.3194653651462763e-04
8132:-6.0579217235271314e-03
8133:-4.6417121566791749e-03
8134:-3.0412787885993509e-03
8135:-2.0009037123822292e-03
8136:-7.8536254235074578e-03
8137:-6.3864200090106285e-03
8138:-4.7120175279571413e-03
8139:-3.6092659892605779e-03
8140:-9.0753292303307562e-03
8141:-7.5750422379309490e-03
8142:-5.8518017686090560e-03
8143:-4.7072874350197660e-03
8144:-1.7233795063268084e-04
8145:5.7614965278831654e-04
8146:1.3351061297729061e-03
8147:1.7538127539870624e-03
8148:-1.5110388629216735e-03
8149:-7.0288094003123950e-04
8150:1.3962720001931084e-04
8151:6.2676083897951105e-04
8152:-3.0841555801670068e-03
8153:-2.2061927208483602e-03
8154:-1.2654263247885934e-03
8155:-6.9746987939956493e-04
8156:-4.1583991529800758e-03
8157:-3.2330952038748403e-03
8158:-2.2252588103681787e-03
8159:-1.6018411001812733e-03
8160:1.9210611356593884e-03
8161:2.1452583075488064e-03
8162:2.2698540868136123e-03
8163:2.2413301801817360e-03
8164:8.3204131972128043e-04
8165:1.1306444712247030e-03
8166:1.3583449214575837e-03
8167:1.4135064328348078e-03
8168:-4.4716209850269409e-04
8169:-6.0391974525608788e-05
8170:2.8957329309926215e-04
8171:4.4401130491070976e-04
8172:-1.3205479076739246e-03
8173:-8.7304525671856332e-04
8174:-4.3878831334415896e-04
8175:-2.1587798392458372e-04
8176:2.1847198280913736e-03
8177:2.0235389564485736e-03
8178:1.7165007313348496e-03
8179:1.4132223679480436e-03
8180:1.4031689654566376e-03
8181:1.3321922296389694e-03
8182:1.1495810595357251e-03
8183:9.4690204845557539e-04
8184:4.8856500874377648e-04
8185:5.2443139671206067e-04
8186:4.8882020880407293e-04
8187:4.0467594319253298e-04
8188:-1.3346889035672273e-04
8189:-2.4060497737609778e-05
8190:4.1179934138021845e-05
8191:3.8083619880166492e-05
8192:1.2309287392105804e-03
8193:8.8085354901802518e-04
8194:4.2334652446697507e-04
8195:8.0475311201246634e-05
8196:8.2011213104442782e-04
8197:5.7810056123162900e-04
8198:2.6943603526928577e-04
8199:4.6762243002965369e-05
8200:3.4315835171491569e-04
8201:2.2782129890344514e-04
8202:9.2787411729291629e-05
8203:9.6781749533006832e-06
8204:2.1085424646141027e-05
8205:-8.2050941334077204e-06
8206:-2.6028377136088647e-05
8207:-1.5488734629689889e-05
8208:-3.9322063998959754e-03
8209:-1.8712056572689182e-02
8210:-3.7832783791836723e-02
8211:-5.2340723050607142e-02
8212:-3.7836070314953541e-03
8213:-1.8004714296189349e-02
8214:-3.6405993008563724e-02
8215:-5.0371459535380504e-02
8216:-3.5986923216017744e-03
8217:-1.7124761254563241e-02
8218:-3.4630682728836494e-02
8219:-4.7920722017539961e-02
8220:-3.4634256427177714e-03
8221:-1.6481107786708738e-02
8222:-3.3331685596781492e-02
8223:-4.6127016413796677e-02
8224:-6.0008111470722464e-02
8225:-7.4174564012160868e-02
8226:-9.2183228152771371e-02
8227:-1.0560293508053695e-01
8228:-5.7753693904096119e-02
8229:-7.1397989527188607e-02
8230:-8.8753246890543244e-02
8231:-1.0169484238478725e-01
8232:-5.4947774678129967e-02
8233:-6.7940965343443183e-02
8234:-8.4479944708702612e-02
8235:-9.6823067489316753e-02
8236:-5.2893783016028650e-02
8237:-6.5409314580989392e-02
8238:-8.1348395530694700e-02
8239:-9.3250852304315984e-02
8240:-1.1260821893301529e-01
8241:-1.2538914781949828e-01
8242:-1.4131745434933765e-01
8243:-1.5293927200385596e-01
8244:-1.0845400098066654e-01
8245:-1.2079376969859919e-01
8246:-1.3618897831793042e-01
8247:-1.4743575711159984e-01
8248:-1.0327369690474322e-01
8249:-1.1505940622957431e-01
8250:-1.2978282961778517e-01
8251:-1.4055505852776462e-01
8252:-9.9473990562688339e-02
8253:-1.1085038269678744e-01
8254:-1.2507580678217817e-01
8255:-1.3549477695381662e-01
8256:-1.5891731378397769e-01
8257:-1.6966668836023482e-01
8258:-1.8275297292810694e-01
8259:-1.9205680572062522e-01
8260:-1.5322625006855412e-01
8261:-1.6364928253885241e-01
8262:-1.7636073575562958e-01
8263:-1.8541659646735217e-01
8264:-1.4610745840757694e-01
8265:-1.5611450471553931e-01
8266:-1.6834464727610829e-01
8267:-1.7707912208869908e-01
8268:-1.4086934860110692e-01
8269:-1.5056443407068004e-01
8270:-1.6243101544788560e-01
8271:-1.7092054105105806e-01
8272:-1.9675350907900813e-01
8273:-2.0503934499569118e-01
8274:-2.1480828946359137e-01
8275:-2.2149761193908274e-01
8276:-1.8999519437395918e-01
8277:-1.9808623845728113e-01
8278:-2.0765355674619734e-01
8279:-2.1422840772267160e-01
8280:-1.8150345608573037e-01
8281:-1.8933762962620251e-01
8282:-1.9863368218341737e-01
8283:-2.0504938624417862e-01
8284:-1.7522643115152950e-01
8285:-1.8286160949603925e-01
8286:-1.9194365315301945e-01
8287:-1.9823019101186720e-01
8288:-2.2477905294443848e-01
8289:-2.3039582758215971e-01
8290:-2.3666826992237047e-01
8291:-2.4067307998850399e-01
8292:-2.1746292408231252e-01
8293:-2.2301672191159139e-01
8294:-2.2925523807970313e-01
8295:-2.3327037406828433e-01
8296:-2.0821624808773509e-01
8297:-2.1367385004822803e-01
8298:-2.1984613933418778e-01
8299:-2.2385522849254780e-01
8300:-2.0134049934227477e-01
8301:-2.0671412361361302e-01
8302:-2.1281961410059719e-01
8303:-2.1680982145496422e-01
8304:-2.4252535937776970e-01
8305:-2.4548700783993815e-01
8306:-2.4835709931008790e-01
8307:-2.4980612085659074e-01
8308:-2.3514071032841699e-01
8309:-2.3815717425969116e-01
8310:-2.4113838886523725e-01
8311:-2.4270204465433010e-01
8312:-2.2573782527372141e-01
8313:-2.2880332987948890e-01
8314:-2.3189791177277189e-01
8315:-2.3358527316847977e-01
8316:-2.1869357141006937e-01
8317:-2.2178025931690634e-01
8318:-2.2493865562612209e-01
8319:-2.2670196009660232e-01
8320:-2.5031711683635133e-01
8321:-2.5081916241225199e-01
8322:-2.5059895942163046e-01
8323:-2.4977309436453740e-01
8324:-2.4328414161994558e-01
8325:-2.4393505782452624e-01
8326:-2.4393773598068025e-01
8327:-2.4330369935135654e-01
8328:-2.3424584032206683e-01
8329:-2.3506364962090653e-01
8330:-2.3532064607479675e-01
8331:-2.3490842134897560e-01
8332:-2.2741223943307420e-01
8333:-2.2833800580416319e-01
8334:-2.2876328017866776e-01
8335:-2.2850026028623099e-01
8336:-2.4910639668605800e-01
8337:-2.4747540475130930e-01
8338:-2.4462617108768409e-01
8339:-2.4190404742238189e-01
8340:-2.4274621340915081e-01
8341:-2.4132979377439689e-01
8342:-2.3877784412386066e-01
8343:-2.3629600163337316e-01
8344:-2.3447812599984516e-01
8345:-2.3331312321309999e-01
8346:-2.3111228251722510e-01
8347:-2.2891617988676391e-01
8348:-2.2815626831517863e-01
8349:-2.2716309189338840e-01
8350:-2.2520444433672354e-01
8351:-2.2320700426427345e-01
8352:-2.4026946288315043e-01
8353:-2.3690816723238772e-01
8354:-2.3197037572001367e-01
8355:-2.2777629930840626e-01
8356:-2.3479345609423280e-01
8357:-2.3168425534927667e-01
8358:-2.2708246972216339e-01
8359:-2.2315062997498336e-01
8360:-2.2757129507151611e-01
8361:-2.2476422912016572e-01
8362:-2.2056727726346897e-01
8363:-2.1695297091602778e-01
8364:-2.2197224331897594e-01
8365:-2.1937710495307533e-01
8366:-2.1546580590016326e-01
8367:-2.1207679910151417e-01
8368:-2.2540282081996890e-01
8369:-2.2074123511348351e-01
8370:-2.1427439929862649e-01
8371:-2.0903494378948922e-01
8372:-2.2091821706740419e-01
8373:-2.1652121257488557e-01
8374:-2.1039831850034649e-01
8375:-2.0542103017395832e-01
8376:-2.1489191461358273e-01
8377:-2.1081730745239249e-01
8378:-2.0511541454816959e-01
8379:-2.0046043411583250e-01
8380:-2.1013775345896690e-01
8381:-2.0629347925564559e-01
8382:-2.0089383165366961e-01
8383:-1.9647131747865487e-01
8384:-2.0614858384395843e-01
8385:-2.0060475275905604e-01
8386:-1.9314116926941904e-01
8387:-1.8725373900250253e-01
8388:-2.0267362742850242e-01
8389:-1.9738722059483516e-01
8390:-1.9025225323990960e-01
8391:-1.8461080569042465e-01
8392:-1.9788434581339179e-01
8393:-1.9291616496198416e-01
8394:-1.8618909755371735e-01
8395:-1.8085425677349259e-01
8396:-1.9401915763317690e-01
8397:-1.8928184809182230e-01
8398:-1.8285200507599761e-01
8399:-1.7774156696548887e-01
8400:-1.8406225212300145e-01
8401:-1.7801607442146231e-01
8402:-1.7003118710475412e-01
8403:-1.6384447954225864e-01
8404:-1.8154815647798303e-01
8405:-1.7573827556914229e-01
8406:-1.6805059539500855e-01
8407:-1.6208305890378974e-01
8408:-1.7795265253781686e-01
8409:-1.7243897693745514e-01
8410:-1.6512546335315231e-01
8411:-1.5943506384098691e-01
8412:-1.7495817973791739e-01
8413:-1.6966257574154389e-01
8414:-1.6262574856831419e-01
8415:-1.5714119733739743e-01
8416:-1.6052799936799200e-01
8417:-1.5430573033600600e-01
8418:-1.4620208190657311e-01
8419:-1.4000705405305280e-01
8420:-1.5888024880708107e-01
8421:-1.5286474404002862e-01
8422:-1.4501787950264416e-01
8423:-1.3900968310780226e-01
8424:-1.5637641163621213e-01
8425:-1.5062387352477474e-01
8426:-1.4310504515369235e-01
8427:-1.3733665195121073e-01
8428:-1.5418993895890584e-01
8429:-1.4863387450556559e-01
8430:-1.4136124733427025e-01
8431:-1.3577369288361338e-01
8432:-1.3671442623813890e-01
8433:-1.3058334699479099e-01
8434:-1.2268627746205903e-01
8435:-1.1671463603658826e-01
8436:-1.3581306082087868e-01
8437:-1.2985524007907906e-01
8438:-1.2217073625910645e-01
8439:-1.1635175552228882e-01
8440:-1.3426366271239304e-01
8441:-1.2852968927039601e-01
8442:-1.2112123007867594e-01
8443:-1.1550158884685598e-01
8444:-1.3279424490759106e-01
8445:-1.2723018324754631e-01
8446:-1.2003231122967220e-01
8447:-1.1456554832660995e-01
8448:-1.1356317556273250e-01
8449:-1.0773218236939704e-01
8450:-1.0029265960990950e-01
8451:-9.4720614127203354e-02
8452:-1.1327803909390555e-01
8453:-1.0758625336461396e-01
8454:-1.0031538092969043e-01
8455:-9.4862754662451157e-02
8456:-1.1252977745883634e-01
8457:-1.0702113241824129e-01
8458:-9.9973451468620605e-02
8459:-9.4679905704150177e-02
8460:-1.1167217739417490e-01
8461:-1.0630500513162702e-01
8462:-9.9430717977388700e-02
8463:-9.4261531624907746e-02
8464:-9.1798641346282808e-02
8465:-8.6423512769022784e-02
8466:-7.9625754770508025e-02
8467:-7.4580298276476276e-02
8468:-9.2000976985182753e-02
8469:-8.6732628988040364e-02
8470:-8.0062267292397002e-02
8471:-7.5105444546693198e-02
8472:-9.1898697107726329e-02
8473:-8.6773940179313128e-02
8474:-8.0276207766200522e-02
8475:-7.5440537562148496e-02
8476:-9.1543588351266927e-02
8477:-8.6532072970466334e-02
8478:-8.0171439939662262e-02
8479:-7.5432743524378329e-02
8480:-7.1950602108968351e-02
8481:-6.7140711590089996e-02
8482:-6.1111364063692053e-02
8483:-5.6677624104171910e-02
8484:-7.2519845860462492e-02
8485:-6.7787198691299205e-02
8486:-6.1848025748384647e-02
8487:-5.7475384775760384e-02
8488:-7.2915603426533984e-02
8489:-6.8289892221700024e-02
8490:-6.2476908087536809e-02
8491:-5.8190882795965286e-02
8492:-7.2956644539820134e-02
8493:-6.8417500326969610e-02
8494:-6.2707633654251291e-02
8495:-5.8493175483885364e-02
8496:-5.4381474861977176e-02
8497:-5.0207212354113268e-02
8498:-4.5024702810384308e-02
8499:-4.1252804514188356e-02
8500:-5.5209008808617774e-02
8501:-5.1085787142266345e-02
8502:-4.5960584405129540e-02
8503:-4.2225591853151549e-02
8504:-5.5967143142326439e-02
8505:-5.1917784481665744e-02
8506:-4.6877100600728153e-02
8507:-4.3197907345362094e-02
8508:-5.6304963525342776e-02
8509:-5.2317684385942045e-02
8510:-4.7349119119214168e-02
8511:-4.3718454406229221e-02
8512:-3.9313487496682162e-02
8513:-3.5812663710101202e-02
8514:-3.1515114465442320e-02
8515:-2.8425904323874103e-02
8516:-4.0303504246683983e-02
8517:-3.6830810331039909e-02
8518:-3.2561873259316296e-02
8519:-2.9488467257680392e-02
8520:-4.1302426435291258e-02
8521:-3.7874231806772123e-02
8522:-3.3652878260361827e-02
8523:-3.0607994250209058e-02
8524:-4.1846476754184597e-02
8525:-3.8458270017870756e-02
8526:-3.4281128735512645e-02
8527:-3.1264078789182442e-02
8528:-2.6851641169269171e-02
8529:-2.4034591051603028e-02
8530:-2.0625690636215541e-02
8531:-1.8214617452350486e-02
8532:-2.7920494072466235e-02
8533:-2.5111571056906219e-02
8534:-2.1706184640678368e-02
8535:-1.9292425377275931e-02
8536:-2.9052448617043921e-02
8537:-2.6262049130830176e-02
8538:-2.2871564556379523e-02
8539:-2.0462184518904403e-02
8540:-2.9721251123715282e-02
8541:-2.6951042472514820e-02
8542:-2.3579791409611715e-02
8543:-2.1179740721798384e-02
8544:-1.7000408575588169e-02
8545:-1.4852992072814252e-02
8546:-1.2304998388975499e-02
8547:-1.0543706359430924e-02
8548:-1.8074908787865791e-02
8549:-1.5918035270270119e-02
8550:-1.3351418352434185e-02
8551:-1.1571071344714936e-02
8552:-1.9244542268941810e-02
8553:-1.7083175493424922e-02
8554:-1.4502463179175964e-02
8555:-1.2705047509690464e-02
8556:-1.9965177690415302e-02
8557:-1.7806314903759651e-02
8558:-1.5222537625635545e-02
8559:-1.3417952969814937e-02
8560:-9.6719242386774963e-03
8561:-8.1561283130310493e-03
8562:-6.4096395341401869e-03
8563:-5.2450098201867685e-03
8564:-1.0687462791837269e-02
8565:-9.1465675984288182e-03
8566:-7.3617036373800496e-03
8567:-6.1633752779510541e-03
8568:-1.1810153471965380e-02
8569:-1.0244308118029111e-02
8570:-8.4196006332229179e-03
8571:-7.1851874499326970e-03
8572:-1.2517555091259784e-02
8573:-1.0938504460057664e-02
8574:-9.0910178203637958e-03
8575:-7.8349274279973461e-03
8576:-4.6845966386921114e-03
8577:-3.7362482090298596e-03
8578:-2.6955928694121119e-03
8579:-2.0449217051246118e-03
8580:-5.5835041204405139e-03
8581:-4.5960418666714112e-03
8582:-3.4993241013437453e-03
8583:-2.8018567952801036e-03
8584:-6.5841512381525002e-03
8585:-5.5536931183089279e-03
8586:-4.3945719003454543e-03
8587:-3.6444962215181603e-03
8588:-7.2208719062756728e-03
8589:-6.1635534605907569e-03
8590:-4.9647439787170984e-03
8591:-4.1807451573796532e-03
8592:-1.7483682936344405e-03
8593:-1.2709317701814968e-03
8594:-7.9510217377872828e-04
8595:-5.3841064285746281e-04
8596:-2.4790288026016291e-03
8597:-1.9500010455008143e-03
8598:-1.4024570049173814e-03
8599:-1.0874633645818908e-03
8600:-3.2919763415367458e-03
8601:-2.7045340761830817e-03
8602:-2.0756505446390288e-03
8603:-1.6944664504537712e-03
8604:-3.8089428554465075e-03
8605:-3.1834642398044593e-03
8606:-2.5014910352976634e-03
8607:-2.0770475621899047e-03
8608:-4.3732720255949538e-04
8609:-2.9169726310840995e-04
8610:-1.7691792790033479e-04
8611:-1.4031365005618746e-04
8612:-9.5415181330919308e-04
8613:-7.4612275789428899e-04
8614:-5.4626281837639459e-04
8615:-4.4169005124620152e-04
8616:-1.5245682189451684e-03
8617:-1.2459356708504042e-03
8618:-9.5035623349656948e-04
8619:-7.6977033759906440e-04
8620:-1.8832388408985788e-03
8621:-1.5586682656450811e-03
8622:-1.2012865748018472e-03
8623:-9.7202095200887915e-04
8624:-1.3554892547273259e-04
8625:-1.2291823719379338e-04
8626:-8.3933693939302259e-05
8627:-2.8236480091139764e-05
8628:-3.9975360540314399e-04
8629:-3.1580905134924420e-04
8630:-1.8080586872535031e-04
8631:-4.9278238957230337e-05
8632:-6.8644776987745787e-04
8633:-5.2373602582874866e-04
8634:-2.8404289468991615e-04
8635:-7.0938045918558592e-05
8636:-8.6235861797021301e-04
8637:-6.5009245919151056e-04
8638:-3.4578965003837425e-04
8639:-8.3363004709832575e-05
8640:-3.3934788636754572e-03
8641:-1.6148242167985310e-02
8642:-3.2659716196492113e-02
8643:-4.5198916623475804e-02
8644:-3.2655445962674889e-03
8645:-1.5539404404232491e-02
8646:-3.1430384039724570e-02
8647:-4.3500706535023297e-02
8648:-3.1045854954467587e-03
8649:-1.4773431348929628e-02
8650:-2.9883392100075085e-02
8651:-4.1363183996524854e-02
8652:-2.9853799459675706e-03
8653:-1.4206227954476010e-02
8654:-2.8737620552064157e-02
8655:-3.9779722935288780e-02
8656:-5.1830865559546746e-02
8657:-6.4098820060169023e-02
8658:-7.9726617804974087e-02
8659:-9.1400141636395635e-02
8660:-4.9885767872599435e-02
8661:-6.1700066036422294e-02
8662:-7.6756882552108191e-02
8663:-8.8009992753501007e-02
8664:-4.7437147429038901e-02
8665:-5.8679273578400609e-02
8666:-7.3014795291563461e-02
8667:-8.3735864348303407e-02
8668:-4.5622999673788869e-02
8669:-5.6440444066468025e-02
8670:-7.0239721241553976e-02
8671:-8.0564513131535592e-02
8672:-9.7504989970814734e-02
8673:-1.0866827185929918e-01
8674:-1.2263381539051170e-01
8675:-1.3286792656185217e-01
8676:-9.3897420408554810e-02
8677:-1.0466848725033069e-01
8678:-1.1815468532495507e-01
8679:-1.2804698214766280e-01
8680:-8.9347764445180472e-02
8681:-9.9620814000826299e-02
8682:-1.1249636072696051e-01
8683:-1.2195162107390004e-01
8684:-8.5970903317309375e-02
8685:-9.5871760820184879e-02
8686:-1.0828945239685699e-01
8687:-1.1741585326923430e-01
8688:-1.3814923783803043e-01
8689:-1.4768028512120501e-01
8690:-1.5935480532194790e-01
8691:-1.6771418837273255e-01
8692:-1.3315552923091914e-01
8693:-1.4238200899422626e-01
8694:-1.5369848298423627e-01
8695:-1.6181401427871223e-01
8696:-1.2683867663468537e-01
8697:-1.3567339468932815e-01
8698:-1.4652659042100022e-01
8699:-1.5432427365649357e-01
8700:-1.2213579936055229e-01
8701:-1.3067398376049044e-01
8702:-1.4117449172064728e-01
8703:-1.4872848605526354e-01
8704:-1.7195685644361239e-01
8705:-1.7948522456619595e-01
8706:-1.8845111997349359e-01
8707:-1.9466638258772292e-01
8708:-1.6593772599123574e-01
8709:-1.7326411567890979e-01
8710:-1.8200822064105648e-01
8711:-1.8808543839605044e-01
8712:-1.5829200102256524e-01
8713:-1.6535164863358273e-01
8714:-1.7379882654890258e-01
8715:-1.7968764969082399e-01
8716:-1.5257594094167948e-01
8717:-1.5942853251813291e-01
8718:-1.6764230832395194e-01
8719:-1.7338048104751166e-01
8720:-1.9774496478150871e-01
8721:-2.0307037699493274e-01
8722:-2.0913486072539497e-01
8723:-2.1311020513483328e-01
8724:-1.9110173216990559e-01
8725:-1.9633073148404073e-01
8726:-2.0230905629076631e-01
8727:-2.0624837832170903e-01
8728:-1.8261740551530647e-01
8729:-1.8770929837610190e-01
8730:-1.9355776523235915e-01
8731:-1.9743474200288724e-01
8732:-1.7623996366325417e-01
8733:-1.8121833772412430e-01
8734:-1.8695434138985001e-01
8735:-1.9077220279458895e-01
8736:-2.1499179310144129e-01
8737:-2.1808424473182661e-01
8738:-2.2126887572281129e-01
8739:-2.2306629505989506e-01
8740:-2.0812121579245260e-01
8741:-2.1121515748143052e-01
8742:-2.1443591097608883e-01
8743:-2.1628662467496981e-01
8744:-1.9928732211075689e-01
8745:-2.0236565895654471e-01
8746:-2.0560890414966956e-01
8747:-2.0750901520965154e-01
8748:-1.9260274368115227e-01
8749:-1.9565620386818824e-01
8750:-1.9889857686872725e-01
8751:-2.0082176532160917e-01
8752:-2.2379955326479567e-01
8753:-2.2477612581430503e-01
8754:-2.2528209242893660e-01
8755:-2.2509156610183631e-01
8756:-2.1705707092093962e-01
8757:-2.1811761586368569e-01
8758:-2.1875978862603115e-01
8759:-2.1869338137122232e-01
8760:-2.0831684670307096e-01
8761:-2.0946561888840717e-01
8762:-2.1025694821292518e-01
8763:-2.1033011803941351e-01
8764:-2.0165008284810779e-01
8765:-2.0285083060180178e-01
8766:-2.0373554465664689e-01
8767:-2.0389930308763185e-01
8768:-2.2478979170227620e-01
8769:-2.2388113263559511e-01
8770:-2.2204245014689972e-01
8771:-2.2014399245706834e-01
8772:-2.1846440831851408e-01
8773:-2.1770233281455456e-01
8774:-2.1607322178180632e-01
8775:-2.1434872252205500e-01
8776:-2.1018408090761292e-01
8777:-2.0959070395936039e-01
8778:-2.0820584024251737e-01
8779:-2.0668618314962006e-01
8780:-2.0380800391383175e-01
8781:-2.0332740212859624e-01
8782:-2.0210835753388215e-01
8783:-2.0072949202870513e-01
8784:-2.1896428780399566e-01
8785:-2.1647543060346303e-01
8786:-2.1270800550981236e-01
8787:-2.0943292918225326e-01
8788:-2.1326611513675300e-01
8789:-2.1096528782610305e-01
8790:-2.0745350319956032e-01
8791:-2.0438165457742563e-01
8792:-2.0571858797859469e-01
8793:-2.0364166265597569e-01
8794:-2.0043647379489710e-01
8795:-1.9760992114526288e-01
8796:-1.9984149703858572e-01
8797:-1.9792048353124805e-01
8798:-1.9493053669233693e-01
8799:-1.9227743061644856e-01
8800:-2.0755573742261232e-01
8801:-2.0382850990576790e-01
8802:-1.9858297513652021e-01
8803:-1.9427937563872535e-01
8804:-2.0261506221306144e-01
8805:-1.9909760030941509e-01
8806:-1.9412916712745523e-01
8807:-1.9004005338378421e-01
8808:-1.9597734232204461e-01
8809:-1.9271499222837282e-01
8810:-1.8808534793202339e-01
8811:-1.8425978790674297e-01
8812:-1.9074002237384827e-01
8813:-1.8765958383555034e-01
8814:-1.8327292618198951e-01
8815:-1.7963742870575630e-01
8816:-1.9189073960342676e-01
8817:-1.8727201148218947e-01
8818:-1.8099529588116473e-01
8819:-1.7600082074615303e-01
8820:-1.8776622708810686e-01
8821:-1.8336225218868102e-01
8822:-1.7736368482059930e-01
8823:-1.7258046921185094e-01
8824:-1.8212749192274141e-01
8825:-1.7798910163800152e-01
8826:-1.7233613707863049e-01
8827:-1.6781661099943726e-01
8828:-1.7760755352437918e-01
8829:-1.7366201748920099e-01
8830:-1.6826126162869265e-01
8831:-1.6393508562723655e-01
8832:-1.7327864774651666e-01
8833:-1.6809618841609267e-01
8834:-1.6120334445065002e-01
8835:-1.5582623157102773e-01
8836:-1.6997002940719927e-01
8837:-1.6499447901392153e-01
8838:-1.5836568686519667e-01
8839:-1.5318617308897262e-01
8840:-1.6534604662924027e-01
8841:-1.6063027463357002e-01
8842:-1.5433446223937722e-01
8843:-1.4940523243480966e-01
8844:-1.6156740017256854e-01
8845:-1.5704328023916450e-01
8846:-1.5099424920960713e-01
8847:-1.4625136012135945e-01
8848:-1.5293113584186807e-01
8849:-1.4747802145917835e-01
8850:-1.4033479431655652e-01
8851:-1.3484258836296908e-01
8852:-1.5039457122717226e-01
8853:-1.4513153979052471e-01
8854:-1.3822794752833800e-01
8855:-1.3291285927146215e-01
8856:-1.4674510780347472e-01
8857:-1.4172427544861288e-01
8858:-1.3512740273398180e-01
8859:-1.3004005790801718e-01
8860:-1.4368942005491575e-01
8861:-1.3885000509405199e-01
8862:-1.3248392565893019e-01
8863:-1.2756873280243775e-01
8864:-1.3191256824374517e-01
8865:-1.2643847930072918e-01
8866:-1.1935248332201996e-01
8867:-1.1396721583243642e-01
8868:-1.3007484639021619e-01
8869:-1.2476857451667722e-01
8870:-1.1789190409687322e-01
8871:-1.1265962261044327e-01
8872:-1.2732071618194771e-01
8873:-1.2223154826832248e-01
8874:-1.1562694665441656e-01
8875:-1.1059448000227116e-01
8876:-1.2493936884139474e-01
8877:-1.2001530692024596e-01
8878:-1.1361856975616497e-01
8879:-1.0873949692857407e-01
8880:-1.1111575774876797e-01
8881:-1.0582435251364414e-01
8882:-9.9043268307374255e-02
8883:-9.3941193561947106e-02
8884:-1.0988702516763761e-01
8885:-1.0473850181956267e-01
8886:-9.8133807676478849e-02
8887:-9.3159229366167995e-02
8888:-1.0792522968004538e-01
8889:-1.0296457502724057e-01
8890:-9.6593009954242331e-02
8891:-9.1787864444439024e-02
8892:-1.0614984418266354e-01
8893:-1.0133434916249782e-01
8894:-9.5143808154493692e-02
8895:-9.0470909681666462e-02
8896:-9.1257488031148110e-02
8897:-8.6307422549755042e-02
8898:-8.0021509277860975e-02
8899:-7.5335917890227339e-02
8900:-9.0540741500493696e-02
8901:-8.5708029754574602e-02
8902:-7.9565401301966238e-02
8903:-7.4982109871636352e-02
8904:-8.9256375878195793e-02
8905:-8.4580787294688931e-02
8906:-7.8631124904545824e-02
8907:-7.4186486738397769e-02
8908:-8.8007568963836991e-02
8909:-8.3455482968116265e-02
8910:-7.7658326182343987e-02
8911:-7.3323916301329395e-02
8912:-7.2886654676321549e-02
8913:-6.8395242356870889e-02
8914:-6.2742554820143931e-02
8915:-5.8568040813385666e-02
8916:-7.2584712036139892e-02
8917:-6.8185849407636820e-02
8918:-6.2644619158770065e-02
8919:-5.8548439387319039e-02
8920:-7.1859706682300697e-02
8921:-6.7587419835082443e-02
8922:-6.2199734645302894e-02
8923:-5.8212353074732777e-02
8924:-7.1053511028756622e-02
8925:-6.6882679669553302e-02
8926:-6.1618868161865556e-02
8927:-5.7719893319351706e-02
8928:-5.6399755642386716e-02
8929:-5.2447467428920404e-02
8930:-4.7519898621749927e-02
8931:-4.3917109428613849e-02
8932:-5.6419408236646776e-02
8933:-5.2536357942984779e-02
8934:-4.7690533437160537e-02
8935:-4.4143842352952281e-02
8936:-5.6138168440812257e-02
8937:-5.2352433150661133e-02
8938:-4.7622655750886027e-02
8939:-4.4156552608760051e-02
8940:-5.5690507684601515e-02
8941:-5.1984667865695645e-02
8942:-4.7350980259041726e-02
8943:-4.3952269477193120e-02
8944:-4.2058744985404475e-02
8945:-3.8693907192526911e-02
8946:-3.4543040555607550e-02
8947:-3.1542919577045934e-02
8948:-4.2313073320834844e-02
8949:-3.8995973020486581e-02
8950:-3.4899541749845428e-02
8951:-3.1935157467412066e-02
8952:-4.2365789373426728e-02
8953:-3.9118557159414175e-02
8954:-3.5103163228135004e-02
8955:-3.2193152209849821e-02
8956:-4.2195212532271008e-02
8957:-3.9007298915844799e-02
8958:-3.5061630995444161e-02
8959:-3.2199183617628677e-02
8960:-3.0007990482109198e-02
8961:-2.7250646978979887e-02
8962:-2.3892391317597125e-02
8963:-2.1499412868854002e-02
8964:-3.0417174953903229e-02
8965:-2.7687966220214522e-02
8966:-2.4359310299023166e-02
8967:-2.1983596353716568e-02
8968:-3.0701426934974269e-02
8969:-2.8016718785249708e-02
8970:-2.4736856214743454e-02
8971:-2.2391459812735354e-02
8972:-3.0730735032342599e-02
8973:-2.8086056712744105e-02
8974:-2.4851322744657848e-02
8975:-2.2535083266314967e-02
8976:-2.0287607983160438e-02
8977:-1.8132172830970777e-02
8978:-1.5549486829472530e-02
8979:-1.3743164587669641e-02
8980:-2.0779092775257895e-02
8981:-1.8634074285576226e-02
8982:-1.6058624427867495e-02
8983:-1.4253007328879035e-02
8984:-2.1200629784533704e-02
8985:-1.9076973514854871e-02
8986:-1.6521076320540288e-02
8987:-1.4724101894488811e-02
8988:-2.1357883740270554e-02
8989:-1.9256500415022124e-02
8990:-1.6723258634569825e-02
8991:-1.4938760223611717e-02
8992:-1.2840941969746092e-02
8993:-1.1256938655025028e-02
8994:-9.4000451030443136e-03
8995:-8.1345079874225526e-03
8996:-1.3349469998183172e-02
8997:-1.1760136950583774e-02
8998:-9.8907794231016064e-03
8999:-8.6115065017356249e-03
9000:-1.3822954603733709e-02
9001:-1.2234376019319856e-02
9002:-1.0358831971919268e-02
9003:-9.0693781328619882e-03
9004:-1.4042553537282147e-02
9005:-1.2460384691695994e-02
9006:-1.0587710156308230e-02
9007:-9.2962919277459772e-03
9008:-7.5146416004866464e-03
9009:-6.4451529345840308e-03
9010:-5.2280551454384995e-03
9011:-4.4282260822294710e-03
9012:-7.9828703671435096e-03
9013:-6.8945958320069112e-03
9014:-5.6485700274866669e-03
9015:-4.8232520565517061e-03
9016:-8.4334356031607483e-03
9017:-7.3284893795543590e-03
9018:-6.0551240801189760e-03
9019:-5.2046698302845706e-03
9020:-8.6578658050456107e-03
9021:-7.5460381895701084e-03
9022:-6.2595243315253677e-03
9023:-5.3958815015611701e-03
9024:-4.0473680608541810e-03
9025:-3.4039831140555083e-03
9026:-2.6969625752118497e-03
9027:-2.2520842693498503e-03
9028:-4.4276830401465241e-03
9029:-3.7551032458224094e-03
9030:-3.0071007367943811e-03
9031:-2.5287113261266503e-03
9032:-4.7942947075183357e-03
9033:-4.0920803338634704e-03
9034:-3.3021302369245819e-03
9035:-2.7892518891202036e-03
9036:-4.9774368216661934e-03
9037:-4.2588159101813582e-03
9038:-3.4452855260081235e-03
9039:-2.9128249502667421e-03
9040:-2.0469805967871101e-03
9041:-1.7007924381185026e-03
9042:-1.3145238824184462e-03
9043:-1.0626706455284913e-03
9044:-2.3050767904602364e-03
9045:-1.9235827704048667e-03
9046:-1.4905303003592166e-03
9047:-1.2024379945287935e-03
9048:-2.5465209990757826e-03
9049:-2.1289894969283591e-03
9050:-1.6490427514256841e-03
9051:-1.3253827666366829e-03
9052:-2.6592232086913542e-03
9053:-2.2214990249811986e-03
9054:-1.7160884457474437e-03
9055:-1.3738452925043704e-03
9056:-9.4085576899285170e-04
9057:-7.0597419369600482e-04
9058:-3.7272969419821348e-04
9059:-8.8661881724844488e-05
9060:-1.0612724915424151e-03
9061:-7.9090874888745855e-04
9062:-4.1341722467219406e-04
9063:-9.7234030295474636e-05
9064:-1.1655526749970242e-03
9065:-8.6215158356595480e-04
9066:-4.4610490872488810e-04
9067:-1.0420418675629838e-04
9068:-1.2045864809072371e-03
9069:-8.8568486275954390e-04
9070:-4.5429246798351730e-04
9071:-1.0467096923902872e-04
9072:-2.9231798080138929e-03
9073:-1.3910306863612181e-02
9074:-2.8139786731896793e-02
9075:-3.8953418735767360e-02
9076:-2.8083010062923395e-03
9077:-1.3363812662556131e-02
9078:-2.7035551573940577e-02
9079:-3.7426970649325653e-02
9080:-2.6615854717455733e-03
9081:-1.2665945291114611e-02
9082:-2.5625077783966822e-02
9083:-3.5476754831354922e-02
9084:-2.5512589222187500e-03
9085:-1.2141216358209393e-02
9086:-2.4564244172697515e-02
9087:-3.4009634779127905e-02
9088:-4.4676244468727047e-02
9089:-5.5271803995626402e-02
9090:-6.8790598453148236e-02
9091:-7.8907860632335486e-02
9092:-4.2927144049287054e-02
9093:-5.3112302395725522e-02
9094:-6.6111791617902052e-02
9095:-7.5844412324772764e-02
9096:-4.0692180823420326e-02
9097:-5.0352009281269663e-02
9098:-6.2685786739606730e-02
9099:-7.1924564140664005e-02
9100:-3.9010628770466224e-02
9101:-4.8274502747959025e-02
9102:-6.0105792318807506e-02
9103:-6.8971247378194420e-02
9104:-8.4206524372781630e-02
9105:-9.3912032137314194e-02
9106:-1.0608890554726175e-01
9107:-1.1504193458310574e-01
9108:-8.0943259158698364e-02
9109:-9.0286022714839362e-02
9110:-1.0201488773588331e-01
9111:-1.1064470239483894e-01
9112:-7.6766578561175275e-02
9113:-8.5642343112062522e-02
9114:-9.6792864414602900e-02
9115:-1.0500414490220766e-01
9116:-7.3618896298026523e-02
9117:-8.2140689265992536e-02
9118:-9.2851673704321847e-02
9119:-1.0074391433185727e-01
9120:-1.1967363119279757e-01
9121:-1.2805488869983725e-01
9122:-1.3836806192158274e-01
9123:-1.4579203576984950e-01
9124:-1.1511161476432961e-01
9125:-1.2319926934703553e-01
9126:-1.3316075388182935e-01
9127:-1.4033965521071767e-01
9128:-1.0925717828763805e-01
9129:-1.1696265578486624e-01
9130:-1.2646410151601281e-01
9131:-1.3332058692743051e-01
9132:-1.0483354339171252e-01
9133:-1.1224622555993180e-01
9134:-1.2139357003507516e-01
9135:-1.2800054129028857e-01
9136:-1.4957508960963942e-01
9137:-1.5631634645315765e-01
9138:-1.6440364814914948e-01
9139:-1.7005934343558796e-01
9140:-1.4400094160419313e-01
9141:-1.5053092233686524e-01
9142:-1.5837660180490917e-01
9143:-1.6387332325987067e-01
9144:-1.3682096940992325e-01
9145:-1.4307033611318556e-01
9146:-1.5059208670535185e-01
9147:-1.5587308100457220e-01
9148:-1.3137588812068887e-01
9149:-1.3740615268410164e-01
9150:-1.4467280411378189e-01
9151:-1.4978204724759225e-01
9152:-1.7288000545159862e-01
9153:-1.7779497061944183e-01
9154:-1.8346660211840907e-01
9155:-1.8724909007606788e-01
9156:-1.6661858241023692e-01
9157:-1.7140923365969571e-01
9158:-1.7695212396332144e-01
9159:-1.8066141044817580e-01
9160:-1.5851495960952725e-01
9161:-1.6313306742063921e-01
9162:-1.6849267685087119e-01
9163:-1.7209339604654070e-01
9164:-1.5234086996663931e-01
9165:-1.5681887893036447e-01
9166:-1.6202648609720835e-01
9167:-1.6553422342138946e-01
9168:-1.8906566715505294e-01
9169:-1.9210147600652469e-01
9170:-1.9533723362450875e-01
9171:-1.9726770812380798e-01
9172:-1.8244790322620563e-01
9173:-1.8544295128922786e-01
9174:-1.8865568827179807e-01
9175:-1.9059124662443086e-01
9176:-1.7383323466229594e-01
9177:-1.7676056897852610e-01
9178:-1.7992315441810147e-01
9179:-1.8184910487340350e-01
9180:-1.6723278543955658e-01
9181:-1.7009741178923643e-01
9182:-1.7320664296443006e-01
9183:-1.7511322210248123e-01
9184:-1.9810417637241493e-01
9185:-1.9932732538670397e-01
9186:-2.0025472151263257e-01
9187:-2.0046121376265580e-01
9188:-1.9143828634872781e-01
9189:-1.9269445790895423e-01
9190:-1.9368994630905018e-01
9191:-1.9396727400619851e-01
9192:-1.8270102098283048e-01
9193:-1.8398328351140256e-01
9194:-1.8504502555371999e-01
9195:-1.8539719581452646e-01
9196:-1.7596229533440780e-01
9197:-1.7725202726746556e-01
9198:-1.7834792459705462e-01
9199:-1.7874454211507945e-01
9200:-2.0039610135702113e-01
9201:-1.9997001496611033e-01
9202:-1.9883211246201754e-01
9203:-1.9752280104294764e-01
9204:-1.9394627506761064e-01
9205:-1.9361310177232186e-01
9206:-1.9261535141798639e-01
9207:-1.9142739634206343e-01
9208:-1.8542431850791408e-01
9209:-1.8519476886687855e-01
9210:-1.8435718976046847e-01
9211:-1.8331042699539493e-01
9212:-1.7880162342058875e-01
9213:-1.7863858659887416e-01
9214:-1.7790714980583813e-01
9215:-1.7695606037698217e-01
9216:-1.9667433793433636e-01
9217:-1.9483110945167553e-01
9218:-1.9194919650650277e-01
9219:-1.8938360315341193e-01
9220:-1.9064828606475159e-01
9221:-1.8894216674232098e-01
9222:-1.8625186402807142e-01
9223:-1.8384231410234303e-01
9224:-1.8261277395548534e-01
9225:-1.8106899927808703e-01
9226:-1.7860794963058998e-01
9227:-1.7638675767221046e-01
9228:-1.7631424001366724e-01
9229:-1.7488280896128397e-01
9230:-1.7258233479642890e-01
9231:-1.7049440931639445e-01
9232:-1.8789436384051325e-01
9233:-1.8490626886160672e-01
9234:-1.8064347241128839e-01
9235:-1.7710523431945191e-01
9236:-1.8243923762574196e-01
9237:-1.7961682175723548e-01
9238:-1.7557718412243575e-01
9239:-1.7221484817698698e-01
9240:-1.7508823076262037e-01
9241:-1.7246783686498862e-01
9242:-1.6870214968914043e-01
9243:-1.6555707049093724e-01
9244:-1.6927028679592421e-01
9245:-1.6679444740386021e-01
9246:-1.6322623241823073e-01
9247:-1.6023879110366485e-01
9248:-1.7512789850407121e-01
9249:-1.7128152837900312e-01
9250:-1.6601090473844057e-01
9251:-1.6178481815371445e-01
9252:-1.7033276066574587e-01
9253:-1.6666658784227992e-01
9254:-1.6163322857384677e-01
9255:-1.5759021726142491e-01
9256:-1.6379306663400783e-01
9257:-1.6035111637312544e-01
9258:-1.5561455145925876e-01
9259:-1.5180169617959613e-01
9260:-1.5856081128054192e-01
9261:-1.5528284948794704e-01
9262:-1.5076456357358417e-01
9263:-1.4712186448106609e-01
9264:-1.5947050060309223e-01
9265:-1.5504600819472061e-01
9266:-1.4912566431037519e-01
9267:-1.4448024561666334e-01
9268:-1.5537371783256795e-01
9269:-1.5113221555101741e-01
9270:-1.4544896634564186e-01
9271:-1.4098366836256190e-01
9272:-1.4970856440231087e-01
9273:-1.4569859355826287e-01
9274:-1.4031674885027284e-01
9275:-1.3608147157598724e-01
9276:-1.4512024251156802e-01
9277:-1.4128258472215280e-01
9278:-1.3612613592784550e-01
9279:-1.3206366488982574e-01
9280:-1.4196976850748860e-01
9281:-1.3722563514337233e-01
9282:-1.3098113665115957e-01
9283:-1.2615690626282236e-01
9284:-1.3856847896779032e-01
9285:-1.3400111115028132e-01
9286:-1.2798282845554076e-01
9287:-1.2332834004483451e-01
9288:-1.3378832740694779e-01
9289:-1.2944802921123427e-01
9290:-1.2372161730365840e-01
9291:-1.1928709307643466e-01
9292:-1.2986248053583263e-01
9293:-1.2569378439239517e-01
9294:-1.2018891668537798e-01
9295:-1.1592207946108572e-01
9296:-1.2357518029851788e-01
9297:-1.1873870635630041e-01
9298:-1.1245257594588214e-01
9299:-1.0765538058931393e-01
9300:-1.2083568323908653e-01
9301:-1.1616329373274027e-01
9302:-1.1008498555359603e-01
9303:-1.0544209593863844e-01
9304:-1.1691019331942400e-01
9305:-1.1245167070345291e-01
9306:-1.0664541939584522e-01
9307:-1.0220541665594800e-01
9308:-1.1363367728755934e-01
9309:-1.0933912168508315e-01
9310:-1.0374233416574995e-01
9311:-9.9459199370218174e-02
9312:-1.0510830492949254e-01
9313:-1.0037061655092780e-01
9314:-9.4277413164370175e-02
9315:-8.9675858428308081e-02
9316:-1.0297542333312358e-01
9317:-9.8384955680928171e-02
9318:-9.2476487266424462e-02
9319:-8.8010761524653980e-02
9320:-9.9844771019843875e-02
9321:-9.5448998221912440e-02
9322:-8.9785907614016738e-02
9323:-8.5501416313693859e-02
9324:-9.7180761164783178e-02
9325:-9.2936358131250521e-02
9326:-8.7464838461068353e-02
9327:-8.3322444568603035e-02
9328:-8.7249364297316237e-02
9329:-8.2764200541956962e-02
9330:-7.7049965835800274e-02
9331:-7.2775710784774003e-02
9332:-8.5654570119988005e-02
9333:-8.1297362948433802e-02
9334:-7.5742199819342937e-02
9335:-7.1583744676758418e-02
9336:-8.3239318064543835e-02
9337:-7.9053882416436488e-02
9338:-7.3713254295891817e-02
9339:-6.9711738528784040e-02
9340:-8.1134333370169537e-02
9341:-7.7084342594014241e-02
9342:-7.1913607038011237e-02
9343:-6.8036929387051706e-02
9344:-7.0536150067471395e-02
9345:-6.6420966167603609e-02
9346:-6.1225367093799117e-02
9347:-5.7375285376268584e-02
9348:-6.9403704893026011e-02
9349:-6.5396155305834633e-02
9350:-6.0332985147944912e-02
9351:-5.6578211654084477e-02
9352:-6.7612637313255328e-02
9353:-6.3751927494858307e-02
9354:-5.8870351144179926e-02
9355:-5.5246996740698801e-02
9356:-6.6002408301229276e-02
9357:-6.2259206049456041e-02
9358:-5.7523622130964208e-02
9359:-5.4006446780454971e-02
9360:-5.5370752569895890e-02
9361:-5.1709370954273949e-02
9362:-4.7129421804188922e-02
9363:-4.3768617286559605e-02
9364:-5.4622265688111661e-02
9365:-5.1048047161540031e-02
9366:-4.6573947522790635e-02
9367:-4.3288202216477202e-02
9368:-5.3358310572290658e-02
9369:-4.9905217872536357e-02
9370:-4.5579128922973333e-02
9371:-4.2399072122282187e-02
9372:-5.2172292082570272e-02
9373:-4.8817734638599383e-02
9374:-4.4612704032713543e-02
9375:-4.1519607503338267e-02
9376:-4.2030600403950263e-02
9377:-3.8876339821185213e-02
9378:-3.4970523606909033e-02
9379:-3.2135506038622960e-02
9380:-4.1588033948986587e-02
9381:-3.8500931675123334e-02
9382:-3.4675173419696996e-02
9383:-3.1895698318739084e-02
9384:-4.0752468383307691e-02
9385:-3.7760892114608334e-02
9386:-3.4049980148354239e-02
9387:-3.1350983074671074e-02
9388:-3.9917266726891568e-02
9389:-3.7004965023752244e-02
9390:-3.3390037443963766e-02
9391:-3.0758853131092261e-02
9392:-3.0680576173346033e-02
9393:-2.8059323642859003e-02
9394:-2.4851371191902321e-02
9395:-2.2552761160833008e-02
9396:-3.0468311702795698e-02
9397:-2.7895100045491755e-02
9398:-2.4742721226423271e-02
9399:-2.2481256080995063e-02
9400:-2.9963811298201144e-02
9401:-2.7461302659826086e-02
9402:-2.4391870819558494e-02
9403:-2.2186835092400992e-02
9404:-2.9405776390900400e-02
9405:-2.6963589232895050e-02
9406:-2.3965699025773526e-02
9407:-2.1809985010566343e-02
9408:-2.1383938152610454e-02
9409:-1.9296506796632779e-02
9410:-1.6778042754596767e-02
9411:-1.5002254520823819e-02
9412:-2.1330310286224636e-02
9413:-1.9273093567568990e-02
9414:-1.6787586640144885e-02
9415:-1.5032119106295401e-02
9416:-2.1063442383073245e-02
9417:-1.9053540900272305e-02
9418:-1.6621246860053618e-02
9419:-1.4900050083976459e-02
9420:-2.0710930236898968e-02
9421:-1.8743298367852355e-02
9422:-1.6359546452325548e-02
9423:-1.4670499372696089e-02
9424:-1.4109775216248781e-02
9425:-1.2533073329663007e-02
9426:-1.0664601096352635e-02
9427:-9.3741834404723907e-03
9428:-1.4148742301750060e-02
9429:-1.2586242133554993e-02
9430:-1.0730775622003098e-02
9431:-9.4461403411180041e-03
9432:-1.4032658359989679e-02
9433:-1.2496359168370996e-02
9434:-1.0667795048083782e-02
9435:-9.3982574251921022e-03
9436:-1.3818471514321397e-02
9437:-1.2308052973748132e-02
9438:-1.0507592676396863e-02
9439:-9.2552990416120400e-03
9440:-8.7355253228767280e-03
9441:-7.6220921959510744e-03
9442:-6.3312931258572239e-03
9443:-5.4627354697638587e-03
9444:-8.8091217311874210e-03
9445:-7.6965785862063672e-03
9446:-6.4028587022272191e-03
9447:-5.5290302694394888e-03
9448:-8.7673830123365260e-03
9449:-7.6635147521724551e-03
9450:-6.3758028160761596e-03
9451:-5.5026459763096378e-03
9452:-8.6321347413323840e-03
9453:-7.5405287909485735e-03
9454:-6.2647246950773292e-03
9455:-5.3976723990186957e-03
9456:-5.0411287113732708e-03
9457:-4.3159497754028213e-03
9458:-3.4928138440982496e-03
9459:-2.9522780423437271e-03
9460:-5.1036096069982072e-03
9461:-4.3701730326274188e-03
9462:-3.5344512762448765e-03
9463:-2.9830595959856863e-03
9464:-5.0762872226715579e-03
9465:-4.3397585886915477e-03
9466:-3.4978750976825145e-03
9467:-2.9403794261499958e-03
9468:-4.9735757211968046e-03
9469:-4.2403224066986378e-03
9470:-3.4012040508022783e-03
9471:-2.8448745508221989e-03
9472:-2.6941781256004179e-03
9473:-2.2482457164013756e-03
9474:-1.7328628056622294e-03
9475:-1.3836937634747878e-03
9476:-2.7188618979273175e-03
9477:-2.2621168370431976e-03
9478:-1.7344315020962964e-03
9479:-1.3775250595828435e-03
9480:-2.6726042714428542e-03
9481:-2.2102956205471013e-03
9482:-1.6784289571314733e-03
9483:-1.3211211390899752e-03
9484:-2.5775192546079666e-03
9485:-2.1170885399672519e-03
9486:-1.5904996571625392e-03
9487:-1.2397773959451201e-03
9488:-1.2110828156029084e-03
9489:-8.8728807688586656e-04
9490:-4.5258914125219097e-04
9491:-1.0296822593412028e-04
9492:-1.2015625076521586e-03
9493:-8.7449783400019867e-04
9494:-4.4218413508713823e-04
9495:-9.9884216605721418e-05
9496:-1.1461915889064386e-03
9497:-8.2577867213630516e-04
9498:-4.1254682353799617e-04
9499:-9.3494438427423689e-05
9500:-1.0694760775369102e-03
9501:-7.6195329061732556e-04
9502:-3.7484198580784448e-04
9503:-8.3539345963624625e-05
9504:-2.4930922684410148e-03
9505:-1.1864584020558315e-02
9506:-2.4004880487751633e-02
9507:-3.3235922779382393e-02
9508:-2.3843944439865990e-03
9509:-1.1347687281248752e-02
9510:-2.2959561094160291e-02
9511:-3.1789875912190513e-02
9512:-2.2430386282766375e-03
9513:-1.0675579306572208e-02
9514:-2.1600122985215721e-02
9515:-2.9908998543058563e-02
9516:-2.1347830214393545e-03
9517:-1.0160899616490289e-02
9518:-2.0558933169147746e-02
9519:-2.8468224772527896e-02
9520:-3.8123755079126811e-02
9521:-4.7178554100860672e-02
9522:-5.8744269750006774e-02
9523:-6.7412225244610893e-02
9524:-3.6466103913840205e-02
9525:-4.5129745760930207e-02
9526:-5.6198177857219846e-02
9527:-6.4495987335128402e-02
9528:-3.4309793558623305e-02
9529:-4.2463910715094963e-02
9530:-5.2883782593871602e-02
9531:-6.0698221800366242e-02
9532:-3.2657888667920631e-02
9533:-4.0421157959825323e-02
9534:-5.0342949985277094e-02
9535:-5.7785714385656835e-02
9536:-7.1956976025570593e-02
9537:-8.0291183908305988e-02
9538:-9.0768838782519942e-02
9539:-9.8491390206300516e-02
9540:-6.8847764447880391e-02
9541:-7.6829840138394848e-02
9542:-8.6868803556178570e-02
9543:-9.4271774829827210e-02
9544:-6.4797758315016704e-02
9545:-7.2318916114577539e-02
9546:-8.1782367838592884e-02
9547:-8.8765075407826882e-02
9548:-6.1691122296208864e-02
9549:-6.8857084443677566e-02
9550:-7.7876087645549485e-02
9551:-8.4533501922842202e-02
9552:-1.0249398358097497e-01
9553:-1.0975043726159460e-01
9554:-1.1870828411417238e-01
9555:-1.2518127623773051e-01
9556:-9.8110249396605273e-02
9557:-1.0507166107817936e-01
9558:-1.1367071108877315e-01
9559:-1.1988927070499862e-01
9560:-9.2387349058171961e-02
9561:-9.8959249536503729e-02
9562:-1.0708289284783908e-01
9563:-1.1296292049304622e-01
9564:-8.7988157268485495e-02
9565:-9.4257462983430990e-02
9566:-1.0201052823415455e-01
9567:-1.0762565127828289e-01
9568:-1.2848931206459971e-01
9569:-1.3440127749981592e-01
9570:-1.4152946862910573e-01
9571:-1.4654487545284686e-01
9572:-1.2306919052819425e-01
9573:-1.2875540085209822e-01
9574:-1.3561814141883172e-01
9575:-1.4045262441122411e-01
9576:-1.1597183831890921e-01
9577:-1.2135562444253431e-01
9578:-1.2786050212666963e-01
9579:-1.3244918796071345e-01
9580:-1.1050036954806065e-01
9581:-1.1564602801126542e-01
9582:-1.2186750637625549e-01
9583:-1.2626019821545825e-01
9584:-1.4905807592288131e-01
9585:-1.5345865017086857e-01
9586:-1.5858122185188633e-01
9587:-1.6203601809889989e-01
9588:-1.4287745808364882e-01
9589:-1.4712726217755581e-01
9590:-1.5208259675257080e-01
9591:-1.5543178157605128e-01
9592:-1.3475323058743299e-01
9593:-1.3879550777923128e-01
9594:-1.4351761641916552e-01
9595:-1.4671682854663484e-01
9596:-1.2846740313276553e-01
9597:-1.3234229640746550e-01
9598:-1.3687417253222231e-01
9599:-1.3994920403772068e-01
9600:-1.6371067725134961e-01
9601:-1.6653816454620401e-01
9602:-1.6961384949087674e-01
9603:-1.7150600527169768e-01
9604:-1.5705811888714047e-01
9605:-1.5980923629577734e-01
9606:-1.6281295988124161e-01
9607:-1.6467093594834331e-01
9608:-1.4827341382839704e-01
9609:-1.5091203099289788e-01
9610:-1.5380461356647177e-01
9611:-1.5560444896023348e-01
9612:-1.4144726603787464e-01
9613:-1.4398998460667109e-01
9614:-1.4678447087789426e-01
9615:-1.4852965481012917e-01
9616:-1.7235132178157497e-01
9617:-1.7364077367458550e-01
9618:-1.7474923265131054e-01
9619:-1.7516516526360587e-01
9620:-1.6550534917707360e-01
9621:-1.6678701402834845e-01
9622:-1.6790954651733025e-01
9623:-1.6835444183602480e-01
9624:-1.5641732340142858e-01
9625:-1.5767508738104591e-01
9626:-1.5879808167006049e-01
9627:-1.5926709742813222e-01
9628:-1.4932059053241634e-01
9629:-1.5054985722049635e-01
9630:-1.5165999439197883e-01
9631:-1.5213744783416849e-01
9632:-1.7523587196477777e-01
9633:-1.7510392351762419e-01
9634:-1.7442345202590054e-01
9635:-1.7351913071403705e-01
9636:-1.6844684487617315e-01
9637:-1.6836607533816858e-01
9638:-1.6777213817159739e-01
9639:-1.6694879280442781e-01
9640:-1.5938056054839789e-01
9641:-1.5935319719305249e-01
9642:-1.5885522816606612e-01
9643:-1.5812495985589362e-01
9644:-1.5226173706168636e-01
9645:-1.5226552341629565e-01
9646:-1.5182875608497987e-01
9647:-1.5116068766899690e-01
9648:-1.7290484812513887e-01
9649:-1.7152923376304546e-01
9650:-1.6930926718280781e-01
9651:-1.6728865433807999e-01
9652:-1.6638264463838581e-01
9653:-1.6510534839759311e-01
9654:-1.6302852565819731e-01
9655:-1.6112849301383689e-01
9656:-1.5761507010134390e-01
9657:-1.5645421432208995e-01
9658:-1.5454960398102816e-01
9659:-1.5279642583916794e-01
9660:-1.5068917327154929e-01
9661:-1.4960900257301149e-01
9662:-1.4782590365996179e-01
9663:-1.4617777536339327e-01
9664:-1.6610227315132167e-01
9665:-1.6370004480567907e-01
9666:-1.6023291587348040e-01
9667:-1.5732654252209499e-01
9668:-1.6001000463651599e-01
9669:-1.5774070973979998e-01
9670:-1.5445707790554383e-01
9671:-1.5169852950471299e-01
9672:-1.5176118774341257e-01
9673:-1.4965591096604525e-01
9674:-1.4660054529275002e-01
9675:-1.4402719023643099e-01
9676:-1.4520253480390680e-01
9677:-1.4321626121486786e-01
9678:-1.4032796703850420e-01
9679:-1.3789116743676083e-01
9680:-1.5569292580415739e-01
9681:-1.5249976495410722e-01
9682:-1.4809478970477594e-01
9683:-1.4454073616683150e-01
9684:-1.5014602788048667e-01
9685:-1.4710833656171388e-01
9686:-1.4291187769871036e-01
9687:-1.3952150971390090e-01
9688:-1.4257673797592779e-01
9689:-1.3973544975110649e-01
9690:-1.3580391685153950e-01
9691:-1.3262259341175264e-01
9692:-1.3651629362101728e-01
9693:-1.3382108318864711e-01
9694:-1.3008774439286633e-01
9695:-1.2706362690373502e-01
9696:-1.4258689504101457e-01
9697:-1.3883941034165606e-01
9698:-1.3380129391394871e-01
9699:-1.2982982325696507e-01
9700:-1.3765608470575405e-01
9701:-1.3407581759288600e-01
9702:-1.2925781145354739e-01
9703:-1.2545610224882350e-01
9704:-1.3087044693013092e-01
9705:-1.2750510595053577e-01
9706:-1.2297130639647383e-01
9707:-1.1938973667395314e-01
9708:-1.2539694117623898e-01
9709:-1.2219426640139518e-01
9710:-1.1787654523054865e-01
9711:-1.1446305232662519e-01
9712:-1.2767716002266272e-01
9713:-1.2359918504868048e-01
9714:-1.1821178115079689e-01
9715:-1.1403410424746532e-01
9716:-1.2339412333144054e-01
9717:-1.1948602250067510e-01
9718:-1.1431917384830496e-01
9719:-1.1030935366429290e-01
9720:-1.1744567515857342e-01
9721:-1.1375907396711366e-01
9722:-1.0888096485685907e-01
9723:-1.0509174103537203e-01
9724:-1.1260926136371041e-01
9725:-1.0909268257610749e-01
9726:-1.0443706822106782e-01
9727:-1.0081845634368167e-01
9728:-1.1179284399884173e-01
9729:-1.0758579247149624e-01
9730:-1.0210109393763438e-01
9731:-9.7902129347143485e-02
9732:-1.0815699763906191e-01
9733:-1.0411525141560023e-01
9734:-9.8842841043999305e-02
9735:-9.4803690027770310e-02
9736:-1.0305651254409437e-01
9737:-9.9233087092985145e-02
9738:-9.4242073468959867e-02
9739:-9.0415523717211080e-02
9740:-9.8874029520828827e-02
9741:-9.5220252446121062e-02
9742:-9.0448657576983796e-02
9743:-8.6788443367083773e-02
9744:-9.5667879457343660e-02
9745:-9.1504983499153217e-02
9746:-8.6136891153801839e-02
9747:-8.2071420705781953e-02
9748:-9.2653479754877671e-02
9749:-8.8645852967431840e-02
9750:-8.3475274870230556e-02
9751:-7.9557070572695163e-02
9752:-8.8377376080203879e-02
9753:-8.4577275253562387e-02
9754:-7.9671606784998697e-02
9755:-7.5951607815996205e-02
9756:-8.4838164992005222e-02
9757:-8.1201139728346222e-02
9758:-7.6504310963134217e-02
9759:-7.2941066590428483e-02
9760:-7.9923434293592208e-02
9761:-7.5947026470738574e-02
9762:-7.0868834543363943e-02
9763:-6.7060345906381269e-02
9764:-7.7486028924537959e-02
9765:-7.3650953196279761e-02
9766:-6.8750948156311983e-02
9767:-6.5074086224152478e-02
9768:-7.3984366082100142e-02
9769:-7.0340376978480779e-02
9770:-6.5682109529085014e-02
9771:-6.2184444769857572e-02
9772:-7.1056090863553606e-02
9773:-6.7563856538033776e-02
9774:-6.3098165139646861e-02
9775:-5.9743706606614953e-02
9776:-6.5061165927018660e-02
9777:-6.1382385342487945e-02
9778:-5.6727065583344789e-02
9779:-5.3268441038933356e-02
9780:-6.3143243838084145e-02
9781:-5.9589240530092062e-02
9782:-5.5089786785499709e-02
9783:-5.1745175260270490e-02
9784:-6.0346858441090299e-02
9785:-5.6963520082620026e-02
9786:-5.2678007661475242e-02
9787:-4.9490472537373216e-02
9788:-5.7980805315419888e-02
9789:-5.4734425349334585e-02
9790:-5.0621141450744291e-02
9791:-4.7560472912655402e-02
9792:-5.1464419879222012e-02
9793:-4.8164421827951755e-02
9794:-4.4026637208499232e-02
9795:-4.0982015721657113e-02
9796:-4.9999943587735060e-02
9797:-4.6806584040799522e-02
9798:-4.2800618141120662e-02
9799:-3.9851323266268238e-02
9800:-4.7826443649979795e-02
9801:-4.4780741034610015e-02
9802:-4.0958011051953326e-02
9803:-3.8141788698418368e-02
9804:-4.5962177523866950e-02
9805:-4.3036261267254024e-02
9806:-3.9362687707096333e-02
9807:-3.6655186318175256e-02
9808:-3.9404410991135529e-02
9809:-3.6536521137549120e-02
9810:-3.2975586377747494e-02
9811:-3.0382725906411553e-02
9812:-3.8322473312272808e-02
9813:-3.5542315361565803e-02
9814:-3.2088430671257016e-02
9815:-2.9571870546924801e-02
9816:-3.6681204047799155e-02
9817:-3.4024247056564726e-02
9818:-3.0721410582810062e-02
9819:-2.8313089774974289e-02
9820:-3.5250519416375026e-02
9821:-3.2694731761797081e-02
9822:-2.9516433387055056e-02
9823:-2.7197756853351240e-02
9824:-2.9048984523812445e-02
9825:-2.6641125308805653e-02
9826:-2.3684191466692605e-02
9827:-2.1556915841324461e-02
9828:-2.8276743066437942e-02
9829:-2.5937649609095670e-02
9830:-2.3063188745875360e-02
9831:-2.0993536019346157e-02
9832:-2.7072955408966117e-02
9833:-2.4832178886048592e-02
9834:-2.2076408826599947e-02
9835:-2.0090326742660564e-02
9836:-2.6003316762421881e-02
9837:-2.3844494956009040e-02
9838:-2.1188193262590038e-02
9839:-1.9272583597305389e-02
9840:-2.0471972421431724e-02
9841:-1.8528992861232451e-02
9842:-1.6173851846712300e-02
9843:-1.4504013776819242e-02
9844:-1.9937323145140590e-02
9845:-1.8044785371055604e-02
9846:-1.5748702721053089e-02
9847:-1.4118957044739538e-02
9848:-1.9076027844028020e-02
9849:-1.7257517947412995e-02
9850:-1.5049012689107452e-02
9851:-1.3479484595794549e-02
9852:-1.8293794860907389e-02
9853:-1.6538292666890799e-02
9854:-1.4404918745615260e-02
9855:-1.2887545215729948e-02
9856:-1.3661270364850623e-02
9857:-1.2166683675089551e-02
9858:-1.0383824672950391e-02
9859:-9.1427033763547497e-03
9860:-1.3295766811591142e-02
9861:-1.1834836904924911e-02
9862:-1.0090061112608137e-02
9863:-8.8737061440963827e-03
9864:-1.2685962288999882e-02
9865:-1.1276630973495133e-02
9866:-9.5913517029534590e-03
9867:-8.4146638150495463e-03
9868:-1.2119909577189893e-02
9869:-1.0755933854464069e-02
9870:-9.1236423234868271e-03
9871:-7.9828756582349079e-03
9872:-8.5246946173282798e-03
9873:-7.4415760010614904e-03
9874:-6.1746468661531152e-03
9875:-5.3127746754484438e-03
9876:-8.2673729208364976e-03
9877:-7.2038981409850711e-03
9878:-5.9583988902610630e-03
9879:-5.1098494935341359e-03
9880:-7.8274263247095372e-03
9881:-6.7967269723760359e-03
9882:-5.5883067756913726e-03
9883:-4.7639685503090973e-03
9884:-7.4131647089916786e-03
9885:-6.4129081506478476e-03
9886:-5.2396453894816555e-03
9887:-4.4388674911096304e-03
9888:-4.8909077195883376e-03
9889:-4.1613301357798747e-03
9890:-3.3262271694472199e-03
9891:-2.7724894054624188e-03
9892:-4.6940661804746129e-03
9893:-3.9749311497421242e-03
9894:-3.1519627712226165e-03
9895:-2.6066025630121130e-03
9896:-4.3597048393093701e-03
9897:-3.6608352523221006e-03
9898:-2.8622274075765113e-03
9899:-2.3342461524141424e-03
9900:-4.0460420189330805e-03
9901:-3.3675038053177240e-03
9902:-2.5936539140478496e-03
9903:-2.0835368959430688e-03
9904:-2.5064189395844171e-03
9905:-2.0490402737303385e-03
9906:-1.5280782663560377e-03
9907:-1.1831396056910797e-03
9908:-2.3448175663832124e-03
9909:-1.8967507038588312e-03
9910:-1.3911886820589157e-03
9911:-1.0609578504257151e-03
9912:-2.0814675566862653e-03
9913:-1.6520147239780238e-03
9914:-1.1751477685725225e-03
9915:-8.7086420645111559e-04
9916:-1.8400459543815920e-03
9917:-1.4293138986094084e-03
9918:-9.8024922508308963e-04
9919:-7.0033086385748683e-04
9920:-1.0165672719792539e-03
9921:-7.1849074107197908e-04
9922:-3.4912859419900823e-04
9923:-7.5941557669450654e-05
9924:-9.0350439639733321e-04
9925:-6.2745710273351299e-04
9926:-2.9772425156175062e-04
9927:-6.3954370913843671e-05
9928:-7.2899493851803809e-04
9929:-4.8908054436353941e-04
9930:-2.2175075999686039e-04
9931:-4.8477580572692850e-05
9932:-5.7281869953010214e-04
9933:-3.6535055450677336e-04
9934:-1.5257521777942813e-04
9935:-3.1273544926966022e-05
9936:-2.0770033271578789e-03
9937:-9.8862066233549786e-03
9938:-2.0003172522735126e-02
9939:-2.7699103000099336e-02
9940:-1.9675967771770925e-03
9941:-9.3660821043569618e-03
9942:-1.8950724425350788e-02
9943:-2.6242473907679465e-02
9944:-1.8224787754602312e-03
9945:-8.6762317133323805e-03
9946:-1.7554608858560288e-02
9947:-2.4309940794728924e-02
9948:-1.7091623293092170e-03
9949:-8.1376209937320879e-03
9950:-1.6464412333359203e-02
9951:-2.2800687562185080e-02
9952:-3.1776010084034766e-02
9953:-3.9330450612854798e-02
9954:-4.8985925968995869e-02
9955:-5.6229807995663926e-02
9956:-3.0105746260030236e-02
9957:-3.7264373754145735e-02
9958:-4.6414758474879234e-02
9959:-5.3281209200214730e-02
9960:-2.7889620744367176e-02
9961:-3.4522533068917352e-02
9962:-4.3001479775781899e-02
9963:-4.9365763524736359e-02
9964:-2.6158775891708449e-02
9965:-3.2380702927278272e-02
9966:-4.0334327537835356e-02
9967:-4.6305413927110413e-02
9968:-6.0031279743554523e-02
9969:-6.7006915111705534e-02
9970:-7.5787451297426589e-02
9971:-8.2270084672036545e-02
9972:-5.6885348021904154e-02
9973:-6.3499381902799537e-02
9974:-7.1826350290141880e-02
9975:-7.7976153773135909e-02
9976:-5.2707194691395773e-02
9977:-5.8839378235904335e-02
9978:-6.6561021813680996e-02
9979:-7.2265912746689545e-02
9980:-4.9441030326158611e-02
9981:-5.5195392416357104e-02
9982:-6.2441739624167950e-02
9983:-6.7796774267285712e-02
9984:-8.5634586919123207e-02
9985:-9.1740938783749948e-02
9986:-9.9294021740011215e-02
9987:-1.0476585084172753e-01
9988:-8.1168833518194775e-02
9989:-8.6964277471381787e-02
9990:-9.4135127079380890e-02
9991:-9.9332535287605037e-02
9992:-7.5228638362211969e-02
9993:-8.0607372885547049e-02
9994:-8.7264677033899410e-02
9995:-9.2092409284427620e-02
9996:-7.0578484188283191e-02
9997:-7.5628757489573539e-02
9998:-8.1880395344516715e-02
9999:-8.6415416187731076e-02
10000:-1.0756784863983652e-01
10001:-1.1258420964122928e-01
10002:-1.1865127789709276e-01
10003:-1.2293674483180682e-01
10004:-1.0199506555216262e-01
10005:-1.0676304289869920e-01
10006:-1.1253264755633376e-01
10007:-1.1661086080212883e-01
10008:-9.4566695368343098e-02
10009:-9.8998675660749658e-02
10010:-1.0436436844797843e-01
10011:-1.0815991080345075e-01
10012:-8.8740391981094735e-02
10013:-9.2905343213212088e-02
10014:-9.7948961694421952e-02
10015:-1.0151822971609142e-01
10016:-1.2509080268330203e-01
10017:-1.2887350446543075e-01
10018:-1.3329992281565439e-01
10019:-1.3630552407588492e-01
10020:-1.1866192548716352e-01
10021:-1.2226545703779794e-01
10022:-1.2648585496522774e-01
10023:-1.2935490091632804e-01
10024:-1.1007002394536869e-01
10025:-1.1342742669898520e-01
10026:-1.1736289347865135e-01
10027:-1.2004144128477373e-01
10028:-1.0331517810474214e-01
10029:-1.0647433044366775e-01
10030:-1.1017896580441879e-01
10031:-1.1270206013700132e-01
10032:-1.3777062526356701e-01
10033:-1.4025886648008601e-01
10034:-1.4299660578439441e-01
10035:-1.4470919521286404e-01
10036:-1.3075480415525817e-01
10037:-1.3313457599310830e-01
10038:-1.3575778197814070e-01
10039:-1.3740312691604714e-01
10040:-1.2134973429875912e-01
10041:-1.2357584032261082e-01
10042:-1.2603408116011680e-01
10043:-1.2758005010625825e-01
10044:-1.1393514856551869e-01
10045:-1.1603425787311414e-01
10046:-1.1835434524486196e-01
10047:-1.1981542562138964e-01
10048:-1.4548657972846429e-01
10049:-1.4669718652144700e-01
10050:-1.4779598800871765e-01
10051:-1.4827454564941581e-01
10052:-1.3815187985499300e-01
10053:-1.3932159213451692e-01
10054:-1.4039172592803656e-01
10055:-1.4086690301020929e-01
10056:-1.2828534930846469e-01
10057:-1.2939057011069993e-01
10058:-1.3040940452626315e-01
10059:-1.3087001512628951e-01
10060:-1.2048287240866262e-01
10061:-1.2153039444320361e-01
10062:-1.2249966134272786e-01
10063:-1.2294167345940750e-01
10064:-1.4840281646219644e-01
10065:-1.4841992335587897e-01
10066:-1.4801165179685558e-01
10067:-1.4737369965553015e-01
10068:-1.4099982136337971e-01
10069:-1.4103683992914839e-01
10070:-1.4067583818017459e-01
10071:-1.4008997339746052e-01
10072:-1.3100376957497942e-01
10073:-1.3105741381722119e-01
10074:-1.3074679228163216e-01
10075:-1.3022092166782395e-01
10076:-1.2307226296898824e-01
10077:-1.2313187727398375e-01
10078:-1.2285176665265689e-01
10079:-1.2236622503975381e-01
10080:-1.4692106877462366e-01
10081:-1.4588107942361431e-01
10082:-1.4415930964095980e-01
10083:-1.4256472803585354e-01
10084:-1.3967053769134943e-01
10085:-1.3870202396921558e-01
10086:-1.3709076488054489e-01
10087:-1.3559356822496263e-01
10088:-1.2984080029008205e-01
10089:-1.2895860883371080e-01
10090:-1.2748359706842466e-01
10091:-1.2610820526462060e-01
10092:-1.2201342323946840e-01
10093:-1.2119255795257136e-01
10094:-1.1981653042689233e-01
10095:-1.1853097315385384e-01
10096:-1.4162023156562190e-01
10097:-1.3969522538847032e-01
10098:-1.3689346659208038e-01
10099:-1.3452775487105467e-01
10100:-1.3470525865088240e-01
10101:-1.3289271379307346e-01
10102:-1.3025067905694174e-01
10103:-1.2801677689737817e-01
10104:-1.2529069603977722e-01
10105:-1.2362080219315559e-01
10106:-1.2118304834331306e-01
10107:-1.1911885835351400e-01
10108:-1.1776608022105235e-01
10109:-1.1620290908021615e-01
10110:-1.1391924567541227e-01
10111:-1.1198391424144651e-01
10112:-1.3319234207903105e-01
10113:-1.3057361961147429e-01
10114:-1.2694445999470547e-01
10115:-1.2400326060734244e-01
10116:-1.2675472409596725e-01
10117:-1.2427856211280704e-01
10118:-1.2084424802430790e-01
10119:-1.1805860113284748e-01
10120:-1.1795162313704634e-01
10121:-1.1566040963544134e-01
10122:-1.1248014225173610e-01
10123:-1.0989819445757693e-01
10124:-1.1088894017222176e-01
10125:-1.0873918582098359e-01
10126:-1.0575415963764463e-01
10127:-1.0332940705503436e-01
10128:-1.2238174542455194e-01
10129:-1.1926522834618178e-01
10130:-1.1506229273491171e-01
10131:-1.1173832906942441e-01
10132:-1.1652198077262466e-01
10133:-1.1356769354506875e-01
10134:-1.0958145619656910e-01
10135:-1.0642691177866900e-01
10136:-1.0847303713298496e-01
10137:-1.0573231607037314e-01
10138:-1.0203240108262197e-01
10139:-9.9102455215350896e-02
10140:-1.0199047881062390e-01
10141:-9.9415386274686046e-02
10142:-9.5938287553988991e-02
10143:-9.3183663330652658e-02
10144:-1.0993270460685770e-01
10145:-1.0650700178498959e-01
10146:-1.0197060211369195e-01
10147:-9.8443618012809833e-02
10148:-1.0471256882021454e-01
10149:-1.0145934476170081e-01
10150:-9.7149693453785976e-02
10151:-9.3797336805521797e-02
10152:-9.7509372932430990e-02
10153:-9.4485752377369878e-02
10154:-9.0478846023614931e-02
10155:-8.7360292389957364e-02
10156:-9.1685416629624081e-02
10157:-8.8841709279031900e-02
10158:-8.5072674639410636e-02
10159:-8.2138288786254190e-02
10160:-9.6548028788752863e-02
10161:-9.2985631907886210e-02
10162:-8.8332481809629923e-02
10163:-8.4762246144148734e-02
10164:-9.1994942728002294e-02
10165:-8.8607147914904080e-02
10166:-8.4180736349193527e-02
10167:-8.0783056081481938e-02
10168:-8.5682893657296283e-02
10169:-8.2529693327538262e-02
10170:-7.8408707679090126e-02
10171:-7.5244035956036903e-02
10172:-8.0559506553621679e-02
10173:-7.7591688255836219e-02
10174:-7.3712614179965094e-02
10175:-7.0732900939777230e-02
10176:-8.2859565211617373e-02
10177:-7.9310993774659277e-02
10178:-7.4727666473358989e-02
10179:-7.1249782994196750e-02
10180:-7.8971760456198983e-02
10181:-7.5593210675656455e-02
10182:-7.1228418541502539e-02
10183:-6.7915161993450088e-02
10184:-7.3556335756058355e-02
10185:-7.0408090266489198e-02
10186:-6.6339993173697029e-02
10187:-6.3250744585086685e-02
10188:-6.9143446519711563e-02
10189:-6.6178522439249945e-02
10190:-6.2347073547363123e-02
10191:-5.9436852006918117e-02
10192:-6.9409663089115226e-02
10193:-6.6000277039856989e-02
10194:-6.1639918120177911e-02
10195:-5.8363938440675056e-02
10196:-6.6161645620693224e-02
10197:-6.2912385553168720e-02
10198:-5.8755935154829124e-02
10199:-5.5632125108694884e-02
10200:-6.1615243021702196e-02
10201:-5.8584498373769119e-02
10202:-5.4706907183478794e-02
10203:-5.1791648605689876e-02
10204:-5.7895790236263060e-02
10205:-5.5040129435162892e-02
10206:-5.1386392070889013e-02
10207:-4.8638863304407996e-02
10208:-5.6642018113205565e-02
10209:-5.3470881931323530e-02
10210:-4.9452397238303955e-02
10211:-4.6461696169461643e-02
10212:-5.3989752470394746e-02
10213:-5.0964821975662530e-02
10214:-4.7130833270369210e-02
10215:-4.4276526352937842e-02
10216:-5.0258454462739480e-02
10217:-4.7434465153920795e-02
10218:-4.3854575983127073e-02
10219:-4.1188529966173948e-02
10220:-4.7193587144622275e-02
10221:-4.4531602725095785e-02
10222:-4.1156950466861825e-02
10223:-3.8643250546904630e-02
10224:-4.4899701629976974e-02
10225:-4.2040021280202011e-02
10226:-3.8449089794839228e-02
10227:-3.5801956739596373e-02
10228:-4.2785376663207662e-02
10229:-4.0055102420775979e-02
10230:-3.6625905115437486e-02
10231:-3.4097132119911076e-02
10232:-3.9795311371870805e-02
10233:-3.7244173706986253e-02
10234:-3.4039364599043574e-02
10235:-3.1675196253179216e-02
10236:-3.7329382575728300e-02
10237:-3.4923571332806921e-02
10238:-3.1901147697205937e-02
10239:-2.9671045265645072e-02
10240:-3.4428385756588707e-02
10241:-3.1928940163243984e-02
10242:-2.8820159947518315e-02
10243:-2.6551652829971781e-02
10244:-3.2784607361645478e-02
10245:-3.0395906022506053e-02
10246:-2.7424039520516974e-02
10247:-2.5254557531118525e-02
10248:-3.0447711668771592e-02
10249:-2.8213528271393676e-02
10250:-2.5433183968183767e-02
10251:-2.3402618511203399e-02
10252:-2.8512922333315188e-02
10253:-2.6404939514598713e-02
10254:-2.3781358059042391e-02
10255:-2.1864769654010765e-02
10256:-2.5382833198420454e-02
10257:-2.3270046483333275e-02
10258:-2.0669786186320132e-02
10259:-1.8794019350061836e-02
10260:-2.4136388738380258e-02
10261:-2.2114752694842657e-02
10262:-1.9625739601398916e-02
10263:-1.7829296710130008e-02
10264:-2.2355650774366458e-02
10265:-2.0462398743024461e-02
10266:-1.8130580923282787e-02
10267:-1.6446637991900659e-02
10268:-2.0876320663012808e-02
10269:-1.9088755098008017e-02
10270:-1.6886682407720642e-02
10271:-1.5295871892855787e-02
10272:-1.7835358855524418e-02
10273:-1.6115660703331317e-02
10274:-1.4025161098012676e-02
10275:-1.2537700441511519e-02
10276:-1.6910797217185136e-02
10277:-1.5262685465730692e-02
10278:-1.3258210733151567e-02
10279:-1.1831021660782133e-02
10280:-1.5585250878818544e-02
10281:-1.4039202340463896e-02
10282:-1.2157908522301340e-02
10283:-1.0817468596768172e-02
10284:-1.4481868460835368e-02
10285:-1.3020671110388423e-02
10286:-1.1242137886837018e-02
10287:-9.9743601524301239e-03
10288:-1.1784969493427703e-02
10289:-1.0447206858965479e-02
10290:-8.8457419227660535e-03
10291:-7.7260448787793076e-03
10292:-1.1108419300211492e-02
10293:-9.8238059183827133e-03
10294:-8.2851693262509796e-03
10295:-7.2086845098617378e-03
10296:-1.0138399930910076e-02
10297:-8.9308535810253779e-03
10298:-7.4838552098415376e-03
10299:-6.4708390511223988e-03
10300:-9.3318666937357696e-03
10301:-8.1892343598779695e-03
10302:-6.8197472697977685e-03
10303:-5.8606795054761884e-03
10304:-7.1666804224429755e-03
10305:-6.1844913247172898e-03
10306:-5.0322815907947304e-03
10307:-4.2457666531616530e-03
10308:-6.6706416001982667e-03
10309:-5.7258244675494185e-03
10310:-4.6174406371667824e-03
10311:-3.8608536003702110e-03
10312:-5.9642771140047627e-03
10313:-5.0748599791075382e-03
10314:-4.0318841984751629e-03
10315:-3.3203381887486794e-03
10316:-5.3809737258660850e-03
10317:-4.5389445225250298e-03
10318:-3.5521688064653481e-03
10319:-2.8795361683551304e-03
10320:-3.8599221662158948e-03
10321:-3.1938353209576631e-03
10322:-2.4352039206580866e-03
10323:-1.9360973435332514e-03
10324:-3.4897448730613896e-03
10325:-2.8499882650014035e-03
10326:-2.1235595786542353e-03
10327:-1.6477217309951830e-03
10328:-2.9715421481557799e-03
10329:-2.3716728550557628e-03
10330:-1.6939247232211003e-03
10331:-1.2530956440489440e-03
10332:-2.5500910441036903e-03
10333:-1.9847685719573721e-03
10334:-1.3489927787834338e-03
10335:-9.3814034651381012e-04
10336:-1.6983296938696650e-03
10337:-1.2989967007877230e-03
10338:-8.6655784974226039e-04
10339:-6.0098470677836472e-04
10340:-1.4220125281202253e-03
10341:-1.0464013087084334e-03
10342:-6.4792961964764818e-04
10343:-4.1119667237453920e-04
10344:-1.0454204589165495e-03
10345:-7.0467008668417493e-04
10346:-3.5482050362433147e-04
10347:-1.5841859359049337e-04
10348:-7.4579753802414160e-04
10349:-4.3418255136935233e-04
10350:-1.2392384612865378e-04
10351:4.0408027889224753e-05
10352:-4.8184430008875061e-04
10353:-2.9305471571386394e-04
10354:-1.1126035860076061e-04
10355:-1.9211642077842662e-05
10356:-3.0872493441200694e-04
10357:-1.5674986980167405e-04
10358:-3.5429899584827422e-05
10359:-1.7900406029517871e-07
10360:-7.8938074143739077e-05
10361:2.2823339585475193e-05
10362:6.2464377563818633e-05
10363:2.1359678246104553e-05
10364:1.0185713570169407e-04
10365:1.6454351012474790e-04
10366:1.4098249335814242e-04
10367:4.0891277476694527e-05
10368:-1.6479029164267927e-03
10369:-7.8464765077707020e-03
10370:-1.5875061232976134e-02
10371:-2.1984741001109972e-02
10372:-1.5303144218577411e-03
10373:-7.2876813083552769e-03
10374:-1.4743853853468766e-02
10375:-2.0418535443143933e-02
10376:-1.3712433930221730e-03
10377:-6.5318164752861266e-03
10378:-1.3213586380857454e-02
10379:-1.8299695333538403e-02
10380:-1.2447213065912900e-03
10381:-5.9306064692378254e-03
10382:-1.1996330914587938e-02
10383:-1.6614175434855476e-02
10384:-2.5222994020831769e-02
10385:-3.1222596006858262e-02
10386:-3.8891908933713304e-02
10387:-4.4650090502705908e-02
10388:-2.3426723658434536e-02
10389:-2.8999396447907874e-02
10390:-3.6122549735102642e-02
10391:-4.1471603915982293e-02
10392:-2.0996569855363672e-02
10393:-2.5991365320804306e-02
10394:-3.2374909572513121e-02
10395:-3.7169681470276841e-02
10396:-1.9063353938601438e-02
10397:-2.3598245352972929e-02
10398:-2.9392939468525794e-02
10399:-3.3746248355218195e-02
10400:-4.7674227094181197e-02
10401:-5.3223837307065432e-02
10402:-6.0212395572068748e-02
10403:-6.5377511037792907e-02
10404:-4.4281466090882786e-02
10405:-4.9437370085335393e-02
10406:-5.5929935204067097e-02
10407:-6.0729414561869186e-02
10408:-3.9689160162425574e-02
10409:-4.4311245517049409e-02
10410:-5.0130771835672494e-02
10411:-5.4433709073275847e-02
10412:-3.6034390125371747e-02
10413:-4.0231021591027746e-02
10414:-4.5513777915101340e-02
10415:-4.9420443472711018e-02
10416:-6.8060895136749386e-02
10417:-7.2932611823399510e-02
10418:-7.8963441845584140e-02
10419:-8.3338915582180345e-02
10420:-6.3223418613189961e-02
10421:-6.7751033130473370e-02
10422:-7.3355948434037366e-02
10423:-7.7423369638620038e-02
10424:-5.6670390920171836e-02
10425:-6.0730117290757057e-02
10426:-6.5755228642937882e-02
10427:-6.9402770295455343e-02
10428:-5.1451672086395221e-02
10429:-5.5137598502923206e-02
10430:-5.9699048938625043e-02
10431:-6.3010468775167153e-02
10432:-8.5582425122499112e-02
10433:-8.9601512652436405e-02
10434:-9.4468857256762406e-02
10435:-9.7914005025230205e-02
10436:-7.9509472837100942e-02
10437:-8.3246495256377687e-02
10438:-8.7772500312596494e-02
10439:-9.0976922772804170e-02
10440:-7.1274134060485744e-02
10441:-7.4625953437665260e-02
10442:-7.8685003232312214e-02
10443:-8.1559467467899396e-02
10444:-6.4709800697427378e-02
10445:-6.7752760667518078e-02
10446:-7.1436867851728814e-02
10447:-7.4045965545895875e-02
10448:-9.9648772206460012e-02
10449:-1.0269878827175705e-01
10450:-1.0627593498307925e-01
10451:-1.0871282098394000e-01
10452:-9.2590950739875638e-02
10453:-9.5428785573515057e-02
10454:-9.8757519967209217e-02
10455:-1.0102596488715342e-01
10456:-8.3007758870148760e-02
10457:-8.5553881205857787e-02
10458:-8.8540157796188568e-02
10459:-9.0575608014701325e-02
10460:-7.5360805409550660e-02
10461:-7.7671740177941068e-02
10462:-8.0381303229748680e-02
10463:-8.2227975559457031e-02
10464:-1.0990406542235177e-01
10465:-1.1193225172433946e-01
10466:-1.1417462902758752e-01
10467:-1.1558745806976393e-01
10468:-1.0213526888195514e-01
10469:-1.0402423465941014e-01
10470:-1.0611335459918481e-01
10471:-1.0743038124547842e-01
10472:-9.1571261678096982e-02
10473:-9.3266567176112272e-02
10474:-9.5141309764829513e-02
10475:-9.6323260339494510e-02
10476:-8.3131347169077968e-02
10477:-8.4669038927074863e-02
10478:-8.6368538157850547e-02
10479:-8.7439386813024891e-02
10480:-1.1623317224365246e-01
10481:-1.1724712610689367e-01
10482:-1.1818651888174322e-01
10483:-1.1861613923825313e-01
10484:-1.0803267071701499e-01
10485:-1.0897900852749275e-01
10486:-1.0985696522644925e-01
10487:-1.1025970828158999e-01
10488:-9.6863870293297627e-02
10489:-9.7713283253804101e-02
10490:-9.8501134185777897e-02
10491:-9.8862248712630690e-02
10492:-8.7928976888646287e-02
10493:-8.8697659448203861e-02
10494:-8.9409189414094509e-02
10495:-8.9733700399431668e-02
10496:-1.1874378279332040e-01
10497:-1.1880435710347650e-01
10498:-1.1853788776273878e-01
10499:-1.1807204336099927e-01
10500:-1.1038006892017034e-01
10501:-1.1043951893326370e-01
10502:-1.1019554158050965e-01
10503:-1.0976480806394580e-01
10504:-9.8969987207449636e-02
10505:-9.9022882624022923e-02
10506:-9.8803095541520072e-02
10507:-9.8415323715402167e-02
10508:-8.9829567604558597e-02
10509:-8.9873929310201467e-02
10510:-8.9669287059776573e-02
10511:-8.9312722401105091e-02
10512:-1.1773291992261005e-01
10513:-1.1694324718395091e-01
10514:-1.1561834559764884e-01
10515:-1.1437965560554611e-01
10516:-1.0945055084260064e-01
10517:-1.0871828481287357e-01
10518:-1.0748857385854396e-01
10519:-1.0633778732399263e-01
10520:-9.8132376955423109e-02
10521:-9.7473655422372449e-02
10522:-9.6367845181027492e-02
10523:-9.5332599803964149e-02
10524:-8.9053163890964362e-02
10525:-8.8450272804757285e-02
10526:-8.7439881361882937e-02
10527:-8.6494390251495523e-02
10528:-1.1364234972022648e-01
10529:-1.1213537583416762e-01
10530:-1.0993327890747782e-01
10531:-1.0806644084724043e-01
10532:-1.0565240807079102e-01
10533:-1.0425155127258820e-01
10534:-1.0220406681990281e-01
10535:-1.0046744531083786e-01
10536:-9.4715794988702473e-02
10537:-9.3455666913531465e-02
10538:-9.1614252329350040e-02
10539:-9.0051851343268693e-02
10540:-8.5931074194661963e-02
10541:-8.4781117097707040e-02
10542:-8.3101722950087775e-02
10543:-8.1676750283186050e-02
10544:-1.0700996591024892e-01
10545:-1.0493574751480558e-01
10546:-1.0205528532915785e-01
10547:-9.9714934653141532e-02
10548:-9.9484283323622358e-02
10549:-9.7554143912459479e-02
10550:-9.4873558582577927e-02
10551:-9.2694834162156917e-02
10552:-8.9166984091561388e-02
10553:-8.7430432038701683e-02
10554:-8.5019148066128619e-02
10555:-8.3058687686415944e-02
10556:-8.0869559057711871e-02
10557:-7.9286264143282409e-02
10558:-7.7088676286486607e-02
10559:-7.5301746954750282e-02
10560:-9.8422374855977560e-02
10561:-9.5936481953478661e-02
10562:-9.2579631551586605e-02
10563:-8.9919799952963078e-02
10564:-9.1491161323074416e-02
10565:-8.9176449244714087e-02
10566:-8.6050708870103465e-02
10567:-8.3573301069538294e-02
10568:-8.1975209995933815e-02
10569:-7.9892297281250496e-02
10570:-7.7080101676408261e-02
10571:-7.4850595567826403e-02
10572:-7.4313937461571222e-02
10573:-7.2415740240427934e-02
10574:-6.9853797986763569e-02
10575:-6.7822425449780233e-02
10576:-8.8472887211167930e-02
10577:-8.5726678412796270e-02
10578:-8.2086761644243791e-02
10579:-7.9252493727569456e-02
10580:-8.2225256133877128e-02
10581:-7.9666982665266159e-02
10582:-7.6276237910365474e-02
10583:-7.3635380242306980e-02
10584:-7.3637039137032692e-02
10585:-7.1334679419577024e-02
10586:-6.8283729488311407e-02
10587:-6.5906970072347526e-02
10588:-6.6716447002963988e-02
10589:-6.4618971927363447e-02
10590:-6.1840389734431629e-02
10591:-5.9675550885054683e-02
10592:-7.7727372516703752e-02
10593:-7.4860523383385391e-02
10594:-7.1113387151549551e-02
10595:-6.8234679849057525e-02
10596:-7.2213989749659910e-02
10597:-6.9542450636438172e-02
10598:-6.6050769901524614e-02
10599:-6.3367800982141398e-02
10600:-6.4627336076381214e-02
10601:-6.2222924557449301e-02
10602:-5.9081043909506324e-02
10603:-5.6666396532890975e-02
10604:-5.8509741950471872e-02
10605:-5.6319969353075858e-02
10606:-5.3459426564835676e-02
10607:-5.1260778291440282e-02
10608:-6.6698921652669566e-02
10609:-6.3834273200845462e-02
10610:-6.0132423439474461e-02
10611:-5.7320358784520638e-02
10612:-6.1936158191341045e-02
10613:-5.9266049619338977e-02
10614:-5.5815833028942774e-02
10615:-5.3194501538363234e-02
10616:-5.5377575231652494e-02
10617:-5.2974512627614496e-02
10618:-4.9870059646269047e-02
10619:-4.7511061804803002e-02
10620:-5.0086992967217941e-02
10621:-4.7899143674041848e-02
10622:-4.5073568743828007e-02
10623:-4.2926321968796290e-02
10624:-5.5831115513568313e-02
10625:-5.3071592198640431e-02
10626:-4.9540905441163456e-02
10627:-4.6885676668425552e-02
10628:-5.1805999980008163e-02
10629:-4.9233471148187866e-02
10630:-4.5942300814888530e-02
10631:-4.3466863240095827e-02
10632:-4.6261205406199692e-02
10633:-4.3946179531021361e-02
10634:-4.0985130136145798e-02
10635:-3.8757714175312347e-02
10636:-4.1788433074380578e-02
10637:-3.9681461722291547e-02
10638:-3.6987329647205108e-02
10639:-3.4960592009051966e-02
10640:-4.5488815778833132e-02
10641:-4.2916106749646646e-02
10642:-3.9654672461448714e-02
10643:-3.7225104714880136e-02
10644:-4.2164355856644915e-02
10645:-3.9765709576414059e-02
10646:-3.6725174802394109e-02
10647:-3.4459877778353722e-02
10648:-3.7585443336964119e-02
10649:-3.5427189944992166e-02
10650:-3.2691993834462460e-02
10651:-3.0653963202105269e-02
10652:-3.3893746954845046e-02
10653:-3.1930176912716823e-02
10654:-2.9442430420242447e-02
10655:-2.7588710841393502e-02
10656:-3.5955089952846499e-02
10657:-3.3629649642766539e-02
10658:-3.0708202094727449e-02
10659:-2.8552410425273851e-02
10660:-3.3275530846424019e-02
10661:-3.1107170032767070e-02
10662:-2.8383220174608252e-02
10663:-2.6372889190903154e-02
10664:-2.9588209196345066e-02
10665:-2.7637422859127809e-02
10666:-2.5187278911223077e-02
10667:-2.3378809365562938e-02
10668:-2.6619181881546630e-02
10669:-2.4845013472140503e-02
10670:-2.2617294207938784e-02
10671:-2.0972934560792612e-02
10672:-2.7432764830779978e-02
10673:-2.5394843662652804e-02
10674:-2.2858397981900706e-02
10675:-2.1005249110921970e-02
10676:-2.5328604539295075e-02
10677:-2.3427978066424882e-02
10678:-2.1062435761604870e-02
10679:-1.9333837573989092e-02
10680:-2.2439178768082400e-02
10681:-2.0729338542889782e-02
10682:-1.8601541241861527e-02
10683:-1.7046419212884582e-02
10684:-2.0118433263096619e-02
10685:-1.8563866707095558e-02
10686:-1.6629728783012256e-02
10687:-1.5216054765006941e-02
10688:-2.0049403212841585e-02
10689:-1.8320772527309938e-02
10690:-1.6191156402311127e-02
10691:-1.4652441930215577e-02
10692:-1.8442047634556039e-02
10693:-1.6829283420534923e-02
10694:-1.4842272185788428e-02
10695:-1.3406219090783569e-02
10696:-1.6243927374575938e-02
10697:-1.4792818210814556e-02
10698:-1.3005032254800680e-02
10699:-1.1712623589528853e-02
10700:-1.4486426945814444e-02
10701:-1.3167307095450720e-02
10702:-1.1542359169274860e-02
10703:-1.0367504311865320e-02
10704:-1.3864975779541785e-02
10705:-1.2451352672337048e-02
10706:-1.0730542979052845e-02
10707:-9.5036711272936097e-03
10708:-1.2671096426288015e-02
10709:-1.1351389197480180e-02
10710:-9.7446873378843179e-03
10711:-8.5988070027059951e-03
10712:-1.1050823943987384e-02
10713:-9.8628028720098120e-03
10714:-8.4163549866968172e-03
10715:-7.3844296031935703e-03
10716:-9.7657642460226100e-03
10717:-8.6856867843520171e-03
10718:-7.3707536717091396e-03
10719:-6.4324734618612673e-03
10720:-8.8818014424571559e-03
10721:-7.7758185612364682e-03
10722:-6.4501822674430847e-03
10723:-5.5217072398834454e-03
10724:-8.0178186445856916e-03
10725:-6.9845413476821699e-03
10726:-5.7460092582579392e-03
10727:-4.8783978823231169e-03
10728:-6.8610378409288061e-03
10729:-5.9302811192024933e-03
10730:-4.8147439557336023e-03
10731:-4.0332203760618367e-03
10732:-5.9564588940631581e-03
10733:-5.1100805942731102e-03
10734:-4.0958660125943848e-03
10735:-3.3853406546988092e-03
10736:-5.0572572954595899e-03
10737:-4.2421797986275786e-03
10738:-3.2874309796617168e-03
10739:-2.6370266675096485e-03
10740:-4.4443341697350414e-03
10741:-3.6829656132543612e-03
10742:-2.7920675715741475e-03
10743:-2.1859841730495172e-03
10744:-3.6421881549155016e-03
10745:-2.9568802317694355e-03
10746:-2.1563459107816828e-03
10747:-1.6128999780335737e-03
10748:-3.0298237982032644e-03
10749:-2.4072500494012887e-03
10750:-1.6811141823839752e-03
10751:-1.1891017030470844e-03
10752:-2.3186520458961606e-03
10753:-1.7730591460696397e-03
10754:-1.1611552803126484e-03
10755:-7.6725882845037259e-04
10756:-1.8896736557768433e-03
10757:-1.3832851472401770e-03
10758:-8.1859427753753458e-04
10759:-4.5808704814797582e-04
10760:-1.3477196576640340e-03
10761:-8.9641933054391588e-04
10762:-3.9766930653985179e-04
10763:-8.3548291862451328e-05
10764:-9.4941966604486093e-04
10765:-5.4308203877841176e-04
10766:-9.7881500257962435e-05
10767:1.7873355778181277e-04
10768:-5.8354403229858001e-04
10769:-2.8813674302970090e-04
10770:4.9419007339407663e-07
10771:1.4760677040899652e-04
10772:-2.9130676741093414e-04
10773:-2.7383027904786119e-05
10774:2.2004905219743536e-04
10775:3.3507962728222606e-04
10776:5.9802411330888961e-05
10777:2.8088200711885828e-04
10778:4.7402753376058350e-04
10779:5.4836943054069277e-04
10780:3.0320976850423164e-04
10781:4.9039386973457667e-04
10782:6.4212315313847714e-04
10783:6.8679954272994354e-04
10784:1.9947252158176103e-04
10785:2.4147743078956519e-04
10786:1.8453945999898709e-04
10787:5.3292764058513755e-05
10788:3.6936333831046183e-04
10789:3.7384125033843545e-04
10790:2.5693520163894926e-04
10791:6.9985884332532470e-05
10792:5.6099499693532129e-04
10793:5.2076972065682157e-04
10794:3.3485926217555065e-04
10795:8.5062966322321782e-05
10796:6.8422826822102779e-04
10797:6.1449935404895954e-04
10798:3.8622497108607430e-04
10799:9.9578894440219618e-05
10800:-1.1755190935236186e-03
10801:-5.6017510565205646e-03
10802:-1.1330474272025345e-02
10803:-1.5692146106675554e-02
10804:-1.0410308877206568e-03
10805:-4.9626319779008006e-03
10806:-1.0036369045933233e-02
10807:-1.3900150121316025e-02
10808:-8.5584158160975437e-04
10809:-4.0826436310060195e-03
10810:-8.2545151675421716e-03
10811:-1.1432742411486133e-02
10812:-7.0609367142354564e-04
10813:-3.3712181473413059e-03
10814:-6.8139873686838643e-03
10815:-9.4379894556910118e-03
10816:-1.8005813369640789e-02
10817:-2.2289062325128433e-02
10818:-2.7761490907392373e-02
10819:-3.1873148681198823e-02
10820:-1.5950444931052049e-02
10821:-1.9744580436526341e-02
10822:-2.4590574017887969e-02
10823:-2.8232481774584650e-02
10824:-1.3120404715577617e-02
10825:-1.6241042940761653e-02
10826:-2.0224391244740077e-02
10827:-2.3219418003424287e-02
10828:-1.0832493708506051e-02
10829:-1.3408644921503832e-02
10830:-1.6694571439732620e-02
10831:-1.9166629443248245e-02
10832:-3.4034642810159381e-02
10833:-3.7998301608039096e-02
10834:-4.2987024831025636e-02
10835:-4.6676542915707303e-02
10836:-3.0147781711646084e-02
10837:-3.3658519734451983e-02
10838:-3.8075548949924265e-02
10839:-4.1342828346622514e-02
10840:-2.4795698655975754e-02
10841:-2.7682707518599289e-02
10842:-3.1312383655451338e-02
10843:-3.3998129407970305e-02
10844:-2.0468842681660913e-02
10845:-2.2851613074696117e-02
10846:-2.5844770737220964e-02
10847:-2.8060406568899396e-02
10848:-4.8595160781393067e-02
10849:-5.2076138164534276e-02
10850:-5.6383238648443156e-02
10851:-5.9510171029464584e-02
10852:-4.3042467762196446e-02
10853:-4.6124869507007497e-02
10854:-4.9937251417930331e-02
10855:-5.2705307860407780e-02
10856:-3.5396179274147101e-02
10857:-3.7929606945627664e-02
10858:-4.1060546264401282e-02
10859:-4.3334263537040139e-02
10860:-2.9214663590604959e-02
10861:-3.1304323803477634e-02
10862:-3.3884429527731033e-02
10863:-3.5758585862948153e-02
10864:-6.1115042604999933e-02
10865:-6.3988335487503253e-02
10866:-6.7466320730181439e-02
10867:-6.9929413526658199e-02
10868:-5.4126417504914225e-02
10869:-5.6669612163290528e-02
10870:-5.9746517225513766e-02
10871:-6.1925467740856117e-02
10872:-4.4502250507463668e-02
10873:-4.6590748894052035e-02
10874:-4.9115185880949749e-02
10875:-5.0902757760267973e-02
10876:-3.6721996937936909e-02
10877:-3.8443034743585298e-02
10878:-4.0521062359795176e-02
10879:-4.1992450130841338e-02
10880:-7.1170783039095298e-02
10881:-7.3352152830056305e-02
10882:-7.5909101004364002e-02
10883:-7.7651513089660396e-02
10884:-6.3023842272882311e-02
10885:-6.4953020456540153e-02
10886:-6.7212872890778513e-02
10887:-6.8752290228811061e-02
10888:-5.1804179260186503e-02
10889:-5.3386030824919412e-02
10890:-5.5236774727085672e-02
10891:-5.6496717638430005e-02
10892:-4.2734784260325197e-02
10893:-4.4036142017539068e-02
10894:-4.5556619136675934e-02
10895:-4.6591050907746422e-02
10896:-7.8503862304908065e-02
10897:-7.9954309197156126e-02
10898:-8.1556593353856371e-02
10899:-8.2565621658822697e-02
10900:-6.9505288075228197e-02
10901:-7.0785847889281758e-02
10902:-7.2198822919226774e-02
10903:-7.3087455306157470e-02
10904:-5.7112957060229654e-02
10905:-5.8159745454840178e-02
10906:-5.9312390612752355e-02
10907:-6.0035598112832142e-02
10908:-4.7096981367954392e-02
10909:-4.7955316488743606e-02
10910:-4.8898321854456521e-02
10911:-4.9488507362907441e-02
10912:-8.3026744558768115e-02
10913:-8.3750233663417578e-02
10914:-8.4418701091008186e-02
10915:-8.4722208045743749e-02
10916:-7.3493133184071816e-02
10917:-7.4128615740211470e-02
10918:-7.4713259110699592e-02
10919:-7.4975905498555415e-02
10920:-6.0365152395765370e-02
10921:-6.0879971402715137e-02
10922:-6.1350054902321642e-02
10923:-6.1557222271350243e-02
10924:-4.9756929954791841e-02
10925:-5.0175045390327744e-02
10926:-5.0553759078286811e-02
10927:-5.0717124280331753e-02
10928:-8.4811068654797636e-02
10929:-8.4849837928455421e-02
10930:-8.4652350062527623e-02
10931:-8.4312046040835656e-02
10932:-7.5051148745979401e-02
10933:-7.5079116629991435e-02
10934:-7.4895744752438223e-02
10935:-7.4587285255684713e-02
10936:-6.1614173800210781e-02
10937:-6.1628251438361974e-02
10938:-6.1465818213287220e-02
10939:-6.1202497858219233e-02
10940:-5.0759878710127278e-02
10941:-5.0763919752561990e-02
10942:-5.0620121842984325e-02
10943:-5.0394699578063078e-02
10944:-8.4064869780292456e-02
10945:-8.3491802682871846e-02
10946:-8.2532781306323605e-02
10947:-8.1635833320852183e-02
10948:-7.4364328708422828e-02
10949:-7.3849591070214632e-02
10950:-7.2991023049138765e-02
10951:-7.2188978726799205e-02
10952:-6.1013622761259559e-02
10953:-6.0580701579723645e-02
10954:-5.9862632566627196e-02
10955:-5.9193075380546085e-02
10956:-5.0234156893012076e-02
10957:-4.9868922614148596e-02
10958:-4.9266592500083292e-02
10959:-4.8705880277122887e-02
10960:-8.1101508835849545e-02
10961:-8.0011381500274412e-02
10962:-7.8420174584834274e-02
10963:-7.7070131570915953e-02
10964:-7.1711325748388413e-02
10965:-7.0738165817938473e-02
10966:-6.9319383483710348e-02
10967:-6.8115842517743330e-02
10968:-5.8794462987439448e-02
10969:-5.7984366607601250e-02
10970:-5.6805821018310804e-02
10971:-5.5806284206820052e-02
10972:-4.8372118914272413e-02
10973:-4.7695702847484915e-02
10974:-4.6713906021219040e-02
10975:-4.5881299272084453e-02
10976:-7.6305330871430224e-02
10977:-7.4805753485444937e-02
10978:-7.2725040986274109e-02
10979:-7.1033114659228305e-02
10980:-6.7433920708177081e-02
10981:-6.6098039696104408e-02
10982:-6.4245883831425266e-02
10983:-6.2739747116321770e-02
10984:-5.5239730864293707e-02
10985:-5.4131685863911802e-02
10986:-5.2597569985184396e-02
10987:-5.1349892618997334e-02
10988:-4.5409100199494880e-02
10989:-4.4487330935231710e-02
10990:-4.3213122961878778e-02
10991:-4.2176568561895902e-02
10992:-7.0097710802197843e-02
10993:-6.8300760240858155e-02
10994:-6.5876100761219553e-02
10995:-6.3953496654698502e-02
10996:-6.1906828062863496e-02
10997:-6.0307892081888838e-02
10998:-5.8151747918165249e-02
10999:-5.6441892623796085e-02
11000:-5.0659517104090043e-02
11001:-4.9335974720913063e-02
11002:-4.7553224968466444e-02
11003:-4.6139161171774773e-02
11004:-4.1602596336371207e-02
11005:-4.0503901343049487e-02
11006:-3.9025923829979194e-02
11007:-3.7853215759136596e-02
11008:-6.2906599846952210e-02
11009:-6.0921697668443638e-02
11010:-5.8292859422258911e-02
11011:-5.6244595651634845e-02
11012:-5.5510557692950512e-02
11013:-5.3745854482381915e-02
11014:-5.1409936579466020e-02
11015:-4.9589711196258511e-02
11016:-4.5368472900703984e-02
11017:-4.3909853135283713e-02
11018:-4.1981050070437738e-02
11019:-4.0477709841935411e-02
11020:-3.7213581569983840e-02
11021:-3.6004621558164640e-02
11022:-3.4407802767531158e-02
11023:-3.3162799000834332e-02
11024:-5.5141421563046258e-02
11025:-5.3069799900304769e-02
11026:-5.0364199268756210e-02
11027:-4.8284562526670308e-02
11028:-4.8609058625753140e-02
11029:-4.6768557935012341e-02
11030:-4.4366048781874390e-02
11031:-4.2519212527947929e-02
11032:-3.9667292919681463e-02
11033:-3.8147889864872761e-02
11034:-3.6166402309199118e-02
11035:-3.4642888251282263e-02
11036:-3.2491138458614829e-02
11037:-3.1233415075875119e-02
11038:-2.9594955381997873e-02
11039:-2.8334798546028054e-02
11040:-4.7174177718970103e-02
11041:-4.5104973597053614e-02
11042:-4.2433203846193701e-02
11043:-4.0402785660698319e-02
11044:-4.1532843222745128e-02
11045:-3.9695712727284428e-02
11046:-3.7324780453866960e-02
11047:-3.5522864021582570e-02
11048:-3.3828733187510854e-02
11049:-3.2313832733689617e-02
11050:-3.0360528200868278e-02
11051:-2.8875756585313023e-02
11052:-2.7660891947686738e-02
11053:-2.6408364216976017e-02
11054:-2.4795017603900113e-02
11055:-2.3568336552380133e-02
11056:-3.9326687286348652e-02
11057:-3.7334560159545491e-02
11058:-3.4787815493488861e-02
11059:-3.2871927593330429e-02
11060:-3.4567615255652842e-02
11061:-3.2800090931846985e-02
11062:-3.0541576917338269e-02
11063:-2.8842453314654438e-02
11064:-2.8088214404113739e-02
11065:-2.6632333195604867e-02
11066:-2.4773661617346517e-02
11067:-2.3375174856464412e-02
11068:-2.2917246775955892e-02
11069:-2.1714882310403378e-02
11070:-2.0181384299396716e-02
11071:-1.9027322245535376e-02
11072:-3.1863330451635911e-02
11073:-3.0007346663911891e-02
11074:-2.7656392213285644e-02
11075:-2.5904597156950156e-02
11076:-2.7947753881029339e-02
11077:-2.6302133545521515e-02
11078:-2.4218630974134212e-02
11079:-2.2666104689701375e-02
11080:-2.2638420331781921e-02
11081:-2.1284471084051931e-02
11082:-1.9571709326432214e-02
11083:-1.8295348955372770e-02
11084:-1.8418955963792668e-02
11085:-1.7302049067371598e-02
11086:-1.5890500434258357e-02
11087:-1.4838449168761068e-02
11088:-2.4988293803517705e-02
11089:-2.3311840942023758e-02
11090:-2.1207223990230544e-02
11091:-1.9653727568211137e-02
11092:-2.1853857242720775e-02
11093:-2.0368429534601638e-02
11094:-1.8504456825538165e-02
11095:-1.7128582183210356e-02
11096:-1.7627292114080564e-02
11097:-1.6406530890137258e-02
11098:-1.4875912570718264e-02
11099:-1.3746057684887316e-02
11100:-1.4287485311774636e-02
11101:-1.3281613197594811e-02
11102:-1.2021587944285584e-02
11103:-1.1091393344034185e-02
11104:-1.8846373256795026e-02
11105:-1.7377824308375520e-02
11106:-1.5551015997281556e-02
11107:-1.4215775024282859e-02
11108:-1.6413393710818458e-02
11109:-1.5112998221262738e-02
11110:-1.3496014318765910e-02
11111:-1.2314120476294809e-02
11112:-1.3158517967826163e-02
11113:-1.2090993135042418e-02
11114:-1.0764561607883099e-02
11115:-9.7950064065636718e-03
11116:-1.0607436297910135e-02
11117:-9.7288503560704481e-03
11118:-8.6381112263243520e-03
11119:-7.8407757290477383e-03
11120:-1.3526565480329988e-02
11121:-1.2280685109450689e-02
11122:-1.0746143847496219e-02
11123:-9.6365963773784036e-03
11124:-1.1703941024063800e-02
11125:-1.0601275205095503e-02
11126:-9.2435482748475378e-03
11127:-8.2617644520655790e-03
11128:-9.2942604607037828e-03
11129:-8.3899074991744173e-03
11130:-7.2770524856613497e-03
11131:-6.4722623094709449e-03
11132:-7.4287803850070517e-03
11133:-6.6852540533660588e-03
11134:-5.7709945518358953e-03
11135:-5.1097769134591711e-03
11136:-9.0682385301967851e-03
11137:-8.0481791226874114e-03
11138:-6.8064108519014736e-03
11139:-5.9202613685542353e-03
11140:-7.7587305615592324e-03
11141:-6.8561335960790337e-03
11142:-5.7575894462895145e-03
11143:-4.9735174240035252e-03
11144:-6.0597483556669588e-03
11145:-5.3199356508647055e-03
11146:-4.4199069174921226e-03
11147:-3.7773487802228289e-03
11148:-4.7707045427392873e-03
11149:-4.1629645818587278e-03
11150:-3.4239982213258697e-03
11151:-2.8962587974506889e-03
11152:-5.4706330265991135e-03
11153:-4.6712591542847539e-03
11154:-3.7135079517240277e-03
11155:-3.0425642812857059e-03
11156:-4.5755665727009506e-03
11157:-3.8682484805578777e-03
11158:-3.0210626150385181e-03
11159:-2.4276092461169500e-03
11160:-3.4510511310346503e-03
11161:-2.8713530133342652e-03
11162:-2.1773874324341712e-03
11163:-1.6912588923978923e-03
11164:-2.6280988038866666e-03
11165:-2.1519239414942125e-03
11166:-1.5821840144805610e-03
11167:-1.1830098068017414e-03
11168:-2.7068520120219468e-03
11169:-2.1192326031554214e-03
11170:-1.4344732873746255e-03
11171:-9.7099126080079951e-04
11172:-2.1306567744972999e-03
11173:-1.6113439422931069e-03
11174:-1.0071738215162288e-03
11175:-5.9900029848664331e-04
11176:-1.4479552800740600e-03
11177:-1.0229731954859438e-03
11178:-5.2954429105324060e-04
11179:-1.9683650183073884e-04
11180:-9.8314133353009491e-04
11181:-6.3436422270649702e-04
11182:-2.2997373102862892e-04
11183:4.2468687624940800e-05
11184:-7.4542152734612729e-04
11185:-3.6390942817357802e-04
11186:5.1829625888465019e-05
11187:3.0788067305532156e-04
11188:-4.0067527663568731e-04
11189:-6.6840211907324198e-05
11190:2.9289340413302963e-04
11191:5.1037911847367080e-04
11192:-3.5446742587803076e-05
11193:2.3438159439441287e-04
11194:5.2038279281127063e-04
11195:6.8842780136744422e-04
11196:1.7455093185321925e-04
11197:3.9417033899574988e-04
11198:6.2367995842761887e-04
11199:7.5508115323286130e-04
11200:4.2204058131535939e-04
11201:5.9095109755492479e-04
11202:7.2095352685518804e-04
11203:7.5060015787910739e-04
11204:6.0542253800968432e-04
11205:7.4114767110074360e-04
11206:8.3287136215070483e-04
11207:8.3677376491876870e-04
11208:7.5952179029935914e-04
11209:8.5485215421742195e-04
11210:9.0186671690574980e-04
11211:8.7673059485891792e-04
11212:8.0893128627157517e-04
11213:8.7594049004152891e-04
11214:8.9269117726721906e-04
11215:8.4835928576950314e-04
11216:7.4056954130081337e-04
11217:6.5726380058865033e-04
11218:4.1118775000371569e-04
11219:1.1008740918507445e-04
11220:8.1424413148026970e-04
11221:7.0993193575682458e-04
11222:4.4040253631695884e-04
11223:1.2351507044062971e-04
11224:8.4050758882041820e-04
11225:7.1719266316710051e-04
11226:4.3682934785726742e-04
11227:1.2243177592384747e-04
11228:8.0329671477100378e-04
11229:6.7148947937597852e-04
11230:3.9815157539502358e-04
11231:1.0400232527357080e-04
11232:-6.2333506310517585e-04
11233:-2.9781245313147834e-03
11234:-6.0180447396290899e-03
11235:-8.3358251540470545e-03
11236:-4.6091194224358702e-04
11237:-2.2066242050227422e-03
11238:-4.4558900338238939e-03
11239:-6.1727154156476800e-03
11240:-2.3439655898767727e-04
11241:-1.1299844736171539e-03
11242:-2.2757633035431200e-03
11243:-3.1540251450442197e-03
11244:-4.9303782967928020e-05
11245:-2.4910856872719723e-04
11246:-4.9187151036086734e-04
11247:-6.8408623696189475e-04
11248:-9.5683565735834343e-03
11249:-1.1843672860812568e-02
11250:-1.4744273089230745e-02
11251:-1.6927404180336624e-02
11252:-7.0874124943666227e-03
11253:-8.7724658890230463e-03
11254:-1.0917145245985929e-02
11255:-1.2533576576832838e-02
11256:-3.6253099726099038e-03
11257:-4.4870156888914417e-03
11258:-5.5775415964977012e-03
11259:-6.4039228545639199e-03
11260:-7.9268650329581466e-04
11261:-9.8105052483072382e-04
11262:-1.2096894204706395e-03
11263:-1.3902911387404374e-03
11264:-1.8078209203474083e-02
11265:-2.0182420139410028e-02
11266:-2.2823960900121398e-02
11267:-2.4779927114304722e-02
11268:-1.3387452690918650e-02
11269:-1.4945453359485206e-02
11270:-1.6897719011782279e-02
11271:-1.8344839381414922e-02
11272:-6.8439321232160845e-03
11273:-7.6407967094110091e-03
11274:-8.6330101175758640e-03
11275:-9.3718053818862175e-03
11276:-1.4920767264323819e-03
11277:-1.6670790481450172e-03
11278:-1.8752834687024355e-03
11279:-2.0359767370879424e-03
11280:-2.5799532766756020e-02
11281:-2.7644105818331034e-02
11282:-2.9920025428652901e-02
11283:-3.1573564042101911e-02
11284:-1.9100661568478117e-02
11285:-2.0465252130289140e-02
11286:-2.2145746888622139e-02
11287:-2.3367686131259766e-02
11288:-9.7606079689097156e-03
11289:-1.0457700303510585e-02
11290:-1.1310832691551396e-02
11291:-1.1933604676490772e-02
11292:-2.1253730360354037e-03
11293:-2.2782085317580992e-03
11294:-2.4572902507993617e-03
11295:-2.5923719297727336e-03
11296:-3.2424031678474678e-02
11297:-3.3942225465433636e-02
11298:-3.5773883045690687e-02
11299:-3.7070818783205839e-02
11300:-2.3997293716519725e-02
11301:-2.5119010432928426e-02
11302:-2.6469499161016478e-02
11303:-2.7426049513902366e-02
11304:-1.2256813743624535e-02
11305:-1.2828911423187891e-02
11306:-1.3513239324220137e-02
11307:-1.3999266642728733e-02
11308:-2.6663590271202102e-03
11309:-2.7917373473620188e-03
11310:-2.9353242644978238e-03
11311:-3.0400050210553867e-03
11312:-3.7725396811172172e-02
11313:-3.8872067337923775e-02
11314:-4.0210490510999793e-02
11315:-4.1120682819292542e-02
11316:-2.7909528339749506e-02
11317:-2.8754857883020634e-02
11318:-2.9739148869942104e-02
11319:-3.0408102998703220e-02
11320:-1.4246516212381535e-02
11321:-1.4676366331192120e-02
11322:-1.5173557256697900e-02
11323:-1.5511666146683242e-02
11324:-3.0960277167656281e-03
11325:-3.1900093638975602e-03
11326:-3.2943822429330506e-03
11327:-3.3664768355604530e-03
11328:-4.1565869480155511e-02
11329:-4.2320491020066305e-02
11330:-4.3148253719532563e-02
11331:-4.3665428714307446e-02
11332:-3.0735512194840643e-02
11333:-3.1289389049932663e-02
11334:-3.1894823200532496e-02
11335:-3.2271784859900246e-02
11336:-1.5677931780569983e-02
11337:-1.5957922149202122e-02
11338:-1.6261652077121564e-02
11339:-1.6449776129050981e-02
11340:-3.4034885592052863e-03
11341:-3.4644211573259562e-03
11342:-3.5281732812906140e-03
11343:-3.5672732279269774e-03
11344:-4.3900346609806101e-02
11345:-4.4265569664691751e-02
11346:-4.4594553289814758e-02
11347:-4.4734328749614534e-02
11348:-3.2442627616685212e-02
11349:-3.2707276754220665e-02
11350:-3.2943006709285842e-02
11351:-3.3039891631225067e-02
11352:-1.6534929546689288e-02
11353:-1.6666377903227100e-02
11354:-1.6781557501779225e-02
11355:-1.6826086071359762e-02
11356:-3.5853059144880582e-03
11357:-3.6134948384992796e-03
11358:-3.6376992547136507e-03
11359:-3.6453738826578387e-03
11360:-4.4769576145612326e-02
11361:-4.4768731234570550e-02
11362:-4.4636137090017014e-02
11363:-4.4432379038071339e-02
11364:-3.3062241473165853e-02
11365:-3.3055291463046886e-02
11366:-3.2949283726429586e-02
11367:-3.2791583151475914e-02
11368:-1.6834473110901166e-02
11369:-1.6826640928641209e-02
11370:-1.6767775856005564e-02
11371:-1.6682056509179696e-02
11372:-3.6455561303450450e-03
11373:-3.6430820458878610e-03
11374:-3.6307611621015554e-03
11375:-3.6100459731354751e-03
11376:-4.4287885641773495e-02
11377:-4.3960812772129251e-02
11378:-4.3423462442894190e-02
11379:-4.2923700406464038e-02
11380:-3.2680472848621855e-02
11381:-3.2431830840051995e-02
11382:-3.2026594496084394e-02
11383:-3.1649920969645001e-02
11384:-1.6621630712918330e-02
11385:-1.6490102366893133e-02
11386:-1.6279127229706317e-02
11387:-1.6081683784491936e-02
11388:-3.5943358591158749e-03
11389:-3.5646846117496083e-03
11390:-3.5204492826303238e-03
11391:-3.4755161072166372e-03
11392:-4.2626208265096194e-02
11393:-4.2024489135409404e-02
11394:-4.1152512192400660e-02
11395:-4.0412999196456897e-02
11396:-3.1425435549524261e-02
11397:-3.0973698536472687e-02
11398:-3.0321562048589688e-02
11399:-2.9767954852510270e-02
11400:-1.5962997194045234e-02
11401:-1.5727795469929074e-02
11402:-1.5391615677783509e-02
11403:-1.5104220980532646e-02
11404:-3.4464707052248799e-03
11405:-3.3941045134069331e-03
11406:-3.3235952045261546e-03
11407:-3.2592913757911756e-03
11408:-3.9993393166086369e-02
11409:-3.9175414257952082e-02
11410:-3.8045948868786532e-02
11411:-3.7126912850804619e-02
11412:-2.9453231175056591e-02
11413:-2.8841994723946048e-02
11414:-2.8000402319160570e-02
11415:-2.7314773466188845e-02
11416:-1.4939375433398554e-02
11417:-1.4623052096905504e-02
11418:-1.4191133521170152e-02
11419:-1.3836971083147824e-02
11420:-3.2198062286833773e-03
11421:-3.1497391872654244e-03
11422:-3.0591401290710209e-03
11423:-2.9805937856526364e-03
11424:-3.6617715598512582e-02
11425:-3.5644111882204267e-02
11426:-3.4335633299068254e-02
11427:-3.3297110184991291e-02
11428:-2.6934120111436172e-02
11429:-2.6208572693213097e-02
11430:-2.5235862880183611e-02
11431:-2.4462894395172855e-02
11432:-1.3638632225642093e-02
11433:-1.3264499374269873e-02
11434:-1.2766698295716628e-02
11435:-1.2368762892966007e-02
11436:-2.9336684683503862e-03
11437:-2.8510660380261887e-03
11438:-2.7466380777130170e-03
11439:-2.6589023400076161e-03
11440:-3.2730321333703925e-02
11441:-3.1660106646891333e-02
11442:-3.0247732907356922e-02
11443:-2.9146216527195082e-02
11444:-2.4040178623737005e-02
11445:-2.3244218153707755e-02
11446:-2.2196133321737640e-02
11447:-2.1377786508683688e-02
11448:-1.2149322300613583e-02
11449:-1.1739968405015100e-02
11450:-1.1204751182666393e-02
11451:-1.0784573645884839e-02
11452:-2.6074438041145541e-03
11453:-2.5172991165983163e-03
11454:-2.4050179175391724e-03
11455:-2.3128001006132068e-03
11456:-2.8551610786221534e-02
11457:-2.7439179610469960e-02
11458:-2.5991129958005885e-02
11459:-2.4877120659618238e-02
11460:-2.0935167919196706e-02
11461:-2.0109178523198223e-02
11462:-1.9036249050356731e-02
11463:-1.8209954752358586e-02
11464:-1.0555494586043095e-02
11465:-1.0131641974714323e-02
11466:-9.5847506838998738e-03
11467:-9.1614762463174369e-03
11468:-2.2594713719934672e-03
11469:-2.1663446863145076e-03
11470:-2.0516056366935123e-03
11471:-1.9590657427912125e-03
11472:-2.4281029723889722e-02
11473:-2.3174052202305079e-02
11474:-2.1749246911716473e-02
11475:-2.0665665593022391e-02
11476:-1.7766984383120611e-02
11477:-1.6946280524032201e-02
11478:-1.5892053426096224e-02
11479:-1.5089543419468377e-02
11480:-8.9328340325549541e-03
11481:-8.5125518537309541e-03
11482:-7.9761156955762899e-03
11483:-7.5659156967205878e-03
11484:-1.9061857059126555e-03
11485:-1.8140469253926505e-03
11486:-1.7015003507738649e-03
11487:-1.6121339966984559e-03
11488:-2.0090219090040426e-02
11489:-1.9028368681947672e-02
11490:-1.7675053978031385e-02
11491:-1.6656395466342455e-02
11492:-1.4662605165158415e-02
11493:-1.3876498932743194e-02
11494:-1.2876538850946636e-02
11495:-1.2123239639809205e-02
11496:-7.3461132503318842e-03
11497:-6.9443394193138162e-03
11498:-6.4363676137401855e-03
11499:-6.0521463987914751e-03
11500:-1.5616119555978730e-03
11501:-1.4737169455715058e-03
11502:-1.3671319876816005e-03
11503:-1.2837090764252770e-03
11504:-1.6119139595842463e-02
11505:-1.5133499387725889e-02
11506:-1.3888707609944319e-02
11507:-1.2960803969034974e-02
11508:-1.1725280739383804e-02
11509:-1.0996660764081992e-02
11510:-1.0078157980798625e-02
11511:-9.3930056208430084e-03
11512:-5.8477925816590596e-03
11513:-5.4761471252500783e-03
11514:-5.0103466739789843e-03
11515:-4.6616343817286960e-03
11516:-1.2370332269588250e-03
11517:-1.1559205675642204e-03
11518:-1.0581840785836799e-03
11519:-9.8272436680082401e-04
11520:-1.2474635517681899e-02
11521:-1.1587656105310413e-02
11522:-1.0477307920693178e-02
11523:-9.6575302726520217e-03
11524:-9.0334768362142995e-03
11525:-8.3787643174727741e-03
11526:-7.5606269324787981e-03
11527:-6.9562677183418759e-03
11528:-4.4774952652974764e-03
11529:-4.1442300987619236e-03
11530:-3.7300588793812840e-03
11531:-3.4231731669297502e-03
11532:-9.4093399426318114e-04
11533:-8.6837227984401608e-04
11534:-7.8146836764895014e-04
11535:-7.1530305269846650e-04
11536:-9.2308490835407795e-03
11537:-8.4567200098349567e-03
11538:-7.4962565809492711e-03
11539:-6.7940938938719463e-03
11540:-6.6412781906381403e-03
11541:-6.0707531462415752e-03
11542:-5.3640528968353423e-03
11543:-4.8471646708137276e-03
11544:-3.2623039279138359e-03
11545:-2.9725256626369862e-03
11546:-2.6153795810976740e-03
11547:-2.3534604147449120e-03
11548:-6.7905478841318360e-04
11549:-6.1613072484557950e-04
11550:-5.4116008637538010e-04
11551:-4.8487111688956053e-04
11552:-6.4311385787340462e-03
11553:-5.7764725121637519e-03
11554:-4.9719363847760406e-03
11555:-4.3900441633355327e-03
11556:-4.5796412787294256e-03
11557:-4.0978397236299787e-03
11558:-3.5066465854389139e-03
11559:-3.0789129866635764e-03
11560:-2.2171895701744771e-03
11561:-1.9729938280935865e-03
11562:-1.6747670866948821e-03
11563:-1.4585155608745177e-03
11564:-4.5439118258503016e-04
11565:-4.0157945509701758e-04
11566:-3.3907426170119899e-04
11567:-2.9278615079540222e-04
11568:-4.0915510643156133e-03
11569:-3.5567811721368384e-03
11570:-2.9067931189461806e-03
11571:-2.4424818323601056e-03
11572:-2.8592523197300606e-03
11573:-2.4661879566249337e-03
11574:-1.9889444176908327e-03
11575:-1.6477881867865841e-03
11576:-1.3469268474232937e-03
11577:-1.1480304327839605e-03
11578:-9.0741396382795336e-04
11579:-7.3501040337315619e-04
11580:-2.6798471386956283e-04
11581:-2.2495281418717620e-04
11582:-1.7425732106288852e-04
11583:-1.3735747993164220e-04
11584:-2.2064378159532176e-03
11585:-1.7874416354143961e-03
11586:-1.2862897416194732e-03
11587:-9.3509952552434756e-04
11588:-1.4741225944876809e-03
11589:-1.1662068346857076e-03
11590:-7.9829151725992935e-04
11591:-5.4025843162990538e-04
11592:-6.4686921707494092e-04
11593:-4.9129382921783401e-04
11594:-3.0607244681344102e-04
11595:-1.7565122723292337e-04
11596:-1.1793363883720292e-04
11597:-8.4783258263399928e-05
11598:-4.6333234149989604e-05
11599:-1.8321410533559888e-05
11600:-7.5918680225776469e-04
11601:-4.5237883687144272e-04
11602:-9.6879639930902233e-05
11603:1.4260771128315821e-04
11604:-4.1081624883387683e-04
11605:-1.8531159654515227e-04
11606:7.5645955127996291e-05
11607:2.5149260405189821e-04
11608:-1.0978853185049546e-04
11609:4.6367404520664859e-06
11610:1.3661091706405475e-04
11611:2.2565370377531418e-04
11612:-3.4201523561771051e-06
11613:2.2036236577005267e-05
11614:5.0719218609323122e-05
11615:7.0164589011485339e-05
11616:2.5872706303069817e-04
11617:4.5122864350714695e-04
11618:6.5079345911079711e-04
11619:7.6332230353387217e-04
11620:3.3681210137586487e-04
11621:4.7734461506577006e-04
11622:6.2092981787124078e-04
11623:6.9999291622579746e-04
11624:2.6895220224807477e-04
11625:3.3914500477687096e-04
11626:4.0951935641591404e-04
11627:4.4834230549713986e-04
11628:7.9723156786625521e-05
11629:9.3761568861057285e-05
11630:1.0737385224983410e-04
11631:1.1748597849049629e-04
11632:8.0852641706641477e-04
11633:8.6164163162023107e-04
11634:8.6400310137465391e-04
11635:8.1077987009472085e-04
11636:7.3079260581059783e-04
11637:7.6264136557987929e-04
11638:7.4720437635608270e-04
11639:6.8682857080756322e-04
11640:4.6378193640492791e-04
11641:4.7776837096139127e-04
11642:4.5937457065941065e-04
11643:4.1139615607494037e-04
11644:1.2351448793192593e-04
11645:1.3133720367360514e-04
11646:1.2714101343644054e-04
11647:1.0679627037387856e-04
11648:7.6174725967118105e-04
11649:6.2800330889430773e-04
11650:3.6455683388236364e-04
11651:8.8198143038818730e-05
11652:6.3645246182639443e-04
11653:5.1338783309891626e-04
11654:2.9029290541201993e-04
11655:6.3887101870684258e-05
11656:3.7317817220406421e-04
11657:2.9294396670064677e-04
11658:1.5947670144543462e-04
11659:2.0508409717997906e-05
11660:8.9450933374496283e-05
11661:6.3106989801518513e-05
11662:1.9240669860649773e-05
11663:-4.5963632786779640e-05
11664:-1.5379172749637157e-01
11665:-1.3459115221332199e-01
11666:-1.1602294331265949e-01
11667:-1.0757296368451449e-01
11668:-8.1063219898707140e-01
11669:-7.0895069983309411e-01
11670:-5.9641118219051081e-01
11671:-5.2571274131731904e-01
11672:-1.6640946225784206e+00
11673:-1.4536626372030841e+00
11674:-1.2168251144199280e+00
11675:-1.0633629078543192e+00
11676:-2.3106364739422820e+00
11677:-2.0169745096038700e+00
11678:-1.6846368330436901e+00
11679:-1.4672043513098179e+00
11680:-1.0532513213900629e-01
11681:-1.0479959553960687e-01
11682:-1.0945494175399520e-01
11683:-1.1557392906038566e-01
11684:-4.9350841358745168e-01
11685:-4.4155372325506681e-01
11686:-3.8808373831492859e-01
11687:-3.5637647338407696e-01
11688:-9.9113501384728098e-01
11689:-8.7009258352937924e-01
11690:-7.3785588691484449e-01
11691:-6.5438416062907345e-01
11692:-1.3638750520282459e+00
11693:-1.1888871927046887e+00
11694:-9.9469991223308329e-01
11695:-8.7019685022777926e-01
11696:-1.1929029484033472e-01
11697:-1.2589661334285177e-01
11698:-1.3088995548193785e-01
11699:-1.2954777407915666e-01
11700:-3.4223616049929362e-01
11701:-3.1888662690080755e-01
11702:-2.9140532464596008e-01
11703:-2.7005666295319891e-01
11704:-6.1562849339554770e-01
11705:-5.5073381957282419e-01
11706:-4.7783620699860535e-01
11707:-4.2829338273581874e-01
11708:-8.1181847289167275e-01
11709:-7.1360382787723031e-01
11710:-6.0396171389306053e-01
11711:-5.3141733725411622e-01
11712:-1.2631763857633294e-01
11713:-1.1442455188194045e-01
11714:-8.5509612873273744e-02
11715:-5.1466868199925908e-02
11716:-2.5782565870629354e-01
11717:-2.3176093299963155e-01
11718:-1.8953386787363058e-01
11719:-1.4918606478484608e-01
11720:-4.0333497897967552e-01
11721:-3.5741666752749479e-01
11722:-2.9704812115301726e-01
11723:-2.4866628553898870e-01
11724:-4.9603086159564191e-01
11725:-4.3395274594750910e-01
11726:-3.5912978588450611e-01
11727:-3.0470523069058075e-01
11728:-2.8652376287580751e-02
11729:2.4120348760315317e-02
11730:1.1612937543381983e-01
11731:2.0744758509635780e-01
11732:-1.2437974168651188e-01
11733:-7.0603949276339367e-02
11734:1.6986898000728091e-02
11735:1.0024021238686649e-01
11736:-2.2163633947201658e-01
11737:-1.6764190742871982e-01
11738:-8.8144575936184646e-02
11739:-1.8050086841335963e-02
11740:-2.7621622170780874e-01
11741:-2.2270876034121873e-01
11742:-1.5076528154859506e-01
11743:-9.2302811566246548e-02
11744:2.6435112547658168e-01
11745:3.8698672805762663e-01
11746:5.7637169881226458e-01
11747:7.4253911449490939e-01
11748:1.5113179943033597e-01
11749:2.5987250546329260e-01
11750:4.2711377476204943e-01
11751:5.7410307588818144e-01
11752:2.3237532967282405e-02
11753:1.0974335982351487e-01
11754:2.4142835487566827e-01
11755:3.5754345281543631e-01
11756:-5.9431927202058421e-02
11757:7.3951762084477632e-03
11758:1.0729204641251262e-01
11759:1.9563314913521895e-01
11760:8.3809596370972694e-01
11761:1.0286698018820675e+00
11762:1.2929277850535545e+00
11763:1.5019292403473363e+00
11764:6.5891543390998875e-01
11765:8.2872642266866514e-01
11766:1.0648043367256408e+00
11767:1.2514105947430820e+00
11768:4.2505122479063095e-01
11769:5.6182497315302393e-01
11770:7.5424043014932518e-01
11771:9.0730545553111885e-01
11772:2.4754037971337681e-01
11773:3.5477254661761098e-01
11774:5.0888611536548056e-01
11775:6.3328268796963749e-01
11776:1.6140184003940818e+00
11777:1.8232126898000802e+00
11778:2.0884599745832801e+00
11779:2.2812273681918382e+00
11780:1.3513202212984921e+00
11781:1.5378341690106707e+00
11782:1.7747240533741502e+00
11783:1.9473872566962194e+00
11784:9.8945511155115451e-01
11785:1.1437769763529135e+00
11786:1.3415822114729257e+00
11787:1.4869877836182763e+00
11788:7.0057419183916114e-01
11789:8.2849729726481303e-01
11790:9.9492422496013377e-01
11791:1.1186584671365560e+00
11792:2.3788851594906939e+00
11793:2.5501503369910270e+00
11794:2.7437761356703492e+00
11795:2.8639351366477115e+00
11796:2.0351263931951569e+00
11797:2.1898506310579284e+00
11798:2.3662584067575185e+00
11799:2.4767518066201317e+00
11800:1.5613140976608655e+00
11801:1.6936935484016864e+00
11802:1.8476087343796597e+00
11803:1.9468567629099125e+00
11804:1.1823005821596870e+00
11805:1.2967657997769122e+00
11806:1.4329221005553383e+00
11807:1.5240518681642805e+00
11808:2.9164040485444644e+00
11809:2.9912137519306916e+00
11810:3.0395334058395513e+00
11811:3.0363471068377716e+00
11812:2.5253761620645450e+00
11813:2.5955223851198594e+00
11814:2.6429540278360899e+00
11815:2.6432320621278182e+00
11816:1.9918869514872892e+00
11817:2.0602088623060890e+00
11818:2.1143542975995975e+00
11819:2.1261993183770649e+00
11820:1.5670813775462475e+00
11821:1.6367190816390766e+00
11822:1.7015002502593053e+00
11823:1.7273183770857472e+00
11824:3.0197071505732858e+00
11825:2.9615614625347022e+00
11826:2.8399047095968135e+00
11827:2.7176086182471941e+00
11828:2.6299480653029823e+00
11829:2.5806824446650625e+00
11830:2.4747353280067768e+00
11831:2.3668409540991440e+00
11832:2.1211518201010797e+00
11833:2.0901135310215526e+00
11834:2.0123238833556245e+00
11835:1.9285940043139154e+00
11836:1.7314137925715924e+00
11837:1.7190591165676199e+00
11838:1.6679285584568582e+00
11839:1.6060081035510423e+00
11840:2.6438932779063973e+00
11841:2.4919984684225946e+00
11842:2.2715950503919085e+00
11843:2.0893740125527462e+00
11844:2.3013999315698745e+00
11845:2.1658807629064301e+00
11846:1.9686416540922886e+00
11847:1.8056966755184312e+00
11848:1.8767129937397287e+00
11849:1.7675299268748403e+00
11850:1.6062684497563915e+00
11851:1.4720634105296964e+00
11852:1.5661385159482364e+00
11853:1.4802281649121345e+00
11854:1.3504849053838044e+00
11855:1.2410492209960442e+00
11856:1.9886487615886821e+00
11857:1.7951382542669203e+00
11858:1.5399361094489785e+00
11859:1.3474936912189495e+00
11860:1.7158225606414015e+00
11861:1.5435866315149307e+00
11862:1.3170512857902781e+00
11863:1.1465163813799695e+00
11864:1.3978934476368057e+00
11865:1.2556009353554110e+00
11866:1.0681292253456531e+00
11867:9.2672775172866906e-01
11868:1.1801999306797273e+00
11869:1.0626492364791331e+00
11870:9.0635743651346268e-01
11871:7.8754339159233466e-01
11872:1.2475907515541880e+00
11873:1.0673738305046427e+00
11874:8.5061055968153576e-01
11875:7.0208689345880460e-01
11876:1.0580448297965217e+00
11877:8.9862499465724088e-01
11878:7.0763697061224473e-01
11879:5.7776642843045778e-01
11880:8.5324293436756193e-01
11881:7.2035723965565879e-01
11882:5.6063997837838908e-01
11883:4.5203707868631204e-01
11884:7.2547789609135160e-01
11885:6.1239144370302567e-01
11886:4.7506432892682166e-01
11887:3.8083073516489052e-01
11888:6.3019053821126325e-01
11889:5.0903634739671266e-01
11890:3.7580328081337488e-01
11891:2.9086997059390057e-01
11892:5.1538382184367704e-01
11893:4.1095406403482782e-01
11894:2.9733659684097136e-01
11895:2.2581391654444413e-01
11896:4.0000821851011559e-01
11897:3.1346368448168727e-01
11898:2.2046146648508858e-01
11899:1.6287450172130516e-01
11900:3.3545692040660091e-01
11901:2.6010547493597280e-01
11902:1.7959670889427004e-01
11903:1.3024355508667074e-01
11904:2.5115876285294148e-01
11905:1.8630392072961535e-01
11906:1.1913966256647300e-01
11907:7.9741542202538304e-02
11908:1.9269857752713421e-01
11909:1.3929542111800411e-01
11910:8.5250234477437237e-02
11911:5.4486579496270088e-02
11912:1.3658695057568029e-01
11913:9.4905748132237192e-02
11914:5.4055683061280987e-02
11915:3.1835431084077999e-02
11916:1.0793992561098448e-01
11917:7.2911020364265444e-02
11918:3.9195919301059090e-02
11919:2.1347873873116083e-02
11920:6.2646997486574513e-02
11921:3.7080310026634811e-02
11922:1.4216465118593277e-02
11923:2.7591019689295402e-03
11924:4.1479520353045168e-02
11925:2.2665407484356827e-02
11926:7.3751507469264847e-03
11927:1.2791744622192909e-03
11928:2.2821045782427968e-02
11929:1.0272903967278327e-02
11930:1.1177375498566179e-03
11931:-1.4719705012981514e-03
11932:1.4299109332590243e-02
11933:4.7654890882294189e-03
11934:-1.7325222388073285e-03
11935:-3.2200891720719528e-03
11936:-2.6509731885683108e+00
11937:-2.3133167730556981e+00
11938:-1.9303514291980604e+00
11939:-1.6788551402296021e+00
11940:-3.2795851103159501e+00
11941:-2.8606188191680211e+00
11942:-2.3840156413370805e+00
11943:-2.0693550336220090e+00
11944:-4.0746126966848379e+00
11945:-3.5526753569483041e+00
11946:-2.9576428817319838e+00
11947:-2.5629903738005044e+00
11948:-4.6596447699045545e+00
11949:-4.0617527083363560e+00
11950:-3.3797021313783557e+00
11951:-2.9263590851838508e+00
11952:-1.5589000385725478e+00
11953:-1.3549922486573851e+00
11954:-1.1274590186606188e+00
11955:-9.8077856152440968e-01
11956:-1.9184808045434314e+00
11957:-1.6606545784665856e+00
11958:-1.3707235577762154e+00
11959:-1.1823868825305006e+00
11960:-2.3728483434987844e+00
11961:-2.0462210000289200e+00
11962:-1.6760804912833975e+00
11963:-1.4337793294499430e+00
11964:-2.7073694721025396e+00
11965:-2.3298844513751771e+00
11966:-1.8998522191485074e+00
11967:-1.6168257856690524e+00
11968:-9.1176244445797372e-01
11969:-7.9541043573385473e-01
11970:-6.6564098089962442e-01
11971:-5.8041576081430379e-01
11972:-1.0933343202602024e+00
11973:-9.4267541949024491e-01
11974:-7.7451512296424507e-01
11975:-6.6481318902294118e-01
11976:-1.3186272911889285e+00
11977:-1.1230364410248665e+00
11978:-9.0406239619184559e-01
11979:-7.6147060265423216e-01
11980:-1.4818338201717631e+00
11981:-1.2519357369290396e+00
11982:-9.9385163137567401e-01
11983:-8.2565560261573689e-01
11984:-5.3925745876050835e-01
11985:-4.6825301938374836e-01
11986:-3.8550697342193102e-01
11987:-3.2784349149366698e-01
11988:-6.1239327735668636e-01
11989:-5.2377834898444875e-01
11990:-4.2491933713203600e-01
11991:-3.6009686973256100e-01
11992:-6.9370534972429498e-01
11993:-5.8064586217762937e-01
11994:-4.5830361829350397e-01
11995:-3.8177327537096861e-01
11996:-7.4581386769625801e-01
11997:-6.1313978853743500e-01
11998:-4.7102287966180639e-01
11999:-3.8363525789633346e-01
12000:-2.9861681471277501e-01
12001:-2.4546933638825275e-01
12002:-1.7777626548232625e-01
12003:-1.2580815463355008e-01
12004:-3.2884739792103962e-01
12005:-2.7493451390783141e-01
12006:-2.1298451148910838e-01
12007:-1.7135270065964248e-01
12008:-3.4642196055417185e-01
12009:-2.8821727612252912e-01
12010:-2.2865823699014104e-01
12011:-1.9625414747657383e-01
12012:-3.4393488260966082e-01
12013:-2.7975835922902459e-01
12014:-2.1793622263025503e-01
12015:-1.8921953996917026e-01
12016:-9.7644719090831777e-02
12017:-4.1953600793500974e-02
12018:3.9750618463512473e-02
12019:1.1208299956894098e-01
12020:-1.5103714577405083e-01
12021:-1.1466787070371416e-01
12022:-6.5743858932914054e-02
12023:-2.3039229202542325e-02
12024:-1.8388057928400903e-01
12025:-1.6880855535645800e-01
12026:-1.5867886726276792e-01
12027:-1.5268669001881061e-01
12028:-1.8111065718733835e-01
12029:-1.7916015718652900e-01
12030:-1.9526879500187155e-01
12031:-2.1544578146924778e-01
12032:1.5497048446615941e-01
12033:2.4518063145866853e-01
12034:3.7741975333685307e-01
12035:4.8565070960437817e-01
12036:2.9050700939206382e-03
12037:6.0891741175195309e-02
12038:1.5128065835447010e-01
12039:2.2823490508450109e-01
12040:-1.4825496506792407e-01
12041:-1.3179433441094038e-01
12042:-9.6458346954043733e-02
12043:-6.1526940213829526e-02
12044:-2.2675211061563039e-01
12045:-2.4120961446808065e-01
12046:-2.4784152175326787e-01
12047:-2.4568119555085602e-01
12048:5.4465343233456387e-01
12049:6.5796715257578453e-01
12050:8.0715274560253591e-01
12051:9.1898824407835866e-01
12052:2.7106178442654116e-01
12053:3.5549659663593197e-01
12054:4.7000042028231226e-01
12055:5.5756526693377151e-01
12056:-4.0780892467400874e-02
12057:3.3134291035467659e-03
12058:6.7867105047362930e-02
12059:1.1962204083907181e-01
12060:-2.4243675005773749e-01
12061:-2.3108317278758050e-01
12062:-2.0832965786170249e-01
12063:-1.8727244182562849e-01
12064:9.7673871561666803e-01
12065:1.0812520350963135e+00
12066:1.2075257996942164e+00
12067:1.2942503711760363e+00
12068:6.0321477437205118e-01
12069:6.8706209470383561e-01
12070:7.9192851040076051e-01
12071:8.6781181975002675e-01
12072:1.4720606529035751e-01
12073:1.9982565392905513e-01
12074:2.7072616739453181e-01
12075:3.2702674774679946e-01
12076:-1.7536180856461836e-01
12077:-1.5007247766276779e-01
12078:-1.0992685783314947e-01
12079:-7.2825247929041242e-02
12080:1.3363119964079320e+00
12081:1.4072634623743929e+00
12082:1.4791931928074640e+00
12083:1.5139470706790816e+00
12084:9.0651177132277527e-01
12085:9.7700341205139585e-01
12086:1.0591051283939048e+00
12087:1.1090819999061692e+00
12088:3.5802381320856924e-01
12089:4.2104046572086151e-01
12090:5.0752539903919369e-01
12091:5.7179829483917755e-01
12092:-5.0287105714641511e-02
12093:1.3739808229452184e-03
12094:8.3252005559736109e-02
12095:1.5283409583822577e-01
12096:1.5237695308156882e+00
12097:1.5227712537249880e+00
12098:1.4872734144196424e+00
12099:1.4378146690926106e+00
12100:1.1292840047911092e+00
12101:1.1494176405413248e+00
12102:1.1435119052922571e+00
12103:1.1176301030894233e+00
12104:6.0336600716560529e-01
12105:6.4866191479724511e-01
12106:6.8052296358578102e-01
12107:6.8563473074883474e-01
12108:1.9057710401943570e-01
12109:2.5209347355180617e-01
12110:3.1156254662380539e-01
12111:3.4072923776452191e-01
12112:1.4047297859408043e+00
12113:1.3320153804316666e+00
12114:1.2202131376973329e+00
12115:1.1248720403984234e+00
12116:1.0972833710930048e+00
12117:1.0493797263254945e+00
12118:9.7159075140679108e-01
12119:9.0331984682254951e-01
12120:6.8207758593602330e-01
12121:6.6664443324315403e-01
12122:6.3328747520508422e-01
12123:6.0066551098515686e-01
12124:3.5042418903038530e-01
12125:3.6019896076674962e-01
12126:3.6070528733250917e-01
12127:3.5507514216238667e-01
12128:1.0715760099086273e+00
12129:9.6784983900079713e-01
12130:8.2860700764487005e-01
12131:7.2189999571924013e-01
12132:8.6468049288032767e-01
12133:7.8784685609339544e-01
12134:6.8179439761763549e-01
12135:5.9862402786483193e-01
12136:5.8152644832389311e-01
12137:5.4089592073766823e-01
12138:4.8019495214400998e-01
12139:4.2957413023855240e-01
12140:3.5074519263057891e-01
12141:3.3812505040140534e-01
12142:3.1345466324731064e-01
12143:2.8931221242803984e-01
12144:6.6588018855857067e-01
12145:5.6317531996040127e-01
12146:4.3735419073506665e-01
12147:3.5027057853829918e-01
12148:5.5433553295181481e-01
12149:4.7181164039042550e-01
12150:3.6834536738795409e-01
12151:2.9504434459879691e-01
12152:4.0162180304906669e-01
12153:3.4745633238344747e-01
12154:2.7574751556676158e-01
12155:2.2214550579366180e-01
12156:2.7484685989494972e-01
12157:2.4439717007689529e-01
12158:1.9972520874041957e-01
12159:1.6319347841376824e-01
12160:3.0810537467456323e-01
12161:2.3802909056555208e-01
12162:1.6323004466620228e-01
12163:1.1754226618843172e-01
12164:2.5898733064484225e-01
12165:1.9878694454423873e-01
12166:1.3443753699717714e-01
12167:9.5357898540542413e-02
12168:1.9479777003934115e-01
12169:1.4829490910853010e-01
12170:9.7733072336029486e-02
12171:6.6940461396986548e-02
12172:1.4346304872555235e-01
12173:1.0861659668322321e-01
12174:6.9077396175713138e-02
12175:4.4373716349570227e-02
12176:9.6987359254928518e-02
12177:6.4784897976343028e-02
12178:3.3911000331802887e-02
12179:1.7654178033203325e-02
12180:7.7948889425684897e-02
12181:5.0808565256866965e-02
12182:2.4887596706515008e-02
12183:1.1202356921462672e-02
12184:5.3386886852302660e-02
12185:3.2615136939889829e-02
12186:1.3167198697841965e-02
12187:2.9075119548620100e-03
12188:3.3508093632151091e-02
12189:1.7467214228847644e-02
12190:3.4206740712108726e-03
12191:-3.5392111331839001e-03
12192:1.1271829859584647e-02
12193:2.7966078943735925e-03
12194:-2.7260265239753179e-03
12195:-3.8286299224524283e-03
12196:5.7972917871585740e-03
12197:-1.0536411631970769e-03
12198:-4.7449777889301270e-03
12199:-4.6501801950935163e-03
12200:-1.2213199187852900e-03
12201:-6.0912809468160493e-03
12202:-7.5344328490813796e-03
12203:-5.6614183559842825e-03
12204:-6.2864838893190592e-03
12205:-9.3419202887524144e-03
12206:-9.4158675681381577e-03
12207:-6.7727825623567842e-03
12208:-4.9612897725744149e+00
12209:-4.3241956520268374e+00
12210:-3.5974192988497391e+00
12211:-3.1139924890340058e+00
12212:-5.5065874631210638e+00
12213:-4.7994730679668764e+00
12214:-3.9931580506431024e+00
12215:-3.4564467629089939e+00
12216:-6.1713026806361553e+00
12217:-5.3810121868471361e+00
12218:-4.4806081317755444e+00
12219:-3.8810479094996850e+00
12220:-6.6394875434559237e+00
12221:-5.7926690059752319e+00
12222:-4.8283464312389484e+00
12223:-4.1859812541608390e+00
12224:-2.8802192485234910e+00
12225:-2.4765400537780509e+00
12226:-2.0153974763249871e+00
12227:-1.7110226627334895e+00
12228:-3.1965360258883071e+00
12229:-2.7463693047021396e+00
12230:-2.2295480896410518e+00
12231:-1.8865283520859804e+00
12232:-3.5903236423002038e+00
12233:-3.0851047720634601e+00
12234:-2.5016452701074452e+00
12235:-2.1116635590084369e+00
12236:-3.8741948876836285e+00
12237:-3.3312220678407249e+00
12238:-2.7016899505444156e+00
12239:-2.2788169033461845e+00
12240:-1.5655651730873890e+00
12241:-1.3175177107604392e+00
12242:-1.0386438586320235e+00
12243:-8.5674638200279951e-01
12244:-1.7219468031690452e+00
12245:-1.4404965828555258e+00
12246:-1.1229147430126754e+00
12247:-9.1514342188902797e-01
12248:-1.9235350516694523e+00
12249:-1.6004495642988863e+00
12250:-1.2336540880911981e+00
12251:-9.9221718246724655e-01
12252:-2.0740002458144935e+00
12253:-1.7209873310681882e+00
12254:-1.3180090336516495e+00
12255:-1.0511933748943707e+00
12256:-7.7039981018182901e-01
12257:-6.2700531956558447e-01
12258:-4.7371651952409516e-01
12259:-3.7983809911917427e-01
12260:-8.1636191226489319e-01
12261:-6.5205552457019889e-01
12262:-4.7624539985113379e-01
12263:-3.6878948435814318e-01
12264:-8.7694238394624402e-01
12265:-6.8403597543294392e-01
12266:-4.7597477084102824e-01
12267:-3.4815573007902950e-01
12268:-9.2323632271125400e-01
12269:-7.0766313274167247e-01
12270:-4.7294044555687831e-01
12271:-3.2761980903427040e-01
12272:-3.3736663626754781e-01
12273:-2.6902422124730507e-01
12274:-2.0451224618371353e-01
12275:-1.7651981849559675e-01
12276:-3.2035965715666542e-01
12277:-2.4277693885883136e-01
12278:-1.7095440523564132e-01
12279:-1.4191537466344936e-01
12280:-2.9052002486957812e-01
12281:-1.9837777219533800e-01
12282:-1.1322514351410082e-01
12283:-7.8698817459779774e-02
12284:-2.6188980250377647e-01
12285:-1.5686128496027701e-01
12286:-5.9004566657198741e-02
12287:-1.7553750737230117e-02
12288:-1.7000152415131375e-01
12289:-1.7378660494399004e-01
12290:-2.0240350827898476e-01
12291:-2.3562115010855361e-01
12292:-1.3675589501052435e-01
12293:-1.4762077480668509e-01
12294:-1.9449555163472329e-01
12295:-2.4860115440579050e-01
12296:-7.2420905886563108e-02
12297:-8.5375409412878592e-02
12298:-1.4507915729090468e-01
12299:-2.1831015562739930e-01
12300:-8.4606097915530341e-03
12301:-1.7786061112329932e-02
12302:-7.8734068201884333e-02
12303:-1.5992784753163181e-01
12304:-2.5493937435234648e-01
12305:-2.8538140364106424e-01
12306:-3.1411698234185126e-01
12307:-3.2948233881788558e-01
12308:-2.8140629362212105e-01
12309:-3.3980695113030396e-01
12310:-4.0843000423816617e-01
12311:-4.5570404336996018e-01
12312:-2.6498502451741784e-01
12313:-3.5497405154722411e-01
12314:-4.7209865235498877e-01
12315:-5.5919151303175063e-01
12316:-2.1403785313071338e-01
12317:-3.2407436546438328e-01
12318:-4.7559421309232014e-01
12319:-5.9210187727477526e-01
12320:-3.3568814852571305e-01
12321:-3.4226745419883020e-01
12322:-3.4283670687812950e-01
12323:-3.3916791969693716e-01
12324:-4.7904838499247315e-01
12325:-5.1805888321108706e-01
12326:-5.6092129637901333e-01
12327:-5.8910808924007940e-01
12328:-6.0387143137559618e-01
12329:-6.8275642004902559e-01
12330:-7.7726807891424021e-01
12331:-8.4466594951860874e-01
12332:-6.5259297011249195e-01
12333:-7.6048214397877434e-01
12334:-8.9194407867148617e-01
12335:-9.8740382064972609e-01
12336:-3.3620759736437067e-01
12337:-3.2661010567042464e-01
12338:-3.0444671694258524e-01
12339:-2.7900338850836059e-01
12340:-6.0272502131718986e-01
12341:-6.2247898235408516e-01
12342:-6.3455776901123706e-01
12343:-6.3187198613907547e-01
12344:-8.7896527806132063e-01
12345:-9.3600604288851930e-01
12346:-9.9296067449425618e-01
12347:-1.0212778411064860e+00
12348:-1.0366594310308506e+00
12349:-1.1212751424375498e+00
12350:-1.2126884227461325e+00
12351:-1.2658580956566119e+00
12352:-2.6185015453653349e-01
12353:-2.1825784168984849e-01
12354:-1.4187291192369672e-01
12355:-7.1785803269394322e-02
12356:-6.2549879400448405e-01
12357:-5.9907579636012342e-01
12358:-5.3704053412059793e-01
12359:-4.7001633832443612e-01
12360:-1.0301148027092044e+00
12361:-1.0296951346989975e+00
12362:-9.9381523915782621e-01
12363:-9.3835872081292804e-01
12364:-1.2873206847111660e+00
12365:-1.3097000650950050e+00
12366:-1.2995526950154888e+00
12367:-1.2586375257340161e+00
12368:-3.1874494077564236e-02
12369:3.6843753709524370e-02
12370:1.1027273050368858e-01
12371:1.5231753513854984e-01
12372:-4.2840328057765437e-01
12373:-3.5010419403922860e-01
12374:-2.5424610189078328e-01
12375:-1.8971249401593981e-01
12376:-8.9908212658691855e-01
12377:-8.1624837171459397e-01
12378:-6.9955247618717076e-01
12379:-6.1017091986263106e-01
12380:-1.2245475339785781e+00
12381:-1.1443615924622408e+00
12382:-1.0186088691050355e+00
12383:-9.1429773630994038e-01
12384:1.6924257491106973e-01
12385:1.9258077235784402e-01
12386:2.1094871264753287e-01
12387:2.1937276157341298e-01
12388:-1.5967985740835833e-01
12389:-1.1170654409541984e-01
12390:-6.1245132069944849e-02
12391:-2.8070862821126905e-02
12392:-5.6465265877566007e-01
12393:-4.8702241754887909e-01
12394:-3.9774201735508496e-01
12395:-3.3508724922447630e-01
12396:-8.5859142219599560e-01
12397:-7.6065854086792140e-01
12398:-6.4397743300219801e-01
12399:-5.6039962621328321e-01
12400:2.2273069065331949e-01
12401:2.2487536683227202e-01
12402:2.1963175587922232e-01
12403:2.1006391129726187e-01
12404:-1.1387132823460674e-02
12405:1.6411568103982383e-02
12406:4.5283944803722623e-02
12407:6.1723009869805570e-02
12408:-3.0283647025328986e-01
12409:-2.4520742301995779e-01
12410:-1.7642958500202496e-01
12411:-1.2903720600588198e-01
12412:-5.1720921643214390e-01
12413:-4.3887310297815185e-01
12414:-3.4252051200014982e-01
12415:-2.7351418226969065e-01
12416:2.0312079912798570e-01
12417:1.8603013165475066e-01
12418:1.5681123673328948e-01
12419:1.3020002706885669e-01
12420:6.8389423497344448e-02
12421:7.5774879652172736e-02
12422:7.5516324324921960e-02
12423:6.8100558726515797e-02
12424:-1.0588232658009977e-01
12425:-6.8291653218907830e-02
12426:-3.1618534047279899e-02
12427:-1.3446695226544231e-02
12428:-2.3867507209722985e-01
12429:-1.7929207192012619e-01
12430:-1.1512727164323161e-01
12431:-7.7138678676443861e-02
12432:1.1494808756126706e-01
12433:8.6861394887520885e-02
12434:5.3459559612735637e-02
12435:3.1907058271598593e-02
12436:6.1771227630735545e-02
12437:4.7343069928095713e-02
12438:2.6301165390129846e-02
12439:1.0666139385145152e-02
12440:-7.4008229062245022e-03
12441:-2.2032417004294170e-03
12442:-4.8053809365718441e-03
12443:-1.1700758943743603e-02
12444:-6.1172799794066875e-02
12445:-3.9538605223342918e-02
12446:-2.5692022877661081e-02
12447:-2.4304728816042283e-02
12448:2.2350063719666954e-02
12449:8.7511314959141870e-03
12450:-2.2002551462686247e-03
12451:-7.0254362342638188e-03
12452:3.2717311447144908e-03
12453:-6.4327679725344252e-03
12454:-1.2293197966903919e-02
12455:-1.3202856687290175e-02
12456:-1.6206678892149148e-02
12457:-2.1586290532364903e-02
12458:-2.2674493815126488e-02
12459:-1.9843333808147796e-02
12460:-2.6019784479597425e-02
12461:-2.8109561360382715e-02
12462:-2.7191670624835768e-02
12463:-2.3402463196332938e-02
12464:-8.7905503212490493e-03
12465:-1.0660987979227196e-02
12466:-1.0188547255054921e-02
12467:-7.5645146428990626e-03
12468:-1.2944157904757751e-02
12469:-1.2298737244901745e-02
12470:-1.0945324608428560e-02
12471:-9.1641729575756212e-03
12472:-1.7425509787948826e-02
12473:-1.3766242319807054e-02
12474:-1.1132405212909717e-02
12475:-1.0682620056111361e-02
12476:-2.0344756915128492e-02
12477:-1.5251380740380996e-02
12478:-1.1198785541773842e-02
12479:-1.0793361628015389e-02
12480:-6.8728427287491556e+00
12481:-5.9987555579801137e+00
12482:-5.0035043984008789e+00
12483:-4.3403155090884669e+00
12484:-7.2796305315958527e+00
12485:-6.3603295974774356e+00
12486:-5.3133607874203816e+00
12487:-4.6153309773841649e+00
12488:-7.7449257262770477e+00
12489:-6.7789052997937418e+00
12490:-5.6775906859824543e+00
12491:-4.9430364653266521e+00
12492:-8.0475221748710322e+00
12493:-7.0554671612017721e+00
12494:-5.9231642713332162e+00
12495:-5.1680134868685288e+00
12496:-4.0182371198946232e+00
12497:-3.4568162117535381e+00
12498:-2.8047249777953391e+00
12499:-2.3656502400448929e+00
12500:-4.2761401241323762e+00
12501:-3.6845218218757565e+00
12502:-2.9961600144879426e+00
12503:-2.5312563854592578e+00
12504:-4.5862103474836138e+00
12505:-3.9645508816442190e+00
12506:-3.2415584676832938e+00
12507:-2.7524363504313651e+00
12508:-4.8015820930450213e+00
12509:-4.1645331154979859e+00
12510:-3.4250520154079451e+00
12511:-2.9246784911609338e+00
12512:-2.1525577510660279e+00
12513:-1.7845481096766560e+00
12514:-1.3631495040324804e+00
12515:-1.0832061051167075e+00
12516:-2.3049582914476474e+00
12517:-1.9128554086615925e+00
12518:-1.4617681353249643e+00
12519:-1.1608108166510382e+00
12520:-2.5136947807602508e+00
12521:-2.0984854719886155e+00
12522:-1.6187106076676714e+00
12523:-1.2978235781829395e+00
12524:-2.6800256165284821e+00
12525:-2.2533765579506864e+00
12526:-1.7591261027734302e+00
12527:-1.4285318823016806e+00
12528:-9.4861136256936052e-01
12529:-7.2095663405278065e-01
12530:-4.7167282982394965e-01
12531:-3.1658580356380217e-01
12532:-1.0156946477210500e+00
12533:-7.6886961027953293e-01
12534:-4.9630498361839587e-01
12535:-3.2537964515844620e-01
12536:-1.1430052281768406e+00
12537:-8.7866551238923418e-01
12538:-5.8478686901897903e-01
12539:-3.9908539689723832e-01
12540:-1.2692697627540053e+00
12541:-9.9717912111972495e-01
12542:-6.9402136353931265e-01
12543:-5.0174251895195010e-01
12544:-2.4628366249559819e-01
12545:-1.3396731457559244e-01
12546:-2.8707616681425747e-02
12547:1.7187077995699560e-02
12548:-2.4756024775497731e-01
12549:-1.2323096593223418e-01
12550:-5.6613978350739487e-03
12551:4.7792841312819356e-02
12552:-3.1408767537595328e-01
12553:-1.7812840578588110e-01
12554:-4.8203187955341592e-02
12555:1.3349351836123773e-02
12556:-4.1342134841594602e-01
12557:-2.7181410652710308e-01
12558:-1.3517259749012053e-01
12559:-6.8477643076038763e-02
12560:2.8352707100844497e-02
12561:2.2622742808258014e-02
12562:-3.6050929012635936e-02
12563:-1.1903113200080040e-01
12564:6.2608004844584453e-02
12565:6.4081665300671151e-02
12566:1.2619563750322010e-02
12567:-6.9254714981243110e-02
12568:3.2346797315715305e-02
12569:4.3320929157445801e-02
12570:5.0348990821360443e-03
12571:-6.8660691505948501e-02
12572:-4.6520007179275499e-02
12573:-2.8266074750283365e-02
12574:-5.4628826602008573e-02
12575:-1.1840678522811821e-01
12576:-1.7585582490679880e-01
12577:-2.9482666039122529e-01
12578:-4.6332528673026435e-01
12579:-5.9490705989186266e-01
12580:-1.2793991622888248e-01
12581:-2.5679961882092223e-01
12582:-4.4790377476723597e-01
12583:-6.0146516214466461e-01
12584:-1.2452828569014414e-01
12585:-2.5383514457905954e-01
12586:-4.5581607550087583e-01
12587:-6.2431197927911442e-01
12588:-1.6909365398276494e-01
12589:-2.9062631447741999e-01
12590:-4.8755041401313010e-01
12591:-6.5691698366560269e-01
12592:-6.6356392833546207e-01
12593:-7.8625707189160432e-01
12594:-9.3633457417807953e-01
12595:-1.0458825355046049e+00
12596:-6.8263195034839419e-01
12597:-8.2862983607309404e-01
12598:-1.0085995311174960e+00
12599:-1.1407117060108758e+00
12600:-7.1534040774420327e-01
12601:-8.8160851206302004e-01
12602:-1.0896503221456484e+00
12603:-1.2431634202917305e+00
12604:-7.5031565894987651e-01
12605:-9.2398600463614444e-01
12606:-1.1449233860482406e+00
12607:-1.3086511803643186e+00
12608:-1.1026774224416034e+00
12609:-1.2014137210196130e+00
12610:-1.3109383135662578e+00
12611:-1.3775454612897102e+00
12612:-1.2094229171854480e+00
12613:-1.3303067336599304e+00
12614:-1.4681169920487229e+00
12615:-1.5557664394172033e+00
12616:-1.3228635852857360e+00
12617:-1.4635888564622035e+00
12618:-1.6260906898161960e+00
12619:-1.7319987027418631e+00
12620:-1.3933116603563260e+00
12621:-1.5423408594858619e+00
12622:-1.7143929114381873e+00
12623:-1.8271943312665382e+00
12624:-1.4059825299011790e+00
12625:-1.4413210246204893e+00
12626:-1.4466169894806327e+00
12627:-1.4152731739178639e+00
12628:-1.5952002981870979e+00
12629:-1.6514249911861787e+00
12630:-1.6829950226905253e+00
12631:-1.6695871846528545e+00
12632:-1.7810542383974501e+00
12633:-1.8561035055874688e+00
12634:-1.9135412328463022e+00
12635:-1.9206064385084329e+00
12636:-1.8799439095718211e+00
12637:-1.9625110132625907e+00
12638:-2.0320370548061470e+00
12639:-2.0510523441379447e+00
12640:-1.3850757787232515e+00
12641:-1.3084520364217234e+00
12642:-1.1804993231611975e+00
12643:-1.0699332498631418e+00
12644:-1.6476001458856309e+00
12645:-1.5808883262482905e+00
12646:-1.4547144767060805e+00
12647:-1.3371250142681557e+00
12648:-1.9095071471743541e+00
12649:-1.8599362823185148e+00
12650:-1.7465979058239565e+00
12651:-1.6293559359009770e+00
12652:-2.0474981322777812e+00
12653:-2.0129084780235242e+00
12654:-1.9164746460238169e+00
12655:-1.8066094748497301e+00
12656:-1.0095408785422819e+00
12657:-9.0183102280505834e-01
12658:-7.7142084116056919e-01
12659:-6.7717548331744071e-01
12660:-1.2701773306216644e+00
12661:-1.1473074641364671e+00
12662:-9.9374045487792240e-01
12663:-8.8073275606590717e-01
12664:-1.5586788078641016e+00
12665:-1.4230460188614655e+00
12666:-1.2452045278521822e+00
12667:-1.1107123491090980e+00
12668:-1.7368554082217331e+00
12669:-1.5970561314495348e+00
12670:-1.4055831663170613e+00
12671:-1.2573367643341993e+00
12672:-6.2840696714012778e-01
12673:-5.3963624228265550e-01
12674:-4.2951670537684000e-01
12675:-3.4969840550829645e-01
12676:-8.2205059665215985e-01
12677:-7.1494753366720776e-01
12678:-5.8106706065486369e-01
12679:-4.8285653120458955e-01
12680:-1.0404423877627813e+00
12681:-9.1239753243284016e-01
12682:-7.5240168827245313e-01
12683:-6.3467794590917015e-01
12684:-1.1794743181739875e+00
12685:-1.0381935127327269e+00
12686:-8.6271624349217724e-01
12687:-7.3414681192349951e-01
12688:-3.0897294516231427e-01
12689:-2.3849525001751731e-01
12690:-1.6007139922733982e-01
12691:-1.1156391250048360e-01
12692:-4.3219234489073116e-01
12693:-3.4304850560646227e-01
12694:-2.4061213200775641e-01
12695:-1.7424485566296313e-01
12696:-5.7367724948710497e-01
12697:-4.6526974552562478e-01
12698:-3.3798792949150253e-01
12699:-2.5280547456473879e-01
12700:-6.6761566222641422e-01
12701:-5.4896129425427964e-01
12702:-4.0821560646390753e-01
12703:-3.1237197848554693e-01
12704:-9.0225565515899775e-02
12705:-5.9409822674233788e-02
12706:-3.5926141758221126e-02
12707:-2.9395126565005356e-02
12708:-1.4368440587789030e-01
12709:-9.6723794779773262e-02
12710:-5.5414542098200452e-02
12711:-3.8476589389637418e-02
12712:-2.1231080472058997e-01
12713:-1.4723844135731448e-01
12714:-8.4279181712086870e-02
12715:-5.3056083065129767e-02
12716:-2.6599752074793542e-01
12717:-1.8956955116626928e-01
12718:-1.1166414967887799e-01
12719:-6.9323114439685529e-02
12720:-2.9285792878000746e-02
12721:-2.9454808957431324e-02
12722:-2.8034159662952616e-02
12723:-2.4591751108194383e-02
12724:-3.4222011210185872e-02
12725:-2.9576330165943736e-02
12726:-2.6516216107918714e-02
12727:-2.4273130239704122e-02
12728:-4.2306731067290437e-02
12729:-2.8907392063922122e-02
12730:-2.0901595422343711e-02
12731:-1.9371678590698639e-02
12732:-5.2956801413347625e-02
12733:-3.0885772144855366e-02
12734:-1.5944835845508886e-02
12735:-1.2879688017450630e-02
12736:-2.1715031891612772e-02
12737:-1.6363772872284188e-02
12738:-1.1354799333858858e-02
12739:-1.0326335723026069e-02
12740:-2.2475592087223908e-02
12741:-1.7889596628891644e-02
12742:-1.1690765755143341e-02
12743:-8.6829872235612074e-03
12744:-1.9246065958609865e-02
12745:-1.6979106028475022e-02
12746:-1.1133439441001498e-02
12747:-5.9674711695431983e-03
12748:-1.3308145116146433e-02
12749:-1.2857737707831165e-02
12750:-9.1599124510054995e-03
12751:-4.2306778609830500e-03
12752:-8.1884153394248127e+00
12753:-7.1860213066848990e+00
12754:-6.0411860094032921e+00
12755:-5.2778780049918623e+00
12756:-8.4104430414538935e+00
12757:-7.3952568670480909e+00
12758:-6.2350827475155679e+00
12759:-5.4621677214117126e+00
12760:-8.6154743239878897e+00
12761:-7.5966143684258922e+00
12762:-6.4325109183134250e+00
12763:-5.6581191920811458e+00
12764:-8.7073798392421633e+00
12765:-7.6957726966944593e+00
12766:-6.5408861237652527e+00
12767:-5.7736055132170678e+00
12768:-4.9078187208114148e+00
12769:-4.2653973185101517e+00
12770:-3.5207369924526692e+00
12771:-3.0169414204672784e+00
12772:-5.0880739506640023e+00
12773:-4.4403221808388107e+00
12774:-3.6916989903377919e+00
12775:-3.1859296838420277e+00
12776:-5.2840459521477836e+00
12777:-4.6382403457184180e+00
12778:-3.8951026342180057e+00
12779:-3.3950564259722942e+00
12780:-5.4034277805541846e+00
12781:-4.7656329295015079e+00
12782:-4.0345243500638848e+00
12783:-3.5450013379279999e+00
12784:-2.7704088445325796e+00
12785:-2.3398887740647702e+00
12786:-1.8406207749251589e+00
12787:-1.5068439905514139e+00
12788:-2.9383648238673059e+00
12789:-2.5056000441241011e+00
12790:-2.0036271367982716e+00
12791:-1.6686987433511886e+00
12792:-3.1508735971867594e+00
12793:-2.7249144485457744e+00
12794:-2.2326811454974616e+00
12795:-1.9058458323146847e+00
12796:-3.3069287548920463e+00
12797:-2.8934576203223314e+00
12798:-2.4186248517321403e+00
12799:-2.1051722037173923e+00
12800:-1.3462721695035031e+00
12801:-1.0720514128709124e+00
12802:-7.6644681689359206e-01
12803:-5.7236721684438774e-01
12804:-1.5080021957943477e+00
12805:-1.2337134555943199e+00
12806:-9.2789031992711690e-01
12807:-7.3330334868736646e-01
12808:-1.7496220445723185e+00
12809:-1.4830417863898042e+00
12810:-1.1856635468886050e+00
12811:-9.9625348329429020e-01
12812:-1.9558410074969053e+00
12813:-1.7010644668037034e+00
12814:-1.4169201677211400e+00
12815:-1.2361343214190685e+00
12816:-4.8306856464422460e-01
12817:-3.3961933890469881e-01
12818:-2.0032809094304557e-01
12819:-1.3119675904967190e-01
12820:-6.4354725888649322e-01
12821:-4.9880531430021879e-01
12822:-3.5671881725490701e-01
12823:-2.8437420527007995e-01
12824:-9.0876197922901958e-01
12825:-7.6702572919554257e-01
12826:-6.2645581248175042e-01
12827:-5.5351724261153434e-01
12828:-1.1527137210824359e+00
12829:-1.0172689141013491e+00
12830:-8.8257299253136834e-01
12831:-8.1269326283146759e-01
12832:-1.0770665457699402e-01
12833:-8.5633135172749272e-02
12834:-1.0536319634237144e-01
12835:-1.6305944766536096e-01
12836:-2.5870501556108372e-01
12837:-2.3116732863961217e-01
12838:-2.4091320284194334e-01
12839:-2.8871257671555928e-01
12840:-5.2694282113243385e-01
12841:-4.9652041743052650e-01
12842:-4.9887619781593628e-01
12843:-5.3709038709165202e-01
12844:-7.8735230716913762e-01
12845:-7.5849116265904226e-01
12846:-7.5951269944661359e-01
12847:-7.9244473739910248e-01
12848:-2.1024308724850355e-01
12849:-3.2529935650070152e-01
12850:-5.1526681564414389e-01
12851:-6.8151206971565748e-01
12852:-3.2979484028702577e-01
12853:-4.3208704441766976e-01
12854:-6.0544177043783587e-01
12855:-7.6128490162983453e-01
12856:-5.7127438255671137e-01
12857:-6.5643302819729099e-01
12858:-8.0287317887501430e-01
12859:-9.3797909453295791e-01
12860:-8.2176386991530048e-01
12861:-8.9309315182077553e-01
12862:-1.0153641798307707e+00
12863:-1.1301194673449020e+00
12864:-7.7434140037813626e-01
12865:-9.4901182542285445e-01
12866:-1.1736226110881240e+00
12867:-1.3405002388061933e+00
12868:-8.5008737920616473e-01
12869:-1.0206544398129895e+00
12870:-1.2441515869416435e+00
12871:-1.4111207292397401e+00
12872:-1.0167007789585567e+00
12873:-1.1712836884516700e+00
12874:-1.3777507509066158e+00
12875:-1.5327831246617563e+00
12876:-1.1981586811512508e+00
12877:-1.3333952480836444e+00
12878:-1.5154571993352588e+00
12879:-1.6519741793241929e+00
12880:-1.4265436902095994e+00
12881:-1.5775400144994833e+00
12882:-1.7514193111477323e+00
12883:-1.8654583612949032e+00
12884:-1.4969139365301107e+00
12885:-1.6469294275789470e+00
12886:-1.8192176152300945e+00
12887:-1.9323287615942364e+00
12888:-1.6121492016969157e+00
12889:-1.7506409308856556e+00
12890:-1.9093476240352178e+00
12891:-2.0133364195876062e+00
12892:-1.7214779119664405e+00
12893:-1.8424977174607811e+00
12894:-1.9803919082804209e+00
12895:-2.0697007484032097e+00
12896:-1.9189171650325161e+00
12897:-2.0030508040877208e+00
12898:-2.0760725365602446e+00
12899:-2.0997605376290212e+00
12900:-1.9855115081004548e+00
12901:-2.0693128144157544e+00
12902:-2.1437339200195002e+00
12903:-2.1712852111452681e+00
12904:-2.0621205470580009e+00
12905:-2.1380437424524819e+00
12906:-2.2039667996751349e+00
12907:-2.2274086971375837e+00
12908:-2.1110542934098868e+00
12909:-2.1739839751366348e+00
12910:-2.2250593889746311e+00
12911:-2.2389042816046851e+00
12912:-2.0996630690393361e+00
12913:-2.0731425568697404e+00
12914:-1.9875500063525218e+00
12915:-1.8837862036120268e+00
12916:-2.1746939534552943e+00
12917:-2.1580704618469682e+00
12918:-2.0881468029312344e+00
12919:-1.9950511335648597e+00
12920:-2.2298839224469891e+00
12921:-2.2155846902311396e+00
12922:-2.1550344474062340e+00
12923:-2.0722042962607845e+00
12924:-2.2370038602262072e+00
12925:-2.2171247454660912e+00
12926:-2.1555408341884821e+00
12927:-2.0774612124412202e+00
12928:-1.8157687322682834e+00
12929:-1.6757362188630571e+00
12930:-1.4789964610709554e+00
12931:-1.3246512768553549e+00
12932:-1.9311693556720846e+00
12933:-1.7942088974062551e+00
12934:-1.5941063002813887e+00
12935:-1.4333949178147980e+00
12936:-2.0142690047556697e+00
12937:-1.8869385589507133e+00
12938:-1.6951795008759283e+00
12939:-1.5369081832960161e+00
12940:-2.0241831647551787e+00
12941:-1.9080707960598970e+00
12942:-1.7321707213396365e+00
12943:-1.5840044307482581e+00
12944:-1.2433464214245702e+00
12945:-1.0962462013009520e+00
12946:-9.1437722925550269e-01
12947:-7.8165610393403395e-01
12948:-1.3479632734185938e+00
12949:-1.1934741220618281e+00
12950:-1.0030809770419173e+00
12951:-8.6480716559087067e-01
12952:-1.4512343704605291e+00
12953:-1.2946859349612840e+00
12954:-1.1000228714860223e+00
12955:-9.5841512717839339e-01
12956:-1.5021453117597672e+00
12957:-1.3498252886360231e+00
12958:-1.1568796484571036e+00
12959:-1.0153305575196641e+00
12960:-7.1311328807175856e-01
12961:-5.9072133442789398e-01
12962:-4.4485906139623255e-01
12963:-3.4468239743945911e-01
12964:-7.9365135169252499e-01
12965:-6.6627866906982292e-01
12966:-5.1320173267150926e-01
12967:-4.0657455400816800e-01
12968:-8.8574343976264869e-01
12969:-7.5529994512684351e-01
12970:-5.9719812524946014e-01
12971:-4.8559382505496795e-01
12972:-9.4269827917364113e-01
12973:-8.1225016831918351e-01
12974:-6.5371597814933891e-01
12975:-5.4128481998253997e-01
12976:-2.9578716726940668e-01
12977:-2.1421870222288181e-01
12978:-1.2899765124041021e-01
12979:-8.0755464129071100e-02
12980:-3.5380797226282124e-01
12981:-2.6412397719889474e-01
12982:-1.6686721234277910e-01
12983:-1.0848629107489580e-01
12984:-4.2967087971827161e-01
12985:-3.3294903619223698e-01
12986:-2.2429728137827576e-01
12987:-1.5548267096404744e-01
12988:-4.8468137263361277e-01
12989:-3.8587328045747954e-01
12990:-2.7262012305744576e-01
12991:-1.9863381231418376e-01
12992:-6.1220102148900141e-02
12993:-3.3837003657730798e-02
12994:-1.3866497803066750e-02
12995:-8.8802456606679840e-03
12996:-8.3326942699750356e-02
12997:-4.6029921354121414e-02
12998:-1.5483063010314680e-02
12999:-5.0136554159798830e-03
13000:-1.2420123608073741e-01
13001:-7.5285046321131976e-02
13002:-3.0380909030158911e-02
13003:-1.0314456812857770e-02
13004:-1.6397255756136370e-01
13005:-1.0791664883925427e-01
13006:-5.2653990184755466e-02
13007:-2.4246018212251072e-02
13008:-9.0898222983835757e-03
13009:-9.2986925656502895e-03
13010:-7.4083480315395110e-03
13011:-3.6401949028987530e-03
13012:-3.4871711285453817e-03
13013:-2.9119047648748604e-03
13014:-3.4630931008974488e-03
13015:-2.9389685560822771e-03
13016:-4.4835753123045677e-03
13017:1.1135812095985757e-03
13018:1.3057207531631365e-03
13019:-1.6245539134330845e-03
13020:-1.4008239235196318e-02
13021:-1.6230777072745865e-03
13022:3.5146028030894278e-03
13023:7.1102906070557594e-04
13024:-8.7332499344172962e+00
13025:-7.7291141061330135e+00
13026:-6.5834047334638255e+00
13027:-5.8227131606806406e+00
13028:-8.7382058089373214e+00
13029:-7.7548104867305163e+00
13030:-6.6337011527757630e+00
13031:-5.8900129138687314e+00
13032:-8.6590563603266766e+00
13033:-7.7154346001833396e+00
13034:-6.6406678654129658e+00
13035:-5.9284187560595250e+00
13036:-8.5332503780438280e+00
13037:-7.6293455443721836e+00
13038:-6.6008285930215083e+00
13039:-5.9199657853203096e+00
13040:-5.4559054361164696e+00
13041:-4.8245579934946683e+00
13042:-4.1024853050377894e+00
13043:-3.6206296529924469e+00
13044:-5.5316630474388582e+00
13045:-4.9159641111446000e+00
13046:-4.2146810218236856e+00
13047:-3.7495912268784815e+00
13048:-5.5854818781213966e+00
13049:-4.9974171235554481e+00
13050:-4.3307706583674381e+00
13051:-3.8918965038606972e+00
13052:-5.5924005781602526e+00
13053:-5.0313308191600612e+00
13054:-4.3971247935949460e+00
13055:-3.9816088720763640e+00
13056:-3.3869901972520164e+00
13057:-2.9825774586600433e+00
13058:-2.5202643628901233e+00
13059:-2.2162767058160981e+00
13060:-3.5253588295719132e+00
13061:-3.1398017890181360e+00
13062:-2.7032913416875846e+00
13063:-2.4189399605609863e+00
13064:-3.6817732916585570e+00
13065:-3.3237188431754023e+00
13066:-2.9242481891680976e+00
13067:-2.6683029000230980e+00
13068:-3.7836217878251586e+00
13069:-3.4486744153321482e+00
13070:-3.0798654755918631e+00
13071:-2.8475441513730670e+00
13072:-2.0717459461203549e+00
13073:-1.8252303942088974e+00
13074:-1.5505085896088804e+00
13075:-1.3760325856376123e+00
13076:-2.2845230141132742e+00
13077:-2.0560668112365144e+00
13078:-1.8032184233954462e+00
13079:-1.6443252175301093e+00
13080:-2.5488136513170816e+00
13081:-2.3482475427779450e+00
13082:-2.1314745907379296e+00
13083:-1.9998455081933948e+00
13084:-2.7406576253558619e+00
13085:-2.5644384578255472e+00
13086:-2.3805725136364537e+00
13087:-2.2747053541930575e+00
13088:-1.2956693496205089e+00
13089:-1.1651598043787892e+00
13090:-1.0355680348286436e+00
13091:-9.6883523374254676e-01
13092:-1.5718398362439827e+00
13093:-1.4546915307104908e+00
13094:-1.3398569228358248e+00
13095:-1.2826024974347070e+00
13096:-1.9416542744034988e+00
13097:-1.8497574503493501e+00
13098:-1.7641900630974767e+00
13099:-1.7262199807954088e+00
13100:-2.2302946777237893e+00
13101:-2.1632999394481973e+00
13102:-2.1073235302138054e+00
13103:-2.0890847022203642e+00
13104:-9.4497764446899435e-01
13105:-9.1841577343348246e-01
13106:-9.2020503700159995e-01
13107:-9.5090187918354829e-01
13108:-1.2632011604539628e+00
13109:-1.2434624339540579e+00
13110:-1.2493876383376885e+00
13111:-1.2781277163334424e+00
13112:-1.7158442309550075e+00
13113:-1.7097408357561499e+00
13114:-1.7262274530543427e+00
13115:-1.7570137774416654e+00
13116:-2.0879196190610214e+00
13117:-2.0956985323003980e+00
13118:-2.1242278244476038e+00
13119:-2.1602799213568464e+00
13120:-9.7768931239909618e-01
13121:-1.0414456235913316e+00
13122:-1.1500265502113713e+00
13123:-1.2529322286615598e+00
13124:-1.3016196494402601e+00
13125:-1.3547998335790261e+00
13126:-1.4432345554972399e+00
13127:-1.5278432012849581e+00
13128:-1.7793205591408279e+00
13129:-1.8262639163721077e+00
13130:-1.8994673530639401e+00
13131:-1.9675956693531413e+00
13132:-2.1841891798795641e+00
13133:-2.2319071321938888e+00
13134:-2.3005914254761386e+00
13135:-2.3600074298162812e+00
13136:-1.3145916092846937e+00
13137:-1.4375739598640591e+00
13138:-1.6030996163132638e+00
13139:-1.7266133655255387e+00
13140:-1.5792124139389794e+00
13141:-1.6806832632953299e+00
13142:-1.8142001263790914e+00
13143:-1.9107899461216225e+00
13144:-2.0085070272070848e+00
13145:-2.0850201264298178e+00
13146:-2.1768505699409895e+00
13147:-2.2361274617330369e+00
13148:-2.3940657341695126e+00
13149:-2.4526578739873215e+00
13150:-2.5130428737092525e+00
13151:-2.5438453007422681e+00
13152:-1.7891390852825637e+00
13153:-1.8976895613338991e+00
13154:-2.0204132735816938e+00
13155:-2.0986923969975191e+00
13156:-1.9583835962681058e+00
13157:-2.0393589831280661e+00
13158:-2.1268771829360338e+00
13159:-2.1784110318693930e+00
13160:-2.2624842921622665e+00
13161:-2.3028541233221751e+00
13162:-2.3359879037590252e+00
13163:-2.3445564946312425e+00
13164:-2.5540045177190018e+00
13165:-2.5626489184134575e+00
13166:-2.5518591076768735e+00
13167:-2.5248497808730477e+00
13168:-2.1343453933777403e+00
13169:-2.1874622286222878e+00
13170:-2.2274664103281516e+00
13171:-2.2340391100255355e+00
13172:-2.1999119420454414e+00
13173:-2.2286644139095566e+00
13174:-2.2415156440563280e+00
13175:-2.2307472879535633e+00
13176:-2.3428413132306396e+00
13177:-2.3309128152495973e+00
13178:-2.2974278343730883e+00
13179:-2.2566335562220643e+00
13180:-2.5036290439037185e+00
13181:-2.4564446043560517e+00
13182:-2.3807945093685916e+00
13183:-2.3112575983368191e+00
13184:-2.2286747654592740e+00
13185:-2.2035359676931559e+00
13186:-2.1388002256937604e+00
13187:-2.0622121880209443e+00
13188:-2.2173468283981226e+00
13189:-2.1796984250785520e+00
13190:-2.1054502087219689e+00
13191:-2.0283272237949319e+00
13192:-2.2292612582566713e+00
13193:-2.1692934106511541e+00
13194:-2.0744120695874444e+00
13195:-1.9887339213790687e+00
13196:-2.2700422113842400e+00
13197:-2.1873542638831052e+00
13198:-2.0688745482820439e+00
13199:-1.9693642771263005e+00
13200:-2.0113973788479975e+00
13201:-1.9023470453776876e+00
13202:-1.7376910106772012e+00
13203:-1.5973704554676578e+00
13204:-1.9800301861216052e+00
13205:-1.8799254953469970e+00
13206:-1.7311619404591327e+00
13207:-1.6028308333143404e+00
13208:-1.9386317516301352e+00
13209:-1.8393526014333297e+00
13210:-1.6973415074495810e+00
13211:-1.5763969075972575e+00
13212:-1.9132790062122564e+00
13213:-1.8051276527592792e+00
13214:-1.6562813208020817e+00
13215:-1.5338733648204481e+00
13216:-1.5187468576794529e+00
13217:-1.3704395937822054e+00
13218:-1.1799317242724585e+00
13219:-1.0392001111526932e+00
13220:-1.5295326489433148e+00
13221:-1.3886021676508242e+00
13222:-1.2040239751728783e+00
13223:-1.0662995027993549e+00
13224:-1.5071965893288297e+00
13225:-1.3736703987666661e+00
13226:-1.1981015032484263e+00
13227:-1.0667315921411253e+00
13228:-1.4652693786007609e+00
13229:-1.3351111823438759e+00
13230:-1.1667509899394879e+00
13231:-1.0416815950475216e+00
13232:-9.6694262157120903e-01
13233:-8.3724201875047366e-01
13234:-6.7969637736475919e-01
13235:-5.6797695149254157e-01
13236:-9.9547714443002389e-01
13237:-8.6851670309482831e-01
13238:-7.1467980585901636e-01
13239:-6.0592277296454444e-01
13240:-9.9909321962194908e-01
13241:-8.7791610316821611e-01
13242:-7.3160451254209991e-01
13243:-6.2888523734627444e-01
13244:-9.7727615381895128e-01
13245:-8.6171045646508326e-01
13246:-7.2230896454784155e-01
13247:-6.2499893576139087e-01
13248:-5.1170508399413506e-01
13249:-4.1310777855429481e-01
13250:-2.9907086347552087e-01
13251:-2.2350161865635770e-01
13252:-5.5123688203749421e-01
13253:-4.5485800340099314e-01
13254:-3.4178624824923715e-01
13255:-2.6522035782525177e-01
13256:-5.7753576251287919e-01
13257:-4.8660251336003507e-01
13258:-3.7860727660942656e-01
13259:-3.0419221466569152e-01
13260:-5.7665923744808090e-01
13261:-4.9104440337121347e-01
13262:-3.8916838641574825e-01
13263:-3.1877959030167130e-01
13264:-1.8760440875712583e-01
13265:-1.2857860802788504e-01
13266:-6.8342232695435684e-02
13267:-3.5419231960747130e-02
13268:-2.2810414800151432e-01
13269:-1.6551761123354200e-01
13270:-9.8326166550531793e-02
13271:-5.8461362420813665e-02
13272:-2.6754229421133646e-01
13273:-2.0434527195827282e-01
13274:-1.3341125474701887e-01
13275:-8.8423253071586980e-02
13276:-2.8401314826166890e-01
13277:-2.2351815666268290e-01
13278:-1.5422984455503208e-01
13279:-1.0890009085900164e-01
13280:-2.2593364872791611e-02
13281:-5.6682346349195374e-03
13282:3.9071748347843400e-03
13283:2.6958174871388602e-03
13284:-4.1441043815646200e-02
13285:-1.6507511500590884e-02
13286:2.5323992615658712e-03
13287:6.8194189922037999e-03
13288:-6.7886672549397162e-02
13289:-3.5232468835645174e-02
13290:-4.6545425702833329e-03
13291:8.9919811933956255e-03
13292:-8.7564143961798416e-02
13293:-5.2161302302393402e-02
13294:-1.5439155641309774e-02
13295:4.9653886388748040e-03
13296:-8.4435776115391299e+00
13297:-7.5639016102983421e+00
13298:-6.5637175393831662e+00
13299:-5.9021904704553592e+00
13300:-8.2365723068588146e+00
13301:-7.4073863154487558e+00
13302:-6.4664162779960179e+00
13303:-5.8455468226618770e+00
13304:-7.8949720512901500e+00
13305:-7.1412148391717363e+00
13306:-6.2881507386391489e+00
13307:-5.7274138945083646e+00
13308:-7.5822913090475170e+00
13309:-6.8934385283224158e+00
13310:-6.1148705572789757e+00
13311:-5.6043301539111825e+00
13312:-5.5841274478421532e+00
13313:-5.0395772222015873e+00
13314:-4.4247803848762759e+00
13315:-4.0228418384110425e+00
13316:-5.5475755867376515e+00
13317:-5.0378910706924422e+00
13318:-4.4635991451810018e+00
13319:-4.0893833562380504e+00
13320:-5.4591578301926615e+00
13321:-5.0013215709848566e+00
13322:-4.4873796857186194e+00
13323:-4.1541001450307604e+00
13324:-5.3606914685413596e+00
13325:-4.9463194111299469e+00
13326:-4.4838158655423532e+00
13327:-4.1857968722532028e+00
13328:-3.8317572790608136e+00
13329:-3.5097657841687924e+00
13330:-3.1579696320341171e+00
13331:-2.9387590403649853e+00
13332:-3.9121003383308182e+00
13333:-3.6154887811106406e+00
13334:-3.2961174457460958e+00
13335:-3.1012996926822565e+00
13336:-3.9969070377153217e+00
13337:-3.7363587528121154e+00
13338:-3.4614147954972663e+00
13339:-3.2988679843408870e+00
13340:-4.0459302148683420e+00
13341:-3.8160194340108720e+00
13342:-3.5778716895602432e+00
13343:-3.4413717266355026e+00
13344:-2.8389130544187222e+00
13345:-2.6765158520039538e+00
13346:-2.5117148826277078e+00
13347:-2.4210096886334940e+00
13348:-3.0143781432227179e+00
13349:-2.8772664433076409e+00
13350:-2.7473968495867882e+00
13351:-2.6846649674412149e+00
13352:-3.2286633095109512e+00
13353:-3.1236023631883345e+00
13354:-3.0372446019018402e+00
13355:-3.0091963198960019e+00
13356:-3.3844057862133470e+00
13357:-3.3039104240557520e+00
13358:-3.2496571500112412e+00
13359:-3.2466242929925659e+00
13360:-2.3847817147455537e+00
13361:-2.3327264251185662e+00
13362:-2.2947125476426899e+00
13363:-2.2885370356058705e+00
13364:-2.6636458174082867e+00
13365:-2.6396773540492040e+00
13366:-2.6362929849414209e+00
13367:-2.6542878828560266e+00
13368:-3.0070971564077378e+00
13369:-3.0184919235774825e+00
13370:-3.0600587027500010e+00
13371:-3.1109612776677906e+00
13372:-3.2580816352493618e+00
13373:-3.2949745435855675e+00
13374:-3.3696850847820938e+00
13375:-3.4457610412884074e+00
13376:-2.2930138783273475e+00
13377:-2.3093715409447650e+00
13378:-2.3458317421766268e+00
13379:-2.3861462874208597e+00
13380:-2.6705104087669800e+00
13381:-2.7057004150284008e+00
13382:-2.7611329271532203e+00
13383:-2.8124875933195503e+00
13384:-3.1439306405618233e+00
13385:-3.2077660357717477e+00
13386:-3.2946817711732757e+00
13387:-3.3654778194390915e+00
13388:-3.4919998661570979e+00
13389:-3.5797188871566754e+00
13390:-3.6944625544993128e+00
13391:-3.7829692537437229e+00
13392:-2.4118666533051552e+00
13393:-2.4618487230043100e+00
13394:-2.5300817559139204e+00
13395:-2.5855598702966249e+00
13396:-2.8430249157811747e+00
13397:-2.8990172802139420e+00
13398:-2.9673895495946230e+00
13399:-3.0157120456176547e+00
13400:-3.4045818500481988e+00
13401:-3.4716316270029552e+00
13402:-3.5435605110464210e+00
13403:-3.5856575280514238e+00
13404:-3.8298956692161936e+00
13405:-3.9078762388185386e+00
13406:-3.9869895567063236e+00
13407:-4.0295094287521920e+00
13408:-2.6159772203249121e+00
13409:-2.6650674697899936e+00
13410:-2.7091317218203055e+00
13411:-2.7255204545812282e+00
13412:-3.0394550126277005e+00
13413:-3.0725150018092076e+00
13414:-3.0910529643535680e+00
13415:-3.0859832393955022e+00
13416:-3.6029144687240140e+00
13417:-3.6212378507821277e+00
13418:-3.6176348725068612e+00
13419:-3.5946159553286861e+00
13420:-4.0453582365640965e+00
13421:-4.0594072975856355e+00
13422:-4.0477249296859945e+00
13423:-4.0169693695108579e+00
13424:-2.7276147152981229e+00
13425:-2.7202429465224034e+00
13426:-2.6868293607634759e+00
13427:-2.6412292740525785e+00
13428:-3.0763438897033435e+00
13429:-3.0450951092877294e+00
13430:-2.9767673399523820e+00
13431:-2.9017213673933497e+00
13432:-3.5752584506433833e+00
13433:-3.5229195673728295e+00
13434:-3.4212987572081333e+00
13435:-3.3166699279761938e+00
13436:-3.9929525563767245e+00
13437:-3.9293169978186930e+00
13438:-3.8080076706040868e+00
13439:-3.6848493934772262e+00
13440:-2.6097204395341183e+00
13441:-2.5433788142903984e+00
13442:-2.4437205636118313e+00
13443:-2.3570081764866866e+00
13444:-2.8536523693052644e+00
13445:-2.7552916817622579e+00
13446:-2.6128848004248382e+00
13447:-2.4933347603829565e+00
13448:-3.2514804748407014e+00
13449:-3.1182771651713872e+00
13450:-2.9253819455765817e+00
13451:-2.7635966327083357e+00
13452:-3.6086511584695038e+00
13453:-3.4523855676844817e+00
13454:-3.2243454219759240e+00
13455:-3.0315075221768431e+00
13456:-2.3072414915674231e+00
13457:-2.2102092999771359e+00
13458:-2.0759125907252480e+00
13459:-1.9660122366384205e+00
13460:-2.4263317272754343e+00
13461:-2.2991800484614622e+00
13462:-2.1296499101065360e+00
13463:-1.9952906192803035e+00
13464:-2.6730794797163031e+00
13465:-2.5028119572576304e+00
13466:-2.2797183924623048e+00
13467:-2.1064830177544391e+00
13468:-2.9230319080149099e+00
13469:-2.7186342114999693e+00
13470:-2.4514464549394890e+00
13471:-2.2454862742215371e+00
13472:-1.9048716856832757e+00
13473:-1.7883160636371844e+00
13474:-1.6313834960295390e+00
13475:-1.5056185651737739e+00
13476:-1.9218972389719449e+00
13477:-1.7846860790861310e+00
13478:-1.6067128193607585e+00
13479:-1.4703667669087992e+00
13480:-2.0132575437061933e+00
13481:-1.8421238743284138e+00
13482:-1.6275269130698438e+00
13483:-1.4697286467703550e+00
13484:-2.1354587805723000e+00
13485:-1.9350124035470013e+00
13486:-1.6869067307214796e+00
13487:-1.5072440834226482e+00
13488:-1.4364073455730841e+00
13489:-1.3070687925418034e+00
13490:-1.1422801124542499e+00
13491:-1.0207207573683359e+00
13492:-1.3977433601254530e+00
13493:-1.2654498923221555e+00
13494:-1.1014928762879588e+00
13495:-9.8245290229731430e-01
13496:-1.3881791974817155e+00
13497:-1.2426799363467356e+00
13498:-1.0669423469562180e+00
13499:-9.4193144589211408e-01
13500:-1.4154123489448005e+00
13501:-1.2525470199075426e+00
13502:-1.0577908100262816e+00
13503:-9.2098867904395576e-01
13504:-9.5812702823332585e-01
13505:-8.4562319159350519e-01
13506:-7.0986684556868074e-01
13507:-6.1536736519331936e-01
13508:-9.2137354026909613e-01
13509:-8.1169295192674906e-01
13510:-6.7990244494437813e-01
13511:-5.8894913662349935e-01
13512:-8.7844325148140312e-01
13513:-7.6561968628787702e-01
13514:-6.3226716036524366e-01
13515:-5.4188687185581530e-01
13516:-8.5222250984812775e-01
13517:-7.3160172258486689e-01
13518:-5.9163877402053644e-01
13519:-4.9836303874361992e-01
13520:-5.6860136492808044e-01
13521:-4.8592769774477745e-01
13522:-3.8783486386957505e-01
13523:-3.2031553841533605e-01
13524:-5.4432723622115431e-01
13525:-4.6605463942252862e-01
13526:-3.7440819584541624e-01
13527:-3.1236556635776069e-01
13528:-4.9815367159462681e-01
13529:-4.2270849293952317e-01
13530:-3.3697594102818851e-01
13531:-2.8110686440133958e-01
13532:-4.5370826210410214e-01
13533:-3.7780025910703241e-01
13534:-2.9389494060573768e-01
13535:-2.4120146328058378e-01
13536:-2.8705818201719890e-01
13537:-2.2910218076055666e-01
13538:-1.6234611619499431e-01
13539:-1.1821965424947134e-01
13540:-2.8218564392632201e-01
13541:-2.2971811648667434e-01
13542:-1.6919910277620046e-01
13543:-1.2892455881159348e-01
13544:-2.5473666501403669e-01
13545:-2.0956927967689559e-01
13546:-1.5850729618756118e-01
13547:-1.2524989650822629e-01
13548:-2.1709918769534226e-01
13549:-1.7673553102206005e-01
13550:-1.3284737397465771e-01
13551:-1.0572609041540006e-01
13552:-9.7219996981946999e-02
13553:-6.1739428465016212e-02
13554:-2.3257725120825648e-02
13555:-9.8037713061585577e-06
13556:-1.0957668987063546e-01
13557:-7.6176789396666611e-02
13558:-3.7992451120814286e-02
13559:-1.2779639908178498e-02
13560:-1.0949227063688906e-01
13561:-8.2191566583110928e-02
13562:-5.0425912059916048e-02
13563:-2.8751151447763402e-02
13564:-9.3432441993762841e-02
13565:-7.2712153084612055e-02
13566:-4.9664816747258762e-02
13567:-3.4802652611396583e-02
13568:-7.3991107139974934e+00
13569:-6.7473066667427197e+00
13570:-6.0106658435798446e+00
13571:-5.5279278951285136e+00
13572:-7.0291773954769781e+00
13573:-6.4517229902118931e+00
13574:-5.7981688530687610e+00
13575:-5.3694454014343185e+00
13576:-6.5001232198303880e+00
13577:-6.0275270442106610e+00
13578:-5.4908320357891442e+00
13579:-5.1373552777901219e+00
13580:-6.0634751042411974e+00
13581:-5.6756163916123752e+00
13582:-5.2345706883694616e+00
13583:-4.9433732055925965e+00
13584:-5.2977935709587731e+00
13585:-4.9075017079141352e+00
13586:-4.4739683074968140e+00
13587:-4.1961016851672577e+00
13588:-5.1651134461679060e+00
13589:-4.8208002653898552e+00
13590:-4.4429485589291904e+00
13591:-4.2043384772297330e+00
13592:-4.9685592421031570e+00
13593:-4.6869941340520338e+00
13594:-4.3846705674512148e+00
13595:-4.1994926566097357e+00
13596:-4.8041093391294174e+00
13597:-4.5739241544400331e+00
13598:-4.3321871662665590e+00
13599:-4.1892925069862326e+00
13600:-4.0662128446673842e+00
13601:-3.8538625499472228e+00
13602:-3.6366067219922344e+00
13603:-3.5147475332292473e+00
13604:-4.0941340098107881e+00
13605:-3.9166144978297144e+00
13606:-3.7410124795178912e+00
13607:-3.6484326144724304e+00
13608:-4.1162929490058895e+00
13609:-3.9867713778960510e+00
13610:-3.8687523948543223e+00
13611:-3.8166267554642164e+00
13612:-4.1273756599978881e+00
13613:-4.0356476915715014e+00
13614:-3.9627816114969057e+00
13615:-3.9421092166948761e+00
13616:-3.4651572702183668e+00
13617:-3.3979962617761537e+00
13618:-3.3605486924110348e+00
13619:-3.3702500859234554e+00
13620:-3.6135750668963333e+00
13621:-3.5725001394932558e+00
13622:-3.5665668308763525e+00
13623:-3.5989629435122290e+00
13624:-3.8020407022403369e+00
13625:-3.7961009310576914e+00
13626:-3.8305665271437297e+00
13627:-3.8900758416029748e+00
13628:-3.9431480279153632e+00
13629:-3.9639037828805250e+00
13630:-4.0279432606491028e+00
13631:-4.1060860050099857e+00
13632:-3.3885217067268072e+00
13633:-3.4382149294123590e+00
13634:-3.5296855696912250e+00
13635:-3.6187000273336127e+00
13636:-3.6289450740373295e+00
13637:-3.7000370121709452e+00
13638:-3.8184770098938956e+00
13639:-3.9275839890444133e+00
13640:-3.9332636598314075e+00
13641:-4.0274875325202819e+00
13642:-4.1732864796397964e+00
13643:-4.3014518784604414e+00
13644:-4.1578265969823613e+00
13645:-4.2665231435288016e+00
13646:-4.4285536337417826e+00
13647:-4.5673350866923501e+00
13648:-3.6718749384757419e+00
13649:-3.7724076913512317e+00
13650:-3.9024649470370503e+00
13651:-4.0007849170663388e+00
13652:-3.9913082191034248e+00
13653:-4.1111641680475817e+00
13654:-4.2640827051077945e+00
13655:-4.3768913688470112e+00
13656:-4.3747434428071994e+00
13657:-4.5116358993490140e+00
13658:-4.6841989098882122e+00
13659:-4.8093573047103924e+00
13660:-4.6457059020772240e+00
13661:-4.7912921692059323e+00
13662:-4.9737236492656276e+00
13663:-5.1054273150032241e+00
13664:-4.0520290336962184e+00
13665:-4.1365003412156769e+00
13666:-4.2214425926220791e+00
13667:-4.2668251740989618e+00
13668:-4.4344964631459849e+00
13669:-4.5293985278618765e+00
13670:-4.6260346056348762e+00
13671:-4.6796041006902742e+00
13672:-4.8724572551385936e+00
13673:-4.9770598790175677e+00
13674:-5.0863114479721023e+00
13675:-5.1502644163311562e+00
13676:-5.1716542534552463e+00
13677:-5.2810372358398423e+00
13678:-5.3949479348038381e+00
13679:-5.4618391984258770e+00
13680:-4.2837298592018058e+00
13681:-4.2986215247511108e+00
13682:-4.2857724121832366e+00
13683:-4.2524193686962990e+00
13684:-4.7006504301114207e+00
13685:-4.7204920699434707e+00
13686:-4.7080429596052102e+00
13687:-4.6703542030711924e+00
13688:-5.1770593088464931e+00
13689:-5.2037500975580020e+00
13690:-5.1914091893333500e+00
13691:-5.1468778703549223e+00
13692:-5.4900307045245187e+00
13693:-5.5171274780382271e+00
13694:-5.5001938151518575e+00
13695:-5.4478900269433357e+00
13696:-4.2264029271421810e+00
13697:-4.1575352505116197e+00
13698:-4.0266605659161527e+00
13699:-3.8942808583323258e+00
13700:-4.6404060384085382e+00
13701:-4.5616189328078676e+00
13702:-4.4132770854189385e+00
13703:-4.2643630347638366e+00
13704:-5.1109015644696560e+00
13705:-5.0184667356142336e+00
13706:-4.8484465878124707e+00
13707:-4.6801871401553345e+00
13708:-5.4062937606562516e+00
13709:-5.3026581255931013e+00
13710:-5.1172155417679663e+00
13711:-4.9365394046604854e+00
13712:-3.8125591534205792e+00
13713:-3.6447779602751891e+00
13714:-3.3991212719188786e+00
13715:-3.1905019415706843e+00
13716:-4.1728294622950779e+00
13717:-3.9851267310483625e+00
13718:-3.7100604271843909e+00
13719:-3.4758122414739527e+00
13720:-4.5774901453597785e+00
13721:-4.3680198470768490e+00
13722:-4.0627002468556501e+00
13723:-3.8034859675982817e+00
13724:-4.8270463746060885e+00
13725:-4.6049312807470315e+00
13726:-4.2833378748587370e+00
13727:-4.0117516774163597e+00
13728:-3.0727800633631137e+00
13729:-2.8505240747521161e+00
13730:-2.5599199279388705e+00
13731:-2.3365096577490165e+00
13732:-3.3432869493595230e+00
13733:-3.0926886288310489e+00
13734:-2.7653320168994826e+00
13735:-2.5148178260812668e+00
13736:-3.6569757965514866e+00
13737:-3.3798759787275734e+00
13738:-3.0183942247411908e+00
13739:-2.7427360039469453e+00
13740:-3.8586456186427780e+00
13741:-3.5688561247508668e+00
13742:-3.1903185459815218e+00
13743:-2.9013627106924162e+00
13744:-2.2175342328971857e+00
13745:-2.0011948594252518e+00
13746:-1.7341170327216040e+00
13747:-1.5412443174539632e+00
13748:-2.3820118169954929e+00
13749:-2.1406806894876800e+00
13750:-1.8427110133463100e+00
13751:-1.6273898053810127e+00
13752:-2.5970471136176805e+00
13753:-2.3320204737317294e+00
13754:-2.0037134214920842e+00
13755:-1.7653723108062336e+00
13756:-2.7485770172466131e+00
13757:-2.4706161559520257e+00
13758:-2.1259559019603209e+00
13759:-1.8752045516559757e+00
13760:-1.4428304133156447e+00
13761:-1.2683807600593220e+00
13762:-1.0602918108869486e+00
13763:-9.1490381654289010e-01
13764:-1.5174341078743441e+00
13765:-1.3223854884086084e+00
13766:-1.0900409674344067e+00
13767:-9.2850946798249467e-01
13768:-1.6432140667888464e+00
13769:-1.4261920302784452e+00
13770:-1.1675198506529649e+00
13771:-9.8792492727541126e-01
13772:-1.7464326839746522e+00
13773:-1.5175872973958908e+00
13774:-1.2448211565817240e+00
13775:-1.0554886564016532e+00
13776:-8.4222941979685628e-01
13777:-7.1569078115583384e-01
13778:-5.7033974725512182e-01
13779:-4.7429765842075056e-01
13780:-8.4824251634007586e-01
13781:-7.0960384139973753e-01
13782:-5.5203422027850912e-01
13783:-4.4874628714132919e-01
13784:-8.9887593435912672e-01
13785:-7.4536199220636734e-01
13786:-5.7112246943551659e-01
13787:-4.5679313516357073e-01
13788:-9.6162099123342637e-01
13789:-7.9943590310854951e-01
13790:-6.1460382210453768e-01
13791:-4.9276434345201520e-01
13792:-4.2853846260007666e-01
13793:-3.5131275383679439e-01
13794:-2.6713642281502031e-01
13795:-2.1528863647225682e-01
13796:-3.9971808212029064e-01
13797:-3.1766036465034819e-01
13798:-2.2970758944100736e-01
13799:-1.7681999209531044e-01
13800:-4.0240804652380241e-01
13801:-3.1150418967415361e-01
13802:-2.1438783147353674e-01
13803:-1.5625656479839464e-01
13804:-4.3460352905414962e-01
13805:-3.3696208527254495e-01
13806:-2.3174887319460338e-01
13807:-1.6797113414454493e-01
13808:-1.9198363753319150e-01
13809:-1.5356743123833480e-01
13810:-1.1306116318249283e-01
13811:-8.9171371232760796e-02
13812:-1.5358456487612729e-01
13813:-1.1627726159508005e-01
13814:-7.9094360646280532e-02
13815:-5.9184220322394086e-02
13816:-1.3084682153146415e-01
13817:-9.0645161254438500e-02
13818:-5.2024745053084721e-02
13819:-3.2811297577064934e-02
13820:-1.3976600611471085e-01
13821:-9.4864706615863326e-02
13822:-5.1243864331015826e-02
13823:-2.9093770112350533e-02
13824:-7.8815583772848974e-02
13825:-6.1984208387223960e-02
13826:-4.4554278679447772e-02
13827:-3.4486510058223778e-02
13828:-5.1436960568152765e-02
13829:-4.0114088880402764e-02
13830:-3.1141017660760033e-02
13831:-2.8645167786717454e-02
13832:-2.6054773932978250e-02
13833:-1.7425029828439711e-02
13834:-1.3640817973826515e-02
13835:-1.6503524200484669e-02
13836:-2.1090912764902197e-02
13837:-1.0605782248148688e-02
13838:-5.3688371373056655e-03
13839:-7.9008101838089154e-03
13840:-5.8210046989739217e+00
13841:-5.4792549734020213e+00
13842:-5.0910826670544553e+00
13843:-4.8349096286871749e+00
13844:-5.3474291725895107e+00
13845:-5.0922348126956978e+00
13846:-4.8047053778416160e+00
13847:-4.6165989377028911e+00
13848:-4.7028611154717321e+00
13849:-4.5610286572212519e+00
13850:-4.4059612189466533e+00
13851:-4.3085721407076161e+00
13852:-4.1978786229583793e+00
13853:-4.1438235170507465e+00
13854:-4.0899896311618269e+00
13855:-4.0613379365249083e+00
13856:-4.7124276100101170e+00
13857:-4.5111302301639666e+00
13858:-4.3028332245586638e+00
13859:-4.1828958024918839e+00
13860:-4.5272911373258076e+00
13861:-4.3831037430180855e+00
13862:-4.2405234548584190e+00
13863:-4.1652329731618964e+00
13864:-4.2640362292094496e+00
13865:-4.1971583950731626e+00
13866:-4.1434566018466334e+00
13867:-4.1281524583539770e+00
13868:-4.0506634073327117e+00
13869:-4.0425235746207360e+00
13870:-4.0567036708876687e+00
13871:-4.0872749043592878e+00
13872:-4.1324349505794133e+00
13873:-4.0609746174489558e+00
13874:-4.0121518428282767e+00
13875:-4.0080557762815401e+00
13876:-4.1368442013854585e+00
13877:-4.1042055852391259e+00
13878:-4.1010663591642853e+00
13879:-4.1282068207889608e+00
13880:-4.1291875036336041e+00
13881:-4.1480644429333351e+00
13882:-4.2052254134305693e+00
13883:-4.2734253284632810e+00
13884:-4.1107744466057934e+00
13885:-4.1689994496086769e+00
13886:-4.2723468694545312e+00
13887:-4.3721619795108353e+00
13888:-4.0172585718710971e+00
13889:-4.0518738271813399e+00
13890:-4.1309836781614342e+00
13891:-4.2182739857271159e+00
13892:-4.1527209099256606e+00
13893:-4.2134234182481674e+00
13894:-4.3210288693919408e+00
13895:-4.4256260951260709e+00
13896:-4.3180563624010846e+00
13897:-4.4135261047568699e+00
13898:-4.5600308928957389e+00
13899:-4.6888924220095234e+00
13900:-4.4323882559328798e+00
13901:-4.5554135985044821e+00
13902:-4.7339125052193207e+00
13903:-4.8836138248154857e+00
13904:-4.2740525224217505e+00
13905:-4.3895003215988586e+00
13906:-4.5589983059651153e+00
13907:-4.7025837780305375e+00
13908:-4.4890332371039587e+00
13909:-4.6174589185555721e+00
13910:-4.8018766727171327e+00
13911:-4.9555838159280512e+00
13912:-4.7632007426743490e+00
13913:-4.9101313533013693e+00
13914:-5.1157360593476158e+00
13915:-5.2838282109524055e+00
13916:-4.9675689278895403e+00
13917:-5.1303444163195708e+00
13918:-5.3528310312752412e+00
13919:-5.5314120144654915e+00
13920:-4.7832210691223693e+00
13921:-4.9326278486259953e+00
13922:-5.1195366763211885e+00
13923:-5.2545694813545030e+00
13924:-5.0412048657110899e+00
13925:-5.1992720999423669e+00
13926:-5.3970779844476464e+00
13927:-5.5409994084874050e+00
13928:-5.3765239683536823e+00
13929:-5.5463454289354024e+00
13930:-5.7583625757969115e+00
13931:-5.9140639366929353e+00
13932:-5.6288787053794822e+00
13933:-5.8052458170211443e+00
13934:-6.0230115585117110e+00
13935:-6.1828776391154685e+00
13936:-5.3225383385223317e+00
13937:-5.4338900752503214e+00
13938:-5.5479139163187163e+00
13939:-5.6133335558753128e+00
13940:-5.6138939127300400e+00
13941:-5.7307719316124297e+00
13942:-5.8440777769459098e+00
13943:-5.9030818370301477e+00
13944:-5.9937197143731042e+00
13945:-6.1185453284830889e+00
13946:-6.2308078494089791e+00
13947:-6.2794772348125711e+00
13948:-6.2650978437583911e+00
13949:-6.3934941654024575e+00
13950:-6.5057314925449434e+00
13951:-6.5491947666433852e+00
13952:-5.6402909276789348e+00
13953:-5.6644228983130995e+00
13954:-5.6420916800764713e+00
13955:-5.5842240988247926e+00
13956:-5.9247469194653712e+00
13957:-5.9379888986286478e+00
13958:-5.8996862176862130e+00
13959:-5.8278661162419203e+00
13960:-6.2923160908127995e+00
13961:-6.2876522245201292e+00
13962:-6.2242400337563408e+00
13963:-6.1316997460604616e+00
13964:-6.5571255049667725e+00
13965:-6.5417874411266377e+00
13966:-6.4623768791088931e+00
13967:-6.3561781471983858e+00
13968:-5.5391501316688458e+00
13969:-5.4291343351247265e+00
13970:-5.2358451155364971e+00
13971:-5.0494787821142424e+00
13972:-5.7747591923089958e+00
13973:-5.6504514875641396e+00
13974:-5.4403982763306367e+00
13975:-5.2425741780477066e+00
13976:-6.0670934615021137e+00
13977:-5.9221940297060867e+00
13978:-5.6876761318571569e+00
13979:-5.4730137791236011e+00
13980:-6.2838833700972145e+00
13981:-6.1244245112564046e+00
13982:-5.8710173862665727e+00
13983:-5.6421769014861916e+00
13984:-4.9370604551791111e+00
13985:-4.7097340516065112e+00
13986:-4.3819450333095578e+00
13987:-4.1061096613766015e+00
13988:-5.1245190100480844e+00
13989:-4.8873697774789155e+00
13990:-4.5484457895668964e+00
13991:-4.2655669738543560e+00
13992:-5.3466593790979529e+00
13993:-5.0949051042518470e+00
13994:-4.7393701906977626e+00
13995:-4.4461828342111955e+00
13996:-5.5084265780057216e+00
13997:-5.2431355245585349e+00
13998:-4.8713425470064822e+00
13999:-4.5674317481203808e+00
14000:-3.9508902722614483e+00
14001:-3.6567683493795764e+00
14002:-3.2716860203083984e+00
14003:-2.9769967428163451e+00
14004:-4.1070769784911709e+00
14005:-3.8058440313101527e+00
14006:-3.4088104717449736e+00
14007:-3.1025803417095568e+00
14008:-4.2830983068588475e+00
14009:-3.9727177076739135e+00
14010:-3.5610728448452456e+00
14011:-3.2405390858338299e+00
14012:-4.3994359265229104e+00
14013:-4.0811407139631770e+00
14014:-3.6601516180074607e+00
14015:-3.3318512021960331e+00
14016:-2.8209387989831365e+00
14017:-2.5372192705270402e+00
14018:-2.1857527511317087e+00
14019:-1.9301404749665787e+00
14020:-2.9395763689728982e+00
14021:-2.6437745668289319e+00
14022:-2.2787264088474481e+00
14023:-2.0141932708243369e+00
14024:-3.0687055839520889e+00
14025:-2.7573836862083367e+00
14026:-2.3750657887152062e+00
14027:-2.0997580455734610e+00
14028:-3.1553468819555803e+00
14029:-2.8353749489367135e+00
14030:-2.4428270185440648e+00
14031:-2.1609825213116252e+00
14032:-1.7988641435669919e+00
14033:-1.5656708195669999e+00
14034:-1.2879178671142286e+00
14035:-1.0952430503884005e+00
14036:-1.8786501082062159e+00
14037:-1.6385176906671521e+00
14038:-1.3537053918283344e+00
14039:-1.1570221588977747e+00
14040:-1.9593968280883243e+00
14041:-1.7119507949423747e+00
14042:-1.4207576237362576e+00
14043:-1.2214082249147891e+00
14044:-2.0177362184358945e+00
14045:-1.7659599611544083e+00
14046:-1.4710451836578873e+00
14047:-1.2701674402971928e+00
14048:-9.9973277579505093e-01
14049:-8.3442010116114718e-01
14050:-6.4550752148579815e-01
14051:-5.2067694813102561e-01
14052:-1.0597902518356463e+00
14053:-8.9123448141493888e-01
14054:-6.9819981279624943e-01
14055:-5.7055863702653675e-01
14056:-1.1234175625668084e+00
14057:-9.5347959603884591e-01
14058:-7.5885077777779464e-01
14059:-6.3048197756589497e-01
14060:-1.1717404346450213e+00
14061:-1.0008815444800554e+00
14062:-8.0497037782852698e-01
14063:-6.7581198314488156e-01
14064:-4.6099621123921813e-01
14065:-3.6043558424597499e-01
14066:-2.5127393920886798e-01
14067:-1.8439914873699800e-01
14068:-5.0953661139253414e-01
14069:-4.0604334227023575e-01
14070:-2.9214259397623366e-01
14071:-2.2099037252390127e-01
14072:-5.6927956102065580e-01
14073:-4.6476607992644625e-01
14074:-3.4797562686832445e-01
14075:-2.7342605036511519e-01
14076:-6.1430140880140682e-01
14077:-5.0893609738648071e-01
14078:-3.9032640898065929e-01
14079:-3.1378469900275979e-01
14080:-1.5453356971500129e-01
14081:-1.0659326215862440e-01
14082:-5.9206079502312034e-02
14083:-3.4348715592128584e-02
14084:-1.8863993740257218e-01
14085:-1.3580975098097947e-01
14086:-8.1687508602873701e-02
14087:-5.1450391358971663e-02
14088:-2.3885397236753372e-01
14089:-1.8117931069275184e-01
14090:-1.1949521475297700e-01
14091:-8.2570046185017010e-02
14092:-2.7791987433696647e-01
14093:-2.1732055186778376e-01
14094:-1.5085507959580643e-01
14095:-1.0954726355140400e-01
14096:-2.4974721511981702e-02
14097:-1.2061658280638590e-02
14098:-3.9546084298629431e-03
14099:-4.5260157737911939e-03
14100:-3.9155102227605973e-02
14101:-2.0790834068577943e-02
14102:-5.6384478901836078e-03
14103:-8.4467678521706058e-04
14104:-6.6426030611227746e-02
14105:-4.0554639828882050e-02
14106:-1.4982402298017934e-02
14107:-1.6181769249584471e-03
14108:-9.0827460929506318e-02
14109:-5.9783284438322225e-02
14110:-2.6654391926582217e-02
14111:-6.7296370686878689e-03
14112:-3.9274559629152961e+00
14113:-3.9206382742333976e+00
14114:-3.9203422736821305e+00
14115:-3.9274280130595196e+00
14116:-3.4162300880349417e+00
14117:-3.4983147604213602e+00
14118:-3.5978391425512344e+00
14119:-3.6706103563834049e+00
14120:-2.7479576802987316e+00
14121:-2.9433098458340048e+00
14122:-3.1696600924548921e+00
14123:-3.3251776739274370e+00
14124:-2.2409781515218210e+00
14125:-2.5182776036983636e+00
14126:-2.8372501964414192e+00
14127:-3.0535997028671122e+00
14128:-3.9341953002489416e+00
14129:-3.9564292600262814e+00
14130:-4.0059497501437633e+00
14131:-4.0605237624005452e+00
14132:-3.7090731372726928e+00
14133:-3.7866021697603074e+00
14134:-3.9007830239880183e+00
14135:-3.9994948384350506e+00
14136:-3.4032205175196673e+00
14137:-3.5498986927931657e+00
14138:-3.7452493075227062e+00
14139:-3.8995591246695311e+00
14140:-3.1608008819598044e+00
14141:-3.3584293147839617e+00
14142:-3.6135473568208409e+00
14143:-3.8087195897852126e+00
14144:-4.0958023302516962e+00
14145:-4.1747273222763717e+00
14146:-4.3025371374185690e+00
14147:-4.4192501145456005e+00
14148:-4.0565089122053841e+00
14149:-4.1738303372964527e+00
14150:-4.3474438546496437e+00
14151:-4.4961574399971269e+00
14152:-3.9840168200535357e+00
14153:-4.1501025673503094e+00
14154:-4.3825206889224928e+00
14155:-4.5728523140856678e+00
14156:-3.9133159538085001e+00
14157:-4.1153025947956650e+00
14158:-4.3913101871742706e+00
14159:-4.6127514435197039e+00
14160:-4.4878840269179925e+00
14161:-4.6260440260860642e+00
14162:-4.8226730790939865e+00
14163:-4.9846317144588639e+00
14164:-4.5808644525421593e+00
14165:-4.7484912207837198e+00
14166:-4.9818578002986476e+00
14167:-5.1701550294593801e+00
14168:-4.6786707915786820e+00
14169:-4.8855319568509685e+00
14170:-5.1695722118065257e+00
14171:-5.3962296301722139e+00
14172:-4.7344379656392235e+00
14173:-4.9707830251486067e+00
14174:-5.2933954162239862e+00
14175:-5.5501123871493627e+00
14176:-5.0744106409275416e+00
14177:-5.2465047515905470e+00
14178:-5.4782876362986475e+00
14179:-5.6621009087015990e+00
14180:-5.2730994333899934e+00
14181:-5.4668147389905082e+00
14182:-5.7211007092990407e+00
14183:-5.9183408029719153e+00
14184:-5.5192589870524040e+00
14185:-5.7471872347396635e+00
14186:-6.0394247795435287e+00
14187:-6.2612576380203526e+00
14188:-5.6893269548238550e+00
14189:-5.9458522298754470e+00
14190:-6.2718920399621609e+00
14191:-6.5173156194536581e+00
14192:-5.7617113405516172e+00
14193:-5.9401768319004118e+00
14194:-6.1580424990689897e+00
14195:-6.3171200269630594e+00
14196:-6.0237798946941163e+00
14197:-6.2087877508732641e+00
14198:-6.4274736259036827e+00
14199:-6.5824446537045276e+00
14200:-6.3782525452645364e+00
14201:-6.5795829682641989e+00
14202:-6.8076152605221223e+00
14203:-6.9597871247930305e+00
14204:-6.6461426746212977e+00
14205:-6.8673621981120458e+00
14206:-7.1137685839202716e+00
14207:-7.2716911465203466e+00
14208:-6.3989779112526435e+00
14209:-6.5274298571593530e+00
14210:-6.6399569576626138e+00
14211:-6.6826368587912643e+00
14212:-6.6610018703725302e+00
14213:-6.7852524416513296e+00
14214:-6.8955189666383836e+00
14215:-6.9376080561718618e+00
14216:-7.0335078012948804e+00
14217:-7.1497327683829921e+00
14218:-7.2536499620027319e+00
14219:-7.2944955482643543e+00
14220:-7.3450391367875154e+00
14221:-7.4582274747261517e+00
14222:-7.5569944372765905e+00
14223:-7.5951732161944987e+00
14224:-6.6894863024738056e+00
14225:-6.6711313333463433e+00
14226:-6.5861600975170580e+00
14227:-6.4746460774478773e+00
14228:-6.9441100089301813e+00
14229:-6.9237068296424189e+00
14230:-6.8331734801330928e+00
14231:-6.7152458917698947e+00
14232:-7.3015910298156204e+00
14233:-7.2817635182913092e+00
14234:-7.1896183223578474e+00
14235:-7.0680235357414682e+00
14236:-7.6018468974176558e+00
14237:-7.5819404558700283e+00
14238:-7.4896053681117305e+00
14239:-7.3667591629082256e+00
14240:-6.3991936495566799e+00
14241:-6.2331682774477075e+00
14242:-5.9701313563611071e+00
14243:-5.7332844926802204e+00
14244:-6.6355776985742008e+00
14245:-6.4593000061543382e+00
14246:-6.1786344900515404e+00
14247:-5.9254830506485403e+00
14248:-6.9852376653575128e+00
14249:-6.7987500275029396e+00
14250:-6.4966349409740625e+00
14251:-6.2215766617130015e+00
14252:-7.2825105441342659e+00
14253:-7.0897958170054194e+00
14254:-6.7730780755152669e+00
14255:-6.4825121618137480e+00
14256:-5.5951047363020079e+00
14257:-5.3214218979982011e+00
14258:-4.9390261060666845e+00
14259:-4.6276726665137913e+00
14260:-5.7777874374979259e+00
14261:-5.4854284383049192e+00
14262:-5.0776877428377833e+00
14263:-4.7466083909303887e+00
14264:-6.0605539758176477e+00
14265:-5.7413915257458896e+00
14266:-5.2951727384101126e+00
14267:-4.9317114708759675e+00
14268:-6.3119388585599605e+00
14269:-5.9734226178937639e+00
14270:-5.4984477671648762e+00
14271:-5.1094734631263359e+00
14272:-4.4561234413981641e+00
14273:-4.1327247946073902e+00
14274:-3.7073181996047362e+00
14275:-3.3764690255906373e+00
14276:-4.5647473512890180e+00
14277:-4.2254456603838078e+00
14278:-3.7856905366351050e+00
14279:-3.4478662733767900e+00
14280:-4.7317763010568843e+00
14281:-4.3618656282536232e+00
14282:-3.8904387876015152e+00
14283:-3.5353700820412417e+00
14284:-4.8946087112298153e+00
14285:-4.4966722887072921e+00
14286:-3.9914761740599767e+00
14287:-3.6147214954154365e+00
14288:-3.1986375513736029e+00
14289:-2.8759039552857781e+00
14290:-2.4795985703154515e+00
14291:-2.1951275927140608e+00
14292:-3.2673792285094123e+00
14293:-2.9395788391905611e+00
14294:-2.5365144316124968e+00
14295:-2.2471192660877999e+00
14296:-3.3481851921592374e+00
14297:-3.0090087595805484e+00
14298:-2.5923708800724472e+00
14299:-2.2932523676479035e+00
14300:-3.4179516432153259e+00
14301:-3.0628577294099979e+00
14302:-2.6281674234407428e+00
14303:-2.3164578237424087e+00
14304:-2.0506740344097083e+00
14305:-1.7969809005246424e+00
14306:-1.5001608876567332e+00
14307:-1.2982157003595471e+00
14308:-2.1002267104562042e+00
14309:-1.8421939027797851e+00
14310:-1.5402712384161499e+00
14311:-1.3349637153039517e+00
14312:-2.1413055069192954e+00
14313:-1.8735863676584799e+00
14314:-1.5592711449305392e+00
14315:-1.3453073446193378e+00
14316:-2.1579700048417787e+00
14317:-1.8777429192116919e+00
14318:-1.5475261043094934e+00
14319:-1.3225624839743664e+00
14320:-1.1993218223650524e+00
14321:-1.0274561728781328e+00
14322:-8.3004924613000197e-01
14323:-6.9973016669050048e-01
14324:-1.2344898911975180e+00
14325:-1.0597733885482474e+00
14326:-8.5878727031622659e-01
14327:-7.2581463248435374e-01
14328:-1.2407335708427361e+00
14329:-1.0597589197007899e+00
14330:-8.5284198152782997e-01
14331:-7.1644323313757530e-01
14332:-1.2128605774357353e+00
14333:-1.0247369111645404e+00
14334:-8.1253342239588144e-01
14335:-6.7426824635579907e-01
14336:-6.3763077944696644e-01
14337:-5.3120515538141377e-01
14338:-4.1123024399888047e-01
14339:-3.3359978702050946e-01
14340:-6.6234969090917373e-01
14341:-5.5381108217056929e-01
14342:-4.3189497666239612e-01
14343:-3.5327375678184014e-01
14344:-6.5142126488144803e-01
14345:-5.4106454965049589e-01
14346:-4.1887691906929658e-01
14347:-3.4146442791102183e-01
14348:-6.0877971770658679e-01
14349:-4.9860552291793003e-01
14350:-3.7860978483381180e-01
14351:-3.0421751625952154e-01
14352:-2.9711864429125406e-01
14353:-2.3519705597882959e-01
14354:-1.6666321757659713e-01
14355:-1.2350696187159185e-01
14356:-3.1638927777250597e-01
14357:-2.5365528088643957e-01
14358:-1.8388104303361813e-01
14359:-1.3962032595087273e-01
14360:-3.0564428481271483e-01
14361:-2.4517901890758259e-01
14362:-1.7875354011029979e-01
14363:-1.3731627773028154e-01
14364:-2.7041400626804796e-01
14365:-2.1405346793428734e-01
14366:-1.5348223720547002e-01
14367:-1.1687324953814555e-01
14368:-1.0370947108049028e-01
14369:-7.0459061168380799e-02
14370:-3.3981082746168491e-02
14371:-1.1030528752029716e-02
14372:-1.1916960894241260e-01
14373:-8.4448803028577921e-02
14374:-4.5455421322073405e-02
14375:-2.0035190523676943e-02
14376:-1.1843564058762630e-01
14377:-8.6556365191030424e-02
14378:-5.1144089201714600e-02
14379:-2.8485320882691529e-02
14380:-1.0066754716991433e-01
14381:-7.3918934461983193e-02
14382:-4.5684922829607025e-02
14383:-2.9155471077181944e-02
14384:-1.9747548557561789e+00
14385:-2.2932313266911519e+00
14386:-2.6593706080557169e+00
14387:-2.9071085141560489e+00
14388:-1.4906202031037961e+00
14389:-1.8814137220348648e+00
14390:-2.3310613789556958e+00
14391:-2.6349419760894315e+00
14392:-8.9434922802533212e-01
14393:-1.3699584786638819e+00
14394:-1.9182132770117739e+00
14395:-2.2890216640252961e+00
14396:-4.6771766698191153e-01
14397:-1.0011742270856665e+00
14398:-1.6167179456859047e+00
14399:-2.0333096281246408e+00
14400:-3.0294712641360988e+00
14401:-3.2535723105792282e+00
14402:-3.5396494796752060e+00
14403:-3.7559043622581250e+00
14404:-2.7846217950212617e+00
14405:-3.0563419340671385e+00
14406:-3.3979918148491079e+00
14407:-3.6521190497642704e+00
14408:-2.4714985673933558e+00
14409:-2.8002509429139684e+00
14410:-3.2083591400388527e+00
14411:-3.5079757972625489e+00
14412:-2.2382748723591592e+00
14413:-2.6060551030800592e+00
14414:-3.0597024840839904e+00
14415:-3.3907758829577372e+00
14416:-3.8708617705305528e+00
14417:-4.0913455006721486e+00
14418:-4.3898897231213008e+00
14419:-4.6274842009479800e+00
14420:-3.7857450351393411e+00
14421:-4.0398487815549560e+00
14422:-4.3799274341155261e+00
14423:-4.6477067813285178e+00
14424:-3.6641977173646731e+00
14425:-3.9596267917170245e+00
14426:-4.3519633406633949e+00
14427:-4.6585762064418308e+00
14428:-3.5628080115272458e+00
14429:-3.8876622017475029e+00
14430:-4.3181459896631189e+00
14431:-4.6537555155218016e+00
14432:-4.7574272182864492e+00
14433:-5.0090026293575010e+00
14434:-5.3514683376235066e+00
14435:-5.6237597838844673e+00
14436:-4.7932005859324631e+00
14437:-5.0732870747895262e+00
14438:-5.4522082371700282e+00
14439:-5.7523199719032991e+00
14440:-4.8243495302543096e+00
14441:-5.1417505649526101e+00
14442:-5.5678538686295935e+00
14443:-5.9029255190811334e+00
14444:-4.8348938035132889e+00
14445:-5.1810526396202725e+00
14446:-5.6439185287302056e+00
14447:-6.0060253863638593e+00
14448:-5.7714499373465546e+00
14449:-6.0433254685644089e+00
14450:-6.3882567942465309e+00
14451:-6.6474202035359324e+00
14452:-5.9148448812539787e+00
14453:-6.2133002013636913e+00
14454:-6.5899583548625777e+00
14455:-6.8709938120293828e+00
14456:-6.0835980247006685e+00
14457:-6.4141666767032524e+00
14458:-6.8273964292879734e+00
14459:-7.1312152484159101e+00
14460:-6.2005471992719636e+00
14461:-6.5556372722151171e+00
14462:-6.9960947711997932e+00
14463:-7.3155080735692612e+00
14464:-6.7833734015975953e+00
14465:-7.0176969157748372e+00
14466:-7.2785265380065027e+00
14467:-7.4435244591445544e+00
14468:-7.0178078192882465e+00
14469:-7.2725980262847258e+00
14470:-7.5578341998349332e+00
14471:-7.7372806596421242e+00
14472:-7.2881803082095127e+00
14473:-7.5614618111810215e+00
14474:-7.8698914081914744e+00
14475:-8.0659168424242882e+00
14476:-7.4785631435773592e+00
14477:-7.7611031237281010e+00
14478:-8.0799035999484285e+00
14479:-8.2844158194472861e+00
14480:-7.5187332095007582e+00
14481:-7.6326744410068592e+00
14482:-7.7292291777891204e+00
14483:-7.7649892201740380e+00
14484:-7.8179225917632769e+00
14485:-7.9368284185768339e+00
14486:-8.0315735811849081e+00
14487:-8.0614542287820363e+00
14488:-8.1546600318634948e+00
14489:-8.2840048772859376e+00
14490:-8.3813373242258837e+00
14491:-8.4038411024576334e+00
14492:-8.3783067760680900e+00
14493:-8.5165068733157145e+00
14494:-8.6195984435500836e+00
14495:-8.6387316727273866e+00
14496:-7.7706110168512348e+00
14497:-7.7494316362556397e+00
14498:-7.6560326617217367e+00
14499:-7.5321442712713935e+00
14500:-8.0629548508440951e+00
14501:-8.0338890954324693e+00
14502:-7.9299836869973275e+00
14503:-7.7977023220133503e+00
14504:-8.3979381580285146e+00
14505:-8.3506237167417261e+00
14506:-8.2174044734078269e+00
14507:-8.0607336477515990e+00
14508:-8.6273058520401484e+00
14509:-8.5624923853594801e+00
14510:-8.3967225724326333e+00
14511:-8.2114013602365219e+00
14512:-7.4470130123474654e+00
14513:-7.2510396548909837e+00
14514:-6.9271343408705039e+00
14515:-6.6291547722036386e+00
14516:-7.7078555109892140e+00
14517:-7.5013635589987739e+00
14518:-7.1607873937550712e+00
14519:-6.8482867788667097e+00
14520:-7.9578263926365613e+00
14521:-7.7266334657280842e+00
14522:-7.3538260122128385e+00
14523:-7.0170533627945311e+00
14524:-8.0929960469411402e+00
14525:-7.8333662715740342e+00
14526:-7.4250139416429706e+00
14527:-7.0623885951617646e+00
14528:-6.4540813510486128e+00
14529:-6.1065074450320669e+00
14530:-5.6179142697808215e+00
14531:-5.2165177083487926e+00
14532:-6.6650456754272893e+00
14533:-6.3020377803139800e+00
14534:-5.7924855284752139e+00
14535:-5.3737319184903489e+00
14536:-6.8212004234171619e+00
14537:-6.4360986951102666e+00
14538:-5.9012657001123516e+00
14539:-5.4661051605541244e+00
14540:-6.8533514086113589e+00
14541:-6.4456842573390514e+00
14542:-5.8870688176842796e+00
14543:-5.4390836484830531e+00
14544:-4.9941661715750216e+00
14545:-4.5809532466877467e+00
14546:-4.0552490547105862e+00
14547:-3.6638934214617911e+00
14548:-5.1413987457477255e+00
14549:-4.7068990381481237e+00
14550:-4.1503858793975139e+00
14551:-3.7350755030484035e+00
14552:-5.2259486833960356e+00
14553:-4.7749616697279480e+00
14554:-4.1929635391821556e+00
14555:-3.7553550164239349e+00
14556:-5.1941615159131871e+00
14557:-4.7352597262592724e+00
14558:-4.1425189360028982e+00
14559:-3.6947298857503221e+00
14560:-3.4601702990087637e+00
14561:-3.0934883976637786e+00
14562:-2.6457927602007603e+00
14563:-2.3251306087046393e+00
14564:-3.5190734188500574e+00
14565:-3.1312806475672841e+00
14566:-2.6595967557876472e+00
14567:-2.3229467125245313e+00
14568:-3.5266597264893047e+00
14569:-3.1154960067433159e+00
14570:-2.6161401337134427e+00
14571:-2.2618441801274809e+00
14572:-3.4594877131743553e+00
14573:-3.0347900300030233e+00
14574:-2.5183101635466123e+00
14575:-2.1537818188953546e+00
14576:-2.1620399388418825e+00
14577:-1.8731624326940619e+00
14578:-1.5321723260712969e+00
14579:-1.2998730818022564e+00
14580:-2.1520729566203971e+00
14581:-1.8495803829982942e+00
14582:-1.4927559123939589e+00
14583:-1.2498497059697866e+00
14584:-2.0832861856029856e+00
14585:-1.7703910443922404e+00
14586:-1.4057424042946802e+00
14587:-1.1592146351938870e+00
14588:-1.9716342943272318e+00
14589:-1.6575207739300526e+00
14590:-1.2989125649823789e+00
14591:-1.0596781766775194e+00
14592:-1.1867890246998252e+00
14593:-9.9414027234630509e-01
14594:-7.7907436085520654e-01
14595:-6.4032669835580969e-01
14596:-1.1317709077631450e+00
14597:-9.3261766095926213e-01
14598:-7.1413203576067719e-01
14599:-5.7583382017973195e-01
14600:-1.0395578646327117e+00
14601:-8.3932078652969722e-01
14602:-6.2318972891328950e-01
14603:-4.8935979509405042e-01
14604:-9.4394262398011219e-01
14605:-7.5070485579888779e-01
14606:-5.4358083923216227e-01
14607:-4.1704634795397116e-01
14608:-5.7500454020344816e-01
14609:-4.6571194326123611e-01
14610:-3.4787314599311281e-01
14611:-2.7582460292023919e-01
14612:-5.1157374900848862e-01
14613:-4.0506888455297718e-01
14614:-2.9220007560962197e-01
14615:-2.2488688224033770e-01
14616:-4.2829765537127978e-01
14617:-3.2816400577271743e-01
14618:-2.2410164678899042e-01
14619:-1.6391486868080940e-01
14620:-3.6010458372990994e-01
14621:-2.6742216701434784e-01
14622:-1.7246594436360974e-01
14623:-1.1888021205246999e-01
14624:-2.4347954135649666e-01
14625:-1.9001424922872739e-01
14626:-1.3345918104183588e-01
14627:-1.0008661429017179e-01
14628:-1.9534694670099881e-01
14629:-1.4729606153150238e-01
14630:-9.7940328502334875e-02
14631:-7.0110542190928757e-02
14632:-1.3829609516765323e-01
14633:-9.7623575995944678e-02
14634:-5.7694692910992065e-02
14635:-3.6758123176221014e-02
14636:-9.6683319750845736e-02
14637:-6.2426667073707150e-02
14638:-3.0669280367372789e-02
14639:-1.5641230455537322e-02
14640:-8.5654710155889477e-02
14641:-6.2364188808774888e-02
14642:-3.9102065578750886e-02
14643:-2.6915839864555847e-02
14644:-5.8626219391343395e-02
14645:-4.1006368291194042e-02
14646:-2.5597609253235683e-02
14647:-1.9912879047481000e-02
14648:-2.8792458799271455e-02
14649:-1.7645399988470874e-02
14650:-1.0160960310801419e-02
14651:-9.8709932041283789e-03
14652:-1.0643475896834863e-02
14653:-4.6171482624873719e-03
14654:-2.3099552829222718e-03
14655:-4.2790055479169737e-03
14656:-2.5218379009010850e-01
14657:-8.1395413732537503e-01
14658:-1.4623078149167723e+00
14659:-1.9011481275070488e+00
14660:1.2599554966698293e-01
14661:-4.8358609644460965e-01
14662:-1.1872791116058738e+00
14663:-1.6634846753261663e+00
14664:5.6410922846944889e-01
14665:-9.6873324565880478e-02
14666:-8.6006218458122197e-01
14667:-1.3761711401370289e+00
14668:8.5507853052144656e-01
14669:1.6339730764212743e-01
14670:-6.3538211785303167e-01
14671:-1.1751563323157925e+00
14672:-2.1170205575559069e+00
14673:-2.5037108892884250e+00
14674:-2.9794914055197355e+00
14675:-3.3260026505279878e+00
14676:-1.8975860117136947e+00
14677:-2.3157872387001173e+00
14678:-2.8284643759487720e+00
14679:-3.2008903589447857e+00
14680:-1.6295672397591994e+00
14681:-2.0809718551326091e+00
14682:-2.6326723686063636e+00
14683:-3.0329883031061429e+00
14684:-1.4398530800353291e+00
14685:-1.9106367326656373e+00
14686:-2.4854108130825132e+00
14687:-2.9027991009627061e+00
14688:-3.5058778957657895e+00
14689:-3.8455109326116719e+00
14690:-4.2954481960649273e+00
14691:-4.6460161215355704e+00
14692:-3.3940502668347059e+00
14693:-3.7589219975888692e+00
14694:-4.2419016218713921e+00
14695:-4.6172385287809456e+00
14696:-3.2407469530152988e+00
14697:-3.6340571482665331e+00
14698:-4.1543009900263534e+00
14699:-4.5564211319634262e+00
14700:-3.1198241349841700e+00
14701:-3.5320196400094721e+00
14702:-4.0774425194711208e+00
14703:-4.4969833047523204e+00
14704:-4.8351363157768583e+00
14705:-5.1964627476613359e+00
14706:-5.6790081990086891e+00
14707:-6.0556537462831397e+00
14708:-4.8192287885541614e+00
14709:-5.2046634571486114e+00
14710:-5.7180462928232751e+00
14711:-6.1172541198072938e+00
14712:-4.7715908971351695e+00
14713:-5.1805084486710902e+00
14714:-5.7221756447215064e+00
14715:-6.1411294845215423e+00
14716:-4.7201691748380936e+00
14717:-5.1420793115388896e+00
14718:-5.6973065855484295e+00
14719:-6.1244723070734457e+00
14720:-6.2576139349926230e+00
14721:-6.6259695558064635e+00
14722:-7.0811593100045211e+00
14723:-7.4088126651388331e+00
14724:-6.3307284862073203e+00
14725:-6.7199615763666811e+00
14726:-7.1993162077248343e+00
14727:-7.5416097560996658e+00
14728:-6.3644602483321187e+00
14729:-6.7717039332513878e+00
14730:-7.2728936292006292e+00
14731:-7.6298691464104342e+00
14732:-6.3515464426374884e+00
14733:-6.7652052649325780e+00
14734:-7.2740925532314833e+00
14735:-7.6368258152916129e+00
14736:-7.5748964220010402e+00
14737:-7.8611371505467398e+00
14738:-8.1828861441337146e+00
14739:-8.3898665899091629e+00
14740:-7.7136777218920214e+00
14741:-8.0076195429274240e+00
14742:-8.3344935610959165e+00
14743:-8.5433803305463858e+00
14744:-7.8087892711164519e+00
14745:-8.1129437489437493e+00
14746:-8.4467236400311645e+00
14747:-8.6550107428885621e+00
14748:-7.8189167545665068e+00
14749:-8.1293699991341910e+00
14750:-8.4683603810359234e+00
14751:-8.6750261891843117e+00
14752:-8.4856119416789131e+00
14753:-8.6280194985593077e+00
14754:-8.7350481945122294e+00
14755:-8.7534525931005920e+00
14756:-8.6399899565387415e+00
14757:-8.7846665454016915e+00
14758:-8.8928567592046317e+00
14759:-8.9079157561772906e+00
14760:-8.7490208585025542e+00
14761:-8.8860483572186499e+00
14762:-8.9801622098597385e+00
14763:-8.9821788855320293e+00
14764:-8.7652016306061196e+00
14765:-8.8889988925157599e+00
14766:-8.9588464372499779e+00
14767:-8.9411895536457973e+00
14768:-8.7395190547670545e+00
14769:-8.6649334779662173e+00
14770:-8.4792542544697334e+00
14771:-8.2757913156564715e+00
14772:-8.8896760748734263e+00
14773:-8.7988738640728208e+00
14774:-8.5800534605140975e+00
14775:-8.3461036540642439e+00
14776:-8.9561089805471017e+00
14777:-8.8439793676105527e+00
14778:-8.5870092297275491e+00
14779:-8.3192768401160997e+00
14780:-8.9052522740817093e+00
14781:-8.7729247299493700e+00
14782:-8.4867144725514958e+00
14783:-8.1954066632012808e+00
14784:-8.1474574376177724e+00
14785:-7.8695923630275511e+00
14786:-7.4383760049800474e+00
14787:-7.0590037313432887e+00
14788:-8.2009372377416039e+00
14789:-7.8920991198332953e+00
14790:-7.4218199950445642e+00
14791:-7.0135018274891205e+00
14792:-8.1555612262617814e+00
14793:-7.8133375068723794e+00
14794:-7.3021610519979703e+00
14795:-6.8640887732419191e+00
14796:-8.0191408454431627e+00
14797:-7.6557185045654004e+00
14798:-7.1211606651400512e+00
14799:-6.6677484298200405e+00
14800:-6.8413686633116644e+00
14801:-6.4189610262728500e+00
14802:-5.8449265828951535e+00
14803:-5.3888773793239579e+00
14804:-6.7808544812144307e+00
14805:-6.3326001310231996e+00
14806:-5.7310178083802290e+00
14807:-5.2597557465605389e+00
14808:-6.6160956311035823e+00
14809:-6.1413692168899585e+00
14810:-5.5107564964631823e+00
14811:-5.0220512278302909e+00
14812:-6.4122969831211307e+00
14813:-5.9247340329247340e+00
14814:-5.2793515568532436e+00
14815:-4.7805853885175162e+00
14816:-5.1411656973732844e+00
14817:-4.6786298966857274e+00
14818:-4.0824432011885250e+00
14819:-3.6315981639372930e+00
14820:-5.0062906709192720e+00
14821:-4.5360268778900812e+00
14822:-3.9340003335337865e+00
14823:-3.4806201284887477e+00
14824:-4.7611045263730363e+00
14825:-4.2796259431106218e+00
14826:-3.6699435549332047e+00
14827:-3.2174698480088062e+00
14828:-4.5146136226942533e+00
14829:-4.0244347017249282e+00
14830:-3.4087627276836656e+00
14831:-2.9593345214140285e+00
14832:-3.3941710231056939e+00
14833:-2.9643145416041103e+00
14834:-2.4409150674138149e+00
14835:-2.0725997889814098e+00
14836:-3.2421206416076380e+00
14837:-2.8101072260716324e+00
14838:-2.2844727601978962e+00
14839:-1.9157468979114591e+00
14840:-2.9822934377132309e+00
14841:-2.5617676865762644e+00
14842:-2.0569621159374885e+00
14843:-1.7047025304622612e+00
14844:-2.7296425106363960e+00
14845:-2.3283583049762653e+00
14846:-1.8587022603959618e+00
14847:-1.5340878925269898e+00
14848:-1.8895458479926472e+00
14849:-1.5774017566525860e+00
14850:-1.2264528957961909e+00
14851:-9.9483988433580894e-01
14852:-1.7333846201961021e+00
14853:-1.4274442132301328e+00
14854:-1.0919723635281411e+00
14855:-8.7528027243662909e-01
14856:-1.5303360682200824e+00
14857:-1.2404013114523129e+00
14858:-9.2837002420671821e-01
14859:-7.3153488073789941e-01
14860:-1.3727105734120841e+00
14861:-1.1032982141784931e+00
14862:-8.1342275261130237e-01
14863:-6.3254293941550743e-01
14864:-8.8314191755335669e-01
14865:-6.9664039005058731e-01
14866:-4.9709443862542846e-01
14867:-3.7590746184879115e-01
14868:-7.7178065887829173e-01
14869:-5.9916440384665759e-01
14870:-4.1527467096205062e-01
14871:-3.0491014924050652e-01
14872:-6.3912055427089109e-01
14873:-4.8572313900946512e-01
14874:-3.2381307468866033e-01
14875:-2.2840196723682069e-01
14876:-5.4888008449636694e-01
14877:-4.1090775660997975e-01
14878:-2.6679662825232470e-01
14879:-1.8327491829371825e-01
14880:-3.2176621341185074e-01
14881:-2.3399110233693243e-01
14882:-1.4476497386603571e-01
14883:-9.5129827112482995e-02
14884:-2.5629657700613956e-01
14885:-1.7811907544808239e-01
14886:-9.9817212678918785e-02
14887:-5.7347026976052214e-02
14888:-1.8722471247710387e-01
14889:-1.2204457837297177e-01
14890:-5.8521526048158468e-02
14891:-2.5443241267570624e-02
14892:-1.4785868862827650e-01
14893:-9.2987488917718006e-02
14894:-4.1572588533047655e-02
14895:-1.6312649793255498e-02
14896:-7.4917462500340315e-02
14897:-4.4398361328035936e-02
14898:-1.7452320582786316e-02
14899:-5.9359489765320296e-03
14900:-4.0565645831409453e-02
14901:-1.6367820943157477e-02
14902:2.6118824846647179e-03
14903:8.3991810547873798e-03
14904:-1.2940611468437835e-02
14905:4.0049430084375818e-03
14906:1.4941073597892424e-02
14907:1.5674901034285198e-02
14908:-7.3294362225963154e-03
14909:4.3523662118166535e-03
14910:1.0907483522407325e-02
14911:1.0051714388794845e-02
14912:-2.7056077010661683e-03
14913:4.0134286122707165e-04
14914:1.2641603355569410e-04
14915:-2.5060861184639733e-03
14916:8.7809872180635469e-03
14917:7.4243458403042929e-03
14918:3.2951196176238639e-03
14919:-6.5083050877557519e-04
14920:1.3820039362265375e-02
14921:9.8687802810962840e-03
14922:4.4374820366448854e-03
14923:-1.7116876564005737e-05
14924:7.9858158951375147e-03
14925:5.2722104730266719e-03
14926:2.7523598451983625e-03
14927:-3.0632470250852197e-04
14928:9.9369184355575879e-01
14929:2.8880480836333433e-01
14930:-5.2524615034784927e-01
14931:-1.0750676060044109e+00
14932:1.2228086592495742e+00
14933:4.9932899325248647e-01
14934:-3.3479948444112712e-01
14935:-8.9718048141896500e-01
14936:1.4596713262122110e+00
14937:7.2376902503991480e-01
14938:-1.1991404997950166e-01
14939:-6.8647391560339099e-01
14940:1.5927727280682358e+00
14941:8.5623452356539509e-01
14942:1.7535450815549226e-02
14943:-5.4335882798143231e-01
14944:-1.3445036112419453e+00
14945:-1.8234128238066052e+00
14946:-2.4080144721092904e+00
14947:-2.8329081546900277e+00
14948:-1.1724496029478468e+00
14949:-1.6615124382526207e+00
14950:-2.2582136678858018e+00
14951:-2.6917208664865151e+00
14952:-9.6347147576829983e-01
14953:-1.4562080821191792e+00
14954:-2.0569926815316411e+00
14955:-2.4915415144932300e+00
14956:-8.1747872395464394e-01
14957:-1.3063056155366710e+00
14958:-1.9021146581061821e+00
14959:-2.3303595794644014e+00
14960:-3.0541303614532302e+00
14961:-3.4752274306436424e+00
14962:-4.0327523740677078e+00
14963:-4.4605000360475788e+00
14964:-2.9174562566217115e+00
14965:-3.3482247905000642e+00
14966:-3.9190460370120226e+00
14967:-4.3557851368693719e+00
14968:-2.7167659366014729e+00
14969:-3.1461151514868790e+00
14970:-3.7145691232841380e+00
14971:-4.1491082665844905e+00
14972:-2.5506719657005270e+00
14973:-2.9686705511160216e+00
14974:-3.5203726664320749e+00
14975:-3.9423299980619180e+00
14976:-4.6872891617580397e+00
14977:-5.1145283343946337e+00
14978:-5.6743819012255878e+00
14979:-6.1036863532026171e+00
14980:-4.5864668977126533e+00
14981:-5.0191962921560327e+00
14982:-5.5831520118056925e+00
14983:-6.0136596270138609e+00
14984:-4.3784667295010511e+00
14985:-4.8080927187417641e+00
14986:-5.3665344030276323e+00
14987:-5.7915350716786032e+00
14988:-4.1655266296340994e+00
14989:-4.5841614748641231e+00
14990:-5.1285219199580840e+00
14991:-5.5423071447408594e+00
14992:-6.3315070097385968e+00
14993:-6.7460199768028639e+00
14994:-7.2555447780614397e+00
14995:-7.6189085530537497e+00
14996:-6.2415294092797451e+00
14997:-6.6549489526656691e+00
14998:-7.1614799171726169e+00
14999:-7.5220499721553864e+00
15000:-6.0159679433358013e+00
15001:-6.4219385056461489e+00
15002:-6.9169979719708019e+00
15003:-7.2676225506693424e+00
15004:-5.7604984432370916e+00
15005:-6.1550912171720604e+00
15006:-6.6356332337530173e+00
15007:-6.9749154486656337e+00
15008:-7.8015944952982288e+00
15009:-8.1143305146742346e+00
15010:-8.4558433692623645e+00
15011:-8.6615375851009375e+00
15012:-7.7034546776886366e+00
15013:-8.0167395192533135e+00
15014:-8.3608912815000913e+00
15015:-8.5661814374352971e+00
15016:-7.4436261097224943e+00
15017:-7.7505174571367172e+00
15018:-8.0913888882651648e+00
15019:-8.2952938440696453e+00
15020:-7.1447789112693787e+00
15021:-7.4418215697385159e+00
15022:-7.7732563146926905e+00
15023:-7.9723038065543657e+00
15024:-8.7493591120607288e+00
15025:-8.8640888309145218e+00
15026:-8.9166937864086488e+00
15027:-8.8851268326689326e+00
15028:-8.6515668959185330e+00
15029:-8.7536392234104365e+00
15030:-8.7802328305182549e+00
15031:-8.7277339583168665e+00
15032:-8.3791401216023615e+00
15033:-8.4704029911210394e+00
15034:-8.4742759045815408e+00
15035:-8.4050415247409394e+00
15036:-8.0540303072370811e+00
15037:-8.1378249059214092e+00
15038:-8.1296363402279468e+00
15039:-8.0542345686411281e+00
15040:-8.8424204335366170e+00
15041:-8.6976819184968051e+00
15042:-8.3955320249687180e+00
15043:-8.0922087732858312e+00
15044:-8.6751921842850805e+00
15045:-8.5134963860004920e+00
15046:-8.1904628243482804e+00
15047:-7.8709641500349310e+00
15048:-8.3458650041301201e+00
15049:-8.1761749323269672e+00
15050:-7.8470076326632672e+00
15051:-7.5223396313568731e+00
15052:-7.9943133559481083e+00
15053:-7.8292116183486034e+00
15054:-7.5126087014151093e+00
15055:-7.1979244868204164e+00
15056:-7.9097045828006776e+00
15057:-7.5364053428406779e+00
15058:-6.9923338909555062e+00
15059:-6.5337390078305839e+00
15060:-7.6796652536200583e+00
15061:-7.2928437633241101e+00
15062:-6.7371862748652696e+00
15063:-6.2738868124241263e+00
15064:-7.3273092305903793e+00
15065:-6.9356190956785158e+00
15066:-6.3792017489295700e+00
15067:-5.9200007804051200e+00
15068:-7.0071490087320587e+00
15069:-6.6233084803450932e+00
15070:-6.0786634696038124e+00
15071:-5.6307595004369091e+00
15072:-6.2761052939095148e+00
15073:-5.7847950598179558e+00
15074:-5.1347211784469335e+00
15075:-4.6321944014992651e+00
15076:-6.0149704848877743e+00
15077:-5.5213286621881137e+00
15078:-4.8681830686271574e+00
15079:-4.3635162505453247e+00
15080:-5.6647868782518058e+00
15081:-5.1769956478900658e+00
15082:-4.5309122783788904e+00
15083:-4.0333954223398694e+00
15084:-5.3824491593953825e+00
15085:-4.9059687864964570e+00
15086:-4.2741143115413909e+00
15087:-3.7901841696661953e+00
15088:-4.3640523166601790e+00
15089:-3.8696895650689571e+00
15090:-3.2511934363852690e+00
15091:-2.8041499206239004e+00
15092:-4.0943682577134179e+00
15093:-3.5987309570825299e+00
15094:-2.9821651040749391e+00
15095:-2.5414576008775156e+00
15096:-3.7694063096764752e+00
15097:-3.2876487237378025e+00
15098:-2.6940324691064395e+00
15099:-2.2713218366937999e+00
15100:-3.5354807192701134e+00
15101:-3.0777640735980247e+00
15102:-2.5209802861684212e+00
15103:-2.1234908283390586e+00
15104:-2.5781931135693306e+00
15105:-2.1902191702162686e+00
15106:-1.7451698985720749e+00
15107:-1.4401064808000095e+00
15108:-2.3214896396347040e+00
15109:-1.9537948567191552e+00
15110:-1.5467193977834386e+00
15111:-1.2732558879420746e+00
15112:-2.0604525049036271e+00
15113:-1.7133837897051070e+00
15114:-1.3393442549455774e+00
15115:-1.0941733294212654e+00
15116:-1.9230310829819888e+00
15117:-1.5909505080879549e+00
15118:-1.2321857013659649e+00
15119:-9.9916341150652921e-01
15120:-1.2879549612748256e+00
15121:-1.0323438467022215e+00
15122:-7.5586522311910087e-01
15123:-5.8384606159192065e-01
15124:-1.1368650252387904e+00
15125:-9.0564316655496069e-01
15126:-6.5394337033541794e-01
15127:-4.9871735168539816e-01
15128:-9.7318507436139579e-01
15129:-7.6744833318997130e-01
15130:-5.4393485832703903e-01
15131:-4.0860943304466824e-01
15132:-8.8569596273928775e-01
15133:-6.9364414778828587e-01
15134:-4.8668903637616689e-01
15135:-3.6323071050442407e-01
15136:-5.0496086085474257e-01
15137:-3.7545250982721151e-01
15138:-2.4108395245666167e-01
15139:-1.6393647816846671e-01
15140:-4.2882051985058828e-01
15141:-3.1501956154254790e-01
15142:-1.9815723184003661e-01
15143:-1.3183853907185103e-01
15144:-3.4925206297856282e-01
15145:-2.5381746961431095e-01
15146:-1.5709576990491891e-01
15147:-1.0264768974943912e-01
15148:-3.0995806087050787e-01
15149:-2.2543755464456616e-01
15150:-1.4117239752255700e-01
15151:-9.4198950804024364e-02
15152:-1.3153841843370109e-01
15153:-8.2182551025314021e-02
15154:-3.7464679670087528e-02
15155:-1.6656636508968509e-02
15156:-1.0429734435269901e-01
15157:-6.3795295154967332e-02
15158:-3.0001419399772532e-02
15159:-1.6693539382218871e-02
15160:-8.0091688477023013e-02
15161:-4.8179597564741522e-02
15162:-2.4374547908472353e-02
15163:-1.7692233540186050e-02
15164:-7.4718179188520056e-02
15165:-4.7322216067174003e-02
15166:-2.7357937857657669e-02
15167:-2.2309077588951017e-02
15168:-9.6990924995283175e-03
15169:-7.9638839258004733e-04
15170:4.0427670670804740e-03
15171:3.1904354046202220e-03
15172:-1.3245369678705106e-02
15173:-8.9100605192382037e-03
15174:-6.5572140319569957e-03
15175:-7.2889466389146939e-03
15176:-1.7268702715546442e-02
15177:-1.5974137295075214e-02
15178:-1.3810394316102873e-02
15179:-1.3372218097517945e-02
15180:-2.2287277140536525e-02
15181:-1.9892022587271331e-02
15182:-1.4393975871887073e-02
15183:-1.1724204707942389e-02
15184:1.5749958323304650e-03
15185:6.5768773705852240e-04
15186:1.0229830383995926e-03
15187:-6.4377031920138754e-04
15188:-8.2770720310473642e-03
15189:-6.8608886464196434e-03
15190:-2.5057713319315091e-03
15191:-1.6400659004854041e-03
15192:-1.3737838028086292e-02
15193:-1.1483252936007831e-02
15194:-5.8184022263551918e-03
15195:-2.9934201552363482e-03
15196:-1.1571226110286196e-02
15197:-1.0161921043360961e-02
15198:-6.5139095779452481e-03
15199:-3.4748861513622755e-03
15200:1.6467172895545927e+00
15201:9.1299252003710973e-01
15202:8.1124923160080992e-02
15203:-4.7380648792093655e-01
15204:1.7219286267784093e+00
15205:9.9973361971688890e-01
15206:1.8716496620695919e-01
15207:-3.5195228846453358e-01
15208:1.7710022042124294e+00
15209:1.0764247200507169e+00
15210:3.0112632253087562e-01
15211:-2.0921750371898576e-01
15212:1.7722579633785833e+00
15213:1.1085260348253605e+00
15214:3.7069988293393430e-01
15215:-1.1193259921911791e-01
15216:-7.4500186078919639e-01
15217:-1.2294738685670616e+00
15218:-1.8198433909664138e+00
15219:-2.2423069854913131e+00
15220:-6.1505002633960293e-01
15221:-1.0860280381074388e+00
15222:-1.6590671388542870e+00
15223:-2.0656544462973216e+00
15224:-4.5716866236412457e-01
15225:-9.0068189186514591e-01
15226:-1.4372915705141569e+00
15227:-1.8132474559214924e+00
15228:-3.4516111711097958e-01
15229:-7.6067863810580960e-01
15230:-1.2592493888855938e+00
15231:-1.6042444469536514e+00
15232:-2.4584821872209734e+00
15233:-2.8669969427981643e+00
15234:-3.4047436720539839e+00
15235:-3.8162644715756269e+00
15236:-2.2716803036664706e+00
15237:-2.6581803455627395e+00
15238:-3.1642678472902559e+00
15239:-3.5516876761226523e+00
15240:-2.0013494598550712e+00
15241:-2.3510581634668748e+00
15242:-2.8055059057764105e+00
15243:-3.1527630395476249e+00
15244:-1.7749994432135903e+00
15245:-2.0901745820528528e+00
15246:-2.4967372268936949e+00
15247:-2.8061078729470559e+00
15248:-4.0343716520607025e+00
15249:-4.4439722825888062e+00
15250:-4.9769101534114002e+00
15251:-5.3817644093125754e+00
15252:-3.7576027433016264e+00
15253:-4.1445021265794608e+00
15254:-4.6475312362748564e+00
15255:-5.0289489469400994e+00
15256:-3.3375498101742793e+00
15257:-3.6835550871218108e+00
15258:-4.1313029863795467e+00
15259:-4.4697325718014707e+00
15260:-2.9704564200411299e+00
15261:-3.2763720144570283e+00
15262:-3.6698806944778384e+00
15263:-3.9668286379172066e+00
15264:-5.5950737696609565e+00
15265:-5.9812846488147287e+00
15266:-6.4521152903808421e+00
15267:-6.7844220635609167e+00
15268:-5.2296997099225004e+00
15269:-5.5953651843953249e+00
15270:-6.0447247885609032e+00
15271:-6.3635508624965862e+00
15272:-4.6479209680254252e+00
15273:-4.9774380947673018e+00
15274:-5.3908715164851451e+00
15275:-5.6889836205121176e+00
15276:-4.1236284403601147e+00
15277:-4.4186577591273117e+00
15278:-4.7972389477945807e+00
15279:-5.0748486649467548e+00
15280:-6.9506086647780103e+00
15281:-7.2409919339964306e+00
15282:-7.5648799947415188e+00
15283:-7.7595702448709023e+00
15284:-6.5232058078349100e+00
15285:-6.8012861306575827e+00
15286:-7.1113854186894407e+00
15287:-7.2995370537755120e+00
15288:-5.8392611037032314e+00
15289:-6.0992707572267841e+00
15290:-6.3902706207002149e+00
15291:-6.5726385624298294e+00
15292:-5.2157297958178459e+00
15293:-5.4579415342242079e+00
15294:-5.7315261616158830e+00
15295:-5.9109707844194110e+00
15296:-7.8395028188892359e+00
15297:-7.9191598689473741e+00
15298:-7.9061625758419645e+00
15299:-7.8297541157006449e+00
15300:-7.3778866451959990e+00
15301:-7.4558772896264882e+00
15302:-7.4447396780725965e+00
15303:-7.3746687461599443e+00
15304:-6.6525140285097466e+00
15305:-6.7413382719175230e+00
15306:-6.7566849645788594e+00
15307:-6.7137541759329373e+00
15308:-5.9947403913230168e+00
15309:-6.1021410269765308e+00
15310:-6.1572747909719450e+00
15311:-6.1509084390880053e+00
15312:-7.7709479837124258e+00
15313:-7.6120390465314500e+00
15314:-7.3083105076437755e+00
15315:-7.0041460127416757e+00
15316:-7.3216685603832641e+00
15317:-7.1806097913224791e+00
15318:-6.9093064333000394e+00
15319:-6.6325699738515702e+00
15320:-6.6771416828692436e+00
15321:-6.5736198085026123e+00
15322:-6.3621641262003807e+00
15323:-6.1367607971762883e+00
15324:-6.1344543646664871e+00
15325:-6.0720904051436344e+00
15326:-5.9215448416313494e+00
15327:-5.7483684232897447e+00
15328:-6.8183930567159106e+00
15329:-6.4432769837954824e+00
15330:-5.9097637828850287e+00
15331:-5.4710276653183092e+00
15332:-6.4611138524800884e+00
15333:-6.1120798639556675e+00
15334:-5.6125560868132913e+00
15335:-5.2009886756969603e+00
15336:-5.9937095122385058e+00
15337:-5.6982374773497657e+00
15338:-5.2694765235984757e+00
15339:-4.9133652039450517e+00
15340:-5.6349774063658762e+00
15341:-5.3960176966817492e+00
15342:-5.0418148453547325e+00
15343:-4.7431934417855866e+00
15344:-5.2279331936821860e+00
15345:-4.7601405564579933e+00
15346:-4.1393146130187857e+00
15347:-3.6656221629182415e+00
15348:-4.9728613137599922e+00
15349:-4.5306293014813575e+00
15350:-3.9399813551879195e+00
15351:-3.4892778526464858e+00
15352:-4.7151711753388579e+00
15353:-4.3261183847041558e+00
15354:-3.7976839317426760e+00
15355:-3.3887010456092521e+00
15356:-4.5756491703516327e+00
15357:-4.2428971677078984e+00
15358:-3.7819181146506988e+00
15359:-3.4169899564446555e+00
15360:-3.4177419677964926e+00
15361:-2.9774217484344510e+00
15362:-2.4468959356689104e+00
15363:-2.0670306483053222e+00
15364:-3.2545916601794871e+00
15365:-2.8455407034649505e+00
15366:-2.3609212419625671e+00
15367:-2.0124276347400496e+00
15368:-3.1743791825191194e+00
15369:-2.8055587187647850e+00
15370:-2.3730445897765753e+00
15371:-2.0592210769983494e+00
15372:-3.2227109890206984e+00
15373:-2.8871002594510675e+00
15374:-2.4899786664728798e+00
15375:-2.1973353995538685e+00
15376:-1.8735721284913172e+00
15377:-1.5497965160485208e+00
15378:-1.1964717192933736e+00
15379:-9.6705657047319948e-01
15380:-1.8320289340403111e+00
15381:-1.5240796562310874e+00
15382:-1.1810872875857152e+00
15383:-9.5781981038293884e-01
15384:-1.8938116120822994e+00
15385:-1.6043508865576059e+00
15386:-1.2729577490560353e+00
15387:-1.0551618704596315e+00
15388:-2.0409820083672421e+00
15389:-1.7622155634117143e+00
15390:-1.4356937098629039e+00
15391:-1.2180374882888552e+00
15392:-8.5624137302094194e-01
15393:-6.6944977622121327e-01
15394:-4.6912473789739489e-01
15395:-3.5018857535071263e-01
15396:-8.5122499801188189e-01
15397:-6.7182631249119251e-01
15398:-4.7860632514773033e-01
15399:-3.6245662569646414e-01
15400:-9.5181873894838553e-01
15401:-7.7617854838494149e-01
15402:-5.8153115020732693e-01
15403:-4.5864503361475395e-01
15404:-1.1143449445782152e+00
15405:-9.3573148370275883e-01
15406:-7.3160897097431477e-01
15407:-5.9662829301954656e-01
15408:-2.9905923066173440e-01
15409:-2.1862005663712278e-01
15410:-1.3944383217399359e-01
15411:-9.5750332311481515e-02
15412:-3.1181219879324634e-01
15413:-2.3276710149416810e-01
15414:-1.5627546439602524e-01
15415:-1.1475771932161127e-01
15416:-4.0243424570018693e-01
15417:-3.1353582330390883e-01
15418:-2.2622168275833107e-01
15419:-1.7792436055627822e-01
15420:-5.3227262501867989e-01
15421:-4.2792981012751635e-01
15422:-3.2135961651654404e-01
15423:-2.5950028386652646e-01
15424:-7.7656907853082963e-02
15425:-5.1908420371361605e-02
15426:-3.2473223047832324e-02
15427:-2.6855882904612015e-02
15428:-9.7629102512079388e-02
15429:-7.1982358189157492e-02
15430:-4.9976367469025090e-02
15431:-4.1138774681819465e-02
15432:-1.5754835861137756e-01
15433:-1.2402769446959913e-01
15434:-8.9621288690226689e-02
15435:-7.1353099069097509e-02
15436:-2.3234711628024377e-01
15437:-1.8529213290189950e-01
15438:-1.3321373611383716e-01
15439:-1.0316806099220363e-01
15440:-2.6231904390905315e-02
15441:-2.1881771700504225e-02
15442:-1.3331375139062200e-02
15443:-9.0146069771749847e-03
15444:-3.8564153536618274e-02
15445:-2.9999657714417011e-02
15446:-1.5946189590303757e-02
15447:-8.4465983251395624e-03
15448:-6.4297710700542729e-02
15449:-4.8992657582742280e-02
15450:-2.8572237025608370e-02
15451:-1.7226475715802460e-02
15452:-9.1036122308982725e-02
15453:-6.9383473338923043e-02
15454:-4.4511811551500496e-02
15455:-3.0390433816163763e-02
15456:-8.5687959822035292e-03
15457:-8.0175049516317456e-03
15458:-6.2413261610114830e-03
15459:-3.3622557526863522e-03
15460:-7.0218902659902917e-03
15461:-6.5436217931631171e-03
15462:-6.0011332756849658e-03
15463:-2.4923970804915279e-03
15464:-1.3923087744979488e-02
15465:-1.0673577937025926e-02
15466:-7.2658275698905444e-03
15467:-1.3585089407436631e-03
15468:-2.5194611578200427e-02
15469:-1.7884318575406438e-02
15470:-9.6761701833825466e-03
15471:-1.7017989544570262e-03
15472:1.7604138047145956e+00
15473:1.1164756622927448e+00
15474:4.0164547072930373e-01
15475:-6.4387445962785603e-02
15476:1.7132675731567559e+00
15477:1.1119154738573203e+00
15478:4.4538106289313906e-01
15479:1.3078098653932894e-02
15480:1.6070078848121854e+00
15481:1.0703274041177806e+00
15482:4.7592245319238141e-01
15483:9.2540813191516927e-02
15484:1.4957606378189692e+00
15485:1.0142907746285190e+00
15486:4.8129063872696409e-01
15487:1.3914134097213535e-01
15488:-2.8879616017953286e-01
15489:-6.8720772649798922e-01
15490:-1.1623051689591914e+00
15491:-1.4884384817470493e+00
15492:-1.9381747412322825e-01
15493:-5.5856648664404385e-01
15494:-9.8824353180520885e-01
15495:-1.2786990618614511e+00
15496:-8.9568327726229066e-02
15497:-4.0740327719344160e-01
15498:-7.7551380618919741e-01
15499:-1.0192952334154093e+00
15500:-2.2306970462872795e-02
15501:-3.0155022724681141e-01
15502:-6.2032263522277409e-01
15503:-8.2798300173362149e-01
15504:-1.6488150699313313e+00
15505:-1.9435786479052128e+00
15506:-2.3219454081207833e+00
15507:-2.6088057119094934e+00
15508:-1.4197784468493562e+00
15509:-1.6769622701631857e+00
15510:-2.0039949456638957e+00
15511:-2.2502430356151701e+00
15512:-1.1358016369254949e+00
15513:-1.3459358922803204e+00
15514:-1.6100751652395218e+00
15515:-1.8075577186239011e+00
15516:-9.2599869381478250e-01
15517:-1.1014057158642476e+00
15518:-1.3203087165932352e+00
15519:-1.4835865013830816e+00
15520:-2.7608765831565893e+00
15521:-3.0427115857546227e+00
15522:-3.4038841842622971e+00
15523:-3.6764453577396781e+00
15524:-2.3802967923379228e+00
15525:-2.6194521712929553e+00
15526:-2.9239858116442949e+00
15527:-3.1540682603982226e+00
15528:-1.9115554915227173e+00
15529:-2.1014524148745091e+00
15530:-2.3422859384527777e+00
15531:-2.5251808974504293e+00
15532:-1.5696467625746131e+00
15533:-1.7267379845453363e+00
15534:-1.9266953130646107e+00
15535:-2.0799167159517493e+00
15536:-3.8208089762085766e+00
15537:-4.0955374734731471e+00
15538:-4.4530144018481925e+00
15539:-4.7177395222104153e+00
15540:-3.2767431917785044e+00
15541:-3.5154151464226926e+00
15542:-3.8346861241229786e+00
15543:-4.0761957876762409e+00
15544:-2.6237112488984593e+00
15545:-2.8209358351972451e+00
15546:-3.0951053222235032e+00
15547:-3.3098530931980665e+00
15548:-2.1632568819132953e+00
15549:-2.3334180346292364e+00
15550:-2.5775232858140176e+00
15551:-2.7753564370701569e+00
15552:-4.8525717789577270e+00
15553:-5.0836254990366259e+00
15554:-5.3469068402040341e+00
15555:-5.5253923889274548e+00
15556:-4.2004360066227822e+00
15557:-4.4129945331376650e+00
15558:-4.6605072671872723e+00
15559:-4.8386969596958771e+00
15560:-3.4227436650002931e+00
15561:-3.6184020624472839e+00
15562:-3.8561955697666459e+00
15563:-4.0399210349007175e+00
15564:-2.8819998713845938e+00
15565:-3.0715698273069938e+00
15566:-3.3125307411992759e+00
15567:-3.5072446798969730e+00
15568:-5.6122163700793912e+00
15569:-5.7329659661629115e+00
15570:-5.8157117258370441e+00
15571:-5.8340321744209094e+00
15572:-4.9312223219596838e+00
15573:-5.0759470002789753e+00
15574:-5.2084669214794603e+00
15575:-5.2721213522610846e+00
15576:-4.1412223722041670e+00
15577:-4.3165739838008097e+00
15578:-4.5102377000876537e+00
15579:-4.6306221495783664e+00
15580:-3.6176107256488463e+00
15581:-3.8182471294530567e+00
15582:-4.0584789231608838e+00
15583:-4.2221723746862470e+00
15584:-5.8308615725816733e+00
15585:-5.7946815364878006e+00
15586:-5.6819119950237962e+00
15587:-5.5411459599237354e+00
15588:-5.2938586502777305e+00
15589:-5.3079240868192850e+00
15590:-5.2691744504796647e+00
15591:-5.1924134225677037e+00
15592:-4.6845179758437610e+00
15593:-4.7654399568127142e+00
15594:-4.8272386575191879e+00
15595:-4.8374783182314598e+00
15596:-4.3012059576268173e+00
15597:-4.4350168512272550e+00
15598:-4.5762545264432211e+00
15599:-4.6542308080369050e+00
15600:-5.4463359918240766e+00
15601:-5.2427606171153007e+00
15602:-4.9348955626057176e+00
15603:-4.6715470462815158e+00
15604:-5.1342449917039570e+00
15605:-4.9993791045870957e+00
15606:-4.7792246039306345e+00
15607:-4.5808803999984855e+00
15608:-4.8287360144413647e+00
15609:-4.7852775995905770e+00
15610:-4.6791642497928772e+00
15611:-4.5632010692089784e+00
15612:-4.6834511820742417e+00
15613:-4.7100725162706896e+00
15614:-4.6912117159632976e+00
15615:-4.6380208448091702e+00
15616:-4.5226525537555382e+00
15617:-4.2247848538254091e+00
15618:-3.8063857294740124e+00
15619:-3.4693507611188199e+00
15620:-4.4658130015613526e+00
15621:-4.2319574898391048e+00
15622:-3.8934104420249649e+00
15623:-3.6101023249600073e+00
15624:-4.4902793096982245e+00
15625:-4.3363911579958545e+00
15626:-4.0985369520153849e+00
15627:-3.8839537126836534e+00
15628:-4.5970447215502217e+00
15629:-4.5028311180718656e+00
15630:-4.3384855103040607e+00
15631:-4.1729567360954114e+00
15632:-3.2875538569053178e+00
15633:-2.9709079035038104e+00
15634:-2.5914149985706767e+00
15635:-2.3082099476863562e+00
15636:-3.4528576460683520e+00
15637:-3.1727491516981492e+00
15638:-2.8257254301748644e+00
15639:-2.5591014609671565e+00
15640:-3.7584477705307164e+00
15641:-3.5239904215982021e+00
15642:-3.2145651599087115e+00
15643:-2.9654087041167863e+00
15644:-4.0696337310095361e+00
15645:-3.8653342923392113e+00
15646:-3.5776603977480264e+00
15647:-3.3367286792510247e+00
15648:-2.1557512167595694e+00
15649:-1.8811941488946153e+00
15650:-1.5552965481993861e+00
15651:-1.3357165814314986e+00
15652:-2.4133326107670556e+00
15653:-2.1454965943135003e+00
15654:-1.8183962238004481e+00
15655:-1.5920422783318862e+00
15656:-2.8263023239607890e+00
15657:-2.5638539602975463e+00
15658:-2.2302330321781749e+00
15659:-1.9894662962937846e+00
15660:-3.2003213752801623e+00
15661:-2.9383250903631635e+00
15662:-2.5953899471496036e+00
15663:-2.3395744874803239e+00
15664:-1.2305016139648901e+00
15665:-1.0478214838804374e+00
15666:-8.3562228252838555e-01
15667:-6.9206751805864108e-01
15668:-1.4816726931610626e+00
15669:-1.2870428374892318e+00
15670:-1.0547691000931236e+00
15671:-8.9232626326377984e-01
15672:-1.8684576867061631e+00
15673:-1.6504854648397220e+00
15674:-1.3824622244943243e+00
15675:-1.1893995246534739e+00
15676:-2.2077543368200234e+00
15677:-1.9663389315276927e+00
15678:-1.6634846813714161e+00
15679:-1.4418362096556512e+00
15680:-6.2228650481016545e-01
15681:-5.0734191215635882e-01
15682:-3.8688119219692907e-01
15683:-3.1479690674803051e-01
15684:-8.1128050917837635e-01
15685:-6.7426972110649108e-01
15686:-5.2468674069296628e-01
15687:-4.3112941218300155e-01
15688:-1.0911286984828754e+00
15689:-9.2054652336249820e-01
15690:-7.2680762407902844e-01
15691:-6.0098466994780808e-01
15692:-1.3280044820747761e+00
15693:-1.1273855446206544e+00
15694:-8.9461319349902357e-01
15695:-7.4071857521872908e-01
15696:-2.8242666307462577e-01
15697:-2.2542532735587911e-01
15698:-1.6108199848090107e-01
15699:-1.2323801198317233e-01
15700:-3.8787271434337989e-01
15701:-3.1089190806903988e-01
15702:-2.2253502157004076e-01
15703:-1.6908103475540381e-01
15704:-5.4162405319154217e-01
15705:-4.3680072849004237e-01
15706:-3.1666066591342718e-01
15707:-2.4222792304658458e-01
15708:-6.6760600754131372e-01
15709:-5.4029158895162377e-01
15710:-3.9594756658640723e-01
15711:-3.0553200812010323e-01
15712:-1.0786190427500707e-01
15713:-8.2357853267622946e-02
15714:-5.5024053484016594e-02
15715:-3.9257881684305343e-02
15716:-1.4680097996866323e-01
15717:-1.1195434862157047e-01
15718:-7.6864362023939592e-02
15719:-5.5998026367408658e-02
15720:-2.1000780060186269e-01
15721:-1.5969212175008740e-01
15722:-1.0900009383854717e-01
15723:-7.8004709196749691e-02
15724:-2.6534335705576023e-01
15725:-2.0142852561848426e-01
15726:-1.3572668848552483e-01
15727:-9.5280755289565616e-02
15728:-3.2795074370381837e-02
15729:-2.2669536006389168e-02
15730:-1.1376843990671622e-02
15731:-2.6903884426638194e-03
15732:-4.6441591849220011e-02
15733:-3.0766512655318538e-02
15734:-1.4820858725466192e-02
15735:-6.1790191386156866e-03
15736:-6.3316587947438524e-02
15737:-4.0152734232714905e-02
15738:-1.9697631337987645e-02
15739:-1.2229091969824758e-02
15740:-7.6332140241602522e-02
15741:-4.7537465586179890e-02
15742:-2.3827957984803826e-02
15743:-1.6331526009606443e-02
15744:1.4272315296477400e+00
15745:9.7670851525680769e-01
15746:4.7824964812394155e-01
15747:1.5930863182472318e-01
15748:1.2816745237015412e+00
15749:8.9045562805137402e-01
15750:4.5848979922122635e-01
15751:1.8412294442144075e-01
15752:1.0625060117546867e+00
15753:7.5065096743991722e-01
15754:4.0809652225454712e-01
15755:1.9331895662262175e-01
15756:8.7590715715220613e-01
15757:6.2628248128764918e-01
15758:3.5396868863286673e-01
15759:1.8560269386991912e-01
15760:9.4632452322603658e-03
15761:-2.4829001299063744e-01
15762:-5.4005209140735744e-01
15763:-7.2838144059618160e-01
15764:5.6409352272040060e-02
15765:-1.6086722328801428e-01
15766:-4.0268182806410069e-01
15767:-5.5591665998328521e-01
15768:9.4842060118737359e-02
15769:-6.9925208195269165e-02
15770:-2.4862994499322008e-01
15771:-3.5868629329838791e-01
15772:1.0959307692311984e-01
15773:-1.5486057435076084e-02
15774:-1.4764960880871264e-01
15775:-2.2668465360564696e-01
15776:-8.1668472653101654e-01
15777:-9.7408676323329935e-01
15778:-1.1699567012816772e+00
15779:-1.3161360035906902e+00
15780:-6.2680267462417549e-01
15781:-7.5205788755345204e-01
15782:-9.0704074039043381e-01
15783:-1.0230681421041283e+00
15784:-4.0852970813528516e-01
15785:-4.9535754158630674e-01
15786:-6.0222970379172513e-01
15787:-6.8340518963840124e-01
15788:-2.6170059989051558e-01
15789:-3.2195955092910306e-01
15790:-3.9657496662818709e-01
15791:-4.5520081797114709e-01
15792:-1.3933563021479214e+00
15793:-1.5347022478535877e+00
15794:-1.7156738566009750e+00
15795:-1.8553986268359031e+00
15796:-1.0847989093017125e+00
15797:-1.1991277349051843e+00
15798:-1.3487830187658478e+00
15799:-1.4672811720291994e+00
15800:-7.2749522239136588e-01
15801:-8.1202691393142157e-01
15802:-9.2941786062778664e-01
15803:-1.0281003361387013e+00
15804:-4.8819310878253552e-01
15805:-5.5471372597303381e-01
15806:-6.5435932651360718e-01
15807:-7.4387085635995343e-01
15808:-1.9318495460559701e+00
15809:-2.0894206056339373e+00
15810:-2.3194674245054907e+00
15811:-2.5098948107347527e+00
15812:-1.5332435035182863e+00
15813:-1.6715942982893608e+00
15814:-1.8803030400130158e+00
15815:-2.0599512098784647e+00
15816:-1.0850466241829724e+00
15817:-1.2072721496067131e+00
15818:-1.3993304468774059e+00
15819:-1.5724790582648966e+00
15820:-7.9739076409681575e-01
15821:-9.1428356552588774e-01
15822:-1.1031251430463900e+00
15823:-1.2783909028252334e+00
15824:-2.6142531091478447e+00
15825:-2.8032850865000980e+00
15826:-3.0500220103609803e+00
15827:-3.2532822647158008e+00
15828:-2.1614022017481349e+00
15829:-2.3521139907392494e+00
15830:-2.6130857990435343e+00
15831:-2.8345049335811670e+00
15832:-1.6736802081076880e+00
15833:-1.8729747221256581e+00
15834:-2.1599457235849089e+00
15835:-2.4095451969520139e+00
15836:-1.3829738267146015e+00
15837:-1.5951487537228424e+00
15838:-1.9090807122358338e+00
15839:-2.1843878349544896e+00
15840:-3.3695056362594809e+00
15841:-3.5846858795501326e+00
15842:-3.8502123241119275e+00
15843:-4.0373197462056112e+00
15844:-2.9625624704991136e+00
15845:-3.2059271102729370e+00
15846:-3.5188506150835739e+00
15847:-3.7490157171936969e+00
15848:-2.5548578092672272e+00
15849:-2.8370891181037585e+00
15850:-3.2119904346371873e+00
15851:-3.4964566245504427e+00
15852:-2.3445546452574422e+00
15853:-2.6584890854354457e+00
15854:-3.0811541233111228e+00
15855:-3.4057347830499856e+00
15856:-4.1300832177885631e+00
15857:-4.2926554987891041e+00
15858:-4.4764864019396562e+00
15859:-4.5901144130884548e+00
15860:-3.8667647655092341e+00
15861:-4.0804525917360932e+00
15862:-4.3379579630151257e+00
15863:-4.5121002210117949e+00
15864:-3.6450230399363526e+00
15865:-3.9193496793609492e+00
15866:-4.2604192833868684e+00
15867:-4.5011294599888867e+00
15868:-3.5764774571854594e+00
15869:-3.8927852026282883e+00
15870:-4.2890775095983349e+00
15871:-4.5723731718601810e+00
15872:-4.6390672581475165e+00
15873:-4.7023219325055239e+00
15874:-4.7295383338969854e+00
15875:-4.7097925189225132e+00
15876:-4.5943024159992811e+00
15877:-4.7201216797832846e+00
15878:-4.8273534875562039e+00
15879:-4.8662116659084793e+00
15880:-4.6194965167974651e+00
15881:-4.8145393235918359e+00
15882:-5.0116593233063069e+00
15883:-5.1162514503391350e+00
15884:-4.7135898722514860e+00
15885:-4.9527001277577263e+00
15886:-5.2067214100857289e+00
15887:-5.3516638152886697e+00
15888:-4.6858846579020295e+00
15889:-4.6229171151262216e+00
15890:-4.4958487118793702e+00
15891:-4.3543141393910894e+00
15892:-4.8721753030170643e+00
15893:-4.8624421228420340e+00
15894:-4.7967920417501224e+00
15895:-4.6939058770616562e+00
15896:-5.1552169909961609e+00
15897:-5.2011970384731772e+00
15898:-5.1953905156788522e+00
15899:-5.1282798051427720e+00
15900:-5.4100436831561094e+00
15901:-5.4860371433477724e+00
15902:-5.5084466230438984e+00
15903:-5.4564229700365185e+00
15904:-4.2614901042287912e+00
15905:-4.0707041261207095e+00
15906:-3.7914186730124477e+00
15907:-3.5527339947320815e+00
15908:-4.6178528813595721e+00
15909:-4.4485275793974779e+00
15910:-4.1821295920805888e+00
15911:-3.9462748574324125e+00
15912:-5.0674648951085803e+00
15913:-4.9171749411228864e+00
15914:-4.6606792712720866e+00
15915:-4.4248543112801881e+00
15916:-5.4017521720216291e+00
15917:-5.2582313017247468e+00
15918:-5.0025103025481465e+00
15919:-4.7625534236228981e+00
15920:-3.4168045938318121e+00
15921:-3.1536015030589937e+00
15922:-2.8041437478812035e+00
15923:-2.5390394456380312e+00
15924:-3.8105279801304528e+00
15925:-3.5436852434757458e+00
15926:-3.1804947248560200e+00
15927:-2.8973625168536983e+00
15928:-4.2874032614761965e+00
15929:-4.0121682906334408e+00
15930:-3.6272626333324505e+00
15931:-3.3192235613558116e+00
15932:-4.6215504493688320e+00
15933:-4.3359267751050865e+00
15934:-3.9304953694212887e+00
15935:-3.6019581610015452e+00
15936:-2.4006630547494425e+00
15937:-2.1450623156327007e+00
15938:-1.8213113073322769e+00
15939:-1.5827687529562946e+00
15940:-2.7466469921809882e+00
15941:-2.4648733845250148e+00
15942:-2.1033307534712793e+00
15943:-1.8346799634650672e+00
15944:-3.1524195682145031e+00
15945:-2.8376561242884675e+00
15946:-2.4300467501987244e+00
15947:-2.1255443311720921e+00
15948:-3.4227649734234187e+00
15949:-3.0834000433646374e+00
15950:-2.6424951696129284e+00
15951:-2.3126374100500904e+00
15952:-1.4598609382438463e+00
15953:-1.2418476965915002e+00
15954:-9.8668615482903621e-01
15955:-8.1686802054372243e-01
15956:-1.6957200824370793e+00
15957:-1.4469013811506519e+00
15958:-1.1517636436547156e+00
15959:-9.5307395168209041e-01
15960:-1.9677076659935777e+00
15961:-1.6829969442770356e+00
15962:-1.3414332416502357e+00
15963:-1.1089074260467180e+00
15964:-2.1416219018575013e+00
15965:-1.8325153911589558e+00
15966:-1.4603218516223426e+00
15967:-1.2058285006235399e+00
15968:-7.3604319534483409e-01
15969:-5.9648512356616135e-01
15970:-4.3941225136002621e-01
15971:-3.4059506068840995e-01
15972:-8.5805629706293629e-01
15973:-6.9586709902254018e-01
15974:-5.1530504817849776e-01
15975:-4.0119170065724857e-01
15976:-9.9702620901428807e-01
15977:-8.0764901558139179e-01
15978:-5.9867639103388159e-01
15979:-4.6629954217069508e-01
15980:-1.0830198226295773e+00
15981:-8.7583071831579817e-01
15982:-6.4804253292118141e-01
15983:-5.0364346283033623e-01
15984:-2.9609795328181965e-01
15985:-2.2454761926529868e-01
15986:-1.5023956079253467e-01
15987:-1.0460214659423075e-01
15988:-3.4898065217936064e-01
15989:-2.6408233758423239e-01
15990:-1.7531391106148900e-01
15991:-1.2140707700771707e-01
15992:-4.0510112222024147e-01
15993:-3.0529092892071280e-01
15994:-2.0140221666434016e-01
15995:-1.3951436742107315e-01
15996:-4.3664245091795961e-01
15997:-3.2756785582880971e-01
15998:-2.1481286519175949e-01
15999:-1.4850119766974304e-01
16000:-8.3499903518787083e-02
16001:-5.1902711478940620e-02
16002:-2.6210597896079851e-02
16003:-1.7784462685470133e-02
16004:-9.7024079479251291e-02
16005:-6.0731764473646178e-02
16006:-3.0482447525726323e-02
16007:-1.8724604507702060e-02
16008:-1.1215091558458236e-01
16009:-7.0977020267304319e-02
16010:-3.4622425322212706e-02
16011:-1.7681331633024950e-02
16012:-1.1953100084971871e-01
16013:-7.5610432498256178e-02
16014:-3.5881181490280037e-02
16015:-1.6435153708059595e-02
16016:7.7093322478484927e-01
16017:5.5492140536830814e-01
16018:3.2049600474778767e-01
16019:1.7696036793072353e-01
16020:5.6464214228448950e-01
16021:4.1201894801585909e-01
16022:2.4847897109607012e-01
16023:1.5083128868441992e-01
16024:2.8210791970419130e-01
16025:2.1161146035870965e-01
16026:1.3893688802281023e-01
16027:9.9147312159177228e-02
16028:5.9641967189346660e-02
16029:5.0612870501727726e-02
16030:4.5363154675637583e-02
16031:4.7896144818758882e-02
16032:1.1284674147548567e-01
16033:8.5677699082872850e-03
16034:-9.9575482351905928e-02
16035:-1.6287107280664553e-01
16036:1.0845846034046119e-01
16037:4.1836954206761492e-02
16038:-2.3461419963719369e-02
16039:-5.9184034136096124e-02
16040:8.3763919126187553e-02
16041:6.3125512685079460e-02
16042:4.8690025987247455e-02
16043:4.4526166967878582e-02
16044:5.1968863139531800e-02
16045:6.3808838789120026e-02
16046:8.3959119997183834e-02
16047:1.0012874139619313e-01
16048:-1.9046607490079465e-01
16049:-2.3766998404330800e-01
16050:-2.9692930623281621e-01
16051:-3.4522539000438163e-01
16052:-7.3979595519919630e-02
16053:-9.9136866581928565e-02
16054:-1.3334834903078616e-01
16055:-1.6546573833213193e-01
16056:4.3903644321649032e-02
16057:4.2176898032178008e-02
16058:3.2737220414220211e-02
16059:1.5182247552236320e-02
16060:1.0816717750351719e-01
16061:1.1987532458098896e-01
16062:1.2292597632563797e-01
16063:1.1127600319209852e-01
16064:-3.7328893981619882e-01
16065:-4.3208746792914388e-01
16066:-5.2480171139890175e-01
16067:-6.1146606546260995e-01
16068:-1.8604962105461620e-01
16069:-2.3343085420257020e-01
16070:-3.1651226897442886e-01
16071:-3.9985961355405869e-01
16072:7.9261969481363777e-04
16073:-3.7935296768948502e-02
16074:-1.1540134884660838e-01
16075:-1.9865354410077193e-01
16076:9.8798930097834220e-02
16077:6.1652233393284225e-02
16078:-1.7347851175181592e-02
16079:-1.0428031969113577e-01
16080:-6.6430558340925583e-01
16081:-7.8073620912571529e-01
16082:-9.7124133138829005e-01
16083:-1.1502543549552169e+00
16084:-4.5230412965733829e-01
16085:-5.6945763493486545e-01
16086:-7.6482036426396327e-01
16087:-9.5168849088749585e-01
16088:-2.5243712462170315e-01
16089:-3.7380535059417103e-01
16090:-5.7896631808981314e-01
16091:-7.7765466967849706e-01
16092:-1.6081984243426845e-01
16093:-2.8850633019143823e-01
16094:-5.0458374480038082e-01
16095:-7.1411844969336458e-01
16096:-1.2579905496945052e+00
16097:-1.4793355383113782e+00
16098:-1.8100534764603620e+00
16099:-2.1003565537492501e+00
16100:-1.0655149873416108e+00
16101:-1.3036030379838239e+00
16102:-1.6638289795697856e+00
16103:-1.9798760016776820e+00
16104:-8.9971631346315095e-01
16105:-1.1585439224385492e+00
16106:-1.5529873812630632e+00
16107:-1.8976122938649427e+00
16108:-8.4302611596392074e-01
16109:-1.1174781821708129e+00
16110:-1.5355838426670345e+00
16111:-1.8987893854671767e+00
16112:-2.2689042064450424e+00
16113:-2.6001912552617807e+00
16114:-3.0481243098717350e+00
16115:-3.3933619009475855e+00
16116:-2.1626221569189994e+00
16117:-2.5233037278699615e+00
16118:-3.0143500452116485e+00
16119:-3.3952737141867018e+00
16120:-2.0957221855134160e+00
16121:-2.4880765299422163e+00
16122:-3.0260646854321616e+00
16123:-3.4467200159284790e+00
16124:-2.1065053768774340e+00
16125:-2.5182995086795685e+00
16126:-3.0851008170926613e+00
16127:-3.5306522154419091e+00
16128:-3.5753325700100631e+00
16129:-3.9124313457312865e+00
16130:-4.3353297901359245e+00
16131:-4.6387439194550026e+00
16132:-3.5968465187688561e+00
16133:-3.9704422624037403e+00
16134:-4.4401080143491507e+00
16135:-4.7786753526248118e+00
16136:-3.6705540123776861e+00
16137:-4.0861653520092656e+00
16138:-4.6099931290425360e+00
16139:-4.9888666972708924e+00
16140:-3.7687375837520607e+00
16141:-4.2116565730199733e+00
16142:-4.7708026537070225e+00
16143:-5.1754776102051911e+00
16144:-4.7906677238668625e+00
16145:-5.0503340607872147e+00
16146:-5.3303465198542632e+00
16147:-5.4929224758783342e+00
16148:-4.9491508999201788e+00
16149:-5.2440569626921842e+00
16150:-5.5683482720191284e+00
16151:-5.7611314294585050e+00
16152:-5.1802589017261145e+00
16153:-5.5139927364926775e+00
16154:-5.8864272514119014e+00
16155:-6.1125191576841242e+00
16156:-5.3799045669299534e+00
16157:-5.7370136230797701e+00
16158:-6.1377644630033634e+00
16159:-6.3837533140445002e+00
16160:-5.5593463485902266e+00
16161:-5.6466598140781681e+00
16162:-5.6780097098674345e+00
16163:-5.6299621327760834e+00
16164:-5.8415235822094100e+00
16165:-5.9490494373874823e+00
16166:-5.9972546072568953e+00
16167:-5.9571484923958318e+00
16168:-6.2088145623483673e+00
16169:-6.3408980945446212e+00
16170:-6.4119634233133693e+00
16171:-6.3836902255217964e+00
16172:-6.4899341031871174e+00
16173:-6.6384350977124997e+00
16174:-6.7263204675758956e+00
16175:-6.7071783199547088e+00
16176:-5.5767883574988852e+00
16177:-5.4342741244228012e+00
16178:-5.1764703191651522e+00
16179:-4.9326168807564592e+00
16180:-5.9069838033838780e+00
16181:-5.7663044807956814e+00
16182:-5.5038887621775485e+00
16183:-5.2519239813144578e+00
16184:-6.3380241047795902e+00
16185:-6.1998959821479129e+00
16186:-5.9305465065832577e+00
16187:-5.6670854498556782e+00
16188:-6.6648437470205666e+00
16189:-6.5280446637838567e+00
16190:-6.2523165295651166e+00
16191:-5.9795167916440581e+00
16192:-4.7887790185524270e+00
16193:-4.4960480675096006e+00
16194:-4.0782727017028906e+00
16195:-3.7383946338422334e+00
16196:-5.1023517506424616e+00
16197:-4.7962013275765454e+00
16198:-4.3563131670194633e+00
16199:-3.9965429181651220e+00
16200:-5.5097097210258781e+00
16201:-5.1866859800388703e+00
16202:-4.7205932368371366e+00
16203:-4.3375851820337301e+00
16204:-5.8161338554127111e+00
16205:-5.4808651056903903e+00
16206:-4.9964874825269607e+00
16207:-4.5972175271000753e+00
16208:-3.5526411197516596e+00
16209:-3.2004453175010665e+00
16210:-2.7423981807724389e+00
16211:-2.3995892832494281e+00
16212:-3.7993068592742900e+00
16213:-3.4241432169154233e+00
16214:-2.9344877397355962e+00
16215:-2.5672114915052004e+00
16216:-4.1268275210729248e+00
16217:-3.7238518442038924e+00
16218:-3.1947393438333149e+00
16219:-2.7963149583680051e+00
16220:-4.3768427106190693e+00
16221:-3.9539242093204119e+00
16222:-3.3964954106532770e+00
16223:-2.9759026685439829e+00
16224:-2.2218793779919346e+00
16225:-1.9007048887178306e+00
16226:-1.5138953157701549e+00
16227:-1.2492092629691904e+00
16228:-2.3766950031981025e+00
16229:-2.0326317792647286e+00
16230:-1.6185564241301256e+00
16231:-1.3351918955688491e+00
16232:-2.5893566199430351e+00
16233:-2.2158308889037595e+00
16234:-1.7665366427505047e+00
16235:-1.4589471196215309e+00
16236:-2.7573321065666061e+00
16237:-2.3626069633634055e+00
16238:-1.8870845323873067e+00
16239:-1.5607444304693459e+00
16240:-1.1213920807529054e+00
16241:-9.0596969682362449e-01
16242:-6.6938621438730617e-01
16243:-5.1936542903502114e-01
16244:-1.1982922452345943e+00
16245:-9.6771981249953010e-01
16246:-7.1450262586773161e-01
16247:-5.5356544101641236e-01
16248:-1.3102156227694670e+00
16249:-1.0595884083610712e+00
16250:-7.8384462938224997e-01
16251:-6.0789676458798891e-01
16252:-1.4026025014935934e+00
16253:-1.1359218440468535e+00
16254:-8.4218529177615875e-01
16255:-6.5444411773805322e-01
16256:-4.4967761366722703e-01
16257:-3.3638654775468702e-01
16258:-2.1965652848376413e-01
16259:-1.5132351682150089e-01
16260:-4.7857529327793069e-01
16261:-3.5667293999040228e-01
16262:-2.3122830065227504e-01
16263:-1.5796110972173302e-01
16264:-5.2556644629095028e-01
16265:-3.9126461750780933e-01
16266:-2.5235630354180505e-01
16267:-1.7082100271582970e-01
16268:-5.6644398210377711e-01
16269:-4.2234255710506369e-01
16270:-2.7239379620767351e-01
16271:-1.8387263914719185e-01
16272:-1.2158118671875068e-01
16273:-7.6477008687293804e-02
16274:-3.5757401376498466e-02
16275:-1.6059892054537585e-02
16276:-1.2615629784503704e-01
16277:-7.8228353265446401e-02
16278:-3.5770675538370697e-02
16279:-1.6131611081886505e-02
16280:-1.3535667509107177e-01
16281:-8.2301966693331077e-02
16282:-3.5878278007592447e-02
16283:-1.4590964534349049e-02
16284:-1.4524966792331584e-01
16285:-8.7165672477281297e-02
16286:-3.4887167316458939e-02
16287:-8.7274955104499341e-03
