label=Stress xy
num_items=6480

0:-1.2021153451718063e-01
1:-7.0768223958584536e-02
2:-3.3196391653856794e-02
3:-1.4308668131237354e-02
4:-5.6842599846447806e-01
5:-3.4146940709251034e-01
6:-1.5144197612109167e-01
7:-6.1742060099089155e-02
8:-1.1512575514699308e+00
9:-6.9192202142861936e-01
10:-3.0324214151857826e-01
11:-1.2189210970699360e-01
12:-1.5944088099339524e+00
13:-9.5699360045245208e-01
14:-4.1682244057403767e-01
15:-1.6611677053593737e-01
16:-5.9573028777914526e-03
17:4.6849099742691767e-03
18:1.2025715911528172e-02
19:1.5373713682654191e-02
20:-2.8338390340234366e-02
21:1.8449279918167298e-02
22:5.7377960410740746e-02
23:7.5488053757204618e-02
24:-5.6282738058516225e-02
25:3.6855992823349913e-02
26:1.1613327453609779e-01
27:1.5296462252340193e-01
28:-7.6336049206488440e-02
29:5.1493529793731750e-02
30:1.6084060624399843e-01
31:2.1151108432063950e-01
32:1.6904647954252328e-02
33:1.8941176328352842e-02
34:2.0350222317101131e-02
35:2.0868660069731263e-02
36:8.2211380586521887e-02
37:9.1307165557208136e-02
38:9.7811527339931578e-02
39:9.9649644716758384e-02
40:1.6621729368351376e-01
41:1.8417539546009379e-01
42:1.9703800386386114e-01
43:2.0045376313842442e-01
44:2.2954271240196536e-01
45:2.5397023028505805e-01
46:2.7143190002464018e-01
47:2.7591979041306758e-01
48:2.1022903889319943e-02
49:2.0954670422286183e-02
50:2.0391941252724803e-02
51:1.9808205430648360e-02
52:9.9771250048279525e-02
53:9.9118145279464748e-02
54:9.7010172877938117e-02
55:9.4711071050790033e-02
56:2.0047125904896099e-01
57:1.9895094817889106e-01
58:1.9472163783753532e-01
59:1.9013565964198972e-01
60:2.7580019826032875e-01
61:2.7352238449298594e-01
62:2.6757958970395329e-01
63:2.6120470152901243e-01
64:1.9495678564764061e-02
65:1.8928326250413338e-02
66:1.8192939547614178e-02
67:1.7608827675885664e-02
68:9.3321686293671102e-02
69:9.0595503301781011e-02
70:8.6850946318079908e-02
71:8.3850636930361169e-02
72:1.8732911844046968e-01
73:1.8179421820791783e-01
74:1.7417516474480543e-01
75:1.6807742195021982e-01
76:2.5730521482471241e-01
77:2.4962867295302299e-01
78:2.3908593111072782e-01
79:2.3066109177830155e-01
80:1.7284433440882551e-02
81:1.6656628801557129e-02
82:1.5826634169774100e-02
83:1.5203753910629851e-02
84:8.2215484553392212e-02
85:7.9193067179845214e-02
86:7.5362704627842725e-02
87:7.2514572636873970e-02
88:1.6476232458239415e-01
89:1.5866564721423829e-01
90:1.5097872643601321e-01
91:1.4527215078951636e-01
92:2.2608413633040511e-01
93:2.1767560695246294e-01
94:2.0708770941193400e-01
95:1.9923432327184004e-01
96:1.4883343133107838e-02
97:1.4317406865972935e-02
98:1.3629868979653089e-02
99:1.3125407564810159e-02
100:7.1030493285271987e-02
101:6.8340680355077149e-02
102:6.4999429327755737e-02
103:6.2547296446515563e-02
104:1.4229562026799356e-01
105:1.3689027818320154e-01
106:1.3016824933061763e-01
107:1.2523995164738030e-01
108:1.9513928070941203e-01
109:1.8770485678769488e-01
110:1.7846496112026941e-01
111:1.7169565135486625e-01
112:1.2860902037641005e-02
113:1.2379064108897034e-02
114:1.1779828530769053e-02
115:1.1342949533478667e-02
116:6.1275646952070523e-02
117:5.8979371670236473e-02
118:5.6149865895197333e-02
119:5.4096004230941873e-02
120:1.2268840296917205e-01
121:1.1808455557120874e-01
122:1.1241641177425682e-01
123:1.0830420487774817e-01
124:1.6819267680516062e-01
125:1.6187265705181494e-01
126:1.5409289492254311e-01
127:1.4845022582275216e-01
128:1.1118542095661195e-02
129:1.0717584015552518e-02
130:1.0227619005631851e-02
131:9.8717158466897353e-03
132:5.3039523290066781e-02
133:5.1134548569092449e-02
134:4.8788861563392127e-02
135:4.7086484365913443e-02
136:1.0618893153156755e-01
137:1.0237261033377587e-01
138:9.7672600070102533e-02
139:9.4264013335554758e-02
140:1.4554829147821008e-01
141:1.4031358231657745e-01
142:1.3386897306695117e-01
143:1.2919719555476261e-01
144:9.6877644708096653e-03
145:9.3556097999598735e-03
146:8.9462154560006994e-03
147:8.6491622800162395e-03
148:4.6210557035055701e-02
149:4.4630580799092448e-02
150:4.2686055382744073e-02
151:4.1277311663023654e-02
152:9.2511620590760124e-02
153:8.9350809262830524e-02
154:8.5460946809650690e-02
155:8.2643325108003568e-02
156:1.2679607942341425e-01
157:1.2246516138880684e-01
158:1.1713550415970789e-01
159:1.1327542171635144e-01
160:8.4965234388719897e-03
161:8.2216537973215133e-03
162:7.8834156120216083e-03
163:7.6378205633366638e-03
164:4.0553600389386303e-02
165:3.9246733667689077e-02
166:3.7635392788661251e-02
167:3.6466309903727553e-02
168:8.1195945521875895e-02
169:7.8582108306747125e-02
170:7.5359825018195409e-02
171:7.3022996010103050e-02
172:1.1129275501621222e-01
173:1.0771267083667926e-01
174:1.0330019919881578e-01
175:1.0010102745423854e-01
176:7.5113504213539838e-03
177:7.2826909666716061e-03
178:7.0002425306119114e-03
179:6.7950080231048097e-03
180:3.5865225179282027e-02
181:3.4778855052973075e-02
182:3.3438263965211691e-02
183:3.2465389073117058e-02
184:7.1821945223301875e-02
185:6.9651056761949132e-02
186:6.6971882174234526e-02
187:6.5027449148382044e-02
188:9.8457002094936977e-02
189:9.5485386761007249e-02
190:9.1817907505097343e-02
191:8.9156164010283381e-02
192:-1.8286724173065663e+00
193:-1.0965789261137506e+00
194:-4.7614238297535105e-01
195:-1.8890088033743424e-01
196:-2.2634951528740381e+00
197:-1.3548656780461839e+00
198:-5.8535294099933843e-01
199:-2.3071644532166713e-01
200:-2.8190783282259897e+00
201:-1.6831963942814840e+00
202:-7.2297013071080629e-01
203:-2.8309228371647305e-01
204:-3.2338648389681954e+00
205:-1.9268607204142238e+00
206:-8.2397232380658503e-01
207:-3.2114001758310040e-01
208:-8.6468885434713399e-02
209:5.9480495008787611e-02
210:1.8448534608961142e-01
211:2.4231842132837950e-01
212:-1.0513119158235791e-01
213:7.3905269095297155e-02
214:2.2740758442959108e-01
215:2.9818520045056673e-01
216:-1.2862047746892558e-01
217:9.1541991677408896e-02
218:2.8027604359988967e-01
219:3.6686897214833492e-01
220:-1.4567365846753833e-01
221:1.0425046738549205e-01
222:3.1832742053095375e-01
223:4.1614251086281906e-01
224:2.6280456698628191e-01
225:2.9054670301517915e-01
226:3.1034544492808763e-01
227:3.1534837415961053e-01
228:3.2306560423718361e-01
229:3.5672208404188760e-01
230:3.8065157910793385e-01
231:3.8650880196907539e-01
232:3.9703121094596255e-01
233:4.3775205326956140e-01
234:4.6652637993728041e-01
235:4.7326008505550493e-01
236:4.4998021169474317e-01
237:4.9557647271834515e-01
238:5.2761193211008051e-01
239:5.3481878620176482e-01
240:3.1513288576474202e-01
241:3.1241618015239769e-01
242:3.0552987194044617e-01
243:2.9819134845709278e-01
244:3.8607603171335764e-01
245:3.8249360857841225e-01
246:3.7382566484541618e-01
247:3.6469696247965888e-01
248:4.7246614373355217e-01
249:4.6767035070286378e-01
250:4.5666478622641049e-01
251:4.4524789127676861e-01
252:5.3368306251143616e-01
253:5.2788703257696734e-01
254:5.1507903714720571e-01
255:5.0194891135308706e-01
256:2.9370879668738598e-01
257:2.8489798010120010e-01
258:2.7281715537090456e-01
259:2.6317166549329252e-01
260:3.5913752590658898e-01
261:3.4824141190340951e-01
262:3.3334734134108401e-01
263:3.2147662419041739e-01
264:4.3832473201492755e-01
265:4.2480616361571477e-01
266:4.0640218222905816e-01
267:3.9177035429121809e-01
268:4.9401577948575737e-01
269:4.7856968580560916e-01
270:4.5760827518418667e-01
271:4.4097684875410753e-01
272:2.5793298599330139e-01
273:2.4831177328155857e-01
274:2.3620292627490724e-01
275:2.2722579040942012e-01
276:3.1503339207163872e-01
277:3.0320818042719944e-01
278:2.8834091323470884e-01
279:2.7732924693226718e-01
280:3.8383638146511351e-01
281:3.6929165280106002e-01
282:3.5103399204704550e-01
283:3.3752919683235827e-01
284:4.3196645435919034e-01
285:4.1546489393497149e-01
286:3.9477897286827607e-01
287:3.7949510273494841e-01
288:2.2254624084484548e-01
289:2.1405340506041970e-01
290:2.0350267330502700e-01
291:1.9577578280262656e-01
292:2.7159245675201543e-01
293:2.6118694755226302e-01
294:2.4827023846170240e-01
295:2.3881665418308837e-01
296:3.3049882859530955e-01
297:3.1775641921612635e-01
298:3.0195466883055433e-01
299:2.9039921461011031e-01
300:3.7154339601546410e-01
301:3.5713942447424535e-01
302:3.3929129333443775e-01
303:3.2624812355850208e-01
304:1.9177794889666994e-01
305:1.8456525231758678e-01
306:1.7568740983917649e-01
307:1.6924942677402832e-01
308:2.3392698288195632e-01
309:2.2510680279254930e-01
310:2.1425387392559642e-01
311:2.0638680869733492e-01
312:2.8442507237252906e-01
313:2.7365309326008808e-01
314:2.6040689400798667e-01
315:2.5081105630628470e-01
316:3.1950737724625616e-01
317:3.0735804349500673e-01
318:2.9242689013760215e-01
319:2.8161625672569607e-01
320:1.6593899061881143e-01
321:1.5996825856356403e-01
322:1.5261906434038178e-01
323:1.4729259801488659e-01
324:2.0234275451595762e-01
325:1.9505076615220507e-01
326:1.8607862264915209e-01
327:1.7957811714899088e-01
328:2.4588031810089742e-01
329:2.3699253585266650e-01
330:2.2606219387884560e-01
331:2.1814645784968290e-01
332:2.7606308235182175e-01
333:2.6605611833386389e-01
334:2.5375426840744753e-01
335:2.4484856388543111e-01
336:1.4455528825804798e-01
337:1.3961805019630710e-01
338:1.3354255275028751e-01
339:1.2914268842355706e-01
340:1.7623809805766197e-01
341:1.7021444578323641e-01
342:1.6280355488723411e-01
343:1.5743789535331171e-01
344:2.1408035454713176e-01
345:2.0674908463260624e-01
346:1.9773296802606011e-01
347:1.9120765406639614e-01
348:2.4027496919749874e-01
349:2.3203069305526086e-01
350:2.2189538386846763e-01
351:2.1456252754106370e-01
352:1.2688295027092125e-01
353:1.2280287048348353e-01
354:1.1777472256619000e-01
355:1.1412955247924222e-01
356:1.5468260734764380e-01
357:1.4970850646673808e-01
358:1.4357987415564891e-01
359:1.3913774996342221e-01
360:1.8785771747801913e-01
361:1.8181134793253423e-01
362:1.7436374512077885e-01
363:1.6896706113857918e-01
364:2.1079878218835663e-01
365:2.0400673819772946e-01
366:1.9564280037348819e-01
367:1.8958356111059582e-01
368:1.1225643780388457e-01
369:1.0887079791280718e-01
370:1.0469247367319122e-01
371:1.0166008760479160e-01
372:1.3685535849581257e-01
373:1.3273038656408584e-01
374:1.2764047734369308e-01
375:1.2394713237623944e-01
376:1.6619466374186909e-01
377:1.6118515407162357e-01
378:1.5500576469835237e-01
379:1.5052323227146938e-01
380:1.8647125265490705e-01
381:1.8084858064981113e-01
382:1.7391470713571708e-01
383:1.6888611954167071e-01
384:-3.4503941275480936e+00
385:-2.0535041796145914e+00
386:-8.7603209826504413e-01
387:-3.4059729916945602e-01
388:-3.8472717057910915e+00
389:-2.2848084974954688e+00
390:-9.7071231643224920e-01
391:-3.7620524615028850e-01
392:-4.3444170549415206e+00
393:-2.5729125265828343e+00
394:-1.0878586994756392e+00
395:-4.2076879238051740e-01
396:-4.7077877339165495e+00
397:-2.7821509083190774e+00
398:-1.1722577236202596e+00
399:-4.5324903949544315e-01
400:-1.5439114129521025e-01
401:1.1070900954336070e-01
402:3.3765259464614544e-01
403:4.4110739478369054e-01
404:-1.7081335196116446e-01
405:1.2131887768500361e-01
406:3.7110266973945488e-01
407:4.8447444000557605e-01
408:-1.9237452482980336e-01
409:1.3200761196774954e-01
410:4.0888892269638971e-01
411:5.3383833826742055e-01
412:-2.0887773440391028e-01
413:1.3776975513088141e-01
414:4.3323526879850621e-01
415:5.6596992640486121e-01
416:4.7676446225367397e-01
417:5.2475786632067478e-01
418:5.5836314525141850e-01
419:5.6574904402857928e-01
420:5.2328242963078275e-01
421:5.7540512594665871e-01
422:6.1166791053449043e-01
423:6.1928259924533802e-01
424:5.7622711792742898e-01
425:6.3299763989084257e-01
426:6.7215652727077391e-01
427:6.7986484497586031e-01
428:6.1068446712135493e-01
429:6.7043457324053002e-01
430:7.1136533931116319e-01
431:7.1898784682176098e-01
432:5.6440768768145921e-01
433:5.5805411822914119e-01
434:5.4428436500639210e-01
435:5.3025891836333394e-01
436:6.1752964983037295e-01
437:6.1012076083558897e-01
438:5.9459465195635453e-01
439:5.7896159636202560e-01
440:6.7753013106564675e-01
441:6.6873920769148609e-01
442:6.5103582613265176e-01
443:6.3346400182527995e-01
444:7.1617480390061561e-01
445:7.0632554034715100e-01
446:6.8704940936250580e-01
447:6.6812125615190843e-01
448:5.2180217964187547e-01
449:5.0536211112374696e-01
450:4.8308999417709930e-01
451:4.6543817226807649e-01
452:5.6957040388633240e-01
453:5.5136468690294593e-01
454:5.2677630061283920e-01
455:5.0732695099262393e-01
456:6.2295721406730664e-01
457:6.0266002859542145e-01
458:5.7535171359589765e-01
459:5.5380259614400251e-01
460:6.5684355277413753e-01
461:6.3511474170937054e-01
462:6.0596436648694474e-01
463:5.8300232386010031e-01
464:4.5587962623479283e-01
465:4.3838421251007581e-01
466:4.1646940706321428e-01
467:4.0028777615580097e-01
468:4.9680406311067626e-01
469:4.7756489713266714e-01
470:4.5350206873441129e-01
471:4.3575596237983555e-01
472:5.4215561177418470e-01
473:5.2089353112491543e-01
474:4.9435566415945931e-01
475:4.7481684335445712e-01
476:5.7060090633279903e-01
477:5.4798949581339695e-01
478:5.1981530150245481e-01
479:4.9909989847426223e-01
480:3.9187184179783091e-01
481:3.7663181435557014e-01
482:3.5775593968475894e-01
483:3.4396684015006967e-01
484:4.2653234670915696e-01
485:4.0984001931871678e-01
486:3.8918251944860077e-01
487:3.7410235216171889e-01
488:4.6467043441591949e-01
489:4.4632366100786847e-01
490:4.2364415171451553e-01
491:4.0710284298542715e-01
492:4.8835022049510263e-01
493:4.6892607812348097e-01
494:4.4493645378061958e-01
495:4.2745200076472267e-01
496:3.3684210753905292e-01
497:3.2400375273842291e-01
498:3.0823118201000044e-01
499:2.9681479018219570e-01
500:3.6631354846497138e-01
501:3.5228509608163028e-01
502:3.3506183365563508e-01
503:3.2260267708198659e-01
504:3.9856355835491103e-01
505:3.8319330322699446e-01
506:3.6433997011056651e-01
507:3.5071255346302921e-01
508:4.1842921302887737e-01
509:4.0219729148336364e-01
510:3.8230211446191048e-01
511:3.6793108560097770e-01
512:2.9095147747433781e-01
513:2.8038729967499237e-01
514:2.6740338720957502e-01
515:2.5800588909034394e-01
516:3.1620596289032765e-01
517:3.0468440099785882e-01
518:2.9053021113326777e-01
519:2.8028988507590413e-01
520:3.4371925676287407e-01
521:3.3112892893221035e-01
522:3.1567168060351208e-01
523:3.0449491445354593e-01
524:3.6055895805572702e-01
525:3.4729173238865080e-01
526:3.3101213354517650e-01
527:3.1924612724284285e-01
528:2.5318035483956447e-01
529:2.4448317618901733e-01
530:2.3379327556763971e-01
531:2.2606061931222457e-01
532:2.7503286819374978e-01
533:2.6556065193402645e-01
534:2.5392278045245348e-01
535:2.4550742833387368e-01
536:2.9875906704845334e-01
537:2.8842810201431446e-01
538:2.7574221633516210e-01
539:2.6657361697013926e-01
540:3.1320947848872888e-01
541:3.0234026829452665e-01
542:2.8899966678001143e-01
543:2.7936187649593280e-01
544:2.2209210831083356e-01
545:2.1493129803603842e-01
546:2.0611458915828126e-01
547:1.9972824211899948e-01
548:2.4118947142554673e-01
549:2.3339981735184503e-01
550:2.2381185705114431e-01
551:2.1686885452546650e-01
552:2.6187056009292886e-01
553:2.5338890530889990e-01
554:2.4295397338451460e-01
555:2.3540076020484785e-01
556:2.7441936470471695e-01
557:2.6550830410963877e-01
558:2.5454930983572271e-01
559:2.4661946797106821e-01
560:1.9644820265634153e-01
561:1.9052310270023984e-01
562:1.8321732584239392e-01
563:1.7791971015573371e-01
564:2.1330354022682660e-01
565:2.0686433358550504e-01
566:1.9892676401580409e-01
567:1.9317236427009996e-01
568:2.3152305095616701e-01
569:2.2452148277519760e-01
570:2.1589385586955073e-01
571:2.0964117329536147e-01
572:2.4254922505043128e-01
573:2.3520169033394270e-01
574:2.2615061640386727e-01
575:2.1959283798992155e-01
576:-4.8946533986401608e+00
577:-2.8892669933909900e+00
578:-1.2152255817476973e+00
579:-4.6994557711777374e-01
580:-5.2318458895015496e+00
581:-3.0819778910808839e+00
582:-1.2925373703227880e+00
583:-5.0076401432346607e-01
584:-5.6436548137610538e+00
585:-3.3163136940057454e+00
586:-1.3867508158277886e+00
587:-5.4007361593653047e-01
588:-5.9363047178892918e+00
589:-3.4820909507923683e+00
590:-1.4536633631255014e+00
591:-5.6951257821688672e-01
592:-2.1767345613647976e-01
593:1.3993296511908693e-01
594:4.4450053088957459e-01
595:5.8098990390655469e-01
596:-2.3486196516201568e-01
597:1.4157927740979367e-01
598:4.6175582123955122e-01
599:6.0460819968436763e-01
600:-2.5880131248721999e-01
601:1.3873962379761268e-01
602:4.7634955202078294e-01
603:6.2616617184295054e-01
604:-2.7835841788496729e-01
605:1.3262730201895273e-01
606:4.8130756617482345e-01
607:6.3542988799037314e-01
608:6.2679438931031717e-01
609:6.8792559833006373e-01
610:7.2964399922814893e-01
611:7.3716810794026466e-01
612:6.5221314625063287e-01
613:7.1561416691008806e-01
614:7.5859833664493714e-01
615:7.6589683693792487e-01
616:6.7565080921514276e-01
617:7.4140449878158943e-01
618:7.8565470336889009e-01
619:7.9260346375184365e-01
620:6.8599985846530664e-01
621:7.5310007126382839e-01
622:7.9803966636809520e-01
623:8.0469071276716264e-01
624:7.3409079706742808e-01
625:7.2368192625007521e-01
626:7.0360703708804107e-01
627:6.8400619776932903e-01
628:7.6233485703452364e-01
629:7.5093318182267443e-01
630:7.2948853796858582e-01
631:7.0875598155934705e-01
632:7.8844477141666991e-01
633:7.7588371627326225e-01
634:7.5293225708305334e-01
635:7.3099777554020140e-01
636:8.0010938713945345e-01
637:7.8677676572444288e-01
638:7.6290007807237237e-01
639:7.4026515307089846e-01
640:6.7234972337229815e-01
641:6.4992270019468290e-01
642:6.1988143043183808e-01
643:5.9623944182500699e-01
644:6.9646653511011447e-01
645:6.7288046603788532e-01
646:6.4137072282090202e-01
647:6.1661138988630648e-01
648:7.1804425906603075e-01
649:6.9325816646518468e-01
650:6.6024910422991578e-01
651:6.3435499273546803e-01
652:7.2693182083008234e-01
653:7.0147415504886712e-01
654:6.6764547436073318e-01
655:6.4113614189515489e-01
656:5.8347567696985914e-01
657:5.6021952820937515e-01
658:5.3126932876049071e-01
659:5.0999943648023649e-01
660:6.0325252457779532e-01
661:5.7894346251425866e-01
662:5.4873655317486836e-01
663:5.2657471196123806e-01
664:6.2039198015544827e-01
665:5.9502703186431971e-01
666:5.6358308205847241e-01
667:5.4055642843954144e-01
668:6.2684555303906386e-01
669:6.0092083167018118e-01
670:5.6884405449333542e-01
671:5.4538819316494136e-01
672:4.9896641362309618e-01
673:4.7903796089718226e-01
674:4.5443776066039804e-01
675:4.3651519566670394e-01
676:5.1508746742620348e-01
677:4.9435351984871029e-01
678:4.6878261474317973e-01
679:4.5016578528733420e-01
680:5.2863217439462862e-01
681:5.0712978246795237e-01
682:4.8064277199495387e-01
683:4.6137558334207113e-01
684:5.3325047331781550e-01
685:5.1137943081176451e-01
686:4.8446319435468882e-01
687:4.6489627147436957e-01
688:4.2726817788591381e-01
689:4.1063781769203733e-01
690:3.9026295457386390e-01
691:3.7555083562536851e-01
692:4.4056396835120099e-01
693:4.2330532486066280e-01
694:4.0217786725001314e-01
695:3.8693288015080807e-01
696:4.5144251466774965e-01
697:4.3360215853875644e-01
698:4.1178644865297126e-01
699:3.9605923378544167e-01
700:4.5481165769086390e-01
701:4.3671032113386743e-01
702:4.1459492883400456e-01
703:3.9866316770484650e-01
704:3.6800531667360131e-01
705:3.5442900768120683e-01
706:3.3777512216499556e-01
707:3.2574164201170946e-01
708:3.7911711995665776e-01
709:3.6506039489175163e-01
710:3.4782690543461048e-01
711:3.3538047583529168e-01
712:3.8800032836613463e-01
713:3.7351435446612441e-01
714:3.5576794258082489e-01
715:3.4295891917172783e-01
716:3.9050264217680214e-01
717:3.7584057642700269e-01
718:3.5788924366305225e-01
719:3.4493853127543372e-01
720:3.1956865324727357e-01
721:3.0845600766974846e-01
722:2.9482022985543482e-01
723:2.8497150490372614e-01
724:3.2899734498969446e-01
725:3.1751051097275235e-01
726:3.0342281216586164e-01
727:2.9325226472983984e-01
728:3.3639206712662528e-01
729:3.2458044448958867e-01
730:3.1010462590895904e-01
731:2.9966025532134849e-01
732:3.3830077474072900e-01
733:3.2636645351799554e-01
734:3.1174868716830950e-01
735:3.0120707938565550e-01
736:2.7992152298920792e-01
737:2.7081811012391960e-01
738:2.5962499173749420e-01
739:2.5152728005199126e-01
740:2.8803864864630513e-01
741:2.7864305965439951e-01
742:2.6709550518782088e-01
743:2.5874438617621848e-01
744:2.9430816753851857e-01
745:2.8466699192914102e-01
746:2.7282435572047148e-01
747:2.6426400075034945e-01
748:2.9580668134011662e-01
749:2.8608178598178413e-01
750:2.7414193550213356e-01
751:2.6551473129186420e-01
752:2.4737133801565497e-01
753:2.3987010061844494e-01
754:2.3063141401989118e-01
755:2.2393878419555222e-01
756:2.5445929532288547e-01
757:2.4672701945517933e-01
758:2.3720737552175372e-01
759:2.3031347345646075e-01
760:2.5987278960997306e-01
761:2.5195202884098394e-01
762:2.4220557033440510e-01
763:2.3515069725432428e-01
764:2.6109023659972969e-01
765:2.5311194558388189e-01
766:2.4329905056468812e-01
767:2.3619878969050551e-01
768:-6.0837353859036511e+00
769:-3.5653678735222467e+00
770:-1.4874326110524183e+00
771:-5.8499445254859594e-01
772:-6.3439394479325726e+00
773:-3.7123295184786018e+00
774:-1.5477947521918112e+00
775:-6.1421420388130943e-01
776:-6.6500380257350082e+00
777:-3.8854597248058673e+00
778:-1.6208220716463704e+00
779:-6.5295796636387393e-01
780:-6.8581815018539896e+00
781:-4.0035823654579783e+00
782:-1.6724970425359418e+00
783:-6.8331986107665377e-01
784:-2.8925630605813168e-01
785:1.2791873815451441e-01
786:4.8168519194267317e-01
787:6.3774216937458639e-01
788:-3.1111225997969300e-01
789:1.1595182185044134e-01
790:4.7789506290984485e-01
791:6.3702941264077484e-01
792:-3.4267021741922632e-01
793:9.3941580412549561e-02
794:4.6392327665475491e-01
795:6.2603914466467436e-01
796:-3.6937586761861685e-01
797:7.1999456183464039e-02
798:4.4615268183902290e-01
799:6.0978938276352812e-01
800:6.8876951571336997e-01
801:7.5643415691422378e-01
802:8.0165163303653519e-01
803:8.0814063362707589e-01
804:6.8874928476654507e-01
805:7.5728592606157974e-01
806:8.0296169065526890e-01
807:8.0920387066547339e-01
808:6.7836768006346282e-01
809:7.4772520306464141e-01
810:7.9392882494968908e-01
811:7.9999581633912653e-01
812:6.6237617807977556e-01
813:7.3214957852225915e-01
814:7.7873566901593338e-01
815:7.8480157455732968e-01
816:8.0335001261031380e-01
817:7.8965366710061424e-01
818:7.6537168992850513e-01
819:7.4244579880619976e-01
820:8.0407910846593289e-01
821:7.8983383286175024e-01
822:7.6499907572565284e-01
823:7.4170558648157847e-01
824:7.9456648925061835e-01
825:7.7989313935892079e-01
826:7.5477053515802361e-01
827:7.3136218847910417e-01
828:7.7924955425372200e-01
829:7.6448493238995219e-01
830:7.3948980566502831e-01
831:7.1628211714438239e-01
832:7.2895776738042972e-01
833:7.0323335903545925e-01
834:6.6908809629427324e-01
835:6.4234325705314410e-01
836:7.2802699446835417e-01
837:7.0198826292337524e-01
838:6.6748775216985978e-01
839:6.4048036409874631e-01
840:7.1763704679756302e-01
841:6.9156368157875303e-01
842:6.5707828470069607e-01
843:6.3008597624716600e-01
844:7.0268014253330413e-01
845:6.7687440404971755e-01
846:6.4277406192993769e-01
847:6.1607138632512415e-01
848:6.2792711203030227e-01
849:6.0179413628147882e-01
850:5.6949355513111177e-01
851:5.4589278099137106e-01
852:6.2592262628707740e-01
853:5.9956974868183066e-01
854:5.6706136189026979e-01
855:5.4334344310168103e-01
856:6.1553037322431647e-01
857:5.8922939789215067e-01
858:5.5686901805567390e-01
859:5.3330300723416779e-01
860:6.0166241554455702e-01
861:5.7566364582131480e-01
862:5.4374051779420962e-01
863:5.2052578808594319e-01
864:5.3368481353327002e-01
865:5.1169612053232993e-01
866:4.8464858220882640e-01
867:4.6499275246643190e-01
868:5.3108340684482547e-01
869:5.0901739785877254e-01
870:4.8189913285918978e-01
871:4.6220302570888783e-01
872:5.2113172487546078e-01
873:4.9924620176913281e-01
874:4.7237930956522561e-01
875:4.5287761207680177e-01
876:5.0854308869137155e-01
877:4.8701211872172695e-01
878:4.6060149811977691e-01
879:4.4143788258828209e-01
880:4.5486381098404011e-01
881:4.3668913658940045e-01
882:4.1449493090015022e-01
883:3.9851268101198511e-01
884:4.5205565219251231e-01
885:4.3385961105520549e-01
886:4.1165956248810220e-01
887:3.9568469641403919e-01
888:4.4283233560635277e-01
889:4.2483463407882172e-01
890:4.0290291351500823e-01
891:3.8713574250376498e-01
892:4.3156731616422750e-01
893:4.1389447757269665e-01
894:3.9237902405282393e-01
895:3.7692201879295650e-01
896:3.9032801493992686e-01
897:3.7562623523461830e-01
898:3.5763226819006899e-01
899:3.4465419157494981e-01
900:3.8750692304270928e-01
901:3.7282443762209960e-01
902:3.5486530970969865e-01
903:3.4191856535094484e-01
904:3.7906807434263712e-01
905:3.6459234693976544e-01
906:3.4690064239070478e-01
907:3.3415435597663923e-01
908:3.6901575255083968e-01
909:3.5483670483602103e-01
910:3.3751873737943466e-01
911:3.2504728847571102e-01
912:3.3800334308990099e-01
913:3.2604819565556309e-01
914:3.1140962920027088e-01
915:3.0085588151788267e-01
916:3.3528543846605952e-01
917:3.2336731409107139e-01
918:3.0878301025259519e-01
919:2.9827371805544323e-01
920:3.2762589381200752e-01
921:3.1590273862612933e-01
922:3.0156888374833563e-01
923:2.9124696206307116e-01
924:3.1866093093056541e-01
925:3.0719848249985848e-01
926:2.9319282748509268e-01
927:2.8311258139979079e-01
928:2.9545009435320951e-01
929:2.8571736630542971e-01
930:2.7377107770575837e-01
931:2.6514113989167165e-01
932:2.9289222698696171e-01
933:2.8320683380535233e-01
934:2.7132472083374476e-01
935:2.6274475837102740e-01
936:2.8596333893665832e-01
937:2.7645889813680330e-01
938:2.6480685193885056e-01
939:2.5639769743969065e-01
940:2.7795410914655733e-01
941:2.6867862066037690e-01
942:2.5731360282764459e-01
943:2.4911515310048216e-01
944:2.6071580322302540e-01
945:2.5273739308729842e-01
946:2.4292676962662962e-01
947:2.3582963702411824e-01
948:2.5834608811156706e-01
949:2.5041840237001295e-01
950:2.4067469411888834e-01
951:2.3362871194241766e-01
952:2.5208790551802346e-01
953:2.4432393938625349e-01
954:2.3478746693361671e-01
955:2.2789488649941678e-01
956:2.4491431648401119e-01
957:2.3734948033585201e-01
958:2.2806242227525694e-01
959:2.2135288908851014e-01
960:-6.9595150595320447e+00
961:-4.0613263748635191e+00
962:-1.6985770700532823e+00
963:-6.9981444549969063e-01
964:-7.1315444827316536e+00
965:-4.1603120081410161e+00
966:-1.7452914460887305e+00
967:-7.3171666649914813e-01
968:-7.3200194750551111e+00
969:-4.2711818125984591e+00
970:-1.8022761366534534e+00
971:-7.7558440238273219e-01
972:-7.4366543113310044e+00
973:-4.3422445600933131e+00
974:-1.8432287394379159e+00
975:-8.1123631984640965e-01
976:-3.8456835502346876e-01
977:5.8459036153153988e-02
978:4.3415240368097296e-01
979:5.9834530481146664e-01
980:-4.1512141436451078e-01
981:2.9552774568959723e-02
982:4.0709005400769321e-01
983:5.7199766663315244e-01
984:-4.5930034595604680e-01
985:-1.5201378572492361e-02
986:3.6281861434406559e-01
987:5.2809429795621199e-01
988:-4.9672400070413675e-01
989:-5.5065174743467483e-02
990:3.2193429973750165e-01
991:4.8710999423208695e-01
992:6.5100471008840322e-01
993:7.2093806202588973e-01
994:7.6773398931768844e-01
995:7.7385475370097578e-01
996:6.2473789239351829e-01
997:6.9495558226114407e-01
998:7.4224720556991919e-01
999:7.4862134427716331e-01
1000:5.8086959245164282e-01
1001:6.5148660787363200e-01
1002:6.9968175279407530e-01
1003:7.0671308542689337e-01
1004:5.3988234323204931e-01
1005:6.1086487295197311e-01
1006:6.5998612335951823e-01
1007:6.6779241663220323e-01
1008:7.6828033332606538e-01
1009:7.5355666569066382e-01
1010:7.2875798836691819e-01
1011:7.0576214020288808e-01
1012:7.4310388639699676e-01
1013:7.2864955206515325e-01
1014:7.0447683655581517e-01
1015:6.8207891959712708e-01
1016:7.0147755459400907e-01
1017:6.8777167657847249e-01
1018:6.6493642395782071e-01
1019:6.4371818013622673e-01
1020:6.6294117275599629e-01
1021:6.5012681201383604e-01
1022:6.2872748169439097e-01
1023:6.0872469886605940e-01
1024:6.9228310206026511e-01
1025:6.6672567050285703e-01
1026:6.3296402023861775e-01
1027:6.0651464473461769e-01
1028:6.6893768028369138e-01
1029:6.4404068696923511e-01
1030:6.1115524137832966e-01
1031:5.8535639965293806e-01
1032:6.3122954113643559e-01
1033:6.0757753512545043e-01
1034:5.7630733733196138e-01
1035:5.5169945284069366e-01
1036:5.9690019679106388e-01
1037:5.7449828342172404e-01
1038:5.4482934816904649e-01
1039:5.2139680803002642e-01
1040:5.9223527625423789e-01
1041:5.6649047537409514e-01
1042:5.3491463734415823e-01
1043:5.1196972465157775e-01
1044:5.7141039358699641e-01
1045:5.4630324887205828e-01
1046:5.1557422705910094e-01
1047:4.9327473827662555e-01
1048:5.3836399282869030e-01
1049:5.1440159465779312e-01
1050:4.8515457836814213e-01
1051:4.6396482065633571e-01
1052:5.0866375670621489e-01
1053:4.8581770877959851e-01
1054:4.5799367612574376e-01
1055:4.3785742910735664e-01
1056:5.0012984770395097e-01
1057:4.7886360499847264e-01
1058:4.5278830413993576e-01
1059:4.3387081018719825e-01
1060:4.8177352446621380e-01
1061:4.6112950805993991e-01
1062:4.3583430018020142e-01
1063:4.1748554468930527e-01
1064:4.5304099200525527e-01
1065:4.3344893382868710e-01
1066:4.0945935877673612e-01
1067:3.9205594080513345e-01
1068:4.2747864955451115e-01
1069:4.0887422614756330e-01
1070:3.8610225210887705e-01
1071:3.6957620407231240e-01
1072:4.2412694598388945e-01
1073:4.0668737313552400e-01
1074:3.8546692693308338e-01
1075:3.7022759083929707e-01
1076:4.0803358173644100e-01
1077:3.9112817144375989e-01
1078:3.7057781412773949e-01
1079:3.5582979135412218e-01
1080:3.8308759638375006e-01
1081:3.6706188994379141e-01
1082:3.4760612336717484e-01
1083:3.3365545092263543e-01
1084:3.6105565046228416e-01
1085:3.4584119548291231e-01
1086:3.2738923500201639e-01
1087:3.1416644653615178e-01
1088:3.6243402904782818e-01
1089:3.4846094739621314e-01
1090:3.3140051805893161e-01
1091:3.1911739163250802e-01
1092:3.4828977783853377e-01
1093:3.3477833678480401e-01
1094:3.1829231689161191e-01
1095:3.0642756930586496e-01
1096:3.2652548171434598e-01
1097:3.1375780730252212e-01
1098:2.9819259539532295e-01
1099:2.8699576635020296e-01
1100:3.0740986054619757e-01
1101:2.9531771588786626e-01
1102:2.8058595064554703e-01
1103:2.6999193367614377e-01
1104:3.1282811722212939e-01
1105:3.0154297821231435e-01
1106:2.8775917805927737e-01
1107:2.7784149514111917e-01
1108:3.0035350095865904e-01
1109:2.8946021982250625e-01
1110:2.7616469686135131e-01
1111:2.6660356462584628e-01
1112:2.8126445394174726e-01
1113:2.7099324230825772e-01
1114:2.5846933332596927e-01
1115:2.4946946815884405e-01
1116:2.6456944927492176e-01
1117:2.5485739536331831e-01
1118:2.4302472217376783e-01
1119:2.3452617253200755e-01
1120:2.7276697544373846e-01
1121:2.6364454240992130e-01
1122:2.5247050977542557e-01
1123:2.4441172014320384e-01
1124:2.6171281777739414e-01
1125:2.5292464881550386e-01
1126:2.4216639257337777e-01
1127:2.3441082433162871e-01
1128:2.4486736204642662e-01
1129:2.3660291200288466e-01
1130:2.2649389163827294e-01
1131:2.1921043529771658e-01
1132:2.3018143022030160e-01
1133:2.2238313982952262e-01
1134:2.1285063031060444e-01
1135:2.0598554100665181e-01
1136:2.4028294482383150e-01
1137:2.3284947095030650e-01
1138:2.2372637298239662e-01
1139:2.1713682284695629e-01
1140:2.3043826186171321e-01
1141:2.2328905895651677e-01
1142:2.1451987824247534e-01
1143:2.0818870257591313e-01
1144:2.1548068596365177e-01
1145:2.0877249551158469e-01
1146:2.0055080211402268e-01
1147:1.9461820958277079e-01
1148:2.0247070367111755e-01
1149:1.9615228767801041e-01
1150:1.8841342160951194e-01
1151:1.8283159017958162e-01
1152:-7.4889280803300169e+00
1153:-4.3752568539111527e+00
1154:-1.8642022991376079e+00
1155:-8.3104776420633109e-01
1156:-7.5686567421307576e+00
1157:-4.4285765531844676e+00
1158:-1.9023344367289758e+00
1159:-8.6984004219574873e-01
1160:-7.6369469743531253e+00
1161:-4.4816992953611958e+00
1162:-1.9501918839851271e+00
1163:-9.2398620833853462e-01
1164:-7.6622676735561228e+00
1165:-4.5102414364358463e+00
1166:-1.9858566939841014e+00
1167:-9.6853111388497648e-01
1168:-5.1799749049653754e-01
1169:-7.8307124114056867e-02
1170:2.9769351405040612e-01
1171:4.6270194839116380e-01
1172:-5.6033915329075923e-01
1173:-1.2533700326132013e-01
1174:2.4817958533456166e-01
1175:4.1278893267109334e-01
1176:-6.2057361048877768e-01
1177:-1.9344858111020760e-01
1178:1.7579904486098022e-01
1179:3.3980560195440157e-01
1180:-6.7081210112362977e-01
1181:-2.5093689689923787e-01
1182:1.1436789784351091e-01
1183:2.7790682629308855e-01
1184:5.1547167700267649e-01
1185:5.8668424209986625e-01
1186:6.3639451842033579e-01
1187:6.4471639021061389e-01
1188:4.6560272635775024e-01
1189:5.3738106219657800e-01
1190:5.8842343023929600e-01
1191:5.9791989364571518e-01
1192:3.9280680525768408e-01
1193:4.6563533178104344e-01
1194:5.1890218165907609e-01
1195:5.3035629696400222e-01
1196:3.3117368297136729e-01
1197:4.0507973643078138e-01
1198:4.6045466603576529e-01
1199:4.7374997390297141e-01
1200:6.4013210904425621e-01
1201:6.2790894218967019e-01
1202:6.0742269225376311e-01
1203:5.8817832845478524e-01
1204:5.9395564479874097e-01
1205:5.8305699896737451e-01
1206:5.6454738990192088e-01
1207:5.4691739913347037e-01
1208:5.2744108339197504e-01
1209:5.1870008818822078e-01
1210:5.0328802436948417e-01
1211:4.8813634045895932e-01
1212:4.7182832801679170e-01
1213:4.6507761749528920e-01
1214:4.5244159832605296e-01
1215:4.3947452412558130e-01
1216:5.7676566631627102e-01
1217:5.5513414550564155e-01
1218:5.2644597508866631e-01
1219:5.0373152910065899e-01
1220:5.3637614661474120e-01
1221:5.1636566850371191e-01
1222:4.8972878142770271e-01
1223:4.6851102515814053e-01
1224:4.7892248245795416e-01
1225:4.6136479814688447e-01
1226:4.3780869133259337e-01
1227:4.1882856525111989e-01
1228:4.3142300029192743e-01
1229:4.1600178015417572e-01
1230:3.9511322047898267e-01
1231:3.7806322608324039e-01
1232:4.9136636860256250e-01
1233:4.6919826814653420e-01
1234:4.4223186311227930e-01
1235:4.2272692340554335e-01
1236:4.5691149585832314e-01
1237:4.3614699666839651e-01
1238:4.1094380886944804e-01
1239:3.9272974140279493e-01
1240:4.0837127057204942e-01
1241:3.8968709741349444e-01
1242:3.6707376483845361e-01
1243:3.5074207695374288e-01
1244:3.6858936350017196e-01
1245:3.5168660479980562e-01
1246:3.3127413463954342e-01
1247:3.1653196771057046e-01
1248:4.1267379955979122e-01
1249:3.9465783751556249e-01
1250:3.7260884417563284e-01
1251:3.5660242407776765e-01
1252:3.8334060889427451e-01
1253:3.6652139558690838e-01
1254:3.4593799113604584e-01
1255:3.3098239239770255e-01
1256:3.4231742749893695e-01
1257:3.2723074578694128e-01
1258:3.0876012044079526e-01
1259:2.9531445097771053e-01
1260:3.0891889041164522e-01
1261:2.9528590698526008e-01
1262:2.7858158197765120e-01
1263:2.6639457189877008e-01
1264:3.4834673432415830e-01
1265:3.3361114552460891e-01
1266:3.1575001928468327e-01
1267:3.0295462763317488e-01
1268:3.2326168364830976e-01
1269:3.0949178723400528e-01
1270:2.9281941067074496e-01
1271:2.8088214591825300e-01
1272:2.8836119093825929e-01
1273:2.7597388511853027e-01
1274:2.6099859222475169e-01
1275:2.5028319350443828e-01
1276:2.6008008294735790e-01
1277:2.4884168990103367e-01
1278:2.3527335428380208e-01
1279:2.2556874195794704e-01
1280:2.9641698733574257e-01
1281:2.8472043895429089e-01
1282:2.7047587831592890e-01
1283:2.6023371325662781e-01
1284:2.7478354915473474e-01
1285:2.6387929262834559e-01
1286:2.5060883459841377e-01
1287:2.4106909970213203e-01
1288:2.4480872379340404e-01
1289:2.3502884954301961e-01
1290:2.2313750167597798e-01
1291:2.1459011832232863e-01
1292:2.2060987581883601e-01
1293:2.1175745188419973e-01
1294:2.0100116147407368e-01
1295:1.9326885845789959e-01
1296:2.5499132601634217e-01
1297:2.4560493182992912e-01
1298:2.3417409535294378e-01
1299:2.2596649321999843e-01
1300:2.3618592929259244e-01
1301:2.2744833843125092e-01
1302:2.1681674158160061e-01
1303:2.0918695055282771e-01
1304:2.1021376208933173e-01
1305:2.0239018425491404e-01
1306:1.9288210305282633e-01
1307:1.8606295382270419e-01
1308:1.8930825645471205e-01
1309:1.8223350421608178e-01
1310:1.7364419559953129e-01
1311:1.6748683472019771e-01
1312:2.2177097008061841e-01
1313:2.1424271509623630e-01
1314:2.0504375358667362e-01
1315:1.9842045444512726e-01
1316:2.0528750281841529e-01
1317:1.9829461802158643e-01
1318:1.8975619454670983e-01
1319:1.8361120254697405e-01
1320:1.8257838768904802e-01
1321:1.7633487036183673e-01
1322:1.6871951343692396e-01
1323:1.6324187226750186e-01
1324:1.6434061358802390e-01
1325:1.5870758934306764e-01
1326:1.5184307209428188e-01
1327:1.4690743564443293e-01
1328:1.9502974262758760e-01
1329:1.8893627006992519e-01
1330:1.8147572689627253e-01
1331:1.7609586758974793e-01
1332:1.8046586333771206e-01
1333:1.7481675741836294e-01
1334:1.6790566513855723e-01
1335:1.6292445555851642e-01
1336:1.6043853136468561e-01
1337:1.5540817936571347e-01
1338:1.4926145509174510e-01
1339:1.4483469537849403e-01
1340:1.4438157600270518e-01
1341:1.3985278704360224e-01
1342:1.3432508403311025e-01
1343:1.3034719303740638e-01
1344:-7.6663412593078615e+00
1345:-4.5212967912968915e+00
1346:-2.0046350587629771e+00
1347:-9.9343049216637169e-01
1348:-7.6567513190644476e+00
1349:-4.5347183148019692e+00
1350:-2.0395999403934488e+00
1351:-1.0421423001379564e+00
1352:-7.6113523971078179e+00
1353:-4.5385963873699868e+00
1354:-2.0851763025363912e+00
1355:-1.1098536314767169e+00
1356:-7.5522524083900757e+00
1357:-4.5317807560334513e+00
1358:-2.1205276832699367e+00
1359:-1.1652183749438259e+00
1360:-6.9907457563658093e-01
1361:-2.8344033163548776e-01
1362:7.9569020828537729e-02
1363:2.4287685037141787e-01
1364:-7.5453810178830927e-01
1365:-3.4732117766083348e-01
1366:1.1210550175141391e-02
1367:1.7419568802288660e-01
1368:-8.3177971412807861e-01
1369:-4.3623605626065720e-01
1370:-8.3713639303668333e-02
1371:7.9135402205637431e-02
1372:-8.9489683128986008e-01
1373:-5.0867557273955100e-01
1374:-1.6076408219251509e-01
1375:2.2485105327880168e-03
1376:2.9633586542154172e-01
1377:3.7092289049501165e-01
1378:4.2757193844305164e-01
1379:4.4197213782477057e-01
1380:2.2813260174969258e-01
1381:3.0421706439789903e-01
1382:3.6353429018077876e-01
1383:3.8022175516687817e-01
1384:1.3394597943755898e-01
1385:2.1244035290521079e-01
1386:2.7579908284553611e-01
1387:2.9589322197424922e-01
1388:5.7934967399556371e-02
1389:1.3864618973652418e-01
1390:2.0554823766862723e-01
1391:2.2858310953310254e-01
1392:4.4064790691443589e-01
1393:4.3507760630319964e-01
1394:4.2406250725728672e-01
1395:4.1235896316856335e-01
1396:3.8013381365105092e-01
1397:3.7697823017328819e-01
1398:3.6923464185666321e-01
1399:3.6005947009143391e-01
1400:2.9764326321772105e-01
1401:2.9802546565710908e-01
1402:2.9499152703541609e-01
1403:2.8941389537914508e-01
1404:2.3191549830948596e-01
1405:2.3530643442613522e-01
1406:2.3621783723694101e-01
1407:2.3362240798609835e-01
1408:4.0497702194847307e-01
1409:3.9078286347008373e-01
1410:3.7142113040354197e-01
1411:3.5547331748235644e-01
1412:3.5401228884315172e-01
1413:3.4225705022471126e-01
1414:3.2591896527077369e-01
1415:3.1214738716033957e-01
1416:2.8525572439599828e-01
1417:2.7693840279463172e-01
1418:2.6484082258239966e-01
1419:2.5410826434718925e-01
1420:2.3102231889199326e-01
1421:2.2553050608289096e-01
1422:2.1690199123246004e-01
1423:2.0864569999429677e-01
1424:3.4656035029946786e-01
1425:3.3067035229731606e-01
1426:3.1150340069786853e-01
1427:2.9765730563306664e-01
1428:3.0433985356647281e-01
1429:2.9043888776740057e-01
1430:2.7370659620011883e-01
1431:2.6160554752852416e-01
1432:2.4784019685991190e-01
1433:2.3669536463356727e-01
1434:2.2331355665146763e-01
1435:2.1360055096131300e-01
1436:2.0362876277389785e-01
1437:1.9471332002027569e-01
1438:1.8402376367367104e-01
1439:1.7621892758571314e-01
1440:2.9050075272030634e-01
1441:2.7768414310881190e-01
1442:2.6196961952788062e-01
1443:2.5048670054821270e-01
1444:2.5533637013388460e-01
1445:2.4410468114148934e-01
1446:2.3030874004583660e-01
1447:2.2018873234974076e-01
1448:2.0854222909243864e-01
1449:1.9946989388613182e-01
1450:1.8828281943676137e-01
1451:1.8001297591172366e-01
1452:1.7212527402664876e-01
1453:1.6477100248479493e-01
1454:1.5565638185271125e-01
1455:1.4885433180778926e-01
1456:2.4452920327220123e-01
1457:2.3393231834782871e-01
1458:2.2114852985384817e-01
1459:2.1200684496432606e-01
1460:2.1492172774780266e-01
1461:2.0556472149317670e-01
1462:1.9429548913885555e-01
1463:1.8623917035740567e-01
1464:1.7568241917348670e-01
1465:1.6800514337110323e-01
1466:1.5878420346702271e-01
1467:1.5219298256285496e-01
1468:1.4526612076301487e-01
1469:1.3891902644814375e-01
1470:1.3131733371210211e-01
1471:1.2588214262845268e-01
1472:2.0733489640654018e-01
1473:1.9899807042911338e-01
1474:1.8887190079269769e-01
1475:1.8159148477616205e-01
1476:1.8211992669085095e-01
1477:1.7477527755324460e-01
1478:1.6585981907751629e-01
1479:1.5944643216675181e-01
1480:1.4881880521905094e-01
1481:1.4280959587140948e-01
1482:1.3552010866267333e-01
1483:1.3026872149702176e-01
1484:1.2309505775905030e-01
1485:1.1813659667152186e-01
1486:1.1212373345931984e-01
1487:1.0778285046200084e-01
1488:1.7786119002615616e-01
1489:1.7120093336045117e-01
1490:1.6311964090828232e-01
1491:1.5732783547066478e-01
1492:1.5615764491564366e-01
1493:1.5029141770126403e-01
1494:1.4318234137637106e-01
1495:1.3808949258662698e-01
1496:1.2757089196805085e-01
1497:1.2276628801503953e-01
1498:1.1695504460660339e-01
1499:1.1279391279228621e-01
1500:1.0554749329894228e-01
1501:1.0157273260528175e-01
1502:9.6774290258984139e-02
1503:9.3339117393563806e-02
1504:1.5436839164983510e-01
1505:1.4907216221920253e-01
1506:1.4262146578354698e-01
1507:1.3798426655181797e-01
1508:1.3548698594306635e-01
1509:1.3083409736110510e-01
1510:1.2517343150338639e-01
1511:1.2110573242946300e-01
1512:1.1066680577148388e-01
1513:1.0687032683459340e-01
1514:1.0226072290780898e-01
1515:9.8950395449038858e-02
1516:9.1582081974243626e-02
1517:8.8452004774700263e-02
1518:8.4659965123616177e-02
1519:8.1938654222915214e-02
1520:1.3561109695528731e-01
1521:1.3135814372582541e-01
1522:1.2617063813970586e-01
1523:1.2243932108547398e-01
1524:1.1902387503720753e-01
1525:1.1529700469722197e-01
1526:1.1075756208882317e-01
1527:1.0749498097481244e-01
1528:9.7255901094106520e-02
1529:9.4228376484731632e-02
1530:9.0549107309712204e-02
1531:8.7906813990351704e-02
1532:8.0545422347523515e-02
1533:7.8061756827405307e-02
1534:7.5050635787410128e-02
1535:7.2888920744752811e-02
1536:-7.5124486500310352e+00
1537:-4.5248912502529679e+00
1538:-2.1396349241286492e+00
1539:-1.1960030424817152e+00
1540:-7.4227950935928186e+00
1541:-4.5062183516235335e+00
1542:-2.1759008919634977e+00
1543:-1.2557397209743859e+00
1544:-7.2778739858406896e+00
1545:-4.4714403131340390e+00
1546:-2.2244037682837989e+00
1547:-1.3376402858552812e+00
1548:-7.1466771198408390e+00
1549:-4.4375831872722440e+00
1550:-2.2628717201857649e+00
1551:-1.4036218810777876e+00
1552:-9.2993434709666345e-01
1553:-5.4876135199417586e-01
1554:-2.0326915232601664e-01
1555:-4.0060309139880193e-02
1556:-9.9772845047849279e-01
1557:-6.2598921038965094e-01
1558:-2.8485683660395861e-01
1559:-1.2106166994940486e-01
1560:-1.0901580394934771e+00
1561:-7.3046349435708702e-01
1562:-3.9453431270112338e-01
1563:-2.2950996523472025e-01
1564:-1.1641228765646567e+00
1565:-8.1331681351628315e-01
1566:-4.8089884230842184e-01
1567:-3.1454469248930805e-01
1568:1.6169408934181534e-02
1569:9.8196807043985326e-02
1570:1.6714657393382207e-01
1571:1.9186466634865110e-01
1572:-6.3677535003762331e-02
1573:2.1044143048460136e-02
1574:9.4085866545352531e-02
1575:1.2213978416947989e-01
1576:-1.7035233176860151e-01
1577:-8.1676864502505775e-02
1578:-2.8159011098951242e-03
1579:2.9927809290601216e-02
1580:-2.5381909694443128e-01
1581:-1.6177377055031236e-01
1582:-7.8083561054954065e-02
1583:-4.1488739480431323e-02
1584:1.9610095582688725e-01
1585:2.0119863536490187e-01
1586:2.0432831404788668e-01
1587:2.0339884205147643e-01
1588:1.2816546997037401e-01
1589:1.3662439853047248e-01
1590:1.4409129171674398e-01
1591:1.4639980161881128e-01
1592:3.8464826819951038e-02
1593:5.1608560224670821e-02
1594:6.5061229659121228e-02
1595:7.1801108230417063e-02
1596:-3.0893482268196517e-02
1597:-1.3934077463920955e-02
1598:4.3501169124685272e-03
1599:1.4638834744926990e-02
1600:2.0166636082630246e-01
1601:1.9774436218433197e-01
1602:1.9103754709499227e-01
1603:1.8414944386672852e-01
1604:1.4634786178298334e-01
1605:1.4545828632366967e-01
1606:1.4245032686431017e-01
1607:1.3818735179553623e-01
1608:7.4037673281979063e-02
1609:7.7260467350612802e-02
1610:7.9240689999092631e-02
1611:7.8499990704809633e-02
1612:1.8699437734005286e-02
1613:2.5186523161451684e-02
1614:3.1103769574349124e-02
1615:3.3128336230400506e-02
1616:1.7982259901004707e-01
1617:1.7213313103120295e-01
1618:1.6291776116999626e-01
1619:1.5615394498264940e-01
1620:1.3518187762699493e-01
1621:1.2983273881685142e-01
1622:1.2342030091657577e-01
1623:1.1862992320091233e-01
1624:7.7261638332733210e-02
1625:7.5028412278694140e-02
1626:7.2326113403216277e-02
1627:7.0136563265282115e-02
1628:3.3272459622762297e-02
1629:3.3466418477337313e-02
1630:3.3637802316728076e-02
1631:3.3454007656452796e-02
1632:1.5258555024010925e-01
1633:1.4616612241447632e-01
1634:1.3817830023445232e-01
1635:1.3217374432430842e-01
1636:1.1605604077320612e-01
1637:1.1140700032574995e-01
1638:1.0555345996006087e-01
1639:1.0105903681601210e-01
1640:6.8871106145770411e-02
1641:6.6552663847548224e-02
1642:6.3510653973414960e-02
1643:6.1005456421191678e-02
1644:3.3195846649546452e-02
1645:3.2673004986704002e-02
1646:3.1799257826589281e-02
1647:3.0828609018503827e-02
1648:1.2898869823947157e-01
1649:1.2336350556784841e-01
1650:1.1663953813144766e-01
1651:1.1183015751463768e-01
1652:9.8637042903172836e-02
1653:9.4376775112489389e-02
1654:8.9309556695976594e-02
1655:8.5679266046104388e-02
1656:5.9588020578965437e-02
1657:5.7121747509214824e-02
1658:5.4226081797228355e-02
1659:5.2136621003724855e-02
1660:3.0185846975095500e-02
1661:2.9100664729194512e-02
1662:2.7871814963224897e-02
1663:2.6961215257578788e-02
1664:1.0936059078252010e-01
1665:1.0496985564714233e-01
1666:9.9645807317203738e-02
1667:9.5795567188318720e-02
1668:8.3807157610698901e-02
1669:8.0483382572615947e-02
1670:7.6451966776518832e-02
1671:7.3521556422407569e-02
1672:5.1043592021911076e-02
1673:4.9108303876875745e-02
1674:4.6754881964765370e-02
1675:4.5016441419605042e-02
1676:2.6462855598026667e-02
1677:2.5585037169358400e-02
1678:2.4505971184656718e-02
1679:2.3670853824317165e-02
1680:9.3809227185277816e-02
1681:9.0280964536255462e-02
1682:8.6026871556013407e-02
1683:8.2981469029358559e-02
1684:7.2001900903166050e-02
1685:6.9310363141609432e-02
1686:6.6076160931096473e-02
1687:6.3760768244785979e-02
1688:4.4101173428140968e-02
1689:4.2493542170628174e-02
1690:4.0580972554045504e-02
1691:3.9211668965270265e-02
1692:2.3213237481194825e-02
1693:2.2426853783251786e-02
1694:2.1516612094149793e-02
1695:2.0865372084201632e-02
1696:8.1423000634480686e-02
1697:7.8650421535983187e-02
1698:7.5296895638634065e-02
1699:7.2891477338970001e-02
1700:6.2574088012940274e-02
1701:6.0470783242841053e-02
1702:5.7937695597428056e-02
1703:5.6122575722064062e-02
1704:3.8506788700686863e-02
1705:3.7270519521433829e-02
1706:3.5798939905447753e-02
1707:3.4745793520394259e-02
1708:2.0526288539338459e-02
1709:1.9947983974064436e-02
1710:1.9280631713520471e-02
1711:1.8803204893011675e-02
1712:7.1659809983326925e-02
1713:6.9467807607560147e-02
1714:6.6814833827123152e-02
1715:6.4910441725980997e-02
1716:5.5192466780688530e-02
1717:5.3544426763460030e-02
1718:5.1559710155637997e-02
1719:5.0136662705555016e-02
1720:3.4204093297192727e-02
1721:3.3255428302419260e-02
1722:3.2129913676325915e-02
1723:3.1327939640504482e-02
1724:1.8554232471968947e-02
1725:1.8131384237249554e-02
1726:1.7651226370199474e-02
1727:1.7316941485971699e-02
1728:-7.0700389343931400e+00
1729:-4.4172188215224475e+00
1730:-2.2839164490747463e+00
1731:-1.4399334254188116e+00
1732:-6.9143344166691554e+00
1733:-4.3748616425581277e+00
1734:-2.3241230744854273e+00
1735:-1.5096440417614201e+00
1736:-6.6895252244730044e+00
1737:-4.3123244697927507e+00
1738:-2.3782085672003954e+00
1739:-1.6036188743004571e+00
1740:-6.5021313519376953e+00
1741:-4.2596164895521840e+00
1742:-2.4211794161717104e+00
1743:-1.6780098420312599e+00
1744:-1.2046256278421483e+00
1745:-8.5839088514111284e-01
1746:-5.2764579300026015e-01
1747:-3.6043933696828817e-01
1748:-1.2819807510887899e+00
1749:-9.4390730473375684e-01
1750:-6.1590933246665036e-01
1751:-4.4687466796764358e-01
1752:-1.3853920617164488e+00
1753:-1.0570130049603870e+00
1754:-7.3175035265366484e-01
1755:-5.5987934048989241e-01
1756:-1.4665241625044199e+00
1757:-1.1447369459926973e+00
1758:-8.2084900004141992e-01
1759:-6.4644884049306683e-01
1760:-2.9880506604732604e-01
1761:-2.0484626574767148e-01
1762:-1.1845574711403549e-01
1763:-7.9720978436029766e-02
1764:-3.8343050762033865e-01
1765:-2.8572222099597966e-01
1766:-1.9410096277167865e-01
1767:-1.5123334013260631e-01
1768:-4.9388257175897993e-01
1769:-3.9099613919310722e-01
1770:-2.9225494309333766e-01
1771:-2.4377934297067472e-01
1772:-5.7835655585135659e-01
1773:-4.7129451719535276e-01
1774:-3.6688007697351488e-01
1775:-3.1394528522222315e-01
1776:-6.7983317024862752e-02
1777:-4.8913802488234813e-02
1778:-2.7972366471461507e-02
1779:-1.5741686576535768e-02
1780:-1.3728708164086578e-01
1781:-1.1414559137394466e-01
1782:-8.8098288173860589e-02
1783:-7.2156701406189114e-02
1784:-2.2683009385294819e-01
1785:-1.9816630697989210e-01
1786:-1.6523836630590530e-01
1787:-1.4433789587276161e-01
1788:-2.9460295521733715e-01
1789:-2.6155034794841114e-01
1790:-2.2318922073904068e-01
1791:-1.9840614868194290e-01
1792:-1.0686145248456732e-02
1793:-2.4236434819772893e-03
1794:5.6264032838387540e-03
1795:9.1434751261417757e-03
1796:-6.5208400716419090e-02
1797:-5.3583081729934680e-02
1798:-4.1514790871423887e-02
1799:-3.5196756376430889e-02
1800:-1.3487783072451098e-01
1801:-1.1882067337869978e-01
1802:-1.0150222996627450e-01
1803:-9.1548175499000642e-02
1804:-1.8699326510132749e-01
1805:-1.6751475401988897e-01
1806:-1.4618001247372825e-01
1807:-1.3346450198080953e-01
1808:1.0031996271219257e-02
1809:1.1529371329207313e-02
1810:1.3238493401050971e-02
1811:1.4125100013679982e-02
1812:-3.2913683815404535e-02
1813:-2.8977980923650577e-02
1814:-2.4396872002700742e-02
1815:-2.1512841740977180e-02
1816:-8.7460108976912990e-02
1817:-8.0373708120906939e-02
1818:-7.2087375521809813e-02
1819:-6.6627332676701734e-02
1820:-1.2801032456964695e-01
1821:-1.1854250141088957e-01
1822:-1.0745798517736359e-01
1823:-1.0005160810663614e-01
1824:1.4403926600139172e-02
1825:1.4838969032746221e-02
1826:1.5122865112953687e-02
1827:1.4971718238608505e-02
1828:-2.0231876290288053e-02
1829:-1.8006581368397966e-02
1830:-1.5556974230896112e-02
1831:-1.4176426394065560e-02
1832:-6.4052956643605496e-02
1833:-5.9511540483046813e-02
1834:-5.4255843998423918e-02
1835:-5.0893818795977076e-02
1836:-9.6498688529882137e-02
1837:-9.0200665913629727e-02
1838:-8.2813555099314790e-02
1839:-7.7948867781018172e-02
1840:1.4742536397604285e-02
1841:1.4393678917210891e-02
1842:1.4051516461173787e-02
1843:1.3766613408484655e-02
1844:-1.3634093764312476e-02
1845:-1.2613816849744171e-02
1846:-1.1313543251680973e-02
1847:-1.0441983844855276e-02
1848:-4.9356623443285043e-02
1849:-4.6580980923499216e-02
1850:-4.3189746337575004e-02
1851:-4.0852386602685128e-02
1852:-7.5659716617274150e-02
1853:-7.1565903674390072e-02
1854:-6.6617702874489468e-02
1855:-6.3195313359029004e-02
1856:1.3583402312817905e-02
1857:1.3265204891331893e-02
1858:1.2859288753153899e-02
1859:1.2500619118816307e-02
1860:-1.0042920398497350e-02
1861:-9.3266193564814602e-03
1862:-8.4874890599276592e-03
1863:-7.9648117869234036e-03
1864:-3.9716016368475805e-02
1865:-3.7687423606042637e-02
1866:-3.5264859095527880e-02
1867:-3.3619146508425020e-02
1868:-6.1514143104919310e-02
1869:-5.8513220984525723e-02
1870:-5.4912323468575976e-02
1871:-5.2427718122686297e-02
1872:1.2284233044070546e-02
1873:1.1930985466533631e-02
1874:1.1549859549089559e-02
1875:1.1277938312103272e-02
1876:-7.7350020746901000e-03
1877:-7.2867379357298796e-03
1878:-6.6888241048777327e-03
1879:-6.2597421280733466e-03
1880:-3.2820302414259227e-02
1881:-3.1349635529394272e-02
1882:-2.9504349941896720e-02
1883:-2.8184975649475991e-02
1884:-5.1202972347756524e-02
1885:-4.8967300434853644e-02
1886:-4.6190870661668416e-02
1887:-4.4209909522148996e-02
1888:1.1132137948024546e-02
1889:1.0901300406489215e-02
1890:1.0658101800430435e-02
1891:1.0483772181689152e-02
1892:-6.0489121481740286e-03
1893:-5.6399603096268193e-03
1894:-5.1033406553646892e-03
1895:-4.7200072772717117e-03
1896:-2.7522758482615789e-02
1897:-2.6306951699872183e-02
1898:-2.4789358664382092e-02
1899:-2.3703507634632751e-02
1900:-4.3213728150153848e-02
1901:-4.1403347294212779e-02
1902:-3.9164932712176637e-02
1903:-3.7562176036557281e-02
1904:1.0388676951303013e-02
1905:1.0241773182761678e-02
1906:1.0099884708647013e-02
1907:1.0010880736369307e-02
1908:-4.5314546580298189e-03
1909:-4.1689138936905068e-03
1910:-3.6867937567644170e-03
1911:-3.3254990524698652e-03
1912:-2.3156372085572939e-02
1913:-2.2147177019389133e-02
1914:-2.0872331538179419e-02
1915:-1.9942557815114989e-02
1916:-3.6750209370384007e-02
1917:-3.5260703262499943e-02
1918:-3.3395093329792756e-02
1919:-3.2043321535272049e-02
1920:-6.3973778685877702e+00
1921:-4.2300558571285221e+00
1922:-2.4446614557179349e+00
1923:-1.7184652205898470e+00
1924:-6.1923262632325065e+00
1925:-4.1718461271244829e+00
1926:-2.4893461818418530e+00
1927:-1.7952528414083313e+00
1928:-5.9098158737423461e+00
1929:-4.0912768057277615e+00
1930:-2.5489398581590494e+00
1931:-1.8969706263844277e+00
1932:-5.6832941480535109e+00
1933:-4.0267070874171873e+00
1934:-2.5957648761930474e+00
1935:-1.9760521617099283e+00
1936:-1.5103744404788353e+00
1937:-1.1917736129229635e+00
1938:-8.6834672363723675e-01
1939:-6.9247469688814622e-01
1940:-1.5931189474141005e+00
1941:-1.2798642453906350e+00
1942:-9.5684643947846038e-01
1943:-7.7805698760436481e-01
1944:-1.7017238044007130e+00
1945:-1.3941185950211590e+00
1946:-1.0707144509855109e+00
1947:-8.8784755652422320e-01
1948:-1.7853459805358003e+00
1949:-1.4809820431720926e+00
1950:-1.1565436713282184e+00
1951:-9.7036126824018809e-01
1952:-6.2322103833473952e-01
1953:-5.1386827649641176e-01
1954:-4.0636112923138129e-01
1955:-3.5099644292737930e-01
1956:-7.0658727271932897e-01
1957:-5.9289199185969865e-01
1958:-4.7952939654864418e-01
1959:-4.1954300806652162e-01
1960:-8.1344640507365629e-01
1961:-6.9404533593002793e-01
1962:-5.7297064246983243e-01
1963:-5.0683472117399531e-01
1964:-8.9370365108680860e-01
1965:-7.6992713411697622e-01
1966:-6.4289895802496277e-01
1967:-5.7195282418432181e-01
1968:-3.3034764079895335e-01
1969:-2.9490300371212197e-01
1970:-2.5359341383384082e-01
1971:-2.2671588538946358e-01
1972:-3.9639665501875571e-01
1973:-3.5637975047498555e-01
1974:-3.0945915029821858e-01
1975:-2.7863094680545825e-01
1976:-4.8033511628788000e-01
1977:-4.3418683436270228e-01
1978:-3.7980623559323312e-01
1979:-3.4380723393965379e-01
1980:-5.4280398440487643e-01
1981:-4.9182456507087058e-01
1982:-4.3162925656057732e-01
1983:-3.9167219848519835e-01
1984:-2.1425492015370379e-01
1985:-1.9294955606129971e-01
1986:-1.6948421224989138e-01
1987:-1.5531098962833220e-01
1988:-2.6421028783924944e-01
1989:-2.3951725545666053e-01
1990:-2.1213257900234184e-01
1991:-1.9528297825715477e-01
1992:-3.2686027752778735e-01
1993:-2.9785569059637224e-01
1994:-2.6554156710582549e-01
1995:-2.4533086611616473e-01
1996:-3.7282436044923756e-01
1997:-3.4061685405313830e-01
1998:-3.0468205918310998e-01
1999:-2.8200314713665137e-01
2000:-1.4913716736537314e-01
2001:-1.3841500964648210e-01
2002:-1.2585615460805649e-01
2003:-1.1742351205959417e-01
2004:-1.8778390391394975e-01
2005:-1.7473885747487169e-01
2006:-1.5943516638454192e-01
2007:-1.4909079317387572e-01
2008:-2.3615701134053615e-01
2009:-2.2014647714506785e-01
2010:-2.0130435330766436e-01
2011:-1.8849114952378412e-01
2012:-2.7158996916775185e-01
2013:-2.5336019918506342e-01
2014:-2.3184097903720560e-01
2015:-2.1715453159118459e-01
2016:-1.1335420631425687e-01
2017:-1.0612811370092690e-01
2018:-9.7614344044295559e-02
2019:-9.1956349480445843e-02
2020:-1.4406216569790417e-01
2021:-1.3511856342241588e-01
2022:-1.2452952791259403e-01
2023:-1.1741523366433797e-01
2024:-1.8222880606113359e-01
2025:-1.7109387428237641e-01
2026:-1.5788436988285048e-01
2027:-1.4894612935002854e-01
2028:-2.0995949828449809e-01
2029:-1.9718376591870049e-01
2030:-1.8203870478877290e-01
2031:-1.7176914651603248e-01
2032:-8.9271081288467447e-02
2033:-8.4486030385738362e-02
2034:-7.8726319369372966e-02
2035:-7.4740893484381829e-02
2036:-1.1400398346538790e-01
2037:-1.0795504126328717e-01
2038:-1.0071484974051463e-01
2039:-9.5702284645328345e-02
2040:-1.4462927814631785e-01
2041:-1.3700710610537528e-01
2042:-1.2792465824013638e-01
2043:-1.2162925168421385e-01
2044:-1.6679548061931387e-01
2045:-1.5803315835775159e-01
2046:-1.4761157806942668e-01
2047:-1.4037638549663606e-01
2048:-7.2777410433593273e-02
2049:-6.9271304595274072e-02
2050:-6.5055761513607410e-02
2051:-6.2132160127847370e-02
2052:-9.3222859361956012e-02
2053:-8.8789100644859328e-02
2054:-8.3440392120760126e-02
2055:-7.9708068117761460e-02
2056:-1.1850204987014806e-01
2057:-1.1289542974714542e-01
2058:-1.0610759450358348e-01
2059:-1.0135194981849829e-01
2060:-1.3677083287381622e-01
2061:-1.3029261775034412e-01
2062:-1.2243262473001643e-01
2063:-1.1691926904666541e-01
2064:-6.0684215649506858e-02
2065:-5.8048042269125119e-02
2066:-5.4785369757983357e-02
2067:-5.2460128347847461e-02
2068:-7.7850458795369767e-02
2069:-7.4483682468983153e-02
2070:-7.0338964396100712e-02
2071:-6.7389460561186207e-02
2072:-9.8980002170707404e-02
2073:-9.4705620377443012e-02
2074:-8.9475436194642488e-02
2075:-8.5757686866669749e-02
2076:-1.1417019818160902e-01
2077:-1.0923797240696111e-01
2078:-1.0322903099373727e-01
2079:-9.8959978244070532e-02
2080:-5.1290656280693271e-02
2081:-4.9172440062523456e-02
2082:-4.6561427245685343e-02
2083:-4.4691316267132408e-02
2084:-6.5904781369528945e-02
2085:-6.3224032266846086e-02
2086:-5.9929785038993356e-02
2087:-5.7570148560143503e-02
2088:-8.3882649278742241e-02
2089:-8.0498747147679420e-02
2090:-7.6343980313824597e-02
2091:-7.3368590985355184e-02
2092:-9.6802785052491444e-02
2093:-9.2904982400101754e-02
2094:-8.8115181710616955e-02
2095:-8.4685233160817067e-02
2096:-4.3742095701146955e-02
2097:-4.2002622890044541e-02
2098:-3.9828495266904441e-02
2099:-3.8256449044390649e-02
2100:-5.6370571582959106e-02
2101:-5.4176000971063086e-02
2102:-5.1439454382001676e-02
2103:-4.9463379498826017e-02
2104:-7.1856068566246822e-02
2105:-6.9095730203219310e-02
2106:-6.5660674930973051e-02
2107:-6.3178749519239935e-02
2108:-8.2943013160510420e-02
2109:-7.9770596086121817e-02
2110:-7.5828987657847069e-02
2111:-7.2978289001637414e-02
2112:-5.5594673611527137e+00
2113:-3.9914872750241335e+00
2114:-2.6211386243053894e+00
2115:-2.0185435401239267e+00
2116:-5.3216107065905840e+00
2117:-3.9237126537165299e+00
2118:-2.6690630856849844e+00
2119:-2.0983760367283519e+00
2120:-5.0015510735092805e+00
2121:-3.8324995541681504e+00
2122:-2.7322623484181117e+00
2123:-2.2025603337819168e+00
2124:-4.7497718410877932e+00
2125:-3.7609907949375083e+00
2126:-2.7813584726305716e+00
2127:-2.2823722070559818e+00
2128:-1.8299802884535399e+00
2129:-1.5269411078611421e+00
2130:-1.2016864432098429e+00
2131:-1.0136791933097158e+00
2132:-1.9133066573020980e+00
2133:-1.6120198463870570e+00
2134:-1.2848181023869916e+00
2135:-1.0933694443058042e+00
2136:-2.0209239197188116e+00
2137:-1.7203865585043288e+00
2138:-1.3898338224814304e+00
2139:-1.1939518501436861e+00
2140:-2.1024235766495045e+00
2141:-1.8011911557179856e+00
2142:-1.4674389093426039e+00
2143:-1.2682691030307294e+00
2144:-9.3582397954285046e-01
2145:-8.0972672628614439e-01
2146:-6.7951777413709424e-01
2147:-6.0597364870625869e-01
2148:-1.0133303759924068e+00
2149:-8.8297997963473129e-01
2150:-7.4684748767322029e-01
2151:-6.6837562665827133e-01
2152:-1.1112582423478263e+00
2153:-9.7564425697520052e-01
2154:-8.3188890650372072e-01
2155:-7.4683457913462292e-01
2156:-1.1837450398772604e+00
2157:-1.0443799895138868e+00
2158:-8.9486761599852183e-01
2159:-8.0460227744835777e-01
2160:-5.7538332004265491e-01
2161:-5.2178152651105858e-01
2162:-4.5845657954225660e-01
2163:-4.1639857005379161e-01
2164:-6.3502045882446412e-01
2165:-5.7640307828952742e-01
2166:-5.0716352869486447e-01
2167:-4.6121863741517610e-01
2168:-7.0971191703886316e-01
2169:-6.4432251571655252e-01
2170:-5.6730954923204202e-01
2171:-5.1647813836744261e-01
2172:-7.6443058015717391e-01
2173:-6.9363793296284237e-01
2174:-6.1064494022854188e-01
2175:-5.5627323775861337e-01
2176:-3.9655500318469905e-01
2177:-3.6268480783165663e-01
2178:-3.2488404052598635e-01
2179:-3.0093094242499308e-01
2180:-4.3957166974288581e-01
2181:-4.0272689751525986e-01
2182:-3.6160157689213884e-01
2183:-3.3534246647629240e-01
2184:-4.9266135218582879e-01
2185:-4.5229206244361275e-01
2186:-4.0719566110512406e-01
2187:-3.7805612902582952e-01
2188:-5.3097933689960219e-01
2189:-4.8823641134344264e-01
2190:-4.4038432816057504e-01
2191:-4.0909789168412353e-01
2192:-2.8987333859329389e-01
2193:-2.7047901743532965e-01
2194:-2.4754328867126232e-01
2195:-2.3186425675715722e-01
2196:-3.2309277381535745e-01
2197:-3.0150683085147084e-01
2198:-2.7588245873886585e-01
2199:-2.5834177145339871e-01
2200:-3.6424885115061767e-01
2201:-3.3974385084707220e-01
2202:-3.1054056320545731e-01
2203:-2.9060366541911420e-01
2204:-3.9406392189706152e-01
2205:-3.6723958783094990e-01
2206:-3.3523819403961885e-01
2207:-3.1352072555913085e-01
2208:-2.2417687844125825e-01
2209:-2.1054274177078133e-01
2210:-1.9439717540745360e-01
2211:-1.8344574988062323e-01
2212:-2.4975068547325960e-01
2213:-2.3457855310501607e-01
2214:-2.1667690904769266e-01
2215:-2.0452478868084106e-01
2216:-2.8090180874444465e-01
2217:-2.6390872841213669e-01
2218:-2.4397838207996392e-01
2219:-2.3040630310330251e-01
2220:-3.0304463125854192e-01
2221:-2.8483014483691482e-01
2222:-2.6355665839686793e-01
2223:-2.4899582604721660e-01
2224:-1.7813690620272390e-01
2225:-1.6879121123061136e-01
2226:-1.5768043470719223e-01
2227:-1.4995819269217561e-01
2228:-1.9861450209495954e-01
2229:-1.8819589500122649e-01
2230:-1.7579091594152274e-01
2231:-1.6715610645409815e-01
2232:-2.2375194884623706e-01
2233:-2.1195433147358558e-01
2234:-1.9784442487597492e-01
2235:-1.8802447457304861e-01
2236:-2.4178988955948044e-01
2237:-2.2893537630727651e-01
2238:-2.1350169526967763e-01
2239:-2.0278503069713436e-01
2240:-1.4610353024962042e-01
2241:-1.3917074873390387e-01
2242:-1.3075229395645641e-01
2243:-1.2484633447087781e-01
2244:-1.6284225917033249e-01
2245:-1.5508848527111072e-01
2246:-1.4567913935660162e-01
2247:-1.3907749660892943e-01
2248:-1.8313451735019551e-01
2249:-1.7438543742808396e-01
2250:-1.6380783017220776e-01
2251:-1.5638262679997975e-01
2252:-1.9747802401763953e-01
2253:-1.8803390654302801e-01
2254:-1.7666179228937101e-01
2255:-1.6866927268114074e-01
2256:-1.2190306982861071e-01
2257:-1.1663423407292642e-01
2258:-1.1022900854098812e-01
2259:-1.0567930939260525e-01
2260:-1.3578677279529863e-01
2261:-1.2990803488342625e-01
2262:-1.2277653174342053e-01
2263:-1.1771232831637793e-01
2264:-1.5267103122550801e-01
2265:-1.4603609515824015e-01
2266:-1.3798661810750609e-01
2267:-1.3227306574679434e-01
2268:-1.6465840241326071e-01
2269:-1.5747211638615163e-01
2270:-1.4874108577744144e-01
2271:-1.4254739695138627e-01
2272:-1.0337786112993627e-01
2273:-9.9215442749667163e-02
2274:-9.4096498188914995e-02
2275:-9.0430686453277134e-02
2276:-1.1514818425426430e-01
2277:-1.1050662991212191e-01
2278:-1.0479415542295058e-01
2279:-1.0070268402657194e-01
2280:-1.2938187458089268e-01
2281:-1.2415045701467674e-01
2282:-1.1771315411624950e-01
2283:-1.1310092905030326e-01
2284:-1.3941828488287364e-01
2285:-1.3376287219995170e-01
2286:-1.2680883110997970e-01
2287:-1.2182429550481043e-01
2288:-8.8569624324881163e-02
2289:-8.5185212132942903e-02
2290:-8.0984103191533222e-02
2291:-7.7944105147300713e-02
2292:-9.8626454395106436e-02
2293:-9.4857737324800351e-02
2294:-9.0185186566113046e-02
2295:-8.6800196236887284e-02
2296:-1.1075972829107433e-01
2297:-1.0651680432141614e-01
2298:-1.0126112901094894e-01
2299:-9.7448146890513565e-02
2300:-1.1929219150586459e-01
2301:-1.1470743715453635e-01
2302:-1.0903157484629154e-01
2303:-1.0491013508837901e-01
2304:6.6373084821044880e-03
2305:6.2643015438507326e-03
2306:5.8185257674291833e-03
2307:5.5055311084415441e-03
2308:3.1707847335986757e-02
2309:2.9906815375210467e-02
2310:2.7765054034642273e-02
2311:2.6266044805928188e-02
2312:6.3522924181445978e-02
2313:5.9946988913870326e-02
2314:5.5691782410566874e-02
2315:5.2711046158388744e-02
2316:8.7111608205095850e-02
2317:8.2253006263659181e-02
2318:7.6465823652749135e-02
2319:7.2407698880334451e-02
2320:5.3481073239398467e-03
2321:5.0694497371711212e-03
2322:4.7361793985981953e-03
2323:4.5016102593534273e-03
2324:2.5512714281694278e-02
2325:2.4179478447848662e-02
2326:2.2585412299295195e-02
2327:2.1463809411501326e-02
2328:5.1212059770885304e-02
2329:4.8557726280442332e-02
2330:4.5381508730678248e-02
2331:4.3144797693132099e-02
2332:7.0365466660558290e-02
2333:6.6747340403009600e-02
2334:6.2414468371329766e-02
2335:5.9360704211232553e-02
2336:4.3832965049112544e-03
2337:4.1730201826106934e-03
2338:3.9200079611232813e-03
2339:3.7409096167651968e-03
2340:2.0898220583751178e-02
2341:1.9893261979594457e-02
2342:1.8684468313659695e-02
2343:1.7829044992199491e-02
2344:4.2016272276560698e-02
2345:4.0010199773585053e-02
2346:3.7595629858817647e-02
2347:3.5885713737812061e-02
2348:5.7819080390354084e-02
2349:5.5077565774577064e-02
2350:5.1775726950507313e-02
2351:4.9435900635828083e-02
2352:3.6502544819035049e-03
2353:3.4884547679516265e-03
2354:3.2924693338489738e-03
2355:3.1527851932245036e-03
2356:1.7396113139288794e-02
2357:1.6623546638907895e-02
2358:1.5687968657498563e-02
2359:1.5021300955018345e-02
2360:3.5019911144894153e-02
2361:3.3474307818278121e-02
2362:3.1601512229719284e-02
2363:3.0266209788364629e-02
2364:4.8250605543638948e-02
2365:4.6133916668010311e-02
2366:4.3567765596302037e-02
2367:4.1737052128216622e-02
2368:3.0817507761425667e-03
2369:2.9542755420419605e-03
2370:2.7985152478412303e-03
2371:2.6864818837068487e-03
2372:1.4682320476637029e-02
2373:1.4074086900314668e-02
2374:1.3331057242797048e-02
2375:1.2796738550010017e-02
2376:2.9586976093665319e-02
2377:2.8367803247660788e-02
2378:2.6877644365739802e-02
2379:2.5805461632668777e-02
2380:4.0805452924819588e-02
2381:3.9132774961746594e-02
2382:3.7087310479734500e-02
2383:3.5614813892943444e-02
2384:2.6291450801093209e-03
2385:2.5254505679915594e-03
2386:2.3971540721652645e-03
2387:2.3036442501929090e-03
2388:1.2523324196133230e-02
2389:1.2028936669217253e-02
2390:1.1417405260312838e-02
2391:1.0971783140084219e-02
2392:2.5256613063521349e-02
2393:2.4263855848727880e-02
2394:2.3035239683078759e-02
2395:2.2139473578761504e-02
2396:3.4860777899947584e-02
2397:3.3496465251745926e-02
2398:3.1807233067883536e-02
2399:3.0575036919051727e-02
2400:2.2553398884583181e-03
2401:2.1670009847380941e-03
2402:2.0557296521830299e-03
2403:1.9730845693131213e-03
2404:1.0741616937468565e-02
2405:1.0320749086824265e-02
2406:9.7907491300760815e-03
2407:9.3971990026276171e-03
2408:2.1676640083589941e-02
2409:2.0830044392311609e-02
2410:1.9763377698985087e-02
2411:1.8970918477989721e-02
2412:2.9938162976073924e-02
2413:2.8772872945815296e-02
2414:2.7304002490239510e-02
2415:2.6212228447037772e-02
2416:1.9298254828249810e-03
2417:1.8494715510705409e-03
2418:1.7457704860783226e-03
2419:1.6668233798508086e-03
2420:9.1912393431914166e-03
2421:8.8087447538586685e-03
2422:8.3152429728659896e-03
2423:7.9396184160551320e-03
2424:1.8556053972306044e-02
2425:1.7785347259520388e-02
2426:1.6790492503635526e-02
2427:1.6032914407334699e-02
2428:2.5640492355845129e-02
2429:2.4578062477345518e-02
2430:2.3206073476481823e-02
2431:2.2160885509658248e-02
2432:1.6248024811918447e-03
2433:1.5452365047909868e-03
2434:1.4395336014709562e-03
2435:1.3567477327938715e-03
2436:7.7397065913221447e-03
2437:7.3612230711709303e-03
2438:6.8585235457209182e-03
2439:6.4649163897209120e-03
2440:1.5629601406349052e-02
2441:1.4865813985259088e-02
2442:1.3850960481046094e-02
2443:1.3056064061420947e-02
2444:2.1604312593181400e-02
2445:2.0550039609263219e-02
2446:1.9148756180643964e-02
2447:1.8050851349287623e-02
2448:1.3118558208218131e-03
2449:1.2251105954881449e-03
2450:1.1064746106542117e-03
2451:1.0110425872337985e-03
2452:6.2515188069980779e-03
2453:5.8392441143847295e-03
2454:5.2754883943318294e-03
2455:4.8220059649155492e-03
2456:1.2625013288045007e-02
2457:1.1792088784146179e-02
2458:1.0652838892773070e-02
2459:9.7362270488221669e-03
2460:1.7455377408597969e-02
2461:1.6304563482439572e-02
2462:1.4730201975320290e-02
2463:1.3463293693154596e-02
2464:9.5841992959223973e-04
2465:8.5488356567178531e-04
2466:7.0965822264443365e-04
2467:5.9015189943966665e-04
2468:4.5719362147342620e-03
2469:4.0799193354093665e-03
2470:3.3899106640100734e-03
2471:2.8222881620942122e-03
2472:9.2307015124722894e-03
2473:8.2359831226930403e-03
2474:6.8408626954013698e-03
2475:5.6931449990601738e-03
2476:1.2764507030507114e-02
2477:1.1389435521293550e-02
2478:9.4607422576151873e-03
2479:7.8740023394147391e-03
2480:5.2333410689355941e-04
2481:3.9015646298550829e-04
2482:2.0033881570543039e-04
2483:4.2175802603166276e-05
2484:2.5050116311455622e-03
2485:1.8726073604011977e-03
2486:9.7035517693258187e-04
2487:2.1718985295652511e-04
2488:5.0516141953221251e-03
2489:3.7728554070003001e-03
2490:1.9482541790457296e-03
2491:4.2490948414657321e-04
2492:6.9870579311977956e-03
2493:5.2191400347247419e-03
2494:2.6966645468583833e-03
2495:5.9076030276406367e-04
2496:9.9340933771658674e-02
2497:9.3831693010535636e-02
2498:8.7265488432380509e-02
2499:8.2658091675334319e-02
2500:1.2114313384831780e-01
2501:1.1451989809309926e-01
2502:1.0661434197879405e-01
2503:1.0105840966736489e-01
2504:1.4716721918708298e-01
2505:1.3931465270219662e-01
2506:1.2991867576989657e-01
2507:1.2329782866244163e-01
2508:1.6518747222326938e-01
2509:1.5656964123258343e-01
2510:1.4623449756837975e-01
2511:1.3893402053432885e-01
2512:8.0338438032560189e-02
2513:7.6227564416088744e-02
2514:7.1302293043606815e-02
2515:6.7829246493978271e-02
2516:9.8258254532916617e-02
2517:9.3292040209393426e-02
2518:8.7334959104126281e-02
2519:8.3128995444183992e-02
2520:1.1995502138826578e-01
2521:1.1401864778824679e-01
2522:1.0688353808449459e-01
2523:1.0183497167373060e-01
2524:1.3524198325958317e-01
2525:1.2867753156926437e-01
2526:1.2077293293123464e-01
2527:1.1516881968109124e-01
2528:6.6075352982340158e-02
2529:6.2955592506779623e-02
2530:5.9196788405007680e-02
2531:5.6532049192690462e-02
2532:8.1003152995793706e-02
2533:7.7219427965138671e-02
2534:7.2656292923454074e-02
2535:6.9418007488370986e-02
2536:9.9279536375667582e-02
2537:9.4726334870166559e-02
2538:8.9226228647946521e-02
2539:8.5316170065389094e-02
2540:1.1232839503856015e-01
2541:1.0726244508300933e-01
2542:1.0113376335169619e-01
2543:9.6769848561811311e-02
2544:5.5181784717857910e-02
2545:5.2769991794867611e-02
2546:4.9845130265441302e-02
2547:4.7757782447984023e-02
2548:6.7775970203229605e-02
2549:6.4841440315596188e-02
2550:6.1279673810949592e-02
2551:5.8735527476271608e-02
2552:8.3331143474996081e-02
2553:7.9780364301620277e-02
2554:7.5464481083262439e-02
2555:7.2376986199009327e-02
2556:9.4552004424415040e-02
2557:9.0581417415412591e-02
2558:8.5748997738976138e-02
2559:8.2287198471670084e-02
2560:4.6695335854722922e-02
2561:4.4787364730537245e-02
2562:4.2453488845645482e-02
2563:4.0772844353744155e-02
2564:5.7439787639350107e-02
2565:5.5111720261446381e-02
2566:5.2261811809570229e-02
2567:5.0207910663288495e-02
2568:7.0802895351512893e-02
2569:6.7972328407013782e-02
2570:6.4502775379694469e-02
2571:6.1998855437686115e-02
2572:8.0520620676764701e-02
2573:7.7341490900720997e-02
2574:7.3440094331471750e-02
2575:7.0621005371435605e-02
2576:3.9912035670906169e-02
2577:3.8354255400249733e-02
2578:3.6424947099028306e-02
2579:3.5017219003620925e-02
2580:4.9155344977324177e-02
2581:4.7249644002207346e-02
2582:4.4887710066606704e-02
2583:4.3162994120098316e-02
2584:6.0714466134691218e-02
2585:5.8387145996873127e-02
2586:5.5499034116347060e-02
2587:5.3387331509020738e-02
2588:6.9173724414241189e-02
2589:6.6549319510619473e-02
2590:6.3288861106451627e-02
2591:6.0902101814238968e-02
2592:3.4289475477862451e-02
2593:3.2957689511938289e-02
2594:3.1278502551959027e-02
2595:3.0030065296951753e-02
2596:4.2270917636244888e-02
2597:4.0637635116312763e-02
2598:3.8576839439441110e-02
2599:3.7043571889453564e-02
2600:5.2294127677601797e-02
2601:5.0290994748172273e-02
2602:4.7760450395735607e-02
2603:4.5875341397190843e-02
2604:5.9665523405501401e-02
2605:5.7398048666452837e-02
2606:5.4530438824610651e-02
2607:5.2391868520650690e-02
2608:2.9376169688283247e-02
2609:2.8160869383775766e-02
2610:2.6591091927084677e-02
2611:2.5394945944197621e-02
2612:3.6240103211420023e-02
2613:3.4746150953788489e-02
2614:3.2815182009435846e-02
2615:3.1342873220437599e-02
2616:4.4886686393035363e-02
2617:4.3047000729631531e-02
2618:4.0666490540787761e-02
2619:3.8849431779702383e-02
2620:5.1269462550545229e-02
2621:4.9179483868462784e-02
2622:4.6472413394574183e-02
2623:4.4404089858058625e-02
2624:2.4757890107093127e-02
2625:2.3551005853335551e-02
2626:2.1946581267875631e-02
2627:2.0689297172064740e-02
2628:3.0558414832732105e-02
2629:2.9071734792892996e-02
2630:2.7094327882451051e-02
2631:2.5544019477310300e-02
2632:3.7880609969508400e-02
2633:3.6043368731763593e-02
2634:3.3597511004182956e-02
2635:3.1678359367832698e-02
2636:4.3300616855689776e-02
2637:4.1206867326144488e-02
2638:3.8417356660449979e-02
2639:3.6226985656563564e-02
2640:2.0007307774554263e-02
2641:1.8689184740120789e-02
2642:1.6885741126017491e-02
2643:1.5434351097429822e-02
2644:2.4702839241708012e-02
2645:2.3076649454721401e-02
2646:2.0851011217388585e-02
2647:1.9059359592545125e-02
2648:3.0636529479526237e-02
2649:2.8621606893659692e-02
2650:2.5862438865818908e-02
2651:2.3640254372989757e-02
2652:3.5037403322797735e-02
2653:3.2735902126972923e-02
2654:2.9582818181788054e-02
2655:2.7042351374799305e-02
2656:1.4633768009522945e-02
2657:1.3058340167923453e-02
2658:1.0848558140395684e-02
2659:9.0305227721222351e-03
2660:1.8070938726615329e-02
2661:1.6125695081279878e-02
2662:1.3396899063337126e-02
2663:1.1151678994635629e-02
2664:2.2413993393340170e-02
2665:2.0000273566100471e-02
2666:1.6613652298799443e-02
2667:1.3826785278665092e-02
2668:2.5640133136378800e-02
2669:2.2879683838766037e-02
2670:1.9005962476679964e-02
2671:1.5817881595948890e-02
2672:8.0142802849981817e-03
2673:5.9886754202161472e-03
2674:3.0986488456385330e-03
2675:6.8600798648157718e-04
2676:9.8966058769804424e-03
2677:7.3950453262773257e-03
2678:3.8262256867026001e-03
2679:8.4718416891226174e-04
2680:1.2268836982820830e-02
2681:9.1637471323084366e-03
2682:4.7343604073729799e-03
2683:1.0373881483373281e-03
2684:1.4035551616851683e-02
2685:1.0483404273710748e-02
2686:5.4167132889926415e-03
2687:1.1881885770821177e-03
2688:1.7407023057072432e-01
2689:1.6511002866773594e-01
2690:1.5434964586077710e-01
2691:1.4673764633896372e-01
2692:1.8906992502155315e-01
2693:1.7961155002782173e-01
2694:1.6822016090010475e-01
2695:1.6013678331312106e-01
2696:2.0529804463160972e-01
2697:1.9547412579159279e-01
2698:1.8358929528167284e-01
2699:1.7511516793759757e-01
2700:2.1516838735916680e-01
2701:2.0527964492202280e-01
2702:1.9326687004435969e-01
2703:1.8466387937070997e-01
2704:1.4288425854735717e-01
2705:1.3602802615985743e-01
2706:1.2776303099853917e-01
2707:1.2189652751141780e-01
2708:1.5603621679813925e-01
2709:1.4872920215014471e-01
2710:1.3990048482491260e-01
2711:1.3361836176143990e-01
2712:1.7080248996915987e-01
2713:1.6309961914548926e-01
2714:1.5375948635847667e-01
2715:1.4708819868959583e-01
2716:1.8027279574084051e-01
2717:1.7241327043732282e-01
2718:1.6285242193344160e-01
2719:1.5600008246251437e-01
2720:1.1892075918532012e-01
2721:1.1361034387403333e-01
2722:1.0718020793178649e-01
2723:1.0259729667491561e-01
2724:1.3042646432342017e-01
2725:1.2472338999844131e-01
2726:1.1780486080430724e-01
2727:1.1286397872352041e-01
2728:1.4368990928927602e-01
2729:1.3760664691874638e-01
2730:1.3020565289159555e-01
2731:1.2490398053066870e-01
2732:1.5250156513256949e-01
2733:1.4622829442691904e-01
2734:1.3857643073021339e-01
2735:1.3308002211780523e-01
2736:1.0026665770842176e-01
2737:9.6092064446814437e-02
2738:9.1007479023700169e-02
2739:8.7362073113407740e-02
2740:1.1034788671937737e-01
2741:1.0583638252756211e-01
2742:1.0033256793179068e-01
2743:9.6379804493330223e-02
2744:1.2219855771168006e-01
2745:1.1733975290153908e-01
2746:1.1139755948722319e-01
2747:1.0711871923536201e-01
2748:1.3027005040904349e-01
2749:1.2521622777311389e-01
2750:1.1902190675266364e-01
2751:1.1455110455418813e-01
2752:8.5500773835566146e-02
2753:8.2149683880691576e-02
2754:7.8034421109744179e-02
2755:7.5058622689916268e-02
2756:9.4359217349544611e-02
2757:9.0717882837892644e-02
2758:8.6239626079924359e-02
2759:8.2996313099215985e-02
2760:1.0492754707979636e-01
2761:1.0097302950692118e-01
2762:9.6098660278286979e-02
2763:9.2560079516096447e-02
2764:1.1225802218270473e-01
2765:1.0811422873658334e-01
2766:1.0299639854913831e-01
2767:9.9273301813047346e-02
2768:7.3530131623405076e-02
2769:7.0757281106803974e-02
2770:6.7310136615734983e-02
2771:6.4784987597623966e-02
2772:8.1328660233304997e-02
2773:7.8300595019201225e-02
2774:7.4530894979651846e-02
2775:7.1765427720763095e-02
2776:9.0737676162713013e-02
2777:8.7423988773560293e-02
2778:8.3289847576143869e-02
2779:8.0250250401771778e-02
2780:9.7353159886379229e-02
2781:9.3857455848655291e-02
2782:8.9488008103756206e-02
2783:8.6269127153506153e-02
2784:6.3476105343109573e-02
2785:6.1075049757847791e-02
2786:5.8036587485831868e-02
2787:5.5769148454283483e-02
2788:7.0330568402262289e-02
2789:6.7696068260599304e-02
2790:6.4357683471272881e-02
2791:6.1863014432295582e-02
2792:7.8670790786925876e-02
2793:7.5766832595191028e-02
2794:7.2079391893523928e-02
2795:6.9318126419988024e-02
2796:8.4594315279320570e-02
2797:8.1511373922346683e-02
2798:7.7589619469291743e-02
2799:7.4647568472723122e-02
2800:5.4578602908278824e-02
2801:5.2360884177797565e-02
2802:4.9486716783020385e-02
2803:4.7289502982575699e-02
2804:6.0551973619724260e-02
2805:5.8107764954422068e-02
2806:5.4936188311849127e-02
2807:5.2508729503479637e-02
2808:6.7864980724976959e-02
2809:6.5152398814419588e-02
2810:6.1626021262286126e-02
2811:5.8922128014201491e-02
2812:7.3097436889840106e-02
2813:7.0200631624715362e-02
2814:6.6428705190359108e-02
2815:6.3532038958218198e-02
2816:4.6116849637725270e-02
2817:4.3891131937182380e-02
2818:4.0924481706608028e-02
2819:3.8594064151631129e-02
2820:5.1212211308395587e-02
2821:4.8749722379829726e-02
2822:4.5464348687041675e-02
2823:4.2881297499848738e-02
2824:5.7476303626333644e-02
2825:5.4727398468224449e-02
2826:5.1054587894547428e-02
2827:4.8163088864530558e-02
2828:6.1981606034762084e-02
2829:5.9031202013712543e-02
2830:5.5084289100090167e-02
2831:5.1973476351754339e-02
2832:3.7328108456465642e-02
2833:3.4878352263188757e-02
2834:3.1521264037947715e-02
2835:2.8815808676100542e-02
2836:4.1477356384272787e-02
2837:3.8759400519872977e-02
2838:3.5032640328951370e-02
2839:3.2027786555476737e-02
2840:4.6590235739167783e-02
2841:4.3543263452056905e-02
2842:3.9361736673599802e-02
2843:3.5987694082140344e-02
2844:5.0280166101262180e-02
2845:4.6998000382719354e-02
2846:4.2490383861093030e-02
2847:3.8850923373636444e-02
2848:2.7322331328445471e-02
2849:2.4382003048658216e-02
2850:2.0255501944058021e-02
2851:1.6859163687039401e-02
2852:3.0368572671268784e-02
2853:2.7101399685575862e-02
2854:2.2515327324361126e-02
2855:1.8740202922834449e-02
2856:3.4123840092665524e-02
2857:3.0452772317456221e-02
2858:2.5298263553340951e-02
2859:2.1054305785908004e-02
2860:3.6839735512315126e-02
2861:3.2877628388368878e-02
2862:2.7313119260107030e-02
2863:2.2730762223533166e-02
2864:1.4960353070106439e-02
2865:1.1176154817247760e-02
2866:5.7787228744124799e-03
2867:1.2743859597861224e-03
2868:1.6629493562895777e-02
2869:1.2423180174490673e-02
2870:6.4242189929175613e-03
2871:1.4183697280752941e-03
2872:1.8681246488668896e-02
2873:1.3952400777784710e-02
2874:7.2090972875345390e-03
2875:1.5829481287176776e-03
2876:2.0168284726270587e-02
2877:1.5062270868781128e-02
2878:7.7819884928705075e-03
2879:1.7086108185429515e-03
2880:2.1951348191357092e-01
2881:2.0966527088067533e-01
2882:1.9767184523507339e-01
2883:1.8906008899563900e-01
2884:2.2590573891831797e-01
2885:2.1626417277662788e-01
2886:2.0446179235039724e-01
2887:1.9594115487510513e-01
2888:2.3083336397876023e-01
2889:2.2170761431450350e-01
2890:2.1044724206162199e-01
2891:2.0224980779670759e-01
2892:2.3204329780173336e-01
2893:2.2349408061709625e-01
2894:2.1286506196437588e-01
2895:2.0506651872394124e-01
2896:1.8465685239063759e-01
2897:1.7676558474366963e-01
2898:1.6714763535999055e-01
2899:1.6024034405063364e-01
2900:1.9156882414242951e-01
2901:1.8371252094124235e-01
2902:1.7409928260593419e-01
2903:1.6716651579400452e-01
2904:1.9802010962003377e-01
2905:1.9038981827111431e-01
2906:1.8099683129979671e-01
2907:1.7417995601186481e-01
2908:2.0102202199352345e-01
2909:1.9369893178476974e-01
2910:1.8463413665281284e-01
2911:1.7801743902485243e-01
2912:1.5670898718715964e-01
2913:1.5037049157225274e-01
2914:1.4262728298445332e-01
2915:1.3705628793373786e-01
2916:1.6361226688127242e-01
2917:1.5721960845719410e-01
2918:1.4938587370821835e-01
2919:1.4373114975378179e-01
2920:1.7067042014402356e-01
2921:1.6433866698898925e-01
2922:1.5654313305224310e-01
2923:1.5088812377601807e-01
2924:1.7459799273415677e-01
2925:1.6841150045648967e-01
2926:1.6076256559667737e-01
2927:1.5518930205113962e-01
2928:1.3420510004946923e-01
2929:1.2907281742645266e-01
2930:1.2277419619615947e-01
2931:1.1822190863632955e-01
2932:1.4083070072861292e-01
2933:1.3560073018293411e-01
2934:1.2916525497842005e-01
2935:1.2450108319655738e-01
2936:1.4797791607546040e-01
2937:1.4271678078322497e-01
2938:1.3621737868309058e-01
2939:1.3148729331155282e-01
2940:1.5231269526597302e-01
2941:1.4710030794548121e-01
2942:1.4063851681850839e-01
2943:1.3591852893855114e-01
2944:1.1588488494728873e-01
2945:1.1165849578334462e-01
2946:1.0643260433588082e-01
2947:1.0262627087829909e-01
2948:1.2210212304396803e-01
2949:1.1775702581053274e-01
2950:1.1237162476137963e-01
2951:1.0843936599702451e-01
2952:1.2904763600387406e-01
2953:1.2461866014311448e-01
2954:1.1910995517277587e-01
2955:1.1507284577284685e-01
2956:1.3347809654452311e-01
2957:1.2903872296050531e-01
2958:1.2349998266215036e-01
2959:1.1942778523818313e-01
2960:1.0066158981766360e-01
2961:9.7082244497986303e-02
2962:9.2603361680587942e-02
2963:8.9300136140223932e-02
2964:1.0640628797871600e-01
2965:1.0269692267044266e-01
2966:9.8044982010084228e-02
2967:9.4606217593945829e-02
2968:1.1298038567617570e-01
2969:1.0915440592999592e-01
2970:1.0434036532036384e-01
2971:1.0076967903307125e-01
2972:1.1731258320075209e-01
2973:1.1343770799782700e-01
2974:1.0854813651794457e-01
2975:1.0491076121541715e-01
2976:8.7580139737037224e-02
2977:8.4411848024694716e-02
2978:8.0377349291242892e-02
2979:7.7347568320031604e-02
2980:9.2812886078056808e-02
2981:8.9504873168237534e-02
2982:8.5283560719795329e-02
2983:8.2106769670584445e-02
2984:9.8903327777572658e-02
2985:9.5453503025959729e-02
2986:9.1037566102922143e-02
2987:8.7703994013509159e-02
2988:1.0300583683107767e-01
2989:9.9478431462920250e-02
2990:9.4951144954144279e-02
2991:9.1524442371728576e-02
2992:7.5750122187969365e-02
2993:7.2763020102100812e-02
2994:6.8869944094855376e-02
2995:6.5877590830738061e-02
2996:8.0429485840825557e-02
2997:7.7289077644428272e-02
2998:7.3188552712644572e-02
2999:7.0031079084246453e-02
3000:8.5940362371492274e-02
3001:8.2632105511705939e-02
3002:7.8300654382831819e-02
3003:7.4956652931596729e-02
3004:8.9708405473614722e-02
3005:8.6296415489468772e-02
3006:8.1818821580578419e-02
3007:7.8354361604835998e-02
3008:6.4275041463151508e-02
3009:6.1223928330370291e-02
3010:5.7139424895049293e-02
3011:5.3918101573956372e-02
3012:6.8338174032247789e-02
3013:6.5111744503041663e-02
3014:6.0786402683342747e-02
3015:5.7370709153549457e-02
3016:7.3160781970957170e-02
3017:6.9733057956119490e-02
3018:6.5128413949517100e-02
3019:6.1485353618512040e-02
3020:7.6491212899179636e-02
3021:7.2930655176581399e-02
3022:6.8139313309494798e-02
3023:6.4342607460392678e-02
3024:5.2163956868016892e-02
3025:4.8762798726440605e-02
3026:4.4089821295036635e-02
3027:4.0315504948137335e-02
3028:5.5509264452642863e-02
3029:5.1897749792593040e-02
3030:4.6931591019713406e-02
3031:4.2917594125145869e-02
3032:5.9497763578601114e-02
3033:5.5637954769995987e-02
3034:5.0323968164111825e-02
3035:4.6024407867514647e-02
3036:6.2269241761301289e-02
3037:5.8239768435392802e-02
3038:5.2686626399185421e-02
3039:4.8189718132063283e-02
3040:3.8229377721261039e-02
3041:3.4119146089196396e-02
3042:2.8345822789470874e-02
3043:2.3591030125466858e-02
3044:4.0698096557705385e-02
3045:3.6324029637265720e-02
3046:3.0178426185579359e-02
3047:2.5115999505476265e-02
3048:4.3645637097376427e-02
3049:3.8956050747254972e-02
3050:3.2364533270665380e-02
3051:2.6933195843606827e-02
3052:4.5700569426342090e-02
3053:4.0791966177438986e-02
3054:3.3890349087139587e-02
3055:2.8202115833609570e-02
3056:2.0932011891553526e-02
3057:1.5633815019677956e-02
3058:8.0800474181782402e-03
3059:1.7790054178638121e-03
3060:2.2284697415341545e-02
3061:1.6643616136158151e-02
3062:8.6021412709900782e-03
3063:1.8953167422005189e-03
3064:2.3895190660354736e-02
3065:1.7842882351734046e-02
3066:9.2169594210600760e-03
3067:2.0242889742019565e-03
3068:2.5020087818257975e-02
3069:1.8681384850300325e-02
3070:9.6488140770901211e-03
3071:2.1184509438622648e-03
3072:2.3180057581129065e-01
3073:2.2361912994473737e-01
3074:2.1339901194762825e-01
3075:2.0586400809440988e-01
3076:2.2984448227869023e-01
3077:2.2243758939565308e-01
3078:2.1308888853415178e-01
3079:2.0612379205947731e-01
3080:2.2446421272817066e-01
3081:2.1821811338408775e-01
3082:2.1019328730341397e-01
3083:2.0410834864602539e-01
3084:2.1825197754781306e-01
3085:2.1300152419499846e-01
3086:2.0612414099319004e-01
3087:2.0081156315437917e-01
3088:2.0194387836258781e-01
3089:1.9482992944429239e-01
3090:1.8599427775561797e-01
3091:1.7952231930502976e-01
3092:2.0247567921056300e-01
3093:1.9582356292225900e-01
3094:1.8750249105644737e-01
3095:1.8136269452266307e-01
3096:2.0088559152983551e-01
3097:1.9496299409782789e-01
3098:1.8746894929557295e-01
3099:1.8187460873738312e-01
3100:1.9796551227620751e-01
3101:1.9269364136512915e-01
3102:1.8594619624340619e-01
3103:1.8085147194827772e-01
3104:1.7617002065212517e-01
3105:1.7009479873478556e-01
3106:1.6256439569164774e-01
3107:1.5706301540077452e-01
3108:1.7816722647475905e-01
3109:1.7235590307779519e-01
3110:1.6511466571047029e-01
3111:1.5979563015077633e-01
3112:1.7894103949165835e-01
3113:1.7357666751269585e-01
3114:1.6683752025513049e-01
3115:1.6184552352029777e-01
3116:1.7816045329975044e-01
3117:1.7321371740372143e-01
3118:1.6695095116665917e-01
3119:1.6227522876211076e-01
3120:1.5421854096924004e-01
3121:1.4905732309091327e-01
3122:1.4264568416864717e-01
3123:1.3795220765700328e-01
3124:1.5703550606599267e-01
3125:1.5201322976389367e-01
3126:1.4574758290243864e-01
3127:1.4114066472184680e-01
3128:1.5924076534907150e-01
3129:1.5448077995529474e-01
3130:1.4850382291247799e-01
3131:1.4407975060965200e-01
3132:1.5982299655523582e-01
3133:1.5532392329685749e-01
3134:1.4964098943457985e-01
3135:1.4540899637377050e-01
3136:1.3552198558753056e-01
3137:1.3109591750950830e-01
3138:1.2556376426260410e-01
3139:1.2148877114276600e-01
3140:1.3874823511457582e-01
3141:1.3438038519241952e-01
3142:1.2890079925458001e-01
3143:1.2484910131366733e-01
3144:1.4177210022911935e-01
3145:1.3754360582308425e-01
3146:1.3220945480729521e-01
3147:1.2824285491704868e-01
3148:1.4319273106211136e-01
3149:1.3911829935796871e-01
3150:1.3395301231199863e-01
3151:1.3009259284318603e-01
3152:1.1936946156055071e-01
3153:1.1548279153882847e-01
3154:1.1057016428992034e-01
3155:1.0690942887054911e-01
3156:1.2273653969128115e-01
3157:1.1885359029023186e-01
3158:1.1392908537368213e-01
3159:1.1024689490550765e-01
3160:1.2616685896723756e-01
3161:1.2233848338433626e-01
3162:1.1745897345159405e-01
3163:1.1379203036157670e-01
3164:1.2806544577470513e-01
3165:1.2431623524892049e-01
3166:1.1951672535733075e-01
3167:1.1589407691506629e-01
3168:1.0499011218499141e-01
3169:1.0143240362209500e-01
3170:9.6859228119518692e-02
3171:9.3392532566183198e-02
3172:1.0831194545930532e-01
3173:1.0471782294962116e-01
3174:1.0008358868911925e-01
3175:9.6559892932923858e-02
3176:1.1185869904774116e-01
3177:1.0825669989329076e-01
3178:1.0359145701155749e-01
3179:1.0002852512389399e-01
3180:1.1397861561929935e-01
3181:1.1040055615112442e-01
3182:1.0574842275740602e-01
3183:1.0218210823531011e-01
3184:9.1553487438410533e-02
3185:8.8095127185927352e-02
3186:8.3550712226541521e-02
3187:8.0030147619811892e-02
3188:9.4686915627511456e-02
3189:9.1158334024703094e-02
3190:8.6509464962622129e-02
3191:8.2898996247235804e-02
3192:9.8129299636968675e-02
3193:9.4541890150751873e-02
3194:8.9797707382012704e-02
3195:8.6100098351106172e-02
3196:1.0027648046777785e-01
3197:9.6668970458453046e-02
3198:9.1883023554202414e-02
3199:8.8141714387216311e-02
3200:7.8135337028445925e-02
3201:7.4511726359381483e-02
3202:6.9630788595695783e-02
3203:6.5759677550217152e-02
3204:8.0952759824730353e-02
3205:7.7225606285794252e-02
3206:7.2195507556223781e-02
3207:6.8199139886170254e-02
3208:8.4102457500472336e-02
3209:8.0269275664091019e-02
3210:7.5081945558221078e-02
3211:7.0950522661999402e-02
3212:8.6116707694350314e-02
3213:8.2224581150061343e-02
3214:7.6945509000581114e-02
3215:7.2732452672178718e-02
3216:6.3644561502062019e-02
3217:5.9532176959942000e-02
3218:5.3861582825452982e-02
3219:4.9267361259188132e-02
3220:6.6013304530749370e-02
3221:6.1759806461856685e-02
3222:5.5888122090710542e-02
3223:5.1126490061330909e-02
3224:6.8687497249563398e-02
3225:6.4278528081367428e-02
3226:5.8182753531073821e-02
3227:5.3232864445347999e-02
3228:7.0421910740596505e-02
3229:6.5915927441832292e-02
3230:5.9678041354989213e-02
3231:5.4607258662534248e-02
3232:4.6723664943882248e-02
3233:4.1706688150347823e-02
3234:3.4651410339716249e-02
3235:2.8835747838445131e-02
3236:4.8488711364416202e-02
3237:4.3284534063279617e-02
3238:3.5963386354588830e-02
3239:2.9926974565444811e-02
3240:5.0488774700019043e-02
3241:4.5072470729207441e-02
3242:3.7449116603815190e-02
3243:3.1161223770691814e-02
3244:5.1794447930903410e-02
3245:4.6240500553397963e-02
3246:3.8420233118588630e-02
3247:3.1967988166065268e-02
3248:2.5582248151079959e-02
3249:1.9101472801252923e-02
3250:9.8673242285130004e-03
3251:2.1696996360865920e-03
3252:2.6549599771528647e-02
3253:1.9822685895527662e-02
3254:1.0239602496397340e-02
3255:2.2527148257689843e-03
3256:2.7642596469320317e-02
3257:2.0635232109591443e-02
3258:1.0655199453604207e-02
3259:2.3398165476464592e-03
3260:2.8356932200760309e-02
3261:2.1166245547281883e-02
3262:1.0927289478778654e-02
3263:2.3981360644675168e-03
3264:2.1423886464429995e-01
3265:2.0955205201135130e-01
3266:2.0332807555962679e-01
3267:1.9845835691169086e-01
3268:2.0567373879076536e-01
3269:2.0207198302187288e-01
3270:1.9711345159876101e-01
3271:1.9310724959258532e-01
3272:1.9260898681781505e-01
3273:1.9046290923164300e-01
3274:1.8721640423548103e-01
3275:1.8438943173300398e-01
3276:1.8122710886353890e-01
3277:1.8022077422580327e-01
3278:1.7832514240996278e-01
3279:1.7643656803240221e-01
3280:1.9582939652684586e-01
3281:1.9093396448317329e-01
3282:1.8462114743523250e-01
3283:1.7981946272631430e-01
3284:1.9090363380080505e-01
3285:1.8674853280539003e-01
3286:1.8129567808029287e-01
3287:1.7707784792857054e-01
3288:1.8277049568883388e-01
3289:1.7963826101263725e-01
3290:1.7538328426265415e-01
3291:1.7198626610385723e-01
3292:1.7528564897943488e-01
3293:1.7297591805104492e-01
3294:1.6969114876369013e-01
3295:1.6696433039833686e-01
3296:1.7727150685731893e-01
3297:1.7257219413721586e-01
3298:1.6659376203584109e-01
3299:1.6210853574196940e-01
3300:1.7481636869017073e-01
3301:1.7061452111089120e-01
3302:1.6521158285036461e-01
3303:1.6111493941242472e-01
3304:1.7013019410029248e-01
3305:1.6663602807321790e-01
3306:1.6205875500164241e-01
3307:1.5852510639938147e-01
3308:1.6544117357724908e-01
3309:1.6253073023755304e-01
3310:1.5863936833556949e-01
3311:1.5557724308331625e-01
3312:1.5974881552027004e-01
3313:1.5540893628705926e-01
3314:1.4990726335017862e-01
3315:1.4579524269506730e-01
3316:1.5894502441460537e-01
3317:1.5493337899315163e-01
3318:1.4980857827192379e-01
3319:1.4594854484749714e-01
3320:1.5663216775535471e-01
3321:1.5310239407830409e-01
3322:1.4853645289353071e-01
3323:1.4505458017544487e-01
3324:1.5391764893457371e-01
3325:1.5079580255779065e-01
3326:1.4670674207770962e-01
3327:1.4355058430173903e-01
3328:1.4363665642649712e-01
3329:1.3966042506961387e-01
3330:1.3460473968914902e-01
3331:1.3081494672832522e-01
3332:1.4391205816770550e-01
3333:1.4014522123755629e-01
3334:1.3532627898219171e-01
3335:1.3169159704074837e-01
3336:1.4320299405514661e-01
3337:1.3975586192212355e-01
3338:1.3530356907534408e-01
3339:1.3191342272315376e-01
3340:1.4185936699048082e-01
3341:1.3869122911804785e-01
3342:1.3456226609964667e-01
3343:1.3139053362727973e-01
3344:1.2882098746656970e-01
3345:1.2512681721169425e-01
3346:1.2038564885149618e-01
3347:1.1679789316039305e-01
3348:1.2977152895304028e-01
3349:1.2620167376087682e-01
3350:1.2159600099564033e-01
3351:1.1809263791955851e-01
3352:1.3011151070749458e-01
3353:1.2674332242988362e-01
3354:1.2236342398875359e-01
3355:1.1900591599900738e-01
3356:1.2969520910677307e-01
3357:1.2651072195420052e-01
3358:1.2234012201803762e-01
3359:1.1912093604041617e-01
3360:1.1489772346045346e-01
3361:1.1134283721270651e-01
3362:1.0671053612565491e-01
3363:1.0315174303046437e-01
3364:1.1623090255636752e-01
3365:1.1273720863457982e-01
3366:1.0816418698151571e-01
3367:1.0463568261219197e-01
3368:1.1721277665237576e-01
3369:1.1383252915465164e-01
3370:1.0937884756006962e-01
3371:1.0592074373172804e-01
3372:1.1739409485489395e-01
3373:1.1412583180211781e-01
3374:1.0979497359604043e-01
3375:1.0641394552968216e-01
3376:1.0124750440815211e-01
3377:9.7638044280647818e-02
3378:9.2840840612569447e-02
3379:8.9084382401969586e-02
3380:1.0274243222611305e-01
3381:9.9144701597907781e-02
3382:9.4345867194685115e-02
3383:9.0575529411528674e-02
3384:1.0405786620235791e-01
3385:1.0050493276250284e-01
3386:9.5741425181280551e-02
3387:9.1981005821933401e-02
3388:1.0458637361338392e-01
3389:1.0108992358527728e-01
3390:9.6381678598923326e-02
3391:9.2650001395695084e-02
3392:8.7049041988112419e-02
3393:8.3133399350021245e-02
3394:7.7815638590114200e-02
3395:7.3566856480188708e-02
3396:8.8528435113293211e-02
3397:8.4582928798445325e-02
3398:7.9211135386237239e-02
3399:7.4909566000246230e-02
3400:8.9933316198497606e-02
3401:8.5976415864390393e-02
3402:8.0570084905529235e-02
3403:7.6227303392419316e-02
3404:9.0612990922381856e-02
3405:8.6668209013690503e-02
3406:8.1262650021856397e-02
3407:7.6909273489334101e-02
3408:7.1235138560855421e-02
3409:6.6685350103306298e-02
3410:6.0382316666173941e-02
3411:5.5255476578695006e-02
3412:7.2545740836747752e-02
3413:6.7928335246833976e-02
3414:6.1522707046682633e-02
3415:5.6306281447695797e-02
3416:7.3836413752043098e-02
3417:6.9159152107024613e-02
3418:6.2657941935956210e-02
3419:5.7355058547693766e-02
3420:7.4508904939290840e-02
3421:6.9807331959028829e-02
3422:6.3261989001663813e-02
3423:5.7916013274143301e-02
3424:5.2410612220059605e-02
3425:4.6792247098841507e-02
3426:3.8879484367879850e-02
3427:3.2349836773076228e-02
3428:5.3409810122223587e-02
3429:4.7687301424637570e-02
3430:3.9624332854762398e-02
3431:3.2968589745985988e-02
3432:5.4407918421081926e-02
3433:4.8582189603395422e-02
3434:4.0368841315635159e-02
3435:3.3585963659295281e-02
3436:5.4942736023845425e-02
3437:4.9062780872154314e-02
3438:4.0768920936879380e-02
3439:3.3917090815919142e-02
3440:2.8695203811729884e-02
3441:2.1418166853931307e-02
3442:1.1057479894771486e-02
3443:2.4280328846553786e-03
3444:2.9242873818443628e-02
3445:2.1825156215691109e-02
3446:1.1266634875143323e-02
3447:2.4746305724234027e-03
3448:2.9788372286321609e-02
3449:2.2228775518754337e-02
3450:1.1471785866085309e-02
3451:2.5176572534769590e-03
3452:3.0080312649454276e-02
3453:2.2443705073778578e-02
3454:1.1579981916294235e-02
3455:2.5395803595849179e-03
3456:1.7471596995097011e-01
3457:1.7432207241522055e-01
3458:1.7315588812797109e-01
3459:1.7177672926648696e-01
3460:1.6196736289503502e-01
3461:1.6270361577361009e-01
3462:1.6289034135400335e-01
3463:1.6246118149879971e-01
3464:1.4441932440579472e-01
3465:1.4658353159795659e-01
3466:1.4849305753900924e-01
3467:1.4928372868009193e-01
3468:1.3033123179304834e-01
3469:1.3355086533629607e-01
3470:1.3674405474735182e-01
3471:1.3845133749119029e-01
3472:1.7088080553471827e-01
3473:1.6902047488973820e-01
3474:1.6626817192821847e-01
3475:1.6391099268588805e-01
3476:1.6204258314324893e-01
3477:1.6102597708931207e-01
3478:1.5927797882670650e-01
3479:1.5762151150293655e-01
3480:1.4948150071665711e-01
3481:1.4955923029274798e-01
3482:1.4912279423199043e-01
3483:1.4838818965370917e-01
3484:1.3911489117651818e-01
3485:1.4002324078116907e-01
3486:1.4058903216112523e-01
3487:1.4056392885119393e-01
3488:1.6257208818526606e-01
3489:1.5998556451319620e-01
3490:1.5647644118548595e-01
3491:1.5367834344348053e-01
3492:1.5663310762644464e-01
3493:1.5466445042004814e-01
3494:1.5188756517802474e-01
3495:1.4959766015915851e-01
3496:1.4786324250745675e-01
3497:1.4671479594373324e-01
3498:1.4491595253927805e-01
3499:1.4330943365035678e-01
3500:1.4039740933751249e-01
3501:1.3988568964404707e-01
3502:1.3885054888736353e-01
3503:1.3778104947101583e-01
3504:1.5214985885745883e-01
3505:1.4925785111556869e-01
3506:1.4543869866748482e-01
3507:1.4246786211320492e-01
3508:1.4832237723708888e-01
3509:1.4587545915196848e-01
3510:1.4258129926225946e-01
3511:1.3997272307030889e-01
3512:1.4237624999787385e-01
3513:1.4053300513429309e-01
3514:1.3795525815049592e-01
3515:1.3584441467171826e-01
3516:1.3711787837438461e-01
3517:1.3575279106117241e-01
3518:1.3374568250100263e-01
3519:1.3203375489457642e-01
3520:1.4086824319886668e-01
3521:1.3785999339846350e-01
3522:1.3391737426103451e-01
3523:1.3087237365473292e-01
3524:1.3855279956514444e-01
3525:1.3585918960969803e-01
3526:1.3228515757838363e-01
3527:1.2949233406065963e-01
3528:1.3467259043596522e-01
3529:1.3241521173023088e-01
3530:1.2935571097305135e-01
3531:1.2691769547254622e-01
3532:1.3106164506550955e-01
3533:1.2915672423295899e-01
3534:1.2651544672794124e-01
3535:1.2436780557183910e-01
3536:1.2923921583724687e-01
3537:1.2616240351882818e-01
3538:1.2211555859164919e-01
3539:1.1897906550600450e-01
3540:1.2798343138531321e-01
3541:1.2512274758765160e-01
3542:1.2132612936905990e-01
3543:1.1835833468983016e-01
3544:1.2558463429471584e-01
3545:1.2303147267185081e-01
3546:1.1959419420132628e-01
3547:1.1687135392661227e-01
3548:1.2317937226511773e-01
3549:1.2088030486370263e-01
3550:1.1774222578069955e-01
3551:1.1522520074816496e-01
3552:1.1729221339211082e-01
3553:1.1409214488202664e-01
3554:1.0983744553101764e-01
3555:1.0650541362097342e-01
3556:1.1675363585252280e-01
3557:1.1369470526214913e-01
3558:1.0959977679625751e-01
3559:1.0637238147351198e-01
3560:1.1538696548439863e-01
3561:1.1253655580977981e-01
3562:1.0868143133187744e-01
3563:1.0561427430323937e-01
3564:1.1384259691352751e-01
3565:1.1116982795620045e-01
3566:1.0752149430959844e-01
3567:1.0459460831107802e-01
3568:1.0470078787718869e-01
3569:1.0124206297783710e-01
3570:9.6573001280504167e-02
3571:9.2863964535811874e-02
3572:1.0461750898998444e-01
3573:1.0124206118304525e-01
3574:9.6662710346795952e-02
3575:9.3008511257069257e-02
3576:1.0393686080077620e-01
3577:1.0069352049712539e-01
3578:9.6261726251873847e-02
3579:9.2702444805700362e-02
3580:1.0298581807082353e-01
3581:9.9861062758917679e-02
3582:9.5564962089177197e-02
3583:9.2095784329932748e-02
3584:9.0836510841223031e-02
3585:8.6905438424223977e-02
3586:8.1509789392771329e-02
3587:7.7158103874645612e-02
3588:9.1005570386091555e-02
3589:8.7112673304227839e-02
3590:8.1752127475842609e-02
3591:7.7416507994711711e-02
3592:9.0743961917852903e-02
3593:8.6924520229591171e-02
3594:8.1641206750073428e-02
3595:7.7351157049401598e-02
3596:9.0180655641591057e-02
3597:8.6435120926278849e-02
3598:8.1234440771961985e-02
3599:7.6997695525014564e-02
3600:7.4756627332266484e-02
3601:7.0049656693943613e-02
3602:6.3491018754831763e-02
3603:5.8130224391076964e-02
3604:7.5019928230476166e-02
3605:7.0316282459536916e-02
3606:6.3751045365044737e-02
3607:5.8377164979873809e-02
3608:7.4974300172270580e-02
3609:7.0300732766679128e-02
3610:6.3762037073506403e-02
3611:5.8399317609849538e-02
3612:7.4645922604566595e-02
3613:7.0014657476651393e-02
3614:6.3522604565235549e-02
3615:5.8189576038252311e-02
3616:5.5147485530315600e-02
3617:4.9247391015077351e-02
3618:4.0922859216490359e-02
3619:3.4044317542967321e-02
3620:5.5384776320912141e-02
3621:4.9462832622074904e-02
3622:4.1103098934696450e-02
3623:3.4192819306132841e-02
3624:5.5409893664117214e-02
3625:4.9490041989660047e-02
3626:4.1127286445263124e-02
3627:3.4210890298813461e-02
3628:5.5214072634760143e-02
3629:4.9318730339279505e-02
3630:4.0985762313214068e-02
3631:3.4091075799085067e-02
3632:3.0192257588034330e-02
3633:2.2525782152952315e-02
3634:1.1621145837672753e-02
3635:2.5481244187135249e-03
3636:3.0322360704045006e-02
3637:2.2620349907041051e-02
3638:1.1668259488980893e-02
3639:2.5585424081824310e-03
3640:3.0336154142009120e-02
3641:2.2627132226730313e-02
3642:1.1669339990741578e-02
3643:2.5587211492465304e-03
3644:3.0227813364200093e-02
3645:2.2542824155739331e-02
3646:1.1622627105001700e-02
3647:2.5463622264507760e-03
3648:1.2262969040374741e-01
3649:1.2639596641121914e-01
3650:1.3025770894677755e-01
3651:1.3244512453484003e-01
3652:1.0807833140381988e-01
3653:1.1282274414370928e-01
3654:1.1788757085514456e-01
3655:1.2094408910437376e-01
3656:8.8988223429117483e-02
3657:9.4912192194912495e-02
3658:1.0144119760882742e-01
3659:1.0556532773625742e-01
3660:7.4312852207321894e-02
3661:8.1067174569500411e-02
3662:8.8637384943272321e-02
3663:9.3528375204229894e-02
3664:1.3335358847123169e-01
3665:1.3469996564353529e-01
3666:1.3579664289001667e-01
3667:1.3614913435891157e-01
3668:1.2229759973723404e-01
3669:1.2444233340258104e-01
3670:1.2651101545559584e-01
3671:1.2755817245046880e-01
3672:1.0746887296789755e-01
3673:1.1060495484448689e-01
3674:1.1388921399553725e-01
3675:1.1581156720258849e-01
3676:9.5829558180826155e-02
3677:9.9685934392610642e-02
3678:1.0386006578244553e-01
3679:1.0642805821329303e-01
3680:1.3617397141906420e-01
3681:1.3600301809590137e-01
3682:1.3537814479680563e-01
3683:1.3459831251097626e-01
3684:1.2793619123134767e-01
3685:1.2839577332217156e-01
3686:1.2853299172294891e-01
3687:1.2829347126509308e-01
3688:1.1663675866564284e-01
3689:1.1789778244450366e-01
3690:1.1900941036284970e-01
3691:1.1946507351085944e-01
3692:1.0758480669883218e-01
3693:1.0944243749136758e-01
3694:1.1128382523109942e-01
3695:1.1226341988320401e-01
3696:1.3408119331499291e-01
3697:1.3297532379981666e-01
3698:1.3127865637930800e-01
3699:1.2978458753143002e-01
3700:1.2804955582510957e-01
3701:1.2742968954652067e-01
3702:1.2631714767376101e-01
3703:1.2523459805563070e-01
3704:1.1957416657076059e-01
3705:1.1958442250621827e-01
3706:1.1923325410919441e-01
3707:1.1869017212774793e-01
3708:1.1263968676425036e-01
3709:1.1312847621477144e-01
3710:1.1335855585904545e-01
3711:1.1322962134869774e-01
3712:1.2892184286719233e-01
3713:1.2721036874174102e-01
3714:1.2479947310247398e-01
3715:1.2281244838377711e-01
3716:1.2457899598644243e-01
3717:1.2323475682359342e-01
3718:1.2126280672903354e-01
3719:1.1958304153619279e-01
3720:1.1830719146048736e-01
3721:1.1744788131675984e-01
3722:1.1605860711122003e-01
3723:1.1478907483279888e-01
3724:1.1305673274934316e-01
3725:1.1257232450157392e-01
3726:1.1163578931232356e-01
3727:1.1068675608383878e-01
3728:1.2170425304268613e-01
3729:1.1954653535718623e-01
3730:1.1657564619603933e-01
3731:1.1417423220698718e-01
3732:1.1862878394483048e-01
3733:1.1674295573444579e-01
3734:1.1409503808490699e-01
3735:1.1191805148392886e-01
3736:1.1404118581752370e-01
3737:1.1252119183382778e-01
3738:1.1031044122301743e-01
3739:1.0843929099871177e-01
3740:1.1010071387731175e-01
3741:1.0886860844923704e-01
3742:1.0700377581422219e-01
3743:1.0537611731501728e-01
3744:1.1284902772598342e-01
3745:1.1027682587422954e-01
3746:1.0674635036566682e-01
3747:1.0390006261522884e-01
3748:1.1070467443356180e-01
3749:1.0832909978824629e-01
3750:1.0503045549126268e-01
3751:1.0234384508615897e-01
3752:1.0737905779343189e-01
3753:1.0527405428239078e-01
3754:1.0229700584989350e-01
3755:9.9833989742983506e-02
3756:1.0443835196044196e-01
3757:1.0255064669371605e-01
3758:9.9833707930063520e-02
3759:9.7553011087860950e-02
3760:1.0233095331771505e-01
3761:9.9275236082278104e-02
3762:9.5059099430211985e-02
3763:9.1643839286995057e-02
3764:1.0085378071372239e-01
3765:9.7936389263885718e-02
3766:9.3882107889381755e-02
3767:9.0577348439398950e-02
3768:9.8455396804108600e-02
3769:9.5734522519250687e-02
3770:9.1913125289220771e-02
3771:8.8769785206354188e-02
3772:9.6265861413512024e-02
3773:9.3707192293685265e-02
3774:9.0080027995022544e-02
3775:8.7072957727384784e-02
3776:8.9754977952147000e-02
3777:8.6054844138844386e-02
3778:8.0906231189944555e-02
3779:7.6704206955511930e-02
3780:8.8742850930417796e-02
3781:8.5137691863148623e-02
3782:8.0100087770998932e-02
3783:7.5973852330233613e-02
3784:8.7015632888519087e-02
3785:8.3552588848461284e-02
3786:7.8684667850508275e-02
3787:7.4677240806984221e-02
3788:8.5387252565473165e-02
3789:8.2046423105624697e-02
3790:7.7326734673133890e-02
3791:7.3424971853356488e-02
3792:7.4369232187565276e-02
3793:6.9767143387125835e-02
3794:6.3309023958749322e-02
3795:5.7999123269506757e-02
3796:7.3676233783565068e-02
3797:6.9140275888169109e-02
3798:6.2761589031846921e-02
3799:5.7507890527729089e-02
3800:7.2439313756427037e-02
3801:6.8011028465383566e-02
3802:6.1765636997001730e-02
3803:5.6609397933839060e-02
3804:7.1240830765200241e-02
3805:6.6910768911911930e-02
3806:6.0789314103031254e-02
3807:5.5725494962179850e-02
3808:5.5035067299584239e-02
3809:4.9160710581447206e-02
3810:4.0854724255780177e-02
3811:3.3980741372251877e-02
3812:5.4572414664105118e-02
3813:4.8751461393313336e-02
3814:4.0515866017473312e-02
3815:3.3697043727758239e-02
3816:5.3724601601969714e-02
3817:4.7999780180082462e-02
3818:3.9893302426015256e-02
3819:3.3177220202128835e-02
3820:5.2889378039070178e-02
3821:4.7257659188513851e-02
3822:3.9277490967345140e-02
3823:3.2662716743927921e-02
3824:3.0128698116167054e-02
3825:2.2466686587478982e-02
3826:1.1581027878833151e-02
3827:2.5351749152676718e-03
3828:2.9875184261169342e-02
3829:2.2274497978029138e-02
3830:1.1479623247340975e-02
3831:2.5125026879115340e-03
3832:2.9411967709737995e-02
3833:2.1925613194387728e-02
3834:1.1298083002095399e-02
3835:2.4744309237145897e-03
3836:2.8953477004052944e-02
3837:2.1579875720205321e-02
3838:1.1116340598059710e-02
3839:2.4323871923890754e-03
3840:6.6497933122155239e-02
3841:7.3668291109016668e-02
3842:8.1764000561170974e-02
3843:8.7044785454376342e-02
3844:5.2038383568148647e-02
3845:5.9932420181828518e-02
3846:6.8948721800207002e-02
3847:7.4917181646707090e-02
3848:3.3627307749416573e-02
3849:4.2354695570726499e-02
3850:5.2444005753995153e-02
3851:5.9223480065559886e-02
3852:1.9877491816039219e-02
3853:2.9161023271520016e-02
3854:3.9976944018931426e-02
3855:4.7313229660183538e-02
3856:8.9548996873440576e-02
3857:9.3774449789796516e-02
3858:9.8406942359187746e-02
3859:1.0130925790756276e-01
3860:7.7781198671351998e-02
3861:8.2663047640340478e-02
3862:8.8115014643343370e-02
3863:9.1618238127825949e-02
3864:6.2515015998864332e-02
3865:6.8181381111979675e-02
3866:7.4621229284302315e-02
3867:7.8855104700727277e-02
3868:5.0900800643179409e-02
3869:5.7114077330045344e-02
3870:6.4249334867411176e-02
3871:6.9002455438362600e-02
3872:1.0263828468895919e-01
3873:1.0480676027055584e-01
3874:1.0702992770134784e-01
3875:1.0828478334560977e-01
3876:9.3257997903874512e-02
3877:9.5988669107908722e-02
3878:9.8905175204912349e-02
3879:1.0066207010430518e-01
3880:8.0874795997010682e-02
3881:8.4295871646761319e-02
3882:8.8069413265416008e-02
3883:9.0451059288696997e-02
3884:7.1293784531157076e-02
3885:7.5210835255124911e-02
3886:7.9604411190528676e-02
3887:8.2441271681645306e-02
3888:1.0880181230559495e-01
3889:1.0954329246387387e-01
3890:1.1008136890980044e-01
3891:1.1017269348548624e-01
3892:1.0143656720110285e-01
3893:1.0264131410856442e-01
3894:1.0374605062487839e-01
3895:1.0424412795281776e-01
3896:9.1547385962197178e-02
3897:9.3333296783375277e-02
3898:9.5152802234627271e-02
3899:9.6166886843228480e-02
3900:8.3773188698406303e-02
3901:8.5986145988639212e-02
3902:8.8333873416351905e-02
3903:8.9731538993913451e-02
3904:1.1011181880674648e-01
3905:1.0982771181564185e-01
3906:1.0913385145348314e-01
3907:1.0835721485016883e-01
3908:1.0439063449099903e-01
3909:1.0447814954351856e-01
3910:1.0423601559798039e-01
3911:1.0378142827932768e-01
3912:9.6577492547749777e-02
3913:9.7139794056173304e-02
3914:9.7477672260572121e-02
3915:9.7438797706211583e-02
3916:9.0339236069451503e-02
3917:9.1257022707592242e-02
3918:9.2031360003308846e-02
3919:9.2306972460789588e-02
3920:1.0785844321142500e-01
3921:1.0678190730111203e-01
3922:1.0510464890707047e-01
3923:1.0360953092110976e-01
3924:1.0344608686537936e-01
3925:1.0266152143454248e-01
3926:1.0133752652460602e-01
3927:1.0009298130374110e-01
3928:9.7315192054368005e-02
3929:9.6910123215260865e-02
3930:9.6047648370569422e-02
3931:9.5132291188521650e-02
3932:9.2344125579658681e-02
3933:9.2228106092034301e-02
3934:9.1718914486821637e-02
3935:9.1056901118701225e-02
3936:1.0273861206263289e-01
3937:1.0096982414479558e-01
3938:9.8395842746682352e-02
3939:9.6215837921179395e-02
3940:9.9348781848779585e-02
3941:9.7806007490760516e-02
3942:9.5504878518334835e-02
3943:9.3517967659272769e-02
3944:9.4555222737504482e-02
3945:9.3311648214715770e-02
3946:9.1373897937307630e-02
3947:8.9645859963252708e-02
3948:9.0608940170800054e-02
3949:8.9597308708399506e-02
3950:8.7942841084774903e-02
3951:8.6417860793809170e-02
3952:9.4979371484031475e-02
3953:9.2510929925277971e-02
3954:8.8992458310139411e-02
3955:8.6062169496456065e-02
3956:9.2379029035470669e-02
3957:9.0084812312612783e-02
3958:8.6777423152301109e-02
3959:8.3997206260992691e-02
3960:8.8638298827530076e-02
3961:8.6579899602339958e-02
3962:8.3560445355219073e-02
3963:8.0986712425933569e-02
3964:8.5513802695771524e-02
3965:8.3641988908168027e-02
3966:8.0851940255404833e-02
3967:7.8443968773957512e-02
3968:8.4415226930175585e-02
3969:8.1143966123020092e-02
3970:7.6509369892550430e-02
3971:7.2668833307549363e-02
3972:8.2426382076898189e-02
3973:7.9292386051407149e-02
3974:7.4826978736131353e-02
3975:7.1109200595070240e-02
3976:7.9521270666520635e-02
3977:7.6578495025398846e-02
3978:7.2351118478080123e-02
3979:6.8807880268750413e-02
3980:7.7063581114261245e-02
3981:7.4275954306062472e-02
3982:7.0243306258543803e-02
3983:6.6844098473413646e-02
3984:7.0516066614243353e-02
3985:6.6243653076921247e-02
3986:6.0195614979765055e-02
3987:5.5187055357913073e-02
3988:6.9019709394117140e-02
3989:6.4864193033262366e-02
3990:5.8966232580747568e-02
3991:5.4071534072065004e-02
3992:6.6809012339141827e-02
3993:6.2822027598090663e-02
3994:5.7142541238483641e-02
3995:5.2415155397339867e-02
3996:6.4920453887567869e-02
3997:6.1074093196610703e-02
3998:5.5578280363229746e-02
3999:5.0992568480653311e-02
4000:5.2380217578719600e-02
4001:4.6804704642825386e-02
4002:3.8901128106592540e-02
4003:3.2347998655879985e-02
4004:5.1325326056353128e-02
4005:4.5866578829477575e-02
4006:3.8122735249776260e-02
4007:3.1698551265375130e-02
4008:4.9758556265024324e-02
4009:4.4473019452625044e-02
4010:3.6967153633507256e-02
4011:3.0735717907046052e-02
4012:4.8412178562609917e-02
4013:4.3274341357346334e-02
4014:3.5972030278346508e-02
4015:2.9905849574354264e-02
4016:2.8672893062427773e-02
4017:2.1367895447569518e-02
4018:1.1003850401887063e-02
4019:2.4043973867346300e-03
4020:2.8094938826697769e-02
4021:2.0933479779985328e-02
4022:1.0777158915115076e-02
4023:2.3537387875776652e-03
4024:2.7239126827692993e-02
4025:2.0292268892250324e-02
4026:1.0445746430969205e-02
4027:2.2841777925779426e-03
4028:2.6501105511415060e-02
4029:1.9738229646228695e-02
4030:1.0156782857766038e-02
4031:2.2188109433451506e-03
4032:1.2688920142550051e-02
4033:2.2240173384284904e-02
4034:3.3409901059480815e-02
4035:4.1020173457596502e-02
4036:-4.1544953228808706e-04
4037:9.5838807976629057e-03
4038:2.1353024471278920e-02
4039:2.9432604320578835e-02
4040:-1.6737596897913029e-02
4041:-6.2570498090761600e-03
4042:6.1709197548728461e-03
4043:1.4776808079038630e-02
4044:-2.8658028593922510e-02
4045:-1.7884749985640939e-02
4046:-5.0427298019427060e-03
4047:3.9029233791480380e-03
4048:4.4754343347582139e-02
4049:5.1239820182132509e-02
4050:5.8723670116552648e-02
4051:6.3738869430847181e-02
4052:3.3419533925226758e-02
4053:4.0376695705956887e-02
4054:4.8468948009377365e-02
4055:5.3944729684002247e-02
4056:1.9050537995126161e-02
4057:2.6547664581760177e-02
4058:3.5345054687883640e-02
4059:4.1360935576486124e-02
4060:8.3646030564826276e-03
4061:1.6219539021554354e-02
4062:2.5491313260940618e-02
4063:3.1875630619493597e-02
4064:6.6167893844643944e-02
4065:7.0337216346723894e-02
4066:7.5047742243606677e-02
4067:7.8118459827136735e-02
4068:5.6616800335707124e-02
4069:6.1232927046802263e-02
4070:6.6507616457413793e-02
4071:6.9996678337822679e-02
4072:4.4320093954708650e-02
4073:4.9466999104129709e-02
4074:5.5417430043431387e-02
4075:5.9411667779037142e-02
4076:3.5032289791819868e-02
4077:4.0546764350859722e-02
4078:4.6969589344134026e-02
4079:5.1320217034334321e-02
4080:7.9571796794293437e-02
4081:8.2005426479784413e-02
4082:8.4627180618055103e-02
4083:8.6224635382134332e-02
4084:7.1667928535189468e-02
4085:7.4498640964899124e-02
4086:7.7615427727506639e-02
4087:7.9575265578293544e-02
4088:6.1347441089998372e-02
4089:6.4662212559030957e-02
4090:6.8386270827562559e-02
4091:7.0793504985772790e-02
4092:5.3443684096176745e-02
4093:5.7103530952079422e-02
4094:6.1263483091607111e-02
4095:6.3994065252116206e-02
4096:8.6935260042998105e-02
4097:8.8039104543844657e-02
4098:8.9042654370505320e-02
4099:8.9484008978176821e-02
4100:8.0473085820929727e-02
4101:8.1916077893685019e-02
4102:8.3338874769446847e-02
4103:8.4084476183351506e-02
4104:7.1923412197626255e-02
4105:7.3788371641730896e-02
4106:7.5735597553006975e-02
4107:7.6863895663849213e-02
4108:6.5292460386024320e-02
4109:6.7464908156561754e-02
4110:6.9796448088410318e-02
4111:7.1206817683458920e-02
4112:8.9606088946938681e-02
4113:8.9643092111776138e-02
4114:8.9321542269851784e-02
4115:8.8794560624238628e-02
4116:8.4362834098385783e-02
4117:8.4682027476465832e-02
4118:8.4707669333266969e-02
4119:8.4431429042056846e-02
4120:7.7339563936059175e-02
4121:7.8016213822735089e-02
4122:7.8483894736077059e-02
4123:7.8528615505818064e-02
4124:7.1828475474245007e-02
4125:7.2770500470597341e-02
4126:7.3568051717288765e-02
4127:7.3853584890125779e-02
4128:8.8415580619708001e-02
4129:8.7528153785509516e-02
4130:8.6025926856191079e-02
4131:8.4610497667116549e-02
4132:8.4180857352799385e-02
4133:8.3525174225684437e-02
4134:8.2308044296376948e-02
4135:8.1098580680887794e-02
4136:7.8443021076465169e-02
4137:7.8086107148669731e-02
4138:7.7238525039173070e-02
4139:7.6297584214582423e-02
4140:7.3892225605718814e-02
4141:7.3761064579951879e-02
4142:7.3194197501460542e-02
4143:7.2458372681057481e-02
4144:8.3762433227139416e-02
4145:8.1991828804823932e-02
4146:7.9326746192793091e-02
4147:7.7009486934698793e-02
4148:8.0356081402718743e-02
4149:7.8776807529249593e-02
4150:7.6348986887188330e-02
4151:7.4204751502155594e-02
4152:7.5693266932687839e-02
4153:7.4365420706159036e-02
4154:7.2251306339904939e-02
4155:7.0337333727360424e-02
4156:7.1960014170715944e-02
4157:7.0825677012803706e-02
4158:6.8954392956212043e-02
4159:6.7219732063653323e-02
4160:7.5675794886695597e-02
4161:7.2973612285087253e-02
4162:6.9048724875918885e-02
4163:6.5729622081940706e-02
4164:7.2960413057644308e-02
4165:7.0422245230766539e-02
4166:6.6705210743896640e-02
4167:6.3541382897734588e-02
4168:6.9212442528694559e-02
4169:6.6894479889687289e-02
4170:6.3458351427587031e-02
4171:6.0505776184514561e-02
4172:6.6188238764311680e-02
4173:6.4043128685941725e-02
4174:6.0828793536481178e-02
4175:5.8043994336074468e-02
4176:6.3847954993342060e-02
4177:6.0080298092519177e-02
4178:5.4687713752610591e-02
4179:5.0181940525569645e-02
4180:6.1741352491926214e-02
4181:5.8127203919501678e-02
4182:5.2936796669740944e-02
4183:4.8588190214522466e-02
4184:5.8817301555201575e-02
4185:5.5413727821438087e-02
4186:5.0502156901783196e-02
4187:4.6371391561194908e-02
4188:5.6444454862152361e-02
4189:5.3209304190573230e-02
4190:4.8521766331984344e-02
4191:4.4566754481938899e-02
4192:4.7644653556708015e-02
4193:4.2590469787702305e-02
4194:3.5403632601107175e-02
4195:2.9431313061943940e-02
4196:4.6135843210354577e-02
4197:4.1246748508874068e-02
4198:3.4288181849697223e-02
4199:2.8501643152582926e-02
4200:4.4037124374870708e-02
4201:3.9377945621536445e-02
4202:3.2737951373887048e-02
4203:2.7211091869091007e-02
4204:4.2327986729417059e-02
4205:3.7855021859017991e-02
4206:3.1473464418851606e-02
4207:2.6157519338978724e-02
4208:2.6078762441545059e-02
4209:1.9420374337291088e-02
4210:9.9893035604469455e-03
4211:2.1780338059926999e-03
4212:2.5252455629368759e-02
4213:1.8800905356379981e-02
4214:9.6672476015936207e-03
4215:2.1063272402248976e-03
4216:2.4106476717995973e-02
4217:1.7944042479638905e-02
4218:9.2255861867923984e-03
4219:2.0137005197435310e-03
4220:2.3170384315806713e-02
4221:1.7242729122899928e-02
4222:8.8610295953051657e-03
4223:1.9318846889813095e-03
4224:-3.4799012479302088e-02
4225:-2.3895584546186701e-02
4226:-1.0863924498748503e-02
4227:-1.7590138666913665e-03
4228:-4.5860484936674259e-02
4229:-3.4756730464334661e-02
4230:-2.1423197717876180e-02
4231:-1.2058295456548389e-02
4232:-5.9389623658754540e-02
4233:-4.8105956515006994e-02
4234:-3.4479436228151944e-02
4235:-2.4848435812831231e-02
4236:-6.9083055729141987e-02
4237:-5.7720298390490726e-02
4238:-4.3942453708017588e-02
4239:-3.4160922809010667e-02
4240:2.7918674113220159e-03
4241:1.0818157157778422e-02
4242:2.0319847389809513e-02
4243:2.6884651100268251e-02
4244:-7.3598310634838933e-03
4245:9.5265240581269011e-04
4246:1.0843133219512321e-02
4247:1.7716506334556341e-02
4248:-1.9994856955439292e-02
4249:-1.1375977382313754e-02
4250:-1.0593758927620080e-03
4251:6.1590570708861458e-03
4252:-2.9215927263077569e-02
4253:-2.0411462089154533e-02
4254:-9.8280581754932178e-03
4255:-2.3876894639448917e-03
4256:3.0138677910894276e-02
4257:3.5835268719284719e-02
4258:4.2493793983378610e-02
4259:4.7023430061881838e-02
4260:2.1138082581232193e-02
4261:2.7149624217713910e-02
4262:3.4218637148293853e-02
4263:3.9062118940642272e-02
4264:9.7701844900186709e-03
4265:1.6141185755842422e-02
4266:2.3684438916002370e-02
4267:2.8894663473333436e-02
4268:1.3471903746853492e-03
4269:7.9555021396336481e-03
4270:1.5816586846377274e-02
4271:2.1275979182050445e-02
4272:4.9241564945934478e-02
4273:5.3076046287051648e-02
4274:5.7457678570218322e-02
4275:6.0353501446815110e-02
4276:4.1446926487840298e-02
4277:4.5589904616464116e-02
4278:5.0365062028714373e-02
4279:5.3555644749478618e-02
4280:3.1475611024523086e-02
4281:3.5983679598043473e-02
4282:4.1228354181387053e-02
4283:4.4773420518529138e-02
4284:2.3991290464975407e-02
4285:2.8751117179070279e-02
4286:3.4322608574285540e-02
4287:3.8116644186816630e-02
4288:6.1738267967747423e-02
4289:6.4068757109643576e-02
4290:6.6598599933344438e-02
4291:6.8155094097024374e-02
4292:5.5094966757699003e-02
4293:5.7709003948062894e-02
4294:6.0596030552960235e-02
4295:6.2416780319647425e-02
4296:4.6499561676300344e-02
4297:4.9457798928751059e-02
4298:5.2781156205601407e-02
4299:5.4926774542204980e-02
4300:3.9974740853483272e-02
4301:4.3177247340629561e-02
4302:4.6812407193942376e-02
4303:4.9191774998329482e-02
4304:6.8852578571663103e-02
4305:6.9932755868617677e-02
4306:7.0902636668730853e-02
4307:7.1314429866926085e-02
4308:6.3251756858429070e-02
4309:6.4583023750354032e-02
4310:6.5867228963182978e-02
4311:6.6510169428671981e-02
4312:5.5931488705772608e-02
4313:5.7573874135512355e-02
4314:5.9249723723464806e-02
4315:6.0182320239356345e-02
4316:5.0319164557102815e-02
4317:5.2187288217493966e-02
4318:5.4148974073142980e-02
4319:5.5294230104664978e-02
4320:7.1418367286182435e-02
4321:7.1406127104325867e-02
4322:7.0987648654968011e-02
4323:7.0360644987701990e-02
4324:6.6733946365947053e-02
4325:6.6940469635531796e-02
4326:6.6795943217243955e-02
4327:6.6370596813428745e-02
4328:6.0556847540258280e-02
4329:6.1039538196861622e-02
4330:6.1242733702847107e-02
4331:6.1074789793763455e-02
4332:5.5779871718402249e-02
4333:5.6466856469341561e-02
4334:5.6928695201818182e-02
4335:5.6953290163873606e-02
4336:6.9918640915632047e-02
4337:6.8887465722134320e-02
4338:6.7146110383267024e-02
4339:6.5507755154732533e-02
4340:6.6033290993629049e-02
4341:6.5194247651596260e-02
4342:6.3695792336802004e-02
4343:6.2238182269049390e-02
4344:6.0871634212636069e-02
4345:6.0279666961231347e-02
4346:5.9095311273309283e-02
4347:5.7872753087467858e-02
4348:5.6850857638791191e-02
4349:5.6445061006965037e-02
4350:5.5498650844195016e-02
4351:5.4455121359816991e-02
4352:6.4526552740351822e-02
4353:6.2474739945579491e-02
4354:5.9380547005884667e-02
4355:5.6686952718695588e-02
4356:6.1351613288700521e-02
4357:5.9475798456949953e-02
4358:5.6609085649505800e-02
4359:5.4088811540287760e-02
4360:5.7109717132980485e-02
4361:5.5464465181402314e-02
4362:5.2897323131482814e-02
4363:5.0606464335244253e-02
4364:5.3786511984360651e-02
4365:5.2318082578593911e-02
4366:4.9981798931581146e-02
4367:4.7868561065319636e-02
4368:5.5135870243680371e-02
4369:5.1992662990565715e-02
4370:4.7427752332810623e-02
4371:4.3569174519419003e-02
4372:5.2630029764156989e-02
4373:4.9662308783167075e-02
4374:4.5332096762748367e-02
4375:4.1658546020005779e-02
4376:4.9270254844994310e-02
4377:4.6536218019719695e-02
4378:4.2519719702471252e-02
4379:3.9094323544763894e-02
4380:4.6627531118627816e-02
4381:4.4075398326692147e-02
4382:4.0303910918737154e-02
4383:3.7072895814236756e-02
4384:4.1382880570851814e-02
4385:3.7012315276460005e-02
4386:3.0772999942029797e-02
4387:2.5573217645687141e-02
4388:3.9573079246596886e-02
4389:3.5399445389540721e-02
4390:2.9433958367030374e-02
4391:2.4457962597019507e-02
4392:3.7144348332803549e-02
4393:3.3235653282386937e-02
4394:2.7639029266493441e-02
4395:2.2964767279200604e-02
4396:3.5229231732531958e-02
4397:3.1528608559573894e-02
4398:2.6221968599394452e-02
4399:2.1785089358647699e-02
4400:2.2650802213397679e-02
4401:1.6852426874138678e-02
4402:8.6560120690587390e-03
4403:1.8823086919672143e-03
4404:2.1660265214167175e-02
4405:1.6110927517076899e-02
4406:8.2711820236515063e-03
4407:1.7964737112107819e-03
4408:2.0335289633509657e-02
4409:1.5121681607922466e-02
4410:7.7622943418559701e-03
4411:1.6898498257620876e-03
4412:1.9287990971401055e-02
4413:1.4338452174061735e-02
4414:7.3565483503981880e-03
4415:1.5999175323362293e-03
4416:-7.4012133843146324e-02
4417:-6.2626786416342353e-02
4418:-4.8792814281635781e-02
4419:-3.8949072669774897e-02
4420:-8.2791450890304166e-02
4421:-7.1395684872277987e-02
4422:-5.7496979537278739e-02
4423:-4.7566749674913665e-02
4424:-9.3337522862645267e-02
4425:-8.1987922900704904e-02
4426:-6.8080517899606813e-02
4427:-5.8093824803317942e-02
4428:-1.0074289158882105e-01
4429:-8.9472456652514173e-02
4430:-7.5613686559689308e-02
4431:-6.5624715984752266e-02
4432:-3.3964665696329131e-02
4433:-2.5078025420984716e-02
4434:-1.4372821929719816e-02
4435:-6.8287405691807301e-03
4436:-4.2524183595858016e-02
4437:-3.3512028054076763e-02
4438:-2.2613775193102145e-02
4439:-1.4900845043368655e-02
4440:-5.3004800301077383e-02
4441:-4.3882449712018406e-02
4442:-3.2798926839577747e-02
4443:-2.4914266442084516e-02
4444:-6.0521431481914197e-02
4445:-5.1353562924338701e-02
4446:-4.0176646526295358e-02
4447:-3.2195960769850679e-02
4448:-3.0353030072690660e-03
4449:3.6863295524066420e-03
4450:1.1701020900898675e-02
4451:1.7282121252854079e-02
4452:-1.1010743446984900e-02
4453:-4.1001968130183596e-03
4454:4.1738570593382275e-03
4455:9.9627596007569597e-03
4456:-2.0923044453004636e-02
4457:-1.3810991560267079e-02
4458:-5.2534444805339376e-03
4459:7.6731761966282778e-04
4460:-2.8145610927149341e-02
4461:-2.0912221512814980e-02
4462:-1.2177900500238443e-02
4463:-6.0084785030772980e-03
4464:2.0063478103325448e-02
4465:2.4947677018705091e-02
4466:3.0681758490706517e-02
4467:3.4600476576739231e-02
4468:1.2857621179229109e-02
4469:1.7956662319696910e-02
4470:2.3973618544935044e-02
4471:2.8110721505881491e-02
4472:3.7903265742385683e-03
4473:9.1341426817157789e-03
4474:1.5477428750705836e-02
4475:1.9869376647606074e-02
4476:-2.9020359805975071e-03
4477:2.6030025993399749e-03
4478:9.1645763418404941e-03
4479:1.3729369771169396e-02
4480:3.6524928095134392e-02
4481:3.9850688842177587e-02
4482:4.3643963109959945e-02
4483:4.6142442476860383e-02
4484:3.0151882160075659e-02
4485:3.3695181048747330e-02
4486:3.7768923421616425e-02
4487:4.0479728454364761e-02
4488:2.2047694542809561e-02
4489:2.5848136182529031e-02
4490:3.0256186748950715e-02
4491:3.3222127980212880e-02
4492:1.6001488523490329e-02
4493:1.9978992033440616e-02
4494:2.4619468105133022e-02
4495:2.7764419161730790e-02
4496:4.7332539537848224e-02
4497:4.9316369993063727e-02
4498:5.1425165678071115e-02
4499:5.2680317691167516e-02
4500:4.1781962039557384e-02
4501:4.3973280745625440e-02
4502:4.6346970810924142e-02
4503:4.7800831509184898e-02
4504:3.4659804103707524e-02
4505:3.7102862712682726e-02
4506:3.9800077775737068e-02
4507:4.1498229623497765e-02
4508:2.9297672237927494e-02
4509:3.1919260126690246e-02
4510:3.4847579746578629e-02
4511:3.6721474799758708e-02
4512:5.3223534133545136e-02
4513:5.4016636115866795e-02
4514:5.4613321081459491e-02
4515:5.4738674629259805e-02
4516:4.8448437777834572e-02
4517:4.9434427821092773e-02
4518:5.0277153105089963e-02
4519:5.0587057797239675e-02
4520:4.2274725060543479e-02
4521:4.3499811595909987e-02
4522:4.4649318030781808e-02
4523:4.5190693798917381e-02
4524:3.7591117173077386e-02
4525:3.8989715601874524e-02
4526:4.0363223155335699e-02
4527:4.1074638416132681e-02
4528:5.4689083258058137e-02
4529:5.4381183323147071e-02
4530:5.3560333664164975e-02
4531:5.2611605730287038e-02
4532:5.0634498544425630e-02
4533:5.0506799895991862e-02
4534:4.9917908279914887e-02
4535:4.9144945897683930e-02
4536:4.5360309241424306e-02
4537:4.5460331998292414e-02
4538:4.5166155117593677e-02
4539:4.4617706931437802e-02
4540:4.1334358756030178e-02
4541:4.1602944055440690e-02
4542:4.1528096120019092e-02
4543:4.1147612829618208e-02
4544:5.1993112961325458e-02
4545:5.0618728465560932e-02
4546:4.8405602806174688e-02
4547:4.6387398036138235e-02
4548:4.8619590416743116e-02
4549:4.7420360798314569e-02
4550:4.5437333381727348e-02
4551:4.3597212090953200e-02
4552:4.4211733823480794e-02
4553:4.3237729225115908e-02
4554:4.1551924130656621e-02
4555:3.9942825866683067e-02
4556:4.0831254958018447e-02
4557:4.0026832839932108e-02
4558:3.8565790202977776e-02
4559:3.7132101916610080e-02
4560:4.5197385336559551e-02
4561:4.2742900381207601e-02
4562:3.9103201471712937e-02
4563:3.5976927706396822e-02
4564:4.2502979900303696e-02
4565:4.0232104953056007e-02
4566:3.6840729410592271e-02
4567:3.3912178607014079e-02
4568:3.8973178458539960e-02
4569:3.6941651182942091e-02
4570:3.3874925014023456e-02
4571:3.1205531285373636e-02
4572:3.6257284128117205e-02
4573:3.4408301465561716e-02
4574:3.1589829952168628e-02
4575:2.9119065631141756e-02
4576:3.4190607040022539e-02
4577:3.0602274820386528e-02
4578:2.5452219529071257e-02
4579:2.1143572194878408e-02
4580:3.2234220455062856e-02
4581:2.8858209712623213e-02
4582:2.4004412606024473e-02
4583:1.9938483349041750e-02
4584:2.9669811056167863e-02
4585:2.6572713257255003e-02
4586:2.2108410926056050e-02
4587:1.8361761001234839e-02
4588:2.7692504211411388e-02
4589:2.4809593886522492e-02
4590:2.0644597462250371e-02
4591:1.7143401674143657e-02
4592:1.8717993764726354e-02
4593:1.3911077274390419e-02
4594:7.1329351003136350e-03
4595:1.5466789039535311e-03
4596:1.7648298104904456e-02
4597:1.3111304615514534e-02
4598:6.7186213915713241e-03
4599:1.4545253073768359e-03
4600:1.6249706177680571e-02
4601:1.2067666865133183e-02
4602:6.1814837129279656e-03
4603:1.3404165617927287e-03
4604:1.5168302989970191e-02
4605:1.1259011025758070e-02
4606:5.7616768968806733e-03
4607:1.2451213294900755e-03
4608:-1.0445347211288354e-01
4609:-9.3236121519996662e-02
4610:-7.9417938021637130e-02
4611:-6.9439317219837385e-02
4612:-1.1098114334850467e-01
4613:-9.9887633102374723e-02
4614:-8.6177398855134354e-02
4615:-7.6242438532138482e-02
4616:-1.1865638393411759e-01
4617:-1.0776079076495004e-01
4618:-9.4239973275051334e-02
4619:-8.4399940103576224e-02
4620:-1.2391458661846926e-01
4621:-1.1319649502136934e-01
4622:-9.9855550939270871e-02
4623:-9.0115531477587024e-02
4624:-6.4334692972443000e-02
4625:-5.5154305750002339e-02
4626:-4.3942739777790632e-02
4627:-3.5922188072220543e-02
4628:-7.1148067630486242e-02
4629:-6.1967368773528014e-02
4630:-5.0719618443370189e-02
4631:-4.2645479538332344e-02
4632:-7.9339361101237460e-02
4633:-7.0196320702407486e-02
4634:-5.8950331605188290e-02
4635:-5.0843182209324947e-02
4636:-8.5095555305477785e-02
4637:-7.6008861314792120e-02
4638:-6.4799704738821240e-02
4639:-5.6694087693693294e-02
4640:-3.1846208743814795e-02
4641:-2.4558808174043739e-02
4642:-1.5743454522095496e-02
4643:-9.5043956553353594e-03
4644:-3.8532455278938955e-02
4645:-3.1163835689211536e-02
4646:-2.2221420684481342e-02
4647:-1.5869813223055845e-02
4648:-4.6701219324492810e-02
4649:-3.9262122638654778e-02
4650:-3.0198384313958302e-02
4651:-2.3732586493786990e-02
4652:-5.2544077863898420e-02
4653:-4.5076875387599268e-02
4654:-3.5952701374240066e-02
4655:-2.9423369406992521e-02
4656:-6.3584288159667813e-03
4657:-7.7638511001968302e-04
4658:5.8906043444077565e-03
4659:1.0539703806046649e-02
4660:-1.2658948487343549e-02
4661:-6.9489753523741017e-03
4662:-1.0425205602211604e-04
4663:4.6887541914767961e-03
4664:-2.0453936330870000e-02
4665:-1.4607606803023396e-02
4666:-7.5686210470810302e-03
4667:-2.6150085819410520e-03
4668:-2.6105198146858685e-02
4669:-2.0176889686863774e-02
4670:-1.3016831081924311e-02
4671:-7.9602535130587990e-03
4672:1.2857852089759085e-02
4673:1.6922672298637205e-02
4674:2.1678551875463515e-02
4675:2.4912947246618480e-02
4676:7.0860238656638083e-03
4677:1.1301767773683961e-02
4678:1.6258663710346091e-02
4679:1.9649990398942340e-02
4680:-1.2838088548606057e-04
4681:4.2594246612046964e-03
4682:9.4484466285051569e-03
4683:1.3023119877376277e-02
4684:-5.4154452350666836e-03
4685:-9.1426053563064083e-04
4686:4.4301712960524171e-03
4687:8.1293356982692511e-03
4688:2.6494142289814747e-02
4689:2.9205580996959767e-02
4690:3.2250782445283940e-02
4691:3.4213990405419822e-02
4692:2.1315682276324834e-02
4693:2.4186106065391951e-02
4694:2.7439280993313053e-02
4695:2.9562249168586834e-02
4696:1.4788237322683305e-02
4697:1.7846873522410246e-02
4698:2.1348392247948482e-02
4699:2.3663710467872818e-02
4700:9.9625320349119133e-03
4701:1.3150957146289917e-02
4702:1.6825438220758181e-02
4703:1.9275969063323021e-02
4704:3.5131119349138165e-02
4705:3.6618428509863889e-02
4706:3.8106944264836483e-02
4707:3.8906025104458071e-02
4708:3.0564602598367591e-02
4709:3.2211594569622741e-02
4710:3.3908027867343420e-02
4711:3.4866264114555699e-02
4712:2.4769210840512389e-02
4713:2.6610378029034345e-02
4714:2.8561373598138280e-02
4715:2.9715762373029628e-02
4716:2.0454397334059835e-02
4717:2.2433562159493090e-02
4718:2.4566813694185539e-02
4719:2.5862631037284808e-02
4720:3.9212325232344462e-02
4721:3.9568266984647514e-02
4722:3.9607499171271529e-02
4723:3.9314687170688971e-02
4724:3.5257358904280639e-02
4725:3.5772724330314830e-02
4726:3.6020911080574723e-02
4727:3.5889249151008051e-02
4728:3.0211806692868170e-02
4729:3.0925256308172125e-02
4730:3.1434528169653544e-02
4731:3.1505302204922828e-02
4732:2.6434682993241539e-02
4733:2.7292171474831640e-02
4734:2.7992391731970642e-02
4735:2.8212028545039805e-02
4736:3.9045209847043211e-02
4737:3.8329681633826690e-02
4738:3.6986803065842455e-02
4739:3.5645590947818787e-02
4740:3.5706137838426889e-02
4741:3.5154699843935287e-02
4742:3.4030536035870231e-02
4743:3.2860910906046557e-02
4744:3.1431051989185325e-02
4745:3.1087067351923760e-02
4746:3.0240584963909068e-02
4747:2.9289655483521734e-02
4748:2.8218103442413683e-02
4749:2.8027649052890572e-02
4750:2.7387522462957899e-02
4751:2.6599729082593990e-02
4752:3.4820855187547822e-02
4753:3.3068414711460402e-02
4754:3.0381466373172909e-02
4755:2.8016078835508572e-02
4756:3.2129235504590341e-02
4757:3.0556388930589286e-02
4758:2.8114498927871615e-02
4759:2.5945749115913391e-02
4760:2.8676870136258761e-02
4761:2.7333888350615933e-02
4762:2.5206402316000635e-02
4763:2.3290446384613132e-02
4764:2.6075831708425527e-02
4765:2.4905005344342659e-02
4766:2.3013513423798572e-02
4767:2.1287662303940094e-02
4768:2.6647468286146045e-02
4769:2.3878304178296027e-02
4770:1.9872340201134115e-02
4771:1.6501641757326185e-02
4772:2.4685376417626307e-02
4773:2.2128752092285677e-02
4774:1.8420012336204040e-02
4775:1.5293173811206436e-02
4776:2.2169376996895616e-02
4777:1.9886428158409922e-02
4778:1.6560590754181679e-02
4779:1.3748000720897014e-02
4780:2.0271457372540620e-02
4781:1.8194606486396436e-02
4782:1.5157225408261336e-02
4783:1.2581418889512608e-02
4784:1.4599384631184872e-02
4785:1.0835098023978203e-02
4786:5.5441263544580557e-03
4787:1.1993079065944403e-03
4788:1.3526996838546903e-02
4789:1.0033532477515402e-02
4790:5.1282325905476368e-03
4791:1.1049161483009987e-03
4792:1.2157192508511409e-02
4793:9.0125603254062221e-03
4794:4.6035445879457054e-03
4795:9.9350245683225416e-04
4796:1.1122749462047480e-02
4797:8.2408001874364895e-03
4798:4.2051009530069648e-03
4799:9.0557807878732723e-04
4800:-1.2650174032177061e-01
4801:-1.1588656283466238e-01
4802:-1.0265276133793431e-01
4803:-9.2974975831167025e-02
4804:-1.3096513732191128e-01
4805:-1.2055416323955742e-01
4806:-1.0753718150562917e-01
4807:-9.7989160866018707e-02
4808:-1.3604216100515731e-01
4809:-1.2591703961774806e-01
4810:-1.1321097591194404e-01
4811:-1.0385560136816116e-01
4812:-1.3937994546689675e-01
4813:-1.2948740993826158e-01
4814:-1.1703934284659584e-01
4815:-1.0784816127885483e-01
4816:-8.7981479585209396e-02
4817:-7.8933896814934346e-02
4818:-6.7756156269353870e-02
4819:-5.9660314367000290e-02
4820:-9.3052546907661030e-02
4821:-8.4092079941081907e-02
4822:-7.2991524107778732e-02
4823:-6.4928191442386263e-02
4824:-9.9006211562129937e-02
4825:-9.0184346515611885e-02
4826:-7.9217846615075665e-02
4827:-7.1222996572904568e-02
4828:-1.0307488516867939e-01
4829:-9.4377073564301417e-02
4830:-8.3537275424784618e-02
4831:-7.5613722098467964e-02
4832:-5.5510749748745536e-02
4833:-4.8037271059936680e-02
4834:-3.8891866541135516e-02
4835:-3.2336798653229477e-02
4836:-6.0787051674714931e-02
4837:-5.3315911242597984e-02
4838:-4.4148769776129568e-02
4839:-3.7559014352592887e-02
4840:-6.7106864666159852e-02
4841:-5.9664923193009319e-02
4842:-5.0503102091946771e-02
4843:-4.3893512272522993e-02
4844:-7.1526898080479948e-02
4845:-6.4126299461141997e-02
4846:-5.4993067086735695e-02
4847:-4.8386840022672156e-02
4848:-2.9001787844544769e-02
4849:-2.3037459176050743e-02
4850:-1.5822378264701526e-02
4851:-1.0717828388359408e-02
4852:-3.4199545499934217e-02
4853:-2.8180705281230331e-02
4854:-2.0878784090280350e-02
4855:-1.5696281507643139e-02
4856:-4.0515512594425075e-02
4857:-3.4450114857448408e-02
4858:-2.7065816825287518e-02
4859:-2.1804433880517414e-02
4860:-4.5004429794983966e-02
4861:-3.8921360463825175e-02
4862:-3.1496668078970481e-02
4863:-2.6191666943226808e-02
4864:-8.1455565365995877e-03
4865:-3.5903201840234620e-03
4866:1.8291549606041263e-03
4867:5.5890988284162026e-03
4868:-1.3078719706350212e-02
4869:-8.4333726415257507e-03
4870:-2.8870510671455980e-03
4871:9.7683806471944362e-04
4872:-1.9139624203541476e-02
4873:-1.4398214372156638e-02
4874:-8.7130350250122432e-03
4875:-4.7328675380461311e-03
4876:-2.3499399900262983e-02
4877:-1.8700292303052753e-02
4878:-1.2928476105745145e-02
4879:-8.8736016882252303e-03
4880:7.4557478392654752e-03
4881:1.0708292750507923e-02
4882:1.4468859589812925e-02
4883:1.6987148182557622e-02
4884:2.9010870140052602e-03
4885:6.2646554567369946e-03
4886:1.0175428457518659e-02
4887:1.2812774871041545e-02
4888:-2.7433922672199817e-03
4889:7.4715407126435475e-04
4890:4.8320296604074924e-03
4891:7.6090347018963030e-03
4892:-6.8415483279229833e-03
4893:-3.2670631262522796e-03
4894:9.3481870774230619e-04
4895:3.8070373585577361e-03
4896:1.8202275821928265e-02
4897:2.0251143070928766e-02
4898:2.2476937020433567e-02
4899:2.3844921808585141e-02
4900:1.4092664945966865e-02
4901:1.6264999750937901e-02
4902:1.8655596375481559e-02
4903:2.0152744755971026e-02
4904:8.9654436613087144e-03
4905:1.1284578830660554e-02
4906:1.3872849177323539e-02
4907:1.5526186860902895e-02
4908:5.2160575511968335e-03
4909:7.6368626811677311e-03
4910:1.0363408801349429e-02
4911:1.2126996955684949e-02
4912:2.4455878704703251e-02
4913:2.5387299656514799e-02
4914:2.6185916888228775e-02
4915:2.6482546599085433e-02
4916:2.0833551509775287e-02
4917:2.1898084919586957e-02
4918:2.2874568396600355e-02
4919:2.3310891729728573e-02
4920:1.6291884422378246e-02
4921:1.7518918655815653e-02
4922:1.8713901286273437e-02
4923:1.9322826957993700e-02
4924:1.2952948788253925e-02
4925:1.4295883960601909e-02
4926:1.5647755172986388e-02
4927:1.6381373670200317e-02
4928:2.6530261251171566e-02
4929:2.6419552669991735e-02
4930:2.5886901920077882e-02
4931:2.5184283864008523e-02
4932:2.3434330779482451e-02
4933:2.3468933337924436e-02
4934:2.3132657462396226e-02
4935:2.2586051114607431e-02
4936:1.9540163234490541e-02
4937:1.9755496935765490e-02
4938:1.9664473078393984e-02
4939:1.9313430686278200e-02
4940:1.6666796470358181e-02
4941:1.7013590016342856e-02
4942:1.7101706982668587e-02
4943:1.6894043790093100e-02
4944:2.4706864333587257e-02
4945:2.3626153239214336e-02
4946:2.1858365477540841e-02
4947:2.0232280611505959e-02
4948:2.2193887765425292e-02
4949:2.1278658480274645e-02
4950:1.9738348085325874e-02
4951:1.8295935101018099e-02
4952:1.9028371578458048e-02
4953:1.8321361110632574e-02
4954:1.7067851300326654e-02
4955:1.5857397636339143e-02
4956:1.6687680236598366e-02
4957:1.6133894640437497e-02
4958:1.5091842292798658e-02
4959:1.4052683365297370e-02
4960:1.9271142603881051e-02
4961:1.7302541660851618e-02
4962:1.4416693649038451e-02
4963:1.1965284663869258e-02
4964:1.7436239906379197e-02
4965:1.5667096005866930e-02
4966:1.3060498222550834e-02
4967:1.0838341332875444e-02
4968:1.5125928701246539e-02
4969:1.3608965180029325e-02
4970:1.1355476074288291e-02
4971:9.4231950917498131e-03
4972:1.3415984057772185e-02
4973:1.2085429811303476e-02
4974:1.0092951613974565e-02
4975:8.3749080385600722e-03
4976:1.0576033777469266e-02
4977:7.8320210959233090e-03
4978:3.9921999650434784e-03
4979:8.5547455277502969e-04
4980:9.5770129052650012e-03
4981:7.0870685363248502e-03
4982:3.6077790793669295e-03
4983:7.7049245562930524e-04
4984:8.3235916081425693e-03
4985:6.1546180744599874e-03
4986:3.1302906577471857e-03
4987:6.7047953472497705e-04
4988:7.3948028629144879e-03
4989:5.4628090688794645e-03
4990:2.7739930710491572e-03
4991:5.9224615502705515e-04
4992:-1.4096858938295012e-01
4993:-1.3120419184890605e-01
4994:-1.1889984425456607e-01
4995:-1.0980146863795778e-01
4996:-1.4360936200288213e-01
4997:-1.3408970138656748e-01
4998:-1.2206231664239303e-01
4999:-1.1314486362397287e-01
5000:-1.4640613154622764e-01
5001:-1.3721267311131027e-01
5002:-1.2555893625173895e-01
5003:-1.1688930913143308e-01
5004:-1.4806791982510037e-01
5005:-1.3912896389541404e-01
5006:-1.2776994593743518e-01
5007:-1.1929842416862237e-01
5008:-1.0507174717865182e-01
5009:-9.6445838254559615e-02
5010:-8.5681407993892872e-02
5011:-7.7802052989800544e-02
5012:-1.0850086736339339e-01
5013:-1.0001786851914420e-01
5014:-8.9406128269122753e-02
5015:-8.1618925552482818e-02
5016:-1.1236419488159659e-01
5017:-1.0408184987237305e-01
5018:-9.3689585271747200e-02
5019:-8.6039344265714926e-02
5020:-1.1486934770451693e-01
5021:-1.0675079769021678e-01
5022:-9.6541152339173375e-02
5023:-8.9007860385065196e-02
5024:-7.3734205839212821e-02
5025:-6.6361941008763650e-02
5026:-5.7252129137135462e-02
5027:-5.0653923226918571e-02
5028:-7.7591776715338331e-02
5029:-7.0282379552502661e-02
5030:-6.1229390915783867e-02
5031:-5.4656233125356599e-02
5032:-8.2074581131158522e-02
5033:-7.4864986682569912e-02
5034:-6.5909874929977436e-02
5035:-5.9387928597481383e-02
5036:-8.5097584578645538e-02
5037:-7.7977300208659006e-02
5038:-6.9114398002984315e-02
5039:-6.2645178399698298e-02
5040:-4.7272458254004619e-02
5041:-4.1186049511515048e-02
5042:-3.3747534987368349e-02
5043:-2.8425016730777783e-02
5044:-5.1281896809561876e-02
5045:-4.5199202563166598e-02
5046:-3.7747595082421474e-02
5047:-3.2401892672850846e-02
5048:-5.6032852224147715e-02
5049:-4.9973620488237433e-02
5050:-4.2528987078587314e-02
5051:-3.7171251706165608e-02
5052:-5.9312124363332205e-02
5053:-5.3284478317496942e-02
5054:-4.5862827256022642e-02
5055:-4.0509268103021412e-02
5056:-2.5721103377504759e-02
5057:-2.0896693137292560e-02
5058:-1.5085496587218538e-02
5059:-1.0995774194077244e-02
5060:-2.9681221239476245e-02
5061:-2.4818699553908464e-02
5062:-1.8945427362255421e-02
5063:-1.4799057529773811e-02
5064:-3.4438323908995198e-02
5065:-2.9543783146857412e-02
5066:-2.3611940121532116e-02
5067:-1.9408306814977880e-02
5068:-3.7774029086421655e-02
5069:-3.2868024925372039e-02
5070:-2.6907901152037846e-02
5071:-2.2672750312669160e-02
5072:-8.9435908491205061e-03
5073:-5.3290066087032543e-03
5074:-1.0704827197915686e-03
5075:1.8483475410282356e-03
5076:-1.2713644669781907e-02
5077:-9.0320957987625392e-03
5078:-4.6776004485437868e-03
5079:-1.6788392369133202e-03
5080:-1.7288210125827576e-02
5081:-1.3535129209878767e-02
5082:-9.0752206404031005e-03
5083:-5.9866902732342627e-03
5084:-2.0532529577279447e-02
5085:-1.6736445228933482e-02
5086:-1.2210573076517073e-02
5087:-9.0641510123169698e-03
5088:3.2832909738939311e-03
5089:5.7544678021645701e-03
5090:8.5500318079939578e-03
5091:1.0369015072803422e-02
5092:-1.9913537646703029e-04
5093:2.3595176567569901e-03
5094:5.2758675805572247e-03
5095:7.1924614533054087e-03
5096:-4.4560901424706822e-03
5097:-1.7969514447466026e-03
5098:1.2600207158679478e-03
5099:3.2915878745516263e-03
5100:-7.5001953869023984e-03
5101:-4.7743480571973175e-03
5102:-1.6224676637660834e-03
5103:4.8778698020041978e-04
5104:1.1225362425229198e-02
5105:1.2626966795502428e-02
5106:1.4058631840036350e-02
5107:1.4855940375581628e-02
5108:8.1025881901302839e-03
5109:9.6083644439969688e-03
5110:1.1182393965848351e-02
5111:1.2093828529834120e-02
5112:4.2654976799130304e-03
5113:5.8955491267186433e-03
5114:7.6407637026944851e-03
5115:8.6903944107818328e-03
5116:1.5057033269454600e-03
5117:3.2220782018919395e-03
5118:5.0872707408302787e-03
5119:6.2345195190197178e-03
5120:1.5176229558924025e-02
5121:1.5590485277495245e-02
5122:1.5770794373775966e-02
5123:1.5637103527922511e-02
5124:1.2476757687058500e-02
5125:1.3012473270557733e-02
5126:1.3359240077361169e-02
5127:1.3359445131762923e-02
5128:9.1494925302939029e-03
5129:9.8334014349021354e-03
5130:1.0384174845311933e-02
5131:1.0549121565185053e-02
5132:6.7476694125009956e-03
5133:7.5371264797358707e-03
5134:8.2338983613651981e-03
5135:8.5172321470381365e-03
5136:1.5471399603665460e-02
5137:1.4996859221800678e-02
5138:1.4064303373383881e-02
5139:1.3113933274606339e-02
5140:1.3267445528364882e-02
5141:1.2936694462128310e-02
5142:1.2203055863848353e-02
5143:1.1414139991721346e-02
5144:1.0548009873248590e-02
5145:1.0394830968708866e-02
5146:9.9072786130361776e-03
5147:9.3183840148528489e-03
5148:8.5815887518417532e-03
5149:8.5565063651195528e-03
5150:8.2467845045849329e-03
5151:7.8026303188178043e-03
5152:1.2526382174306974e-02
5153:1.1292504841218595e-02
5154:9.4353813863027342e-03
5155:7.8284172026244110e-03
5156:1.0916003582202249e-02
5157:9.8580082694960103e-03
5158:8.2470937920142064e-03
5159:6.8421343842536226e-03
5160:8.9310975777044943e-03
5161:8.0911282769271925e-03
5162:6.7853081972003753e-03
5163:5.6305493091088846e-03
5164:7.4956098557413704e-03
5165:6.8134798372076972e-03
5166:5.7284143366244942e-03
5167:4.7545768076512236e-03
5168:6.9102583369977681e-03
5169:5.1010431240569240e-03
5170:2.5859087440513072e-03
5171:5.4799322798028893e-04
5172:6.0366026041819799e-03
5173:4.4504802596121379e-03
5174:2.2506322172304040e-03
5175:4.7357680635875811e-04
5176:4.9644562609599966e-03
5177:3.6542435705583199e-03
5178:1.8436866516914005e-03
5179:3.8821370908431263e-04
5180:4.1892581172986460e-03
5181:3.0781973177317987e-03
5182:1.5480858387722284e-03
5183:3.2385151475066353e-04
5184:-1.4878789152004607e-01
5185:-1.3998579546902848e-01
5186:-1.2878631811668123e-01
5187:-1.2042289321121288e-01
5188:-1.4984368919031643e-01
5189:-1.4129836567744225e-01
5190:-1.3039992786855187e-01
5191:-1.2224186351273796e-01
5192:-1.5065723570654549e-01
5193:-1.4244598709134809e-01
5194:-1.3194241746994662e-01
5195:-1.2405630025415006e-01
5196:-1.5086044421734693e-01
5197:-1.4290414609996518e-01
5198:-1.3270426875749583e-01
5199:-1.2502917822627330e-01
5200:-1.1604654344024987e-01
5201:-1.0801846414031943e-01
5202:-9.7910783968237269e-02
5203:-9.0443719130854860e-02
5204:-1.1796620680018316e-01
5205:-1.1011178214769680e-01
5206:-1.0020159074035931e-01
5207:-9.2864282969085318e-02
5208:-1.1991495027173038e-01
5209:-1.1229377582903434e-01
5210:-1.0265209970319765e-01
5211:-9.5493919165957883e-02
5212:-1.2099274128482977e-01
5213:-1.1355493903970879e-01
5214:-1.0412668285583691e-01
5215:-9.7112781262005093e-02
5216:-8.6564667798170056e-02
5217:-7.9496200484866483e-02
5218:-7.0688139327239302e-02
5219:-6.4251513670163643e-02
5220:-8.9046992382041681e-02
5221:-8.2082018477571600e-02
5222:-7.3385573465815146e-02
5223:-6.7017154401127543e-02
5224:-9.1762936872918269e-02
5225:-8.4944383214747884e-02
5226:-7.6409542936020702e-02
5227:-7.0143127979274258e-02
5228:-9.3452044378006430e-02
5229:-8.6753897643810918e-02
5230:-7.8354469571428817e-02
5231:-7.2175691184099236e-02
5232:-6.0932626138857603e-02
5233:-5.4926380265712248e-02
5234:-4.7522925647195180e-02
5235:-4.2176130883624478e-02
5236:-6.3728717083417735e-02
5237:-5.7769987511384666e-02
5238:-5.0410430434963259e-02
5239:-4.5083889919803076e-02
5240:-6.6901591115591727e-02
5241:-6.1018552445580208e-02
5242:-5.3734505474623009e-02
5243:-4.8448591788566947e-02
5244:-6.8975326735362705e-02
5245:-6.3160307924472067e-02
5246:-5.5947510439621102e-02
5247:-5.0703186357054501e-02
5248:-3.9442066065698153e-02
5249:-3.4534406373163982e-02
5250:-2.8564889549825681e-02
5251:-2.4317188090655296e-02
5252:-4.2356076271973971e-02
5253:-3.7452868895610343e-02
5254:-3.1475485051053437e-02
5255:-2.7211616338946015e-02
5256:-4.5736557157278708e-02
5257:-4.0853429673300246e-02
5258:-3.4884272952291698e-02
5259:-3.0613350783973415e-02
5260:-4.8008867803366259e-02
5261:-4.3151677452229170e-02
5262:-3.7202533873962884e-02
5263:-3.2936644573362421e-02
5264:-2.2168465257162304e-02
5265:-1.8353540923885251e-02
5266:-1.3797649499144886e-02
5267:-1.0624168238983666e-02
5268:-2.5050833563803668e-02
5269:-2.1207750392429479e-02
5270:-1.6604678661923170e-02
5271:-1.3387247128445247e-02
5272:-2.8444254695441932e-02
5273:-2.4578172784675802e-02
5274:-1.9931078624470022e-02
5275:-1.6669428138918314e-02
5276:-3.0766705516880762e-02
5277:-2.6893252095617541e-02
5278:-2.2225543109162901e-02
5279:-1.8939855219708760e-02
5280:-9.0444072217428350e-03
5281:-6.2866117841712003e-03
5282:-3.0886699287629811e-03
5283:-9.3980677324715810e-04
5284:-1.1781396520752682e-02
5285:-8.9702151312318519e-03
5286:-5.6941439387663065e-03
5287:-3.4789992475113348e-03
5288:-1.5036415160939129e-02
5289:-1.2168256059054165e-02
5290:-8.8063371022634243e-03
5291:-6.5167019433063694e-03
5292:-1.7291198225627163e-02
5293:-1.4388925406416708e-02
5294:-1.0973376564345570e-02
5295:-8.6357448918099548e-03
5296:9.9835763338776597e-05
5297:1.8590469194627462e-03
5298:3.7841750505251317e-03
5299:4.9804704590486071e-03
5300:-2.4018057348468322e-03
5301:-5.6814991005637943e-04
5302:1.4618841311129327e-03
5303:2.7445504016676858e-03
5304:-5.3967850706233642e-03
5305:-3.4775943898146286e-03
5306:-1.3255076800301937e-03
5307:5.8708119274505990e-05
5308:-7.4878513305562371e-03
5309:-5.5119404195430868e-03
5310:-3.2776426587740647e-03
5311:-1.8241465911118910e-03
5312:5.5208686156793104e-03
5313:6.3636735084749872e-03
5314:7.1344893944034820e-03
5315:7.4780386492249882e-03
5316:3.3331017532546845e-03
5317:4.2704407069738375e-03
5318:5.1729285823570240e-03
5319:5.6238815464478122e-03
5320:7.0421546585273519e-04
5321:1.7538841821525093e-03
5322:2.8137522873986579e-03
5323:3.3937180293601788e-03
5324:-1.1395032095638587e-03
5325:-1.2233508417471045e-05
5326:1.1570989225133132e-03
5327:1.8273084513978834e-03
5328:7.5757492535349982e-03
5329:7.6159920186876923e-03
5330:7.3970620325634166e-03
5331:7.0268711540609858e-03
5332:5.7811852833633583e-03
5333:5.9382588163803375e-03
5334:5.8818912517056383e-03
5335:5.6442483004044176e-03
5336:3.6228037099632158e-03
5337:3.9208248278214146e-03
5338:4.0609287965144665e-03
5339:3.9837015601755753e-03
5340:2.1067628107721537e-03
5341:2.5038547644934041e-03
5342:2.7823225547450852e-03
5343:2.8182300747263797e-03
5344:6.7608838692155377e-03
5345:6.1594266431919771e-03
5346:5.1871373564411904e-03
5347:4.3056775365021976e-03
5348:5.4518249246847828e-03
5349:4.9949574441934376e-03
5350:4.2246781526206669e-03
5351:3.5085802754086623e-03
5352:3.8803618129995381e-03
5353:3.5984901808245634e-03
5354:3.0724268483067465e-03
5355:2.5559928743450191e-03
5356:2.7777550256059577e-03
5357:2.6192789433264808e-03
5358:2.2651648724401337e-03
5359:1.8890873739346157e-03
5360:3.7917912437431178e-03
5361:2.7822720786763095e-03
5362:1.3949371491600489e-03
5363:2.8826041852948655e-04
5364:3.0867118749384696e-03
5365:2.2586587420762192e-03
5366:1.1260564926072964e-03
5367:2.2879343963449635e-04
5368:2.2451215727335482e-03
5369:1.6355405409711520e-03
5370:8.0873670317417503e-04
5371:1.6219506731524416e-04
5372:1.6561469259572220e-03
5373:1.1995991428488035e-03
5374:5.8625757349495353e-04
5375:1.1416603163920847e-04
5376:-1.5082374187839764e-01
5377:-1.4300273507667791e-01
5378:-1.3296481061042570e-01
5379:-1.2540288597342458e-01
5380:-1.5049460259341507e-01
5381:-1.4292504868555631e-01
5382:-1.3318947999969338e-01
5383:-1.2583989767362266e-01
5384:-1.4956553510964485e-01
5385:-1.4231898409214538e-01
5386:-1.3297436560965928e-01
5387:-1.2590136127888027e-01
5388:-1.4847901304953623e-01
5389:-1.4147607976012586e-01
5390:-1.3242823753815000e-01
5391:-1.2556667940776489e-01
5392:-1.2142294099865891e-01
5393:-1.1408426871836314e-01
5394:-1.0477215709561570e-01
5395:-9.7837398014005053e-02
5396:-1.2196634525707399e-01
5397:-1.1481503245616639e-01
5398:-1.0572375283468499e-01
5399:-9.8940533984289480e-02
5400:-1.2216712244194483e-01
5401:-1.1526240064911981e-01
5402:-1.0646423989442157e-01
5403:-9.9884151986132527e-02
5404:-1.2193948716653991e-01
5405:-1.1522517033110884e-01
5406:-1.0665515770545493e-01
5407:-1.0023461999084625e-01
5408:-9.4215428954623162e-02
5409:-8.7584132518271116e-02
5410:-7.9260689633148654e-02
5411:-7.3131765580242883e-02
5412:-9.5393195333926484e-02
5413:-8.8891266479604852e-02
5414:-8.0716227253792211e-02
5415:-7.4685806288268416e-02
5416:-9.6437591233251574e-02
5417:-9.0111613614662828e-02
5418:-8.2140930342326154e-02
5419:-7.6248230286505972e-02
5420:-9.6867748393288308e-02
5421:-9.0681809376737574e-02
5422:-8.2875571046600149e-02
5423:-7.7095163347437295e-02
5424:-6.9955091289470056e-02
5425:-6.4179682327534252e-02
5426:-5.7009369734631166e-02
5427:-5.1790753445639860e-02
5428:-7.1556382718764910e-02
5429:-6.5860752980671539e-02
5430:-5.8777625780000363e-02
5431:-5.3613205933478819e-02
5432:-7.3185672865266574e-02
5433:-6.7604340721310066e-02
5434:-6.0649006034369971e-02
5435:-5.5566547686533692e-02
5436:-7.4087684537108137e-02
5437:-6.8601467489041737e-02
5438:-6.1754446535612802e-02
5439:-5.6743138998057906e-02
5440:-4.9107787908612040e-02
5441:-4.4268015595585207e-02
5442:-3.8334228118102387e-02
5443:-3.4074606160504853e-02
5444:-5.0954789230931573e-02
5445:-4.6153858244853102e-02
5446:-4.0257016024741847e-02
5447:-3.6015438657357200e-02
5448:-5.2946304432063863e-02
5449:-4.8207734084416483e-02
5450:-4.2374573084507122e-02
5451:-3.8168538658988838e-02
5452:-5.4156711580377909e-02
5453:-4.9474620130483433e-02
5454:-4.3701799284926922e-02
5455:-3.9531968239655643e-02
5456:-3.1906121173688670e-02
5457:-2.8032277907176283e-02
5458:-2.3358127099651460e-02
5459:-2.0063052305397209e-02
5460:-3.3853041647712842e-02
5461:-2.9984752921392514e-02
5462:-2.5306660583542251e-02
5463:-2.2000160580134237e-02
5464:-3.6020511867630757e-02
5465:-3.2171517737628587e-02
5466:-2.7503935802352778e-02
5467:-2.4194450746015072e-02
5468:-3.7399762454223731e-02
5469:-3.3574580151509111e-02
5470:-2.8926802858748060e-02
5471:-2.5623996948985883e-02
5472:-1.8407859901375306e-02
5473:-1.5490741775124410e-02
5474:-1.2050872296525725e-02
5475:-9.6908577457174225e-03
5476:-2.0335979406492139e-02
5477:-1.7397096026016506e-02
5478:-1.3919427249618756e-02
5479:-1.1523331184756253e-02
5480:-2.2524859817163404e-02
5481:-1.9569349340587499e-02
5482:-1.6057541704929398e-02
5483:-1.3625858537382915e-02
5484:-2.3955018506908256e-02
5485:-2.0995641432693470e-02
5486:-1.7469138601892552e-02
5487:-1.5018879737834757e-02
5488:-8.5297338061616455e-03
5489:-6.5267142517617931e-03
5490:-4.2526184611288787e-03
5491:-2.7652401327223964e-03
5492:-1.0340504279081293e-02
5493:-8.2924406897599678e-03
5494:-5.9512018089819749e-03
5495:-4.4059772373542831e-03
5496:-1.2420786712534597e-02
5497:-1.0325289223048244e-02
5498:-7.9111424363626660e-03
5499:-6.3016423580019593e-03
5500:-1.3801361975034879e-02
5501:-1.1678114136291716e-02
5502:-9.2192612906184072e-03
5503:-7.5690266442219514e-03
5504:-2.0613491989376043e-03
5505:-8.9575569706933328e-04
5506:3.2791735738333202e-04
5507:1.0431179357731869e-03
5508:-3.6690127228917787e-03
5509:-2.4372543593672415e-03
5510:-1.1192122454229971e-03
5511:-3.2550239250774704e-04
5512:-5.5274783015447056e-03
5513:-4.2206448566910765e-03
5514:-2.7943709064352082e-03
5515:-1.9098347581987332e-03
5516:-6.7708900125622645e-03
5517:-5.4151032865441965e-03
5518:-3.9172578209023369e-03
5519:-2.9719898278333517e-03
5520:1.3477424376584612e-03
5521:1.7944033177513920e-03
5522:2.1421948945422073e-03
5523:2.2348433147607997e-03
5524:2.3159453281146968e-05
5525:5.5666485991041328e-04
5526:1.0260953380489808e-03
5527:1.2184149874920295e-03
5528:-1.5099877334793369e-03
5529:-8.7529831726440219e-04
5530:-2.6377205405834391e-04
5531:4.5203775119388888e-05
5532:-2.5377150826328626e-03
5533:-1.8347659007601066e-03
5534:-1.1270741929087964e-03
5535:-7.3896855326146486e-04
5536:2.2259096894903904e-03
5537:2.1293041585664012e-03
5538:1.8612986519618156e-03
5539:1.5554164738221324e-03
5540:1.2649111504939234e-03
5541:1.2769503199659684e-03
5542:1.1599368757633651e-03
5543:9.7695966894419464e-04
5544:1.5662260763495709e-04
5545:2.9573137190437522e-04
5546:3.5485857066727656e-04
5547:3.1486715136148528e-04
5548:-5.8347444952375812e-04
5549:-3.5825926236137789e-04
5550:-1.8017370517352580e-04
5551:-1.2393850812567435e-04
5552:1.3614120595420145e-03
5553:9.8118378681403455e-04
5554:4.7400748817439861e-04
5555:8.8455112008255975e-05
5556:8.5105145749372164e-04
5557:6.0401699441250023e-04
5558:2.8151408276009843e-04
5559:4.6014866884243077e-05
5560:2.6801668609491915e-04
5561:1.7499604501678302e-04
5562:6.4699455664280395e-05
5563:5.6672401897169830e-07
5564:-1.1772896303402581e-04
5565:-1.0793926018431784e-04
5566:-7.7779266610632634e-05
5567:-2.9440792886623856e-05
5568:-1.4777003411874393e-01
5569:-1.4089548409591210e-01
5570:-1.3200469905707266e-01
5571:-1.2525555180748663e-01
5572:-1.4620243597830973e-01
5573:-1.3956565215820407e-01
5574:-1.3096689800271200e-01
5575:-1.2442766752039747e-01
5576:-1.4369860761291453e-01
5577:-1.3736595017283740e-01
5578:-1.2914296288178695e-01
5579:-1.2287556361426726e-01
5580:-1.4143352386006003e-01
5581:-1.3532944991692891e-01
5582:-1.2739057677975407e-01
5583:-1.2132999880118468e-01
5584:-1.2168545246041682e-01
5585:-1.1507300497458615e-01
5586:-1.0662567393271412e-01
5587:-1.0029141844148876e-01
5588:-1.2096450828629149e-01
5589:-1.1454343605994459e-01
5590:-1.0632768133006142e-01
5591:-1.0015716170881797e-01
5592:-1.1955150457789879e-01
5593:-1.1338044161560301e-01
5594:-1.0546932020790642e-01
5595:-9.9515840137948675e-02
5596:-1.1811223369791753e-01
5597:-1.1213302559429948e-01
5598:-1.0445724589350938e-01
5599:-9.8672655573540449e-02
5600:-9.6967819759525148e-02
5601:-9.0858228745517092e-02
5602:-8.3142244221389591e-02
5603:-7.7423950770409242e-02
5604:-9.6915997939575921e-02
5605:-9.0952393569513526e-02
5606:-8.3410056246881456e-02
5607:-7.7812130066526819e-02
5608:-9.6384546681379163e-02
5609:-9.0616546619727192e-02
5610:-8.3308900535543004e-02
5611:-7.7875271428688719e-02
5612:-9.5627296800552042e-02
5613:-9.0013046186797271e-02
5614:-8.2891353990919028e-02
5615:-7.7589073516735760e-02
5616:-7.4447120177103462e-02
5617:-6.9014142274302345e-02
5618:-6.2228379127239816e-02
5619:-5.7257840805477592e-02
5620:-7.4895011924395100e-02
5621:-6.9566315407226936e-02
5622:-6.2901653629348672e-02
5623:-5.8012637433409252e-02
5624:-7.5040257798761542e-02
5625:-6.9855982561215349e-02
5626:-6.3361103189013293e-02
5627:-5.8588080229487915e-02
5628:-7.4820128641473749e-02
5629:-6.9752809069352356e-02
5630:-6.3396893928744993e-02
5631:-5.8720004053107247e-02
5632:-5.4690997869983521e-02
5633:-5.0041989746934523e-02
5634:-4.4305301348753795e-02
5635:-4.0157862243360348e-02
5636:-5.5485314946989675e-02
5637:-5.0903708657630477e-02
5638:-4.5241970491100618e-02
5639:-4.1142161784141720e-02
5640:-5.6117642255613491e-02
5641:-5.1634210540354206e-02
5642:-4.6084032239104761e-02
5643:-4.2057196004120716e-02
5644:-5.6297162929021205e-02
5645:-5.1896671703244614e-02
5646:-4.6442363818702329e-02
5647:-4.2479615732182271e-02
5648:-3.8035752686083439e-02
5649:-3.4226390664289653e-02
5650:-2.9593253543514508e-02
5651:-2.6297132856442907e-02
5652:-3.9042027064467077e-02
5653:-3.5268071962129451e-02
5654:-3.0669918067214030e-02
5655:-2.7392120557254773e-02
5656:-3.9991582529726628e-02
5657:-3.6274880879502543e-02
5658:-3.1736908746195919e-02
5659:-2.8494216678072195e-02
5660:-4.0444871522867673e-02
5661:-3.6780393453195163e-02
5662:-3.2299526198338174e-02
5663:-2.9092205212115065e-02
5664:-2.4630142197791399e-02
5665:-2.1671808209735625e-02
5666:-1.8141492903690187e-02
5667:-1.5684389273269789e-02
5668:-2.5731942042711346e-02
5669:-2.2781341452138650e-02
5670:-1.9251383435551921e-02
5671:-1.6787166035059257e-02
5672:-2.6848903964014941e-02
5673:-2.3919602458513892e-02
5674:-2.0404698169351743e-02
5675:-1.7942335499632013e-02
5676:-2.7462807254160809e-02
5677:-2.4558310363421616e-02
5678:-2.1065984680480924e-02
5679:-1.8613475703859697e-02
5680:-1.4461857369845482e-02
5681:-1.2326849701820214e-02
5682:-9.8481116846000707e-03
5683:-8.1791808136270263e-03
5684:-1.5558268012239888e-02
5685:-1.3406897105125996e-02
5686:-1.0898280121662130e-02
5687:-9.1999612195314759e-03
5688:-1.6711047152467389e-02
5689:-1.4549417684873016e-02
5690:-1.2016276929350448e-02
5691:-1.0290692193888121e-02
5692:-1.7384835675703481e-02
5693:-1.5223743620560545e-02
5694:-1.2682758244661885e-02
5695:-1.0944665266335720e-02
5696:-7.3698732920661871e-03
5697:-5.9910367784408360e-03
5698:-4.4590810110074026e-03
5699:-3.4845967559739835e-03
5700:-8.3727285455007915e-03
5701:-6.9563914449576403e-03
5702:-5.3680579288516977e-03
5703:-4.3447029353276398e-03
5704:-9.4459791364997908e-03
5705:-7.9918968026759241e-03
5706:-6.3448264748547714e-03
5707:-5.2692622884180033e-03
5708:-1.0091027822322613e-02
5709:-8.6164791502834261e-03
5710:-6.9355956735661561e-03
5711:-5.8287431112592006e-03
5712:-3.0336786704598254e-03
5713:-2.2976505859798172e-03
5714:-1.5432361493704935e-03
5715:-1.1166137947100075e-03
5716:-3.8657715052359000e-03
5717:-3.0738893947438979e-03
5718:-2.2403110890326047e-03
5719:-1.7482643345164250e-03
5720:-4.7600218802899752e-03
5721:-3.9073148914060630e-03
5722:-2.9869201214371231e-03
5723:-2.4227572012139463e-03
5724:-5.3009835119159337e-03
5725:-4.4107450874700848e-03
5726:-3.4362167428586771e-03
5727:-2.8267465069690247e-03
5728:-9.3965155788001422e-04
5729:-6.7256046589540548e-04
5730:-4.3678452418776520e-04
5731:-3.3402159624156978e-04
5732:-1.5348003263166913e-03
5733:-1.1966313925524108e-03
5734:-8.6325700348705210e-04
5735:-6.8206391047817181e-04
5736:-2.1689763133908848e-03
5737:-1.7525627749295164e-03
5738:-1.3124421821514541e-03
5739:-1.0460822786383939e-03
5740:-2.5475606301018296e-03
5741:-2.0820779961115959e-03
5742:-1.5756397189169952e-03
5743:-1.2569268730865553e-03
5744:-3.0221556841208362e-04
5745:-2.4306169690438133e-04
5746:-1.4596303775643165e-04
5747:-4.4423476780692365e-05
5748:-6.0723456126345185e-04
5749:-4.6559096127351022e-04
5750:-2.5766609297683292e-04
5751:-6.8860746841448820e-05
5752:-9.2480304636094078e-04
5753:-6.9514096048578413e-04
5754:-3.7119487081210736e-04
5755:-9.2814893105116428e-05
5756:-1.1073398241959211e-03
5757:-8.2498315422178524e-04
5758:-4.3363189454369202e-04
5759:-1.0488326944191862e-04
5760:-1.4010537773585258e-01
5761:-1.3412157838559965e-01
5762:-1.2633278802827294e-01
5763:-1.2038191170510726e-01
5764:-1.3738690109026636e-01
5765:-1.3162625672574968e-01
5766:-1.2411699292746663e-01
5767:-1.1837124520967958e-01
5768:-1.3339914955208956e-01
5769:-1.2792508003312655e-01
5770:-1.2077684268696877e-01
5771:-1.1529759185496170e-01
5772:-1.3000754441534407e-01
5773:-1.2474992824832845e-01
5774:-1.1787593559606108e-01
5775:-1.1260029382483755e-01
5776:-1.1722068562087171e-01
5777:-1.1134380800353419e-01
5778:-1.0379409533821954e-01
5779:-9.8100392677142101e-02
5780:-1.1531602725221751e-01
5781:-1.0963152558779195e-01
5782:-1.0231979996543006e-01
5783:-9.6798433837791589e-02
5784:-1.1238064659008218e-01
5785:-1.0694805519555096e-01
5786:-9.9949862013499174e-02
5787:-9.4656991198567311e-02
5788:-1.0978940222568041e-01
5789:-1.0455075954518697e-01
5790:-9.7795373310569214e-02
5791:-9.2680531107668357e-02
5792:-9.5101428816750114e-02
5793:-8.9570444183095788e-02
5794:-8.2549962343951913e-02
5795:-7.7319566288287692e-02
5796:-9.3887713605712464e-02
5797:-8.8515576207069971e-02
5798:-8.1689097174145492e-02
5799:-7.6597212768551623e-02
5800:-9.1863787808991376e-02
5801:-8.6704098136010266e-02
5802:-8.0138842790829792e-02
5803:-7.5234830874820288e-02
5804:-8.9979269999274067e-02
5805:-8.4986462770929583e-02
5806:-7.8627696542723599e-02
5807:-7.3873189397762787e-02
5808:-7.4586923004762662e-02
5809:-6.9584112442258608e-02
5810:-6.3305333753586282e-02
5811:-5.8682197800671236e-02
5812:-7.3934779740775183e-02
5813:-6.9057188479608914e-02
5814:-6.2929033568533105e-02
5815:-5.8411576744635867e-02
5816:-7.2668122511293620e-02
5817:-6.7962111188200600e-02
5818:-6.2042026285415525e-02
5819:-5.7671888549254077e-02
5820:-7.1383014186850682e-02
5821:-6.6814803178084817e-02
5822:-6.1063035438037719e-02
5823:-5.6813024596078732e-02
5824:-5.6286117606680675e-02
5825:-5.1932515281199937e-02
5826:-4.6532923897642992e-02
5827:-4.2607185778061947e-02
5828:-5.6068373500147310e-02
5829:-5.1807883327287148e-02
5830:-4.6517882787180935e-02
5831:-4.2667045722949333e-02
5832:-5.5402889967852122e-02
5833:-5.1273929053326429e-02
5834:-4.6140459671985094e-02
5835:-4.2398021829391092e-02
5836:-5.4604882963171827e-02
5837:-5.0584399714869173e-02
5838:-4.5581237413429947e-02
5839:-4.1930020427136894e-02
5840:-4.0590437365891983e-02
5841:-3.6956714277518732e-02
5842:-3.2510131366912928e-02
5843:-2.9324632918617609e-02
5844:-4.0687017046655435e-02
5845:-3.7116593807831555e-02
5846:-3.2741713445217938e-02
5847:-2.9602854532903556e-02
5848:-4.0471677574010850e-02
5849:-3.6994777914044319e-02
5850:-3.2727860931987034e-02
5851:-2.9660977108866664e-02
5852:-4.0049224140246593e-02
5853:-3.6652336005622163e-02
5854:-3.2479139818347311e-02
5855:-2.9475884982513387e-02
5856:-2.7705304757220498e-02
5857:-2.4817007349346758e-02
5858:-2.1340596732732042e-02
5859:-1.8896305499279703e-02
5860:-2.8005463727355285e-02
5861:-2.5153272629888836e-02
5862:-2.1714164179381643e-02
5863:-1.9290978351812309e-02
5864:-2.8098152641819186e-02
5865:-2.5304221902745182e-02
5866:-2.1928304627292554e-02
5867:-1.9543748789451750e-02
5868:-2.7944074811109984e-02
5869:-2.5203275107424938e-02
5870:-2.1886821999562663e-02
5871:-1.9540294226351524e-02
5872:-1.7670653486075875e-02
5873:-1.5512803959169114e-02
5874:-1.2971491880007598e-02
5875:-1.1229684922192989e-02
5876:-1.8073955342894341e-02
5877:-1.5927854098694318e-02
5878:-1.3393302946104010e-02
5879:-1.1650163350650252e-02
5880:-1.8343878581279529e-02
5881:-1.6224140494723115e-02
5882:-1.3712751778518092e-02
5883:-1.1978815087624013e-02
5884:-1.8358042060648731e-02
5885:-1.6266869779900398e-02
5886:-1.3784075608663428e-02
5887:-1.2065446400922141e-02
5888:-1.0372865192467426e-02
5889:-8.8903847846737317e-03
5890:-7.1954162545138081e-03
5891:-6.0749505451451191e-03
5892:-1.0790371469579499e-02
5893:-9.2986627694506725e-03
5894:-7.5847125411358379e-03
5895:-6.4444730900117845e-03
5896:-1.1120959738495109e-02
5897:-9.6281538183748735e-03
5898:-7.9038102616224761e-03
5899:-6.7488766522528056e-03
5900:-1.1213454844193610e-02
5901:-9.7280338273322067e-03
5902:-8.0064945163494886e-03
5903:-6.8485950781396613e-03
5904:-5.5389728565507753e-03
5905:-4.6319149328393145e-03
5906:-3.6328747170366218e-03
5907:-3.0027378894627158e-03
5908:-5.8961785076341207e-03
5909:-4.9635179553434395e-03
5910:-3.9265520360234644e-03
5911:-3.2640630718537610e-03
5912:-6.1904739300941156e-03
5913:-5.2358205875828959e-03
5914:-4.1647606877792389e-03
5915:-3.4722689594862636e-03
5916:-6.2868897379291340e-03
5917:-5.3238595382262060e-03
5918:-4.2380478236193220e-03
5919:-3.5315478010135735e-03
5920:-2.7119297804023852e-03
5921:-2.2240980941809767e-03
5922:-1.6877201730056738e-03
5923:-1.3456115651890861e-03
5924:-2.9549708305760779e-03
5925:-2.4321587205780107e-03
5926:-1.8494221204747702e-03
5927:-1.4715502029120160e-03
5928:-3.1459974661321682e-03
5929:-2.5906892530886084e-03
5930:-1.9659616781032212e-03
5931:-1.5567093217382722e-03
5932:-3.1970108174414909e-03
5933:-2.6264185333425122e-03
5934:-1.9829988926896216e-03
5935:-1.5608113587009986e-03
5936:-1.1834805447697391e-03
5937:-8.7818693961412119e-04
5938:-4.5841216426605481e-04
5939:-1.0919554491121228e-04
5940:-1.2904565631657952e-03
5941:-9.5138264323040120e-04
5942:-4.9181601208416327e-04
5943:-1.1578356583069272e-04
5944:-1.3594572869095171e-03
5945:-9.9373985969139923e-04
5946:-5.0789428658575421e-04
5947:-1.1893102236658852e-04
5948:-1.3574127516632524e-03
5949:-9.8400439900357011e-04
5950:-4.9687387061799382e-04
5951:-1.1431734271513703e-04
5952:-1.2808183640198323e-01
5953:-1.2293858580286413e-01
5954:-1.1621003735549588e-01
5955:-1.1104278503929083e-01
5956:-1.2424154373508722e-01
5957:-1.1931213653642737e-01
5958:-1.1285652264196415e-01
5959:-1.0789340017695268e-01
5960:-1.1878566988704896e-01
5961:-1.1413446011215175e-01
5962:-1.0803579643729011e-01
5963:-1.0334103574970611e-01
5964:-1.1426309344222127e-01
5965:-1.0982494085811124e-01
5966:-1.0400104980242421e-01
5967:-9.9513904249088195e-02
5968:-1.0828849178650572e-01
5969:-1.0315360991180426e-01
5970:-9.6528611288897059e-02
5971:-9.1509739621336558e-02
5972:-1.0524595288589560e-01
5973:-1.0030741098600277e-01
5974:-9.3930019335060025e-02
5975:-8.9094062579875316e-02
5976:-1.0083453901073486e-01
5977:-9.6155887830744177e-02
5978:-9.0107929753262636e-02
5979:-8.5516600102525819e-02
5980:-9.7116809825217337e-02
5981:-9.2640530539109464e-02
5982:-8.6850336155401900e-02
5983:-8.2451340574332579e-02
5984:-8.8858171931035901e-02
5985:-8.3955790598645302e-02
5986:-7.7709351218416267e-02
5987:-7.3036509675978786e-02
5988:-8.6537441955839345e-02
5989:-8.1808247483999105e-02
5990:-7.5777738096898722e-02
5991:-7.1262496367496167e-02
5992:-8.3087402470354690e-02
5993:-7.8591416815979448e-02
5994:-7.2853181874853526e-02
5995:-6.8552412564808027e-02
5996:-8.0122649836182516e-02
5997:-7.5811184544742741e-02
5998:-7.0305302750385990e-02
5999:-6.6175868845389077e-02
6000:-7.0588260138334483e-02
6001:-6.6095745964611569e-02
6002:-6.0436843999499265e-02
6003:-5.6253427882956376e-02
6004:-6.8895373142997832e-02
6005:-6.4549710743580957e-02
6006:-5.9071704358565236e-02
6007:-5.5018584934742272e-02
6008:-6.6296099586386589e-02
6009:-6.2151732538856710e-02
6010:-5.6923067425229436e-02
6011:-5.3050619766713270e-02
6012:-6.4008372572548530e-02
6013:-6.0025860137452508e-02
6014:-5.4998673293781691e-02
6015:-5.1272983091320959e-02
6016:-5.4079138598947307e-02
6017:-5.0119197178750984e-02
6018:-4.5189155699933599e-02
6019:-4.1589445110828509e-02
6020:-5.2910738342586076e-02
6021:-4.9069986015881785e-02
6022:-4.4284614932544250e-02
6023:-4.0787385376978583e-02
6024:-5.1035291671928731e-02
6025:-4.7361177972846211e-02
6026:-4.2779398723844370e-02
6027:-3.9427448331482713e-02
6028:-4.9333081786464235e-02
6029:-4.5795298451487353e-02
6030:-4.1381017256412106e-02
6031:-3.8149331660054978e-02
6032:-3.9734485806182690e-02
6033:-3.6383194726045648e-02
6034:-3.2263835900254119e-02
6035:-2.9297489593280518e-02
6036:-3.8984047308837325e-02
6037:-3.5724235078793590e-02
6038:-3.1713653010982418e-02
6039:-2.8822516271595076e-02
6040:-3.7697681737827483e-02
6041:-3.4568936731763894e-02
6042:-3.0715598971867000e-02
6043:-2.7934333908141335e-02
6044:-3.6480741263212241e-02
6045:-3.3461458367648883e-02
6046:-2.9740402850022812e-02
6047:-2.7052351930368385e-02
6048:-2.7783808816080155e-02
6049:-2.5074324527732998e-02
6050:-2.1793462339266920e-02
6051:-1.9470175453455776e-02
6052:-2.7346024888848668e-02
6053:-2.4701230333402307e-02
6054:-2.1494831246442591e-02
6055:-1.9220987323420795e-02
6056:-2.6512613179734239e-02
6057:-2.3963888449887536e-02
6058:-2.0869724094707578e-02
6059:-1.8671819884976137e-02
6060:-2.5677395585073873e-02
6061:-2.3211225918047640e-02
6062:-2.0214590225974320e-02
6063:-1.8083590657873804e-02
6064:-1.8298890932059296e-02
6065:-1.6225889502983440e-02
6066:-1.3762148622063094e-02
6067:-1.2054575243100708e-02
6068:-1.8073369506268425e-02
6069:-1.6040210304334619e-02
6070:-1.3619626505600991e-02
6071:-1.1938403278874753e-02
6072:-1.7561120028732998e-02
6073:-1.5591167697194687e-02
6074:-1.3241319727574285e-02
6075:-1.1605368459578193e-02
6076:-1.7005776346817422e-02
6077:-1.5092783237550318e-02
6078:-1.2808064889097550e-02
6079:-1.1215028097556493e-02
6080:-1.1207244205601419e-02
6081:-9.7286373011894311e-03
6082:-8.0123494407562702e-03
6083:-6.8557540274178106e-03
6084:-1.1102780005152888e-02
6085:-9.6424922622803440e-03
6086:-7.9432278911281216e-03
6087:-6.7945350622306789e-03
6088:-1.0790767490230302e-02
6089:-9.3650766905041590e-03
6090:-7.7018031806403578e-03
6091:-6.5738439306083163e-03
6092:-1.0420864982970060e-02
6093:-9.0297078893967833e-03
6094:-7.4042801495012899e-03
6095:-6.2999200000753491e-03
6096:-6.2938303518156524e-03
6097:-5.3292667478636539e-03
6098:-4.2395061341995478e-03
6099:-3.5286159390095968e-03
6100:-6.2350971056830606e-03
6101:-5.2731135892408109e-03
6102:-4.1831374675826228e-03
6103:-3.4695960351287733e-03
6104:-6.0231570532227625e-03
6105:-5.0748660155196306e-03
6106:-3.9981123857968232e-03
6107:-3.2915165691825687e-03
6108:-5.7599939051841886e-03
6109:-4.8297506044756976e-03
6110:-3.7729169755115447e-03
6111:-3.0791157457423501e-03
6112:-3.1913461055829572e-03
6113:-2.6158808866634455e-03
6114:-1.9670693898423837e-03
6115:-1.5417408340902649e-03
6116:-3.1302122103839302e-03
6117:-2.5514527438883160e-03
6118:-1.9005962058243149e-03
6119:-1.4759319697433420e-03
6120:-2.9549588211787020e-03
6121:-2.3826650566521382e-03
6122:-1.7438538973052339e-03
6123:-1.3319119744413920e-03
6124:-2.7487088508922298e-03
6125:-2.1889865140721780e-03
6126:-1.5696941986472102e-03
6127:-1.1757056588708097e-03
6128:-1.3371695797344918e-03
6129:-9.6397163347933517e-04
6130:-4.8257580762328314e-04
6131:-1.0901371338088062e-04
6132:-1.2728127382030578e-03
6133:-9.0746236050895943e-04
6134:-4.4785284929785562e-04
6135:-1.0067838512216044e-04
6136:-1.1372563124658109e-03
6137:-7.9545773166371839e-04
6138:-3.8380263424588518e-04
6139:-8.7795548932798517e-05
6140:-9.9205217197605297e-04
6141:-6.7737160283129472e-04
6142:-3.1562374272866959e-04
6143:-7.0017082525768246e-05
6144:-1.1173170591460153e-01
6145:-1.0740726063615080e-01
6146:-1.0173049535827049e-01
6147:-9.7354869777439748e-02
6148:-1.0674385782793587e-01
6149:-1.0263494052410266e-01
6150:-9.7237871832496200e-02
6151:-9.3074855766942910e-02
6152:-9.9766113594512540e-02
6153:-9.5943611498686049e-02
6154:-9.0919776919177936e-02
6155:-8.7041596021117870e-02
6156:-9.4056297711098538e-02
6157:-9.0457898900424202e-02
6158:-8.5727218274198352e-02
6159:-8.2073569943086053e-02
6160:-9.5016661845960054e-02
6161:-9.0649531997551741e-02
6162:-8.4998783157168939e-02
6163:-8.0704149404391051e-02
6164:-9.0849118887787017e-02
6165:-8.6690838670372944e-02
6166:-8.1307626291374613e-02
6167:-7.7213750023188449e-02
6168:-8.4966920544390229e-02
6169:-8.1089853188651487e-02
6170:-7.6068207887152101e-02
6171:-7.2246634276420973e-02
6172:-8.0118249724744503e-02
6173:-7.6463877571604028e-02
6174:-7.1729516217810402e-02
6175:-6.8125004475290088e-02
6176:-7.8430102697840107e-02
6177:-7.4219150997642702e-02
6178:-6.8840207082581317e-02
6179:-6.4804654247307233e-02
6180:-7.5045004056139203e-02
6181:-7.1028073613013040e-02
6182:-6.5894785672217723e-02
6183:-6.2041389348763375e-02
6184:-7.0221055397178586e-02
6185:-6.6468524487968875e-02
6186:-6.1671160991567345e-02
6187:-5.8067729122820655e-02
6188:-6.6213790586247365e-02
6189:-6.2672900511165169e-02
6190:-5.8145254828278113e-02
6191:-5.4743140044148465e-02
6192:-6.2685921515484369e-02
6193:-5.8792443256405494e-02
6194:-5.3876415716492904e-02
6195:-5.0231947321671307e-02
6196:-6.0017438000240321e-02
6197:-5.6297304812930847e-02
6198:-5.1598259880124592e-02
6199:-4.8112768923282569e-02
6200:-5.6174146792010965e-02
6201:-5.2692978120409045e-02
6202:-4.8294085271439094e-02
6203:-4.5029301379910895e-02
6204:-5.2954769824224868e-02
6205:-4.9666829788491844e-02
6206:-4.5511368277362983e-02
6207:-4.2426140256565326e-02
6208:-4.8333880700007263e-02
6209:-4.4871867537444383e-02
6210:-4.0550984426227052e-02
6211:-3.7386600118974975e-02
6212:-4.6296740937403241e-02
6213:-4.2983581382011506e-02
6214:-3.8846707292232871e-02
6215:-3.5815332619341111e-02
6216:-4.3327449784692065e-02
6217:-4.0221943779419532e-02
6218:-3.6342724627609568e-02
6219:-3.3498351708768970e-02
6220:-4.0817374317990415e-02
6221:-3.7881505055515997e-02
6222:-3.4213438425611239e-02
6223:-3.1522842727483451e-02
6224:-3.5752332427610237e-02
6225:-3.2794616337946579e-02
6226:-2.9148269702339340e-02
6227:-2.6513112699098999e-02
6228:-3.4249050013327745e-02
6229:-3.1413547325026700e-02
6230:-2.7916030816955668e-02
6231:-2.5386675714478689e-02
6232:-3.2027927628133404e-02
6233:-2.9365222461202781e-02
6234:-2.6079090281678218e-02
6235:-2.3700778930582877e-02
6236:-3.0131437120877014e-02
6237:-2.7611500220254010e-02
6238:-2.4500668286077498e-02
6239:-2.2248141925580174e-02
6240:-2.5164786335168970e-02
6241:-2.2745791788667109e-02
6242:-1.9805221654241985e-02
6243:-1.7712962407496563e-02
6244:-2.4091777710431254e-02
6245:-2.1767712088936190e-02
6246:-1.8940534168770076e-02
6247:-1.6927108733748690e-02
6248:-2.2482444386769447e-02
6249:-2.0294912850488178e-02
6250:-1.7631844482294136e-02
6251:-1.5733367012995752e-02
6252:-2.1093762325215312e-02
6253:-1.9020616520519545e-02
6254:-1.6495719614328649e-02
6255:-1.4694590733683125e-02
6256:-1.6654298442522877e-02
6257:-1.4774668980845727e-02
6258:-1.2528505264279772e-02
6259:-1.0961224358437121e-02
6260:-1.5907601116203728e-02
6261:-1.4096517697590799e-02
6262:-1.1930238421308755e-02
6263:-1.0416897258975584e-02
6264:-1.4771281930840126e-02
6265:-1.3061280677536910e-02
6266:-1.1013942447365480e-02
6267:-9.5818735178665442e-03
6268:-1.3781352743785153e-02
6269:-1.2157691630682598e-02
6270:-1.0212658828866036e-02
6271:-8.8510883016625717e-03
6272:-1.0179468712141386e-02
6273:-8.8095133709751236e-03
6274:-7.2078128852655536e-03
6275:-6.1186853304182609e-03
6276:-9.6613517068022004e-03
6277:-8.3365501655482954e-03
6278:-6.7861447183498163e-03
6279:-5.7306232225508855e-03
6280:-8.8661919276106088e-03
6281:-7.6106626060872505e-03
6282:-6.1401837577935801e-03
6283:-5.1381045033963967e-03
6284:-8.1702131072365174e-03
6285:-6.9755238783045714e-03
6286:-5.5759731460406940e-03
6287:-4.6219486955503021e-03
6288:-5.5858846065279010e-03
6289:-4.6678357908344998e-03
6290:-3.6249243745316217e-03
6291:-2.9404404633936879e-03
6292:-5.2138141954747776e-03
6293:-4.3234694319505673e-03
6294:-3.3127671649334379e-03
6295:-2.6502568133457299e-03
6296:-4.6471489339842218e-03
6297:-3.8020414312843905e-03
6298:-2.8446474224887754e-03
6299:-2.2189764002804101e-03
6300:-4.1544788812791968e-03
6301:-3.3506533879422958e-03
6302:-2.4421520286975504e-03
6303:-1.8503947317229121e-03
6304:-2.6146344362373256e-03
6305:-2.0641150199639810e-03
6306:-1.4585573761065160e-03
6307:-1.0767591319874796e-03
6308:-2.3354126906598299e-03
6309:-1.8064494191630395e-03
6310:-1.2321324818971285e-03
6311:-8.7732960225030251e-04
6312:-1.9226078944654258e-03
6313:-1.4292686418444116e-03
6314:-9.0490035393671895e-04
6315:-5.9195367843269705e-04
6316:-1.5710312092274902e-03
6317:-1.1099380944289195e-03
6318:-6.2955564611887169e-04
6319:-3.5252707459476856e-04
6320:-9.0040052968563703e-04
6321:-6.0301581662715244e-04
6322:-2.7193970600666281e-04
6323:-5.6629515758277391e-05
6324:-7.1684710599079248e-04
6325:-4.5619252147159601e-04
6326:-1.8874563792991859e-04
6327:-3.5441533434464401e-05
6328:-4.5561206043888864e-04
6329:-2.4954159706496527e-04
6330:-7.4603662899179197e-05
6331:-1.0331115298780206e-05
6332:-2.3657496542876859e-04
6333:-7.5978633709732676e-05
6334:2.2839354323589535e-05
6335:1.4328168121624555e-05
6336:-9.0884056623599455e-02
6337:-8.7407016402074655e-02
6338:-8.2835456139703223e-02
6339:-7.9303947086746318e-02
6340:-8.4673785355601855e-02
6341:-8.1430753971675887e-02
6342:-7.7166556220662874e-02
6343:-7.3871360096017011e-02
6344:-7.6059688377332887e-02
6345:-7.3135610737535051e-02
6346:-6.9291293082248448e-02
6347:-6.6319588920973449e-02
6348:-6.9062411135765986e-02
6349:-6.6394000498061684e-02
6350:-6.2886888113944106e-02
6351:-6.0175431301512192e-02
6352:-7.7413642507719274e-02
6353:-7.3880742916161368e-02
6354:-6.9303396285801885e-02
6355:-6.5817747546919242e-02
6356:-7.2106975325533923e-02
6357:-6.8809578984276948e-02
6358:-6.4537092258022830e-02
6359:-6.1282554741259772e-02
6360:-6.4727801495722298e-02
6361:-6.1753626616896491e-02
6362:-5.7900335792681244e-02
6363:-5.4964154628060216e-02
6364:-5.8722647774178446e-02
6365:-5.6009066108415786e-02
6366:-5.2494273777045880e-02
6367:-4.9815544489744464e-02
6368:-6.3969237949367611e-02
6369:-6.0544526825118940e-02
6370:-5.6165207367758652e-02
6371:-5.2874001961493319e-02
6372:-5.9556075193565559e-02
6373:-5.6357662204383048e-02
6374:-5.2267639301194102e-02
6375:-4.9193036571624972e-02
6376:-5.3405964339042815e-02
6377:-5.0519981924156722e-02
6378:-4.6830026574580082e-02
6379:-4.4055455680509073e-02
6380:-4.8393576932236053e-02
6381:-4.5760725633374050e-02
6382:-4.2395346231978284e-02
6383:-3.9864520497558557e-02
6384:-5.1143664133985668e-02
6385:-4.7962425101395020e-02
6386:-4.3941619391275090e-02
6387:-4.0955892024080350e-02
6388:-4.7576132879720498e-02
6389:-4.4603630938083269e-02
6390:-4.0846582478317933e-02
6391:-3.8056008196845979e-02
6392:-4.2595848344832037e-02
6393:-3.9913093857877897e-02
6394:-3.6522740644940932e-02
6395:-3.4003924909825213e-02
6396:-3.8532813925474356e-02
6397:-3.6085855924622851e-02
6398:-3.2994300417596684e-02
6399:-3.0697217020994639e-02
6400:-3.9398772430967323e-02
6401:-3.6557130816232318e-02
6402:-3.3006565527857842e-02
6403:-3.0401710552394750e-02
6404:-3.6600274879695603e-02
6405:-3.3943766491881959e-02
6406:-3.0624371481095678e-02
6407:-2.8188449475051957e-02
6408:-3.2689533181460131e-02
6409:-3.0291387186549282e-02
6410:-2.7295139253901039e-02
6411:-2.5095795319928803e-02
6412:-2.9498252214849630e-02
6413:-2.7311277875830646e-02
6414:-2.4579510759420289e-02
6415:-2.2574081454012660e-02
6416:-2.9054423451516063e-02
6417:-2.6614301456910388e-02
6418:-2.3601675865351179e-02
6419:-2.1419780999671623e-02
6420:-2.6928178933055279e-02
6421:-2.4645631484147324e-02
6422:-2.1827198107636565e-02
6423:-1.9785222728046375e-02
6424:-2.3957543070731151e-02
6425:-2.1896217996757335e-02
6426:-1.9350951295412030e-02
6427:-1.7506239808296138e-02
6428:-2.1535948244617856e-02
6429:-1.9656316914134529e-02
6430:-1.7335761644906675e-02
6431:-1.5653615134570229e-02
6432:-2.0301374665289782e-02
6433:-1.8292672859874071e-02
6434:-1.5845832546233517e-02
6435:-1.4099873842127167e-02
6436:-1.8738173851765436e-02
6437:-1.6857465222442913e-02
6438:-1.4565979743782938e-02
6439:-1.2930095604805918e-02
6440:-1.6559959163442814e-02
6441:-1.4860270705702497e-02
6442:-1.2789055351177745e-02
6443:-1.1309698860802207e-02
6444:-1.4790486816138504e-02
6445:-1.3240347930937452e-02
6446:-1.1351460009862445e-02
6447:-1.0001959545868340e-02
6448:-1.3214385040625666e-02
6449:-1.1639875660110870e-02
6450:-9.7532895978615190e-03
6451:-8.4321657450425573e-03
6452:-1.2100073005817289e-02
6453:-1.0623961776561740e-02
6454:-8.8546913906024805e-03
6455:-7.6150180656117472e-03
6456:-1.0558721698542129e-02
6457:-9.2230918098296696e-03
6458:-7.6218291053669028e-03
6459:-6.4992461125710421e-03
6460:-9.3166675086370186e-03
6461:-8.0979325427657234e-03
6462:-6.6367922463228778e-03
6463:-5.6121426139448477e-03
6464:-7.7713247860044191e-03
6465:-6.6117543950732867e-03
6466:-5.2533474497767326e-03
6467:-4.3273694273648789e-03
6468:-6.9946236128008285e-03
6469:-5.9060937156718033e-03
6470:-4.6311689523201530e-03
6471:-3.7622896949519036e-03
6472:-5.9371654110000087e-03
6473:-4.9512461612770588e-03
6474:-3.7972125845850868e-03
6475:-3.0112325243369918e-03
6476:-5.0989381109266931e-03
6477:-4.1990949058581780e-03
6478:-3.1465590036589106e-03
6479:-2.4302193192278047e-03
6480:-3.8736691596205396e-03
6481:-3.0940735319026189e-03
6482:-2.2142828146448283e-03
6483:-1.6424322807247237e-03
6484:-3.3366823094299679e-03
6485:-2.6064879269381215e-03
6486:-1.7851712864978447e-03
6487:-1.2538462819337774e-03
6488:-2.6264698139620052e-03
6489:-1.9680058603458706e-03
6490:-1.2314375546928101e-03
6491:-7.5879584644993894e-04
6492:-2.0797691139051119e-03
6493:-1.4814765313556704e-03
6494:-8.1586063526932278e-04
6495:-3.9228969537654485e-04
6496:-1.3730327661056676e-03
6497:-9.3063632835705811e-04
6498:-4.7531321068742610e-04
6499:-2.1840089237799083e-04
6500:-1.0047176809997592e-03
6501:-5.9999837540885117e-04
6502:-1.9421660295725025e-04
6503:2.3802205562580704e-05
6504:-5.3898563826761472e-04
6505:-1.8794221837291832e-04
6506:1.4938911572310969e-04
6507:3.1560030227208082e-04
6508:-1.9695515077495279e-04
6509:1.1000814726765751e-04
6510:3.9297040392350535e-04
6511:5.1969603221409147e-04
6512:-1.1374969686859016e-04
6513:2.1800427258355416e-05
6514:7.8900232648632638e-05
6515:3.0581682862567650e-05
6516:1.0694476770715479e-04
6517:1.9539877676745234e-04
6518:1.7487729867248281e-04
6519:5.2872550805196576e-05
6520:3.7087910150591046e-04
6521:4.0018808290622713e-04
6522:2.8506578344388597e-04
6523:7.4655185865795136e-05
6524:5.5444988330469115e-04
6525:5.4232817175471279e-04
6526:3.6442306808547249e-04
6527:9.7110646554811070e-05
6528:-6.5191641035600670e-02
6529:-6.2663862217214414e-02
6530:-5.9342419727590794e-02
6531:-5.6774390412448389e-02
6532:-5.7643559998922074e-02
6533:-5.5391614131828297e-02
6534:-5.2434445115073385e-02
6535:-5.0147875587837509e-02
6536:-4.7229256956332934e-02
6537:-4.5362357799236426e-02
6538:-4.2913772437935517e-02
6539:-4.1020201731473416e-02
6540:-3.8809282094097758e-02
6541:-3.7257742339600365e-02
6542:-3.5225686747299395e-02
6543:-3.3653962256900358e-02
6544:-5.5398258375647338e-02
6545:-5.2828459133036472e-02
6546:-4.9500587231861334e-02
6547:-4.6964134551644429e-02
6548:-4.8922181702460023e-02
6549:-4.6634614246425288e-02
6550:-4.3673721506932099e-02
6551:-4.1416644336446325e-02
6552:-4.0004569423928771e-02
6553:-3.8111112698742886e-02
6554:-3.5662702024991048e-02
6555:-3.3795777342683457e-02
6556:-3.2810349320670520e-02
6557:-3.1239613470370717e-02
6558:-2.9210813987144268e-02
6559:-2.7663301230994836e-02
6560:-4.5617485469489308e-02
6561:-4.3124659303972093e-02
6562:-3.9938953850061285e-02
6563:-3.7543151598718308e-02
6564:-4.0217904578880137e-02
6565:-3.8000082272770699e-02
6566:-3.5167294704013558e-02
6567:-3.3036739358838628e-02
6568:-3.2803593965015546e-02
6569:-3.0969812941710636e-02
6570:-2.8629863209909411e-02
6571:-2.6869705086167778e-02
6572:-2.6840206502106612e-02
6573:-2.5320773538676400e-02
6574:-2.3384162664818471e-02
6575:-2.1927088781226130e-02
6576:-3.6282328732902276e-02
6577:-3.3966107547455229e-02
6578:-3.1040328848428972e-02
6579:-2.8866349382620688e-02
6580:-3.1915174369260148e-02
6581:-2.9855813576034149e-02
6582:-2.7255773035963327e-02
6583:-2.5323714173312653e-02
6584:-2.5942597955320782e-02
6585:-2.4241901413972877e-02
6586:-2.2096688407260291e-02
6587:-2.0502422779531754e-02
6588:-2.1159082375363802e-02
6589:-1.9751805059113649e-02
6590:-1.7978628864783932e-02
6591:-1.6660636215019446e-02
6592:-2.7731498489650869e-02
6593:-2.5661871126610745e-02
6594:-2.3077177967402468e-02
6595:-2.1179664990290174e-02
6596:-2.4314870506015669e-02
6597:-2.2475890553467236e-02
6598:-2.0180316490995477e-02
6599:-1.8494988386370318e-02
6600:-1.9669524959627902e-02
6601:-1.8152594748920899e-02
6602:-1.6260714916881105e-02
6603:-1.4871676333974676e-02
6604:-1.5971630023248248e-02
6605:-1.4718049047543334e-02
6606:-1.3156234666696928e-02
6607:-1.2009421215224345e-02
6608:-2.0197280053630761e-02
6609:-1.8418870110220573e-02
6610:-1.6223604851168659e-02
6611:-1.4632184128329943e-02
6612:-1.7622232903470415e-02
6613:-1.6042902069296251e-02
6614:-1.4094123570511286e-02
6615:-1.2681264698471667e-02
6616:-1.4152015565818693e-02
6617:-1.2850713848199611e-02
6618:-1.1246250782146012e-02
6619:-1.0082922265251095e-02
6620:-1.1414914328578770e-02
6621:-1.0340898541003353e-02
6622:-9.0179364591318235e-03
6623:-8.0586630327070356e-03
6624:-1.3815494543769600e-02
6625:-1.2348925439461318e-02
6626:-1.0562023811291281e-02
6627:-9.2852424741277206e-03
6628:-1.1956005167165289e-02
6629:-1.0654012765988069e-02
6630:-9.0680476241926690e-03
6631:-7.9346249979785986e-03
6632:-9.4854761492030020e-03
6633:-8.4136012888424948e-03
6634:-7.1087077309244717e-03
6635:-6.1759310005263602e-03
6636:-7.5657605336333280e-03
6637:-6.6821248952333044e-03
6638:-5.6071952757874889e-03
6639:-4.8386313789073477e-03
6640:-8.6367650428097690e-03
6641:-7.4835902453241083e-03
6642:-6.1011269878814053e-03
6643:-5.1315430663600205e-03
6644:-7.3587578704676047e-03
6645:-6.3349283076032095e-03
6646:-5.1077684030951739e-03
6647:-4.2469508767571558e-03
6648:-5.7017367457743110e-03
6649:-4.8590696150235682e-03
6650:-3.8495223078479019e-03
6651:-3.1411941492206488e-03
6652:-4.4476702407537779e-03
6653:-3.7533233547267491e-03
6654:-2.9219666290625419e-03
6655:-2.3385320385910253e-03
6656:-4.6458484738727875e-03
6657:-3.7944563688262095e-03
6658:-2.7990360731563239e-03
6659:-2.1218599475923442e-03
6660:-3.8156172337527965e-03
6661:-3.0599110769846901e-03
6662:-2.1771177897163697e-03
6663:-1.5769935922794300e-03
6664:-2.7860995172622272e-03
6665:-2.1644577428909777e-03
6666:-1.4390894842936969e-03
6667:-9.4628706605692477e-04
6668:-2.0458858395781864e-03
6669:-1.5339482708571709e-03
6670:-9.3710000103268778e-04
6671:-5.3161601695565937e-04
6672:-1.7906919328351944e-03
6673:-1.2261715509362919e-03
6674:-6.0030436884075933e-04
6675:-2.0417498941211533e-04
6676:-1.2836812022710333e-03
6677:-7.8523673542268795e-04
6678:-2.3657538683105741e-04
6679:1.0679835074870667e-04
6680:-7.0552239099878986e-04
6681:-2.9818166882716738e-04
6682:1.4553826839269231e-04
6683:4.1863648101223721e-04
6684:-3.3345852976614557e-04
6685:6.0935219684631886e-07
6686:3.6136609067147208e-04
6687:5.8025679008982085e-04
6688:-2.2499801667011084e-05
6689:2.6016556224491049e-04
6690:5.1388422712870456e-04
6691:6.2001224169787241e-04
6692:2.6246606044365029e-04
6693:4.9966562415246500e-04
6694:7.0007608501996361e-04
6695:7.6954926015625951e-04
6696:5.4028174320626811e-04
6697:7.1940198270095863e-04
6698:8.5401087007085596e-04
6699:8.7954853584235309e-04
6700:6.7622382038096671e-04
6701:8.1241392951067416e-04
6702:8.9974027183844130e-04
6703:8.9437399421026171e-04
6704:6.4434169052788898e-04
6705:6.1217470666744109e-04
6706:4.0565949548553661e-04
6707:1.1340557830661260e-04
6708:7.7565803683144678e-04
6709:7.1037381605577421e-04
6710:4.6091781595365992e-04
6711:1.3447492799744797e-04
6712:8.6433107657079243e-04
6713:7.6486878554203803e-04
6714:4.8214880328004562e-04
6715:1.3835042926558096e-04
6716:8.6446745927001932e-04
6717:7.4588205337705593e-04
6718:4.5656896416694330e-04
6719:1.2243673092816502e-04
6720:-3.4164824856986437e-02
6721:-3.2789040492619853e-02
6722:-3.0989086055178687e-02
6723:-2.9596669786422277e-02
6724:-2.5135337031367364e-02
6725:-2.4108515340995541e-02
6726:-2.2769000845328732e-02
6727:-2.1731979081864600e-02
6728:-1.2729770694851645e-02
6729:-1.2198145925388301e-02
6730:-1.1511070956812246e-02
6731:-1.0976897260376860e-02
6732:-2.7384672557515142e-03
6733:-2.6182745003252325e-03
6734:-2.4724683139993558e-03
6735:-2.3548369673120767e-03
6736:-2.8848880320333056e-02
6737:-2.7457893130667158e-02
6738:-2.5662761992489905e-02
6739:-2.4293083180201888e-02
6740:-2.1173999792395218e-02
6741:-2.0138860488293785e-02
6742:-1.8805939859618832e-02
6743:-1.7787747281653558e-02
6744:-1.0687213746784958e-02
6745:-1.0154609409618575e-02
6746:-9.4735850678242285e-03
6747:-8.9505048514107715e-03
6748:-2.2871792851516881e-03
6749:-2.1700817554008490e-03
6750:-2.0273890350685506e-03
6751:-1.9126780875669345e-03
6752:-2.3564115873494738e-02
6753:-2.2219647188678471e-02
6754:-2.0507482396178351e-02
6755:-1.9219027193812629e-02
6756:-1.7244725307565933e-02
6757:-1.6245716107447489e-02
6758:-1.4976364211843288e-02
6759:-1.4020310427313368e-02
6760:-8.6691976975184718e-03
6761:-8.1560237708197501e-03
6762:-7.5086478367744859e-03
6763:-7.0188880419802925e-03
6764:-1.8470649442356973e-03
6765:-1.7339797194687665e-03
6766:-1.5981857144961602e-03
6767:-1.4914789190226996e-03
6768:-1.8539521458948098e-02
6769:-1.7295436463126056e-02
6770:-1.5729134759005128e-02
6771:-1.4564736068011667e-02
6772:-1.3515171102022917e-02
6773:-1.2592437160431630e-02
6774:-1.1433175356407166e-02
6775:-1.0570742010250997e-02
6776:-6.7581355268869006e-03
6777:-6.2854039236396242e-03
6778:-5.6953941782530567e-03
6779:-5.2547126899806845e-03
6780:-1.4313140291736131e-03
6781:-1.3276157631299064e-03
6782:-1.2038250919871067e-03
6783:-1.1081060833475361e-03
6784:-1.3955716208212763e-02
6785:-1.2848503020119018e-02
6786:-1.1470096249015014e-02
6787:-1.0457852818042698e-02
6788:-1.0118891653793585e-02
6789:-9.2991300137287014e-03
6790:-8.2806325868840583e-03
6791:-7.5322589722527740e-03
6792:-5.0221884123587022e-03
6793:-4.6032211550768908e-03
6794:-4.0859244104844783e-03
6795:-3.7045610113540855e-03
6796:-1.0548174450355921e-03
6797:-9.6311863202512289e-04
6798:-8.5458733133894768e-04
6799:-7.7219082848487247e-04
6800:-9.9328677198398715e-03
6801:-8.9850972324607599e-03
6802:-7.8184841978848636e-03
6803:-6.9725460327660889e-03
6804:-7.1435269017479748e-03
6805:-6.4430624018592189e-03
6806:-5.5825065322036979e-03
6807:-4.9582620512098391e-03
6808:-3.5051879550417040e-03
6809:-3.1481361829048212e-03
6810:-2.7120311178934599e-03
6811:-2.3948267281028624e-03
6812:-7.2694692684046225e-04
6813:-6.4917208941122652e-04
6814:-5.5776952488740725e-04
6815:-4.8955011168813948e-04
6816:-6.5377107116054980e-03
6817:-5.7586248321260308e-03
6818:-4.8114158225568823e-03
6819:-4.1340602336587592e-03
6820:-4.6369540000867453e-03
6821:-4.0621711712797454e-03
6822:-3.3644141913545195e-03
6823:-2.8651660698065114e-03
6824:-2.2306062147452034e-03
6825:-1.9383019786158129e-03
6826:-1.5851816309612964e-03
6827:-1.3319354047094461e-03
6828:-4.5258685681477461e-04
6829:-3.8896034970495514e-04
6830:-3.1464514260645947e-04
6831:-2.6036272855316760e-04
6832:-3.7893330593619713e-03
6833:-3.1773741930201582e-03
6834:-2.4449948231658825e-03
6835:-1.9309307003251008e-03
6836:-2.6107312668942856e-03
6837:-2.1596758519001505e-03
6838:-1.6205625072069645e-03
6839:-1.2418859812120804e-03
6840:-1.2022288801692589e-03
6841:-9.7342917043779565e-04
6842:-7.0114833530788103e-04
6843:-5.0921287037757621e-04
6844:-2.3154632988367429e-04
6845:-1.8249301105354560e-04
6846:-1.2586910711562263e-04
6847:-8.4687009249929108e-05
6848:-1.6729675638637079e-03
6849:-1.2219151889859658e-03
6850:-6.9628909076859208e-04
6851:-3.3909705172449584e-04
6852:-1.0515730186907990e-03
6853:-7.1917381941135304e-04
6854:-3.3223590468649646e-04
6855:-6.9094830336659469e-05
6856:-4.1211656520869622e-04
6857:-2.4305351340029739e-04
6858:-4.6949858737458035e-05
6859:8.6618949527276498e-05
6860:-6.2762945677797009e-05
6861:-2.5344777378400580e-05
6862:1.6909175360788628e-05
6863:4.5815365273747380e-05
6864:-1.6445548784531187e-04
6865:1.2941055844875162e-04
6866:4.4525572228656279e-04
6867:6.3539847221780405e-04
6868:5.9725239791563926e-05
6869:2.7557620836452396e-04
6870:5.0566644295891249e-04
6871:6.4276415779893049e-04
6872:1.5220508140682812e-04
6873:2.6083985962242263e-04
6874:3.7548804341562352e-04
6875:4.4461167888085580e-04
6876:6.0209513131131531e-05
6877:8.2246990393397459e-05
6878:1.0513078982638196e-04
6879:1.2250701304159122e-04
6880:7.1800360377536373e-04
6881:8.3220513247425306e-04
6882:8.9587429507884478e-04
6883:8.7537970583802217e-04
6884:7.0166152934672532e-04
6885:7.7883425319399176e-04
6886:8.0733273730942154e-04
6887:7.6877681881325080e-04
6888:4.7502811362221380e-04
6889:5.1255155732972358e-04
6890:5.1555087801726960e-04
6891:4.7698926694099479e-04
6892:1.3262812148074634e-04
6893:1.4626823687783179e-04
6894:1.4629893026743841e-04
6895:1.2737741590346447e-04
6896:8.3845898509178900e-04
6897:7.1286787851262035e-04
6898:4.2797246666860468e-04
6899:1.0816541427632802e-04
6900:7.2558957776021728e-04
6901:6.0388206140881545e-04
6902:3.5487558725553136e-04
6903:8.4458711453441526e-05
6904:4.4129126000898934e-04
6905:3.5896483015852767e-04
6906:2.0453500355690333e-04
6907:3.1363878148813991e-05
6908:1.1039085789936704e-04
6909:8.3256958590039639e-05
6910:2.9460454522923889e-05
6911:-5.5701177208158243e-05
6912:-1.1360794425314687e-02
6913:-5.4181664434931436e-02
6914:-1.0890595034765456e-01
6915:-1.4980209896579608e-01
6916:-1.0704750366319139e-02
6917:-5.1030472034377015e-02
6918:-1.0261266450382195e-01
6919:-1.4120344772032689e-01
6920:-9.9217220745394311e-03
6921:-4.7282210726486064e-02
6922:-9.5123201014435749e-02
6923:-1.3096290615574144e-01
6924:-9.3736115335787684e-03
6925:-4.4664215740194434e-02
6926:-8.9888865269980092e-02
6927:-1.2380034264342396e-01
6928:-1.7114174538563603e-01
6929:-2.0969684816817308e-01
6930:-2.5683124733954088e-01
6931:-2.9041022373400288e-01
6932:-1.6135871031295482e-01
6933:-1.9783147930617034e-01
6934:-2.4254530081280740e-01
6935:-2.7450576541314425e-01
6936:-1.4970225959455052e-01
6937:-1.8367845576023442e-01
6938:-2.2547439921193052e-01
6939:-2.5546995143243706e-01
6940:-1.4154544999990304e-01
6941:-1.7376330305402385e-01
6942:-2.1349256095557875e-01
6943:-2.4208614395798100e-01
6944:-3.0734508398260907e-01
6945:-3.3690713526570443e-01
6946:-3.7101279200266291e-01
6947:-3.9369660474593970e-01
6948:-2.9066644951191289e-01
6949:-3.1897092762856499e-01
6950:-3.5182347530090491e-01
6951:-3.7384319775014485e-01
6952:-2.7068496385461766e-01
6953:-2.9744020500842405e-01
6954:-3.2871988523344570e-01
6955:-3.4987756212546278e-01
6956:-2.5662213721451116e-01
6957:-2.8225540521345865e-01
6958:-3.1237493340182748e-01
6959:-3.3287660026509386e-01
6960:-4.0454437644993613e-01
6961:-4.2248157495957700e-01
6962:-4.4116625614458488e-01
6963:-4.5191167623782696e-01
6964:-3.8444148285647806e-01
6965:-4.0209754713201790e-01
6966:-4.2077205006342761e-01
6967:-4.3177501575123983e-01
6968:-3.6013781652109916e-01
6969:-3.7737983788912394e-01
6970:-3.9593534817253029e-01
6971:-4.0716112311284880e-01
6972:-3.4286991985747806e-01
6973:-3.5976299176260124e-01
6974:-3.7815475592310194e-01
6975:-3.8947292505234338e-01
6976:-4.5639069395478860e-01
6977:-4.6262024502923355e-01
6978:-4.6660730689100793e-01
6979:-4.6657842557360368e-01
6980:-4.3648133756510293e-01
6981:-4.4327372070031096e-01
6982:-4.4824399037013757e-01
6983:-4.4914800524128956e-01
6984:-4.1209310856175868e-01
6985:-4.1947417342217491e-01
6986:-4.2551600591749394e-01
6987:-4.2746100304379214e-01
6988:-3.9452863081398576e-01
6989:-4.0225927432287295e-01
6990:-4.0897428502296962e-01
6991:-4.1159322180332003e-01
6992:-4.6551196393518218e-01
6993:-4.6185814440128536e-01
6994:-4.5401790521073504e-01
6995:-4.4575423976077438e-01
6996:-4.4863676751779064e-01
6997:-4.4609263259516962e-01
6998:-4.3981517599661296e-01
6999:-4.3282790475193506e-01
7000:-4.2757618785016949e-01
7001:-4.2629554054297369e-01
7002:-4.2181819687196664e-01
7003:-4.1631549591759576e-01
7004:-4.1211950722859347e-01
7005:-4.1167705674874189e-01
7006:-4.0841000357348939e-01
7007:-4.0391649497041054e-01
7008:-4.4059953827525006e-01
7009:-4.2987857971901550e-01
7010:-4.1399828793770849e-01
7011:-4.0046482821132534e-01
7012:-4.2837659748506562e-01
7013:-4.1898328512524996e-01
7014:-4.0483678303129339e-01
7015:-3.9262715806541282e-01
7016:-4.1268697831148238e-01
7017:-4.0485501201256380e-01
7018:-3.9276344969536980e-01
7019:-3.8213483376099866e-01
7020:-4.0085088190791796e-01
7021:-3.9409345055577871e-01
7022:-3.8342821905338259e-01
7023:-3.7390599070119018e-01
7024:-3.9281289986144774e-01
7025:-3.7795386524322006e-01
7026:-3.5771459382022147e-01
7027:-3.4161088263066763e-01
7028:-3.8567579261749574e-01
7029:-3.7209775464270906e-01
7030:-3.5345708135730675e-01
7031:-3.3852091514430144e-01
7032:-3.7602429165584494e-01
7033:-3.6399106615436500e-01
7034:-3.4729235203642789e-01
7035:-3.3378530545788526e-01
7036:-3.6838697721752611e-01
7037:-3.5744606328530737e-01
7038:-3.4213101777128729e-01
7039:-3.2965019371430937e-01
7040:-3.3285097031450256e-01
7041:-3.1633004048742530e-01
7042:-2.9469883645170836e-01
7043:-2.7809688732021998e-01
7044:-3.3036149732024034e-01
7045:-3.1491451642454521e-01
7046:-2.9457909539645216e-01
7047:-2.7889018993613063e-01
7048:-3.2636471805664852e-01
7049:-3.1224524836858736e-01
7050:-2.9352345679831027e-01
7051:-2.7898090801835213e-01
7052:-3.2276292457184730e-01
7053:-3.0960632972786095e-01
7054:-2.9206384428207410e-01
7055:-2.7836600614603302e-01
7056:-2.6926122856322127e-01
7057:-2.5287530693532967e-01
7058:-2.3192544176876861e-01
7059:-2.1621086819092708e-01
7060:-2.7051266810685348e-01
7061:-2.5492932505361782e-01
7062:-2.3491605569152610e-01
7063:-2.1983678076360569e-01
7064:-2.7118199051776481e-01
7065:-2.5661799220135378e-01
7066:-2.3780563392297760e-01
7067:-2.2355017810364455e-01
7068:-2.7099592356519137e-01
7069:-2.5719159081693105e-01
7070:-2.3928241246368873e-01
7071:-2.2565311217989958e-01
7072:-2.0796745631012423e-01
7073:-1.9284688200859837e-01
7074:-1.7381973498659206e-01
7075:-1.5977125968118169e-01
7076:-2.1190341686404435e-01
7077:-1.9731408462236061e-01
7078:-1.7888463723670917e-01
7079:-1.6522420365368501e-01
7080:-2.1602231736172006e-01
7081:-2.0213296842628176e-01
7082:-1.8450110242658690e-01
7083:-1.7136664269974883e-01
7084:-2.1843589004572328e-01
7085:-2.0508653012290859e-01
7086:-1.8807718521234429e-01
7087:-1.7535905605907603e-01
7088:-1.5247665094240362e-01
7089:-1.3920102049617067e-01
7090:-1.2269091693269356e-01
7091:-1.1064919253720189e-01
7092:-1.5811262854943914e-01
7093:-1.4513974834149343e-01
7094:-1.2894754218546114e-01
7095:-1.1709234662233460e-01
7096:-1.6450629045090395e-01
7097:-1.5195455644745393e-01
7098:-1.3621667188454137e-01
7099:-1.2463933061525190e-01
7100:-1.6869973732553481e-01
7101:-1.5648880496694259e-01
7102:-1.4112663581784707e-01
7103:-1.2978639390383237e-01
7104:-9.0987006293526164e-03
7105:-4.3351836001179228e-02
7106:-8.7263665009109037e-02
7107:-1.2020623097845272e-01
7108:-8.6116107866422605e-03
7109:-4.1026833874959437e-02
7110:-8.2610945159052943e-02
7111:-1.1383378846457004e-01
7112:-8.0285658357662163e-03
7113:-3.8244349654656916e-02
7114:-7.7039277852782514e-02
7115:-1.0619822020743996e-01
7116:-7.6186602890421428e-03
7117:-3.6288544504209874e-02
7118:-7.3120514505989706e-02
7119:-1.0082451343816563e-01
7120:-1.3745114064832814e-01
7121:-1.6878262707037256e-01
7122:-2.0746618875876988e-01
7123:-2.3534696589853482e-01
7124:-1.3019012892269455e-01
7125:-1.5994453480856297e-01
7126:-1.9676205325164017e-01
7127:-2.2336612103782622e-01
7128:-1.2148674039780179e-01
7129:-1.4934134444684355e-01
7130:-1.8390098168558017e-01
7131:-2.0895167121215202e-01
7132:-1.1535919705144956e-01
7133:-1.4186925824066657e-01
7134:-1.7482357921352815e-01
7135:-1.9876350427452275e-01
7136:-2.4953629222754198e-01
7137:-2.7459356406100582e-01
7138:-3.0411056765647282e-01
7139:-3.2426503755843716e-01
7140:-2.3693260777088829e-01
7141:-2.6095067567253444e-01
7142:-2.8937106379429883e-01
7143:-3.0888463640788338e-01
7144:-2.2175684834702700e-01
7145:-2.4449678413165390e-01
7146:-2.7155110960900425e-01
7147:-2.9025013286060014e-01
7148:-2.1102171302879721e-01
7149:-2.3283756267103381e-01
7150:-2.5889159131430317e-01
7151:-2.7698252359302195e-01
7152:-3.3411404993329635e-01
7153:-3.5081176707596001e-01
7154:-3.6909372325000273e-01
7155:-3.8043638296648591e-01
7156:-3.1846311865237531e-01
7157:-3.3478560458490308e-01
7158:-3.5283304698127788e-01
7159:-3.6418721176114011e-01
7160:-2.9947740380517873e-01
7161:-3.1529687229853443e-01
7162:-3.3298932064451137e-01
7163:-3.4429777791289995e-01
7164:-2.8594239489525880e-01
7165:-3.0136778316019830e-01
7166:-3.1875465590277535e-01
7167:-3.2998603483486738e-01
7168:-3.8554238220709081e-01
7169:-3.9342684457955401e-01
7170:-4.0045292128456245e-01
7171:-4.0339091581793202e-01
7172:-3.6936502013752204e-01
7173:-3.7749018479120722e-01
7174:-3.8502757006538890e-01
7175:-3.8850184538658838e-01
7176:-3.4952920699803985e-01
7177:-3.5788275727130986e-01
7178:-3.6595694662630257e-01
7179:-3.7001797763016520e-01
7180:-3.3523070310372949e-01
7181:-3.4369943141354942e-01
7182:-3.5209349415020169e-01
7183:-3.5652464017338203e-01
7184:-4.0411388997386866e-01
7185:-4.0407572560934363e-01
7186:-4.0139818570412966e-01
7187:-3.9740015286512470e-01
7188:-3.8955849310748064e-01
7189:-3.9021103214378439e-01
7190:-3.8854916158538849e-01
7191:-3.8541050456097470e-01
7192:-3.7144573027156447e-01
7193:-3.7287577821782691e-01
7194:-3.7237349569366884e-01
7195:-3.7022687443657198e-01
7196:-3.5819147936939666e-01
7197:-3.6012992939202271e-01
7198:-3.6039881812662877e-01
7199:-3.5892051900555277e-01
7200:-3.9461216372941427e-01
7201:-3.8838691248733614e-01
7202:-3.7843230039564602e-01
7203:-3.6946440059521546e-01
7204:-3.8310586558288867e-01
7205:-3.7781041824387418e-01
7206:-3.6910352207692687e-01
7207:-3.6111341803540664e-01
7208:-3.6848366079950273e-01
7209:-3.6427433396887959e-01
7210:-3.5703641454612856e-01
7211:-3.5020587682469434e-01
7212:-3.5755823901692313e-01
7213:-3.5409056694464247e-01
7214:-3.4786452577570109e-01
7215:-3.4183910316699606e-01
7216:-3.6424282829562887e-01
7217:-3.5385306147795254e-01
7218:-3.3923976970447622e-01
7219:-3.2728210183287726e-01
7220:-3.5641804310343433e-01
7221:-3.4700601098736739e-01
7222:-3.3364283895474994e-01
7223:-3.2262108308621823e-01
7224:-3.4613736278770479e-01
7225:-3.3789515106388818e-01
7226:-3.2603737444499231e-01
7227:-3.1614996534287820e-01
7228:-3.3820798698180915e-01
7229:-3.3078585164866170e-01
7230:-3.1999070294028942e-01
7231:-3.1090948778363214e-01
7232:-3.2066764405951470e-01
7233:-3.0800518290314738e-01
7234:-2.9107095054688370e-01
7235:-2.7781113261407830e-01
7236:-3.1649606326870616e-01
7237:-3.0472247638933098e-01
7238:-2.8888700506342802e-01
7239:-2.7642201474315958e-01
7240:-3.1062071938066871e-01
7241:-2.9993354023566704e-01
7242:-2.8544955494218521e-01
7243:-2.7396882622938223e-01
7244:-3.0580557315563328e-01
7245:-2.9589731008460740e-01
7246:-2.8238867309866511e-01
7247:-2.7162315954734473e-01
7248:-2.7066425311679732e-01
7249:-2.5725671246466114e-01
7250:-2.3982200833747436e-01
7251:-2.2652380589642718e-01
7252:-2.6968144046914422e-01
7253:-2.5699830788232297e-01
7254:-2.4043394775790700e-01
7255:-2.2774635062813584e-01
7256:-2.6773375654211989e-01
7257:-2.5595582524888405e-01
7258:-2.4048665406046721e-01
7259:-2.2857341123511846e-01
7260:-2.6575714729129246e-01
7261:-2.5464300807969931e-01
7262:-2.3998259775978248e-01
7263:-2.2864558440701463e-01
7264:-2.1947163074053092e-01
7265:-2.0641042864755232e-01
7266:-1.8973569143180213e-01
7267:-1.7724324863476842e-01
7268:-2.2099974327014596e-01
7269:-2.0847393557512378e-01
7270:-1.9242462363482671e-01
7271:-1.8035704339263972e-01
7272:-2.2221649632814283e-01
7273:-2.1037698653774078e-01
7274:-1.9513625572816795e-01
7275:-1.8362351582951222e-01
7276:-2.2258023488378376e-01
7277:-2.1125678334959908e-01
7278:-1.9662908293070519e-01
7279:-1.8554100761306699e-01
7280:-1.7069361251075074e-01
7281:-1.5866981175767891e-01
7282:-1.4351644269427846e-01
7283:-1.3231017804810641e-01
7284:-1.7401502752924414e-01
7285:-1.6234733837924947e-01
7286:-1.4759510830940589e-01
7287:-1.3664943516295838e-01
7288:-1.7755471813547957e-01
7289:-1.6635910096529402e-01
7290:-1.5214548729057642e-01
7291:-1.4155540384774887e-01
7292:-1.7968280942900525e-01
7293:-1.6885352931215267e-01
7294:-1.5506274076784918e-01
7295:-1.4475576303618487e-01
7296:-7.4122649563444698e-03
7297:-3.5303901773629118e-02
7298:-7.1146834049221300e-02
7299:-9.8116940143297762e-02
7300:-7.0449390187746876e-03
7301:-3.3551814631506645e-02
7302:-6.7633660288240291e-02
7303:-9.3295894525480705e-02
7304:-6.6022326820070164e-03
7305:-3.1440663422490321e-02
7306:-6.3398351561506236e-02
7307:-8.7481061169082761e-02
7308:-6.2888292390354365e-03
7309:-2.9946394522179894e-02
7310:-6.0399025200327527e-02
7311:-8.3361056597522021e-02
7312:-1.1227100843482284e-01
7313:-1.3810107810092995e-01
7314:-1.7024105789525604e-01
7315:-1.9361538730489664e-01
7316:-1.0677119609335080e-01
7317:-1.3138701361824970e-01
7318:-1.6206935524613247e-01
7319:-1.8442832810155213e-01
7320:-1.0013574235894676e-01
7321:-1.2328062877624271e-01
7322:-1.5219083477659792e-01
7323:-1.7330994627280694e-01
7324:-9.5432839999950253e-02
7325:-1.1753075787412434e-01
7326:-1.4517490221924656e-01
7327:-1.6540419085788946e-01
7328:-2.0559421539707440e-01
7329:-2.2693611751332943e-01
7330:-2.5247291127222254e-01
7331:-2.7024559512659141e-01
7332:-1.9590441625790331e-01
7333:-2.1639071940056934e-01
7334:-2.4098782834002955e-01
7335:-2.5817695611550012e-01
7336:-1.8416993973057225e-01
7337:-2.0360269908171583e-01
7338:-2.2703184933675349e-01
7339:-2.4348587197583799e-01
7340:-1.7582039486701320e-01
7341:-1.9449053589328666e-01
7342:-2.1706624291190055e-01
7343:-2.3297598176736564e-01
7344:-2.7906384496205572e-01
7345:-2.9427697408516834e-01
7346:-3.1149074118910292e-01
7347:-3.2266781868135069e-01
7348:-2.6673318036393595e-01
7349:-2.8154868748037842e-01
7350:-2.9842648812071149e-01
7351:-3.0948419367610058e-01
7352:-2.5170779728311837e-01
7353:-2.6600717619021530e-01
7354:-2.8242807369184281e-01
7355:-2.9329941836807721e-01
7356:-2.4094734586608010e-01
7357:-2.5485353863305349e-01
7358:-2.7091170034528772e-01
7359:-2.8161896185838037e-01
7360:-3.2791070844432896e-01
7361:-3.3642168866435812e-01
7362:-3.4495672835477109e-01
7363:-3.4955934171836678e-01
7364:-3.1471140746576420e-01
7365:-3.2327407833542710e-01
7366:-3.3202959692772033e-01
7367:-3.3691440436525394e-01
7368:-2.9848431076352894e-01
7369:-3.0706511289831978e-01
7370:-3.1602891272878342e-01
7371:-3.2121025192308378e-01
7372:-2.8675615306902458e-01
7373:-2.9531623232670112e-01
7374:-3.0438363761509268e-01
7375:-3.0974153523358661e-01
7376:-3.5133887320260798e-01
7377:-3.5351974728079466e-01
7378:-3.5416111139239337e-01
7379:-3.5300872341035289e-01
7380:-3.3888246100888003e-01
7381:-3.4147327376679271e-01
7382:-3.4275181757341994e-01
7383:-3.4216162645194503e-01
7384:-3.2338262098445758e-01
7385:-3.2642637196111801e-01
7386:-3.2842326407508565e-01
7387:-3.2847593899469196e-01
7388:-3.1204097514902240e-01
7389:-3.1537368013087075e-01
7390:-3.1784061536342623e-01
7391:-3.1832125871802514e-01
7392:-3.5183317997991742e-01
7393:-3.4873073604260035e-01
7394:-3.4300608084894402e-01
7395:-3.3738181361693836e-01
7396:-3.4130963349199439e-01
7397:-3.3884246513722427e-01
7398:-3.3399446499451035e-01
7399:-3.2907485034237965e-01
7400:-3.2799667103366847e-01
7401:-3.2626600226807861e-01
7402:-3.2244295129694428e-01
7403:-3.1835331756327784e-01
7404:-3.1809231747443106e-01
7405:-3.1685995063138683e-01
7406:-3.1373706830913889e-01
7407:-3.1021916797057858e-01
7408:-3.3396938113823804e-01
7409:-3.2695858375483422e-01
7410:-3.1669895907868850e-01
7411:-3.0802591632006115e-01
7412:-3.2604763356915889e-01
7413:-3.1976336136780781e-01
7414:-3.1045331984878105e-01
7415:-3.0250681802371165e-01
7416:-3.1578187326522278e-01
7417:-3.1036084262495423e-01
7418:-3.0218602182649940e-01
7419:-2.9511327292612699e-01
7420:-3.0796325953792053e-01
7421:-3.0314264827617260e-01
7422:-2.9576270966429191e-01
7423:-2.8930568335624252e-01
7424:-3.0313799571448152e-01
7425:-2.9362642453170934e-01
7426:-2.8061670123665700e-01
7427:-2.7021869319511760e-01
7428:-2.9800432550205830e-01
7429:-2.8920230614838865e-01
7430:-2.7708821847568488e-01
7431:-2.6735243083331628e-01
7432:-2.9107609470354262e-01
7433:-2.8313383386102942e-01
7434:-2.7211103544302484e-01
7435:-2.6318675609609310e-01
7436:-2.8559775571448737e-01
7437:-2.7826623100077924e-01
7438:-2.6802320970705645e-01
7439:-2.5968225479023771e-01
7440:-2.6454289972420264e-01
7441:-2.5377188837137765e-01
7442:-2.3953146160596989e-01
7443:-2.2849515787094365e-01
7444:-2.6202027895108693e-01
7445:-2.5187064926560365e-01
7446:-2.3839370087096093e-01
7447:-2.2790632689481935e-01
7448:-2.5827734794559071e-01
7449:-2.4889493580400254e-01
7450:-2.3636608531439815e-01
7451:-2.2656460478515436e-01
7452:-2.5507793678540625e-01
7453:-2.4625132223975960e-01
7454:-2.3441336548330013e-01
7455:-2.2511483298359336e-01
7456:-2.2258249052901116e-01
7457:-2.1153014827514255e-01
7458:-1.9722618690367780e-01
7459:-1.8636370719507275e-01
7460:-2.2227319198616369e-01
7461:-2.1171854320321096e-01
7462:-1.9801150890944275e-01
7463:-1.8756707203759529e-01
7464:-2.2128226368836171e-01
7465:-2.1135469584375272e-01
7466:-1.9840465473538235e-01
7467:-1.8849421034555100e-01
7468:-2.2009083293179260e-01
7469:-2.1062694877769703e-01
7470:-1.9824027505765177e-01
7471:-1.8873006622822461e-01
7472:-1.8061787387009190e-01
7473:-1.6998486052563425e-01
7474:-1.5642218593237675e-01
7475:-1.4626922056896080e-01
7476:-1.8203021978020065e-01
7477:-1.7176348917468989e-01
7478:-1.5862901767677884e-01
7479:-1.4876718127030961e-01
7480:-1.8322570764131169e-01
7481:-1.7343164740718953e-01
7482:-1.6085435251362099e-01
7483:-1.5137506026854805e-01
7484:-1.8366371827491268e-01
7485:-1.7422744520889652e-01
7486:-1.6207526400862368e-01
7487:-1.5289053677637984e-01
7488:-6.1303032862320417e-03
7489:-2.9190628476769984e-02
7490:-5.8881505820020670e-02
7491:-8.1275811147182284e-02
7492:-5.8468846776569524e-03
7493:-2.7839590645575882e-02
7494:-5.6167936087577024e-02
7495:-7.7546035264190544e-02
7496:-5.5028441864351666e-03
7497:-2.6199834981090356e-02
7498:-5.2873026261388061e-02
7499:-7.3015326722516483e-02
7500:-5.2574351961505467e-03
7501:-2.5030338697121315e-02
7502:-5.0521993136786660e-02
7503:-6.9781097791318664e-02
7504:-9.3052073514154121e-02
7505:-1.1461846938418575e-01
7506:-1.4161827440633906e-01
7507:-1.6139333852184648e-01
7508:-8.8793013426751749e-02
7509:-1.0940635586228563e-01
7510:-1.3524846261141157e-01
7511:-1.5420543100222964e-01
7512:-8.3618060856005122e-02
7513:-1.0306933760884490e-01
7514:-1.2749549245792222e-01
7515:-1.4544819947304918e-01
7516:-7.9922956753435817e-02
7517:-9.8541434211943127e-02
7518:-1.2194960287230515e-01
7519:-1.3917756775476306e-01
7520:-1.7158245082358958e-01
7521:-1.8986109410115487e-01
7522:-2.1199598619903065e-01
7523:-2.2762222004170621e-01
7524:-1.6398474165547827e-01
7525:-1.8155505051087545e-01
7526:-2.0288840198394023e-01
7527:-2.1799562941837503e-01
7528:-1.5472298967043557e-01
7529:-1.7141781433411188e-01
7530:-1.9175312573989373e-01
7531:-2.0620765591616322e-01
7532:-1.4808716790782050e-01
7533:-1.6414573568919560e-01
7534:-1.8375027715599090e-01
7535:-1.9772215383514602e-01
7536:-2.3546207206527797e-01
7537:-2.4915981089389888e-01
7538:-2.6502092629825391e-01
7539:-2.7563406252647216e-01
7540:-2.2559325586481929e-01
7541:-2.3890400000803733e-01
7542:-2.5439237410670718e-01
7543:-2.6482029163915571e-01
7544:-2.1349797033153348e-01
7545:-2.2631213708314316e-01
7546:-2.4130962838147130e-01
7547:-2.5148083171604851e-01
7548:-2.0478325708396453e-01
7549:-2.1722296928004334e-01
7550:-2.3184123453940866e-01
7551:-2.4180516216172404e-01
7552:-2.8074097784548857e-01
7553:-2.8927890587625410e-01
7554:-2.9838339813535875e-01
7555:-3.0381889821070840e-01
7556:-2.6986365798469852e-01
7557:-2.7834399553890266e-01
7558:-2.8749091924501191e-01
7559:-2.9304666329689261e-01
7560:-2.5642930232934741e-01
7561:-2.6480573890432296e-01
7562:-2.7395887460152918e-01
7563:-2.7962536307886771e-01
7564:-2.4667247891475103e-01
7565:-2.5494895084859048e-01
7566:-2.6407194439162718e-01
7567:-2.6979047575807091e-01
7568:-3.0617643499178221e-01
7569:-3.0964409943873389e-01
7570:-3.1233508392653875e-01
7571:-3.1302246182071852e-01
7572:-2.9549819827470825e-01
7573:-2.9918907693409102e-01
7574:-3.0225810784096657e-01
7575:-3.0329873122753381e-01
7576:-2.8217216497968750e-01
7577:-2.8609938182403311e-01
7578:-2.8958392843640146e-01
7579:-2.9102163172874412e-01
7580:-2.7239079627495438e-01
7581:-2.7645996964020508e-01
7582:-2.8020736058514739e-01
7583:-2.8190366417829871e-01
7584:-3.1291525340996756e-01
7585:-3.1192653320198671e-01
7586:-3.0914841168425883e-01
7587:-3.0591372680743345e-01
7588:-3.0340080313712220e-01
7589:-3.0283303926720012e-01
7590:-3.0065432959380017e-01
7591:-2.9791465696059566e-01
7592:-2.9136147341809204e-01
7593:-2.9127602259701729e-01
7594:-2.8979135833787301e-01
7595:-2.8762986302793536e-01
7596:-2.8240042952113892e-01
7597:-2.8263655414583849e-01
7598:-2.8162043185274571e-01
7599:-2.7985322889326220e-01
7600:-3.0381468192457645e-01
7601:-2.9929354021659937e-01
7602:-2.9231191471316520e-01
7603:-2.8616478889974545e-01
7604:-2.9609063092975541e-01
7605:-2.9209602300167370e-01
7606:-2.8581753752859201e-01
7607:-2.8021954727566462e-01
7608:-2.8612868604463471e-01
7609:-2.8275502514595330e-01
7610:-2.7731110892886168e-01
7611:-2.7236881660030426e-01
7612:-2.7857350055230040e-01
7613:-2.7562796968809000e-01
7614:-2.7076361492851053e-01
7615:-2.6627968922426293e-01
7616:-2.8262304406568134e-01
7617:-2.7560060530615221e-01
7618:-2.6575380406894467e-01
7619:-2.5771043980925351e-01
7620:-2.7697298146157584e-01
7621:-2.7050081008922350e-01
7622:-2.6136182170809519e-01
7623:-2.5385190787596873e-01
7624:-2.6947604700009453e-01
7625:-2.6366579274062685e-01
7626:-2.5538279205635261e-01
7627:-2.4852144035942414e-01
7628:-2.6363526688328259e-01
7629:-2.5829146501971645e-01
7630:-2.5061515378575988e-01
7631:-2.4421608126641328e-01
7632:-2.5326218344023588e-01
7633:-2.4472059913373087e-01
7634:-2.3323834758783271e-01
7635:-2.2419982109790712e-01
7636:-2.4968404296911942e-01
7637:-2.4165568001596635e-01
7638:-2.3081606442509983e-01
7639:-2.2224894047059171e-01
7640:-2.4469567304526404e-01
7641:-2.3729558053617658e-01
7642:-2.2724672420808484e-01
7643:-2.1926277496908556e-01
7644:-2.4063505824382209e-01
7645:-2.3368604339192894e-01
7646:-2.2420800166839058e-01
7647:-2.1664736132230550e-01
7648:-2.1930975041735515e-01
7649:-2.1008689072866446e-01
7650:-1.9799429379920694e-01
7651:-1.8869396460510524e-01
7652:-2.1760228086779640e-01
7653:-2.0881847951566793e-01
7654:-1.9726353954887488e-01
7655:-1.8834846113029374e-01
7656:-2.1491834613517080e-01
7657:-2.0668159652176571e-01
7658:-1.9580023932693794e-01
7659:-1.8737067397506130e-01
7660:-2.1252313764829978e-01
7661:-2.0468639905993694e-01
7662:-1.9430033645512482e-01
7663:-1.8622990804007220e-01
7664:-1.8373396805557213e-01
7665:-1.7448650203306512e-01
7666:-1.6255978743800639e-01
7667:-1.5353218519661110e-01
7668:-1.8358423405368440e-01
7669:-1.7468525147594979e-01
7670:-1.6317650368362593e-01
7671:-1.5444162245207033e-01
7672:-1.8285419799723415e-01
7673:-1.7439798130222237e-01
7674:-1.6342369542895854e-01
7675:-1.5506581551968027e-01
7676:-1.8189745742324559e-01
7677:-1.7377142671720228e-01
7678:-1.6319824296783197e-01
7679:-1.5512527530337830e-01
7680:-5.1326494522182407e-03
7681:-2.4435720794842453e-02
7682:-4.9326279199380256e-02
7683:-6.8135716459941820e-02
7684:-4.9083119314105583e-03
7685:-2.3366831795715602e-02
7686:-4.7176285116822196e-02
7687:-6.5176457604437521e-02
7688:-4.6335748290024991e-03
7689:-2.2058001717530498e-02
7690:-4.4542603097857181e-02
7691:-6.1550090776719239e-02
7692:-4.4357517789867691e-03
7693:-2.1115722932070174e-02
7694:-4.2645726034343009e-02
7695:-5.8937222141187073e-02
7696:-7.8042770953559853e-02
7697:-9.6236452440326539e-02
7698:-1.1912426291120023e-01
7699:-1.3598083199490066e-01
7700:-7.4660715976541100e-02
7701:-9.2088713694489760e-02
7702:-1.1403690014010434e-01
7703:-1.3022142257331898e-01
7704:-7.0515313159480106e-02
7705:-8.7001875566468351e-02
7706:-1.0779160116582726e-01
7707:-1.2314492615540354e-01
7708:-6.7527763405114100e-02
7709:-8.3333636475440995e-02
7710:-1.0328339830993445e-01
7711:-1.1803207510477338e-01
7712:-1.4470291633185492e-01
7713:-1.6043391442784571e-01
7714:-1.7966038079945837e-01
7715:-1.9338095195132504e-01
7716:-1.3860363641065829e-01
7717:-1.5373958117509251e-01
7718:-1.7227640230806626e-01
7719:-1.8553611794816338e-01
7720:-1.3110574008084383e-01
7721:-1.4550138657592981e-01
7722:-1.6317491317286656e-01
7723:-1.7585317124440106e-01
7724:-1.2568556193535901e-01
7725:-1.3953944086208059e-01
7726:-1.5657723155489647e-01
7727:-1.6882392407802269e-01
7728:-2.0032205613956847e-01
7729:-2.1256436876434967e-01
7730:-2.2697972716708062e-01
7731:-2.3682986952857002e-01
7732:-1.9225616367770904e-01
7733:-2.0413274739629611e-01
7734:-2.1816758690992380e-01
7735:-2.2779996319123985e-01
7736:-1.8229245816085435e-01
7737:-1.9370067091081777e-01
7738:-2.0723973018406258e-01
7739:-2.1658038766161208e-01
7740:-1.7505346659522572e-01
7741:-1.8610892905901211e-01
7742:-1.9926842054062691e-01
7743:-2.0838002049479426e-01
7744:-2.4165124045942546e-01
7745:-2.4986786879562647e-01
7746:-2.5896343256018939e-01
7747:-2.6469896090396394e-01
7748:-2.3253132457778217e-01
7749:-2.4062602145339768e-01
7750:-2.4965282657112878e-01
7751:-2.5540353424660206e-01
7752:-2.2118745836182546e-01
7753:-2.2910554679469478e-01
7754:-2.3801104640143453e-01
7755:-2.4375092610947208e-01
7756:-2.1288691288402908e-01
7757:-2.2065705740133584e-01
7758:-2.2944687995714771e-01
7759:-2.3515645451123121e-01
7760:-2.6732141440723783e-01
7761:-2.7145336553314392e-01
7762:-2.7532249193829561e-01
7763:-2.7714148873808497e-01
7764:-2.5805745758115484e-01
7765:-2.6228674890675896e-01
7766:-2.6635480113445847e-01
7767:-2.6837941819777511e-01
7768:-2.4642744433918373e-01
7769:-2.5074611675071512e-01
7770:-2.5501932116752218e-01
7771:-2.5726676435618123e-01
7772:-2.3783702888067931e-01
7773:-2.4219715136968403e-01
7774:-2.4658841961522179e-01
7775:-2.4897388512728982e-01
7776:-2.7771350142903284e-01
7777:-2.7810504497780997e-01
7778:-2.7731751757046341e-01
7779:-2.7574413947354665e-01
7780:-2.6907888871745556e-01
7781:-2.6973573843041154e-01
7782:-2.6934199610091542e-01
7783:-2.6810488342151118e-01
7784:-2.5810712470681219e-01
7785:-2.5906136090901660e-01
7786:-2.5911613059526617e-01
7787:-2.5826671905842807e-01
7788:-2.4990390966615639e-01
7789:-2.5105087253970265e-01
7790:-2.5140220882732478e-01
7791:-2.5081300431012193e-01
7792:-2.7457373477325736e-01
7793:-2.7184035510406679e-01
7794:-2.6726467169229501e-01
7795:-2.6301012548647745e-01
7796:-2.6712489177362886e-01
7797:-2.6476230213599816e-01
7798:-2.6069352102794141e-01
7799:-2.5684346833172700e-01
7800:-2.5750773709975677e-01
7801:-2.5557800427730371e-01
7802:-2.5210557547753754e-01
7803:-2.4873469070572451e-01
7804:-2.5020354504228770e-01
7805:-2.4856864031994061e-01
7806:-2.4550604540957996e-01
7807:-2.4246705846379416e-01
7808:-2.6049034546235972e-01
7809:-2.5538129165489182e-01
7810:-2.4801152487399900e-01
7811:-2.4184693878905569e-01
7812:-2.5454405807644165e-01
7813:-2.4985105878223490e-01
7814:-2.4302652911393696e-01
7815:-2.3728045467099779e-01
7816:-2.4669743487080747e-01
7817:-2.4250132862230725e-01
7818:-2.3633168009251859e-01
7819:-2.3109102950960100e-01
7820:-2.4061224856268079e-01
7821:-2.3676347437351322e-01
7822:-2.3105447018664868e-01
7823:-2.2617146047490672e-01
7824:-2.3839037420184728e-01
7825:-2.3167130236633054e-01
7826:-2.2248531263220525e-01
7827:-2.1514206411043654e-01
7828:-2.3404652216764391e-01
7829:-2.2773966427857753e-01
7830:-2.1907894520817825e-01
7831:-2.1212799061231863e-01
7832:-2.2812691279038150e-01
7833:-2.2232133126850076e-01
7834:-2.1430264078229652e-01
7835:-2.0783365546292656e-01
7836:-2.2339899682571759e-01
7837:-2.1795078544634741e-01
7838:-2.1039231573912992e-01
7839:-2.0427070200870578e-01
7840:-2.1113121143015753e-01
7841:-2.0350091165999268e-01
7842:-1.9337141729250965e-01
7843:-1.8548775768057907e-01
7844:-2.0832218011951883e-01
7845:-2.0106604887638024e-01
7846:-1.9140313904982076e-01
7847:-1.8386032918294895e-01
7848:-2.0428062758593865e-01
7849:-1.9748731832886346e-01
7850:-1.8840450922085417e-01
7851:-1.8128775138718045e-01
7852:-2.0090052161278621e-01
7853:-1.9444316228846875e-01
7854:-1.8578369007966350e-01
7855:-1.7897956913480570e-01
7856:-1.8125126921887955e-01
7857:-1.7329786743621065e-01
7858:-1.6293525810594606e-01
7859:-1.5501253982592433e-01
7860:-1.7979939796284827e-01
7861:-1.7216255437213848e-01
7862:-1.6218753272766728e-01
7863:-1.5454249659990929e-01
7864:-1.7744707116551586e-01
7865:-1.7020879272266959e-01
7866:-1.6072451932435861e-01
7867:-1.5343321402106852e-01
7868:-1.7530111679699251e-01
7869:-1.6835747817597979e-01
7870:-1.5923806719154376e-01
7871:-1.5221135537845049e-01
7872:-4.3344990960990960e-03
7873:-2.0633478649609086e-02
7874:-4.1674665897208196e-02
7875:-5.7599275112230973e-02
7876:-4.1511412218416905e-03
7877:-1.9760289015822760e-02
7878:-3.9915953905416447e-02
7879:-5.5175534999154854e-02
7880:-3.9239614327484101e-03
7881:-1.8678589080010934e-02
7882:-3.7736460824943280e-02
7883:-5.2170865892173894e-02
7884:-3.7583393052932623e-03
7885:-1.7890102284150222e-02
7886:-3.6147149490912966e-02
7887:-4.9979046709622138e-02
7888:-6.5997712339013706e-02
7889:-8.1454214705906039e-02
7890:-1.0097204851158101e-01
7891:-1.1540912438581850e-01
7892:-6.3225594657707440e-02
7893:-7.8047912000609940e-02
7894:-9.6780400392084992e-02
7895:-1.1064984688577383e-01
7896:-5.9788341068311095e-02
7897:-7.3822039855565902e-02
7898:-9.1575488145573064e-02
7899:-1.0473529683575079e-01
7900:-5.7280428353217831e-02
7901:-7.0737022983877185e-02
7902:-8.7772185223063251e-02
7903:-1.0040984983962360e-01
7904:-1.2290396365959880e-01
7905:-1.3647753275058719e-01
7906:-1.5318504275194436e-01
7907:-1.6520637936748239e-01
7908:-1.1785526679481782e-01
7909:-1.3091644048835677e-01
7910:-1.4701803796590618e-01
7911:-1.5862411682450567e-01
7912:-1.1157810292625606e-01
7913:-1.2399535704532680e-01
7914:-1.3933142426039138e-01
7915:-1.5040941114835463e-01
7916:-1.0698525642346352e-01
7917:-1.1892622136604016e-01
7918:-1.3369300016787350e-01
7919:-1.4437571691927556e-01
7920:-1.7132593766152013e-01
7921:-1.8219546589697405e-01
7922:-1.9515281986668298e-01
7923:-2.0414055360087729e-01
7924:-1.6454027864584955e-01
7925:-1.7506441110467214e-01
7926:-1.8764295164164119e-01
7927:-1.9639555293924169e-01
7928:-1.5606554174790621e-01
7929:-1.6614521472364183e-01
7930:-1.7823010519862253e-01
7931:-1.8667074410444451e-01
7932:-1.4983620796148375e-01
7933:-1.5957935057851774e-01
7934:-1.7128593021907848e-01
7935:-1.7948348304852907e-01
7936:-2.0859244312355726e-01
7937:-2.1627959758939622e-01
7938:-2.2500027334133876e-01
7939:-2.3068642123656066e-01
7940:-2.0074172409698038e-01
7941:-2.0826662354318817e-01
7942:-2.1684559269243592e-01
7943:-2.2247607672631586e-01
7944:-1.9087426573756808e-01
7945:-1.9817525857296919e-01
7946:-2.0654706930393774e-01
7947:-2.1208317378661429e-01
7948:-1.8357415436164995e-01
7949:-1.9069452200453713e-01
7950:-1.9889124614964437e-01
7951:-2.0433915877663364e-01
7952:-2.3336477043832973e-01
7953:-2.3773801806887984e-01
7954:-2.4217919916765862e-01
7955:-2.4462732768386400e-01
7956:-2.2514315811113331e-01
7957:-2.2952648104051859e-01
7958:-2.3404007777670705e-01
7959:-2.3658788934018452e-01
7960:-2.1472238482478789e-01
7961:-2.1909182380777245e-01
7962:-2.2366043317808704e-01
7963:-2.2630503642362368e-01
7964:-2.0694743216775055e-01
7965:-2.1128658062695818e-01
7966:-2.1586867578568070e-01
7967:-2.1856331105174243e-01
7968:-2.4559904083289957e-01
7969:-2.4683698228022438e-01
7970:-2.4733060927472972e-01
7971:-2.4686771906965435e-01
7972:-2.3762776977815586e-01
7973:-2.3901700005168230e-01
7974:-2.3975138281395691e-01
7975:-2.3950480741651228e-01
7976:-2.2741515924498704e-01
7977:-2.2896564159848218e-01
7978:-2.2996527081442544e-01
7979:-2.2996232953401777e-01
7980:-2.1971370260463066e-01
7981:-2.2136153839594275e-01
7982:-2.2252895910918721e-01
7983:-2.2268470145872901e-01
7984:-2.4633129173259494e-01
7985:-2.4484112484406459e-01
7986:-2.4198106748149306e-01
7987:-2.3910705020737247e-01
7988:-2.3909422448673828e-01
7989:-2.3785472708348318e-01
7990:-2.3534773540453136e-01
7991:-2.3276289783267337e-01
7992:-2.2969505777525145e-01
7993:-2.2874355745728309e-01
7994:-2.2664677842498854e-01
7995:-2.2440110291103335e-01
7996:-2.2251209374990324e-01
7997:-2.2175292323882159e-01
7998:-2.1993383421032686e-01
7999:-2.1792032688284760e-01
8000:-2.3734323789039960e-01
8001:-2.3366824885445561e-01
8002:-2.2819075788939513e-01
8003:-2.2348825153439544e-01
8004:-2.3115912185691814e-01
8005:-2.2779068816913706e-01
8006:-2.2272331681141452e-01
8007:-2.1834183305768734e-01
8008:-2.2298605777474517e-01
8009:-2.1998095105994100e-01
8010:-2.1540303614544556e-01
8011:-2.1140714045573183e-01
8012:-2.1663530566158351e-01
8013:-2.1388194757325413e-01
8014:-2.0964585962527096e-01
8015:-2.0592119198071640e-01
8016:-2.2081277528170559e-01
8017:-2.1554587847449508e-01
8018:-2.0822179237257962e-01
8019:-2.0227775280700658e-01
8020:-2.1583927832560831e-01
8021:-2.1089643075472572e-01
8022:-2.0399272739300167e-01
8023:-1.9836829098143929e-01
8024:-2.0911312217175132e-01
8025:-2.0456257692215746e-01
8026:-1.9817068250601286e-01
8027:-1.9293750514223842e-01
8028:-2.0377451608013095e-01
8029:-1.9950233664180422e-01
8030:-1.9347585249288130e-01
8031:-1.8852368059238192e-01
8032:-1.9900127330684886e-01
8033:-1.9271648641334543e-01
8034:-1.8427526942014844e-01
8035:-1.7763293138866301e-01
8036:-1.9526084376125649e-01
8037:-1.8928807004773562e-01
8038:-1.8124280954413907e-01
8039:-1.7489499938529357e-01
8040:-1.9003773242303798e-01
8041:-1.8444965493402826e-01
8042:-1.7689519138244936e-01
8043:-1.7091442245576646e-01
8044:-1.8577363500747304e-01
8045:-1.8046395899768017e-01
8046:-1.7326668561696323e-01
8047:-1.6755454497578337e-01
8048:-1.7403863946740442e-01
8049:-1.6724822918828780e-01
8050:-1.5831928971853612e-01
8051:-1.5143125936539945e-01
8052:-1.7145428318578024e-01
8053:-1.6494413042806322e-01
8054:-1.5636481780802899e-01
8055:-1.4973230887491731e-01
8056:-1.6766578416568259e-01
8057:-1.6150739890799065e-01
8058:-1.5336933202905156e-01
8059:-1.4706114327775469e-01
8060:-1.6444700957265709e-01
8061:-1.5854799242245618e-01
8062:-1.5073710474776170e-01
8063:-1.4467078827360721e-01
8064:-3.6728253681054465e-03
8065:-1.7483023008179367e-02
8066:-3.5326412640593836e-02
8067:-4.8846899216180469e-02
8068:-3.5164444132614768e-03
8069:-1.6738657678411872e-02
8070:-3.3825294844898629e-02
8071:-4.6775775956797619e-02
8072:-3.3196353671902409e-03
8073:-1.5801997604457128e-02
8074:-3.1935712343965139e-02
8075:-4.4167847705013114e-02
8076:-3.1737599996941083e-03
8077:-1.5107855030448526e-02
8078:-3.0534877502284612e-02
8079:-4.2233845992084927e-02
8080:-5.5984822407626332e-02
8081:-6.9142691466811887e-02
8082:-8.5805417983484747e-02
8083:-9.8171828400454214e-02
8084:-5.3614377199585526e-02
8085:-6.6224732666281858e-02
8086:-8.2203799348175302e-02
8087:-9.4071437472233371e-02
8088:-5.0628987153794991e-02
8089:-6.2547964684177879e-02
8090:-7.7661751674102747e-02
8091:-8.8896515212002231e-02
8092:-4.8414642646089745e-02
8093:-5.9819436971873502e-02
8094:-7.4288232717317715e-02
8095:-8.5050048414620175e-02
8096:-1.0460811703580584e-01
8097:-1.1630078907761188e-01
8098:-1.3076975011328473e-01
8099:-1.4124481485502308e-01
8100:-1.0025159284875605e-01
8101:-1.1148629866337613e-01
8102:-1.2540421315497932e-01
8103:-1.3549362874149523e-01
8104:-9.4751051673740011e-02
8105:-1.0540198451764558e-01
8106:-1.1861420266462627e-01
8107:-1.2820703692732921e-01
8108:-9.0660785732610244e-02
8109:-1.0087346833208212e-01
8110:-1.1355347745493018e-01
8111:-1.2276981264380447e-01
8112:-1.4660218602177688e-01
8113:-1.5616722320300197e-01
8114:-1.6767205725205850e-01
8115:-1.7573864200204173e-01
8116:-1.4065892586065631e-01
8117:-1.4989102111634656e-01
8118:-1.6101619145659724e-01
8119:-1.6883410853513339e-01
8120:-1.3312395710990690e-01
8121:-1.4192326493023924e-01
8122:-1.5255017753897482e-01
8123:-1.6003766054470486e-01
8124:-1.2749764292933899e-01
8125:-1.3596581402729319e-01
8126:-1.4620803178300421e-01
8127:-1.5343743087212122e-01
8128:-1.7976795760730871e-01
8129:-1.8678898799714955e-01
8130:-1.9488688460810172e-01
8131:-2.0028246082909557e-01
8132:-1.7274602142526876e-01
8133:-1.7957512834436942e-01
8134:-1.8747799008908531e-01
8135:-1.9276624496405287e-01
8136:-1.6379189338673694e-01
8137:-1.7035984595765163e-01
8138:-1.7798986487226895e-01
8139:-1.8312079336030634e-01
8140:-1.5706731166626564e-01
8141:-1.6342689896998649e-01
8142:-1.7083399488603976e-01
8143:-1.7583147801087071e-01
8144:-2.0287103108172772e-01
8145:-2.0718744282423759e-01
8146:-2.1176710716636729e-01
8147:-2.1448031143999344e-01
8148:-1.9531239044864518e-01
8149:-1.9957501088557011e-01
8150:-2.0413396285921462e-01
8151:-2.0686845432876180e-01
8152:-1.8560128079713684e-01
8153:-1.8977274102225308e-01
8154:-1.9427430869508935e-01
8155:-1.9701115217801934e-01
8156:-1.7825401826755446e-01
8157:-1.8234013160836526e-01
8158:-1.8677539124534526e-01
8159:-1.8949539867729642e-01
8160:-2.1564761815685202e-01
8161:-2.1733854321798185e-01
8162:-2.1858347808883821e-01
8163:-2.1881437721092167e-01
8164:-2.0805989609975623e-01
8165:-2.0981697264550614e-01
8166:-2.1118745435748343e-01
8167:-2.1154364030336692e-01
8168:-1.9821984061741324e-01
8169:-2.0003570692494538e-01
8170:-2.0153276590003838e-01
8171:-2.0202299860980283e-01
8172:-1.9070688147907114e-01
8173:-1.9254767969116846e-01
8174:-1.9411455421270510e-01
8175:-1.9468605779646567e-01
8176:-2.1868712583544170e-01
8177:-2.1802091515734970e-01
8178:-2.1633747370946771e-01
8179:-2.1443834883014187e-01
8180:-2.1149297175778237e-01
8181:-2.1098521880497864e-01
8182:-2.0953561685742683e-01
8183:-2.0783542341265079e-01
8184:-2.0205632276447225e-01
8185:-2.0172547070084856e-01
8186:-2.0054230927438377e-01
8187:-1.9907234379908079e-01
8188:-1.9477214390467582e-01
8189:-1.9455511931518302e-01
8190:-1.9354799610272336e-01
8191:-1.9223312611863838e-01
8192:-2.1321769680857111e-01
8193:-2.1058950084675507e-01
8194:-2.0652434635214073e-01
8195:-2.0293601693108806e-01
8196:-2.0672727288149698e-01
8197:-2.0431877899441170e-01
8198:-2.0055542168334617e-01
8199:-1.9720905407702599e-01
8200:-1.9809550759113792e-01
8201:-1.9594535808797181e-01
8202:-1.9254037358885781e-01
8203:-1.8948379817301522e-01
8204:-1.9134567012146869e-01
8205:-1.8937291674832882e-01
8206:-1.8621684311256520e-01
8207:-1.8336352846666762e-01
8208:-2.0086364310130669e-01
8209:-1.9673226696451496e-01
8210:-1.9089142530440201e-01
8211:-1.8608261080286939e-01
8212:-1.9526896010359707e-01
8213:-1.9138901101425498e-01
8214:-1.8588108949842599e-01
8215:-1.8133040706058492e-01
8216:-1.8770295188791250e-01
8217:-1.8412717703909051e-01
8218:-1.7902482186134269e-01
8219:-1.7479064095247496e-01
8220:-1.8169503091336001e-01
8221:-1.7833502930610459e-01
8222:-1.7352258110875970e-01
8223:-1.6951624078577607e-01
8224:-1.8340915420522852e-01
8225:-1.7824226155937523e-01
8226:-1.7122889386030149e-01
8227:-1.6565559361812726e-01
8228:-1.7879521496719777e-01
8229:-1.7388674742391275e-01
8230:-1.6720749444061178e-01
8231:-1.6188737478146445e-01
8232:-1.7242567433991876e-01
8233:-1.6783666209503612e-01
8234:-1.6157289111910750e-01
8235:-1.5656943442230137e-01
8236:-1.6727435649733244e-01
8237:-1.6291733465449751e-01
8238:-1.5695719824605203e-01
8239:-1.5218656470692879e-01
8240:-1.6262117222188704e-01
8241:-1.5685688762362746e-01
8242:-1.4921660563021324e-01
8243:-1.4327689968672450e-01
8244:-1.5898660571318438e-01
8245:-1.5346921456548598e-01
8246:-1.4614271866076572e-01
8247:-1.4043675153137358e-01
8248:-1.5383646145629601e-01
8249:-1.4863020807962596e-01
8250:-1.4170139147845076e-01
8251:-1.3629333710057123e-01
8252:-1.4957744595017330e-01
8253:-1.4460174984548069e-01
8254:-1.3796933408740986e-01
8255:-1.3278459943425272e-01
8256:-3.0975642044277435e-03
8257:-1.4745322004254088e-02
8258:-2.9803087676539834e-02
8259:-4.1223317706497939e-02
8260:-2.9563940649914838e-03
8261:-1.4073733665594111e-02
8262:-2.8447163704452355e-02
8263:-3.9350569609440562e-02
8264:-2.7750730570568088e-03
8265:-1.3211279177374744e-02
8266:-2.6705332683955554e-02
8267:-3.6944156625737898e-02
8268:-2.6378364407017543e-03
8269:-1.2558594681031618e-02
8270:-2.5386749984934509e-02
8271:-3.5121986987214533e-02
8272:-4.7257487670883780e-02
8273:-5.8393113164096552e-02
8274:-7.2523758154010645e-02
8275:-8.3037211510638101e-02
8276:-4.5112770871492548e-02
8277:-5.5748725112786814e-02
8278:-6.9250790830416242e-02
8279:-7.9301895705289227e-02
8280:-4.2356445750840174e-02
8281:-5.2348761913285073e-02
8282:-6.5039533036648708e-02
8283:-7.4492625007366170e-02
8284:-4.0268989406567174e-02
8285:-4.9772767412883306e-02
8286:-6.1846562882811283e-02
8287:-7.0843940572570693e-02
8288:-8.8519762189623416e-02
8289:-9.8501620120497527e-02
8290:-1.1090048894653674e-01
8291:-1.1991726008404599e-01
8292:-8.4545557352558393e-02
8293:-9.4096578868776759e-02
8294:-1.0596930664319495e-01
8295:-1.1461147536352356e-01
8296:-7.9426816171307757e-02
8297:-8.8418446423640329e-02
8298:-9.9605431104473133e-02
8299:-1.0775725217441280e-01
8300:-7.5541942231045031e-02
8301:-8.4105717148927367e-02
8302:-9.4766294280697258e-02
8303:-1.0254016004409168e-01
8304:-1.2454460101723754e-01
8305:-1.3283623454328336e-01
8306:-1.4287219618889041e-01
8307:-1.4996223548361590e-01
8308:-1.1904975449486965e-01
8309:-1.2700831282497857e-01
8310:-1.3665318272149882e-01
8311:-1.4347733604075108e-01
8312:-1.1194724430489761e-01
8313:-1.1946664063294829e-01
8314:-1.2859222566655545e-01
8315:-1.3506030018473261e-01
8316:-1.0653818623000341e-01
8317:-1.1371676872063612e-01
8318:-1.2243673428515701e-01
8319:-1.2862448699505222e-01
8320:-1.5352457464463001e-01
8321:-1.5977019868682807e-01
8322:-1.6705367390262452e-01
8323:-1.7197560495019154e-01
8324:-1.4691016114319830e-01
8325:-1.5293595333847382e-01
8326:-1.5997818396918415e-01
8327:-1.6475015720684319e-01
8328:-1.3831847852556234e-01
8329:-1.4404543643498957e-01
8330:-1.5075463261332012e-01
8331:-1.5531503833643925e-01
8332:-1.3174432051833787e-01
8333:-1.3723285714595976e-01
8334:-1.4367275804354379e-01
8335:-1.4805893172291545e-01
8336:-1.7436465046892913e-01
8337:-1.7839999438131429e-01
8338:-1.8279232584202129e-01
8339:-1.8549704766757147e-01
8340:-1.6707162642161191e-01
8341:-1.7100229822978030e-01
8342:-1.7530082742340550e-01
8343:-1.7796601220675026e-01
8344:-1.5753922123341912e-01
8345:-1.6131526931847076e-01
8346:-1.6546614758395356e-01
8347:-1.6805916915178007e-01
8348:-1.5020167640757162e-01
8349:-1.5384566669888866e-01
8350:-1.5786453972635520e-01
8351:-1.6038699376482277e-01
8352:-1.8670649643348353e-01
8353:-1.8855378688471602e-01
8354:-1.9014870076136922e-01
8355:-1.9075629145793963e-01
8356:-1.7916563659871249e-01
8357:-1.8101360725435381e-01
8358:-1.8264576231784369e-01
8359:-1.8330904850912791e-01
8360:-1.6923462429301697e-01
8361:-1.7106180327077464e-01
8362:-1.7271367205466845e-01
8363:-1.7342712207243616e-01
8364:-1.6153553628451792e-01
8365:-1.6333079582567869e-01
8366:-1.6497655432407318e-01
8367:-1.6571197025086229e-01
8368:-1.9086659165119232e-01
8369:-1.9070291845083098e-01
8370:-1.8978015153020555e-01
8371:-1.8854076988537927e-01
8372:-1.8345831865017573e-01
8373:-1.8338270547027630e-01
8374:-1.8260273733114904e-01
8375:-1.8149333786582680e-01
8376:-1.7361515611885389e-01
8377:-1.7363196009807502e-01
8378:-1.7300948342688341e-01
8379:-1.7204802270924527e-01
8380:-1.6592088563108423e-01
8381:-1.6599212167341282e-01
8382:-1.6546937439855494e-01
8383:-1.6460558174978637e-01
8384:-1.8769717005888717e-01
8385:-1.8581204851000618e-01
8386:-1.8277999822890997e-01
8387:-1.8002869876641175e-01
8388:-1.8072590449887443e-01
8389:-1.7899406413862859e-01
8390:-1.7618089836437001e-01
8391:-1.7361097563188380e-01
8392:-1.7136861462759950e-01
8393:-1.6981613306019491e-01
8394:-1.6726302523435091e-01
8395:-1.6491126626209246e-01
8396:-1.6398541510066203e-01
8397:-1.6255547663817596e-01
8398:-1.6018327014768358e-01
8399:-1.5798542459805556e-01
8400:-1.7841682853851670e-01
8401:-1.7516601612154556e-01
8402:-1.7050107733091896e-01
8403:-1.6661124469418023e-01
8404:-1.7210021550161833e-01
8405:-1.6904514670234788e-01
8406:-1.6464609879823563e-01
8407:-1.6096730790189967e-01
8408:-1.6352297834518334e-01
8409:-1.6070655900538391e-01
8410:-1.5663454600806884e-01
8411:-1.5321735421195021e-01
8412:-1.5668422233229445e-01
8413:-1.5403872563650522e-01
8414:-1.5020319027892304e-01
8415:-1.4697674134030664e-01
8416:-1.6443249406776705e-01
8417:-1.6019483133939771e-01
8418:-1.5439159899663363e-01
8419:-1.4974177761704782e-01
8420:-1.5890326281552000e-01
8421:-1.5488311098792734e-01
8422:-1.4936703503403703e-01
8423:-1.4493920827945223e-01
8424:-1.5129616837061613e-01
8425:-1.4754818610142853e-01
8426:-1.4239381578269789e-01
8427:-1.3824734507327932e-01
8428:-1.4516024303589142e-01
8429:-1.4161268998649715e-01
8430:-1.3672652199839966e-01
8431:-1.3278999578325712e-01
8432:-1.4719709805227887e-01
8433:-1.4234167580671719e-01
8434:-1.3586448813319804e-01
8435:-1.3079715647609985e-01
8436:-1.4251324080173697e-01
8437:-1.3787996412670886e-01
8438:-1.3169056963740328e-01
8439:-1.2684170451980351e-01
8440:-1.3597242046344976e-01
8441:-1.3162289924319301e-01
8442:-1.2580321480316378e-01
8443:-1.2123654136330918e-01
8444:-1.3062822351819295e-01
8445:-1.2649211795103257e-01
8446:-1.2095208625676034e-01
8447:-1.1660002510892237e-01
8448:-2.5651218311421179e-03
8449:-1.2212792093793117e-02
8450:-2.4688005479453313e-02
8451:-3.4156214817499107e-02
8452:-2.4282420939394709e-03
8453:-1.1561894643022071e-02
8454:-2.3372535598573340e-02
8455:-3.2337764896880020e-02
8456:-2.2481195288400614e-03
8457:-1.0705491840748826e-02
8458:-2.1641304891120070e-02
8459:-2.9944087216166603e-02
8460:-2.1084593113187386e-03
8461:-1.0041587738499499e-02
8462:-2.0298909924089177e-02
8463:-2.8087672443730869e-02
8464:-3.9162500934286006e-02
8465:-4.8406953356198955e-02
8466:-6.0152847422295104e-02
8467:-6.8907713112028146e-02
8468:-3.7078922889319292e-02
8469:-4.5834452100793815e-02
8470:-5.6961473286305991e-02
8471:-6.5258121796912524e-02
8472:-3.4335926889538231e-02
8473:-4.2446686230349973e-02
8474:-5.2756346750906444e-02
8475:-6.0446881798707018e-02
8476:-3.2208363906465927e-02
8477:-3.9818216408400983e-02
8478:-4.9492015073079092e-02
8479:-5.6710355121970570e-02
8480:-7.3479903954030604e-02
8481:-8.1815462443792730e-02
8482:-9.2194614272373951e-02
8483:-9.9765903648107959e-02
8484:-6.9592407549515498e-02
8485:-7.7495901225436856e-02
8486:-8.7341200806438299e-02
8487:-9.4527377069740709e-02
8488:-6.4466123886852633e-02
8489:-7.1796511569172883e-02
8490:-8.0931751742128327e-02
8491:-8.7604166590193877e-02
8492:-6.0483908373416863e-02
8493:-6.7366677604114480e-02
8494:-7.5945947773444489e-02
8495:-8.2214996525644929e-02
8496:-1.0366084377719081e-01
8497:-1.1065598513027344e-01
8498:-1.1915675654606218e-01
8499:-1.2519230500982687e-01
8500:-9.8226028390299189e-02
8501:-1.0487118556866672e-01
8502:-1.1295234547588254e-01
8503:-1.1869536267917939e-01
8504:-9.1040380775146215e-02
8505:-9.7216344680521191e-02
8506:-1.0473237419484399e-01
8507:-1.1007929135395365e-01
8508:-8.5444753798675291e-02
8509:-9.1250707631589309e-02
8510:-9.8319231799321588e-02
8511:-1.0335099636865025e-01
8512:-1.2823674287100847e-01
8513:-1.3359478817781725e-01
8514:-1.3988613758475754e-01
8515:-1.4417519121601038e-01
8516:-1.2159444480093806e-01
8517:-1.2670002498391156e-01
8518:-1.3270210976043142e-01
8519:-1.3680044594583629e-01
8520:-1.1278074068147799e-01
8521:-1.1754143957627086e-01
8522:-1.2314500932750702e-01
8523:-1.2697771692866991e-01
8524:-1.0589462951730508e-01
8525:-1.1037879665510296e-01
8526:-1.1566048637461011e-01
8527:-1.1927665766243561e-01
8528:-1.4627212673252565e-01
8529:-1.4984102256451273e-01
8530:-1.5378304061581730e-01
8531:-1.5626265677779164e-01
8532:-1.3880677318797441e-01
8533:-1.4222587409038151e-01
8534:-1.4601182645997865e-01
8535:-1.4840180951977469e-01
8536:-1.2885668473240872e-01
8537:-1.3206299631541366e-01
8538:-1.3562240221900071e-01
8539:-1.3787770851526987e-01
8540:-1.2105101106810345e-01
8541:-1.2408101753289943e-01
8542:-1.2744946593073661e-01
8543:-1.2958825767494594e-01
8544:-1.5739399412507124e-01
8545:-1.5916680655168386e-01
8546:-1.6080212619223527e-01
8547:-1.6154369566832955e-01
8548:-1.4949588995121024e-01
8549:-1.5121729602976577e-01
8550:-1.5282104822939943e-01
8551:-1.5356510823301889e-01
8552:-1.3891370331756545e-01
8553:-1.4055043245785792e-01
8554:-1.4209045547707522e-01
8555:-1.4282085413115753e-01
8556:-1.3057266586383381e-01
8557:-1.3213142045927848e-01
8558:-1.3360596894345184e-01
8559:-1.3431350926360697e-01
8560:-1.6176077381533188e-01
8561:-1.6185552367847814e-01
8562:-1.6137892359417483e-01
8563:-1.6056195612699481e-01
8564:-1.5379273529635318e-01
8565:-1.5392290386901258e-01
8566:-1.5352205236380725e-01
8567:-1.5278503732235585e-01
8568:-1.4305338724272024e-01
8569:-1.4321367856800146e-01
8570:-1.4289176850080620e-01
8571:-1.4224467917767541e-01
8572:-1.3454334581441788e-01
8573:-1.3471504742956622e-01
8574:-1.3443930841714036e-01
8575:-1.3385085537456104e-01
8576:-1.5997063444059079e-01
8577:-1.5860106859606604e-01
8578:-1.5631920725877146e-01
8579:-1.5419903093460385e-01
8580:-1.5224377523030783e-01
8581:-1.5098026702750886e-01
8582:-1.4885930606829548e-01
8583:-1.4687886553641105e-01
8584:-1.4176138035183425e-01
8585:-1.4062326773282890e-01
8586:-1.3869691759628802e-01
8587:-1.3688826829085196e-01
8588:-1.3340675868550156e-01
8589:-1.3235558780481779e-01
8590:-1.3056769364161397e-01
8591:-1.2888345708890714e-01
8592:-1.5294202515961769e-01
8593:-1.5038372063276326e-01
8594:-1.4666963484804205e-01
8595:-1.4354171450656378e-01
8596:-1.4570180875459784e-01
8597:-1.4330201698358142e-01
8598:-1.3981014626616856e-01
8599:-1.3686347951972108e-01
8600:-1.3581034835409231e-01
8601:-1.3360864152403221e-01
8602:-1.3039721305558882e-01
8603:-1.2768117027921108e-01
8604:-1.2787799105382924e-01
8605:-1.2582222998511780e-01
8606:-1.2281952796126702e-01
8607:-1.2027655294291591e-01
8608:-1.4177947880916500e-01
8609:-1.3833616325694098e-01
8610:-1.3359012921383842e-01
8611:-1.2976376104868190e-01
8612:-1.3520138292330561e-01
8613:-1.3195103900562807e-01
8614:-1.2746555258576509e-01
8615:-1.2384479080406427e-01
8616:-1.2614709551792305e-01
8617:-1.2314461216491113e-01
8618:-1.1899592020686287e-01
8619:-1.1564243528040132e-01
8620:-1.1883900560280997e-01
8621:-1.1602427314610399e-01
8622:-1.1213228944934636e-01
8623:-1.0898363760363038e-01
8624:-1.2766151540867821e-01
8625:-1.2363797677292411e-01
8626:-1.1824600181646301e-01
8627:-1.1400796355760284e-01
8628:-1.2185391350884393e-01
8629:-1.1804148327525064e-01
8630:-1.1292812341457885e-01
8631:-1.0890533731185474e-01
8632:-1.1379682887137768e-01
8633:-1.1026072945926355e-01
8634:-1.0551385088084968e-01
8635:-1.0177548094231598e-01
8636:-1.0724972953944351e-01
8637:-1.0392680311305216e-01
8638:-9.9463951717258942e-02
8639:-9.5946940367797856e-02
8640:-2.0332629702356580e-03
8641:-9.6841748734947906e-03
8642:-1.9576134018804443e-02
8643:-2.7088019096774475e-02
8644:-1.8892424566593403e-03
8645:-8.9997249546529788e-03
8646:-1.8191853557815333e-02
8647:-2.5173285485148609e-02
8648:-1.6948845899252226e-03
8649:-8.0761463583475003e-03
8650:-1.6323653629856851e-02
8651:-2.2588895609291622e-02
8652:-1.5405502881268543e-03
8653:-7.3427616817097405e-03
8654:-1.4839968284754375e-02
8655:-2.0536221621474070e-02
8656:-3.1062623980895175e-02
8657:-3.8402464544647776e-02
8658:-4.7733219181016549e-02
8659:-5.4696593518817123e-02
8660:-2.8867971568403736e-02
8661:-3.5690223134218373e-02
8662:-4.4362963123834205e-02
8663:-5.0836958978305598e-02
8664:-2.5905581237528879e-02
8665:-3.2028502583125652e-02
8666:-3.9811417341348208e-02
8667:-4.5623080862072875e-02
8668:-2.3552551980407489e-02
8669:-2.9119533149650038e-02
8670:-3.6194551518378623e-02
8671:-4.1478920814863138e-02
8672:-5.8337402636310945e-02
8673:-6.4978105420373244e-02
8674:-7.3256263227916465e-02
8675:-7.9306494299893782e-02
8676:-5.4222866667230037e-02
8677:-6.0398410777772540e-02
8678:-6.8097279805769101e-02
8679:-7.3726031346306092e-02
8680:-4.8663800806003590e-02
8681:-5.4208840968368914e-02
8682:-6.1121332253551666e-02
8683:-6.6177031465369449e-02
8684:-4.4244692997689572e-02
8685:-4.9287128059960182e-02
8686:-5.5571961102436188e-02
8687:-6.0169659697945244e-02
8688:-8.2424119982133517e-02
8689:-8.8028821528968890e-02
8690:-9.4853349932847011e-02
8691:-9.9712801960653491e-02
8692:-7.6627484585223712e-02
8693:-8.1843778362563374e-02
8694:-8.8196546385479663e-02
8695:-9.2722147638256008e-02
8696:-6.8784242486363265e-02
8697:-7.3471111953066090e-02
8698:-7.9179335123237132e-02
8699:-8.3247609474972728e-02
8700:-6.2541479504974476e-02
8701:-6.6804309896027494e-02
8702:-7.1995271336527819e-02
8703:-7.5695720538696387e-02
8704:-1.0216996505318769e-01
8705:-1.0650225460959732e-01
8706:-1.1160641631915376e-01
8707:-1.1510253413673308e-01
8708:-9.5011518031653239e-02
8709:-9.9048579734618628e-02
8710:-1.0380659770197748e-01
8711:-1.0706775205678155e-01
8712:-8.5306676906708026e-02
8713:-8.8937632075091047e-02
8714:-9.3217675192549115e-02
8715:-9.6152852837444652e-02
8716:-7.7569253295767027e-02
8717:-8.0872445101263499e-02
8718:-8.4765497054709801e-02
8719:-8.7435733369263538e-02
8720:-1.1681863923538509e-01
8721:-1.1975001003109306e-01
8722:-1.2301062522695660e-01
8723:-1.2508271728787904e-01
8724:-1.0866950972868755e-01
8725:-1.1140660048711355e-01
8726:-1.1445344545660695e-01
8727:-1.1639207511669980e-01
8728:-9.7595375114314639e-02
8729:-1.0006081079378194e-01
8730:-1.0280640597523501e-01
8731:-1.0455486494406373e-01
8732:-8.8748441369355252e-02
8733:-9.0991683050471936e-02
8734:-9.3489341709855095e-02
8735:-9.5079925570079077e-02
8736:-1.2603720188714224e-01
8737:-1.2754993155812669e-01
8738:-1.2898395636186610e-01
8739:-1.2967516345350857e-01
8740:-1.1728615466194942e-01
8741:-1.1870493409028048e-01
8742:-1.2005381420279893e-01
8743:-1.2070800331743199e-01
8744:-1.0536198533366728e-01
8745:-1.0664378516131762e-01
8746:-1.0786454935637844e-01
8747:-1.0845873701877298e-01
8748:-9.5814284522505719e-02
8749:-9.6980370117249692e-02
8750:-9.8090414736608983e-02
8751:-9.8630136790513273e-02
8752:-1.2990141447051726e-01
8753:-1.3007533849471947e-01
8754:-1.2981952282525061e-01
8755:-1.2925900076161878e-01
8756:-1.2092435207617548e-01
8757:-1.2109698430593072e-01
8758:-1.2087239355226655e-01
8759:-1.2036028245110161e-01
8760:-1.0865641325028558e-01
8761:-1.0881761257971528e-01
8762:-1.0862308375121695e-01
8763:-1.0816747283249860e-01
8764:-9.8809385910647779e-02
8765:-9.8954945667827574e-02
8766:-9.8776129962772324e-02
8767:-9.8359435423297142e-02
8768:-1.2883412703601352e-01
8769:-1.2782639188284692e-01
8770:-1.2610896463866472e-01
8771:-1.2448883248064967e-01
8772:-1.1996960249352294e-01
8773:-1.1904039787712116e-01
8774:-1.1745237179116362e-01
8775:-1.1595113589538943e-01
8776:-1.0781839028767221e-01
8777:-1.0698710820122900e-01
8778:-1.0556414455429304e-01
8779:-1.0421672285361137e-01
8780:-9.8040327627328241e-02
8781:-9.7281401975133339e-02
8782:-9.5983124301165804e-02
8783:-9.4753435941770853e-02
8784:-1.2352093026561482e-01
8785:-1.2154124572700443e-01
8786:-1.1864807365758463e-01
8787:-1.1619640336735618e-01
8788:-1.1505324613581842e-01
8789:-1.1321597858234954e-01
8790:-1.1052894234199850e-01
8791:-1.0824982406408676e-01
8792:-1.0341002474275378e-01
8793:-1.0175938321117356e-01
8794:-9.9344438602737284e-02
8795:-9.7294362907922705e-02
8796:-9.4016975846583153e-02
8797:-9.2510871639760600e-02
8798:-9.0308033068639493e-02
8799:-8.8437396283919709e-02
8800:-1.1480993559049087e-01
8801:-1.1209484972515849e-01
8802:-1.0833964883573689e-01
8803:-1.0530051222255073e-01
8804:-1.0696011361881420e-01
8805:-1.0443422548167239e-01
8806:-1.0093953467883902e-01
8807:-9.8109522352967896e-02
8808:-9.6133486443935892e-02
8809:-9.3860307665892054e-02
8810:-9.0715005056295997e-02
8811:-8.8166432468618702e-02
8812:-8.7377729456880396e-02
8813:-8.5303619710100156e-02
8814:-8.2434527098093929e-02
8815:-8.0109112602548924e-02
8816:-1.0362644685923228e-01
8817:-1.0041796307418686e-01
8818:-9.6108027602784390e-02
8819:-9.2710500662459422e-02
8820:-9.6549906511961603e-02
8821:-9.3560644815737934e-02
8822:-8.9544272137069794e-02
8823:-8.6376574620567526e-02
8824:-8.6761155870473020e-02
8825:-8.4068144096977410e-02
8826:-8.0449621731147808e-02
8827:-7.7594189376655451e-02
8828:-7.8826428428242987e-02
8829:-7.6369155513354131e-02
8830:-7.3067999746702125e-02
8831:-7.0462201793773507e-02
8832:-1.4561764919575908e-03
8833:-6.9418059255316241e-03
8834:-1.4028742070413847e-02
8835:-1.9413830933091444e-02
8836:-1.2919074961650855e-03
8837:-6.1611746385556061e-03
8838:-1.2449270639530696e-02
8839:-1.7228472588120904e-02
8840:-1.0649620651494922e-03
8841:-5.0828361647747202e-03
8842:-1.0267359434982614e-02
8843:-1.4209527273972997e-02
8844:-8.8079839596359657e-04
8845:-4.2080072449377911e-03
8846:-8.4972172094012356e-03
8847:-1.1760297486788824e-02
8848:-2.2265891771588872e-02
8849:-2.7528740405792243e-02
8850:-3.4216339089906990e-02
8851:-3.9212015160475490e-02
8852:-1.9760674449535290e-02
8853:-2.4431239835771820e-02
8854:-3.0364203483006325e-02
8855:-3.4797467208737547e-02
8856:-1.6299848014767013e-02
8857:-2.0152051557483775e-02
8858:-2.5042117643038372e-02
8859:-2.8698038665460886e-02
8860:-1.3492122470425652e-02
8861:-1.6680324976821131e-02
8862:-2.0724102014928268e-02
8863:-2.3749189980223743e-02
8864:-4.1827212396463295e-02
8865:-4.6594275937243898e-02
8866:-5.2534982119355832e-02
8867:-5.6881389554609953e-02
8868:-3.7119302050268928e-02
8869:-4.1349753284450459e-02
8870:-4.6619657098875014e-02
8871:-5.0476088990128405e-02
8872:-3.0614379738322511e-02
8873:-3.4102961713637338e-02
8874:-3.8445210071987770e-02
8875:-4.1623891710700751e-02
8876:-2.5336458868868227e-02
8877:-2.8222919065686511e-02
8878:-3.1812138268069383e-02
8879:-3.4440591914775325e-02
8880:-5.9123990605151215e-02
8881:-6.3153892656316241e-02
8882:-6.8060414581693554e-02
8883:-7.1558358632123412e-02
8884:-5.2466690423222627e-02
8885:-5.6042218370716247e-02
8886:-6.0393647504643058e-02
8887:-6.3496224243861685e-02
8888:-4.3265870599671380e-02
8889:-4.6212654447241611e-02
8890:-4.9795686049537657e-02
8891:-5.2350774419335777e-02
8892:-3.5799528343750220e-02
8893:-3.8235779800889894e-02
8894:-4.1194772428843458e-02
8895:-4.3305163769628771e-02
8896:-7.3329656283430911e-02
8897:-7.6452064214816942e-02
8898:-8.0131304820173985e-02
8899:-8.2654865413251677e-02
8900:-6.5067860120785803e-02
8901:-6.7837084866410824e-02
8902:-7.1098381086941095e-02
8903:-7.3335036546192292e-02
8904:-5.3645863743681160e-02
8905:-5.5925781503158897e-02
8906:-5.8607809425468137e-02
8907:-6.0446626795810032e-02
8908:-4.4375610777236667e-02
8909:-4.6258028629119895e-02
8910:-4.8469422332429388e-02
8911:-4.9984975559435166e-02
8912:-8.3895591770406078e-02
8913:-8.6015416586349966e-02
8914:-8.8374918638399233e-02
8915:-8.9877142759994783e-02
8916:-7.4434890779077542e-02
8917:-7.6313066647118566e-02
8918:-7.8401818003844104e-02
8919:-7.9730664027723192e-02
8920:-6.1351071883994961e-02
8921:-6.2893959685944231e-02
8922:-6.4606862522638739e-02
8923:-6.5694863873520568e-02
8924:-5.0730630783286414e-02
8925:-5.2001072729313438e-02
8926:-5.3408595490293448e-02
8927:-5.4300927249164195e-02
8928:-9.0570617550916110e-02
8929:-9.1671377780843069e-02
8930:-9.2718228852627704e-02
8931:-9.3226160097781646e-02
8932:-8.0343827887089561e-02
8933:-8.1316131862022564e-02
8934:-8.2238412671719746e-02
8935:-8.2683352716875519e-02
8936:-6.6196399196600461e-02
8937:-6.6990102157460207e-02
8938:-6.7739058184943510e-02
8939:-6.8096200271927948e-02
8940:-5.4711782380645092e-02
8941:-5.5360474652762608e-02
8942:-5.5968865737058129e-02
8943:-5.6254952752083122e-02
8944:-9.3394274323421705e-02
8945:-9.3529357141319311e-02
8946:-9.3356749138874873e-02
8947:-9.2959602740649155e-02
8948:-8.2829232333159294e-02
8949:-8.2942990187902688e-02
8950:-8.2781475831930670e-02
8951:-8.2421772397650014e-02
8952:-6.8211007177150298e-02
8953:-6.8294845754410083e-02
8954:-6.8148444738824587e-02
8955:-6.7840559675607759e-02
8956:-5.6344689828402621e-02
8957:-5.6404660711199789e-02
8958:-5.6271316795090696e-02
8959:-5.6006258164608948e-02
8960:-9.2655998226869984e-02
8961:-9.1935077596977624e-02
8962:-9.0703150008847030e-02
8963:-8.9536588662852246e-02
8964:-8.2148072132006422e-02
8965:-8.1500770674133138e-02
8966:-8.0397811359940868e-02
8967:-7.9354175095175408e-02
8968:-6.7608304383409215e-02
8969:-6.7063207774187034e-02
8970:-6.6139526490292380e-02
8971:-6.5266854333047089e-02
8972:-5.5808104102951575e-02
8973:-5.5346982790450486e-02
8974:-5.4570418299806925e-02
8975:-5.3837913724815216e-02
8976:-8.8837922506406847e-02
8977:-8.7409833979855550e-02
8978:-8.5321900583550395e-02
8979:-8.3548740397616034e-02
8980:-7.8729161752051594e-02
8981:-7.7453257984560792e-02
8982:-7.5589713870371653e-02
8983:-7.4007045871987157e-02
8984:-6.4744294683743445e-02
8985:-6.3680206974791501e-02
8986:-6.2129165918938550e-02
8987:-6.0811878151033269e-02
8988:-5.3399313334544465e-02
8989:-5.2508800082963145e-02
8990:-5.1213821129642921e-02
8991:-5.0113945889251776e-02
8992:-8.2544136618752206e-02
8993:-8.0578494569060022e-02
8994:-7.7860196905936971e-02
8995:-7.5656812129418910e-02
8996:-7.3110087118596248e-02
8997:-7.1356602462451194e-02
8998:-6.8933437317068871e-02
8999:-6.6968992987821080e-02
9000:-6.0064902036520061e-02
9001:-5.8607122239313587e-02
9002:-5.6595477380841350e-02
9003:-5.4964276610816071e-02
9004:-4.9489826846133171e-02
9005:-4.8274285547034418e-02
9006:-4.6599764471902456e-02
9007:-4.5241544947655123e-02
9008:-7.4441228801024967e-02
9009:-7.2113115030844221e-02
9010:-6.8986074632506861e-02
9011:-6.6517392761247671e-02
9012:-6.5884826681942177e-02
9013:-6.3809754293666976e-02
9014:-6.1023976047783993e-02
9015:-5.8824126816280929e-02
9016:-5.4063409801082665e-02
9017:-5.2341353220987999e-02
9018:-5.0031790148949117e-02
9019:-4.8207145201448948e-02
9020:-4.4490819411550205e-02
9021:-4.3057924987504291e-02
9022:-4.1138438547544932e-02
9023:-3.9621113187920179e-02
9024:-7.7874404941368457e-04
9025:-3.7233328599476068e-03
9026:-7.5165283992161226e-03
9027:-1.0403385595482756e-02
9028:-5.7745961495345437e-04
9029:-2.7673692346493611e-03
9030:-5.5822162899939621e-03
9031:-7.7270887254745580e-03
9032:-2.9468312166389956e-04
9033:-1.4232802994324490e-03
9034:-2.8623885247895334e-03
9035:-3.9641627797012526e-03
9036:-6.2034839906685444e-05
9037:-3.1574920451581595e-04
9038:-6.2099470565228317e-04
9039:-8.6334301926634972e-04
9040:-1.1936602929387479e-02
9041:-1.4756936828977362e-02
9042:-1.8331844676055337e-02
9043:-2.1007438691679047e-02
9044:-8.8686689577035776e-03
9045:-1.0963680642469567e-02
9046:-1.3614311044410745e-02
9047:-1.5601126507794227e-02
9048:-4.5553141235577538e-03
9049:-5.6311201412880584e-03
9050:-6.9834079569560609e-03
9051:-8.0030731352281979e-03
9052:-1.0011157275637264e-03
9053:-1.2375912293297242e-03
9054:-1.5210208624293975e-03
9055:-1.7447772475263649e-03
9056:-2.2412400370303540e-02
9057:-2.4965277574962912e-02
9058:-2.8137307281329831e-02
9059:-3.0460936597175033e-02
9060:-1.6646870561203335e-02
9061:-1.8542580565586060e-02
9062:-2.0893036842869687e-02
9063:-2.2616667841618209e-02
9064:-8.5445746008027870e-03
9065:-9.5181150381997391e-03
9066:-1.0716431729410524e-02
9067:-1.1599336499579171e-02
9068:-1.8714335287313504e-03
9069:-2.0865701681542746e-03
9070:-2.3379795142613059e-03
9071:-2.5304837849614466e-03
9072:-3.1663075180908551e-02
9073:-3.3816509995630330e-02
9074:-3.6429821807210827e-02
9075:-3.8293896180078418e-02
9076:-2.3510299040913833e-02
9077:-2.5107511128769213e-02
9078:-2.7041441016119518e-02
9079:-2.8421815397941377e-02
9080:-1.2060966822971086e-02
9081:-1.2879851188730409e-02
9082:-1.3864234098811924e-02
9083:-1.4569483277797040e-02
9084:-2.6375871338382749e-03
9085:-2.8181810754077724e-03
9086:-3.0247869305427772e-03
9087:-3.1778010459894376e-03
9088:-3.9239923595256958e-02
9089:-4.0902204639670536e-02
9090:-4.2853006268542139e-02
9091:-4.4189608979398248e-02
9092:-2.9123670417517736e-02
9093:-3.0354241476765239e-02
9094:-3.1794637823634293e-02
9095:-3.2781287543512866e-02
9096:-1.4930890261294303e-02
9097:-1.5560239084589070e-02
9098:-1.6291297627503826e-02
9099:-1.6792856992296146e-02
9100:-3.2610230306241487e-03
9101:-3.3996877120842828e-03
9102:-3.5530423556069529e-03
9103:-3.6605671966989431e-03
9104:-4.4847380213741551e-02
9105:-4.5967077810509467e-02
9106:-4.7205726580077725e-02
9107:-4.7989934322142588e-02
9108:-3.3267412254224631e-02
9109:-3.4093138092198813e-02
9110:-3.5003389419240943e-02
9111:-3.5578136062099079e-02
9112:-1.7041554174020396e-02
9113:-1.7461668854699977e-02
9114:-1.7920938525760179e-02
9115:-1.8209880656975038e-02
9116:-3.7168174917514992e-03
9117:-3.8090006286251275e-03
9118:-3.9054110930026795e-03
9119:-3.9659279923967032e-03
9120:-4.8350715219639274e-02
9121:-4.8919417843871452e-02
9122:-4.9450463954974641e-02
9123:-4.9697642638533115e-02
9124:-3.5842243107367965e-02
9125:-3.6257230487860795e-02
9126:-3.6641233571589528e-02
9127:-3.6816027845639601e-02
9128:-1.8342846031348298e-02
9129:-1.8550946468025326e-02
9130:-1.8740704633080748e-02
9131:-1.8823579883254022e-02
9132:-3.9947228935538308e-03
9133:-4.0398450370778133e-03
9134:-4.0796601082027399e-03
9135:-4.0947569058863657e-03
9136:-4.9773751312105319e-02
9137:-4.9821034476051240e-02
9138:-4.9695706052196864e-02
9139:-4.9455026640179957e-02
9140:-3.6867616769682178e-02
9141:-3.6894384359926854e-02
9142:-3.6790857724394714e-02
9143:-3.6602891420538373e-02
9144:-1.8846023532680042e-02
9145:-1.8854084142389319e-02
9146:-1.8794611067559239e-02
9147:-1.8691071287932456e-02
9148:-4.0974890035699865e-03
9149:-4.0982985016462178e-03
9150:-4.0858786979641156e-03
9151:-4.0601656250631090e-03
9152:-4.9276129957610264e-02
9153:-4.8862261052175365e-02
9154:-4.8168229450436160e-02
9155:-4.7514214587183613e-02
9156:-3.6464443485495608e-02
9157:-3.6148407678323266e-02
9158:-3.5623183187477578e-02
9159:-3.5128538039340608e-02
9160:-1.8614978114698359e-02
9161:-1.8446753177255203e-02
9162:-1.8172119364734823e-02
9163:-1.7911529614984552e-02
9164:-4.0398418431775206e-03
9165:-4.0015973126415220e-03
9166:-3.9439774668098724e-03
9167:-3.8841588635853564e-03
9168:-4.7122587623938339e-02
9169:-4.6329135134657591e-02
9170:-4.5177251763984662e-02
9171:-4.4198806009554739e-02
9172:-3.4831959707447235e-02
9173:-3.4234401794404797e-02
9174:-3.3370426516195699e-02
9175:-3.2635674546875694e-02
9176:-1.7753828942062358e-02
9177:-1.7441375447186672e-02
9178:-1.6994429126660479e-02
9179:-1.6611293393170724e-02
9180:-3.8450390830794012e-03
9181:-3.7751408892058892e-03
9182:-3.6814236221849300e-03
9183:-3.5950451420009590e-03
9184:-4.3643282656565426e-02
9185:-4.2562964661878762e-02
9186:-4.1076580092333156e-02
9187:-3.9870657174106809e-02
9188:-3.2217611379375968e-02
9189:-3.1407939823279815e-02
9190:-3.0297505576556277e-02
9191:-2.9395488669040987e-02
9192:-1.6391121673533023e-02
9193:-1.5970328136754215e-02
9194:-1.5398710501481359e-02
9195:-1.4931293892113520e-02
9196:-3.5415448185159878e-03
9197:-3.4476724907321365e-03
9198:-3.3279235093870187e-03
9199:-3.2242050712219090e-03
9200:-3.9203679594880400e-02
9201:-3.7932055671958884e-02
9202:-3.6230074637340862e-02
9203:-3.4884069753974303e-02
9204:-2.8895488658998447e-02
9205:-2.7945173610775337e-02
9206:-2.6676071135193876e-02
9207:-2.5670651197746155e-02
9208:-1.4669765799394672e-02
9209:-1.4177824386208496e-02
9210:-1.3525250293615669e-02
9211:-1.3004112931780699e-02
9212:-3.1619936231437181e-03
9213:-3.0527714505481267e-03
9214:-2.9142026536565237e-03
9215:-2.7962206504091292e-03
9216:-4.6379138137367262e+00
9217:-3.6918670187092184e+00
9218:-2.8423986412426352e+00
9219:-2.3677160489654874e+00
9220:-4.3867305447091507e+00
9221:-3.6341838634938459e+00
9222:-2.9152652274235216e+00
9223:-2.4740140894408120e+00
9224:-4.0514713202279591e+00
9225:-3.5496665709165520e+00
9226:-3.0021550639664718e+00
9227:-2.6072944026045342e+00
9228:-3.7896966866705966e+00
9229:-3.4781826166711980e+00
9230:-3.0623940901230586e+00
9231:-2.7050093659438232e+00
9232:-2.1510161623475077e+00
9233:-1.8218385456832360e+00
9234:-1.5078533780749070e+00
9235:-1.3230265885041399e+00
9236:-2.2590485741682746e+00
9237:-1.9288096488859403e+00
9238:-1.6106395682725707e+00
9239:-1.4213888473265048e+00
9240:-2.3964795922432294e+00
9241:-2.0675035123890386e+00
9242:-1.7456496080678101e+00
9243:-1.5510025315345357e+00
9244:-2.4987592749358281e+00
9245:-2.1727175758623178e+00
9246:-1.8494188737288113e+00
9247:-1.6510058736745232e+00
9248:-1.2364245447670950e+00
9249:-1.0931711383779517e+00
9250:-9.3833904456218120e-01
9251:-8.3928090742861938e-01
9252:-1.3322450774284529e+00
9253:-1.1840193687580378e+00
9254:-1.0219532954745156e+00
9255:-9.1651241690406271e-01
9256:-1.4584933682701844e+00
9257:-1.3037658047425686e+00
9258:-1.1325318007022400e+00
9259:-1.0192193028186032e+00
9260:-1.5559415567811152e+00
9261:-1.3962945777747648e+00
9262:-1.2182549529726783e+00
9263:-1.0992148391387238e+00
9264:-7.9233566711645209e-01
9265:-7.1631331123094066e-01
9266:-6.3571915566793680e-01
9267:-5.8368633417632343e-01
9268:-8.6585593594283305e-01
9269:-7.8323488727135371e-01
9270:-6.9524003095934450e-01
9271:-6.3870116519394071e-01
9272:-9.6404264144154350e-01
9273:-8.7326803150901200e-01
9274:-7.7581692649253509e-01
9275:-7.1321416086476985e-01
9276:-1.0407835834531232e+00
9277:-9.4407671685607175e-01
9278:-8.3956394253784439e-01
9279:-7.7224738736760645e-01
9280:-5.5822472687462543e-01
9281:-5.1377350410658607e-01
9282:-4.6217943893467234e-01
9283:-4.2745760281622930e-01
9284:-6.1129753578043289e-01
9285:-5.6370458756399977e-01
9286:-5.0847881613576051e-01
9287:-4.7096890612585202e-01
9288:-6.8306199708645676e-01
9289:-6.3098643921034681e-01
9290:-5.7070438475747487e-01
9291:-5.2953198980949256e-01
9292:-7.3987677243088490e-01
9293:-6.8413574145907607e-01
9294:-6.1974681276880661e-01
9295:-5.7570975229295396e-01
9296:-4.1065567007386239e-01
9297:-3.8234516723707068e-01
9298:-3.5046813661583304e-01
9299:-3.2884225050327026e-01
9300:-4.5259301422817361e-01
9301:-4.2131614227957143e-01
9302:-3.8584183644677877e-01
9303:-3.6188339836174066e-01
9304:-5.0918021680600301e-01
9305:-4.7420582239719089e-01
9306:-4.3418164814321347e-01
9307:-4.0714055350713835e-01
9308:-5.5387013871494639e-01
9309:-5.1615694771102461e-01
9310:-4.7275901503621698e-01
9311:-4.4336263903506734e-01
9312:-3.1802606126238037e-01
9313:-2.9890253367471376e-01
9314:-2.7623056865713980e-01
9315:-2.6057351456943934e-01
9316:-3.5002772793058884e-01
9317:-3.2924362511841793e-01
9318:-3.0473203682683864e-01
9319:-2.8773161954527038e-01
9320:-3.9383610639269251e-01
9321:-3.7066297346464094e-01
9322:-3.4347586111215311e-01
9323:-3.2460006888028348e-01
9324:-4.2890603589615967e-01
9325:-4.0376953850733416e-01
9326:-3.7433523455223905e-01
9327:-3.5391540312308950e-01
9328:-2.5283076735651799e-01
9329:-2.3934854549706172e-01
9330:-2.2350041367852783e-01
9331:-2.1243211860784492e-01
9332:-2.7924875530496607e-01
9333:-2.6435588153831607e-01
9334:-2.4673900386262196e-01
9335:-2.3445905682442003e-01
9336:-3.1513609125561959e-01
9337:-2.9842629674046844e-01
9338:-2.7855760076153646e-01
9339:-2.6470120652145018e-01
9340:-3.4367446584951489e-01
9341:-3.2557385079722895e-01
9342:-3.0401903253389340e-01
9343:-2.8896754260733926e-01
9344:-2.0684767413815128e-01
9345:-1.9693542267371456e-01
9346:-1.8504133703812725e-01
9347:-1.7665202998044000e-01
9348:-2.2830290711189721e-01
9349:-2.1743403784428003e-01
9350:-2.0444614767458361e-01
9351:-1.9527972327817830e-01
9352:-2.5777316835200359e-01
9353:-2.4557141492199711e-01
9354:-2.3102211513433976e-01
9355:-2.2075660154014043e-01
9356:-2.8143645613595436e-01
9357:-2.6816035003844024e-01
9358:-2.5231916389902587e-01
9359:-2.4114663343219467e-01
9360:-1.7241919142856296e-01
9361:-1.6488529908186617e-01
9362:-1.5577840865779588e-01
9363:-1.4928655360159240e-01
9364:-1.9063925214969096e-01
9365:-1.8235520559002719e-01
9366:-1.7232094964998920e-01
9367:-1.6517500062949755e-01
9368:-2.1555469188407961e-01
9369:-2.0626078446461446e-01
9370:-1.9499926497890013e-01
9371:-1.8698508750266196e-01
9372:-2.3549063934621781e-01
9373:-2.2539765684103344e-01
9374:-2.1318256140970443e-01
9375:-2.0449294207256172e-01
9376:-1.4598272988166172e-01
9377:-1.4007034883554928e-01
9378:-1.3285983883869634e-01
9379:-1.2766478696611100e-01
9380:-1.6154692067781898e-01
9381:-1.5506253508417128e-01
9382:-1.4716529552106172e-01
9383:-1.4148130415379556e-01
9384:-1.8292031166105099e-01
9385:-1.7565507210663017e-01
9386:-1.6680964011782493e-01
9387:-1.6045048477863560e-01
9388:-2.0008400931377454e-01
9389:-1.9219554559881585e-01
9390:-1.8258539678178101e-01
9391:-1.7568172327920573e-01
9392:-1.2499913909356868e-01
9393:-1.2018605666848529e-01
9394:-1.1425389892075619e-01
9395:-1.0995172415615985e-01
9396:-1.3856627112992595e-01
9397:-1.3330737160155604e-01
9398:-1.2683217098159938e-01
9399:-1.2213862076382180e-01
9400:-1.5719332913316850e-01
9401:-1.5132493265353866e-01
9402:-1.4410879311083924e-01
9403:-1.3888063824187860e-01
9404:-1.7215033030857443e-01
9405:-1.6579513511901403e-01
9406:-1.5798872461778116e-01
9407:-1.5233452699370575e-01
9408:-3.6487772181644074e+00
9409:-3.4378058741275010e+00
9410:-3.0921813172150237e+00
9411:-2.7553843670095590e+00
9412:-3.3820290282282319e+00
9413:-3.3574306749692631e+00
9414:-3.1429925576413469e+00
9415:-2.8458947882772758e+00
9416:-3.0309780097626335e+00
9417:-3.2440446477444498e+00
9418:-3.1991085536532196e+00
9419:-2.9556586627040313e+00
9420:-2.7610491855812733e+00
9421:-3.1512116671224524e+00
9422:-3.2342854116754629e+00
9423:-3.0331476026719848e+00
9424:-2.5520378197008831e+00
9425:-2.2282399110094846e+00
9426:-1.9046708838880924e+00
9427:-1.7044125640233645e+00
9428:-2.6488827012918996e+00
9429:-2.3306214516403703e+00
9430:-2.0076064442844697e+00
9431:-1.8043080427305598e+00
9432:-2.7686009314987117e+00
9433:-2.4601217815212637e+00
9434:-2.1399235844443996e+00
9435:-1.9335428814160884e+00
9436:-2.8549602284494231e+00
9437:-2.5558783927303255e+00
9438:-2.2394269417707866e+00
9439:-2.0313926736680252e+00
9440:-1.6080168751341710e+00
9441:-1.4457980110965372e+00
9442:-1.2642177025152279e+00
9443:-1.1422215397353792e+00
9444:-1.7055365119346797e+00
9445:-1.5386797614107621e+00
9446:-1.3506866657974843e+00
9447:-1.2233416110364468e+00
9448:-1.8319530816714680e+00
9449:-1.6594737072058832e+00
9450:-1.4636075390514460e+00
9451:-1.3296796596223690e+00
9452:-1.9278876723599165e+00
9453:-1.7514682582093635e+00
9454:-1.5499712812212303e+00
9455:-1.4113031286926534e+00
9456:-1.0821193609340181e+00
9457:-9.8235408834678617e-01
9458:-8.7415520215984854e-01
9459:-8.0432798654375770e-01
9460:-1.1602222485940152e+00
9461:-1.0549151212471386e+00
9462:-9.3997571051606721e-01
9463:-8.6549307582695045e-01
9464:-1.2628536681282629e+00
9465:-1.1507070308756524e+00
9466:-1.0273443763507892e+00
9467:-9.4693157599016753e-01
9468:-1.3418090139406895e+00
9469:-1.2247216858002774e+00
9470:-1.0952064732861719e+00
9471:-1.0103839461448434e+00
9472:-7.7075300174789640e-01
9473:-7.1299987087690397e-01
9474:-6.4634755024787005e-01
9475:-6.0075285598396555e-01
9476:-8.2965638968518629e-01
9477:-7.6809122173998290e-01
9478:-6.9711850050802859e-01
9479:-6.4855300188306619e-01
9480:-9.0816363815540158e-01
9481:-8.4159273804435597e-01
9482:-7.6487734313246714e-01
9483:-7.1235783597229418e-01
9484:-9.6940054703671807e-01
9485:-8.9899389971988186e-01
9486:-8.1781966761300484e-01
9487:-7.6222216693033551e-01
9488:-5.7811945085292571e-01
9489:-5.3896724152267672e-01
9490:-4.9380968393091335e-01
9491:-4.6317120947346518e-01
9492:-6.2441503882085370e-01
9493:-5.8255860722498332e-01
9494:-5.3411975985785876e-01
9495:-5.0116763324263158e-01
9496:-6.8623080075055032e-01
9497:-6.4083846991530891e-01
9498:-5.8815433633788883e-01
9499:-5.5221607101883297e-01
9500:-7.3455554492652420e-01
9501:-6.8645463059481482e-01
9502:-6.3055029165683485e-01
9503:-5.9235011589828968e-01
9504:-4.4809507282424421e-01
9505:-4.2187930958433778e-01
9506:-3.9118616065064366e-01
9507:-3.6990383095540624e-01
9508:-4.8493315621949701e-01
9509:-4.5668152923938599e-01
9510:-4.2358559386116063e-01
9511:-4.0064255652480374e-01
9512:-5.3448065506386278e-01
9513:-5.0356422078296581e-01
9514:-4.6727865437021632e-01
9515:-4.4210521140711329e-01
9516:-5.7347248564418263e-01
9517:-5.4051012369571960e-01
9518:-5.0174774952016266e-01
9519:-4.7482768363011413e-01
9520:-3.5923619441644189e-01
9521:-3.4038881735623860e-01
9522:-3.1794570406051204e-01
9523:-3.0226331398400524e-01
9524:-3.8915075429493279e-01
9525:-3.6886572500906495e-01
9526:-3.4472307944617664e-01
9527:-3.2784149316942257e-01
9528:-4.2950021118172588e-01
9529:-4.0727431471090825e-01
9530:-3.8084676064520218e-01
9531:-3.6236520590917243e-01
9532:-4.6134774344561674e-01
9533:-4.3759490901871073e-01
9534:-4.0937139729916094e-01
9535:-3.8963714457595394e-01
9536:-2.9440912408086911e-01
9537:-2.8054627195524351e-01
9538:-2.6398741524897967e-01
9539:-2.5231019876160843e-01
9540:-3.1937563225362620e-01
9541:-3.0440232630402791e-01
9542:-2.8648205738066151e-01
9543:-2.7384226051628391e-01
9544:-3.5308888855690729e-01
9545:-3.3665070808163233e-01
9546:-3.1693573003553233e-01
9547:-3.0301862108734534e-01
9548:-3.7972919310773090e-01
9549:-3.6215548506893996e-01
9550:-3.4105321631770830e-01
9551:-3.2614457543884340e-01
9552:-2.4640378788796233e-01
9553:-2.3587547732008055e-01
9554:-2.2314657232321813e-01
9555:-2.1409305045632260e-01
9556:-2.6745553126968008e-01
9557:-2.5608797537809852e-01
9558:-2.4236429648600716e-01
9559:-2.3260661782047298e-01
9560:-2.9598869454685262e-01
9561:-2.8348607476965987e-01
9562:-2.6840527942584402e-01
9563:-2.5768735362023232e-01
9564:-3.1861163744030713e-01
9565:-3.0521280417282642e-01
9566:-2.8905131903806336e-01
9567:-2.7756872513762992e-01
9568:-2.0949743891262676e-01
9569:-2.0126865199789165e-01
9570:-1.9123865990477867e-01
9571:-1.8403606810594594e-01
9572:-2.2765108959811328e-01
9573:-2.1876982699839373e-01
9574:-2.0793883022750412e-01
9575:-2.0016603903461794e-01
9576:-2.5224412119934231e-01
9577:-2.4248690812962145e-01
9578:-2.3058880973303611e-01
9579:-2.2205576706168742e-01
9580:-2.7173930513305261e-01
9581:-2.6129409841320894e-01
9582:-2.4856307313558812e-01
9583:-2.3943533290900393e-01
9584:-1.8035461821568577e-01
9585:-1.7373350016466063e-01
9586:-1.6560505009748935e-01
9587:-1.5971845031760812e-01
9588:-1.9619745624524976e-01
9589:-1.8906455471987269e-01
9590:-1.8031333611002523e-01
9591:-1.7397775531733320e-01
9592:-2.1770200140435472e-01
9593:-2.0987695320201660e-01
9594:-2.0027901279628760e-01
9595:-1.9333553745848447e-01
9596:-2.3477825803951444e-01
9597:-2.2640483752129401e-01
9598:-2.1613470285397496e-01
9599:-2.0871208725036927e-01
9600:-2.6173415447831747e+00
9601:-3.0998023253854590e+00
9602:-3.2502086438718001e+00
9603:-3.0719674521673590e+00
9604:-2.3486031022780822e+00
9605:-2.9995352223579479e+00
9606:-3.2740408765179110e+00
9607:-3.1392240856543054e+00
9608:-2.0014876089616824e+00
9609:-2.8619559036592079e+00
9610:-3.2932205596123088e+00
9611:-3.2156760575854593e+00
9612:-1.7396806934651161e+00
9613:-2.7520596981606857e+00
9614:-3.2989111919665577e+00
9615:-3.2654896350389992e+00
9616:-2.8989284984059980e+00
9617:-2.6055088738649177e+00
9618:-2.2916153951140772e+00
9619:-2.0829652787849553e+00
9620:-2.9765969000763031e+00
9621:-2.6950215166295277e+00
9622:-2.3870570504665416e+00
9623:-2.1778469419338657e+00
9624:-3.0680216298550067e+00
9625:-2.8041897086896213e+00
9626:-2.5061302305180515e+00
9627:-2.2973779697477044e+00
9628:-3.1302954750999277e+00
9629:-2.8817134263402711e+00
9630:-2.5928436276692932e+00
9631:-2.3853519135908385e+00
9632:-1.9785379459862145e+00
9633:-1.8001669001288980e+00
9634:-1.5958248166649043e+00
9635:-1.4547419086178162e+00
9636:-2.0719317967452482e+00
9637:-1.8902753070333056e+00
9638:-1.6809867439209720e+00
9639:-1.5356333379045097e+00
9640:-2.1900235011451543e+00
9641:-2.0048624492735607e+00
9642:-1.7899325980416900e+00
9643:-1.6395430118342789e+00
9644:-2.2772919119859538e+00
9645:-2.0900661365891464e+00
9646:-1.8714564652311199e+00
9647:-1.7176299677335474e+00
9648:-1.3838871502197618e+00
9649:-1.2642754741833495e+00
9650:-1.1315960365137518e+00
9651:-1.0444806197859182e+00
9652:-1.4623583968290239e+00
9653:-1.3382382845070853e+00
9654:-1.1998675209134240e+00
9655:-1.1085929169123439e+00
9656:-1.5633815587170568e+00
9657:-1.4338448585237495e+00
9658:-1.2885551143022533e+00
9659:-1.1921561630563107e+00
9660:-1.6394698755173249e+00
9661:-1.5061502385447769e+00
9662:-1.3559623071079603e+00
9663:-1.2558809235768753e+00
9664:-1.0023336761609820e+00
9665:-9.2989376615675068e-01
9666:-8.4633406405658385e-01
9667:-7.8908538340907131e-01
9668:-1.0643214649746837e+00
9669:-9.8814604698960018e-01
9670:-9.0016885434876970e-01
9671:-8.3984362789778133e-01
9672:-1.1452411423663176e+00
9673:-1.0643752645641873e+00
9674:-9.7078577235551078e-01
9675:-9.0651483917419096e-01
9676:-1.2070454975330447e+00
9677:-1.1227395718030173e+00
9678:-1.0249846199642405e+00
9679:-9.5775841976174714e-01
9680:-7.6059512017885911e-01
9681:-7.1105380807854135e-01
9682:-6.5344651390515007e-01
9683:-6.1405059538859752e-01
9684:-8.0981466064762908e-01
9685:-7.5758265240544453e-01
9686:-6.9679601654169110e-01
9687:-6.5516927991776630e-01
9688:-8.7450355261566948e-01
9689:-8.1880107823070758e-01
9690:-7.5391113106714980e-01
9691:-7.0940632520085711e-01
9692:-9.2425622475971780e-01
9693:-8.6593928631254402e-01
9694:-7.9795325281650620e-01
9695:-7.5127545031881404e-01
9696:-5.9456725405533495e-01
9697:-5.6051491031687573e-01
9698:-5.2042565090488535e-01
9699:-4.9256634926290993e-01
9700:-6.3455655299940339e-01
9701:-5.9847296800969052e-01
9702:-5.5591012349942326e-01
9703:-5.2629657570689448e-01
9704:-6.8733796795381286e-01
9705:-6.4864066646229035e-01
9706:-6.0289595665437112e-01
9707:-5.7101998006334498e-01
9708:-7.2810846204264468e-01
9709:-6.8744181696858309e-01
9710:-6.3930074463435027e-01
9711:-6.0571643915782403e-01
9712:-4.7861520149892262e-01
9713:-4.5403863823495466e-01
9714:-4.2484482825301395e-01
9715:-4.0443392390363231e-01
9716:-5.1146320699218384e-01
9717:-4.8533785164444831e-01
9718:-4.5430942109856620e-01
9719:-4.3261397818882041e-01
9720:-5.5504449699807412e-01
9721:-5.2690129112442796e-01
9722:-4.9346304883704573e-01
9723:-4.7007086603770848e-01
9724:-5.8887528534402100e-01
9725:-5.5919356577181223e-01
9726:-5.2390471781594117e-01
9727:-4.9920374534558776e-01
9728:-3.9418531725940975e-01
9729:-3.7600159892065210e-01
9730:-3.5415636031918446e-01
9731:-3.3871608463598563e-01
9732:-4.2171790004704257e-01
9733:-4.0237753564113654e-01
9734:-3.7912849252682557e-01
9735:-3.6268644847977699e-01
9736:-4.5831816652366325e-01
9737:-4.3745154380141088e-01
9738:-4.1235746497370074e-01
9739:-3.9460306285718583e-01
9740:-4.8678966987982086e-01
9741:-4.6474677383010549e-01
9742:-4.3823416343096777e-01
9743:-4.1947234641501308e-01
9744:-3.3091247152965336e-01
9745:-3.1702858544845991e-01
9746:-3.0027905946280536e-01
9747:-2.8838015906804193e-01
9748:-3.5437335555969141e-01
9749:-3.3957532359265108e-01
9750:-3.2171448725393820e-01
9751:-3.0902604449336951e-01
9752:-3.8562353847983916e-01
9753:-3.6962883775475663e-01
9754:-3.5030908409048162e-01
9755:-3.3657919190837593e-01
9756:-4.0998148960019865e-01
9757:-3.9306840568955720e-01
9758:-3.7262703921084189e-01
9759:-3.5809362564654929e-01
9760:-2.8234108173639066e-01
9761:-2.7152393348657416e-01
9762:-2.5834391663944295e-01
9763:-2.4889498657143869e-01
9764:-3.0258823169020016e-01
9765:-2.9106223417521737e-01
9766:-2.7702513366617626e-01
9767:-2.6696326945074078e-01
9768:-3.2961313044801493e-01
9769:-3.1714438256436006e-01
9770:-3.0196402258290039e-01
9771:-2.9108531724580461e-01
9772:-3.5071855535643620e-01
9773:-3.3751716702724738e-01
9774:-3.2144588519568312e-01
9775:-3.0993127255962433e-01
9776:-2.4407342677887420e-01
9777:-2.3540190823402127e-01
9778:-2.2476657755123922e-01
9779:-2.1708513214618511e-01
9780:-2.6182833244167197e-01
9781:-2.5259086900843791e-01
9782:-2.4126408401372901e-01
9783:-2.3309207193359988e-01
9784:-2.8553410456590611e-01
9785:-2.7554860054293884e-01
9786:-2.6331006789695061e-01
9787:-2.5448812532367832e-01
9788:-3.0405700374288691e-01
9789:-2.9349305753668647e-01
9790:-2.8054953072786171e-01
9791:-2.7122140700566755e-01
9792:-1.6021366892317725e+00
9793:-2.6921282785752676e+00
9794:-3.2987576035812087e+00
9795:-3.2888438551006649e+00
9796:-1.3484751663123389e+00
9797:-2.5771565017761322e+00
9798:-3.2919161511615127e+00
9799:-3.3257964871187329e+00
9800:-1.0278444188975526e+00
9801:-2.4230337522089798e+00
9802:-3.2702968344578669e+00
9803:-3.3603808223659830e+00
9804:-7.9144555264567573e-01
9805:-2.3025441376629798e+00
9806:-3.2442957811079012e+00
9807:-3.3764957295310976e+00
9808:-3.1606096337911622e+00
9809:-2.9207025728919147e+00
9810:-2.6372765920184369e+00
9811:-2.4307812447088057e+00
9812:-3.2111167678925709e+00
9813:-2.9884094777553600e+00
9814:-2.7162123727429024e+00
9815:-2.5122490671354369e+00
9816:-3.2642306840480586e+00
9817:-3.0656049907952201e+00
9818:-2.8099391185729736e+00
9819:-2.6105616171708657e+00
9820:-3.2950899806183593e+00
9821:-3.1160313949713507e+00
9822:-2.8743691997035419e+00
9823:-2.6794594311120838e+00
9824:-2.3224920015190404e+00
9825:-2.1343965620692864e+00
9826:-1.9140653444425531e+00
9827:-1.7585642091957616e+00
9828:-2.4038460828454191e+00
9829:-2.2146311074019369e+00
9830:-1.9916161162272648e+00
9831:-1.8333301233816475e+00
9832:-2.5026390559047154e+00
9833:-2.3129880580482025e+00
9834:-2.0875719340696399e+00
9835:-1.9263764707692108e+00
9836:-2.5723858889418842e+00
9837:-2.3831879031129204e+00
9838:-2.1567814694549492e+00
9839:-1.9939196211790813e+00
9840:-1.6794179693855635e+00
9841:-1.5442186362899659e+00
9842:-1.3915710954839777e+00
9843:-1.2896199531955752e+00
9844:-1.7525094413882025e+00
9845:-1.6140813875294884e+00
9846:-1.4571483082759600e+00
9847:-1.3518996744827596e+00
9848:-1.8437284442146000e+00
9849:-1.7016937808078147e+00
9850:-1.5398408089979563e+00
9851:-1.4307227574309638e+00
9852:-1.9101507285073107e+00
9853:-1.7658271384448916e+00
9854:-1.6007319912919091e+00
9855:-1.4889906759261822e+00
9856:-1.2398018735886840e+00
9857:-1.1537242080274626e+00
9858:-1.0538068358015404e+00
9859:-9.8503738093517124e-01
9860:-1.3003363710738352e+00
9861:-1.2110958164574406e+00
9862:-1.1072914843426738e+00
9863:-1.0357306972760287e+00
9864:-1.3770866011995526e+00
9865:-1.2840579212611807e+00
9866:-1.1755466236520387e+00
9867:-1.1005717791664296e+00
9868:-1.4339279986794498e+00
9869:-1.3382667326140534e+00
9870:-1.2264431359030068e+00
9871:-1.1490394535795807e+00
9872:-9.5075453191984971e-01
9873:-8.9106651358026601e-01
9874:-8.2145385764067957e-01
9875:-7.7363300811162128e-01
9876:-1.0000305244232184e+00
9877:-9.3784531518720160e-01
9878:-8.6525755010082561e-01
9879:-8.1533887077531753e-01
9880:-1.0631275110159901e+00
9881:-9.9785257810320471e-01
9882:-9.2155708532823155e-01
9883:-8.6900862108768240e-01
9884:-1.1103462907250936e+00
9885:-1.0428452458482622e+00
9886:-9.6385666414563131e-01
9887:-9.0938568958427268e-01
9888:-7.4988797335609569e-01
9889:-7.0818627510507992e-01
9890:-6.5878614466048480e-01
9891:-6.2430282998326203e-01
9892:-7.9053130415452566e-01
9893:-7.4692764618340513e-01
9894:-6.9521454841676555e-01
9895:-6.5907908609346855e-01
9896:-8.4286550622988032e-01
9897:-7.9687168305905753e-01
9898:-7.4225221610107839e-01
9899:-7.0403929461636627e-01
9900:-8.8226333444322624e-01
9901:-8.3451699543368829e-01
9902:-7.7776589201517887e-01
9903:-7.3802747840633487e-01
9904:-6.0700503728208233e-01
9905:-5.7650890739120852e-01
9906:-5.4023641373136566e-01
9907:-5.1483814394451033e-01
9908:-6.4094151047626413e-01
9909:-6.0894516128504950e-01
9910:-5.7085596030254326e-01
9911:-5.4416645978624789e-01
9912:-6.8484464870425776e-01
9913:-6.5095567847524105e-01
9914:-6.1056604804370707e-01
9915:-5.8223497533372126e-01
9916:-7.1805553904952102e-01
9917:-6.8277165304112353e-01
9918:-6.4068016490786628e-01
9919:-6.1112980888600743e-01
9920:-5.0207156166053835e-01
9921:-4.7940206256032103e-01
9922:-4.5213417081713803e-01
9923:-4.3283593697443112e-01
9924:-5.3074598869815615e-01
9925:-5.0691241581729984e-01
9926:-4.7823860500404541e-01
9927:-4.5794020864765872e-01
9928:-5.6798088036873962e-01
9929:-5.4265957444143009e-01
9930:-5.1218323037216029e-01
9931:-4.9059936062066051e-01
9932:-5.9625482726525003e-01
9933:-5.6982277120402447e-01
9934:-5.3799660119459092e-01
9935:-5.1544797612936355e-01
9936:-4.2307273028793413e-01
9937:-4.0567056974504800e-01
9938:-3.8463162835035847e-01
9939:-3.6966946021820729e-01
9940:-4.4766881846343820e-01
9941:-4.2935449002996862e-01
9942:-4.0720176880630815e-01
9943:-3.9144081493584482e-01
9944:-4.7967414497524935e-01
9945:-4.6018674062414994e-01
9946:-4.3660259972566173e-01
9947:-4.1981544066675341e-01
9948:-5.0403163036658738e-01
9949:-4.8366313539497052e-01
9950:-4.5900387587224634e-01
9951:-4.4144570096617458e-01
9952:-3.6207576533925556e-01
9953:-3.4848189630839937e-01
9954:-3.3193250654541490e-01
9955:-3.2007679600904043e-01
9956:-3.8343983912265162e-01
9957:-3.6911424046159996e-01
9958:-3.5167204885923414e-01
9959:-3.3917808103785629e-01
9960:-4.1129123867069828e-01
9961:-3.9602482515388826e-01
9962:-3.7743226485360626e-01
9963:-3.6411326911463043e-01
9964:-4.3252822136828828e-01
9965:-4.1655417385015264e-01
9966:-3.9709477840878615e-01
9967:-3.8315230118095567e-01
9968:-3.1402953308792314e-01
9969:-3.0315624730070440e-01
9970:-2.8983522462515432e-01
9971:-2.8023455908754469e-01
9972:-3.3280657318831791e-01
9973:-3.2135244121447670e-01
9974:-3.0732153111536697e-01
9975:-2.9720843979452027e-01
9976:-3.5732144983253844e-01
9977:-3.4511233709107603e-01
9978:-3.3015741757041100e-01
9979:-3.1937876848494939e-01
9980:-3.7604202965461303e-01
9981:-3.6325966299514800e-01
9982:-3.4760286035319443e-01
9983:-3.3632031894559566e-01
9984:-6.6921033851096645e-01
9985:-2.2377321198804312e+00
9986:-3.2271669077380105e+00
9987:-3.3813809159901913e+00
9988:-4.4755634338862893e-01
9989:-2.1152427634829825e+00
9990:-3.1885586554527983e+00
9991:-3.3828889797031363e+00
9992:-1.7485111544850809e-01
9993:-1.9545602910574360e+00
9994:-3.1258703144450615e+00
9995:-3.3699004171494620e+00
9996:2.0383823067297163e-02
9997:-1.8315046050147046e+00
9998:-3.0688309040979194e+00
9999:-3.3487160480478471e+00
10000:-3.3079855807802909e+00
10001:-3.1396939101437513e+00
10002:-2.9059293632214165e+00
10003:-2.7137288938097810e+00
10004:-3.3246486714289403e+00
10005:-3.1769936229727920e+00
10006:-2.9587511262432695e+00
10007:-2.7722422802003126e+00
10008:-3.3315253589285656e+00
10009:-3.2114319817416814e+00
10010:-3.0146601453914830e+00
10011:-2.8367150656878053e+00
10012:-3.3255205941463530e+00
10013:-3.2268689600159512e+00
10014:-3.0473508113187950e+00
10015:-2.8767876248471511e+00
10016:-2.6072784092765104e+00
10017:-2.4186032792198104e+00
10018:-2.1919757315471733e+00
10019:-2.0284309482328688e+00
10020:-2.6672947738686754e+00
10021:-2.4801696268946709e+00
10022:-2.2537709462431486e+00
10023:-2.0893845216291260e+00
10024:-2.7343720566489664e+00
10025:-2.5503750706210213e+00
10026:-2.3255395727741077e+00
10027:-2.1609277712089168e+00
10028:-2.7769190300963178e+00
10029:-2.5961472783137283e+00
10030:-2.3734650921617293e+00
10031:-2.2093469040960181e+00
10032:-1.9441669983983185e+00
10033:-1.7987977027173199e+00
10034:-1.6321690660213155e+00
10035:-1.5191563775429917e+00
10036:-2.0044113720646823e+00
10037:-1.8574540164802082e+00
10038:-1.6883687201489903e+00
10039:-1.5732497345581284e+00
10040:-2.0754677924895546e+00
10041:-1.9271868230513258e+00
10042:-1.7557418138899352e+00
10043:-1.6384395440026700e+00
10044:-2.1238509769726419e+00
10045:-1.9751327644728782e+00
10046:-1.8025344791169948e+00
10047:-1.6839991716765224e+00
10048:-1.4633937966063681e+00
10049:-1.3664310877028019e+00
10050:-1.2529546009170598e+00
10051:-1.1743292125266809e+00
10052:-1.5163095881389164e+00
10053:-1.4171384651126231e+00
10054:-1.3008278284252042e+00
10055:-1.2200890493662908e+00
10056:-1.5802389225853846e+00
10057:-1.4786630987030662e+00
10058:-1.3592032554762559e+00
10059:-1.2760767290246957e+00
10060:-1.6250484693763689e+00
10061:-1.5220035809306252e+00
10062:-1.4005620165611035e+00
10063:-1.3158977475652540e+00
10064:-1.1350049208076416e+00
10065:-1.0663737302184801e+00
10066:-9.8600963932339714e-01
10067:-9.3055198330431732e-01
10068:-1.1796673068880799e+00
10069:-1.1090608124989494e+00
10070:-1.0262752532898451e+00
10071:-9.6906951081209236e-01
10072:-1.2344031639247526e+00
10073:-1.1615225986835080e+00
10074:-1.0759137449254328e+00
10075:-1.0166471014727205e+00
10076:-1.2734076091992148e+00
10077:-1.1990257942184621e+00
10078:-1.1115232432986122e+00
10079:-1.0508556183098554e+00
10080:-9.0292592376444258e-01
10081:-8.5427788530207827e-01
10082:-7.9642938787328399e-01
10083:-7.5590471823841454e-01
10084:-9.4054787864389600e-01
10085:-8.9029427126369531e-01
10086:-8.3048799603625045e-01
10087:-7.8855796709297266e-01
10088:-9.8706314127147365e-01
10089:-9.3489942834928319e-01
10090:-8.7275509549056363e-01
10091:-8.2914059337555368e-01
10092:-1.0205442560597549e+00
10093:-9.6706764886067831e-01
10094:-9.0330807200856711e-01
10095:-8.5852422659350125e-01
10096:-7.3553169372983207e-01
10097:-6.9952690378394333e-01
10098:-6.5655369092347837e-01
10099:-6.2636997262305361e-01
10100:-7.6746715143667144e-01
10101:-7.3017049293954328e-01
10102:-6.8561387504281746e-01
10103:-6.5429021799369569e-01
10104:-8.0718745715248741e-01
10105:-7.6833538239959309e-01
10106:-7.2186576798192459e-01
10107:-6.8915991139078503e-01
10108:-8.3597068400072461e-01
10109:-7.9603278884522444e-01
10110:-7.4822238338584202e-01
10111:-7.1454373937993154e-01
10112:-6.1117188783838028e-01
10113:-5.8416091083880317e-01
10114:-5.5162987325012336e-01
10115:-5.2857676766419648e-01
10116:-6.3850971336987039e-01
10117:-6.1045377812869639e-01
10118:-5.7664799389221022e-01
10119:-5.5268086409529438e-01
10120:-6.7267146889381246e-01
10121:-6.4334257015005158e-01
10122:-6.0797891370628176e-01
10123:-5.8289127685239939e-01
10124:-6.9755565082413129e-01
10125:-6.6732602052600887e-01
10126:-6.3085595278153050e-01
10127:-6.0496969664505373e-01
10128:-5.1690346234020701e-01
10129:-4.9607387987314377e-01
10130:-4.7085173186308654e-01
10131:-4.5288960223104602e-01
10132:-5.4054146342735954e-01
10133:-5.1887468489970445e-01
10134:-4.9262899295540025e-01
10135:-4.7393124942702175e-01
10136:-5.7017936146080139e-01
10137:-5.4748250888900862e-01
10138:-5.1997441604541894e-01
10139:-5.0036728653142293e-01
10140:-5.9184882591322907e-01
10141:-5.6841484931139152e-01
10142:-5.4000107315261547e-01
10143:-5.1973995119492677e-01
10144:-4.4376595814310904e-01
10145:-4.2742081723097786e-01
10146:-4.0750639139258149e-01
10147:-3.9323609484831462e-01
10148:-4.6443183628392898e-01
10149:-4.4741007068914962e-01
10150:-4.2666561202155889e-01
10151:-4.1179709010828552e-01
10152:-4.9040268386155944e-01
10153:-4.7254268940120253e-01
10154:-4.5076909731086218e-01
10155:-4.3515835742182513e-01
10156:-5.0944031556094771e-01
10157:-4.9097605541828165e-01
10158:-4.6845968233706797e-01
10159:-4.5231269199565011e-01
10160:-3.8595814077096319e-01
10161:-3.7287360819769882e-01
10162:-3.5684691062156770e-01
10163:-3.4529947550966988e-01
10164:-4.0421306727101147e-01
10165:-3.9057687925178974e-01
10166:-3.7387435958287829e-01
10167:-3.6184227800646446e-01
10168:-4.2719447292508789e-01
10169:-4.1287336116737355e-01
10170:-3.9533031911608091e-01
10171:-3.8269353341187845e-01
10172:-4.4407420615070714e-01
10173:-4.2925763836736963e-01
10174:-4.1110520396136635e-01
10175:-3.9802825736632474e-01
10176:1.1921004395930157e-01
10177:-1.7661953905748273e+00
10178:-3.0353751791682702e+00
10179:-3.3334945365003494e+00
10180:2.9430143804583303e-01
10181:-1.6445875956468778e+00
10182:-2.9668484814495089e+00
10183:-3.2971416927712975e+00
10184:5.0152087003351065e-01
10185:-1.4885369438869365e+00
10186:-2.8666912790646575e+00
10187:-3.2347108341312074e+00
10188:6.4337251633889192e-01
10189:-1.3715674485325358e+00
10190:-2.7822153820292721e+00
10191:-3.1757421046618308e+00
10192:-3.3183281610334094e+00
10193:-3.2311516117501160e+00
10194:-3.0610600309769724e+00
10195:-2.8947006043544774e+00
10196:-3.2967316841396199e+00
10197:-3.2309024748187709e+00
10198:-3.0787216738176948e+00
10199:-2.9206757613655068e+00
10200:-3.2527954027254569e+00
10201:-3.2142324225654644e+00
10202:-3.0856701619899045e+00
10203:-2.9392207617809776e+00
10204:-3.2073131986502856e+00
10205:-3.1890363163382753e+00
10206:-3.0786276570425732e+00
10207:-2.9415727499916411e+00
10208:-2.7963144206218700e+00
10209:-2.6175479075102261e+00
10210:-2.3963483042518376e+00
10211:-2.2327299302946870e+00
10212:-2.8253568925428416e+00
10213:-2.6508761012512143e+00
10214:-2.4331032731300084e+00
10215:-2.2708952381623417e+00
10216:-2.8484341197179179e+00
10217:-2.6805302320852746e+00
10218:-2.4684636217935401e+00
10219:-2.3090134783963214e+00
10220:-2.8546400152382487e+00
10221:-2.6924933126840358e+00
10222:-2.4857126392219100e+00
10223:-2.3290638000617880e+00
10224:-2.1473355354127173e+00
10225:-1.9985916912804873e+00
10226:-1.8256155925835946e+00
10227:-1.7065833280793035e+00
10228:-2.1859356647478094e+00
10229:-2.0375681013474676e+00
10230:-1.8643757303629862e+00
10231:-1.7447497567911114e+00
10232:-2.2250992911258756e+00
10233:-2.0780565331770506e+00
10234:-1.9055561250332269e+00
10235:-1.7858300045887257e+00
10236:-2.2463118276462355e+00
10237:-2.1009166763009968e+00
10238:-1.9296897575620293e+00
10239:-1.8104049446181554e+00
10240:-1.6473118133003890e+00
10241:-1.5436210712212550e+00
10242:-1.4212824223012532e+00
10243:-1.3359068695622325e+00
10244:-1.6850449899660913e+00
10245:-1.5804380137977814e+00
10246:-1.4567644430947675e+00
10247:-1.3702956530459502e+00
10248:-1.7258973870034497e+00
10249:-1.6206874324599694e+00
10250:-1.4959723295759737e+00
10251:-1.4085640314003616e+00
10252:-1.7505580357522603e+00
10253:-1.6453437360020873e+00
10254:-1.5203724701733576e+00
10255:-1.4326218979729062e+00
10256:-1.2930346832481003e+00
10257:-1.2179432055659736e+00
10258:-1.1295334707051397e+00
10259:-1.0681873319033972e+00
10260:-1.3268267941122269e+00
10261:-1.2506117702411332e+00
10262:-1.1607401443587950e+00
10263:-1.0982842536748572e+00
10264:-1.3645597186433880e+00
10265:-1.2873008679022528e+00
10266:-1.1960120054928451e+00
10267:-1.1324431957548571e+00
10268:-1.3883961073849340e+00
10269:-1.3106660971211250e+00
10270:-1.2186744734780453e+00
10271:-1.1545160297820996e+00
10272:-1.0375216293610896e+00
10273:-9.8340334291344944e-01
10274:-9.1885077709974039e-01
10275:-8.7349044173929846e-01
10276:-1.0670342182566974e+00
10277:-1.0118523946785523e+00
10278:-9.4597667759983650e-01
10279:-8.9964857042539415e-01
10280:-1.1005964469337790e+00
10281:-1.0443164228014754e+00
10282:-9.7705456754263598e-01
10283:-9.2969959197728402e-01
10284:-1.1223426147112678e+00
10285:-1.0654495159529649e+00
10286:-9.9739461347094627e-01
10287:-9.4943975495805566e-01
10288:-8.5064013693219387e-01
10289:-8.1016443520143189e-01
10290:-7.6168786079291773e-01
10291:-7.2752434666653132e-01
10292:-8.7629828282988409e-01
10293:-8.3491389266905680e-01
10294:-7.8530710934989811e-01
10295:-7.5031768826460343e-01
10296:-9.0581482925550705e-01
10297:-8.6345318692061956e-01
10298:-8.1262044804599520e-01
10299:-7.7672780414289244e-01
10300:-9.2523904571977567e-01
10301:-8.8229407321660758e-01
10302:-8.3071952951362515e-01
10303:-7.9427339716854328e-01
10304:-7.1028668537160911e-01
10305:-6.7960625771729621e-01
10306:-6.4258089190206635e-01
10307:-6.1629273847585075e-01
10308:-7.3265383488560953e-01
10309:-7.0120189950565581e-01
10310:-6.6322317602297720e-01
10311:-6.3624292631350754e-01
10312:-7.5859547463650223e-01
10313:-7.2629192324535941e-01
10314:-6.8725456378000793e-01
10315:-6.5950141674240381e-01
10316:-7.7585175508842374e-01
10317:-7.4301908198030875e-01
10318:-7.0331840946295143e-01
10319:-6.7507715863021522e-01
10320:-6.0296572202371090e-01
10321:-5.7915969385104571e-01
10322:-5.5028795828200472e-01
10323:-5.2969558287044871e-01
10324:-6.2256023284155604e-01
10325:-5.9811130521860856e-01
10326:-5.6844650093414995e-01
10327:-5.4727927017251787e-01
10328:-6.4542011232545093e-01
10329:-6.2024856296647035e-01
10330:-5.8968857775404226e-01
10331:-5.6786982964805188e-01
10332:-6.6074289671952735e-01
10333:-6.3511084709184917e-01
10334:-6.0397696055336370e-01
10335:-5.8173812582710605e-01
10336:-5.1922607437306545e-01
10337:-5.0045518301371572e-01
10338:-4.7756147407531185e-01
10339:-4.6114179729250687e-01
10340:-5.3651457116452406e-01
10341:-5.1721021974232761e-01
10342:-4.9365891003286905e-01
10343:-4.7676319592090660e-01
10344:-5.5676971444929690e-01
10345:-5.3685790657617249e-01
10346:-5.1255542504995610e-01
10347:-4.9511424641615132e-01
10348:-5.7042096869003200e-01
10349:-5.5011497641034002e-01
10350:-5.2532307074769657e-01
10351:-5.0752508760954174e-01
10352:-4.5276359535571614e-01
10353:-4.3769478050167387e-01
10354:-4.1923153207581260e-01
10355:-4.0592943281335581e-01
10356:-4.6814081625911663e-01
10357:-4.5263075168528821e-01
10358:-4.3362316246013505e-01
10359:-4.1992637183125758e-01
10360:-4.8621151368173138e-01
10361:-4.7019399296085024e-01
10362:-4.5055920479779110e-01
10363:-4.3640710753561851e-01
10364:-4.9843850192405942e-01
10365:-4.8208749732524919e-01
10366:-4.6203956070861740e-01
10367:-4.4758712638773362e-01
10368:7.1276064858832522e-01
10369:-1.3103646826030311e+00
10370:-2.7346306118020220e+00
10371:-3.1404844808076855e+00
10372:8.3095893501272711e-01
10373:-1.1981889030246788e+00
10374:-2.6408338061671746e+00
10375:-3.0671000279485496e+00
10376:9.6126183820611832e-01
10377:-1.0576320523538920e+00
10378:-2.5102064564916966e+00
10379:-2.9576254602730718e+00
10380:1.0426324938916645e+00
10381:-9.5474538593345903e-01
10382:-2.4042770964661799e+00
10383:-2.8636498552576417e+00
10384:-3.1789582071117501e+00
10385:-3.1712132057692908e+00
10386:-3.0704422380438143e+00
10387:-2.9385458502666735e+00
10388:-3.1178005040335872e+00
10389:-3.1289983722905301e+00
10390:-3.0459684423834075e+00
10391:-2.9238953328001003e+00
10392:-3.0227340951005921e+00
10393:-3.0568498311073444e+00
10394:-2.9961166776019530e+00
10395:-2.8870439978381293e+00
10396:-2.9385415820947105e+00
10397:-2.9887232363727985e+00
10398:-2.9443124320357525e+00
10399:-2.8452771652067246e+00
10400:-2.8537909637477332e+00
10401:-2.6949508646315552e+00
10402:-2.4912977533015455e+00
10403:-2.3363800093813580e+00
10404:-2.8434048632638329e+00
10405:-2.6911453164062205e+00
10406:-2.4938969376985645e+00
10407:-2.3426635957505186e+00
10408:-2.8124237507776702e+00
10409:-2.6694242009370091e+00
10410:-2.4815273108844877e+00
10411:-2.3359283664284369e+00
10412:-2.7753597696847474e+00
10413:-2.6399255228134559e+00
10414:-2.4599111906424387e+00
10415:-2.3192380246773987e+00
10416:-2.2543736505333025e+00
10417:-2.1100788417043703e+00
10418:-1.9397939289890220e+00
10419:-1.8209293140632230e+00
10420:-2.2622935167911522e+00
10421:-2.1204889963465696e+00
10422:-1.9524883628954985e+00
10423:-1.8347826241183605e+00
10424:-2.2581475265212632e+00
10425:-2.1204122819218840e+00
10426:-1.9563959094571206e+00
10427:-1.8409273884196691e+00
10428:-2.2437784724901193e+00
10429:-2.1097734258038412e+00
10430:-1.9495648845444615e+00
10431:-1.8363599091817118e+00
10432:-1.7612215047655544e+00
10433:-1.6561695203065303e+00
10434:-1.5312572753041171e+00
10435:-1.4434610189516068e+00
10436:-1.7755248420928076e+00
10437:-1.6711132091043417e+00
10438:-1.5467154961935179e+00
10439:-1.4591195683543861e+00
10440:-1.7826284893172890e+00
10441:-1.6797140359185212e+00
10442:-1.5567856175872261e+00
10443:-1.4700180545596717e+00
10444:-1.7790785322529887e+00
10445:-1.6778154622389754e+00
10446:-1.5566221396852766e+00
10447:-1.4709231432390246e+00
10448:-1.3991857289616041e+00
10449:-1.3213243048131547e+00
10450:-1.2290984236558835e+00
10451:-1.1647226022495294e+00
10452:-1.4148961092818162e+00
10453:-1.3370434902337063e+00
10454:-1.2446819378629952e+00
10455:-1.1801110095178562e+00
10456:-1.4261496513416283e+00
10457:-1.3488168955104016e+00
10458:-1.2568852848032745e+00
10459:-1.1924862395492901e+00
10460:-1.4275470558847669e+00
10461:-1.3510028064038069e+00
10462:-1.2598676271158464e+00
10463:-1.1959292955763317e+00
10464:-1.1324233319449293e+00
10465:-1.0752880709714601e+00
10466:-1.0069104379612397e+00
10467:-9.5870550160869517e-01
10468:-1.1476824286034808e+00
10469:-1.0902813650852063e+00
10470:-1.0215229771355323e+00
10471:-9.7300660902656932e-01
10472:-1.1601035509562478e+00
10473:-1.1027350419702548e+00
10474:-1.0339330408646379e+00
10475:-9.8532911797602141e-01
10476:-1.1637476547580272e+00
10477:-1.1066976309609375e+00
10478:-1.0382134404241086e+00
10479:-9.8978995009890702e-01
10480:-9.3437132940492662e-01
10481:-8.9117725663906733e-01
10482:-8.3928120799387873e-01
10483:-8.0259195454511956e-01
10484:-9.4850144885684118e-01
10485:-9.0498090587484981e-01
10486:-8.5265083067536107e-01
10487:-8.1562494530415708e-01
10488:-9.6076154930659174e-01
10489:-9.1710038406899019e-01
10490:-8.6454714586661663e-01
10491:-8.2732483734506290e-01
10492:-9.6529948442231728e-01
10493:-9.2175257392882226e-01
10494:-8.6929563351698702e-01
10495:-8.3211220732169833e-01
10496:-7.8404221169826793e-01
10497:-7.5097384921672738e-01
10498:-7.1097529377441349e-01
10499:-6.8251319952025036e-01
10500:-7.9689524852287896e-01
10501:-7.6349235051348974e-01
10502:-7.2306509630179328e-01
10503:-6.9428119470871674e-01
10504:-8.0848317215094523e-01
10505:-7.7486290971970717e-01
10506:-7.3414150733074379e-01
10507:-7.0512640308183638e-01
10508:-8.1328064262370403e-01
10509:-7.7966495541716996e-01
10510:-7.3892536390792196e-01
10511:-7.0988058670007204e-01
10512:-6.6806396465006690e-01
10513:-6.4222176616909032e-01
10514:-6.1082447520293481e-01
10515:-5.8839178923577107e-01
10516:-6.7966316731659404e-01
10517:-6.5351043524944674e-01
10518:-6.2172034645715757e-01
10519:-5.9899612402793845e-01
10520:-6.9038386970609611e-01
10521:-6.6399700137558226e-01
10522:-6.3190183304441927e-01
10523:-6.0894510801788981e-01
10524:-6.9511750835664132e-01
10525:-6.6868508520915182e-01
10526:-6.3651869816847095e-01
10527:-6.1349987350667090e-01
10528:-5.7697414437528904e-01
10529:-5.5648519041224354e-01
10530:-5.3146530865383168e-01
10531:-5.1350055643156434e-01
10532:-5.8742657568845391e-01
10533:-5.6665998839102938e-01
10534:-5.4129234268066684e-01
10535:-5.2307194800100587e-01
10536:-5.9725251139493829e-01
10537:-5.7625838920344163e-01
10538:-5.5060118606114350e-01
10539:-5.3216485455891971e-01
10540:-6.0177202296358256e-01
10541:-5.8070938614924450e-01
10542:-5.5495931937915188e-01
10543:-5.3644995228290571e-01
10544:-5.0432785272733194e-01
10545:-4.8782035861432615e-01
10546:-4.6757814888974858e-01
10547:-4.5298431002164757e-01
10548:-5.1376683622833386e-01
10549:-4.9701810274137592e-01
10550:-4.7647531265153542e-01
10551:-4.6166196492589939e-01
10552:-5.2274692813907175e-01
10553:-5.0579113378998697e-01
10554:-4.8498770876936670e-01
10555:-4.6998224891895585e-01
10556:-5.2699269570527563e-01
10557:-5.0996292808228116e-01
10558:-4.8906332561651678e-01
10559:-4.7398494554952547e-01
10560:1.0794160816324994e+00
10561:-9.0176038011454984e-01
10562:-2.3459403224068782e+00
10563:-2.8101497376843061e+00
10564:1.1359897877626342e+00
10565:-8.0635117713998350e-01
10566:-2.2335128225899132e+00
10567:-2.7037087784518223e+00
10568:1.1856259670798417e+00
10569:-6.9000718237559655e-01
10570:-2.0815572022552979e+00
10571:-2.5534891970424489e+00
10572:1.2055215907598638e+00
10573:-6.0715630052090874e-01
10574:-1.9614462533770252e+00
10575:-2.4300984750902996e+00
10576:-2.8897799124855599e+00
10577:-2.9479448760296334e+00
10578:-2.9119136623762700e+00
10579:-2.8182249812191991e+00
10580:-2.7911931269414998e+00
10581:-2.8630012480773290e+00
10582:-2.8418212014416291e+00
10583:-2.7579915488493287e+00
10584:-2.6491209328981435e+00
10585:-2.7359915683999647e+00
10586:-2.7323495405513927e+00
10587:-2.6609557436698701e+00
10588:-2.5303360685819114e+00
10589:-2.6265980381828449e+00
10590:-2.6349249044803962e+00
10591:-2.5726849385675612e+00
10592:-2.7508728620038374e+00
10593:-2.6196158635403304e+00
10594:-2.4440363160351555e+00
10595:-2.3061927396335800e+00
10596:-2.6954889399005331e+00
10597:-2.5722318309108161e+00
10598:-2.4053131702714832e+00
10599:-2.2731130774985848e+00
10600:-2.6048071802868509e+00
10601:-2.4922353078619408e+00
10602:-2.3372129524198226e+00
10603:-2.2129900076538029e+00
10604:-2.5213992248626358e+00
10605:-2.4171610653711717e+00
10606:-2.2716649285653219e+00
10607:-2.1539954695681538e+00
10608:-2.2320851015305658e+00
10609:-2.1002780168080695e+00
10610:-1.9423604796865990e+00
10611:-1.8305539973367722e+00
10612:-2.2017385305750303e+00
10613:-2.0744252633624924e+00
10614:-1.9212831263101489e+00
10615:-1.8124601618280340e+00
10616:-2.1455479297898905e+00
10617:-2.0247941279273745e+00
10618:-1.8787904884339082e+00
10619:-1.7745509779867332e+00
10620:-2.0898334880841127e+00
10621:-1.9746168437387155e+00
10622:-1.8347558409770670e+00
10623:-1.7345442966212790e+00
10624:-1.7739143508863349e+00
10625:-1.6737091423501551e+00
10626:-1.5536560878060173e+00
10627:-1.4686805928704958e+00
10628:-1.7572132003252527e+00
10629:-1.6593334593740849e+00
10630:-1.5418387600328869e+00
10631:-1.4585239322216368e+00
10632:-1.7214851985226383e+00
10633:-1.6272988770045371e+00
10634:-1.5139558746276438e+00
10635:-1.4333986943303345e+00
10636:-1.6834229254362589e+00
10637:-1.5925621856012675e+00
10638:-1.4830136122020638e+00
10639:-1.4050159099157649e+00
10640:-1.4256452477519568e+00
10641:-1.3496603594991026e+00
10642:-1.2591167459448922e+00
10643:-1.1955421115207743e+00
10644:-1.4162833993329698e+00
10645:-1.3416262592456349e+00
10646:-1.2525306008784749e+00
10647:-1.1898799555612747e+00
10648:-1.3924988636469977e+00
10649:-1.3201184788822258e+00
10650:-1.2335751248511186e+00
10651:-1.1726052183623521e+00
10652:-1.3653731870741512e+00
10653:-1.2951498273395292e+00
10654:-1.2110655264430714e+00
10655:-1.1517448796252296e+00
10656:-1.1635273362123619e+00
10657:-1.1067528997208562e+00
10658:-1.0385650497684491e+00
10659:-9.9032741813597225e-01
10660:-1.1583011924497926e+00
10661:-1.1022631079879679e+00
10662:-1.0348966028157180e+00
10663:-9.8719661254882174e-01
10664:-1.1418375155467149e+00
10665:-1.0871927460560658e+00
10666:-1.0214223148794062e+00
10667:-9.7479792973380286e-01
10668:-1.1217830731429845e+00
10669:-1.0685356379875883e+00
10670:-1.0043884845271134e+00
10671:-9.5887426699529887e-01
10672:-9.6592338719330595e-01
10673:-9.2251804343598209e-01
10674:-8.7020972667628216e-01
10675:-8.3311608957961703e-01
10676:-9.6305069170582003e-01
10677:-9.2008233436068432e-01
10678:-8.6826073285278216e-01
10679:-8.3148388203577750e-01
10680:-9.5117898888899099e-01
10681:-9.0912085051060032e-01
10682:-8.5834726847462461e-01
10683:-8.2227879942964854e-01
10684:-9.3580467186919603e-01
10685:-8.9470435518620128e-01
10686:-8.4505029599240222e-01
10687:-8.0975095489485505e-01
10688:-8.1432491979889288e-01
10689:-7.8077419114476765e-01
10690:-7.4010067499009169e-01
10691:-7.1109407037753558e-01
10692:-8.1284393132247490e-01
10693:-7.7955016041286340e-01
10694:-7.3916504871378441e-01
10695:-7.1034776450614745e-01
10696:-8.0398632728664576e-01
10697:-7.7129694455584563e-01
10698:-7.3161607425521635e-01
10699:-7.0328081312959778e-01
10700:-7.9184001205373755e-01
10701:-7.5982042433302399e-01
10702:-7.2093123762099875e-01
10703:-6.9314610977728397e-01
10704:-6.9634746422289939e-01
10705:-6.6993984611160129e-01
10706:-6.3779520903922293e-01
10707:-6.1478599091915442e-01
10708:-6.9569203538228019e-01
10709:-6.6943863226152289e-01
10710:-6.3746636065094919e-01
10711:-6.1456965342623782e-01
10712:-6.8886348912536044e-01
10713:-6.6302654885604473e-01
10714:-6.3154233240549040e-01
10715:-6.0898155226016903e-01
10716:-6.7900370064508953e-01
10717:-6.5365159434554843e-01
10718:-6.2274402058289824e-01
10719:-6.0058635205817834e-01
10720:-6.0306109672303665e-01
10721:-5.8200094718345496e-01
10722:-5.5624895856256840e-01
10723:-5.3773476709922174e-01
10724:-6.0289854640573681e-01
10725:-5.8192979506072140e-01
10726:-5.5628035961865541e-01
10727:-5.3783348327154024e-01
10728:-5.9747722690522143e-01
10729:-5.7680151667813884e-01
10730:-5.5149881594309358e-01
10731:-5.3329310143026376e-01
10732:-5.8928426838635317e-01
10733:-5.6896709467396223e-01
10734:-5.4409438569130109e-01
10735:-5.2619188625820701e-01
10736:-5.2827393911242504e-01
10737:-5.1123602674515933e-01
10738:-4.9032345428496221e-01
10739:-4.7523372252972701e-01
10740:-5.2840498685068882e-01
10741:-5.1142214625528426e-01
10742:-4.9057168121034084e-01
10743:-4.7552305853968274e-01
10744:-5.2398521207016058e-01
10745:-5.0721558897631724e-01
10746:-4.8661986395007906e-01
10747:-4.7175030628379833e-01
10748:-5.1703701486759324e-01
10749:-5.0053999958242634e-01
10750:-4.8027365419574986e-01
10751:-4.6563817020197523e-01
10752:1.2098405775376857e+00
10753:-5.6527698018596473e-01
10754:-1.8962926629659491e+00
10755:-2.3615787108141730e+00
10756:1.2063286893211322e+00
10757:-4.9141505065429192e-01
10758:-1.7726302875025111e+00
10759:-2.2285341819719138e+00
10760:1.1797785765740396e+00
10761:-4.0420577612019326e-01
10762:-1.6089130213858638e+00
10763:-2.0466887890747598e+00
10764:1.1434761163315470e+00
10765:-3.4412291406247292e-01
10766:-1.4818096021122640e+00
10767:-1.9013263318124127e+00
10768:-2.4636797802424271e+00
10769:-2.5641619238383009e+00
10770:-2.5783173034508287e+00
10771:-2.5207997251905918e+00
10772:-2.3329576237035878e+00
10773:-2.4397427322388339e+00
10774:-2.4636038837849679e+00
10775:-2.4145080811113111e+00
10776:-2.1518439610089013e+00
10777:-2.2636695648914773e+00
10778:-2.2977350032226425e+00
10779:-2.2587132794502023e+00
10780:-2.0053058142319840e+00
10781:-2.1185800620528550e+00
10782:-2.1585855362651238e+00
10783:-2.1265658049676803e+00
10784:-2.4720910725614558e+00
10785:-2.3723255284252280e+00
10786:-2.2320299364236211e+00
10787:-2.1179954740525089e+00
10788:-2.3705355510458763e+00
10789:-2.2791037165159582e+00
10790:-2.1486766018316477e+00
10791:-2.0416566235621554e+00
10792:-2.2206923721990934e+00
10793:-2.1399626714027260e+00
10794:-2.0225643099002859e+00
10795:-1.9250335126860720e+00
10796:-2.0929154750836441e+00
10797:-2.0202272175349658e+00
10798:-1.9128954262762345e+00
10799:-1.8228687417399765e+00
10800:-2.0556695873177007e+00
10801:-1.9435744728458557e+00
10802:-1.8072148629034552e+00
10803:-1.7093265263366746e+00
10804:-1.9829081680288452e+00
10805:-1.8769393328735320e+00
10806:-1.7475280420448138e+00
10807:-1.6543031663437200e+00
10808:-1.8711906043184461e+00
10809:-1.7737073538366002e+00
10810:-1.6540657559388101e+00
10811:-1.5674977878391181e+00
10812:-1.7729536870764415e+00
10813:-1.6823269930560700e+00
10814:-1.5706849898277075e+00
10815:-1.4896389870802687e+00
10816:-1.6593353911029969e+00
10817:-1.5704180737607969e+00
10818:-1.4631043286030097e+00
10819:-1.3866260772977903e+00
10820:-1.6065976969339386e+00
10821:-1.5216310841411542e+00
10822:-1.4188950872838462e+00
10823:-1.3455529535663686e+00
10824:-1.5230863617220667e+00
10825:-1.4438514584131519e+00
10826:-1.3478208654337211e+00
10827:-1.2791159636780667e+00
10828:-1.4479819916082499e+00
10829:-1.3735664288236322e+00
10830:-1.2832182996963815e+00
10831:-1.2184731420573782e+00
10832:-1.3477334975914348e+00
10833:-1.2788039040707522e+00
10834:-1.1962066128790245e+00
10835:-1.1378919861781533e+00
10836:-1.3082162533046100e+00
10837:-1.2419830252273114e+00
10838:-1.1625083085570738e+00
10839:-1.1063229464847926e+00
10840:-1.2440937104001808e+00
10841:-1.1818948703602317e+00
10842:-1.1071344570925186e+00
10843:-1.0541936118634145e+00
10844:-1.1854366448991884e+00
10845:-1.1267150719363943e+00
10846:-1.0560463261658757e+00
10847:-1.0059413949607603e+00
10848:-1.1084246302603500e+00
10849:-1.0560381827223726e+00
10850:-9.9289762034782703e-01
10851:-9.4807634999712509e-01
10852:-1.0779075838628567e+00
10853:-1.0273602444191152e+00
10854:-9.6638247750022732e-01
10855:-9.2305902614703994e-01
10856:-1.0273909616824839e+00
10857:-9.7967586666232787e-01
10858:-9.2205121617824426e-01
10859:-8.8106563082453349e-01
10860:-9.8055478105620397e-01
10861:-9.3533500045917062e-01
10862:-8.8067925480817333e-01
10863:-8.4177390462562729e-01
10864:-9.2535114545607799e-01
10865:-8.8485372802681661e-01
10866:-8.3590882855054649e-01
10867:-8.0109997308658165e-01
10868:-9.0108116156995832e-01
10869:-8.6189683066956058e-01
10870:-8.1450514587404166e-01
10871:-7.8077683610167470e-01
10872:-8.6025938383192413e-01
10873:-8.2314193790848145e-01
10874:-7.7821025837754421e-01
10875:-7.4620420330012571e-01
10876:-8.2201349942258417e-01
10877:-7.8674645105166785e-01
10878:-7.4402689360610286e-01
10879:-7.1357654294152795e-01
10880:-7.8343344521011626e-01
10881:-7.5184453521280059e-01
10882:-7.1346727478065475e-01
10883:-6.8603996778873089e-01
10884:-7.6365084587666787e-01
10885:-7.3301744952786119e-01
10886:-6.9578143762981770e-01
10887:-6.6915577583651209e-01
10888:-7.2994335959150092e-01
10889:-7.0084448215012585e-01
10890:-6.6545057264421648e-01
10891:-6.4012553555952634e-01
10892:-6.9809948425460477e-01
10893:-6.7039408446987170e-01
10894:-6.3667880293020285e-01
10895:-6.1254314813345012e-01
10896:-6.7207707389340487e-01
10897:-6.4704267766719414e-01
10898:-6.1651502064837949e-01
10899:-5.9462441954562817e-01
10900:-6.5559638134509057e-01
10901:-6.3127822917214083e-01
10902:-6.0161091838473990e-01
10903:-5.8032789398973894e-01
10904:-6.2722302572935662e-01
10905:-6.0407449014165393e-01
10906:-5.7581865170778213e-01
10907:-5.5553711166154074e-01
10908:-6.0024273066999012e-01
10909:-5.7816850512852280e-01
10910:-5.5121322673279061e-01
10911:-5.3185742031582428e-01
10912:-5.8345681912557912e-01
10913:-5.6337881433652792e-01
10914:-5.3879429766295317e-01
10915:-5.2109598888424458e-01
10916:-5.6946717120294355e-01
10917:-5.4993636213722108e-01
10918:-5.2601378095836093e-01
10919:-5.0878630018203297e-01
10920:-5.4518378541512480e-01
10921:-5.2656008561122747e-01
10922:-5.0373905610280112e-01
10923:-4.8729809574008776e-01
10924:-5.2197408628465969e-01
10925:-5.0419205824138291e-01
10926:-4.8239566558487118e-01
10927:-4.6668810824276319e-01
10928:-5.1204447984513513e-01
10929:-4.9573206926768754e-01
10930:-4.7568957436334058e-01
10931:-4.6121371679166867e-01
10932:-4.9997372734081197e-01
10933:-4.8408895754255887e-01
10934:-4.6456660960777318e-01
10935:-4.5046277137080032e-01
10936:-4.7888565112900672e-01
10937:-4.6371857165785130e-01
10938:-4.4507193561246383e-01
10939:-4.3159636193027745e-01
10940:-4.5864936263358486e-01
10941:-4.4415356979980969e-01
10942:-4.2632783592717360e-01
10943:-4.1344248038453513e-01
10944:1.1187753221037025e+00
10945:-3.1442612412641036e-01
10946:-1.4135916270724691e+00
10947:-1.8218853802954553e+00
10948:1.0628100077051581e+00
10949:-2.6334166067826703e-01
10950:-1.2854637932954520e+00
10951:-1.6700582488288540e+00
10952:9.7221535669380310e-01
10953:-2.0532249709251013e-01
10954:-1.1182187884634605e+00
10955:-1.4669669443749891e+00
10956:8.9057594845448251e-01
10957:-1.6689070406530920e-01
10958:-9.8994337646630159e-01
10959:-1.3076721245103071e+00
10960:-1.9246331924870876e+00
10961:-2.0378328944469035e+00
10962:-2.0803360036959204e+00
10963:-2.0517835067794503e+00
10964:-1.7693887521075280e+00
10965:-1.8808601960957032e+00
10966:-1.9267285881366671e+00
10967:-1.9041051587838171e+00
10968:-1.5597450244212470e+00
10969:-1.6659399553988063e+00
10970:-1.7136602686978681e+00
10971:-1.6976397310495752e+00
10972:-1.3938981288926162e+00
10973:-1.4938338283143751e+00
10974:-1.5411003071634757e+00
10975:-1.5292904477670561e+00
10976:-2.0203874105124249e+00
10977:-1.9519141822779613e+00
10978:-1.8499593391434728e+00
10979:-1.7640016635640561e+00
10980:-1.8767507997408199e+00
10981:-1.8159683155897142e+00
10982:-1.7240216012860805e+00
10983:-1.6457574727956019e+00
10984:-1.6751778072986485e+00
10985:-1.6239750855455715e+00
10986:-1.5448884360461062e+00
10987:-1.4767443201867545e+00
10988:-1.5102854297913704e+00
10989:-1.4660699761899034e+00
10990:-1.3966727551605140e+00
10991:-1.3363311334685122e+00
10992:-1.7162331621722835e+00
10993:-1.6293748420864917e+00
10994:-1.5221652187898025e+00
10995:-1.4442026260537206e+00
10996:-1.6020808684366097e+00
10997:-1.5224470623103721e+00
10998:-1.4238033757078856e+00
10999:-1.3518452081138888e+00
11000:-1.4385140558224372e+00
11001:-1.3685747571341611e+00
11002:-1.2815559272767747e+00
11003:-1.2178320306609771e+00
11004:-1.3023471440290117e+00
11005:-1.2400243534770696e+00
11006:-1.1622339837907365e+00
11007:-1.1051085658399267e+00
11008:-1.4040909457172537e+00
11009:-1.3323879493285886e+00
11010:-1.2452528131760023e+00
11011:-1.1827563707580799e+00
11012:-1.3147566649010065e+00
11013:-1.2483774753848975e+00
11014:-1.1675769216227163e+00
11015:-1.1095330731420023e+00
11016:-1.1849152412622763e+00
11017:-1.1259149255802816e+00
11018:-1.0539480311718379e+00
11019:-1.0021491650872829e+00
11020:-1.0755531849310485e+00
11021:-1.0225216507830752e+00
11022:-9.5773885467372533e-01
11023:-9.1104419943337112e-01
11024:-1.1508506390722451e+00
11025:-1.0941142499561594e+00
11026:-1.0257905443165520e+00
11027:-9.7731729278244694e-01
11028:-1.0798723110716022e+00
11029:-1.0270869944314576e+00
11030:-9.6344800943610098e-01
11031:-9.1824656442161467e-01
11032:-9.7564821340761609e-01
11033:-9.2844221767757851e-01
11034:-8.7145080989701940e-01
11035:-8.3091446541329916e-01
11036:-8.8713369295249034e-01
11037:-8.4451447358491882e-01
11038:-7.9301069320483675e-01
11039:-7.5634105621669190e-01
11040:-9.5274744901074571e-01
11041:-9.0896965246946160e-01
11042:-8.5603421240335087e-01
11043:-8.1833746594435675e-01
11044:-8.9531841148445168e-01
11045:-8.5444431264616549e-01
11046:-8.0498223308052452e-01
11047:-7.6973205002276990e-01
11048:-8.1033431549945756e-01
11049:-7.7362304959162165e-01
11050:-7.2915748068123498e-01
11051:-6.9743840250703804e-01
11052:-7.3771205551597074e-01
11053:-7.0446689615518521e-01
11054:-6.6417338674249815e-01
11055:-6.3541083667940679e-01
11056:-7.9918573553298722e-01
11057:-7.6499730118609588e-01
11058:-7.2357027249501993e-01
11059:-6.9403109534862673e-01
11060:-7.5181449502472641e-01
11061:-7.1981640458350027e-01
11062:-6.8102009855523038e-01
11063:-6.5333973733544437e-01
11064:-6.8130586117891401e-01
11065:-6.5248172655833447e-01
11066:-6.1750840233883164e-01
11067:-5.9253705189983474e-01
11068:-6.2077543134178326e-01
11069:-5.9461749920925688e-01
11070:-5.6286302321936588e-01
11071:-5.4017788435333514e-01
11072:-6.7901381581916609e-01
11073:-6.5212685814282612e-01
11074:-6.1939929253700732e-01
11075:-5.9596475846368713e-01
11076:-6.3926182929902609e-01
11077:-6.1404906510450930e-01
11078:-5.8334555615574890e-01
11079:-5.6135030663999175e-01
11080:-5.7983073045710209e-01
11081:-5.5706622527325556e-01
11082:-5.2932921784193454e-01
11083:-5.0944805478503830e-01
11084:-5.2863082685010043e-01
11085:-5.0793817714266687e-01
11086:-4.8271616807624712e-01
11087:-4.6463053277032546e-01
11088:-5.8401968923884606e-01
11089:-5.6258020268640130e-01
11090:-5.3639460241054959e-01
11091:-5.1758755676297274e-01
11092:-5.5013553518468949e-01
11093:-5.3000188318363417e-01
11094:-5.0540217822530709e-01
11095:-4.8772760144563837e-01
11096:-4.9930749023740945e-01
11097:-4.8109701818811423e-01
11098:-4.5883733475786093e-01
11099:-4.4283688791645492e-01
11100:-4.5540335179073610e-01
11101:-4.3882974612119569e-01
11102:-4.1856463415310124e-01
11103:-4.0399326642977362e-01
11104:-5.0798312636835063e-01
11105:-4.9070099426638919e-01
11106:-4.6951392711004175e-01
11107:-4.5424304204678229e-01
11108:-4.7869932623973727e-01
11109:-4.6245073771066464e-01
11110:-4.4252499102190368e-01
11111:-4.2815909903356741e-01
11112:-4.3466139006165111e-01
11113:-4.1994416176401206e-01
11114:-4.0189009473691206e-01
11115:-3.8886910974873468e-01
11116:-3.9654641824467324e-01
11117:-3.8313875441608930e-01
11118:-3.6668725605300106e-01
11119:-3.5481919460681582e-01
11120:-4.4642697632673761e-01
11121:-4.3233150859484099e-01
11122:-4.1499590597522473e-01
11123:-4.0246336057853993e-01
11124:-4.2080488290487905e-01
11125:-4.0754032322726658e-01
11126:-3.9122312873064286e-01
11127:-3.7942442333264531e-01
11128:-3.8220189227595819e-01
11129:-3.7017432834933367e-01
11130:-3.5537506966798027e-01
11131:-3.4467138513386297e-01
11132:-3.4874135587187999e-01
11133:-3.3777563643119091e-01
11134:-3.2428044610061152e-01
11135:-3.1451821679233227e-01
11136:8.4315420614016212e-01
11137:-1.4837971713104062e-01
11138:-9.2157730602493615e-01
11139:-1.2216049888101812e+00
11140:7.4746326832400511e-01
11141:-1.1742036687976498e-01
11142:-7.9402205806504178e-01
11143:-1.0589691078053896e+00
11144:6.1104802472209241e-01
11145:-8.3665636241335078e-02
11146:-6.2896900442247927e-01
11147:-8.4483443853768159e-01
11148:4.9911537727129718e-01
11149:-6.2071280223457558e-02
11150:-5.0327539034637758e-01
11151:-6.7926731499022164e-01
11152:-1.3038261367291872e+00
11153:-1.3996795401350253e+00
11154:-1.4460666095171091e+00
11155:-1.4362054353717555e+00
11156:-1.1328329495435376e+00
11157:-1.2197726658257948e+00
11158:-1.2633955972811310e+00
11159:-1.2566441721784198e+00
11160:-9.0627659006897354e-01
11161:-9.7931387004610682e-01
11162:-1.0172873610017688e+00
11163:-1.0135706705024039e+00
11164:-7.3013749857678256e-01
11165:-7.9093621413058757e-01
11166:-8.2314158218757272e-01
11167:-8.2101721606192202e-01
11168:-1.4189382399995598e+00
11169:-1.3783172260097256e+00
11170:-1.3140170996877771e+00
11171:-1.2578422948348509e+00
11172:-1.2424329665081877e+00
11173:-1.2082861839833254e+00
11174:-1.1533734484030829e+00
11175:-1.1049857381375821e+00
11176:-1.0029555692087693e+00
11177:-9.7673443674543470e-01
11178:-9.3371841691525903e-01
11179:-8.9541522560891929e-01
11180:-8.1287207615104873e-01
11181:-7.9234201051132680e-01
11182:-7.5818261666558884e-01
11183:-7.2754782459854128e-01
11184:-1.2261421173442488e+00
11185:-1.1679355887523410e+00
11186:-1.0951648761301367e+00
11187:-1.0416491600532354e+00
11188:-1.0775826889286517e+00
11189:-1.0271546852542952e+00
11190:-9.6392428309135780e-01
11191:-9.1730458033782214e-01
11192:-8.7363158400028185e-01
11193:-8.3343763670848037e-01
11194:-7.8285936452843630e-01
11195:-7.4544928634161467e-01
11196:-7.1007674933274023e-01
11197:-6.7778129532307929e-01
11198:-6.3703864099569052e-01
11199:-6.0683270785876520e-01
11200:-1.0139387196652547e+00
11201:-9.6419096871822751e-01
11202:-9.0337342933255282e-01
11203:-8.5950445750701676e-01
11204:-8.9312940487969017e-01
11205:-8.4968782147430377e-01
11206:-7.9650820936911559e-01
11207:-7.5809740041820139e-01
11208:-7.2601469539806807e-01
11209:-6.9105524967574639e-01
11210:-6.4819251923624632e-01
11211:-6.1718297044812231e-01
11212:-5.9111960501004035e-01
11213:-5.6283772405722610e-01
11214:-5.2812861683259782e-01
11215:-5.0298912179523669e-01
11216:-8.3703060288870701e-01
11217:-7.9695940166915180e-01
11218:-7.4851148252145894e-01
11219:-7.1400015352179791e-01
11220:-7.3840336570429521e-01
11221:-7.0326982658430970e-01
11222:-6.6075653312414151e-01
11223:-6.3044538623674318e-01
11224:-6.0126722067304417e-01
11225:-5.7285855921392781e-01
11226:-5.3845144732900585e-01
11227:-5.1389304005790182e-01
11228:-4.9007632025129094e-01
11229:-4.6702222568491736e-01
11230:-4.3908600399113318e-01
11231:-4.1913068011011279e-01
11232:-6.9646184998359117e-01
11233:-6.6515647788106746e-01
11234:-6.2720167155563722e-01
11235:-6.0009906703838578e-01
11236:-6.1503232758578552e-01
11237:-5.8751034485957609e-01
11238:-5.5412350862291437e-01
11239:-5.3026778948127529e-01
11240:-5.0139563126915787e-01
11241:-4.7907076924735781e-01
11242:-4.5197063201065374e-01
11243:-4.3259192389593065e-01
11244:-4.0896956195706430e-01
11245:-3.9081374563138960e-01
11246:-3.6876492043501657e-01
11247:-3.5298930731633282e-01
11248:-5.8630506897074885e-01
11249:-5.6164690982088206e-01
11250:-5.3170547774045018e-01
11251:-5.1030976291567309e-01
11252:-5.1812115670434955e-01
11253:-4.9640186012378729e-01
11254:-4.7001750983566692e-01
11255:-4.5115450956257930e-01
11256:-4.2271961551008275e-01
11257:-4.0506236088353448e-01
11258:-3.8360270174883931e-01
11259:-3.6825165846815111e-01
11260:-3.4494933054832005e-01
11261:-3.3056807829439500e-01
11262:-3.1308602028984001e-01
11263:-3.0057546735211138e-01
11264:-4.9941708557417730e-01
11265:-4.7989478843948402e-01
11266:-4.5609493590186895e-01
11267:-4.3902565970556423e-01
11268:-4.4154810026652308e-01
11269:-4.2432761687332160e-01
11270:-4.0332726595149915e-01
11271:-3.8826048260648294e-01
11272:-3.6043053110368717e-01
11273:-3.4640720207300330e-01
11274:-3.2929955147523982e-01
11275:-3.1702037811983597e-01
11276:-2.9419949404842888e-01
11277:-2.8276577557536831e-01
11278:-2.6881394321991692e-01
11279:-2.5879676993458767e-01
11280:-4.3031583914431931e-01
11281:-4.1466990294388578e-01
11282:-3.9553610614773088e-01
11283:-3.8177596561096033e-01
11284:-3.8057060909951346e-01
11285:-3.6675447391358112e-01
11286:-3.4985383002926485e-01
11287:-3.3769614834323330e-01
11288:-3.1075142225953034e-01
11289:-2.9948624226062925e-01
11290:-2.8570205508627822e-01
11291:-2.7578284557301946e-01
11292:-2.5368153254289977e-01
11293:-2.4448892648413262e-01
11294:-2.3323911527375304e-01
11295:-2.2514189376419899e-01
11296:-3.7474295919903838e-01
11297:-3.6207942984369362e-01
11298:-3.4653920565423435e-01
11299:-3.3532719160125024e-01
11300:-3.3148098867428699e-01
11301:-3.2028861814450577e-01
11302:-3.0655105370917601e-01
11303:-2.9663759287754843e-01
11304:-2.7071082071534258e-01
11305:-2.6157573443652909e-01
11306:-2.5036083441436197e-01
11307:-2.4226590263463452e-01
11308:-2.2100081956858034e-01
11309:-2.1354179680846005e-01
11310:-2.0438325324394882e-01
11311:-1.9777153405161660e-01
11312:-3.2958487351157051e-01
11313:-3.1922381766795049e-01
11314:-3.0647152016547918e-01
11315:-2.9724580815869628e-01
11316:-2.9155964879915913e-01
11317:-2.8239624012957992e-01
11318:-2.7111594136409928e-01
11319:-2.6295368187300411e-01
11320:-2.3811881222773570e-01
11321:-2.3063415279950816e-01
11322:-2.2141844489102774e-01
11323:-2.1474863610545689e-01
11324:-1.9438394742709794e-01
11325:-1.8826962805243347e-01
11326:-1.8074034256124399e-01
11327:-1.7529040224781894e-01
11328:4.3732300190545559e-01
11329:-5.1841026643994453e-02
11330:-4.3654370664938630e-01
11331:-5.9058996223675053e-01
11332:3.1821404778589313e-01
11333:-3.4953486866718037e-02
11334:-3.1243617184088607e-01
11335:-4.2438806253045436e-01
11336:1.5833764073299239e-01
11337:-1.6521779278980631e-02
11338:-1.5247372941564061e-01
11339:-2.0809181821170744e-01
11340:3.3898248842435343e-02
11341:-4.2474020588147967e-03
11342:-3.1015025555081198e-02
11343:-4.2669382448002342e-02
11344:-6.3549467642757018e-01
11345:-6.8926840264699407e-01
11346:-7.1793710048848935e-01
11347:-7.1642033326422272e-01
11348:-4.5763764777158983e-01
11349:-4.9751195600664139e-01
11350:-5.1886070237849258e-01
11351:-5.1811455312545263e-01
11352:-2.2539093655300696e-01
11353:-2.4595560645498687e-01
11354:-2.5660883835046688e-01
11355:-2.5623145693368587e-01
11356:-4.7300062492220601e-02
11357:-5.2349129779766398e-02
11358:-5.4084403683241196e-02
11359:-5.3573033284657998e-02
11360:-7.0949557823770293e-01
11361:-6.9186920148453313e-01
11362:-6.6234000340578236e-01
11363:-6.3576866110305696e-01
11364:-5.1332922909353440e-01
11365:-5.0094681051590717e-01
11366:-4.7995445783871710e-01
11367:-4.6095269541138401e-01
11368:-2.5397240579280450e-01
11369:-2.4807136609372232e-01
11370:-2.3794823223618941e-01
11371:-2.2871882109348290e-01
11372:-5.3071571636527329e-02
11373:-5.1895453398600536e-02
11374:-4.9921836935943709e-02
11375:-4.8109952260258930e-02
11376:-6.2059570377818085e-01
11377:-5.9252345298481957e-01
11378:-5.5706240779032623e-01
11379:-5.3073938286498523e-01
11380:-4.5007693245149083e-01
11381:-4.2991517323179379e-01
11382:-4.0437425403470439e-01
11383:-3.8536735742155115e-01
11384:-2.2341716151666585e-01
11385:-2.1353593906441939e-01
11386:-2.0092939113918420e-01
11387:-1.9150056727583725e-01
11388:-4.7055816912740245e-02
11389:-4.5018934725992311e-02
11390:-4.2306340698608245e-02
11391:-4.0228645741891167e-02
11392:-5.1703640363772785e-01
11393:-4.9236787588556019e-01
11394:-4.6208162352615972e-01
11395:-4.4013307256858863e-01
11396:-3.7546065650550470e-01
11397:-3.5763098161799090e-01
11398:-3.3573641502752322e-01
11399:-3.1985163307050518e-01
11400:-1.8657960453406255e-01
11401:-1.7776077214200900e-01
11402:-1.6696382903727527e-01
11403:-1.5911592859656609e-01
11404:-3.9144664117146490e-02
11405:-3.7282594759927977e-02
11406:-3.5084561512488836e-02
11407:-3.3477447075464968e-02
11408:-4.2885465765778086e-01
11409:-4.0871780293397791e-01
11410:-3.8431213202994535e-01
11411:-3.6687174850740417e-01
11412:-3.1168056818286988e-01
11413:-2.9709082472465337e-01
11414:-2.7940216298816739e-01
11415:-2.6675150310848955e-01
11416:-1.5506576723657484e-01
11417:-1.4783158128689439e-01
11418:-1.3905282387329274e-01
11419:-1.3276268931387272e-01
11420:-3.2628994578816940e-02
11421:-3.1107666987358056e-02
11422:-2.9248580275602138e-02
11423:-2.7901541249191374e-02
11424:-3.5798818199665355e-01
11425:-3.4211370059833102e-01
11426:-3.2283171786815557e-01
11427:-3.0903154360051888e-01
11428:-2.6030340682174602e-01
11429:-2.4878215394470293e-01
11430:-2.3478579329742436e-01
11431:-2.2476212194735676e-01
11432:-1.2955275096412941e-01
11433:-1.2382821247403086e-01
11434:-1.1688283233633584e-01
11435:-1.1190286666854220e-01
11436:-2.7210514404592684e-02
11437:-2.6002066265239616e-02
11438:-2.4560401803914753e-02
11439:-2.3522422889113857e-02
11440:-3.0199675957674288e-01
11441:-2.8941373201676523e-01
11442:-2.7411688813437429e-01
11443:-2.6316813401291472e-01
11444:-2.1964943126598868e-01
11445:-2.1050526030028738e-01
11446:-1.9938867800086779e-01
11447:-1.9142924133308084e-01
11448:-1.0935813608101635e-01
11449:-1.0480810949188185e-01
11450:-9.9276941483066483e-02
11451:-9.5313612098481257e-02
11452:-2.2985579292773135e-02
11453:-2.2026965024044595e-02
11454:-2.0861453488315463e-02
11455:-2.0022062959526018e-02
11456:-2.5758716245818547e-01
11457:-2.4757853828557250e-01
11458:-2.3536427895142467e-01
11459:-2.2659317719990230e-01
11460:-1.8737066890509987e-01
11461:-1.8009225353106553e-01
11462:-1.7120862810163220e-01
11463:-1.6482693976960339e-01
11464:-9.3291295234028473e-02
11465:-8.9667195337961594e-02
11466:-8.5245527897636203e-02
11467:-8.2066969466382131e-02
11468:-1.9592120059792287e-02
11469:-1.8827848637438551e-02
11470:-1.7901542741680078e-02
11471:-1.7234161257405189e-02
11472:-2.2211370281144979e-01
11473:-2.1406362400836224e-01
11474:-2.0421168583177399e-01
11475:-1.9711994889776982e-01
11476:-1.6156676682298984e-01
11477:-1.5570817390542821e-01
11478:-1.4853818551011133e-01
11479:-1.4337620625972911e-01
11480:-8.0441773886486212e-02
11481:-7.7521970006936697e-02
11482:-7.3949075684583893e-02
11483:-7.1376056648386421e-02
11484:-1.6891186511973966e-02
11485:-1.6276027226221051e-02
11486:-1.5523942833712313e-02
11487:-1.4981299964718966e-02
11488:-1.9349280143526909e-01
11489:-1.8695923695448449e-01
11490:-1.7893647074204749e-01
11491:-1.7314420458933960e-01
11492:-1.4073565932097662e-01
11493:-1.3597907128936160e-01
11494:-1.3013763085836502e-01
11495:-1.2591944903873678e-01
11496:-7.0059476383401056e-02
11497:-6.7688271167438571e-02
11498:-6.4776257932992312e-02
11499:-6.2672722912128595e-02
11500:-1.4703164825310810e-02
11501:-1.4203597933122694e-02
11502:-1.3591292842490622e-02
11503:-1.3148570354951868e-02
11504:-1.7017631569537484e-01
11505:-1.6481946110851581e-01
11506:-1.5822277859819597e-01
11507:-1.5344773429610228e-01
11508:-1.2375782543514233e-01
11509:-1.1985630018941783e-01
11510:-1.1505183341236470e-01
11511:-1.1157405836374647e-01
11512:-6.1594420557789006e-02
11513:-5.9648378543694001e-02
11514:-5.7252144169999721e-02
11515:-5.5517605984131628e-02
11516:-1.2921274050431692e-02
11517:-1.2511169250316059e-02
11518:-1.2006009152635153e-02
11519:-1.1639998653564925e-02
