x	y	stress_yy
 1.000000000000000e+00	 0.000000000000000e+00	 3.153269191607634e+01
 9.974284469059532e-01	 7.166933307989243e-02	 3.064784708777068e+01
 9.894434504816298e-01	 1.449194890387739e-01	 2.938629406698281e+01
 9.756838834611086e-01	 2.191824800515997e-01	 2.768992569919839e+01
 9.558632461068471e-01	 2.938119377281626e-01	 2.547452572517273e+01
 9.297883010623589e-01	 3.680947095758919e-01	 2.262843019600652e+01
 8.973756499953162e-01	 4.412674277632060e-01	 1.925209723828365e+01
 8.586647592086445e-01	 5.125376389107853e-01	 1.570921428990727e+01
 8.138260360508662e-01	 5.811085811189265e-01	 1.228625331661530e+01
 7.631628410841520e-01	 6.462062193992625e-01	 9.277284753149031e+00
 7.071067811868699e-01	 7.071067811868699e-01	 6.877661911942200e+00
 1.075000000000000e+00	 0.000000000000000e+00	 2.683618547265664e+01
 1.072235580423897e+00	 7.704453305765518e-02	 2.620809980858526e+01
 1.063651709267727e+00	 1.557884507110800e-01	 2.530379187133306e+01
 1.048860174720603e+00	 2.356211660483044e-01	 2.409566639962556e+01
 1.027552989564645e+00	 3.158478330497876e-01	 2.250986834503637e+01
 9.995224236416065e-01	 3.957018127859281e-01	 2.041718615327286e+01
 9.646788237442117e-01	 4.743624848376666e-01	 1.784578602830380e+01
 9.230646161480831e-01	 5.509779618221077e-01	 1.500745951714005e+01
 8.748629887528598e-01	 6.246917246969276e-01	 1.219367649391351e+01
 8.204000541628570e-01	 6.946716858494774e-01	 9.708784196220151e+00
 7.601397897723038e-01	 7.601397897723037e-01	 7.708478363107443e+00
 1.150000000000000e+00	 0.000000000000000e+00	 2.303265822811926e+01
 1.147042713941840e+00	 8.241973303606141e-02	 2.259330439374320e+01
 1.137859968053828e+00	 1.666574123845024e-01	 2.196183542036772e+01
 1.122036465980114e+00	 2.520598520464369e-01	 2.116595034369710e+01
 1.099242733022485e+00	 3.378837283730043e-01	 2.018954273298209e+01
 1.069256546220940e+00	 4.233089159975895e-01	 1.885920854326066e+01
 1.031981997493258e+00	 5.074575419136776e-01	 1.701922966351066e+01
 9.874644730877626e-01	 5.894182847348221e-01	 1.481985182785856e+01
 9.358999414552172e-01	 6.682748682761077e-01	 1.255652612926945e+01
 8.776372672420815e-01	 7.431371523006348e-01	 1.057080973587581e+01
 8.131727983584517e-01	 8.131727983584517e-01	 8.832436586280870e+00
 1.225000000000000e+00	 0.000000000000000e+00	 2.032390405397770e+01
 1.221849847459785e+00	 8.779493301503960e-02	 2.003142527283508e+01
 1.212068226839934e+00	 1.775263740589171e-01	 1.957743696749639e+01
 1.195212757239641e+00	 2.684985380458384e-01	 1.902571759869247e+01
 1.170932476480365e+00	 3.599196236976357e-01	 1.842582808531625e+01
 1.138990668800349e+00	 4.509160192106954e-01	 1.763194936735756e+01
 1.099285171242437e+00	 5.405525989910663e-01	 1.643625596758379e+01
 1.051864330027657e+00	 6.278586076487742e-01	 1.484701521079094e+01
 9.969368941578959e-01	 7.118580118563361e-01	 1.310778078088556e+01
 9.348744803217679e-01	 7.916026187526299e-01	 1.150498419004286e+01
 8.662058069452333e-01	 8.662058069452333e-01	 9.920989721321581e+00
 1.300000000000000e+00	 0.000000000000000e+00	 1.847386146410943e+01
 1.296656980977730e+00	 9.317013299451823e-02	 1.830170175752887e+01
 1.286276485626044e+00	 1.883953357341998e-01	 1.797985908392700e+01
 1.268389048499183e+00	 2.849372240463505e-01	 1.759909194291587e+01
 1.242622219938277e+00	 3.819555190235049e-01	 1.725974546969814e+01
 1.208724791379824e+00	 4.785231224250655e-01	 1.674429146060277e+01
 1.166588344991733e+00	 5.736476560696609e-01	 1.590567227567067e+01
 1.116264186967738e+00	 6.662989305638091e-01	 1.481852379211194e+01
 1.057973846860858e+00	 7.554411554374821e-01	 1.360055616978444e+01
 9.921116934018577e-01	 8.400680852053579e-01	 1.222693164206857e+01
 9.192388155325706e-01	 9.192388155325706e-01	 1.079818643047179e+01
 1.375000000000000e+00	 0.000000000000000e+00	 1.721240690187412e+01
 1.371464114495675e+00	 9.854533297442584e-02	 1.713166360683638e+01
 1.360484744412158e+00	 1.992642974102268e-01	 1.690551536977003e+01
 1.341565339758736e+00	 3.013759100478144e-01	 1.663640015066355e+01
 1.314311963396217e+00	 4.039914143504350e-01	 1.644065475330158e+01
 1.278458913959357e+00	 5.061302256405186e-01	 1.607857646484062e+01
 1.233891518741129e+00	 6.067427131492892e-01	 1.547939022548510e+01
 1.180664043907980e+00	 7.047392534797717e-01	 1.470096936838550e+01
 1.119010799564061e+00	 7.990242990194144e-01	 1.381540141166765e+01
 1.049348906482294e+00	 8.885335516587144e-01	 1.266462345247269e+01
 9.722718241203830e-01	 9.722718241203829e-01	 1.139574613768538e+01
 1.450000000000000e+00	 0.000000000000000e+00	 1.630252241743812e+01
 1.446271248013621e+00	 1.039205329546909e-01	 1.628059355340984e+01
 1.434693003198274e+00	 2.101332590868739e-01	 1.612919834307004e+01
 1.414741631018299e+00	 3.178145960500714e-01	 1.593888175289748e+01
 1.386001706854183e+00	 4.260273096782494e-01	 1.580369089193064e+01
 1.348193036538937e+00	 5.337373288568749e-01	 1.552362264124172e+01
 1.301194692490608e+00	 6.398377702297785e-01	 1.509186238568541e+01
 1.245063900848356e+00	 7.431795763965081e-01	 1.455668809572542e+01
 1.180047752267466e+00	 8.426074426020015e-01	 1.383123141362931e+01
 1.106586119563019e+00	 9.369990181125943e-01	 1.283863469208612e+01
 1.025304832708592e+00	 1.025304832708592e+00	 1.172761719493157e+01
 1.525000000000000e+00	 0.000000000000000e+00	 1.553948743142016e+01
 1.521078381531567e+00	 1.092957329352419e-01	 1.554258276793128e+01
 1.508901261984392e+00	 2.210022207640170e-01	 1.546320301379315e+01
 1.487917922277870e+00	 3.342532820529632e-01	 1.535811088894408e+01
 1.457691450312167e+00	 4.480632050067711e-01	 1.526026888270816e+01
 1.417927159118556e+00	 5.613444320739530e-01	 1.503176990597109e+01
 1.368497866240154e+00	 6.729328273109567e-01	 1.472271352317449e+01
 1.309463757788840e+00	 7.816198993138632e-01	 1.436596561015745e+01
 1.241084704971033e+00	 8.861905861851129e-01	 1.375052433723221e+01
 1.163823332643974e+00	 9.854644845668933e-01	 1.285384149604502e+01
 1.078337841297118e+00	 1.078337841297118e+00	 1.186327215868912e+01
 1.600000000000000e+00	 0.000000000000000e+00	 1.481946911686625e+01
 1.595885515049513e+00	 1.146709329160075e-01	 1.483290263017550e+01
 1.583109520770513e+00	 2.318711824415323e-01	 1.481893486046913e+01
 1.561094213537447e+00	 3.506919680563308e-01	 1.480735856444798e+01
 1.529381193770165e+00	 4.700991003358233e-01	 1.477208243167057e+01
 1.487661281698202e+00	 5.889515352915732e-01	 1.460031804934620e+01
 1.435801039989750e+00	 7.060278843926517e-01	 1.438013442389670e+01
 1.373863614729403e+00	 8.200602222316823e-01	 1.412739441639171e+01
 1.302121657674719e+00	 9.297737297686171e-01	 1.360557143662553e+01
 1.221060545725103e+00	 1.033929951021506e+00	 1.280941113176641e+01
 1.131370849885882e+00	 1.131370849885883e+00	 1.189284995998183e+01
 1.675000000000000e+00	 0.000000000000000e+00	 1.410049824096680e+01
 1.670692648567460e+00	 1.200461328969160e-01	 1.411984514119820e+01
 1.657317779556635e+00	 2.427401441192957e-01	 1.416323472639143e+01
 1.634270504797028e+00	 3.671306540600157e-01	 1.424382068092373e+01
 1.601070937228173e+00	 4.921349956652292e-01	 1.428620358381304e+01
 1.557395404277869e+00	 6.165586385095544e-01	 1.420284314572871e+01
 1.503104213739380e+00	 7.391229414746914e-01	 1.407689776596578e+01
 1.438263471670020e+00	 8.585005451498104e-01	 1.384973189035249e+01
 1.363158610378488e+00	 9.733568733523841e-01	 1.341745651229922e+01
 1.278297758806347e+00	 1.082395417476329e+00	 1.274776765365609e+01
 1.184403858474805e+00	 1.184403858474805e+00	 1.185350804025295e+01
 1.750000000000000e+00	 0.000000000000000e+00	 1.335244005424506e+01
 1.745499782085407e+00	 1.254213328778960e-01	 1.337993480845409e+01
 1.731526038342757e+00	 2.536091057971830e-01	 1.346619933430150e+01
 1.707446796056611e+00	 3.835693400638593e-01	 1.362425229644293e+01
 1.672760680686186e+00	 5.141708909948119e-01	 1.374377961436898e+01
 1.627129526857544e+00	 6.441657417277161e-01	 1.376232685680017e+01
 1.570407387489025e+00	 7.722179985569031e-01	 1.374421794319424e+01
 1.502663328610663e+00	 8.969408680680937e-01	 1.352780698153651e+01
 1.424195563082296e+00	 1.016940016936282e+00	 1.319710770051586e+01
 1.335534971887649e+00	 1.130860883931256e+00	 1.270049530976142e+01
 1.237436867063807e+00	 1.237436867063807e+00	 1.183898780922994e+01
 7.071067811868699e-01	 7.071067811868699e-01	 6.877661911942200e+00
 6.462062193992625e-01	 7.631628410841519e-01	 5.003197823750990e+00
 5.811085811189264e-01	 8.138260360508661e-01	 3.459868439503615e+00
 5.125376389107852e-01	 8.586647592086446e-01	 2.332869964230750e+00
 4.412674277632058e-01	 8.973756499953163e-01	 1.712620757573186e+00
 3.680947095758915e-01	 9.297883010623589e-01	 1.611302564668338e+00
 2.938119377281621e-01	 9.558632461068473e-01	 1.899822040077916e+00
 2.191824800515992e-01	 9.756838834611086e-01	 2.214699260722965e+00
 1.449194890387733e-01	 9.894434504816300e-01	 2.153195050928122e+00
 7.166933307989184e-02	 9.974284469059531e-01	 1.376701541009110e+00
 0.000000000000000e+00	 1.000000000000000e+00	-3.694236171541059e-01
 7.601397897723038e-01	 7.601397897723037e-01	 7.708478363107443e+00
 6.946716858494775e-01	 8.204000541628572e-01	 5.828071138896037e+00
 6.246917246969276e-01	 8.748629887528601e-01	 3.916366070510948e+00
 5.509779618221076e-01	 9.230646161480829e-01	 2.169362953291994e+00
 4.743624848376664e-01	 9.646788237442120e-01	 8.192268204630531e-01
 3.957018127859278e-01	 9.995224236416067e-01	 6.378245687611805e-03
 3.158478330497873e-01	 1.027552989564645e+00	-2.934965068118180e-01
 2.356211660483039e-01	 1.048860174720603e+00	-3.473666205560137e-01
 1.557884507110794e-01	 1.063651709267727e+00	-4.976277114189376e-01
 7.704453305765459e-02	 1.072235580423897e+00	-9.902148303481062e-01
 0.000000000000000e+00	 1.075000000000000e+00	-1.970834665920281e+00
 8.131727983584517e-01	 8.131727983584517e-01	 8.832436586280870e+00
 7.431371523006347e-01	 8.776372672420815e-01	 6.997356004095213e+00
 6.682748682761077e-01	 9.358999414552172e-01	 4.934616134763093e+00
 5.894182847348219e-01	 9.874644730877628e-01	 2.923333110958804e+00
 5.074575419136773e-01	 1.031981997493258e+00	 1.329162867109341e+00
 4.233089159975891e-01	 1.069256546220940e+00	 3.823611557262216e-01
 3.378837283730039e-01	 1.099242733022485e+00	 6.270075694337418e-02
 2.520598520464364e-01	 1.122036465980114e+00	 5.895417543356896e-02
 1.666574123845018e-01	 1.137859968053828e+00	-8.855130990394944e-02
 8.241973303606075e-02	 1.147042713941841e+00	-3.846496053073998e-01
 0.000000000000000e+00	 1.150000000000000e+00	-7.327484306607166e-01
 8.662058069452333e-01	 8.662058069452333e-01	 9.920989721321581e+00
 7.916026187526300e-01	 9.348744803217679e-01	 8.199641281188825e+00
 7.118580118563360e-01	 9.969368941578959e-01	 6.239151640646920e+00
 6.278586076487739e-01	 1.051864330027657e+00	 4.353117848175976e+00
 5.405525989910660e-01	 1.099285171242437e+00	 3.044211843970213e+00
 4.509160192106950e-01	 1.138990668800349e+00	 2.403050825466839e+00
 3.599196236976353e-01	 1.170932476480365e+00	 1.848630123204366e+00
 2.684985380458378e-01	 1.195212757239642e+00	 1.270162541078417e+00
 1.775263740589164e-01	 1.212068226839934e+00	 7.066534439710284e-01
 8.779493301503889e-02	 1.221849847459785e+00	 3.299107775184604e-01
 0.000000000000000e+00	 1.225000000000000e+00	 3.624641418600441e-01
 9.192388155325706e-01	 9.192388155325706e-01	 1.079818643047179e+01
 8.400680852053579e-01	 9.921116934018575e-01	 9.244726863347065e+00
 7.554411554374822e-01	 1.057973846860858e+00	 7.572638407486448e+00
 6.662989305638090e-01	 1.116264186967739e+00	 6.188924634736340e+00
 5.736476560696607e-01	 1.166588344991733e+00	 5.080478436466075e+00
 4.785231224250650e-01	 1.208724791379825e+00	 4.042771373812284e+00
 3.819555190235043e-01	 1.242622219938277e+00	 3.058215507194259e+00
 2.849372240463498e-01	 1.268389048499183e+00	 2.078444698635626e+00
 1.883953357341991e-01	 1.286276485626044e+00	 1.218499362170042e+00
 9.317013299451750e-02	 1.296656980977730e+00	 7.477112753276540e-01
 0.000000000000000e+00	 1.300000000000000e+00	 9.758745478681847e-01
 9.722718241203830e-01	 9.722718241203829e-01	 1.139574613768538e+01
 8.885335516587143e-01	 1.049348906482294e+00	 1.004875690621228e+01
 7.990242990194144e-01	 1.119010799564061e+00	 8.775527975188336e+00
 7.047392534797717e-01	 1.180664043907981e+00	 7.567705002832950e+00
 6.067427131492888e-01	 1.233891518741129e+00	 6.252947999183815e+00
 5.061302256405180e-01	 1.278458913959357e+00	 4.968330743335680e+00
 4.039914143504345e-01	 1.314311963396218e+00	 3.746591697983497e+00
 3.013759100478138e-01	 1.341565339758737e+00	 2.562966376779213e+00
 1.992642974102260e-01	 1.360484744412158e+00	 1.536474505542766e+00
 9.854533297442503e-02	 1.371464114495676e+00	 9.798491814924455e-01
 0.000000000000000e+00	 1.375000000000000e+00	 1.230068320785674e+00
 1.025304832708592e+00	 1.025304832708592e+00	 1.172761719493157e+01
 9.369990181125946e-01	 1.106586119563019e+00	 1.060579082416862e+01
 8.426074426020014e-01	 1.180047752267466e+00	 9.466696721516596e+00
 7.431795763965079e-01	 1.245063900848357e+00	 8.180650263000937e+00
 6.398377702297781e-01	 1.301194692490608e+00	 6.767045632511779e+00
 5.337373288568743e-01	 1.348193036538938e+00	 5.352688480974404e+00
 4.260273096782488e-01	 1.386001706854183e+00	 4.021160569870371e+00
 3.178145960500708e-01	 1.414741631018299e+00	 2.786631113047429e+00
 2.101332590868731e-01	 1.434693003198274e+00	 1.726384175384571e+00
 1.039205329546901e-01	 1.446271248013622e+00	 1.114738897481006e+00
 0.000000000000000e+00	 1.450000000000000e+00	 1.227891904479239e+00
 1.078337841297118e+00	 1.078337841297118e+00	 1.186327215868912e+01
 9.854644845668933e-01	 1.163823332643974e+00	 1.085952965094890e+01
 8.861905861851129e-01	 1.241084704971033e+00	 9.662747639332094e+00
 7.816198993138629e-01	 1.309463757788840e+00	 8.327858463554207e+00
 6.729328273109563e-01	 1.368497866240154e+00	 6.863745895906151e+00
 5.613444320739526e-01	 1.417927159118556e+00	 5.377175431488054e+00
 4.480632050067705e-01	 1.457691450312167e+00	 3.998309144169167e+00
 3.342532820529625e-01	 1.487917922277871e+00	 2.806974451590087e+00
 2.210022207640163e-01	 1.508901261984393e+00	 1.864117845056861e+00
 1.092957329352411e-01	 1.521078381531567e+00	 1.281421647016095e+00
 0.000000000000000e+00	 1.525000000000000e+00	 1.169189768237267e+00
 1.131370849885882e+00	 1.131370849885883e+00	 1.189284995998183e+01
 1.033929951021506e+00	 1.221060545725103e+00	 1.084296533884961e+01
 9.297737297686171e-01	 1.302121657674719e+00	 9.634338078059185e+00
 8.200602222316820e-01	 1.373863614729403e+00	 8.289407134797504e+00
 7.060278843926514e-01	 1.435801039989750e+00	 6.782924871724469e+00
 5.889515352915726e-01	 1.487661281698203e+00	 5.230731541718042e+00
 4.700991003358226e-01	 1.529381193770165e+00	 3.918607590148863e+00
 3.506919680563301e-01	 1.561094213537447e+00	 2.973662140464278e+00
 2.318711824415315e-01	 1.583109520770513e+00	 2.293650151515229e+00
 1.146709329160066e-01	 1.595885515049514e+00	 1.837764982706352e+00
 0.000000000000000e+00	 1.600000000000000e+00	 1.600245605581962e+00
 1.184403858474805e+00	 1.184403858474805e+00	 1.185350804025295e+01
 1.082395417476329e+00	 1.278297758806347e+00	 1.076455454126622e+01
 9.733568733523839e-01	 1.363158610378488e+00	 9.612459919507430e+00
 8.585005451498103e-01	 1.438263471670020e+00	 8.308458963769661e+00
 7.391229414746907e-01	 1.503104213739380e+00	 6.770872363320365e+00
 6.165586385095539e-01	 1.557395404277869e+00	 5.347741454623621e+00
 4.921349956652285e-01	 1.601070937228173e+00	 4.287590512743744e+00
 3.671306540600148e-01	 1.634270504797028e+00	 3.593987212524183e+00
 2.427401441192949e-01	 1.657317779556636e+00	 3.154726038632331e+00
 1.200461328969151e-01	 1.670692648567460e+00	 2.849918805124802e+00
 0.000000000000000e+00	 1.675000000000000e+00	 2.590171171631702e+00
 1.237436867063807e+00	 1.237436867063807e+00	 1.183898780922994e+01
 1.130860883931256e+00	 1.335534971887649e+00	 1.079332144022573e+01
 1.016940016936282e+00	 1.424195563082296e+00	 9.792781247743299e+00
 8.969408680680935e-01	 1.502663328610664e+00	 8.603773029805225e+00
 7.722179985569027e-01	 1.570407387489026e+00	 7.215142551359790e+00
 6.441657417277156e-01	 1.627129526857544e+00	 6.050518113789895e+00
 5.141708909948112e-01	 1.672760680686186e+00	 5.261887825928000e+00
 3.835693400638585e-01	 1.707446796056611e+00	 4.778857803404730e+00
 2.536091057971822e-01	 1.731526038342757e+00	 4.509808938050335e+00
 1.254213328778950e-01	 1.745499782085407e+00	 4.335330866036077e+00
 0.000000000000000e+00	 1.750000000000000e+00	 4.140740000646364e+00
 1.750000000000000e+00	 0.000000000000000e+00	 1.335244005424506e+01
 1.745499782085407e+00	 1.254213328778960e-01	 1.337993480845409e+01
 1.731526038342757e+00	 2.536091057971830e-01	 1.346619933430150e+01
 1.707446796056611e+00	 3.835693400638593e-01	 1.362425229644293e+01
 1.672760680686186e+00	 5.141708909948119e-01	 1.374377961436898e+01
 1.627129526857544e+00	 6.441657417277161e-01	 1.376232685680017e+01
 1.570407387489025e+00	 7.722179985569031e-01	 1.374421794319424e+01
 1.502663328610663e+00	 8.969408680680937e-01	 1.352780698153651e+01
 1.424195563082296e+00	 1.016940016936282e+00	 1.319710770051586e+01
 1.335534971887649e+00	 1.130860883931256e+00	 1.270049530976142e+01
 1.237436867063807e+00	 1.237436867063807e+00	 1.183898780922994e+01
 1.825000000000000e+00	 0.000000000000000e+00	 1.277943494502916e+01
 1.820306915603353e+00	 1.307965328588760e-01	 1.282169432583085e+01
 1.805734297128880e+00	 2.644780674750705e-01	 1.291654230142432e+01
 1.780623087316193e+00	 4.000080260677027e-01	 1.310075248516227e+01
 1.744450424144199e+00	 5.362067863243947e-01	 1.326129210354344e+01
 1.696863649437219e+00	 6.717728449458781e-01	 1.336403209328767e+01
 1.637710561238671e+00	 8.053130556391148e-01	 1.341778502835914e+01
 1.567063185551308e+00	 9.353811909863771e-01	 1.322691446553564e+01
 1.485232515786104e+00	 1.060523160520179e+00	 1.299071368693279e+01
 1.392772184968951e+00	 1.179326350386183e+00	 1.264493949900838e+01
 1.290469875652809e+00	 1.290469875652809e+00	 1.186160285517790e+01
 1.900000000000000e+00	 0.000000000000000e+00	 1.253285900518046e+01
 1.895114049121300e+00	 1.361717328397846e-01	 1.261217974850851e+01
 1.879942555915001e+00	 2.753470291528338e-01	 1.269564981872575e+01
 1.853799378575775e+00	 4.164467120713877e-01	 1.283563137902544e+01
 1.816140167602207e+00	 5.582426816538009e-01	 1.296401931245098e+01
 1.766597772016885e+00	 6.993799481638593e-01	 1.310584609986191e+01
 1.705013734988301e+00	 8.384081127211545e-01	 1.318017662100656e+01
 1.631463042491925e+00	 9.738215139045051e-01	 1.300866782064609e+01
 1.546269468489872e+00	 1.104106304103946e+00	 1.285759931790161e+01
 1.450009398050195e+00	 1.227791816841006e+00	 1.257853907288143e+01
 1.343502884241732e+00	 1.343502884241732e+00	 1.188528435415165e+01
 1.975000000000000e+00	 0.000000000000000e+00	 1.235515814805826e+01
 1.969921182639246e+00	 1.415469328205501e-01	 1.247933114192166e+01
 1.954150814701122e+00	 2.862159908303491e-01	 1.256515004594125e+01
 1.926975669835351e+00	 4.328853980747553e-01	 1.267894726068215e+01
 1.887829911060205e+00	 5.802785769828528e-01	 1.278437104293089e+01
 1.836331894596532e+00	 7.269870513814793e-01	 1.294092577659390e+01
 1.772316908737897e+00	 8.715031698028494e-01	 1.300451823216665e+01
 1.695862899432489e+00	 1.012261836822325e+00	 1.285441593556602e+01
 1.607306421193559e+00	 1.147689447687451e+00	 1.277878591985157e+01
 1.507246611131324e+00	 1.276257283295619e+00	 1.249763739406163e+01
 1.396535892830496e+00	 1.396535892830496e+00	 1.191163631444541e+01
 2.050000000000000e+00	 0.000000000000000e+00	 1.220981889913996e+01
 2.044728316157192e+00	 1.469221328011012e-01	 1.237111844953232e+01
 2.028359073487240e+00	 2.970849525074922e-01	 1.244937455933463e+01
 2.000151961094923e+00	 4.493240840776471e-01	 1.251631585868427e+01
 1.959519654518189e+00	 6.023144723113747e-01	 1.260111284917232e+01
 1.906066017176151e+00	 7.545941545985581e-01	 1.280938457598047e+01
 1.839620082487442e+00	 9.045982268840275e-01	 1.287248536933798e+01
 1.760262756372972e+00	 1.050702159739680e+00	 1.274939554292390e+01
 1.668343373897126e+00	 1.191272591270562e+00	 1.269279696873341e+01
 1.564483824212279e+00	 1.324722749749918e+00	 1.239494287115693e+01
 1.449568901419023e+00	 1.449568901419023e+00	 1.191842048518042e+01
 2.125000000000000e+00	 0.000000000000000e+00	 1.208437536984406e+01
 2.119535449675138e+00	 1.522973327813662e-01	 1.226820078597183e+01
 2.102567332273357e+00	 3.079539141841394e-01	 1.233562218432549e+01
 2.073328252354485e+00	 4.657627700799043e-01	 1.235172495743292e+01
 2.031209397976154e+00	 6.243503676391891e-01	 1.241134193343445e+01
 1.975800139755730e+00	 7.822012578149141e-01	 1.264957633507674e+01
 1.906923256236922e+00	 9.376932839645170e-01	 1.274787116594839e+01
 1.824662613313348e+00	 1.089142482656416e+00	 1.267951658269164e+01
 1.729380326600531e+00	 1.234855734853149e+00	 1.258283633461049e+01
 1.621721037293004e+00	 1.373188216203798e+00	 1.224255823352868e+01
 1.502601910007232e+00	 1.502601910007232e+00	 1.185680450964849e+01
 2.200000000000000e+00	 0.000000000000000e+00	 1.196821043046050e+01
 2.194342583193083e+00	 1.576725327612739e-01	 1.215241518307032e+01
 2.176775591059471e+00	 3.188228758601663e-01	 1.221522162590396e+01
 2.146504543614039e+00	 4.822014560813682e-01	 1.219518579710488e+01
 2.102899141434095e+00	 6.463862629661192e-01	 1.223368839955636e+01
 2.045534262335263e+00	 8.098083610303674e-01	 1.247638888494799e+01
 1.974226429986318e+00	 9.707883410441449e-01	 1.258623609084139e+01
 1.889062470253590e+00	 1.127582805572379e+00	 1.261055094516840e+01
 1.790417279303735e+00	 1.278438878435081e+00	 1.244823610610794e+01
 1.678958250373440e+00	 1.421653682657154e+00	 1.202670009543515e+01
 1.555634918595044e+00	 1.555634918595044e+00	 1.167927077149545e+01
 2.275000000000000e+00	 0.000000000000000e+00	 1.183725667912887e+01
 2.269149716711028e+00	 1.630477327407525e-01	 1.199634019086155e+01
 2.250983849845581e+00	 3.296918375354492e-01	 1.207742906890567e+01
 2.219680834873580e+00	 4.986401420818802e-01	 1.206179529598758e+01
 2.174588884892009e+00	 6.684221582919886e-01	 1.208878537851381e+01
 2.115268384914739e+00	 8.374154642447373e-01	 1.230867650050583e+01
 2.041529603735614e+00	 1.003883398122740e+00	 1.240247041156439e+01
 1.953462327193672e+00	 1.166023128487414e+00	 1.246218360092625e+01
 1.851454232006696e+00	 1.322022022016228e+00	 1.231475116678211e+01
 1.736195463453530e+00	 1.470119149109883e+00	 1.176427333164810e+01
 1.608667927182382e+00	 1.608667927182381e+00	 1.147172842380490e+01
 2.350000000000001e+00	 0.000000000000000e+00	 1.164309765368553e+01
 2.343956850228973e+00	 1.684229327197307e-01	 1.175717735107063e+01
 2.325192108631687e+00	 3.405607992098638e-01	 1.186374242161049e+01
 2.292857126133108e+00	 5.150788280812819e-01	 1.191249015689990e+01
 2.246278628349887e+00	 6.904580536166198e-01	 1.199004559504025e+01
 2.185002507494149e+00	 8.650225674578433e-01	 1.216755246859542e+01
 2.108832777484793e+00	 1.036978455200129e+00	 1.222155974103701e+01
 2.017862184133566e+00	 1.204463451401366e+00	 1.228707805848544e+01
 1.912491184709375e+00	 1.365605165596456e+00	 1.221246876343536e+01
 1.793432676533217e+00	 1.518584615561878e+00	 1.155453253684086e+01
 1.661700935769163e+00	 1.661700935769163e+00	 1.137561158738106e+01
 2.425000000000001e+00	 0.000000000000000e+00	 1.138088686137764e+01
 2.418763983746917e+00	 1.737981326981369e-01	 1.144275173271897e+01
 2.399400367417789e+00	 3.514297608832863e-01	 1.157419164858733e+01
 2.366033417392620e+00	 5.315175140794144e-01	 1.169709186800180e+01
 2.317968371807728e+00	 7.124939489398363e-01	 1.185756601051612e+01
 2.254736630073483e+00	 8.926296706695047e-01	 1.206761420225240e+01
 2.176135951233839e+00	 1.070073512276140e+00	 1.208115955171038e+01
 2.082262041073245e+00	 1.242903774314080e+00	 1.216949536634296e+01
 1.973528137411732e+00	 1.409188309175636e+00	 1.221044523518554e+01
 1.850669889612441e+00	 1.567050082013035e+00	 1.161594945137052e+01
 1.714733944355311e+00	 1.714733944355311e+00	 1.154422699690516e+01
 2.500000000000000e+00	 0.000000000000000e+00	 1.104942349277905e+01
 2.493571117264860e+00	 1.791733326758997e-01	 1.106683702235960e+01
 2.473608626203884e+00	 3.622987225555924e-01	 1.122548763460474e+01
 2.439209708652113e+00	 5.479562000761188e-01	 1.142892437723555e+01
 2.389658115265525e+00	 7.345298442614614e-01	 1.167752825193242e+01
 2.324470752652729e+00	 9.202367738795407e-01	 1.196426950806335e+01
 2.243439124982734e+00	 1.103168569350600e+00	 1.203288543803019e+01
 2.146661898012684e+00	 1.281344097225402e+00	 1.219384578626779e+01
 2.034565090113726e+00	 1.452771452753637e+00	 1.241286000870486e+01
 1.907907102691146e+00	 1.615515548463250e+00	 1.206364540699543e+01
 1.767766952940745e+00	 1.767766952940745e+00	 1.211261493900539e+01
 1.237436867063807e+00	 1.237436867063807e+00	 1.183898780922994e+01
 1.130860883931256e+00	 1.335534971887649e+00	 1.079332144022573e+01
 1.016940016936282e+00	 1.424195563082296e+00	 9.792781247743299e+00
 8.969408680680935e-01	 1.502663328610664e+00	 8.603773029805225e+00
 7.722179985569027e-01	 1.570407387489026e+00	 7.215142551359790e+00
 6.441657417277156e-01	 1.627129526857544e+00	 6.050518113789895e+00
 5.141708909948112e-01	 1.672760680686186e+00	 5.261887825928000e+00
 3.835693400638585e-01	 1.707446796056611e+00	 4.778857803404730e+00
 2.536091057971822e-01	 1.731526038342757e+00	 4.509808938050335e+00
 1.254213328778950e-01	 1.745499782085407e+00	 4.335330866036077e+00
 0.000000000000000e+00	 1.750000000000000e+00	 4.140740000646364e+00
 1.290469875652809e+00	 1.290469875652809e+00	 1.186160285517790e+01
 1.179326350386184e+00	 1.392772184968951e+00	 1.092638475632185e+01
 1.060523160520179e+00	 1.485232515786104e+00	 1.009949930987650e+01
 9.353811909863766e-01	 1.567063185551308e+00	 9.047862417939394e+00
 8.053130556391142e-01	 1.637710561238671e+00	 7.838567764602766e+00
 6.717728449458775e-01	 1.696863649437219e+00	 6.894517277429092e+00
 5.362067863243939e-01	 1.744450424144199e+00	 6.285829178513573e+00
 4.000080260677019e-01	 1.780623087316193e+00	 5.854144756068383e+00
 2.644780674750695e-01	 1.805734297128879e+00	 5.547501986642198e+00
 1.307965328588750e-01	 1.820306915603354e+00	 5.352536245925220e+00
 0.000000000000000e+00	 1.825000000000000e+00	 5.223199775949841e+00
 1.343502884241732e+00	 1.343502884241732e+00	 1.188528435415165e+01
 1.227791816841006e+00	 1.450009398050194e+00	 1.108074646187338e+01
 1.104106304103946e+00	 1.546269468489872e+00	 1.033968499969336e+01
 9.738215139045050e-01	 1.631463042491925e+00	 9.351594703796373e+00
 8.384081127211539e-01	 1.705013734988301e+00	 8.239525784184149e+00
 6.993799481638587e-01	 1.766597772016886e+00	 7.388924729714828e+00
 5.582426816537996e-01	 1.816140167602207e+00	 6.767056918132848e+00
 4.164467120713868e-01	 1.853799378575775e+00	 6.113976238887929e+00
 2.753470291528328e-01	 1.879942555915001e+00	 5.526606100639938e+00
 1.361717328397835e-01	 1.895114049121300e+00	 5.199020224535154e+00
 0.000000000000000e+00	 1.900000000000000e+00	 5.114917956363449e+00
 1.396535892830496e+00	 1.396535892830496e+00	 1.191163631444541e+01
 1.276257283295619e+00	 1.507246611131323e+00	 1.126178868258058e+01
 1.147689447687451e+00	 1.607306421193560e+00	 1.048999610070728e+01
 1.012261836822324e+00	 1.695862899432489e+00	 9.511680849460507e+00
 8.715031698028489e-01	 1.772316908737897e+00	 8.434843406514062e+00
 7.269870513814788e-01	 1.836331894596532e+00	 7.578251969069113e+00
 5.802785769828521e-01	 1.887829911060206e+00	 6.834528917792154e+00
 4.328853980747543e-01	 1.926975669835352e+00	 6.062577483615614e+00
 2.862159908303480e-01	 1.954150814701121e+00	 5.382158733462788e+00
 1.415469328205490e-01	 1.969921182639246e+00	 5.011476235920117e+00
 0.000000000000000e+00	 1.975000000000000e+00	 4.965368218322053e+00
 1.449568901419023e+00	 1.449568901419023e+00	 1.191842048518042e+01
 1.324722749749918e+00	 1.564483824212279e+00	 1.136262674497560e+01
 1.191272591270562e+00	 1.668343373897126e+00	 1.054040322290003e+01
 1.050702159739679e+00	 1.760262756372972e+00	 9.514781820613537e+00
 9.045982268840272e-01	 1.839620082487443e+00	 8.427983206529218e+00
 7.545941545985573e-01	 1.906066017176150e+00	 7.590480972408707e+00
 6.023144723113738e-01	 1.959519654518190e+00	 6.897182121953796e+00
 4.493240840776461e-01	 2.000151961094923e+00	 6.079000778733986e+00
 2.970849525074912e-01	 2.028359073487241e+00	 5.321945040385062e+00
 1.469221328011000e-01	 2.044728316157192e+00	 4.913497094935656e+00
 0.000000000000000e+00	 2.050000000000000e+00	 4.884052814907322e+00
 1.502601910007232e+00	 1.502601910007232e+00	 1.185680450964849e+01
 1.373188216203798e+00	 1.621721037293004e+00	 1.135003620059696e+01
 1.234855734853149e+00	 1.729380326600531e+00	 1.045876864056619e+01
 1.089142482656416e+00	 1.824662613313348e+00	 9.338964998722927e+00
 9.376932839645163e-01	 1.906923256236921e+00	 8.313723857853546e+00
 7.822012578149131e-01	 1.975800139755730e+00	 7.640416621365612e+00
 6.243503676391881e-01	 2.031209397976155e+00	 6.971942680486752e+00
 4.657627700799032e-01	 2.073328252354486e+00	 6.106460800060409e+00
 3.079539141841383e-01	 2.102567332273357e+00	 5.305739760414262e+00
 1.522973327813650e-01	 2.119535449675138e+00	 4.890615563244952e+00
 0.000000000000000e+00	 2.125000000000000e+00	 4.879231272006692e+00
 1.555634918595044e+00	 1.555634918595044e+00	 1.167927077149545e+01
 1.421653682657154e+00	 1.678958250373440e+00	 1.123584582005119e+01
 1.278438878435082e+00	 1.790417279303735e+00	 1.022773547001037e+01
 1.127582805572378e+00	 1.889062470253590e+00	 9.027176186389939e+00
 9.707883410441444e-01	 1.974226429986318e+00	 8.303358292368554e+00
 8.098083610303667e-01	 2.045534262335264e+00	 7.724010972169934e+00
 6.463862629661183e-01	 2.102899141434096e+00	 7.015290832491942e+00
 4.822014560813671e-01	 2.146504543614040e+00	 6.091758534853358e+00
 3.188228758601652e-01	 2.176775591059471e+00	 5.292841360896139e+00
 1.576725327612726e-01	 2.194342583193083e+00	 4.927792922219125e+00
 0.000000000000000e+00	 2.200000000000000e+00	 4.959549427606897e+00
 1.608667927182382e+00	 1.608667927182381e+00	 1.147172842380490e+01
 1.470119149109883e+00	 1.736195463453530e+00	 1.107144175056955e+01
 1.322022022016228e+00	 1.851454232006696e+00	 9.857028053474007e+00
 1.166023128487413e+00	 1.953462327193672e+00	 8.914032075763298e+00
 1.003883398122739e+00	 2.041529603735614e+00	 8.444029562749865e+00
 8.374154642447366e-01	 2.115268384914740e+00	 7.845381398496462e+00
 6.684221582919875e-01	 2.174588884892009e+00	 6.994298132869577e+00
 4.986401420818791e-01	 2.219680834873581e+00	 5.985597883119723e+00
 3.296918375354480e-01	 2.250983849845581e+00	 5.289018905815190e+00
 1.630477327407512e-01	 2.269149716711028e+00	 5.092817728322807e+00
 0.000000000000000e+00	 2.275000000000000e+00	 5.202472445842643e+00
 1.661700935769163e+00	 1.661700935769163e+00	 1.137561158738106e+01
 1.518584615561878e+00	 1.793432676533216e+00	 1.096014215802168e+01
 1.365605165596456e+00	 1.912491184709376e+00	 9.655103678537234e+00
 1.204463451401365e+00	 2.017862184133566e+00	 9.127370352823791e+00
 1.036978455200128e+00	 2.108832777484793e+00	 8.796132530824497e+00
 8.650225674578425e-01	 2.185002507494149e+00	 8.025260596975670e+00
 6.904580536166188e-01	 2.246278628349887e+00	 6.936175708412071e+00
 5.150788280812806e-01	 2.292857126133109e+00	 6.120342826941776e+00
 3.405607992098625e-01	 2.325192108631687e+00	 5.726825867083646e+00
 1.684229327197294e-01	 2.343956850228973e+00	 5.687536688908440e+00
 0.000000000000000e+00	 2.350000000000001e+00	 5.809259950131397e+00
 1.714733944355311e+00	 1.714733944355311e+00	 1.154422699690516e+01
 1.567050082013035e+00	 1.850669889612441e+00	 1.106374931028948e+01
 1.409188309175636e+00	 1.973528137411732e+00	 9.988534047737865e+00
 1.242903774314080e+00	 2.082262041073246e+00	 9.774196375428097e+00
 1.070073512276139e+00	 2.176135951233839e+00	 9.437012607639920e+00
 8.926296706695038e-01	 2.254736630073483e+00	 8.377978766750005e+00
 7.124939489398354e-01	 2.317968371807728e+00	 7.456624225172821e+00
 5.315175140794132e-01	 2.366033417392621e+00	 6.921001804282270e+00
 3.514297608832849e-01	 2.399400367417789e+00	 6.725991522055018e+00
 1.737981326981355e-01	 2.418763983746917e+00	 6.741296308692066e+00
 0.000000000000000e+00	 2.425000000000001e+00	 6.793969154911601e+00
 1.767766952940745e+00	 1.767766952940745e+00	 1.211261493900539e+01
 1.615515548463250e+00	 1.907907102691145e+00	 1.169148789054073e+01
 1.452771452753637e+00	 2.034565090113726e+00	 1.094646993839952e+01
 1.281344097225402e+00	 2.146661898012684e+00	 1.096085474504537e+01
 1.103168569350599e+00	 2.243439124982734e+00	 1.047700872465444e+01
 9.202367738795398e-01	 2.324470752652729e+00	 9.454231610816137e+00
 7.345298442614605e-01	 2.389658115265525e+00	 8.746603403543304e+00
 5.479562000761176e-01	 2.439209708652114e+00	 8.401153733788732e+00
 3.622987225555909e-01	 2.473608626203884e+00	 8.294326922851059e+00
 1.791733326758982e-01	 2.493571117264860e+00	 8.254924318422757e+00
 0.000000000000000e+00	 2.500000000000000e+00	 8.158649255338078e+00
