x	y	stress_xx
 1.0000000000e+00	 0.0000000000e+00	 5.3238810440e-01
 9.9979421360e-01	 2.0285918027e-02	 5.4957294319e-01
 9.9917015173e-01	 4.0730438957e-02	 5.8818402296e-01
 9.9811797387e-01	 6.1322427094e-02	 6.4826596000e-01
 9.9662815290e-01	 8.2050164801e-02	 7.2984148999e-01
 9.9469151154e-01	 1.0290135811e-01	 8.3289331052e-01
 9.9229925915e-01	 1.2386314479e-01	 9.5734392408e-01
 9.8944302882e-01	 1.4492210489e-01	 1.1030341442e+00
 9.8611491462e-01	 1.6606427394e-01	 1.2697010707e+00
 9.8230750859e-01	 1.8727515887e-01	 1.4569564732e+00
 9.7801393759e-01	 2.0853975653e-01	 1.6642666359e+00
 1.0285715247e+00	 0.0000000000e+00	 8.9987794538e-01
 1.0283598586e+00	 2.0865517634e-02	 9.1364011984e-01
 1.0277179664e+00	 4.1894169698e-02	 9.4436643692e-01
 1.0266357262e+00	 6.3074502332e-02	 9.9213062098e-01
 1.0251033388e+00	 8.4394463108e-02	 1.0569901491e+00
 1.0231113646e+00	 1.0584140681e-01	 1.1389629811e+00
 1.0206507619e+00	 1.2740210369e-01	 1.2380016883e+00
 1.0177129247e+00	 1.4906275038e-01	 1.3539657758e+00
 1.0142897212e+00	 1.7080898344e-01	 1.4865931679e+00
 1.0103735318e+00	 1.9262589569e-01	 1.6354719892e+00
 1.0059572869e+00	 2.1449805533e-01	 1.8000139124e+00
 1.0571432260e+00	 0.0000000000e+00	 1.3172781429e+00
 1.0569256803e+00	 2.1445120825e-02	 1.3270634564e+00
 1.0562659575e+00	 4.3057907636e-02	 1.3496095181e+00
 1.0551536548e+00	 6.4826588404e-02	 1.3849978011e+00
 1.0535787007e+00	 8.6738775911e-02	 1.4333018772e+00
 1.0515313934e+00	 1.0878147368e-01	 1.4945584516e+00
 1.0490024400e+00	 1.3094108447e-01	 1.5687350904e+00
 1.0459829954e+00	 1.5320342148e-01	 1.6556955879e+00
 1.0424647021e+00	 1.7555372228e-01	 1.7551641256e+00
 1.0384397286e+00	 1.9797666560e-01	 1.8666895741e+00
 1.0339008091e+00	 2.2045639097e-01	 1.9896114601e+00
 1.0857150807e+00	 0.0000000000e+00	 1.7655165171e+00
 1.0854916553e+00	 2.2024727127e-02	 1.7705896907e+00
 1.0848141019e+00	 4.4221651818e-02	 1.7844562521e+00
 1.0836717365e+00	 6.6578683879e-02	 1.8071947834e+00
 1.0820542155e+00	 8.9083101296e-02	 1.8388875883e+00
 1.0799515747e+00	 1.1172155633e-01	 1.8795853041e+00
 1.0773542702e+00	 1.3448008424e-01	 1.9292673819e+00
 1.0742532179e+00	 1.5734411480e-01	 1.9877995484e+00
 1.0706398341e+00	 1.8029848658e-01	 2.0548896119e+00
 1.0665060760e+00	 2.0332746422e-01	 2.1300432104e+00
 1.0618444812e+00	 2.2641475859e-01	 2.2125213053e+00
 1.1142870654e+00	 0.0000000000e+00	 2.2271348978e+00
 1.1140577603e+00	 2.2604336066e-02	 2.2266598248e+00
 1.1133623762e+00	 4.5385401296e-02	 2.2312712798e+00
 1.1121899480e+00	 6.8330787327e-02	 2.2409927398e+00
 1.1105298598e+00	 9.1427437348e-02	 2.2558540908e+00
 1.1083718854e+00	 1.1466165236e-01	 2.2759684449e+00
 1.1057062295e+00	 1.3801910012e-01	 2.3013619705e+00
 1.1025235689e+00	 1.6148482696e-01	 2.3319122479e+00
 1.0988150943e+00	 1.8504327247e-01	 2.3673202522e+00
 1.0945725510e+00	 2.0867828719e-01	 2.4070562595e+00
 1.0897882804e+00	 2.3237315332e-01	 2.4503075585e+00
 1.1428591567e+00	 0.0000000000e+00	 2.6619386593e+00
 1.1426239719e+00	 2.3183947169e-02	 2.6562212032e+00
 1.1419107571e+00	 4.6549155118e-02	 2.6528303088e+00
 1.1407082659e+00	 7.0082897315e-02	 2.6516656124e+00
 1.1390056104e+00	 9.3771782152e-02	 2.6526109906e+00
 1.1367923021e+00	 1.1760175936e-01	 2.6555037536e+00
 1.1340582945e+00	 1.4155812921e-01	 2.6601022132e+00
 1.1307940256e+00	 1.6562555458e-01	 2.6660521464e+00
 1.1269904598e+00	 1.8978807608e-01	 2.6728528002e+00
 1.1226391309e+00	 2.1402913014e-01	 2.6798232164e+00
 1.1177321840e+00	 2.3833157029e-01	 2.6860697841e+00
 1.1714313314e+00	 0.0000000000e+00	 3.0406643706e+00
 1.1711902668e+00	 2.3763559962e-02	 3.0304142723e+00
 1.1704592212e+00	 4.7712912335e-02	 3.0202787018e+00
 1.1692266671e+00	 7.1835012414e-02	 3.0100084044e+00
 1.1674814441e+00	 9.6116133794e-02	 2.9993229789e+00
 1.1652128017e+00	 1.2054187494e-01	 2.9878776173e+00
 1.1624104423e+00	 1.4509716862e-01	 2.9752279209e+00
 1.1590645646e+00	 1.6976629428e-01	 2.9607933276e+00
 1.1551659074e+00	 1.9453289353e-01	 2.9438198233e+00
 1.1507057926e+00	 2.1937998870e-01	 2.9233427636e+00
 1.1456761690e+00	 2.4429000465e-01	 2.8981507859e+00
 1.2000035661e+00	 0.0000000000e+00	 3.3519559646e+00
 1.1997566217e+00	 2.4343173972e-02	 3.3379823219e+00
 1.1990077452e+00	 4.8876671996e-02	 3.3224581142e+00
 1.1977451280e+00	 7.3587131193e-02	 3.3049633125e+00
 1.1959573376e+00	 9.8460490359e-02	 3.2850318689e+00
 1.1936333610e+00	 1.2348199669e-01	 3.2621161549e+00
 1.1907626496e+00	 1.4863621546e-01	 3.2355491136e+00
 1.1873351630e+00	 1.7390704267e-01	 3.2045046605e+00
 1.1833414141e+00	 1.9927772094e-01	 3.1679570290e+00
 1.1787725133e+00	 2.2473085849e-01	 3.1246399289e+00
 1.1736202128e+00	 2.5024845152e-01	 3.0730065636e+00
 1.2285758375e+00	 0.0000000000e+00	 3.5855778712e+00
 1.2283230133e+00	 2.4922788727e-02	 3.5688168885e+00
 1.2275563060e+00	 5.0040433150e-02	 3.5493819364e+00
 1.2262636256e+00	 7.5339252220e-02	 3.5266630900e+00
 1.2244332676e+00	 1.0080484993e-01	 3.4999905688e+00
 1.2220539568e+00	 1.2642212222e-01	 3.4685970468e+00
 1.2191148933e+00	 1.5217526684e-01	 3.4315772347e+00
 1.2156057978e+00	 1.7804779638e-01	 3.3878452602e+00
 1.2115169571e+00	 2.0402255444e-01	 3.3360905552e+00
 1.2068392700e+00	 2.3008173515e-01	 3.2747331520e+00
 1.2015642924e+00	 2.5620690603e-01	 3.2018794997e+00
 1.2571481222e+00	 0.0000000000e+00	 3.7322877232e+00
 1.2568894182e+00	 2.5502403751e-02	 3.7138286776e+00
 1.2561048800e+00	 5.1204194847e-02	 3.6921042142e+00
 1.2547821365e+00	 7.7091374064e-02	 3.6662977708e+00
 1.2529092109e+00	 1.0314921060e-01	 3.6355207093e+00
 1.2504745659e+00	 1.2936224912e-01	 3.5987726956e+00
 1.2474671503e+00	 1.5571431988e-01	 3.5548988191e+00
 1.2438764457e+00	 1.8218855202e-01	 3.5025439578e+00
 1.2396925131e+00	 2.0876739015e-01	 3.4401050958e+00
 1.2349060398e+00	 2.3543261431e-01	 3.3656825258e+00
 1.2295083851e+00	 2.6216536333e-01	 3.2770311042e+00
 1.2857203969e+00	 0.0000000000e+00	 3.7837260297e+00
 1.2854558131e+00	 2.6082018573e-02	 3.7648356719e+00
 1.2846534440e+00	 5.2367956136e-02	 3.7426059644e+00
 1.2833006375e+00	 7.8843495295e-02	 3.7159989853e+00
 1.2813851443e+00	 1.0549357045e-01	 3.6838947745e+00
 1.2788951650e+00	 1.3230237499e-01	 3.6450500128e+00
 1.2758193973e+00	 1.5925337168e-01	 3.5980528052e+00
 1.2721470837e+00	 1.8632930621e-01	 3.5412740373e+00
 1.2678680593e+00	 2.1351222420e-01	 3.4728160000e+00
 1.2629727998e+00	 2.4078349159e-01	 3.3904592322e+00
 1.2574524679e+00	 2.6812381854e-01	 3.2916088016e+00
 9.7801393759e-01	 2.0853975653e-01	 1.6642666359e+00
 9.7322825186e-01	 2.2984108677e-01	 1.8914049846e+00
 9.6794447360e-01	 2.5116470275e-01	 2.1360910921e+00
 9.6215754903e-01	 2.7249423836e-01	 2.3944119252e+00
 9.5586309813e-01	 2.9381292096e-01	 2.6622942329e+00
 9.4905744632e-01	 3.1510360378e-01	 2.9355328868e+00
 9.4173765446e-01	 3.3634880088e-01	 3.2098283653e+00
 9.3390154697e-01	 3.5753072471e-01	 3.4808340521e+00
 9.2554773768e-01	 3.7863132607e-01	 3.7448767309e+00
 9.1667565331e-01	 3.9963233635e-01	 4.0044349754e+00
 9.0728555439e-01	 4.2051531196e-01	 4.2578884233e+00
 1.0059572869e+00	 2.1449805533e-01	 1.8000139124e+00
 1.0010348669e+00	 2.3640799705e-01	 1.9804426626e+00
 9.9560012300e-01	 2.5834086125e-01	 2.1750959571e+00
 9.8964785718e-01	 2.8027981421e-01	 2.3802150648e+00
 9.8317356422e-01	 3.0220760408e-01	 2.5918436878e+00
 9.7617346456e-01	 3.2410659417e-01	 2.8058529093e+00
 9.6864453509e-01	 3.4595879894e-01	 3.0179767833e+00
 9.6058453806e-01	 3.6774592264e-01	 3.2238594613e+00
 9.5199204770e-01	 3.8944940034e-01	 3.4226886060e+00
 9.4286647436e-01	 4.1105044151e-01	 3.6164599300e+00
 9.3320808600e-01	 4.3253007557e-01	 3.8021447153e+00
 1.0339008091e+00	 2.2045639097e-01	 1.9896114601e+00
 1.0288416538e+00	 2.4297494794e-01	 2.1246528054e+00
 1.0232559434e+00	 2.6551706413e-01	 2.2708659662e+00
 1.0171383353e+00	 2.8806543821e-01	 2.4246943685e+00
 1.0104841992e+00	 3.1060233911e-01	 2.5823406834e+00
 1.0032896505e+00	 3.3310964023e-01	 2.7397872752e+00
 9.9555158209e-01	 3.5556885643e-01	 2.8928289773e+00
 9.8726769414e-01	 3.7796118372e-01	 3.0376483791e+00
 9.7843652124e-01	 4.0026754151e-01	 3.1769530694e+00
 9.6905745735e-01	 4.2246861727e-01	 3.3096633318e+00
 9.5913077789e-01	 4.4454491348e-01	 3.4327847471e+00
 1.0618444812e+00	 2.2641475859e-01	 2.2125213053e+00
 1.0566485900e+00	 2.4954193407e-01	 2.3035913181e+00
 1.0509119123e+00	 2.7269330552e-01	 2.4031078212e+00
 1.0446289610e+00	 2.9585110399e-01	 2.5077664342e+00
 1.0377949807e+00	 3.1899711919e-01	 2.6139717033e+00
 1.0304059819e+00	 3.4211273460e-01	 2.7178518013e+00
 1.0224587735e+00	 3.6517896549e-01	 2.8152874538e+00
 1.0139509934e+00	 3.8817649964e-01	 2.9047994663e+00
 1.0048811367e+00	 4.1108574074e-01	 2.9892131670e+00
 9.9524858091e-01	 4.3388685431e-01	 3.0658922523e+00
 9.8505360891e-01	 4.5655981587e-01	 3.1319650143e+00
 1.0897882804e+00	 2.3237315332e-01	 2.4503075585e+00
 1.0844556527e+00	 2.5610895008e-01	 2.4989288022e+00
 1.0785680069e+00	 2.7986957956e-01	 2.5536574351e+00
 1.0721197117e+00	 3.0363680519e-01	 2.6114941677e+00
 1.0651058865e+00	 3.2739193747e-01	 2.6690898232e+00
 1.0575224367e+00	 3.5111586995e-01	 2.7227528862e+00
 1.0493660873e+00	 3.7478911828e-01	 2.7686278106e+00
 1.0406344141e+00	 3.9839186203e-01	 2.8086894845e+00
 1.0313258725e+00	 4.2190398919e-01	 2.8430585574e+00
 1.0214398236e+00	 4.4530514331e-01	 2.8690235175e+00
 1.0109765579e+00	 4.6857477292e-01	 2.8838546935e+00
 1.1177321840e+00	 2.3833157029e-01	 2.6860697841e+00
 1.1122628192e+00	 2.6267599061e-01	 2.6941938183e+00
 1.1062242048e+00	 2.8704588039e-01	 2.7062313773e+00
 1.0996105651e+00	 3.1142253547e-01	 2.7198404906e+00
 1.0924168943e+00	 3.3578678709e-01	 2.7319711639e+00
 1.0846389928e+00	 3.6011903890e-01	 2.7391471724e+00
 1.0762735016e+00	 3.8439930695e-01	 2.7389437814e+00
 1.0673179344e+00	 4.0860726256e-01	 2.7344339078e+00
 1.0577707070e+00	 4.3272227803e-01	 2.7238677651e+00
 1.0476311641e+00	 4.5672347493e-01	 2.7047062417e+00
 1.0368996036e+00	 4.8058977483e-01	 2.6743784588e+00
 1.1456761690e+00	 2.4429000465e-01	 2.8981507859e+00
 1.1400700668e+00	 2.6924305029e-01	 2.8712489663e+00
 1.1338804834e+00	 2.9422220216e-01	 2.8454085119e+00
 1.1271014987e+00	 3.1920828845e-01	 2.8186788697e+00
 1.1197279817e+00	 3.4418166119e-01	 2.7888485012e+00
 1.1117556279e+00	 3.6912223411e-01	 2.7534395237e+00
 1.1031809944e+00	 3.9400952364e-01	 2.7129253966e+00
 1.0940015326e+00	 4.1882269288e-01	 2.6687303937e+00
 1.0842156186e+00	 4.4354059842e-01	 2.6185855762e+00
 1.0738225810e+00	 4.6814183986e-01	 2.5601392094e+00
 1.0628227250e+00	 4.9260481178e-01	 2.4909938499e+00
 1.1736202128e+00	 2.5024845152e-01	 3.0730065636e+00
 1.1678773729e+00	 2.7581012377e-01	 3.0164586040e+00
 1.1615368201e+00	 3.0139853899e-01	 2.9585864710e+00
 1.1545924900e+00	 3.2699405778e-01	 2.8976902763e+00
 1.1470391265e+00	 3.5257655293e-01	 2.8317676451e+00
 1.1388723200e+00	 3.7812544823e-01	 2.7588081904e+00
 1.1300885437e+00	 4.0361976052e-01	 2.6815278236e+00
 1.1206851868e+00	 4.2903814466e-01	 2.6006483026e+00
 1.1106605858e+00	 4.5435894153e-01	 2.5155297202e+00
 1.1000140529e+00	 4.7956022876e-01	 2.4238772981e+00
 1.0887459008e+00	 5.0461987397e-01	 2.3224974366e+00
 1.2015642924e+00	 2.5620690603e-01	 3.2018794997e+00
 1.1956847146e+00	 2.8237720567e-01	 3.1213188650e+00
 1.1891931923e+00	 3.0857488504e-01	 3.0374840903e+00
 1.1820835166e+00	 3.3477983710e-01	 2.9489610469e+00
 1.1743503063e+00	 3.6097145543e-01	 2.8539891931e+00
 1.1659890469e+00	 3.8712867391e-01	 2.7515771321e+00
 1.1569961275e+00	 4.1323000973e-01	 2.6441811200e+00
 1.1473688752e+00	 4.3925360954e-01	 2.5315530435e+00
 1.1371055869e+00	 4.6517729852e-01	 2.4132879034e+00
 1.1262055585e+00	 4.9097863232e-01	 2.2891509308e+00
 1.1146691098e+00	 5.1663495157e-01	 2.1590718761e+00
 1.2295083851e+00	 2.6216536333e-01	 3.2770311042e+00
 1.2234920692e+00	 2.8894429064e-01	 3.1783178370e+00
 1.2168495773e+00	 3.1575123443e-01	 3.0748384888e+00
 1.2095745560e+00	 3.4256562006e-01	 2.9655039514e+00
 1.2016614988e+00	 3.6936636186e-01	 2.8488324735e+00
 1.1931057864e+00	 3.9613190378e-01	 2.7248019879e+00
 1.1839037239e+00	 4.2284026342e-01	 2.5945081018e+00
 1.1740525760e+00	 4.4946907919e-01	 2.4575823535e+00
 1.1635506004e+00	 4.7599566056e-01	 2.3138584144e+00
 1.1523970762e+00	 5.0239704120e-01	 2.1633776500e+00
 1.1405923310e+00	 5.2865003478e-01	 2.0063810413e+00
 1.2574524679e+00	 2.6812381854e-01	 3.2916088016e+00
 1.2512994142e+00	 2.9551137331e-01	 3.1807996755e+00
 1.2445059527e+00	 3.2292758131e-01	 3.0642095415e+00
 1.2370655857e+00	 3.5035140029e-01	 2.9411184319e+00
 1.2289726818e+00	 3.7776126534e-01	 2.8104303905e+00
 1.2202225165e+00	 4.0513513051e-01	 2.6721455173e+00
 1.2108113108e+00	 4.3245051375e-01	 2.5262391925e+00
 1.2007362676e+00	 4.5968454527e-01	 2.3725381836e+00
 1.1899956046e+00	 4.8681401882e-01	 2.2111179897e+00
 1.1785885847e+00	 5.1381544609e-01	 2.0423053705e+00
 1.1665155430e+00	 5.4066511378e-01	 1.8666680277e+00
 9.0728555439e-01	 4.2051531196e-01	 4.2578884233e+00
 8.9737784263e-01	 4.4126312680e-01	 4.5036947742e+00
 8.8695514163e-01	 4.6185565311e-01	 4.7389752777e+00
 8.7602031568e-01	 4.8227419740e-01	 4.9587498985e+00
 8.6457711653e-01	 5.0250008602e-01	 5.1582132296e+00
 8.5263018827e-01	 5.2251471715e-01	 5.3327932777e+00
 8.4018506873e-01	 5.4229961341e-01	 5.4782110170e+00
 8.2724818708e-01	 5.6183647501e-01	 5.5905400560e+00
 8.1382685776e-01	 5.8110723302e-01	 5.6662657178e+00
 7.9992927055e-01	 6.0009410240e-01	 5.7023427943e+00
 7.8556447689e-01	 6.1877963469e-01	 5.6962512056e+00
 9.3320808600e-01	 4.3253007557e-01	 3.8021447153e+00
 9.2301729580e-01	 4.5387068712e-01	 3.9785327126e+00
 9.1229680234e-01	 4.7505157331e-01	 4.1440202121e+00
 9.0104955175e-01	 4.9605350654e-01	 4.2950948634e+00
 8.8927940295e-01	 5.1685727964e-01	 4.4284147949e+00
 8.7699113274e-01	 5.3744375929e-01	 4.5408580177e+00
 8.6419043715e-01	 5.5779394021e-01	 4.6295725928e+00
 8.5088392907e-01	 5.7788899974e-01	 4.6920270028e+00
 8.3707913191e-01	 5.9771035268e-01	 4.7260601229e+00
 8.2278446945e-01	 6.1723970587e-01	 4.7299301421e+00
 8.0800925173e-01	 6.3645911231e-01	 4.7023617514e+00
 9.5913077789e-01	 4.4454491348e-01	 3.4327847471e+00
 9.4865690752e-01	 4.6647832539e-01	 3.5454345189e+00
 9.3763861975e-01	 4.8824757510e-01	 3.6470952622e+00
 9.2607894258e-01	 5.0983290088e-01	 3.7354692451e+00
 9.1398184212e-01	 5.3121456203e-01	 3.8084212701e+00
 9.0135222784e-01	 5.5237289375e-01	 3.8640202567e+00
 8.8819595401e-01	 5.7328836281e-01	 3.9005816575e+00
 8.7451981721e-01	 5.9394162371e-01	 3.9167102347e+00
 8.6033154984e-01	 6.1431357500e-01	 3.9113426779e+00
 8.4563980967e-01	 6.3438541535e-01	 3.8837894928e+00
 8.3045416536e-01	 6.5413869924e-01	 3.8337755510e+00
 9.8505360891e-01	 4.5655981587e-01	 3.1319650143e+00
 9.7429665683e-01	 4.7908603133e-01	 3.1868590146e+00
 9.6298057317e-01	 5.0144364770e-01	 3.2309561411e+00
 9.5110846774e-01	 5.2361236917e-01	 3.2629379940e+00
 9.3868441385e-01	 5.4557192147e-01	 3.2816370226e+00
 9.2571345368e-01	 5.6730210832e-01	 3.2860717413e+00
 9.1220159971e-01	 5.8878286856e-01	 3.2754829207e+00
 8.9815583220e-01	 6.0999433384e-01	 3.2493703636e+00
 8.8358409256e-01	 6.3091688642e-01	 3.2075298212e+00
 8.6849527255e-01	 6.5153121685e-01	 3.1500895508e+00
 8.5289919944e-01	 6.7181838105e-01	 3.0775459660e+00
 1.0109765579e+00	 4.6857477292e-01	 2.8838546935e+00
 9.9993652281e-01	 4.9169379463e-01	 2.8872618391e+00
 9.8832264189e-01	 5.1463978035e-01	 2.8803406967e+00
 9.7613810679e-01	 5.3739190015e-01	 2.8625330040e+00
 9.6338709799e-01	 5.5992934624e-01	 2.8334159576e+00
 9.5007479036e-01	 5.8223139082e-01	 2.7927324129e+00
 9.3620735462e-01	 6.0427744482e-01	 2.7404222740e+00
 9.2179195474e-01	 6.2604711700e-01	 2.6766547606e+00
 9.0683674108e-01	 6.4752027339e-01	 2.6018611754e+00
 8.9135083942e-01	 6.6867709636e-01	 2.5167677384e+00
 8.7534433565e-01	 6.8949814330e-01	 2.4224279884e+00
 1.0368996036e+00	 4.8058977483e-01	 2.6743784588e+00
 1.0255764845e+00	 5.0430160500e-01	 2.6328384103e+00
 1.0136648052e+00	 5.2783596227e-01	 2.5817119250e+00
 1.0011678393e+00	 5.5117148258e-01	 2.5209963392e+00
 9.8808987434e-01	 5.7428682460e-01	 2.4508053721e+00
 9.7443621799e-01	 5.9716072906e-01	 2.3713955579e+00
 9.6021319916e-01	 6.1977207891e-01	 2.2831941586e+00
 9.4542816551e-01	 6.4209996010e-01	 2.1868283132e+00
 9.3008947641e-01	 6.6412372234e-01	 2.0831551147e+00
 9.1420649162e-01	 6.8582303987e-01	 1.9732922367e+00
 8.9778955565e-01	 7.0717797156e-01	 1.8586486551e+00
 1.0628227250e+00	 4.9260481178e-01	 2.4909938499e+00
 1.0512165210e+00	 5.1690945215e-01	 2.4113011660e+00
 1.0390070425e+00	 5.4103218267e-01	 2.3230350094e+00
 1.0261976448e+00	 5.6495110519e-01	 2.2265572155e+00
 1.0127927228e+00	 5.8864434484e-01	 2.1223232410e+00
 9.9879771668e-01	 6.1209011083e-01	 2.0109059815e+00
 9.8421911372e-01	 6.3526675820e-01	 1.8930214284e+00
 9.6906444523e-01	 6.5815285001e-01	 1.7695559968e+00
 9.5334227955e-01	 6.8072721972e-01	 1.6415952762e+00
 9.3706221048e-01	 7.0296903340e-01	 1.5104538780e+00
 9.2023484111e-01	 7.2485785138e-01	 1.3777059645e+00
 1.0887459008e+00	 5.0461987397e-01	 2.3224974366e+00
 1.0768566113e+00	 5.2951732576e-01	 2.2116853720e+00
 1.0643493329e+00	 5.5422843078e-01	 2.0935827155e+00
 1.0512275028e+00	 5.7873075675e-01	 1.9687371105e+00
 1.0374956230e+00	 6.0300189523e-01	 1.8377633652e+00
 1.0231592665e+00	 6.2701952396e-01	 1.7013657039e+00
 1.0082250787e+00	 6.5076147003e-01	 1.5603622962e+00
 9.9270077457e-01	 6.7420577363e-01	 1.4157119601e+00
 9.7659513153e-01	 6.9733075196e-01	 1.2685428591e+00
 9.5991797733e-01	 7.2011506293e-01	 1.1201829137e+00
 9.4268017371e-01	 7.4253776832e-01	 9.7221121744e-01
 1.1146691098e+00	 5.1663495157e-01	 2.1590718761e+00
 1.1024967345e+00	 5.4212521556e-01	 2.0241788498e+00
 1.0896916559e+00	 5.6742469583e-01	 1.8837645257e+00
 1.0762573930e+00	 5.9251042598e-01	 1.7381784268e+00
 1.0621985550e+00	 6.1735946404e-01	 1.5880238457e+00
 1.0475208476e+00	 6.4194895624e-01	 1.4339626996e+00
 1.0322310745e+00	 6.6625620174e-01	 1.2767399547e+00
 1.0163371343e+00	 6.9025871785e-01	 1.1172108093e+00
 9.9984801335e-01	 7.1393430550e-01	 9.5637051527e-01
 9.8277377351e-01	 7.3726111446e-01	 7.9538661184e-01
 9.6512553511e-01	 7.6021770795e-01	 6.3731548768e-01
 1.1405923310e+00	 5.2865003478e-01	 2.0063810413e+00
 1.1281368697e+00	 5.5473311124e-01	 1.8455496311e+00
 1.1150339907e+00	 5.8062096703e-01	 1.6852949873e+00
 1.1012872948e+00	 6.0629010164e-01	 1.5264929595e+00
 1.0869014985e+00	 6.3171703955e-01	 1.3649551762e+00
 1.0718824401e+00	 6.5687839549e-01	 1.2008190142e+00
 1.0562370814e+00	 6.8175094068e-01	 1.0345912664e+00
 1.0399735050e+00	 7.0631166956e-01	 8.6685756107e-01
 1.0231009060e+00	 7.3053786680e-01	 6.9831439737e-01
 1.0056295804e+00	 7.5440717399e-01	 5.3017914499e-01
 9.8757090699e-01	 7.7789765583e-01	 3.6646480276e-01
 1.1665155430e+00	 5.4066511378e-01	 1.8666680277e+00
 1.1537769959e+00	 5.6734100251e-01	 1.6869939292e+00
 1.1403763167e+00	 5.9381723362e-01	 1.5075477161e+00
 1.1263171879e+00	 6.2006977248e-01	 1.3313001703e+00
 1.1116044334e+00	 6.4607461004e-01	 1.1612307348e+00
 1.0962440240e+00	 6.7180782952e-01	 9.9485524756e-01
 1.0802430800e+00	 6.9724567419e-01	 8.2713155651e-01
 1.0636098674e+00	 7.2236461565e-01	 6.5821336158e-01
 1.0463537905e+00	 7.4714142228e-01	 4.8832939351e-01
 1.0284853792e+00	 7.7155322752e-01	 3.1842734783e-01
 1.0100162710e+00	 7.9557759752e-01	 1.5197627061e-01
 7.8556447689e-01	 6.1877963469e-01	 5.6962512056e+00
 7.7074237018e-01	 6.3714677154e-01	 5.6431627713e+00
 7.5547365803e-01	 6.5517890056e-01	 5.5384075267e+00
 7.3976984406e-01	 6.7285989945e-01	 5.3804764346e+00
 7.2364320173e-01	 6.9017418182e-01	 5.1739439343e+00
 7.0710674268e-01	 7.0710674268e-01	 4.9221992151e+00
 6.9017418182e-01	 7.2364320173e-01	 4.6242415293e+00
 6.7285989945e-01	 7.3976984406e-01	 4.2793894436e+00
 6.5517890056e-01	 7.5547365803e-01	 3.8919507195e+00
 6.3714677154e-01	 7.7074237018e-01	 3.4678202759e+00
 6.1877963469e-01	 7.8556447689e-01	 3.0074123321e+00
 8.0800925173e-01	 6.3645911231e-01	 4.7023617514e+00
 7.9276365483e-01	 6.5535102626e-01	 4.6380084422e+00
 7.7705869230e-01	 6.7389836070e-01	 4.5308100665e+00
 7.6090619643e-01	 6.9208453269e-01	 4.3790971595e+00
 7.4431879134e-01	 7.0989351050e-01	 4.1816348732e+00
 7.2730986044e-01	 7.2730986044e-01	 3.9408270036e+00
 7.0989351050e-01	 7.4431879134e-01	 3.6628876856e+00
 6.9208453269e-01	 7.6090619643e-01	 3.3543101513e+00
 6.7389836070e-01	 7.7705869230e-01	 3.0179487567e+00
 6.5535102626e-01	 7.9276365483e-01	 2.6535020813e+00
 6.3645911231e-01	 8.0800925173e-01	 2.2608384676e+00
 8.3045416536e-01	 6.5413869924e-01	 3.8337755510e+00
 8.1478507565e-01	 6.7355539354e-01	 3.7554644262e+00
 7.9864386004e-01	 6.9261793658e-01	 3.6416320967e+00
 7.8204267949e-01	 7.1130928479e-01	 3.4905319105e+00
 7.6499450879e-01	 7.2961296111e-01	 3.3008234970e+00
 7.4751310312e-01	 7.4751310312e-01	 3.0724190908e+00
 7.2961296111e-01	 7.6499450879e-01	 2.8151293656e+00
 7.1130928479e-01	 7.8204267949e-01	 2.5384458135e+00
 6.9261793658e-01	 7.9864386004e-01	 2.2424291178e+00
 6.7355539354e-01	 8.1478507565e-01	 1.9264193857e+00
 6.5413869924e-01	 8.3045416536e-01	 1.5898615797e+00
 8.5289919944e-01	 6.7181838105e-01	 3.0775459660e+00
 8.3680661466e-01	 6.9175985851e-01	 2.9835946352e+00
 8.2022914362e-01	 7.1133761293e-01	 2.8600519154e+00
 8.0317927598e-01	 7.3053414007e-01	 2.7051508950e+00
 7.8567033720e-01	 7.4933251754e-01	 2.5186490171e+00
 7.6771645422e-01	 7.6771645422e-01	 2.3080341362e+00
 7.4933251754e-01	 7.8567033720e-01	 2.0754267290e+00
 7.3053414007e-01	 8.0317927598e-01	 1.8230582824e+00
 7.1133761293e-01	 8.2022914362e-01	 1.5582210600e+00
 6.9175985851e-01	 8.3680661466e-01	 1.2810605047e+00
 6.7181838105e-01	 8.5289919944e-01	 9.9069080911e-01
 8.7534433565e-01	 6.8949814330e-01	 2.4224279884e+00
 8.5882825386e-01	 7.0996440632e-01	 2.3120854236e+00
 8.4181452542e-01	 7.3005737445e-01	 2.1767810383e+00
 8.2431596864e-01	 7.4975908282e-01	 2.0158504164e+00
 8.0634625968e-01	 7.6905216370e-01	 1.8360482457e+00
 7.8791989725e-01	 7.8791989725e-01	 1.6393574474e+00
 7.6905216370e-01	 8.0634625968e-01	 1.4266120948e+00
 7.4975908282e-01	 8.2431596864e-01	 1.1988404708e+00
 7.3005737445e-01	 8.4181452542e-01	 9.5845078367e-01
 7.0996440632e-01	 8.5882825386e-01	 7.1206743420e-01
 6.8949814330e-01	 8.7534433565e-01	 4.5953949067e-01
 8.9778955565e-01	 7.0717797156e-01	 1.8586486551e+00
 8.8084997527e-01	 7.2816902208e-01	 1.7320262249e+00
 8.6339998779e-01	 7.4877720585e-01	 1.5845576645e+00
 8.4545274020e-01	 7.6898409734e-01	 1.4219179085e+00
 8.2702225935e-01	 7.8877188348e-01	 1.2463316563e+00
 8.0812341570e-01	 8.0812341570e-01	 1.0587278009e+00
 7.8877188348e-01	 8.2702225935e-01	 8.6023587588e-01
 7.6898409734e-01	 8.4545274020e-01	 6.5214770097e-01
 7.4877720585e-01	 8.6339998779e-01	 4.3587764021e-01
 7.2816902208e-01	 8.8084997527e-01	 2.1420962387e-01
 7.0717797156e-01	 8.9778955565e-01	-7.3802691902e-03
 9.2023484111e-01	 7.2485785138e-01	 1.3777059645e+00
 9.0287176092e-01	 7.4637369095e-01	 1.2359846909e+00
 8.8498551312e-01	 7.6749709185e-01	 1.0811990431e+00
 8.6658957342e-01	 7.8820916793e-01	 9.1602412554e-01
 8.4769831933e-01	 8.0849166077e-01	 7.4156566646e-01
 8.2832699308e-01	 8.2832699308e-01	 5.5915855946e-01
 8.0849166077e-01	 8.4769831933e-01	 3.7032145101e-01
 7.8820916793e-01	 8.6658957342e-01	 1.7670810396e-01
 7.6749709185e-01	 8.8498551312e-01	-1.9942495015e-02
 7.4637369095e-01	 9.0287176092e-01	-2.1785528471e-01
 7.2485785138e-01	 9.2023484111e-01	-4.1385830157e-01
 9.4268017371e-01	 7.4253776832e-01	 9.7221121744e-01
 9.2489359280e-01	 7.6457839803e-01	 8.2043390234e-01
 9.0657108378e-01	 7.8621701716e-01	 6.5930111138e-01
 8.8772645102e-01	 8.0743427889e-01	 4.9012561041e-01
 8.6837442272e-01	 8.2821147947e-01	 3.1450231032e-01
 8.4853061288e-01	 8.4853061288e-01	 1.3425672060e-01
 8.2821147947e-01	 8.6837442272e-01	-4.8612320138e-02
 8.0743427889e-01	 8.8772645102e-01	-2.3199342457e-01
 7.8621701716e-01	 9.0657108378e-01	-4.1372461355e-01
 7.6457839803e-01	 9.2489359280e-01	-5.9165408048e-01
 7.4253776832e-01	 9.4268017371e-01	-7.6369744725e-01
 9.6512553511e-01	 7.6021770795e-01	 6.3731548768e-01
 9.4691545295e-01	 7.8278312848e-01	 4.7827744410e-01
 9.2815668214e-01	 8.0493696649e-01	 3.1084263917e-01
 9.0886335575e-01	 8.2665941452e-01	 1.3686481479e-01
 8.8905055264e-01	 8.4793132348e-01	-4.1497419972e-02
 8.6873425861e-01	 8.6873425861e-01	-2.2184508086e-01
 8.4793132348e-01	 8.8905055264e-01	-4.0160981348e-01
 8.2665941452e-01	 9.0886335575e-01	-5.7812880006e-01
 8.0493696649e-01	 9.2815668214e-01	-7.4872081608e-01
 7.8278312848e-01	 9.4691545295e-01	-9.1076064567e-01
 7.6021770795e-01	 9.6512553511e-01	-1.0617491279e+00
 9.8757090699e-01	 7.7789765583e-01	 3.6646480276e-01
 9.6893732337e-01	 8.0098786743e-01	 2.0162204080e-01
 9.4974229057e-01	 8.2365692456e-01	 2.8480873938e-02
 9.3000027033e-01	 8.4588455912e-01	-1.5050100481e-01
 9.0972669221e-01	 8.6765117668e-01	-3.3252795645e-01
 8.8893791377e-01	 8.8893791377e-01	-5.1454567618e-01
 8.6765117668e-01	 9.0972669221e-01	-6.9332793892e-01
 8.4588455912e-01	 9.3000027033e-01	-8.6556774767e-01
 8.2365692456e-01	 9.4974229057e-01	-1.0279696603e+00
 8.0098786743e-01	 9.6893732337e-01	-1.1773400252e+00
 7.7789765583e-01	 9.8757090699e-01	-1.3106719298e+00
 1.0100162710e+00	 7.9557759752e-01	 1.5197627061e-01
 9.9095918608e-01	 8.1919260000e-01	-1.6760104101e-02
 9.7132789145e-01	 8.4237687608e-01	-1.9451325754e-01
 9.5113717752e-01	 8.6510969699e-01	-3.7815944048e-01
 9.3040282455e-01	 8.8737102298e-01	-5.6419316986e-01
 9.0914156185e-01	 9.0914156185e-01	-7.4882326663e-01
 8.8737102298e-01	 9.3040282455e-01	-9.2807748520e-01
 8.6510969699e-01	 9.5113717752e-01	-1.0979121643e+00
 8.4237687608e-01	 9.7132789145e-01	-1.2543231427e+00
 8.1919260000e-01	 9.9095918608e-01	-1.3934541307e+00
 7.9557759752e-01	 1.0100162710e+00	-1.5116988128e+00
 6.1877963469e-01	 7.8556447689e-01	 3.0074123321e+00
 6.0009410240e-01	 7.9992927055e-01	 2.5134478733e+00
 5.8110723302e-01	 8.1382685776e-01	 1.9902187808e+00
 5.6183647501e-01	 8.2724818708e-01	 1.4406219709e+00
 5.4229961341e-01	 8.4018506873e-01	 8.6749735484e-01
 5.2251471715e-01	 8.5263018827e-01	 2.7364591006e-01
 5.0250008602e-01	 8.6457711653e-01	-3.3815421125e-01
 4.8227419740e-01	 8.7602031568e-01	-9.6513403413e-01
 4.6185565311e-01	 8.8695514163e-01	-1.6045229491e+00
 4.4126312680e-01	 8.9737784263e-01	-2.2535409869e+00
 4.2051531196e-01	 9.0728555439e-01	-2.9093943062e+00
 6.3645911231e-01	 8.0800925173e-01	 2.2608384676e+00
 6.1723970587e-01	 8.2278446945e-01	 1.8399299569e+00
 5.9771035268e-01	 8.3707913191e-01	 1.3928512043e+00
 5.7788899974e-01	 8.5088392907e-01	 9.2272014601e-01
 5.5779394021e-01	 8.6419043715e-01	 4.3259277389e-01
 5.3744375929e-01	 8.7699113274e-01	-7.4518413872e-02
 5.1685727964e-01	 8.8927940295e-01	-5.9562835073e-01
 4.9605350654e-01	 9.0104955175e-01	-1.1277662564e+00
 4.7505157331e-01	 9.1229680234e-01	-1.6679657942e+00
 4.5387068712e-01	 9.2301729580e-01	-2.2132587724e+00
 4.3253007557e-01	 9.3320808600e-01	-2.7606724850e+00
 6.5413869924e-01	 8.3045416536e-01	 1.5898615797e+00
 6.3438541535e-01	 8.4563980967e-01	 1.2303206145e+00
 6.1431357500e-01	 8.6033154984e-01	 8.4784168425e-01
 5.9394162371e-01	 8.7451981721e-01	 4.4563799856e-01
 5.7328836281e-01	 8.8819595401e-01	 2.6856493527e-02
 5.5237289375e-01	 9.0135222784e-01	-4.0540198280e-01
 5.3121456203e-01	 9.1398184212e-01	-8.4806541493e-01
 5.0983290088e-01	 9.2607894258e-01	-1.2980768679e+00
 4.8824757510e-01	 9.3763861975e-01	-1.7523846441e+00
 4.6647832539e-01	 9.4865690752e-01	-2.2079365845e+00
 4.4454491348e-01	 9.5913077789e-01	-2.6616785827e+00
 6.7181838105e-01	 8.5289919944e-01	 9.9069080911e-01
 6.5153121685e-01	 8.6849527255e-01	 6.8256473380e-01
 6.3091688642e-01	 8.8358409256e-01	 3.5485136045e-01
 6.0999433384e-01	 8.9815583220e-01	 1.0740535519e-02
 5.8878286856e-01	 9.1220159971e-01	-3.4664748231e-01
 5.6730210832e-01	 9.2571345368e-01	-7.1423874903e-01
 5.4557192147e-01	 9.3868441385e-01	-1.0889859650e+00
 5.2361236917e-01	 9.5110846774e-01	-1.4678530373e+00
 5.0144364770e-01	 9.6298057317e-01	-1.8478043084e+00
 4.7908603133e-01	 9.7429665683e-01	-2.2257986842e+00
 4.5655981587e-01	 9.8505360891e-01	-2.5987887043e+00
 6.8949814330e-01	 8.7534433565e-01	 4.5953949067e-01
 6.6867709636e-01	 8.9135083942e-01	 1.9445995560e-01
 6.4752027339e-01	 9.0683674108e-01	-8.6756206411e-02
 6.2604711700e-01	 9.2179195474e-01	-3.8105515917e-01
 6.0427744482e-01	 9.3620735462e-01	-6.8545450194e-01
 5.8223139082e-01	 9.5007479036e-01	-9.9701555652e-01
 5.5992934624e-01	 9.6338709799e-01	-1.3128200738e+00
 5.3739190015e-01	 9.7613810679e-01	-1.6299520592e+00
 5.1463978035e-01	 9.8832264189e-01	-1.9454851842e+00
 4.9169379463e-01	 9.9993652281e-01	-2.2564760223e+00
 4.6857477292e-01	 1.0109765579e+00	-2.5599631190e+00
 7.0717797156e-01	 8.9778955565e-01	-7.3802691902e-03
 6.8582303987e-01	 9.1420649162e-01	-2.3632800737e-01
 6.6412372234e-01	 9.3008947641e-01	-4.7787944702e-01
 6.4209996010e-01	 9.4542816551e-01	-7.2922441430e-01
 6.1977207891e-01	 9.6021319916e-01	-9.8762405464e-01
 5.9716072906e-01	 9.7443621799e-01	-1.2503773220e+00
 5.7428682460e-01	 9.8808987434e-01	-1.5147928636e+00
 5.5117148258e-01	 1.0011678393e+00	-1.7781670806e+00
 5.2783596227e-01	 1.0136648052e+00	-2.0377688751e+00
 5.0430160500e-01	 1.0255764845e+00	-2.2908313226e+00
 4.8058977483e-01	 1.0368996036e+00	-2.5345502523e+00
 7.2485785138e-01	 9.2023484111e-01	-4.1385830157e-01
 7.0296903340e-01	 9.3706221048e-01	-6.1224835075e-01
 6.8072721972e-01	 9.5334227955e-01	-8.1964446074e-01
 6.5815285001e-01	 9.6906444523e-01	-1.0335836674e+00
 6.3526675820e-01	 9.8421911372e-01	-1.2516716989e+00
 6.1209011083e-01	 9.9879771668e-01	-1.4715422988e+00
 5.8864434484e-01	 1.0127927228e+00	-1.6908230970e+00
 5.6495110519e-01	 1.0261976448e+00	-1.9071089002e+00
 5.4103218267e-01	 1.0390070425e+00	-2.1179429628e+00
 5.1690945215e-01	 1.0512165210e+00	-2.3208064805e+00
 4.9260481178e-01	 1.0628227250e+00	-2.5131162529e+00
 7.4253776832e-01	 9.4268017371e-01	-7.6369744725e-01
 7.2011506293e-01	 9.5991797733e-01	-9.3584674059e-01
 6.9733075196e-01	 9.7659513153e-01	-1.1133717477e+00
 6.7420577363e-01	 9.9270077457e-01	-1.2942426664e+00
 6.5076147003e-01	 1.0082250787e+00	-1.4765069405e+00
 6.2701952396e-01	 1.0231592665e+00	-1.6582257440e+00
 6.0300189523e-01	 1.0374956230e+00	-1.8374326485e+00
 5.7873075675e-01	 1.0512275028e+00	-2.0121011605e+00
 5.5422843078e-01	 1.0643493329e+00	-2.1801217415e+00
 5.2951732576e-01	 1.0768566113e+00	-2.3392885593e+00
 5.0461987397e-01	 1.0887459008e+00	-2.4872958731e+00
 7.6021770795e-01	 9.6512553511e-01	-1.0617491279e+00
 7.3726111446e-01	 9.8277377351e-01	-1.2097456886e+00
 7.1393430550e-01	 9.9984801335e-01	-1.3605438240e+00
 6.9025871785e-01	 1.0163371343e+00	-1.5115596066e+00
 6.6625620174e-01	 1.0322310745e+00	-1.6613760929e+00
 6.4194895624e-01	 1.0475208476e+00	-1.8085706204e+00
 6.1735946404e-01	 1.0621985550e+00	-1.9516650840e+00
 5.9251042598e-01	 1.0762573930e+00	-2.0890867552e+00
 5.6742469583e-01	 1.0896916559e+00	-2.2191403157e+00
 5.4212521556e-01	 1.1024967345e+00	-2.3399913562e+00
 5.1663495157e-01	 1.1146691098e+00	-2.4498186146e+00
 7.7789765583e-01	 9.8757090699e-01	-1.3106719298e+00
 7.5440717399e-01	 1.0056295804e+00	-1.4366975450e+00
 7.3053786680e-01	 1.0231009060e+00	-1.5627735805e+00
 7.0631166956e-01	 1.0399735050e+00	-1.6860987366e+00
 6.8175094068e-01	 1.0562370814e+00	-1.8058093266e+00
 6.5687839549e-01	 1.0718824401e+00	-1.9210842158e+00
 6.3171703955e-01	 1.0869014985e+00	-2.0310119010e+00
 6.0629010164e-01	 1.1012872948e+00	-2.1345436674e+00
 5.8062096703e-01	 1.1150339907e+00	-2.2307245089e+00
 5.5473311124e-01	 1.1281368697e+00	-2.3217422236e+00
 5.2865003478e-01	 1.1405923310e+00	-2.4049666365e+00
 7.9557759752e-01	 1.0100162710e+00	-1.5116988128e+00
 7.7155322752e-01	 1.0284853792e+00	-1.6183198216e+00
 7.4714142228e-01	 1.0463537905e+00	-1.7216917896e+00
 7.2236461565e-01	 1.0636098674e+00	-1.8185900491e+00
 6.9724567419e-01	 1.0802430800e+00	-1.9095712581e+00
 6.7180782952e-01	 1.0962440240e+00	-1.9945797590e+00
 6.4607461004e-01	 1.1116044334e+00	-2.0733505332e+00
 6.2006977248e-01	 1.1263171879e+00	-2.1499332760e+00
 5.9381723362e-01	 1.1403763167e+00	-2.2252437565e+00
 5.6734100251e-01	 1.1537769959e+00	-2.2950664907e+00
 5.4066511378e-01	 1.1665155430e+00	-2.3552428494e+00
 4.2051531196e-01	 9.0728555439e-01	-2.9093943062e+00
 3.9963233635e-01	 9.1667565331e-01	-3.5696624550e+00
 3.7863132607e-01	 9.2554773768e-01	-4.2302105388e+00
 3.5753072471e-01	 9.3390154697e-01	-4.8840309723e+00
 3.3634880088e-01	 9.4173765446e-01	-5.5194988322e+00
 3.1510360378e-01	 9.4905744632e-01	-6.1317250753e+00
 2.9381292096e-01	 9.5586309813e-01	-6.7170258895e+00
 2.7249423836e-01	 9.6215754903e-01	-7.2721968870e+00
 2.5116470275e-01	 9.6794447360e-01	-7.7944983635e+00
 2.2984108677e-01	 9.7322825186e-01	-8.2816409948e+00
 2.0853975653e-01	 9.7801393759e-01	-8.7317719562e+00
 4.3253007557e-01	 9.3320808600e-01	-2.7606724850e+00
 4.1105044151e-01	 9.4286647436e-01	-3.3093185171e+00
 3.8944940034e-01	 9.5199204770e-01	-3.8574417792e+00
 3.6774592264e-01	 9.6058453806e-01	-4.4007569023e+00
 3.4595879894e-01	 9.6864453509e-01	-4.9293039127e+00
 3.2410659417e-01	 9.7617346456e-01	-5.4360668716e+00
 3.0220760408e-01	 9.8317356422e-01	-5.9184144684e+00
 2.8027981421e-01	 9.8964785718e-01	-6.3741332107e+00
 2.5834086125e-01	 9.9560012300e-01	-6.8014075467e+00
 2.3640799705e-01	 1.0010348669e+00	-7.1988018004e+00
 2.1449805533e-01	 1.0059572869e+00	-7.5652438301e+00
 4.4454491348e-01	 9.5913077789e-01	-2.6616785827e+00
 4.2246861727e-01	 9.6905745735e-01	-3.1140572867e+00
 4.0026754151e-01	 9.7843652124e-01	-3.5653492248e+00
 3.7796118372e-01	 9.8726769414e-01	-4.0122919284e+00
 3.5556885643e-01	 9.9555158209e-01	-4.4494911790e+00
 3.3310964023e-01	 1.0032896505e+00	-4.8667907801e+00
 3.1060233911e-01	 1.0104841992e+00	-5.2618864242e+00
 2.8806543821e-01	 1.0171383353e+00	-5.6334539341e+00
 2.6551706413e-01	 1.0232559434e+00	-5.9805020443e+00
 2.4297494794e-01	 1.0288416538e+00	-6.3023510582e+00
 2.2045639097e-01	 1.0339008091e+00	-6.5986146073e+00
 4.5655981587e-01	 9.8505360891e-01	-2.5987887043e+00
 4.3388685431e-01	 9.9524858091e-01	-2.9683852647e+00
 4.1108574074e-01	 1.0048811367e+00	-3.3365856524e+00
 3.8817649964e-01	 1.0139509934e+00	-3.7009451284e+00
 3.6517896549e-01	 1.0224587735e+00	-4.0588755518e+00
 3.4211273460e-01	 1.0304059819e+00	-4.4008811454e+00
 3.1899711919e-01	 1.0377949807e+00	-4.7226578137e+00
 2.9585110399e-01	 1.0446289610e+00	-5.0236780211e+00
 2.7269330552e-01	 1.0509119123e+00	-5.3036826528e+00
 2.4954193407e-01	 1.0566485900e+00	-5.5626568959e+00
 2.2641475859e-01	 1.0618444812e+00	-5.8008106952e+00
 4.6857477292e-01	 1.0109765579e+00	-2.5599631190e+00
 4.4530514331e-01	 1.0214398236e+00	-2.8585739755e+00
 4.2190398919e-01	 1.0313258725e+00	-3.1557489081e+00
 3.9839186203e-01	 1.0406344141e+00	-3.4497369584e+00
 3.7478911828e-01	 1.0493660873e+00	-3.7388824241e+00
 3.5111586995e-01	 1.0575224367e+00	-4.0178620037e+00
 3.2739193747e-01	 1.0651058865e+00	-4.2786155003e+00
 3.0363680519e-01	 1.0721197117e+00	-4.5211238080e+00
 2.7986957956e-01	 1.0785680069e+00	-4.7457748813e+00
 2.5610895008e-01	 1.0844556527e+00	-4.9531335602e+00
 2.3237315332e-01	 1.0897882804e+00	-5.1439213615e+00
 4.8058977483e-01	 1.0368996036e+00	-2.5345502523e+00
 4.5672347493e-01	 1.0476311641e+00	-2.7724426419e+00
 4.3272227803e-01	 1.0577707070e+00	-3.0091435171e+00
 4.0860726256e-01	 1.0673179344e+00	-3.2434767417e+00
 3.8439930695e-01	 1.0762735016e+00	-3.4743097656e+00
 3.6011903890e-01	 1.0846389928e+00	-3.6995238206e+00
 3.3578678709e-01	 1.0924168943e+00	-3.9100213017e+00
 3.1142253547e-01	 1.0996105651e+00	-4.1045914494e+00
 2.8704588039e-01	 1.1062242048e+00	-4.2841906725e+00
 2.6267599061e-01	 1.1122628192e+00	-4.4498717993e+00
 2.3833157029e-01	 1.1177321840e+00	-4.6023592066e+00
 4.9260481178e-01	 1.0628227250e+00	-2.5131162529e+00
 4.6814183986e-01	 1.0738225810e+00	-2.6991697414e+00
 4.4354059842e-01	 1.0842156186e+00	-2.8845744557e+00
 4.1882269288e-01	 1.0940015326e+00	-3.0686141248e+00
 3.9400952364e-01	 1.1031809944e+00	-3.2505641645e+00
 3.6912223411e-01	 1.1117556279e+00	-3.4296919538e+00
 3.4418166119e-01	 1.1197279817e+00	-3.5991141883e+00
 3.1920828845e-01	 1.1271014987e+00	-3.7540818496e+00
 2.9422220216e-01	 1.1338804834e+00	-3.8955936860e+00
 2.6924305029e-01	 1.1400700668e+00	-4.0248957715e+00
 2.4429000465e-01	 1.1456761690e+00	-4.1434235658e+00
 5.0461987397e-01	 1.0887459008e+00	-2.4872958731e+00
 4.7956022876e-01	 1.1000140529e+00	-2.6291286322e+00
 4.5435894153e-01	 1.1106605858e+00	-2.7711677274e+00
 4.2903814466e-01	 1.1206851868e+00	-2.9135184985e+00
 4.0361976052e-01	 1.1300885437e+00	-3.0554199519e+00
 3.7812544823e-01	 1.1388723200e+00	-3.1952749592e+00
 3.5257655293e-01	 1.1470391265e+00	-3.3292269665e+00
 3.2699405778e-01	 1.1545924900e+00	-3.4498611824e+00
 3.0139853899e-01	 1.1615368201e+00	-3.5582957114e+00
 2.7581012377e-01	 1.1678773729e+00	-3.6563353398e+00
 2.5024845152e-01	 1.1736202128e+00	-3.7458908882e+00
 5.1663495157e-01	 1.1146691098e+00	-2.4498186146e+00
 4.9097863232e-01	 1.1262055585e+00	-2.5560813183e+00
 4.6517729852e-01	 1.1371055869e+00	-2.6646846901e+00
 4.3925360954e-01	 1.1473688752e+00	-2.7737521350e+00
 4.1323000973e-01	 1.1569961275e+00	-2.8817177727e+00
 3.8712867391e-01	 1.1659890469e+00	-2.9873553405e+00
 3.6097145543e-01	 1.1743503063e+00	-3.0891369901e+00
 3.3477983710e-01	 1.1820835166e+00	-3.1799360442e+00
 3.0857488504e-01	 1.1891931923e+00	-3.2597288905e+00
 2.8237720567e-01	 1.1956847146e+00	-3.3308046891e+00
 2.5620690603e-01	 1.2015642924e+00	-3.3954702492e+00
 5.2865003478e-01	 1.1405923310e+00	-2.4049666365e+00
 5.0239704120e-01	 1.1523970762e+00	-2.4840217329e+00
 4.7599566056e-01	 1.1635506004e+00	-2.5642345737e+00
 4.4946907919e-01	 1.1740525760e+00	-2.6440011270e+00
 4.2284026342e-01	 1.1839037239e+00	-2.7220500079e+00
 3.9613190378e-01	 1.1931057864e+00	-2.7974704897e+00
 3.6936636186e-01	 1.2016614988e+00	-2.8697172320e+00
 3.4256562006e-01	 1.2095745560e+00	-2.9341377461e+00
 3.1575123443e-01	 1.2168495773e+00	-2.9887630732e+00
 2.8894429064e-01	 1.2234920692e+00	-3.0362895876e+00
 2.6216536333e-01	 1.2295083851e+00	-3.0793368594e+00
 5.4066511378e-01	 1.1665155430e+00	-2.3552428494e+00
 5.1381544609e-01	 1.1785885847e+00	-2.4098750613e+00
 4.8681401882e-01	 1.1899956046e+00	-2.4646675503e+00
 4.5968454527e-01	 1.2007362676e+00	-2.5182204609e+00
 4.3245051375e-01	 1.2108113108e+00	-2.5694982924e+00
 4.0513513051e-01	 1.2202225165e+00	-2.6178567976e+00
 3.7776126534e-01	 1.2289726818e+00	-2.6630512170e+00
 3.5035140029e-01	 1.2370655857e+00	-2.7033064815e+00
 3.2292758131e-01	 1.2445059527e+00	-2.7353674382e+00
 2.9551137331e-01	 1.2512994142e+00	-2.7619648800e+00
 2.6812381854e-01	 1.2574524679e+00	-2.7859429759e+00
 2.0853975653e-01	 9.7801393759e-01	-8.7317719562e+00
 1.8727515887e-01	 9.8230750859e-01	-9.1439878063e+00
 1.6606427394e-01	 9.8611491462e-01	-9.5172256009e+00
 1.4492210489e-01	 9.8944302882e-01	-9.8500867595e+00
 1.2386314479e-01	 9.9229925915e-01	-1.0141544807e+01
 1.0290135811e-01	 9.9469151154e-01	-1.0390936965e+01
 8.2050164801e-02	 9.9662815290e-01	-1.0597954761e+01
 6.1322427094e-02	 9.9811797387e-01	-1.0762633410e+01
 4.0730438957e-02	 9.9917015173e-01	-1.0885339803e+01
 2.0285918027e-02	 9.9979421360e-01	-1.0966758934e+01
 0.0000000000e+00	 1.0000000000e+00	-1.1007878693e+01
 2.1449805533e-01	 1.0059572869e+00	-7.5652438301e+00
 1.9262589569e-01	 1.0103735318e+00	-7.9001571443e+00
 1.7080898344e-01	 1.0142897212e+00	-8.2026598020e+00
 1.4906275038e-01	 1.0177129247e+00	-8.4717790703e+00
 1.2740210369e-01	 1.0206507619e+00	-8.7068325530e+00
 1.0584140681e-01	 1.0231113646e+00	-8.9074238306e+00
 8.4394463108e-02	 1.0251033388e+00	-9.0734376204e+00
 6.3074502332e-02	 1.0266357262e+00	-9.2050340771e+00
 4.1894169698e-02	 1.0277179664e+00	-9.3026419058e+00
 2.0865517634e-02	 1.0283598586e+00	-9.3669500165e+00
 0.0000000000e+00	 1.0285715247e+00	-9.3988975215e+00
 2.2045639097e-01	 1.0339008091e+00	-6.5986146073e+00
 1.9797666560e-01	 1.0384397286e+00	-6.8688520861e+00
 1.7555372228e-01	 1.0424647021e+00	-7.1122237105e+00
 1.5320342148e-01	 1.0459829954e+00	-7.3281748014e+00
 1.3094108447e-01	 1.0490024400e+00	-7.5163641672e+00
 1.0878147368e-01	 1.0515313934e+00	-7.6766639570e+00
 8.6738775911e-02	 1.0535787007e+00	-7.8091595353e+00
 6.4826588404e-02	 1.0551536548e+00	-7.9141488370e+00
 4.3057907636e-02	 1.0562659575e+00	-7.9921407237e+00
 2.1445120825e-02	 1.0569256803e+00	-8.0438519336e+00
 0.0000000000e+00	 1.0571432260e+00	-8.0702023041e+00
 2.2641475859e-01	 1.0618444812e+00	-5.8008106952e+00
 2.0332746422e-01	 1.0665060760e+00	-6.0176717181e+00
 1.8029848658e-01	 1.0706398341e+00	-6.2123220936e+00
 1.5734411480e-01	 1.0742532179e+00	-6.3846137995e+00
 1.3448008424e-01	 1.0773542702e+00	-6.5345395615e+00
 1.1172155633e-01	 1.0799515747e+00	-6.6622372003e+00
 8.9083101296e-02	 1.0820542155e+00	-6.7679945008e+00
 6.6578683879e-02	 1.0836717365e+00	-6.8522538833e+00
 4.4221651818e-02	 1.0848141019e+00	-6.9156162314e+00
 2.2024727127e-02	 1.0854916553e+00	-6.9588433189e+00
 0.0000000000e+00	 1.0857150807e+00	-6.9828583845e+00
 2.3237315332e-01	 1.0897882804e+00	-5.1439213615e+00
 2.0867828719e-01	 1.0945725510e+00	-5.3174873564e+00
 1.8504327247e-01	 1.0988150943e+00	-5.4727316289e+00
 1.6148482696e-01	 1.1025235689e+00	-5.6098976768e+00
 1.3801910012e-01	 1.1057062295e+00	-5.7293003085e+00
 1.1466165236e-01	 1.1083718854e+00	-5.8313348889e+00
 9.1427437348e-02	 1.1105298598e+00	-5.9164876077e+00
 6.8330787327e-02	 1.1121899480e+00	-5.9853187190e+00
 4.5385401296e-02	 1.1133623762e+00	-6.0384828382e+00
 2.2604336066e-02	 1.1140577603e+00	-6.0768645269e+00
 0.0000000000e+00	 1.1142870654e+00	-6.1014605746e+00
 2.3833157029e-01	 1.1177321840e+00	-4.6023592066e+00
 2.1402913014e-01	 1.1226391309e+00	-4.7404093420e+00
 1.8978807608e-01	 1.1269904598e+00	-4.8626438265e+00
 1.6562555458e-01	 1.1307940256e+00	-4.9697606066e+00
 1.4155812921e-01	 1.1340582945e+00	-5.0625265343e+00
 1.1760175936e-01	 1.1367923021e+00	-5.1417706716e+00
 9.3771782152e-02	 1.1390056104e+00	-5.2083816011e+00
 7.0082897315e-02	 1.1407082659e+00	-5.2633073880e+00
 4.6549155118e-02	 1.1419107571e+00	-5.3075569919e+00
 2.3183947169e-02	 1.1426239719e+00	-5.3422020949e+00
 0.0000000000e+00	 1.1428591567e+00	-5.3683785001e+00
 2.4429000465e-01	 1.1456761690e+00	-4.1434235658e+00
 2.1937998870e-01	 1.1507057926e+00	-4.2498665611e+00
 1.9453289353e-01	 1.1551659074e+00	-4.3426795910e+00
 1.6976629428e-01	 1.1590645646e+00	-4.4230844891e+00
 1.4509716862e-01	 1.1624104423e+00	-4.4922995109e+00
 1.2054187494e-01	 1.1652128017e+00	-4.5515389082e+00
 9.6116133794e-02	 1.1674814441e+00	-4.6020168427e+00
 7.1835012414e-02	 1.1692266671e+00	-4.6449540244e+00
 4.7712912335e-02	 1.1704592212e+00	-4.6815856481e+00
 2.3763559962e-02	 1.1711902668e+00	-4.7131694117e+00
 0.0000000000e+00	 1.1714313314e+00	-4.7409926212e+00
 2.5024845152e-01	 1.1736202128e+00	-3.7458908882e+00
 2.2473085849e-01	 1.1787725133e+00	-3.8253213721e+00
 1.9927772094e-01	 1.1833414141e+00	-3.8928463112e+00
 1.7390704267e-01	 1.1873351630e+00	-3.9501828870e+00
 1.4863621546e-01	 1.1907626496e+00	-3.9989743984e+00
 1.2348199669e-01	 1.1936333610e+00	-4.0407972162e+00
 9.8460490359e-02	 1.1959573376e+00	-4.0771723115e+00
 7.3587131193e-02	 1.1977451280e+00	-4.1095794603e+00
 4.8876671996e-02	 1.1990077452e+00	-4.1394724536e+00
 2.4343173972e-02	 1.1997566217e+00	-4.1682939000e+00
 0.0000000000e+00	 1.2000035661e+00	-4.1974884685e+00
 2.5620690603e-01	 1.2015642924e+00	-3.3954702492e+00
 2.3008173515e-01	 1.2068392700e+00	-3.4516612827e+00
 2.0402255444e-01	 1.2115169571e+00	-3.4972983325e+00
 1.7804779638e-01	 1.2156057978e+00	-3.5345570681e+00
 1.5217526684e-01	 1.2191148933e+00	-3.5654708977e+00
 1.2642212222e-01	 1.2220539568e+00	-3.5919465984e+00
 1.0080484993e-01	 1.2244332676e+00	-3.6157846431e+00
 7.5339252220e-02	 1.2262636256e+00	-3.6387020150e+00
 5.0040433150e-02	 1.2275563060e+00	-3.6623555758e+00
 2.4922788727e-02	 1.2283230133e+00	-3.6883643608e+00
 0.0000000000e+00	 1.2285758375e+00	-3.7183294876e+00
 2.6216536333e-01	 1.2295083851e+00	-3.0793368594e+00
 2.3543261431e-01	 1.2349060398e+00	-3.1153301588e+00
 2.0876739015e-01	 1.2396925131e+00	-3.1418303702e+00
 1.8218855202e-01	 1.2438764457e+00	-3.1614257855e+00
 1.5571431988e-01	 1.2474671503e+00	-3.1764957779e+00
 1.2936224912e-01	 1.2504745659e+00	-3.1892365991e+00
 1.0314921060e-01	 1.2529092109e+00	-3.2016918689e+00
 7.7091374064e-02	 1.2547821365e+00	-3.2157852039e+00
 5.1204194847e-02	 1.2561048800e+00	-3.2333527691e+00
 2.5502403751e-02	 1.2568894182e+00	-3.2561738941e+00
 0.0000000000e+00	 1.2571481222e+00	-3.2859982714e+00
 2.6812381854e-01	 1.2574524679e+00	-2.7859429759e+00
 2.4078349159e-01	 1.2629727998e+00	-2.8041331110e+00
 2.1351222420e-01	 1.2678680593e+00	-2.8136770249e+00
 1.8632930621e-01	 1.2721470837e+00	-2.8175200398e+00
 1.5925337168e-01	 1.2758193973e+00	-2.8183334661e+00
 1.3230237499e-01	 1.2788951650e+00	-2.8185522664e+00
 1.0549357045e-01	 1.2813851443e+00	-2.8204172579e+00
 7.8843495295e-02	 1.2833006375e+00	-2.8260189308e+00
 5.2367956136e-02	 1.2846534440e+00	-2.8373403537e+00
 2.6082018573e-02	 1.2854558131e+00	-2.8562970643e+00
 0.0000000000e+00	 1.2857203969e+00	-2.8847722807e+00
 1.2857203969e+00	 0.0000000000e+00	 3.7837260297e+00
 1.2854558131e+00	 2.6082018573e-02	 3.7648356719e+00
 1.2846534440e+00	 5.2367956136e-02	 3.7426059644e+00
 1.2833006375e+00	 7.8843495295e-02	 3.7159989853e+00
 1.2813851443e+00	 1.0549357045e-01	 3.6838947745e+00
 1.2788951650e+00	 1.3230237499e-01	 3.6450500128e+00
 1.2758193973e+00	 1.5925337168e-01	 3.5980528052e+00
 1.2721470837e+00	 1.8632930621e-01	 3.5412740373e+00
 1.2678680593e+00	 2.1351222420e-01	 3.4728160000e+00
 1.2629727998e+00	 2.4078349159e-01	 3.3904592322e+00
 1.2574524679e+00	 2.6812381854e-01	 3.2916088016e+00
 1.3142906426e+00	 0.0000000000e+00	 3.7887162825e+00
 1.3140201795e+00	 2.6661592237e-02	 3.7697309585e+00
 1.3131999808e+00	 5.3531634788e-02	 3.7474412074e+00
 1.3118171133e+00	 8.0595492109e-02	 3.7206022087e+00
 1.3098590555e+00	 1.0783776382e-01	 3.6878848903e+00
 1.3073137459e+00	 1.3524229208e-01	 3.6478331980e+00
 1.3041696310e+00	 1.6279217217e-01	 3.5988166839e+00
 1.3004157142e+00	 1.9046976637e-01	 3.5389788239e+00
 1.2960416048e+00	 2.1825672133e-01	 3.4661817322e+00
 1.2910375667e+00	 2.4613398891e-01	 3.3779482260e+00
 1.2853945665e+00	 2.7408185064e-01	 3.2714025054e+00
 1.3428608584e+00	 0.0000000000e+00	 3.7984589014e+00
 1.3425845159e+00	 2.7241165292e-02	 3.7786898177e+00
 1.3417464877e+00	 5.4695312217e-02	 3.7554084076e+00
 1.3403335592e+00	 8.2347487083e-02	 3.7272039246e+00
 1.3383329369e+00	 1.1018195474e-01	 3.6925922077e+00
 1.3357322970e+00	 1.3818220609e-01	 3.6499719013e+00
 1.3325198349e+00	 1.6633096894e-01	 3.5975750084e+00
 1.3286843150e+00	 1.9461022218e-01	 3.5334121078e+00
 1.3242151207e+00	 2.2300121347e-01	 3.4552128527e+00
 1.3191023042e+00	 2.5148448061e-01	 3.3603626930e+00
 1.3133366357e+00	 2.8003987648e-01	 3.2458371181e+00
 1.3714310475e+00	 0.0000000000e+00	 3.8090680124e+00
 1.3711488257e+00	 2.7820737806e-02	 3.7879054421e+00
 1.3702929679e+00	 5.5858988561e-02	 3.7628372222e+00
 1.3688499785e+00	 8.4099480422e-02	 3.7323254248e+00
 1.3668067917e+00	 1.1252614346e-01	 3.6947830819e+00
 1.3641508216e+00	 1.4112211735e-01	 3.6485297631e+00
 1.3608700124e+00	 1.6986976242e-01	 3.5917402890e+00
 1.3569528895e+00	 1.9875067412e-01	 3.5223868035e+00
 1.3523886103e+00	 2.2774570118e-01	 3.4381747513e+00
 1.3471670155e+00	 2.5683496732e-01	 3.3364736716e+00
 1.3412786789e+00	 2.8599789676e-01	 3.2142441247e+00
 1.4000012133e+00	 0.0000000000e+00	 3.8170314489e+00
 1.3997131121e+00	 2.8400309847e-02	 3.7939778443e+00
 1.3988394247e+00	 5.7022663954e-02	 3.7664844273e+00
 1.3973663744e+00	 8.5851472330e-02	 3.7329225566e+00
 1.3952806233e+00	 1.1487033027e-01	 3.6916530503e+00
 1.3925693230e+00	 1.4406202621e-01	 3.6409815853e+00
 1.3892201668e+00	 1.7340855300e-01	 3.5791058055e+00
 1.3852214408e+00	 2.0289112268e-01	 3.5040542277e+00
 1.3805620769e+00	 2.3249018502e-01	 3.4136173943e+00
 1.3752317039e+00	 2.6218544965e-01	 3.3052721331e+00
 1.3692206992e+00	 2.9195591218e-01	 3.1761002452e+00
 1.4285713591e+00	 0.0000000000e+00	 3.8191734223e+00
 1.4282773786e+00	 2.8979881482e-02	 3.7938743197e+00
 1.4273858616e+00	 5.8186338532e-02	 3.7634926321e+00
 1.4258827505e+00	 8.7603463011e-02	 3.7263431257e+00
 1.4237544349e+00	 1.1721451544e-01	 3.6807833426e+00
 1.4209878045e+00	 1.4700193302e-01	 3.6251693458e+00
 1.4175703013e+00	 1.7694734110e-01	 3.5578015032e+00
 1.4134899724e+00	 2.0703156835e-01	 3.4768602328e+00
 1.4087355238e+00	 2.3723466554e-01	 3.3803320331e+00
 1.4032963726e+00	 2.6753592825e-01	 3.2659265844e+00
 1.3971627000e+00	 2.9791392343e-01	 3.1309862316e+00
 1.4571414882e+00	 0.0000000000e+00	 3.8126215838e+00
 1.4568416283e+00	 2.9559452779e-02	 3.7848945430e+00
 1.4559322819e+00	 5.9350012432e-02	 3.7513537814e+00
 1.4543991099e+00	 8.9355452671e-02	 3.7102891589e+00
 1.4522282299e+00	 1.1955869924e-01	 3.6601022363e+00
 1.4494062694e+00	 1.4994183810e-01	 3.5992629614e+00
 1.4459204192e+00	 1.8048612714e-01	 3.5262544605e+00
 1.4417584875e+00	 2.1117201160e-01	 3.4395056606e+00
 1.4369089542e+00	 2.4197914329e-01	 3.3373119073e+00
 1.4313610249e+00	 2.7288640372e-01	 3.2177442681e+00
 1.4251046845e+00	 3.0387193120e-01	 3.0785487994e+00
 1.4857116040e+00	 0.0000000000e+00	 3.7947782220e+00
 1.4854058648e+00	 3.0139023805e-02	 3.7646766351e+00
 1.4844786888e+00	 6.0513685788e-02	 3.7279221278e+00
 1.4829154559e+00	 9.1107441513e-02	 3.6827995643e+00
 1.4807020116e+00	 1.2190288195e-01	 3.6278506039e+00
 1.4778247211e+00	 1.5288174182e-01	 3.5617251596e+00
 1.4742705239e+00	 1.8402491153e-01	 3.4831533141e+00
 1.4700269894e+00	 2.1531245291e-01	 3.3909105334e+00
 1.4650823715e+00	 2.4672361882e-01	 3.2837164031e+00
 1.4594256642e+00	 2.7823687669e-01	 3.1601354767e+00
 1.4530466559e+00	 3.0982993619e-01	 3.0184652729e+00
 1.5142817098e+00	 0.0000000000e+00	 3.7636091915e+00
 1.5139700912e+00	 3.0718594629e-02	 3.7336862630e+00
 1.5130250857e+00	 6.1677358737e-02	 3.6962564710e+00
 1.5114317920e+00	 9.2859429741e-02	 3.6492512804e+00
 1.5091757834e+00	 1.2424706384e-01	 3.5909195976e+00
 1.5062431628e+00	 1.5582164450e-01	 3.5198644558e+00
 1.5026206188e+00	 1.8756369468e-01	 3.4350672411e+00
 1.4982954814e+00	 2.1945289278e-01	 3.3358898123e+00
 1.4932557789e+00	 2.5146809269e-01	 3.2220434301e+00
 1.4874902936e+00	 2.8358734779e-01	 3.0935121768e+00
 1.4809886176e+00	 3.1578793910e-01	 2.9504105865e+00
 1.5428518089e+00	 0.0000000000e+00	 3.7181867759e+00
 1.5425343110e+00	 3.1298165318e-02	 3.6921458234e+00
 1.5415714760e+00	 6.2841031415e-02	 3.6582451016e+00
 1.5399481215e+00	 9.4611417561e-02	 3.6139807662e+00
 1.5376495485e+00	 1.2659124518e-01	 3.5572154262e+00
 1.5346615979e+00	 1.5876154650e-01	 3.4862496481e+00
 1.5309707069e+00	 1.9110247700e-01	 3.3998840597e+00
 1.5265639668e+00	 2.2359333168e-01	 3.2974612132e+00
 1.5214291798e+00	 2.5621256546e-01	 3.1788746648e+00
 1.5155549165e+00	 2.8893781764e-01	 3.0445312467e+00
 1.5089305727e+00	 3.2174594061e-01	 2.8952513321e+00
 1.5714219047e+00	 0.0000000000e+00	 3.6579395923e+00
 1.5710985275e+00	 3.1877735938e-02	 3.6390821666e+00
 1.5701178630e+00	 6.4004703957e-02	 3.6126563517e+00
 1.5684644476e+00	 9.6363405176e-02	 3.5756234576e+00
 1.5661233103e+00	 1.2893542625e-01	 3.5253529675e+00
 1.5630800297e+00	 1.6170144816e-01	 3.4597339009e+00
 1.5593207918e+00	 1.9464125891e-01	 3.3772805275e+00
 1.5548324489e+00	 2.2773377010e-01	 3.2772202965e+00
 1.5496025774e+00	 2.6095703767e-01	 3.1595498474e+00
 1.5436195361e+00	 2.9428828687e-01	 3.0250432065e+00
 1.5368725246e+00	 3.2770394143e-01	 2.8751948460e+00
 1.2574524679e+00	 2.6812381854e-01	 3.2916088016e+00
 1.2512994142e+00	 2.9551137331e-01	 3.1807996755e+00
 1.2445059527e+00	 3.2292758131e-01	 3.0642095415e+00
 1.2370655857e+00	 3.5035140029e-01	 2.9411184319e+00
 1.2289726818e+00	 3.7776126534e-01	 2.8104303905e+00
 1.2202225165e+00	 4.0513513051e-01	 2.6721455173e+00
 1.2108113108e+00	 4.3245051375e-01	 2.5262391925e+00
 1.2007362676e+00	 4.5968454527e-01	 2.3725381836e+00
 1.1899956046e+00	 4.8681401882e-01	 2.2111179897e+00
 1.1785885847e+00	 5.1381544609e-01	 2.0423053705e+00
 1.1665155430e+00	 5.4066511378e-01	 1.8666680277e+00
 1.2853945665e+00	 2.7408185064e-01	 3.2714025054e+00
 1.2791047845e+00	 3.0207798965e-01	 3.1514840619e+00
 1.2721603642e+00	 3.3010341860e-01	 3.0252809608e+00
 1.2645546634e+00	 3.5813662766e-01	 2.8925007288e+00
 1.2562819255e+00	 3.8615557271e-01	 2.7523256836e+00
 1.2473373210e+00	 4.1413771791e-01	 2.6037593972e+00
 1.2377169871e+00	 4.4206008166e-01	 2.4464924958e+00
 1.2274180643e+00	 4.6989928595e-01	 2.2805394760e+00
 1.2164387309e+00	 4.9763160886e-01	 2.1062104929e+00
 1.2047782335e+00	 5.2523304016e-01	 1.9241138684e+00
 1.1924369143e+00	 5.5267933959e-01	 1.7351437172e+00
 1.3133366357e+00	 2.8003987648e-01	 3.2458371181e+00
 1.3069101257e+00	 3.0864459909e-01	 3.1170218143e+00
 1.2998147467e+00	 3.3727924836e-01	 2.9819149290e+00
 1.2920437122e+00	 3.6592184685e-01	 2.8407247364e+00
 1.2835911405e+00	 3.9454987126e-01	 2.6922383102e+00
 1.2744520970e+00	 4.2314029587e-01	 2.5344209666e+00
 1.2646226350e+00	 4.5166963948e-01	 2.3671015827e+00
 1.2540998330e+00	 4.8011401590e-01	 2.1904651838e+00
 1.2428818295e+00	 5.0844918755e-01	 2.0050397818e+00
 1.2309678547e+00	 5.3665062224e-01	 1.8116992949e+00
 1.2183582584e+00	 5.6469355279e-01	 1.6116493661e+00
 1.3412786789e+00	 2.8599789676e-01	 3.2142441247e+00
 1.3347154409e+00	 3.1521120241e-01	 3.0773030802e+00
 1.3274691033e+00	 3.4445507141e-01	 2.9345048529e+00
 1.3195327353e+00	 3.7370705877e-01	 2.7866077164e+00
 1.3109003299e+00	 4.0294416198e-01	 2.6308462582e+00
 1.3015668477e+00	 4.3214286542e-01	 2.4650360045e+00
 1.2915282579e+00	 4.6127918833e-01	 2.2891416106e+00
 1.2807815768e+00	 4.9032873632e-01	 2.1034981302e+00
 1.2693249034e+00	 5.1926675614e-01	 1.9088322265e+00
 1.2571574515e+00	 5.4806819366e-01	 1.7062660406e+00
 1.2442795783e+00	 5.7670775478e-01	 1.4973015381e+00
 1.3692206992e+00	 2.9195591218e-01	 3.1761002452e+00
 1.3625207334e+00	 3.2177780036e-01	 3.0322841658e+00
 1.3551234374e+00	 3.5163088861e-01	 2.8834324170e+00
 1.3470217360e+00	 3.8149226434e-01	 2.7305037477e+00
 1.3382094971e+00	 4.1133844584e-01	 2.5687007591e+00
 1.3286815763e+00	 4.4114542762e-01	 2.3963526812e+00
 1.3184338588e+00	 4.7088872934e-01	 2.2135031357e+00
 1.3074632989e+00	 5.0054344840e-01	 2.0206130925e+00
 1.2957679557e+00	 5.3008431589e-01	 1.8185859722e+00
 1.2833470268e+00	 5.5948575577e-01	 1.6087731128e+00
 1.2702008770e+00	 5.8872194696e-01	 1.3929570752e+00
 1.3971627000e+00	 2.9791392343e-01	 3.1309862316e+00
 1.3903260064e+00	 3.2834439372e-01	 2.9819473298e+00
 1.3827777522e+00	 3.5880670079e-01	 2.8290277033e+00
 1.3745107175e+00	 3.8927746445e-01	 2.6725861572e+00
 1.3655186452e+00	 4.1973272383e-01	 2.5062218908e+00
 1.3557962859e+00	 4.5014798352e-01	 2.3289600187e+00
 1.3453394409e+00	 4.8049826361e-01	 2.1408928689e+00
 1.3341450022e+00	 5.1075815332e-01	 1.9425792730e+00
 1.3222109895e+00	 5.4090186808e-01	 1.7350745288e+00
 1.3095365839e+00	 5.7090330987e-01	 1.5199382379e+00
 1.2961221575e+00	 6.0073613072e-01	 1.2992170988e+00
 1.4251046845e+00	 3.0387193120e-01	 3.0785487994e+00
 1.4181312633e+00	 3.3491098325e-01	 2.9262632446e+00
 1.4104320507e+00	 3.6598250878e-01	 2.7715315629e+00
 1.4019996829e+00	 3.9706266003e-01	 2.6129541762e+00
 1.3928277773e+00	 4.2812699692e-01	 2.4436957662e+00
 1.3829109797e+00	 4.5915053416e-01	 2.2632876847e+00
 1.3722450073e+00	 4.9010779228e-01	 2.0718355689e+00
 1.3608266900e+00	 5.2097285229e-01	 1.8699637660e+00
 1.3486540079e+00	 5.5171941395e-01	 1.6588512733e+00
 1.3357261257e+00	 5.8232085732e-01	 1.4402428470e+00
 1.3220434230e+00	 6.1275030748e-01	 1.2164319209e+00
 1.4530466559e+00	 3.0982993619e-01	 3.0184652729e+00
 1.4459365071e+00	 3.4147756971e-01	 2.8651557664e+00
 1.4380863364e+00	 3.7315831342e-01	 2.7110100392e+00
 1.4294886354e+00	 4.0484785197e-01	 2.5515973606e+00
 1.4201368967e+00	 4.3652126609e-01	 2.3812730928e+00
 1.4100256608e+00	 4.6815308061e-01	 2.1996069407e+00
 1.3991505611e+00	 4.9971731647e-01	 2.0066769194e+00
 1.3875083653e+00	 5.3118754650e-01	 1.8031358884e+00
 1.3750970139e+00	 5.6253695478e-01	 1.5902547411e+00
 1.3619156552e+00	 5.9373839945e-01	 1.3699378258e+00
 1.3479646763e+00	 6.2476447863e-01	 1.1447067405e+00
 1.4809886176e+00	 3.1578793910e-01	 2.9504105865e+00
 1.4737417412e+00	 3.4804415387e-01	 2.7984687094e+00
 1.4657406124e+00	 3.8033411554e-01	 2.6468585597e+00
 1.4569775784e+00	 4.1263304119e-01	 2.4883927456e+00
 1.4474460065e+00	 4.4491553232e-01	 2.3189689236e+00
 1.4371403325e+00	 4.7715562390e-01	 2.1380325916e+00
 1.4260561056e+00	 5.0932683729e-01	 1.9455872611e+00
 1.4141900313e+00	 5.4140223712e-01	 1.7422722585e+00
 1.4015400107e+00	 5.7335449182e-01	 1.5294146035e+00
 1.3881051756e+00	 6.0515593757e-01	 1.3090499282e+00
 1.3738859206e+00	 6.3677864558e-01	 1.0839080236e+00
 1.5089305727e+00	 3.2174594061e-01	 2.8952513321e+00
 1.5015469689e+00	 3.5461073651e-01	 2.7380615716e+00
 1.4933948820e+00	 3.8750991600e-01	 2.5830543962e+00
 1.4844665150e+00	 4.2041822859e-01	 2.4233906177e+00
 1.4747551100e+00	 4.5330979660e-01	 2.2566634440e+00
 1.4642549978e+00	 4.8615816510e-01	 2.0785258076e+00
 1.4529616437e+00	 5.1893635587e-01	 1.8885660674e+00
 1.4408716911e+00	 5.5161692537e-01	 1.6873625279e+00
 1.4279830013e+00	 5.8417202633e-01	 1.4762582414e+00
 1.4142946899e+00	 6.1657347303e-01	 1.2573887675e+00
 1.3998071588e+00	 6.4879280973e-01	 1.0336704784e+00
 1.5368725246e+00	 3.2770394143e-01	 2.8751948460e+00
 1.5293521932e+00	 3.6117731837e-01	 2.7160915191e+00
 1.5210491483e+00	 3.9468571561e-01	 2.5549857692e+00
 1.5119554483e+00	 4.2820341508e-01	 2.3853466269e+00
 1.5020642103e+00	 4.6170405990e-01	 2.2078794683e+00
 1.4913696599e+00	 4.9516070524e-01	 2.0240527713e+00
 1.4798671787e+00	 5.2854587333e-01	 1.8354470701e+00
 1.4675533477e+00	 5.6183161242e-01	 1.6382156829e+00
 1.4544259888e+00	 5.9498955959e-01	 1.4305178413e+00
 1.4404842011e+00	 6.2799100716e-01	 1.2145543135e+00
 1.4257283940e+00	 6.6080697247e-01	 9.9340455020e-01
 1.1665155430e+00	 5.4066511378e-01	 1.8666680277e+00
 1.1537769959e+00	 5.6734100251e-01	 1.6869939292e+00
 1.1403763167e+00	 5.9381723362e-01	 1.5075477161e+00
 1.1263171879e+00	 6.2006977248e-01	 1.3313001703e+00
 1.1116044334e+00	 6.4607461004e-01	 1.1612307348e+00
 1.0962440240e+00	 6.7180782952e-01	 9.9485524756e-01
 1.0802430800e+00	 6.9724567419e-01	 8.2713155651e-01
 1.0636098674e+00	 7.2236461565e-01	 6.5821336158e-01
 1.0463537905e+00	 7.4714142228e-01	 4.8832939351e-01
 1.0284853792e+00	 7.7155322752e-01	 3.1842734783e-01
 1.0100162710e+00	 7.9557759752e-01	 1.5197627061e-01
 1.1924369143e+00	 5.5267933959e-01	 1.7351437172e+00
 1.1794153015e+00	 5.7994799849e-01	 1.5421330749e+00
 1.1657168431e+00	 6.0701256314e-01	 1.3491013595e+00
 1.1513453037e+00	 6.3384846483e-01	 1.1589467118e+00
 1.1363056141e+00	 6.6043116100e-01	 9.7457956713e-01
 1.1206038781e+00	 6.8673620341e-01	 7.9881565143e-01
 1.1042473739e+00	 7.1273930743e-01	 6.3307253559e-01
 1.0872445514e+00	 7.3841642183e-01	 4.6858986202e-01
 1.0696050239e+00	 7.6374379875e-01	 3.0197987991e-01
 1.0513395551e+00	 7.8869806351e-01	 1.3378921858e-01
 1.0324600412e+00	 8.1325628377e-01	-3.2417130219e-02
 1.2183582584e+00	 5.6469355279e-01	 1.6116493661e+00
 1.2050535801e+00	 5.9255498124e-01	 1.4077290572e+00
 1.1910573429e+00	 6.2020787880e-01	 1.2036917973e+00
 1.1763733931e+00	 6.4762714272e-01	 1.0023820242e+00
 1.1610067689e+00	 6.7478769688e-01	 8.0666626817e-01
 1.1449637065e+00	 7.0166456162e-01	 6.1931483070e-01
 1.1282516426e+00	 7.2823292440e-01	 4.4286772729e-01
 1.1108792106e+00	 7.5446821115e-01	 2.7879990841e-01
 1.0928562328e+00	 7.8034615778e-01	 1.1763599074e-01
 1.0741937069e+00	 8.0584288151e-01	-4.6160543150e-02
 1.0549037878e+00	 8.3093495145e-01	-2.0927457682e-01
 1.2442795783e+00	 5.7670775478e-01	 1.4973015381e+00
 1.2306918347e+00	 6.0516195222e-01	 1.2847756507e+00
 1.2163978190e+00	 6.3340318216e-01	 1.0721862542e+00
 1.2014014592e+00	 6.6140580774e-01	 8.6234469738e-01
 1.1857079006e+00	 6.8914421937e-01	 6.5810129069e-01
 1.1693235123e+00	 7.1659290590e-01	 4.6221463643e-01
 1.1522558889e+00	 7.4372652691e-01	 2.7715428796e-01
 1.1345138478e+00	 7.7051998549e-01	 1.0091467710e-01
 1.1161074201e+00	 7.9694850133e-01	-6.5564365647e-02
 1.0970478375e+00	 8.2298768350e-01	-2.2289629733e-01
 1.0773475135e+00	 8.4861360263e-01	-3.8006755279e-01
 1.2702008770e+00	 5.8872194696e-01	 1.3929570752e+00
 1.2563300685e+00	 6.1776891290e-01	 1.1739927839e+00
 1.2417382744e+00	 6.4659847473e-01	 9.5516172096e-01
 1.2264295048e+00	 6.7518446151e-01	 7.3926452239e-01
 1.2104090122e+00	 7.0350073013e-01	 5.2916571273e-01
 1.1936832981e+00	 7.3152123799e-01	 3.2764960680e-01
 1.1762601156e+00	 7.5922011677e-01	 1.3508754863e-01
 1.1581484656e+00	 7.8657174672e-01	-5.2296158657e-02
 1.1393585883e+00	 8.1355083131e-01	-2.3074153320e-01
 1.1199019494e+00	 8.4013247148e-01	-3.9580172583e-01
 1.0997912208e+00	 8.6629223937e-01	-5.4610866388e-01
 1.2961221575e+00	 6.0073613072e-01	 1.2992170988e+00
 1.2819682843e+00	 6.3037586476e-01	 1.0758300685e+00
 1.2670787121e+00	 6.5979375807e-01	 8.5290788035e-01
 1.2514575330e+00	 6.8896310564e-01	 6.3326467590e-01
 1.2351101064e+00	 7.1785723084e-01	 4.1981253956e-01
 1.2180430669e+00	 7.4644955963e-01	 2.1515404257e-01
 1.2002643255e+00	 7.7471369578e-01	 1.4242318356e-02
 1.1817830669e+00	 8.0262349672e-01	-1.8275153090e-01
 1.1626097403e+00	 8.3015314967e-01	-3.7141728687e-01
 1.1427560452e+00	 8.5727724747e-01	-5.4722009887e-01
 1.1222349124e+00	 8.8397086374e-01	-7.0557215166e-01
 1.3220434230e+00	 6.1275030748e-01	 1.2164319209e+00
 1.3076064851e+00	 6.4298280927e-01	 9.9047128897e-01
 1.2924191350e+00	 6.7298903371e-01	 7.6543104057e-01
 1.2764855465e+00	 7.0274174173e-01	 5.4416495664e-01
 1.2598111863e+00	 7.3221372318e-01	 3.2966909852e-01
 1.2424028214e+00	 7.6137787257e-01	 1.2134583605e-01
 1.2242685214e+00	 7.9020726575e-01	-8.7280197931e-02
 1.2054176545e+00	 8.1867523735e-01	-2.9249610380e-01
 1.1858608787e+00	 8.4675545835e-01	-4.8978087092e-01
 1.1656101278e+00	 8.7442201346e-01	-6.7448654388e-01
 1.1446785910e+00	 9.0164947780e-01	-8.4191433762e-01
 1.3479646763e+00	 6.2476447863e-01	 1.1447067405e+00
 1.3332446740e+00	 6.5558974789e-01	 9.1783972269e-01
 1.3177595461e+00	 6.8618430320e-01	 6.9245894046e-01
 1.3015135484e+00	 7.1652037139e-01	 4.7148593210e-01
 1.2845122546e+00	 7.4657020882e-01	 2.5772646368e-01
 1.2667625647e+00	 7.7630617854e-01	 4.3799035403e-02
 1.2482727061e+00	 8.0570082850e-01	-1.7148659605e-01
 1.2290522309e+00	 8.3472697049e-01	-3.8367950190e-01
 1.2091120062e+00	 8.6335775928e-01	-5.8812492659e-01
 1.1884641997e+00	 8.9156677145e-01	-7.8003670628e-01
 1.1671222590e+00	 9.1932808361e-01	-9.5457795209e-01
 1.3738859206e+00	 6.3677864558e-01	 1.0839080236e+00
 1.3588828539e+00	 6.6819668211e-01	 8.5760418145e-01
 1.3430999484e+00	 6.9937956807e-01	 6.3344631229e-01
 1.3265415414e+00	 7.3029899622e-01	 4.1445387630e-01
 1.3092133143e+00	 7.6092668943e-01	 1.9995444289e-01
 1.2911222993e+00	 7.9123447928e-01	-1.9442766380e-02
 1.2722768824e+00	 8.2119438582e-01	-2.4047173937e-01
 1.2526867992e+00	 8.5077869802e-01	-4.5853594151e-01
 1.2323631257e+00	 8.7996005440e-01	-6.6882439949e-01
 1.2113182635e+00	 9.0871152343e-01	-8.6638776337e-01
 1.1895659192e+00	 9.3700668323e-01	-1.0462236420e+00
 1.3998071588e+00	 6.4879280973e-01	 1.0336704784e+00
 1.3845210278e+00	 6.8080361338e-01	 8.0918568205e-01
 1.3684403447e+00	 7.1257482986e-01	 5.8758110459e-01
 1.3515695287e+00	 7.4407761785e-01	 3.7189167845e-01
 1.3339143682e+00	 7.7528316670e-01	 1.5384173583e-01
 1.3154820283e+00	 8.0616277654e-01	-7.0409806260e-02
 1.2962810531e+00	 8.3668793953e-01	-2.9639846100e-01
 1.2763213619e+00	 8.6683042180e-01	-5.1936307435e-01
 1.2556142396e+00	 8.9656234564e-01	-7.3431463645e-01
 1.2341723221e+00	 9.2585627142e-01	-9.3611589990e-01
 1.2120095742e+00	 9.5468527873e-01	-1.1195714098e+00
 1.4257283940e+00	 6.6080697247e-01	 9.9340455020e-01
 1.4101591987e+00	 6.9341054318e-01	 7.7176466584e-01
 1.3937807380e+00	 7.2577009011e-01	 5.5379128139e-01
 1.3765975130e+00	 7.5785623786e-01	 3.3973654716e-01
 1.3586154192e+00	 7.8963964229e-01	 1.1742758468e-01
 1.3398417545e+00	 8.2109107206e-01	-1.1118616296e-01
 1.3202852210e+00	 8.5218149143e-01	-3.4147659840e-01
 1.2999559218e+00	 8.8288214371e-01	-5.6850014323e-01
 1.2788653509e+00	 9.1316463496e-01	-7.8706877488e-01
 1.2570263780e+00	 9.4300101741e-01	-9.9183305656e-01
 1.2344532266e+00	 9.7236387216e-01	-1.1773768586e+00
 1.0100162710e+00	 7.9557759752e-01	 1.5197627061e-01
 9.9095918608e-01	 8.1919260000e-01	-1.6760104101e-02
 9.7132789145e-01	 8.4237687608e-01	-1.9451325754e-01
 9.5113717752e-01	 8.6510969699e-01	-3.7815944048e-01
 9.3040282455e-01	 8.8737102298e-01	-5.6419316986e-01
 9.0914156185e-01	 9.0914156185e-01	-7.4882326663e-01
 8.8737102298e-01	 9.3040282455e-01	-9.2807748520e-01
 8.6510969699e-01	 9.5113717752e-01	-1.0979121643e+00
 8.4237687608e-01	 9.7132789145e-01	-1.2543231427e+00
 8.1919260000e-01	 9.9095918608e-01	-1.3934541307e+00
 7.9557759752e-01	 1.0100162710e+00	-1.5116988128e+00
 1.0324600412e+00	 8.1325628377e-01	-3.2417130219e-02
 1.0129794850e+00	 8.3739603985e-01	-2.0239878638e-01
 9.9291195954e-01	 8.6109549829e-01	-3.8237886322e-01
 9.7227258379e-01	 8.8433346969e-01	-5.6859079941e-01
 9.5107748868e-01	 9.0708946899e-01	-7.5683541225e-01
 9.2934377528e-01	 9.2934377528e-01	-9.4259512898e-01
 9.0708946899e-01	 9.5107748868e-01	-1.1211580931e+00
 8.8433346969e-01	 9.7227258379e-01	-1.2877480144e+00
 8.6109549829e-01	 9.9291195954e-01	-1.4376554154e+00
 8.3739603985e-01	 1.0129794850e+00	-1.5663658691e+00
 8.1325628377e-01	 1.0324600412e+00	-1.6696809124e+00
 1.0549037878e+00	 8.3093495145e-01	-2.0927457682e-01
 1.0349997609e+00	 8.5559946060e-01	-3.7742015245e-01
 1.0144960050e+00	 8.7981410085e-01	-5.5631144833e-01
 9.9340796786e-01	 9.0355722221e-01	-7.4164062427e-01
 9.7175213110e-01	 9.2680789429e-01	-9.2861258236e-01
 9.4954596750e-01	 9.4954596750e-01	-1.1120783373e+00
 9.2680789429e-01	 9.7175213110e-01	-1.2866796889e+00
 9.0355722221e-01	 9.9340796786e-01	-1.4470004507e+00
 8.7981410085e-01	 1.0144960050e+00	-1.5877192429e+00
 8.5559946060e-01	 1.0349997609e+00	-1.7037587872e+00
 8.3093495145e-01	 1.0549037878e+00	-1.7904267466e+00
 1.0773475135e+00	 8.4861360263e-01	-3.8006755279e-01
 1.0570200161e+00	 8.7380286435e-01	-5.4332916680e-01
 1.0360800302e+00	 8.9853268594e-01	-7.1789458301e-01
 1.0145433322e+00	 9.2278095678e-01	-8.9900637864e-01
 9.9242675422e-01	 9.4652630118e-01	-1.0813606769e+00
 9.6974814086e-01	 9.6974814086e-01	-1.2592608058e+00
 9.4652630118e-01	 9.9242675422e-01	-1.4267838454e+00
 9.2278095678e-01	 1.0145433322e+00	-1.5779546459e+00
 8.9853268594e-01	 1.0360800302e+00	-1.7069216167e+00
 8.7380286435e-01	 1.0570200161e+00	-1.8081285050e+00
 8.4861360263e-01	 1.0773475135e+00	-1.8764765016e+00
 1.0997912208e+00	 8.6629223937e-01	-5.4610866388e-01
 1.0790402534e+00	 8.9200625324e-01	-7.0147529698e-01
 1.0576640379e+00	 9.1725125575e-01	-8.6856001232e-01
 1.0356786793e+00	 9.4200467566e-01	-1.0422378379e+00
 1.0131013605e+00	 9.6624469197e-01	-1.2167727361e+00
 9.8995029772e-01	 9.8995029772e-01	-1.3859929121e+00
 9.6624469197e-01	 1.0131013605e+00	-1.5434807753e+00
 9.4200467566e-01	 1.0356786793e+00	-1.6827713967e+00
 9.1725125575e-01	 1.0576640379e+00	-1.7975529899e+00
 8.9200625324e-01	 1.0790402534e+00	-1.8818628450e+00
 8.6629223937e-01	 1.0997912208e+00	-1.9302722780e+00
 1.1222349124e+00	 8.8397086374e-01	-7.0557215166e-01
 1.1010604753e+00	 9.1020962939e-01	-8.5304672141e-01
 1.0792480304e+00	 9.3596981245e-01	-1.0095836812e+00
 1.0568140116e+00	 9.6122838107e-01	-1.1727352171e+00
 1.0337759522e+00	 9.8596306896e-01	-1.3363992861e+00
 1.0101524404e+00	 1.0101524404e+00	-1.4939903918e+00
 9.8596306896e-01	 1.0337759522e+00	-1.6386547364e+00
 9.6122838107e-01	 1.0568140116e+00	-1.7634950206e+00
 9.3596981245e-01	 1.0792480304e+00	-1.8617975690e+00
 9.1020962939e-01	 1.1010604753e+00	-1.9272543458e+00
 8.8397086374e-01	 1.1222349124e+00	-1.9573457608e+00
 1.1446785910e+00	 9.0164947780e-01	-8.4191433762e-01
 1.1230806843e+00	 9.2841299492e-01	-9.9581528507e-01
 1.1008320104e+00	 9.5468835823e-01	-1.1420803333e+00
 1.0779493315e+00	 9.8045207528e-01	-1.2917457783e+00
 1.0544505319e+00	 1.0056814345e+00	-1.4416471548e+00
 1.0303545714e+00	 1.0303545714e+00	-1.5848354911e+00
 1.0056814345e+00	 1.0544505319e+00	-1.7140675808e+00
 9.8045207528e-01	 1.0779493315e+00	-1.8220592905e+00
 9.5468835823e-01	 1.1008320104e+00	-1.9017415499e+00
 9.2841299492e-01	 1.1230806843e+00	-1.9500556601e+00
 9.0164947780e-01	 1.1446785910e+00	-1.9787180185e+00
 1.1671222590e+00	 9.1932808361e-01	-9.5457795209e-01
 1.1451008831e+00	 9.4661635195e-01	-1.1149953080e+00
 1.1224159803e+00	 9.7340689528e-01	-1.2643191890e+00
 1.0990846416e+00	 9.9967576051e-01	-1.4003591228e+00
 1.0751251020e+00	 1.0253997907e+00	-1.5337768782e+00
 1.0505566929e+00	 1.0505566929e+00	-1.6599766128e+00
 1.0253997907e+00	 1.0751251020e+00	-1.7713607003e+00
 9.9967576051e-01	 1.0990846416e+00	-1.8602916721e+00
 9.7340689528e-01	 1.1224159803e+00	-1.9223788663e+00
 9.4661635195e-01	 1.1451008831e+00	-1.9695305817e+00
 9.1932808361e-01	 1.1671222590e+00	-1.9981529288e+00
 1.1895659192e+00	 9.3700668323e-01	-1.0462236420e+00
 1.1671210741e+00	 9.6481970262e-01	-1.2110509629e+00
 1.1439999426e+00	 9.9212542578e-01	-1.3633608023e+00
 1.1202199443e+00	 1.0188994390e+00	-1.4979325993e+00
 1.0957996648e+00	 1.0451181401e+00	-1.6138988844e+00
 1.0707588073e+00	 1.0707588073e+00	-1.7207266542e+00
 1.0451181401e+00	 1.0957996648e+00	-1.8120555768e+00
 1.0188994390e+00	 1.1202199443e+00	-1.8817317501e+00
 9.9212542578e-01	 1.1439999426e+00	-1.9411093519e+00
 9.6481970262e-01	 1.1671210741e+00	-1.9881767921e+00
 9.3700668323e-01	 1.1895659192e+00	-2.0157756718e+00
 1.2120095742e+00	 9.5468527873e-01	-1.1195714098e+00
 1.1891412601e+00	 9.8302304903e-01	-1.2868578209e+00
 1.1655838999e+00	 1.0108439519e+00	-1.4399606329e+00
 1.1413552421e+00	 1.0381231130e+00	-1.5735350914e+00
 1.1164742228e+00	 1.0648364849e+00	-1.6824915465e+00
 1.0909609171e+00	 1.0909609171e+00	-1.7682602056e+00
 1.0648364849e+00	 1.1164742228e+00	-1.8381302011e+00
 1.0381231130e+00	 1.1413552421e+00	-1.9017250258e+00
 1.0108439519e+00	 1.1655838999e+00	-1.9599773950e+00
 9.8302304903e-01	 1.1891412601e+00	-2.0056983147e+00
 9.5468527873e-01	 1.2120095742e+00	-2.0314793409e+00
 1.2344532266e+00	 9.7236387216e-01	-1.1773768586e+00
 1.2111614434e+00	 1.0012263933e+00	-1.3453281647e+00
 1.1871678547e+00	 1.0295624759e+00	-1.4972055747e+00
 1.1624905374e+00	 1.0573467848e+00	-1.6275774763e+00
 1.1371487784e+00	 1.0845548274e+00	-1.7312930894e+00
 1.1111630244e+00	 1.1111630244e+00	-1.8036097677e+00
 1.0845548274e+00	 1.1371487784e+00	-1.8620540074e+00
 1.0573467848e+00	 1.1624905374e+00	-1.9226269031e+00
 1.0295624759e+00	 1.1871678547e+00	-1.9782957711e+00
 1.0012263933e+00	 1.2111614434e+00	-2.0216280850e+00
 9.7236387216e-01	 1.2344532266e+00	-2.0449866233e+00
 7.9557759752e-01	 1.0100162710e+00	-1.5116988128e+00
 7.7155322752e-01	 1.0284853792e+00	-1.6183198216e+00
 7.4714142228e-01	 1.0463537905e+00	-1.7216917896e+00
 7.2236461565e-01	 1.0636098674e+00	-1.8185900491e+00
 6.9724567419e-01	 1.0802430800e+00	-1.9095712581e+00
 6.7180782952e-01	 1.0962440240e+00	-1.9945797590e+00
 6.4607461004e-01	 1.1116044334e+00	-2.0733505332e+00
 6.2006977248e-01	 1.1263171879e+00	-2.1499332760e+00
 5.9381723362e-01	 1.1403763167e+00	-2.2252437565e+00
 5.6734100251e-01	 1.1537769959e+00	-2.2950664907e+00
 5.4066511378e-01	 1.1665155430e+00	-2.3552428494e+00
 8.1325628377e-01	 1.0324600412e+00	-1.6696809124e+00
 7.8869806351e-01	 1.0513395551e+00	-1.7573637171e+00
 7.6374379875e-01	 1.0696050239e+00	-1.8388577272e+00
 7.3841642183e-01	 1.0872445514e+00	-1.9103785443e+00
 7.1273930743e-01	 1.1042473739e+00	-1.9726146961e+00
 6.8673620341e-01	 1.1206038781e+00	-2.0299605979e+00
 6.6043116100e-01	 1.1363056141e+00	-2.0903210690e+00
 6.3384846483e-01	 1.1513453037e+00	-2.1512390808e+00
 6.0701256314e-01	 1.1657168431e+00	-2.2088548311e+00
 5.7994799849e-01	 1.1794153015e+00	-2.2592319785e+00
 5.5267933959e-01	 1.1924369143e+00	-2.2985147528e+00
 8.3093495145e-01	 1.0549037878e+00	-1.7904267466e+00
 8.0584288151e-01	 1.0741937069e+00	-1.8580286620e+00
 7.8034615778e-01	 1.0928562328e+00	-1.9170520323e+00
 7.5446821115e-01	 1.1108792106e+00	-1.9640883601e+00
 7.2823292440e-01	 1.1282516426e+00	-2.0047813871e+00
 7.0166456162e-01	 1.1449637065e+00	-2.0496301041e+00
 6.7478769688e-01	 1.1610067689e+00	-2.0967083904e+00
 6.4762714272e-01	 1.1763733931e+00	-2.1426315822e+00
 6.2020787880e-01	 1.1910573429e+00	-2.1837587145e+00
 5.9255498124e-01	 1.2050535801e+00	-2.2163873588e+00
 5.6469355279e-01	 1.2183582584e+00	-2.2369249467e+00
 8.4861360263e-01	 1.0773475135e+00	-1.8764765016e+00
 8.2298768350e-01	 1.0970478375e+00	-1.9228427835e+00
 7.9694850133e-01	 1.1161074201e+00	-1.9593791360e+00
 7.7051998549e-01	 1.1345138478e+00	-1.9950892726e+00
 7.4372652691e-01	 1.1522558889e+00	-2.0298174581e+00
 7.1659290590e-01	 1.1693235123e+00	-2.0627040501e+00
 6.8914421937e-01	 1.1857079006e+00	-2.0964299276e+00
 6.6140580774e-01	 1.2014014592e+00	-2.1278379592e+00
 6.3340318216e-01	 1.2163978190e+00	-2.1534533260e+00
 6.0516195222e-01	 1.2306918347e+00	-2.1697604021e+00
 5.7670775478e-01	 1.2442795783e+00	-2.1733898249e+00
 8.6629223937e-01	 1.0997912208e+00	-1.9302722780e+00
 8.4013247148e-01	 1.1199019494e+00	-1.9562653489e+00
 8.1355083131e-01	 1.1393585883e+00	-1.9868918874e+00
 7.8657174672e-01	 1.1581484656e+00	-2.0198901111e+00
 7.5922011677e-01	 1.1762601156e+00	-2.0499078240e+00
 7.3152123799e-01	 1.1936832981e+00	-2.0726108980e+00
 7.0350073013e-01	 1.2104090122e+00	-2.0928050270e+00
 6.7518446151e-01	 1.2264295048e+00	-2.1100332468e+00
 6.4659847473e-01	 1.2417382744e+00	-2.1209304277e+00
 6.1776891290e-01	 1.2563300685e+00	-2.1221184632e+00
 5.8872194696e-01	 1.2702008770e+00	-2.1104106824e+00
 8.8397086374e-01	 1.1222349124e+00	-1.9573457608e+00
 8.5727724747e-01	 1.1427560452e+00	-1.9803472832e+00
 8.3015314967e-01	 1.1626097403e+00	-2.0097888992e+00
 8.0262349672e-01	 1.1817830669e+00	-2.0400355664e+00
 7.7471369578e-01	 1.2002643255e+00	-2.0657277971e+00
 7.4644955963e-01	 1.2180430669e+00	-2.0818691115e+00
 7.1785723084e-01	 1.2351101064e+00	-2.0885799011e+00
 6.8896310564e-01	 1.2514575330e+00	-2.0918647172e+00
 6.5979375807e-01	 1.2670787121e+00	-2.0886988921e+00
 6.3037586476e-01	 1.2819682843e+00	-2.0757900955e+00
 6.0073613072e-01	 1.2961221575e+00	-2.0500931498e+00
 9.0164947780e-01	 1.1446785910e+00	-1.9787180185e+00
 8.7442201346e-01	 1.1656101278e+00	-2.0012404316e+00
 8.4675545835e-01	 1.1858608787e+00	-2.0291175229e+00
 8.1867523735e-01	 1.2054176545e+00	-2.0566529120e+00
 7.9020726575e-01	 1.2242685214e+00	-2.0784490486e+00
 7.6137787257e-01	 1.2424028214e+00	-2.0894984501e+00
 7.3221372318e-01	 1.2598111863e+00	-2.0859509012e+00
 7.0274174173e-01	 1.2764855465e+00	-2.0754747962e+00
 6.7298903371e-01	 1.2924191350e+00	-2.0588067502e+00
 6.4298280927e-01	 1.3076064851e+00	-2.0326857248e+00
 6.1275030748e-01	 1.3220434230e+00	-1.9941659979e+00
 9.1932808361e-01	 1.1671222590e+00	-1.9981529288e+00
 8.9156677145e-01	 1.1884641997e+00	-2.0195186518e+00
 8.6335775928e-01	 1.2091120062e+00	-2.0455690444e+00
 8.3472697049e-01	 1.2290522309e+00	-2.0705146001e+00
 8.0570082850e-01	 1.2482727061e+00	-2.0888897293e+00
 7.7630617854e-01	 1.2667625647e+00	-2.0956477145e+00
 7.4657020882e-01	 1.2845122546e+00	-2.0862395884e+00
 7.1652037139e-01	 1.3015135484e+00	-2.0625227110e+00
 6.8618430320e-01	 1.3177595461e+00	-2.0328621835e+00
 6.5558974789e-01	 1.3332446740e+00	-1.9943175095e+00
 6.2476447863e-01	 1.3479646763e+00	-1.9439993982e+00
 9.3700668323e-01	 1.1895659192e+00	-2.0157756718e+00
 9.0871152343e-01	 1.2113182635e+00	-2.0354615520e+00
 8.7996005440e-01	 1.2323631257e+00	-2.0595403930e+00
 8.5077869802e-01	 1.2526867992e+00	-2.0820979767e+00
 8.2119438582e-01	 1.2722768824e+00	-2.0975717673e+00
 7.9123447928e-01	 1.2911222993e+00	-2.1008494330e+00
 7.6092668943e-01	 1.3092133143e+00	-2.0873493720e+00
 7.3029899622e-01	 1.3265415414e+00	-2.0542050386e+00
 6.9937956807e-01	 1.3430999484e+00	-2.0120536022e+00
 6.6819668211e-01	 1.3588828539e+00	-1.9618184953e+00
 6.3677864558e-01	 1.3738859206e+00	-1.9006227120e+00
 9.5468527873e-01	 1.2120095742e+00	-2.0314793409e+00
 9.2585627142e-01	 1.2341723221e+00	-2.0491163182e+00
 8.9656234564e-01	 1.2556142396e+00	-2.0711944392e+00
 8.6683042180e-01	 1.2763213619e+00	-2.0916436297e+00
 8.3668793953e-01	 1.2962810531e+00	-2.1047768643e+00
 8.0616277654e-01	 1.3154820283e+00	-2.1053920175e+00
 7.7528316670e-01	 1.3339143682e+00	-2.0888535884e+00
 7.4407761785e-01	 1.3515695287e+00	-2.0511547446e+00
 7.1257482986e-01	 1.3684403447e+00	-1.9971689266e+00
 6.8080361338e-01	 1.3845210278e+00	-1.9359611566e+00
 6.4879280973e-01	 1.3998071588e+00	-1.8647418685e+00
 9.7236387216e-01	 1.2344532266e+00	-2.0449866233e+00
 9.4300101741e-01	 1.2570263780e+00	-2.0603582968e+00
 9.1316463496e-01	 1.2788653509e+00	-2.0805190632e+00
 8.8288214371e-01	 1.2999559218e+00	-2.0992125422e+00
 8.5218149143e-01	 1.3202852210e+00	-2.1106013565e+00
 8.2109107206e-01	 1.3398417545e+00	-2.1093719772e+00
 7.8963964229e-01	 1.3586154192e+00	-2.0908170812e+00
 7.5785623786e-01	 1.3765975130e+00	-2.0508961346e+00
 7.2577009011e-01	 1.3937807380e+00	-1.9886141754e+00
 6.9341054318e-01	 1.4101591987e+00	-1.9171754030e+00
 6.6080697247e-01	 1.4257283940e+00	-1.8367563869e+00
 5.4066511378e-01	 1.1665155430e+00	-2.3552428494e+00
 5.1381544609e-01	 1.1785885847e+00	-2.4098750613e+00
 4.8681401882e-01	 1.1899956046e+00	-2.4646675503e+00
 4.5968454527e-01	 1.2007362676e+00	-2.5182204609e+00
 4.3245051375e-01	 1.2108113108e+00	-2.5694982924e+00
 4.0513513051e-01	 1.2202225165e+00	-2.6178567976e+00
 3.7776126534e-01	 1.2289726818e+00	-2.6630512170e+00
 3.5035140029e-01	 1.2370655857e+00	-2.7033064815e+00
 3.2292758131e-01	 1.2445059527e+00	-2.7353674382e+00
 2.9551137331e-01	 1.2512994142e+00	-2.7619648800e+00
 2.6812381854e-01	 1.2574524679e+00	-2.7859429759e+00
 5.5267933959e-01	 1.1924369143e+00	-2.2985147528e+00
 5.2523304016e-01	 1.2047782335e+00	-2.3312203478e+00
 4.9763160886e-01	 1.2164387309e+00	-2.3633274469e+00
 4.6989928595e-01	 1.2274180643e+00	-2.3935847164e+00
 4.4206008166e-01	 1.2377169871e+00	-2.4211438894e+00
 4.1413771791e-01	 1.2473373210e+00	-2.4455853165e+00
 3.8615557271e-01	 1.2562819255e+00	-2.4669222826e+00
 3.5813662766e-01	 1.2645546634e+00	-2.4850327460e+00
 3.3010341860e-01	 1.2721603642e+00	-2.4972372561e+00
 3.0207798965e-01	 1.2791047845e+00	-2.5057293842e+00
 2.7408185064e-01	 1.2853945665e+00	-2.5134675519e+00
 5.6469355279e-01	 1.2183582584e+00	-2.2369249467e+00
 5.3665062224e-01	 1.2309678547e+00	-2.2502024747e+00
 5.0844918755e-01	 1.2428818295e+00	-2.2623642933e+00
 4.8011401590e-01	 1.2540998330e+00	-2.2722645234e+00
 4.5166963948e-01	 1.2646226350e+00	-2.2792036075e+00
 4.2314029587e-01	 1.2744520970e+00	-2.2829522447e+00
 3.9454987126e-01	 1.2835911405e+00	-2.2837512196e+00
 3.6592184685e-01	 1.2920437122e+00	-2.2822390232e+00
 3.3727924836e-01	 1.2998147467e+00	-2.2773605685e+00
 3.0864459909e-01	 1.3069101257e+00	-2.2706918033e+00
 2.8003987648e-01	 1.3133366357e+00	-2.2651729727e+00
 5.7670775478e-01	 1.2442795783e+00	-2.1733898249e+00
 5.4806819366e-01	 1.2571574515e+00	-2.1693705121e+00
 5.1926675614e-01	 1.2693249034e+00	-2.1638916537e+00
 4.9032873632e-01	 1.2807815768e+00	-2.1558755387e+00
 4.6127918833e-01	 1.2915282579e+00	-2.1447400145e+00
 4.3214286542e-01	 1.3015668477e+00	-2.1304203822e+00
 4.0294416198e-01	 1.3109003299e+00	-2.1133639832e+00
 3.7370705877e-01	 1.3195327353e+00	-2.0945008195e+00
 3.4445507141e-01	 1.3274691033e+00	-2.0745025151e+00
 3.1521120241e-01	 1.3347154409e+00	-2.0548368579e+00
 2.8599789676e-01	 1.3412786789e+00	-2.0382719160e+00
 5.8872194696e-01	 1.2702008770e+00	-2.1104106824e+00
 5.5948575577e-01	 1.2833470268e+00	-2.0909045586e+00
 5.3008431589e-01	 1.2957679557e+00	-2.0697023259e+00
 5.0054344840e-01	 1.3074632989e+00	-2.0457629556e+00
 4.7088872934e-01	 1.3184338588e+00	-2.0185977205e+00
 4.4114542762e-01	 1.3286815763e+00	-1.9882894643e+00
 4.1133844584e-01	 1.3382094971e+00	-1.9554809954e+00
 3.8149226434e-01	 1.3470217360e+00	-1.9213365165e+00
 3.5163088861e-01	 1.3551234374e+00	-1.8874896369e+00
 3.2177780036e-01	 1.3625207334e+00	-1.8563002680e+00
 2.9195591218e-01	 1.3692206992e+00	-1.8302220419e+00
 6.0073613072e-01	 1.2961221575e+00	-2.0500931498e+00
 5.7090330987e-01	 1.3095365839e+00	-2.0166323554e+00
 5.4090186808e-01	 1.3222109895e+00	-1.9812813971e+00
 5.1075815332e-01	 1.3341450022e+00	-1.9430103008e+00
 4.8049826361e-01	 1.3453394409e+00	-1.9014072626e+00
 4.5014798352e-01	 1.3557962859e+00	-1.8566945299e+00
 4.1973272383e-01	 1.3655186452e+00	-1.8097094457e+00
 3.8927746445e-01	 1.3745107175e+00	-1.7618552088e+00
 3.5880670079e-01	 1.3827777522e+00	-1.7151655421e+00
 3.2834439372e-01	 1.3903260064e+00	-1.6733197781e+00
 2.9791392343e-01	 1.3971627000e+00	-1.6386721083e+00
 6.1275030748e-01	 1.3220434230e+00	-1.9941659979e+00
 5.8232085732e-01	 1.3357261257e+00	-1.9480456283e+00
 5.5171941395e-01	 1.3486540079e+00	-1.8998194428e+00
 5.2097285229e-01	 1.3608266900e+00	-1.8484488479e+00
 4.9010779228e-01	 1.3722450073e+00	-1.7935901314e+00
 4.5915053416e-01	 1.3829109797e+00	-1.7356060057e+00
 4.2812699692e-01	 1.3928277773e+00	-1.6755379286e+00
 3.9706266003e-01	 1.4019996829e+00	-1.6150444698e+00
 3.6598250878e-01	 1.4104320507e+00	-1.5563502692e+00
 3.3491098325e-01	 1.4181312633e+00	-1.5041906156e+00
 3.0387193120e-01	 1.4251046845e+00	-1.4614132851e+00
 6.2476447863e-01	 1.3479646763e+00	-1.9439993982e+00
 5.9373839945e-01	 1.3619156552e+00	-1.8863161957e+00
 5.6253695478e-01	 1.3750970139e+00	-1.8262258514e+00
 5.3118754650e-01	 1.3875083653e+00	-1.7626675644e+00
 4.9971731647e-01	 1.3991505611e+00	-1.6953647842e+00
 4.6815308061e-01	 1.4100256608e+00	-1.6248312745e+00
 4.3652126609e-01	 1.4201368967e+00	-1.5523331020e+00
 4.0484785197e-01	 1.4294886354e+00	-1.4798126266e+00
 3.7315831342e-01	 1.4380863364e+00	-1.4097813568e+00
 3.4147756971e-01	 1.4459365071e+00	-1.3472247850e+00
 3.0982993619e-01	 1.4530466559e+00	-1.2963349691e+00
 6.3677864558e-01	 1.3738859206e+00	-1.9006227120e+00
 6.0515593757e-01	 1.3881051756e+00	-1.8323118714e+00
 5.7335449182e-01	 1.4015400107e+00	-1.7611422584e+00
 5.4140223712e-01	 1.4141900313e+00	-1.6860235224e+00
 5.0932683729e-01	 1.4260561056e+00	-1.6067535178e+00
 4.7715562390e-01	 1.4371403325e+00	-1.5240175336e+00
 4.4491553232e-01	 1.4474460065e+00	-1.4393380999e+00
 4.1263304119e-01	 1.4569775784e+00	-1.3549823453e+00
 3.8033411554e-01	 1.4657406124e+00	-1.2738347453e+00
 3.4804415387e-01	 1.4737417412e+00	-1.2007136933e+00
 3.1578793910e-01	 1.4809886176e+00	-1.1413845037e+00
 6.4879280973e-01	 1.3998071588e+00	-1.8647418685e+00
 6.1657347303e-01	 1.4142946899e+00	-1.7866121923e+00
 5.8417202633e-01	 1.4279830013e+00	-1.7049560745e+00
 5.5161692537e-01	 1.4408716911e+00	-1.6186527135e+00
 5.1893635587e-01	 1.4529616437e+00	-1.5275900867e+00
 4.8615816510e-01	 1.4642549978e+00	-1.4326557741e+00
 4.5330979660e-01	 1.4747551100e+00	-1.3356724731e+00
 4.2041822859e-01	 1.4844665150e+00	-1.2396128593e+00
 3.8750991600e-01	 1.4933948820e+00	-1.1519145811e+00
 3.5461073651e-01	 1.5015469689e+00	-1.0767261084e+00
 3.2174594061e-01	 1.5089305727e+00	-1.0187112949e+00
 6.6080697247e-01	 1.4257283940e+00	-1.8367563869e+00
 6.2799100716e-01	 1.4404842011e+00	-1.7495239915e+00
 5.9498955959e-01	 1.4544259888e+00	-1.6578140990e+00
 5.6183161242e-01	 1.4675533477e+00	-1.5604812162e+00
 5.2854587333e-01	 1.4798671787e+00	-1.4575279739e+00
 4.9516070524e-01	 1.4913696599e+00	-1.3536468143e+00
 4.6170405990e-01	 1.5020642103e+00	-1.2559739622e+00
 4.2820341508e-01	 1.5119554483e+00	-1.1655354726e+00
 3.9468571561e-01	 1.5210491483e+00	-1.0833449510e+00
 3.6117731837e-01	 1.5293521932e+00	-1.0107689784e+00
 3.2770394143e-01	 1.5368725246e+00	-9.5226135296e-01
 2.6812381854e-01	 1.2574524679e+00	-2.7859429759e+00
 2.4078349159e-01	 1.2629727998e+00	-2.8041331110e+00
 2.1351222420e-01	 1.2678680593e+00	-2.8136770249e+00
 1.8632930621e-01	 1.2721470837e+00	-2.8175200398e+00
 1.5925337168e-01	 1.2758193973e+00	-2.8183334661e+00
 1.3230237499e-01	 1.2788951650e+00	-2.8185522664e+00
 1.0549357045e-01	 1.2813851443e+00	-2.8204172579e+00
 7.8843495295e-02	 1.2833006375e+00	-2.8260189308e+00
 5.2367956136e-02	 1.2846534440e+00	-2.8373403537e+00
 2.6082018573e-02	 1.2854558131e+00	-2.8562970643e+00
 0.0000000000e+00	 1.2857203969e+00	-2.8847722807e+00
 2.7408185064e-01	 1.2853945665e+00	-2.5134675519e+00
 2.4613398891e-01	 1.2910375667e+00	-2.5166020472e+00
 2.1825672133e-01	 1.2960416048e+00	-2.5118014544e+00
 1.9046976637e-01	 1.3004157142e+00	-2.5023031389e+00
 1.6279217217e-01	 1.3041696310e+00	-2.4910088826e+00
 1.3524229208e-01	 1.3073137459e+00	-2.4805361765e+00
 1.0783776382e-01	 1.3098590555e+00	-2.4732737309e+00
 8.0595492109e-02	 1.3118171133e+00	-2.4714378726e+00
 5.3531634788e-02	 1.3131999808e+00	-2.4771269674e+00
 2.6661592237e-02	 1.3140201795e+00	-2.4923715036e+00
 0.0000000000e+00	 1.3142906426e+00	-2.5191779806e+00
 2.8003987648e-01	 1.3133366357e+00	-2.2651729727e+00
 2.5148448061e-01	 1.3191023042e+00	-2.2562190852e+00
 2.2300121347e-01	 1.3242151207e+00	-2.2400127312e+00
 1.9461022218e-01	 1.3286843150e+00	-2.2200073967e+00
 1.6633096894e-01	 1.3325198349e+00	-2.1992648252e+00
 1.3818220609e-01	 1.3357322970e+00	-2.1805217885e+00
 1.1018195474e-01	 1.3383329369e+00	-2.1662605588e+00
 8.2347487083e-02	 1.3403335592e+00	-2.1587793097e+00
 5.4695312217e-02	 1.3417464877e+00	-2.1602592248e+00
 2.7241165292e-02	 1.3425845159e+00	-2.1728256722e+00
 0.0000000000e+00	 1.3428608584e+00	-2.1986013898e+00
 2.8599789676e-01	 1.3412786789e+00	-2.0382719160e+00
 2.5683496732e-01	 1.3471670155e+00	-2.0194859049e+00
 2.2774570118e-01	 1.3523886103e+00	-1.9942114326e+00
 1.9875067412e-01	 1.3569528895e+00	-1.9660289690e+00
 1.6986976242e-01	 1.3608700124e+00	-1.9380763370e+00
 1.4112211735e-01	 1.3641508216e+00	-1.9131330633e+00
 1.1252614346e-01	 1.3668067917e+00	-1.8937076952e+00
 8.4099480422e-02	 1.3688499785e+00	-1.8821238342e+00
 5.5858988561e-02	 1.3702929679e+00	-1.8806012782e+00
 2.7820737806e-02	 1.3711488257e+00	-1.8913293344e+00
 0.0000000000e+00	 1.3714310475e+00	-1.9165300423e+00
 2.9195591218e-01	 1.3692206992e+00	-1.8302220419e+00
 2.6218544965e-01	 1.3752317039e+00	-1.8032414133e+00
 2.3249018502e-01	 1.3805620769e+00	-1.7707200268e+00
 2.0289112268e-01	 1.3852214408e+00	-1.7362622225e+00
 1.7340855300e-01	 1.3892201668e+00	-1.7029839457e+00
 1.4406202621e-01	 1.3925693230e+00	-1.6736170405e+00
 1.1487033027e-01	 1.3952806233e+00	-1.6506155330e+00
 8.5851472330e-02	 1.3973663744e+00	-1.6362591389e+00
 5.7022663954e-02	 1.3988394247e+00	-1.6327499708e+00
 2.8400309847e-02	 1.3997131121e+00	-1.6422991909e+00
 0.0000000000e+00	 1.4000012133e+00	-1.6672011352e+00
 2.9791392343e-01	 1.3971627000e+00	-1.6386721083e+00
 2.6753592825e-01	 1.4032963726e+00	-1.6046031708e+00
 2.3723466554e-01	 1.4087355238e+00	-1.5662202951e+00
 2.0703156835e-01	 1.4134899724e+00	-1.5270337975e+00
 1.7694734110e-01	 1.4175703013e+00	-1.4900249681e+00
 1.4700193302e-01	 1.4209878045e+00	-1.4577729437e+00
 1.1721451544e-01	 1.4237544349e+00	-1.4325823280e+00
 8.7603463011e-02	 1.4258827505e+00	-1.4166062354e+00
 5.8186338532e-02	 1.4273858616e+00	-1.4119602838e+00
 2.8979881482e-02	 1.4282773786e+00	-1.4208239496e+00
 0.0000000000e+00	 1.4285713591e+00	-1.4455265818e+00
 3.0387193120e-01	 1.4251046845e+00	-1.4614132851e+00
 2.7288640372e-01	 1.4313610249e+00	-1.4209147533e+00
 2.4197914329e-01	 1.4369089542e+00	-1.3776973373e+00
 2.1117201160e-01	 1.4417584875e+00	-1.3350438125e+00
 1.8048612714e-01	 1.4459204192e+00	-1.2956724309e+00
 1.4994183810e-01	 1.4494062694e+00	-1.2618892947e+00
 1.1955869924e-01	 1.4522282299e+00	-1.2357399435e+00
 8.9355452671e-02	 1.4543991099e+00	-1.2191542258e+00
 5.9350012432e-02	 1.4559322819e+00	-1.2140794963e+00
 2.9559452779e-02	 1.4568416283e+00	-1.2225981960e+00
 0.0000000000e+00	 1.4571414882e+00	-1.2470268784e+00
 3.0982993619e-01	 1.4530466559e+00	-1.2963349691e+00
 2.7823687669e-01	 1.4594256642e+00	-1.2496982502e+00
 2.4672361882e-01	 1.4650823715e+00	-1.2023892730e+00
 2.1531245291e-01	 1.4700269894e+00	-1.1573132508e+00
 1.8402491153e-01	 1.4742705239e+00	-1.1167805852e+00
 1.5288174182e-01	 1.4778247211e+00	-1.0826879600e+00
 1.2190288195e-01	 1.4807020116e+00	-1.0566967959e+00
 9.1107441513e-02	 1.4829154559e+00	-1.0404242611e+00
 6.0513685788e-02	 1.4844786888e+00	-1.0355628091e+00
 3.0139023805e-02	 1.4854058648e+00	-1.0439611013e+00
 0.0000000000e+00	 1.4857116040e+00	-1.0678614539e+00
 3.1578793910e-01	 1.4809886176e+00	-1.1413845037e+00
 2.8358734779e-01	 1.4874902936e+00	-1.0896694060e+00
 2.5146809269e-01	 1.4932557789e+00	-1.0413791716e+00
 2.1945289278e-01	 1.4982954814e+00	-9.9762047212e-01
 1.8756369468e-01	 1.5026206188e+00	-9.5927451497e-01
 1.5582164450e-01	 1.5062431628e+00	-9.2722807947e-01
 1.2424706384e-01	 1.5091757834e+00	-9.0253386481e-01
 9.2859429741e-02	 1.5114317920e+00	-8.8652114124e-01
 6.1677358737e-02	 1.5130250857e+00	-8.8086885713e-01
 3.0718594629e-02	 1.5139700912e+00	-8.8765217641e-01
 0.0000000000e+00	 1.5142817098e+00	-9.0937201975e-01
 3.2174594061e-01	 1.5089305727e+00	-1.0187112949e+00
 2.8893781764e-01	 1.5155549165e+00	-9.6942551298e-01
 2.5621256546e-01	 1.5214291798e+00	-9.2307508812e-01
 2.2359333168e-01	 1.5265639668e+00	-8.8028004811e-01
 1.9110247700e-01	 1.5309707069e+00	-8.4167104828e-01
 1.5876154650e-01	 1.5346615979e+00	-8.0807909094e-01
 1.2659124518e-01	 1.5376495485e+00	-7.8065919313e-01
 9.4611417561e-02	 1.5399481215e+00	-7.6096303319e-01
 6.2841031415e-02	 1.5415714760e+00	-7.5097451632e-01
 3.1298165318e-02	 1.5425343110e+00	-7.5312076305e-01
 0.0000000000e+00	 1.5428518089e+00	-7.7026934781e-01
 3.2770394143e-01	 1.5368725246e+00	-9.5226135296e-01
 2.9428828687e-01	 1.5436195361e+00	-9.0089936017e-01
 2.6095703767e-01	 1.5496025774e+00	-8.5179363328e-01
 2.2773377010e-01	 1.5548324489e+00	-8.0515234540e-01
 1.9464125891e-01	 1.5593207918e+00	-7.6145275554e-01
 1.6170144816e-01	 1.5630800297e+00	-7.2158975897e-01
 1.2893542625e-01	 1.5661233103e+00	-6.8695513518e-01
 9.6363405176e-02	 1.5684644476e+00	-6.5946475356e-01
 6.4004703957e-02	 1.5701178630e+00	-6.4154964708e-01
 3.1877735938e-02	 1.5710985275e+00	-6.3612513791e-01
 0.0000000000e+00	 1.5714219047e+00	-6.4655021342e-01
 1.5714219047e+00	 0.0000000000e+00	 3.6579395923e+00
 1.5710985275e+00	 3.1877735938e-02	 3.6390821666e+00
 1.5701178630e+00	 6.4004703957e-02	 3.6126563517e+00
 1.5684644476e+00	 9.6363405176e-02	 3.5756234576e+00
 1.5661233103e+00	 1.2893542625e-01	 3.5253529675e+00
 1.5630800297e+00	 1.6170144816e-01	 3.4597339009e+00
 1.5593207918e+00	 1.9464125891e-01	 3.3772805275e+00
 1.5548324489e+00	 2.2773377010e-01	 3.2772202965e+00
 1.5496025774e+00	 2.6095703767e-01	 3.1595498474e+00
 1.5436195361e+00	 2.9428828687e-01	 3.0250432065e+00
 1.5368725246e+00	 3.2770394143e-01	 2.8751948460e+00
 1.5999939988e+00	 0.0000000000e+00	 3.5939799937e+00
 1.5996647418e+00	 3.2457347097e-02	 3.5816010169e+00
 1.5986662466e+00	 6.5168457892e-02	 3.5622328235e+00
 1.5969827683e+00	 9.8115515334e-02	 3.5323676346e+00
 1.5945990637e+00	 1.3127977128e-01	 3.4889342447e+00
 1.5915004492e+00	 1.6464155545e-01	 3.4294532231e+00
 1.5876728597e+00	 1.9818028834e-01	 3.3521909350e+00
 1.5831029083e+00	 2.3187449812e-01	 3.2562988522e+00
 1.5777779455e+00	 2.6570184174e-01	 3.1419222994e+00
 1.5716861187e+00	 2.9963913033e-01	 3.0102607039e+00
 1.5648164309e+00	 3.3366235898e-01	 2.8635597089e+00
 1.6285660863e+00	 0.0000000000e+00	 3.5363465953e+00
 1.6282309496e+00	 3.3036958121e-02	 3.5268023693e+00
 1.6272146236e+00	 6.6332211556e-02	 3.5106641728e+00
 1.6255010824e+00	 9.9867625083e-02	 3.4841726655e+00
 1.6230748105e+00	 1.3362411576e-01	 3.4440140904e+00
 1.6199208620e+00	 1.6758166205e-01	 3.3875223063e+00
 1.6160249209e+00	 2.0171931695e-01	 3.3128848558e+00
 1.6113733610e+00	 2.3601522517e-01	 3.2193380506e+00
 1.6059533071e+00	 2.7044664470e-01	 3.1073333699e+00
 1.5997526948e+00	 3.0498997255e-01	 2.9786550428e+00
 1.5927603307e+00	 3.3962077514e-01	 2.8364666626e+00
 1.6571381604e+00	 0.0000000000e+00	 3.4831967164e+00
 1.6567971439e+00	 3.3616568874e-02	 3.4739054687e+00
 1.6557629872e+00	 6.7495964676e-02	 3.4582229513e+00
 1.6540193831e+00	 1.0161973402e-01	 3.4323166646e+00
 1.6515505439e+00	 1.3596845915e-01	 3.3927865718e+00
 1.6483412616e+00	 1.7052176728e-01	 3.3369175004e+00
 1.6443769689e+00	 2.0525834390e-01	 3.2629416345e+00
 1.6396438006e+00	 2.4015595030e-01	 3.1702944888e+00
 1.6341286556e+00	 2.7519144544e-01	 3.0598446720e+00
 1.6278192577e+00	 3.1034081227e-01	 2.9340749412e+00
 1.6207042174e+00	 3.4557918852e-01	 2.7971896709e+00
 1.6857102146e+00	 0.0000000000e+00	 3.4329505883e+00
 1.6853633183e+00	 3.4196179222e-02	 3.4222484528e+00
 1.6843113309e+00	 6.8659716982e-02	 3.4051774021e+00
 1.6825376639e+00	 1.0337184172e-01	 3.3779707708e+00
 1.6800262575e+00	 1.3831280090e-01	 3.3372561615e+00
 1.6767616413e+00	 1.7346187046e-01	 3.2803623182e+00
 1.6727289970e+00	 2.0879736838e-01	 3.2056430787e+00
 1.6679142204e+00	 2.4429667252e-01	 3.1128001004e+00
 1.6623039843e+00	 2.7993624286e-01	 3.0031825294e+00
 1.6558858011e+00	 3.1569164824e-01	 2.8800385585e+00
 1.6486480846e+00	 3.5153759773e-01	 2.7486910530e+00
 1.7142822420e+00	 0.0000000000e+00	 3.3842694329e+00
 1.7139294661e+00	 3.4775789029e-02	 3.3712748938e+00
 1.7128596479e+00	 6.9823468202e-02	 3.3517861470e+00
 1.7110559180e+00	 1.0512394779e-01	 3.3222015125e+00
 1.7085019444e+00	 1.4065714046e-01	 3.2792471578e+00
 1.7051819945e+00	 1.7640197088e-01	 3.2203431271e+00
 1.7010809987e+00	 2.1233638955e-01	 3.1439944750e+00
 1.6961846138e+00	 2.4843739088e-01	 3.0501873815e+00
 1.6904792867e+00	 2.8468103585e-01	 2.9407661282e+00
 1.6839523182e+00	 3.2104247922e-01	 2.8197631237e+00
 1.6765919256e+00	 3.5749600138e-01	 2.6936509702e+00
 1.7428542361e+00	 0.0000000000e+00	 3.3360356992e+00
 1.7424955805e+00	 3.5355398160e-02	 3.3205216864e+00
 1.7414079316e+00	 7.0987218065e-02	 3.2982934830e+00
 1.7395741389e+00	 1.0687605182e-01	 3.2659731312e+00
 1.7369775981e+00	 1.4300147729e-01	 3.2204125056e+00
 1.7336023145e+00	 1.7934206788e-01	 3.1591237889e+00
 1.7294329673e+00	 2.1587540659e-01	 3.0807442124e+00
 1.7244549742e+00	 2.5257810441e-01	 2.9855130060e+00
 1.7186545563e+00	 2.8942582331e-01	 2.8757339755e+00
 1.7120188025e+00	 3.2639330396e-01	 2.7561929270e+00
 1.7045357341e+00	 3.6345439808e-01	 2.6344954859e+00
 1.7714261903e+00	 0.0000000000e+00	 3.2873352123e+00
 1.7710616549e+00	 3.5935006479e-02	 3.2696081310e+00
 1.7699561753e+00	 7.2150966298e-02	 3.2449252229e+00
 1.7680923199e+00	 1.0862815339e-01	 3.2101498688e+00
 1.7654532120e+00	 1.4534581083e-01	 3.1622420867e+00
 1.7620225948e+00	 1.8228216077e-01	 3.0987593644e+00
 1.7577848962e+00	 2.1941441868e-01	 3.0184021693e+00
 1.7527252950e+00	 2.5671881214e-01	 2.9215800132e+00
 1.7468297864e+00	 2.9417060413e-01	 2.8109688548e+00
 1.7400852476e+00	 3.3174412121e-01	 2.6920258613e+00
 1.7324795035e+00	 3.6941278643e-01	 2.5734233607e+00
 1.7999980977e+00	 0.0000000000e+00	 3.2374410231e+00
 1.7996276826e+00	 3.6514613852e-02	 3.2182260795e+00
 1.7985043724e+00	 7.3314712632e-02	 3.1918850167e+00
 1.7966104543e+00	 1.1038025210e-01	 3.1554982240e+00
 1.7939287794e+00	 1.4769014055e-01	 3.1060705379e+00
 1.7904428286e+00	 1.8522224885e-01	 3.0411089892e+00
 1.7861367788e+00	 2.2295342499e-01	 2.9592570025e+00
 1.7809955697e+00	 2.6085951311e-01	 2.8609587255e+00
 1.7750049704e+00	 2.9891537720e-01	 2.7491214452e+00
 1.7681516468e+00	 3.3709492972e-01	 2.6297386727e+00
 1.7604232272e+00	 3.7537116506e-01	 2.5124035303e+00
 1.8285699519e+00	 0.0000000000e+00	 3.1857987722e+00
 1.8281936571e+00	 3.7094220143e-02	 3.1661310259e+00
 1.8270525163e+00	 7.4478456793e-02	 3.1393511025e+00
 1.8251285354e+00	 1.1213234755e-01	 3.1026891787e+00
 1.8224042936e+00	 1.5003446589e-01	 3.0530846488e+00
 1.8188630094e+00	 1.8816233144e-01	 2.9878480092e+00
 1.8144886085e+00	 2.2649242470e-01	 2.9053924572e+00
 1.8092657916e+00	 2.6500020635e-01	 2.8060065354e+00
 1.8031801019e+00	 3.0366014141e-01	 2.6926327512e+00
 1.7962179937e+00	 3.4244572824e-01	 2.5716110626e+00
 1.7883668988e+00	 3.8132953256e-01	 2.4532848640e+00
 1.8571417460e+00	 0.0000000000e+00	 3.1355673333e+00
 1.8567595715e+00	 3.7673825218e-02	 3.1159991079e+00
 1.8556006001e+00	 7.5642198511e-02	 3.0890084354e+00
 1.8536465567e+00	 1.1388443931e-01	 3.0526128780e+00
 1.8508797480e+00	 1.5237878631e-01	 3.0043303840e+00
 1.8472831305e+00	 1.9110240786e-01	 2.9404794563e+00
 1.8428403787e+00	 2.3003141697e-01	 2.8587028041e+00
 1.8375359541e+00	 2.6914089089e-01	 2.7588866826e+00
 1.8313551743e+00	 3.0840489565e-01	 2.6437554704e+00
 1.8242842816e+00	 3.4779651552e-01	 2.5197487640e+00
 1.8163105116e+00	 3.8728788755e-01	 2.3978727717e+00
 1.5368725246e+00	 3.2770394143e-01	 2.8751948460e+00
 1.5293521932e+00	 3.6117731837e-01	 2.7160915191e+00
 1.5210491483e+00	 3.9468571561e-01	 2.5549857692e+00
 1.5119554483e+00	 4.2820341508e-01	 2.3853466269e+00
 1.5020642103e+00	 4.6170405990e-01	 2.2078794683e+00
 1.4913696599e+00	 4.9516070524e-01	 2.0240527713e+00
 1.4798671787e+00	 5.2854587333e-01	 1.8354470701e+00
 1.4675533477e+00	 5.6183161242e-01	 1.6382156829e+00
 1.4544259888e+00	 5.9498955959e-01	 1.4305178413e+00
 1.4404842011e+00	 6.2799100716e-01	 1.2145543135e+00
 1.4257283940e+00	 6.6080697247e-01	 9.9340455020e-01
 1.5648164309e+00	 3.3366235898e-01	 2.8635597089e+00
 1.5571593625e+00	 3.6774435953e-01	 2.7065731264e+00
 1.5487053489e+00	 4.0186201714e-01	 2.5423781897e+00
 1.5394463044e+00	 4.3598914611e-01	 2.3661054940e+00
 1.5293752207e+00	 4.7009891033e-01	 2.1795362590e+00
 1.5184862186e+00	 5.0416387507e-01	 1.9847317174e+00
 1.5067745956e+00	 5.3815606293e-01	 1.7839571066e+00
 1.4942368706e+00	 5.7204701394e-01	 1.5796639978e+00
 1.4808708259e+00	 6.0580784948e-01	 1.3744790983e+00
 1.4666755442e+00	 6.3940933990e-01	 1.1652437266e+00
 1.4516514423e+00	 6.7282197555e-01	 9.5013651395e-01
 1.5927603307e+00	 3.3962077514e-01	 2.8364666626e+00
 1.5849665252e+00	 3.7431139917e-01	 2.6838690396e+00
 1.5763615431e+00	 4.0903831699e-01	 2.5189428688e+00
 1.5669371540e+00	 4.4377487532e-01	 2.3393490745e+00
 1.5566862247e+00	 4.7849375880e-01	 2.1473689501e+00
 1.5456027710e+00	 5.1316704279e-01	 1.9455403226e+00
 1.5336820062e+00	 5.4776625029e-01	 1.7366089188e+00
 1.5209203873e+00	 5.8226241308e-01	 1.5234950825e+00
 1.5073156568e+00	 6.1662613684e-01	 1.3092812408e+00
 1.4928668811e+00	 6.5082766996e-01	 1.0972247335e+00
 1.4775744845e+00	 6.8483697582e-01	 8.9040938800e-01
 1.6207042174e+00	 3.4557918852e-01	 2.7971896709e+00
 1.6127736749e+00	 3.8087843573e-01	 2.6500677365e+00
 1.6040177244e+00	 4.1621461350e-01	 2.4864608457e+00
 1.5944279908e+00	 4.5156060089e-01	 2.3061154188e+00
 1.5839972160e+00	 4.8688860336e-01	 2.1116759182e+00
 1.5727193107e+00	 5.2217020632e-01	 1.9060601565e+00
 1.5605894043e+00	 5.5737643316e-01	 1.6923915115e+00
 1.5476038916e+00	 5.9247780745e-01	 1.4739493578e+00
 1.5337604754e+00	 6.2744441916e-01	 1.2541439838e+00
 1.5190582058e+00	 6.6224599470e-01	 1.0365213739e+00
 1.5034975146e+00	 6.9685197049e-01	 8.2480202007e-01
 1.6486480846e+00	 3.5153759773e-01	 2.7486910530e+00
 1.6405808052e+00	 3.8744546770e-01	 2.6074085323e+00
 1.6316738862e+00	 4.2339090498e-01	 2.4465174497e+00
 1.6219188084e+00	 4.5934632102e-01	 2.2672745882e+00
 1.6113081882e+00	 4.9528344204e-01	 2.0726163856e+00
 1.5998358314e+00	 5.3117336354e-01	 1.8657632227e+00
 1.5874967835e+00	 5.6698660931e-01	 1.6501311271e+00
 1.5742873771e+00	 6.0269319467e-01	 1.4292650122e+00
 1.5602052755e+00	 6.3826269391e-01	 1.2068006772e+00
 1.5452495122e+00	 6.7366431145e-01	 9.8646178072e-01
 1.5294205266e+00	 7.0886695675e-01	 7.7209663503e-01
 1.6765919256e+00	 3.5749600138e-01	 2.6936509702e+00
 1.6683879096e+00	 3.9401249355e-01	 2.5579708116e+00
 1.6593300223e+00	 4.3056718976e-01	 2.4005176080e+00
 1.6494096003e+00	 4.6713203388e-01	 2.2235429258e+00
 1.6386191349e+00	 5.0367827289e-01	 2.0302240751e+00
 1.6269523269e+00	 5.4017651236e-01	 1.8240254806e+00
 1.6144041377e+00	 5.7659677648e-01	 1.6085882404e+00
 1.6009708378e+00	 6.1290857236e-01	 1.3876450283e+00
 1.5866500508e+00	 6.4908095856e-01	 1.1649686114e+00
 1.5714407942e+00	 6.8508261754e-01	 9.4436111336e-01
 1.5553435143e+00	 7.2088193179e-01	 7.2968960742e-01
 1.7045357341e+00	 3.6345439808e-01	 2.6344954859e+00
 1.6961949815e+00	 4.0057951173e-01	 2.5036441563e+00
 1.6869861261e+00	 4.3774346617e-01	 2.3497002941e+00
 1.6769003602e+00	 4.7491773766e-01	 2.1754967367e+00
 1.6659300497e+00	 5.1207309394e-01	 1.9844205243e+00
 1.6540687907e+00	 5.4917965068e-01	 1.7801402529e+00
 1.6413114604e+00	 5.8620693245e-01	 1.5664715712e+00
 1.6276542673e+00	 6.2312393813e-01	 1.3472723566e+00
 1.6130947954e+00	 6.5989921058e-01	 1.1263769893e+00
 1.5976320456e+00	 6.9650091031e-01	 9.0757785598e-01
 1.5812664719e+00	 7.3289689282e-01	 6.9466047189e-01
 1.7324795035e+00	 3.6941278643e-01	 2.5734233607e+00
 1.7240020144e+00	 4.0714652071e-01	 2.4461428957e+00
 1.7146421912e+00	 4.4491973254e-01	 2.2951522140e+00
 1.7043910815e+00	 4.8270343054e-01	 2.1235854440e+00
 1.6932409263e+00	 5.2046790324e-01	 1.9350280983e+00
 1.6811852165e+00	 5.5818277639e-01	 1.7333315324e+00
 1.6682187455e+00	 5.9581707496e-01	 1.5224521689e+00
 1.6543376594e+00	 6.3333928959e-01	 1.3063253068e+00
 1.6395395029e+00	 6.7071744746e-01	 1.0887841881e+00
 1.6238232603e+00	 7.0791918710e-01	 8.7353354618e-01
 1.6071893931e+00	 7.4491183702e-01	 6.6402001913e-01
 1.7604232272e+00	 3.7537116506e-01	 2.5124035303e+00
 1.7518090020e+00	 4.1371351897e-01	 2.3870197565e+00
 1.7422982112e+00	 4.5209598718e-01	 2.2378208159e+00
 1.7318817580e+00	 4.9048911070e-01	 2.0681442792e+00
 1.7205517583e+00	 5.2886269883e-01	 1.8817827345e+00
 1.7083015980e+00	 5.6718588740e-01	 1.6827671998e+00
 1.6951259866e+00	 6.0542720177e-01	 1.4751775643e+00
 1.6810210080e+00	 6.4355462437e-01	 1.2629931318e+00
 1.6659841672e+00	 6.8153566668e-01	 1.0499953076e+00
 1.6500144322e+00	 7.1933744523e-01	 8.3973284878e-01
 1.6331122720e+00	 7.5692676161e-01	 6.3321272778e-01
 1.7883668988e+00	 3.8132953256e-01	 2.4532848640e+00
 1.7796159376e+00	 4.2028050498e-01	 2.3276787138e+00
 1.7699541795e+00	 4.5927222843e-01	 2.1785266951e+00
 1.7593723831e+00	 4.9827477633e-01	 2.0094065575e+00
 1.7478625393e+00	 5.3725747875e-01	 1.8243464466e+00
 1.7354179289e+00	 5.7618898160e-01	 1.6275721595e+00
 1.7220331775e+00	 6.1503731065e-01	 1.4232859785e+00
 1.7077043068e+00	 6.5376994009e-01	 1.2154917830e+00
 1.6924287821e+00	 6.9235386569e-01	 1.0078799748e+00
 1.6762055553e+00	 7.3075568205e-01	 8.0378393671e-01
 1.6590351025e+00	 7.6894166376e-01	 5.9946734534e-01
 1.8163105116e+00	 3.8728788755e-01	 2.3978727717e+00
 1.8074228149e+00	 4.2684747719e-01	 2.2693871268e+00
 1.7976100897e+00	 4.6644845461e-01	 2.1179754613e+00
 1.7868629505e+00	 5.0606042561e-01	 1.9475155821e+00
 1.7751732630e+00	 5.4565224104e-01	 1.7623196168e+00
 1.7625342029e+00	 5.8519205690e-01	 1.5668414057e+00
 1.7489403119e+00	 6.2464739934e-01	 1.3654205834e+00
 1.7343875495e+00	 6.6398523435e-01	 1.1620798184e+00
 1.7188733416e+00	 7.0317204199e-01	 9.6039037664e-01
 1.7023966233e+00	 7.4217389490e-01	 7.6340226327e-01
 1.6849578786e+00	 7.8095654068e-01	 5.6080903924e-01
 1.4257283940e+00	 6.6080697247e-01	 9.9340455020e-01
 1.4101591987e+00	 6.9341054318e-01	 7.7176466584e-01
 1.3937807380e+00	 7.2577009011e-01	 5.5379128139e-01
 1.3765975130e+00	 7.5785623786e-01	 3.3973654716e-01
 1.3586154192e+00	 7.8963964229e-01	 1.1742758468e-01
 1.3398417545e+00	 8.2109107206e-01	-1.1118616296e-01
 1.3202852210e+00	 8.5218149143e-01	-3.4147659840e-01
 1.2999559218e+00	 8.8288214371e-01	-5.6850014323e-01
 1.2788653509e+00	 9.1316463496e-01	-7.8706877488e-01
 1.2570263780e+00	 9.4300101741e-01	-9.9183305656e-01
 1.2344532266e+00	 9.7236387216e-01	-1.1773768586e+00
 1.4516514423e+00	 6.7282197555e-01	 9.5013651395e-01
 1.4357991629e+00	 7.0601835478e-01	 7.3453651108e-01
 1.4191229038e+00	 7.3896627330e-01	 5.2325446132e-01
 1.4016272480e+00	 7.7163582163e-01	 3.0962338729e-01
 1.3833181980e+00	 8.0399712205e-01	 8.5157132340e-02
 1.3642031845e+00	 8.3602041175e-01	-1.4578871326e-01
 1.3442910679e+00	 8.6767612703e-01	-3.7842937125e-01
 1.3235921349e+00	 8.9893498836e-01	-6.0764242994e-01
 1.3021180885e+00	 9.2976808552e-01	-8.2804060735e-01
 1.2798820324e+00	 9.6014696259e-01	-1.0340578226e+00
 1.2568984487e+00	 9.9004370213e-01	-1.2200483915e+00
 1.4775744845e+00	 6.8483697582e-01	 8.9040938800e-01
 1.4614391211e+00	 7.1862616343e-01	 6.8622098698e-01
 1.4444650637e+00	 7.5216245342e-01	 4.8528395981e-01
 1.4266569770e+00	 7.8541540218e-01	 2.7399362411e-01
 1.4080209710e+00	 8.1835459846e-01	 5.1263726944e-02
 1.3885646088e+00	 8.5094974795e-01	-1.7841506114e-01
 1.3682969092e+00	 8.8317075902e-01	-4.1012904938e-01
 1.3472283424e+00	 9.1498782926e-01	-6.3860094998e-01
 1.3253708207e+00	 9.4637153220e-01	-8.5826363475e-01
 1.3027376815e+00	 9.7729290377e-01	-1.0633486530e+00
 1.2793436657e+00	 1.0077235280e+00	-1.2479894701e+00
 1.5034975146e+00	 6.9685197049e-01	 8.2480202007e-01
 1.4870790673e+00	 7.3123396620e-01	 6.2569336982e-01
 1.4698072118e+00	 7.6535862738e-01	 4.3548661095e-01
 1.4516866944e+00	 7.9919497630e-01	 2.3060435732e-01
 1.4327237324e+00	 8.3271206817e-01	 1.3443865316e-02
 1.4129260217e+00	 8.6587907718e-01	-2.1143252617e-01
 1.3923027392e+00	 8.9866538377e-01	-4.3901048006e-01
 1.3708645390e+00	 9.3104066268e-01	-6.6388188729e-01
 1.3486235420e+00	 9.6297497115e-01	-8.8031880805e-01
 1.3255933199e+00	 9.9443883695e-01	-1.0823637759e+00
 1.3017888722e+00	 1.0254033456e+00	-1.2639365972e+00
 1.5294205266e+00	 7.0886695675e-01	 7.7209663503e-01
 1.5127189956e+00	 7.4384176015e-01	 5.7117264858e-01
 1.4951493421e+00	 7.7855479210e-01	 3.7565816854e-01
 1.4767163943e+00	 8.1297454078e-01	 1.7723815814e-01
 1.4574264766e+00	 8.4706952783e-01	-3.0568666706e-02
 1.4372874176e+00	 8.8080839596e-01	-2.4716063046e-01
 1.4163085525e+00	 9.1415999769e-01	-4.6745194391e-01
 1.3945007189e+00	 9.4709348486e-01	-6.8592823301e-01
 1.3718762470e+00	 9.7957839846e-01	-8.9671977280e-01
 1.3484489423e+00	 1.0115847581e+00	-1.0936928459e+00
 1.3242340629e+00	 1.0430831508e+00	-1.2705595630e+00
 1.5553435143e+00	 7.2088193179e-01	 7.2968960742e-01
 1.5383589000e+00	 7.5644954233e-01	 5.2674782380e-01
 1.5204914488e+00	 7.9175094451e-01	 3.2390113389e-01
 1.5017460708e+00	 8.2675409239e-01	 1.1975555446e-01
 1.4821291977e+00	 8.6142697409e-01	-8.2975830166e-02
 1.4616487908e+00	 8.9573770082e-01	-2.8785026637e-01
 1.4403143433e+00	 9.2965459714e-01	-4.9775309242e-01
 1.4181368769e+00	 9.6314629205e-01	-7.0709656743e-01
 1.3951289303e+00	 9.9618181029e-01	-9.0988857270e-01
 1.3713045434e+00	 1.0287306633e+00	-1.0998316474e+00
 1.3466792327e+00	 1.0607629395e+00	-1.2704352283e+00
 1.5812664719e+00	 7.3289689282e-01	 6.9466047189e-01
 1.5639987745e+00	 7.6905730980e-01	 4.8859642602e-01
 1.5458335259e+00	 8.0494708152e-01	 2.8028910236e-01
 1.5267757182e+00	 8.4053362793e-01	 7.1704310327e-02
 1.5068318900e+00	 8.7578440360e-01	-1.3446637566e-01
 1.4860101355e+00	 9.1066698825e-01	-3.3532708675e-01
 1.4643201062e+00	 9.4514917851e-01	-5.3211245576e-01
 1.4417730072e+00	 9.7919908052e-01	-7.2963342284e-01
 1.4183815866e+00	 1.0127852027e+00	-9.2213094876e-01
 1.3941601178e+00	 1.0458765485e+00	-1.1031564144e+00
 1.3691243763e+00	 1.0784427076e+00	-1.2660209479e+00
 1.6071893931e+00	 7.4491183702e-01	 6.6402001913e-01
 1.5896386130e+00	 7.8166505962e-01	 4.5408490182e-01
 1.5711755675e+00	 8.1814320006e-01	 2.4218759648e-01
 1.5518053304e+00	 8.5431314418e-01	 3.0897304623e-02
 1.5315345478e+00	 8.9014181301e-01	-1.7713304967e-01
 1.5103714462e+00	 9.2559625478e-01	-3.7909187677e-01
 1.4883258354e+00	 9.6064373819e-01	-5.7190820769e-01
 1.4654091045e+00	 9.9525184651e-01	-7.5565127498e-01
 1.4416342102e+00	 1.0293885719e+00	-9.3561127989e-01
 1.4170156602e+00	 1.0630224096e+00	-1.1058978073e+00
 1.3915694885e+00	 1.0961224509e+00	-1.2596276749e+00
 1.6331122720e+00	 7.5692676161e-01	 6.3321272778e-01
 1.6152784097e+00	 7.9427278885e-01	 4.2081430821e-01
 1.5965175677e+00	 8.3133929704e-01	 2.0719551805e-01
 1.5768349018e+00	 8.6809263792e-01	-5.0697186191e-03
 1.5562371651e+00	 9.0449919897e-01	-2.1338184913e-01
 1.5347327170e+00	 9.4052549693e-01	-4.1503552179e-01
 1.5123315255e+00	 9.7613827256e-01	-6.0711006335e-01
 1.4890451631e+00	 1.0113045863e+00	-7.8633182281e-01
 1.4648867959e+00	 1.0459919140e+00	-9.5232720527e-01
 1.4398711653e+00	 1.0801682428e+00	-1.1101145880e+00
 1.4140145641e+00	 1.1138021654e+00	-1.2534292448e+00
 1.6590351025e+00	 7.6894166376e-01	 5.9946734534e-01
 1.6409181585e+00	 8.0688049454e-01	 3.8660374637e-01
 1.6218595206e+00	 8.4453536940e-01	 1.7312806473e-01
 1.6018644265e+00	 8.8187210594e-01	-3.8385289907e-02
 1.5809397364e+00	 9.1885655813e-01	-2.4540235877e-01
 1.5590939424e+00	 9.5545471121e-01	-4.4534421260e-01
 1.5363371707e+00	 9.9163277801e-01	-6.3546825248e-01
 1.5126811776e+00	 1.0273572961e+00	-8.1271742164e-01
 1.4881393381e+00	 1.0625952251e+00	-9.7353998948e-01
 1.4627266278e+00	 1.0973140440e+00	-1.1176670248e+00
 1.4364595977e+00	 1.1314818469e+00	-1.2510379145e+00
 1.6849578786e+00	 7.8095654068e-01	 5.6080903924e-01
 1.6665578535e+00	 8.1948817376e-01	 3.4947408172e-01
 1.6472014204e+00	 8.5773141404e-01	 1.3799992997e-01
 1.6268938986e+00	 8.9565154503e-01	-7.1039450082e-02
 1.6056422558e+00	 9.3321388714e-01	-2.7518532597e-01
 1.5834551166e+00	 9.7038389414e-01	-4.7200355787e-01
 1.5603427655e+00	 1.0071272509e+00	-6.5895638695e-01
 1.5363171425e+00	 1.0434099722e+00	-8.3323779608e-01
 1.5113918316e+00	 1.0791985014e+00	-9.9157521440e-01
 1.4855820422e+00	 1.1144598091e+00	-1.1300345434e+00
 1.4589045842e+00	 1.1491614912e+00	-1.2541938312e+00
 1.2344532266e+00	 9.7236387216e-01	-1.1773768586e+00
 1.2111614434e+00	 1.0012263933e+00	-1.3453281647e+00
 1.1871678547e+00	 1.0295624759e+00	-1.4972055747e+00
 1.1624905374e+00	 1.0573467848e+00	-1.6275774763e+00
 1.1371487784e+00	 1.0845548274e+00	-1.7312930894e+00
 1.1111630244e+00	 1.1111630244e+00	-1.8036097677e+00
 1.0845548274e+00	 1.1371487784e+00	-1.8620540074e+00
 1.0573467848e+00	 1.1624905374e+00	-1.9226269031e+00
 1.0295624759e+00	 1.1871678547e+00	-1.9782957711e+00
 1.0012263933e+00	 1.2111614434e+00	-2.0216280850e+00
 9.7236387216e-01	 1.2344532266e+00	-2.0449866233e+00
 1.2568984487e+00	 9.9004370213e-01	-1.2200483915e+00
 1.2331831670e+00	 1.0194310109e+00	-1.3870953915e+00
 1.2087533192e+00	 1.0482823091e+00	-1.5362416383e+00
 1.1836273110e+00	 1.0765718012e+00	-1.6619350172e+00
 1.1578247801e+00	 1.1042745491e+00	-1.7589272456e+00
 1.1313665448e+00	 1.1313665448e+00	-1.8293955695e+00
 1.1042745491e+00	 1.1578247801e+00	-1.8881664194e+00
 1.0765718012e+00	 1.1836273110e+00	-1.9447987190e+00
 1.0482823091e+00	 1.2087533192e+00	-1.9972039993e+00
 1.0194310109e+00	 1.2331831670e+00	-2.0376473629e+00
 9.9004370213e-01	 1.2568984487e+00	-2.0582112227e+00
 1.2793436657e+00	 1.0077235280e+00	-1.2479894701e+00
 1.2552048854e+00	 1.0376356241e+00	-1.4127295846e+00
 1.2303387786e+00	 1.0670021379e+00	-1.5580748503e+00
 1.2047640797e+00	 1.0957968131e+00	-1.6782526795e+00
 1.1785007769e+00	 1.1239942662e+00	-1.7702863315e+00
 1.1515700605e+00	 1.1515700605e+00	-1.8480160294e+00
 1.1239942662e+00	 1.1785007769e+00	-1.9136102489e+00
 1.0957968131e+00	 1.2047640797e+00	-1.9678813843e+00
 1.0670021379e+00	 1.2303387786e+00	-2.0170235762e+00
 1.0376356241e+00	 1.2552048854e+00	-2.0545296369e+00
 1.0077235280e+00	 1.2793436657e+00	-2.0720819442e+00
 1.3017888722e+00	 1.0254033456e+00	-1.2639365972e+00
 1.2772265935e+00	 1.0558402289e+00	-1.4250415742e+00
 1.2519242279e+00	 1.0857219580e+00	-1.5655839578e+00
 1.2259008386e+00	 1.1150218160e+00	-1.6796674137e+00
 1.1991767641e+00	 1.1437139741e+00	-1.7757287536e+00
 1.1717735668e+00	 1.1717735668e+00	-1.8601725825e+00
 1.1437139741e+00	 1.1991767641e+00	-1.9319073353e+00
 1.1150218160e+00	 1.2259008386e+00	-1.9897205686e+00
 1.0857219580e+00	 1.2519242279e+00	-2.0358244085e+00
 1.0558402289e+00	 1.2772265935e+00	-2.0704408259e+00
 1.0254033456e+00	 1.3017888722e+00	-2.0848430022e+00
 1.3242340629e+00	 1.0430831508e+00	-1.2705595630e+00
 1.2992482862e+00	 1.0740448210e+00	-1.4267808931e+00
 1.2735096622e+00	 1.1044417651e+00	-1.5615955387e+00
 1.2470375826e+00	 1.1342468055e+00	-1.6747919133e+00
 1.2198527369e+00	 1.1634336681e+00	-1.7767170803e+00
 1.1919770589e+00	 1.1919770589e+00	-1.8666545988e+00
 1.1634336681e+00	 1.2198527369e+00	-1.9433899929e+00
 1.1342468055e+00	 1.2470375826e+00	-2.0055736996e+00
 1.1044417651e+00	 1.2735096622e+00	-2.0518172704e+00
 1.0740448210e+00	 1.2992482862e+00	-2.0836984305e+00
 1.0430831508e+00	 1.3242340629e+00	-2.0948953149e+00
 1.3466792327e+00	 1.0607629395e+00	-1.2704352283e+00
 1.3212699584e+00	 1.0922493960e+00	-1.4206087012e+00
 1.2950950763e+00	 1.1231615546e+00	-1.5502592640e+00
 1.2681743069e+00	 1.1534717770e+00	-1.6675491503e+00
 1.2405286903e+00	 1.1831533438e+00	-1.7740325669e+00
 1.2121805322e+00	 1.2121805322e+00	-1.8683212799e+00
 1.1831533438e+00	 1.2405286903e+00	-1.9489958088e+00
 1.1534717770e+00	 1.2681743069e+00	-2.0144834226e+00
 1.1231615546e+00	 1.2950950763e+00	-2.0629474461e+00
 1.0922493960e+00	 1.3212699584e+00	-2.0928228899e+00
 1.0607629395e+00	 1.3466792327e+00	-2.1008464606e+00
 1.3691243763e+00	 1.0784427076e+00	-1.2660209479e+00
 1.3432916049e+00	 1.1104539498e+00	-1.4090703836e+00
 1.3166804652e+00	 1.1418813223e+00	-1.5382793885e+00
 1.2893110065e+00	 1.1726967261e+00	-1.6586780076e+00
 1.2612046196e+00	 1.2028729965e+00	-1.7685008104e+00
 1.2323839819e+00	 1.2323839819e+00	-1.8660834332e+00
 1.2028729965e+00	 1.2612046196e+00	-1.9497229214e+00
 1.1726967261e+00	 1.2893110065e+00	-2.0175404808e+00
 1.1418813223e+00	 1.3166804652e+00	-2.0673571097e+00
 1.1104539498e+00	 1.3432916049e+00	-2.0965890513e+00
 1.0784427076e+00	 1.3691243763e+00	-2.1015607962e+00
 1.3915694885e+00	 1.0961224509e+00	-1.2596276749e+00
 1.3653132205e+00	 1.1286584782e+00	-1.3966587922e+00
 1.3382658239e+00	 1.1606010638e+00	-1.5267944448e+00
 1.3104476766e+00	 1.1919216483e+00	-1.6489407904e+00
 1.2818805200e+00	 1.2225926216e+00	-1.7609749388e+00
 1.2525874033e+00	 1.2525874033e+00	-1.8608851384e+00
 1.2225926216e+00	 1.2818805200e+00	-1.9466102478e+00
 1.1919216483e+00	 1.3104476766e+00	-2.0158857640e+00
 1.1606010638e+00	 1.3382658239e+00	-2.0661044904e+00
 1.1286584782e+00	 1.3653132205e+00	-2.0941992953e+00
 1.0961224509e+00	 1.3915694885e+00	-2.0962097164e+00
 1.4140145641e+00	 1.1138021654e+00	-1.2534292448e+00
 1.3873348002e+00	 1.1468629768e+00	-1.3869739673e+00
 1.3598511474e+00	 1.1793207747e+00	-1.5164788863e+00
 1.3315843121e+00	 1.2111465391e+00	-1.6391078071e+00
 1.3025563866e+00	 1.2423122144e+00	-1.7523186589e+00
 1.2727907917e+00	 1.2727907917e+00	-1.8536853181e+00
 1.2423122144e+00	 1.3025563866e+00	-1.9407176622e+00
 1.2111465391e+00	 1.3315843121e+00	-2.0106892077e+00
 1.1793207747e+00	 1.3598511474e+00	-2.0604813500e+00
 1.1468629768e+00	 1.3873348002e+00	-2.0864525152e+00
 1.1138021654e+00	 1.4140145641e+00	-2.0843394833e+00
 1.4364595977e+00	 1.1314818469e+00	-1.2510379145e+00
 1.4093563388e+00	 1.1650674414e+00	-1.3805854786e+00
 1.3814364305e+00	 1.1980404507e+00	-1.5080000379e+00
 1.3527209082e+00	 1.2303713940e+00	-1.6299417877e+00
 1.3232322146e+00	 1.2620317705e+00	-1.7433891789e+00
 1.2929941425e+00	 1.2929941425e+00	-1.8454392240e+00
 1.2620317705e+00	 1.3232322146e+00	-1.9331061326e+00
 1.2303713940e+00	 1.3527209082e+00	-2.0031286922e+00
 1.1980404507e+00	 1.3814364305e+00	-2.0517964339e+00
 1.1650674414e+00	 1.4093563388e+00	-2.0748038310e+00
 1.1314818469e+00	 1.4364595977e+00	-2.0671406072e+00
 1.4589045842e+00	 1.1491614912e+00	-1.2541938312e+00
 1.4313778311e+00	 1.1832718678e+00	-1.3780415345e+00
 1.4030216684e+00	 1.2167600874e+00	-1.5020038634e+00
 1.3738574599e+00	 1.2495962085e+00	-1.6221821560e+00
 1.3439079992e+00	 1.2817512851e+00	-1.7350200197e+00
 1.3131974507e+00	 1.3131974507e+00	-1.8370798486e+00
 1.2817512851e+00	 1.3439079992e+00	-1.9248178194e+00
 1.2495962085e+00	 1.3738574599e+00	-1.9943689402e+00
 1.2167600874e+00	 1.4030216684e+00	-2.0413533052e+00
 1.1832718678e+00	 1.4313778311e+00	-2.0607138235e+00
 1.1491614912e+00	 1.4589045842e+00	-2.0465943904e+00
 9.7236387216e-01	 1.2344532266e+00	-2.0449866233e+00
 9.4300101741e-01	 1.2570263780e+00	-2.0603582968e+00
 9.1316463496e-01	 1.2788653509e+00	-2.0805190632e+00
 8.8288214371e-01	 1.2999559218e+00	-2.0992125422e+00
 8.5218149143e-01	 1.3202852210e+00	-2.1106013565e+00
 8.2109107206e-01	 1.3398417545e+00	-2.1093719772e+00
 7.8963964229e-01	 1.3586154192e+00	-2.0908170812e+00
 7.5785623786e-01	 1.3765975130e+00	-2.0508961346e+00
 7.2577009011e-01	 1.3937807380e+00	-1.9886141754e+00
 6.9341054318e-01	 1.4101591987e+00	-1.9171754030e+00
 6.6080697247e-01	 1.4257283940e+00	-1.8367563869e+00
 9.9004370213e-01	 1.2568984487e+00	-2.0582112227e+00
 9.6014696259e-01	 1.2798820324e+00	-2.0709646716e+00
 9.2976808552e-01	 1.3021180885e+00	-2.0887793747e+00
 8.9893498836e-01	 1.3235921349e+00	-2.1051933127e+00
 8.6767612703e-01	 1.3442910679e+00	-2.1142065670e+00
 8.3602041175e-01	 1.3642031845e+00	-2.1103886056e+00
 8.0399712205e-01	 1.3833181980e+00	-2.0889604603e+00
 7.7163582163e-01	 1.4016272480e+00	-2.0458528197e+00
 7.3896627330e-01	 1.4191229038e+00	-1.9777735440e+00
 7.0601835478e-01	 1.4357991629e+00	-1.8943146376e+00
 6.7282197555e-01	 1.4516514423e+00	-1.8027143220e+00
 1.0077235280e+00	 1.2793436657e+00	-2.0720819442e+00
 9.7729290377e-01	 1.3027376815e+00	-2.0816649437e+00
 9.4637153220e-01	 1.3253708207e+00	-2.0961426003e+00
 9.1498782926e-01	 1.3472283424e+00	-2.1088386154e+00
 8.8317075902e-01	 1.3682969092e+00	-2.1135916070e+00
 8.5094974795e-01	 1.3885646088e+00	-2.1048640594e+00
 8.1835459846e-01	 1.4080209710e+00	-2.0778232536e+00
 7.8541540218e-01	 1.4266569770e+00	-2.0283955614e+00
 7.5216245342e-01	 1.4444650637e+00	-1.9532962699e+00
 7.1862616343e-01	 1.4614391211e+00	-1.8549363573e+00
 6.8483697582e-01	 1.4775744845e+00	-1.7474507342e+00
 1.0254033456e+00	 1.3017888722e+00	-2.0848430022e+00
 9.9443883695e-01	 1.3255933199e+00	-2.0907604586e+00
 9.6297497115e-01	 1.3486235420e+00	-2.1009411595e+00
 9.3104066268e-01	 1.3708645390e+00	-2.1084863968e+00
 8.9866538377e-01	 1.3923027392e+00	-2.1070760402e+00
 8.6587907718e-01	 1.4129260217e+00	-2.0910782577e+00
 8.3271206817e-01	 1.4327237324e+00	-2.0556279895e+00
 7.9919497630e-01	 1.4516866944e+00	-1.9966759787e+00
 7.6535862738e-01	 1.4698072118e+00	-1.9110110144e+00
 7.3123396620e-01	 1.4870790673e+00	-1.7979187341e+00
 6.9685197049e-01	 1.5034975146e+00	-1.6824073827e+00
 1.0430831508e+00	 1.3242340629e+00	-2.0948953149e+00
 1.0115847581e+00	 1.3484489423e+00	-2.0967091124e+00
 9.7957839846e-01	 1.3718762470e+00	-2.1016591905e+00
 9.4709348486e-01	 1.3945007189e+00	-2.1026172088e+00
 9.1415999769e-01	 1.4163085525e+00	-2.0931091166e+00
 8.8080839596e-01	 1.4372874176e+00	-2.0674246229e+00
 8.4706952783e-01	 1.4574264766e+00	-2.0206918555e+00
 8.1297454078e-01	 1.4767163943e+00	-1.9489194873e+00
 7.7855479210e-01	 1.4951493421e+00	-1.8532356784e+00
 7.4384176015e-01	 1.5127189956e+00	-1.7429553427e+00
 7.0886695675e-01	 1.5294205266e+00	-1.6282841304e+00
 1.0607629395e+00	 1.3466792327e+00	-2.1008464606e+00
 1.0287306633e+00	 1.3713045434e+00	-2.0981737049e+00
 9.9618181029e-01	 1.3951289303e+00	-2.0969790799e+00
 9.6314629205e-01	 1.4181368769e+00	-2.0898987069e+00
 9.2965459714e-01	 1.4403143433e+00	-2.0703120445e+00
 8.9573770082e-01	 1.4616487908e+00	-2.0324499503e+00
 8.6142697409e-01	 1.4821291977e+00	-1.9714716550e+00
 8.2675409239e-01	 1.5017460708e+00	-1.8918776427e+00
 7.9175094451e-01	 1.5204914488e+00	-1.7998283663e+00
 7.5644954233e-01	 1.5383589000e+00	-1.6955046969e+00
 7.2088193179e-01	 1.5553435143e+00	-1.5829435954e+00
 1.0784427076e+00	 1.3691243763e+00	-2.1015607962e+00
 1.0458765485e+00	 1.3941601178e+00	-2.0940704963e+00
 1.0127852027e+00	 1.4183815866e+00	-2.0858282376e+00
 9.7919908052e-01	 1.4417730072e+00	-2.0692304344e+00
 9.4514917851e-01	 1.4643201062e+00	-2.0375205892e+00
 9.1066698825e-01	 1.4860101355e+00	-1.9852363657e+00
 8.7578440360e-01	 1.5068318900e+00	-1.9184708896e+00
 8.4053362793e-01	 1.5267757182e+00	-1.8407813543e+00
 8.0494708152e-01	 1.5458335259e+00	-1.7520442490e+00
 7.6905730980e-01	 1.5639987745e+00	-1.6526807824e+00
 7.3289689282e-01	 1.5812664719e+00	-1.5439905977e+00
 1.0961224509e+00	 1.3915694885e+00	-2.0962097164e+00
 1.0630224096e+00	 1.4170156602e+00	-2.0836179446e+00
 1.0293885719e+00	 1.4416342102e+00	-2.0674260888e+00
 9.9525184651e-01	 1.4654091045e+00	-2.0397888589e+00
 9.6064373819e-01	 1.4883258354e+00	-1.9945281444e+00
 9.2559625478e-01	 1.5103714462e+00	-1.9376567391e+00
 8.9014181301e-01	 1.5315345478e+00	-1.8712205042e+00
 8.5431314418e-01	 1.5518053304e+00	-1.7947280897e+00
 8.1814320006e-01	 1.5711755675e+00	-1.7083728916e+00
 7.8166505962e-01	 1.5896386130e+00	-1.6128286233e+00
 7.4491183702e-01	 1.6071893931e+00	-1.5090813409e+00
 1.1138021654e+00	 1.4140145641e+00	-2.0843394833e+00
 1.0801682428e+00	 1.4398711653e+00	-2.0663856015e+00
 1.0459919140e+00	 1.4648867959e+00	-2.0413312577e+00
 1.0113045863e+00	 1.4890451631e+00	-2.0018343267e+00
 9.7613827256e-01	 1.5123315255e+00	-1.9528342976e+00
 9.4052549693e-01	 1.5347327170e+00	-1.8954678629e+00
 9.0449919897e-01	 1.5562371651e+00	-1.8287655605e+00
 8.6809263792e-01	 1.5768349018e+00	-1.7526349728e+00
 8.3133929704e-01	 1.5965175677e+00	-1.6676047494e+00
 7.9427278885e-01	 1.6152784097e+00	-1.5746092145e+00
 7.5692676161e-01	 1.6331122720e+00	-1.4748143692e+00
 1.1314818469e+00	 1.4364595977e+00	-2.0671406072e+00
 1.0973140440e+00	 1.4627266278e+00	-2.0423431497e+00
 1.0625952251e+00	 1.4881393381e+00	-2.0080098161e+00
 1.0273572961e+00	 1.5126811776e+00	-1.9658334617e+00
 9.9163277801e-01	 1.5363371707e+00	-1.9163946729e+00
 9.5545471121e-01	 1.5590939424e+00	-1.8580745185e+00
 9.1885655813e-01	 1.5809397364e+00	-1.7903880637e+00
 8.8187210594e-01	 1.6018644265e+00	-1.7136683546e+00
 8.4453536940e-01	 1.6218595206e+00	-1.6287941673e+00
 8.0688049454e-01	 1.6409181585e+00	-1.5369640425e+00
 7.6894166376e-01	 1.6590351025e+00	-1.4395171042e+00
 1.1491614912e+00	 1.4589045842e+00	-2.0465943904e+00
 1.1144598091e+00	 1.4855820422e+00	-2.0121312347e+00
 1.0791985014e+00	 1.5113918316e+00	-1.9766496951e+00
 1.0434099722e+00	 1.5363171425e+00	-1.9351034799e+00
 1.0071272509e+00	 1.5603427655e+00	-1.8849258563e+00
 9.7038389414e-01	 1.5834551166e+00	-1.8250684399e+00
 9.3321388714e-01	 1.6056422558e+00	-1.7555675890e+00
 8.9565154503e-01	 1.6268938986e+00	-1.6772057030e+00
 8.5773141404e-01	 1.6472014204e+00	-1.5912226875e+00
 8.1948817376e-01	 1.6665578535e+00	-1.4990799409e+00
 7.8095654068e-01	 1.6849578786e+00	-1.4022769905e+00
 6.6080697247e-01	 1.4257283940e+00	-1.8367563869e+00
 6.2799100716e-01	 1.4404842011e+00	-1.7495239915e+00
 5.9498955959e-01	 1.4544259888e+00	-1.6578140990e+00
 5.6183161242e-01	 1.4675533477e+00	-1.5604812162e+00
 5.2854587333e-01	 1.4798671787e+00	-1.4575279739e+00
 4.9516070524e-01	 1.4913696599e+00	-1.3536468143e+00
 4.6170405990e-01	 1.5020642103e+00	-1.2559739622e+00
 4.2820341508e-01	 1.5119554483e+00	-1.1655354726e+00
 3.9468571561e-01	 1.5210491483e+00	-1.0833449510e+00
 3.6117731837e-01	 1.5293521932e+00	-1.0107689784e+00
 3.2770394143e-01	 1.5368725246e+00	-9.5226135296e-01
 6.7282197555e-01	 1.4516514423e+00	-1.8027143220e+00
 6.3940933990e-01	 1.4666755442e+00	-1.7040533442e+00
 6.0580784948e-01	 1.4808708259e+00	-1.5995446499e+00
 5.7204701394e-01	 1.4942368706e+00	-1.4936480171e+00
 5.3815606293e-01	 1.5067745956e+00	-1.3927234034e+00
 5.0416387507e-01	 1.5184862186e+00	-1.2968542351e+00
 4.7009891033e-01	 1.5293752207e+00	-1.2062733957e+00
 4.3598914611e-01	 1.5394463044e+00	-1.1213207887e+00
 4.0186201714e-01	 1.5487053489e+00	-1.0424130094e+00
 3.6774435953e-01	 1.5571593625e+00	-9.7005824089e-01
 3.3366235898e-01	 1.5648164309e+00	-9.0777607348e-01
 6.8483697582e-01	 1.4775744845e+00	-1.7474507342e+00
 6.5082766996e-01	 1.4928668811e+00	-1.6359739332e+00
 6.1662613684e-01	 1.5073156568e+00	-1.5303519689e+00
 5.8226241308e-01	 1.5209203873e+00	-1.4301332601e+00
 5.4776625029e-01	 1.5336820062e+00	-1.3347654490e+00
 5.1316704279e-01	 1.5456027710e+00	-1.2439028714e+00
 4.7849375880e-01	 1.5566862247e+00	-1.1573291964e+00
 4.4377487532e-01	 1.5669371540e+00	-1.0749126133e+00
 4.0903831699e-01	 1.5763615431e+00	-9.9658922940e-01
 3.7431139917e-01	 1.5849665252e+00	-9.2236934108e-01
 3.3962077514e-01	 1.5927603307e+00	-8.5435243875e-01
 6.9685197049e-01	 1.5034975146e+00	-1.6824073827e+00
 6.6224599470e-01	 1.5190582058e+00	-1.5737880565e+00
 6.2744441916e-01	 1.5337604754e+00	-1.4716158356e+00
 5.9247780745e-01	 1.5476038916e+00	-1.3748061047e+00
 5.5737643316e-01	 1.5605894043e+00	-1.2825511685e+00
 5.2217020632e-01	 1.5727193107e+00	-1.1942060246e+00
 4.8688860336e-01	 1.5839972160e+00	-1.1092156275e+00
 4.5156060089e-01	 1.5944279908e+00	-1.0270799891e+00
 4.1621461350e-01	 1.6040177244e+00	-9.4735198023e-01
 3.8087843573e-01	 1.6127736749e+00	-8.6966157000e-01
 3.4557918852e-01	 1.6207042174e+00	-7.9491874778e-01
 7.0886695675e-01	 1.5294205266e+00	-1.6282841304e+00
 6.7366431145e-01	 1.5452495122e+00	-1.5216013301e+00
 6.3826269391e-01	 1.5602052755e+00	-1.4212223566e+00
 6.0269319467e-01	 1.5742873771e+00	-1.3259703138e+00
 5.6698660931e-01	 1.5874967835e+00	-1.2348948575e+00
 5.3117336354e-01	 1.5998358314e+00	-1.1471555924e+00
 4.9528344204e-01	 1.6113081882e+00	-1.0619536193e+00
 4.5934632102e-01	 1.6219188084e+00	-9.7850688073e-01
 4.2339090498e-01	 1.6316738862e+00	-8.9606329104e-01
 3.8744546770e-01	 1.6405808052e+00	-8.1394436893e-01
 3.5153759773e-01	 1.6486480846e+00	-7.3218150920e-01
 7.2088193179e-01	 1.5553435143e+00	-1.5829435954e+00
 6.8508261754e-01	 1.5714407942e+00	-1.4770645354e+00
 6.4908095856e-01	 1.5866500508e+00	-1.3771299800e+00
 6.1290857236e-01	 1.6009708378e+00	-1.2819827350e+00
 5.7659677648e-01	 1.6144041377e+00	-1.1906317523e+00
 5.4017651236e-01	 1.6269523269e+00	-1.1021321663e+00
 5.0367827289e-01	 1.6386191349e+00	-1.0155209350e+00
 4.6713203388e-01	 1.6494096003e+00	-9.2980296998e-01
 4.3056718976e-01	 1.6593300223e+00	-8.4398077411e-01
 3.9401249355e-01	 1.6683879096e+00	-7.5711918692e-01
 3.5749600138e-01	 1.6765919256e+00	-6.6864846298e-01
 7.3289689282e-01	 1.5812664719e+00	-1.5439905977e+00
 6.9650091031e-01	 1.5976320456e+00	-1.4379600083e+00
 6.5989921058e-01	 1.6130947954e+00	-1.3373960263e+00
 6.2312393813e-01	 1.6276542673e+00	-1.2412656310e+00
 5.8620693245e-01	 1.6413114604e+00	-1.1486289948e+00
 5.4917965068e-01	 1.6540687907e+00	-1.0585152628e+00
 5.1207309394e-01	 1.6659300497e+00	-9.6986225314e-01
 4.7491773766e-01	 1.6769003602e+00	-8.8151412098e-01
 4.3774346617e-01	 1.6869861261e+00	-7.9226894647e-01
 4.0057951173e-01	 1.6961949815e+00	-7.0096661826e-01
 3.6345439808e-01	 1.7045357341e+00	-6.0665040796e-01
 7.4491183702e-01	 1.6071893931e+00	-1.5090813409e+00
 7.0791918710e-01	 1.6238232603e+00	-1.4022192847e+00
 6.7071744746e-01	 1.6395395029e+00	-1.3001915466e+00
 6.3333928959e-01	 1.6543376594e+00	-1.2023194150e+00
 5.9581707496e-01	 1.6682187455e+00	-1.1077968778e+00
 5.5818277639e-01	 1.6811852165e+00	-1.0156936749e+00
 5.2046790324e-01	 1.6932409263e+00	-9.2489917710e-01
 4.8270343054e-01	 1.7043910815e+00	-8.3413255231e-01
 4.4491973254e-01	 1.7146421912e+00	-7.4201001780e-01
 4.0714652071e-01	 1.7240020144e+00	-6.4715820257e-01
 3.6941278643e-01	 1.7324795035e+00	-5.4836197006e-01
 7.5692676161e-01	 1.6331122720e+00	-1.4748143692e+00
 7.1933744523e-01	 1.6500144322e+00	-1.3679412115e+00
 6.8153566668e-01	 1.6659841672e+00	-1.2638166138e+00
 6.4355462437e-01	 1.6810210080e+00	-1.1637357451e+00
 6.0542720177e-01	 1.6951259866e+00	-1.0671003393e+00
 5.6718588740e-01	 1.7083015980e+00	-9.7307592841e-01
 5.2886269883e-01	 1.7205517583e+00	-8.8054017813e-01
 4.9048911070e-01	 1.7318817580e+00	-7.8810674853e-01
 4.5209598718e-01	 1.7422982112e+00	-6.9421420373e-01
 4.1371351897e-01	 1.7518090020e+00	-5.9726752190e-01
 3.7537116506e-01	 1.7604232272e+00	-4.9581843240e-01
 7.6894166376e-01	 1.6590351025e+00	-1.4395171042e+00
 7.3075568205e-01	 1.6762055553e+00	-1.3334104729e+00
 6.9235386569e-01	 1.6924287821e+00	-1.2267159993e+00
 6.5376994009e-01	 1.7077043068e+00	-1.1242109389e+00
 6.1503731065e-01	 1.7220331775e+00	-1.0255706780e+00
 5.7618898160e-01	 1.7354179289e+00	-9.3010083223e-01
 5.3725747875e-01	 1.7478625393e+00	-8.3669048035e-01
 4.9827477633e-01	 1.7593723831e+00	-7.4385113960e-01
 4.5927222843e-01	 1.7699541795e+00	-6.4982961642e-01
 4.2028050498e-01	 1.7796159376e+00	-5.5278067136e-01
 3.8132953256e-01	 1.7883668988e+00	-4.5098396484e-01
 7.8095654068e-01	 1.6849578786e+00	-1.4022769905e+00
 7.4217389490e-01	 1.7023966233e+00	-1.2971053952e+00
 7.0317204199e-01	 1.7188733416e+00	-1.1874951939e+00
 6.6398523435e-01	 1.7343875495e+00	-1.0825596743e+00
 6.2464739934e-01	 1.7489403119e+00	-9.8231746670e-01
 5.8519205690e-01	 1.7625342029e+00	-8.8624811302e-01
 5.4565224104e-01	 1.7751732630e+00	-7.9326189322e-01
 5.0606042561e-01	 1.7868629505e+00	-7.0175557306e-01
 4.6644845461e-01	 1.7976100897e+00	-6.0975177773e-01
 4.2684747719e-01	 1.8074228149e+00	-5.1510617075e-01
 3.8728788755e-01	 1.8163105116e+00	-4.1576498254e-01
 3.2770394143e-01	 1.5368725246e+00	-9.5226135296e-01
 2.9428828687e-01	 1.5436195361e+00	-9.0089936017e-01
 2.6095703767e-01	 1.5496025774e+00	-8.5179363328e-01
 2.2773377010e-01	 1.5548324489e+00	-8.0515234540e-01
 1.9464125891e-01	 1.5593207918e+00	-7.6145275554e-01
 1.6170144816e-01	 1.5630800297e+00	-7.2158975897e-01
 1.2893542625e-01	 1.5661233103e+00	-6.8695513518e-01
 9.6363405176e-02	 1.5684644476e+00	-6.5946475356e-01
 6.4004703957e-02	 1.5701178630e+00	-6.4154964708e-01
 3.1877735938e-02	 1.5710985275e+00	-6.3612513791e-01
 0.0000000000e+00	 1.5714219047e+00	-6.4655021342e-01
 3.3366235898e-01	 1.5648164309e+00	-9.0777607348e-01
 2.9963913033e-01	 1.5716861187e+00	-8.5130067929e-01
 2.6570184174e-01	 1.5777779455e+00	-7.9702649742e-01
 2.3187449812e-01	 1.5831029083e+00	-7.4466417383e-01
 1.9818028834e-01	 1.5876728597e+00	-6.9447349807e-01
 1.6464155545e-01	 1.5915004492e+00	-6.4736404060e-01
 1.3127977128e-01	 1.5945990637e+00	-6.0492331820e-01
 9.8115515334e-02	 1.5969827683e+00	-5.6939219305e-01
 6.5168457892e-02	 1.5986662466e+00	-5.4360557032e-01
 3.2457347097e-02	 1.5996647418e+00	-5.3091440870e-01
 0.0000000000e+00	 1.5999939988e+00	-5.3510272990e-01
 3.3962077514e-01	 1.5927603307e+00	-8.5435243875e-01
 3.0498997255e-01	 1.5997526948e+00	-7.9179020305e-01
 2.7044664470e-01	 1.6059533071e+00	-7.3259799990e-01
 2.3601522517e-01	 1.6113733610e+00	-6.7576675028e-01
 2.0171931695e-01	 1.6160249209e+00	-6.2112979279e-01
 1.6758166205e-01	 1.6199208620e+00	-5.6940983707e-01
 1.3362411576e-01	 1.6230748105e+00	-5.2219035381e-01
 9.9867625083e-02	 1.6255010824e+00	-4.8183377143e-01
 6.6332211556e-02	 1.6272146236e+00	-4.5136688510e-01
 3.3036958121e-02	 1.6282309496e+00	-4.3435147413e-01
 0.0000000000e+00	 1.6285660863e+00	-4.3475541693e-01
 3.4557918852e-01	 1.6207042174e+00	-7.9491874778e-01
 3.1034081227e-01	 1.6278192577e+00	-7.2581651682e-01
 2.7519144544e-01	 1.6341286556e+00	-6.6214883348e-01
 2.4015595030e-01	 1.6396438006e+00	-6.0201256118e-01
 2.0525834390e-01	 1.6443769689e+00	-5.4465538960e-01
 1.7052176728e-01	 1.6483412616e+00	-4.9046235706e-01
 1.3596845915e-01	 1.6515505439e+00	-4.4086384008e-01
 1.0161973402e-01	 1.6540193831e+00	-3.9819028095e-01
 6.7495964676e-02	 1.6557629872e+00	-3.6549660000e-01
 3.3616568874e-02	 1.6567971439e+00	-3.4637643270e-01
 0.0000000000e+00	 1.6571381604e+00	-3.4478320736e-01
 3.5153759773e-01	 1.6486480846e+00	-7.3218150920e-01
 3.1569164824e-01	 1.6558858011e+00	-6.5658516244e-01
 2.7993624286e-01	 1.6623039843e+00	-5.8906517832e-01
 2.4429667252e-01	 1.6679142204e+00	-5.2669900411e-01
 2.0879736838e-01	 1.6727289970e+00	-4.6804039263e-01
 1.7346187046e-01	 1.6767616413e+00	-4.1303772754e-01
 1.3831280090e-01	 1.6800262575e+00	-3.6287101574e-01
 1.0337184172e-01	 1.6825376639e+00	-3.1973597194e-01
 6.8659716982e-02	 1.6843113309e+00	-2.8660089832e-01
 3.4196179222e-02	 1.6853633183e+00	-2.6695881688e-01
 0.0000000000e+00	 1.6857102146e+00	-2.6459372949e-01
 3.5749600138e-01	 1.6765919256e+00	-6.6864846298e-01
 3.2104247922e-01	 1.6839523182e+00	-5.8708294660e-01
 2.8468103585e-01	 1.6904792867e+00	-5.1650276711e-01
 2.4843739088e-01	 1.6961846138e+00	-4.5289086207e-01
 2.1233638955e-01	 1.7010809987e+00	-3.9405098012e-01
 1.7640197088e-01	 1.7051819945e+00	-3.3944898045e-01
 1.4065714046e-01	 1.7085019444e+00	-2.8997021821e-01
 1.0512394779e-01	 1.7110559180e+00	-2.4762486754e-01
 6.9823468202e-02	 1.7128596479e+00	-2.1522987112e-01
 3.4775789029e-02	 1.7139294661e+00	-1.9609247746e-01
 0.0000000000e+00	 1.7142822420e+00	-1.9371624065e-01
 3.6345439808e-01	 1.7045357341e+00	-6.0665040796e-01
 3.2639330396e-01	 1.7120188025e+00	-5.2010081725e-01
 2.8942582331e-01	 1.7186545563e+00	-4.4740941236e-01
 2.5257810441e-01	 1.7244549742e+00	-3.8344125531e-01
 2.1587540659e-01	 1.7294329673e+00	-3.2524772833e-01
 1.7934206788e-01	 1.7336023145e+00	-2.7182087002e-01
 1.4300147729e-01	 1.7369775981e+00	-2.2376148839e-01
 1.0687605182e-01	 1.7395741389e+00	-1.8289661971e-01
 7.0987218065e-02	 1.7414079316e+00	-1.5187825411e-01
 3.5355398160e-02	 1.7424955805e+00	-1.3379099125e-01
 0.0000000000e+00	 1.7428542361e+00	-1.3179164963e-01
 3.6941278643e-01	 1.7324795035e+00	-5.4836197006e-01
 3.3174412121e-01	 1.7400852476e+00	-4.5825546958e-01
 2.9417060413e-01	 1.7468297864e+00	-3.8454616908e-01
 2.5671881214e-01	 1.7527252950e+00	-3.2101124242e-01
 2.1941441868e-01	 1.7577848962e+00	-2.6400269682e-01
 1.8228216077e-01	 1.7620225948e+00	-2.1210365269e-01
 1.4534581083e-01	 1.7654532120e+00	-1.6569641850e-01
 1.0862815339e-01	 1.7680923199e+00	-1.2648195846e-01
 7.2150966298e-02	 1.7699561753e+00	-9.6986167933e-02
 3.5935006479e-02	 1.7710616549e+00	-8.0083532842e-02
 0.0000000000e+00	 1.7714261903e+00	-7.8563504954e-02
 3.7537116506e-01	 1.7604232272e+00	-4.9581843240e-01
 3.3709492972e-01	 1.7681516468e+00	-4.0400982250e-01
 2.9891537720e-01	 1.7750049704e+00	-3.3050728463e-01
 2.6085951311e-01	 1.7809955697e+00	-2.6808822074e-01
 2.2295342499e-01	 1.7861367788e+00	-2.1251541295e-01
 1.8522224885e-01	 1.7904428286e+00	-1.6208594487e-01
 1.4769014055e-01	 1.7939287794e+00	-1.1708732696e-01
 1.1038025210e-01	 1.7966104543e+00	-7.9207779466e-02
 7.3314712631e-02	 1.7985043724e+00	-5.0939861415e-02
 3.6514613852e-02	 1.7996276826e+00	-3.5011158870e-02
 0.0000000000e+00	 1.7999980977e+00	-3.3869841663e-02
 3.8132953256e-01	 1.7883668988e+00	-4.5098396484e-01
 3.4244572824e-01	 1.7962179937e+00	-3.5969248924e-01
 3.0366014141e-01	 1.8031801019e+00	-2.8773906816e-01
 2.6500020635e-01	 1.8092657916e+00	-2.2700325746e-01
 2.2649242470e-01	 1.8144886085e+00	-1.7282787567e-01
 1.8816233144e-01	 1.8188630094e+00	-1.2340675930e-01
 1.5003446589e-01	 1.8224042936e+00	-7.9115833965e-02
 1.1213234755e-01	 1.8251285354e+00	-4.1801909491e-02
 7.4478456793e-02	 1.8270525163e+00	-1.4072457484e-02
 3.7094220143e-02	 1.8281936571e+00	 1.3765402215e-03
 0.0000000000e+00	 1.8285699519e+00	 2.3642072062e-03
 3.8728788755e-01	 1.8163105116e+00	-4.1576498254e-01
 3.4779651552e-01	 1.8242842816e+00	-3.2751635014e-01
 3.0840489565e-01	 1.8313551743e+00	-2.5855779590e-01
 2.6914089089e-01	 1.8375359541e+00	-1.9994746618e-01
 2.3003141697e-01	 1.8428403787e+00	-1.4683868431e-01
 1.9110240786e-01	 1.8472831305e+00	-9.7566808483e-02
 1.5237878631e-01	 1.8508797480e+00	-5.2840902251e-02
 1.1388443931e-01	 1.8536465567e+00	-1.5190948776e-02
 7.5642198511e-02	 1.8556006001e+00	 1.1894895839e-02
 3.7673825218e-02	 1.8567595715e+00	 2.6339502348e-02
 0.0000000000e+00	 1.8571417460e+00	 2.6809871234e-02
 1.8571417460e+00	 0.0000000000e+00	 3.1355673333e+00
 1.8567595715e+00	 3.7673825218e-02	 3.1159991079e+00
 1.8556006001e+00	 7.5642198511e-02	 3.0890084354e+00
 1.8536465567e+00	 1.1388443931e-01	 3.0526128780e+00
 1.8508797480e+00	 1.5237878631e-01	 3.0043303840e+00
 1.8472831305e+00	 1.9110240786e-01	 2.9404794563e+00
 1.8428403787e+00	 2.3003141697e-01	 2.8587028041e+00
 1.8375359541e+00	 2.6914089089e-01	 2.7588866826e+00
 1.8313551743e+00	 3.0840489565e-01	 2.6437554704e+00
 1.8242842816e+00	 3.4779651552e-01	 2.5197487640e+00
 1.8163105116e+00	 3.8728788755e-01	 2.3978727717e+00
 1.8857134768e+00	 0.0000000000e+00	 3.1121380399e+00
 1.8853254226e+00	 3.8253429007e-02	 3.0909464264e+00
 1.8841486207e+00	 7.6805937649e-02	 3.0584143828e+00
 1.8821645148e+00	 1.1563652719e-01	 3.0138114406e+00
 1.8793551393e+00	 1.5472310153e-01	 2.9559563000e+00
 1.8757031886e+00	 1.9404247777e-01	 2.8836571145e+00
 1.8711920860e+00	 2.3357040140e-01	 2.7962360221e+00
 1.8658060540e+00	 2.7328156626e-01	 2.6941627227e+00
 1.8595301841e+00	 3.1314963938e-01	 2.5798245650e+00
 1.8523505073e+00	 3.5314729094e-01	 2.4584625326e+00
 1.8442540626e+00	 3.9324622934e-01	 2.3384291020e+00
 1.9142851543e+00	 0.0000000000e+00	 3.0749500383e+00
 1.9138912204e+00	 3.8833031715e-02	 3.0554580144e+00
 1.9126965880e+00	 7.7969674616e-02	 3.0216219246e+00
 1.9106824196e+00	 1.1738861180e-01	 2.9736469049e+00
 1.9078304774e+00	 1.5706741237e-01	 2.9112479151e+00
 1.9041231936e+00	 1.9698254218e-01	 2.8340312991e+00
 1.8995437403e+00	 2.3710937923e-01	 2.7419568825e+00
 1.8940761010e+00	 2.7742223390e-01	 2.6359083455e+00
 1.8877051414e+00	 3.1789437426e-01	 2.5184028079e+00
 1.8804166806e+00	 3.5849805638e-01	 2.3944729407e+00
 1.8721975614e+00	 3.9920456000e-01	 2.2739258547e+00
 1.9428567917e+00	 0.0000000000e+00	 3.0244755407e+00
 1.9424569782e+00	 3.9412633612e-02	 3.0091419570e+00
 1.9412445154e+00	 7.9133409954e-02	 2.9773001742e+00
 1.9392002845e+00	 1.1914069396e-01	 2.9298203007e+00
 1.9363057757e+00	 1.5941171994e-01	 2.8670477979e+00
 1.9325431589e+00	 1.9992260249e-01	 2.7891196538e+00
 1.9278953550e+00	 2.4064835210e-01	 2.6963565648e+00
 1.9223461085e+00	 2.8156289575e-01	 2.5897620351e+00
 1.9158800593e+00	 3.2263910249e-01	 2.4716630693e+00
 1.9084828146e+00	 3.6384881433e-01	 2.3465300284e+00
 1.9001410210e+00	 4.0516288232e-01	 2.2243063868e+00
 1.9714284025e+00	 0.0000000000e+00	 2.9610026313e+00
 1.9710227094e+00	 3.9992234968e-02	 2.9515020707e+00
 1.9697924161e+00	 8.0297144206e-02	 2.9240844253e+00
 1.9677181227e+00	 1.2089277448e-01	 2.8800607391e+00
 1.9647810474e+00	 1.6175602532e-01	 2.8201905294e+00
 1.9609630976e+00	 2.0286266004e-01	 2.7449250963e+00
 1.9562469433e+00	 2.4418732167e-01	 2.6547213940e+00
 1.9506160897e+00	 2.8570355373e-01	 2.5504607822e+00
 1.9440549508e+00	 3.2738382630e-01	 2.4340113648e+00
 1.9365489224e+00	 3.6919956728e-01	 2.3089760848e+00
 1.9280844546e+00	 4.1112119908e-01	 2.1854637734e+00
 2.0000000000e+00	 0.0000000000e+00	 2.8846484697e+00
 1.9995884272e+00	 4.0571836054e-02	 2.8819475098e+00
 1.9983403035e+00	 8.1460877915e-02	 2.8605820618e+00
 1.9962359477e+00	 1.2264485419e-01	 2.8221276601e+00
 1.9932563058e+00	 1.6410032960e-01	 2.7675918798e+00
 1.9893830231e+00	 2.0580271623e-01	 2.6975764582e+00
 1.9845985183e+00	 2.4772628958e-01	 2.6125035104e+00
 1.9788860576e+00	 2.8984420977e-01	 2.5129438159e+00
 1.9722298292e+00	 3.3212854789e-01	 2.4000902247e+00
 1.9646150171e+00	 3.7455031774e-01	 2.2764479991e+00
 1.9560278751e+00	 4.1707951306e-01	 2.1522486962e+00
 2.0285715975e+00	 0.0000000000e+00	 2.7953713765e+00
 2.0281541450e+00	 4.1151437139e-02	 2.7998015499e+00
 2.0268881908e+00	 8.2624611624e-02	 2.7853779280e+00
 2.0247537727e+00	 1.2439693389e-01	 2.7538128073e+00
 2.0217315642e+00	 1.6644463389e-01	 2.7062475374e+00
 2.0178029485e+00	 2.0874277242e-01	 2.6433242546e+00
 2.0129500933e+00	 2.5126525750e-01	 2.5653141077e+00
 2.0071560255e+00	 2.9398486582e-01	 2.4723438789e+00
 2.0004047076e+00	 3.3687326948e-01	 2.3647687173e+00
 1.9926811118e+00	 3.7990106819e-01	 2.2438691551e+00
 1.9839712957e+00	 4.2303782704e-01	 2.1197662108e+00
 2.0571432083e+00	 0.0000000000e+00	 2.6929819103e+00
 2.0567198762e+00	 4.1731038495e-02	 2.7043096276e+00
 2.0554360915e+00	 8.3788345876e-02	 2.6970392120e+00
 2.0532716110e+00	 1.2614901442e-01	 2.6729419559e+00
 2.0502068359e+00	 1.6878893926e-01	 2.6332318108e+00
 2.0462228873e+00	 2.1168282997e-01	 2.5785366201e+00
 2.0413016815e+00	 2.5480422707e-01	 2.5089169962e+00
 2.0354260067e+00	 2.9812552380e-01	 2.4239789481e+00
 2.0285795991e+00	 3.4161799328e-01	 2.3231329941e+00
 2.0207472197e+00	 3.8525182115e-01	 2.2063445720e+00
 2.0119147292e+00	 4.2899614380e-01	 2.0833668258e+00
 2.0857148457e+00	 0.0000000000e+00	 2.5771530330e+00
 2.0852856340e+00	 4.2310640392e-02	 2.5946467080e+00
 2.0839840189e+00	 8.4952081214e-02	 2.5941198872e+00
 2.0817894759e+00	 1.2790109658e-01	 2.5773764179e+00
 2.0786821342e+00	 1.7113324683e-01	 2.5456963068e+00
 2.0746428525e+00	 2.1462289028e-01	 2.4996953952e+00
 2.0696532962e+00	 2.5834319994e-01	 2.4392224613e+00
 2.0636960142e+00	 3.0226618564e-01	 2.3633443585e+00
 2.0567545169e+00	 3.4636272152e-01	 2.2704773034e+00
 2.0488133537e+00	 3.9060257910e-01	 2.1592006662e+00
 2.0398581889e+00	 4.3495446612e-01	 2.0386380386e+00
 2.1142865232e+00	 0.0000000000e+00	 2.4474294500e+00
 2.1138514318e+00	 4.2890243100e-02	 2.4699240435e+00
 2.1125319862e+00	 8.6115818181e-02	 2.4751647558e+00
 2.1103073807e+00	 1.2965318119e-01	 2.4650143459e+00
 2.1071574723e+00	 1.7347755768e-01	 2.4408685878e+00
 2.1030628576e+00	 2.1756295469e-01	 2.4033923491e+00
 2.0980049505e+00	 2.6188217777e-01	 2.3522813882e+00
 2.0919660612e+00	 3.0640685329e-01	 2.2861052918e+00
 2.0849294742e+00	 3.5110745639e-01	 2.2022954310e+00
 2.0768795270e+00	 3.9595334453e-01	 2.0979798315e+00
 2.0678016877e+00	 4.4091279679e-01	 1.9813962849e+00
 2.1428582540e+00	 0.0000000000e+00	 2.3032362011e+00
 2.1424172829e+00	 4.3469846890e-02	 2.3291953815e+00
 2.1410800068e+00	 8.7279557320e-02	 2.3387131305e+00
 2.1388253387e+00	 1.3140526907e-01	 2.3337918543e+00
 2.1356328636e+00	 1.7582187290e-01	 2.3160508089e+00
 2.1314829156e+00	 2.2050302460e-01	 2.2863255262e+00
 2.1263566578e+00	 2.6542116220e-01	 2.2442796293e+00
 2.1202361611e+00	 3.1054752866e-01	 2.1880895967e+00
 2.1131044841e+00	 3.5585220013e-01	 2.1142725254e+00
 2.1049457527e+00	 4.0130411996e-01	 2.0184333721e+00
 2.0957452386e+00	 4.4687113857e-01	 1.9076792634e+00
 1.8163105116e+00	 3.8728788755e-01	 2.3978727717e+00
 1.8074228149e+00	 4.2684747719e-01	 2.2693871268e+00
 1.7976100897e+00	 4.6644845461e-01	 2.1179754613e+00
 1.7868629505e+00	 5.0606042561e-01	 1.9475155821e+00
 1.7751732630e+00	 5.4565224104e-01	 1.7623196168e+00
 1.7625342029e+00	 5.8519205690e-01	 1.5668414057e+00
 1.7489403119e+00	 6.2464739934e-01	 1.3654205834e+00
 1.7343875495e+00	 6.6398523435e-01	 1.1620798184e+00
 1.7188733416e+00	 7.0317204199e-01	 9.6039037664e-01
 1.7023966233e+00	 7.4217389490e-01	 7.6340226327e-01
 1.6849578786e+00	 7.8095654068e-01	 5.6080903924e-01
 1.8442540626e+00	 3.9324622934e-01	 2.3384291020e+00
 1.8352296305e+00	 4.3341443485e-01	 2.2105740898e+00
 1.8252659386e+00	 4.7362466488e-01	 2.0592347187e+00
 1.8143534570e+00	 5.1384605763e-01	 1.8888298943e+00
 1.8024839261e+00	 5.5404698472e-01	 1.7041873494e+00
 1.7896504168e+00	 5.9419511224e-01	 1.5102058985e+00
 1.7758473866e+00	 6.3425746673e-01	 1.3115600221e+00
 1.7610707331e+00	 6.7420050597e-01	 1.1124651883e+00
 1.7453178424e+00	 7.1399019431e-01	 9.1652085814e-01
 1.7285876333e+00	 7.5359208243e-01	 7.2542491977e-01
 1.7108805972e+00	 7.9297139097e-01	 5.2456680934e-01
 1.8721975614e+00	 3.9920456000e-01	 2.2739258547e+00
 1.8630363942e+00	 4.3998138024e-01	 2.1495958200e+00
 1.8529217359e+00	 4.8080086176e-01	 2.0039223816e+00
 1.8418439121e+00	 5.2163167512e-01	 1.8386006011e+00
 1.8297945382e+00	 5.6244171273e-01	 1.6576596612e+00
 1.8167665800e+00	 6.0319815077e-01	 1.4668254218e+00
 1.8027544111e+00	 6.4386751619e-01	 1.2714769805e+00
 1.7877538669e+00	 6.8441575852e-01	 1.0763660268e+00
 1.7717622938e+00	 7.2480832644e-01	 8.8543253418e-01
 1.7547785944e+00	 7.6501024864e-01	 6.9767111491e-01
 1.7368032675e+00	 8.0498621883e-01	 4.9828845221e-01
 1.9001410210e+00	 4.0516288232e-01	 2.2243063868e+00
 1.8908431190e+00	 4.4654831645e-01	 2.0997860684e+00
 1.8805774945e+00	 4.8797704859e-01	 1.9563653898e+00
 1.8693343288e+00	 5.2941728171e-01	 1.7959647705e+00
 1.8571051121e+00	 5.7083642899e-01	 1.6211236226e+00
 1.8438827053e+00	 6.1220117670e-01	 1.4351133732e+00
 1.8296613980e+00	 6.5347755219e-01	 1.2435722337e+00
 1.8144369633e+00	 6.9463099676e-01	 1.0521730072e+00
 1.7982067082e+00	 7.3562644342e-01	 8.6550379861e-01
 1.7809695188e+00	 7.7642839888e-01	 6.7885787425e-01
 1.7627259014e+00	 8.1700102987e-01	 4.8058659005e-01
 1.9280844546e+00	 4.1112119908e-01	 2.1854637734e+00
 1.9186498178e+00	 4.5311524653e-01	 2.0602098252e+00
 1.9082332273e+00	 4.9515322872e-01	 1.9179929329e+00
 1.8968247198e+00	 5.3720288103e-01	 1.7607487736e+00
 1.8844156605e+00	 5.7923113741e-01	 1.5910102085e+00
 1.8709988053e+00	 6.2120419423e-01	 1.4117530652e+00
 1.8565683597e+00	 6.6308757922e-01	 1.2261752992e+00
 1.8411200348e+00	 7.0484622548e-01	 1.0383899379e+00
 1.8246510979e+00	 7.4644455030e-01	 8.5507947893e-01
 1.8071604188e+00	 7.8784653845e-01	 6.6784536356e-01
 1.7886485111e+00	 8.2901582970e-01	 4.7021514461e-01
 1.9560278751e+00	 4.1707951306e-01	 2.1522486962e+00
 1.9464565037e+00	 4.5968217354e-01	 2.0260841129e+00
 1.9358889471e+00	 5.0232940551e-01	 1.8844320408e+00
 1.9243150980e+00	 5.4498847672e-01	 1.7292997904e+00
 1.9117261962e+00	 5.8762584192e-01	 1.5632813856e+00
 1.8981148926e+00	 6.3020720756e-01	 1.3894290257e+00
 1.8834753089e+00	 6.7269760176e-01	 1.2110515556e+00
 1.8678030939e+00	 7.1506144942e-01	 1.0314266541e+00
 1.8510954753e+00	 7.5726265213e-01	 8.5198914583e-01
 1.8333513066e+00	 7.9926467270e-01	 6.6362354847e-01
 1.8145711088e+00	 8.4103062392e-01	 4.6605496124e-01
 1.9839712957e+00	 4.2303782704e-01	 2.1197662108e+00
 1.9742631895e+00	 4.6624910055e-01	 1.9928872664e+00
 1.9635446670e+00	 5.0950558229e-01	 1.8515746050e+00
 1.9518054762e+00	 5.5277407241e-01	 1.6979418358e+00
 1.9390367319e+00	 5.9602054643e-01	 1.5346915508e+00
 1.9252309799e+00	 6.3921022088e-01	 1.3650157724e+00
 1.9103822581e+00	 6.8230762431e-01	 1.1924163525e+00
 1.8944861530e+00	 7.2527667337e-01	 1.0204301114e+00
 1.8775398527e+00	 7.6808075397e-01	 8.4861781387e-01
 1.8595421944e+00	 8.1068280694e-01	 6.6466320571e-01
 1.8404937064e+00	 8.5304541813e-01	 4.6709956421e-01
 2.0119147292e+00	 4.2899614380e-01	 2.0833668258e+00
 2.0020698883e+00	 4.7281603063e-01	 1.9563496546e+00
 1.9912003998e+00	 5.1668176242e-01	 1.8155675435e+00
 1.9792958672e+00	 5.6055967173e-01	 1.6632531065e+00
 1.9663472803e+00	 6.0441525485e-01	 1.5022444703e+00
 1.9523470799e+00	 6.4821323841e-01	 1.3359183981e+00
 1.9372892198e+00	 6.9191765133e-01	 1.1680355804e+00
 1.9211692245e+00	 7.3549190208e-01	 1.0024807877e+00
 1.9039842424e+00	 7.7889886085e-01	 8.3632012343e-01
 1.8857330944e+00	 8.2210094651e-01	 6.5949040899e-01
 1.8664163161e+00	 8.6506021796e-01	 4.7001162012e-01
 2.0398581889e+00	 4.3495446612e-01	 2.0386380386e+00
 2.0298766131e+00	 4.7938296684e-01	 1.9124447974e+00
 2.0188561583e+00	 5.2385794926e-01	 1.7728032974e+00
 2.0067862839e+00	 5.6834527832e-01	 1.6220556195e+00
 1.9936578542e+00	 6.1280997111e-01	 1.4631817860e+00
 1.9794632052e+00	 6.5721626434e-01	 1.2997696511e+00
 1.9641962066e+00	 7.0152768733e-01	 1.1358884007e+00
 1.9478523209e+00	 7.4570714033e-01	 9.7575400244e-01
 1.9304286569e+00	 7.8971697783e-01	 8.1373966972e-01
 1.9119240188e+00	 8.3351909675e-01	 6.4314585424e-01
 1.8923389501e+00	 8.7707502900e-01	 4.6225295922e-01
 2.0678016877e+00	 4.4091279679e-01	 1.9813962849e+00
 2.0576833768e+00	 4.8594991224e-01	 1.8573808392e+00
 2.0465119556e+00	 5.3103414613e-01	 1.7199106272e+00
 2.0342767390e+00	 5.7613089581e-01	 1.5714050942e+00
 2.0209684663e+00	 6.2120469912e-01	 1.4149717139e+00
 2.0065793684e+00	 6.6621930287e-01	 1.2544171513e+00
 1.9911032311e+00	 7.1113773679e-01	 1.0941526548e+00
 1.9745354547e+00	 7.5592239288e-01	 9.3818921868e-01
 1.9568731083e+00	 8.0053510995e-01	 7.7964775209e-01
 1.9381149799e+00	 8.4493726296e-01	 6.1446575520e-01
 1.9182616203e+00	 8.8908985686e-01	 4.4119361381e-01
 2.0957452386e+00	 4.4687113857e-01	 1.9076792634e+00
 2.0854901924e+00	 4.9251686990e-01	 1.7875923474e+00
 2.0741678046e+00	 5.3821035641e-01	 1.6537456828e+00
 2.0617672455e+00	 5.8391652783e-01	 1.5085810575e+00
 2.0482791294e+00	 6.2959944281e-01	 1.3552979183e+00
 2.0336955823e+00	 6.7522235821e-01	 1.1979107406e+00
 2.0180103059e+00	 7.2074780418e-01	 1.0411903737e+00
 2.0012186383e+00	 7.6613766449e-01	 8.8845492689e-01
 1.9833176091e+00	 8.1135326227e-01	 7.3293212620e-01
 1.9643059899e+00	 8.5635545049e-01	 5.7240325506e-01
 1.9441843389e+00	 9.0110470714e-01	 4.0580099547e-01
 1.6849578786e+00	 7.8095654068e-01	 5.6080903924e-01
 1.6665578535e+00	 8.1948817376e-01	 3.4947408172e-01
 1.6472014204e+00	 8.5773141404e-01	 1.3799992997e-01
 1.6268938986e+00	 8.9565154503e-01	-7.1039450082e-02
 1.6056422558e+00	 9.3321388714e-01	-2.7518532597e-01
 1.5834551166e+00	 9.7038389414e-01	-4.7200355787e-01
 1.5603427655e+00	 1.0071272509e+00	-6.5895638695e-01
 1.5363171425e+00	 1.0434099722e+00	-8.3323779608e-01
 1.5113918316e+00	 1.0791985014e+00	-9.9157521440e-01
 1.4855820422e+00	 1.1144598091e+00	-1.1300345434e+00
 1.4589045842e+00	 1.1491614912e+00	-1.2541938312e+00
 1.7108805972e+00	 7.9297139097e-01	 5.2456680934e-01
 1.6921974916e+00	 8.3209582503e-01	 3.1566999953e-01
 1.6725432639e+00	 8.7092742942e-01	 1.0696636026e-01
 1.6519233153e+00	 9.0943095356e-01	-9.8946509015e-02
 1.6303447204e+00	 9.4757118433e-01	-2.9966858311e-01
 1.6078162368e+00	 9.8531304397e-01	-4.9290179342e-01
 1.5843483071e+00	 1.0226216895e+00	-6.7631217355e-01
 1.5599530550e+00	 1.0594626127e+00	-8.4735084771e-01
 1.5346442735e+00	 1.0958017408e+00	-1.0030367367e+00
 1.5084374060e+00	 1.1316055363e+00	-1.1407016916e+00
 1.4813495210e+00	 1.1668410963e+00	-1.2622149187e+00
 1.7368032675e+00	 8.0498621883e-01	 4.9828845221e-01
 1.7178370819e+00	 8.4470345276e-01	 2.9157164676e-01
 1.6978850601e+00	 8.8412342018e-01	 8.5252108939e-02
 1.6769526852e+00	 9.2321033638e-01	-1.1800101402e-01
 1.6550471389e+00	 9.6192845471e-01	-3.1580503073e-01
 1.6321773115e+00	 1.0002421659e+00	-5.0596356332e-01
 1.6083538039e+00	 1.0381160991e+00	-6.8631912341e-01
 1.5835889234e+00	 1.0755152233e+00	-8.5455939985e-01
 1.5578966720e+00	 1.1124049492e+00	-1.0079825963e+00
 1.5312927271e+00	 1.1487512314e+00	-1.1459204629e+00
 1.5037944158e+00	 1.1845206685e+00	-1.2695148102e+00
 1.7627259014e+00	 8.1700102987e-01	 4.8058659005e-01
 1.7434766363e+00	 8.5731106284e-01	 2.7566065454e-01
 1.7232268209e+00	 8.9731939246e-01	 7.1232856215e-02
 1.7019820200e+00	 9.3698969990e-01	-1.2990631234e-01
 1.6797495228e+00	 9.7628570499e-01	-3.2534921018e-01
 1.6565383521e+00	 1.0151712670e+00	-5.1296689305e-01
 1.6323592671e+00	 1.0536104871e+00	-6.9075222490e-01
 1.6072247587e+00	 1.0915678113e+00	-8.5661114032e-01
 1.5811490379e+00	 1.1290081344e+00	-1.0084463108e+00
 1.5541480162e+00	 1.1658969025e+00	-1.1467003503e+00
 1.5262392793e+00	 1.2022002159e+00	-1.2717946489e+00
 1.7886485111e+00	 8.2901582970e-01	 4.7021514461e-01
 1.7691161668e+00	 8.6991866116e-01	 2.6656068893e-01
 1.7485685580e+00	 9.1051535242e-01	 6.3427130488e-02
 1.7270113315e+00	 9.5076905057e-01	-1.3622171559e-01
 1.7044518837e+00	 9.9064294187e-01	-3.2990981207e-01
 1.6808993700e+00	 1.0301003541e+00	-5.1554130798e-01
 1.6563647079e+00	 1.0691048606e+00	-6.9123432714e-01
 1.6308605719e+00	 1.1076203844e+00	-8.5509688589e-01
 1.6044013821e+00	 1.1456113041e+00	-1.0058758360e+00
 1.5770032840e+00	 1.1830425577e+00	-1.1440743820e+00
 1.5486841218e+00	 1.2198797468e+00	-1.2700814862e+00
 1.8145711088e+00	 8.4103062392e-01	 4.6605496124e-01
 1.7947556852e+00	 8.8252625359e-01	 2.6302200183e-01
 1.7739102832e+00	 9.2371130622e-01	 6.0479956127e-02
 1.7520406314e+00	 9.6454839480e-01	-1.3837958162e-01
 1.7291542331e+00	 1.0050001720e+00	-3.3096731219e-01
 1.7052603765e+00	 1.0450294343e+00	-5.1518584802e-01
 1.6803701375e+00	 1.0845992268e+00	-6.8925435946e-01
 1.6544963741e+00	 1.1236729500e+00	-8.5150961937e-01
 1.6276537155e+00	 1.1622144660e+00	-1.0013172305e+00
 1.5998585411e+00	 1.2001882048e+00	-1.1390922511e+00
 1.5711289538e+00	 1.2375592694e+00	-1.2654179162e+00
 1.8404937064e+00	 8.5304541813e-01	 4.6709956421e-01
 1.8203952037e+00	 8.9513384602e-01	 2.6390615060e-01
 1.7992520085e+00	 9.3690726003e-01	 6.1146699691e-02
 1.7770699312e+00	 9.7832773903e-01	-1.3770217530e-01
 1.7538565824e+00	 1.0193574022e+00	-3.2989137082e-01
 1.7296213831e+00	 1.0599585145e+00	-5.1328683610e-01
 1.7043755670e+00	 1.1000935931e+00	-6.8618530119e-01
 1.6781321763e+00	 1.1397255156e+00	-8.4714238494e-01
 1.6509060489e+00	 1.1788176280e+00	-9.9582903296e-01
 1.6227137982e+00	 1.2173338519e+00	-1.1328132171e+00
 1.5935737858e+00	 1.2552387920e+00	-1.2588544016e+00
 1.8664163161e+00	 8.6506021796e-01	 4.7001162012e-01
 1.8460347342e+00	 9.0774144434e-01	 2.6817086971e-01
 1.8245937456e+00	 9.5010321999e-01	 6.4277095058e-02
 1.8020992427e+00	 9.9210708969e-01	-1.3541833015e-01
 1.7785589433e+00	 1.0337146391e+00	-3.2795801845e-01
 1.7539824010e+00	 1.0748876016e+00	-5.1113542466e-01
 1.7283810078e+00	 1.1155879666e+00	-6.8329783873e-01
 1.7017679896e+00	 1.1557780887e+00	-8.4305626108e-01
 1.6741583931e+00	 1.1954207977e+00	-9.9047533239e-01
 1.6455690660e+00	 1.2344795071e+00	-1.1262988012e+00
 1.6160186283e+00	 1.2729183229e+00	-1.2514416027e+00
 1.8923389501e+00	 8.7707502900e-01	 4.6225295922e-01
 1.8716742886e+00	 9.2034905442e-01	 2.7020185966e-01
 1.8499355064e+00	 9.6329919227e-01	 6.8799430033e-02
 1.8271285776e+00	 1.0058864532e+00	-1.3267993003e-01
 1.8032613272e+00	 1.0480718894e+00	-3.2636664898e-01
 1.7783434416e+00	 1.0898167027e+00	-5.0994494184e-01
 1.7523864710e+00	 1.1310823545e+00	-6.8168761700e-01
 1.7254038249e+00	 1.1718306768e+00	-8.4031010770e-01
 1.6974107591e+00	 1.2120239828e+00	-9.8631864417e-01
 1.6684243551e+00	 1.2516251782e+00	-1.1206052949e+00
 1.6384634917e+00	 1.2905978703e+00	-1.2442225303e+00
 1.9182616203e+00	 8.8908985686e-01	 4.4119361381e-01
 1.8973138788e+00	 9.3295668215e-01	 2.5841424075e-01
 1.8752773026e+00	 9.7649518302e-01	 6.7134717509e-02
 1.8521579475e+00	 1.0196658360e+00	-1.3057911693e-01
 1.8279637457e+00	 1.0624291598e+00	-3.2625683871e-01
 1.8027045163e+00	 1.1047458246e+00	-5.1086805662e-01
 1.7763919678e+00	 1.1465767641e+00	-6.8238689162e-01
 1.7490396933e+00	 1.1878832873e+00	-8.3995913316e-01
 1.7206631575e+00	 1.2286271913e+00	-9.8441260859e-01
 1.6912796762e+00	 1.2687708733e+00	-1.1167761004e+00
 1.6609083866e+00	 1.3082774424e+00	-1.2382245419e+00
 1.9441843389e+00	 9.0110470714e-01	 4.0580099547e-01
 1.9229535170e+00	 9.4556433342e-01	 2.3136258907e-01
 1.9006191461e+00	 9.8969119840e-01	 4.9480493254e-02
 1.8771873641e+00	 1.0334452446e+00	-1.3779186590e-01
 1.8526662103e+00	 1.0767864569e+00	-3.2873216808e-01
 1.8270656365e+00	 1.1196749745e+00	-5.1497482894e-01
 1.8003975094e+00	 1.1620712027e+00	-6.8643669633e-01
 1.7726756058e+00	 1.2039359279e+00	-8.4304779285e-01
 1.7439155994e+00	 1.2452304307e+00	-9.8579452908e-01
 1.7141350400e+00	 1.2859166005e+00	-1.1158339174e+00
 1.6833533233e+00	 1.3259570476e+00	-1.2344511935e+00
 1.4589045842e+00	 1.1491614912e+00	-1.2541938312e+00
 1.4313778311e+00	 1.1832718678e+00	-1.3780415345e+00
 1.4030216684e+00	 1.2167600874e+00	-1.5020038634e+00
 1.3738574599e+00	 1.2495962085e+00	-1.6221821560e+00
 1.3439079992e+00	 1.2817512851e+00	-1.7350200197e+00
 1.3131974507e+00	 1.3131974507e+00	-1.8370798486e+00
 1.2817512851e+00	 1.3439079992e+00	-1.9248178194e+00
 1.2495962085e+00	 1.3738574599e+00	-1.9943689402e+00
 1.2167600874e+00	 1.4030216684e+00	-2.0413533052e+00
 1.1832718678e+00	 1.4313778311e+00	-2.0607138235e+00
 1.1491614912e+00	 1.4589045842e+00	-2.0465943904e+00
 1.4813495210e+00	 1.1668410963e+00	-1.2622149187e+00
 1.4533992746e+00	 1.2014762538e+00	-1.3787342037e+00
 1.4246068583e+00	 1.2354796825e+00	-1.4977565034e+00
 1.3949939647e+00	 1.2688209804e+00	-1.6148237923e+00
 1.3645837379e+00	 1.3014707560e+00	-1.7258447186e+00
 1.3334007142e+00	 1.3334007142e+00	-1.8268444062e+00
 1.3014707560e+00	 1.3645837379e+00	-1.9137129366e+00
 1.2688209804e+00	 1.3949939647e+00	-1.9819653528e+00
 1.2354796825e+00	 1.4246068583e+00	-2.0265255498e+00
 1.2014762538e+00	 1.4533992746e+00	-2.0415454377e+00
 1.1668410963e+00	 1.4813495210e+00	-2.0202693176e+00
 1.5037944158e+00	 1.1845206685e+00	-1.2695148102e+00
 1.4754206770e+00	 1.2196806059e+00	-1.3821951266e+00
 1.4461920080e+00	 1.2541992427e+00	-1.4946527850e+00
 1.4161304301e+00	 1.2880457164e+00	-1.6069828930e+00
 1.3852594381e+00	 1.3211901901e+00	-1.7146116067e+00
 1.3536039400e+00	 1.3536039400e+00	-1.8130765456e+00
 1.3211901901e+00	 1.3852594381e+00	-1.8977452370e+00
 1.2880457164e+00	 1.4161304301e+00	-1.9635467240e+00
 1.2541992427e+00	 1.4461920080e+00	-2.0047300299e+00
 1.2196806059e+00	 1.4754206770e+00	-2.0146620838e+00
 1.1845206685e+00	 1.5037944158e+00	-1.9898840837e+00
 1.5262392793e+00	 1.2022002159e+00	-1.2717946489e+00
 1.4974420486e+00	 1.2378849324e+00	-1.3867226827e+00
 1.4677771275e+00	 1.2729187768e+00	-1.4934443207e+00
 1.4372668659e+00	 1.3072704255e+00	-1.5994863931e+00
 1.4059351093e+00	 1.3409095966e+00	-1.7022273675e+00
 1.3738071375e+00	 1.3738071375e+00	-1.7967684745e+00
 1.3409095966e+00	 1.4059351093e+00	-1.8779990901e+00
 1.3072704255e+00	 1.4372668659e+00	-1.9402963783e+00
 1.2729187768e+00	 1.4677771275e+00	-1.9772550653e+00
 1.2378849324e+00	 1.4974420486e+00	-1.9832474519e+00
 1.2022002159e+00	 1.5262392793e+00	-1.9604089127e+00
 1.5486841218e+00	 1.2198797468e+00	-1.2700814862e+00
 1.5194633996e+00	 1.2560892420e+00	-1.3867954226e+00
 1.4893622268e+00	 1.2916382933e+00	-1.4942552427e+00
 1.4584032819e+00	 1.3264951167e+00	-1.5930592125e+00
 1.4266107612e+00	 1.3606289847e+00	-1.6894910136e+00
 1.3940103161e+00	 1.3940103161e+00	-1.7788014574e+00
 1.3606289847e+00	 1.4266107612e+00	-1.8554475906e+00
 1.3264951167e+00	 1.4584032819e+00	-1.9132894828e+00
 1.2916382933e+00	 1.4893622268e+00	-1.9456395694e+00
 1.2560892420e+00	 1.5194633996e+00	-1.9526698996e+00
 1.2198797468e+00	 1.5486841218e+00	-1.9317842125e+00
 1.5711289538e+00	 1.2375592694e+00	-1.2654179162e+00
 1.5414847404e+00	 1.2742935431e+00	-1.3830952889e+00
 1.5109473161e+00	 1.3103578011e+00	-1.4919438347e+00
 1.4795396881e+00	 1.3457197989e+00	-1.5883090567e+00
 1.4472864035e+00	 1.3803483636e+00	-1.6770773323e+00
 1.4142134854e+00	 1.4142134854e+00	-1.7599279545e+00
 1.3803483636e+00	 1.4472864035e+00	-1.8309334401e+00
 1.3457197989e+00	 1.4795396881e+00	-1.8834727261e+00
 1.3103578011e+00	 1.5109473161e+00	-1.9143562789e+00
 1.2742935431e+00	 1.5414847404e+00	-1.9228588539e+00
 1.2375592694e+00	 1.5711289538e+00	-1.9036158912e+00
 1.5935737858e+00	 1.2552387920e+00	-1.2588544016e+00
 1.5635060811e+00	 1.2924978442e+00	-1.3766607423e+00
 1.5325324053e+00	 1.3290773089e+00	-1.4858896554e+00
 1.5006760943e+00	 1.3649444811e+00	-1.5829165581e+00
 1.4679620457e+00	 1.4000677425e+00	-1.6655201899e+00
 1.4344166546e+00	 1.4344166546e+00	-1.7407536394e+00
 1.4000677425e+00	 1.4679620457e+00	-1.8051497347e+00
 1.3649444811e+00	 1.5006760943e+00	-1.8530638178e+00
 1.3290773089e+00	 1.5325324053e+00	-1.8839481371e+00
 1.2924978442e+00	 1.5635060811e+00	-1.8931654816e+00
 1.2552387920e+00	 1.5935737858e+00	-1.8752101814e+00
 1.6160186283e+00	 1.2729183229e+00	-1.2514416027e+00
 1.5855274321e+00	 1.3107021537e+00	-1.3685293982e+00
 1.5541175046e+00	 1.3477968255e+00	-1.4771186218e+00
 1.5218125104e+00	 1.3841691723e+00	-1.5736950806e+00
 1.4886376976e+00	 1.4197871306e+00	-1.6548532093e+00
 1.4546198332e+00	 1.4546198332e+00	-1.7217193094e+00
 1.4197871306e+00	 1.4886376976e+00	-1.7787562143e+00
 1.3841691723e+00	 1.5218125104e+00	-1.8237747689e+00
 1.3477968255e+00	 1.5541175046e+00	-1.8535254392e+00
 1.3107021537e+00	 1.5855274321e+00	-1.8626728562e+00
 1.2729183229e+00	 1.6160186283e+00	-1.8456083539e+00
 1.6384634917e+00	 1.2905978703e+00	-1.2442225303e+00
 1.6075488037e+00	 1.3289064803e+00	-1.3597298587e+00
 1.5757026241e+00	 1.3665163595e+00	-1.4666472551e+00
 1.5429489462e+00	 1.4033938814e+00	-1.5616203879e+00
 1.5093133689e+00	 1.4395065371e+00	-1.6413881783e+00
 1.4748230307e+00	 1.4748230307e+00	-1.7030826981e+00
 1.4395065371e+00	 1.5093133689e+00	-1.7532899142e+00
 1.4033938814e+00	 1.5429489462e+00	-1.7945041207e+00
 1.3665163595e+00	 1.5757026241e+00	-1.8219616383e+00
 1.3289064803e+00	 1.6075488037e+00	-1.8302315918e+00
 1.2905978703e+00	 1.6384634917e+00	-1.8136214835e+00
 1.6609083866e+00	 1.3082774424e+00	-1.2382245419e+00
 1.6295702061e+00	 1.3471108323e+00	-1.3512733992e+00
 1.5972877738e+00	 1.3852359197e+00	-1.4554741039e+00
 1.5640854116e+00	 1.4226186174e+00	-1.5476805151e+00
 1.5299890690e+00	 1.4592259713e+00	-1.6248206455e+00
 1.4950262565e+00	 1.4950262565e+00	-1.6841150215e+00
 1.4592259713e+00	 1.5299890690e+00	-1.7280036802e+00
 1.4226186174e+00	 1.5640854116e+00	-1.7639267848e+00
 1.3852359197e+00	 1.5972877738e+00	-1.7879295729e+00
 1.3471108323e+00	 1.6295702061e+00	-1.7944954866e+00
 1.3082774424e+00	 1.6609083866e+00	-1.7778652628e+00
 1.6833533233e+00	 1.3259570476e+00	-1.2344511935e+00
 1.6515916496e+00	 1.3653152184e+00	-1.3441455213e+00
 1.6188729638e+00	 1.4039555149e+00	-1.4445710462e+00
 1.5852219164e+00	 1.4418433893e+00	-1.5328371532e+00
 1.5506648078e+00	 1.4789454422e+00	-1.6061041714e+00
 1.5152295200e+00	 1.5152295200e+00	-1.6620490239e+00
 1.4789454422e+00	 1.5506648078e+00	-1.7013818161e+00
 1.4418433893e+00	 1.5852219164e+00	-1.7305473019e+00
 1.4039555149e+00	 1.6188729638e+00	-1.7499376750e+00
 1.3653152184e+00	 1.6515916496e+00	-1.7539571748e+00
 1.3259570476e+00	 1.6833533233e+00	-1.7367948569e+00
 1.1491614912e+00	 1.4589045842e+00	-2.0465943904e+00
 1.1144598091e+00	 1.4855820422e+00	-2.0121312347e+00
 1.0791985014e+00	 1.5113918316e+00	-1.9766496951e+00
 1.0434099722e+00	 1.5363171425e+00	-1.9351034799e+00
 1.0071272509e+00	 1.5603427655e+00	-1.8849258563e+00
 9.7038389414e-01	 1.5834551166e+00	-1.8250684399e+00
 9.3321388714e-01	 1.6056422558e+00	-1.7555675890e+00
 8.9565154503e-01	 1.6268938986e+00	-1.6772057030e+00
 8.5773141404e-01	 1.6472014204e+00	-1.5912226875e+00
 8.1948817376e-01	 1.6665578535e+00	-1.4990799409e+00
 7.8095654068e-01	 1.6849578786e+00	-1.4022769905e+00
 1.1668410963e+00	 1.4813495210e+00	-2.0202693176e+00
 1.1316055363e+00	 1.5084374060e+00	-1.9814241742e+00
 1.0958017408e+00	 1.5346442735e+00	-1.9473068799e+00
 1.0594626127e+00	 1.5599530550e+00	-1.9069000246e+00
 1.0226216895e+00	 1.5843483071e+00	-1.8563197489e+00
 9.8531304397e-01	 1.6078162368e+00	-1.7951065794e+00
 9.4757118433e-01	 1.6303447204e+00	-1.7238250634e+00
 9.0943095356e-01	 1.6519233153e+00	-1.6437020405e+00
 8.7092742942e-01	 1.6725432639e+00	-1.5563220759e+00
 8.3209582503e-01	 1.6921974916e+00	-1.4633821958e+00
 7.9297139097e-01	 1.7108805972e+00	-1.3665056223e+00
 1.1845206685e+00	 1.5037944158e+00	-1.9898840837e+00
 1.1487512314e+00	 1.5312927271e+00	-1.9515500354e+00
 1.1124049492e+00	 1.5578966720e+00	-1.9166977147e+00
 1.0755152233e+00	 1.5835889234e+00	-1.8783639536e+00
 1.0381160991e+00	 1.6083538039e+00	-1.8283308773e+00
 1.0002421659e+00	 1.6321773115e+00	-1.7667084495e+00
 9.6192845471e-01	 1.6550471389e+00	-1.6945677138e+00
 9.2321033638e-01	 1.6769526852e+00	-1.6135473208e+00
 8.8412342018e-01	 1.6978850601e+00	-1.5255334470e+00
 8.4470345276e-01	 1.7178370819e+00	-1.4324063572e+00
 8.0498621883e-01	 1.7368032675e+00	-1.3358528007e+00
 1.2022002159e+00	 1.5262392793e+00	-1.9604089127e+00
 1.1658969025e+00	 1.5541480162e+00	-1.9227687179e+00
 1.1290081344e+00	 1.5811490379e+00	-1.8864644475e+00
 1.0915678113e+00	 1.6072247587e+00	-1.8493306170e+00
 1.0536104871e+00	 1.6323592671e+00	-1.8006317053e+00
 1.0151712670e+00	 1.6565383521e+00	-1.7394360426e+00
 9.7628570499e-01	 1.6797495228e+00	-1.6672995828e+00
 9.3698969990e-01	 1.7019820200e+00	-1.5862385154e+00
 8.9731939246e-01	 1.7232268209e+00	-1.4983943093e+00
 8.5731106284e-01	 1.7434766363e+00	-1.4057733335e+00
 8.1700102987e-01	 1.7627259014e+00	-1.3100596745e+00
 1.2198797468e+00	 1.5486841218e+00	-1.9317842125e+00
 1.1830425577e+00	 1.5770032840e+00	-1.8949750944e+00
 1.1456113041e+00	 1.6044013821e+00	-1.8576695773e+00
 1.1076203844e+00	 1.6308605719e+00	-1.8196617334e+00
 1.0691048606e+00	 1.6563647079e+00	-1.7729302272e+00
 1.0301003541e+00	 1.6808993700e+00	-1.7128988197e+00
 9.9064294187e-01	 1.7044518837e+00	-1.6415864671e+00
 9.5076905057e-01	 1.7270113315e+00	-1.5613504721e+00
 9.1051535242e-01	 1.7485685580e+00	-1.4745374148e+00
 8.6991866116e-01	 1.7691161668e+00	-1.3832172371e+00
 8.2901582970e-01	 1.7886485111e+00	-1.2889984413e+00
 1.2375592694e+00	 1.5711289538e+00	-1.9036158912e+00
 1.2001882048e+00	 1.5998585411e+00	-1.8677324116e+00
 1.1622144660e+00	 1.6276537155e+00	-1.8298609915e+00
 1.1236729500e+00	 1.6544963741e+00	-1.7899063508e+00
 1.0845992268e+00	 1.6803701375e+00	-1.7449279682e+00
 1.0450294343e+00	 1.7052603765e+00	-1.6867126409e+00
 1.0050001720e+00	 1.7291542331e+00	-1.6170160941e+00
 9.6454839480e-01	 1.7520406314e+00	-1.5384976408e+00
 9.2371130622e-01	 1.7739102832e+00	-1.4536543290e+00
 8.8252625359e-01	 1.7947556852e+00	-1.3645510746e+00
 8.4103062392e-01	 1.8145711088e+00	-1.2726404188e+00
 1.2552387920e+00	 1.5935737858e+00	-1.8752101814e+00
 1.2173338519e+00	 1.6227137982e+00	-1.8403058046e+00
 1.1788176280e+00	 1.6509060489e+00	-1.8022866117e+00
 1.1397255156e+00	 1.6781321763e+00	-1.7610695777e+00
 1.1000935931e+00	 1.7043755670e+00	-1.7162782077e+00
 1.0599585145e+00	 1.7296213831e+00	-1.6604589385e+00
 1.0193574022e+00	 1.7538565824e+00	-1.5931585480e+00
 9.7832773903e-01	 1.7770699312e+00	-1.5172960472e+00
 9.3690726003e-01	 1.7992520085e+00	-1.4354592334e+00
 8.9513384602e-01	 1.8203952037e+00	-1.3496326451e+00
 8.5304541813e-01	 1.8404937064e+00	-1.2610242891e+00
 1.2729183229e+00	 1.6160186283e+00	-1.8456083539e+00
 1.2344795071e+00	 1.6455690660e+00	-1.8116959158e+00
 1.1954207977e+00	 1.6741583931e+00	-1.7739268137e+00
 1.1557780887e+00	 1.7017679896e+00	-1.7321943413e+00
 1.1155879666e+00	 1.7283810078e+00	-1.6866109464e+00
 1.0748876016e+00	 1.7539824010e+00	-1.6336441067e+00
 1.0337146391e+00	 1.7785589433e+00	-1.5695269200e+00
 9.9210708969e-01	 1.8020992427e+00	-1.4973254898e+00
 9.5010321999e-01	 1.8245937456e+00	-1.4196529392e+00
 9.0774144434e-01	 1.8460347342e+00	-1.3383306272e+00
 8.6506021796e-01	 1.8664163161e+00	-1.2518167937e+00
 1.2905978703e+00	 1.6384634917e+00	-1.8136214835e+00
 1.2516251782e+00	 1.6684243551e+00	-1.7806726069e+00
 1.2120239828e+00	 1.6974107591e+00	-1.7435269774e+00
 1.1718306768e+00	 1.7254038249e+00	-1.7020228057e+00
 1.1310823545e+00	 1.7523864710e+00	-1.6562829873e+00
 1.0898167027e+00	 1.7783434416e+00	-1.6056590870e+00
 1.0480718894e+00	 1.8032613272e+00	-1.5455381620e+00
 1.0058864532e+00	 1.8271285776e+00	-1.4780919357e+00
 9.6329919227e-01	 1.8499355064e+00	-1.4058870903e+00
 9.2034905442e-01	 1.8716742886e+00	-1.3257273414e+00
 8.7707502900e-01	 1.8923389501e+00	-1.2330683402e+00
 1.3082774424e+00	 1.6609083866e+00	-1.7778652628e+00
 1.2687708733e+00	 1.6912796762e+00	-1.7458087560e+00
 1.2286271913e+00	 1.7206631575e+00	-1.7096301540e+00
 1.1878832873e+00	 1.7490396933e+00	-1.6690858918e+00
 1.1465767641e+00	 1.7763919678e+00	-1.6242956655e+00
 1.1047458246e+00	 1.8027045163e+00	-1.5757391291e+00
 1.0624291598e+00	 1.8279637457e+00	-1.5204741202e+00
 1.0196658360e+00	 1.8521579475e+00	-1.4589891420e+00
 9.7649518302e-01	 1.8752773026e+00	-1.3867710452e+00
 9.3295668215e-01	 1.8973138788e+00	-1.3001295880e+00
 8.8908985686e-01	 1.9182616203e+00	-1.2019635306e+00
 1.3259570476e+00	 1.6833533233e+00	-1.7367948569e+00
 1.2859166005e+00	 1.7141350400e+00	-1.7055141321e+00
 1.2452304307e+00	 1.7439155994e+00	-1.6706098406e+00
 1.2039359279e+00	 1.7726756058e+00	-1.6317348470e+00
 1.1620712027e+00	 1.8003975094e+00	-1.5889979814e+00
 1.1196749745e+00	 1.8270656365e+00	-1.5430379550e+00
 1.0767864569e+00	 1.8526662103e+00	-1.4934347553e+00
 1.0334452446e+00	 1.8771873641e+00	-1.4309058937e+00
 9.8969119840e-01	 1.9006191461e+00	-1.3517936643e+00
 9.4556433342e-01	 1.9229535170e+00	-1.2596203567e+00
 9.0110470714e-01	 1.9441843389e+00	-1.1571217047e+00
 7.8095654068e-01	 1.6849578786e+00	-1.4022769905e+00
 7.4217389490e-01	 1.7023966233e+00	-1.2971053952e+00
 7.0317204199e-01	 1.7188733416e+00	-1.1874951939e+00
 6.6398523435e-01	 1.7343875495e+00	-1.0825596743e+00
 6.2464739934e-01	 1.7489403119e+00	-9.8231746670e-01
 5.8519205690e-01	 1.7625342029e+00	-8.8624811302e-01
 5.4565224104e-01	 1.7751732630e+00	-7.9326189322e-01
 5.0606042561e-01	 1.7868629505e+00	-7.0175557306e-01
 4.6644845461e-01	 1.7976100897e+00	-6.0975177773e-01
 4.2684747719e-01	 1.8074228149e+00	-5.1510617075e-01
 3.8728788755e-01	 1.8163105116e+00	-4.1576498254e-01
 7.9297139097e-01	 1.7108805972e+00	-1.3665056223e+00
 7.5359208243e-01	 1.7285876333e+00	-1.2621340345e+00
 7.1399019431e-01	 1.7453178424e+00	-1.1508579137e+00
 6.7420050597e-01	 1.7610707331e+00	-1.0441343819e+00
 6.3425746673e-01	 1.7758473866e+00	-9.4294446017e-01
 5.9419511224e-01	 1.7896504168e+00	-8.4681147301e-01
 5.5404698472e-01	 1.8024839261e+00	-7.5450755304e-01
 5.1384605763e-01	 1.8143534570e+00	-6.6412937538e-01
 4.7362466488e-01	 1.8252659386e+00	-5.7326821526e-01
 4.3341443485e-01	 1.8352296305e+00	-4.7925658083e-01
 3.9324622934e-01	 1.8442540626e+00	-3.7947186177e-01
 8.0498621883e-01	 1.7368032675e+00	-1.3358528007e+00
 7.6501024864e-01	 1.7547785944e+00	-1.2326151401e+00
 7.2480832644e-01	 1.7717622938e+00	-1.1218040393e+00
 6.8441575852e-01	 1.7877538669e+00	-1.0144524806e+00
 6.4386751619e-01	 1.8027544111e+00	-9.1302768205e-01
 6.0319815077e-01	 1.8167665800e+00	-8.1681244892e-01
 5.6244171273e-01	 1.8297945382e+00	-7.2412202766e-01
 5.2163167512e-01	 1.8418439121e+00	-6.3240456150e-01
 4.8080086176e-01	 1.8529217359e+00	-5.3845493806e-01
 4.3998138024e-01	 1.8630363942e+00	-4.4023649619e-01
 3.9920456000e-01	 1.8721975614e+00	-3.3757160062e-01
 8.1700102987e-01	 1.7627259014e+00	-1.3100596745e+00
 7.7642839888e-01	 1.7809695188e+00	-1.2083866965e+00
 7.3562644342e-01	 1.7982067082e+00	-1.0996674806e+00
 6.9463099676e-01	 1.8144369633e+00	-9.9279510136e-01
 6.5347755219e-01	 1.8296613980e+00	-8.9179804312e-01
 6.1220117670e-01	 1.8438827053e+00	-7.9543858112e-01
 5.7083642899e-01	 1.8571051121e+00	-7.0121061326e-01
 5.2941728171e-01	 1.8693343288e+00	-6.0623290981e-01
 4.8797704859e-01	 1.8805774945e+00	-5.0949156779e-01
 4.4654831645e-01	 1.8908431190e+00	-4.1037292047e-01
 4.0516288232e-01	 1.9001410210e+00	-3.0855550627e-01
 8.2901582970e-01	 1.7886485111e+00	-1.2889984413e+00
 7.8784653845e-01	 1.8071604188e+00	-1.1894377989e+00
 7.4644455030e-01	 1.8246510979e+00	-1.0839247937e+00
 7.0484622548e-01	 1.8411200348e+00	-9.7861761865e-01
 6.6308757922e-01	 1.8565683597e+00	-8.7848044420e-01
 6.2120419423e-01	 1.8709988053e+00	-7.8025569423e-01
 5.7923113741e-01	 1.8844156605e+00	-6.8281420884e-01
 5.3720288103e-01	 1.8968247198e+00	-5.8557123945e-01
 4.9515322872e-01	 1.9082332273e+00	-4.8784827066e-01
 4.5311524653e-01	 1.9186498178e+00	-3.8908253773e-01
 4.1112119908e-01	 1.9280844546e+00	-2.8897496621e-01
 8.4103062392e-01	 1.8145711088e+00	-1.2726404188e+00
 7.9926467270e-01	 1.8333513066e+00	-1.1758791291e+00
 7.5726265213e-01	 1.8510954753e+00	-1.0740876391e+00
 7.1506144942e-01	 1.8678030939e+00	-9.6946556109e-01
 6.7269760176e-01	 1.8834753089e+00	-8.6607403112e-01
 6.3020720756e-01	 1.8981148926e+00	-7.6484296101e-01
 5.8762584192e-01	 1.9117261962e+00	-6.6549219464e-01
 5.4498847672e-01	 1.9243150980e+00	-5.6739749336e-01
 5.0232940551e-01	 1.9358889471e+00	-4.6986366897e-01
 4.5968217354e-01	 1.9464565037e+00	-3.7231755163e-01
 4.1707951306e-01	 1.9560278751e+00	-2.7443281181e-01
 8.5304541813e-01	 1.8404937064e+00	-1.2610242891e+00
 8.1068280694e-01	 1.8595421944e+00	-1.1673016643e+00
 7.6808075397e-01	 1.8775398527e+00	-1.0640317145e+00
 7.2527667337e-01	 1.8944861530e+00	-9.5580426279e-01
 6.8230762431e-01	 1.9103822581e+00	-8.4957224859e-01
 6.3921022088e-01	 1.9252309799e+00	-7.4665519631e-01
 5.9602054643e-01	 1.9390367319e+00	-6.4660465250e-01
 5.5277407241e-01	 1.9518054762e+00	-5.4867915191e-01
 5.0950558229e-01	 1.9635446670e+00	-4.5210761347e-01
 4.6624910055e-01	 1.9742631895e+00	-3.5626348361e-01
 4.2303782704e-01	 1.9839712957e+00	-2.6076343361e-01
 8.6506021796e-01	 1.8664163161e+00	-1.2518167937e+00
 8.2210094651e-01	 1.8857330944e+00	-1.1534196860e+00
 7.7889886085e-01	 1.9039842424e+00	-1.0459905292e+00
 7.3549190208e-01	 1.9211692245e+00	-9.3521067600e-01
 6.9191765133e-01	 1.9372892198e+00	-8.2720707238e-01
 6.4821323841e-01	 1.9523470799e+00	-7.2360869693e-01
 6.0441525485e-01	 1.9663472803e+00	-6.2371253109e-01
 5.6055967173e-01	 1.9792958672e+00	-5.2659612786e-01
 5.1668176242e-01	 1.9912003998e+00	-4.3136963233e-01
 4.7281603063e-01	 2.0020698883e+00	-3.3732851835e-01
 4.2899614380e-01	 2.0119147292e+00	-2.4402279943e-01
 8.7707502900e-01	 1.8923389501e+00	-1.2330683402e+00
 8.3351909675e-01	 1.9119240188e+00	-1.1295208025e+00
 7.8971697783e-01	 1.9304286569e+00	-1.0187861120e+00
 7.4570714033e-01	 1.9478523209e+00	-9.0628903472e-01
 7.0152768733e-01	 1.9641962066e+00	-7.9735780167e-01
 6.5721626434e-01	 1.9794632052e+00	-6.9378906482e-01
 6.1280997111e-01	 1.9936578542e+00	-5.9456370869e-01
 5.6834527832e-01	 2.0067862839e+00	-4.9852832926e-01
 5.2385794926e-01	 2.0188561583e+00	-4.0464770594e-01
 4.7938296684e-01	 2.0298766131e+00	-3.1213323288e-01
 4.3495446612e-01	 2.0398581889e+00	-2.2047891337e-01
 8.8908985686e-01	 1.9182616203e+00	-1.2019635306e+00
 8.4493726296e-01	 1.9381149799e+00	-1.0943462523e+00
 8.0053510995e-01	 1.9568731083e+00	-9.8123919344e-01
 7.5592239288e-01	 1.9745354547e+00	-8.6770752878e-01
 7.1113773679e-01	 1.9911032311e+00	-7.5853328081e-01
 6.6621930287e-01	 2.0065793684e+00	-6.5543561328e-01
 6.2120469912e-01	 2.0209684663e+00	-5.5707925461e-01
 5.7613089581e-01	 2.0342767390e+00	-4.6204346719e-01
 5.3103414613e-01	 2.0465119556e+00	-3.6913733693e-01
 4.8594991224e-01	 2.0576833768e+00	-2.7750067295e-01
 4.4091279679e-01	 2.0678016877e+00	-1.8660267404e-01
 9.0110470714e-01	 1.9441843389e+00	-1.1571217047e+00
 8.5635545049e-01	 1.9643059899e+00	-1.0466348455e+00
 8.1135326227e-01	 1.9833176091e+00	-9.3216527432e-01
 7.6613766449e-01	 2.0012186383e+00	-8.1830139175e-01
 7.2074780418e-01	 2.0180103059e+00	-7.0935423575e-01
 6.7522235821e-01	 2.0336955823e+00	-6.0692591683e-01
 6.2959944281e-01	 2.0482791294e+00	-5.0933987049e-01
 5.8391652783e-01	 2.0617672455e+00	-4.1488508545e-01
 5.3821035641e-01	 2.0741678046e+00	-3.2222088787e-01
 4.9251686990e-01	 2.0854901924e+00	-2.3044674441e-01
 4.4687113857e-01	 2.0957452386e+00	-1.3905909487e-01
 3.8728788755e-01	 1.8163105116e+00	-4.1576498254e-01
 3.4779651552e-01	 1.8242842816e+00	-3.2751635014e-01
 3.0840489565e-01	 1.8313551743e+00	-2.5855779590e-01
 2.6914089089e-01	 1.8375359541e+00	-1.9994746618e-01
 2.3003141697e-01	 1.8428403787e+00	-1.4683868431e-01
 1.9110240786e-01	 1.8472831305e+00	-9.7566808483e-02
 1.5237878631e-01	 1.8508797480e+00	-5.2840902251e-02
 1.1388443931e-01	 1.8536465567e+00	-1.5190948776e-02
 7.5642198511e-02	 1.8556006001e+00	 1.1894895839e-02
 3.7673825218e-02	 1.8567595715e+00	 2.6339502348e-02
 0.0000000000e+00	 1.8571417460e+00	 2.6809871234e-02
 3.9324622934e-01	 1.8442540626e+00	-3.7947186177e-01
 3.5314729094e-01	 1.8523505073e+00	-2.8945234147e-01
 3.1314963938e-01	 1.8595301841e+00	-2.1842679371e-01
 2.7328156626e-01	 1.8658060540e+00	-1.5981634590e-01
 2.3357040140e-01	 1.8711920860e+00	-1.0986100584e-01
 1.9404247777e-01	 1.8757031886e+00	-6.7181358694e-02
 1.5472310153e-01	 1.8793551393e+00	-3.1894602714e-02
 1.1563652719e-01	 1.8821645148e+00	-4.8888005807e-03
 7.6805937649e-02	 1.8841486207e+00	 1.2771335455e-02
 3.8253429007e-02	 1.8853254226e+00	 2.0332124391e-02
 0.0000000000e+00	 1.8857134768e+00	 1.7754706278e-02
 3.9920456000e-01	 1.8721975614e+00	-3.3757160062e-01
 3.5849805638e-01	 1.8804166806e+00	-2.4811632240e-01
 3.1789437426e-01	 1.8877051414e+00	-1.8010476495e-01
 2.7742223390e-01	 1.8940761010e+00	-1.2562076529e-01
 2.3710937923e-01	 1.8995437403e+00	-8.1017534351e-02
 1.9698254218e-01	 1.9041231936e+00	-4.4708930491e-02
 1.5706741237e-01	 1.9078304774e+00	-1.6332710461e-02
 1.1738861180e-01	 1.9106824196e+00	 3.9219171618e-03
 7.7969674616e-02	 1.9126965880e+00	 1.5852631685e-02
 3.8833031715e-02	 1.9138912204e+00	 1.9676321529e-02
 0.0000000000e+00	 1.9142851543e+00	 1.6380647269e-02
 4.0516288232e-01	 1.9001410210e+00	-3.0855550627e-01
 3.6384881433e-01	 1.9084828146e+00	-2.2110643658e-01
 3.2263910249e-01	 1.9158800593e+00	-1.5518396942e-01
 2.8156289575e-01	 1.9223461085e+00	-1.0284226135e-01
 2.4064835210e-01	 1.9278953550e+00	-6.0865821871e-02
 1.9992260249e-01	 1.9325431589e+00	-2.7746522789e-02
 1.5941171994e-01	 1.9363057757e+00	-2.9017393327e-03
 1.1914069396e-01	 1.9392002845e+00	 1.3937146770e-02
 7.9133409954e-02	 1.9412445154e+00	 2.3199877559e-02
 3.9412633612e-02	 1.9424569782e+00	 2.5847502115e-02
 0.0000000000e+00	 1.9428567917e+00	 2.3665686973e-02
 4.1112119908e-01	 1.9280844546e+00	-2.8897496621e-01
 3.6919956728e-01	 1.9365489224e+00	-2.0356028789e-01
 3.2738382630e-01	 1.9440549508e+00	-1.3879855521e-01
 2.8570355373e-01	 1.9506160897e+00	-8.6822104276e-02
 2.4418732167e-01	 1.9562469433e+00	-4.5121346196e-02
 2.0286266004e-01	 1.9609630976e+00	-1.2505730239e-02
 1.6175602532e-01	 1.9647810474e+00	 1.1614551595e-02
 1.2089277448e-01	 1.9677181227e+00	 2.7770516636e-02
 8.0297144206e-02	 1.9697924161e+00	 3.6838099099e-02
 3.9992234968e-02	 1.9710227094e+00	 4.0338620936e-02
 0.0000000000e+00	 1.9714284025e+00	 4.0667121720e-02
 4.1707951306e-01	 1.9560278751e+00	-2.7443281181e-01
 3.7455031774e-01	 1.9646150171e+00	-1.9088298113e-01
 3.3212854789e-01	 1.9722298292e+00	-1.2630876101e-01
 2.8984420977e-01	 1.9788860576e+00	-7.3104260724e-02
 2.4772628958e-01	 1.9845985183e+00	-2.9677307717e-02
 2.0580271623e-01	 1.9893830231e+00	 4.6519440737e-03
 1.6410032960e-01	 1.9932563058e+00	 3.0314406615e-02
 1.2264485419e-01	 1.9962359477e+00	 4.7954883405e-02
 8.1460877915e-02	 1.9983403035e+00	 5.8755226589e-02
 4.0571836054e-02	 1.9995884272e+00	 6.4656693273e-02
 0.0000000000e+00	 2.0000000000e+00	 6.8515837575e-02
 4.2303782704e-01	 1.9839712957e+00	-2.6076343361e-01
 3.7990106819e-01	 1.9926811118e+00	-1.7872206641e-01
 3.3687326948e-01	 2.0004047076e+00	-1.1328977559e-01
 2.9398486582e-01	 2.0071560255e+00	-5.7425449036e-02
 2.5126525750e-01	 2.0129500933e+00	-1.0596373043e-02
 2.0874277242e-01	 2.0178029485e+00	 2.7221291659e-02
 1.6644463389e-01	 2.0217315642e+00	 5.6181984450e-02
 1.2439693389e-01	 2.0247537727e+00	 7.6943836124e-02
 8.2624611624e-02	 2.0268881908e+00	 9.0901196888e-02
 4.1151437139e-02	 2.0281541450e+00	 1.0031961586e-01
 0.0000000000e+00	 2.0285715975e+00	 1.0841108048e-01
 4.2899614380e-01	 2.0119147292e+00	-2.4402279943e-01
 3.8525182115e-01	 2.0207472197e+00	-1.6288808081e-01
 3.4161799328e-01	 2.0285795991e+00	-9.5521118950e-02
 2.9812552380e-01	 2.0354260067e+00	-3.5705673306e-02
 2.5480422707e-01	 2.0413016815e+00	 1.5897178077e-02
 2.1168282997e-01	 2.0462228873e+00	 5.8559301218e-02
 1.6878893926e-01	 2.0502068359e+00	 9.2091093645e-02
 1.2614901442e-01	 2.0532716110e+00	 1.1711316603e-01
 8.3788345876e-02	 2.0554360915e+00	 1.3518717397e-01
 4.1731038495e-02	 2.0567198762e+00	 1.4885326486e-01
 0.0000000000e+00	 2.0571432083e+00	 1.6161566331e-01
 4.3495446612e-01	 2.0398581889e+00	-2.2047891337e-01
 3.9060257910e-01	 2.0488133537e+00	-1.3939452359e-01
 3.4636272152e-01	 2.0567545169e+00	-6.8976495427e-02
 3.0226618564e-01	 2.0636960142e+00	-4.0391904787e-03
 2.5834319994e-01	 2.0696532962e+00	 5.3424941167e-02
 2.1462289028e-01	 2.0746428525e+00	 1.0189078958e-01
 1.7113324683e-01	 2.0786821342e+00	 1.4080876907e-01
 1.2790109658e-01	 2.0817894759e+00	 1.7076230520e-01
 8.4952081214e-02	 2.0839840189e+00	 1.9348487634e-01
 4.2310640392e-02	 2.0852856340e+00	 2.1178884422e-01
 0.0000000000e+00	 2.0857148457e+00	 2.2945156790e-01
 4.4091279679e-01	 2.0678016877e+00	-1.8660267404e-01
 3.9595334453e-01	 2.0768795270e+00	-1.0445127648e-01
 3.5110745639e-01	 2.0849294742e+00	-2.9814073975e-02
 3.0640685329e-01	 2.0919660612e+00	 4.1314130481e-02
 2.6188217777e-01	 2.0980049505e+00	 1.0546154526e-01
 2.1756295469e-01	 2.1030628576e+00	 1.6031378667e-01
 1.7347755768e-01	 2.1071574723e+00	 2.0499870455e-01
 1.2965318119e-01	 2.1103073807e+00	 2.4011573696e-01
 8.6115818181e-02	 2.1125319862e+00	 2.6762600111e-01
 4.2890243100e-02	 2.1138514318e+00	 2.9066046080e-01
 0.0000000000e+00	 2.1142865232e+00	 3.1329590473e-01
 4.4687113857e-01	 2.0957452386e+00	-1.3905909487e-01
 4.0130411996e-01	 2.1049457527e+00	-5.4456646179e-02
 3.5585220013e-01	 2.1131044841e+00	 2.5632844221e-02
 3.1054752866e-01	 2.1202361611e+00	 1.0393709394e-01
 2.6542116220e-01	 2.1263566578e+00	 1.7534151176e-01
 2.2050302460e-01	 2.1314829156e+00	 2.3680469735e-01
 1.7582187290e-01	 2.1356328636e+00	 2.8722455495e-01
 1.3140526907e-01	 2.1388253387e+00	 3.2732438071e-01
 8.7279557320e-02	 2.1410800068e+00	 3.5940173579e-01
 4.3469846890e-02	 2.1424172829e+00	 3.8700290487e-01
 0.0000000000e+00	 2.1428582540e+00	 4.1457719678e-01
 2.1428582540e+00	 0.0000000000e+00	 2.3032362011e+00
 2.1424172829e+00	 4.3469846890e-02	 2.3291953815e+00
 2.1410800068e+00	 8.7279557320e-02	 2.3387131305e+00
 2.1388253387e+00	 1.3140526907e-01	 2.3337918543e+00
 2.1356328636e+00	 1.7582187290e-01	 2.3160508089e+00
 2.1314829156e+00	 2.2050302460e-01	 2.2863255262e+00
 2.1263566578e+00	 2.6542116220e-01	 2.2442796293e+00
 2.1202361611e+00	 3.1054752866e-01	 2.1880895967e+00
 2.1131044841e+00	 3.5585220013e-01	 2.1142725254e+00
 2.1049457527e+00	 4.0130411996e-01	 2.0184333721e+00
 2.0957452386e+00	 4.4687113857e-01	 1.9076792634e+00
 2.1714300481e+00	 0.0000000000e+00	 2.2023181483e+00
 2.1709831974e+00	 4.4049451964e-02	 2.2281256319e+00
 2.1696280907e+00	 8.8443299038e-02	 2.2374440892e+00
 2.1673433600e+00	 1.3315736083e-01	 2.2326880098e+00
 2.1641083180e+00	 1.7816619332e-01	 2.2160083941e+00
 2.1599030367e+00	 2.2344310102e-01	 2.1887406372e+00
 2.1547084280e+00	 2.6896015447e-01	 2.1508496331e+00
 2.1485063236e+00	 3.1468821320e-01	 2.1004381464e+00
 2.1412795564e+00	 3.6059695438e-01	 2.0333951007e+00
 2.1330120406e+00	 4.0665490725e-01	 1.9438662804e+00
 2.1236888515e+00	 4.5282949357e-01	 1.8377486906e+00
 2.2000019023e+00	 0.0000000000e+00	 2.2022510706e+00
 2.1995491718e+00	 4.4629058256e-02	 2.2223348178e+00
 2.1981762345e+00	 8.9607043199e-02	 2.2241145670e+00
 2.1958614412e+00	 1.3490945628e-01	 2.2108755389e+00
 2.1925838322e+00	 1.8051051866e-01	 2.1858037868e+00
 2.1883232175e+00	 2.2638318362e-01	 2.1512657964e+00
 2.1830602577e+00	 2.7249915418e-01	 2.1080680811e+00
 2.1767765455e+00	 3.1882890645e-01	 2.0547686716e+00
 2.1694546879e+00	 3.6534171859e-01	 1.9871242020e+00
 2.1610783874e+00	 4.1200570577e-01	 1.8980037184e+00
 2.1516325230e+00	 4.5878786107e-01	 1.7921703239e+00
 2.2285738097e+00	 0.0000000000e+00	 2.2984416744e+00
 2.2281151995e+00	 4.5208665629e-02	 2.3078260999e+00
 2.2267244316e+00	 9.0770789533e-02	 2.2958119825e+00
 2.2243795756e+00	 1.3666155499e-01	 2.2663030664e+00
 2.2210593996e+00	 1.8285484838e-01	 2.2232787162e+00
 2.2167434513e+00	 2.2932327170e-01	 2.1713047494e+00
 2.2114121403e+00	 2.7603816049e-01	 2.1129548720e+00
 2.2050468202e+00	 3.2296960742e-01	 2.0478289439e+00
 2.1976298720e+00	 3.7008649166e-01	 1.9721034753e+00
 2.1891447866e+00	 4.1735651428e-01	 1.8775079934e+00
 2.1795762467e+00	 4.6474623970e-01	 1.7677426354e+00
 2.2571457639e+00	 0.0000000000e+00	 2.3929166499e+00
 2.2566812740e+00	 4.5788273948e-02	 2.3939916356e+00
 2.2552726753e+00	 9.1934537767e-02	 2.3730335210e+00
 2.2528977565e+00	 1.3841365656e-01	 2.3342223164e+00
 2.2495350134e+00	 1.8519918193e-01	 2.2817900947e+00
 2.2451637316e+00	 2.3226336459e-01	 2.2193996461e+00
 2.2397640692e+00	 2.7957717259e-01	 2.1494282070e+00
 2.2333171410e+00	 3.2711031515e-01	 2.0721417445e+00
 2.2258051021e+00	 3.7483127248e-01	 1.9847034253e+00
 2.2172112317e+00	 4.2270733153e-01	 1.8792085367e+00
 2.2075200161e+00	 4.7070462806e-01	 1.7614502665e+00
 2.2857177580e+00	 0.0000000000e+00	 2.4426735077e+00
 2.2852473884e+00	 4.6367883079e-02	 2.4387319663e+00
 2.2838209591e+00	 9.3098287629e-02	 2.4121302734e+00
 2.2814159774e+00	 1.4016576059e-01	 2.3672839342e+00
 2.2780106672e+00	 1.8754351875e-01	 2.3087178733e+00
 2.2735840516e+00	 2.3520346159e-01	 2.2404624399e+00
 2.2681160378e+00	 2.8311618963e-01	 2.1653533329e+00
 2.2615875014e+00	 3.3125102868e-01	 2.0842192448e+00
 2.2539803717e+00	 3.7957605994e-01	 1.9947481204e+00
 2.2452777161e+00	 4.2805815627e-01	 1.8880278401e+00
 2.2354638246e+00	 4.7666302476e-01	 1.7671564911e+00
 2.3142897854e+00	 0.0000000000e+00	 2.4484217788e+00
 2.3138135361e+00	 4.6947492886e-02	 2.4425754273e+00
 2.3123692761e+00	 9.4262038850e-02	 2.4134847328e+00
 2.3099342316e+00	 1.4191786666e-01	 2.3657494780e+00
 2.3064863541e+00	 1.8988785831e-01	 2.3041402042e+00
 2.3020044048e+00	 2.3814356202e-01	 2.2330158913e+00
 2.2964680395e+00	 2.8665521081e-01	 2.1556446468e+00
 2.2898578948e+00	 3.3539174704e-01	 2.0734093935e+00
 2.2821556741e+00	 3.8432085293e-01	 1.9844089983e+00
 2.2733442332e+00	 4.3340898725e-01	 1.8793430663e+00
 2.2634076657e+00	 4.8262142841e-01	 1.7609649042e+00
 2.3428618396e+00	 0.0000000000e+00	 2.4107984684e+00
 2.3423797105e+00	 4.7527103234e-02	 2.4059983859e+00
 2.3409176197e+00	 9.5425791156e-02	 2.3774472775e+00
 2.3384525123e+00	 1.4366997437e-01	 2.3298668488e+00
 2.3349620676e+00	 1.9223220006e-01	 2.2682144952e+00
 2.3304247845e+00	 2.4108366519e-01	 2.1971272894e+00
 2.3248200676e+00	 2.9019423528e-01	 2.1202683378e+00
 2.3181283146e+00	 3.3953246927e-01	 2.0395555519e+00
 2.3103310028e+00	 3.8906565036e-01	 1.9533652630e+00
 2.3014107765e+00	 4.3875982323e-01	 1.8520978924e+00
 2.2913515328e+00	 4.8857983762e-01	 1.7381074313e+00
 2.3714339137e+00	 0.0000000000e+00	 2.3303724217e+00
 2.3709459049e+00	 4.8106713987e-02	 2.3294286502e+00
 2.3694659834e+00	 9.6589544277e-02	 2.3043387027e+00
 2.3669708131e+00	 1.4542208330e-01	 2.2598720111e+00
 2.3634378011e+00	 1.9457654345e-01	 2.2011018090e+00
 2.3588451841e+00	 2.4402377042e-01	 2.1328803813e+00
 2.3531721156e+00	 2.9373326224e-01	 2.0592163413e+00
 2.3463987541e+00	 3.4367319439e-01	 1.9825318953e+00
 2.3385063512e+00	 3.9381045110e-01	 1.9013348426e+00
 2.3294773395e+00	 4.4411066295e-01	 1.8058495310e+00
 2.3192954196e+00	 4.9453825100e-01	 1.6979791301e+00
 2.4000060012e+00	 0.0000000000e+00	 2.2076483769e+00
 2.3995121126e+00	 4.8686325011e-02	 2.2132486347e+00
 2.3980143603e+00	 9.7753297940e-02	 2.1944525732e+00
 2.3954891271e+00	 1.4717419305e-01	 2.1559905929e+00
 2.3919135479e+00	 1.9692088794e-01	 2.1029677545e+00
 2.3872655970e+00	 2.4696387702e-01	 2.0403755835e+00
 2.3815241768e+00	 2.9727229084e-01	 1.9725058824e+00
 2.3746692069e+00	 3.4781392145e-01	 1.9022422845e+00
 2.3666817128e+00	 3.9855525406e-01	 1.8280722438e+00
 2.3575439155e+00	 4.4946150517e-01	 1.7401929091e+00
 2.3472393193e+00	 5.0049666716e-01	 1.6400133548e+00
 2.4285780953e+00	 0.0000000000e+00	 2.0430707327e+00
 2.4280783270e+00	 4.9265936170e-02	 2.0577983033e+00
 2.4265627440e+00	 9.8917051876e-02	 2.0480574124e+00
 2.4240074478e+00	 1.4892630321e-01	 2.0184393746e+00
 2.4203893013e+00	 1.9926523297e-01	 1.9739833166e+00
 2.4156860165e+00	 2.4990398431e-01	 1.9197301751e+00
 2.4098762447e+00	 3.0081132027e-01	 1.8601790397e+00
 2.4029396663e+00	 3.5195464947e-01	 1.7986191909e+00
 2.3948570810e+00	 4.0330005812e-01	 1.7333664882e+00
 2.3856104981e+00	 4.5481234863e-01	 1.6547581985e+00
 2.3751832256e+00	 5.0645508472e-01	 1.5636789926e+00
 2.0957452386e+00	 4.4687113857e-01	 1.9076792634e+00
 2.0854901924e+00	 4.9251686990e-01	 1.7875923474e+00
 2.0741678046e+00	 5.3821035641e-01	 1.6537456828e+00
 2.0617672455e+00	 5.8391652783e-01	 1.5085810575e+00
 2.0482791294e+00	 6.2959944281e-01	 1.3552979183e+00
 2.0336955823e+00	 6.7522235821e-01	 1.1979107406e+00
 2.0180103059e+00	 7.2074780418e-01	 1.0411903737e+00
 2.0012186383e+00	 7.6613766449e-01	 8.8845492689e-01
 1.9833176091e+00	 8.1135326227e-01	 7.3293212620e-01
 1.9643059899e+00	 8.5635545049e-01	 5.7240325506e-01
 1.9441843389e+00	 9.0110470714e-01	 4.0580099547e-01
 2.1236888515e+00	 4.5282949357e-01	 1.8377486906e+00
 2.1132970697e+00	 4.9908384211e-01	 1.7209494519e+00
 2.1018237148e+00	 5.4538658259e-01	 1.5903337125e+00
 2.0892578129e+00	 5.9170217711e-01	 1.4482200977e+00
 2.0755898531e+00	 6.3799420510e-01	 1.2977760285e+00
 2.0608118562e+00	 6.8422543351e-01	 1.1431272231e+00
 2.0449174403e+00	 7.3035789287e-01	 9.8934001666e-01
 2.0279018810e+00	 7.7635295875e-01	 8.3861331170e-01
 2.0097621685e+00	 8.2217143857e-01	 6.8526227367e-01
 1.9904970579e+00	 8.6777366333e-01	 5.2826666367e-01
 1.9701071150e+00	 9.1311958406e-01	 3.6699192883e-01
 2.1516325230e+00	 4.5878786107e-01	 1.7921703239e+00
 2.1411040053e+00	 5.0565082812e-01	 1.6754791455e+00
 2.1294796831e+00	 5.5256282384e-01	 1.5457179134e+00
 2.1167484380e+00	 5.9948784274e-01	 1.4048493016e+00
 2.1029006341e+00	 6.4638898501e-01	 1.2557995071e+00
 2.0879281871e+00	 6.9322852771e-01	 1.1026268011e+00
 2.0718246312e+00	 7.3996800175e-01	 9.5055079917e-01
 2.0545851798e+00	 7.8656827447e-01	 8.0026981475e-01
 2.0362067834e+00	 8.3298963758e-01	 6.4786323068e-01
 2.0166881810e+00	 8.7919190015e-01	 4.9297048735e-01
 1.9960299455e+00	 9.2513448621e-01	 3.3538197841e-01
 2.1795762467e+00	 4.6474623970e-01	 1.7677426354e+00
 2.1689109929e+00	 5.1221782638e-01	 1.6481706769e+00
 2.1571357030e+00	 5.5973907849e-01	 1.5171077752e+00
 2.1442391145e+00	 6.0727352291e-01	 1.3759089127e+00
 2.1302114661e+00	 6.5478378060e-01	 1.2270331793e+00
 2.1150445687e+00	 7.0223163872e-01	 1.0742787426e+00
 2.0987318723e+00	 7.4957812856e-01	 9.2271934722e-01
 2.0812685284e+00	 7.9678360925e-01	 7.7171195378e-01
 2.0626514478e+00	 8.4380785679e-01	 6.1914745297e-01
 2.0428793529e+00	 8.9061015828e-01	 4.6506445253e-01
 2.0219528244e+00	 9.3714941079e-01	 3.0966944020e-01
 2.2075200161e+00	 4.7070462806e-01	 1.7614502665e+00
 2.1967180258e+00	 5.1878483537e-01	 1.6362131804e+00
 2.1847917681e+00	 5.6691534485e-01	 1.5019204342e+00
 2.1717298358e+00	 6.1505921579e-01	 1.3590478942e+00
 2.1575223427e+00	 6.6317858990e-01	 1.2093443789e+00
 2.1421609945e+00	 7.1123476443e-01	 1.0561408862e+00
 2.1256391573e+00	 7.5918827107e-01	 9.0392257467e-01
 2.1079519205e+00	 8.0699896071e-01	 7.5136752240e-01
 2.0890961553e+00	 8.5462609367e-01	 5.9766409093e-01
 2.0690705676e+00	 9.0202843506e-01	 4.4322927294e-01
 2.0478757456e+00	 9.4916435499e-01	 2.8867585132e-01
 2.2354638246e+00	 4.7666302476e-01	 1.7671564911e+00
 2.2245250977e+00	 5.2535185355e-01	 1.6369014306e+00
 2.2124478719e+00	 5.7409162126e-01	 1.4977719129e+00
 2.1992205957e+00	 6.2284491956e-01	 1.3521134557e+00
 2.1848332575e+00	 6.7157341096e-01	 1.2007906001e+00
 2.1692774583e+00	 7.2023790275e-01	 1.0464452550e+00
 2.1525464801e+00	 7.6879842703e-01	 8.9261264549e-01
 2.1346353500e+00	 8.1721432648e-01	 7.3779764392e-01
 2.1155408998e+00	 8.6544434570e-01	 5.8209164108e-01
 2.0952618190e+00	 9.1344672783e-01	 4.2626892890e-01
 2.0737987032e+00	 9.6117931602e-01	 2.7133793009e-01
 2.2634076657e+00	 4.8262142841e-01	 1.7609649042e+00
 2.2523322021e+00	 5.3191887940e-01	 1.6338647507e+00
 2.2401040080e+00	 5.8126790605e-01	 1.4980211148e+00
 2.2267113876e+00	 6.3063063243e-01	 1.3528785965e+00
 2.2121442042e+00	 6.7996824180e-01	 1.1996073882e+00
 2.1963939537e+00	 7.2924105157e-01	 1.0435839123e+00
 2.1794538342e+00	 7.7840859421e-01	 8.8737173605e-01
 2.1613188107e+00	 8.2742970416e-01	 7.2969005892e-01
 2.1419856752e+00	 8.7626261034e-01	 5.7123082005e-01
 2.1214531009e+00	 9.2486503392e-01	 4.1310315332e-01
 2.0997216909e+00	 9.7319429106e-01	 2.5669970260e-01
 2.2913515328e+00	 4.8857983762e-01	 1.7381074313e+00
 2.2801393324e+00	 5.3848591137e-01	 1.6157353378e+00
 2.2677601699e+00	 5.8844419753e-01	 1.4856760494e+00
 2.2542022052e+00	 6.3841635255e-01	 1.3473461986e+00
 2.2394551764e+00	 6.8836308048e-01	 1.2005468350e+00
 2.2235104744e+00	 7.3824420879e-01	 1.0460738940e+00
 2.2063612134e+00	 7.8801877035e-01	 8.8690485333e-01
 2.1880022962e+00	 8.3764509138e-01	 7.2585262637e-01
 2.1684304752e+00	 8.8708088508e-01	 5.6399764199e-01
 2.1476444073e+00	 9.3628335066e-01	 4.0276010675e-01
 2.1256447029e+00	 9.8520927731e-01	 2.4390479989e-01
 2.3192954196e+00	 4.9453825100e-01	 1.6979791301e+00
 2.3079464821e+00	 5.4505294794e-01	 1.5817515765e+00
 2.2954163512e+00	 5.9562049404e-01	 1.4584935318e+00
 2.2816930420e+00	 6.4620207813e-01	 1.3276433248e+00
 2.2667661677e+00	 6.9675792504e-01	 1.1889107683e+00
 2.2506270141e+00	 7.4724737232e-01	 1.0428461852e+00
 2.2332686115e+00	 7.9762895322e-01	 8.8855004825e-01
 2.2146858005e+00	 8.4786048575e-01	 7.2520702058e-01
 2.1948752938e+00	 8.9789916740e-01	 5.5941668237e-01
 2.1738357320e+00	 9.4770167540e-01	 3.9436922561e-01
 2.1515677330e+00	 9.9722427198e-01	 2.3218891109e-01
 2.3472393193e+00	 5.0049666716e-01	 1.6400133548e+00
 2.3357536449e+00	 5.5161998757e-01	 1.5311909310e+00
 2.3230725453e+00	 6.0279679389e-01	 1.4156081527e+00
 2.3091838916e+00	 6.5398780734e-01	 1.2927842805e+00
 2.2940771717e+00	 7.0515277351e-01	 1.1623815104e+00
 2.2777435665e+00	 7.5625054004e-01	 1.0246418343e+00
 2.2601760221e+00	 8.0723914058e-01	 8.7823817720e-01
 2.2413693171e+00	 8.5807588488e-01	 7.2231187883e-01
 2.2213201247e+00	 9.0871745476e-01	 5.5661451256e-01
 2.2000270690e+00	 9.5912000546e-01	 3.8715422908e-01
 2.1774907752e+00	 1.0092392722e+00	 2.2087237990e-01
 2.3751832256e+00	 5.0645508472e-01	 1.5636789926e+00
 2.3635608141e+00	 5.5818702873e-01	 1.4633670042e+00
 2.3507287459e+00	 6.0997309542e-01	 1.3561922731e+00
 2.3366747477e+00	 6.6177353837e-01	 1.2418243091e+00
 2.3213881821e+00	 7.1354762395e-01	 1.1199299698e+00
 2.3048601252e+00	 7.6525370987e-01	 9.9042630099e-01
 2.2870834390e+00	 8.1684933017e-01	 8.5192302510e-01
 2.2680528400e+00	 8.6829128640e-01	 7.0408526299e-01
 2.2477649618e+00	 9.1953574465e-01	 5.4681123335e-01
 2.2262184120e+00	 9.7053833819e-01	 3.8022789778e-01
 2.2034138235e+00	 1.0212542753e+00	 2.0935293228e-01
 1.9441843389e+00	 9.0110470714e-01	 4.0580099547e-01
 1.9229535170e+00	 9.4556433342e-01	 2.3136258907e-01
 1.9006191461e+00	 9.8969119840e-01	 4.9480493254e-02
 1.8771873641e+00	 1.0334452446e+00	-1.3779186590e-01
 1.8526662103e+00	 1.0767864569e+00	-3.2873216808e-01
 1.8270656365e+00	 1.1196749745e+00	-5.1497482894e-01
 1.8003975094e+00	 1.1620712027e+00	-6.8643669633e-01
 1.7726756058e+00	 1.2039359279e+00	-8.4304779285e-01
 1.7439155994e+00	 1.2452304307e+00	-9.8579452908e-01
 1.7141350400e+00	 1.2859166005e+00	-1.1158339174e+00
 1.6833533233e+00	 1.3259570476e+00	-1.2344511935e+00
 1.9701071150e+00	 9.1311958406e-01	 3.6699192883e-01
 1.9485932120e+00	 9.5817201263e-01	 1.9951759349e-01
 1.9259610458e+00	 1.0028872430e+00	 2.5773469023e-02
 1.9022168362e+00	 1.0472246836e+00	-1.5219579716e-01
 1.8773687297e+00	 1.0911437860e+00	-3.3266128105e-01
 1.8514268107e+00	 1.1346041574e+00	-5.1405958659e-01
 1.8244031042e+00	 1.1775656756e+00	-6.8652792887e-01
 1.7963115706e+00	 1.2199886040e+00	-8.4310052567e-01
 1.7671680929e+00	 1.2618337069e+00	-9.8491261477e-01
 1.7369904544e+00	 1.3030623656e+00	-1.1132573701e+00
 1.7057983098e+00	 1.3436366919e+00	-1.2295355549e+00
 1.9960299455e+00	 9.2513448621e-01	 3.3538197841e-01
 1.9742329608e+00	 9.7077971832e-01	 1.7315583842e-01
 1.9513029987e+00	 1.0160833154e+00	 5.8942877714e-03
 1.9272463609e+00	 1.0610041517e+00	-1.6436696680e-01
 1.9020713010e+00	 1.1055011451e+00	-3.3588883241e-01
 1.8757880361e+00	 1.1495333717e+00	-5.0649706099e-01
 1.8484087494e+00	 1.1930601811e+00	-6.7528894706e-01
 1.8199475852e+00	 1.2360413138e+00	-8.3353660862e-01
 1.7904206351e+00	 1.2784370180e+00	-9.7607825211e-01
 1.7598459169e+00	 1.3202081668e+00	-1.1043668909e+00
 1.7282433435e+00	 1.3613163734e+00	-1.2199406881e+00
 2.0219528244e+00	 9.3714941079e-01	 3.0966944020e-01
 1.9998727575e+00	 9.8338744754e-01	 1.5112237645e-01
 1.9766449990e+00	 1.0292794124e+00	-1.1179371120e-02
 1.9522759323e+00	 1.0747836454e+00	-1.7520821877e-01
 1.9267739183e+00	 1.1198585311e+00	-3.3914185594e-01
 1.9001493069e+00	 1.1644626138e+00	-4.9999487262e-01
 1.8724144394e+00	 1.2085547154e+00	-6.5823810207e-01
 1.8435836438e+00	 1.2520940535e+00	-8.1520919942e-01
 1.8136732208e+00	 1.2950403601e+00	-9.6008197000e-01
 1.7827014220e+00	 1.3373539999e+00	-1.0898997115e+00
 1.7506884190e+00	 1.3789960878e+00	-1.2063618039e+00
 2.0478757456e+00	 9.4916435499e-01	 2.8867585132e-01
 2.0255125960e+00	 9.9599519736e-01	 1.3237647442e-01
 2.0019870406e+00	 1.0424755309e+00	-2.6365146412e-02
 1.9773055445e+00	 1.0885631616e+00	-1.8552759823e-01
 1.9514765761e+00	 1.1342159405e+00	-3.4282468858e-01
 1.9245106176e+00	 1.1793918803e+00	-4.9508519865e-01
 1.8964201687e+00	 1.2240492751e+00	-6.4383041480e-01
 1.8672197411e+00	 1.2681468195e+00	-7.9138327373e-01
 1.8369258445e+00	 1.3116437293e+00	-9.3767450983e-01
 1.8055569644e+00	 1.3544998611e+00	-1.0705487396e+00
 1.7731335312e+00	 1.3966758312e+00	-1.1894460044e+00
 2.0737987032e+00	 9.6117931602e-01	 2.7133793009e-01
 2.0511524705e+00	 1.0086029648e+00	 1.1598321083e-01
 2.0273291177e+00	 1.0556716679e+00	-4.0484779046e-02
 2.0023351919e+00	 1.1023426972e+00	-1.9604755007e-01
 1.9761792684e+00	 1.1485733700e+00	-3.4745768279e-01
 1.9488719623e+00	 1.1943211678e+00	-4.9221290120e-01
 1.9204259315e+00	 1.2395438565e+00	-6.3253888784e-01
 1.8908558714e+00	 1.2841996080e+00	-7.7104175863e-01
 1.8601785007e+00	 1.3282471218e+00	-9.1023312977e-01
 1.8284125388e+00	 1.3716457463e+00	-1.0469536055e+00
 1.7955786748e+00	 1.4143555993e+00	-1.1697829963e+00
 2.0997216909e+00	 9.7319429106e-01	 2.5669970260e-01
 2.0767923748e+00	 1.0212107470e+00	 1.0110523795e-01
 2.0526712243e+00	 1.0688678203e+00	-5.4272751700e-02
 2.0273648684e+00	 1.1161222488e+00	-2.0738045976e-01
 2.0008819895e+00	 1.1629308162e+00	-3.5350965637e-01
 1.9732333354e+00	 1.2092504726e+00	-4.9174502130e-01
 1.9444317224e+00	 1.2550384559e+00	-6.2462341953e-01
 1.9144920293e+00	 1.3002524152e+00	-7.5506166047e-01
 1.8834311840e+00	 1.3448505336e+00	-8.8595242212e-01
 1.8512681399e+00	 1.3887916515e+00	-1.0196916619e+00
 1.8180238446e+00	 1.4320353880e+00	-1.1478957648e+00
 2.1256447029e+00	 9.8520927731e-01	 2.4390479989e-01
 2.1024323031e+00	 1.0338185409e+00	 8.6994694545e-02
 2.0780133547e+00	 1.0820639850e+00	-6.8384796202e-02
 2.0523945682e+00	 1.1299018133e+00	-2.1970734117e-01
 2.0255847336e+00	 1.1772882759e+00	-3.6137916672e-01
 1.9975947313e+00	 1.2241797914e+00	-4.9397778746e-01
 1.9684375357e+00	 1.2705330698e+00	-6.2027102320e-01
 1.9381282093e+00	 1.3163052374e+00	-7.4351540272e-01
 1.9066838890e+00	 1.3614539609e+00	-8.6702513101e-01
 1.8741237623e+00	 1.4059375726e+00	-9.9366955426e-01
 1.8404690354e+00	 1.4497151932e+00	-1.1242312140e+00
 2.1515677330e+00	 9.9722427198e-01	 2.3218891109e-01
 2.1280722493e+00	 1.0464263437e+00	 7.2985256593e-02
 2.1033555027e+00	 1.0952601590e+00	-8.3406279933e-02
 2.0774242856e+00	 1.1436813874e+00	-2.3336084799e-01
 2.0502874951e+00	 1.1916457456e+00	-3.7140157368e-01
 2.0219561443e+00	 1.2391091206e+00	-4.9914354666e-01
 1.9924433657e+00	 1.2860276946e+00	-6.1960259452e-01
 1.9617644058e+00	 1.3323580708e+00	-7.3640554130e-01
 1.9299366103e+00	 1.3780573998e+00	-8.5333093293e-01
 1.8969794007e+00	 1.4230835058e+00	-9.7377131196e-01
 1.8629142419e+00	 1.4673950108e+00	-1.1001299483e+00
 2.1774907752e+00	 1.0092392722e+00	 2.2087237990e-01
 2.1537122076e+00	 1.0590341524e+00	 5.8484314388e-02
 2.1286976626e+00	 1.1084563391e+00	-9.9860481326e-02
 2.1024540147e+00	 1.1574609679e+00	-2.4871320372e-01
 2.0749902681e+00	 1.2060032220e+00	-3.8385601929e-01
 2.0463175686e+00	 1.2540384568e+00	-5.0741762393e-01
 2.0164492070e+00	 1.3015223266e+00	-6.2267961828e-01
 1.9854006134e+00	 1.3484109117e+00	-7.3367128542e-01
 1.9531893425e+00	 1.3946608465e+00	-8.4468075106e-01
 1.9198350498e+00	 1.4402294470e+00	-9.5968022881e-01
 1.8853594588e+00	 1.4850748366e+00	-1.0816139360e+00
 2.2034138235e+00	 1.0212542753e+00	 2.0935293228e-01
 2.1793521717e+00	 1.0716419640e+00	 4.2965265697e-02
 2.1540398284e+00	 1.1216525223e+00	-1.1801730605e-01
 2.1274837496e+00	 1.1712405517e+00	-2.6608661360e-01
 2.0996930468e+00	 1.2203607018e+00	-3.9897233106e-01
 2.0706789986e+00	 1.2689677965e+00	-5.1892511660e-01
 2.0404550539e+00	 1.3170169622e+00	-6.2951081968e-01
 2.0090368265e+00	 1.3644637563e+00	-7.3519497182e-01
 1.9764420801e+00	 1.4112642971e+00	-8.4082301859e-01
 1.9426907042e+00	 1.4573753922e+00	-9.5100663090e-01
 1.9078046810e+00	 1.5027546666e+00	-1.0670665939e+00
 1.6833533233e+00	 1.3259570476e+00	-1.2344511935e+00
 1.6515916496e+00	 1.3653152184e+00	-1.3441455213e+00
 1.6188729638e+00	 1.4039555149e+00	-1.4445710462e+00
 1.5852219164e+00	 1.4418433893e+00	-1.5328371532e+00
 1.5506648078e+00	 1.4789454422e+00	-1.6061041714e+00
 1.5152295200e+00	 1.5152295200e+00	-1.6620490239e+00
 1.4789454422e+00	 1.5506648078e+00	-1.7013818161e+00
 1.4418433893e+00	 1.5852219164e+00	-1.7305473019e+00
 1.4039555149e+00	 1.6188729638e+00	-1.7499376750e+00
 1.3653152184e+00	 1.6515916496e+00	-1.7539571748e+00
 1.3259570476e+00	 1.6833533233e+00	-1.7367948569e+00
 1.7057983098e+00	 1.3436366919e+00	-1.2295355549e+00
 1.6736131419e+00	 1.3835196448e+00	-1.3362690280e+00
 1.6404582016e+00	 1.4226751515e+00	-1.4332618379e+00
 1.6063584681e+00	 1.4610682038e+00	-1.5178906989e+00
 1.5713405923e+00	 1.4986649568e+00	-1.5873386217e+00
 1.5354328283e+00	 1.5354328283e+00	-1.6391964332e+00
 1.4986649568e+00	 1.5713405923e+00	-1.6752021087e+00
 1.4610682038e+00	 1.6063584681e+00	-1.6985755286e+00
 1.4226751515e+00	 1.6404582016e+00	-1.7135328567e+00
 1.3835196448e+00	 1.6736131419e+00	-1.7153484728e+00
 1.3436366919e+00	 1.7057983098e+00	-1.6981433894e+00
 1.7282433435e+00	 1.3613163734e+00	-1.2199406881e+00
 1.6956346805e+00	 1.4017241094e+00	-1.3253886760e+00
 1.6620434848e+00	 1.4413948275e+00	-1.4206839302e+00
 1.6274950641e+00	 1.4802930587e+00	-1.5034486370e+00
 1.5920164203e+00	 1.5183845129e+00	-1.5695739709e+00
 1.5556361790e+00	 1.5556361790e+00	-1.6179171311e+00
 1.5183845129e+00	 1.5920164203e+00	-1.6511787856e+00
 1.4802930587e+00	 1.6274950641e+00	-1.6719871367e+00
 1.4413948275e+00	 1.6620434848e+00	-1.6840541033e+00
 1.4017241094e+00	 1.6956346805e+00	-1.6852268002e+00
 1.3613163734e+00	 1.7282433435e+00	-1.6695120640e+00
 1.7506884190e+00	 1.3789960878e+00	-1.2063618039e+00
 1.7176562602e+00	 1.4199286080e+00	-1.3121660623e+00
 1.6836288082e+00	 1.4601145384e+00	-1.4074712428e+00
 1.6486316997e+00	 1.4995179495e+00	-1.4893895921e+00
 1.6126922869e+00	 1.5381041057e+00	-1.5522259765e+00
 1.5758395674e+00	 1.5758395674e+00	-1.5975952324e+00
 1.5381041057e+00	 1.6126922869e+00	-1.6286422656e+00
 1.4995179495e+00	 1.6486316997e+00	-1.6484037111e+00
 1.4601145384e+00	 1.6836288082e+00	-1.6595664763e+00
 1.4199286080e+00	 1.7176562602e+00	-1.6616932339e+00
 1.3789960878e+00	 1.7506884190e+00	-1.6490244200e+00
 1.7731335312e+00	 1.3966758312e+00	-1.1894460044e+00
 1.7396778758e+00	 1.4381331363e+00	-1.2972119820e+00
 1.7052141669e+00	 1.4788342799e+00	-1.3942055648e+00
 1.6697683697e+00	 1.5187428717e+00	-1.4746790955e+00
 1.6333681873e+00	 1.5578237308e+00	-1.5347367911e+00
 1.5960429888e+00	 1.5960429888e+00	-1.5776361686e+00
 1.5578237308e+00	 1.6333681873e+00	-1.6069657992e+00
 1.5187428717e+00	 1.6697683697e+00	-1.6261730295e+00
 1.4788342799e+00	 1.7052141669e+00	-1.6381236582e+00
 1.4381331363e+00	 1.7396778758e+00	-1.6428364336e+00
 1.3966758312e+00	 1.7731335312e+00	-1.6347861339e+00
 1.7955786748e+00	 1.4143555993e+00	-1.1697829963e+00
 1.7616995223e+00	 1.4563376901e+00	-1.2810768580e+00
 1.7267995558e+00	 1.4975540476e+00	-1.3804874525e+00
 1.6909050694e+00	 1.5379678208e+00	-1.4588198251e+00
 1.6540441166e+00	 1.5775433835e+00	-1.5165700462e+00
 1.6162464385e+00	 1.6162464385e+00	-1.5574624569e+00
 1.5775433835e+00	 1.6540441166e+00	-1.5855356992e+00
 1.5379678208e+00	 1.6909050694e+00	-1.6046517786e+00
 1.4975540476e+00	 1.7267995558e+00	-1.6180180216e+00
 1.4563376901e+00	 1.7616995223e+00	-1.6267679579e+00
 1.4143555993e+00	 1.7955786748e+00	-1.6249198677e+00
 1.8180238446e+00	 1.4320353880e+00	-1.1478957648e+00
 1.7837211945e+00	 1.4745422652e+00	-1.2642411411e+00
 1.7483849699e+00	 1.5162738372e+00	-1.3647276565e+00
 1.7120417937e+00	 1.5571927923e+00	-1.4413399109e+00
 1.6747200700e+00	 1.5972630591e+00	-1.4972071652e+00
 1.6364499118e+00	 1.6364499118e+00	-1.5365094745e+00
 1.5972630591e+00	 1.6747200700e+00	-1.5637466022e+00
 1.5571927923e+00	 1.7120417937e+00	-1.5832035951e+00
 1.5162738372e+00	 1.7483849699e+00	-1.5984306080e+00
 1.4745422652e+00	 1.7837211945e+00	-1.6116576145e+00
 1.4320353880e+00	 1.8180238446e+00	-1.6176001556e+00
 1.8404690354e+00	 1.4497151932e+00	-1.1242312140e+00
 1.8057428872e+00	 1.4927468572e+00	-1.2465315459e+00
 1.7699704042e+00	 1.5349936442e+00	-1.3465004372e+00
 1.7331785377e+00	 1.5764177818e+00	-1.4217872748e+00
 1.6953960428e+00	 1.6169827532e+00	-1.4761436734e+00
 1.6566534039e+00	 1.6566534039e+00	-1.5142212381e+00
 1.6169827532e+00	 1.6953960428e+00	-1.5409967426e+00
 1.5764177818e+00	 1.7331785377e+00	-1.5611912750e+00
 1.5349936442e+00	 1.7699704042e+00	-1.5787050906e+00
 1.4927468572e+00	 1.8057428872e+00	-1.5960892938e+00
 1.4497151932e+00	 1.8404690354e+00	-1.6110883254e+00
 1.8629142419e+00	 1.4673950108e+00	-1.1001299483e+00
 1.8277645953e+00	 1.5109514620e+00	-1.2257918895e+00
 1.7915558535e+00	 1.5537134643e+00	-1.3254250202e+00
 1.7543152965e+00	 1.5956427847e+00	-1.3997264776e+00
 1.7160720300e+00	 1.6367024611e+00	-1.4528855054e+00
 1.6768569102e+00	 1.6768569102e+00	-1.4900461879e+00
 1.6367024611e+00	 1.7160720300e+00	-1.5166832379e+00
 1.5956427847e+00	 1.7543152965e+00	-1.5379715936e+00
 1.5537134643e+00	 1.7915558535e+00	-1.5581732898e+00
 1.5109514620e+00	 1.8277645953e+00	-1.5800643920e+00
 1.4673950108e+00	 1.8629142419e+00	-1.6024088651e+00
 1.8853594588e+00	 1.4850748366e+00	-1.0816139360e+00
 1.8497863137e+00	 1.5291560753e+00	-1.2015115284e+00
 1.8131413130e+00	 1.5724332931e+00	-1.3011409140e+00
 1.7754520652e+00	 1.6148677966e+00	-1.3747355549e+00
 1.7367480268e+00	 1.6564221782e+00	-1.4269453086e+00
 1.6970604259e+00	 1.6970604259e+00	-1.4634329754e+00
 1.6564221782e+00	 1.7367480268e+00	-1.4901973853e+00
 1.6148677966e+00	 1.7754520652e+00	-1.5128901436e+00
 1.5724332931e+00	 1.8131413130e+00	-1.5361513318e+00
 1.5291560753e+00	 1.8497863137e+00	-1.5629887250e+00
 1.4850748366e+00	 1.8853594588e+00	-1.5819347109e+00
 1.9078046810e+00	 1.5027546666e+00	-1.0670665939e+00
 1.8718080373e+00	 1.5473606928e+00	-1.1761079710e+00
 1.8347267774e+00	 1.5911531264e+00	-1.2733052712e+00
 1.7965888388e+00	 1.6340928130e+00	-1.3464028456e+00
 1.7574240285e+00	 1.6761418999e+00	-1.3978387455e+00
 1.7172639463e+00	 1.7172639463e+00	-1.4338262549e+00
 1.6761418999e+00	 1.7574240285e+00	-1.4609199671e+00
 1.6340928130e+00	 1.7965888388e+00	-1.4852761869e+00
 1.5911531264e+00	 1.8347267774e+00	-1.5119340881e+00
 1.5473606928e+00	 1.8718080373e+00	-1.5401020080e+00
 1.5027546666e+00	 1.9078046810e+00	-1.5490663449e+00
 1.3259570476e+00	 1.6833533233e+00	-1.7367948569e+00
 1.2859166005e+00	 1.7141350400e+00	-1.7055141321e+00
 1.2452304307e+00	 1.7439155994e+00	-1.6706098406e+00
 1.2039359279e+00	 1.7726756058e+00	-1.6317348470e+00
 1.1620712027e+00	 1.8003975094e+00	-1.5889979814e+00
 1.1196749745e+00	 1.8270656365e+00	-1.5430379550e+00
 1.0767864569e+00	 1.8526662103e+00	-1.4934347553e+00
 1.0334452446e+00	 1.8771873641e+00	-1.4309058937e+00
 9.8969119840e-01	 1.9006191461e+00	-1.3517936643e+00
 9.4556433342e-01	 1.9229535170e+00	-1.2596203567e+00
 9.0110470714e-01	 1.9441843389e+00	-1.1571217047e+00
 1.3436366919e+00	 1.7057983098e+00	-1.6981433894e+00
 1.3030623656e+00	 1.7369904544e+00	-1.6683307276e+00
 1.2618337069e+00	 1.7671680929e+00	-1.6356560804e+00
 1.2199886040e+00	 1.7963115706e+00	-1.5996781047e+00
 1.1775656756e+00	 1.8244031042e+00	-1.5605173596e+00
 1.1346041574e+00	 1.8514268107e+00	-1.5189243416e+00
 1.0911437860e+00	 1.8773687297e+00	-1.4673118359e+00
 1.0472246836e+00	 1.9022168362e+00	-1.3971830053e+00
 1.0028872430e+00	 1.9259610458e+00	-1.3122233973e+00
 9.5817201263e-01	 1.9485932120e+00	-1.2157564908e+00
 9.1311958406e-01	 1.9701071150e+00	-1.1103385343e+00
 1.3613163734e+00	 1.7282433435e+00	-1.6695120640e+00
 1.3202081668e+00	 1.7598459169e+00	-1.6427075116e+00
 1.2784370180e+00	 1.7904206351e+00	-1.6138867731e+00
 1.2360413138e+00	 1.8199475852e+00	-1.5825537749e+00
 1.1930601811e+00	 1.8484087494e+00	-1.5488927802e+00
 1.1495333717e+00	 1.8757880361e+00	-1.5062898523e+00
 1.1055011451e+00	 1.9020713010e+00	-1.4454984936e+00
 1.0610041517e+00	 1.9272463609e+00	-1.3688249796e+00
 1.0160833154e+00	 1.9513029987e+00	-1.2792403675e+00
 9.7077971832e-01	 1.9742329608e+00	-1.1798585430e+00
 9.2513448621e-01	 1.9960299455e+00	-1.0730492312e+00
 1.3789960878e+00	 1.7506884190e+00	-1.6490244200e+00
 1.3373539999e+00	 1.7827014220e+00	-1.6267718045e+00
 1.2950403601e+00	 1.8136732208e+00	-1.6034097468e+00
 1.2520940535e+00	 1.8435836438e+00	-1.5784306521e+00
 1.2085547154e+00	 1.8724144394e+00	-1.5466343191e+00
 1.1644626138e+00	 1.9001493069e+00	-1.4949700135e+00
 1.1198585311e+00	 1.9267739183e+00	-1.4262642298e+00
 1.0747836454e+00	 1.9522759323e+00	-1.3440598167e+00
 1.0292794124e+00	 1.9766449990e+00	-1.2510474844e+00
 9.8338744754e-01	 1.9998727575e+00	-1.1500896563e+00
 9.3714941079e-01	 2.0219528244e+00	-1.0433626120e+00
 1.3966758312e+00	 1.7731335312e+00	-1.6347861339e+00
 1.3544998611e+00	 1.8055569644e+00	-1.6186236618e+00
 1.3116437293e+00	 1.8369258445e+00	-1.6022927990e+00
 1.2681468195e+00	 1.8672197411e+00	-1.5823071109e+00
 1.2240492751e+00	 1.8964201687e+00	-1.5424362157e+00
 1.1793918803e+00	 1.9245106176e+00	-1.4829920953e+00
 1.1342159405e+00	 1.9514765761e+00	-1.4078672380e+00
 1.0885631616e+00	 1.9773055445e+00	-1.3211371021e+00
 1.0424755309e+00	 2.0019870406e+00	-1.2258746232e+00
 9.9599519736e-01	 2.0255125960e+00	-1.1246449838e+00
 9.4916435499e-01	 2.0478757456e+00	-1.0194242684e+00
 1.4143555993e+00	 1.7955786748e+00	-1.6249198677e+00
 1.3716457463e+00	 1.8284125388e+00	-1.6163700703e+00
 1.3282471218e+00	 1.8601785007e+00	-1.6077396499e+00
 1.2841996080e+00	 1.8908558714e+00	-1.5819433413e+00
 1.2395438565e+00	 1.9204259315e+00	-1.5344030801e+00
 1.1943211678e+00	 1.9488719623e+00	-1.4685165842e+00
 1.1485733700e+00	 1.9761792684e+00	-1.3883873762e+00
 1.1023426972e+00	 2.0023351919e+00	-1.2983295627e+00
 1.0556716679e+00	 2.0273291177e+00	-1.2019799067e+00
 1.0086029648e+00	 2.0511524705e+00	-1.1017526261e+00
 9.6117931602e-01	 2.0737987032e+00	-9.9941709302e-01
 1.4320353880e+00	 1.8180238446e+00	-1.6176001556e+00
 1.3887916515e+00	 1.8512681399e+00	-1.6181591882e+00
 1.3448505336e+00	 1.8834311840e+00	-1.6081747783e+00
 1.3002524152e+00	 1.9144920293e+00	-1.5749394899e+00
 1.2550384559e+00	 1.9444317224e+00	-1.5209199663e+00
 1.2092504726e+00	 1.9732333354e+00	-1.4498240161e+00
 1.1629308162e+00	 2.0008819895e+00	-1.3660035378e+00
 1.1161222488e+00	 2.0273648684e+00	-1.2739338549e+00
 1.0688678203e+00	 2.0526712243e+00	-1.1776511264e+00
 1.0212107470e+00	 2.0767923748e+00	-1.0796747328e+00
 9.7319429106e-01	 2.0997216909e+00	-9.8156199438e-01
 1.4497151932e+00	 1.8404690354e+00	-1.6110883254e+00
 1.4059375726e+00	 1.8741237623e+00	-1.6163818534e+00
 1.3614539609e+00	 1.9066838890e+00	-1.5994913419e+00
 1.3163052374e+00	 1.9381282093e+00	-1.5599025618e+00
 1.2705330698e+00	 1.9684375357e+00	-1.5004836971e+00
 1.2241797914e+00	 1.9975947313e+00	-1.4253046497e+00
 1.1772882759e+00	 2.0255847336e+00	-1.3390042562e+00
 1.1299018133e+00	 2.0523945682e+00	-1.2462369570e+00
 1.0820639850e+00	 2.0780133547e+00	-1.1512072902e+00
 1.0338185409e+00	 2.1024323031e+00	-1.0567087515e+00
 9.8520927731e-01	 2.1256447029e+00	-9.6411878418e-01
 1.4673950108e+00	 1.8629142419e+00	-1.6024088651e+00
 1.4230835058e+00	 1.8969794007e+00	-1.6032842857e+00
 1.3780573998e+00	 1.9299366103e+00	-1.5805196613e+00
 1.3323580708e+00	 1.9617644058e+00	-1.5355452290e+00
 1.2860276946e+00	 1.9924433657e+00	-1.4716926733e+00
 1.2391091206e+00	 2.0219561443e+00	-1.3934482087e+00
 1.1916457456e+00	 2.0502874951e+00	-1.3057774222e+00
 1.1436813874e+00	 2.0774242856e+00	-1.2135377724e+00
 1.0952601590e+00	 2.1033555027e+00	-1.1210002875e+00
 1.0464263437e+00	 2.1280722493e+00	-1.0311888132e+00
 9.9722427198e-01	 2.1515677330e+00	-9.4538722257e-01
 1.4850748366e+00	 1.8853594588e+00	-1.5819347109e+00
 1.4402294470e+00	 1.9198350498e+00	-1.5779198728e+00
 1.3946608465e+00	 1.9531893425e+00	-1.5501918257e+00
 1.3484109117e+00	 1.9854006134e+00	-1.5006757943e+00
 1.3015223266e+00	 2.0164492070e+00	-1.4332367350e+00
 1.2540384568e+00	 2.0463175686e+00	-1.3528336883e+00
 1.2060032220e+00	 2.0749902681e+00	-1.2648000764e+00
 1.1574609679e+00	 2.1024540147e+00	-1.1742205002e+00
 1.1084563391e+00	 2.1286976626e+00	-1.0854166606e+00
 1.0590341524e+00	 2.1537122076e+00	-1.0014872429e+00
 1.0092392722e+00	 2.1774907752e+00	-9.2370820832e-01
 1.5027546666e+00	 1.9078046810e+00	-1.5490663449e+00
 1.4573753922e+00	 1.9426907042e+00	-1.5394466352e+00
 1.4112642971e+00	 1.9764420801e+00	-1.5075318386e+00
 1.3644637563e+00	 2.0090368265e+00	-1.4541881950e+00
 1.3170169622e+00	 2.0404550539e+00	-1.3838870735e+00
 1.2689677965e+00	 2.0706789986e+00	-1.3021192189e+00
 1.2203607018e+00	 2.0996930468e+00	-1.2146282718e+00
 1.1712405517e+00	 2.1274837496e+00	-1.1267502926e+00
 1.1216525223e+00	 2.1540398284e+00	-1.0428720400e+00
 1.0716419640e+00	 2.1793521717e+00	-9.6601618460e-01
 1.0212542753e+00	 2.2034138235e+00	-8.9746510182e-01
 9.0110470714e-01	 1.9441843389e+00	-1.1571217047e+00
 8.5635545049e-01	 1.9643059899e+00	-1.0466348455e+00
 8.1135326227e-01	 1.9833176091e+00	-9.3216527432e-01
 7.6613766449e-01	 2.0012186383e+00	-8.1830139175e-01
 7.2074780418e-01	 2.0180103059e+00	-7.0935423575e-01
 6.7522235821e-01	 2.0336955823e+00	-6.0692591683e-01
 6.2959944281e-01	 2.0482791294e+00	-5.0933987049e-01
 5.8391652783e-01	 2.0617672455e+00	-4.1488508545e-01
 5.3821035641e-01	 2.0741678046e+00	-3.2222088787e-01
 4.9251686990e-01	 2.0854901924e+00	-2.3044674441e-01
 4.4687113857e-01	 2.0957452386e+00	-1.3905909487e-01
 9.1311958406e-01	 1.9701071150e+00	-1.1103385343e+00
 8.6777366333e-01	 1.9904970579e+00	-9.9840716316e-01
 8.2217143857e-01	 2.0097621685e+00	-8.8381377162e-01
 7.7635295875e-01	 2.0279018810e+00	-7.7060817345e-01
 7.3035789287e-01	 2.0449174403e+00	-6.6261575302e-01
 6.8422543351e-01	 2.0608118562e+00	-5.6143432958e-01
 6.3799420510e-01	 2.0755898531e+00	-4.6509602428e-01
 5.9170217711e-01	 2.0892578129e+00	-3.7164757277e-01
 5.4538658259e-01	 2.1018237148e+00	-2.7967935376e-01
 4.9908384211e-01	 2.1132970697e+00	-1.8835967524e-01
 4.5282949357e-01	 2.1236888515e+00	-9.7344370356e-02
 9.2513448621e-01	 1.9960299455e+00	-1.0730492312e+00
 8.7919190015e-01	 2.0166881810e+00	-9.6120702701e-01
 8.3298963758e-01	 2.0362067834e+00	-8.4787858028e-01
 7.8656827447e-01	 2.0545851798e+00	-7.3656562755e-01
 7.3996800175e-01	 2.0718246312e+00	-6.3058024898e-01
 6.9322852771e-01	 2.0879281871e+00	-5.3164791174e-01
 6.4638898501e-01	 2.1029006341e+00	-4.3767456569e-01
 5.9948784274e-01	 2.1167484380e+00	-3.4658035696e-01
 5.5256282384e-01	 2.1294796831e+00	-2.5703922246e-01
 5.0565082812e-01	 2.1411040053e+00	-1.6847238654e-01
 4.5878786107e-01	 2.1516325230e+00	-8.0904421146e-02
 9.3714941079e-01	 2.0219528244e+00	-1.0433626120e+00
 8.9061015828e-01	 2.0428793529e+00	-9.3308804984e-01
 8.4380785679e-01	 2.0626514478e+00	-8.2237184369e-01
 7.9678360925e-01	 2.0812685284e+00	-7.1416038236e-01
 7.4957812856e-01	 2.0987318723e+00	-6.1123065287e-01
 7.0223163872e-01	 2.1150445687e+00	-5.1540912411e-01
 6.5478378060e-01	 2.1302114661e+00	-4.2475226787e-01
 6.0727352291e-01	 2.1442391145e+00	-3.3716687198e-01
 5.5973907849e-01	 2.1571357030e+00	-2.5157466070e-01
 5.1221782638e-01	 2.1689109929e+00	-1.6784849827e-01
 4.6474623970e-01	 2.1795762467e+00	-8.6608198187e-02
 9.4916435499e-01	 2.0478757456e+00	-1.0194242684e+00
 9.0202843506e-01	 2.0690705676e+00	-9.1214452731e-01
 8.5462609367e-01	 2.0890961553e+00	-8.0534886085e-01
 8.0699896071e-01	 2.1079519205e+00	-7.0142335092e-01
 7.5918827107e-01	 2.1256391573e+00	-6.0261257274e-01
 7.1123476443e-01	 2.1421609945e+00	-5.1068124775e-01
 6.6317858990e-01	 2.1575223427e+00	-4.2415313941e-01
 6.1505921579e-01	 2.1717298358e+00	-3.4105634637e-01
 5.6691534485e-01	 2.1847917681e+00	-2.6073663903e-01
 5.1878483537e-01	 2.1967180258e+00	-1.8373236437e-01
 4.7070462806e-01	 2.2075200161e+00	-1.1150285702e-01
 9.6117931602e-01	 2.0737987032e+00	-9.9941709302e-01
 9.1344672783e-01	 2.0952618190e+00	-8.9651152615e-01
 8.6544434570e-01	 2.1155408998e+00	-7.9490775475e-01
 8.1721432648e-01	 2.1346353500e+00	-6.9642900236e-01
 7.6879842703e-01	 2.1525464801e+00	-6.0279298169e-01
 7.2023790275e-01	 2.1692774583e+00	-5.1553077045e-01
 6.7157341096e-01	 2.1848332575e+00	-4.3383301697e-01
 6.2284491956e-01	 2.1992205957e+00	-3.5605041511e-01
 5.7409162126e-01	 2.2124478719e+00	-2.8214137654e-01
 5.2535185355e-01	 2.2245250977e+00	-2.1344584904e-01
 4.7666302476e-01	 2.2354638246e+00	-1.4939037018e-01
 9.7319429106e-01	 2.0997216909e+00	-9.8156199438e-01
 9.2486503392e-01	 2.1214531009e+00	-8.8436518663e-01
 8.7626261034e-01	 2.1419856752e+00	-7.8918937769e-01
 8.2742970416e-01	 2.1613188107e+00	-6.9729488890e-01
 7.7840859421e-01	 2.1794538342e+00	-6.0988100500e-01
 7.2924105157e-01	 2.1963939537e+00	-5.2811005471e-01
 6.7996824180e-01	 2.2121442042e+00	-4.5186444713e-01
 6.3063063243e-01	 2.2267113876e+00	-3.7978410438e-01
 5.8126790605e-01	 2.2401040080e+00	-3.0854637600e-01
 5.3191887940e-01	 2.2523322021e+00	-2.3944001079e-01
 4.8262142841e-01	 2.2634076657e+00	-1.7532961686e-01
 9.8520927731e-01	 2.1256447029e+00	-9.6411878418e-01
 9.3628335066e-01	 2.1476444073e+00	-8.7392322125e-01
 8.8708088508e-01	 2.1684304752e+00	-7.8637743300e-01
 8.3764509138e-01	 2.1880022962e+00	-7.0218140650e-01
 7.8801877035e-01	 2.2063612134e+00	-6.2202744434e-01
 7.3824420879e-01	 2.2235104744e+00	-5.4661427235e-01
 6.8836308048e-01	 2.2394551764e+00	-4.7201186622e-01
 6.3841635255e-01	 2.2542022052e+00	-3.9592730542e-01
 5.8844419753e-01	 2.2677601699e+00	-3.2061156589e-01
 5.3848591137e-01	 2.2801393324e+00	-2.4889468755e-01
 4.8857983762e-01	 2.2913515328e+00	-1.8358838835e-01
 9.9722427198e-01	 2.1515677330e+00	-9.4538722257e-01
 9.4770167540e-01	 2.1738357320e+00	-8.6344559293e-01
 8.9789916740e-01	 2.1948752938e+00	-7.8469879508e-01
 8.4786048575e-01	 2.2146858005e+00	-7.0929176956e-01
 7.9762895322e-01	 2.2332686115e+00	-6.3557713011e-01
 7.4724737232e-01	 2.2506270141e+00	-5.5732520115e-01
 6.9675792504e-01	 2.2667661677e+00	-4.7632042460e-01
 6.4620207813e-01	 2.2816930420e+00	-3.9480687729e-01
 5.9562049404e-01	 2.2954163512e+00	-3.1517373690e-01
 5.4505294794e-01	 2.3079464821e+00	-2.4024832849e-01
 4.9453825100e-01	 2.3192954196e+00	-1.7272132598e-01
 1.0092392722e+00	 2.1774907752e+00	-9.2370820832e-01
 9.5912000546e-01	 2.2000270690e+00	-8.5123535785e-01
 9.0871745476e-01	 2.2213201247e+00	-7.8242401119e-01
 8.5807588488e-01	 2.2413693171e+00	-7.1128922951e-01
 8.0723914058e-01	 2.2601760221e+00	-6.3255894868e-01
 7.5625054004e-01	 2.2777435665e+00	-5.4848084285e-01
 7.0515277351e-01	 2.2940771717e+00	-4.6151388348e-01
 6.5398780734e-01	 2.3091838916e+00	-3.7471128272e-01
 6.0279679389e-01	 2.3230725453e+00	-2.9062029000e-01
 5.5161998757e-01	 2.3357536449e+00	-2.1200235076e-01
 5.0049666716e-01	 2.3472393193e+00	-1.4134847083e-01
 1.0212542753e+00	 2.2034138235e+00	-8.9746510182e-01
 9.7053833819e-01	 2.2262184120e+00	-8.3539344054e-01
 9.1953574465e-01	 2.2477649618e+00	-7.6791214588e-01
 8.6829128640e-01	 2.2680528400e+00	-6.9127485620e-01
 8.1684933017e-01	 2.2870834390e+00	-6.0740216251e-01
 7.6525370987e-01	 2.3048601252e+00	-5.1824534732e-01
 7.1354762395e-01	 2.3213881821e+00	-4.2586495188e-01
 6.6177353837e-01	 2.3366747477e+00	-3.3398601934e-01
 6.0997309542e-01	 2.3507287459e+00	-2.4539575727e-01
 5.5818702873e-01	 2.3635608141e+00	-1.6271690765e-01
 5.0645508472e-01	 2.3751832256e+00	-8.8151144699e-02
 4.4687113857e-01	 2.0957452386e+00	-1.3905909487e-01
 4.0130411996e-01	 2.1049457527e+00	-5.4456646179e-02
 3.5585220013e-01	 2.1131044841e+00	 2.5632844221e-02
 3.1054752866e-01	 2.1202361611e+00	 1.0393709394e-01
 2.6542116220e-01	 2.1263566578e+00	 1.7534151176e-01
 2.2050302460e-01	 2.1314829156e+00	 2.3680469735e-01
 1.7582187290e-01	 2.1356328636e+00	 2.8722455495e-01
 1.3140526907e-01	 2.1388253387e+00	 3.2732438071e-01
 8.7279557320e-02	 2.1410800068e+00	 3.5940173579e-01
 4.3469846890e-02	 2.1424172829e+00	 3.8700290487e-01
 0.0000000000e+00	 2.1428582540e+00	 4.1457719678e-01
 4.5282949357e-01	 2.1236888515e+00	-9.7344370356e-02
 4.0665490725e-01	 2.1330120406e+00	-1.1607098429e-02
 3.6059695438e-01	 2.1412795564e+00	 7.1865289384e-02
 3.1468821320e-01	 2.1485063236e+00	 1.5460336129e-01
 2.6896015447e-01	 2.1547084280e+00	 2.2979533652e-01
 2.2344310102e-01	 2.1599030367e+00	 2.9391381273e-01
 1.7816619332e-01	 2.1641083180e+00	 3.4589275884e-01
 1.3315736083e-01	 2.1673433600e+00	 3.8685340890e-01
 8.8443299038e-02	 2.1696280907e+00	 4.1969603223e-01
 4.4049451964e-02	 2.1709831974e+00	 4.4862621038e-01
 0.0000000000e+00	 2.1714300481e+00	 4.7867469363e-01
 4.5878786107e-01	 2.1516325230e+00	-8.0904421146e-02
 4.1200570577e-01	 2.1610783874e+00	 1.8484454035e-03
 3.6534171859e-01	 2.1694546879e+00	 8.3236075234e-02
 3.1882890645e-01	 2.1767765455e+00	 1.6383050507e-01
 2.7249915418e-01	 2.1830602577e+00	 2.3516988097e-01
 2.2638318362e-01	 2.1883232175e+00	 2.9365631407e-01
 1.8051051866e-01	 2.1925838322e+00	 3.3869521026e-01
 1.3490945628e-01	 2.1958614412e+00	 3.7224222062e-01
 8.9607043199e-02	 2.1981762345e+00	 3.9822037631e-01
 4.4629058256e-02	 2.1995491718e+00	 4.2188225690e-01
 0.0000000000e+00	 2.2000019023e+00	 4.4918138776e-01
 4.6474623970e-01	 2.1795762467e+00	-8.6608198187e-02
 4.1735651428e-01	 2.1891447866e+00	-1.0834225939e-02
 3.7008649166e-01	 2.1976298720e+00	 6.2952931880e-02
 3.2296960742e-01	 2.2050468202e+00	 1.3461145619e-01
 2.7603816049e-01	 2.2114121403e+00	 1.9404854029e-01
 2.2932327170e-01	 2.2167434513e+00	 2.3806294022e-01
 1.8285484838e-01	 2.2210593996e+00	 2.6701943910e-01
 1.3666155499e-01	 2.2243795756e+00	 2.8450769023e-01
 9.0770789533e-02	 2.2267244316e+00	 2.9650315497e-01
 4.5208665629e-02	 2.2281151995e+00	 3.0899560178e-01
 0.0000000000e+00	 2.2285738097e+00	 3.2852111311e-01
 4.7070462806e-01	 2.2075200161e+00	-1.1150285702e-01
 4.2270733153e-01	 2.2172112317e+00	-4.6567523554e-02
 3.7483127248e-01	 2.2258051021e+00	 1.4503140222e-02
 3.2711031515e-01	 2.2333171410e+00	 7.3984947004e-02
 2.7957717259e-01	 2.2397640692e+00	 1.2148158612e-01
 2.3226336459e-01	 2.2451637316e+00	 1.5464997691e-01
 1.8519918193e-01	 2.2495350134e+00	 1.7446752607e-01
 1.3841365656e-01	 2.2528977565e+00	 1.8433453237e-01
 9.1934537767e-02	 2.2552726753e+00	 1.8934709626e-01
 4.5788273948e-02	 2.2566812740e+00	 1.9566967490e-01
 0.0000000000e+00	 2.2571457639e+00	 2.0999562558e-01
 4.7666302476e-01	 2.2354638246e+00	-1.4939037018e-01
 4.2805815627e-01	 2.2452777161e+00	-9.0310409417e-02
 3.7957605994e-01	 2.2539803717e+00	-3.2560820633e-02
 3.3125102868e-01	 2.2615875014e+00	 2.3880103332e-02
 2.8311618963e-01	 2.2681160378e+00	 6.7279264334e-02
 2.3520346159e-01	 2.2735840516e+00	 9.5785819497e-02
 1.8754351875e-01	 2.2780106672e+00	 1.1093681467e-01
 1.4016576059e-01	 2.2814159774e+00	 1.1655417489e-01
 9.3098287629e-02	 2.2838209591e+00	 1.1802648657e-01
 4.6367883079e-02	 2.2852473884e+00	 1.2169387281e-01
 0.0000000000e+00	 2.2857177580e+00	 1.3432296840e-01
 4.8262142841e-01	 2.2634076657e+00	-1.7532961686e-01
 4.3340898725e-01	 2.2733442332e+00	-1.1688146417e-01
 3.8432085293e-01	 2.2821556741e+00	-6.0082437546e-02
 3.3539174704e-01	 2.2898578948e+00	-4.6942091042e-03
 2.8665521081e-01	 2.2964680395e+00	 3.6972180622e-02
 2.3814356202e-01	 2.3020044048e+00	 6.3403221633e-02
 1.8988785831e-01	 2.3064863541e+00	 7.6677985792e-02
 1.4191786666e-01	 2.3099342316e+00	 8.0998356440e-02
 9.4262038850e-02	 2.3123692761e+00	 8.1983651582e-02
 4.6947492886e-02	 2.3138135361e+00	 8.6071768110e-02
 0.0000000000e+00	 2.3142897854e+00	 1.0001241721e-01
 4.8857983762e-01	 2.2913515328e+00	-1.8358838835e-01
 4.3875982323e-01	 2.3014107765e+00	-1.2433068918e-01
 3.8906565036e-01	 2.3103310028e+00	-6.6855791907e-02
 3.3953246927e-01	 2.3181283146e+00	-1.0765902644e-02
 2.9019423528e-01	 2.3248200676e+00	 3.1289485267e-02
 2.4108366519e-01	 2.3304247845e+00	 5.7970319721e-02
 1.9223220006e-01	 2.3349620676e+00	 7.1873512392e-02
 1.4366997437e-01	 2.3384525123e+00	 7.7532265823e-02
 9.5425791156e-02	 2.3409176197e+00	 8.0727750259e-02
 4.7527103234e-02	 2.3423797105e+00	 8.7910695533e-02
 0.0000000000e+00	 2.3428618396e+00	 1.0571692705e-01
 4.9453825100e-01	 2.3192954196e+00	-1.7272132598e-01
 4.4411066295e-01	 2.3294773395e+00	-1.1134890644e-01
 3.9381045110e-01	 2.3385063512e+00	-5.1743603545e-02
 3.4367319439e-01	 2.3463987541e+00	 6.5853542428e-03
 2.9373326224e-01	 2.3531721156e+00	 5.0921262355e-02
 2.4402377042e-01	 2.3588451841e+00	 7.9934473800e-02
 1.9457654345e-01	 2.3634378011e+00	 9.6708432205e-02
 1.4542208330e-01	 2.3669708131e+00	 1.0605148143e-01
 9.6589544277e-02	 2.3694659834e+00	 1.1383006382e-01
 4.8106713987e-02	 2.3709459049e+00	 1.2641517860e-01
 0.0000000000e+00	 2.3714339137e+00	 1.5022447953e-01
 5.0049666716e-01	 2.3472393193e+00	-1.4134847083e-01
 4.4946150517e-01	 2.3575439155e+00	-7.6693711936e-02
 3.9855525406e-01	 2.3666817128e+00	-1.3673762175e-02
 3.4781392145e-01	 2.3746692069e+00	 4.8229583039e-02
 2.9727229084e-01	 2.3815241768e+00	 9.6519157909e-02
 2.4696387702e-01	 2.3872655970e+00	 1.2972191335e-01
 1.9692088794e-01	 2.3919135479e+00	 1.5136883739e-01
 1.4717419305e-01	 2.3954891271e+00	 1.6647912213e-01
 9.7753297940e-02	 2.3980143603e+00	 1.8091961731e-01
 4.8686325011e-02	 2.3995121126e+00	 2.0088082449e-01
 0.0000000000e+00	 2.4000060012e+00	 2.3245004761e-01
 5.0645508472e-01	 2.3751832256e+00	-8.8151144699e-02
 4.5481234863e-01	 2.3856104981e+00	-1.9185642745e-02
 4.0330005812e-01	 2.3948570810e+00	 4.8363984201e-02
 3.5195464947e-01	 2.4029396663e+00	 1.1498782644e-01
 3.0081132027e-01	 2.4098762447e+00	 1.6869694957e-01
 2.4990398431e-01	 2.4156860165e+00	 2.0773739503e-01
 1.9926523297e-01	 2.4203893013e+00	 2.3604046030e-01
 1.4892630321e-01	 2.4240074478e+00	 2.5876319214e-01
 9.8917051876e-02	 2.4265627440e+00	 2.8167910649e-01
 4.9265936170e-02	 2.4280783270e+00	 3.1068864860e-01
 0.0000000000e+00	 2.4285780953e+00	 3.5142812719e-01
 2.4285780953e+00	 0.0000000000e+00	 2.0430707327e+00
 2.4280783270e+00	 4.9265936170e-02	 2.0577983033e+00
 2.4265627440e+00	 9.8917051876e-02	 2.0480574124e+00
 2.4240074478e+00	 1.4892630321e-01	 2.0184393746e+00
 2.4203893013e+00	 1.9926523297e-01	 1.9739833166e+00
 2.4156860165e+00	 2.4990398431e-01	 1.9197301751e+00
 2.4098762447e+00	 3.0081132027e-01	 1.8601790397e+00
 2.4029396663e+00	 3.5195464947e-01	 1.7986191909e+00
 2.3948570810e+00	 4.0330005812e-01	 1.7333664882e+00
 2.3856104981e+00	 4.5481234863e-01	 1.6547581985e+00
 2.3751832256e+00	 5.0645508472e-01	 1.5636789926e+00
 2.4571481911e+00	 0.0000000000e+00	 1.8836315857e+00
 2.4566425434e+00	 4.9845506790e-02	 1.9070180429e+00
 2.4551091309e+00	 1.0008072442e-01	 1.9059332914e+00
 2.4525237739e+00	 1.5067829082e-01	 1.8847750070e+00
 2.4488630630e+00	 2.0160941404e-01	 1.8484639386e+00
 2.4441044482e+00	 2.5284388597e-01	 1.8020456983e+00
 2.4382263296e+00	 3.0435010218e-01	 1.7501955932e+00
 2.4312081484e+00	 3.5609508788e-01	 1.6965973123e+00
 2.4230304786e+00	 4.0804453034e-01	 1.6393072996e+00
 2.4136751177e+00	 4.6016281786e-01	 1.5690371569e+00
 2.4031251775e+00	 5.1241308553e-01	 1.4861865831e+00
 2.4857182902e+00	 0.0000000000e+00	 1.7753585909e+00
 2.4852067632e+00	 5.0425077479e-02	 1.8041011294e+00
 2.4836555212e+00	 1.0124439709e-01	 1.8083164114e+00
 2.4810401034e+00	 1.5243027864e-01	 1.7921961429e+00
 2.4773368282e+00	 2.0395359538e-01	 1.7605322643e+00
 2.4725228833e+00	 2.5578378797e-01	 1.7183721191e+00
 2.4665764178e+00	 3.0788888451e-01	 1.6705777315e+00
 2.4594766338e+00	 3.6023552678e-01	 1.6212573047e+00
 2.4512038794e+00	 4.1278900310e-01	 1.5681866866e+00
 2.4417397406e+00	 4.6551328771e-01	 1.5027450930e+00
 2.4310671326e+00	 5.1837108705e-01	 1.4249577878e+00
 2.5142883960e+00	 0.0000000000e+00	 1.7172531956e+00
 2.5137709896e+00	 5.1004648302e-02	 1.7482828480e+00
 2.5122019181e+00	 1.0240807004e-01	 1.7546879179e+00
 2.5095564395e+00	 1.5418226687e-01	 1.7404226166e+00
 2.5058105999e+00	 2.0629777726e-01	 1.7101199093e+00
 2.5009413250e+00	 2.5872369065e-01	 1.6688060518e+00
 2.4949265126e+00	 3.1142766765e-01	 1.6215207074e+00
 2.4877451258e+00	 3.6437596665e-01	 1.5728078841e+00
 2.4793772868e+00	 4.1753347697e-01	 1.5201557643e+00
 2.4698043701e+00	 4.7086375881e-01	 1.4559030273e+00
 2.4590090943e+00	 5.2432908995e-01	 1.3798319852e+00
 2.5428585118e+00	 0.0000000000e+00	 1.7083269193e+00
 2.5423352261e+00	 5.1584219329e-02	 1.7388106877e+00
 2.5407483250e+00	 1.0357174340e-01	 1.7445439447e+00
 2.5380727856e+00	 1.5593425571e-01	 1.7291920566e+00
 2.5342843816e+00	 2.0864195997e-01	 1.6971784543e+00
 2.5293597767e+00	 2.6166359437e-01	 1.6534649451e+00
 2.5232766173e+00	 3.1496645204e-01	 1.6032395142e+00
 2.5160136277e+00	 3.6851640796e-01	 1.5514738073e+00
 2.5075507041e+00	 4.2227795250e-01	 1.4953805606e+00
 2.4978690093e+00	 4.7621423178e-01	 1.4285448975e+00
 2.4869510657e+00	 5.3028709493e-01	 1.3506616259e+00
 2.5714286409e+00	 0.0000000000e+00	 1.7476007912e+00
 2.5708994759e+00	 5.2163790626e-02	 1.7749439251e+00
 2.5692947453e+00	 1.0473541730e-01	 1.7773953454e+00
 2.5665891450e+00	 1.5768624537e-01	 1.7582597412e+00
 2.5627581767e+00	 2.1098614377e-01	 1.7216793778e+00
 2.5577782416e+00	 2.6460349945e-01	 1.6724870194e+00
 2.5516267353e+00	 3.1850523808e-01	 1.6159687293e+00
 2.5442821428e+00	 3.7265685121e-01	 1.5574837601e+00
 2.5357241346e+00	 4.2702243025e-01	 1.4940409523e+00
 2.5259336617e+00	 4.8156470724e-01	 1.4207162538e+00
 2.5148930502e+00	 5.3624510270e-01	 1.3373106615e+00
 2.5999987867e+00	 0.0000000000e+00	 1.8309432357e+00
 2.5994637423e+00	 5.2743362261e-02	 1.8532714257e+00
 2.5978411822e+00	 1.0589909188e-01	 1.8512251261e+00
 2.5951055210e+00	 1.5943823605e-01	 1.8270505485e+00
 2.5912319883e+00	 2.1333032894e-01	 1.7836139931e+00
 2.5861967231e+00	 2.6754340626e-01	 1.7260312043e+00
 2.5799768697e+00	 3.2204402618e-01	 1.6599623562e+00
 2.5725506744e+00	 3.7679729687e-01	 1.5910407442e+00
 2.5638975814e+00	 4.3176691076e-01	 1.5163296072e+00
 2.5539983304e+00	 4.8691518583e-01	 1.4324729708e+00
 2.5428350510e+00	 5.4220311395e-01	 1.3396530049e+00
 2.6285689525e+00	 0.0000000000e+00	 1.8928370715e+00
 2.6280280287e+00	 5.3322934302e-02	 1.9102742400e+00
 2.6263876391e+00	 1.0706276727e-01	 1.9066348728e+00
 2.6236219170e+00	 1.6119022796e-01	 1.8836262385e+00
 2.6197058198e+00	 2.1567451575e-01	 1.8434586026e+00
 2.6146152245e+00	 2.7048331512e-01	 1.7888355720e+00
 2.6083270241e+00	 3.2558281676e-01	 1.7229336078e+00
 2.6008192257e+00	 3.8093774543e-01	 1.6491411140e+00
 2.5920710480e+00	 4.3651139460e-01	 1.5624509315e+00
 2.5820630188e+00	 4.9226566816e-01	 1.4638799739e+00
 2.5707770713e+00	 5.4816112936e-01	 1.3575710203e+00
 2.6571391416e+00	 0.0000000000e+00	 1.9084415460e+00
 2.6565923385e+00	 5.3902506816e-02	 1.9201977372e+00
 2.6549341193e+00	 1.0822644361e-01	 1.9142185941e+00
 2.6521383363e+00	 1.6294222130e-01	 1.8917261518e+00
 2.6481796746e+00	 2.1801870447e-01	 1.8544246296e+00
 2.6430337491e+00	 2.7342322638e-01	 1.8045074309e+00
 2.6366772016e+00	 3.2912161023e-01	 1.7446556771e+00
 2.6290878002e+00	 3.8507819737e-01	 1.6776247232e+00
 2.6202445376e+00	 4.4125588231e-01	 1.5978633898e+00
 2.6101277301e+00	 4.9761615487e-01	 1.5020530597e+00
 2.5987191145e+00	 5.5411914964e-01	 1.3895108734e+00
 2.6857093574e+00	 0.0000000000e+00	 1.8789349574e+00
 2.6851566749e+00	 5.4482079871e-02	 1.8841959557e+00
 2.6834806261e+00	 1.0939012104e-01	 1.8751297007e+00
 2.6806547821e+00	 1.6469421627e-01	 1.8525213415e+00
 2.6766535560e+00	 2.2036289539e-01	 1.8176130764e+00
 2.6714523002e+00	 2.7636314038e-01	 1.7721287240e+00
 2.6650274055e+00	 3.3266040700e-01	 1.7182924241e+00
 2.6573564010e+00	 3.8921865318e-01	 1.6582391003e+00
 2.6484180535e+00	 4.4600037445e-01	 1.5861151297e+00
 2.6381924675e+00	 5.0296664657e-01	 1.4988605727e+00
 2.6266611837e+00	 5.6007717548e-01	 1.3954113911e+00
 2.7142796031e+00	 0.0000000000e+00	 1.8055027766e+00
 2.7137210413e+00	 5.5061653534e-02	 1.8034201516e+00
 2.7120271629e+00	 1.1055379969e-01	 1.7905104311e+00
 2.7091712580e+00	 1.6644621308e-01	 1.7671648287e+00
 2.7051274673e+00	 2.2270708876e-01	 1.7342015433e+00
 2.6998708812e+00	 2.7930305747e-01	 1.6929088998e+00
 2.6933776393e+00	 3.3619920749e-01	 1.6450854615e+00
 2.6856250315e+00	 3.9335911334e-01	 1.5922659420e+00
 2.6765915990e+00	 4.5074487157e-01	 1.5284879559e+00
 2.6662572345e+00	 5.0831714388e-01	 1.4508908284e+00
 2.6546032823e+00	 5.6603520758e-01	 1.3580957424e+00
 2.3751832256e+00	 5.0645508472e-01	 1.5636789926e+00
 2.3635608141e+00	 5.5818702873e-01	 1.4633670042e+00
 2.3507287459e+00	 6.0997309542e-01	 1.3561922731e+00
 2.3366747477e+00	 6.6177353837e-01	 1.2418243091e+00
 2.3213881821e+00	 7.1354762395e-01	 1.1199299698e+00
 2.3048601252e+00	 7.6525370987e-01	 9.9042630099e-01
 2.2870834390e+00	 8.1684933017e-01	 8.5192302510e-01
 2.2680528400e+00	 8.6829128640e-01	 7.0408526299e-01
 2.2477649618e+00	 9.1953574465e-01	 5.4681123335e-01
 2.2262184120e+00	 9.7053833819e-01	 3.8022789778e-01
 2.2034138235e+00	 1.0212542753e+00	 2.0935293228e-01
 2.4031251775e+00	 5.1241308553e-01	 1.4861865831e+00
 2.3913660385e+00	 5.6475361059e-01	 1.3935730044e+00
 2.3783830123e+00	 6.1714889503e-01	 1.2939679086e+00
 2.3641636810e+00	 6.6955872486e-01	 1.1872236230e+00
 2.3486972824e+00	 7.2194188724e-01	 1.0730239388e+00
 2.3319747873e+00	 7.7425625001e-01	 9.5093929943e-01
 2.3139889740e+00	 8.2645884763e-01	 8.1976072085e-01
 2.2947344967e+00	 8.7850597345e-01	 6.7952597365e-01
 2.2742079493e+00	 9.3035327790e-01	 5.3022477427e-01
 2.2524079233e+00	 9.8195587232e-01	 3.7198534284e-01
 2.2293350587e+00	 1.0332684381e+00	 2.0548667268e-01
 2.4310671326e+00	 5.1837108705e-01	 1.4249577878e+00
 2.4191712661e+00	 5.7132019322e-01	 1.3372801406e+00
 2.4060372818e+00	 6.2432469548e-01	 1.2427973461e+00
 2.3916526176e+00	 6.7734391225e-01	 1.1415431752e+00
 2.3760063858e+00	 7.3033615151e-01	 1.0331933946e+00
 2.3590894527e+00	 7.8325879120e-01	 9.1694121003e-01
 2.3408945122e+00	 8.3606836621e-01	 7.9189078962e-01
 2.3214161565e+00	 8.8872066169e-01	 6.5826788774e-01
 2.3006509399e+00	 9.4117081241e-01	 5.1603916341e-01
 2.2785974375e+00	 9.9337340778e-01	 3.6521061081e-01
 2.2552562969e+00	 1.0452826022e+00	 2.0625345272e-01
 2.4590090943e+00	 5.2432908995e-01	 1.3798319852e+00
 2.4469765002e+00	 5.7788677738e-01	 1.2941231521e+00
 2.4336915578e+00	 6.3150049761e-01	 1.2021200531e+00
 2.4191415605e+00	 6.8512910147e-01	 1.1040514658e+00
 2.4033154957e+00	 7.3873041774e-01	 9.9957358526e-01
 2.3862041243e+00	 7.9226133449e-01	 8.8750745898e-01
 2.3678000566e+00	 8.4567788703e-01	 7.6734822803e-01
 2.3480978224e+00	 8.9893535232e-01	 6.3934403103e-01
 2.3270939367e+00	 9.5198834945e-01	 5.0332761572e-01
 2.3047869579e+00	 1.0047909459e+00	 3.5906219339e-01
 2.2811775412e+00	 1.0572967691e+00	 2.0668187299e-01
 2.4869510657e+00	 5.3028709493e-01	 1.3506616259e+00
 2.4747817440e+00	 5.8445336384e-01	 1.2637521289e+00
 2.4613458435e+00	 6.3867630224e-01	 1.1713949803e+00
 2.4466305131e+00	 6.9291429340e-01	 1.0740428734e+00
 2.4306246151e+00	 7.4712468691e-01	 9.7132134156e-01
 2.4133188054e+00	 8.0126388093e-01	 8.6175210948e-01
 2.3947056104e+00	 8.5528741121e-01	 7.4521185133e-01
 2.3747794978e+00	 9.0915004652e-01	 6.2183648634e-01
 2.3535369427e+00	 9.6280589027e-01	 4.9121760340e-01
 2.3309764875e+00	 1.0162084880e+00	 3.5275788204e-01
 2.3070987945e+00	 1.0693109403e+00	 2.0612693818e-01
 2.5148930502e+00	 5.3624510270e-01	 1.3373106615e+00
 2.5025870009e+00	 5.9101995337e-01	 1.2458306996e+00
 2.4890001421e+00	 6.4585211023e-01	 1.1500985926e+00
 2.4741194785e+00	 7.0069948898e-01	 1.0508356335e+00
 2.4579337472e+00	 7.5551896000e-01	 9.4761450885e-01
 2.4404334992e+00	 8.1026643158e-01	 8.3882537921e-01
 2.4216111768e+00	 8.6489693988e-01	 7.2460169033e-01
 2.4014611856e+00	 9.1936474549e-01	 6.0487374697e-01
 2.3799799611e+00	 9.7362343615e-01	 4.7888825306e-01
 2.3571660292e+00	 1.0276260355e+00	 3.4557230536e-01
 2.3330200600e+00	 1.0813251171e+00	 2.0400547563e-01
 2.5428350510e+00	 5.4220311395e-01	 1.3396530049e+00
 2.5303922739e+00	 5.9758654672e-01	 1.2400342667e+00
 2.5166544568e+00	 6.5302792240e-01	 1.1377229648e+00
 2.5016084600e+00	 7.0848468909e-01	 1.0337698990e+00
 2.4852428953e+00	 7.6391323798e-01	 9.2769557632e-01
 2.4675482088e+00	 8.1926898747e-01	 8.1791126575e-01
 2.4485167589e+00	 8.7450647415e-01	 7.0467650544e-01
 2.4281428889e+00	 9.2957945041e-01	 5.8762819283e-01
 2.4064229949e+00	 9.8444098833e-01	 4.6556786702e-01
 2.3833555863e+00	 1.0390435896e+00	 3.3683458796e-01
 2.3589413405e+00	 1.0933393008e+00	 1.9979403204e-01
 2.5707770713e+00	 5.4816112936e-01	 1.3575710203e+00
 2.5581975664e+00	 6.0415314467e-01	 1.2460482889e+00
 2.5443087909e+00	 6.6020373959e-01	 1.1337739400e+00
 2.5290974606e+00	 7.1626989465e-01	 1.0222058765e+00
 2.5125520624e+00	 7.7230752184e-01	 9.1083538438e-01
 2.4946629374e+00	 8.2827154967e-01	 7.9822527198e-01
 2.4754223598e+00	 8.8411601516e-01	 6.8463140877e-01
 2.4548246109e+00	 9.3979416249e-01	 5.6931367983e-01
 2.4328660472e+00	 9.9525854809e-01	 4.5053155946e-01
 2.4095451617e+00	 1.0504611517e+00	 3.2592612118e-01
 2.3848626392e+00	 1.1053534930e+00	 1.9302687492e-01
 2.5987191145e+00	 5.5411914964e-01	 1.3895108734e+00
 2.5860028816e+00	 6.1071974798e-01	 1.2635666041e+00
 2.5719631476e+00	 6.6737956265e-01	 1.1377693436e+00
 2.5565864838e+00	 7.2405510657e-01	 1.0155220328e+00
 2.5398612519e+00	 7.8070181256e-01	 8.9632972347e-01
 2.5217776881e+00	 8.3727411922e-01	 7.7901222375e-01
 2.5023279827e+00	 8.9372556400e-01	 6.6369558632e-01
 2.4815063547e+00	 9.5000888291e-01	 5.4918323399e-01
 2.4593091211e+00	 1.0060761167e+00	 4.3309899859e-01
 2.4357347585e+00	 1.0618787231e+00	 3.1227843757e-01
 2.4107839591e+00	 1.1173676950e+00	 1.8336089641e-01
 2.6266611837e+00	 5.6007717548e-01	 1.3954113911e+00
 2.6138082228e+00	 6.1728635743e-01	 1.2769057361e+00
 2.5996175300e+00	 6.7455539240e-01	 1.1477528250e+00
 2.5840755326e+00	 7.3184032576e-01	 1.0131133661e+00
 2.5671704669e+00	 7.8909611111e-01	 8.8349738177e-01
 2.5488924641e+00	 8.4627669717e-01	 7.5954417301e-01
 2.5292336307e+00	 9.0333512182e-01	 6.4113011274e-01
 2.5081881235e+00	 9.6022361286e-01	 5.2652684258e-01
 2.4857522197e+00	 1.0168936954e+00	 4.1263224707e-01
 2.4619243797e+00	 1.0732963052e+00	 2.9537118116e-01
 2.4367053032e+00	 1.1293819082e+00	 1.7079682049e-01
 2.6546032823e+00	 5.6603520758e-01	 1.3580957424e+00
 2.6416135931e+00	 6.2385297377e-01	 1.2505704798e+00
 2.6272719415e+00	 6.8173122969e-01	 1.1319661171e+00
 2.6115646102e+00	 7.3962555313e-01	 1.0051706892e+00
 2.5944797105e+00	 7.9749041847e-01	 8.7160117892e-01
 2.5760072686e+00	 8.5527928458e-01	 7.3911838010e-01
 2.5561393069e+00	 9.1294468973e-01	 6.1622585172e-01
 2.5348699202e+00	 9.7043835354e-01	 5.0066933501e-01
 2.5121953460e+00	 1.0277112854e+00	 3.8853369345e-01
 2.4881140284e+00	 1.0847138993e+00	 2.7473016658e-01
 2.4626266744e+00	 1.1413961340e+00	 1.5505078098e-01
 2.2034138235e+00	 1.0212542753e+00	 2.0935293228e-01
 2.1793521717e+00	 1.0716419640e+00	 4.2965265697e-02
 2.1540398284e+00	 1.1216525223e+00	-1.1801730605e-01
 2.1274837496e+00	 1.1712405517e+00	-2.6608661360e-01
 2.0996930468e+00	 1.2203607018e+00	-3.9897233106e-01
 2.0706789986e+00	 1.2689677965e+00	-5.1892511660e-01
 2.0404550539e+00	 1.3170169622e+00	-6.2951081968e-01
 2.0090368265e+00	 1.3644637563e+00	-7.3519497182e-01
 1.9764420801e+00	 1.4112642971e+00	-8.4082301859e-01
 1.9426907042e+00	 1.4573753922e+00	-9.5100663090e-01
 1.9078046810e+00	 1.5027546666e+00	-1.0670665939e+00
 2.2293350587e+00	 1.0332684381e+00	 2.0548667268e-01
 2.2049903427e+00	 1.0842488938e+00	 3.4254418829e-02
 2.1793802217e+00	 1.1348477825e+00	-1.3038298848e-01
 2.1525117340e+00	 1.1850191717e+00	-2.7921012244e-01
 2.1243940979e+00	 1.2347171774e+00	-4.1137942513e-01
 2.0950387247e+00	 1.2838960920e+00	-5.2923200127e-01
 2.0644592217e+00	 1.3325105141e+00	-6.3661501010e-01
 2.0326713864e+00	 1.3805154782e+00	-7.3844307615e-01
 1.9996931913e+00	 1.4278665864e+00	-8.4014636231e-01
 1.9655447601e+00	 1.4745201382e+00	-9.4701615351e-01
 1.9302483333e+00	 1.5204332600e+00	-1.0553289730e+00
 2.2552562969e+00	 1.0452826022e+00	 2.0625345272e-01
 2.2306285166e+00	 1.0968558250e+00	 3.9255138897e-02
 2.2047206181e+00	 1.1480430443e+00	-1.2991618708e-01
 2.1775397212e+00	 1.1987977933e+00	-2.8188144270e-01
 2.1490951518e+00	 1.2490736546e+00	-4.1575579005e-01
 2.1193984537e+00	 1.2988243893e+00	-5.3393055149e-01
 2.0884633924e+00	 1.3480040678e+00	-6.4051080716e-01
 2.0563059491e+00	 1.3965672020e+00	-7.4085321645e-01
 2.0229443053e+00	 1.4444688776e+00	-8.4098082430e-01
 1.9883988186e+00	 1.4916648861e+00	-9.4635070551e-01
 1.9526919883e+00	 1.5381118555e+00	-1.0462143262e+00
 2.2811775412e+00	 1.0572967691e+00	 2.0668187299e-01
 2.2562666965e+00	 1.1094627592e+00	 4.6226211369e-02
 2.2300610203e+00	 1.1612383092e+00	-1.1777004344e-01
 2.2025677143e+00	 1.2125764182e+00	-2.7446215109e-01
 2.1737962115e+00	 1.2634301352e+00	-4.1234427515e-01
 2.1437581884e+00	 1.3137526900e+00	-5.3312414704e-01
 2.1124675687e+00	 1.3634976251e+00	-6.4114342254e-01
 2.0799405173e+00	 1.4126189295e+00	-7.4219683845e-01
 2.0461954248e+00	 1.4610711728e+00	-8.4291259790e-01
 2.0112528825e+00	 1.5088096381e+00	-9.4613562287e-01
 1.9751356485e+00	 1.5557904552e+00	-1.0388987265e+00
 2.3070987945e+00	 1.0693109403e+00	 2.0612693818e-01
 2.2819048853e+00	 1.1220696979e+00	 5.1434487087e-02
 2.2554014314e+00	 1.1744335787e+00	-1.0459088684e-01
 2.2275957162e+00	 1.2263550478e+00	-2.5758644974e-01
 2.1984972798e+00	 1.2777866209e+00	-4.0135997834e-01
 2.1681179316e+00	 1.3286809960e+00	-5.2688857695e-01
 2.1364717534e+00	 1.3789911878e+00	-6.3842896430e-01
 2.1035750938e+00	 1.4286706627e+00	-7.4221307319e-01
 2.0694465523e+00	 1.4776734737e+00	-8.4549066857e-01
 2.0341069544e+00	 1.5259543961e+00	-9.4549282743e-01
 1.9975793166e+00	 1.5734690610e+00	-1.0326260105e+00
 2.3330200600e+00	 1.0813251171e+00	 2.0400547563e-01
 2.3075430862e+00	 1.1346766424e+00	 5.4861981120e-02
 2.2807418543e+00	 1.1876288543e+00	-9.3996309265e-02
 2.2526237297e+00	 1.2401336839e+00	-2.4014372149e-01
 2.2231983597e+00	 1.2921431132e+00	-3.8300658163e-01
 2.1924776862e+00	 1.3436093089e+00	-5.1527879485e-01
 2.1604759493e+00	 1.3944847578e+00	-6.3226100393e-01
 2.1272096813e+00	 1.4447224033e+00	-7.4061507573e-01
 2.0926976907e+00	 1.4942757824e+00	-8.4746650049e-01
 2.0569610370e+00	 1.5430991621e+00	-9.4385911051e-01
 2.0200229951e+00	 1.5911476750e+00	-1.0267100902e+00
 2.3589413405e+00	 1.0933393008e+00	 1.9979403204e-01
 2.3331813020e+00	 1.1472835942e+00	 5.6178588709e-02
 2.3060822920e+00	 1.2008241377e+00	-8.6119633845e-02
 2.2776517578e+00	 1.2539123280e+00	-2.2607836916e-01
 2.2478994539e+00	 1.3064996139e+00	-3.6347183663e-01
 2.2168374549e+00	 1.3585376306e+00	-4.9833561929e-01
 2.1844801592e+00	 1.4099783368e+00	-6.2251709967e-01
 2.1508442826e+00	 1.4607741533e+00	-7.3709633137e-01
 2.1159488427e+00	 1.5108781007e+00	-8.4666878457e-01
 2.0798151328e+00	 1.5602439381e+00	-9.4073995292e-01
 2.0424666867e+00	 1.6088262994e+00	-1.0205372616e+00
 2.3848626392e+00	 1.1053534930e+00	 1.9302687492e-01
 2.3588195357e+00	 1.1598905549e+00	 5.5099142721e-02
 2.3314227474e+00	 1.2140194302e+00	-8.1051000938e-02
 2.3026798035e+00	 1.2676909818e+00	-2.1528542252e-01
 2.2726005655e+00	 1.3208561247e+00	-3.4772287239e-01
 2.2411972408e+00	 1.3734659627e+00	-4.7894829647e-01
 2.2084843859e+00	 1.4254719267e+00	-6.0906527964e-01
 2.1744789005e+00	 1.4768259145e+00	-7.3133693131e-01
 2.1392000109e+00	 1.5274804307e+00	-8.4271763708e-01
 2.1026692447e+00	 1.5773887261e+00	-9.3571168968e-01
 2.0649103941e+00	 1.6265049361e+00	-1.0135685090e+00
 2.4107839591e+00	 1.1173676950e+00	 1.8336089641e-01
 2.3844577904e+00	 1.1724975259e+00	 5.1383078214e-02
 2.3567632236e+00	 1.2272147336e+00	-7.8843349997e-02
 2.3277078696e+00	 1.2814696468e+00	-2.0763093889e-01
 2.2973016972e+00	 1.3352126472e+00	-3.3543974345e-01
 2.2655570465e+00	 1.3883943069e+00	-4.6316160328e-01
 2.2324886322e+00	 1.4409655292e+00	-5.9247592442e-01
 2.1981135376e+00	 1.4928776889e+00	-7.2251653299e-01
 2.1624511982e+00	 1.5440827743e+00	-8.3537095460e-01
 2.1255233752e+00	 1.5945335281e+00	-9.2842366451e-01
 2.0873541197e+00	 1.6441835873e+00	-1.0053418060e+00
 2.4367053032e+00	 1.1293819082e+00	 1.7079682049e-01
 2.4100960690e+00	 1.1851045086e+00	 4.4828950500e-02
 2.3821037234e+00	 1.2404100493e+00	-7.9518329673e-02
 2.3527359590e+00	 1.2952483247e+00	-2.0295836012e-01
 2.3220028520e+00	 1.3495691831e+00	-3.2628919858e-01
 2.2899168750e+00	 1.4033226652e+00	-4.5069703036e-01
 2.2564929009e+00	 1.4564591462e+00	-5.7813830336e-01
 2.2217481968e+00	 1.5089294782e+00	-7.0906156343e-01
 2.1857024071e+00	 1.5606851333e+00	-8.2445723061e-01
 2.1483775271e+00	 1.6116783461e+00	-9.1860037488e-01
 2.1097978664e+00	 1.6618622550e+00	-9.9547441395e-01
 2.4626266744e+00	 1.1413961340e+00	 1.5505078098e-01
 2.4357343745e+00	 1.1977115046e+00	 3.5269028145e-02
 2.4074442497e+00	 1.2536053788e+00	-8.3072141416e-02
 2.3777640747e+00	 1.3090270171e+00	-2.0109481174e-01
 2.3467040327e+00	 1.3639257340e+00	-3.1993145147e-01
 2.3142767290e+00	 1.4182510391e+00	-4.4104904444e-01
 2.2804971949e+00	 1.4719527794e+00	-5.6665970688e-01
 2.2453828809e+00	 1.5249812844e+00	-6.9373925582e-01
 2.2089536405e+00	 1.5772875098e+00	-8.0987754710e-01
 2.1712317030e+00	 1.6288231821e+00	-9.0604360817e-01
 2.1322416365e+00	 1.6795409412e+00	-9.8366517708e-01
 1.9078046810e+00	 1.5027546666e+00	-1.0670665939e+00
 1.8718080373e+00	 1.5473606928e+00	-1.1761079710e+00
 1.8347267774e+00	 1.5911531264e+00	-1.2733052712e+00
 1.7965888388e+00	 1.6340928130e+00	-1.3464028456e+00
 1.7574240285e+00	 1.6761418999e+00	-1.3978387455e+00
 1.7172639463e+00	 1.7172639463e+00	-1.4338262549e+00
 1.6761418999e+00	 1.7574240285e+00	-1.4609199671e+00
 1.6340928130e+00	 1.7965888388e+00	-1.4852761869e+00
 1.5911531264e+00	 1.8347267774e+00	-1.5119340881e+00
 1.5473606928e+00	 1.8718080373e+00	-1.5401020080e+00
 1.5027546666e+00	 1.9078046810e+00	-1.5490663449e+00
 1.9302483333e+00	 1.5204332600e+00	-1.0553289730e+00
 1.8938282206e+00	 1.5655640371e+00	-1.1543175473e+00
 1.8563107322e+00	 1.6098716503e+00	-1.2440732267e+00
 1.8177241341e+00	 1.6533164848e+00	-1.3174494768e+00
 1.7780985841e+00	 1.6958602424e+00	-1.3689200661e+00
 1.7374660536e+00	 1.7374660536e+00	-1.4051904936e+00
 1.6958602424e+00	 1.7780985841e+00	-1.4334244151e+00
 1.6533164848e+00	 1.8177241341e+00	-1.4603323886e+00
 1.6098716503e+00	 1.8563107322e+00	-1.4912135770e+00
 1.5655640371e+00	 1.8938282206e+00	-1.5125782983e+00
 1.5204332600e+00	 1.9302483333e+00	-1.5123913532e+00
 1.9526919883e+00	 1.5381118555e+00	-1.0462143262e+00
 1.9158484066e+00	 1.5837673835e+00	-1.1367380361e+00
 1.8778946895e+00	 1.6285901764e+00	-1.2187684274e+00
 1.8388594319e+00	 1.6725401588e+00	-1.2905119653e+00
 1.7987731421e+00	 1.7155785871e+00	-1.3434443996e+00
 1.7576681634e+00	 1.7576681634e+00	-1.3813784536e+00
 1.7155785871e+00	 1.7987731421e+00	-1.4121613361e+00
 1.6725401588e+00	 1.8388594319e+00	-1.4431284521e+00
 1.6285901764e+00	 1.8778946895e+00	-1.4741541809e+00
 1.5837673835e+00	 1.9158484066e+00	-1.4873909406e+00
 1.5381118555e+00	 1.9526919883e+00	-1.4796332364e+00
 1.9751356485e+00	 1.5557904552e+00	-1.0388987265e+00
 1.9378685976e+00	 1.6019707342e+00	-1.1224137539e+00
 1.8994786518e+00	 1.6473087069e+00	-1.1980511701e+00
 1.8599947346e+00	 1.6917638373e+00	-1.2653515545e+00
 1.8194477049e+00	 1.7352969365e+00	-1.3207832556e+00
 1.7778702778e+00	 1.7778702778e+00	-1.3616600672e+00
 1.7352969365e+00	 1.8194477049e+00	-1.3963090138e+00
 1.6917638373e+00	 1.8599947346e+00	-1.4322414549e+00
 1.6473087069e+00	 1.8994786518e+00	-1.4576223070e+00
 1.6019707342e+00	 1.9378685976e+00	-1.4640932094e+00
 1.5557904552e+00	 1.9751356485e+00	-1.4502375715e+00
 1.9975793166e+00	 1.5734690610e+00	-1.0326260105e+00
 1.9598887964e+00	 1.6201740912e+00	-1.1104596555e+00
 1.9210626217e+00	 1.6660272440e+00	-1.1809025282e+00
 1.8811300447e+00	 1.7109875225e+00	-1.2440926896e+00
 1.8401222750e+00	 1.7550152928e+00	-1.3003022441e+00
 1.7980723993e+00	 1.7980723993e+00	-1.3452906662e+00
 1.7550152928e+00	 1.8401222750e+00	-1.3850229673e+00
 1.7109875225e+00	 1.8811300447e+00	-1.4217039356e+00
 1.6660272440e+00	 1.9210626217e+00	-1.4412350083e+00
 1.6201740912e+00	 1.9598887964e+00	-1.4421968039e+00
 1.5734690610e+00	 1.9975793166e+00	-1.4236047479e+00
 2.0200229951e+00	 1.5911476750e+00	-1.0267100902e+00
 1.9819090054e+00	 1.6383774568e+00	-1.1000637844e+00
 1.9426466017e+00	 1.6847457898e+00	-1.1663791140e+00
 1.9022653647e+00	 1.7302112167e+00	-1.2264251275e+00
 1.8607968547e+00	 1.7747336583e+00	-1.2815979277e+00
 1.8182745303e+00	 1.8182745303e+00	-1.3315064425e+00
 1.7747336583e+00	 1.8607968547e+00	-1.3769080762e+00
 1.7302112167e+00	 1.9022653647e+00	-1.4098133116e+00
 1.6847457898e+00	 1.9426466017e+00	-1.4245836208e+00
 1.6383774568e+00	 1.9819090054e+00	-1.4211858652e+00
 1.5911476750e+00	 2.0200229951e+00	-1.3991038777e+00
 2.0424666867e+00	 1.6088262994e+00	-1.0205372616e+00
 2.0039292273e+00	 1.6565808329e+00	-1.0904897259e+00
 1.9642305942e+00	 1.7034643465e+00	-1.1536156825e+00
 1.9234006970e+00	 1.7494349222e+00	-1.2113476163e+00
 1.8814714465e+00	 1.7944520353e+00	-1.2657963385e+00
 1.8384766730e+00	 1.8384766730e+00	-1.3195199340e+00
 1.7944520353e+00	 1.8814714465e+00	-1.3671005485e+00
 1.7494349222e+00	 1.9234006970e+00	-1.3962484985e+00
 1.7034643465e+00	 1.9642305942e+00	-1.4072478464e+00
 1.6565808329e+00	 2.0039292273e+00	-1.4005310359e+00
 1.6088262994e+00	 2.0424666867e+00	-1.3760867507e+00
 2.0649103941e+00	 1.6265049361e+00	-1.0135685090e+00
 2.0259494646e+00	 1.6747842218e+00	-1.0810790632e+00
 1.9858146019e+00	 1.7221829163e+00	-1.1418277430e+00
 1.9445360440e+00	 1.7686586410e+00	-1.1979417700e+00
 1.9021460527e+00	 1.8141704261e+00	-1.2522821970e+00
 1.8586788298e+00	 1.8586788298e+00	-1.3083713905e+00
 1.8141704261e+00	 1.9021460527e+00	-1.3544224420e+00
 1.7686586410e+00	 1.9445360440e+00	-1.3806907392e+00
 1.7221829163e+00	 1.9858146019e+00	-1.3888098686e+00
 1.6747842218e+00	 2.0259494646e+00	-1.3797035559e+00
 1.6265049361e+00	 2.0649103941e+00	-1.3539018313e+00
 2.0873541197e+00	 1.6441835873e+00	-1.0053418060e+00
 2.0479697198e+00	 1.6929876255e+00	-1.0712538367e+00
 2.0073986272e+00	 1.7409015014e+00	-1.1303141793e+00
 1.9656714084e+00	 1.7878823756e+00	-1.1853748487e+00
 1.9228206758e+00	 1.8338888330e+00	-1.2400815776e+00
 1.8788810032e+00	 1.8788810032e+00	-1.2955265392e+00
 1.8338888330e+00	 1.9228206758e+00	-1.3386572113e+00
 1.7878823756e+00	 1.9656714084e+00	-1.3628376903e+00
 1.7409015014e+00	 2.0073986272e+00	-1.3688685004e+00
 1.6929876255e+00	 2.0479697198e+00	-1.3581893945e+00
 1.6441835873e+00	 2.0873541197e+00	-1.3319082932e+00
 2.1097978664e+00	 1.6618622550e+00	-9.9547441395e-01
 2.0699899957e+00	 1.7111910463e+00	-1.0605190051e+00
 2.0289826726e+00	 1.7596201039e+00	-1.1184598777e+00
 1.9868067925e+00	 1.8071061281e+00	-1.1729025522e+00
 1.9434953183e+00	 1.8536072583e+00	-1.2282996837e+00
 1.8990831954e+00	 1.8990831954e+00	-1.2801085236e+00
 1.8536072583e+00	 1.9434953183e+00	-1.3196204405e+00
 1.8071061281e+00	 1.9868067925e+00	-1.3424175339e+00
 1.7596201039e+00	 2.0289826726e+00	-1.3470533625e+00
 1.7111910463e+00	 2.0699899957e+00	-1.3355034139e+00
 1.6618622550e+00	 2.1097978664e+00	-1.3094900899e+00
 2.1322416365e+00	 1.6795409412e+00	-9.8366517708e-01
 2.0920102946e+00	 1.7293944861e+00	-1.0484649097e+00
 2.0505667407e+00	 1.7783387262e+00	-1.1057383626e+00
 2.0079421987e+00	 1.8263299008e+00	-1.1598718249e+00
 1.9641699824e+00	 1.8733257043e+00	-1.2146156504e+00
 1.9192854089e+00	 1.9192854089e+00	-1.2619635997e+00
 1.8733257043e+00	 1.9641699824e+00	-1.2977724930e+00
 1.8263299008e+00	 2.0079421987e+00	-1.3192031151e+00
 1.7783387262e+00	 2.0505667407e+00	-1.3230390873e+00
 1.7293944861e+00	 2.0920102946e+00	-1.3112035640e+00
 1.6795409412e+00	 2.1322416365e+00	-1.2860700582e+00
 1.5027546666e+00	 1.9078046810e+00	-1.5490663449e+00
 1.4573753922e+00	 1.9426907042e+00	-1.5394466352e+00
 1.4112642971e+00	 1.9764420801e+00	-1.5075318386e+00
 1.3644637563e+00	 2.0090368265e+00	-1.4541881950e+00
 1.3170169622e+00	 2.0404550539e+00	-1.3838870735e+00
 1.2689677965e+00	 2.0706789986e+00	-1.3021192189e+00
 1.2203607018e+00	 2.0996930468e+00	-1.2146282718e+00
 1.1712405517e+00	 2.1274837496e+00	-1.1267502926e+00
 1.1216525223e+00	 2.1540398284e+00	-1.0428720400e+00
 1.0716419640e+00	 2.1793521717e+00	-9.6601618460e-01
 1.0212542753e+00	 2.2034138235e+00	-8.9746510182e-01
 1.5204332600e+00	 1.9302483333e+00	-1.5123913532e+00
 1.4745201382e+00	 1.9655447601e+00	-1.4961439923e+00
 1.4278665864e+00	 1.9996931913e+00	-1.4615920102e+00
 1.3805154782e+00	 2.0326713864e+00	-1.4059356900e+00
 1.3325105141e+00	 2.0644592217e+00	-1.3343052169e+00
 1.2838960920e+00	 2.0950387247e+00	-1.2527602194e+00
 1.2347171774e+00	 2.1243940979e+00	-1.1674744005e+00
 1.1850191717e+00	 2.1525117340e+00	-1.0840363757e+00
 1.1348477825e+00	 2.1793802217e+00	-1.0068800303e+00
 1.0842488938e+00	 2.2049903427e+00	-9.3886355057e-01
 1.0332684381e+00	 2.2293350587e+00	-8.8039001435e-01
 1.5381118555e+00	 1.9526919883e+00	-1.4796332364e+00
 1.4916648861e+00	 1.9883988186e+00	-1.4566483073e+00
 1.4444688776e+00	 2.0229443053e+00	-1.4213428949e+00
 1.3965672020e+00	 2.0563059491e+00	-1.3656660192e+00
 1.3480040678e+00	 2.0884633924e+00	-1.2950246000e+00
 1.2988243893e+00	 2.1193984537e+00	-1.2160638105e+00
 1.2490736546e+00	 2.1490951518e+00	-1.1353858278e+00
 1.1987977933e+00	 2.1775397212e+00	-1.0588107116e+00
 1.1480430443e+00	 2.2047206181e+00	-9.9077830221e-01
 1.0968558250e+00	 2.2306285166e+00	-9.3287703730e-01
 1.0452826022e+00	 2.2552562969e+00	-8.7281231812e-01
 1.5557904552e+00	 1.9751356485e+00	-1.4502375715e+00
 1.5088096381e+00	 2.0112528825e+00	-1.4219399139e+00
 1.4610711728e+00	 2.0461954248e+00	-1.3858121784e+00
 1.4126189295e+00	 2.0799405173e+00	-1.3322329425e+00
 1.3634976251e+00	 2.1124675687e+00	-1.2647371507e+00
 1.3137526900e+00	 2.1437581884e+00	-1.1905762597e+00
 1.2634301352e+00	 2.1737962115e+00	-1.1167821701e+00
 1.2125764182e+00	 2.2025677143e+00	-1.0493868363e+00
 1.1612383092e+00	 2.2300610203e+00	-9.9194990377e-01
 1.1094627592e+00	 2.2562666965e+00	-9.3269205685e-01
 1.0572967691e+00	 2.2811775412e+00	-8.6788981401e-01
 1.5734690610e+00	 1.9975793166e+00	-1.4236047479e+00
 1.5259543961e+00	 2.0341069544e+00	-1.3914892473e+00
 1.4776734737e+00	 2.0694465523e+00	-1.3540899196e+00
 1.4286706627e+00	 2.1035750938e+00	-1.3045468958e+00
 1.3789911878e+00	 2.1364717534e+00	-1.2421880433e+00
 1.3286809960e+00	 2.1681179316e+00	-1.1748959198e+00
 1.2777866209e+00	 2.1984972798e+00	-1.1101361863e+00
 1.2263550478e+00	 2.2275957162e+00	-1.0537674743e+00
 1.1744335787e+00	 2.2554014314e+00	-9.9635802091e-01
 1.1220696979e+00	 2.2819048853e+00	-9.3270289948e-01
 1.0693109403e+00	 2.3070987945e+00	-8.6416072368e-01
 1.5911476750e+00	 2.0200229951e+00	-1.3991038777e+00
 1.5430991621e+00	 2.0569610370e+00	-1.3645391060e+00
 1.4942757824e+00	 2.0926976907e+00	-1.3259130590e+00
 1.4447224033e+00	 2.1272096813e+00	-1.2815645652e+00
 1.3944847578e+00	 2.1604759493e+00	-1.2261651445e+00
 1.3436093089e+00	 2.1924776862e+00	-1.1676626006e+00
 1.2921431132e+00	 2.2231983597e+00	-1.1139516775e+00
 1.2401336839e+00	 2.2526237297e+00	-1.0600449050e+00
 1.1876288543e+00	 2.2807418543e+00	-9.9879887034e-01
 1.1346766424e+00	 2.3075430862e+00	-9.3170164870e-01
 1.0813251171e+00	 2.3330200600e+00	-8.6026133588e-01
 1.6088262994e+00	 2.0424666867e+00	-1.3760867507e+00
 1.5602439381e+00	 2.0798151328e+00	-1.3403094269e+00
 1.5108781007e+00	 2.1159488427e+00	-1.3017536533e+00
 1.4607741533e+00	 2.1508442826e+00	-1.2622785272e+00
 1.4099783368e+00	 2.1844801592e+00	-1.2154885339e+00
 1.3585376306e+00	 2.2168374549e+00	-1.1675470243e+00
 1.3064996139e+00	 2.2478994539e+00	-1.1195687132e+00
 1.2539123280e+00	 2.2776517578e+00	-1.0626235784e+00
 1.2008241377e+00	 2.3060822920e+00	-9.9838731851e-01
 1.1472835942e+00	 2.3331813020e+00	-9.2859260517e-01
 1.0933393008e+00	 2.3589413405e+00	-8.5492449820e-01
 1.6265049361e+00	 2.0649103941e+00	-1.3539018313e+00
 1.5773887261e+00	 2.1026692447e+00	-1.3180110903e+00
 1.5274804307e+00	 2.1392000109e+00	-1.2807229529e+00
 1.4768259145e+00	 2.1744789005e+00	-1.2457069479e+00
 1.4254719267e+00	 2.2084843859e+00	-1.2090000937e+00
 1.3734659627e+00	 2.2411972408e+00	-1.1698435452e+00
 1.3208561247e+00	 2.2726005655e+00	-1.1201562090e+00
 1.2676909818e+00	 2.3026798035e+00	-1.0609320284e+00
 1.2140194302e+00	 2.3314227474e+00	-9.9434451227e-01
 1.1598905549e+00	 2.3588195357e+00	-9.2238530020e-01
 1.1053534930e+00	 2.3848626392e+00	-8.4697823965e-01
 1.6441835873e+00	 2.0873541197e+00	-1.3319082932e+00
 1.5945335281e+00	 2.1255233752e+00	-1.2968597674e+00
 1.5440827743e+00	 2.1624511982e+00	-1.2618756058e+00
 1.4928776889e+00	 2.1981135376e+00	-1.2312618745e+00
 1.4409655292e+00	 2.2324886322e+00	-1.2047313233e+00
 1.3883943069e+00	 2.2655570465e+00	-1.1664258574e+00
 1.3352126472e+00	 2.2973016972e+00	-1.1154472436e+00
 1.2814696468e+00	 2.3277078696e+00	-1.0545035192e+00
 1.2272147336e+00	 2.3567632236e+00	-9.8599602667e-01
 1.1724975259e+00	 2.3844577904e+00	-9.1219259836e-01
 1.1173676950e+00	 2.4107839591e+00	-8.3533431749e-01
 1.6618622550e+00	 2.1097978664e+00	-1.3094900899e+00
 1.6116783461e+00	 2.1483775271e+00	-1.2760898067e+00
 1.5606851333e+00	 2.1857024071e+00	-1.2442770698e+00
 1.5089294782e+00	 2.2217481968e+00	-1.2189686647e+00
 1.4564591462e+00	 2.2564929009e+00	-1.1953625614e+00
 1.4033226652e+00	 2.2899168750e+00	-1.1570388701e+00
 1.3495691831e+00	 2.3220028520e+00	-1.1052772198e+00
 1.2952483247e+00	 2.3527359590e+00	-1.0429741964e+00
 1.2404100493e+00	 2.3821037234e+00	-9.7277010595e-01
 1.1851045086e+00	 2.4100960690e+00	-8.9722900252e-01
 1.1293819082e+00	 2.4367053032e+00	-8.1894614620e-01
 1.6795409412e+00	 2.1322416365e+00	-1.2860700582e+00
 1.6288231821e+00	 2.1712317030e+00	-1.2549681575e+00
 1.5772875098e+00	 2.2089536405e+00	-1.2270172595e+00
 1.5249812844e+00	 2.2453828809e+00	-1.2047610269e+00
 1.4719527794e+00	 2.2804971949e+00	-1.1796625177e+00
 1.4182510391e+00	 2.3142767290e+00	-1.1418054543e+00
 1.3639257340e+00	 2.3467040327e+00	-1.0895819668e+00
 1.3090270171e+00	 2.3777640747e+00	-1.0260813151e+00
 1.2536053788e+00	 2.4074442497e+00	-9.5419599093e-01
 1.1977115046e+00	 2.4357343745e+00	-8.7680905394e-01
 1.1413961340e+00	 2.4626266744e+00	-7.9690231623e-01
 1.0212542753e+00	 2.2034138235e+00	-8.9746510182e-01
 9.7053833819e-01	 2.2262184120e+00	-8.3539344054e-01
 9.1953574465e-01	 2.2477649618e+00	-7.6791214588e-01
 8.6829128640e-01	 2.2680528400e+00	-6.9127485620e-01
 8.1684933017e-01	 2.2870834390e+00	-6.0740216251e-01
 7.6525370987e-01	 2.3048601252e+00	-5.1824534732e-01
 7.1354762395e-01	 2.3213881821e+00	-4.2586495188e-01
 6.6177353837e-01	 2.3366747477e+00	-3.3398601934e-01
 6.0997309542e-01	 2.3507287459e+00	-2.4539575727e-01
 5.5818702873e-01	 2.3635608141e+00	-1.6271690765e-01
 5.0645508472e-01	 2.3751832256e+00	-8.8151144699e-02
 1.0332684381e+00	 2.2293350587e+00	-8.8039001435e-01
 9.8195587232e-01	 2.2524079233e+00	-8.1758727165e-01
 9.3035327790e-01	 2.2742079493e+00	-7.4476739550e-01
 8.7850597345e-01	 2.2947344967e+00	-6.6335721976e-01
 8.2645884763e-01	 2.3139889740e+00	-5.7510399821e-01
 7.7425625001e-01	 2.3319747873e+00	-4.8170749644e-01
 7.2194188724e-01	 2.3486972824e+00	-3.8476464447e-01
 6.6955872486e-01	 2.3641636810e+00	-2.8843238900e-01
 6.1714889503e-01	 2.3783830123e+00	-1.9592776008e-01
 5.6475361059e-01	 2.3913660385e+00	-1.0970535266e-01
 5.1241308553e-01	 2.4031251775e+00	-3.1629758449e-02
 1.0452826022e+00	 2.2552562969e+00	-8.7281231812e-01
 9.9337340778e-01	 2.2785974375e+00	-8.0505564434e-01
 9.4117081241e-01	 2.3006509399e+00	-7.2778564078e-01
 8.8872066169e-01	 2.3214161565e+00	-6.4243298500e-01
 8.3606836621e-01	 2.3408945122e+00	-5.5067999642e-01
 7.8325879120e-01	 2.3590894527e+00	-4.5407919968e-01
 7.3033615151e-01	 2.3760063858e+00	-3.5384097120e-01
 6.7734391225e-01	 2.3916526176e+00	-2.5422863583e-01
 6.2432469548e-01	 2.4060372818e+00	-1.5917686436e-01
 5.7132019322e-01	 2.4191712661e+00	-7.0983183810e-02
 5.1837108705e-01	 2.4310671326e+00	 8.8336774550e-03
 1.0572967691e+00	 2.2811775412e+00	-8.6788981401e-01
 1.0047909459e+00	 2.3047869579e+00	-7.9611920764e-01
 9.5198834945e-01	 2.3270939367e+00	-7.1523122158e-01
 8.9893535232e-01	 2.3480978224e+00	-6.2677076042e-01
 8.4567788703e-01	 2.3678000566e+00	-5.3246182546e-01
 7.9226133449e-01	 2.3862041243e+00	-4.3381139690e-01
 7.3873041774e-01	 2.4033154957e+00	-3.3180000230e-01
 6.8512910147e-01	 2.4191415605e+00	-2.3035362860e-01
 6.3150049761e-01	 2.4336915578e+00	-1.3444769074e-01
 5.7788677738e-01	 2.4469765002e+00	-4.6219133000e-02
 5.2432908995e-01	 2.4590090943e+00	 3.3184115404e-02
 1.0693109403e+00	 2.3070987945e+00	-8.6416072368e-01
 1.0162084880e+00	 2.3309764875e+00	-7.8919175182e-01
 9.6280589027e-01	 2.3535369427e+00	-7.0545377742e-01
 9.0915004652e-01	 2.3747794978e+00	-6.1471550506e-01
 8.5528741121e-01	 2.3947056104e+00	-5.1884758589e-01
 8.0126388093e-01	 2.4133188054e+00	-4.1941069152e-01
 7.4712468691e-01	 2.4306246151e+00	-3.1733271816e-01
 6.9291429340e-01	 2.4466305131e+00	-2.1580682287e-01
 6.3867630224e-01	 2.4613458435e+00	-1.2105485998e-01
 5.8445336384e-01	 2.4747817440e+00	-3.5082579847e-02
 5.3028709493e-01	 2.4869510657e+00	 4.1374446732e-02
 1.0813251171e+00	 2.3330200600e+00	-8.6026133588e-01
 1.0276260355e+00	 2.3571660292e+00	-7.8277825616e-01
 9.7362343615e-01	 2.3799799611e+00	-6.9688613777e-01
 9.1936474549e-01	 2.4014611856e+00	-6.0468639919e-01
 8.6489693988e-01	 2.4216111768e+00	-5.0829979204e-01
 8.1026643158e-01	 2.4404334992e+00	-4.0943756530e-01
 7.5551896000e-01	 2.4579337472e+00	-3.0906857497e-01
 7.0069948898e-01	 2.4741194785e+00	-2.0960616538e-01
 6.4585211023e-01	 2.4890001421e+00	-1.1832134427e-01
 5.9101995337e-01	 2.5025870009e+00	-3.7242503448e-02
 5.3624510270e-01	 2.5148930502e+00	 3.3365816462e-02
 1.0933393008e+00	 2.3589413405e+00	-8.5492449820e-01
 1.0390435896e+00	 2.3833555863e+00	-7.7547308618e-01
 9.8444098833e-01	 2.4064229949e+00	-6.8804236149e-01
 9.2957945041e-01	 2.4281428889e+00	-5.9517485658e-01
 8.7450647415e-01	 2.4485167589e+00	-4.9934348062e-01
 8.1926898747e-01	 2.4675482088e+00	-4.0250469906e-01
 7.6391323798e-01	 2.4852428953e+00	-3.0575488153e-01
 7.0848468909e-01	 2.5016084600e+00	-2.1078604495e-01
 6.5302792240e-01	 2.5166544568e+00	-1.2557682760e-01
 5.9758654672e-01	 2.5303922739e+00	-5.2366401567e-02
 5.4220311395e-01	 2.5428350510e+00	 9.1280161743e-03
 1.1053534930e+00	 2.3848626392e+00	-8.4697823965e-01
 1.0504611517e+00	 2.4095451617e+00	-7.6595832884e-01
 9.9525854809e-01	 2.4328660472e+00	-6.7751591421e-01
 9.3979416249e-01	 2.4548246109e+00	-5.8474266764e-01
 8.8411601516e-01	 2.4754223598e+00	-4.9056443682e-01
 8.2827154967e-01	 2.4946629374e+00	-3.9727539145e-01
 7.7230752184e-01	 2.5125520624e+00	-3.0618298756e-01
 7.1626989465e-01	 2.5290974606e+00	-2.1839528637e-01
 6.6020373959e-01	 2.5443087909e+00	-1.4215607466e-01
 6.0415314467e-01	 2.5581975664e+00	-8.0119179717e-02
 5.4816112936e-01	 2.5707770713e+00	-3.1360050919e-02
 1.1173676950e+00	 2.4107839591e+00	-8.3533431749e-01
 1.0618787231e+00	 2.4357347585e+00	-7.5300225555e-01
 1.0060761167e+00	 2.4593091211e+00	-6.6397797316e-01
 9.5000888291e-01	 2.4815063547e+00	-5.7202026356e-01
 8.9372556400e-01	 2.5023279827e+00	-4.8060752880e-01
 8.3727411922e-01	 2.5217776881e+00	-3.9246206824e-01
 7.8070181256e-01	 2.5398612519e+00	-3.0918308338e-01
 7.2405510657e-01	 2.5565864838e+00	-2.3149518398e-01
 6.6737956265e-01	 2.5719631476e+00	-1.6739730746e-01
 6.1071974798e-01	 2.5860028816e+00	-1.2016201238e-01
 5.5411914964e-01	 2.5987191145e+00	-8.6688193601e-02
 1.1293819082e+00	 2.4367053032e+00	-8.1894614620e-01
 1.0732963052e+00	 2.4619243797e+00	-7.3545790318e-01
 1.0168936954e+00	 2.4857522197e+00	-6.4617585009e-01
 9.6022361286e-01	 2.5081881235e+00	-5.5570509248e-01
 9.0333512182e-01	 2.5292336307e+00	-4.6817514287e-01
 8.4627669717e-01	 2.5488924641e+00	-3.8682487550e-01
 7.8909611111e-01	 2.5671704669e+00	-3.1362304323e-01
 7.3184032576e-01	 2.5840755326e+00	-2.4915757208e-01
 6.7455539240e-01	 2.5996175300e+00	-1.9919188076e-01
 6.1728635743e-01	 2.6138082228e+00	-1.5705840098e-01
 5.6007717548e-01	 2.6266611837e+00	-1.1752220653e-01
 1.1413961340e+00	 2.4626266744e+00	-7.9690231623e-01
 1.0847138993e+00	 2.4881140284e+00	-7.1226176470e-01
 1.0277112854e+00	 2.5121953460e+00	-6.2293152350e-01
 9.7043835354e-01	 2.5348699202e+00	-5.3456009942e-01
 9.1294468973e-01	 2.5561393069e+00	-4.5202571157e-01
 8.5527928458e-01	 2.5760072686e+00	-3.7917035044e-01
 7.9749041847e-01	 2.5944797105e+00	-3.1833355155e-01
 7.3962555313e-01	 2.6115646102e+00	-2.6154515293e-01
 6.8173122969e-01	 2.6272719415e+00	-2.0637377187e-01
 6.2385297377e-01	 2.6416135931e+00	-1.5597951617e-01
 5.6603520758e-01	 2.6546032823e+00	-1.0711799115e-01
 5.0645508472e-01	 2.3751832256e+00	-8.8151144699e-02
 4.5481234863e-01	 2.3856104981e+00	-1.9185642745e-02
 4.0330005812e-01	 2.3948570810e+00	 4.8363984201e-02
 3.5195464947e-01	 2.4029396663e+00	 1.1498782644e-01
 3.0081132027e-01	 2.4098762447e+00	 1.6869694957e-01
 2.4990398431e-01	 2.4156860165e+00	 2.0773739503e-01
 1.9926523297e-01	 2.4203893013e+00	 2.3604046030e-01
 1.4892630321e-01	 2.4240074478e+00	 2.5876319214e-01
 9.8917051876e-02	 2.4265627440e+00	 2.8167910649e-01
 4.9265936170e-02	 2.4280783270e+00	 3.1068864860e-01
 0.0000000000e+00	 2.4285780953e+00	 3.5142812719e-01
 5.1241308553e-01	 2.4031251775e+00	-3.1629758449e-02
 4.6016281786e-01	 2.4136751177e+00	 4.1144717517e-02
 4.0804453034e-01	 2.4230304786e+00	 1.1246596548e-01
 3.5609508788e-01	 2.4312081484e+00	 1.8277521888e-01
 3.0435010218e-01	 2.4382263296e+00	 2.4089912702e-01
 2.5284388597e-01	 2.4441044482e+00	 2.8472498565e-01
 2.0160941404e-01	 2.4488630630e+00	 3.1857521553e-01
 1.5067829082e-01	 2.4525237739e+00	 3.4771779313e-01
 1.0008072442e-01	 2.4551091309e+00	 3.7779274512e-01
 4.9845506790e-02	 2.4566425434e+00	 4.1436147362e-01
 0.0000000000e+00	 2.4571481911e+00	 4.6255564967e-01
 5.1837108705e-01	 2.4310671326e+00	 8.8336774550e-03
 4.6551328771e-01	 2.4417397406e+00	 8.3249541064e-02
 4.1278900310e-01	 2.4512038794e+00	 1.5567124030e-01
 3.6023552678e-01	 2.4594766338e+00	 2.2651054198e-01
 3.0788888451e-01	 2.4665764178e+00	 2.8572600584e-01
 2.5578378797e-01	 2.4725228833e+00	 3.3083042585e-01
 2.0395359538e-01	 2.4773368282e+00	 3.6656355516e-01
 1.5243027864e-01	 2.4810401034e+00	 3.9832048954e-01
 1.0124439709e-01	 2.4836555212e+00	 4.3161797747e-01
 5.0425077479e-02	 2.4852067632e+00	 4.7168651548e-01
 0.0000000000e+00	 2.4857182902e+00	 5.2316285594e-01
 5.2432908995e-01	 2.4590090943e+00	 3.3184115404e-02
 4.7086375881e-01	 2.4698043701e+00	 1.0673366542e-01
 4.1753347697e-01	 2.4793772868e+00	 1.7735661686e-01
 3.6437596665e-01	 2.4877451258e+00	 2.4548263242e-01
 3.1142766765e-01	 2.4949265126e+00	 3.0249355369e-01
 2.5872369065e-01	 2.5009413250e+00	 3.4553846951e-01
 2.0629777726e-01	 2.5058105999e+00	 3.7978759581e-01
 1.5418226687e-01	 2.5095564395e+00	 4.1076539987e-01
 1.0240807004e-01	 2.5122019181e+00	 4.4386110743e-01
 5.1004648302e-02	 2.5137709896e+00	 4.8396779477e-01
 0.0000000000e+00	 2.5142883960e+00	 5.3522246402e-01
 5.3028709493e-01	 2.4869510657e+00	 4.1374446732e-02
 4.7621423178e-01	 2.4978690093e+00	 1.1121590588e-01
 4.2227795250e-01	 2.5075507041e+00	 1.7691476982e-01
 3.6851640796e-01	 2.5160136277e+00	 2.3899817086e-01
 3.1496645204e-01	 2.5232766173e+00	 2.9053489807e-01
 2.6166359437e-01	 2.5293597767e+00	 3.2834938089e-01
 2.0864195997e-01	 2.5342843816e+00	 3.5804188050e-01
 1.5593425571e-01	 2.5380727856e+00	 3.8525408172e-01
 1.0357174340e-01	 2.5407483250e+00	 4.1522852965e-01
 5.1584219329e-02	 2.5423352261e+00	 4.5249927635e-01
 0.0000000000e+00	 2.5428585118e+00	 5.0068378358e-01
 5.3624510270e-01	 2.5148930502e+00	 3.3365816462e-02
 4.8156470724e-01	 2.5259336617e+00	 9.6328653013e-02
 4.2702243025e-01	 2.5357241346e+00	 1.5375327861e-01
 3.7265685121e-01	 2.5442821428e+00	 2.0639278135e-01
 3.1850523808e-01	 2.5516267353e+00	 2.4919770716e-01
 2.6460349945e-01	 2.5577782416e+00	 2.7877651268e-01
 2.1098614377e-01	 2.5627581767e+00	 3.0113136101e-01
 1.5768624537e-01	 2.5665891450e+00	 3.2199410742e-01
 1.0473541730e-01	 2.5692947453e+00	 3.4642606875e-01
 5.2163790626e-02	 2.5708994759e+00	 3.7856512402e-01
 0.0000000000e+00	 2.5714286409e+00	 4.2147401954e-01
 5.4220311395e-01	 2.5428350510e+00	 9.1280161743e-03
 4.8691518583e-01	 2.5539983304e+00	 6.1717588736e-02
 4.3176691076e-01	 2.5638975814e+00	 1.0729381114e-01
 3.7679729687e-01	 2.5725506744e+00	 1.4706164838e-01
 3.2204402618e-01	 2.5799768697e+00	 1.7784173024e-01
 2.6754340626e-01	 2.5861967231e+00	 1.9634403153e-01
 2.1333032894e-01	 2.5912319883e+00	 2.0886950369e-01
 1.5943823605e-01	 2.5951055210e+00	 2.2153679822e-01
 1.0589909188e-01	 2.5978411822e+00	 2.3964503057e-01
 5.2743362261e-02	 2.5994637423e+00	 2.6598626066e-01
 0.0000000000e+00	 2.5999987867e+00	 3.0244264661e-01
 5.4816112936e-01	 2.5707770713e+00	-3.1360050919e-02
 4.9226566816e-01	 2.5820630188e+00	 7.0415118443e-03
 4.3651139460e-01	 2.5920710480e+00	 3.6971441791e-02
 3.8093774543e-01	 2.6008192257e+00	 6.3584072294e-02
 3.2558281676e-01	 2.6083270241e+00	 8.8240665916e-02
 2.7048331512e-01	 2.6146152245e+00	 1.0564360287e-01
 2.1567451575e-01	 2.6197058198e+00	 1.1982462284e-01
 1.6119022796e-01	 2.6236219170e+00	 1.3439577250e-01
 1.0706276727e-01	 2.6263876391e+00	 1.5222994877e-01
 5.3322934302e-02	 2.6280280287e+00	 1.7542239071e-01
 0.0000000000e+00	 2.6285689525e+00	 2.0526998903e-01
 5.5411914964e-01	 2.5987191145e+00	-8.6688193601e-02
 4.9761615487e-01	 2.6101277301e+00	-5.5237665172e-02
 4.4125588231e-01	 2.6202445376e+00	-2.3427168419e-02
 3.8507819737e-01	 2.6290878002e+00	 9.0789190053e-03
 3.2912161023e-01	 2.6366772016e+00	 3.9422006578e-02
 2.7342322638e-01	 2.6430337491e+00	 6.1760655157e-02
 2.1801870447e-01	 2.6481796746e+00	 7.9413889286e-02
 1.6294222130e-01	 2.6521383363e+00	 9.5441672885e-02
 1.0822644361e-01	 2.6549341193e+00	 1.1215359871e-01
 5.3902506816e-02	 2.6565923385e+00	 1.3109093485e-01
 0.0000000000e+00	 2.6571391416e+00	 1.5302331361e-01
 5.6007717548e-01	 2.6266611837e+00	-1.1752220653e-01
 5.0296664657e-01	 2.6381924675e+00	-7.7894922744e-02
 4.4600037445e-01	 2.6484180535e+00	-3.8303315892e-02
 3.8921865318e-01	 2.6573564010e+00	 1.0587644607e-03
 3.3266040700e-01	 2.6650274055e+00	 3.7556128499e-02
 2.7636314038e-01	 2.6714523002e+00	 6.5003368389e-02
 2.2036289539e-01	 2.6766535560e+00	 8.5982437859e-02
 1.6469421627e-01	 2.6806547821e+00	 1.0301437290e-01
 1.0939012104e-01	 2.6834806261e+00	 1.1787108083e-01
 5.4482079871e-02	 2.6851566749e+00	 1.3157892924e-01
 0.0000000000e+00	 2.6857093574e+00	 1.4443343096e-01
 5.6603520758e-01	 2.6546032823e+00	-1.0711799115e-01
 5.0831714388e-01	 2.6662572345e+00	-5.7884071287e-02
 4.5074487157e-01	 2.6765915990e+00	-9.3553960146e-03
 3.9335911334e-01	 2.6856250315e+00	 3.7747589014e-02
 3.3619920749e-01	 2.6933776393e+00	 8.0869045524e-02
 2.7930305747e-01	 2.6998708812e+00	 1.1362269395e-01
 2.2270708876e-01	 2.7051274673e+00	 1.3783729213e-01
 1.6644621308e-01	 2.7091712580e+00	 1.5550122751e-01
 1.1055379969e-01	 2.7120271629e+00	 1.6786801953e-01
 5.5061653534e-02	 2.7137210413e+00	 1.7548254520e-01
 0.0000000000e+00	 2.7142796031e+00	 1.7821442032e-01
 2.7142796031e+00	 0.0000000000e+00	 1.8055027766e+00
 2.7137210413e+00	 5.5061653534e-02	 1.8034201516e+00
 2.7120271629e+00	 1.1055379969e-01	 1.7905104311e+00
 2.7091712580e+00	 1.6644621308e-01	 1.7671648287e+00
 2.7051274673e+00	 2.2270708876e-01	 1.7342015433e+00
 2.6998708812e+00	 2.7930305747e-01	 1.6929088998e+00
 2.6933776393e+00	 3.3619920749e-01	 1.6450854615e+00
 2.6856250315e+00	 3.9335911334e-01	 1.5922659420e+00
 2.6765915990e+00	 4.5074487157e-01	 1.5284879559e+00
 2.6662572345e+00	 5.0831714388e-01	 1.4508908284e+00
 2.6546032823e+00	 5.6603520758e-01	 1.3580957424e+00
 2.7428518778e+00	 0.0000000000e+00	 1.7172909999e+00
 2.7422874362e+00	 5.5641268356e-02	 1.7083127359e+00
 2.7405757269e+00	 1.1171756098e-01	 1.6915526002e+00
 2.7376897589e+00	 1.6819833431e-01	 1.6670932281e+00
 2.7336034006e+00	 2.2505144861e-01	 1.6354101398e+00
 2.7282914802e+00	 2.8224318334e-01	 1.5974342540e+00
 2.7217298863e+00	 3.3973825929e-01	 1.5546144500e+00
 2.7138956695e+00	 3.9749986752e-01	 1.5079640527e+00
 2.7047671452e+00	 4.5548970562e-01	 1.4516234825e+00
 2.6943239945e+00	 5.1366802117e-01	 1.3829346627e+00
 2.6825473652e+00	 5.7199366279e-01	 1.3003181008e+00
 2.7714241625e+00	 0.0000000000e+00	 1.6421288371e+00
 2.7708538411e+00	 5.6220883381e-02	 1.6281972943e+00
 2.7691243010e+00	 1.1288132268e-01	 1.6085262291e+00
 2.7662082698e+00	 1.6995045616e-01	 1.5830155112e+00
 2.7620793440e+00	 2.2739580927e-01	 1.5519206061e+00
 2.7567120893e+00	 2.8518331024e-01	 1.5159350700e+00
 2.7500821432e+00	 3.4327731232e-01	 1.4762764049e+00
 2.7421663174e+00	 4.0164062316e-01	 1.4335706427e+00
 2.7329427013e+00	 4.6023454133e-01	 1.3822897745e+00
 2.7223907642e+00	 5.1901890032e-01	 1.3200422435e+00
 2.7104914578e+00	 5.7795212008e-01	 1.2452077360e+00
 2.7999964339e+00	 0.0000000000e+00	 1.5792782049e+00
 2.7994202327e+00	 5.6800498135e-02	 1.5625727212e+00
 2.7976728617e+00	 1.1404508383e-01	 1.5411942619e+00
 2.7947267674e+00	 1.7170257718e-01	 1.5149773550e+00
 2.7905552740e+00	 2.2974016885e-01	 1.4840709279e+00
 2.7851326851e+00	 2.8812343577e-01	 1.4490414932e+00
 2.7784343869e+00	 3.4681636371e-01	 1.4109832556e+00
 2.7704369522e+00	 4.0578137687e-01	 1.3702695603e+00
 2.7611182442e+00	 4.6497937483e-01	 1.3218983262e+00
 2.7504575209e+00	 5.2436977698e-01	 1.2638155196e+00
 2.7384355374e+00	 5.8391057460e-01	 1.1945129048e+00
 2.8285686686e+00	 0.0000000000e+00	 1.5280860287e+00
 2.8279865876e+00	 5.7380112145e-02	 1.5110012168e+00
 2.8262213857e+00	 1.1520884349e-01	 1.4893630419e+00
 2.8232452284e+00	 1.7345469596e-01	 1.4630497705e+00
 2.8190311675e+00	 2.3208452541e-01	 1.4322082259e+00
 2.8135532444e+00	 2.9106355752e-01	 1.3973784747e+00
 2.8067865942e+00	 3.5035541055e-01	 1.3596292636e+00
 2.7987075506e+00	 4.0992212526e-01	 1.3192146171e+00
 2.7892937510e+00	 4.6972420224e-01	 1.2718206132e+00
 2.7785242416e+00	 5.2972064677e-01	 1.2158084378e+00
 2.7663795812e+00	 5.8986902147e-01	 1.1499279885e+00
 2.8571408433e+00	 0.0000000000e+00	 1.4879800171e+00
 2.8565528825e+00	 5.7959724939e-02	 1.4731047581e+00
 2.8547698499e+00	 1.1637260071e-01	 1.4528795030e+00
 2.8517636295e+00	 1.7520681106e-01	 1.4273270244e+00
 2.8475070012e+00	 2.3442887705e-01	 1.3966874028e+00
 2.8419737440e+00	 2.9400367310e-01	 1.3615651238e+00
 2.8351387420e+00	 3.5389444996e-01	 1.3230910468e+00
 2.8269780896e+00	 4.1406286496e-01	 1.2815300008e+00
 2.8174691986e+00	 4.7446901969e-01	 1.2333890165e+00
 2.8065909033e+00	 5.3507150533e-01	 1.1775283030e+00
 2.7943235663e+00	 5.9582745582e-01	 1.1130951994e+00
 2.8857129346e+00	 0.0000000000e+00	 1.4584646858e+00
 2.8851190941e+00	 5.8539336041e-02	 1.4485617802e+00
 2.8833182307e+00	 1.1753635453e-01	 1.4316285309e+00
 2.8802819474e+00	 1.7695892105e-01	 1.4079246914e+00
 2.8759827518e+00	 2.3677322186e-01	 1.3778698837e+00
 2.8703941608e+00	 2.9694378010e-01	 1.3422141207e+00
 2.8634908071e+00	 3.5743347905e-01	 1.3022276332e+00
 2.8552485463e+00	 4.1820359258e-01	 1.2583106888e+00
 2.8456445640e+00	 4.7921382330e-01	 1.2078977250e+00
 2.8346574832e+00	 5.4042234828e-01	 1.1504370970e+00
 2.8222674698e+00	 6.0178587280e-01	 1.0856062320e+00
 2.9142849193e+00	 0.0000000000e+00	 1.4391176155e+00
 2.9136851991e+00	 5.9118944980e-02	 1.4371040529e+00
 2.9118665050e+00	 1.1870010401e-01	 1.4255304836e+00
 2.9088001589e+00	 1.7871102450e-01	 1.4049778300e+00
 2.9044583961e+00	 2.3911755791e-01	 1.3761224464e+00
 2.8988144714e+00	 2.9988387613e-01	 1.3399311865e+00
 2.8918427663e+00	 3.6097249493e-01	 1.2978805411e+00
 2.8835188973e+00	 4.2234430474e-01	 1.2506228637e+00
 2.8738198243e+00	 4.8395860919e-01	 1.1966036160e+00
 2.8627239583e+00	 5.4577317125e-01	 1.1359527587e+00
 2.8502112691e+00	 6.0774426753e-01	 1.0690038639e+00
 2.9428567740e+00	 0.0000000000e+00	 1.4295859266e+00
 2.9422511741e+00	 5.9698551282e-02	 1.4385137396e+00
 2.9404146494e+00	 1.1986384819e-01	 1.4345388589e+00
 2.9373182406e+00	 1.8046311997e-01	 1.4186392722e+00
 2.9329339109e+00	 2.4146188329e-01	 1.3918161335e+00
 2.9272346527e+00	 3.0282395878e-01	 1.3553146044e+00
 2.9201945965e+00	 3.6451149470e-01	 1.3108738849e+00
 2.9117891198e+00	 4.2648499807e-01	 1.2595043287e+00
 2.9019949563e+00	 4.8870337349e-01	 1.2007271175e+00
 2.8907903057e+00	 5.5112396988e-01	 1.1354504292e+00
 2.8781549412e+00	 6.1370263515e-01	 1.0647835093e+00
 2.9714284753e+00	 0.0000000000e+00	 1.4328636936e+00
 2.9708169958e+00	 6.0278154473e-02	 1.4553521638e+00
 2.9689626405e+00	 1.2102758613e-01	 1.4601653539e+00
 2.9658361693e+00	 1.8221520604e-01	 1.4494080658e+00
 2.9614092728e+00	 2.4380619610e-01	 1.4253252414e+00
 2.9556546815e+00	 3.0576402565e-01	 1.3889547909e+00
 2.9485462746e+00	 3.6805047548e-01	 1.3420145039e+00
 2.9400591905e+00	 4.3062566916e-01	 1.2859649250e+00
 2.9301699372e+00	 4.9344811233e-01	 1.2214530511e+00
 2.9188565025e+00	 5.5647473978e-01	 1.1502636629e+00
 2.9060984633e+00	 6.1966097079e-01	 1.0743947294e+00
 3.0000000000e+00	 0.0000000000e+00	 1.5016829438e+00
 2.9993826408e+00	 6.0857754080e-02	 1.5381062217e+00
 2.9975104552e+00	 1.2219131687e-01	 1.5486920266e+00
 2.9943539216e+00	 1.8396728128e-01	 1.5365228923e+00
 2.9898844587e+00	 2.4615049440e-01	 1.5049236163e+00
 2.9840745346e+00	 3.0870407434e-01	 1.4575764392e+00
 2.9768977774e+00	 3.7158943437e-01	 1.3986680067e+00
 2.9683290864e+00	 4.3476631466e-01	 1.3318894017e+00
 2.9583447438e+00	 4.9819282183e-01	 1.2599314593e+00
 2.9469225257e+00	 5.6182547660e-01	 1.1816856080e+00
 2.9340418127e+00	 6.2561926959e-01	 1.0992427006e+00
 2.6546032823e+00	 5.6603520758e-01	 1.3580957424e+00
 2.6416135931e+00	 6.2385297377e-01	 1.2505704798e+00
 2.6272719415e+00	 6.8173122969e-01	 1.1319661171e+00
 2.6115646102e+00	 7.3962555313e-01	 1.0051706892e+00
 2.5944797105e+00	 7.9749041847e-01	 8.7160117892e-01
 2.5760072686e+00	 8.5527928458e-01	 7.3911838010e-01
 2.5561393069e+00	 9.1294468973e-01	 6.1622585172e-01
 2.5348699202e+00	 9.7043835354e-01	 5.0066933501e-01
 2.5121953460e+00	 1.0277112854e+00	 3.8853369345e-01
 2.4881140284e+00	 1.0847138993e+00	 2.7473016658e-01
 2.4626266744e+00	 1.1413961340e+00	 1.5505078098e-01
 2.6825473652e+00	 5.7199366279e-01	 1.3003181008e+00
 2.6694209381e+00	 6.3042005643e-01	 1.2036543421e+00
 2.6549283169e+00	 6.8890757657e-01	 1.0958186937e+00
 2.6390556400e+00	 7.4741133336e-01	 9.7925852607e-01
 2.6217908935e+00	 8.0588532196e-01	 8.5489664774e-01
 2.6031239987e+00	 8.6428251130e-01	 7.2577043398e-01
 2.5830468939e+00	 9.2255494007e-01	 5.9692489204e-01
 2.5615536117e+00	 9.8065381962e-01	 4.7770175058e-01
 2.5386403502e+00	 1.0385296437e+00	 3.6526554929e-01
 2.5143055370e+00	 1.0961323042e+00	 2.5344646224e-01
 2.4885498865e+00	 1.1534112130e+00	 1.3807956076e-01
 2.7104914578e+00	 5.7795212008e-01	 1.2452077360e+00
 2.6972282927e+00	 6.3698714140e-01	 1.1572251777e+00
 2.6825847020e+00	 6.9608392597e-01	 1.0582379710e+00
 2.6665466794e+00	 7.5519711632e-01	 9.5022034876e-01
 2.6491020861e+00	 8.1428022839e-01	 8.3373634942e-01
 2.6302407382e+00	 8.7328574118e-01	 7.1182524011e-01
 2.6099544902e+00	 9.3216519376e-01	 5.8787553927e-01
 2.5882373126e+00	 9.9086928928e-01	 4.6452984781e-01
 2.5650853637e+00	 1.0493480057e+00	 3.4808798362e-01
 2.5404970547e+00	 1.1075507130e+00	 2.3536893207e-01
 2.5144731077e+00	 1.1654262962e+00	 1.2251488652e-01
 2.7384355374e+00	 5.8391057460e-01	 1.1945129048e+00
 2.7250356345e+00	 6.4355422330e-01	 1.1131451347e+00
 2.7102410741e+00	 7.0326027201e-01	 1.0211826820e+00
 2.6940377060e+00	 7.6298289564e-01	 9.2010145092e-01
 2.6764132659e+00	 8.2267513090e-01	 8.1022215736e-01
 2.6573574651e+00	 8.8228896686e-01	 6.9449664260e-01
 2.6368620740e+00	 9.4177544298e-01	 5.7594120714e-01
 2.6149210010e+00	 1.0010847542e+00	 4.5668513878e-01
 2.5915303648e+00	 1.0601663627e+00	 3.3761486584e-01
 2.5666885602e+00	 1.1189691166e+00	 2.2125569238e-01
 2.5403963167e+00	 1.1774413738e+00	 1.0904176306e-01
 2.7663795812e+00	 5.8986902147e-01	 1.1499279885e+00
 2.7528429405e+00	 6.5012129678e-01	 1.0732180755e+00
 2.7378974108e+00	 7.1043660885e-01	 9.8654954359e-01
 2.7215286973e+00	 7.7076866497e-01	 8.9088269573e-01
 2.7037244107e+00	 8.3107002263e-01	 7.8638632784e-01
 2.6844741572e+00	 8.9129218098e-01	 6.7584406733e-01
 2.6637696233e+00	 9.5138567986e-01	 5.6190929947e-01
 2.6416046552e+00	 1.0113002059e+00	 4.4640866669e-01
 2.6179753320e+00	 1.0709847058e+00	 3.2997018708e-01
 2.5928800321e+00	 1.1303875055e+00	 2.1197226306e-01
 2.5663194925e+00	 1.1894564360e+00	 9.8329314445e-02
 2.7943235663e+00	 5.9582745582e-01	 1.1130951994e+00
 2.7806501881e+00	 6.5668835646e-01	 1.0391915634e+00
 2.7655536894e+00	 7.1761293061e-01	 9.5617549004e-01
 2.7490196309e+00	 7.7855441796e-01	 8.6448173809e-01
 2.7310354981e+00	 8.3946489674e-01	 7.6419325491e-01
 2.7115907924e+00	 9.0029537620e-01	 6.5785468296e-01
 2.6906771161e+00	 9.6099589656e-01	 5.4776557504e-01
 2.6682882533e+00	 1.0215156363e+00	 4.3546307459e-01
 2.6444202436e+00	 1.0818030262e+00	 3.2134215461e-01
 2.6190714490e+00	 1.1418058704e+00	 2.0510551354e-01
 2.5922426139e+00	 1.2014714730e+00	 9.1028007360e-02
 2.8222674698e+00	 6.0178587280e-01	 1.0856062320e+00
 2.8084573546e+00	 6.6325539700e-01	 1.0127587853e+00
 2.7932098873e+00	 7.2478923145e-01	 9.3183983513e-01
 2.7765104843e+00	 7.8634014823e-01	 8.4275463391e-01
 2.7583465059e+00	 8.4785974636e-01	 7.4554114567e-01
 2.7387073484e+00	 9.0929854516e-01	 6.4244510009e-01
 2.7175845304e+00	 9.7060608523e-01	 5.3542104828e-01
 2.6949717737e+00	 1.0317310368e+00	 4.2572998066e-01
 2.6708650781e+00	 1.0926213151e+00	 3.1355166552e-01
 2.6452627895e+00	 1.1532242021e+00	 1.9905534139e-01
 2.6181656596e+00	 1.2134864749e+00	 8.6278259039e-02
 2.8502112691e+00	 6.0774426753e-01	 1.0690038639e+00
 2.8362644173e+00	 6.6982241301e-01	 9.9556041567e-01
 2.8208659820e+00	 7.3196550549e-01	 9.1526636870e-01
 2.8040012350e+00	 7.9412584944e-01	 8.2749737844e-01
 2.7856574117e+00	 8.5625456464e-01	 7.3226362156e-01
 2.7658238032e+00	 9.1830168050e-01	 6.3146299505e-01
 2.7444918442e+00	 9.8021623802e-01	 5.2671359394e-01
 2.7216551944e+00	 1.0419463992e+00	 4.1901377828e-01
 2.6973098139e+00	 1.1034395635e+00	 3.0834661858e-01
 2.6714540323e+00	 1.1646424911e+00	 1.9541021210e-01
 2.6440886086e+00	 1.2255014320e+00	 8.3663168085e-02
 2.8781549412e+00	 6.1370263515e-01	 1.0647835093e+00
 2.8640713535e+00	 6.7638939914e-01	 9.8918642544e-01
 2.8485219509e+00	 7.3914174688e-01	 9.0812539146e-01
 2.8314918607e+00	 8.0191151523e-01	 8.2044737851e-01
 2.8129681932e+00	 8.6464934473e-01	 7.2613125051e-01
 2.7929401347e+00	 9.2730477488e-01	 6.2668866352e-01
 2.7713990357e+00	 9.8982634709e-01	 5.2340948216e-01
 2.7483384937e+00	 1.0521617151e+00	 4.1704311157e-01
 2.7237544294e+00	 1.1142577628e+00	 3.0739968833e-01
 2.6976451558e+00	 1.1760607281e+00	 1.9567302217e-01
 2.6700114396e+00	 1.2375163344e+00	 8.4554034405e-02
 2.9060984633e+00	 6.1966097079e-01	 1.0743947294e+00
 2.8918781405e+00	 6.8295635003e-01	 9.9517783885e-01
 2.8761777713e+00	 7.4631794976e-01	 9.1202747141e-01
 2.8589823389e+00	 8.0969713922e-01	 8.2328486304e-01
 2.8402788282e+00	 8.7304407976e-01	 7.2885301479e-01
 2.8200563206e+00	 9.3630782094e-01	 6.2983650874e-01
 2.7983060827e+00	 9.9943640458e-01	 5.2720484871e-01
 2.7750216498e+00	 1.0623769762e+00	 4.2147228811e-01
 2.7501989030e+00	 1.1250759039e+00	 3.1236075154e-01
 2.7238361388e+00	 1.1874789039e+00	 2.0126570434e-01
 2.6959341315e+00	 1.2495311723e+00	 9.0244339442e-02
 2.9340418127e+00	 6.2561926959e-01	 1.0992427006e+00
 2.9196847555e+00	 6.8952326031e-01	 1.0150284429e+00
 2.9038334207e+00	 7.5349410826e-01	 9.2852781075e-01
 2.8864726470e+00	 8.1748271508e-01	 8.3763423606e-01
 2.8675892943e+00	 8.8143876288e-01	 7.4207771884e-01
 2.8471723389e+00	 9.4531081133e-01	 6.4255646865e-01
 2.8252129633e+00	 1.0090464026e+00	 5.3972710466e-01
 2.8017046409e+00	 1.0725921741e+00	 4.3388263333e-01
 2.7766432130e+00	 1.1358939782e+00	 3.2471555685e-01
 2.7500269599e+00	 1.1988970090e+00	 2.1353378311e-01
 2.7218566632e+00	 1.2615459359e+00	 1.0195419542e-01
 2.4626266744e+00	 1.1413961340e+00	 1.5505078098e-01
 2.4357343745e+00	 1.1977115046e+00	 3.5269028145e-02
 2.4074442497e+00	 1.2536053788e+00	-8.3072141416e-02
 2.3777640747e+00	 1.3090270171e+00	-2.0109481174e-01
 2.3467040327e+00	 1.3639257340e+00	-3.1993145147e-01
 2.3142767290e+00	 1.4182510391e+00	-4.4104904444e-01
 2.2804971949e+00	 1.4719527794e+00	-5.6665970688e-01
 2.2453828809e+00	 1.5249812844e+00	-6.9373925582e-01
 2.2089536405e+00	 1.5772875098e+00	-8.0987754710e-01
 2.1712317030e+00	 1.6288231821e+00	-9.0604360817e-01
 2.1322416365e+00	 1.6795409412e+00	-9.8366517708e-01
 2.4885498865e+00	 1.1534112130e+00	 1.3807956076e-01
 2.4613745007e+00	 1.2103193959e+00	 2.3829004362e-02
 2.4327865757e+00	 1.2668016454e+00	-8.8970996315e-02
 2.4027939678e+00	 1.3228066879e+00	-2.0189296210e-01
 2.3714069675e+00	 1.3782833045e+00	-3.1643329121e-01
 2.3386383129e+00	 1.4331804731e+00	-4.3435852540e-01
 2.3045031934e+00	 1.4874475129e+00	-5.5804900494e-01
 2.2690192433e+00	 1.5410342305e+00	-6.8015820280e-01
 2.2322065250e+00	 1.5938910652e+00	-7.9283596895e-01
 2.1940875018e+00	 1.6459692356e+00	-8.9142370119e-01
 2.1546870006e+00	 1.6972208829e+00	-9.7048925323e-01
 2.5144731077e+00	 1.1654262962e+00	 1.2251488652e-01
 2.4870146359e+00	 1.2229272916e+00	 1.2217201417e-02
 2.4581289105e+00	 1.2799979166e+00	-9.6190341285e-02
 2.4278238697e+00	 1.3365863636e+00	-2.0480461386e-01
 2.3961099111e+00	 1.3926408800e+00	-3.1554703483e-01
 2.3629999054e+00	 1.4481099123e+00	-4.3053321617e-01
 2.3285092004e+00	 1.5029422519e+00	-5.5138661211e-01
 2.2926556140e+00	 1.5570871822e+00	-6.6861634560e-01
 2.2554594176e+00	 1.6104946265e+00	-7.7736723299e-01
 2.2169433087e+00	 1.6631152951e+00	-8.7544320432e-01
 2.1771323724e+00	 1.7149008308e+00	-9.5658333966e-01
 2.5403963167e+00	 1.1774413738e+00	 1.0904176306e-01
 2.5126547591e+00	 1.2355351814e+00	 1.1466704230e-03
 2.4834712335e+00	 1.2931941816e+00	-1.0399210641e-01
 2.4528537598e+00	 1.3503660328e+00	-2.0906779614e-01
 2.4208128430e+00	 1.4069984488e+00	-3.1648512741e-01
 2.3873614865e+00	 1.4630393446e+00	-4.2875470203e-01
 2.3525151962e+00	 1.5184369836e+00	-5.4587509645e-01
 2.3162919737e+00	 1.5731401264e+00	-6.5861280376e-01
 2.2787122995e+00	 1.6270981801e+00	-7.6376363250e-01
 2.2397991049e+00	 1.6802613467e+00	-8.5906065678e-01
 2.1995777338e+00	 1.7325807705e+00	-9.4186636911e-01
 2.5663194925e+00	 1.1894564360e+00	 9.8329314445e-02
 2.5382948495e+00	 1.2481430550e+00	-8.6894834829e-03
 2.5088135240e+00	 1.3063904298e+00	-1.1166345654e-01
 2.4778836179e+00	 1.3641456844e+00	-2.1395216825e-01
 2.4455157433e+00	 1.4213559992e+00	-3.1849899328e-01
 2.4117230364e+00	 1.4779687578e+00	-4.2825166420e-01
 2.3765211611e+00	 1.5339316954e+00	-5.4105478184e-01
 2.3399283030e+00	 1.5891930500e+00	-6.4971436717e-01
 2.3019651514e+00	 1.6437017123e+00	-7.5161444167e-01
 2.2626548717e+00	 1.6974073762e+00	-8.4434466724e-01
 2.2220230664e+00	 1.7502606874e+00	-9.2634959389e-01
 2.5922426139e+00	 1.2014714730e+00	 9.1028007360e-02
 2.5639348859e+00	 1.2607509022e+00	-1.6621571390e-02
 2.5341557612e+00	 1.3195866502e+00	-1.1852097340e-01
 2.5029134234e+00	 1.3779253070e+00	-2.1876392529e-01
 2.4702185917e+00	 1.4357135195e+00	-3.2088466913e-01
 2.4360845351e+00	 1.4928981395e+00	-4.2811456434e-01
 2.4005270757e+00	 1.5494263747e+00	-5.3652847185e-01
 2.3635645828e+00	 1.6052459400e+00	-6.4154884381e-01
 2.3252179546e+00	 1.6603052097e+00	-7.4057004904e-01
 2.2855105906e+00	 1.7145533697e+00	-8.3105573229e-01
 2.2444683519e+00	 1.7679405672e+00	-9.1124659514e-01
 2.6181656596e+00	 1.2134864749e+00	 8.6278259039e-02
 2.5895748476e+00	 1.2733587125e+00	-2.2006839730e-02
 2.5594979245e+00	 1.3327828321e+00	-1.2391487758e-01
 2.5279431559e+00	 1.3917048894e+00	-2.2285073498e-01
 2.4949213681e+00	 1.4500709979e+00	-3.2298846085e-01
 2.4604459627e+00	 1.5078274778e+00	-4.2738964848e-01
 2.4245329202e+00	 1.5649210088e+00	-5.3195477846e-01
 2.3872007935e+00	 1.6212987830e+00	-6.3379841532e-01
 2.3484706899e+00	 1.6769086587e+00	-7.3033536446e-01
 2.3083662428e+00	 1.7316993132e+00	-8.1891911067e-01
 2.2669135719e+00	 1.7856203955e+00	-8.9758842839e-01
 2.6440886086e+00	 1.2255014320e+00	 8.3663168085e-02
 2.6152147136e+00	 1.2859664758e+00	-2.4592100745e-02
 2.5848399933e+00	 1.3459789647e+00	-1.2723328727e-01
 2.5529727949e+00	 1.4054844204e+00	-2.2560670353e-01
 2.5196240522e+00	 1.4644284226e+00	-3.2421262196e-01
 2.4848072994e+00	 1.5227567603e+00	-4.2574297627e-01
 2.4485386752e+00	 1.5804155851e+00	-5.2704146239e-01
 2.4108369161e+00	 1.6373515662e+00	-6.2619299996e-01
 2.3717233384e+00	 1.6935120456e+00	-7.2066323050e-01
 2.3312218096e+00	 1.7488451927e+00	-8.0770980779e-01
 2.2893587081e+00	 1.8033001577e+00	-8.8516920001e-01
 2.6700114396e+00	 1.2375163344e+00	 8.4554034405e-02
 2.6408544630e+00	 1.2985741818e+00	-2.3979007785e-02
 2.6101819467e+00	 1.3591750373e+00	-1.2777079035e-01
 2.5780023201e+00	 1.4192638887e+00	-2.2647736812e-01
 2.5443266240e+00	 1.4787857821e+00	-3.2402105195e-01
 2.5091685252e+00	 1.5376859749e+00	-4.2290704394e-01
 2.4725443209e+00	 1.5959100908e+00	-5.2153878439e-01
 2.4344729311e+00	 1.6534042763e+00	-6.1850362256e-01
 2.3949758812e+00	 1.7101153571e+00	-7.1134783787e-01
 2.3540772725e+00	 1.7659909942e+00	-7.9724606197e-01
 2.3118037422e+00	 1.8209798395e+00	-8.7382968298e-01
 2.6959341315e+00	 1.2495311723e+00	 9.0244339442e-02
 2.6664940747e+00	 1.3111818201e+00	-1.9020643755e-02
 2.6355237641e+00	 1.3723710391e+00	-1.2437216586e-01
 2.6030317110e+00	 1.4330432831e+00	-2.2483306435e-01
 2.5690290632e+00	 1.4931430645e+00	-3.2188262217e-01
 2.5335296203e+00	 1.5526151093e+00	-4.1865320575e-01
 2.4965498377e+00	 1.6114045134e+00	-5.1523286677e-01
 2.4581088192e+00	 1.6694569003e+00	-6.1053579108e-01
 2.4182282991e+00	 1.7267185794e+00	-7.0221814491e-01
 2.3769326128e+00	 1.7831367037e+00	-7.8738283316e-01
 2.3342486558e+00	 1.8386594265e+00	-8.6345096464e-01
 2.7218566632e+00	 1.2615459359e+00	 1.0195419542e-01
 2.6921335279e+00	 1.3237893804e+00	-8.6324655331e-03
 2.6608654249e+00	 1.3855669593e+00	-1.1607225049e-01
 2.6280609470e+00	 1.4468225922e+00	-2.1898820652e-01
 2.5937313496e+00	 1.5075002581e+00	-3.1737375941e-01
 2.5578905648e+00	 1.5675441515e+00	-4.1278506313e-01
 2.5205552062e+00	 1.6268988402e+00	-5.0793906475e-01
 2.4817445612e+00	 1.6855094250e+00	-6.0212287968e-01
 2.4414805733e+00	 1.7433216991e+00	-6.9313130083e-01
 2.3997878117e+00	 1.8002823072e+00	-7.7800529386e-01
 2.3566934307e+00	 1.8563389041e+00	-8.5395683293e-01
 2.1322416365e+00	 1.6795409412e+00	-9.8366517708e-01
 2.0920102946e+00	 1.7293944861e+00	-1.0484649097e+00
 2.0505667407e+00	 1.7783387262e+00	-1.1057383626e+00
 2.0079421987e+00	 1.8263299008e+00	-1.1598718249e+00
 1.9641699824e+00	 1.8733257043e+00	-1.2146156504e+00
 1.9192854089e+00	 1.9192854089e+00	-1.2619635997e+00
 1.8733257043e+00	 1.9641699824e+00	-1.2977724930e+00
 1.8263299008e+00	 2.0079421987e+00	-1.3192031151e+00
 1.7783387262e+00	 2.0505667407e+00	-1.3230390873e+00
 1.7293944861e+00	 2.0920102946e+00	-1.3112035640e+00
 1.6795409412e+00	 2.1322416365e+00	-1.2860700582e+00
 2.1546870006e+00	 1.6972208829e+00	-9.7048925323e-01
 2.1140321573e+00	 1.7475992187e+00	-1.0356041661e+00
 2.0721523416e+00	 1.7970586777e+00	-1.0926287526e+00
 2.0290791059e+00	 1.8455550387e+00	-1.1467475937e+00
 1.9848461147e+00	 1.8930455506e+00	-1.1989147905e+00
 1.9394890569e+00	 1.9394890569e+00	-1.2423516039e+00
 1.8930455506e+00	 1.9848461147e+00	-1.2748969117e+00
 1.8455550387e+00	 2.0290791059e+00	-1.2945989409e+00
 1.7970586777e+00	 2.0721523416e+00	-1.2982471278e+00
 1.7475992187e+00	 2.1140321573e+00	-1.2866769808e+00
 1.6972208829e+00	 2.1546870006e+00	-1.2629388048e+00
 2.1771323724e+00	 1.7149008308e+00	-9.5658333966e-01
 2.1360540277e+00	 1.7658039577e+00	-1.0225317729e+00
 2.0937379500e+00	 1.8157786357e+00	-1.0797088875e+00
 2.0502160205e+00	 1.8647801833e+00	-1.1337580540e+00
 2.0055222543e+00	 1.9127654038e+00	-1.1825060898e+00
 1.9596927121e+00	 1.9596927121e+00	-1.2226622436e+00
 1.9127654038e+00	 2.0055222543e+00	-1.2524648422e+00
 1.8647801833e+00	 2.0502160205e+00	-1.2702738939e+00
 1.8157786357e+00	 2.0937379500e+00	-1.2741919020e+00
 1.7658039577e+00	 2.1360540277e+00	-1.2633973502e+00
 1.7149008308e+00	 2.1771323724e+00	-1.2414637328e+00
 2.1995777338e+00	 1.7325807705e+00	-9.4186636911e-01
 2.1580758879e+00	 1.7840086881e+00	-1.0090949040e+00
 2.1153235483e+00	 1.8344985851e+00	-1.0667383763e+00
 2.0713529252e+00	 1.8840053189e+00	-1.1197454903e+00
 2.0261983842e+00	 1.9324852478e+00	-1.1656413857e+00
 1.9798963578e+00	 1.9798963578e+00	-1.2030914611e+00
 1.9324852478e+00	 2.0261983842e+00	-1.2306157382e+00
 1.8840053189e+00	 2.0713529252e+00	-1.2468175890e+00
 1.8344985851e+00	 2.1153235483e+00	-1.2507918139e+00
 1.7840086881e+00	 2.1580758879e+00	-1.2411540715e+00
 1.7325807705e+00	 2.1995777338e+00	-1.2212784182e+00
 2.2220230664e+00	 1.7502606874e+00	-9.2634959389e-01
 2.1800977198e+00	 1.8022133952e+00	-9.9523660180e-01
 2.1369091190e+00	 1.8532185104e+00	-1.0535741841e+00
 2.0924898028e+00	 1.9032304299e+00	-1.1049993095e+00
 2.0468744876e+00	 1.9522050665e+00	-1.1486510357e+00
 2.0000999776e+00	 2.0000999776e+00	-1.1839179548e+00
 1.9522050665e+00	 2.0468744876e+00	-1.2095774344e+00
 1.9032304299e+00	 2.0924898028e+00	-1.2244445083e+00
 1.8532185104e+00	 2.1369091190e+00	-1.2280679838e+00
 1.8022133952e+00	 2.1800977198e+00	-1.2198361216e+00
 1.7502606874e+00	 2.2220230664e+00	-1.2021117868e+00
 2.2444683519e+00	 1.7679405672e+00	-9.1124659514e-01
 2.2021195054e+00	 1.8204180641e+00	-9.8099822311e-01
 2.1584946443e+00	 1.8719383964e+00	-1.0398816784e+00
 2.1136266360e+00	 1.9224555005e+00	-1.0899687712e+00
 2.0675505476e+00	 1.9719248438e+00	-1.1319324690e+00
 2.0203035550e+00	 2.0203035550e+00	-1.1654919109e+00
 1.9719248438e+00	 2.0675505476e+00	-1.1896551106e+00
 1.9224555005e+00	 2.1136266360e+00	-1.2034140622e+00
 1.8719383964e+00	 2.1584946443e+00	-1.2064921828e+00
 1.8204180641e+00	 2.2021195054e+00	-1.1994464098e+00
 1.7679405672e+00	 2.2444683519e+00	-1.1836044519e+00
 2.2669135719e+00	 1.7856203955e+00	-8.9758842839e-01
 2.2241412268e+00	 1.8386226798e+00	-9.6652781699e-01
 2.1800801067e+00	 1.8906582278e+00	-1.0258428106e+00
 2.1347634076e+00	 1.9416805150e+00	-1.0751558146e+00
 2.0882265472e+00	 1.9916445636e+00	-1.1159387441e+00
 2.0405070735e+00	 2.0405070735e+00	-1.1482237434e+00
 1.9916445636e+00	 2.0882265472e+00	-1.1712202662e+00
 1.9416805150e+00	 2.1347634076e+00	-1.1840593747e+00
 1.8906582278e+00	 2.1800801067e+00	-1.1865959054e+00
 1.8386226798e+00	 2.2241412268e+00	-1.1801181712e+00
 1.7856203955e+00	 2.2669135719e+00	-1.1662627153e+00
 2.2893587081e+00	 1.8033001577e+00	-8.8516920001e-01
 2.2461628660e+00	 1.8568272276e+00	-9.5285377420e-01
 2.2016654885e+00	 1.9093779893e+00	-1.0120561905e+00
 2.1559001003e+00	 1.9609054577e+00	-1.0611034923e+00
 2.1089024697e+00	 2.0113642097e+00	-1.1011671118e+00
 2.0607105165e+00	 2.0607105165e+00	-1.1325728411e+00
 2.0113642097e+00	 2.1089024697e+00	-1.1546997018e+00
 1.9609054577e+00	 2.1559001003e+00	-1.1667765513e+00
 1.9093779893e+00	 2.2016654885e+00	-1.1687425116e+00
 1.8568272276e+00	 2.2461628660e+00	-1.1626068166e+00
 1.8033001577e+00	 2.2893587081e+00	-1.1512180611e+00
 2.3118037422e+00	 1.8209798395e+00	-8.7382968298e-01
 2.2681844050e+00	 1.8750316926e+00	-9.4059877987e-01
 2.2232507721e+00	 1.9280976657e+00	-9.9914960574e-01
 2.1770366968e+00	 1.9801303130e+00	-1.0483844075e+00
 2.1295782981e+00	 2.0310837662e+00	-1.0881475827e+00
 2.0809138676e+00	 2.0809138676e+00	-1.1190363203e+00
 2.0310837662e+00	 2.1295782981e+00	-1.1405645109e+00
 1.9801303130e+00	 2.1770366968e+00	-1.1520139560e+00
 1.9280976657e+00	 2.2232507721e+00	-1.1533582726e+00
 1.8750316926e+00	 2.2681844050e+00	-1.1484960619e+00
 1.8209798395e+00	 2.3118037422e+00	-1.1395999206e+00
 2.3342486558e+00	 1.8386594265e+00	-8.6345096464e-01
 2.2902058259e+00	 1.8932360599e+00	-9.2990799204e-01
 2.2448359398e+00	 1.9468172415e+00	-9.8811142312e-01
 2.1981731798e+00	 1.9993550651e+00	-1.0375891556e+00
 2.1502540156e+00	 2.0508032168e+00	-1.0774315013e+00
 2.1011171103e+00	 2.1011171103e+00	-1.1081377854e+00
 2.0508032168e+00	 2.1502540156e+00	-1.1293190782e+00
 1.9993550651e+00	 2.1981731798e+00	-1.1402614985e+00
 1.9468172415e+00	 2.2448359398e+00	-1.1416897913e+00
 1.8932360599e+00	 2.2902058259e+00	-1.1389875974e+00
 1.8386594265e+00	 2.3342486558e+00	-1.1325224666e+00
 2.3566934307e+00	 1.8563389041e+00	-8.5395683293e-01
 2.3122271105e+00	 1.9114403146e+00	-9.2093025751e-01
 2.2664209741e+00	 1.9655367017e+00	-9.7953733889e-01
 2.2193095322e+00	 2.0185796984e+00	-1.0293147700e+00
 2.1709296052e+00	 2.0705225455e+00	-1.0695801235e+00
 2.1213202280e+00	 2.1213202280e+00	-1.1004160949e+00
 2.0705225455e+00	 2.1709296052e+00	-1.1214900874e+00
 2.0185796984e+00	 2.2193095322e+00	-1.1320399313e+00
 1.9655367017e+00	 2.2664209741e+00	-1.1351778956e+00
 1.9114403146e+00	 2.3122271105e+00	-1.1350627908e+00
 1.8563389041e+00	 2.3566934307e+00	-1.1310781411e+00
 1.6795409412e+00	 2.1322416365e+00	-1.2860700582e+00
 1.6288231821e+00	 2.1712317030e+00	-1.2549681575e+00
 1.5772875098e+00	 2.2089536405e+00	-1.2270172595e+00
 1.5249812844e+00	 2.2453828809e+00	-1.2047610269e+00
 1.4719527794e+00	 2.2804971949e+00	-1.1796625177e+00
 1.4182510391e+00	 2.3142767290e+00	-1.1418054543e+00
 1.3639257340e+00	 2.3467040327e+00	-1.0895819668e+00
 1.3090270171e+00	 2.3777640747e+00	-1.0260813151e+00
 1.2536053788e+00	 2.4074442497e+00	-9.5419599093e-01
 1.1977115046e+00	 2.4357343745e+00	-8.7680905394e-01
 1.1413961340e+00	 2.4626266744e+00	-7.9690231623e-01
 1.6972208829e+00	 2.1546870006e+00	-1.2629388048e+00
 1.6459692356e+00	 2.1940875018e+00	-1.2346205116e+00
 1.5938910652e+00	 2.2322065250e+00	-1.2106005239e+00
 1.5410342305e+00	 2.2690192433e+00	-1.1870306702e+00
 1.4874475129e+00	 2.3045031934e+00	-1.1597885475e+00
 1.4331804731e+00	 2.3386383129e+00	-1.1226180718e+00
 1.3782833045e+00	 2.3714069675e+00	-1.0701141357e+00
 1.3228066879e+00	 2.4027939678e+00	-1.0055130874e+00
 1.2668016454e+00	 2.4327865757e+00	-9.3200710599e-01
 1.2103193959e+00	 2.4613745007e+00	-8.5285814456e-01
 1.1534112130e+00	 2.4885498865e+00	-7.7150656972e-01
 1.7149008308e+00	 2.1771323724e+00	-1.2414637328e+00
 1.6631152951e+00	 2.2169433087e+00	-1.2162484090e+00
 1.6104946265e+00	 2.2554594176e+00	-1.1933201604e+00
 1.5570871822e+00	 2.2926556140e+00	-1.1681317784e+00
 1.5029422519e+00	 2.3285092004e+00	-1.1388504456e+00
 1.4481099123e+00	 2.3629999054e+00	-1.1017216353e+00
 1.3926408800e+00	 2.3961099111e+00	-1.0490915861e+00
 1.3365863636e+00	 2.4278238697e+00	-9.8355325520e-01
 1.2799979166e+00	 2.4581289105e+00	-9.0867908094e-01
 1.2229272916e+00	 2.4870146359e+00	-8.2820564637e-01
 1.1654262962e+00	 2.5144731077e+00	-7.4614220850e-01
 1.7325807705e+00	 2.1995777338e+00	-1.2212784182e+00
 1.6802613467e+00	 2.2397991049e+00	-1.1986809097e+00
 1.6270981801e+00	 2.2787122995e+00	-1.1752097063e+00
 1.5731401264e+00	 2.3162919737e+00	-1.1488211798e+00
 1.5184369836e+00	 2.3525151962e+00	-1.1177804922e+00
 1.4630393446e+00	 2.3873614865e+00	-1.0798950127e+00
 1.4069984488e+00	 2.4208128430e+00	-1.0272727135e+00
 1.3503660328e+00	 2.4528537598e+00	-9.6095238586e-01
 1.2931941816e+00	 2.4834712335e+00	-8.8496756866e-01
 1.2355351814e+00	 2.5126547591e+00	-8.0362613425e-01
 1.1774413738e+00	 2.5403963167e+00	-7.2161814574e-01
 1.7502606874e+00	 2.2220230664e+00	-1.2021117868e+00
 1.6974073762e+00	 2.2626548717e+00	-1.1807427454e+00
 1.6437017123e+00	 2.3019651514e+00	-1.1571499616e+00
 1.5891930500e+00	 2.3399283030e+00	-1.1299287496e+00
 1.5339316954e+00	 2.3765211611e+00	-1.0973771332e+00
 1.4779687578e+00	 2.4117230364e+00	-1.0579936295e+00
 1.4213559992e+00	 2.4455157433e+00	-1.0054880392e+00
 1.3641456844e+00	 2.4778836179e+00	-9.3852684484e-01
 1.3063904298e+00	 2.5088135240e+00	-8.6168578550e-01
 1.2481430550e+00	 2.5382948495e+00	-7.7994162458e-01
 1.1894564360e+00	 2.5663194925e+00	-6.9877877902e-01
 1.7679405672e+00	 2.2444683519e+00	-1.1836044519e+00
 1.7145533697e+00	 2.2855105906e+00	-1.1633662700e+00
 1.6603052097e+00	 2.3252179546e+00	-1.1400755406e+00
 1.6052459400e+00	 2.3635645828e+00	-1.1123460143e+00
 1.5494263747e+00	 2.4005270757e+00	-1.0785077441e+00
 1.4928981395e+00	 2.4360845351e+00	-1.0371739635e+00
 1.4357135195e+00	 2.4702185917e+00	-9.8463965804e-01
 1.3779253070e+00	 2.5029134234e+00	-9.1715878433e-01
 1.3195866502e+00	 2.5341557612e+00	-8.3970506499e-01
 1.2607509022e+00	 2.5639348859e+00	-7.5802271541e-01
 1.2014714730e+00	 2.5922426139e+00	-6.7850573548e-01
 1.7856203955e+00	 2.2669135719e+00	-1.1662627153e+00
 1.7316993132e+00	 2.3083662428e+00	-1.1475857665e+00
 1.6769086587e+00	 2.3484706899e+00	-1.1249627821e+00
 1.6212987830e+00	 2.3872007935e+00	-1.0970147692e+00
 1.5649210088e+00	 2.4245329202e+00	-1.0620980341e+00
 1.5078274778e+00	 2.4604459627e+00	-1.0189214066e+00
 1.4500709979e+00	 2.4949213681e+00	-9.6570066642e-01
 1.3917048894e+00	 2.5279431559e+00	-8.9779609374e-01
 1.3327828321e+00	 2.5594979245e+00	-8.1995535349e-01
 1.2733587125e+00	 2.5895748476e+00	-7.3878964626e-01
 1.2134864749e+00	 2.6181656596e+00	-6.6179885080e-01
 1.8033001577e+00	 2.2893587081e+00	-1.1512180611e+00
 1.7488451927e+00	 2.3312218096e+00	-1.1344558160e+00
 1.6935120456e+00	 2.3717233384e+00	-1.1128176780e+00
 1.6373515662e+00	 2.4108369161e+00	-1.0849157100e+00
 1.5804155851e+00	 2.4485386752e+00	-1.0491214565e+00
 1.5227567603e+00	 2.4848072994e+00	-1.0042371727e+00
 1.4644284226e+00	 2.5196240522e+00	-9.4971456983e-01
 1.4054844204e+00	 2.5529727949e+00	-8.8145231473e-01
 1.3459789647e+00	 2.5848399933e+00	-8.0342565201e-01
 1.2859664758e+00	 2.6152147136e+00	-7.2425903921e-01
 1.2255014320e+00	 2.6440886086e+00	-6.5047835754e-01
 1.8209798395e+00	 2.3118037422e+00	-1.1395999206e+00
 1.7659909942e+00	 2.3540772725e+00	-1.1250386256e+00
 1.7101153571e+00	 2.3949758812e+00	-1.1046638188e+00
 1.6534042763e+00	 2.4344729311e+00	-1.0770570773e+00
 1.5959100908e+00	 2.4725443209e+00	-1.0405886245e+00
 1.5376859749e+00	 2.5091685252e+00	-9.9414643850e-01
 1.4787857821e+00	 2.5443266240e+00	-9.3779467280e-01
 1.4192638887e+00	 2.5780023201e+00	-8.6920652327e-01
 1.3591750373e+00	 2.6101819467e+00	-7.9223531099e-01
 1.2985741818e+00	 2.6408544630e+00	-7.1759908680e-01
 1.2375163344e+00	 2.6700114396e+00	-6.4665485591e-01
 1.8386594265e+00	 2.3342486558e+00	-1.1325224666e+00
 1.7831367037e+00	 2.3769326128e+00	-1.1203913746e+00
 1.7267185794e+00	 2.4182282991e+00	-1.1015303564e+00
 1.6694569003e+00	 2.4581088192e+00	-1.0744633133e+00
 1.6114045134e+00	 2.4965498377e+00	-1.0375367320e+00
 1.5526151093e+00	 2.5335296203e+00	-9.8971076943e-01
 1.4931430645e+00	 2.5690290632e+00	-9.3128437162e-01
 1.4330432831e+00	 2.6030317110e+00	-8.6268086213e-01
 1.3723710391e+00	 2.6355237641e+00	-7.9092910551e-01
 1.3111818201e+00	 2.6664940747e+00	-7.2070887652e-01
 1.2495311723e+00	 2.6959341315e+00	-6.5238264032e-01
 1.8563389041e+00	 2.3566934307e+00	-1.1310781411e+00
 1.8002823072e+00	 2.3997878117e+00	-1.1215535788e+00
 1.7433216991e+00	 2.4414805733e+00	-1.1044399821e+00
 1.6855094250e+00	 2.4817445612e+00	-1.0781637297e+00
 1.6268988402e+00	 2.5205552062e+00	-1.0410189800e+00
 1.5675441515e+00	 2.5578905648e+00	-9.9201836373e-01
 1.5075002581e+00	 2.5937313496e+00	-9.3168579699e-01
 1.4468225922e+00	 2.6280609470e+00	-8.6723944590e-01
 1.3855669593e+00	 2.6608654249e+00	-8.0135925989e-01
 1.3237893804e+00	 2.6921335279e+00	-7.3540725777e-01
 1.2615459359e+00	 2.7218566632e+00	-6.6965666561e-01
 1.1413961340e+00	 2.4626266744e+00	-7.9690231623e-01
 1.0847138993e+00	 2.4881140284e+00	-7.1226176470e-01
 1.0277112854e+00	 2.5121953460e+00	-6.2293152350e-01
 9.7043835354e-01	 2.5348699202e+00	-5.3456009942e-01
 9.1294468973e-01	 2.5561393069e+00	-4.5202571157e-01
 8.5527928458e-01	 2.5760072686e+00	-3.7917035044e-01
 7.9749041847e-01	 2.5944797105e+00	-3.1833355155e-01
 7.3962555313e-01	 2.6115646102e+00	-2.6154515293e-01
 6.8173122969e-01	 2.6272719415e+00	-2.0637377187e-01
 6.2385297377e-01	 2.6416135931e+00	-1.5597951617e-01
 5.6603520758e-01	 2.6546032823e+00	-1.0711799115e-01
 1.1534112130e+00	 2.4885498865e+00	-7.7150656972e-01
 1.0961323042e+00	 2.5143055370e+00	-6.8635660784e-01
 1.0385296437e+00	 2.5386403502e+00	-5.9809928949e-01
 9.8065381962e-01	 2.5615536117e+00	-5.1363017247e-01
 9.2255494007e-01	 2.5830468939e+00	-4.3866728611e-01
 8.6428251130e-01	 2.6031239987e+00	-3.7590533762e-01
 8.0588532196e-01	 2.6217908935e+00	-3.1641794832e-01
 7.4741133336e-01	 2.6390556400e+00	-2.5506354590e-01
 6.8890757657e-01	 2.6549283169e+00	-1.9274759493e-01
 6.3042005643e-01	 2.6694209381e+00	-1.3428793386e-01
 5.7199366279e-01	 2.6825473652e+00	-7.6737975234e-02
 1.1654262962e+00	 2.5144731077e+00	-7.4614220850e-01
 1.1075507130e+00	 2.5404970547e+00	-6.6190830940e-01
 1.0493480057e+00	 2.5650853637e+00	-5.7685247903e-01
 9.9086928928e-01	 2.5882373126e+00	-4.9932231407e-01
 9.3216519376e-01	 2.6099544902e+00	-4.3223209173e-01
 8.7328574118e-01	 2.6302407382e+00	-3.6934708335e-01
 8.1428022839e-01	 2.6491020861e+00	-3.0745862058e-01
 7.5519711632e-01	 2.6665466794e+00	-2.4291906696e-01
 6.9608392597e-01	 2.6825847020e+00	-1.7554729205e-01
 6.3698714140e-01	 2.6972282927e+00	-1.1133674190e-01
 5.7795212008e-01	 2.7104914578e+00	-4.7863682539e-02
 1.1774413738e+00	 2.5403963167e+00	-7.2161814574e-01
 1.1189691166e+00	 2.5666885602e+00	-6.3971891952e-01
 1.0601663627e+00	 2.5915303648e+00	-5.6003727243e-01
 1.0010847542e+00	 2.6149210010e+00	-4.8817660758e-01
 9.4177544298e-01	 2.6368620740e+00	-4.2131342254e-01
 8.8228896686e-01	 2.6573574651e+00	-3.5750102622e-01
 8.2267513090e-01	 2.6764132659e+00	-2.9399032249e-01
 7.6298289564e-01	 2.6940377060e+00	-2.2747681366e-01
 7.0326027201e-01	 2.7102410741e+00	-1.5694347302e-01
 6.4355422330e-01	 2.7250356345e+00	-8.9068520462e-02
 5.8391057460e-01	 2.7384355374e+00	-2.2163177570e-02
 1.1894564360e+00	 2.5663194925e+00	-6.9877877902e-01
 1.1303875055e+00	 2.5928800321e+00	-6.2053970245e-01
 1.0709847058e+00	 2.6179753320e+00	-5.4512244234e-01
 1.0113002059e+00	 2.6416046552e+00	-4.7420655581e-01
 9.5138567986e-01	 2.6637696233e+00	-4.0737381568e-01
 8.9129218098e-01	 2.6844741572e+00	-3.4294782777e-01
 8.3107002263e-01	 2.7037244107e+00	-2.7848836813e-01
 7.7076866497e-01	 2.7215286973e+00	-2.1104962763e-01
 7.1043660885e-01	 2.7378974108e+00	-1.3904106076e-01
 6.5012129678e-01	 2.7528429405e+00	-6.9362292368e-02
 5.8986902147e-01	 2.7663795812e+00	-1.2458499296e-03
 1.2014714730e+00	 2.5922426139e+00	-6.7850573548e-01
 1.1418058704e+00	 2.6190714490e+00	-6.0362355898e-01
 1.0818030262e+00	 2.6444202436e+00	-5.3005668443e-01
 1.0215156363e+00	 2.6682882533e+00	-4.5980143563e-01
 9.6099589656e-01	 2.6906771161e+00	-3.9298117401e-01
 9.0029537620e-01	 2.7115907924e+00	-3.2820832632e-01
 8.3946489674e-01	 2.7310354981e+00	-2.6337145484e-01
 7.7855441796e-01	 2.7490196309e+00	-1.9589856117e-01
 7.1761293061e-01	 2.7655536894e+00	-1.2388474969e-01
 6.5668835646e-01	 2.7806501881e+00	-5.4038150993e-02
 5.9582745582e-01	 2.7943235663e+00	 1.3333873426e-02
 1.2134864749e+00	 2.6181656596e+00	-6.6179885080e-01
 1.1532242021e+00	 2.6452627895e+00	-5.8929384935e-01
 1.0926213151e+00	 2.6708650781e+00	-5.1727660495e-01
 1.0317310368e+00	 2.6949717737e+00	-4.4746303556e-01
 9.7060608523e-01	 2.7175845304e+00	-3.8064463697e-01
 9.0929854516e-01	 2.7387073484e+00	-3.1574625658e-01
 8.4785974636e-01	 2.7583465059e+00	-2.5100432368e-01
 7.8634014823e-01	 2.7765104843e+00	-1.8423537696e-01
 7.2478923145e-01	 2.7932098873e+00	-1.1346432929e-01
 6.6325539700e-01	 2.8084573546e+00	-4.4861776485e-02
 6.0178587280e-01	 2.8222674698e+00	 2.0072898486e-02
 1.2255014320e+00	 2.6440886086e+00	-6.5047835754e-01
 1.1646424911e+00	 2.6714540323e+00	-5.7986067819e-01
 1.1034395635e+00	 2.6973098139e+00	-5.0916958029e-01
 1.0419463992e+00	 2.7216551944e+00	-4.3963656325e-01
 9.8021623802e-01	 2.7444918442e+00	-3.7281710292e-01
 9.1830168050e-01	 2.7658238032e+00	-3.0797081321e-01
 8.5625456464e-01	 2.7856574117e+00	-2.4370026849e-01
 7.9412584944e-01	 2.8040012350e+00	-1.7822490623e-01
 7.3196550549e-01	 2.8208659820e+00	-1.0971988201e-01
 6.6982241301e-01	 2.8362644173e+00	-4.3548847872e-02
 6.0774426753e-01	 2.8502112691e+00	 1.7515911400e-02
 1.2375163344e+00	 2.6700114396e+00	-6.4665485591e-01
 1.1760607281e+00	 2.6976451558e+00	-5.7758400967e-01
 1.1142577628e+00	 2.7237544294e+00	-5.0806373281e-01
 1.0521617151e+00	 2.7483384937e+00	-4.3871289366e-01
 9.8982634709e-01	 2.7713990357e+00	-3.7189760718e-01
 9.2730477488e-01	 2.7929401347e+00	-3.0723906895e-01
 8.6464934473e-01	 2.8129681932e+00	-2.4372350354e-01
 8.0191151523e-01	 2.8314918607e+00	-1.7998727519e-01
 7.3914174688e-01	 2.8485219509e+00	-1.1454686395e-01
 6.7638939914e-01	 2.8640713535e+00	-5.1769358081e-02
 6.1370263515e-01	 2.8781549412e+00	 4.2518974579e-03
 1.2495311723e+00	 2.6959341315e+00	-6.5238264032e-01
 1.1874789039e+00	 2.7238361388e+00	-5.8467142340e-01
 1.1250759039e+00	 2.7501989030e+00	-5.1615516348e-01
 1.0623769762e+00	 2.7750216498e+00	-4.4703068804e-01
 9.9943640458e-01	 2.7983060827e+00	-3.8023356528e-01
 9.3630782094e-01	 2.8200563206e+00	-3.1585825711e-01
 8.7304407976e-01	 2.8402788282e+00	-2.5329139947e-01
 8.0969713922e-01	 2.8589823389e+00	-1.9160000831e-01
 7.4631794976e-01	 2.8761777713e+00	-1.2976042174e-01
 6.8295635003e-01	 2.8918781405e+00	-7.1151838314e-02
 6.1966097079e-01	 2.9060984633e+00	-2.1089272971e-02
 1.2615459359e+00	 2.7218566632e+00	-6.6965666561e-01
 1.1988970090e+00	 2.7500269599e+00	-6.0327577395e-01
 1.1358939782e+00	 2.7766432130e+00	-5.3567078232e-01
 1.0725921741e+00	 2.8017046409e+00	-4.6687839274e-01
 1.0090464026e+00	 2.8252129633e+00	-4.0012289048e-01
 9.4531081133e-01	 2.8471723389e+00	-3.3608792734e-01
 8.8143876288e-01	 2.8675892943e+00	-2.7457659621e-01
 8.1748271508e-01	 2.8864726470e+00	-2.1510001685e-01
 7.5349410826e-01	 2.9038334207e+00	-1.5710865798e-01
 6.8952326031e-01	 2.9196847555e+00	-1.0328749775e-01
 6.2561926959e-01	 2.9340418127e+00	-5.9840195932e-02
 5.6603520758e-01	 2.6546032823e+00	-1.0711799115e-01
 5.0831714388e-01	 2.6662572345e+00	-5.7884071287e-02
 4.5074487157e-01	 2.6765915990e+00	-9.3553960146e-03
 3.9335911334e-01	 2.6856250315e+00	 3.7747589014e-02
 3.3619920749e-01	 2.6933776393e+00	 8.0869045524e-02
 2.7930305747e-01	 2.6998708812e+00	 1.1362269395e-01
 2.2270708876e-01	 2.7051274673e+00	 1.3783729213e-01
 1.6644621308e-01	 2.7091712580e+00	 1.5550122751e-01
 1.1055379969e-01	 2.7120271629e+00	 1.6786801953e-01
 5.5061653534e-02	 2.7137210413e+00	 1.7548254520e-01
 0.0000000000e+00	 2.7142796031e+00	 1.7821442032e-01
 5.7199366279e-01	 2.6825473652e+00	-7.6737975234e-02
 5.1366802117e-01	 2.6943239945e+00	-1.8862826954e-02
 4.5548970562e-01	 2.7047671452e+00	 3.7524986339e-02
 3.9749986752e-01	 2.7138956695e+00	 9.1284938861e-02
 3.3973825929e-01	 2.7217298863e+00	 1.3991547806e-01
 2.8224318334e-01	 2.7282914802e+00	 1.7702549277e-01
 2.2505144861e-01	 2.7336034006e+00	 2.0376674344e-01
 1.6819833431e-01	 2.7376897589e+00	 2.2167287316e-01
 1.1171756098e-01	 2.7405757269e+00	 2.3156267402e-01
 5.5641268356e-02	 2.7422874362e+00	 2.3359005981e-01
 0.0000000000e+00	 2.7428518778e+00	 2.2729689555e-01
 5.7795212008e-01	 2.7104914578e+00	-4.7863682539e-02
 5.1901890032e-01	 2.7223907642e+00	 1.5602061850e-02
 4.6023454133e-01	 2.7329427013e+00	 7.6820390600e-02
 4.0164062316e-01	 2.7421663174e+00	 1.3443707880e-01
 3.4327731232e-01	 2.7500821432e+00	 1.8609367678e-01
 2.8518331024e-01	 2.7567120893e+00	 2.2564359426e-01
 2.2739580927e-01	 2.7620793440e+00	 2.5372472028e-01
 1.6995045616e-01	 2.7662082698e+00	 2.7156243057e-01
 1.1288132268e-01	 2.7691243010e+00	 2.7968600110e-01
 5.6220883381e-02	 2.7708538411e+00	 2.7800345571e-01
 0.0000000000e+00	 2.7714241625e+00	 2.6587464772e-01
 5.8391057460e-01	 2.7384355374e+00	-2.2163177570e-02
 5.2436977698e-01	 2.7504575209e+00	 4.4146042394e-02
 4.6497937483e-01	 2.7611182442e+00	 1.0747719136e-01
 4.0578137687e-01	 2.7704369522e+00	 1.6645882582e-01
 3.4681636371e-01	 2.7784343869e+00	 2.1897397047e-01
 2.8812343577e-01	 2.7851326851e+00	 2.5933165468e-01
 2.2974016885e-01	 2.7905552740e+00	 2.8781559770e-01
 1.7170257718e-01	 2.7947267674e+00	 3.0547767482e-01
 1.1404508383e-01	 2.7976728617e+00	 3.1269211456e-01
 5.6800498135e-02	 2.7994202327e+00	 3.0925646514e-01
 0.0000000000e+00	 2.7999964339e+00	 2.9448582099e-01
 5.8986902147e-01	 2.7663795812e+00	-1.2458499296e-03
 5.2972064677e-01	 2.7785242416e+00	 6.5455914137e-02
 4.6972420224e-01	 2.7892937510e+00	 1.2848385535e-01
 4.0992212526e-01	 2.7987075506e+00	 1.8663595602e-01
 3.5035541055e-01	 2.8067865942e+00	 2.3814309790e-01
 2.9106355752e-01	 2.8135532444e+00	 2.7794699632e-01
 2.3208452541e-01	 2.8190311675e+00	 3.0613110766e-01
 1.7345469596e-01	 2.8232452284e+00	 3.2369683117e-01
 1.1520884349e-01	 2.8262213857e+00	 3.3098706920e-01
 5.7380112145e-02	 2.8279865876e+00	 3.2781467509e-01
 0.0000000000e+00	 2.8285686686e+00	 3.1357880824e-01
 5.9582745582e-01	 2.7943235663e+00	 1.3333873426e-02
 5.3507150533e-01	 2.8065909033e+00	 7.8267084377e-02
 4.7446901969e-01	 2.8174691986e+00	 1.3886917586e-01
 4.1406286496e-01	 2.8269780896e+00	 1.9428441079e-01
 3.5389444996e-01	 2.8351387420e+00	 2.4320428052e-01
 2.9400367310e-01	 2.8419737440e+00	 2.8135059914e-01
 2.3442887705e-01	 2.8475070012e+00	 3.0875219769e-01
 1.7520681106e-01	 2.8517636295e+00	 3.2647123094e-01
 1.1637260071e-01	 2.8547698499e+00	 3.3493222742e-01
 5.7959724939e-02	 2.8565528825e+00	 3.3407950249e-01
 0.0000000000e+00	 2.8571408433e+00	 3.2351671785e-01
 6.0178587280e-01	 2.8222674698e+00	 2.0072898486e-02
 5.4042234828e-01	 2.8346574832e+00	 8.1360872867e-02
 4.7921382330e-01	 2.8456445640e+00	 1.3770052032e-01
 4.1820359258e-01	 2.8552485463e+00	 1.8874947877e-01
 3.5743347905e-01	 2.8634908071e+00	 2.3377723313e-01
 2.9694378010e-01	 2.8703941608e+00	 2.6940799243e-01
 2.3677322186e-01	 2.8759827518e+00	 2.9575075228e-01
 1.7695892105e-01	 2.8802819474e+00	 3.1402779438e-01
 1.1753635453e-01	 2.8833182307e+00	 3.2484741929e-01
 5.8539336041e-02	 2.8851190941e+00	 3.2839193209e-01
 0.0000000000e+00	 2.8857129346e+00	 3.2458157638e-01
 6.0774426753e-01	 2.8502112691e+00	 1.7515911400e-02
 5.4577317125e-01	 2.8627239583e+00	 7.3561862085e-02
 4.8395860919e-01	 2.8738198243e+00	 1.2408209011e-01
 4.2234430474e-01	 2.8835188973e+00	 1.6940495524e-01
 3.6097249493e-01	 2.8918427663e+00	 2.0949811647e-01
 2.9988387613e-01	 2.8988144714e+00	 2.4199005296e-01
 2.3911755791e-01	 2.9044583961e+00	 2.6719118616e-01
 1.7871102450e-01	 2.9088001589e+00	 2.8657135227e-01
 1.1870010401e-01	 2.9118665050e+00	 3.0101391023e-01
 5.9118944980e-02	 2.9136851991e+00	 3.1103603358e-01
 0.0000000000e+00	 2.9142849193e+00	 3.1697828501e-01
 6.1370263515e-01	 2.8781549412e+00	 4.2518974579e-03
 5.5112396988e-01	 2.8907903057e+00	 5.3735290063e-02
 4.8870337349e-01	 2.9019949563e+00	 9.7153191751e-02
 4.2648499807e-01	 2.9117891198e+00	 1.3565228057e-01
 3.6451149470e-01	 2.9201945965e+00	 1.7001943595e-01
 3.0282395878e-01	 2.9272346527e+00	 1.9897371628e-01
 2.4146188329e-01	 2.9329339109e+00	 2.2313191837e-01
 1.8046311997e-01	 2.9373182406e+00	 2.4428681723e-01
 1.1986384819e-01	 2.9404146494e+00	 2.6367718918e-01
 5.9698551282e-02	 2.9422511741e+00	 2.8224227259e-01
 0.0000000000e+00	 2.9428567740e+00	 3.0083834657e-01
 6.1966097079e-01	 2.9060984633e+00	-2.1089272971e-02
 5.5647473978e-01	 2.9188565025e+00	 2.0784482960e-02
 4.9344811233e-01	 2.9301699372e+00	 5.6086518863e-02
 4.3062566916e-01	 2.9400591905e+00	 8.6919659049e-02
 3.6805047548e-01	 2.9485462746e+00	 1.1500988997e-01
 3.0576402565e-01	 2.9556546815e+00	 1.4024260679e-01
 2.4380619610e-01	 2.9614092728e+00	 1.6362673495e-01
 1.8221520604e-01	 2.9658361693e+00	 1.8701906590e-01
 1.2102758613e-01	 2.9689626405e+00	 2.1156796101e-01
 6.0278154473e-02	 2.9708169958e+00	 2.3955818669e-01
 0.0000000000e+00	 2.9714284753e+00	 2.7308448056e-01
 6.2561926959e-01	 2.9340418127e+00	-5.9840195932e-02
 5.6182547660e-01	 2.9469225257e+00	-2.6351675255e-02
 4.9819282183e-01	 2.9583447438e+00	 8.6443984056e-05
 4.3476631466e-01	 2.9683290864e+00	 2.1758123146e-02
 3.7158943437e-01	 2.9768977774e+00	 3.7613967527e-02
 3.0870407434e-01	 2.9840745346e+00	 4.9728086335e-02
 2.4615049440e-01	 2.9898844587e+00	 6.1314262040e-02
 1.8396728128e-01	 2.9943539216e+00	 7.6791711769e-02
 1.2219131687e-01	 2.9975104552e+00	 1.0001499665e-01
 6.0857754080e-02	 2.9993826408e+00	 1.3443303191e-01
 0.0000000000e+00	 3.0000000000e+00	 1.8320832304e-01
