x	y	stress_yy
 1.000000000000000e+00	 0.000000000000000e+00	 3.086090250682272e+01
 1.007407503517698e+00	 0.000000000000000e+00	 3.033245678847969e+01
 1.014815183713579e+00	 0.000000000000000e+00	 2.982316727884045e+01
 1.022223017251828e+00	 0.000000000000000e+00	 2.933192447495132e+01
 1.029630980796626e+00	 0.000000000000000e+00	 2.885765077901398e+01
 1.037039051012158e+00	 0.000000000000000e+00	 2.839929936023530e+01
 1.044447204562606e+00	 0.000000000000000e+00	 2.795585306456464e+01
 1.051855418112154e+00	 0.000000000000000e+00	 2.752632336998440e+01
 1.059263668324984e+00	 0.000000000000000e+00	 2.710974938514697e+01
 1.066671931865279e+00	 0.000000000000000e+00	 2.670519688927440e+01
 1.074080185397223e+00	 0.000000000000000e+00	 2.631175741134970e+01
 1.074080185397223e+00	 0.000000000000000e+00	 2.631175741134970e+01
 1.081486409973758e+00	 0.000000000000000e+00	 2.593092342547474e+01
 1.088892604556845e+00	 0.000000000000000e+00	 2.556411577214539e+01
 1.096298772479197e+00	 0.000000000000000e+00	 2.521066566311202e+01
 1.103704917073534e+00	 0.000000000000000e+00	 2.486992241613768e+01
 1.111111041672570e+00	 0.000000000000000e+00	 2.454125285074475e+01
 1.118517149609023e+00	 0.000000000000000e+00	 2.422298944978483e+01
 1.125923244215609e+00	 0.000000000000000e+00	 2.391345915165381e+01
 1.133329328825045e+00	 0.000000000000000e+00	 2.361204039357008e+01
 1.140735406770048e+00	 0.000000000000000e+00	 2.331812692729299e+01
 1.148141481383334e+00	 0.000000000000000e+00	 2.303112732491668e+01
 1.148141481383334e+00	 0.000000000000000e+00	 2.303112732491668e+01
 1.155549554351028e+00	 0.000000000000000e+00	 2.275190074177345e+01
 1.162957620652889e+00	 0.000000000000000e+00	 2.248156104153518e+01
 1.170365673622083e+00	 0.000000000000000e+00	 2.221968734121568e+01
 1.177773706591777e+00	 0.000000000000000e+00	 2.196586853838992e+01
 1.185181712895138e+00	 0.000000000000000e+00	 2.171970300652433e+01
 1.192589685865332e+00	 0.000000000000000e+00	 2.148079830163429e+01
 1.199997618835527e+00	 0.000000000000000e+00	 2.124877087978130e+01
 1.207405505138888e+00	 0.000000000000000e+00	 2.102324582494542e+01
 1.214813338108583e+00	 0.000000000000000e+00	 2.080385658683210e+01
 1.222221111077777e+00	 0.000000000000000e+00	 2.059024472819283e+01
 1.222221111077777e+00	 0.000000000000000e+00	 2.059024472819283e+01
 1.229628820713022e+00	 0.000000000000000e+00	 2.038252761587310e+01
 1.237036477014400e+00	 0.000000000000000e+00	 2.018086656154908e+01
 1.244444093315378e+00	 0.000000000000000e+00	 1.998497951667106e+01
 1.251851682949422e+00	 0.000000000000000e+00	 1.979459033301925e+01
 1.259259259250000e+00	 0.000000000000000e+00	 1.960942858730970e+01
 1.266666835550578e+00	 0.000000000000000e+00	 1.942922941198786e+01
 1.274074425184623e+00	 0.000000000000000e+00	 1.925373333195564e+01
 1.281482041485601e+00	 0.000000000000000e+00	 1.908268610698985e+01
 1.288889697786978e+00	 0.000000000000000e+00	 1.891583857962129e+01
 1.296297407422223e+00	 0.000000000000000e+00	 1.875294652825396e+01
 1.296297407422223e+00	 0.000000000000000e+00	 1.875294652825396e+01
 1.303705180391418e+00	 0.000000000000000e+00	 1.859412640409786e+01
 1.311113013361112e+00	 0.000000000000000e+00	 1.843952958380103e+01
 1.318520899664473e+00	 0.000000000000000e+00	 1.828897048824926e+01
 1.325928832634668e+00	 0.000000000000000e+00	 1.814226697791730e+01
 1.333336805604862e+00	 0.000000000000000e+00	 1.799924025835228e+01
 1.340744811908223e+00	 0.000000000000000e+00	 1.785971478878426e+01
 1.348152844877917e+00	 0.000000000000000e+00	 1.772351819374473e+01
 1.355560897847111e+00	 0.000000000000000e+00	 1.759048117757792e+01
 1.362968964148972e+00	 0.000000000000000e+00	 1.746043744173608e+01
 1.370377037116666e+00	 0.000000000000000e+00	 1.733322360475345e+01
 1.370377037116666e+00	 0.000000000000000e+00	 1.733322360475345e+01
 1.377783111174532e+00	 0.000000000000000e+00	 1.720913200688263e+01
 1.385189185231599e+00	 0.000000000000000e+00	 1.708842131467011e+01
 1.392595259288066e+00	 0.000000000000000e+00	 1.697098294960096e+01
 1.400001333344133e+00	 0.000000000000000e+00	 1.685670995148730e+01
 1.407407407400000e+00	 0.000000000000000e+00	 1.674549693596261e+01
 1.414813481455867e+00	 0.000000000000000e+00	 1.663724005331178e+01
 1.422219555511934e+00	 0.000000000000000e+00	 1.653183694858802e+01
 1.429625629568401e+00	 0.000000000000000e+00	 1.642918672297057e+01
 1.437031703625468e+00	 0.000000000000000e+00	 1.632918989631746e+01
 1.444437777683334e+00	 0.000000000000000e+00	 1.623174837087155e+01
 1.444437777683334e+00	 0.000000000000000e+00	 1.623174837087155e+01
 1.451845851762150e+00	 0.000000000000000e+00	 1.613617375608259e+01
 1.459253925841866e+00	 0.000000000000000e+00	 1.604177711772127e+01
 1.466661999922383e+00	 0.000000000000000e+00	 1.594838480241409e+01
 1.474070074003599e+00	 0.000000000000000e+00	 1.585582600258927e+01
 1.481478148085416e+00	 0.000000000000000e+00	 1.576393268540279e+01
 1.488886222167732e+00	 0.000000000000000e+00	 1.567374917894080e+01
 1.496294296250449e+00	 0.000000000000000e+00	 1.558645052329151e+01
 1.503702370333466e+00	 0.000000000000000e+00	 1.550206021097393e+01
 1.511110444416683e+00	 0.000000000000000e+00	 1.542060423982787e+01
 1.518518518500000e+00	 0.000000000000000e+00	 1.534211105357826e+01
 1.518518518500000e+00	 0.000000000000000e+00	 1.534211105357826e+01
 1.525926592583333e+00	 0.000000000000000e+00	 1.526594180754507e+01
 1.533334666666667e+00	 0.000000000000000e+00	 1.519136804038230e+01
 1.540742740750001e+00	 0.000000000000000e+00	 1.511828925520924e+01
 1.548150814833334e+00	 0.000000000000000e+00	 1.504660977545420e+01
 1.555558888916668e+00	 0.000000000000000e+00	 1.497623863009765e+01
 1.562966963000002e+00	 0.000000000000000e+00	 1.490708944218018e+01
 1.570375037083335e+00	 0.000000000000000e+00	 1.483908032046800e+01
 1.577783111166669e+00	 0.000000000000000e+00	 1.477213375417150e+01
 1.585191185250002e+00	 0.000000000000000e+00	 1.470617651061791e+01
 1.592599259333336e+00	 0.000000000000000e+00	 1.464113953578098e+01
 1.592599259333336e+00	 0.000000000000000e+00	 1.464113953578098e+01
 1.600005333396652e+00	 0.000000000000000e+00	 1.457729692801882e+01
 1.607411407459868e+00	 0.000000000000000e+00	 1.451489827364603e+01
 1.614817481522885e+00	 0.000000000000000e+00	 1.445389592175009e+01
 1.622223555585601e+00	 0.000000000000000e+00	 1.439424585337918e+01
 1.629629629647917e+00	 0.000000000000000e+00	 1.433590759904842e+01
 1.637035703709734e+00	 0.000000000000000e+00	 1.427884415848713e+01
 1.644441777770951e+00	 0.000000000000000e+00	 1.422302192255600e+01
 1.651847851831468e+00	 0.000000000000000e+00	 1.416841059726636e+01
 1.659253925891185e+00	 0.000000000000000e+00	 1.411498312983563e+01
 1.666659999950002e+00	 0.000000000000000e+00	 1.406271563671573e+01
 1.666659999950002e+00	 0.000000000000000e+00	 1.406271563671573e+01
 1.674068074027870e+00	 0.000000000000000e+00	 1.401144733552569e+01
 1.681476148104936e+00	 0.000000000000000e+00	 1.396103851820586e+01
 1.688884222181403e+00	 0.000000000000000e+00	 1.391145977744661e+01
 1.696292296257469e+00	 0.000000000000000e+00	 1.386268486410508e+01
 1.703700370333336e+00	 0.000000000000000e+00	 1.381469061859187e+01
 1.711108444409202e+00	 0.000000000000000e+00	 1.376745690404176e+01
 1.718516518485269e+00	 0.000000000000000e+00	 1.372096654121392e+01
 1.725924592561735e+00	 0.000000000000000e+00	 1.367520524507034e+01
 1.733332666638801e+00	 0.000000000000000e+00	 1.363016156298199e+01
 1.740740740716668e+00	 0.000000000000000e+00	 1.358582681451415e+01
 1.740740740716668e+00	 0.000000000000000e+00	 1.358582681451415e+01
 1.748148814795485e+00	 0.000000000000000e+00	 1.354245983892243e+01
 1.755556888875201e+00	 0.000000000000000e+00	 1.350026945116637e+01
 1.762964962955718e+00	 0.000000000000000e+00	 1.345917691643541e+01
 1.770373037036935e+00	 0.000000000000000e+00	 1.341910735210134e+01
 1.777781111118752e+00	 0.000000000000000e+00	 1.337998964751773e+01
 1.785189185201069e+00	 0.000000000000000e+00	 1.334175638581749e+01
 1.792597259283785e+00	 0.000000000000000e+00	 1.330434376765095e+01
 1.800005333366802e+00	 0.000000000000000e+00	 1.326769153680840e+01
 1.807413407450019e+00	 0.000000000000000e+00	 1.323174290767301e+01
 1.814821481533336e+00	 0.000000000000000e+00	 1.319644449445197e+01
 1.814821481533336e+00	 0.000000000000000e+00	 1.319644449445196e+01
 1.822227555596669e+00	 0.000000000000000e+00	 1.316113171739123e+01
 1.829633629660002e+00	 0.000000000000000e+00	 1.312526394048748e+01
 1.837039703723335e+00	 0.000000000000000e+00	 1.308900439594018e+01
 1.844445777786667e+00	 0.000000000000000e+00	 1.305251612478692e+01
 1.851851851850000e+00	 0.000000000000000e+00	 1.301596198079736e+01
 1.859257925913333e+00	 0.000000000000000e+00	 1.298044908240474e+01
 1.866663999976665e+00	 0.000000000000000e+00	 1.294686410611099e+01
 1.874070074039998e+00	 0.000000000000000e+00	 1.291501173562970e+01
 1.881476148103331e+00	 0.000000000000000e+00	 1.288469646047515e+01
 1.888882222166664e+00	 0.000000000000000e+00	 1.285572259988107e+01
 1.888882222166664e+00	 0.000000000000000e+00	 1.285572259988107e+01
 1.896290295138858e+00	 0.000000000000000e+00	 1.282736753789364e+01
 1.903698361444220e+00	 0.000000000000000e+00	 1.279907789947863e+01
 1.911106414415914e+00	 0.000000000000000e+00	 1.277088591801256e+01
 1.918514447387109e+00	 0.000000000000000e+00	 1.274282010112384e+01
 1.925922453690970e+00	 0.000000000000000e+00	 1.271490530336686e+01
 1.933330426660665e+00	 0.000000000000000e+00	 1.268716279728335e+01
 1.940738359629359e+00	 0.000000000000000e+00	 1.265961034289358e+01
 1.948146245930221e+00	 0.000000000000000e+00	 1.263226225565937e+01
 1.955554078896416e+00	 0.000000000000000e+00	 1.260512947295795e+01
 1.962961851861111e+00	 0.000000000000000e+00	 1.257821961910691e+01
 1.962961851861111e+00	 0.000000000000000e+00	 1.257821961910691e+01
 1.970369561490889e+00	 0.000000000000000e+00	 1.255167712499448e+01
 1.977777217786000e+00	 0.000000000000000e+00	 1.252564592587720e+01
 1.985184834080111e+00	 0.000000000000000e+00	 1.250012814860842e+01
 1.992592423706888e+00	 0.000000000000000e+00	 1.247512288732587e+01
 2.000000000000000e+00	 0.000000000000000e+00	 1.245062625732641e+01
 2.007407576293111e+00	 0.000000000000000e+00	 1.242663144763711e+01
 2.014815165919889e+00	 0.000000000000000e+00	 1.240312877231791e+01
 2.022222782214000e+00	 0.000000000000000e+00	 1.238010572052813e+01
 2.029630438509112e+00	 0.000000000000000e+00	 1.235754700538929e+01
 2.037038148138890e+00	 0.000000000000000e+00	 1.233543461167579e+01
 2.037038148138890e+00	 0.000000000000000e+00	 1.233543461167579e+01
 2.044445921103584e+00	 0.000000000000000e+00	 1.231372821211684e+01
 2.051853754069779e+00	 0.000000000000000e+00	 1.229238635778663e+01
 2.059261640370641e+00	 0.000000000000000e+00	 1.227138531205307e+01
 2.066669573339335e+00	 0.000000000000000e+00	 1.225069868359942e+01
 2.074077546309030e+00	 0.000000000000000e+00	 1.223029747507017e+01
 2.081485552612891e+00	 0.000000000000000e+00	 1.221015013072917e+01
 2.088893585584086e+00	 0.000000000000000e+00	 1.219022258315606e+01
 2.096301638555781e+00	 0.000000000000000e+00	 1.217047829900300e+01
 2.103709704861142e+00	 0.000000000000000e+00	 1.215087832383528e+01
 2.111117777833337e+00	 0.000000000000000e+00	 1.213138132607807e+01
 2.111117777833337e+00	 0.000000000000000e+00	 1.213138132607807e+01
 2.118523851896669e+00	 0.000000000000000e+00	 1.211196814458190e+01
 2.125929925960002e+00	 0.000000000000000e+00	 1.209268032982945e+01
 2.133336000023335e+00	 0.000000000000000e+00	 1.207357880888652e+01
 2.140742074086667e+00	 0.000000000000000e+00	 1.205472080990094e+01
 2.148148148150000e+00	 0.000000000000000e+00	 1.203615992586534e+01
 2.155554222213333e+00	 0.000000000000000e+00	 1.201794617706572e+01
 2.162960296276666e+00	 0.000000000000000e+00	 1.200012607224702e+01
 2.170366370339999e+00	 0.000000000000000e+00	 1.198274266852628e+01
 2.177772444403331e+00	 0.000000000000000e+00	 1.196583563008346e+01
 2.185178518466663e+00	 0.000000000000000e+00	 1.194944128565863e+01
 2.185178518466663e+00	 0.000000000000000e+00	 1.194944128565863e+01
 2.192586592549980e+00	 0.000000000000000e+00	 1.193358451189704e+01
 2.199994666633197e+00	 0.000000000000000e+00	 1.191816948311925e+01
 2.207402740716215e+00	 0.000000000000000e+00	 1.190303547586756e+01
 2.214810814798932e+00	 0.000000000000000e+00	 1.188802115376084e+01
 2.222218888881248e+00	 0.000000000000000e+00	 1.187296457729047e+01
 2.229626962963065e+00	 0.000000000000000e+00	 1.185772243793731e+01
 2.237035037044282e+00	 0.000000000000000e+00	 1.184232999707370e+01
 2.244443111124799e+00	 0.000000000000000e+00	 1.182689167755664e+01
 2.251851185204516e+00	 0.000000000000000e+00	 1.181151133841119e+01
 2.259259259283332e+00	 0.000000000000000e+00	 1.179629228407424e+01
 2.259259259283332e+00	 0.000000000000000e+00	 1.179629228407424e+01
 2.266667333361199e+00	 0.000000000000000e+00	 1.178134778597636e+01
 2.274075407438264e+00	 0.000000000000000e+00	 1.176671466161241e+01
 2.281483481514731e+00	 0.000000000000000e+00	 1.175238183866328e+01
 2.288891555590798e+00	 0.000000000000000e+00	 1.173833918531860e+01
 2.296299629666664e+00	 0.000000000000000e+00	 1.172457749510588e+01
 2.303707703742532e+00	 0.000000000000000e+00	 1.171108847201228e+01
 2.311115777818598e+00	 0.000000000000000e+00	 1.169786471589292e+01
 2.318523851895065e+00	 0.000000000000000e+00	 1.168489970815835e+01
 2.325931925972132e+00	 0.000000000000000e+00	 1.167218779773607e+01
 2.333340000049998e+00	 0.000000000000000e+00	 1.165972418729910e+01
 2.333340000049998e+00	 0.000000000000000e+00	 1.165972418729910e+01
 2.340746074108815e+00	 0.000000000000000e+00	 1.164744471572197e+01
 2.348152148168532e+00	 0.000000000000000e+00	 1.163526695507952e+01
 2.355558222229050e+00	 0.000000000000000e+00	 1.162317011909022e+01
 2.362964296290266e+00	 0.000000000000000e+00	 1.161113445341057e+01
 2.370370370352083e+00	 0.000000000000000e+00	 1.159914121951382e+01
 2.377776444414399e+00	 0.000000000000000e+00	 1.158717267887008e+01
 2.385182518477116e+00	 0.000000000000000e+00	 1.157521207742145e+01
 2.392588592540132e+00	 0.000000000000000e+00	 1.156324363034484e+01
 2.399994666603348e+00	 0.000000000000000e+00	 1.155125250709755e+01
 2.407400740666664e+00	 0.000000000000000e+00	 1.153922481673852e+01
 2.407400740666664e+00	 0.000000000000000e+00	 1.153922481673852e+01
 2.414808814749997e+00	 0.000000000000000e+00	 1.152731913744063e+01
 2.422216888833331e+00	 0.000000000000000e+00	 1.151572157058240e+01
 2.429624962916665e+00	 0.000000000000000e+00	 1.150445083900413e+01
 2.437033036999999e+00	 0.000000000000000e+00	 1.149352618659877e+01
 2.444441111083332e+00	 0.000000000000000e+00	 1.148296737041679e+01
 2.451849185166666e+00	 0.000000000000000e+00	 1.147279465291343e+01
 2.459257259250000e+00	 0.000000000000000e+00	 1.146302879433671e+01
 2.466665333333334e+00	 0.000000000000000e+00	 1.145369104525255e+01
 2.474073407416667e+00	 0.000000000000000e+00	 1.144480313920352e+01
 2.481481481500000e+00	 0.000000000000000e+00	 1.143638728550014e+01
 2.481481481500000e+00	 0.000000000000000e+00	 1.143638728550014e+01
 2.488889555583317e+00	 0.000000000000000e+00	 1.142803142401337e+01
 2.496297629666534e+00	 0.000000000000000e+00	 1.141928430174900e+01
 2.503705703749551e+00	 0.000000000000000e+00	 1.141011055943474e+01
 2.511113777832268e+00	 0.000000000000000e+00	 1.140047598167228e+01
 2.518521851914584e+00	 0.000000000000000e+00	 1.139034748011448e+01
 2.525929925996401e+00	 0.000000000000000e+00	 1.137969307693813e+01
 2.533338000077618e+00	 0.000000000000000e+00	 1.136848188860654e+01
 2.540746074158134e+00	 0.000000000000000e+00	 1.135668410991706e+01
 2.548154148237851e+00	 0.000000000000000e+00	 1.134427099832560e+01
 2.555562222316666e+00	 0.000000000000000e+00	 1.133121485854487e+01
 2.555562222316666e+00	 0.000000000000000e+00	 1.133121485854487e+01
 2.562968296374532e+00	 0.000000000000000e+00	 1.131907628061315e+01
 2.570374370431599e+00	 0.000000000000000e+00	 1.130945450816910e+01
 2.577780444488066e+00	 0.000000000000000e+00	 1.130239161408551e+01
 2.585186518544133e+00	 0.000000000000000e+00	 1.129792989415032e+01
 2.592592592600000e+00	 0.000000000000000e+00	 1.129611186388246e+01
 2.599998666655867e+00	 0.000000000000000e+00	 1.129445558778040e+01
 2.607404740711934e+00	 0.000000000000000e+00	 1.129045266614015e+01
 2.614810814768401e+00	 0.000000000000000e+00	 1.128410623851642e+01
 2.622216888825468e+00	 0.000000000000000e+00	 1.127541965199192e+01
 2.629622962883334e+00	 0.000000000000000e+00	 1.126439645825514e+01
 2.629622962883334e+00	 0.000000000000000e+00	 1.126439645825514e+01
 2.637031035851029e+00	 0.000000000000000e+00	 1.125257865524553e+01
 2.644439102152889e+00	 0.000000000000000e+00	 1.124149911218648e+01
 2.651847155122083e+00	 0.000000000000000e+00	 1.123113832993799e+01
 2.659255188091778e+00	 0.000000000000000e+00	 1.122147729280637e+01
 2.666663194395138e+00	 0.000000000000000e+00	 1.121249746208962e+01
 2.674071167365332e+00	 0.000000000000000e+00	 1.120418076972478e+01
 2.681479100335528e+00	 0.000000000000000e+00	 1.119650961203586e+01
 2.688886986638889e+00	 0.000000000000000e+00	 1.118946684358002e+01
 2.696294819608584e+00	 0.000000000000000e+00	 1.118303577109072e+01
 2.703702592577777e+00	 0.000000000000000e+00	 1.117720014751529e+01
 2.703702592577777e+00	 0.000000000000000e+00	 1.117720014751529e+01
 2.711110302213022e+00	 0.000000000000000e+00	 1.117155112541458e+01
 2.718517958514400e+00	 0.000000000000000e+00	 1.116569891074651e+01
 2.725925574815378e+00	 0.000000000000000e+00	 1.115965620655263e+01
 2.733333164449423e+00	 0.000000000000000e+00	 1.115343576682772e+01
 2.740740740750001e+00	 0.000000000000000e+00	 1.114705039545103e+01
 2.748148317050578e+00	 0.000000000000000e+00	 1.114051294514261e+01
 2.755555906684623e+00	 0.000000000000000e+00	 1.113383631644409e+01
 2.762963522985601e+00	 0.000000000000000e+00	 1.112703345672348e+01
 2.770371179286979e+00	 0.000000000000000e+00	 1.112011735920358e+01
 2.777778888922223e+00	 0.000000000000000e+00	 1.111310106201348e+01
 2.777778888922223e+00	 0.000000000000000e+00	 1.111310106201348e+01
 2.785186661891417e+00	 0.000000000000000e+00	 1.110612213782612e+01
 2.792594494861112e+00	 0.000000000000000e+00	 1.109930161758510e+01
 2.800002381164473e+00	 0.000000000000000e+00	 1.109262804182553e+01
 2.807410314134668e+00	 0.000000000000000e+00	 1.108609032310885e+01
 2.814818287104863e+00	 0.000000000000000e+00	 1.107967774131806e+01
 2.822226293408224e+00	 0.000000000000000e+00	 1.107337993902235e+01
 2.829634326377918e+00	 0.000000000000000e+00	 1.106718691691030e+01
 2.837042379347112e+00	 0.000000000000000e+00	 1.106108902929004e+01
 2.844450445648973e+00	 0.000000000000000e+00	 1.105507697965536e+01
 2.851858518616666e+00	 0.000000000000000e+00	 1.104914181631669e+01
 2.851858518616666e+00	 0.000000000000000e+00	 1.104914181631669e+01
 2.859264593229952e+00	 0.000000000000000e+00	 1.104329961217931e+01
 2.866670671174954e+00	 0.000000000000000e+00	 1.103757173331158e+01
 2.874076755784391e+00	 0.000000000000000e+00	 1.103196232787756e+01
 2.881482850390977e+00	 0.000000000000000e+00	 1.102647570995953e+01
 2.888888958327430e+00	 0.000000000000000e+00	 1.102111635735708e+01
 2.896295082926467e+00	 0.000000000000000e+00	 1.101588890942198e+01
 2.903701227520803e+00	 0.000000000000000e+00	 1.101079816492804e+01
 2.911107395443156e+00	 0.000000000000000e+00	 1.100584907997542e+01
 2.918513590026242e+00	 0.000000000000000e+00	 1.100104676592871e+01
 2.925919814602778e+00	 0.000000000000000e+00	 1.099639648738817e+01
 2.925919814602778e+00	 0.000000000000000e+00	 1.099639648738817e+01
 2.933328068134721e+00	 0.000000000000000e+00	 1.099149805508848e+01
 2.940736331675017e+00	 0.000000000000000e+00	 1.098595044023311e+01
 2.948144581887846e+00	 0.000000000000000e+00	 1.097975427172315e+01
 2.955552795437394e+00	 0.000000000000000e+00	 1.097291046150885e+01
 2.962960948987842e+00	 0.000000000000000e+00	 1.096542020130813e+01
 2.970369019203374e+00	 0.000000000000000e+00	 1.095866633442949e+01
 2.977776982748173e+00	 0.000000000000000e+00	 1.095404381016007e+01
 2.985184816286422e+00	 0.000000000000000e+00	 1.095153250646609e+01
 2.992592496482303e+00	 0.000000000000000e+00	 1.095111250412522e+01
 3.000000000000000e+00	 0.000000000000000e+00	 1.095276411615757e+01
