x	y	stress_yy
 1.000000000000000e+00	 0.000000000000000e+00	 3.109752099082822e+01
 9.997942136041430e-01	 2.028591802679378e-02	 3.106396168644568e+01
 9.991701517322812e-01	 4.073043895732996e-02	 3.096963590154116e+01
 9.981179738659461e-01	 6.132242709398375e-02	 3.081386949049979e+01
 9.966281528999331e-01	 8.205016480108969e-02	 3.059622492384486e+01
 9.946915115410935e-01	 1.029013581149163e-01	 3.031650839301540e+01
 9.922992591451227e-01	 1.238631447915628e-01	 2.997477653478940e+01
 9.894430288203904e-01	 1.449221048859623e-01	 2.957134301946662e+01
 9.861149146151664e-01	 1.660642739430359e-01	 2.910678530143007e+01
 9.823075085927058e-01	 1.872751588682954e-01	 2.858195188070875e+01
 9.780139375877577e-01	 2.085397565298897e-01	 2.799797046674838e+01
 1.028571524673962e+00	 0.000000000000000e+00	 2.899134401782901e+01
 1.028359858646923e+00	 2.086551763399812e-02	 2.896062035735990e+01
 1.027717966375624e+00	 4.189416969848920e-02	 2.887860969983527e+01
 1.026635726183013e+00	 6.307450233200076e-02	 2.874477519475477e+01
 1.025103338759998e+00	 8.439446310816293e-02	 2.855872433522813e+01
 1.023111364604206e+00	 1.058414068059686e-01	 2.832020918118264e+01
 1.020650761909257e+00	 1.274021036876108e-01	 2.802912639364098e+01
 1.017712924728706e+00	 1.490627503797446e-01	 2.768551744407478e+01
 1.014289721225768e+00	 1.708089834415316e-01	 2.728956943214909e+01
 1.010373531807687e+00	 1.926258956886906e-01	 2.684161700894171e+01
 1.005957286932442e+00	 2.144980553270330e-01	 2.634214595741029e+01
 1.057143226019696e+00	 0.000000000000000e+00	 2.719150862269547e+01
 1.056925680325119e+00	 2.144512082513255e-02	 2.716257501334798e+01
 1.056265957544136e+00	 4.305790763559049e-02	 2.709070798264961e+01
 1.055153654839367e+00	 6.482658840407383e-02	 2.697545913277780e+01
 1.053578700696151e+00	 8.673877591142540e-02	 2.681643945778002e+01
 1.051531393401269e+00	 1.087814736771771e-01	 2.661331300836819e+01
 1.049002439984713e+00	 1.309410844673300e-01	 2.636579048884850e+01
 1.045982995443745e+00	 1.532034214778755e-01	 2.607362326938216e+01
 1.042464702055124e+00	 1.755537222797343e-01	 2.573659838315341e+01
 1.038439728568777e+00	 1.979766655962570e-01	 2.535453515795631e+01
 1.033900809064698e+00	 2.204563909682513e-01	 2.492728420096416e+01
 1.085715080702975e+00	 0.000000000000000e+00	 2.565350371155472e+01
 1.085491655309309e+00	 2.202472712684339e-02	 2.562515017444563e+01
 1.084814101922956e+00	 4.422165181821740e-02	 2.556124668788032e+01
 1.083671736544706e+00	 6.657868387927643e-02	 2.546138933928346e+01
 1.082054215452861e+00	 8.908310129626797e-02	 2.532515583613781e+01
 1.079951574721949e+00	 1.117215563273666e-01	 2.515209286551591e+01
 1.077354270216985e+00	 1.344800842403968e-01	 2.494170342659069e+01
 1.074253217877654e+00	 1.573441147986167e-01	 2.469343473831849e+01
 1.070639834093048e+00	 1.802984865825520e-01	 2.440666743052174e+01
 1.066506075954637e+00	 2.033274642209498e-01	 2.408070682543542e+01
 1.061844481163376e+00	 2.264147585873002e-01	 2.371477720341028e+01
 1.114287065389571e+00	 0.000000000000000e+00	 2.433707749237087e+01
 1.114057760270067e+00	 2.260433606577688e-02	 2.430802476703663e+01
 1.113362376197227e+00	 4.538540129595352e-02	 2.424999317215180e+01
 1.112189948008726e+00	 6.833078732668195e-02	 2.416256171619719e+01
 1.110529859774593e+00	 9.142743734808156e-02	 2.404521475189633e+01
 1.108371885355909e+00	 1.146616523553616e-01	 2.389737431757629e+01
 1.105706229451566e+00	 1.380191001164878e-01	 2.371832924228504e+01
 1.102523568942582e+00	 1.614848269602298e-01	 2.350721253144962e+01
 1.098815094329352e+00	 1.850432724748923e-01	 2.326299568010761e+01
 1.094572551043929e+00	 2.086782871927238e-01	 2.298447443798687e+01
 1.089788280407326e+00	 2.323731533179351e-01	 2.267025811776582e+01
 1.142859156745255e+00	 0.000000000000000e+00	 2.319600650616460e+01
 1.142623971877968e+00	 2.318394716857931e-02	 2.316548677306776e+01
 1.141910757052089e+00	 4.654915511838248e-02	 2.311213796431158e+01
 1.140708265941126e+00	 7.008289731536385e-02	 2.303545671150500e+01
 1.139005610405818e+00	 9.377178215225720e-02	 2.293476753835193e+01
 1.136792302092816e+00	 1.176017593599867e-01	 2.280920572797102e+01
 1.134058294533950e+00	 1.415581292052795e-01	 2.265770133772241e+01
 1.130794025550678e+00	 1.656255545809765e-01	 2.247896493149710e+01
 1.126990459753852e+00	 1.897880760816632e-01	 2.227147577236232e+01
 1.122639130915312e+00	 2.140291301415341e-01	 2.203347340783416e+01
 1.117732183975401e+00	 2.383315702939115e-01	 2.176295377990872e+01
 1.171431331435801e+00	 0.000000000000000e+00	 2.219336518752366e+01
 1.171190266803589e+00	 2.376355996189695e-02	 2.216087891098892e+01
 1.170459221172681e+00	 4.771291233508784e-02	 2.211118765368742e+01
 1.169226667051604e+00	 7.183501241439554e-02	 2.204365575859208e+01
 1.167481444091003e+00	 9.611613379418564e-02	 2.195740984636460e+01
 1.165212801722333e+00	 1.205418749400667e-01	 2.185131830285180e+01
 1.162410442309630e+00	 1.450971686164485e-01	 2.172397145929125e+01
 1.159064564614090e+00	 1.697662942791186e-01	 2.157366302423432e+01
 1.155165907356360e+00	 1.945328935277723e-01	 2.139837353383938e+01
 1.150705792647447e+00	 2.193799886973357e-01	 2.119575681738063e+01
 1.145676169046448e+00	 2.442900046489848e-01	 2.096313072082351e+01
 1.200003566126979e+00	 0.000000000000000e+00	 2.130265150959200e+01
 1.199756621717502e+00	 2.434317397237607e-02	 2.126789863296238e+01
 1.199007745244147e+00	 4.887667199565322e-02	 2.122110228858306e+01
 1.197745128049856e+00	 7.358713119285049e-02	 2.116144501564638e+01
 1.195957337574614e+00	 9.846049035925789e-02	 2.108781591795382e+01
 1.193633361034127e+00	 1.234819966944262e-01	 2.099878752520254e+01
 1.190762649624099e+00	 1.486362154596714e-01	 2.089259268014973e+01
 1.187335163044966e+00	 1.739070426729176e-01	 2.076710197178626e+01
 1.183341414126688e+00	 1.992777209381274e-01	 2.061980248181887e+01
 1.178772513318995e+00	 2.247308584900838e-01	 2.044777888886917e+01
 1.173620212799320e+00	 2.502484515169107e-01	 2.024769827428310e+01
 1.228575837484564e+00	 0.000000000000000e+00	 2.049997752040479e+01
 1.228323013290286e+00	 2.492278872666295e-02	 2.046291589486087e+01
 1.227556305951626e+00	 5.004043314966221e-02	 2.041855245900916e+01
 1.226263625645581e+00	 7.533925221980210e-02	 2.036583836947008e+01
 1.224433267601120e+00	 1.008048499328648e-01	 2.030338666538550e+01
 1.222053956817860e+00	 1.264221222218896e-01	 2.022944731846972e+01
 1.219114893322853e+00	 1.521752668446247e-01	 2.014188140177287e+01
 1.215605797755454e+00	 1.780477963806352e-01	 2.003813482692289e+01
 1.211516957054651e+00	 2.040225544376364e-01	 1.991521239161129e+01
 1.206839270008617e+00	 2.300817351497332e-01	 1.976965320985970e+01
 1.201564292412866e+00	 2.562069060314446e-01	 1.959750895868045e+01
 1.257148122174325e+00	 0.000000000000000e+00	 1.976377232374781e+01
 1.256889418192514e+00	 2.550240375140386e-02	 1.972467258737437e+01
 1.256104879980258e+00	 5.120419484669838e-02	 1.968261565171901e+01
 1.254782136548476e+00	 7.709137406432384e-02	 1.963627120631685e+01
 1.252909210914990e+00	 1.031492106003973e-01	 1.958393848182691e+01
 1.250474565863199e+00	 1.293622491212818e-01	 1.952352037629085e+01
 1.247467150251382e+00	 1.557143198809849e-01	 1.945249552202265e+01
 1.243876445657702e+00	 1.821885520205334e-01	 1.936788863714921e+01
 1.239692513130062e+00	 2.087673901512071e-01	 1.926623984848756e+01
 1.234906039794974e+00	 2.354326143062390e-01	 1.914357406430291e+01
 1.229508385065936e+00	 2.621653633263420e-01	 1.899537190710025e+01
 1.285720396862037e+00	 0.000000000000000e+00	 1.907452464962806e+01
 1.285455813094762e+00	 2.608201857324508e-02	 1.903402198491160e+01
 1.284653444015185e+00	 5.236795613634536e-02	 1.899451290139103e+01
 1.283300637468238e+00	 7.884349529548910e-02	 1.895433460381711e+01
 1.281385144260689e+00	 1.054935704472463e-01	 1.891143533089082e+01
 1.278895164959809e+00	 1.323023749914272e-01	 1.886334852891964e+01
 1.275819397255182e+00	 1.592533716784286e-01	 1.880716348416960e+01
 1.272147083663861e+00	 1.863293062108735e-01	 1.873949261257772e+01
 1.267868059342734e+00	 2.135122242037470e-01	 1.865643600521039e+01
 1.262972799756726e+00	 2.407834915895561e-01	 1.855354428894087e+01
 1.257452467937382e+00	 2.681238185353585e-01	 1.842578137378300e+01
 9.780139375877577e-01	 2.085397565298897e-01	 2.799797046674836e+01
 9.732282518626567e-01	 2.298410867697774e-01	 2.735873097884706e+01
 9.679444735972303e-01	 2.511647027528097e-01	 2.666754234040315e+01
 9.621575490304195e-01	 2.724942383587359e-01	 2.592525091276918e+01
 9.558630981313170e-01	 2.938129209596946e-01	 2.513305272650068e+01
 9.490574463164518e-01	 3.151036037782406e-01	 2.429252258256670e+01
 9.417376544619561e-01	 3.363488008802307e-01	 2.340564668413246e+01
 9.339015469729997e-01	 3.575307247119079e-01	 2.247485893779062e+01
 9.255477376767898e-01	 3.786313260672552e-01	 2.150460739024382e+01
 9.166756533117869e-01	 3.996323363483558e-01	 2.051320855761607e+01
 9.072855543946887e-01	 4.205153119584039e-01	 1.950856087283866e+01
 1.005957286932442e+00	 2.144980553270330e-01	 2.634214595741029e+01
 1.001034866869323e+00	 2.364079970495257e-01	 2.579471374005323e+01
 9.956001230027207e-01	 2.583408612529186e-01	 2.520231916154686e+01
 9.896478571779088e-01	 2.802798142119563e-01	 2.456500545817741e+01
 9.831735642198082e-01	 3.022076040792304e-01	 2.388306208353766e+01
 9.761734645564871e-01	 3.241065941677249e-01	 2.315705541515908e+01
 9.686445350888163e-01	 3.459587989435013e-01	 2.238786451732090e+01
 9.605845380618937e-01	 3.677459226352754e-01	 2.157672222937438e+01
 9.519920476978457e-01	 3.894494003436981e-01	 2.073335205110203e+01
 9.428664743561648e-01	 4.110504415091603e-01	 1.987294182750999e+01
 9.332080859968964e-01	 4.325300755731782e-01	 1.899867778063941e+01
 1.033900809064698e+00	 2.204563909682513e-01	 2.492728420096417e+01
 1.028841653818079e+00	 2.429749479366804e-01	 2.445828717702400e+01
 1.023255943416817e+00	 2.655170641276424e-01	 2.395047735379175e+01
 1.017138335311623e+00	 2.880654382079921e-01	 2.340315790517508e+01
 1.010484199182470e+00	 3.106023391078166e-01	 2.281578184856937e+01
 1.003289650468314e+00	 3.331096402275058e-01	 2.218798390641964e+01
 9.955515820942422e-01	 3.555688564302433e-01	 2.151961896135265e+01
 9.872676941448952e-01	 3.779611837240812e-01	 2.081202713745673e+01
 9.784365212370704e-01	 4.002675415131576e-01	 2.008141267573423e+01
 9.690574573511884e-01	 4.224686172729492e-01	 1.933416551074694e+01
 9.591307778906869e-01	 4.445449134800435e-01	 1.857230858403633e+01
 1.061844481163376e+00	 2.264147585873002e-01	 2.371477720341028e+01
 1.056648589999446e+00	 2.495419340679484e-01	 2.331240977026401e+01
 1.050911912253332e+00	 2.726933055161279e-01	 2.287670312932887e+01
 1.044628960980404e+00	 2.958511039882981e-01	 2.240628031034483e+01
 1.037794980715018e+00	 3.189971191894753e-01	 2.189982379930920e+01
 1.030405981906447e+00	 3.421127346048312e-01	 2.135610801099064e+01
 1.022458773503548e+00	 3.651789654919957e-01	 2.077403991375189e+01
 1.013950993430165e+00	 3.881764996356359e-01	 2.015916260333393e+01
 1.004881136697554e+00	 4.110857407406144e-01	 1.952614358711182e+01
 9.952485809069749e-01	 4.338868543146990e-01	 1.887651857693523e+01
 9.850536089052931e-01	 4.565598158667258e-01	 1.821146417576249e+01
 1.089788280407326e+00	 2.323731533179351e-01	 2.267025811776581e+01
 1.084455652703946e+00	 2.561089500800370e-01	 2.232416327007542e+01
 1.078568006926077e+00	 2.798695795575211e-01	 2.194967301688234e+01
 1.072119711733095e+00	 3.036368051943285e-01	 2.154478791411266e+01
 1.065105886513163e+00	 3.273919374682280e-01	 2.110748253819810e+01
 1.057522436725401e+00	 3.511158699469488e-01	 2.063573792247317e+01
 1.049366087342045e+00	 3.747891182802978e-01	 2.012794164909079e+01
 1.040634414125863e+00	 3.983918620272496e-01	 1.959620724519968e+01
 1.031325872482387e+00	 4.219039891910489e-01	 1.904740544775308e+01
 1.021439823633639e+00	 4.453051433093856e-01	 1.848187981648175e+01
 1.010976557869949e+00	 4.685747729209517e-01	 1.790011990309268e+01
 1.117732183975401e+00	 2.383315702939115e-01	 2.176295377990873e+01
 1.112262819222097e+00	 2.626759906096530e-01	 2.146424837994754e+01
 1.106224204848864e+00	 2.870458803909685e-01	 2.114156876664648e+01
 1.099610565118535e+00	 3.114225354675377e-01	 2.079247239321403e+01
 1.092416894272622e+00	 3.357867870880968e-01	 2.041428890886493e+01
 1.084638992779690e+00	 3.601190389011061e-01	 2.000426941911427e+01
 1.076273501635047e+00	 3.843993069466884e-01	 1.956295911786532e+01
 1.067317934440150e+00	 4.086072625562317e-01	 1.910345936759676e+01
 1.057770706994659e+00	 4.327222780294419e-01	 1.862720220974302e+01
 1.047631164141299e+00	 4.567234749319856e-01	 1.813403103132774e+01
 1.036899603613889e+00	 4.805897748304470e-01	 1.762390624443438e+01
 1.145676169046448e+00	 2.442900046489848e-01	 2.096313072082350e+01
 1.140070066844422e+00	 2.692430502935035e-01	 2.070538663965835e+01
 1.133880483435503e+00	 2.942222021556163e-01	 2.042741042105149e+01
 1.127101498685569e+00	 3.192082884493805e-01	 2.012621830590567e+01
 1.119727981689108e+00	 3.441816611931036e-01	 1.979873162721617e+01
 1.111755627923829e+00	 3.691222341145509e-01	 1.944182003240751e+01
 1.103180994407867e+00	 3.940095236427069e-01	 1.906054025679467e+01
 1.094001532581186e+00	 4.188226928798923e-01	 1.866325609102913e+01
 1.084215618637461e+00	 4.435405984207741e-01	 1.824936631298062e+01
 1.073822581040071e+00	 4.681418398574753e-01	 1.781836421645991e+01
 1.062822724966346e+00	 4.926048117829381e-01	 1.736983904695074e+01
 1.173620212799320e+00	 2.502484515169107e-01	 2.024769827428311e+01
 1.167877372861441e+00	 2.758101237682956e-01	 2.002519925059576e+01
 1.161536820099807e+00	 3.013985389906112e-01	 1.978607753530547e+01
 1.154592489983037e+00	 3.269940577813111e-01	 1.952681642398263e+01
 1.147039126458333e+00	 3.525765529272700e-01	 1.924372604295629e+01
 1.138872320012333e+00	 3.781254482345309e-01	 1.893369308987791e+01
 1.130088543685817e+00	 4.036197605198918e-01	 1.860481715238577e+01
 1.120685186757132e+00	 4.290381446555419e-01	 1.826009631000032e+01
 1.110660585813882e+00	 4.543589415300263e-01	 1.789928409265732e+01
 1.100014052940070e+00	 4.795602287608307e-01	 1.752162540270703e+01
 1.088745900756555e+00	 5.046198739661513e-01	 1.712608273394723e+01
 1.201564292412866e+00	 2.562069060314446e-01	 1.959750895868045e+01
 1.195684714563675e+00	 2.823772056707362e-01	 1.940535413714075e+01
 1.189193192255588e+00	 3.085748850350990e-01	 1.920010566599313e+01
 1.182083516559782e+00	 3.347798371047843e-01	 1.897779805686823e+01
 1.174350306276014e+00	 3.609714554346182e-01	 1.873422001172474e+01
 1.165989046899716e+00	 3.871286739082939e-01	 1.846756943263134e+01
 1.156996127494211e+00	 4.132300097297828e-01	 1.818428677079095e+01
 1.147368875176148e+00	 4.392536095404900e-01	 1.788436485670934e+01
 1.137105586927013e+00	 4.651772985221790e-01	 1.756736325363399e+01
 1.126205558451413e+00	 4.909786323170283e-01	 1.723314338519587e+01
 1.114669109813747e+00	 5.166349515678125e-01	 1.688183341857083e+01
 1.229508385065936e+00	 2.621653633263420e-01	 1.899537190710025e+01
 1.223492069241644e+00	 2.889442906375325e-01	 1.882933563857721e+01
 1.216849577316657e+00	 3.157512344282265e-01	 1.865371796381284e+01
 1.209574555964643e+00	 3.425656200612539e-01	 1.846419895824573e+01
 1.201661498837862e+00	 3.693663618591697e-01	 1.825614624100291e+01
 1.193105786440491e+00	 3.961319037830875e-01	 1.802902322389177e+01
 1.183903723858361e+00	 4.228402634239186e-01	 1.778536656141961e+01
 1.174052576046394e+00	 4.494690791920469e-01	 1.752428884278409e+01
 1.163550600379945e+00	 4.759956605622128e-01	 1.724525973336049e+01
 1.152397076184217e+00	 5.023970412010444e-01	 1.694808770052942e+01
 1.140592330967159e+00	 5.286500347756483e-01	 1.663288249490203e+01
 1.257452467937382e+00	 2.681238185353585e-01	 1.842578137378300e+01
 1.251299414185870e+00	 2.955113733053915e-01	 1.828217418642902e+01
 1.244505952696826e+00	 3.229275813091398e-01	 1.813253111915392e+01
 1.237065585746464e+00	 3.503514002921749e-01	 1.797228403863564e+01
 1.228972681839593e+00	 3.777612653449466e-01	 1.779664676601825e+01
 1.220222516489175e+00	 4.051351305061596e-01	 1.760436744390534e+01
 1.210811310803579e+00	 4.324505137538382e-01	 1.739491389944371e+01
 1.200736267576031e+00	 4.596845452675225e-01	 1.716735467045146e+01
 1.189995604575767e+00	 4.868140188151084e-01	 1.692116927651457e+01
 1.178588584748600e+00	 5.138154460878553e-01	 1.665622299497658e+01
 1.166515543046022e+00	 5.406651137773846e-01	 1.637272699553398e+01
 9.072855543946887e-01	 4.205153119584039e-01	 1.950856087283867e+01
 8.973778426309759e-01	 4.412631267957646e-01	 1.849418447308378e+01
 8.869551416254857e-01	 4.618556531118257e-01	 1.747283885593843e+01
 8.760203156838144e-01	 4.822741974000463e-01	 1.644773199146886e+01
 8.645771165329884e-01	 5.025000860247010e-01	 1.542220276384543e+01
 8.526301882742356e-01	 5.225147171506273e-01	 1.439972294772015e+01
 8.401850687269298e-01	 5.422996134099225e-01	 1.338390160902300e+01
 8.272481870752481e-01	 5.618364750149920e-01	 1.237849212859266e+01
 8.138268577557128e-01	 5.811072330167580e-01	 1.138740192841703e+01
 7.999292705517563e-01	 6.000941023989975e-01	 1.041470484511675e+01
 7.855644768903997e-01	 6.187796346948449e-01	 9.464655948173213e+00
 9.332080859968964e-01	 4.325300755731782e-01	 1.899867778063940e+01
 9.230172958028483e-01	 4.538706871152773e-01	 1.811222572480208e+01
 9.122968023392436e-01	 4.750515733063471e-01	 1.721519417558309e+01
 9.010495517492522e-01	 4.960535065378229e-01	 1.631068863682142e+01
 8.892794029524570e-01	 5.168572796396937e-01	 1.540199509117631e+01
 8.769911327391363e-01	 5.374437592939640e-01	 1.449258024909300e+01
 8.641904371526012e-01	 5.577939402061163e-01	 1.358609438785272e+01
 8.508839290686183e-01	 5.778889997356799e-01	 1.268637707437665e+01
 8.370791319083113e-01	 5.977103526761108e-01	 1.179746593084217e+01
 8.227844694497054e-01	 6.172397058661132e-01	 1.092360844678722e+01
 8.080092517328882e-01	 6.364591123094784e-01	 1.006927667037150e+01
 9.591307778906869e-01	 4.445449134800435e-01	 1.857230858403633e+01
 9.486569075157691e-01	 4.664783253921077e-01	 1.779635889901507e+01
 9.376386197525096e-01	 4.882475750959822e-01	 1.700733264475593e+01
 9.260789425821591e-01	 5.098329008777818e-01	 1.620816981904545e+01
 9.139818421175246e-01	 5.312145620299172e-01	 1.540202381567897e+01
 9.013522278387542e-01	 5.523728937482784e-01	 1.459225978346589e+01
 8.881959540140804e-01	 5.732883628084737e-01	 1.378245596127308e+01
 8.745198172119975e-01	 5.939416237139308e-01	 1.297640839713784e+01
 8.603315498395214e-01	 6.143135749974521e-01	 1.217813930458943e+01
 8.456398096707236e-01	 6.343854153495323e-01	 1.139190912862219e+01
 8.304541653603594e-01	 6.541386992415416e-01	 1.062223219317377e+01
 9.850536089052931e-01	 4.565598158667258e-01	 1.821146417576249e+01
 9.742966568301713e-01	 4.790860313298844e-01	 1.753091449035735e+01
 9.629805731689358e-01	 5.014436477038849e-01	 1.683572296569447e+01
 9.511084677413623e-01	 5.236123691666600e-01	 1.612861268223600e+01
 9.386844138540557e-01	 5.455719214701843e-01	 1.541253671659017e+01
 9.257134536777512e-01	 5.673021083213856e-01	 1.469067431951261e+01
 9.122015997064505e-01	 5.887828685631714e-01	 1.396643068232461e+01
 8.981558322023641e-01	 6.099943338400655e-01	 1.324344083623500e+01
 8.835840925595265e-01	 6.309168864214516e-01	 1.252557804934191e+01
 8.684952725493106e-01	 6.515312168468947e-01	 1.181696687469563e+01
 8.528991994425288e-01	 6.718183810526724e-01	 1.112200076651918e+01
 1.010976557869949e+00	 4.685747729209517e-01	 1.790011990309268e+01
 9.999365228064881e-01	 4.916937946322368e-01	 1.730191866954996e+01
 9.883226418921769e-01	 5.146397803532091e-01	 1.668828164544821e+01
 9.761381067856885e-01	 5.373919001511942e-01	 1.606167503309265e+01
 9.633870979879176e-01	 5.599293462353078e-01	 1.542479552342339e+01
 9.500747903607883e-01	 5.822313908211019e-01	 1.478056386533238e+01
 9.362073546247942e-01	 6.042774448163852e-01	 1.413212286965142e+01
 9.217919547367011e-01	 6.260471170044052e-01	 1.348284055406243e+01
 9.068367410785103e-01	 6.475202733887814e-01	 1.283631892586513e+01
 8.913508394199655e-01	 6.686770963558415e-01	 1.219640865170726e+01
 8.753443356491133e-01	 6.894981433045083e-01	 1.156722958485622e+01
 1.036899603613889e+00	 4.805897748304470e-01	 1.762390624443438e+01
 1.025576484505152e+00	 5.043016050027935e-01	 1.709681087127746e+01
 1.013664805225885e+00	 5.278359622671089e-01	 1.655411523823732e+01
 1.001167839273965e+00	 5.511714825781215e-01	 1.599800010541159e+01
 9.880898743449751e-01	 5.742868246001001e-01	 1.543086120324853e+01
 9.744362179925259e-01	 5.971607290552423e-01	 1.485529962000367e+01
 9.602131991641952e-01	 6.197720789142912e-01	 1.427411771272428e+01
 9.454281655119877e-01	 6.420999600972692e-01	 1.369032143853701e+01
 9.300894764066567e-01	 6.641237223401113e-01	 1.310712975903136e+01
 9.142064916171869e-01	 6.858230398740129e-01	 1.252799148015461e+01
 8.977895556498290e-01	 7.071779715586872e-01	 1.195660956224359e+01
 1.062822724966346e+00	 4.926048117829381e-01	 1.736983904695073e+01
 1.051216520986597e+00	 5.169094521451840e-01	 1.690419661185479e+01
 1.039007042473715e+00	 5.410321826687384e-01	 1.642329383549169e+01
 1.026197644765019e+00	 5.649511051941787e-01	 1.592900892538895e+01
 1.012792722751094e+00	 5.886443448393746e-01	 1.542340352177193e+01
 9.987977166776254e-01	 6.120901108316226e-01	 1.490870917496113e+01
 9.842191137197361e-01	 6.352667582030658e-01	 1.438732068772612e+01
 9.690644452252052e-01	 6.581528500089799e-01	 1.386179744235185e+01
 9.533422795541483e-01	 6.807272197161121e-01	 1.333487354816612e+01
 9.370622104754750e-01	 7.029690333990507e-01	 1.280947730583604e+01
 9.202348411143920e-01	 7.248578513768460e-01	 1.228876010015234e+01
 1.088745900756555e+00	 5.046198739661513e-01	 1.712608273394723e+01
 1.076856611311257e+00	 5.295173257630371e-01	 1.671362966722822e+01
 1.064349332939321e+00	 5.542284307812514e-01	 1.628665059775797e+01
 1.051227502817678e+00	 5.787307567461020e-01	 1.584671567970679e+01
 1.037495623032141e+00	 6.030018952279438e-01	 1.539553083467611e+01
 1.023159266520749e+00	 6.270195239580590e-01	 1.493491942564901e+01
 1.008225078686499e+00	 6.507614700288847e-01	 1.446681240108573e+01
 9.927007745733348e-01	 6.742057736298567e-01	 1.399324828830841e+01
 9.765951315311691e-01	 6.973307519574549e-01	 1.351638408561451e+01
 9.599179773293283e-01	 7.201150629285950e-01	 1.303851770709346e+01
 9.426801737125188e-01	 7.425377683206226e-01	 1.256216812536199e+01
 1.114669109813747e+00	 5.166349515678125e-01	 1.688183341857083e+01
 1.102496734539564e+00	 5.421252155599821e-01	 1.651541883375161e+01
 1.089691655926353e+00	 5.674246958278018e-01	 1.613560309113069e+01
 1.076257392990768e+00	 5.925104259806290e-01	 1.574356234380559e+01
 1.062198555013982e+00	 6.173594640406204e-01	 1.534063681798785e+01
 1.047520847626556e+00	 6.419489562423668e-01	 1.492821431248096e+01
 1.032231074459569e+00	 6.662562017379239e-01	 1.450771635131608e+01
 1.016337134253357e+00	 6.902587178502210e-01	 1.408059636702751e+01
 9.998480133479023e-01	 7.139343055048102e-01	 1.364835121230896e+01
 9.827737735132461e-01	 7.372611144602862e-01	 1.321254683887460e+01
 9.651255351139258e-01	 7.602177079516546e-01	 1.277883940563984e+01
 1.140592330967159e+00	 5.286500347756483e-01	 1.663288249490203e+01
 1.128136869731951e+00	 5.547331112396476e-01	 1.630277178776140e+01
 1.115033990738468e+00	 5.806209670315439e-01	 1.596212883165502e+01
 1.101287294843115e+00	 6.062901016444959e-01	 1.561226950824662e+01
 1.086901498522482e+00	 6.317170395522175e-01	 1.525226144470719e+01
 1.071882440099709e+00	 6.568783954923613e-01	 1.488290503403624e+01
 1.056237081434027e+00	 6.817509406763600e-01	 1.450507755617370e+01
 1.039973504962253e+00	 7.063116695603934e-01	 1.411959304869668e+01
 1.023100906014532e+00	 7.305378667988487e-01	 1.372721417950209e+01
 1.005629580361728e+00	 7.544071739917663e-01	 1.332957922820980e+01
 9.875709069883291e-01	 7.778976558315790e-01	 1.293478116730589e+01
 1.166515543046022e+00	 5.406651137773846e-01	 1.637272699553398e+01
 1.153776995948852e+00	 5.673410025056632e-01	 1.607423719025997e+01
 1.140376316679318e+00	 5.938172336156315e-01	 1.576529332675897e+01
 1.126317187933549e+00	 6.200697724844398e-01	 1.544786146272267e+01
 1.111604433383508e+00	 6.460746100375476e-01	 1.512396649154950e+01
 1.096244024044868e+00	 6.718078295158587e-01	 1.479321079456488e+01
 1.080243080004956e+00	 6.972456741903688e-01	 1.445375035726025e+01
 1.063609867397003e+00	 7.223646156506948e-01	 1.410571294681395e+01
 1.046353790541240e+00	 7.471414222802413e-01	 1.374903642197820e+01
 1.028485379209273e+00	 7.715532275206749e-01	 1.338520530567911e+01
 1.010016271005445e+00	 7.955775975220339e-01	 1.302149231132186e+01
 7.855644768903997e-01	 6.187796346948449e-01	 9.464655948173213e+00
 7.707423701765810e-01	 6.371467715387087e-01	 8.542488438460193e+00
 7.554736580333883e-01	 6.551789005581102e-01	 7.651575045888083e+00
 7.397698440641727e-01	 6.728598994536507e-01	 6.793418364296354e+00
 7.236432017326105e-01	 6.901741818186914e-01	 5.971736673182027e+00
 7.071067426773200e-01	 7.071067426773202e-01	 5.189176858469501e+00
 6.901741818186911e-01	 7.236432017326108e-01	 4.446097782964868e+00
 6.728598994536503e-01	 7.397698440641729e-01	 3.742666560159628e+00
 6.551789005581099e-01	 7.554736580333886e-01	 3.089695177481526e+00
 6.371467715387082e-01	 7.707423701765813e-01	 2.500637039352293e+00
 6.187796346948450e-01	 7.855644768903999e-01	 1.975032026115110e+00
 8.080092517328882e-01	 6.364591123094784e-01	 1.006927667037150e+01
 7.927636548324526e-01	 6.553510262570685e-01	 9.237082587540883e+00
 7.770586923045764e-01	 6.738983606956130e-01	 8.427129452547479e+00
 7.609061964280683e-01	 6.920845326870669e-01	 7.640189863311366e+00
 7.443187913381445e-01	 7.098935104974183e-01	 6.876925711770049e+00
 7.273098604357455e-01	 7.273098604357457e-01	 6.139263357410218e+00
 7.098935104974181e-01	 7.443187913381450e-01	 5.430713220302042e+00
 6.920845326870666e-01	 7.609061964280688e-01	 4.768000370721037e+00
 6.738983606956129e-01	 7.770586923045766e-01	 4.158966386555878e+00
 6.553510262570683e-01	 7.927636548324528e-01	 3.603140948262210e+00
 6.364591123094785e-01	 8.080092517328882e-01	 3.099445653285400e+00
 8.304541653603594e-01	 6.541386992415416e-01	 1.062223219317377e+01
 8.147850756544253e-01	 6.735553935377888e-01	 9.868706968483380e+00
 7.986438600440896e-01	 6.926179365812711e-01	 9.127970769484643e+00
 7.820426794856533e-01	 7.113092847924433e-01	 8.400189852728335e+00
 7.649945087880469e-01	 7.296129611071622e-01	 7.685437902048012e+00
 7.475131031168395e-01	 7.475131031168395e-01	 6.985632140618095e+00
 7.296129611071620e-01	 7.649945087880472e-01	 6.321041161939460e+00
 7.113092847924429e-01	 7.820426794856536e-01	 5.700703829755545e+00
 6.926179365812707e-01	 7.986438600440897e-01	 5.124817847351169e+00
 6.735553935377886e-01	 8.147850756544255e-01	 4.592538118253447e+00
 6.541386992415414e-01	 8.304541653603593e-01	 4.102375666285533e+00
 8.528991994425288e-01	 6.718183810526724e-01	 1.112200076651918e+01
 8.368066146581035e-01	 6.917598585139281e-01	 1.043699637488647e+01
 8.202291436238366e-01	 7.113376129273762e-01	 9.755036281629232e+00
 8.031792759752938e-01	 7.305341400694941e-01	 9.075782111595489e+00
 7.856703371970063e-01	 7.493325175436125e-01	 8.401484793106265e+00
 7.677164542211711e-01	 7.677164542211715e-01	 7.751459234218799e+00
 7.493325175436122e-01	 7.856703371970066e-01	 7.131468902167716e+00
 7.305341400694939e-01	 8.031792759752939e-01	 6.543835140490966e+00
 7.113376129273761e-01	 8.202291436238369e-01	 5.992039792024872e+00
 6.917598585139278e-01	 8.368066146581038e-01	 5.475483838069821e+00
 6.718183810526726e-01	 8.528991994425289e-01	 4.992413695737376e+00
 8.753443356491133e-01	 6.894981433045083e-01	 1.156722958485622e+01
 8.588282538590901e-01	 7.099644063185453e-01	 1.094165939268194e+01
 8.418145254157282e-01	 7.300573744462209e-01	 1.030923344292520e+01
 8.243159686353577e-01	 7.497590828179351e-01	 9.671704441748567e+00
 8.063462596797111e-01	 7.690521637024613e-01	 9.047278724283741e+00
 7.879198972493110e-01	 7.879198972493112e-01	 8.442095460689323e+00
 7.690521637024609e-01	 8.063462596797115e-01	 7.858584527963468e+00
 7.497590828179349e-01	 8.243159686353581e-01	 7.298607993174521e+00
 7.300573744462203e-01	 8.418145254157282e-01	 6.763913534566365e+00
 7.099644063185451e-01	 8.588282538590902e-01	 6.256983542827625e+00
 6.894981433045083e-01	 8.753443356491133e-01	 5.776360584021257e+00
 8.977895556498290e-01	 7.071779715586872e-01	 1.195660956224359e+01
 8.808499752729879e-01	 7.281690220846991e-01	 1.138236543200405e+01
 8.633999877916736e-01	 7.487772058500974e-01	 1.079297898911566e+01
 8.454527402042118e-01	 7.689840973374810e-01	 1.020456277629290e+01
 8.270222593508504e-01	 7.887718834793984e-01	 9.624351765121485e+00
 8.081234157018283e-01	 8.081234157018284e-01	 9.055575436488954e+00
 7.887718834793981e-01	 8.270222593508506e-01	 8.500947643022062e+00
 7.689840973374806e-01	 8.454527402042122e-01	 7.962597027517891e+00
 7.487772058500971e-01	 8.633999877916738e-01	 7.442005632819956e+00
 7.281690220846985e-01	 8.808499752729879e-01	 6.940481726997850e+00
 7.071779715586873e-01	 8.977895556498291e-01	 6.459338105395093e+00
 9.202348411143920e-01	 7.248578513768460e-01	 1.228876010015234e+01
 9.028717609154008e-01	 7.463736909454481e-01	 1.175926526280564e+01
 8.849855131235829e-01	 7.674970918512983e-01	 1.121773482349800e+01
 8.665895734202234e-01	 7.882091679278471e-01	 1.067286311470025e+01
 8.476983193251116e-01	 8.084916607701144e-01	 1.012874160366009e+01
 8.283269930792926e-01	 8.283269930792929e-01	 9.589034509131103e+00
 8.084916607701140e-01	 8.476983193251121e-01	 9.056889302425128e+00
 7.882091679278467e-01	 8.665895734202237e-01	 8.534852433547217e+00
 7.674970918512980e-01	 8.849855131235832e-01	 8.024793416890869e+00
 7.463736909454478e-01	 9.028717609154008e-01	 7.527840358119181e+00
 7.248578513768460e-01	 9.202348411143921e-01	 7.044883980463455e+00
 9.426801737125188e-01	 7.425377683206226e-01	 1.256216812536199e+01
 9.248935928019314e-01	 7.645783980338511e-01	 1.207903056252758e+01
 9.065710837833660e-01	 7.862170171621161e-01	 1.158033922691874e+01
 8.877264510217600e-01	 8.074342788887477e-01	 1.107103954083155e+01
 8.683744227171846e-01	 8.282114794703002e-01	 1.055577778318716e+01
 8.485306128822743e-01	 8.485306128822749e-01	 1.003879334202010e+01
 8.282114794702999e-01	 8.683744227171846e-01	 9.523812121738509e+00
 8.074342788887474e-01	 8.877264510217601e-01	 9.013944690174252e+00
 7.862170171621163e-01	 9.065710837833664e-01	 8.511592850587006e+00
 7.645783980338509e-01	 9.248935928019317e-01	 8.018368289516863e+00
 7.425377683206227e-01	 9.426801737125189e-01	 7.535026778404317e+00
 9.651255351139258e-01	 7.602177079516546e-01	 1.277883940563984e+01
 9.469154529481835e-01	 7.827831284829673e-01	 1.233777952526537e+01
 9.281566821429328e-01	 8.049369664948434e-01	 1.187396572821564e+01
 9.088633557471882e-01	 8.266594145198987e-01	 1.139298105136311e+01
 8.890505526417565e-01	 8.479313234756463e-01	 1.090015587940550e+01
 8.687342586113437e-01	 8.687342586113439e-01	 1.040044149936235e+01
 8.479313234756460e-01	 8.890505526417571e-01	 9.898283545271013e+00
 8.266594145198983e-01	 9.088633557471885e-01	 9.397499501665484e+00
 8.049369664948431e-01	 9.281566821429332e-01	 8.901164579311384e+00
 7.827831284829668e-01	 9.469154529481838e-01	 8.411510266110799e+00
 7.602177079516547e-01	 9.651255351139258e-01	 7.929839684403365e+00
 9.875709069883291e-01	 7.778976558315790e-01	 1.293478116730589e+01
 9.689373233697599e-01	 8.009878674258550e-01	 1.252772174908910e+01
 9.497422905741931e-01	 8.236569245617722e-01	 1.209138223915387e+01
 9.300002703348756e-01	 8.458845591210141e-01	 1.163209888052464e+01
 9.097266922135174e-01	 8.676511766818438e-01	 1.115601241464737e+01
 8.889379137670695e-01	 8.889379137670700e-01	 1.066892019075208e+01
 8.676511766818432e-01	 9.097266922135178e-01	 1.017612660588524e+01
 8.458845591210142e-01	 9.300002703348764e-01	 9.682296703340526e+00
 8.236569245617719e-01	 9.497422905741937e-01	 9.191317955182067e+00
 8.009878674258545e-01	 9.689373233697604e-01	 8.706175273465684e+00
 7.778976558315791e-01	 9.875709069883292e-01	 8.228844127315213e+00
 1.010016271005445e+00	 7.955775975220339e-01	 1.302149231132186e+01
 9.909591860822649e-01	 8.191925999955730e-01	 1.264078036380521e+01
 9.713278914490570e-01	 8.423768760751950e-01	 1.222501409947870e+01
 9.511371775231903e-01	 8.651096969918102e-01	 1.178139569135421e+01
 9.304028245471552e-01	 8.873710229845827e-01	 1.131700039484078e+01
 9.091415618500224e-01	 9.091415618500228e-01	 1.083860430647945e+01
 8.873710229845823e-01	 9.304028245471554e-01	 1.035250856686620e+01
 8.651096969918097e-01	 9.511371775231905e-01	 9.864365576041633e+00
 8.423768760751945e-01	 9.713278914490573e-01	 9.379013049900854e+00
 8.191925999955728e-01	 9.909591860822652e-01	 8.900321801003654e+00
 7.955775975220341e-01	 1.010016271005445e+00	 8.431062967356642e+00
 6.187796346948450e-01	 7.855644768903999e-01	 1.975032026115110e+00
 6.000941023989972e-01	 7.999292705517564e-01	 1.508613897068409e+00
 5.811072330167577e-01	 8.138268577557130e-01	 1.096276700058843e+00
 5.618364750149918e-01	 8.272481870752482e-01	 7.353617985440797e-01
 5.422996134099223e-01	 8.401850687269302e-01	 4.226154724339663e-01
 5.225147171506268e-01	 8.526301882742356e-01	 1.542714694669597e-01
 5.025000860247008e-01	 8.645771165329886e-01	-7.386444713106920e-02
 4.822741974000460e-01	 8.760203156838146e-01	-2.663296928596759e-01
 4.618556531118254e-01	 8.869551416254861e-01	-4.279214343949319e-01
 4.412631267957642e-01	 8.973778426309756e-01	-5.636160385487753e-01
 4.205153119584038e-01	 9.072855543946884e-01	-6.784927277993319e-01
 6.364591123094785e-01	 8.080092517328882e-01	 3.099445653285400e+00
 6.172397058661131e-01	 8.227844694497056e-01	 2.641875438861733e+00
 5.977103526761105e-01	 8.370791319083116e-01	 2.224902023627674e+00
 5.778889997356798e-01	 8.508839290686186e-01	 1.847329317516200e+00
 5.577939402061159e-01	 8.641904371526015e-01	 1.507469507236524e+00
 5.374437592939638e-01	 8.769911327391362e-01	 1.203219530511062e+00
 5.168572796396933e-01	 8.892794029524572e-01	 9.321388069445413e-01
 4.960535065378226e-01	 9.010495517492524e-01	 6.915264247513246e-01
 4.750515733063467e-01	 9.122968023392442e-01	 4.784961061445326e-01
 4.538706871152770e-01	 9.230172958028487e-01	 2.900474364976480e-01
 4.325300755731782e-01	 9.332080859968964e-01	 1.231320362596002e-01
 6.541386992415414e-01	 8.304541653603593e-01	 4.102375666285533e+00
 6.343854153495321e-01	 8.456398096707239e-01	 3.647424116667470e+00
 6.143135749974517e-01	 8.603315498395214e-01	 3.222265941949217e+00
 5.939416237139304e-01	 8.745198172119976e-01	 2.826856561836208e+00
 5.732883628084736e-01	 8.881959540140808e-01	 2.460743412842186e+00
 5.523728937482780e-01	 9.013522278387542e-01	 2.123139852013495e+00
 5.312145620299170e-01	 9.139818421175249e-01	 1.812999608301078e+00
 5.098329008777814e-01	 9.260789425821592e-01	 1.529089868668154e+00
 4.882475750959819e-01	 9.376386197525096e-01	 1.270061234378918e+00
 4.664783253921073e-01	 9.486569075157696e-01	 1.034512973218401e+00
 4.445449134800435e-01	 9.591307778906868e-01	 8.210522173864752e-01
 6.718183810526726e-01	 8.528991994425289e-01	 4.992413695737376e+00
 6.515312168468942e-01	 8.684952725493106e-01	 4.535681699464595e+00
 6.309168864214512e-01	 8.835840925595269e-01	 4.100359882873020e+00
 6.099943338400652e-01	 8.981558322023646e-01	 3.687259462035628e+00
 5.887828685631709e-01	 9.122015997064505e-01	 3.296848658962558e+00
 5.673021083213853e-01	 9.257134536777515e-01	 2.929327555945563e+00
 5.455719214701842e-01	 9.386844138540561e-01	 2.584702809065795e+00
 5.236123691666594e-01	 9.511084677413623e-01	 2.262860144998624e+00
 5.014436477038846e-01	 9.629805731689360e-01	 1.963632741703190e+00
 4.790860313298839e-01	 9.742966568301714e-01	 1.686863816022400e+00
 4.565598158667258e-01	 9.850536089052930e-01	 1.432462000146363e+00
 6.894981433045083e-01	 8.753443356491133e-01	 5.776360584021257e+00
 6.686770963558412e-01	 8.913508394199657e-01	 5.315155334366907e+00
 6.475202733887807e-01	 9.068367410785110e-01	 4.869168591284061e+00
 6.260471170044049e-01	 9.217919547367011e-01	 4.439784228751677e+00
 6.042774448163849e-01	 9.362073546247945e-01	 4.028090141469498e+00
 5.822313908211014e-01	 9.500747903607886e-01	 3.634957604797193e+00
 5.599293462353074e-01	 9.633870979879180e-01	 3.261119815464616e+00
 5.373919001511939e-01	 9.761381067856886e-01	 2.907247321909184e+00
 5.146397803532088e-01	 9.883226418921770e-01	 2.574018261301497e+00
 4.916937946322363e-01	 9.999365228064883e-01	 2.262181579395641e+00
 4.685747729209517e-01	 1.010976557869950e+00	 1.972611708401189e+00
 7.071779715586873e-01	 8.977895556498291e-01	 6.459338105395093e+00
 6.858230398740128e-01	 9.142064916171876e-01	 5.992570225161030e+00
 6.641237223401107e-01	 9.300894764066570e-01	 5.536820014909882e+00
 6.420999600972689e-01	 9.454281655119876e-01	 5.093770970155667e+00
 6.197720789142910e-01	 9.602131991641956e-01	 4.664840344778614e+00
 5.971607290552420e-01	 9.744362179925262e-01	 4.251266623328955e+00
 5.742868246000997e-01	 9.880898743449749e-01	 3.854195495090236e+00
 5.511714825781210e-01	 1.001167839273965e+00	 3.474761769443304e+00
 5.278359622671086e-01	 1.013664805225886e+00	 3.114164916037582e+00
 5.043016050027932e-01	 1.025576484505152e+00	 2.773736213895638e+00
 4.805897748304470e-01	 1.036899603613889e+00	 2.454995838369801e+00
 7.248578513768460e-01	 9.202348411143921e-01	 7.044883980463455e+00
 7.029690333990503e-01	 9.370622104754753e-01	 6.572982658713794e+00
 6.807272197161115e-01	 9.533422795541486e-01	 6.109713135202870e+00
 6.581528500089794e-01	 9.690644452252051e-01	 5.656793353623966e+00
 6.352667582030656e-01	 9.842191137197364e-01	 5.215688106047001e+00
 6.120901108316223e-01	 9.987977166776257e-01	 4.787708292952508e+00
 5.886443448393742e-01	 1.012792722751094e+00	 4.374107994319818e+00
 5.649511051941782e-01	 1.026197644765020e+00	 3.976176466037265e+00
 5.410321826687380e-01	 1.039007042473716e+00	 3.595322460034271e+00
 5.169094521451836e-01	 1.051216520986598e+00	 3.233148614014084e+00
 4.926048117829381e-01	 1.062822724966346e+00	 2.891514053232610e+00
 7.425377683206227e-01	 9.426801737125189e-01	 7.535026778404317e+00
 7.201150629285947e-01	 9.599179773293286e-01	 7.059876654928509e+00
 6.973307519574544e-01	 9.765951315311694e-01	 6.592627419234402e+00
 6.742057736298561e-01	 9.927007745733349e-01	 6.134778304210684e+00
 6.507614700288840e-01	 1.008225078686499e+00	 5.687566213990499e+00
 6.270195239580587e-01	 1.023159266520749e+00	 5.252086722944078e+00
 6.030018952279435e-01	 1.037495623032141e+00	 4.829405980390705e+00
 5.787307567461019e-01	 1.051227502817678e+00	 4.420666443397412e+00
 5.542284307812508e-01	 1.064349332939321e+00	 4.027183497704263e+00
 5.295173257630367e-01	 1.076856611311257e+00	 3.650530426920246e+00
 5.046198739661513e-01	 1.088745900756555e+00	 3.292609644978140e+00
 7.602177079516547e-01	 9.651255351139258e-01	 7.929839684403365e+00
 7.372611144602862e-01	 9.827737735132466e-01	 7.455246906634761e+00
 7.139343055048097e-01	 9.998480133479026e-01	 6.988816884788689e+00
 6.902587178502206e-01	 1.016337134253357e+00	 6.532108989836060e+00
 6.662562017379237e-01	 1.032231074459569e+00	 6.085861287795545e+00
 6.419489562423665e-01	 1.047520847626557e+00	 5.650671383481047e+00
 6.173594640406199e-01	 1.062198555013982e+00	 5.227126982910207e+00
 5.925104259806288e-01	 1.076257392990768e+00	 4.815929091036427e+00
 5.674246958278015e-01	 1.089691655926354e+00	 4.418004511379413e+00
 5.421252155599816e-01	 1.102496734539564e+00	 4.034604773089582e+00
 5.166349515678127e-01	 1.114669109813748e+00	 3.667020997433219e+00
 7.778976558315791e-01	 9.875709069883292e-01	 8.228844127315213e+00
 7.544071739917655e-01	 1.005629580361728e+00	 7.759623429158040e+00
 7.305378667988485e-01	 1.023100906014532e+00	 7.300091226921870e+00
 7.063116695603932e-01	 1.039973504962253e+00	 6.851713752333788e+00
 6.817509406763597e-01	 1.056237081434027e+00	 6.414508755275628e+00
 6.568783954923610e-01	 1.071882440099709e+00	 5.988296533807535e+00
 6.317170395522168e-01	 1.086901498522482e+00	 5.572899841569464e+00
 6.062901016444956e-01	 1.101287294843116e+00	 5.168288365303592e+00
 5.806209670315434e-01	 1.115033990738469e+00	 4.774091907139173e+00
 5.547331112396472e-01	 1.128136869731951e+00	 4.382451247999397e+00
 5.286500347756483e-01	 1.140592330967159e+00	 3.996713027038045e+00
 7.955775975220341e-01	 1.010016271005445e+00	 8.431062967356642e+00
 7.715532275206743e-01	 1.028485379209273e+00	 7.972634627831848e+00
 7.471414222802408e-01	 1.046353790541241e+00	 7.526920475838969e+00
 7.223646156506944e-01	 1.063609867397003e+00	 7.095143170852067e+00
 6.972456741903684e-01	 1.080243080004956e+00	 6.676075248337174e+00
 6.718078295158584e-01	 1.096244024044868e+00	 6.268447557455460e+00
 6.460746100375473e-01	 1.111604433383508e+00	 5.871021373700987e+00
 6.200697724844397e-01	 1.126317187933550e+00	 5.472131331102956e+00
 5.938172336156310e-01	 1.140376316679318e+00	 5.066962293733497e+00
 5.673410025056627e-01	 1.153776995948852e+00	 4.662724968144462e+00
 5.406651137773846e-01	 1.166515543046022e+00	 4.266764247847464e+00
 4.205153119584038e-01	 9.072855543946884e-01	-6.784927277993339e-01
 3.996323363483559e-01	 9.166756533117867e-01	-7.743204371584245e-01
 3.786313260672554e-01	 9.255477376767897e-01	-8.502428593797138e-01
 3.575307247119081e-01	 9.339015469729992e-01	-9.067097875442740e-01
 3.363488008802308e-01	 9.417376544619560e-01	-9.427273910644891e-01
 3.151036037782408e-01	 9.490574463164519e-01	-9.606171588014587e-01
 2.938129209596947e-01	 9.558630981313170e-01	-9.631329718086308e-01
 2.724942383587361e-01	 9.621575490304196e-01	-9.530919912411222e-01
 2.511647027528098e-01	 9.679444735972303e-01	-9.333319816882160e-01
 2.298410867697775e-01	 9.732282518626566e-01	-9.066781334154719e-01
 2.085397565298897e-01	 9.780139375877577e-01	-8.759186665674612e-01
 4.325300755731782e-01	 9.332080859968964e-01	 1.231320362595993e-01
 4.110504415091605e-01	 9.428664743561647e-01	-2.223677968820681e-02
 3.894494003436983e-01	 9.519920476978455e-01	-1.449329911475610e-01
 3.677459226352754e-01	 9.605845380618936e-01	-2.462379003368187e-01
 3.459587989435014e-01	 9.686445350888160e-01	-3.251842977189963e-01
 3.241065941677250e-01	 9.761734645564871e-01	-3.829085494971562e-01
 3.022076040792306e-01	 9.831735642198083e-01	-4.224903498780215e-01
 2.802798142119565e-01	 9.896478571779088e-01	-4.470430361151809e-01
 2.583408612529187e-01	 9.956001230027205e-01	-4.596674755037808e-01
 2.364079970495259e-01	 1.001034866869323e+00	-4.634175861088226e-01
 2.144980553270330e-01	 1.005957286932442e+00	-4.612765475320511e-01
 4.445449134800435e-01	 9.591307778906868e-01	 8.210522173864743e-01
 4.224686172729494e-01	 9.690574573511885e-01	 6.308520820783408e-01
 4.002675415131577e-01	 9.784365212370704e-01	 4.649701791362970e-01
 3.779611837240814e-01	 9.872676941448952e-01	 3.219772565571617e-01
 3.555688564302435e-01	 9.955515820942422e-01	 2.014544176918793e-01
 3.331096402275061e-01	 1.003289650468314e+00	 1.042180172118417e-01
 3.106023391078169e-01	 1.010484199182470e+00	 2.721358613511793e-02
 2.880654382079924e-01	 1.017138335311623e+00	-3.288241811505088e-02
 2.655170641276426e-01	 1.023255943416817e+00	-7.933636439085490e-02
 2.429749479366805e-01	 1.028841653818079e+00	-1.153230031631578e-01
 2.204563909682513e-01	 1.033900809064697e+00	-1.439038882479302e-01
 4.565598158667258e-01	 9.850536089052930e-01	 1.432462000146363e+00
 4.338868543146991e-01	 9.952485809069745e-01	 1.202223708412712e+00
 4.110857407406146e-01	 1.004881136697554e+00	 9.968645858560894e-01
 3.881764996356362e-01	 1.013950993430165e+00	 8.148894984828661e-01
 3.651789654919959e-01	 1.022458773503548e+00	 6.550636065720319e-01
 3.421127346048313e-01	 1.030405981906447e+00	 5.187484739751862e-01
 3.189971191894755e-01	 1.037794980715018e+00	 4.040627737243909e-01
 2.958511039882982e-01	 1.044628960980404e+00	 3.075519684543160e-01
 2.726933055161281e-01	 1.050911912253332e+00	 2.258769437946189e-01
 2.495419340679486e-01	 1.056648589999446e+00	 1.558469819646855e-01
 2.264147585873002e-01	 1.061844481163375e+00	 9.443738777245736e-02
 4.685747729209517e-01	 1.010976557869950e+00	 1.972611708401188e+00
 4.453051433093857e-01	 1.021439823633639e+00	 1.707268273467970e+00
 4.219039891910492e-01	 1.031325872482387e+00	 1.466308736149348e+00
 3.983918620272496e-01	 1.040634414125863e+00	 1.248213117296391e+00
 3.747891182802979e-01	 1.049366087342045e+00	 1.051656938310169e+00
 3.511158699469489e-01	 1.057522436725401e+00	 8.769541273433856e-01
 3.273919374682281e-01	 1.065105886513163e+00	 7.244717116453954e-01
 3.036368051943286e-01	 1.072119711733095e+00	 5.907868893169379e-01
 2.798695795575213e-01	 1.078568006926077e+00	 4.725765183979695e-01
 2.561089500800371e-01	 1.084455652703945e+00	 3.667367131087871e-01
 2.323731533179350e-01	 1.089788280407326e+00	 2.703946226419043e-01
 4.805897748304470e-01	 1.036899603613889e+00	 2.454995838369800e+00
 4.567234749319857e-01	 1.047631164141299e+00	 2.159674575513615e+00
 4.327222780294420e-01	 1.057770706994659e+00	 1.887206486910793e+00
 4.086072625562316e-01	 1.067317934440150e+00	 1.636078955686380e+00
 3.843993069466886e-01	 1.076273501635047e+00	 1.405042516254055e+00
 3.601190389011063e-01	 1.084638992779690e+00	 1.193550247245828e+00
 3.357867870880970e-01	 1.092416894272622e+00	 1.003349361139419e+00
 3.114225354675380e-01	 1.099610565118535e+00	 8.318829754271557e-01
 2.870458803909687e-01	 1.106224204848864e+00	 6.759293252653529e-01
 2.626759906096531e-01	 1.112262819222097e+00	 5.326002666793594e-01
 2.383315702939115e-01	 1.117732183975401e+00	 4.002996328919965e-01
 4.926048117829381e-01	 1.062822724966346e+00	 2.891514053232610e+00
 4.681418398574754e-01	 1.073822581040070e+00	 2.571589330114716e+00
 4.435405984207744e-01	 1.084215618637461e+00	 2.271965299503477e+00
 4.188226928798925e-01	 1.094001532581186e+00	 1.991160449352087e+00
 3.940095236427069e-01	 1.103180994407867e+00	 1.728036546809360e+00
 3.691222341145510e-01	 1.111755627923829e+00	 1.481828014505586e+00
 3.441816611931036e-01	 1.119727981689107e+00	 1.254588163579968e+00
 3.192082884493807e-01	 1.127101498685569e+00	 1.047020348124507e+00
 2.942222021556166e-01	 1.133880483435503e+00	 8.572252003149496e-01
 2.692430502935037e-01	 1.140070066844422e+00	 6.832167656492558e-01
 2.442900046489848e-01	 1.145676169046449e+00	 5.229875370839427e-01
 5.046198739661513e-01	 1.088745900756555e+00	 3.292609644978139e+00
 4.795602287608308e-01	 1.100014052940069e+00	 2.953754198355675e+00
 4.543589415300264e-01	 1.110660585813882e+00	 2.631632391785137e+00
 4.290381446555421e-01	 1.120685186757132e+00	 2.323700895263045e+00
 4.036197605198921e-01	 1.130088543685817e+00	 2.029755346325015e+00
 3.781254482345310e-01	 1.138872320012333e+00	 1.751998528320232e+00
 3.525765529272702e-01	 1.147039126458333e+00	 1.493302541640468e+00
 3.269940577813114e-01	 1.154592489983037e+00	 1.256395403571613e+00
 3.013985389906114e-01	 1.161536820099807e+00	 1.039428512194375e+00
 2.758101237682957e-01	 1.167877372861441e+00	 8.403260980264098e-01
 2.502484515169107e-01	 1.173620212799320e+00	 6.570827455989896e-01
 5.166349515678127e-01	 1.114669109813748e+00	 3.667020997433218e+00
 4.909786323170284e-01	 1.126205558451413e+00	 3.310118800719407e+00
 4.651772985221792e-01	 1.137105586927013e+00	 2.963062525709973e+00
 4.392536095404903e-01	 1.147368875176148e+00	 2.628671146965525e+00
 4.132300097297830e-01	 1.156996127494211e+00	 2.309458985675028e+00
 3.871286739082941e-01	 1.165989046899715e+00	 2.007608469262979e+00
 3.609714554346183e-01	 1.174350306276014e+00	 1.725224827523745e+00
 3.347798371047843e-01	 1.182083516559781e+00	 1.465639367347368e+00
 3.085748850350992e-01	 1.189193192255588e+00	 1.227686603585624e+00
 2.823772056707364e-01	 1.195684714563675e+00	 1.009249988252776e+00
 2.562069060314446e-01	 1.201564292412866e+00	 8.083946635287695e-01
 5.286500347756483e-01	 1.140592330967159e+00	 3.996713027038046e+00
 5.023970412010446e-01	 1.152397076184217e+00	 3.620788756705742e+00
 4.759956605622129e-01	 1.163550600379945e+00	 3.255523158707995e+00
 4.494690791920472e-01	 1.174052576046394e+00	 2.903784479363810e+00
 4.228402634239187e-01	 1.183903723858361e+00	 2.568082915840293e+00
 3.961319037830877e-01	 1.193105786440491e+00	 2.250544424905732e+00
 3.693663618591699e-01	 1.201661498837862e+00	 1.952913037177961e+00
 3.425656200612541e-01	 1.209574555964643e+00	 1.678030231977850e+00
 3.157512344282267e-01	 1.216849577316657e+00	 1.425921804850826e+00
 2.889442906375327e-01	 1.223492069241644e+00	 1.194480264322570e+00
 2.621653633263420e-01	 1.229508385065936e+00	 9.819128615510437e-01
 5.406651137773846e-01	 1.166515543046022e+00	 4.266764247847465e+00
 5.138154460878555e-01	 1.178588584748599e+00	 3.881964389034394e+00
 4.868140188151086e-01	 1.189995604575767e+00	 3.508395459876929e+00
 4.596845452675228e-01	 1.200736267576031e+00	 3.148958640752580e+00
 4.324505137538385e-01	 1.210811310803579e+00	 2.806130201857412e+00
 4.051351305061597e-01	 1.220222516489174e+00	 2.481936809601189e+00
 3.777612653449469e-01	 1.228972681839593e+00	 2.177961022098266e+00
 3.503514002921752e-01	 1.237065585746464e+00	 1.896054152263363e+00
 3.229275813091401e-01	 1.244505952696826e+00	 1.637294233468526e+00
 2.955113733053916e-01	 1.251299414185870e+00	 1.399766868966240e+00
 2.681238185353586e-01	 1.257452467937382e+00	 1.181897051736214e+00
 2.085397565298897e-01	 9.780139375877577e-01	-8.759186665674612e-01
 1.872751588682954e-01	 9.823075085927059e-01	-8.442258898750898e-01
 1.660642739430359e-01	 9.861149146151665e-01	-8.134701181812050e-01
 1.449221048859622e-01	 9.894430288203904e-01	-7.844031650724164e-01
 1.238631447915627e-01	 9.922992591451227e-01	-7.577357382595915e-01
 1.029013581149162e-01	 9.946915115410935e-01	-7.341516783331823e-01
 8.205016480108950e-02	 9.966281528999332e-01	-7.143231842783626e-01
 6.132242709398352e-02	 9.981179738659459e-01	-6.989258833716008e-01
 4.073043895732970e-02	 9.991701517322813e-01	-6.886527359127816e-01
 2.028591802679350e-02	 9.997942136041430e-01	-6.842259206238053e-01
 0.000000000000000e+00	 1.000000000000000e+00	-6.864060165297046e-01
 2.144980553270330e-01	 1.005957286932442e+00	-4.612765475320511e-01
 1.926258956886906e-01	 1.010373531807687e+00	-4.561613838511756e-01
 1.708089834415315e-01	 1.014289721225768e+00	-4.494327562382274e-01
 1.490627503797445e-01	 1.017712924728706e+00	-4.416208097197312e-01
 1.274021036876107e-01	 1.020650761909257e+00	-4.331990185169445e-01
 1.058414068059684e-01	 1.023111364604206e+00	-4.246071208225635e-01
 8.439446310816270e-02	 1.025103338759998e+00	-4.162749902909857e-01
 6.307450233200051e-02	 1.026635726183013e+00	-4.086460282074658e-01
 4.189416969848892e-02	 1.027717966375624e+00	-4.021988258723139e-01
 2.086551763399783e-02	 1.028359858646923e+00	-3.974660391029836e-01
 0.000000000000000e+00	 1.028571524673962e+00	-3.950496264110930e-01
 2.204563909682513e-01	 1.033900809064697e+00	-1.439038882479293e-01
 1.979766655962571e-01	 1.038439728568777e+00	-1.675635838935130e-01
 1.755537222797343e-01	 1.042464702055124e+00	-1.870893276830610e-01
 1.532034214778754e-01	 1.045982995443745e+00	-2.028346263659646e-01
 1.309410844673299e-01	 1.049002439984713e+00	-2.150768723750947e-01
 1.087814736771769e-01	 1.051531393401269e+00	-2.240500311691886e-01
 8.673877591142518e-02	 1.053578700696151e+00	-2.299782412440332e-01
 6.482658840407358e-02	 1.055153654839367e+00	-2.331085949855631e-01
 4.305790763559021e-02	 1.056265957544136e+00	-2.337415714865081e-01
 2.144512082513226e-02	 1.056925680325120e+00	-2.322578270746090e-01
 0.000000000000000e+00	 1.057143226019696e+00	-2.291403043163998e-01
 2.264147585873002e-01	 1.061844481163375e+00	 9.443738777245825e-02
 2.033274642209498e-01	 1.066506075954637e+00	 3.974825486405731e-02
 1.802984865825519e-01	 1.070639834093048e+00	-8.384575207273315e-03
 1.573441147986166e-01	 1.074253217877654e+00	-5.016622622402567e-02
 1.344800842403967e-01	 1.077354270216985e+00	-8.570170357723406e-02
 1.117215563273664e-01	 1.079951574721949e+00	-1.150396664334297e-01
 8.908310129626774e-02	 1.082054215452861e+00	-1.382171103105430e-01
 6.657868387927618e-02	 1.083671736544706e+00	-1.553028649144097e-01
 4.422165181821711e-02	 1.084814101922956e+00	-1.664380576637066e-01
 2.202472712684309e-02	 1.085491655309309e+00	-1.718719761889878e-01
 0.000000000000000e+00	 1.085715080702975e+00	-1.719920698881614e-01
 2.323731533179350e-01	 1.089788280407326e+00	 2.703946226419029e-01
 2.086782871927238e-01	 1.094572551043929e+00	 1.823660242472536e-01
 1.850432724748922e-01	 1.098815094329352e+00	 1.031483074017134e-01
 1.614848269602297e-01	 1.102523568942582e+00	 3.267320557130349e-02
 1.380191001164876e-01	 1.105706229451566e+00	-2.899810279495929e-02
 1.146616523553614e-01	 1.108371885355909e+00	-8.173147611203602e-02
 9.142743734808138e-02	 1.110529859774593e+00	-1.253772172812093e-01
 6.833078732668170e-02	 1.112189948008727e+00	-1.597625111556038e-01
 4.538540129595322e-02	 1.113362376197227e+00	-1.847679760044967e-01
 2.260433606577657e-02	 1.114057760270067e+00	-2.006723228403944e-01
 0.000000000000000e+00	 1.114287065389571e+00	-2.079021760123974e-01
 2.383315702939115e-01	 1.117732183975401e+00	 4.002996328919965e-01
 2.140291301415340e-01	 1.122639130915312e+00	 2.793683500572186e-01
 1.897880760816631e-01	 1.126990459753852e+00	 1.710330557193145e-01
 1.656255545809764e-01	 1.130794025550679e+00	 7.518353061806327e-02
 1.415581292052794e-01	 1.134058294533950e+00	-8.291029417783591e-03
 1.176017593599866e-01	 1.136792302092816e+00	-7.952054281836540e-02
 9.377178215225696e-02	 1.139005610405818e+00	-1.386778169780194e-01
 7.008289731536359e-02	 1.140708265941127e+00	-1.860050222103240e-01
 4.654915511838219e-02	 1.141910757052088e+00	-2.218405605596305e-01
 2.318394716857899e-02	 1.142623971877968e+00	-2.466443166361931e-01
 0.000000000000000e+00	 1.142859156745255e+00	-2.610196032749110e-01
 2.442900046489848e-01	 1.145676169046449e+00	 5.229875370839427e-01
 2.193799886973357e-01	 1.150705792647447e+00	 3.769670127948901e-01
 1.945328935277722e-01	 1.155165907356359e+00	 2.466269154074450e-01
 1.697662942791185e-01	 1.159064564614090e+00	 1.315522741236621e-01
 1.450971686164484e-01	 1.162410442309630e+00	 3.137707517251265e-02
 1.205418749400665e-01	 1.165212801722333e+00	-5.424502755786431e-02
 9.611613379418543e-02	 1.167481444091002e+00	-1.256757626114942e-01
 7.183501241439530e-02	 1.169226667051604e+00	-1.833300289026552e-01
 4.771291233508754e-02	 1.170459221172681e+00	-2.277136921970353e-01
 2.376355996189662e-02	 1.171190266803589e+00	-2.594590113510526e-01
 0.000000000000000e+00	 1.171431331435801e+00	-2.793557046224744e-01
 2.502484515169107e-01	 1.173620212799320e+00	 6.570827455989887e-01
 2.247308584900838e-01	 1.178772513318995e+00	 4.906260889176859e-01
 1.992777209381274e-01	 1.183341414126688e+00	 3.426376165062686e-01
 1.739070426729175e-01	 1.187335163044965e+00	 2.123825389280243e-01
 1.486362154596712e-01	 1.190762649624100e+00	 9.923347468467458e-02
 1.234819966944259e-01	 1.193633361034127e+00	 2.628326856292329e-03
 9.846049035925765e-02	 1.195957337574614e+00	-7.797813346688409e-02
 7.358713119285022e-02	 1.197745128049856e+00	-1.431654145043140e-01
 4.887667199565290e-02	 1.199007745244147e+00	-1.935979723172403e-01
 2.434317397237573e-02	 1.199756621717502e+00	-2.300726087672582e-01
 0.000000000000000e+00	 1.200003566126979e+00	-2.535602683715057e-01
 2.562069060314446e-01	 1.201564292412866e+00	 8.083946635287698e-01
 2.300817351497332e-01	 1.206839270008617e+00	 6.265680006621144e-01
 2.040225544376364e-01	 1.211516957054652e+00	 4.656221761464674e-01
 1.780477963806352e-01	 1.215605797755454e+00	 3.245029398731165e-01
 1.521752668446245e-01	 1.219114893322853e+00	 2.023317229973127e-01
 1.264221222218894e-01	 1.222053956817860e+00	 9.834827636514776e-02
 1.008048499328646e-01	 1.224433267601120e+00	 1.184647407751371e-02
 7.533925221980184e-02	 1.226263625645581e+00	-5.789254680297917e-02
 5.004043314966189e-02	 1.227556305951626e+00	-1.116661599923532e-01
 2.492278872666261e-02	 1.228323013290286e+00	-1.504116808854417e-01
 0.000000000000000e+00	 1.228575837484564e+00	-1.752607413474534e-01
 2.621653633263420e-01	 1.229508385065936e+00	 9.819128615510433e-01
 2.354326143062390e-01	 1.234906039794974e+00	 7.901997694153458e-01
 2.087673901512070e-01	 1.239692513130062e+00	 6.213230783525323e-01
 1.821885520205332e-01	 1.243876445657703e+00	 4.739253744519984e-01
 1.557143198809847e-01	 1.247467150251382e+00	 3.469039926779462e-01
 1.293622491212815e-01	 1.250474565863199e+00	 2.393356632409422e-01
 1.031492106003970e-01	 1.252909210914990e+00	 1.503937807804967e-01
 7.709137406432358e-02	 1.254782136548476e+00	 7.926315136955453e-02
 5.120419484669806e-02	 1.256104879980258e+00	 2.505657488068391e-02
 2.550240375140351e-02	 1.256889418192514e+00	-1.326296030588536e-02
 0.000000000000000e+00	 1.257148122174325e+00	-3.695132861659389e-02
 2.681238185353586e-01	 1.257452467937382e+00	 1.181897051736214e+00
 2.407834915895561e-01	 1.262972799756725e+00	 9.862046123901069e-01
 2.135122242037470e-01	 1.267868059342734e+00	 8.147610468844937e-01
 1.863293062108733e-01	 1.272147083663860e+00	 6.659386093430688e-01
 1.592533716784285e-01	 1.275819397255182e+00	 5.384551962925592e-01
 1.323023749914270e-01	 1.278895164959809e+00	 4.312778773165968e-01
 1.054935704472460e-01	 1.281385144260689e+00	 3.435185146023498e-01
 7.884349529548884e-02	 1.283300637468239e+00	 2.743270926927797e-01
 5.236795613634504e-02	 1.284653444015185e+00	 2.227877953020410e-01
 2.608201857324472e-02	 1.285455813094762e+00	 1.878221879979733e-01
 0.000000000000000e+00	 1.285720396862037e+00	 1.681031263240609e-01
 1.285720396862037e+00	 0.000000000000000e+00	 1.907452464962805e+01
 1.285455813094762e+00	 2.608201857324508e-02	 1.903402198491160e+01
 1.284653444015185e+00	 5.236795613634536e-02	 1.899451290139103e+01
 1.283300637468238e+00	 7.884349529548910e-02	 1.895433460381711e+01
 1.281385144260689e+00	 1.054935704472463e-01	 1.891143533089082e+01
 1.278895164959809e+00	 1.323023749914272e-01	 1.886334852891964e+01
 1.275819397255182e+00	 1.592533716784286e-01	 1.880716348416960e+01
 1.272147083663861e+00	 1.863293062108735e-01	 1.873949261257772e+01
 1.267868059342734e+00	 2.135122242037470e-01	 1.865643600521039e+01
 1.262972799756726e+00	 2.407834915895561e-01	 1.855354428894088e+01
 1.257452467937382e+00	 2.681238185353585e-01	 1.842578137378300e+01
 1.314290642642036e+00	 0.000000000000000e+00	 1.843960358889039e+01
 1.314020179506831e+00	 2.666159223683366e-02	 1.839823088003048e+01
 1.313199980826132e+00	 5.353163478768602e-02	 1.836132912599662e+01
 1.311817113298846e+00	 8.059549210908877e-02	 1.832685660582896e+01
 1.309859055540008e+00	 1.078377638218408e-01	 1.829238601933909e+01
 1.307313745919378e+00	 1.352422920841458e-01	 1.825508005685020e+01
 1.304169630975679e+00	 1.627921721688875e-01	 1.821166157440264e+01
 1.300415714181819e+00	 1.904697663675160e-01	 1.815837837909112e+01
 1.296041604819711e+00	 2.182567213270570e-01	 1.809096309299827e+01
 1.291037566707714e+00	 2.461339889086986e-01	 1.800458910351566e+01
 1.285394566509361e+00	 2.740818506362862e-01	 1.789382421108712e+01
 1.342860858423585e+00	 0.000000000000000e+00	 1.787183178560707e+01
 1.342584515926635e+00	 2.724116529187806e-02	 1.782972406979004e+01
 1.341746487663567e+00	 5.469531221716788e-02	 1.779509516271062e+01
 1.340333559187554e+00	 8.234748708308125e-02	 1.776548193851498e+01
 1.338332936922183e+00	 1.101819547350004e-01	 1.773806887034582e+01
 1.335732297039969e+00	 1.381822060898935e-01	 1.770966671956471e+01
 1.332519834929034e+00	 1.663309689435210e-01	 1.767668353700777e+01
 1.328684315018389e+00	 1.946102221765649e-01	 1.763508772906690e+01
 1.324215120715206e+00	 2.230012134685138e-01	 1.758036347695396e+01
 1.319102304191489e+00	 2.514844806096749e-01	 1.750745942499822e+01
 1.313336635742967e+00	 2.800398764811343e-01	 1.741073226043977e+01
 1.371431047539845e+00	 0.000000000000000e+00	 1.736213816086260e+01
 1.371148825686649e+00	 2.782073780599288e-02	 1.731945404349139e+01
 1.370292967857882e+00	 5.585898856054766e-02	 1.728687605795990e+01
 1.368849978461242e+00	 8.409948042185617e-02	 1.726147481647271e+01
 1.366806791729120e+00	 1.125261434601995e-01	 1.724003307419255e+01
 1.364150821637026e+00	 1.411221173516416e-01	 1.721902935971061e+01
 1.360870012422712e+00	 1.698697624151653e-01	 1.719461114526627e+01
 1.356952889471511e+00	 1.987506741210464e-01	 1.716255699470929e+01
 1.352388610316057e+00	 2.277457011816117e-01	 1.711822774286386e+01
 1.347167015482201e+00	 2.568349673166781e-01	 1.705650748638116e+01
 1.341278678898035e+00	 2.859978967649761e-01	 1.697173598926665e+01
 1.400001213323978e+00	 0.000000000000000e+00	 1.690232270273927e+01
 1.399713112119345e+00	 2.840030984679266e-02	 1.685932602446508e+01
 1.398839424739465e+00	 5.702266395358206e-02	 1.682874013363093e+01
 1.397366374446788e+00	 8.585147232980318e-02	 1.680712176892942e+01
 1.395280623282724e+00	 1.148703302709128e-01	 1.679083753866806e+01
 1.392569323025992e+00	 1.440620262123609e-01	 1.677605442647434e+01
 1.389220166764175e+00	 1.734085529966568e-01	 1.675871654417961e+01
 1.385221440839121e+00	 2.028911226839866e-01	 1.673450718670320e+01
 1.380562076909104e+00	 2.324901850198454e-01	 1.669879594853952e+01
 1.375231703853993e+00	 2.621854496539016e-01	 1.664657149846351e+01
 1.369220699234404e+00	 2.919559121828844e-01	 1.657236156286195e+01
 1.428571359109143e+00	 0.000000000000000e+00	 1.648496936441819e+01
 1.428277378557198e+00	 2.897988148189201e-02	 1.644210518580764e+01
 1.427385861638708e+00	 5.818633853202786e-02	 1.641366154270287e+01
 1.425882750471070e+00	 8.760346301131197e-02	 1.639563055894950e+01
 1.423754434904901e+00	 1.172145154406149e-01	 1.638394719802733e+01
 1.420987804522313e+00	 1.470019330150226e-01	 1.637448870415612e+01
 1.417570301260889e+00	 1.769473411008318e-01	 1.636305643344596e+01
 1.413489972419156e+00	 2.070315683484119e-01	 1.634533867251828e+01
 1.408735523781190e+00	 2.372346655367094e-01	 1.631685384564438e+01
 1.403296372581017e+00	 2.675359282455387e-01	 1.627287447162578e+01
 1.397162700011909e+00	 2.979139234299318e-01	 1.620833333147681e+01
 1.457141488228504e+00	 0.000000000000000e+00	 1.610336920794300e+01
 1.456841628332681e+00	 2.955945277890550e-02	 1.606133474127410e+01
 1.455932281886000e+00	 5.935001243164173e-02	 1.603543413281528e+01
 1.454399109860965e+00	 8.935545267077216e-02	 1.602104064545589e+01
 1.452228229917558e+00	 1.195586992427805e-01	 1.601364090119398e+01
 1.449406269441430e+00	 1.499418381025976e-01	 1.600884545808470e+01
 1.445920419220316e+00	 1.804861271405268e-01	 1.600237730835646e+01
 1.441758487509556e+00	 2.111720115973485e-01	 1.599003635723947e+01
 1.436908954219154e+00	 2.419791432856982e-01	 1.596763885497635e+01
 1.431361024937416e+00	 2.728864037157824e-01	 1.593093185138562e+01
 1.425104684490388e+00	 3.038719312011915e-01	 1.587548400478102e+01
 1.485711604015220e+00	 0.000000000000000e+00	 1.575145394770432e+01
 1.485405864778269e+00	 3.013902380544770e-02	 1.571127972422769e+01
 1.484478688811733e+00	 6.051368578818042e-02	 1.568861445056091e+01
 1.482915455943352e+00	 9.110744151257338e-02	 1.567815054189569e+01
 1.480702011642600e+00	 1.219028819508842e-01	 1.567492932050505e+01
 1.477824721098791e+00	 1.528817418180572e-01	 1.567432046108374e+01
 1.474270523949921e+00	 1.840249115285782e-01	 1.567203027035801e+01
 1.470026989408256e+00	 2.153124529138226e-01	 1.566408395361147e+01
 1.465082371509836e+00	 2.467236188203064e-01	 1.564675448292301e+01
 1.459425664197340e+00	 2.782368766888264e-01	 1.561646678214570e+01
 1.453046655929677e+00	 3.098299361917363e-01	 1.556967147993422e+01
 1.514281709802452e+00	 0.000000000000000e+00	 1.542451347000833e+01
 1.513970091226436e+00	 3.071859462913320e-02	 1.538818099913813e+01
 1.513025085746295e+00	 6.167735873740063e-02	 1.537044982893639e+01
 1.511431792045108e+00	 9.285942974110530e-02	 1.536515117470771e+01
 1.509175783401934e+00	 1.242470638384005e-01	 1.536667201640138e+01
 1.506243162809838e+00	 1.558216445043721e-01	 1.537002668942138e+01
 1.502620618757167e+00	 1.875636946778222e-01	 1.537090438619838e+01
 1.498295481413198e+00	 2.194528927808605e-01	 1.536568484386235e+01
 1.493255778940076e+00	 2.514680926940284e-01	 1.535141327155577e+01
 1.487490293634937e+00	 2.835873477888636e-01	 1.532572439716951e+01
 1.480988617589613e+00	 3.157879390966389e-01	 1.528670144561679e+01
 1.542851808923362e+00	 0.000000000000000e+00	 1.512040692278032e+01
 1.542534311009655e+00	 3.129816531757656e-02	 1.508924758669979e+01
 1.541571476020078e+00	 6.284103141505910e-02	 1.507784470822039e+01
 1.539948121493113e+00	 9.461141756075754e-02	 1.507914054807141e+01
 1.537649548517465e+00	 1.265912451788042e-01	 1.508684276050750e+01
 1.534661597890016e+00	 1.587615465045136e-01	 1.509552271121211e+01
 1.530970706949519e+00	 1.911024770010951e-01	 1.510069176684021e+01
 1.526563966822316e+00	 2.235933316814885e-01	 1.509884728620137e+01
 1.521429179796715e+00	 2.562125654603588e-01	 1.508747859201992e+01
 1.515554916524352e+00	 2.889378176400874e-01	 1.506502178529237e+01
 1.508930572730032e+00	 3.217459406109724e-01	 1.503075095689150e+01
 1.571421904711111e+00	 0.000000000000000e+00	 1.483780159965155e+01
 1.571098527460400e+00	 3.187773593839238e-02	 1.481161137987097e+01
 1.570117862963473e+00	 6.400470395691259e-02	 1.480659515957306e+01
 1.568464447614244e+00	 9.636340517591983e-02	 1.481477956552082e+01
 1.566123310311101e+00	 1.289354262455699e-01	 1.482916825018738e+01
 1.563080029654769e+00	 1.617014481614526e-01	 1.484386907965408e+01
 1.559320791834440e+00	 1.946412589112336e-01	 1.485420207651040e+01
 1.554832448933549e+00	 2.277337700987327e-01	 1.485677930706261e+01
 1.549602577366594e+00	 2.609570376727921e-01	 1.484954619456614e+01
 1.543619536139733e+00	 2.942882868666913e-01	 1.483177204976398e+01
 1.536872524610773e+00	 3.277039414298099e-01	 1.480397602073038e+01
 1.257452467937382e+00	 2.681238185353585e-01	 1.842578137378300e+01
 1.251299414185870e+00	 2.955113733053915e-01	 1.828217418642902e+01
 1.244505952696826e+00	 3.229275813091398e-01	 1.813253111915392e+01
 1.237065585746464e+00	 3.503514002921749e-01	 1.797228403863564e+01
 1.228972681839593e+00	 3.777612653449466e-01	 1.779664676601825e+01
 1.220222516489175e+00	 4.051351305061596e-01	 1.760436744390535e+01
 1.210811310803579e+00	 4.324505137538382e-01	 1.739491389944371e+01
 1.200736267576031e+00	 4.596845452675225e-01	 1.716735467045146e+01
 1.189995604575767e+00	 4.868140188151084e-01	 1.692116927651458e+01
 1.178588584748600e+00	 5.138154460878553e-01	 1.665622299497658e+01
 1.166515543046022e+00	 5.406651137773846e-01	 1.637272699553399e+01
 1.285394566509361e+00	 2.740818506362862e-01	 1.789382421108713e+01
 1.279104784540358e+00	 3.020779896467305e-01	 1.776925109850632e+01
 1.272160364207551e+00	 3.301034185998963e-01	 1.764245468169092e+01
 1.264554663399955e+00	 3.581366276572991e-01	 1.750874288123007e+01
 1.256281925483817e+00	 3.861555727113118e-01	 1.736296935948636e+01
 1.247337320988344e+00	 4.141377179130172e-01	 1.720114966422463e+01
 1.237716987050414e+00	 4.420600816630286e-01	 1.702176910315845e+01
 1.227418064305967e+00	 4.698992859461283e-01	 1.682391394413524e+01
 1.216438730920943e+00	 4.976316088599863e-01	 1.660713001130449e+01
 1.204778233462927e+00	 5.252330401575561e-01	 1.637139699925286e+01
 1.192436914326437e+00	 5.526793395923923e-01	 1.611708649921646e+01
 1.313336635742967e+00	 2.800398764811343e-01	 1.741073226043977e+01
 1.306910125700054e+00	 3.086445990929890e-01	 1.730248462762295e+01
 1.299814746681988e+00	 3.372792483559147e-01	 1.719620101083921e+01
 1.292043712190741e+00	 3.659218468478599e-01	 1.708720953228568e+01
 1.283591140454132e+00	 3.945498712636216e-01	 1.696858719905852e+01
 1.274452097017727e+00	 4.231402958671724e-01	 1.683387552957302e+01
 1.264622635046999e+00	 4.516696394822363e-01	 1.668161640489623e+01
 1.254099833020681e+00	 4.801140158993691e-01	 1.651093669609880e+01
 1.242881829501451e+00	 5.084491875465540e-01	 1.632146376090802e+01
 1.230967854678694e+00	 5.366506222389833e-01	 1.611329976609067e+01
 1.218358258389946e+00	 5.646935527926953e-01	 1.588697804056832e+01
 1.341278678898035e+00	 2.859978967649761e-01	 1.697173598926665e+01
 1.334715440908847e+00	 3.152112024102438e-01	 1.687796553035027e+01
 1.327469103346423e+00	 3.444550714143522e-01	 1.679057261634419e+01
 1.319532735325828e+00	 3.737070587721167e-01	 1.670499603183243e+01
 1.310900329936573e+00	 4.029441619812022e-01	 1.661020718933753e+01
 1.301566847740684e+00	 4.321428654189259e-01	 1.649956676482167e+01
 1.291528257932312e+00	 4.612791883325856e-01	 1.637171983716319e+01
 1.280781576833037e+00	 4.903287363189830e-01	 1.622585324568569e+01
 1.269324903402324e+00	 5.192667561368914e-01	 1.606168807922586e+01
 1.257157451451369e+00	 5.480681936642268e-01	 1.587945465772947e+01
 1.244279578260724e+00	 5.767077547799999e-01	 1.567984782332716e+01
 1.369220699234404e+00	 2.919559121828844e-01	 1.657236156286195e+01
 1.362520733410627e+00	 3.217778003645723e-01	 1.649187681427181e+01
 1.355123437427139e+00	 3.516308886123664e-01	 1.642226126603502e+01
 1.347021736012219e+00	 3.814922643383283e-01	 1.635826932736956e+01
 1.338209497117175e+00	 4.113384458433794e-01	 1.628420348880550e+01
 1.328681576320576e+00	 4.411454276185783e-01	 1.619484255432416e+01
 1.318433858845326e+00	 4.708887293352017e-01	 1.608888251080336e+01
 1.307463298855903e+00	 5.005434483967078e-01	 1.596558528741397e+01
 1.295767955708594e+00	 5.300843158930787e-01	 1.582477409694862e+01
 1.283347026836419e+00	 5.594857557653767e-01	 1.566680992370142e+01
 1.270200876962945e+00	 5.887219469560119e-01	 1.549254655493614e+01
 1.397162700011909e+00	 2.979139234299318e-01	 1.620833333147681e+01
 1.390326006449282e+00	 3.283443937220512e-01	 1.614039978149904e+01
 1.382777752150420e+00	 3.588067007871150e-01	 1.608775632568842e+01
 1.374510717456918e+00	 3.892774644547544e-01	 1.604276467448425e+01
 1.365518645181970e+00	 4.197327238294797e-01	 1.598661701886168e+01
 1.355796285920766e+00	 4.501479835164308e-01	 1.591592916089895e+01
 1.345339440925017e+00	 4.804982636112089e-01	 1.582946546867575e+01
 1.334145002202147e+00	 5.107581533242813e-01	 1.572657305947453e+01
 1.322210989505292e+00	 5.409018680771961e-01	 1.560718104366589e+01
 1.309536583889313e+00	 5.709033098745235e-01	 1.547177957801432e+01
 1.296122157520783e+00	 6.007361307224373e-01	 1.532137564766572e+01
 1.425104684490388e+00	 3.038719312011915e-01	 1.587548400478102e+01
 1.418131263268701e+00	 3.349109832487575e-01	 1.581962659040589e+01
 1.410432050742550e+00	 3.659825087757547e-01	 1.578325854720191e+01
 1.401999682866931e+00	 3.970626600296538e-01	 1.575402307529897e+01
 1.392827777316995e+00	 4.281269969188294e-01	 1.571315858561536e+01
 1.382910979704614e+00	 4.591505341627841e-01	 1.565867239336225e+01
 1.372245007310359e+00	 4.901077922817318e-01	 1.558940872724846e+01
 1.360826689984636e+00	 5.209728522934411e-01	 1.550480414318731e+01
 1.348654007877451e+00	 5.517194139513233e-01	 1.540489194734520e+01
 1.335726125665518e+00	 5.823208573237566e-01	 1.529028510276578e+01
 1.322043422958413e+00	 6.127503074809822e-01	 1.516213399672906e+01
 1.453046655929677e+00	 3.098299361917363e-01	 1.556967147993423e+01
 1.445936507112774e+00	 3.414775697107685e-01	 1.552547845937786e+01
 1.438086336429814e+00	 3.731583134154436e-01	 1.550448332721890e+01
 1.429488635449262e+00	 4.048478519712860e-01	 1.548731322691803e+01
 1.420136896708283e+00	 4.365212660907544e-01	 1.545921512857285e+01
 1.410025660835482e+00	 4.681530806079390e-01	 1.541855253956962e+01
 1.399150561140328e+00	 4.997173164678950e-01	 1.536425421194446e+01
 1.387508365316236e+00	 5.311875464959256e-01	 1.529584367417229e+01
 1.375097013910104e+00	 5.625369547775412e-01	 1.521345035294782e+01
 1.361915655220503e+00	 5.937383994451669e-01	 1.511779786715218e+01
 1.347964676300009e+00	 6.247644786333532e-01	 1.501016525789454e+01
 1.480988617589613e+00	 3.157879390966389e-01	 1.528670144561679e+01
 1.473741741225390e+00	 3.480441538741609e-01	 1.525362876871218e+01
 1.465740612438496e+00	 3.803341155433387e-01	 1.524556210399480e+01
 1.456977578410914e+00	 4.126330411879101e-01	 1.523763181577341e+01
 1.447446006541868e+00	 4.449155323245809e-01	 1.521985868362039e+01
 1.437140332476732e+00	 4.771556239021963e-01	 1.519070143966026e+01
 1.426056105553898e+00	 5.093268372908233e-01	 1.514917033638663e+01
 1.414190031309815e+00	 5.414022371234724e-01	 1.509486577898856e+01
 1.401540010688282e+00	 5.733544918179292e-01	 1.502799792572866e+01
 1.388105175609736e+00	 6.051559375708441e-01	 1.494938216748699e+01
 1.373885920569747e+00	 6.367786455812560e-01	 1.486040555868174e+01
 1.508930572730032e+00	 3.217459406109724e-01	 1.503075095689150e+01
 1.501546968850437e+00	 3.546107365050120e-01	 1.500442599976552e+01
 1.493394881994880e+00	 3.875099159965980e-01	 1.500280126343719e+01
 1.484466514958892e+00	 4.204182285877853e-01	 1.499982952867006e+01
 1.474755110003787e+00	 4.533097965996353e-01	 1.498985770875851e+01
 1.464254997791725e+00	 4.861581650958569e-01	 1.496992142231109e+01
 1.452961643690044e+00	 5.189363558716410e-01	 1.493897801261765e+01
 1.440871691078240e+00	 5.516169253678196e-01	 1.489668607849208e+01
 1.427983001297019e+00	 5.841720263345679e-01	 1.484331282458577e+01
 1.414294689888683e+00	 6.165734730328783e-01	 1.477973880771845e+01
 1.399807158791798e+00	 6.487928097263963e-01	 1.470743158688011e+01
 1.536872524610773e+00	 3.277039414298099e-01	 1.480397602073038e+01
 1.529352193231805e+00	 3.611773183693990e-01	 1.478476509114762e+01
 1.521049148325250e+00	 3.946857156123783e-01	 1.478499635042983e+01
 1.511955448300201e+00	 4.282034150791708e-01	 1.478047958621847e+01
 1.502064210280071e+00	 4.617040598952434e-01	 1.476952510052929e+01
 1.491369659943822e+00	 4.951607052392218e-01	 1.475205489539719e+01
 1.479867178687743e+00	 5.285458733314732e-01	 1.472817791025427e+01
 1.467553347734377e+00	 5.618316124207049e-01	 1.469579512216090e+01
 1.454425988821346e+00	 5.949895595895375e-01	 1.465384874739893e+01
 1.440484201112815e+00	 6.279910071633604e-01	 1.460324915154239e+01
 1.425728393990340e+00	 6.608069724704809e-01	 1.454550900820209e+01
 1.166515543046022e+00	 5.406651137773846e-01	 1.637272699553399e+01
 1.153776995948852e+00	 5.673410025056632e-01	 1.607423719025998e+01
 1.140376316679318e+00	 5.938172336156315e-01	 1.576529332675897e+01
 1.126317187933549e+00	 6.200697724844398e-01	 1.544786146272267e+01
 1.111604433383508e+00	 6.460746100375476e-01	 1.512396649154950e+01
 1.096244024044868e+00	 6.718078295158587e-01	 1.479321079456488e+01
 1.080243080004956e+00	 6.972456741903688e-01	 1.445375035726025e+01
 1.063609867397003e+00	 7.223646156506948e-01	 1.410571294681395e+01
 1.046353790541240e+00	 7.471414222802413e-01	 1.374903642197820e+01
 1.028485379209273e+00	 7.715532275206749e-01	 1.338520530567911e+01
 1.010016271005445e+00	 7.955775975220339e-01	 1.302149231132186e+01
 1.192436914326437e+00	 5.526793395923923e-01	 1.611708649921646e+01
 1.179415301469111e+00	 5.799479984895509e-01	 1.584798020139420e+01
 1.165716843070209e+00	 6.070125631372499e-01	 1.556856614489687e+01
 1.151345303659770e+00	 6.338484648345605e-01	 1.528057383869593e+01
 1.136305614097516e+00	 6.604311609965769e-01	 1.498575893264445e+01
 1.120603878082231e+00	 6.867362034051971e-01	 1.468576548303706e+01
 1.104247373918096e+00	 7.127393074284716e-01	 1.438146110383239e+01
 1.087244551421710e+00	 7.384164218265842e-01	 1.406891688625641e+01
 1.069605023888549e+00	 7.637437987486200e-01	 1.374446973245763e+01
 1.051339555074341e+00	 7.886980635139569e-01	 1.340957225670298e+01
 1.032460041184918e+00	 8.132562837656436e-01	 1.307206350356308e+01
 1.218358258389946e+00	 5.646935527926953e-01	 1.588697804056832e+01
 1.205053580069656e+00	 5.925549812363474e-01	 1.564630428458621e+01
 1.191057342854037e+00	 6.202078788040395e-01	 1.539555635311111e+01
 1.176373393106952e+00	 6.476271427173267e-01	 1.513629414428784e+01
 1.161006768875763e+00	 6.747876968814993e-01	 1.487007834085460e+01
 1.144963706542226e+00	 7.016645616200101e-01	 1.459832146204622e+01
 1.128251642627209e+00	 7.282329243985199e-01	 1.432212092784590e+01
 1.110879210630485e+00	 7.544682111483310e-01	 1.404051105002551e+01
 1.092856232822551e+00	 7.803461577847525e-01	 1.374439974164549e+01
 1.074193706943010e+00	 8.058428815054101e-01	 1.343597240265898e+01
 1.054903787798911e+00	 8.309349514468867e-01	 1.312282936627935e+01
 1.244279578260724e+00	 5.767077547799999e-01	 1.567984782332715e+01
 1.230691834741641e+00	 6.051619522169231e-01	 1.546656204791774e+01
 1.216397818987215e+00	 6.334031821555168e-01	 1.524357155662723e+01
 1.201401459195053e+00	 6.614058077403190e-01	 1.501233099577787e+01
 1.185707900600062e+00	 6.891442193673171e-01	 1.477427854144023e+01
 1.169323512266841e+00	 7.165929059020157e-01	 1.453067518170789e+01
 1.152255888932794e+00	 7.437265269081805e-01	 1.428231100852752e+01
 1.134513847780697e+00	 7.705199854887219e-01	 1.402032328916954e+01
 1.116107420055876e+00	 7.969485013256576e-01	 1.374425124821614e+01
 1.097047837481584e+00	 8.229876834953355e-01	 1.345990617139508e+01
 1.077347513465847e+00	 8.486136026283411e-01	 1.316964399342174e+01
 1.270200876962945e+00	 5.887219469560119e-01	 1.549254655493615e+01
 1.256330068476218e+00	 6.177689129021486e-01	 1.530549225418160e+01
 1.241738274426153e+00	 6.465984747311978e-01	 1.510928317299887e+01
 1.226429504844033e+00	 6.751844615111188e-01	 1.490533011711707e+01
 1.210409012152226e+00	 7.035007301290326e-01	 1.469501913276770e+01
 1.193683298098059e+00	 7.315212379929317e-01	 1.447953855249204e+01
 1.176260115635350e+00	 7.592201167651195e-01	 1.425473059314291e+01
 1.158148465629721e+00	 7.865717467205429e-01	 1.400828309016030e+01
 1.139358588301156e+00	 8.135508313083520e-01	 1.374646170269784e+01
 1.119901949356369e+00	 8.401324714840332e-01	 1.347733858914220e+01
 1.099791220804150e+00	 8.662922393725845e-01	 1.320797777894159e+01
 1.296122157520783e+00	 6.007361307224373e-01	 1.532137564766572e+01
 1.281968284264539e+00	 6.303758647628948e-01	 1.515927083550596e+01
 1.267078712127260e+00	 6.597937580705990e-01	 1.498878225417277e+01
 1.251457532973855e+00	 6.889631056373068e-01	 1.481133491261486e+01
 1.235110106414067e+00	 7.178572308416478e-01	 1.462833070433451e+01
 1.218043066877867e+00	 7.464495596344753e-01	 1.444038557855896e+01
 1.200264325535372e+00	 7.747136957770023e-01	 1.423107250492034e+01
 1.181783066934926e+00	 8.026234967165805e-01	 1.399783764059938e+01
 1.162609740271021e+00	 8.301531496698529e-01	 1.374840984153817e+01
 1.142756045233671e+00	 8.572772474718051e-01	 1.349102628671482e+01
 1.122234912432244e+00	 8.839708637421949e-01	 1.323428956354522e+01
 1.322043422958413e+00	 6.127503074809822e-01	 1.516213399672906e+01
 1.307606485097755e+00	 6.429828092700316e-01	 1.502356227102249e+01
 1.292419135046948e+00	 6.729890337132365e-01	 1.487763542927207e+01
 1.276485546504476e+00	 7.027417417264640e-01	 1.472584689147055e+01
 1.259811186267398e+00	 7.322137231801646e-01	 1.456967961319563e+01
 1.242402821448253e+00	 7.613778725683650e-01	 1.440224924043148e+01
 1.224268521433361e+00	 7.902072657514962e-01	 1.420454932242310e+01
 1.205417654453685e+00	 8.186752373496210e-01	 1.398239033050369e+01
 1.185860878678103e+00	 8.467554583471790e-01	 1.374369284071823e+01
 1.165610127779792e+00	 8.744220134589514e-01	 1.349692360553371e+01
 1.144678590968555e+00	 9.016494777997498e-01	 1.325094526417897e+01
 1.347964676300009e+00	 6.247644786333532e-01	 1.501016525789454e+01
 1.333244673967019e+00	 6.555897478944299e-01	 1.489357127885257e+01
 1.317759546141629e+00	 6.861843031986274e-01	 1.477094095197153e+01
 1.301513548355855e+00	 7.165203713861716e-01	 1.464388596420590e+01
 1.284512254594032e+00	 7.465702088195856e-01	 1.451330324004141e+01
 1.266762564651199e+00	 7.763061785363180e-01	 1.435685653275683e+01
 1.248272706129814e+00	 8.057008284962666e-01	 1.416839580681663e+01
 1.229052230943368e+00	 8.347269704924498e-01	 1.395535980302156e+01
 1.209112006235032e+00	 8.633577592773468e-01	 1.372591105400943e+01
 1.188464199661041e+00	 8.915667714457729e-01	 1.348880711823497e+01
 1.167122259031505e+00	 9.193280836078274e-01	 1.325324259866124e+01
 1.373885920569747e+00	 6.367786455812560e-01	 1.486040555868174e+01
 1.358882853863484e+00	 6.681966821069600e-01	 1.476409478092138e+01
 1.343099948367711e+00	 6.993795680662869e-01	 1.466338483864985e+01
 1.326541541447955e+00	 7.302989962240104e-01	 1.456005062790242e+01
 1.309213314275782e+00	 7.609266894349129e-01	 1.444681318546919e+01
 1.291122299328694e+00	 7.912344792800531e-01	 1.429733520204071e+01
 1.272276882425230e+00	 8.211943858189803e-01	 1.411592288604002e+01
 1.252686799161348e+00	 8.507786980178537e-01	 1.391023735448810e+01
 1.232363125654442e+00	 8.799600543973746e-01	 1.368872866866266e+01
 1.211318263543720e+00	 9.087115234325704e-01	 1.346050298243535e+01
 1.189565919239519e+00	 9.370066832290059e-01	 1.323515661595037e+01
 1.399807158791798e+00	 6.487928097263963e-01	 1.470743158688011e+01
 1.384521027778301e+00	 6.808036133784929e-01	 1.462957410513952e+01
 1.368440344681606e+00	 7.125748298557321e-01	 1.454929708543056e+01
 1.351569528700732e+00	 7.440776178475610e-01	 1.446831090922418e+01
 1.333914368194461e+00	 7.752831667011488e-01	 1.436183232190432e+01
 1.315482028322723e+00	 8.061627765412871e-01	 1.421693753158767e+01
 1.296281053120105e+00	 8.366879395273029e-01	 1.404057092145055e+01
 1.276321361864995e+00	 8.668304217986189e-01	 1.384064338592142e+01
 1.255614239648961e+00	 8.965623456442794e-01	 1.362593317155772e+01
 1.234172322094136e+00	 9.258562714196453e-01	 1.340594922515660e+01
 1.212009574211021e+00	 9.546852787258621e-01	 1.319075713738254e+01
 1.425728393990340e+00	 6.608069724704809e-01	 1.454550900820209e+01
 1.410159198702623e+00	 6.934105431798991e-01	 1.448414739453530e+01
 1.393780738039724e+00	 7.257700901064790e-01	 1.442270795383288e+01
 1.376597513034149e+00	 7.578562378644056e-01	 1.435632142498084e+01
 1.358615419231882e+00	 7.896396422932951e-01	 1.425158396049784e+01
 1.339841754475272e+00	 8.210910720617383e-01	 1.410908984699793e+01
 1.320285221014940e+00	 8.521814914289009e-01	 1.393596234819530e+01
 1.299955921811683e+00	 8.828821437075316e-01	 1.374038302669793e+01
 1.278865350931224e+00	 9.131646349550795e-01	 1.353149377731578e+01
 1.257026377978594e+00	 9.430010174072981e-01	 1.331925677181200e+01
 1.234453226564436e+00	 9.723638721609746e-01	 1.311427216113383e+01
 1.010016271005445e+00	 7.955775975220339e-01	 1.302149231132186e+01
 9.909591860822649e-01	 8.191925999955730e-01	 1.264078036380521e+01
 9.713278914490570e-01	 8.423768760751950e-01	 1.222501409947870e+01
 9.511371775231903e-01	 8.651096969918102e-01	 1.178139569135421e+01
 9.304028245471552e-01	 8.873710229845827e-01	 1.131700039484077e+01
 9.091415618500224e-01	 9.091415618500228e-01	 1.083860430647944e+01
 8.873710229845823e-01	 9.304028245471554e-01	 1.035250856686620e+01
 8.651096969918097e-01	 9.511371775231905e-01	 9.864365576041639e+00
 8.423768760751945e-01	 9.713278914490573e-01	 9.379013049900857e+00
 8.191925999955728e-01	 9.909591860822652e-01	 8.900321801003651e+00
 7.955775975220341e-01	 1.010016271005445e+00	 8.431062967356645e+00
 1.032460041184918e+00	 8.132562837656436e-01	 1.307206350356308e+01
 1.012979485029798e+00	 8.373960398532323e-01	 1.271350413689419e+01
 9.929119595377341e-01	 8.610954982910529e-01	 1.231524426877657e+01
 9.722725837868789e-01	 8.843334696919525e-01	 1.188535230454596e+01
 9.510774886756040e-01	 9.070894689876181e-01	 1.143184065759905e+01
 9.293437752787017e-01	 9.293437752787024e-01	 1.096246698812784e+01
 9.070894689876176e-01	 9.510774886756043e-01	 1.048452971788099e+01
 8.843334696919520e-01	 9.722725837868792e-01	 1.000466420809529e+01
 8.610954982910524e-01	 9.929119595377344e-01	 9.528646319646386e+00
 8.373960398532317e-01	 1.012979485029798e+00	 9.061210171679203e+00
 8.132562837656439e-01	 1.032460041184918e+00	 8.605886766129240e+00
 1.054903787798911e+00	 8.309349514468867e-01	 1.312282936627935e+01
 1.034999760856481e+00	 8.555994605975452e-01	 1.278563227976979e+01
 1.014496004963584e+00	 8.798141008526423e-01	 1.240545374566733e+01
 9.934079678588098e-01	 9.035572222074415e-01	 1.199112580585285e+01
 9.717521310960475e-01	 9.268078942866202e-01	 1.155148940200007e+01
 9.495459674954205e-01	 9.495459674954210e-01	 1.109516760218234e+01
 9.268078942866196e-01	 9.717521310960476e-01	 1.063033069227184e+01
 9.035572222074411e-01	 9.934079678588099e-01	 1.016446041419773e+01
 8.798141008526421e-01	 1.014496004963584e+00	 9.704121046209226e+00
 8.555994605975449e-01	 1.034999760856482e+00	 9.254745166455445e+00
 8.309349514468868e-01	 1.054903787798911e+00	 8.820441806615079e+00
 1.077347513465847e+00	 8.486136026283411e-01	 1.316964399342174e+01
 1.057020016131336e+00	 8.738028643523047e-01	 1.285330480534263e+01
 1.036080030244738e+00	 8.985326859438507e-01	 1.249193556949985e+01
 1.014543332204780e+00	 9.227809567810893e-01	 1.209504085914136e+01
 9.924267542205367e-01	 9.465263011821018e-01	 1.167219502633515e+01
 9.697481408571208e-01	 9.697481408571215e-01	 1.123278566528181e+01
 9.465263011821016e-01	 9.924267542205373e-01	 1.078574624027307e+01
 9.227809567810888e-01	 1.014543332204780e+00	 1.033928613883401e+01
 8.985326859438502e-01	 1.036080030244739e+00	 9.900626915522066e+00
 8.738028643523048e-01	 1.057020016131336e+00	 9.475753694441320e+00
 8.486136026283411e-01	 1.077347513465847e+00	 9.069190582139708e+00
 1.099791220804150e+00	 8.662922393725845e-01	 1.320797777894159e+01
 1.079040253423383e+00	 8.920062532413016e-01	 1.291225066666921e+01
 1.057664037899332e+00	 9.172512557485653e-01	 1.257054866312083e+01
 1.035678679290585e+00	 9.420046756557073e-01	 1.219296892327541e+01
 1.013101360461125e+00	 9.662446919745765e-01	 1.178973737357389e+01
 9.899502977207456e-01	 9.899502977207459e-01	 1.137092039162256e+01
 9.662446919745762e-01	 1.013101360461125e+00	 1.094612261280798e+01
 9.420046756557069e-01	 1.035678679290585e+00	 1.052418019422299e+01
 9.172512557485647e-01	 1.057664037899332e+00	 1.011285947499985e+01
 8.920062532413010e-01	 1.079040253423383e+00	 9.718571239564085e+00
 8.662922393725845e-01	 1.099791220804150e+00	 9.346110696684377e+00
 1.122234912432244e+00	 8.839708637421949e-01	 1.323428956354522e+01
 1.101060475301646e+00	 9.102096293883281e-01	 1.295789597078486e+01
 1.079248030445496e+00	 9.359698124506731e-01	 1.263682696586449e+01
 1.056814011582023e+00	 9.612283810741071e-01	 1.228043683709171e+01
 1.033775952229863e+00	 9.859630689645579e-01	 1.189953439152744e+01
 1.010152440443236e+00	 1.010152440443236e+00	 1.150479415186981e+01
 9.859630689645578e-01	 1.033775952229864e+00	 1.110641665222021e+01
 9.612283810741066e-01	 1.056814011582023e+00	 1.071378193366018e+01
 9.359698124506728e-01	 1.079248030445497e+00	 1.033510746516567e+01
 9.102096293883276e-01	 1.101060475301646e+00	 9.977122057053599e+00
 8.839708637421947e-01	 1.122234912432244e+00	 9.637332812806733e+00
 1.144678590968555e+00	 9.016494777997498e-01	 1.325094526417897e+01
 1.123080684335145e+00	 9.284129949171760e-01	 1.298685442650618e+01
 1.100832010401366e+00	 9.546883582340624e-01	 1.268608543549693e+01
 1.077949331544888e+00	 9.804520752791011e-01	 1.235273218546394e+01
 1.054450531938804e+00	 1.005681434452558e+00	 1.199674559552989e+01
 1.030354571381536e+00	 1.030354571381537e+00	 1.162935285656026e+01
 1.005681434452558e+00	 1.054450531938804e+00	 1.126129202081391e+01
 9.804520752791006e-01	 1.077949331544889e+00	 1.090242235772692e+01
 9.546883582340622e-01	 1.100832010401366e+00	 1.056133795097130e+01
 9.284129949171754e-01	 1.123080684335145e+00	 1.023669189711381e+01
 9.016494777997498e-01	 1.144678590968555e+00	 9.891658989647389e+00
 1.167122259031505e+00	 9.193280836078274e-01	 1.325324259866124e+01
 1.145100883092902e+00	 9.466163519516361e-01	 1.300084157780894e+01
 1.122415980285073e+00	 9.734068952826199e-01	 1.271466676345833e+01
 1.099084641644979e+00	 9.996757605135003e-01	 1.240500588168099e+01
 1.075125101999999e+00	 1.025399790739092e+00	 1.207637276593046e+01
 1.050556692892587e+00	 1.050556692892587e+00	 1.173936367980101e+01
 1.025399790739091e+00	 1.075125101999999e+00	 1.140521295420554e+01
 9.996757605134998e-01	 1.099084641644980e+00	 1.108421300054303e+01
 9.734068952826193e-01	 1.122415980285074e+00	 1.077825600452224e+01
 9.466163519516356e-01	 1.145100883092902e+00	 1.045000181008367e+01
 9.193280836078275e-01	 1.167122259031505e+00	 1.009720245280484e+01
 1.189565919239519e+00	 9.370066832290059e-01	 1.323515661595037e+01
 1.167121074143939e+00	 9.648197026155007e-01	 1.299493222257261e+01
 1.143999942614752e+00	 9.921254257802332e-01	 1.272355401865222e+01
 1.120219944348091e+00	 1.018899439020117e+00	 1.243304303223418e+01
 1.095799664825500e+00	 1.045118140124671e+00	 1.213335824766480e+01
 1.070758807333332e+00	 1.070758807333333e+00	 1.182951047653137e+01
 1.045118140124671e+00	 1.095799664825500e+00	 1.153253586829162e+01
 1.018899439020116e+00	 1.120219944348092e+00	 1.124888508012782e+01
 9.921254257802327e-01	 1.143999942614752e+00	 1.094277806038687e+01
 9.648197026155003e-01	 1.167121074143939e+00	 1.060816686710830e+01
 9.370066832290057e-01	 1.189565919239519e+00	 1.025046043172553e+01
 1.212009574211021e+00	 9.546852787258621e-01	 1.319075713738254e+01
 1.189141260057277e+00	 9.830230490325619e-01	 1.296326475287658e+01
 1.165583899908536e+00	 1.010843951910790e+00	 1.270783843157322e+01
 1.141355242120021e+00	 1.038123113041762e+00	 1.243697941033473e+01
 1.116474222827359e+00	 1.064836484909810e+00	 1.216288534780533e+01
 1.090960917060714e+00	 1.090960917060714e+00	 1.189448719449309e+01
 1.064836484909809e+00	 1.116474222827359e+00	 1.163625069556617e+01
 1.038123113041762e+00	 1.141355242120022e+00	 1.135800143990904e+01
 1.010843951910789e+00	 1.165583899908536e+00	 1.104708175828951e+01
 9.830230490325611e-01	 1.189141260057278e+00	 1.070880302421371e+01
 9.546852787258621e-01	 1.212009574211021e+00	 1.034849778684734e+01
 1.234453226564436e+00	 9.723638721609746e-01	 1.311427216113383e+01
 1.211161443401940e+00	 1.001226393326611e+00	 1.290011835168473e+01
 1.187167854684556e+00	 1.029562475858177e+00	 1.266174881337641e+01
 1.162490537426566e+00	 1.057346784821248e+00	 1.241213163196620e+01
 1.137148778417628e+00	 1.084554827395022e+00	 1.216391603688233e+01
 1.111163024431674e+00	 1.111163024431675e+00	 1.192908941943348e+01
 1.084554827395021e+00	 1.137148778417628e+00	 1.168446578357636e+01
 1.057346784821247e+00	 1.162490537426566e+00	 1.140297790076150e+01
 1.029562475858177e+00	 1.187167854684557e+00	 1.108977626710532e+01
 1.001226393326610e+00	 1.211161443401940e+00	 1.075002623328541e+01
 9.723638721609748e-01	 1.234453226564436e+00	 1.038889872607661e+01
 7.955775975220341e-01	 1.010016271005445e+00	 8.431062967356645e+00
 7.715532275206743e-01	 1.028485379209273e+00	 7.972634627831848e+00
 7.471414222802408e-01	 1.046353790541241e+00	 7.526920475838967e+00
 7.223646156506944e-01	 1.063609867397003e+00	 7.095143170852065e+00
 6.972456741903684e-01	 1.080243080004956e+00	 6.676075248337174e+00
 6.718078295158584e-01	 1.096244024044868e+00	 6.268447557455461e+00
 6.460746100375473e-01	 1.111604433383508e+00	 5.871021373700989e+00
 6.200697724844397e-01	 1.126317187933550e+00	 5.472131331102956e+00
 5.938172336156310e-01	 1.140376316679318e+00	 5.066962293733499e+00
 5.673410025056627e-01	 1.153776995948852e+00	 4.662724968144463e+00
 5.406651137773846e-01	 1.166515543046022e+00	 4.266764247847463e+00
 8.132562837656439e-01	 1.032460041184918e+00	 8.605886766129240e+00
 7.886980635139564e-01	 1.051339555074342e+00	 8.164880400164064e+00
 7.637437987486196e-01	 1.069605023888549e+00	 7.740020438246495e+00
 7.384164218265834e-01	 1.087244551421710e+00	 7.332156056023027e+00
 7.127393074284709e-01	 1.104247373918096e+00	 6.939158404027362e+00
 6.867362034051968e-01	 1.120603878082231e+00	 6.552890580204625e+00
 6.604311609965765e-01	 1.136305614097516e+00	 6.153004394008293e+00
 6.338484648345600e-01	 1.151345303659770e+00	 5.742827228153962e+00
 6.070125631372495e-01	 1.165716843070209e+00	 5.328954470323756e+00
 5.799479984895503e-01	 1.179415301469111e+00	 4.918306489723223e+00
 5.526793395923922e-01	 1.192436914326437e+00	 4.517886521758363e+00
 8.309349514468868e-01	 1.054903787798911e+00	 8.820441806615079e+00
 8.058428815054098e-01	 1.074193706943010e+00	 8.403844203313712e+00
 7.803461577847522e-01	 1.092856232822552e+00	 8.006453873499416e+00
 7.544682111483306e-01	 1.110879210630485e+00	 7.628298601745088e+00
 7.282329243985197e-01	 1.128251642627210e+00	 7.250271350408346e+00
 7.016645616200098e-01	 1.144963706542226e+00	 6.853875288158643e+00
 6.747876968814989e-01	 1.161006768875763e+00	 6.443533836532842e+00
 6.476271427173262e-01	 1.176373393106952e+00	 6.025035301574833e+00
 6.202078788040392e-01	 1.191057342854038e+00	 5.604760103808715e+00
 5.925549812363471e-01	 1.205053580069656e+00	 5.189377228637171e+00
 5.646935527926953e-01	 1.218358258389946e+00	 4.785575430055232e+00
 8.486136026283411e-01	 1.077347513465847e+00	 9.069190582139708e+00
 8.229876834953349e-01	 1.097047837481584e+00	 8.683686921847176e+00
 7.969485013256573e-01	 1.116107420055876e+00	 8.318673814032284e+00
 7.705199854887216e-01	 1.134513847780698e+00	 7.944939581636145e+00
 7.437265269081801e-01	 1.152255888932794e+00	 7.554455903330508e+00
 7.165929059020151e-01	 1.169323512266841e+00	 7.149570748497863e+00
 6.891442193673166e-01	 1.185707900600062e+00	 6.732403559962249e+00
 6.614058077403187e-01	 1.201401459195052e+00	 6.308569031782388e+00
 6.334031821555164e-01	 1.216397818987216e+00	 5.884290721185922e+00
 6.051619522169227e-01	 1.230691834741642e+00	 5.466033518198993e+00
 5.767077547799999e-01	 1.244279578260724e+00	 5.060204510985997e+00
 8.662922393725845e-01	 1.099791220804150e+00	 9.346110696684377e+00
 8.401324714840329e-01	 1.119901949356370e+00	 8.993365594525429e+00
 8.135508313083513e-01	 1.139358588301156e+00	 8.626047460327332e+00
 7.865717467205423e-01	 1.158148465629721e+00	 8.240502763082560e+00
 7.592201167651190e-01	 1.176260115635350e+00	 7.840744399959865e+00
 7.315212379929311e-01	 1.193683298098059e+00	 7.430376481209752e+00
 7.035007301290320e-01	 1.210409012152226e+00	 7.009906635068359e+00
 6.751844615111184e-01	 1.226429504844034e+00	 6.583681197165246e+00
 6.465984747311974e-01	 1.241738274426153e+00	 6.157837190197116e+00
 6.177689129021483e-01	 1.256330068476218e+00	 5.738692359421763e+00
 5.887219469560119e-01	 1.270200876962944e+00	 5.332411715801523e+00
 8.839708637421947e-01	 1.122234912432244e+00	 9.637332812806733e+00
 8.572772474718047e-01	 1.142756045233671e+00	 9.279537764097110e+00
 8.301531496698529e-01	 1.162609740271021e+00	 8.901624877754081e+00
 8.026234967165800e-01	 1.181783066934927e+00	 8.507675213360953e+00
 7.747136957770021e-01	 1.200264325535373e+00	 8.101664721477555e+00
 7.464495596344747e-01	 1.218043066877868e+00	 7.687438102571406e+00
 7.178572308416473e-01	 1.235110106414067e+00	 7.266887329487648e+00
 6.889631056373063e-01	 1.251457532973855e+00	 6.841108009329044e+00
 6.597937580705985e-01	 1.267078712127260e+00	 6.416106637604071e+00
 6.303758647628942e-01	 1.281968284264538e+00	 5.998121797072899e+00
 6.007361307224373e-01	 1.296122157520783e+00	 5.593123951006600e+00
 9.016494777997498e-01	 1.144678590968555e+00	 9.891658989647389e+00
 8.744220134589508e-01	 1.165610127779793e+00	 9.524691171991183e+00
 8.467554583471784e-01	 1.185860878678103e+00	 9.139416556348980e+00
 8.186752373496206e-01	 1.205417654453685e+00	 8.739910222692890e+00
 7.902072657514959e-01	 1.224268521433362e+00	 8.330146138167827e+00
 7.613778725683643e-01	 1.242402821448252e+00	 7.913971595540713e+00
 7.322137231801643e-01	 1.259811186267398e+00	 7.494793883219815e+00
 7.027417417264636e-01	 1.276485546504476e+00	 7.072114213982449e+00
 6.729890337132362e-01	 1.292419135046949e+00	 6.650260460957437e+00
 6.429828092700310e-01	 1.307606485097755e+00	 6.235472471315253e+00
 6.127503074809825e-01	 1.322043422958413e+00	 5.833582833999589e+00
 9.193280836078275e-01	 1.167122259031505e+00	 1.009720245280484e+01
 8.915667714457722e-01	 1.188464199661041e+00	 9.724108690788146e+00
 8.633577592773464e-01	 1.209112006235033e+00	 9.334134307442525e+00
 8.347269704924490e-01	 1.229052230943368e+00	 8.931377381800027e+00
 8.057008284962661e-01	 1.248272706129815e+00	 8.519845566323596e+00
 7.763061785363177e-01	 1.266762564651200e+00	 8.103431586006566e+00
 7.465702088195852e-01	 1.284512254594033e+00	 7.685884408501366e+00
 7.165203713861713e-01	 1.301513548355856e+00	 7.268539025246781e+00
 6.861843031986270e-01	 1.317759546141629e+00	 6.851953284693845e+00
 6.555897478944293e-01	 1.333244673967019e+00	 6.442310184993037e+00
 6.247644786333530e-01	 1.347964676300009e+00	 6.045371497340037e+00
 9.370066832290057e-01	 1.189565919239519e+00	 1.025046043172553e+01
 9.087115234325701e-01	 1.211318263543721e+00	 9.873709013677463e+00
 8.799600543973739e-01	 1.232363125654442e+00	 9.481143968168194e+00
 8.507786980178532e-01	 1.252686799161348e+00	 9.076915684018564e+00
 8.211943858189797e-01	 1.272276882425230e+00	 8.665101495148750e+00
 7.912344792800524e-01	 1.291122299328694e+00	 8.249682852787732e+00
 7.609266894349127e-01	 1.309213314275783e+00	 7.834517052557074e+00
 7.302989962240097e-01	 1.326541541447954e+00	 7.422842780895985e+00
 6.993795680662863e-01	 1.343099948367712e+00	 7.013372733701885e+00
 6.681966821069598e-01	 1.358882853863484e+00	 6.610649350568496e+00
 6.367786455812560e-01	 1.373885920569747e+00	 6.220442301576840e+00
 9.546852787258621e-01	 1.212009574211021e+00	 1.034849778684734e+01
 9.258562714196445e-01	 1.234172322094136e+00	 9.969998876562942e+00
 8.965623456442788e-01	 1.255614239648962e+00	 9.576417838353519e+00
 8.668304217986182e-01	 1.276321361864996e+00	 9.171986603569824e+00
 8.366879395273022e-01	 1.296281053120106e+00	 8.760888100313860e+00
 8.061627765412867e-01	 1.315482028322724e+00	 8.347235854899566e+00
 7.752831667011482e-01	 1.333914368194461e+00	 7.935046880943665e+00
 7.440776178475608e-01	 1.351569528700732e+00	 7.528206563717159e+00
 7.125748298557313e-01	 1.368440344681606e+00	 7.127279916080308e+00
 6.808036133784924e-01	 1.384521027778301e+00	 6.732987200672888e+00
 6.487928097263965e-01	 1.399807158791798e+00	 6.351145337156750e+00
 9.723638721609748e-01	 1.234453226564436e+00	 1.038889872607661e+01
 9.430010174072977e-01	 1.257026377978594e+00	 1.001002480373692e+01
 9.131646349550788e-01	 1.278865350931224e+00	 9.616486883081341e+00
 8.828821437075309e-01	 1.299955921811683e+00	 9.212627152265943e+00
 8.521814914289004e-01	 1.320285221014940e+00	 8.802769519655172e+00
 8.210910720617377e-01	 1.339841754475272e+00	 8.391202557226919e+00
 7.896396422932949e-01	 1.358615419231882e+00	 7.982154305488150e+00
 7.578562378644051e-01	 1.376597513034150e+00	 7.579757311068329e+00
 7.257700901064783e-01	 1.393780738039724e+00	 7.187050522353834e+00
 6.934105431798986e-01	 1.410159198702624e+00	 6.802338662927924e+00
 6.608069724704809e-01	 1.425728393990340e+00	 6.430257613140422e+00
 5.406651137773846e-01	 1.166515543046022e+00	 4.266764247847464e+00
 5.138154460878555e-01	 1.178588584748599e+00	 3.881964389034394e+00
 4.868140188151086e-01	 1.189995604575767e+00	 3.508395459876932e+00
 4.596845452675228e-01	 1.200736267576031e+00	 3.148958640752578e+00
 4.324505137538385e-01	 1.210811310803579e+00	 2.806130201857415e+00
 4.051351305061597e-01	 1.220222516489174e+00	 2.481936809601190e+00
 3.777612653449469e-01	 1.228972681839593e+00	 2.177961022098266e+00
 3.503514002921752e-01	 1.237065585746464e+00	 1.896054152263363e+00
 3.229275813091401e-01	 1.244505952696826e+00	 1.637294233468528e+00
 2.955113733053916e-01	 1.251299414185870e+00	 1.399766868966241e+00
 2.681238185353586e-01	 1.257452467937382e+00	 1.181897051736215e+00
 5.526793395923922e-01	 1.192436914326437e+00	 4.517886521758363e+00
 5.252330401575563e-01	 1.204778233462927e+00	 4.129587206076236e+00
 4.976316088599864e-01	 1.216438730920943e+00	 3.752820605094283e+00
 4.698992859461286e-01	 1.227418064305968e+00	 3.390538774707571e+00
 4.420600816630289e-01	 1.237716987050414e+00	 3.045187826541831e+00
 4.141377179130175e-01	 1.247337320988344e+00	 2.718684948627669e+00
 3.861555727113121e-01	 1.256281925483817e+00	 2.412430894968248e+00
 3.581366276572994e-01	 1.264554663399955e+00	 2.127566488142556e+00
 3.301034185998966e-01	 1.272160364207551e+00	 1.865401030138088e+00
 3.020779896467308e-01	 1.279104784540358e+00	 1.624557479598780e+00
 2.740818506362861e-01	 1.285394566509361e+00	 1.403804159015794e+00
 5.646935527926953e-01	 1.218358258389946e+00	 4.785575430055230e+00
 5.366506222389836e-01	 1.230967854678694e+00	 4.394410090210156e+00
 5.084491875465542e-01	 1.242881829501451e+00	 4.014819217383298e+00
 4.801140158993694e-01	 1.254099833020681e+00	 3.649855692971919e+00
 4.516696394822364e-01	 1.264622635046999e+00	 3.301970219043177e+00
 4.231402958671726e-01	 1.274452097017727e+00	 2.972990057997627e+00
 3.945498712636218e-01	 1.283591140454133e+00	 2.664139261012461e+00
 3.659218468478601e-01	 1.292043712190741e+00	 2.376116737480877e+00
 3.372792483559148e-01	 1.299814746681988e+00	 2.109822653475527e+00
 3.086445990929892e-01	 1.306910125700054e+00	 1.864577795849996e+00
 2.800398764811343e-01	 1.313336635742966e+00	 1.639667223419389e+00
 5.767077547799999e-01	 1.244279578260724e+00	 5.060204510985997e+00
 5.480681936642270e-01	 1.257157451451368e+00	 4.667197361072045e+00
 5.192667561368918e-01	 1.269324903402324e+00	 4.285675202239502e+00
 4.903287363189834e-01	 1.280781576833037e+00	 3.918833798137895e+00
 4.612791883325859e-01	 1.291528257932312e+00	 3.569152190089267e+00
 4.321428654189260e-01	 1.301566847740684e+00	 3.238373304514472e+00
 4.029441619812022e-01	 1.310900329936573e+00	 2.927532882641524e+00
 3.737070587721169e-01	 1.319532735325827e+00	 2.637031205538629e+00
 3.444550714143524e-01	 1.327469103346423e+00	 2.367026979391418e+00
 3.152112024102442e-01	 1.334715440908848e+00	 2.117338885893651e+00
 2.859978967649761e-01	 1.341278678898035e+00	 1.887951248827188e+00
 5.887219469560119e-01	 1.270200876962944e+00	 5.332411715801525e+00
 5.594857557653771e-01	 1.283347026836419e+00	 4.938923334483903e+00
 5.300843158930788e-01	 1.295767955708593e+00	 4.556829314627219e+00
 5.005434483967079e-01	 1.307463298855903e+00	 4.189503310164282e+00
 4.708887293352019e-01	 1.318433858845326e+00	 3.839466073954621e+00
 4.411454276185785e-01	 1.328681576320576e+00	 3.508368228953333e+00
 4.113384458433796e-01	 1.338209497117174e+00	 3.197029086996975e+00
 3.814922643383286e-01	 1.347021736012219e+00	 2.905525098283226e+00
 3.516308886123667e-01	 1.355123437427139e+00	 2.633358255409685e+00
 3.217778003645725e-01	 1.362520733410627e+00	 2.380224748952112e+00
 2.919559121828843e-01	 1.369220699234404e+00	 2.146980226484534e+00
 6.007361307224373e-01	 1.296122157520783e+00	 5.593123951006600e+00
 5.709033098745235e-01	 1.309536583889313e+00	 5.200791915286494e+00
 5.409018680771962e-01	 1.322210989505291e+00	 4.819894828759503e+00
 5.107581533242814e-01	 1.334145002202148e+00	 4.454013009290284e+00
 4.804982636112090e-01	 1.345339440925017e+00	 4.105712500910808e+00
 4.501479835164311e-01	 1.355796285920766e+00	 3.776530455466872e+00
 4.197327238294798e-01	 1.365518645181970e+00	 3.467025262105338e+00
 3.892774644547546e-01	 1.374510717456918e+00	 3.176884012762899e+00
 3.588067007871152e-01	 1.382777752150420e+00	 2.905040699229931e+00
 3.283443937220514e-01	 1.390326006449282e+00	 2.650500634580213e+00
 2.979139234299318e-01	 1.397162700011909e+00	 2.414950089685853e+00
 6.127503074809825e-01	 1.322043422958413e+00	 5.833582833999593e+00
 5.823208573237570e-01	 1.335726125665518e+00	 5.444257380920295e+00
 5.517194139513237e-01	 1.348654007877451e+00	 5.066674302358717e+00
 5.209728522934415e-01	 1.360826689984637e+00	 4.704643909691361e+00
 4.901077922817321e-01	 1.372245007310359e+00	 4.360771875524047e+00
 4.591505341627844e-01	 1.382910979704614e+00	 4.036447827242466e+00
 4.281269969188296e-01	 1.392827777316995e+00	 3.731908451545801e+00
 3.970626600296541e-01	 1.401999682866931e+00	 3.446366588481682e+00
 3.659825087757549e-01	 1.410432050742550e+00	 3.178181423102783e+00
 3.349109832487578e-01	 1.418131263268701e+00	 2.925320254597406e+00
 3.038719312011915e-01	 1.425104684490387e+00	 2.689940106739040e+00
 6.247644786333530e-01	 1.347964676300009e+00	 6.045371497340037e+00
 5.937383994451672e-01	 1.361915655220503e+00	 5.661046194302930e+00
 5.625369547775415e-01	 1.375097013910104e+00	 5.289177287155084e+00
 5.311875464959258e-01	 1.387508365316236e+00	 4.933823737904795e+00
 4.997173164678953e-01	 1.399150561140327e+00	 4.597616465307915e+00
 4.681530806079391e-01	 1.410025660835482e+00	 4.281750910737878e+00
 4.365212660907546e-01	 1.420136896708282e+00	 3.986065034224183e+00
 4.048478519712861e-01	 1.429488635449261e+00	 3.709192984565421e+00
 3.731583134154438e-01	 1.438086336429814e+00	 3.448782656390307e+00
 3.414775697107688e-01	 1.445936507112774e+00	 3.201732037155375e+00
 3.098299361917363e-01	 1.453046655929677e+00	 2.969922922717140e+00
 6.367786455812560e-01	 1.373885920569747e+00	 6.220442301576841e+00
 6.051559375708445e-01	 1.388105175609736e+00	 5.843179708769033e+00
 5.733544918179296e-01	 1.401540010688282e+00	 5.479638859622759e+00
 5.414022371234727e-01	 1.414190031309816e+00	 5.134142108952261e+00
 5.093268372908236e-01	 1.426056105553898e+00	 4.809323018557737e+00
 4.771556239021965e-01	 1.437140332476732e+00	 4.506123819444024e+00
 4.449155323245812e-01	 1.447446006541868e+00	 4.223890477808528e+00
 4.126330411879101e-01	 1.456977578410914e+00	 3.960554238354743e+00
 3.803341155433391e-01	 1.465740612438496e+00	 3.712886228444249e+00
 3.480441538741612e-01	 1.473741741225390e+00	 3.476684549885177e+00
 3.157879390966389e-01	 1.480988617589612e+00	 3.252773428744177e+00
 6.487928097263965e-01	 1.399807158791798e+00	 6.351145337156750e+00
 6.165734730328787e-01	 1.414294689888683e+00	 5.982997648019973e+00
 5.841720263345683e-01	 1.427983001297018e+00	 5.630538864489022e+00
 5.516169253678198e-01	 1.440871691078240e+00	 5.298366308839090e+00
 5.189363558716414e-01	 1.452961643690045e+00	 4.989085842122043e+00
 4.861581650958571e-01	 1.464254997791725e+00	 4.703315315316175e+00
 4.533097965996355e-01	 1.474755110003787e+00	 4.439799156009054e+00
 4.204182285877855e-01	 1.484466514958892e+00	 4.194858992411677e+00
 3.875099159965982e-01	 1.493394881994879e+00	 3.954580153274196e+00
 3.546107365050123e-01	 1.501546968850437e+00	 3.714570186968234e+00
 3.217459406109725e-01	 1.508930572730033e+00	 3.479239452076934e+00
 6.608069724704809e-01	 1.425728393990340e+00	 6.430257613140422e+00
 6.279910071633606e-01	 1.440484201112815e+00	 6.073182260910466e+00
 5.949895595895377e-01	 1.454425988821346e+00	 5.734621779056611e+00
 5.618316124207050e-01	 1.467553347734377e+00	 5.419457605282969e+00
 5.285458733314734e-01	 1.479867178687744e+00	 5.130230279848933e+00
 4.951607052392220e-01	 1.491369659943822e+00	 4.858848951123825e+00
 4.617040598952436e-01	 1.502064210280071e+00	 4.591753940943076e+00
 4.282034150791710e-01	 1.511955448300201e+00	 4.329664204529851e+00
 3.946857156123787e-01	 1.521049148325250e+00	 4.073306192530951e+00
 3.611773183693992e-01	 1.529352193231805e+00	 3.823189514138397e+00
 3.277039414298097e-01	 1.536872524610773e+00	 3.583360091844591e+00
 2.681238185353586e-01	 1.257452467937382e+00	 1.181897051736214e+00
 2.407834915895561e-01	 1.262972799756725e+00	 9.862046123901083e-01
 2.135122242037470e-01	 1.267868059342734e+00	 8.147610468844946e-01
 1.863293062108733e-01	 1.272147083663860e+00	 6.659386093430693e-01
 1.592533716784285e-01	 1.275819397255182e+00	 5.384551962925592e-01
 1.323023749914270e-01	 1.278895164959809e+00	 4.312778773165957e-01
 1.054935704472460e-01	 1.281385144260689e+00	 3.435185146023498e-01
 7.884349529548884e-02	 1.283300637468239e+00	 2.743270926927786e-01
 5.236795613634504e-02	 1.284653444015185e+00	 2.227877953020423e-01
 2.608201857324472e-02	 1.285455813094762e+00	 1.878221879979720e-01
 0.000000000000000e+00	 1.285720396862037e+00	 1.681031263240618e-01
 2.740818506362861e-01	 1.285394566509361e+00	 1.403804159015794e+00
 2.461339889086986e-01	 1.291037566707714e+00	 1.206230818399345e+00
 2.182567213270570e-01	 1.296041604819711e+00	 1.033945022220669e+00
 1.904697663675159e-01	 1.300415714181818e+00	 8.850772656534176e-01
 1.627921721688873e-01	 1.304169630975679e+00	 7.582057097395243e-01
 1.352422920841456e-01	 1.307313745919378e+00	 6.522353669282333e-01
 1.078377638218406e-01	 1.309859055540008e+00	 5.662688534444396e-01
 8.059549210908845e-02	 1.311817113298846e+00	 4.994751836040066e-01
 5.353163478768568e-02	 1.313199980826132e+00	 4.509623988925562e-01
 2.666159223683329e-02	 1.314020179506831e+00	 4.196590372241482e-01
 0.000000000000000e+00	 1.314290642642036e+00	 4.042085922701608e-01
 2.800398764811343e-01	 1.313336635742966e+00	 1.639667223419390e+00
 2.514844806096748e-01	 1.319102304191490e+00	 1.438780429565049e+00
 2.230012134685137e-01	 1.324215120715206e+00	 1.263974462620398e+00
 1.946102221765648e-01	 1.328684315018389e+00	 1.113165675692513e+00
 1.663309689435208e-01	 1.332519834929034e+00	 9.848306768317732e-01
 1.381822060898933e-01	 1.335732297039969e+00	 8.778577962998126e-01
 1.101819547350001e-01	 1.338332936922184e+00	 7.913896148662620e-01
 8.234748708308091e-02	 1.340333559187554e+00	 7.246639753169912e-01
 5.469531221716752e-02	 1.341746487663568e+00	 6.768601075318330e-01
 2.724116529187770e-02	 1.342584515926635e+00	 6.469555880001998e-01
 0.000000000000000e+00	 1.342860858423585e+00	 6.335988695171775e-01
 2.859978967649761e-01	 1.341278678898035e+00	 1.887951248827188e+00
 2.568349673166780e-01	 1.347167015482201e+00	 1.683146610375602e+00
 2.277457011816117e-01	 1.352388610316057e+00	 1.504819351598956e+00
 1.987506741210463e-01	 1.356952889471511e+00	 1.350721707931926e+00
 1.698697624151651e-01	 1.360870012422712e+00	 1.219290621656712e+00
 1.411221173516413e-01	 1.364150821637026e+00	 1.109467664263656e+00
 1.125261434601992e-01	 1.366806791729120e+00	 1.020509541852575e+00
 8.409948042185587e-02	 1.368849978461242e+00	 9.517976541515383e-01
 5.585898856054729e-02	 1.370292967857881e+00	 9.026542636097721e-01
 2.782073780599250e-02	 1.371148825686649e+00	 8.721717855463231e-01
 0.000000000000000e+00	 1.371431047539845e+00	 8.590605810988288e-01
 2.919559121828843e-01	 1.369220699234404e+00	 2.146980226484532e+00
 2.621854496539016e-01	 1.375231703853993e+00	 1.938461945218403e+00
 2.324901850198454e-01	 1.380562076909104e+00	 1.756268161520165e+00
 2.028911226839865e-01	 1.385221440839120e+00	 1.598059998289320e+00
 1.734085529966566e-01	 1.389220166764175e+00	 1.462320956103032e+00
 1.440620262123607e-01	 1.392569323025993e+00	 1.348140988765231e+00
 1.148703302709125e-01	 1.395280623282723e+00	 1.254990723937110e+00
 8.585147232980289e-02	 1.397366374446789e+00	 1.182495457600980e+00
 5.702266395358171e-02	 1.398839424739465e+00	 1.130217500771853e+00
 2.840030984679228e-02	 1.399713112119345e+00	 1.097454260305897e+00
 0.000000000000000e+00	 1.400001213323978e+00	 1.083058146545879e+00
 2.979139234299318e-01	 1.397162700011909e+00	 2.414950089685852e+00
 2.675359282455386e-01	 1.403296372581016e+00	 2.203715575904466e+00
 2.372346655367094e-01	 1.408735523781190e+00	 2.017948429825884e+00
 2.070315683484118e-01	 1.413489972419156e+00	 1.855315309335239e+00
 1.769473411008316e-01	 1.417570301260888e+00	 1.714457556755968e+00
 1.470019330150223e-01	 1.420987804522312e+00	 1.594734627756256e+00
 1.172145154406146e-01	 1.423754434904901e+00	 1.495957280318273e+00
 8.760346301131168e-02	 1.425882750471070e+00	 1.418121429322387e+00
 5.818633853202748e-02	 1.427385861638707e+00	 1.361152370633097e+00
 2.897988148189162e-02	 1.428277378557198e+00	 1.324667714517036e+00
 0.000000000000000e+00	 1.428571359109143e+00	 1.307765902190345e+00
 3.038719312011915e-01	 1.425104684490387e+00	 2.689940106739042e+00
 2.728864037157825e-01	 1.431361024937416e+00	 2.477768348506128e+00
 2.419791432856981e-01	 1.436908954219153e+00	 2.289344979032596e+00
 2.111720115973484e-01	 1.441758487509556e+00	 2.122463224696946e+00
 1.804861271405266e-01	 1.445920419220316e+00	 1.976059418889684e+00
 1.499418381025974e-01	 1.449406269441431e+00	 1.849910463007024e+00
 1.195586992427802e-01	 1.452228229917558e+00	 1.744320729073991e+00
 8.935545267077181e-02	 1.454399109860964e+00	 1.659810714225987e+00
 5.935001243164134e-02	 1.455932281886000e+00	 1.596818387913510e+00
 2.955945277890510e-02	 1.456841628332681e+00	 1.555422623417855e+00
 0.000000000000000e+00	 1.457141488228504e+00	 1.535096443876656e+00
 3.098299361917363e-01	 1.453046655929677e+00	 2.969922922717138e+00
 2.782368766888263e-01	 1.459425664197340e+00	 2.759366237650022e+00
 2.467236188203063e-01	 1.465082371509836e+00	 2.569816097759392e+00
 2.153124529138224e-01	 1.470026989408257e+00	 2.399338537406610e+00
 1.840249115285780e-01	 1.474270523949921e+00	 2.247328781015082e+00
 1.528817418180569e-01	 1.477824721098791e+00	 2.114156869110828e+00
 1.219028819508838e-01	 1.480702011642600e+00	 2.000802488553468e+00
 9.110744151257308e-02	 1.482915455943352e+00	 1.908441927192603e+00
 6.051368578818003e-02	 1.484478688811733e+00	 1.838182625848194e+00
 3.013902380544730e-02	 1.485405864778270e+00	 1.790871302745872e+00
 0.000000000000000e+00	 1.485711604015220e+00	 1.766516909046280e+00
 3.157879390966389e-01	 1.480988617589612e+00	 3.252773428744177e+00
 2.835873477888636e-01	 1.487490293634936e+00	 3.044675430887443e+00
 2.514680926940284e-01	 1.493255778940076e+00	 2.850056756673320e+00
 2.194528927808603e-01	 1.498295481413197e+00	 2.670325434935966e+00
 1.875636946778220e-01	 1.502620618757167e+00	 2.507539464782751e+00
 1.558216445043718e-01	 1.506243162809838e+00	 2.363947477381759e+00
 1.242470638384002e-01	 1.509175783401934e+00	 2.241663563181392e+00
 9.285942974110499e-02	 1.511431792045108e+00	 2.142432000238694e+00
 6.167735873740024e-02	 1.513025085746295e+00	 2.067457625064427e+00
 3.071859462913278e-02	 1.513970091226436e+00	 2.017279737089515e+00
 0.000000000000000e+00	 1.514281709802452e+00	 1.991670139445338e+00
 3.217459406109725e-01	 1.508930572730033e+00	 3.479239452076934e+00
 2.889378176400874e-01	 1.515554916524352e+00	 3.258915111381934e+00
 2.562125654603586e-01	 1.521429179796715e+00	 3.055068353338672e+00
 2.235933316814883e-01	 1.526563966822316e+00	 2.869320278747975e+00
 1.911024770010950e-01	 1.530970706949519e+00	 2.703602836880859e+00
 1.587615465045134e-01	 1.534661597890016e+00	 2.559784702118896e+00
 1.265912451788039e-01	 1.537649548517465e+00	 2.439420626673590e+00
 9.461141756075722e-02	 1.539948121493113e+00	 2.343594279573060e+00
 6.284103141505870e-02	 1.541571476020078e+00	 2.272826374498653e+00
 3.129816531757612e-02	 1.542534311009654e+00	 2.227022516797591e+00
 0.000000000000000e+00	 1.542851808923362e+00	 2.205438447808056e+00
 3.277039414298097e-01	 1.536872524610773e+00	 3.583360091844591e+00
 2.942882868666912e-01	 1.543619536139733e+00	 3.363519597835150e+00
 2.609570376727920e-01	 1.549602577366594e+00	 3.163662574872789e+00
 2.277337700987326e-01	 1.554832448933549e+00	 2.985371470289618e+00
 1.946412589112334e-01	 1.559320791834440e+00	 2.830158697882267e+00
 1.617014481614524e-01	 1.563080029654769e+00	 2.699175206600300e+00
 1.289354262455696e-01	 1.566123310311101e+00	 2.593050713148613e+00
 9.636340517591950e-02	 1.568464447614244e+00	 2.511830780138502e+00
 6.400470395691217e-02	 1.570117862963473e+00	 2.454978160823844e+00
 3.187773593839194e-02	 1.571098527460400e+00	 2.421408997439693e+00
 0.000000000000000e+00	 1.571421904711111e+00	 2.409538309094361e+00
 1.571421904711111e+00	 0.000000000000000e+00	 1.483780159965155e+01
 1.571098527460400e+00	 3.187773593839238e-02	 1.481161137987097e+01
 1.570117862963473e+00	 6.400470395691259e-02	 1.480659515957307e+01
 1.568464447614244e+00	 9.636340517591983e-02	 1.481477956552082e+01
 1.566123310311101e+00	 1.289354262455699e-01	 1.482916825018738e+01
 1.563080029654769e+00	 1.617014481614526e-01	 1.484386907965408e+01
 1.559320791834440e+00	 1.946412589112336e-01	 1.485420207651040e+01
 1.554832448933549e+00	 2.277337700987327e-01	 1.485677930706261e+01
 1.549602577366594e+00	 2.609570376727921e-01	 1.484954619456614e+01
 1.543619536139733e+00	 2.942882868666913e-01	 1.483177204976398e+01
 1.536872524610773e+00	 3.277039414298099e-01	 1.480397602073038e+01
 1.599993998838902e+00	 0.000000000000000e+00	 1.458009302515052e+01
 1.599664741839956e+00	 3.245734709736202e-02	 1.455599372819148e+01
 1.598666246588589e+00	 6.516845789199360e-02	 1.455468850326823e+01
 1.596982768314490e+00	 9.811551533405580e-02	 1.456742452898581e+01
 1.594599063706687e+00	 1.312797712763178e-01	 1.458661717595229e+01
 1.591500449151411e+00	 1.646415554500830e-01	 1.460600618950163e+01
 1.587672859670728e+00	 1.981802883417762e-01	 1.462079625987242e+01
 1.583102908288448e+00	 2.318744981192861e-01	 1.462777265836540e+01
 1.577777945529458e+00	 2.657018417377328e-01	 1.462538062534368e+01
 1.571686118739640e+00	 2.996391303323378e-01	 1.461375519983854e+01
 1.564816430896063e+00	 3.336623589815881e-01	 1.459468627425871e+01
 1.628566086300104e+00	 0.000000000000000e+00	 1.434818612997244e+01
 1.628230949554291e+00	 3.303695812110653e-02	 1.432294050305784e+01
 1.627214623552641e+00	 6.633221155554173e-02	 1.432194553678134e+01
 1.625501082360675e+00	 9.986762508334796e-02	 1.433595797925472e+01
 1.623074810458135e+00	 1.336241157599914e-01	 1.435705151697212e+01
 1.619920862016818e+00	 1.675816620525769e-01	 1.437880012848730e+01
 1.616024920891725e+00	 2.017193169463800e-01	 1.439645043817584e+01
 1.611373361047094e+00	 2.360152251734539e-01	 1.440707329286914e+01
 1.605953307118261e+00	 2.704466446952953e-01	 1.440968247651228e+01
 1.599752694790881e+00	 3.049899725491720e-01	 1.440530614216534e+01
 1.592760330661334e+00	 3.396207751427842e-01	 1.439699427991478e+01
 1.657138160428128e+00	 0.000000000000000e+00	 1.413778074140161e+01
 1.656797143938189e+00	 3.361656887441378e-02	 1.410977640819002e+01
 1.655762987194560e+00	 6.749596467607229e-02	 1.410710363230216e+01
 1.654019383098737e+00	 1.016197340150528e-01	 1.412030412243856e+01
 1.651550543921298e+00	 1.359684591496800e-01	 1.414133945580246e+01
 1.648341261619735e+00	 1.705217672830294e-01	 1.416379986110490e+01
 1.644376968882100e+00	 2.052583438994044e-01	 1.418310769934411e+01
 1.639643800613179e+00	 2.401559502952076e-01	 1.419670547011311e+01
 1.634128655558860e+00	 2.751914454385047e-01	 1.420421551624610e+01
 1.627819257744673e+00	 3.103408122688084e-01	 1.420755588718425e+01
 1.620704217386405e+00	 3.455791885232393e-01	 1.421099416558306e+01
 1.685710214556385e+00	 0.000000000000000e+00	 1.394519044044879e+01
 1.685363318326427e+00	 3.419617922207165e-02	 1.391412061859128e+01
 1.684311330853280e+00	 6.865971698210069e-02	 1.390892461975984e+01
 1.682537663874611e+00	 1.033718417204269e-01	 1.392019167253726e+01
 1.680026257452029e+00	 1.383128008984727e-01	 1.393998416380968e+01
 1.676761641328907e+00	 1.734618704555354e-01	 1.396207017876040e+01
 1.672728997026529e+00	 2.087973683752089e-01	 1.398215763255272e+01
 1.667914220390396e+00	 2.442966725185190e-01	 1.399811949330739e+01
 1.662303984277112e+00	 2.799362428603854e-01	 1.401019655885339e+01
 1.655885801052237e+00	 3.156916482428617e-01	 1.402116112091651e+01
 1.648648084551100e+00	 3.515375977327944e-01	 1.403642175555762e+01
 1.714282242018287e+00	 0.000000000000000e+00	 1.376729141395355e+01
 1.713929466053786e+00	 3.477578902886795e-02	 1.373385378168631e+01
 1.712859647867734e+00	 6.982346820214230e-02	 1.372617899739204e+01
 1.711055918034232e+00	 1.051239477907267e-01	 1.373515424318569e+01
 1.708501944406180e+00	 1.406571404594588e-01	 1.375313925032891e+01
 1.705181994513080e+00	 1.764019708841900e-01	 1.377422098047608e+01
 1.701080998709684e+00	 2.123363895481531e-01	 1.379447810635856e+01
 1.696184613782439e+00	 2.484373908773598e-01	 1.381224453695785e+01
 1.690479286698879e+00	 2.846810358539621e-01	 1.382835777538712e+01
 1.683952318164791e+00	 3.210424792229463e-01	 1.384637430965720e+01
 1.676591925635240e+00	 3.574960013812908e-01	 1.387273065534864e+01
 1.742854236147245e+00	 0.000000000000000e+00	 1.360147633863016e+01
 1.742495580455047e+00	 3.535539815959057e-02	 1.356708831951575e+01
 1.741407931576855e+00	 7.098721806471255e-02	 1.355763191382514e+01
 1.739574138923536e+00	 1.068760518172089e-01	 1.356453119028816e+01
 1.736977598139605e+00	 1.430014772857273e-01	 1.358062355808986e+01
 1.733602314540997e+00	 1.793420678830881e-01	 1.360043501777308e+01
 1.729432967316239e+00	 2.158754065925961e-01	 1.362047485737140e+01
 1.724454974193001e+00	 2.525781044057018e-01	 1.363953886511543e+01
 1.718654556250017e+00	 2.894258233122595e-01	 1.365900621323497e+01
 1.712018802533554e+00	 3.263933039606769e-01	 1.368311107406841e+01
 1.704535734118647e+00	 3.634543980785698e-01	 1.371916591135813e+01
 1.771426190276669e+00	 0.000000000000000e+00	 1.344561272897966e+01
 1.771061654864991e+00	 3.593500647902735e-02	 1.341214165927458e+01
 1.769956175319576e+00	 7.215096629832679e-02	 1.340203072159489e+01
 1.768092319888461e+00	 1.086281533911300e-01	 1.340746885452979e+01
 1.765453212008154e+00	 1.453458108303675e-01	 1.342193537857851e+01
 1.762022594781407e+00	 1.822821607663247e-01	 1.344049427696307e+01
 1.757784896230867e+00	 2.194144186828977e-01	 1.346011913647976e+01
 1.752725295025775e+00	 2.567188121375167e-01	 1.348003773467194e+01
 1.746829786356384e+00	 2.941706041283023e-01	 1.350208083963964e+01
 1.740085247609745e+00	 3.317441212076679e-01	 1.353101514085016e+01
 1.732479503481143e+00	 3.694127864344722e-01	 1.357483551919699e+01
 1.799998097739971e+00	 0.000000000000000e+00	 1.329800525312196e+01
 1.799627682618398e+00	 3.651461385196615e-02	 1.326751206680816e+01
 1.798504372434831e+00	 7.331471263150040e-02	 1.325809392744071e+01
 1.796610454274940e+00	 1.103802521037465e-01	 1.326292215923275e+01
 1.793928779367681e+00	 1.476901405464686e-01	 1.327626615165201e+01
 1.790442828603054e+00	 1.852222488479950e-01	 1.329380515009023e+01
 1.786136778838243e+00	 2.229534249934171e-01	 1.331298362828822e+01
 1.780995569684453e+00	 2.608595131067762e-01	 1.333339924075237e+01
 1.775004970443840e+00	 2.989153771951150e-01	 1.335720738412751e+01
 1.768151646844585e+00	 3.370949297155341e-01	 1.338952114106044e+01
 1.760423227202551e+00	 3.753711650588398e-01	 1.343872011335429e+01
 1.828569951870562e+00	 0.000000000000000e+00	 1.315736158259032e+01
 1.828193657050047e+00	 3.709422014319485e-02	 1.313185679834828e+01
 1.827052516261553e+00	 7.447845679274874e-02	 1.312450138654001e+01
 1.825128535428912e+00	 1.121323475463150e-01	 1.312965652459308e+01
 1.822404293574040e+00	 1.500344658871198e-01	 1.314251370568901e+01
 1.818863009374681e+00	 1.881623314421938e-01	 1.315942252686624e+01
 1.814488608523038e+00	 2.264924246985139e-01	 1.317827683247717e+01
 1.809265791572732e+00	 2.650002063474521e-01	 1.319894832913916e+01
 1.803180101938243e+00	 3.036601414057224e-01	 1.322375122047214e+01
 1.796217993689290e+00	 3.424457282358898e-01	 1.325791549054818e+01
 1.788366898762691e+00	 3.813295325615133e-01	 1.330995661751009e+01
 1.857141746001852e+00	 0.000000000000000e+00	 1.302427511063733e+01
 1.856759571494719e+00	 3.767382521750127e-02	 1.300519483822104e+01
 1.855600600138674e+00	 7.564219851058723e-02	 1.300054192086345e+01
 1.853646556696309e+00	 1.138844393100919e-01	 1.300638389680774e+01
 1.850879747983083e+00	 1.523787863054102e-01	 1.301929508763428e+01
 1.847283130465035e+00	 1.911024078630160e-01	 1.303607292366056e+01
 1.842840378669926e+00	 2.300314169725474e-01	 1.305487607258008e+01
 1.837535954094301e+00	 2.691408908935160e-01	 1.307571917299306e+01
 1.831355174265449e+00	 3.084048956531490e-01	 1.310086849922304e+01
 1.824284281595082e+00	 3.477965155203497e-01	 1.313539555900955e+01
 1.816310511641387e+00	 3.872878875523342e-01	 1.318795811233310e+01
 1.536872524610773e+00	 3.277039414298099e-01	 1.480397602073038e+01
 1.529352193231805e+00	 3.611773183693990e-01	 1.478476509114762e+01
 1.521049148325250e+00	 3.946857156123783e-01	 1.478499635042983e+01
 1.511955448300201e+00	 4.282034150791708e-01	 1.478047958621847e+01
 1.502064210280071e+00	 4.617040598952434e-01	 1.476952510052929e+01
 1.491369659943822e+00	 4.951607052392218e-01	 1.475205489539719e+01
 1.479867178687743e+00	 5.285458733314732e-01	 1.472817791025427e+01
 1.467553347734377e+00	 5.618316124207049e-01	 1.469579512216090e+01
 1.454425988821346e+00	 5.949895595895375e-01	 1.465384874739893e+01
 1.440484201112815e+00	 6.279910071633604e-01	 1.460324915154239e+01
 1.425728393990340e+00	 6.608069724704809e-01	 1.454550900820209e+01
 1.564816430896063e+00	 3.336623589815881e-01	 1.459468627425871e+01
 1.557159362454346e+00	 3.677443595340610e-01	 1.458469308368697e+01
 1.548705348938061e+00	 4.018620171403311e-01	 1.458654236428800e+01
 1.539446304359770e+00	 4.359891461064793e-01	 1.458126517872263e+01
 1.529375220696224e+00	 4.700989103288564e-01	 1.456907695134441e+01
 1.518486218635843e+00	 5.041638750667337e-01	 1.455054884288394e+01
 1.506774595597990e+00	 5.381560629307074e-01	 1.452645707830021e+01
 1.494236870643905e+00	 5.720470139418091e-01	 1.449773903816242e+01
 1.480870825905353e+00	 6.058078494790308e-01	 1.446544528830936e+01
 1.466675544167214e+00	 6.394093398956462e-01	 1.442817741686357e+01
 1.451651442254549e+00	 6.728219755477626e-01	 1.438529614270459e+01
 1.592760330661334e+00	 3.396207751427842e-01	 1.439699427991478e+01
 1.584966525188804e+00	 3.743113991661535e-01	 1.439817041043497e+01
 1.576361543098060e+00	 4.090383169936037e-01	 1.440272291871531e+01
 1.566937154005154e+00	 4.437748753169784e-01	 1.439884783078140e+01
 1.556686224740210e+00	 4.784937588036198e-01	 1.438747162320823e+01
 1.545602771001122e+00	 5.131670427935554e-01	 1.436976649279222e+01
 1.533682006230345e+00	 5.477662502877216e-01	 1.434709862656299e+01
 1.520920387327832e+00	 5.822624130795889e-01	 1.432097656005328e+01
 1.507315656819490e+00	 6.166261368446359e-01	 1.429300129464191e+01
 1.492866881110919e+00	 6.508276699641374e-01	 1.426481959476300e+01
 1.477574484470682e+00	 6.848369758221196e-01	 1.423791536043696e+01
 1.620704217386405e+00	 3.455791885232393e-01	 1.421099416558306e+01
 1.612773674946886e+00	 3.808784357334936e-01	 1.422332171911067e+01
 1.604017724352159e+00	 4.162146134978365e-01	 1.423201999811669e+01
 1.594427990821833e+00	 4.515606008940888e-01	 1.423108757513517e+01
 1.583997216039457e+00	 4.868886033608041e-01	 1.422200679459454e+01
 1.572719310712450e+00	 5.221702063189912e-01	 1.420650874325285e+01
 1.560589404306392e+00	 5.573764331601569e-01	 1.418651312028037e+01
 1.547603891559975e+00	 5.924778074504438e-01	 1.416406916435751e+01
 1.533760475393265e+00	 6.274444191620532e-01	 1.414129957881534e+01
 1.519058205832586e+00	 6.622459947045025e-01	 1.412034910003463e+01
 1.503497514589997e+00	 6.968519704899772e-01	 1.410333895966484e+01
 1.648648084551100e+00	 3.515375977327944e-01	 1.403642175555762e+01
 1.640580805240302e+00	 3.874454677038996e-01	 1.405912717598609e+01
 1.631673886247275e+00	 4.233909049786708e-01	 1.407290784485028e+01
 1.621918808395286e+00	 4.593463210212315e-01	 1.407589390719287e+01
 1.611308188221398e+00	 4.952834420416801e-01	 1.407008225732774e+01
 1.599835831442617e+00	 5.311733635423463e-01	 1.405772643013372e+01
 1.587496783547712e+00	 5.669866093056549e-01	 1.404126816423896e+01
 1.574287377114149e+00	 6.026931946707728e-01	 1.402327113429158e+01
 1.560205275456185e+00	 6.382626939069838e-01	 1.400635908381620e+01
 1.545249512220871e+00	 6.736643114524092e-01	 1.399316024307942e+01
 1.529420526563753e+00	 7.088669567477605e-01	 1.398625945706684e+01
 1.676591925635240e+00	 3.574960013812908e-01	 1.387273065534864e+01
 1.668387909580757e+00	 3.940124935451887e-01	 1.390462827953971e+01
 1.659330022330324e+00	 4.305671897617472e-01	 1.392387295799006e+01
 1.649409600310997e+00	 4.671320338818275e-01	 1.393124323740389e+01
 1.638619134913462e+00	 5.036782728875177e-01	 1.392921537622000e+01
 1.626952326864416e+00	 5.401765123629249e-01	 1.392053437228486e+01
 1.614404137675888e+00	 5.765967764818560e-01	 1.390813722867009e+01
 1.600970837764176e+00	 6.129085723569756e-01	 1.389507966118535e+01
 1.586650050837757e+00	 6.490809585551284e-01	 1.388446879235333e+01
 1.571440794164428e+00	 6.850826175435258e-01	 1.387940397238828e+01
 1.555343514343210e+00	 7.208819317918950e-01	 1.388292733660687e+01
 1.704535734118647e+00	 3.634543980785698e-01	 1.371916591135813e+01
 1.696194981479960e+00	 4.005795117251789e-01	 1.375884140160726e+01
 1.686986126148221e+00	 4.377434661727070e-01	 1.378343245004049e+01
 1.676900360154443e+00	 4.749177376592975e-01	 1.379519503090827e+01
 1.665930049743080e+00	 5.120730939395872e-01	 1.379705552116291e+01
 1.654068790650637e+00	 5.491796506800319e-01	 1.379222462784636e+01
 1.641311460412501e+00	 5.862069324464019e-01	 1.378411228072092e+01
 1.627654267283872e+00	 6.231239381254515e-01	 1.377624741792764e+01
 1.613094795367491e+00	 6.598992105821880e-01	 1.377220554815494e+01
 1.597632045551912e+00	 6.965009103135200e-01	 1.377554650509015e+01
 1.581266471879627e+00	 7.328968928188055e-01	 1.378976419936551e+01
 1.732479503481143e+00	 3.694127864344722e-01	 1.357483551919699e+01
 1.724002014449617e+00	 4.071465207116875e-01	 1.362077705980620e+01
 1.714642191247882e+00	 4.449197325371906e-01	 1.365015094697894e+01
 1.704391081511105e+00	 4.827034305370628e-01	 1.366590678265934e+01
 1.693240926337682e+00	 5.204679032391599e-01	 1.367139758766743e+01
 1.681185216474074e+00	 5.581827763929719e-01	 1.367027905067162e+01
 1.668218745479135e+00	 5.958170749569333e-01	 1.366641588438549e+01
 1.654337659447055e+00	 6.333392895925999e-01	 1.366379472403012e+01
 1.639539502874891e+00	 6.707174474638629e-01	 1.366644681846915e+01
 1.623823260271979e+00	 7.079191870980607e-01	 1.367838322643495e+01
 1.607189393124262e+00	 7.449118370249175e-01	 1.370315932354554e+01
 1.760423227202551e+00	 3.753711650588398e-01	 1.343872011335429e+01
 1.751809002001437e+00	 4.137135189725324e-01	 1.348945760263791e+01
 1.742298211176223e+00	 4.520959871808396e-01	 1.352265619346683e+01
 1.731881757966462e+00	 4.904891106985440e-01	 1.354164795739828e+01
 1.720551758324699e+00	 5.288626988275057e-01	 1.355019470712337e+01
 1.708301598007515e+00	 5.671858874010496e-01	 1.355238122461612e+01
 1.695125986597372e+00	 6.054272017710919e-01	 1.355251282793864e+01
 1.681021008027543e+00	 6.435546243748204e-01	 1.355502134766052e+01
 1.665984167189467e+00	 6.815356666758545e-01	 1.356438316131297e+01
 1.650014432213285e+00	 7.193374452328150e-01	 1.358505231874455e+01
 1.633112272028377e+00	 7.569267616066563e-01	 1.361590859070858e+01
 1.788366898762691e+00	 3.813295325615133e-01	 1.330995661751009e+01
 1.779615937647127e+00	 4.202805049755313e-01	 1.336393348087480e+01
 1.769954179480157e+00	 4.592722284292941e-01	 1.339965350484565e+01
 1.759372383105996e+00	 4.982747763271622e-01	 1.342081300769449e+01
 1.747862539331562e+00	 5.372574787458950e-01	 1.343157023539612e+01
 1.735417928923754e+00	 5.761889816035700e-01	 1.343642784372915e+01
 1.722033177488792e+00	 6.150373106465185e-01	 1.344012133053957e+01
 1.707704306799154e+00	 6.537699400885120e-01	 1.344751798433614e+01
 1.692428782140726e+00	 6.923538656938635e-01	 1.346353042973877e+01
 1.676205555264483e+00	 7.307556820534512e-01	 1.349304814938784e+01
 1.659035102543229e+00	 7.689416637604469e-01	 1.352497315182630e+01
 1.816310511641387e+00	 3.872878875523342e-01	 1.318795811233310e+01
 1.807422814898392e+00	 4.268474771885015e-01	 1.324329825747526e+01
 1.797610089706602e+00	 4.664484546081957e-01	 1.327993919010806e+01
 1.786862950515187e+00	 5.060604256063382e-01	 1.330193356933509e+01
 1.775173262985702e+00	 5.456522410355984e-01	 1.331382909747642e+01
 1.762534202895581e+00	 5.851920568998371e-01	 1.332053959801819e+01
 1.748940311874980e+00	 6.246473993408540e-01	 1.332722387332128e+01
 1.734387549535705e+00	 6.639852343500745e-01	 1.333917744708904e+01
 1.718873341558175e+00	 7.031720419935901e-01	 1.336174174142413e+01
 1.702396623314230e+00	 7.421738948956377e-01	 1.340019502897705e+01
 1.684957878620078e+00	 7.809565406827145e-01	 1.342919377087367e+01
 1.425728393990340e+00	 6.608069724704809e-01	 1.454550900820209e+01
 1.410159198702623e+00	 6.934105431798991e-01	 1.448414739453530e+01
 1.393780738039724e+00	 7.257700901064790e-01	 1.442270795383288e+01
 1.376597513034149e+00	 7.578562378644056e-01	 1.435632142498084e+01
 1.358615419231882e+00	 7.896396422932951e-01	 1.425158396049784e+01
 1.339841754475272e+00	 8.210910720617383e-01	 1.410908984699793e+01
 1.320285221014940e+00	 8.521814914289009e-01	 1.393596234819530e+01
 1.299955921811683e+00	 8.828821437075316e-01	 1.374038302669793e+01
 1.278865350931224e+00	 9.131646349550795e-01	 1.353149377731578e+01
 1.257026377978594e+00	 9.430010174072981e-01	 1.331925677181200e+01
 1.234453226564436e+00	 9.723638721609746e-01	 1.311427216113383e+01
 1.451651442254549e+00	 6.728219755477626e-01	 1.438529614270460e+01
 1.435799162893631e+00	 7.060183547757806e-01	 1.434083010052263e+01
 1.419122903836405e+00	 7.389662733026416e-01	 1.429893971985743e+01
 1.401627247954595e+00	 7.716358216299125e-01	 1.423867082266385e+01
 1.383318197988887e+00	 8.039971220523436e-01	 1.413553342493320e+01
 1.364203184473336e+00	 8.360204117451508e-01	 1.399550437498658e+01
 1.344291067885663e+00	 8.676761270304166e-01	 1.382584773918285e+01
 1.323592134881926e+00	 8.989349883576466e-01	 1.363499006606996e+01
 1.302118088516626e+00	 9.297680855165882e-01	 1.343242487205707e+01
 1.279882032394063e+00	 9.601469625878492e-01	 1.322856996107583e+01
 1.256898448743110e+00	 9.900437021289901e-01	 1.303457713889235e+01
 1.477574484470682e+00	 6.848369758221196e-01	 1.423791536043696e+01
 1.461439121102612e+00	 7.186261634304927e-01	 1.421309919975059e+01
 1.444465063720531e+00	 7.521624534204103e-01	 1.419050472850423e+01
 1.426656977035360e+00	 7.854154021809472e-01	 1.413317492045088e+01
 1.408020970982467e+00	 8.183545984621109e-01	 1.403382583357550e+01
 1.388564608787581e+00	 8.509497479458688e-01	 1.389846132813854e+01
 1.368296909155496e+00	 8.831707590173424e-01	 1.373440440741533e+01
 1.347228342437492e+00	 9.149878292629197e-01	 1.355025603997727e+01
 1.325370820676796e+00	 9.463715322047658e-01	 1.335580375144876e+01
 1.302737681476930e+00	 9.772929037684625e-01	 1.316187747831102e+01
 1.279343665684940e+00	 1.007723527972461e+00	 1.298015190988063e+01
 1.503497514589997e+00	 6.968519704899772e-01	 1.410333895966484e+01
 1.487079067346885e+00	 7.312339662021232e-01	 1.409572407610677e+01
 1.469807211778911e+00	 7.653586273805743e-01	 1.408648466813165e+01
 1.451686694436161e+00	 7.991949763021621e-01	 1.403427300459686e+01
 1.432723732448637e+00	 8.327120681724023e-01	 1.394102526687991e+01
 1.412926021733686e+00	 8.658790771802610e-01	 1.381259905048860e+01
 1.392302739223098e+00	 8.986653837741481e-01	 1.365628805881226e+01
 1.370864538963290e+00	 9.310406626775752e-01	 1.348079238277492e+01
 1.348623541986129e+00	 9.629749711453685e-01	 1.329613301620181e+01
 1.325593319894246e+00	 9.944388369483218e-01	 1.311350752577554e+01
 1.301788872152743e+00	 1.025403345566011e+00	 1.294508571368861e+01
 1.529420526563753e+00	 7.088669567477605e-01	 1.398625945706684e+01
 1.512718995643765e+00	 7.438417601487594e-01	 1.399212828243654e+01
 1.495149342098356e+00	 7.785547921039219e-01	 1.398307332163551e+01
 1.476716394316719e+00	 8.129745407782109e-01	 1.393666915307530e+01
 1.457426476623418e+00	 8.470695278330236e-01	 1.385200037189947e+01
 1.437287417627326e+00	 8.808083959646985e-01	 1.373289774052148e+01
 1.416308552487120e+00	 9.141599976853019e-01	 1.358653027902518e+01
 1.394500718944233e+00	 9.470934848558372e-01	 1.342161647927236e+01
 1.371876247019020e+00	 9.795783984641533e-01	 1.324834673649916e+01
 1.348448942313062e+00	 1.011584758126611e+00	 1.307824024962030e+01
 1.324234062909339e+00	 1.043083150784260e+00	 1.292393478226921e+01
 1.555343514343210e+00	 7.208819317918950e-01	 1.388292733660687e+01
 1.538358900010570e+00	 7.564495423284883e-01	 1.389713374937197e+01
 1.520491448765676e+00	 7.917509445112412e-01	 1.388494017884622e+01
 1.501746070836753e+00	 8.267540923937462e-01	 1.383902991171744e+01
 1.482129197742829e+00	 8.614269740937808e-01	 1.376197625742326e+01
 1.461648790784177e+00	 8.957377008155507e-01	 1.365472974238498e+01
 1.440314343346220e+00	 9.296545971352725e-01	 1.352059005889747e+01
 1.418136876865230e+00	 9.631462920519298e-01	 1.336820406281997e+01
 1.395128930349863e+00	 9.961818102868762e-01	 1.320786335706357e+01
 1.371304543400429e+00	 1.028730663302513e+00	 1.305136078601452e+01
 1.346679232717547e+00	 1.060762939501830e+00	 1.291177516482438e+01
 1.581266471879627e+00	 7.328968928188055e-01	 1.378976419936551e+01
 1.563998774464616e+00	 7.690573097993973e-01	 1.380548185620036e+01
 1.545833525867679e+00	 8.049470815233204e-01	 1.379050400997839e+01
 1.526775718155982e+00	 8.405336279334213e-01	 1.374517057581742e+01
 1.506831890042886e+00	 8.757844036044792e-01	 1.367190322146242e+01
 1.486010135519916e+00	 9.106669882491875e-01	 1.357405553796732e+01
 1.464320106199052e+00	 9.451491785085295e-01	 1.345440492434631e+01
 1.441773007211195e+00	 9.791990805200780e-01	 1.331654126385473e+01
 1.418381586553052e+00	 1.012785202739293e+00	 1.317063831026010e+01
 1.394160117823397e+00	 1.045876548475211e+00	 1.302871208320270e+01
 1.369124376340185e+00	 1.078442707593344e+00	 1.290425540556173e+01
 1.607189393124262e+00	 7.449118370249175e-01	 1.370315932354554e+01
 1.589638613023220e+00	 7.816650596195741e-01	 1.371470144575989e+01
 1.571175567491180e+00	 8.181432000609489e-01	 1.369754645018948e+01
 1.551805330434125e+00	 8.543131441818893e-01	 1.365327509394957e+01
 1.531534547759610e+00	 8.901418130149245e-01	 1.358411402933323e+01
 1.510371446150219e+00	 9.255962547819792e-01	 1.349317793220146e+01
 1.488325835444270e+00	 9.606437381895413e-01	 1.338474829275755e+01
 1.465409104467036e+00	 9.952518465145054e-01	 1.326317634701926e+01
 1.441634210202983e+00	 1.029388571947160e+00	 1.313321636893311e+01
 1.417015660249019e+00	 1.063022409643890e+00	 1.300674752363222e+01
 1.391569488540071e+00	 1.096122450933424e+00	 1.289764908989593e+01
 1.633112272028377e+00	 7.569267616066563e-01	 1.361590859070858e+01
 1.615278409703701e+00	 7.942727888471052e-01	 1.362288422436601e+01
 1.596517567722985e+00	 8.313392970449144e-01	 1.360440706604343e+01
 1.576834901830902e+00	 8.680926379238038e-01	 1.356189275205124e+01
 1.556237165129019e+00	 9.044991989749225e-01	 1.349733261443797e+01
 1.534732716990764e+00	 9.405254969302952e-01	 1.341355058793332e+01
 1.512331525480531e+00	 9.761382725627764e-01	 1.331450223325438e+01
 1.489045163117665e+00	 1.011304586289436e+00	 1.320561247762697e+01
 1.464886795874051e+00	 1.045991914036235e+00	 1.309278376653953e+01
 1.439871165344345e+00	 1.080168242807733e+00	 1.298258336711646e+01
 1.414014564080026e+00	 1.113802165396690e+00	 1.288882222465380e+01
 1.659035102543229e+00	 7.689416637604469e-01	 1.352497315182630e+01
 1.640918158523373e+00	 8.068804945400779e-01	 1.352864914779529e+01
 1.621859520649905e+00	 8.445353693960052e-01	 1.350994580728027e+01
 1.601864426506032e+00	 8.818721059438172e-01	 1.347008911333855e+01
 1.580939736387131e+00	 9.188565581342789e-01	 1.341079825617272e+01
 1.559093942357225e+00	 9.554547112105061e-01	 1.333455709103242e+01
 1.536337170706489e+00	 9.916327780127044e-01	 1.324493370721943e+01
 1.512681177647994e+00	 1.027357296099095e+00	 1.314694483390607e+01
 1.488139338140650e+00	 1.062595225132273e+00	 1.304745947585736e+01
 1.462726627776426e+00	 1.097314043965922e+00	 1.295405103327309e+01
 1.436459597722866e+00	 1.131481846857766e+00	 1.287156059770784e+01
 1.684957878620078e+00	 7.809565406827145e-01	 1.342919377087367e+01
 1.666557853499554e+00	 8.194881737565801e-01	 1.343110655371722e+01
 1.647201420358750e+00	 8.577314140350094e-01	 1.341350518808318e+01
 1.626893898619235e+00	 8.956515450265826e-01	 1.337740632583049e+01
 1.605642255769965e+00	 9.332138871427991e-01	 1.332422412015848e+01
 1.583455116565279e+00	 9.703838941389810e-01	 1.325605585436347e+01
 1.560342765520799e+00	 1.007127250923794e+00	 1.317602225228259e+01
 1.536317142542932e+00	 1.043409972197705e+00	 1.308865937179188e+01
 1.511391831577175e+00	 1.079198501361031e+00	 1.300035640506930e+01
 1.485582042212313e+00	 1.114459809117642e+00	 1.291975516451003e+01
 1.458904584231411e+00	 1.149161491191272e+00	 1.284430959435468e+01
 1.234453226564436e+00	 9.723638721609746e-01	 1.311427216113383e+01
 1.211161443401940e+00	 1.001226393326611e+00	 1.290011835168473e+01
 1.187167854684556e+00	 1.029562475858177e+00	 1.266174881337641e+01
 1.162490537426566e+00	 1.057346784821248e+00	 1.241213163196620e+01
 1.137148778417628e+00	 1.084554827395022e+00	 1.216391603688233e+01
 1.111163024431674e+00	 1.111163024431675e+00	 1.192908941943348e+01
 1.084554827395021e+00	 1.137148778417628e+00	 1.168446578357636e+01
 1.057346784821247e+00	 1.162490537426566e+00	 1.140297790076149e+01
 1.029562475858177e+00	 1.187167854684557e+00	 1.108977626710532e+01
 1.001226393326610e+00	 1.211161443401940e+00	 1.075002623328541e+01
 9.723638721609748e-01	 1.234453226564436e+00	 1.038889872607661e+01
 1.256898448743110e+00	 9.900437021289901e-01	 1.303457713889235e+01
 1.233183166952260e+00	 1.019431010857295e+00	 1.283464594072892e+01
 1.208753319154181e+00	 1.048282309076467e+00	 1.261428714654023e+01
 1.183627311045192e+00	 1.076571801204223e+00	 1.238700185763133e+01
 1.157824780093512e+00	 1.104274549083482e+00	 1.216596702218030e+01
 1.131366544842838e+00	 1.131366544842838e+00	 1.194729848162603e+01
 1.104274549083482e+00	 1.157824780093512e+00	 1.169814103528703e+01
 1.076571801204222e+00	 1.183627311045192e+00	 1.141529997383435e+01
 1.048282309076466e+00	 1.208753319154182e+00	 1.110160279476422e+01
 1.019431010857295e+00	 1.233183166952261e+00	 1.076210204087501e+01
 9.900437021289900e-01	 1.256898448743110e+00	 1.040183744090353e+01
 1.279343665684940e+00	 1.007723527972461e+00	 1.298015190988063e+01
 1.255204885364558e+00	 1.037635624140944e+00	 1.279539637681543e+01
 1.230338778587595e+00	 1.067002137927457e+00	 1.259372214693896e+01
 1.204764079732331e+00	 1.095796813101972e+00	 1.238930357787007e+01
 1.178500776945462e+00	 1.123994266171235e+00	 1.219022012980586e+01
 1.151570060540358e+00	 1.151570060540358e+00	 1.196528274364286e+01
 1.123994266171235e+00	 1.178500776945462e+00	 1.170999975001124e+01
 1.095796813101971e+00	 1.204764079732332e+00	 1.142629760204478e+01
 1.067002137927457e+00	 1.230338778587596e+00	 1.111341149747040e+01
 1.037635624140944e+00	 1.255204885364558e+00	 1.077571242620418e+01
 1.007723527972462e+00	 1.279343665684940e+00	 1.041824719749714e+01
 1.301788872152743e+00	 1.025403345566011e+00	 1.294508571368861e+01
 1.277226593500463e+00	 1.055840228929743e+00	 1.277619372242492e+01
 1.251924227948217e+00	 1.085721958043131e+00	 1.259362282720732e+01
 1.225900838556086e+00	 1.115021816028617e+00	 1.241190543267671e+01
 1.199176764149080e+00	 1.143713974056987e+00	 1.221248072445295e+01
 1.171773566810069e+00	 1.171773566810069e+00	 1.198128513856500e+01
 1.143713974056986e+00	 1.199176764149081e+00	 1.172134842282810e+01
 1.115021816028617e+00	 1.225900838556087e+00	 1.143544721914742e+01
 1.085721958043130e+00	 1.251924227948217e+00	 1.112457664529313e+01
 1.055840228929742e+00	 1.277226593500463e+00	 1.079020034623583e+01
 1.025403345566011e+00	 1.301788872152743e+00	 1.043745772763149e+01
 1.324234062909339e+00	 1.043083150784260e+00	 1.292393478226921e+01
 1.299248286221607e+00	 1.074044820975874e+00	 1.277133599565493e+01
 1.273509662199462e+00	 1.104441765055470e+00	 1.260802876591701e+01
 1.247037582584560e+00	 1.134246805498281e+00	 1.243523598767063e+01
 1.219852736879972e+00	 1.163433668139442e+00	 1.222973576712618e+01
 1.191977058937807e+00	 1.191977058937807e+00	 1.199391624702798e+01
 1.163433668139443e+00	 1.219852736879972e+00	 1.173093778497247e+01
 1.134246805498280e+00	 1.247037582584561e+00	 1.144369256789832e+01
 1.104441765055469e+00	 1.273509662199462e+00	 1.113478258928024e+01
 1.074044820975874e+00	 1.299248286221607e+00	 1.080520707629159e+01
 1.043083150784260e+00	 1.324234062909339e+00	 1.045908659751075e+01
 1.346679232717547e+00	 1.060762939501830e+00	 1.291177516482438e+01
 1.321269958389622e+00	 1.092249396031525e+00	 1.277564761874513e+01
 1.295095076304750e+00	 1.123161554596456e+00	 1.262822703801747e+01
 1.268174306885854e+00	 1.153471777025084e+00	 1.245101290829056e+01
 1.240528690313739e+00	 1.183153343817310e+00	 1.224106872184844e+01
 1.212180532209407e+00	 1.212180532209407e+00	 1.200214216419480e+01
 1.183153343817310e+00	 1.240528690313740e+00	 1.173763493667465e+01
 1.153471777025084e+00	 1.268174306885854e+00	 1.145067026080296e+01
 1.123161554596456e+00	 1.295095076304751e+00	 1.114416410607866e+01
 1.092249396031525e+00	 1.321269958389622e+00	 1.082062073285008e+01
 1.060762939501830e+00	 1.346679232717546e+00	 1.048299106661619e+01
 1.369124376340185e+00	 1.078442707593344e+00	 1.290425540556173e+01
 1.343291604866139e+00	 1.110453949848880e+00	 1.278453178449269e+01
 1.316680465227499e+00	 1.141881322298074e+00	 1.263986913914220e+01
 1.289311006528071e+00	 1.172696726123150e+00	 1.245881906778300e+01
 1.261204619625986e+00	 1.202872996489294e+00	 1.224591602105642e+01
 1.232383981910703e+00	 1.232383981910703e+00	 1.200527224721137e+01
 1.202872996489294e+00	 1.261204619625987e+00	 1.174063828005754e+01
 1.172696726123149e+00	 1.289311006528072e+00	 1.145548041369587e+01
 1.141881322298074e+00	 1.316680465227500e+00	 1.115306220087898e+01
 1.110453949848879e+00	 1.343291604866139e+00	 1.083652430357937e+01
 1.078442707593345e+00	 1.369124376340185e+00	 1.050921932601745e+01
 1.391569488540071e+00	 1.096122450933424e+00	 1.289764908989593e+01
 1.365313220512789e+00	 1.128658478180122e+00	 1.278914938388875e+01
 1.338265823931128e+00	 1.160601063792305e+00	 1.264195820249952e+01
 1.310447676579314e+00	 1.191921648306599e+00	 1.245858309099930e+01
 1.281880519992316e+00	 1.222592621554103e+00	 1.224405342538139e+01
 1.252587403327531e+00	 1.252587403327531e+00	 1.200294675608207e+01
 1.222592621554102e+00	 1.281880519992317e+00	 1.173946668779779e+01
 1.191921648306598e+00	 1.310447676579314e+00	 1.145753116181101e+01
 1.160601063792305e+00	 1.338265823931128e+00	 1.116086507762245e+01
 1.128658478180122e+00	 1.365313220512790e+00	 1.085309100646229e+01
 1.096122450933424e+00	 1.391569488540071e+00	 1.053796118655095e+01
 1.414014564080026e+00	 1.113802165396690e+00	 1.288882222465380e+01
 1.387334800191205e+00	 1.146862976777438e+00	 1.278306822554154e+01
 1.359851147379053e+00	 1.179320774711131e+00	 1.263493075440427e+01
 1.331584312107683e+00	 1.211146539089554e+00	 1.245056467068994e+01
 1.302556386588333e+00	 1.242312214410441e+00	 1.223558232422714e+01
 1.272790791745725e+00	 1.272790791745726e+00	 1.199512439932681e+01
 1.242312214410440e+00	 1.302556386588333e+00	 1.173394852345856e+01
 1.211146539089553e+00	 1.331584312107684e+00	 1.145652935163696e+01
 1.179320774711131e+00	 1.359851147379053e+00	 1.116716332846511e+01
 1.146862976777438e+00	 1.387334800191205e+00	 1.087007112130750e+01
 1.113802165396690e+00	 1.414014564080026e+00	 1.056949082118527e+01
 1.436459597722866e+00	 1.131481846857766e+00	 1.287156059770784e+01
 1.409356338763016e+00	 1.165067441393012e+00	 1.276723597251551e+01
 1.381436430534692e+00	 1.198040450686535e+00	 1.261954268809676e+01
 1.352720908181285e+00	 1.230371393986137e+00	 1.243533984581546e+01
 1.323232214589639e+00	 1.262031770457014e+00	 1.222091598322185e+01
 1.292994142451122e+00	 1.292994142451123e+00	 1.198206979442373e+01
 1.262031770457013e+00	 1.323232214589640e+00	 1.172421052929066e+01
 1.230371393986136e+00	 1.352720908181285e+00	 1.145247103948367e+01
 1.198040450686535e+00	 1.381436430534693e+00	 1.117182587071419e+01
 1.165067441393011e+00	 1.409356338763016e+00	 1.088720656533857e+01
 1.131481846857766e+00	 1.436459597722866e+00	 1.060360644961175e+01
 1.458904584231411e+00	 1.149161491191272e+00	 1.284430959435468e+01
 1.431377831089855e+00	 1.183271867779027e+00	 1.274291294342396e+01
 1.403021668361464e+00	 1.216760087350500e+00	 1.259685380717582e+01
 1.373857459868217e+00	 1.249596208510468e+00	 1.241378624564856e+01
 1.343907999171839e+00	 1.281751285092530e+00	 1.220076574393845e+01
 1.313197450729555e+00	 1.313197450729556e+00	 1.196434085187425e+01
 1.281751285092530e+00	 1.343907999171839e+00	 1.171066659541803e+01
 1.249596208510468e+00	 1.373857459868218e+00	 1.144563181719812e+01
 1.216760087350499e+00	 1.403021668361465e+00	 1.117499197002902e+01
 1.183271867779027e+00	 1.431377831089855e+00	 1.090449862233162e+01
 1.149161491191272e+00	 1.458904584231411e+00	 1.064001705171473e+01
 9.723638721609748e-01	 1.234453226564436e+00	 1.038889872607661e+01
 9.430010174072977e-01	 1.257026377978594e+00	 1.001002480373692e+01
 9.131646349550788e-01	 1.278865350931224e+00	 9.616486883081340e+00
 8.828821437075309e-01	 1.299955921811683e+00	 9.212627152265938e+00
 8.521814914289004e-01	 1.320285221014940e+00	 8.802769519655172e+00
 8.210910720617377e-01	 1.339841754475272e+00	 8.391202557226917e+00
 7.896396422932949e-01	 1.358615419231882e+00	 7.982154305488153e+00
 7.578562378644051e-01	 1.376597513034150e+00	 7.579757311068335e+00
 7.257700901064783e-01	 1.393780738039724e+00	 7.187050522353834e+00
 6.934105431798986e-01	 1.410159198702624e+00	 6.802338662927920e+00
 6.608069724704809e-01	 1.425728393990340e+00	 6.430257613140419e+00
 9.900437021289900e-01	 1.256898448743110e+00	 1.040183744090353e+01
 9.601469625878484e-01	 1.279882032394063e+00	 1.002436959045988e+01
 9.297680855165880e-01	 1.302118088516627e+00	 9.632879436126771e+00
 8.989349883576462e-01	 1.323592134881926e+00	 9.231844490968275e+00
 8.676761270304159e-01	 1.344291067885663e+00	 8.825757769967364e+00
 8.360204117451503e-01	 1.364203184473336e+00	 8.419115293747685e+00
 8.039971220523432e-01	 1.383318197988888e+00	 8.016393883087588e+00
 7.716358216299124e-01	 1.401627247954596e+00	 7.622017225033741e+00
 7.389662733026410e-01	 1.419122903836405e+00	 7.240295290662772e+00
 7.060183547757798e-01	 1.435799162893631e+00	 6.870638879400433e+00
 6.728219755477625e-01	 1.451651442254549e+00	 6.514570979938004e+00
 1.007723527972462e+00	 1.279343665684940e+00	 1.041824719749714e+01
 9.772929037684622e-01	 1.302737681476930e+00	 1.004471437602751e+01
 9.463715322047653e-01	 1.325370820676797e+00	 9.658524971543107e+00
 9.149878292629193e-01	 1.347228342437492e+00	 9.264313504433234e+00
 8.831707590173420e-01	 1.368296909155497e+00	 8.866763335609066e+00
 8.509497479458683e-01	 1.388564608787582e+00	 8.470600262315742e+00
 8.183545984621103e-01	 1.408020970982467e+00	 8.080574702913404e+00
 7.854154021809467e-01	 1.426656977035360e+00	 7.701429999779349e+00
 7.521624534204098e-01	 1.444465063720531e+00	 7.337855109810578e+00
 7.186261634304922e-01	 1.461439121102613e+00	 6.992405714795552e+00
 6.848369758221196e-01	 1.477574484470682e+00	 6.663391299844788e+00
 1.025403345566011e+00	 1.301788872152743e+00	 1.043745772763149e+01
 9.944388369483216e-01	 1.325593319894246e+00	 1.007036742089815e+01
 9.629749711453679e-01	 1.348623541986129e+00	 9.692679321029564e+00
 9.310406626775749e-01	 1.370864538963291e+00	 9.309205724637337e+00
 8.986653837741475e-01	 1.392302739223098e+00	 8.924840812491041e+00
 8.658790771802607e-01	 1.412926021733687e+00	 8.544562059381160e+00
 8.327120681724017e-01	 1.432723732448638e+00	 8.173418390270276e+00
 7.991949763021615e-01	 1.451686694436161e+00	 7.816502093174032e+00
 7.653586273805737e-01	 1.469807211778912e+00	 7.478902337901184e+00
 7.312339662021228e-01	 1.487079067346885e+00	 7.163450961791465e+00
 6.968519704899772e-01	 1.503497514589997e+00	 6.843434246342602e+00
 1.043083150784260e+00	 1.324234062909339e+00	 1.045908659751075e+01
 1.011584758126610e+00	 1.348448942313062e+00	 1.010091681008723e+01
 9.795783984641530e-01	 1.371876247019020e+00	 9.734873486750859e+00
 9.470934848558367e-01	 1.394500718944234e+00	 9.365965919446939e+00
 9.141599976853013e-01	 1.416308552487120e+00	 8.999318159411928e+00
 8.808083959646980e-01	 1.437287417627326e+00	 8.640180168648939e+00
 8.470695278330231e-01	 1.457426476623419e+00	 8.293923724114327e+00
 8.129745407782102e-01	 1.476716394316720e+00	 7.966019493171423e+00
 7.785547921039214e-01	 1.495149342098357e+00	 7.652240503435825e+00
 7.438417601487589e-01	 1.512718995643765e+00	 7.332103133346513e+00
 7.088669567477605e-01	 1.529420526563753e+00	 7.002419364031429e+00
 1.060762939501830e+00	 1.346679232717546e+00	 1.048299106661619e+01
 1.028730663302512e+00	 1.371304543400429e+00	 1.013618583368454e+01
 9.961818102868757e-01	 1.395128930349863e+00	 9.784872583206988e+00
 9.631462920519298e-01	 1.418136876865232e+00	 9.434274611955622e+00
 9.296545971352722e-01	 1.440314343346220e+00	 9.089762786813331e+00
 8.957377008155500e-01	 1.461648790784178e+00	 8.756878586893141e+00
 8.614269740937803e-01	 1.482129197742829e+00	 8.441321900126908e+00
 8.267540923937455e-01	 1.501746070836753e+00	 8.129749371360848e+00
 7.917509445112406e-01	 1.520491448765676e+00	 7.808391645979772e+00
 7.564495423284879e-01	 1.538358900010570e+00	 7.479224497834754e+00
 7.208819317918950e-01	 1.555343514343210e+00	 7.142759588606160e+00
 1.078442707593345e+00	 1.369124376340185e+00	 1.050921932601745e+01
 1.045876548475211e+00	 1.394160117823397e+00	 1.017618762179115e+01
 1.012785202739292e+00	 1.418381586553052e+00	 9.842633922856548e+00
 9.791990805200774e-01	 1.441773007211196e+00	 9.514009646755161e+00
 9.451491785085291e-01	 1.464320106199052e+00	 9.195946608921222e+00
 9.106669882491871e-01	 1.486010135519916e+00	 8.893500938412654e+00
 8.757844036044786e-01	 1.506831890042887e+00	 8.588067342813474e+00
 8.405336279334206e-01	 1.526775718155982e+00	 8.270878299167423e+00
 8.049470815233201e-01	 1.545833525867680e+00	 7.943816529813485e+00
 7.690573097993972e-01	 1.563998774464616e+00	 7.608886574280438e+00
 7.328968928188055e-01	 1.581266471879626e+00	 7.267966577335790e+00
 1.096122450933424e+00	 1.391569488540071e+00	 1.053796118655095e+01
 1.063022409643890e+00	 1.417015660249019e+00	 1.022107911840561e+01
 1.029388571947160e+00	 1.441634210202984e+00	 9.908264342507591e+00
 9.952518465145044e-01	 1.465409104467036e+00	 9.605206911057843e+00
 9.606437381895409e-01	 1.488325835444271e+00	 9.316189061775709e+00
 9.255962547819787e-01	 1.510371446150220e+00	 9.020767519698520e+00
 8.901418130149241e-01	 1.531534547759610e+00	 8.712156148119135e+00
 8.543131441818891e-01	 1.551805330434126e+00	 8.391996515544323e+00
 8.181432000609484e-01	 1.571175567491180e+00	 8.062139648294046e+00
 7.816650596195733e-01	 1.589638613023221e+00	 7.724630570659228e+00
 7.449118370249175e-01	 1.607189393124262e+00	 7.381669242556772e+00
 1.113802165396690e+00	 1.414014564080026e+00	 1.056949082118527e+01
 1.080168242807732e+00	 1.439871165344345e+00	 1.027111446821962e+01
 1.045991914036235e+00	 1.464886795874051e+00	 9.981976855334194e+00
 1.011304586289435e+00	 1.489045163117666e+00	 9.706257956530457e+00
 9.761382725627761e-01	 1.512331525480532e+00	 9.423399483336734e+00
 9.405254969302946e-01	 1.534732716990764e+00	 9.126632350700216e+00
 9.044991989749218e-01	 1.556237165129019e+00	 8.817213221641603e+00
 8.680926379238031e-01	 1.576834901830902e+00	 8.496680246001533e+00
 8.313392970449135e-01	 1.596517567722984e+00	 8.166862939268942e+00
 7.942727888471045e-01	 1.615278409703701e+00	 7.829863061633613e+00
 7.569267616066564e-01	 1.633112272028377e+00	 7.488008995144377e+00
 1.131481846857766e+00	 1.436459597722866e+00	 1.060360644961175e+01
 1.097314043965922e+00	 1.462726627776426e+00	 1.032659788119936e+01
 1.062595225132273e+00	 1.488139338140651e+00	 1.006283945581320e+01
 1.027357296099094e+00	 1.512681177647994e+00	 9.793606267393514e+00
 9.916327780127042e-01	 1.536337170706490e+00	 9.510637207485924e+00
 9.554547112105054e-01	 1.559093942357225e+00	 9.214674091514224e+00
 9.188565581342782e-01	 1.580939736387131e+00	 8.906786980183053e+00
 8.818721059438164e-01	 1.601864426506033e+00	 8.588417489971802e+00
 8.445353693960043e-01	 1.621859520649905e+00	 8.261387862867858e+00
 8.068804945400773e-01	 1.640918158523374e+00	 7.927877555282176e+00
 7.689416637604468e-01	 1.659035102543229e+00	 7.590370188592880e+00
 1.149161491191272e+00	 1.458904584231411e+00	 1.064001705171473e+01
 1.114459809117642e+00	 1.485582042212313e+00	 1.038741445327476e+01
 1.079198501361031e+00	 1.511391831577175e+00	 1.013124001733897e+01
 1.043409972197705e+00	 1.536317142542933e+00	 9.862535629181520e+00
 1.007127250923793e+00	 1.560342765520800e+00	 9.581444593571161e+00
 9.703838941389803e-01	 1.583455116565279e+00	 9.288428081586529e+00
 9.332138871427986e-01	 1.605642255769965e+00	 8.984371323277061e+00
 8.956515450265821e-01	 1.626893898619235e+00	 8.670629724314512e+00
 8.577314140350092e-01	 1.647201420358751e+00	 8.349036700720969e+00
 8.194881737565793e-01	 1.666557853499554e+00	 8.021875264361542e+00
 7.809565406827144e-01	 1.684957878620077e+00	 7.691816581140628e+00
 6.608069724704809e-01	 1.425728393990340e+00	 6.430257613140419e+00
 6.279910071633606e-01	 1.440484201112815e+00	 6.073182260910462e+00
 5.949895595895377e-01	 1.454425988821346e+00	 5.734621779056611e+00
 5.618316124207050e-01	 1.467553347734377e+00	 5.419457605282973e+00
 5.285458733314734e-01	 1.479867178687744e+00	 5.130230279848936e+00
 4.951607052392220e-01	 1.491369659943822e+00	 4.858848951123822e+00
 4.617040598952436e-01	 1.502064210280071e+00	 4.591753940943076e+00
 4.282034150791710e-01	 1.511955448300201e+00	 4.329664204529858e+00
 3.946857156123787e-01	 1.521049148325250e+00	 4.073306192530946e+00
 3.611773183693992e-01	 1.529352193231805e+00	 3.823189514138400e+00
 3.277039414298097e-01	 1.536872524610773e+00	 3.583360091844595e+00
 6.728219755477625e-01	 1.451651442254549e+00	 6.514570979938004e+00
 6.394093398956465e-01	 1.466675544167214e+00	 6.175851296893024e+00
 6.058078494790310e-01	 1.480870825905353e+00	 5.859568818861248e+00
 5.720470139418096e-01	 1.494236870643906e+00	 5.557823574704460e+00
 5.381560629307075e-01	 1.506774595597990e+00	 5.258680462418502e+00
 5.041638750667339e-01	 1.518486218635843e+00	 4.964849820888776e+00
 4.700989103288566e-01	 1.529375220696224e+00	 4.678608747397940e+00
 4.359891461064794e-01	 1.539446304359769e+00	 4.401912560300424e+00
 4.018620171403314e-01	 1.548705348938062e+00	 4.136476123812412e+00
 3.677443595340612e-01	 1.557159362454346e+00	 3.883798137575477e+00
 3.336623589815881e-01	 1.564816430896064e+00	 3.647472966884492e+00
 6.848369758221196e-01	 1.477574484470682e+00	 6.663391299844788e+00
 6.508276699641378e-01	 1.492866881110919e+00	 6.346553923868800e+00
 6.166261368446359e-01	 1.507315656819490e+00	 6.026074706176936e+00
 5.822624130795893e-01	 1.520920387327832e+00	 5.705869500920278e+00
 5.477662502877221e-01	 1.533682006230345e+00	 5.389946250164932e+00
 5.131670427935555e-01	 1.545602771001122e+00	 5.081702878768107e+00
 4.784937588036202e-01	 1.556686224740210e+00	 4.784122187295399e+00
 4.437748753169786e-01	 1.566937154005154e+00	 4.499888374357827e+00
 4.090383169936040e-01	 1.576361543098060e+00	 4.231435951990056e+00
 3.743113991661537e-01	 1.584966525188804e+00	 3.980944146507723e+00
 3.396207751427842e-01	 1.592760330661334e+00	 3.751648160782145e+00
 6.968519704899772e-01	 1.503497514589997e+00	 6.843434246342602e+00
 6.622459947045026e-01	 1.519058205832586e+00	 6.513308952458322e+00
 6.274444191620534e-01	 1.533760475393265e+00	 6.179878715179626e+00
 5.924778074504441e-01	 1.547603891559975e+00	 5.848231459371149e+00
 5.573764331601574e-01	 1.560589404306392e+00	 5.522648136203745e+00
 5.221702063189915e-01	 1.572719310712449e+00	 5.206885782817789e+00
 4.868886033608045e-01	 1.583997216039457e+00	 4.904360579397157e+00
 4.515606008940891e-01	 1.594427990821833e+00	 4.618240153094176e+00
 4.162146134978368e-01	 1.604017724352159e+00	 4.351457838636270e+00
 3.808784357334940e-01	 1.612773674946886e+00	 4.106664220355675e+00
 3.455791885232393e-01	 1.620704217386405e+00	 3.886821875480894e+00
 7.088669567477605e-01	 1.529420526563753e+00	 7.002419364031429e+00
 6.736643114524095e-01	 1.545249512220870e+00	 6.663178381957747e+00
 6.382626939069839e-01	 1.560205275456184e+00	 6.322516499998104e+00
 6.026931946707729e-01	 1.574287377114149e+00	 5.985384049332052e+00
 5.669866093056553e-01	 1.587496783547712e+00	 5.656038311393587e+00
 5.311733635423465e-01	 1.599835831442617e+00	 5.338330754072739e+00
 4.952834420416801e-01	 1.611308188221397e+00	 5.035878514701548e+00
 4.593463210212317e-01	 1.621918808395286e+00	 4.752131096740762e+00
 4.233909049786710e-01	 1.631673886247275e+00	 4.490347132542205e+00
 3.874454677038998e-01	 1.640580805240301e+00	 4.253498997601499e+00
 3.515375977327944e-01	 1.648648084551100e+00	 4.044398613939604e+00
 7.208819317918950e-01	 1.555343514343210e+00	 7.142759588606160e+00
 6.850826175435260e-01	 1.571440794164428e+00	 6.798878426533933e+00
 6.490809585551286e-01	 1.586650050837757e+00	 6.455834840502110e+00
 6.129085723569758e-01	 1.600970837764177e+00	 6.118138237029353e+00
 5.765967764818563e-01	 1.614404137675887e+00	 5.789754265995191e+00
 5.401765123629251e-01	 1.626952326864416e+00	 5.474398069988444e+00
 5.036782728875178e-01	 1.638619134913462e+00	 5.175694080558560e+00
 4.671320338818276e-01	 1.649409600310997e+00	 4.897215215206140e+00
 4.305671897617475e-01	 1.659330022330324e+00	 4.642418683632911e+00
 3.940124935451890e-01	 1.668387909580757e+00	 4.414498897123277e+00
 3.574960013812908e-01	 1.676591925635240e+00	 4.216249658933755e+00
 7.328968928188055e-01	 1.581266471879626e+00	 7.267966577335794e+00
 6.965009103135202e-01	 1.597632045551912e+00	 6.923305925888897e+00
 6.598992105821884e-01	 1.613094795367491e+00	 6.581924097466989e+00
 6.231239381254519e-01	 1.627654267283872e+00	 6.247607422788743e+00
 5.862069324464020e-01	 1.641311460412501e+00	 5.923788933237747e+00
 5.491796506800322e-01	 1.654068790650638e+00	 5.613849232466735e+00
 5.120730939395876e-01	 1.665930049743079e+00	 5.321264114085305e+00
 4.749177376592978e-01	 1.676900360154443e+00	 5.049613850655740e+00
 4.377434661727073e-01	 1.686986126148221e+00	 4.802473950256853e+00
 4.005795117251792e-01	 1.696194981479960e+00	 4.583210850989337e+00
 3.634543980785698e-01	 1.704535734118647e+00	 4.394713091031663e+00
 7.449118370249175e-01	 1.607189393124262e+00	 7.381669242556772e+00
 7.079191870980611e-01	 1.623823260271979e+00	 7.039491604343869e+00
 6.707174474638633e-01	 1.639539502874890e+00	 6.703078059266224e+00
 6.333392895926000e-01	 1.654337659447055e+00	 6.375172699523303e+00
 5.958170749569336e-01	 1.668218745479135e+00	 6.058460262191027e+00
 5.581827763929721e-01	 1.681185216474073e+00	 5.755819847590626e+00
 5.204679032391601e-01	 1.693240926337682e+00	 5.470459481962137e+00
 4.827034305370630e-01	 1.704391081511104e+00	 5.205892561296507e+00
 4.449197325371911e-01	 1.714642191247882e+00	 4.965778810648837e+00
 4.071465207116879e-01	 1.724002014449617e+00	 4.753656494994024e+00
 3.694127864344723e-01	 1.732479503481143e+00	 4.572595172403642e+00
 7.569267616066564e-01	 1.633112272028377e+00	 7.488008995144377e+00
 7.193374452328151e-01	 1.650014432213284e+00	 7.150552350123369e+00
 6.815356666758550e-01	 1.665984167189467e+00	 6.821752908876199e+00
 6.435546243748205e-01	 1.681021008027543e+00	 6.502447392745418e+00
 6.054272017710922e-01	 1.695125986597372e+00	 6.194380283695735e+00
 5.671858874010501e-01	 1.708301598007515e+00	 5.899792249449469e+00
 5.288626988275059e-01	 1.720551758324699e+00	 5.621540384031904e+00
 4.904891106985443e-01	 1.731881757966463e+00	 5.363038326584714e+00
 4.520959871808399e-01	 1.742298211176222e+00	 5.128042000674205e+00
 4.137135189725328e-01	 1.751809002001437e+00	 4.920311287030480e+00
 3.753711650588398e-01	 1.760423227202551e+00	 4.743180968178036e+00
 7.689416637604468e-01	 1.659035102543229e+00	 7.590370188592884e+00
 7.307556820534515e-01	 1.676205555264484e+00	 7.259642622281198e+00
 6.923538656938637e-01	 1.692428782140726e+00	 6.940525407687662e+00
 6.537699400885121e-01	 1.707704306799154e+00	 6.631240960973106e+00
 6.150373106465187e-01	 1.722033177488792e+00	 6.332423725097962e+00
 5.761889816035703e-01	 1.735417928923754e+00	 6.045567896358829e+00
 5.372574787458954e-01	 1.747862539331563e+00	 5.773131678420267e+00
 4.982747763271624e-01	 1.759372383105996e+00	 5.518437039030715e+00
 4.592722284292945e-01	 1.769954179480157e+00	 5.285394109680123e+00
 4.202805049755315e-01	 1.779615937647126e+00	 5.078084452134409e+00
 3.813295325615133e-01	 1.788366898762692e+00	 4.900240784335995e+00
 7.809565406827144e-01	 1.684957878620077e+00	 7.691816581140628e+00
 7.421738948956381e-01	 1.702396623314230e+00	 7.369909804616871e+00
 7.031720419935903e-01	 1.718873341558175e+00	 7.062050380698475e+00
 6.639852343500747e-01	 1.734387549535705e+00	 6.763522325656059e+00
 6.246473993408544e-01	 1.748940311874980e+00	 6.473696222639735e+00
 5.851920568998376e-01	 1.762534202895580e+00	 6.193239564261689e+00
 5.456522410355987e-01	 1.775173262985702e+00	 5.924198226152416e+00
 5.060604256063386e-01	 1.786862950515187e+00	 5.669851252034021e+00
 4.664484546081961e-01	 1.797610089706602e+00	 5.434367074651192e+00
 4.268474771885019e-01	 1.807422814898392e+00	 5.222299665469777e+00
 3.872878875523342e-01	 1.816310511641387e+00	 5.037966850141678e+00
 3.277039414298097e-01	 1.536872524610773e+00	 3.583360091844595e+00
 2.942882868666912e-01	 1.543619536139733e+00	 3.363519597835158e+00
 2.609570376727920e-01	 1.549602577366594e+00	 3.163662574872793e+00
 2.277337700987326e-01	 1.554832448933549e+00	 2.985371470289618e+00
 1.946412589112334e-01	 1.559320791834440e+00	 2.830158697882275e+00
 1.617014481614524e-01	 1.563080029654769e+00	 2.699175206600304e+00
 1.289354262455696e-01	 1.566123310311101e+00	 2.593050713148612e+00
 9.636340517591950e-02	 1.568464447614244e+00	 2.511830780138504e+00
 6.400470395691217e-02	 1.570117862963473e+00	 2.454978160823845e+00
 3.187773593839194e-02	 1.571098527460400e+00	 2.421408997439695e+00
 0.000000000000000e+00	 1.571421904711111e+00	 2.409538309094361e+00
 3.336623589815881e-01	 1.564816430896064e+00	 3.647472966884485e+00
 2.996391303323379e-01	 1.571686118739641e+00	 3.435138535423920e+00
 2.657018417377326e-01	 1.577777945529459e+00	 3.245096678955126e+00
 2.318744981192860e-01	 1.583102908288448e+00	 3.079096820751403e+00
 1.981802883417759e-01	 1.587672859670729e+00	 2.938374797984729e+00
 1.646415554500828e-01	 1.591500449151411e+00	 2.823458189974353e+00
 1.312797712763175e-01	 1.594599063706687e+00	 2.734111967039043e+00
 9.811551533405542e-02	 1.596982768314489e+00	 2.669384295581398e+00
 6.516845789199319e-02	 1.598666246588589e+00	 2.627715075370176e+00
 3.245734709736157e-02	 1.599664741839956e+00	 2.607073550992530e+00
 0.000000000000000e+00	 1.599993998838902e+00	 2.605095856448195e+00
 3.396207751427842e-01	 1.592760330661334e+00	 3.751648160782149e+00
 3.049899725491720e-01	 1.599752694790881e+00	 3.547553207540036e+00
 2.704466446952952e-01	 1.605953307118260e+00	 3.365439799027764e+00
 2.360152251734538e-01	 1.611373361047094e+00	 3.207830662943320e+00
 2.017193169463797e-01	 1.616024920891725e+00	 3.076226205390820e+00
 1.675816620525767e-01	 1.619920862016819e+00	 2.971018872785584e+00
 1.336241157599911e-01	 1.623074810458135e+00	 2.891557148730921e+00
 9.986762508334759e-02	 1.625501082360675e+00	 2.836313134528183e+00
 6.633221155554131e-02	 1.627214623552641e+00	 2.803110958478821e+00
 3.303695812110609e-02	 1.628230949554292e+00	 2.789377688842042e+00
 0.000000000000000e+00	 1.628566086300104e+00	 2.792383679608270e+00
 3.455791885232393e-01	 1.620704217386405e+00	 3.886821875480894e+00
 3.103408122688085e-01	 1.627819257744674e+00	 3.691283101982998e+00
 2.751914454385045e-01	 1.634128655558860e+00	 3.515378920689147e+00
 2.401559502952074e-01	 1.639643800613179e+00	 3.362912464418217e+00
 2.052583438994042e-01	 1.644376968882100e+00	 3.236084201976654e+00
 1.705217672830291e-01	 1.648341261619734e+00	 3.135529662489325e+00
 1.359684591496797e-01	 1.651550543921298e+00	 3.060516745430146e+00
 1.016197340150524e-01	 1.654019383098738e+00	 3.009250094236421e+00
 6.749596467607184e-02	 1.655762987194560e+00	 2.979233924297580e+00
 3.361656887441332e-02	 1.656797143938189e+00	 2.967649858681983e+00
 0.000000000000000e+00	 1.657138160428128e+00	 2.971712391585560e+00
 3.515375977327944e-01	 1.648648084551100e+00	 4.044398613939604e+00
 3.156916482428617e-01	 1.655885801052237e+00	 3.857246684477762e+00
 2.799362428603853e-01	 1.662303984277112e+00	 3.685938298932342e+00
 2.442966725185188e-01	 1.667914220390396e+00	 3.535963884880870e+00
 2.087973683752088e-01	 1.672728997026529e+00	 3.410552454966710e+00
 1.734618704555351e-01	 1.676761641328907e+00	 3.310849169640459e+00
 1.383128008984724e-01	 1.680026257452029e+00	 3.236263050523400e+00
 1.033718417204265e-01	 1.682537663874611e+00	 3.184925222951079e+00
 6.865971698210022e-02	 1.684311330853280e+00	 3.154202661029094e+00
 3.419617922207117e-02	 1.685363318326427e+00	 3.141218378910706e+00
 0.000000000000000e+00	 1.685710214556385e+00	 3.143335972024308e+00
 3.574960013812908e-01	 1.676591925635240e+00	 4.216249658933755e+00
 3.210424792229463e-01	 1.683952318164791e+00	 4.036752651685497e+00
 2.846810358539620e-01	 1.690479286698879e+00	 3.868466262907308e+00
 2.484373908773596e-01	 1.696184613782438e+00	 3.718873530633815e+00
 2.123363895481528e-01	 1.701080998709684e+00	 3.592451730808234e+00
 1.764019708841897e-01	 1.705181994513079e+00	 3.491008497798114e+00
 1.406571404594584e-01	 1.708501944406180e+00	 3.414199251555802e+00
 1.051239477907264e-01	 1.711055918034232e+00	 3.360158535382547e+00
 6.982346820214187e-02	 1.712859647867734e+00	 3.326183215849236e+00
 3.477578902886748e-02	 1.713929466053786e+00	 3.309412355513880e+00
 0.000000000000000e+00	 1.714282242018287e+00	 3.307456509918938e+00
 3.634543980785698e-01	 1.704535734118647e+00	 4.394713091031660e+00
 3.263933039606769e-01	 1.712018802533554e+00	 4.221492982669558e+00
 2.894258233122595e-01	 1.718654556250017e+00	 4.054623910114187e+00
 2.525781044057017e-01	 1.724454974193001e+00	 3.903783546265553e+00
 2.158754065925959e-01	 1.729432967316239e+00	 3.774806275976985e+00
 1.793420678830878e-01	 1.733602314540998e+00	 3.670198936807059e+00
 1.430014772857270e-01	 1.736977598139604e+00	 3.589849589376864e+00
 1.068760518172086e-01	 1.739574138923537e+00	 3.531853422730987e+00
 7.098721806471210e-02	 1.741407931576855e+00	 3.493386077121647e+00
 3.535539815959007e-02	 1.742495580455047e+00	 3.471562501632641e+00
 0.000000000000000e+00	 1.742854236147245e+00	 3.464228479719669e+00
 3.694127864344723e-01	 1.732479503481143e+00	 4.572595172403646e+00
 3.317441212076679e-01	 1.740085247609745e+00	 4.403537586053737e+00
 2.941706041283021e-01	 1.746829786356384e+00	 4.236375476888774e+00
 2.567188121375165e-01	 1.752725295025775e+00	 4.083077836251273e+00
 2.194144186828974e-01	 1.757784896230868e+00	 3.950831676565958e+00
 1.822821607663244e-01	 1.762022594781407e+00	 3.842760901030696e+00
 1.453458108303672e-01	 1.765453212008154e+00	 3.758850467527071e+00
 1.086281533911296e-01	 1.768092319888461e+00	 3.696990678844764e+00
 7.215096629832633e-02	 1.769956175319576e+00	 3.654063520345576e+00
 3.593500647902684e-02	 1.771061654864991e+00	 3.627001870804661e+00
 0.000000000000000e+00	 1.771426190276669e+00	 3.613762603503654e+00
 3.753711650588398e-01	 1.760423227202551e+00	 4.743180968178036e+00
 3.370949297155342e-01	 1.768151646844585e+00	 4.575330365876782e+00
 2.989153771951150e-01	 1.775004970443840e+00	 4.405980199112479e+00
 2.608595131067761e-01	 1.780995569684454e+00	 4.249371735478817e+00
 2.229534249934168e-01	 1.786136778838242e+00	 4.113924032403458e+00
 1.852222488479947e-01	 1.790442828603053e+00	 4.003173974233819e+00
 1.476901405464683e-01	 1.793928779367682e+00	 3.916942406288253e+00
 1.103802521037461e-01	 1.796610454274940e+00	 3.852623074054703e+00
 7.331471263149993e-02	 1.798504372434831e+00	 3.806507188536260e+00
 3.651461385196566e-02	 1.799627682618398e+00	 3.775066513472590e+00
 0.000000000000000e+00	 1.799998097739971e+00	 3.756129345202588e+00
 3.813295325615133e-01	 1.788366898762692e+00	 4.900240784335995e+00
 3.424457282358898e-01	 1.796217993689290e+00	 4.729686551283796e+00
 3.036601414057223e-01	 1.803180101938242e+00	 4.555985500350253e+00
 2.650002063474519e-01	 1.809265791572732e+00	 4.395502970332126e+00
 2.264924246985136e-01	 1.814488608523038e+00	 4.257650301983757e+00
 1.881623314421935e-01	 1.818863009374681e+00	 4.146047940099702e+00
 1.500344658871194e-01	 1.822404293574040e+00	 4.059962749022258e+00
 1.121323475463146e-01	 1.825128535428912e+00	 3.995870416785960e+00
 7.447845679274828e-02	 1.827052516261553e+00	 3.949045881395988e+00
 3.709422014319434e-02	 1.828193657050048e+00	 3.915096065153223e+00
 0.000000000000000e+00	 1.828569951870562e+00	 3.891362077126382e+00
 3.872878875523342e-01	 1.816310511641387e+00	 5.037966850141678e+00
 3.477965155203497e-01	 1.824284281595081e+00	 4.859791154279179e+00
 3.084048956531489e-01	 1.831355174265449e+00	 4.679221364669483e+00
 2.691408908935159e-01	 1.837535954094301e+00	 4.514523771473623e+00
 2.300314169725472e-01	 1.842840378669926e+00	 4.375739692184272e+00
 1.911024078630157e-01	 1.847283130465035e+00	 4.266114692265137e+00
 1.523787863054098e-01	 1.850879747983083e+00	 4.183839039792694e+00
 1.138844393100915e-01	 1.853646556696309e+00	 4.123230499838219e+00
 7.564219851058672e-02	 1.855600600138674e+00	 4.076681646442751e+00
 3.767382521750076e-02	 1.856759571494720e+00	 4.040165586378113e+00
 0.000000000000000e+00	 1.857141746001852e+00	 4.011698615107884e+00
 1.857141746001852e+00	 0.000000000000000e+00	 1.302427511063733e+01
 1.856759571494719e+00	 3.767382521750127e-02	 1.300519483822104e+01
 1.855600600138674e+00	 7.564219851058723e-02	 1.300054192086345e+01
 1.853646556696309e+00	 1.138844393100919e-01	 1.300638389680774e+01
 1.850879747983083e+00	 1.523787863054102e-01	 1.301929508763428e+01
 1.847283130465035e+00	 1.911024078630160e-01	 1.303607292366056e+01
 1.842840378669926e+00	 2.300314169725474e-01	 1.305487607258008e+01
 1.837535954094301e+00	 2.691408908935160e-01	 1.307571917299306e+01
 1.831355174265449e+00	 3.084048956531490e-01	 1.310086849922304e+01
 1.824284281595082e+00	 3.477965155203497e-01	 1.313539555900955e+01
 1.816310511641387e+00	 3.872878875523342e-01	 1.318795811233310e+01
 1.885713476800548e+00	 0.000000000000000e+00	 1.290846594934171e+01
 1.885325422619806e+00	 3.825342900728004e-02	 1.289615049323822e+01
 1.884148620735662e+00	 7.680593764927594e-02	 1.289262521850677e+01
 1.882164514750101e+00	 1.156365271907106e-01	 1.289592427075902e+01
 1.879355139272735e+00	 1.547231015278927e-01	 1.290437341775071e+01
 1.875703188558489e+00	 1.940424777675210e-01	 1.291677447772887e+01
 1.871192085971243e+00	 2.335704014027125e-01	 1.293265939222923e+01
 1.865806053951007e+00	 2.732815662619720e-01	 1.295263077322852e+01
 1.859530184138386e+00	 3.131496393839276e-01	 1.297880782828108e+01
 1.852350507287563e+00	 3.531472909447426e-01	 1.301539835213184e+01
 1.844254062578541e+00	 3.932462293362442e-01	 1.306994707544648e+01
 1.914285154266534e+00	 0.000000000000000e+00	 1.279281662951305e+01
 1.913891220423136e+00	 3.883303171535256e-02	 1.278936945988501e+01
 1.912696588044117e+00	 7.796967461605393e-02	 1.278941999445715e+01
 1.910682419571384e+00	 1.173886118013114e-01	 1.279275308921850e+01
 1.907830477409213e+00	 1.570674123749742e-01	 1.279920513069239e+01
 1.904123193601920e+00	 1.969825421846239e-01	 1.280880464131721e+01
 1.899543740349969e+00	 2.371093792275444e-01	 1.282198024721191e+01
 1.894076101037295e+00	 2.774222339019514e-01	 1.283985425699961e+01
 1.887705141418246e+00	 3.178943742586214e-01	 1.286464255007412e+01
 1.880416680589877e+00	 3.584980563817532e-01	 1.290018363352415e+01
 1.872197561354381e+00	 3.992045599985871e-01	 1.295509030717684e+01
 1.942856791732986e+00	 0.000000000000000e+00	 1.267843594152091e+01
 1.942456978235147e+00	 3.941263361214704e-02	 1.268492955893414e+01
 1.941244515386172e+00	 7.913340995390489e-02	 1.269006798282287e+01
 1.939200284468283e+00	 1.191406939594114e-01	 1.269518804913862e+01
 1.936305775680813e+00	 1.594117199405254e-01	 1.270145437291764e+01
 1.932543158857830e+00	 1.999226024862042e-01	 1.270995462102171e+01
 1.927895355036750e+00	 2.406483520984138e-01	 1.272185902345288e+01
 1.922346108545763e+00	 2.815628957456183e-01	 1.273866382458112e+01
 1.915880059253288e+00	 3.226391024913023e-01	 1.276254123719498e+01
 1.908482814599550e+00	 3.638488143282802e-01	 1.279682103719525e+01
 1.900141021009215e+00	 4.051628823198081e-01	 1.285089574145175e+01
 1.971428402533082e+00	 0.000000000000000e+00	 1.256600151446514e+01
 1.971022709386280e+00	 3.999223496809167e-02	 1.258264907637600e+01
 1.969792416083958e+00	 8.029714420581249e-02	 1.259359959893088e+01
 1.967718122748928e+00	 1.208927744825274e-01	 1.260156020589821e+01
 1.964781047375824e+00	 1.617560253184171e-01	 1.260886115595030e+01
 1.960963097588724e+00	 2.028626600441414e-01	 1.261750403369601e+01
 1.956246943262227e+00	 2.441873216666910e-01	 1.262927012178260e+01
 1.950616089669009e+00	 2.857035537251363e-01	 1.264591014148608e+01
 1.944054950791771e+00	 3.273838262960415e-01	 1.266943986100311e+01
 1.936548922414112e+00	 3.691995672812230e-01	 1.270256910048486e+01
 1.928084454583353e+00	 4.111211990803512e-01	 1.275553495974930e+01
 2.000000000000000e+00	 0.000000000000000e+00	 1.245579062312529e+01
 1.999588427206974e+00	 4.057183605361461e-02	 1.248211044844204e+01
 1.998340303459612e+00	 8.146087791476057e-02	 1.249895053696644e+01
 1.996235947721442e+00	 1.226448541881766e-01	 1.251022358275364e+01
 1.993256305782539e+00	 1.641003296025199e-01	 1.251928290233916e+01
 1.989383023057104e+00	 2.058027162303148e-01	 1.252892155402168e+01
 1.984598518257045e+00	 2.477262895837470e-01	 1.254142655040119e+01
 1.978886057599632e+00	 2.898442097726694e-01	 1.255871087041760e+01
 1.972229829181956e+00	 3.321285478869107e-01	 1.258254978010582e+01
 1.964615017131089e+00	 3.745503177374802e-01	 1.261500534775999e+01
 1.956027875117104e+00	 4.170795130606617e-01	 1.266679158793799e+01
 2.028571597466919e+00	 0.000000000000000e+00	 1.234770838801290e+01
 2.028154145027667e+00	 4.115143713914402e-02	 1.238268191632032e+01
 2.026888190835264e+00	 8.262461162373276e-02	 1.240497685879482e+01
 2.024753772693956e+00	 1.243969338938760e-01	 1.241956373400662e+01
 2.021731564189249e+00	 1.664446338867043e-01	 1.243069659019259e+01
 2.017802948525475e+00	 2.087427724166041e-01	 1.244186081994572e+01
 2.012950093251845e+00	 2.512652575009519e-01	 1.245576984864257e+01
 2.007156025530228e+00	 2.939848658203814e-01	 1.247443495356921e+01
 2.000404707572101e+00	 3.368732694779810e-01	 1.249933680849632e+01
 1.992681111848008e+00	 3.799010681939509e-01	 1.253197253529040e+01
 1.983971295650776e+00	 4.230378270411838e-01	 1.258260799865136e+01
 2.057143208267015e+00	 0.000000000000000e+00	 1.224131362206997e+01
 2.056719876178799e+00	 4.173103849510811e-02	 1.228353734809285e+01
 2.055436091533050e+00	 8.378834587571288e-02	 1.231046872081860e+01
 2.053271610974594e+00	 1.261490144171426e-01	 1.232800536377846e+01
 2.050206835884245e+00	 1.687889392648411e-01	 1.234120031425335e+01
 2.046222887256340e+00	 2.116828299748884e-01	 1.235415605566233e+01
 2.041301681477273e+00	 2.548042270696766e-01	 1.236995996618807e+01
 2.035426006653395e+00	 2.981255238004356e-01	 1.239068702215386e+01
 2.028579599110465e+00	 3.416179932833240e-01	 1.241750051370842e+01
 2.020747219662399e+00	 3.852518211475339e-01	 1.245133481353633e+01
 2.011914729224678e+00	 4.289961438023623e-01	 1.250108177708584e+01
 2.085714845733467e+00	 0.000000000000000e+00	 1.213584254976107e+01
 2.085285633990811e+00	 4.231064039193506e-02	 1.218367440376848e+01
 2.083984018875102e+00	 8.495208121368455e-02	 1.221416286962114e+01
 2.081789475871482e+00	 1.279010965754935e-01	 1.223401909110567e+01
 2.078682134155821e+00	 1.711332468308010e-01	 1.224901431960380e+01
 2.074642852512203e+00	 2.146228902770473e-01	 1.226381743933258e+01
 2.069653296163970e+00	 2.583431999412916e-01	 1.228186510205795e+01
 2.063696014161732e+00	 3.022661856449961e-01	 1.230529192094469e+01
 2.056754516945308e+00	 3.463627215170116e-01	 1.233495372282018e+01
 2.048813353671787e+00	 3.906025790951284e-01	 1.237109356078598e+01
 2.039858188879119e+00	 4.349544661246417e-01	 1.242046238358849e+01
 2.114286523199453e+00	 0.000000000000000e+00	 1.203023059989264e+01
 2.113851431794140e+00	 4.289024310005302e-02	 1.208193120026431e+01
 2.112531986183551e+00	 8.611581818063156e-02	 1.211475402300619e+01
 2.110307380692751e+00	 1.296531811864456e-01	 1.213612744225659e+01
 2.107157472292267e+00	 1.734775576784545e-01	 1.215248155801742e+01
 2.103062857555567e+00	 2.175629546949602e-01	 1.216902623978092e+01
 2.098004950542581e+00	 2.618821777671674e-01	 1.218955150722034e+01
 2.091966061247835e+00	 3.064068532862270e-01	 1.221627933690456e+01
 2.084929474224890e+00	 3.511074563931146e-01	 1.224980221649911e+01
 2.076879526973702e+00	 3.959533445336330e-01	 1.228938902400017e+01
 2.067801687654408e+00	 4.409127967884670e-01	 1.233914799450051e+01
 2.142858253998148e+00	 0.000000000000000e+00	 1.192313245200940e+01
 2.142417282919225e+00	 4.346984688989016e-02	 1.197700161645152e+01
 2.141080006780534e+00	 8.727955731953760e-02	 1.201090524059625e+01
 2.138825338746526e+00	 1.314052690675160e-01	 1.203291014252996e+01
 2.135632863581876e+00	 1.758218729016723e-01	 1.205006781162591e+01
 2.131482915648935e+00	 2.205030246005066e-01	 1.206812974380769e+01
 2.126356657843749e+00	 2.654211621986746e-01	 1.209127325422882e+01
 2.120236161104301e+00	 3.105475286562915e-01	 1.212186852211964e+01
 2.113104484097469e+00	 3.558522001257047e-01	 1.216032459336058e+01
 2.104945752665670e+00	 4.013041199599467e-01	 1.220449729746652e+01
 2.095745238590854e+00	 4.468711385742824e-01	 1.225568250469743e+01
 1.816310511641387e+00	 3.872878875523342e-01	 1.318795811233310e+01
 1.807422814898392e+00	 4.268474771885015e-01	 1.324329825747526e+01
 1.797610089706602e+00	 4.664484546081957e-01	 1.327993919010806e+01
 1.786862950515187e+00	 5.060604256063382e-01	 1.330193356933509e+01
 1.775173262985702e+00	 5.456522410355984e-01	 1.331382909747642e+01
 1.762534202895581e+00	 5.851920568998371e-01	 1.332053959801819e+01
 1.748940311874980e+00	 6.246473993408540e-01	 1.332722387332128e+01
 1.734387549535705e+00	 6.639852343500745e-01	 1.333917744708904e+01
 1.718873341558175e+00	 7.031720419935901e-01	 1.336174174142413e+01
 1.702396623314230e+00	 7.421738948956377e-01	 1.340019502897705e+01
 1.684957878620078e+00	 7.809565406827145e-01	 1.342919377087367e+01
 1.844254062578541e+00	 3.932462293362442e-01	 1.306994707544648e+01
 1.835229630511079e+00	 4.334144348453717e-01	 1.312738473443289e+01
 1.825265938629002e+00	 4.736246648803805e-01	 1.316534346229300e+01
 1.814353456986758e+00	 5.138460576277942e-01	 1.318830272069006e+01
 1.802483926100813e+00	 5.540469847172571e-01	 1.320126691380575e+01
 1.789650416759368e+00	 5.941951122395042e-01	 1.320962359738943e+01
 1.775847386616701e+00	 6.342574667329134e-01	 1.321901153848368e+01
 1.761070733124077e+00	 6.742005059676948e-01	 1.323520432366402e+01
 1.745317842356538e+00	 7.139901943128659e-01	 1.326401458234364e+01
 1.728587633306821e+00	 7.535920824271836e-01	 1.330836108160521e+01
 1.710880597234519e+00	 7.929713909716419e-01	 1.333362427380343e+01
 1.872197561354381e+00	 3.992045599985871e-01	 1.295509030717684e+01
 1.863036394217573e+00	 4.399813802445118e-01	 1.301524131543601e+01
 1.852921735926916e+00	 4.808008617574676e-01	 1.305656860578468e+01
 1.841843912142404e+00	 5.216316751164568e-01	 1.308245132833851e+01
 1.829794538235650e+00	 5.624417127289971e-01	 1.309772505080162e+01
 1.816766580005814e+00	 6.031981507736139e-01	 1.310837519240934e+01
 1.802754411131447e+00	 6.438675161862026e-01	 1.312063675754713e+01
 1.787753866903399e+00	 6.844157585167091e-01	 1.314086452054654e+01
 1.771762293791397e+00	 7.248083264380440e-01	 1.317543102588151e+01
 1.754778594409110e+00	 7.650102486444621e-01	 1.322112553802778e+01
 1.736803267459500e+00	 8.049862188324427e-01	 1.324321353348714e+01
 1.900141021009215e+00	 4.051628823198081e-01	 1.285089574145175e+01
 1.890843118994394e+00	 4.465483164504029e-01	 1.291121783070611e+01
 1.880577494506431e+00	 4.879770485882723e-01	 1.295386998277907e+01
 1.869334328811065e+00	 5.294172817055537e-01	 1.298243941987520e+01
 1.857105112135230e+00	 5.708364289883130e-01	 1.300115729364133e+01
 1.843882705289193e+00	 6.122011767035577e-01	 1.301499404591485e+01
 1.829661397975898e+00	 6.534775521854009e-01	 1.303047263918925e+01
 1.814436963325859e+00	 6.946309967642412e-01	 1.305464563138242e+01
 1.798206708203550e+00	 7.356264434176079e-01	 1.309453006355961e+01
 1.780969518843590e+00	 7.764283988759874e-01	 1.313787857008892e+01
 1.762725901392302e+00	 8.170010298720873e-01	 1.315733166520632e+01
 1.928084454583353e+00	 4.111211990803512e-01	 1.275553495974930e+01
 1.918649817818067e+00	 4.531152465275261e-01	 1.281495343625249e+01
 1.908233227273636e+00	 4.951532287216086e-01	 1.285782266636111e+01
 1.896824719821681e+00	 5.372028810283127e-01	 1.288784438847340e+01
 1.884415660544573e+00	 5.792311374127020e-01	 1.290935090540001e+01
 1.870998805263785e+00	 6.212041942307266e-01	 1.292728574214317e+01
 1.856568359706731e+00	 6.630875792151879e-01	 1.294715868220579e+01
 1.841120034843649e+00	 7.048462254774153e-01	 1.297540162825921e+01
 1.824651097933797e+00	 7.464445503000406e-01	 1.301982202297650e+01
 1.807160418832757e+00	 7.878465384502737e-01	 1.305842528764775e+01
 1.788648511130207e+00	 8.290158296975462e-01	 1.307575877867007e+01
 1.956027875117104e+00	 4.170795130606617e-01	 1.266679158793799e+01
 1.946456503665112e+00	 4.596821735403619e-01	 1.272457628863707e+01
 1.935888947134617e+00	 5.023294055062915e-01	 1.276689291568587e+01
 1.924315098003190e+00	 5.449884767179609e-01	 1.279756150717106e+01
 1.911726196208697e+00	 5.876258419196601e-01	 1.282101732168867e+01
 1.898114892583867e+00	 6.302072075565122e-01	 1.284230816899419e+01
 1.883475308880623e+00	 6.726976017602436e-01	 1.286706415411521e+01
 1.867803093908958e+00	 7.150614494233548e-01	 1.290143234957128e+01
 1.851095475322934e+00	 7.572626521338254e-01	 1.294864468238321e+01
 1.833351306599104e+00	 7.992646726958358e-01	 1.298295116986774e+01
 1.814571108770497e+00	 8.410306239157899e-01	 1.299864709028197e+01
 1.983971295650776e+00	 4.230378270411838e-01	 1.258260799865136e+01
 1.974263189512053e+00	 4.662491005533916e-01	 1.263837711620789e+01
 1.963544666995464e+00	 5.095055822911356e-01	 1.267971424718467e+01
 1.951805476184532e+00	 5.527740724077266e-01	 1.271055045122334e+01
 1.939036731872620e+00	 5.960205464266828e-01	 1.273541525520347e+01
 1.925230979903715e+00	 6.392102208823045e-01	 1.275945244020402e+01
 1.910382258054252e+00	 6.823076243052468e-01	 1.278840608363039e+01
 1.894486152973978e+00	 7.252766733691832e-01	 1.282856841238691e+01
 1.877539852711759e+00	 7.680807539674455e-01	 1.287834682213899e+01
 1.859542194365125e+00	 8.106828069411878e-01	 1.291171592400835e+01
 1.840493706410456e+00	 8.530454181337890e-01	 1.292648319283355e+01
 2.011914729224678e+00	 4.289961438023623e-01	 1.250108177708585e+01
 2.002069888335410e+00	 4.728160306310959e-01	 1.255480608724273e+01
 1.991200399762263e+00	 5.166817624249557e-01	 1.259508448773538e+01
 1.979295867194646e+00	 5.605596717308375e-01	 1.262594053845577e+01
 1.966347280281362e+00	 6.044152548512669e-01	 1.265197871061650e+01
 1.952347079877608e+00	 6.482132384094956e-01	 1.267842060816321e+01
 1.937289219784295e+00	 6.919176513348770e-01	 1.271110907709656e+01
 1.921169224490899e+00	 7.354919020820255e-01	 1.275647071972288e+01
 1.903984242441071e+00	 7.788988608493848e-01	 1.280660979028184e+01
 1.885733094353314e+00	 8.221009465148437e-01	 1.284103663711867e+01
 1.866416316147365e+00	 8.650602179585146e-01	 1.285900997183363e+01
 2.039858188879119e+00	 4.349544661246417e-01	 1.242046238358849e+01
 2.029876613111707e+00	 4.793829668379558e-01	 1.247246980742189e+01
 2.018856158341103e+00	 5.238579492565666e-01	 1.251196290050487e+01
 2.006786283862470e+00	 5.683452783205212e-01	 1.254302776061214e+01
 1.993657854179940e+00	 6.128099711109080e-01	 1.257031368388358e+01
 1.979463205159823e+00	 6.572162643394763e-01	 1.259909200004140e+01
 1.964196206627429e+00	 7.015276873338142e-01	 1.263528020275944e+01
 1.947852320911910e+00	 7.457071403290042e-01	 1.268520744983167e+01
 1.930428656851669e+00	 7.897169778281263e-01	 1.273439423942895e+01
 1.911924018786166e+00	 8.335190967453181e-01	 1.277027657692280e+01
 1.892338950078508e+00	 8.770750289969373e-01	 1.279224383980715e+01
 2.067801687654408e+00	 4.409127967884670e-01	 1.233914799450051e+01
 2.057683376817465e+00	 4.859499122384522e-01	 1.239012843448446e+01
 2.046511955638071e+00	 5.310341461347829e-01	 1.242946737668380e+01
 2.034276739016944e+00	 5.761308958100052e-01	 1.246127184001806e+01
 2.020968466313373e+00	 6.212046991231025e-01	 1.249019485791574e+01
 2.006579368404637e+00	 6.662193028736376e-01	 1.252151931460464e+01
 1.991103231140334e+00	 7.111377367867371e-01	 1.256120424092768e+01
 1.974535454689202e+00	 7.559223928772436e-01	 1.261410433360488e+01
 1.956873108284349e+00	 8.005351099521534e-01	 1.266278027900609e+01
 1.938114979886175e+00	 8.449372629611253e-01	 1.270051142565961e+01
 1.918261620301166e+00	 8.890898568560276e-01	 1.272656879217996e+01
 2.095745238590854e+00	 4.468711385742824e-01	 1.225568250469743e+01
 2.085490192429206e+00	 4.925168698970659e-01	 1.230669289921683e+01
 2.074167804559254e+00	 5.382103564084193e-01	 1.234687168705265e+01
 2.061767245487008e+00	 5.839165278325172e-01	 1.238029330928817e+01
 2.048279129426679e+00	 6.295994428053462e-01	 1.241156229504093e+01
 2.033695582266328e+00	 6.752223582133707e-01	 1.244592470089900e+01
 2.018010305879684e+00	 7.207478041783255e-01	 1.248933891316692e+01
 2.001218638274965e+00	 7.661376644938676e-01	 1.254404610444945e+01
 1.983317609079911e+00	 8.113532622699491e-01	 1.259296068586663e+01
 1.964305989875834e+00	 8.563554504907797e-01	 1.263293608383005e+01
 1.944184338912621e+00	 9.011047071427563e-01	 1.266313079733300e+01
 1.684957878620078e+00	 7.809565406827145e-01	 1.342919377087367e+01
 1.666557853499554e+00	 8.194881737565801e-01	 1.343110655371722e+01
 1.647201420358750e+00	 8.577314140350094e-01	 1.341350518808318e+01
 1.626893898619235e+00	 8.956515450265826e-01	 1.337740632583049e+01
 1.605642255769965e+00	 9.332138871427991e-01	 1.332422412015848e+01
 1.583455116565279e+00	 9.703838941389810e-01	 1.325605585436347e+01
 1.560342765520799e+00	 1.007127250923794e+00	 1.317602225228259e+01
 1.536317142542932e+00	 1.043409972197705e+00	 1.308865937179188e+01
 1.511391831577175e+00	 1.079198501361031e+00	 1.300035640506930e+01
 1.485582042212313e+00	 1.114459809117642e+00	 1.291975516451003e+01
 1.458904584231411e+00	 1.149161491191272e+00	 1.284430959435468e+01
 1.710880597234519e+00	 7.929713909716419e-01	 1.333362427380343e+01
 1.692197491640870e+00	 8.320958250256214e-01	 1.333479775466079e+01
 1.672543263892895e+00	 8.709274294222861e-01	 1.331896872140852e+01
 1.651923315250340e+00	 9.094309535643897e-01	 1.328695423679061e+01
 1.630344720395502e+00	 9.475711843253477e-01	 1.323986483481028e+01
 1.607816236772740e+00	 9.853130439738669e-01	 1.317940365962544e+01
 1.584348307122767e+00	 1.022621689488241e+00	 1.310822741823944e+01
 1.559953055044917e+00	 1.059462612712344e+00	 1.303036628062331e+01
 1.534644273470807e+00	 1.095801740785352e+00	 1.295169701931313e+01
 1.508437405985517e+00	 1.131605536262452e+00	 1.287815233404326e+01
 1.481349520987057e+00	 1.166841096334489e+00	 1.280601302079012e+01
 1.736803267459500e+00	 8.049862188324427e-01	 1.324321353348714e+01
 1.717837081921181e+00	 8.447034527599028e-01	 1.324395749633483e+01
 1.697885060121966e+00	 8.841234201764701e-01	 1.322976620622000e+01
 1.676952685159619e+00	 9.232103363800669e-01	 1.320129529800374e+01
 1.655047138909579e+00	 9.619284547070215e-01	 1.315938610721218e+01
 1.632177311505969e+00	 1.000242165940413e+00	 1.310537736883035e+01
 1.608353803914299e+00	 1.038116099129151e+00	 1.304148641241196e+01
 1.583588923426484e+00	 1.075515223261489e+00	 1.297125728214071e+01
 1.557896671959866e+00	 1.112404949216425e+00	 1.290006456346457e+01
 1.531292727095384e+00	 1.148751231401410e+00	 1.282947415627984e+01
 1.503794415845505e+00	 1.184520668475332e+00	 1.275789417896280e+01
 1.762725901392302e+00	 8.170010298720873e-01	 1.315733166520632e+01
 1.743476636305657e+00	 8.573110628430486e-01	 1.315791253876552e+01
 1.723226820872152e+00	 8.973193924557673e-01	 1.314522557843950e+01
 1.701982020027454e+00	 9.369896999040808e-01	 1.311980747450249e+01
 1.679749522839990e+00	 9.762857049879758e-01	 1.308226761545292e+01
 1.656538352133463e+00	 1.015171267005648e+00	 1.303361121150999e+01
 1.632359267097950e+00	 1.053610487077358e+00	 1.297564018968764e+01
 1.607224758717692e+00	 1.091567811336469e+00	 1.291142965304400e+01
 1.581149037895460e+00	 1.129008134402526e+00	 1.284508862398063e+01
 1.554148016207720e+00	 1.165896902535952e+00	 1.277597269770675e+01
 1.526239279281034e+00	 1.202200215864372e+00	 1.270451478866962e+01
 1.788648511130207e+00	 8.290158296975462e-01	 1.307575877867008e+01
 1.769116166759466e+00	 8.699186611586822e-01	 1.307639575814203e+01
 1.748568557969642e+00	 9.105153524183829e-01	 1.306507528193470e+01
 1.727011331534228e+00	 9.507690505668976e-01	 1.304226266752515e+01
 1.704451883714535e+00	 9.906429418683662e-01	 1.300837614421542e+01
 1.680899370023719e+00	 1.030100354136599e+00	 1.296412006752856e+01
 1.656364707876279e+00	 1.069104860563694e+00	 1.291090481714904e+01
 1.630860571948602e+00	 1.107620384428615e+00	 1.285135161049272e+01
 1.604401382128696e+00	 1.145611304091932e+00	 1.278778953619620e+01
 1.577003283988331e+00	 1.183042557667512e+00	 1.271982622017124e+01
 1.548684121767921e+00	 1.219879746752182e+00	 1.264825173647603e+01
 1.814571108770497e+00	 8.410306239157899e-01	 1.299864709028197e+01
 1.794755685247777e+00	 8.825262535904279e-01	 1.299950505443244e+01
 1.773910283240627e+00	 9.237113062225214e-01	 1.298940036619086e+01
 1.752040631360323e+00	 9.645483947989817e-01	 1.296878041653941e+01
 1.729154233061010e+00	 1.005000172048349e+00	 1.293791732184830e+01
 1.705260376545236e+00	 1.045029434300290e+00	 1.289724968273973e+01
 1.680370137451841e+00	 1.084599226818992e+00	 1.284782062080907e+01
 1.654496374149275e+00	 1.123672950029256e+00	 1.279171988448123e+01
 1.627653715510682e+00	 1.162214466032919e+00	 1.273012133125328e+01
 1.599858541103024e+00	 1.200188204797525e+00	 1.266315351127874e+01
 1.571128953780444e+00	 1.237559269389335e+00	 1.259141457227238e+01
 1.840493706410456e+00	 8.530454181337890e-01	 1.292648319283355e+01
 1.820395203735760e+00	 8.951338460219088e-01	 1.292766249507539e+01
 1.799252008511294e+00	 9.369072600263892e-01	 1.291859887823701e+01
 1.777069931186121e+00	 9.783277390307988e-01	 1.289978193377896e+01
 1.753856582407214e+00	 1.019357402228078e+00	 1.287138770893243e+01
 1.729621383066509e+00	 1.059958514463750e+00	 1.283362723657626e+01
 1.704375567027192e+00	 1.100093593074085e+00	 1.278720166698844e+01
 1.678132176349771e+00	 1.139725515629723e+00	 1.273372092921982e+01
 1.650906048892523e+00	 1.178817627973761e+00	 1.267399632859174e+01
 1.622713798217603e+00	 1.217333851927424e+00	 1.260802839490742e+01
 1.593573785792883e+00	 1.255238792026402e+00	 1.253626113447362e+01
 1.866416316147365e+00	 8.650602179585146e-01	 1.285900997183363e+01
 1.846034734188584e+00	 9.077414443367493e-01	 1.286157367129344e+01
 1.824593745607836e+00	 9.501032199881912e-01	 1.285333851961112e+01
 1.802099242692003e+00	 9.921070896928154e-01	 1.283594443826221e+01
 1.778558943280943e+00	 1.033714639107710e+00	 1.280952720337968e+01
 1.753982400956037e+00	 1.074887601594005e+00	 1.277411222648979e+01
 1.728381007804889e+00	 1.115587966559807e+00	 1.273009532353288e+01
 1.701767989580150e+00	 1.155778088721344e+00	 1.267909060021118e+01
 1.674158393125326e+00	 1.195420797662737e+00	 1.262129889701476e+01
 1.645569065997876e+00	 1.234479507058645e+00	 1.255649440440236e+01
 1.616018628279513e+00	 1.272918322913956e+00	 1.248501318357124e+01
 1.892338950078508e+00	 8.770750289969373e-01	 1.279224383980715e+01
 1.871674288571418e+00	 9.203490544185731e-01	 1.280018658259930e+01
 1.849935506356439e+00	 9.632991922661320e-01	 1.279451354222419e+01
 1.827128577558354e+00	 1.005886453215496e+00	 1.277815575974810e+01
 1.803261327209995e+00	 1.048071889387401e+00	 1.275327173079092e+01
 1.778343441582318e+00	 1.089816702658083e+00	 1.271974763785694e+01
 1.752386470987488e+00	 1.131082354506989e+00	 1.267796507970964e+01
 1.725403824870472e+00	 1.171830676795451e+00	 1.262956173222097e+01
 1.697410759060200e+00	 1.212023982848121e+00	 1.257389941585580e+01
 1.668424355109646e+00	 1.251625178192622e+00	 1.251057960294092e+01
 1.638463491714616e+00	 1.290597870302570e+00	 1.243987211869982e+01
 1.918261620301166e+00	 8.890898568560276e-01	 1.272656879217996e+01
 1.897313878849430e+00	 9.329566821510041e-01	 1.273999773838941e+01
 1.875277302583296e+00	 9.764951830184179e-01	 1.274036925061482e+01
 1.852157947465554e+00	 1.019665836029307e+00	 1.272746880535445e+01
 1.827963745722167e+00	 1.062429159767305e+00	 1.270370619204280e+01
 1.802704516313848e+00	 1.104745824623009e+00	 1.267171137121635e+01
 1.776391967777545e+00	 1.146576764146466e+00	 1.263244931937063e+01
 1.749039693250798e+00	 1.187883287343372e+00	 1.258686458400788e+01
 1.720663157548250e+00	 1.228627191278190e+00	 1.253366841744853e+01
 1.691279676218723e+00	 1.268770873330791e+00	 1.247231153725936e+01
 1.660908386572466e+00	 1.308277442442816e+00	 1.240303476945358e+01
 1.944184338912621e+00	 9.011047071427563e-01	 1.266313079733300e+01
 1.922953516987790e+00	 9.455643334176658e-01	 1.268192022620574e+01
 1.900619146114594e+00	 9.896911984032537e-01	 1.268823052103551e+01
 1.877187364093985e+00	 1.033445244564713e+00	 1.268176818179579e+01
 1.852666210345257e+00	 1.076786456947578e+00	 1.266201457398726e+01
 1.827065636519126e+00	 1.119674974455812e+00	 1.263136122010343e+01
 1.800397509377619e+00	 1.162071202709070e+00	 1.259516406158821e+01
 1.772675605751188e+00	 1.203935927856437e+00	 1.255274040677183e+01
 1.743915599440585e+00	 1.245230430701220e+00	 1.250249089412818e+01
 1.714135039990909e+00	 1.285916600474584e+00	 1.244373231242245e+01
 1.683353323327345e+00	 1.325957047585265e+00	 1.237670925603378e+01
 1.458904584231411e+00	 1.149161491191272e+00	 1.284430959435468e+01
 1.431377831089855e+00	 1.183271867779027e+00	 1.274291294342396e+01
 1.403021668361464e+00	 1.216760087350500e+00	 1.259685380717582e+01
 1.373857459868217e+00	 1.249596208510468e+00	 1.241378624564856e+01
 1.343907999171839e+00	 1.281751285092530e+00	 1.220076574393845e+01
 1.313197450729555e+00	 1.313197450729556e+00	 1.196434085187425e+01
 1.281751285092530e+00	 1.343907999171839e+00	 1.171066659541803e+01
 1.249596208510468e+00	 1.373857459868218e+00	 1.144563181719812e+01
 1.216760087350499e+00	 1.403021668361465e+00	 1.117499197002902e+01
 1.183271867779027e+00	 1.431377831089855e+00	 1.090449862233162e+01
 1.149161491191272e+00	 1.458904584231411e+00	 1.064001705171473e+01
 1.481349520987057e+00	 1.166841096334489e+00	 1.280601302079012e+01
 1.453399274602523e+00	 1.201476253811551e+00	 1.270867446791986e+01
 1.424606858341064e+00	 1.235479682518991e+00	 1.256533231309569e+01
 1.394993964702520e+00	 1.268820980419588e+00	 1.238448007556761e+01
 1.364583737922718e+00	 1.301470756016321e+00	 1.217397892943157e+01
 1.333400714223925e+00	 1.333400714223926e+00	 1.194116187387555e+01
 1.301470756016321e+00	 1.364583737922719e+00	 1.169296200557202e+01
 1.268820980419588e+00	 1.394993964702520e+00	 1.143605616309705e+01
 1.235479682518990e+00	 1.424606858341064e+00	 1.117701450831229e+01
 1.201476253811550e+00	 1.453399274602524e+00	 1.092244631160431e+01
 1.166841096334489e+00	 1.481349520987058e+00	 1.067913233203476e+01
 1.503794415845505e+00	 1.184520668475332e+00	 1.275789417896280e+01
 1.475420677008507e+00	 1.219680605862163e+00	 1.266326803118961e+01
 1.446192008028296e+00	 1.254199242743907e+00	 1.252377098295350e+01
 1.416130430081964e+00	 1.288045716442199e+00	 1.234643157954082e+01
 1.385259438078790e+00	 1.321190190130227e+00	 1.213990652321438e+01
 1.353603940005389e+00	 1.353603940005389e+00	 1.191229386355627e+01
 1.321190190130227e+00	 1.385259438078791e+00	 1.167127859948348e+01
 1.288045716442198e+00	 1.416130430081964e+00	 1.142429530583262e+01
 1.254199242743907e+00	 1.446192008028297e+00	 1.117869729668817e+01
 1.219680605862163e+00	 1.475420677008507e+00	 1.094192150240594e+01
 1.184520668475332e+00	 1.503794415845506e+00	 1.071190354008046e+01
 1.526239279281034e+00	 1.202200215864372e+00	 1.270451478866962e+01
 1.497442048584460e+00	 1.237884932426327e+00	 1.260968494644202e+01
 1.467777127496240e+00	 1.272918776761132e+00	 1.247412215417472e+01
 1.437266865870256e+00	 1.307270425549920e+00	 1.230156643244952e+01
 1.405935109288751e+00	 1.340909596636712e+00	 1.210040514760378e+01
 1.373807137502167e+00	 1.373807137502167e+00	 1.187948345314066e+01
 1.340909596636711e+00	 1.405935109288752e+00	 1.164721327821839e+01
 1.307270425549920e+00	 1.437266865870257e+00	 1.141175779074057e+01
 1.272918776761131e+00	 1.467777127496241e+00	 1.118122312081870e+01
 1.237884932426326e+00	 1.497442048584461e+00	 1.095968001608074e+01
 1.202200215864373e+00	 1.526239279281035e+00	 1.073108074587307e+01
 1.548684121767921e+00	 1.219879746752182e+00	 1.264825173647603e+01
 1.519463399607041e+00	 1.256089241999505e+00	 1.255305246896676e+01
 1.489362226817979e+00	 1.291638293306547e+00	 1.241880666818461e+01
 1.458403281931104e+00	 1.326495116714370e+00	 1.225203880825862e+01
 1.426610761201296e+00	 1.360628984738242e+00	 1.205755417897649e+01
 1.394010316142480e+00	 1.394010316142481e+00	 1.184469677768628e+01
 1.360628984738242e+00	 1.426610761201297e+00	 1.162258120086362e+01
 1.326495116714370e+00	 1.458403281931105e+00	 1.140007066708684e+01
 1.291638293306546e+00	 1.489362226817979e+00	 1.118517139562742e+01
 1.256089241999504e+00	 1.519463399607041e+00	 1.096730425203040e+01
 1.219879746752182e+00	 1.548684121767921e+00	 1.074072449991199e+01
 1.571128953780444e+00	 1.237559269389335e+00	 1.259141457227238e+01
 1.541484740352902e+00	 1.274293543077157e+00	 1.249600814664569e+01
 1.510947316066591e+00	 1.310357801116036e+00	 1.236279579460950e+01
 1.479539688128214e+00	 1.345719798907169e+00	 1.220021747557961e+01
 1.447286403465122e+00	 1.380348363637284e+00	 1.201364317154222e+01
 1.414213485354551e+00	 1.414213485354552e+00	 1.181010818845809e+01
 1.380348363637283e+00	 1.447286403465122e+00	 1.159940574753871e+01
 1.345719798907169e+00	 1.479539688128214e+00	 1.139107065905705e+01
 1.310357801116035e+00	 1.510947316066592e+00	 1.118404845519669e+01
 1.274293543077157e+00	 1.541484740352903e+00	 1.096864187032563e+01
 1.237559269389335e+00	 1.571128953780445e+00	 1.074515483256638e+01
 1.593573785792883e+00	 1.255238792026402e+00	 1.253626113447362e+01
 1.563506081098702e+00	 1.292497844154748e+00	 1.244098200047488e+01
 1.532532405315159e+00	 1.329077308925479e+00	 1.230933747117676e+01
 1.500676094325292e+00	 1.364944481099937e+00	 1.214988890061940e+01
 1.467962045728922e+00	 1.400067742536300e+00	 1.197115914155469e+01
 1.434416654566601e+00	 1.434416654566602e+00	 1.177808879386110e+01
 1.400067742536299e+00	 1.467962045728923e+00	 1.157990828611915e+01
 1.364944481099937e+00	 1.500676094325291e+00	 1.138341324450175e+01
 1.329077308925479e+00	 1.532532405315160e+00	 1.118001025462818e+01
 1.292497844154748e+00	 1.563506081098702e+00	 1.096840854801797e+01
 1.255238792026402e+00	 1.593573785792883e+00	 1.074892441837567e+01
 1.616018628279513e+00	 1.272918322913956e+00	 1.248501318357124e+01
 1.585527432121095e+00	 1.310702153727739e+00	 1.239036051259887e+01
 1.554117504636764e+00	 1.347796825470761e+00	 1.226094054514347e+01
 1.521812510386044e+00	 1.384169172264292e+00	 1.210539105654908e+01
 1.488637697641396e+00	 1.419787130637759e+00	 1.193292084421672e+01
 1.454619833206850e+00	 1.454619833206851e+00	 1.175119484474330e+01
 1.419787130637757e+00	 1.488637697641396e+00	 1.156617728422253e+01
 1.384169172264292e+00	 1.521812510386045e+00	 1.137631427720937e+01
 1.347796825470761e+00	 1.554117504636765e+00	 1.117810544690758e+01
 1.310702153727739e+00	 1.585527432121096e+00	 1.097151925894556e+01
 1.272918322913956e+00	 1.616018628279513e+00	 1.075679193429537e+01
 1.638463491714616e+00	 1.290597870302570e+00	 1.243987211869982e+01
 1.607548803696737e+00	 1.328906480291591e+00	 1.234650314806770e+01
 1.575702624104487e+00	 1.366516359487763e+00	 1.222007995211249e+01
 1.542948946174178e+00	 1.403393881371855e+00	 1.206928648786216e+01
 1.509313368851237e+00	 1.439506537144124e+00	 1.190344566666609e+01
 1.474823030703521e+00	 1.474823030703521e+00	 1.173215597905915e+01
 1.439506537144123e+00	 1.509313368851237e+00	 1.155775597979044e+01
 1.403393881371855e+00	 1.542948946174179e+00	 1.137505861966917e+01
 1.366516359487763e+00	 1.575702624104488e+00	 1.118354937373367e+01
 1.328906480291591e+00	 1.607548803696738e+00	 1.098306059936505e+01
 1.290597870302570e+00	 1.638463491714616e+00	 1.077369524100039e+01
 1.660908386572466e+00	 1.308277442442816e+00	 1.240303476945358e+01
 1.629570206102284e+00	 1.347110832341768e+00	 1.231175889381008e+01
 1.597287773791408e+00	 1.385235919712369e+00	 1.218921380566120e+01
 1.564085411553401e+00	 1.422618617394244e+00	 1.204410135158495e+01
 1.529989069007141e+00	 1.459225971257861e+00	 1.188583552427698e+01
 1.495026256484834e+00	 1.495026256484834e+00	 1.172384615692267e+01
 1.459225971257860e+00	 1.529989069007141e+00	 1.155884384980570e+01
 1.422618617394244e+00	 1.564085411553402e+00	 1.138510561405571e+01
 1.385235919712368e+00	 1.597287773791408e+00	 1.120169546590652e+01
 1.347110832341767e+00	 1.629570206102285e+00	 1.100826295195338e+01
 1.308277442442816e+00	 1.660908386572467e+00	 1.080472440384643e+01
 1.683353323327345e+00	 1.325957047585265e+00	 1.237670925603378e+01
 1.651591649614392e+00	 1.365315218373729e+00	 1.228848281329363e+01
 1.618872963770608e+00	 1.403955514880460e+00	 1.217080045848858e+01
 1.585221916387419e+00	 1.441843389303079e+00	 1.203235550945795e+01
 1.550664807757804e+00	 1.478945442181437e+00	 1.188263281027066e+01
 1.515229519979011e+00	 1.515229519979012e+00	 1.173022184507657e+01
 1.478945442181437e+00	 1.550664807757805e+00	 1.157509478854749e+01
 1.441843389303079e+00	 1.585221916387419e+00	 1.141202069476708e+01
 1.403955514880459e+00	 1.618872963770609e+00	 1.123800649911595e+01
 1.365315218373729e+00	 1.651591649614392e+00	 1.105247250310394e+01
 1.325957047585266e+00	 1.683353323327345e+00	 1.085509456826891e+01
 1.149161491191272e+00	 1.458904584231411e+00	 1.064001705171473e+01
 1.114459809117642e+00	 1.485582042212313e+00	 1.038741445327476e+01
 1.079198501361031e+00	 1.511391831577175e+00	 1.013124001733897e+01
 1.043409972197705e+00	 1.536317142542933e+00	 9.862535629181520e+00
 1.007127250923793e+00	 1.560342765520800e+00	 9.581444593571161e+00
 9.703838941389803e-01	 1.583455116565279e+00	 9.288428081586529e+00
 9.332138871427986e-01	 1.605642255769965e+00	 8.984371323277061e+00
 8.956515450265821e-01	 1.626893898619235e+00	 8.670629724314512e+00
 8.577314140350092e-01	 1.647201420358751e+00	 8.349036700720969e+00
 8.194881737565793e-01	 1.666557853499554e+00	 8.021875264361542e+00
 7.809565406827144e-01	 1.684957878620077e+00	 7.691816581140628e+00
 1.166841096334489e+00	 1.481349520987058e+00	 1.067913233203476e+01
 1.131605536262451e+00	 1.508437405985517e+00	 1.043774437344825e+01
 1.095801740785352e+00	 1.534644273470807e+00	 1.018244062093388e+01
 1.059462612712343e+00	 1.559953055044917e+00	 9.915402423951178e+00
 1.022621689488240e+00	 1.584348307122768e+00	 9.637209945321171e+00
 9.853130439738663e-01	 1.607816236772741e+00	 9.348058930199967e+00
 9.475711843253468e-01	 1.630344720395503e+00	 9.048675108336784e+00
 9.094309535643892e-01	 1.651923315250341e+00	 8.740362772768940e+00
 8.709274294222854e-01	 1.672543263892896e+00	 8.425010702256099e+00
 8.320958250256207e-01	 1.692197491640871e+00	 8.105057764242183e+00
 7.929713909716419e-01	 1.710880597234519e+00	 7.783421838961253e+00
 1.184520668475332e+00	 1.503794415845506e+00	 1.071190354008046e+01
 1.148751231401410e+00	 1.531292727095384e+00	 1.047188403981453e+01
 1.112404949216425e+00	 1.557896671959867e+00	 1.021937958593271e+01
 1.075515223261488e+00	 1.583588923426483e+00	 9.954378304841837e+00
 1.038116099129150e+00	 1.608353803914299e+00	 9.679062067156188e+00
 1.000242165940413e+00	 1.632177311505970e+00	 9.393400970804599e+00
 9.619284547070207e-01	 1.655047138909579e+00	 9.098008939462556e+00
 9.232103363800662e-01	 1.676952685159620e+00	 8.794197876433632e+00
 8.841234201764697e-01	 1.697885060121966e+00	 8.483980748418904e+00
 8.447034527599022e-01	 1.717837081921181e+00	 8.170029962386335e+00
 8.049862188324428e-01	 1.736803267459500e+00	 7.855595138337435e+00
 1.202200215864373e+00	 1.526239279281035e+00	 1.073108074587307e+01
 1.165896902535952e+00	 1.554148016207721e+00	 1.049340562769556e+01
 1.129008134402526e+00	 1.581149037895461e+00	 1.024473625872003e+01
 1.091567811336468e+00	 1.607224758717692e+00	 9.982738658888749e+00
 1.053610487077357e+00	 1.632359267097951e+00	 9.710185021675928e+00
 1.015171267005648e+00	 1.656538352133463e+00	 9.427513575564697e+00
 9.762857049879752e-01	 1.679749522839991e+00	 9.135275174020471e+00
 9.369896999040801e-01	 1.701982020027454e+00	 8.834850062568519e+00
 8.973193924557665e-01	 1.723226820872152e+00	 8.528447128986848e+00
 8.573110628430480e-01	 1.743476636305657e+00	 8.219053721480204e+00
 8.170010298720872e-01	 1.762725901392302e+00	 7.910340646223878e+00
 1.219879746752182e+00	 1.548684121767921e+00	 1.074072449991199e+01
 1.183042557667511e+00	 1.577003283988331e+00	 1.050617234596009e+01
 1.145611304091932e+00	 1.604401382128697e+00	 1.026163407130516e+01
 1.107620384428614e+00	 1.630860571948602e+00	 1.000383400717690e+01
 1.069104860563693e+00	 1.656364707876279e+00	 9.733834596409265e+00
 1.030100354136598e+00	 1.680899370023719e+00	 9.453522370869145e+00
 9.906429418683659e-01	 1.704451883714535e+00	 9.163435115016597e+00
 9.507690505668969e-01	 1.727011331534229e+00	 8.865084425320230e+00
 9.105153524183822e-01	 1.748568557969642e+00	 8.560950059157303e+00
 8.699186611586814e-01	 1.769116166759466e+00	 8.254419767616511e+00
 8.290158296975461e-01	 1.788648511130207e+00	 7.949679781594584e+00
 1.237559269389335e+00	 1.571128953780445e+00	 1.074515483256638e+01
 1.200188204797524e+00	 1.599858541103024e+00	 1.051431315801208e+01
 1.162214466032918e+00	 1.627653715510682e+00	 1.027399108049182e+01
 1.123672950029255e+00	 1.654496374149276e+00	 1.002081963029560e+01
 1.084599226818991e+00	 1.680370137451841e+00	 9.753356437822244e+00
 1.045029434300289e+00	 1.705260376545236e+00	 9.474636887874983e+00
 1.005000172048349e+00	 1.729154233061010e+00	 9.185526071227136e+00
 9.645483947989809e-01	 1.752040631360324e+00	 8.887732489534320e+00
 9.237113062225210e-01	 1.773910283240627e+00	 8.584085243382042e+00
 8.825262535904271e-01	 1.794755685247778e+00	 8.278462353825262e+00
 8.410306239157896e-01	 1.814571108770497e+00	 7.975664882669756e+00
 1.255238792026402e+00	 1.593573785792883e+00	 1.074892441837567e+01
 1.217333851927423e+00	 1.622713798217603e+00	 1.052219728994550e+01
 1.178817627973761e+00	 1.650906048892523e+00	 1.028597442015652e+01
 1.139725515629722e+00	 1.678132176349771e+00	 1.003684892493224e+01
 1.100093593074084e+00	 1.704375567027192e+00	 9.772203985255420e+00
 1.059958514463749e+00	 1.729621383066509e+00	 9.494168019928795e+00
 1.019357402228078e+00	 1.753856582407214e+00	 9.204678233049428e+00
 9.783277390307985e-01	 1.777069931186121e+00	 8.905708401452056e+00
 9.369072600263886e-01	 1.799252008511295e+00	 8.600519279974671e+00
 8.951338460219084e-01	 1.820395203735761e+00	 8.293573781388540e+00
 8.530454181337890e-01	 1.840493706410456e+00	 7.990392752430264e+00
 1.272918322913956e+00	 1.616018628279513e+00	 1.075679193429537e+01
 1.234479507058645e+00	 1.645569065997876e+00	 1.053440854649920e+01
 1.195420797662736e+00	 1.674158393125327e+00	 1.030197568425859e+01
 1.155778088721344e+00	 1.701767989580150e+00	 1.005607465792241e+01
 1.115587966559806e+00	 1.728381007804889e+00	 9.793928363934548e+00
 1.074887601594005e+00	 1.753982400956038e+00	 9.515545306325475e+00
 1.033714639107710e+00	 1.778558943280943e+00	 9.224131382637356e+00
 9.921070896928146e-01	 1.802099242692004e+00	 8.922024963727452e+00
 9.501032199881907e-01	 1.824593745607836e+00	 8.613004922531506e+00
 9.077414443367485e-01	 1.846034734188585e+00	 8.302218793273511e+00
 8.650602179585146e-01	 1.866416316147365e+00	 8.001594905275425e+00
 1.290597870302570e+00	 1.638463491714616e+00	 1.077369524100039e+01
 1.251625178192622e+00	 1.668424355109647e+00	 1.055571945313610e+01
 1.212023982848121e+00	 1.697410759060200e+00	 1.032658613919894e+01
 1.171830676795451e+00	 1.725403824870473e+00	 1.008288646741687e+01
 1.131082354506989e+00	 1.752386470987489e+00	 9.821913408731133e+00
 1.089816702658082e+00	 1.778343441582318e+00	 9.542334059778797e+00
 1.048071889387400e+00	 1.803261327209995e+00	 9.247251454897192e+00
 1.005886453215495e+00	 1.827128577558354e+00	 8.939809530333074e+00
 9.632991922661315e-01	 1.849935506356440e+00	 8.624396212488492e+00
 9.203490544185723e-01	 1.871674288571418e+00	 8.317954754440766e+00
 8.770750289969372e-01	 1.892338950078508e+00	 8.038781876748555e+00
 1.308277442442816e+00	 1.660908386572467e+00	 1.080472440384643e+01
 1.268770873330790e+00	 1.691279676218724e+00	 1.059106524054145e+01
 1.228627191278190e+00	 1.720663157548251e+00	 1.036457178151118e+01
 1.187883287343372e+00	 1.749039693250799e+00	 1.012186194092591e+01
 1.146576764146465e+00	 1.776391967777547e+00	 9.860318032609309e+00
 1.104745824623009e+00	 1.802704516313849e+00	 9.578252353150132e+00
 1.062429159767305e+00	 1.827963745722167e+00	 9.277546964171950e+00
 1.019665836029306e+00	 1.852157947465555e+00	 8.962322004336242e+00
 9.764951830184176e-01	 1.875277302583297e+00	 8.653727375148586e+00
 9.329566821510034e-01	 1.897313878849430e+00	 8.369240058358876e+00
 8.890898568560278e-01	 1.918261620301166e+00	 8.109491987598858e+00
 1.325957047585266e+00	 1.683353323327345e+00	 1.085509456826891e+01
 1.285916600474583e+00	 1.714135039990911e+00	 1.064551768604878e+01
 1.245230430701219e+00	 1.743915599440585e+00	 1.042084825511637e+01
 1.203935927856437e+00	 1.772675605751188e+00	 1.017774270159059e+01
 1.162071202709069e+00	 1.800397509377619e+00	 9.913686662594126e+00
 1.119674974455811e+00	 1.827065636519127e+00	 9.627143900237424e+00
 1.076786456947577e+00	 1.852666210345257e+00	 9.318703920956022e+00
 1.033445244564712e+00	 1.877187364093986e+00	 9.012286927671191e+00
 9.896911984032533e-01	 1.900619146114595e+00	 8.726350031647575e+00
 9.455643334176652e-01	 1.922953516987790e+00	 8.461240870545970e+00
 9.011047071427561e-01	 1.944184338912621e+00	 8.217828175378152e+00
 7.809565406827144e-01	 1.684957878620077e+00	 7.691816581140628e+00
 7.421738948956381e-01	 1.702396623314230e+00	 7.369909804616871e+00
 7.031720419935903e-01	 1.718873341558175e+00	 7.062050380698475e+00
 6.639852343500747e-01	 1.734387549535705e+00	 6.763522325656059e+00
 6.246473993408544e-01	 1.748940311874980e+00	 6.473696222639735e+00
 5.851920568998376e-01	 1.762534202895580e+00	 6.193239564261689e+00
 5.456522410355987e-01	 1.775173262985702e+00	 5.924198226152416e+00
 5.060604256063386e-01	 1.786862950515187e+00	 5.669851252034021e+00
 4.664484546081961e-01	 1.797610089706602e+00	 5.434367074651192e+00
 4.268474771885019e-01	 1.807422814898392e+00	 5.222299665469777e+00
 3.872878875523342e-01	 1.816310511641387e+00	 5.037966850141678e+00
 7.929713909716419e-01	 1.710880597234519e+00	 7.783421838961253e+00
 7.535920824271839e-01	 1.728587633306821e+00	 7.470829153682148e+00
 7.139901943128664e-01	 1.745317842356539e+00	 7.173462840852791e+00
 6.742005059676951e-01	 1.761070733124077e+00	 6.884867103696476e+00
 6.342574667329135e-01	 1.775847386616700e+00	 6.603112159221422e+00
 5.941951122395043e-01	 1.789650416759368e+00	 6.328371030635215e+00
 5.540469847172577e-01	 1.802483926100813e+00	 6.062682189454683e+00
 5.138460576277945e-01	 1.814353456986757e+00	 5.809751176312100e+00
 4.736246648803809e-01	 1.825265938629001e+00	 5.574528213098500e+00
 4.334144348453718e-01	 1.835229630511079e+00	 5.362604970486350e+00
 3.932462293362442e-01	 1.844254062578541e+00	 5.179477806251713e+00
 8.049862188324428e-01	 1.736803267459500e+00	 7.855595138337438e+00
 7.650102486444625e-01	 1.754778594409110e+00	 7.550883055958990e+00
 7.248083264380444e-01	 1.771762293791398e+00	 7.261485289687736e+00
 6.844157585167093e-01	 1.787753866903398e+00	 6.980820262430061e+00
 6.438675161862029e-01	 1.802754411131447e+00	 6.706022473374489e+00
 6.031981507736143e-01	 1.816766580005813e+00	 6.437491017154100e+00
 5.624417127289971e-01	 1.829794538235649e+00	 6.178056541223563e+00
 5.216316751164571e-01	 1.841843912142404e+00	 5.932718009655721e+00
 4.808008617574681e-01	 1.852921735926916e+00	 5.708110509330686e+00
 4.399813802445121e-01	 1.863036394217573e+00	 5.508241694066459e+00
 3.992045599985871e-01	 1.872197561354380e+00	 5.332894160429073e+00
 8.170010298720872e-01	 1.762725901392302e+00	 7.910340646223878e+00
 7.764283988759878e-01	 1.780969518843590e+00	 7.611876083267953e+00
 7.356264434176083e-01	 1.798206708203551e+00	 7.328166238169413e+00
 6.946309967642414e-01	 1.814436963325858e+00	 7.053438320309464e+00
 6.534775521854010e-01	 1.829661397975897e+00	 6.784418265933596e+00
 6.122011767035579e-01	 1.843882705289193e+00	 6.522443400079973e+00
 5.708364289883134e-01	 1.857105112135230e+00	 6.272045760849392e+00
 5.294172817055541e-01	 1.869334328811066e+00	 6.038877690576682e+00
 4.879770485882726e-01	 1.880577494506431e+00	 5.824494171028655e+00
 4.465483164504034e-01	 1.890843118994394e+00	 5.629665716598314e+00
 4.051628823198078e-01	 1.900141021009215e+00	 5.454529805847022e+00
 8.290158296975461e-01	 1.788648511130207e+00	 7.949679781594579e+00
 7.878465384502744e-01	 1.807160418832757e+00	 7.655614099309931e+00
 7.464445503000406e-01	 1.824651097933796e+00	 7.375522105957911e+00
 7.048462254774155e-01	 1.841120034843649e+00	 7.104794750769829e+00
 6.630875792151882e-01	 1.856568359706731e+00	 6.840705387886056e+00
 6.212041942307270e-01	 1.870998805263785e+00	 6.589252240206771e+00
 5.792311374127023e-01	 1.884415660544573e+00	 6.351743475530665e+00
 5.372028810283129e-01	 1.896824719821681e+00	 6.128595956561380e+00
 4.951532287216088e-01	 1.908233227273635e+00	 5.920683266740810e+00
 4.531152465275264e-01	 1.918649817818067e+00	 5.728722507267083e+00
 4.111211990803512e-01	 1.928084454583353e+00	 5.552826386328491e+00
 8.410306239157896e-01	 1.814571108770497e+00	 7.975664882669756e+00
 7.992646726958363e-01	 1.833351306599104e+00	 7.683917139453177e+00
 7.572626521338256e-01	 1.851095475322933e+00	 7.405556424245139e+00
 7.150614494233550e-01	 1.867803093908958e+00	 7.141818196935908e+00
 6.726976017602440e-01	 1.883475308880623e+00	 6.892163880062816e+00
 6.302072075565125e-01	 1.898114892583866e+00	 6.653724770371037e+00
 5.876258419196604e-01	 1.911726196208697e+00	 6.426027607756584e+00
 5.449884767179612e-01	 1.924315098003190e+00	 6.209754788391582e+00
 5.023294055062918e-01	 1.935888947134617e+00	 6.005954147319248e+00
 4.596821735403623e-01	 1.946456503665112e+00	 5.815459349404044e+00
 4.170795130606617e-01	 1.956027875117104e+00	 5.638492458496990e+00
 8.530454181337890e-01	 1.840493706410456e+00	 7.990392752430264e+00
 8.106828069411881e-01	 1.859542194365125e+00	 7.700054810074756e+00
 7.680807539674459e-01	 1.877539852711758e+00	 7.434664121024984e+00
 7.252766733691836e-01	 1.894486152973978e+00	 7.188007376114911e+00
 6.823076243052468e-01	 1.910382258054251e+00	 6.951544039633317e+00
 6.392102208823047e-01	 1.925230979903715e+00	 6.722820965606717e+00
 5.960205464266832e-01	 1.939036731872620e+00	 6.502015906436657e+00
 5.527740724077270e-01	 1.951805476184531e+00	 6.290302654096716e+00
 5.095055822911359e-01	 1.963544666995464e+00	 6.089076911870523e+00
 4.662491005533921e-01	 1.974263189512054e+00	 5.899415770502245e+00
 4.230378270411838e-01	 1.983971295650776e+00	 5.721738042092223e+00
 8.650602179585146e-01	 1.866416316147365e+00	 8.001594905275425e+00
 8.221009465148440e-01	 1.885733094353314e+00	 7.730085086732041e+00
 7.788988608493849e-01	 1.903984242441070e+00	 7.482684709340630e+00
 7.354919020820259e-01	 1.921169224490899e+00	 7.250153115126833e+00
 6.919176513348774e-01	 1.937289219784295e+00	 7.024072556342315e+00
 6.482132384094960e-01	 1.952347079877608e+00	 6.802455678702869e+00
 6.044152548512673e-01	 1.966347280281361e+00	 6.586385751411292e+00
 5.605596717308379e-01	 1.979295867194645e+00	 6.377720771198912e+00
 5.166817624249562e-01	 1.991200399762264e+00	 6.178339357236487e+00
 4.728160306310963e-01	 2.002069888335411e+00	 5.989645549381311e+00
 4.289961438023622e-01	 2.011914729224678e+00	 5.812295048900327e+00
 8.770750289969372e-01	 1.892338950078508e+00	 8.038781876748555e+00
 8.335190967453185e-01	 1.911924018786167e+00	 7.786327293066599e+00
 7.897169778281266e-01	 1.930428656851669e+00	 7.553828112952091e+00
 7.457071403290046e-01	 1.947852320911911e+00	 7.332652981175112e+00
 7.015276873338142e-01	 1.964196206627429e+00	 7.114660988476961e+00
 6.572162643394766e-01	 1.979463205159823e+00	 6.898174425203169e+00
 6.128099711109082e-01	 1.993657854179939e+00	 6.685402922245653e+00
 5.683452783205215e-01	 2.006786283862470e+00	 6.479048826968402e+00
 5.238579492565669e-01	 2.018856158341102e+00	 6.281570184717389e+00
 4.793829668379561e-01	 2.029876613111707e+00	 6.094737868042787e+00
 4.349544661246416e-01	 2.039858188879119e+00	 5.919436755492408e+00
 8.890898568560278e-01	 1.918261620301166e+00	 8.109491987598851e+00
 8.449372629611257e-01	 1.938114979886175e+00	 7.872884881811764e+00
 8.005351099521535e-01	 1.956873108284349e+00	 7.652208253881906e+00
 7.559223928772439e-01	 1.974535454689202e+00	 7.439757706135835e+00
 7.111377367867373e-01	 1.991103231140333e+00	 7.227942240910826e+00
 6.662193028736381e-01	 2.006579368404637e+00	 7.015185451062556e+00
 6.212046991231029e-01	 2.020968466313372e+00	 6.804949910076834e+00
 5.761308958100055e-01	 2.034276739016944e+00	 6.600910133680753e+00
 5.310341461347833e-01	 2.046511955638071e+00	 6.406161534258607e+00
 4.859499122384525e-01	 2.057683376817465e+00	 6.222837689044441e+00
 4.409127967884668e-01	 2.067801687654408e+00	 6.051996410119592e+00
 9.011047071427561e-01	 1.944184338912621e+00	 8.217828175378152e+00
 8.563554504907798e-01	 1.964305989875833e+00	 7.993786546544156e+00
 8.113532622699493e-01	 1.983317609079910e+00	 7.781859785414603e+00
 7.661376644938679e-01	 2.001218638274965e+00	 7.575580795230312e+00
 7.207478041783260e-01	 2.018010305879684e+00	 7.368306807706380e+00
 6.752223582133712e-01	 2.033695582266328e+00	 7.158391479966088e+00
 6.295994428053465e-01	 2.048279129426679e+00	 6.950553815282360e+00
 5.839165278325178e-01	 2.061767245487008e+00	 6.749536271653190e+00
 5.382103564084196e-01	 2.074167804559254e+00	 6.559090908852935e+00
 4.925168698970661e-01	 2.085490192429206e+00	 6.381665430617959e+00
 4.468711385742824e-01	 2.095745238590854e+00	 6.218385054489965e+00
 3.872878875523342e-01	 1.816310511641387e+00	 5.037966850141678e+00
 3.477965155203497e-01	 1.824284281595081e+00	 4.859791154279179e+00
 3.084048956531489e-01	 1.831355174265449e+00	 4.679221364669483e+00
 2.691408908935159e-01	 1.837535954094301e+00	 4.514523771473623e+00
 2.300314169725472e-01	 1.842840378669926e+00	 4.375739692184272e+00
 1.911024078630157e-01	 1.847283130465035e+00	 4.266114692265137e+00
 1.523787863054098e-01	 1.850879747983083e+00	 4.183839039792694e+00
 1.138844393100915e-01	 1.853646556696309e+00	 4.123230499838219e+00
 7.564219851058672e-02	 1.855600600138674e+00	 4.076681646442751e+00
 3.767382521750076e-02	 1.856759571494720e+00	 4.040165586378113e+00
 0.000000000000000e+00	 1.857141746001852e+00	 4.011698615107884e+00
 3.932462293362442e-01	 1.844254062578541e+00	 5.179477806251708e+00
 3.531472909447425e-01	 1.852350507287563e+00	 5.005760148401600e+00
 3.131496393839275e-01	 1.859530184138386e+00	 4.830988460904853e+00
 2.732815662619718e-01	 1.865806053951007e+00	 4.667818631112823e+00
 2.335704014027122e-01	 1.871192085971243e+00	 4.524105480693486e+00
 1.940424777675207e-01	 1.875703188558489e+00	 4.402446413467135e+00
 1.547231015278923e-01	 1.879355139272735e+00	 4.302102151781391e+00
 1.156365271907102e-01	 1.882164514750101e+00	 4.220605849452086e+00
 7.680593764927543e-02	 1.884148620735662e+00	 4.155113925792432e+00
 3.825342900727951e-02	 1.885325422619806e+00	 4.103549163061897e+00
 0.000000000000000e+00	 1.885713476800548e+00	 4.065582185486664e+00
 3.992045599985871e-01	 1.872197561354380e+00	 5.332894160429073e+00
 3.584980563817531e-01	 1.880416680589877e+00	 5.158994445669735e+00
 3.178943742586213e-01	 1.887705141418246e+00	 4.979307131700922e+00
 2.774222339019513e-01	 1.894076101037295e+00	 4.809258334367422e+00
 2.371093792275442e-01	 1.899543740349969e+00	 4.656723436032863e+00
 1.969825421846236e-01	 1.904123193601920e+00	 4.524746240803990e+00
 1.570674123749739e-01	 1.907830477409214e+00	 4.413371183522246e+00
 1.173886118013110e-01	 1.910682419571384e+00	 4.321149495996169e+00
 7.796967461605343e-02	 1.912696588044117e+00	 4.246380386895078e+00
 3.883303171535203e-02	 1.913891220423135e+00	 4.188144693379922e+00
 0.000000000000000e+00	 1.914285154266534e+00	 4.147183107125025e+00
 4.051628823198078e-01	 1.900141021009215e+00	 5.454529805847022e+00
 3.638488143282803e-01	 1.908482814599550e+00	 5.277990025839521e+00
 3.226391024913021e-01	 1.915880059253288e+00	 5.096542434845590e+00
 2.815628957456182e-01	 1.922346108545764e+00	 4.925245006727613e+00
 2.406483520984135e-01	 1.927895355036750e+00	 4.771232402201954e+00
 1.999226024862039e-01	 1.932543158857830e+00	 4.637320204710233e+00
 1.594117199405251e-01	 1.936305775680814e+00	 4.523732246606776e+00
 1.191406939594110e-01	 1.939200284468284e+00	 4.429486863771430e+00
 7.913340995390436e-02	 1.941244515386171e+00	 4.353511542350562e+00
 3.941263361214651e-02	 1.942456978235147e+00	 4.295550944699762e+00
 0.000000000000000e+00	 1.942856791732986e+00	 4.256926923688400e+00
 4.111211990803512e-01	 1.928084454583353e+00	 5.552826386328491e+00
 3.691995672812229e-01	 1.936548922414112e+00	 5.374300352180966e+00
 3.273838262960414e-01	 1.944054950791771e+00	 5.193861205192587e+00
 2.857035537251361e-01	 1.950616089669009e+00	 5.026116683263189e+00
 2.441873216666908e-01	 1.956246943262227e+00	 4.876792500585781e+00
 2.028626600441411e-01	 1.960963097588724e+00	 4.747900479407344e+00
 1.617560253184168e-01	 1.964781047375825e+00	 4.639342424539470e+00
 1.208927744825270e-01	 1.967718122748928e+00	 4.550157336101079e+00
 8.029714420581197e-02	 1.969792416083958e+00	 4.479490572398394e+00
 3.999223496809114e-02	 1.971022709386280e+00	 4.427358131614892e+00
 0.000000000000000e+00	 1.971428402533082e+00	 4.395271722731295e+00
 4.170795130606617e-01	 1.956027875117104e+00	 5.638492458496989e+00
 3.745503177374802e-01	 1.964615017131088e+00	 5.459026826343214e+00
 3.321285478869105e-01	 1.972229829181956e+00	 5.282078093398943e+00
 2.898442097726693e-01	 1.978886057599632e+00	 5.121933812993596e+00
 2.477262895837467e-01	 1.984598518257044e+00	 4.982348281972252e+00
 2.058027162303145e-01	 1.989383023057104e+00	 4.864055372301678e+00
 1.641003296025195e-01	 1.993256305782539e+00	 4.766238821267122e+00
 1.226448541881762e-01	 1.996235947721443e+00	 4.687619014148123e+00
 8.146087791476002e-02	 1.998340303459612e+00	 4.627255552437856e+00
 4.057183605361405e-02	 1.999588427206974e+00	 4.585147651328059e+00
 0.000000000000000e+00	 2.000000000000000e+00	 4.562705686893927e+00
 4.230378270411838e-01	 1.983971295650776e+00	 5.721738042092215e+00
 3.799010681939509e-01	 1.992681111848008e+00	 5.542801030234865e+00
 3.368732694779809e-01	 2.000404707572101e+00	 5.371662495804134e+00
 2.939848658203811e-01	 2.007156025530228e+00	 5.222487781699208e+00
 2.512652575009517e-01	 2.012950093251845e+00	 5.096637516315524e+00
 2.087427724166037e-01	 2.017802948525476e+00	 4.993197326612135e+00
 1.664446338867039e-01	 2.021731564189249e+00	 4.910344996350406e+00
 1.243969338938756e-01	 2.024753772693956e+00	 4.846253077296732e+00
 8.262461162373223e-02	 2.026888190835265e+00	 4.799701500974962e+00
 4.115143713914347e-02	 2.028154145027667e+00	 4.770491845581343e+00
 0.000000000000000e+00	 2.028571597466919e+00	 4.759744852523214e+00
 4.289961438023622e-01	 2.011914729224678e+00	 5.812295048900327e+00
 3.852518211475339e-01	 2.020747219662398e+00	 5.635815799017040e+00
 3.416179932833240e-01	 2.028579599110465e+00	 5.472744379655442e+00
 2.981255238004353e-01	 2.035426006653395e+00	 5.337308405862537e+00
 2.548042270696764e-01	 2.041301681477272e+00	 5.228199078469654e+00
 2.116828299748880e-01	 2.046222887256340e+00	 5.142590181316071e+00
 1.687889392648407e-01	 2.050206835884246e+00	 5.077476842946657e+00
 1.261490144171422e-01	 2.053271610974593e+00	 5.030367783831473e+00
 8.378834587571232e-02	 2.055436091533050e+00	 4.999682265452213e+00
 4.173103849510755e-02	 2.056719876178800e+00	 4.984953786542794e+00
 0.000000000000000e+00	 2.057143208267015e+00	 4.986931055543183e+00
 4.349544661246416e-01	 2.039858188879119e+00	 5.919436755492408e+00
 3.906025790951284e-01	 2.048813353671787e+00	 5.747826899092692e+00
 3.463627215170114e-01	 2.056754516945308e+00	 5.595119109379118e+00
 3.022661856449962e-01	 2.063696014161732e+00	 5.475670496275411e+00
 2.583431999412913e-01	 2.069653296163970e+00	 5.385380016517748e+00
 2.146228902770470e-01	 2.074642852512202e+00	 5.319355759607697e+00
 1.711332468308006e-01	 2.078682134155821e+00	 5.273347962029905e+00
 1.279010965754930e-01	 2.081789475871483e+00	 5.244202146405392e+00
 8.495208121368397e-02	 2.083984018875101e+00	 5.230012261496862e+00
 4.231064039193448e-02	 2.085285633990811e+00	 5.230087084342246e+00
 0.000000000000000e+00	 2.085714845733467e+00	 5.244830046614998e+00
 4.409127967884668e-01	 2.067801687654408e+00	 6.051996410119595e+00
 3.959533445336330e-01	 2.076879526973701e+00	 5.888169170689660e+00
 3.511074563931144e-01	 2.084929474224890e+00	 5.748251368155840e+00
 3.064068532862269e-01	 2.091966061247835e+00	 5.646599579183500e+00
 2.618821777671672e-01	 2.098004950542582e+00	 5.576341879956500e+00
 2.175629546949599e-01	 2.103062857555566e+00	 5.530479849361539e+00
 1.734775576784540e-01	 2.107157472292267e+00	 5.503574580489607e+00
 1.296531811864451e-01	 2.110307380692751e+00	 5.491929313053362e+00
 8.611581818063098e-02	 2.112531986183551e+00	 5.493468079448256e+00
 4.289024310005243e-02	 2.113851431794140e+00	 5.507435714199260e+00
 0.000000000000000e+00	 2.114286523199453e+00	 5.534029759566236e+00
 4.468711385742824e-01	 2.095745238590854e+00	 6.218385054489965e+00
 4.013041199599467e-01	 2.104945752665670e+00	 6.065772545683421e+00
 3.558522001257046e-01	 2.113104484097469e+00	 5.941278258987792e+00
 3.105475286562914e-01	 2.120236161104302e+00	 5.858876853457486e+00
 2.654211621986743e-01	 2.126356657843749e+00	 5.809066376745721e+00
 2.205030246005063e-01	 2.131482915648935e+00	 5.782817632317810e+00
 1.758218729016718e-01	 2.135632863581875e+00	 5.773680055672624e+00
 1.314052690675156e-01	 2.138825338746525e+00	 5.777659681229877e+00
 8.727955731953703e-02	 2.141080006780534e+00	 5.792789970544610e+00
 4.346984688988957e-02	 2.142417282919225e+00	 5.818533861306738e+00
 0.000000000000000e+00	 2.142858253998148e+00	 5.855138718780677e+00
 2.142858253998148e+00	 0.000000000000000e+00	 1.192313245200940e+01
 2.142417282919225e+00	 4.346984688989016e-02	 1.197700161645152e+01
 2.141080006780534e+00	 8.727955731953760e-02	 1.201090524059625e+01
 2.138825338746526e+00	 1.314052690675160e-01	 1.203291014252996e+01
 2.135632863581876e+00	 1.758218729016723e-01	 1.205006781162591e+01
 2.131482915648935e+00	 2.205030246005066e-01	 1.206812974380769e+01
 2.126356657843749e+00	 2.654211621986746e-01	 1.209127325422882e+01
 2.120236161104301e+00	 3.105475286562915e-01	 1.212186852211964e+01
 2.113104484097469e+00	 3.558522001257047e-01	 1.216032459336058e+01
 2.104945752665670e+00	 4.013041199599467e-01	 1.220449729746652e+01
 2.095745238590854e+00	 4.468711385742824e-01	 1.225568250469743e+01
 2.171430048129439e+00	 0.000000000000000e+00	 1.183795191452539e+01
 2.170983197363897e+00	 4.404945196426734e-02	 1.189171506620844e+01
 2.169628090657648e+00	 8.844329903763927e-02	 1.192444613466350e+01
 2.167343360013901e+00	 1.331573608318399e-01	 1.194484871441948e+01
 2.164108317990864e+00	 1.781661933208532e-01	 1.196063971833098e+01
 2.159903036739186e+00	 2.234431010225900e-01	 1.197819804536951e+01
 2.154708427990457e+00	 2.689601544743331e-01	 1.200221012803024e+01
 2.148506323625582e+00	 3.146882132043030e-01	 1.203534480734657e+01
 2.141279556424241e+00	 3.605969543753244e-01	 1.207799775168451e+01
 2.133012040570838e+00	 4.066549072467314e-01	 1.212608673240905e+01
 2.123688851468689e+00	 4.528294935674085e-01	 1.217833210737467e+01
 2.200001902260030e+00	 0.000000000000000e+00	 1.179770026594168e+01
 2.199549171795546e+00	 4.462905825557583e-02	 1.184872105583319e+01
 2.198176234484364e+00	 8.960704319918453e-02	 1.187719314372579e+01
 2.195861441167846e+00	 1.349094562750252e-01	 1.189252932117013e+01
 2.192583832197163e+00	 1.805105186625083e-01	 1.190323472520786e+01
 2.188323217510695e+00	 2.263831836182099e-01	 1.191648415809792e+01
 2.183060257675045e+00	 2.724991541812603e-01	 1.193768079504547e+01
 2.176776545513528e+00	 3.188289064471714e-01	 1.197003044929172e+01
 2.169454687918146e+00	 3.653417185883987e-01	 1.201417419228778e+01
 2.161078387414830e+00	 4.120057057696991e-01	 1.206351933662562e+01
 2.151632523027844e+00	 4.587878610726682e-01	 1.211484002225146e+01
 2.228573809723331e+00	 0.000000000000000e+00	 1.179854189971350e+01
 2.228115199548950e+00	 4.520866562859959e-02	 1.184502584014771e+01
 2.226724431599610e+00	 9.077078953267413e-02	 1.186709865776506e+01
 2.224379575554298e+00	 1.366615549882979e-01	 1.187464406274466e+01
 2.221059399556625e+00	 1.828548483796768e-01	 1.187675431258766e+01
 2.216743451332210e+00	 2.293232717013901e-01	 1.188184073680137e+01
 2.211412140282193e+00	 2.760381604937229e-01	 1.189639996491156e+01
 2.205046820171844e+00	 3.229696074187557e-01	 1.192444592993213e+01
 2.197629872005055e+00	 3.700864916578231e-01	 1.196716024144541e+01
 2.189144786648886e+00	 4.173565142803253e-01	 1.201483238195339e+01
 2.179576246748170e+00	 4.647462396997594e-01	 1.206321419776100e+01
 2.257145763852756e+00	 0.000000000000000e+00	 1.179755499160545e+01
 2.256681273958894e+00	 4.578827394812260e-02	 1.184118532685893e+01
 2.255272675342323e+00	 9.193453776660880e-02	 1.185971157424814e+01
 2.252897756519192e+00	 1.384136565628840e-01	 1.186325089979812e+01
 2.249535013425104e+00	 1.851991819253977e-01	 1.186116797390246e+01
 2.245163731572482e+00	 2.322633645861541e-01	 1.186170655006300e+01
 2.239764069196581e+00	 2.795771725859875e-01	 1.187156214451345e+01
 2.233317141004234e+00	 3.271103151529153e-01	 1.189538664309956e+01
 2.225805102110844e+00	 3.748312724764942e-01	 1.193511420253298e+01
 2.217211231724250e+00	 4.227073315300851e-01	 1.197822024604500e+01
 2.207520016109523e+00	 4.707046280583811e-01	 1.202164596492692e+01
 2.285717757981713e+00	 0.000000000000000e+00	 1.177752055414737e+01
 2.285247388360155e+00	 4.636788307892877e-02	 1.182007825095231e+01
 2.283820959051436e+00	 9.309828762948937e-02	 1.183696950207342e+01
 2.281415977408467e+00	 1.401657605900095e-01	 1.183845497622043e+01
 2.278010667158456e+00	 1.875435187527105e-01	 1.183412183585520e+01
 2.273584051600257e+00	 2.352034615865257e-01	 1.183252989616471e+01
 2.268116037802889e+00	 2.831161896323206e-01	 1.184079809846314e+01
 2.261587501414402e+00	 3.312510286835094e-01	 1.186412117794207e+01
 2.253980371661390e+00	 3.795760599373076e-01	 1.190472322221922e+01
 2.245277716092162e+00	 4.280581562704531e-01	 1.194685021898531e+01
 2.235463824591756e+00	 4.766630247582314e-01	 1.198709071150638e+01
 2.314289785443615e+00	 0.000000000000000e+00	 1.174009491172941e+01
 2.313813536087513e+00	 4.694749288580207e-02	 1.178295912710892e+01
 2.312369276065879e+00	 9.426203884981654e-02	 1.179977325091476e+01
 2.309934231568059e+00	 1.419178666609004e-01	 1.180084632634534e+01
 2.306486354112534e+00	 1.898878583146542e-01	 1.179589967317140e+01
 2.302004404784288e+00	 2.381435620165285e-01	 1.179373052027622e+01
 2.296468039485797e+00	 2.866552108069891e-01	 1.180181533055663e+01
 2.289857894806050e+00	 3.353917470443971e-01	 1.182584168788415e+01
 2.282155674082562e+00	 3.843208529331593e-01	 1.186796072362344e+01
 2.273344233203865e+00	 4.334089872529048e-01	 1.190984754156008e+01
 2.263407665674720e+00	 4.826214284090087e-01	 1.194902704693769e+01
 2.342861839571873e+00	 0.000000000000000e+00	 1.168676535894628e+01
 2.342379710475750e+00	 4.752710323352646e-02	 1.173095769261479e+01
 2.340917619724592e+00	 9.542579115609118e-02	 1.174894161315725e+01
 2.338452512343903e+00	 1.436699743667829e-01	 1.175097384466949e+01
 2.334962067643196e+00	 1.922322000642681e-01	 1.174681552072647e+01
 2.330424784493323e+00	 2.410836651901863e-01	 1.174541632228651e+01
 2.324820067629985e+00	 2.901942352842597e-01	 1.175453786796028e+01
 2.318128314582882e+00	 3.395324692694375e-01	 1.178030415009362e+01
 2.310331002800236e+00	 3.890656503569450e-01	 1.182440811672805e+01
 2.301410776510600e+00	 4.387598232289152e-01	 1.186655418772748e+01
 2.291351532838271e+00	 4.885798376204115e-01	 1.190529807825475e+01
 2.371433913699896e+00	 0.000000000000000e+00	 1.161886034554269e+01
 2.370945904859645e+00	 4.810671398688587e-02	 1.166508705690711e+01
 2.369465983366502e+00	 9.658954427681400e-02	 1.168521767008585e+01
 2.366970813081937e+00	 1.454220832988829e-01	 1.168934993835644e+01
 2.363437801106293e+00	 1.945765434545914e-01	 1.168718404404030e+01
 2.358845184096109e+00	 2.440237704215225e-01	 1.168773041754631e+01
 2.353172115620134e+00	 2.937332622383988e-01	 1.169895656929709e+01
 2.346398754148603e+00	 3.436731943924899e-01	 1.172735958339145e+01
 2.338506351240289e+00	 3.938104511015609e-01	 1.177379599969915e+01
 2.329477339463609e+00	 4.441106629499594e-01	 1.181671591610952e+01
 2.319295419562262e+00	 4.945382510021382e-01	 1.185567647240786e+01
 2.400006001161099e+00	 0.000000000000000e+00	 1.153755893435588e+01
 2.399512112573981e+00	 4.868632501066424e-02	 1.158625127108659e+01
 2.398014360330547e+00	 9.775329794048576e-02	 1.160927465444896e+01
 2.395489127128098e+00	 1.471741930484264e-01	 1.161645486169491e+01
 2.391913547857681e+00	 1.969208879386632e-01	 1.161732352080711e+01
 2.387265596961397e+00	 2.469638770245609e-01	 1.162085293598791e+01
 2.381524176840922e+00	 2.972722908436733e-01	 1.163512990628050e+01
 2.374669206906917e+00	 3.478139214474136e-01	 1.166695397086077e+01
 2.366681712828594e+00	 3.985552540599028e-01	 1.171599823953239e+01
 2.357543915514136e+00	 4.494615051675127e-01	 1.176022904206603e+01
 2.347239319326545e+00	 5.004966671638873e-01	 1.180008749033625e+01
 2.428578095288889e+00	 0.000000000000000e+00	 1.144389959210942e+01
 2.428078326953535e+00	 4.926593616964552e-02	 1.149525236514586e+01
 2.426562743955656e+00	 9.891705187560726e-02	 1.152172140591148e+01
 2.424007447828321e+00	 1.489263032066394e-01	 1.153274075868280e+01
 2.420389301253213e+00	 1.992652329695225e-01	 1.153755863563008e+01
 2.415686016457935e+00	 2.499039843133253e-01	 1.154500272918135e+01
 2.409876244677030e+00	 3.008113202743498e-01	 1.156318473750946e+01
 2.402939666261527e+00	 3.519546494680676e-01	 1.159912824820855e+01
 2.394857080991023e+00	 4.033000581248665e-01	 1.165102618099451e+01
 2.385610498113419e+00	 4.548123486330496e-01	 1.169713297644250e+01
 2.375183225610976e+00	 5.064550847153568e-01	 1.173859993088212e+01
 2.095745238590854e+00	 4.468711385742824e-01	 1.225568250469743e+01
 2.085490192429206e+00	 4.925168698970659e-01	 1.230669289921683e+01
 2.074167804559254e+00	 5.382103564084193e-01	 1.234687168705265e+01
 2.061767245487008e+00	 5.839165278325172e-01	 1.238029330928817e+01
 2.048279129426679e+00	 6.295994428053462e-01	 1.241156229504093e+01
 2.033695582266328e+00	 6.752223582133707e-01	 1.244592470089900e+01
 2.018010305879684e+00	 7.207478041783255e-01	 1.248933891316692e+01
 2.001218638274965e+00	 7.661376644938676e-01	 1.254404610444945e+01
 1.983317609079911e+00	 8.113532622699491e-01	 1.259296068586663e+01
 1.964305989875834e+00	 8.563554504907797e-01	 1.263293608383005e+01
 1.944184338912621e+00	 9.011047071427563e-01	 1.266313079733300e+01
 2.123688851468689e+00	 4.528294935674085e-01	 1.217833210737467e+01
 2.113297069679323e+00	 4.990838421121444e-01	 1.222927017464220e+01
 2.101823714784222e+00	 5.453865825890742e-01	 1.227025875724684e+01
 2.089257812894369e+00	 5.917021771129672e-01	 1.230524461058129e+01
 2.075589853078625e+00	 6.379942050957513e-01	 1.233869499942493e+01
 2.060811856235608e+00	 6.842254335097109e-01	 1.237573994100616e+01
 2.044917440262993e+00	 7.303578928720826e-01	 1.242227041304356e+01
 2.027901881008348e+00	 7.763529587542138e-01	 1.247719416293310e+01
 2.009762168493958e+00	 8.221714385678729e-01	 1.252614186552279e+01
 1.990497057922020e+00	 8.677736633306645e-01	 1.256779061286215e+01
 1.970107114985842e+00	 9.131195840623494e-01	 1.260119812104233e+01
 2.151632523027844e+00	 4.587878610726682e-01	 1.211484002225146e+01
 2.141104005323695e+00	 5.056508281175016e-01	 1.216421973824460e+01
 2.129479683086463e+00	 5.525628238394812e-01	 1.220478256397336e+01
 2.116748438031804e+00	 5.994878427429894e-01	 1.224021208784669e+01
 2.102900634082976e+00	 6.463889850148935e-01	 1.227471416162019e+01
 2.087928187148927e+00	 6.932285277122674e-01	 1.231319374203153e+01
 2.071824631151114e+00	 7.399680017468045e-01	 1.236138395807836e+01
 2.054585179776326e+00	 7.865682744664770e-01	 1.241449596903680e+01
 2.036206783441316e+00	 8.329896375837861e-01	 1.246241916861133e+01
 2.016688180969135e+00	 8.791919001486401e-01	 1.250435855286483e+01
 1.996029945496535e+00	 9.251344862130573e-01	 1.253928906699795e+01
 2.179576246748170e+00	 4.647462396997594e-01	 1.206321419776100e+01
 2.168910992874073e+00	 5.122178263808183e-01	 1.210960105147882e+01
 2.157135703012948e+00	 5.597390784851574e-01	 1.214861154017529e+01
 2.144239114484863e+00	 6.072735229059019e-01	 1.218352010790565e+01
 2.130211466067240e+00	 6.547837806039635e-01	 1.221813719506156e+01
 2.115044568679169e+00	 7.022316387202939e-01	 1.225702469392243e+01
 2.098731872265736e+00	 7.495781285601114e-01	 1.230532932582066e+01
 2.081268528352833e+00	 7.967836092470635e-01	 1.235549939940655e+01
 2.062651447751618e+00	 8.438078567934264e-01	 1.240154555823075e+01
 2.042879352905968e+00	 8.906101582804349e-01	 1.244262559146086e+01
 2.021952824396092e+00	 9.371494107913849e-01	 1.247764844869608e+01
 2.207520016109523e+00	 4.707046280583811e-01	 1.202164596492692e+01
 2.196718025842202e+00	 5.187848353697738e-01	 1.206367924261727e+01
 2.184791768110645e+00	 5.669153448516195e-01	 1.210013827293567e+01
 2.171729835839092e+00	 6.150592157850215e-01	 1.213373149492551e+01
 2.157522342658928e+00	 6.631785899041532e-01	 1.216772976180710e+01
 2.142160994499219e+00	 7.112347644330450e-01	 1.220622465457616e+01
 2.125639157328543e+00	 7.591882710696226e-01	 1.225309030512585e+01
 2.107951920511804e+00	 8.069989607123823e-01	 1.229994225136127e+01
 2.089096155254496e+00	 8.546260936725302e-01	 1.234345897180768e+01
 2.069070567621301e+00	 9.020284350617782e-01	 1.238275489787052e+01
 2.047875745635905e+00	 9.491643549938379e-01	 1.241668866088229e+01
 2.235463824591756e+00	 4.766630247582314e-01	 1.198709071150638e+01
 2.224525097739836e+00	 5.253518535520497e-01	 1.202488137232786e+01
 2.212447871926523e+00	 5.740916212643852e-01	 1.205797205804392e+01
 2.199220595680037e+00	 6.228449195636648e-01	 1.208963912480660e+01
 2.184833257485551e+00	 6.715734109566540e-01	 1.212249644220018e+01
 2.169277458281962e+00	 7.202379027497732e-01	 1.216002852752828e+01
 2.152546480061226e+00	 7.687984270329583e-01	 1.220441116967621e+01
 2.134635350027170e+00	 8.172143264788407e-01	 1.224774272960140e+01
 2.115540899779582e+00	 8.654443456968357e-01	 1.228827266093812e+01
 2.095261819003921e+00	 9.134467278283991e-01	 1.232507742636523e+01
 2.073798703167367e+00	 9.611793160169219e-01	 1.235698005743344e+01
 2.263407665674720e+00	 4.826214284090087e-01	 1.194902704693769e+01
 2.252332202078722e+00	 5.319188793953256e-01	 1.198592746736070e+01
 2.240104008007555e+00	 5.812679060489712e-01	 1.201903579852975e+01
 2.226711387593248e+00	 6.306306324251496e-01	 1.205014573760915e+01
 2.212144204174621e+00	 6.799682418026566e-01	 1.208167184571895e+01
 2.196393953700281e+00	 7.292410515697327e-01	 1.211790448851243e+01
 2.179453834185470e+00	 7.784085942077388e-01	 1.215921296437405e+01
 2.161318810672869e+00	 8.274297041628470e-01	 1.219899036953277e+01
 2.141985675156508e+00	 8.762626103420794e-01	 1.223626594768199e+01
 2.121453100942615e+00	 9.248650339160266e-01	 1.227008260709300e+01
 2.099721690941868e+00	 9.731942910571415e-01	 1.229924167886466e+01
 2.291351532838271e+00	 4.885798376204115e-01	 1.190529807825475e+01
 2.280139332370610e+00	 5.384859113672821e-01	 1.194191897731223e+01
 2.267760169900707e+00	 5.884441975308945e-01	 1.197606924385242e+01
 2.254202205164268e+00	 6.384163525527919e-01	 1.200930756289566e+01
 2.239455176353647e+00	 6.883630804833529e-01	 1.204315614684108e+01
 2.223510474427064e+00	 7.382442087921774e-01	 1.207953556280531e+01
 2.206361213422964e+00	 7.880187703515834e-01	 1.211758247303574e+01
 2.188002296222832e+00	 8.376450913808088e-01	 1.215393735992960e+01
 2.168430475214904e+00	 8.870808850839981e-01	 1.218787536175678e+01
 2.147644407326165e+00	 9.362833506603900e-01	 1.221840939120396e+01
 2.125644702910802e+00	 9.852092773110037e-01	 1.224433229961186e+01
 2.319295419562262e+00	 4.945382510021382e-01	 1.185567647240786e+01
 2.307946482127250e+00	 5.450529479355997e-01	 1.189266507119876e+01
 2.295416351152952e+00	 5.956204940356723e-01	 1.192835151867893e+01
 2.281693041978647e+00	 6.462020781299098e-01	 1.196408373658712e+01
 2.266766167650140e+00	 6.967579250399342e-01	 1.200104757074603e+01
 2.250627014135192e+00	 7.472473723163607e-01	 1.204061851238714e+01
 2.233268611495395e+00	 7.976289532221122e-01	 1.207912832093195e+01
 2.214685800450992e+00	 8.478604857491343e-01	 1.211299023125534e+01
 2.194875293784406e+00	 8.978991673983309e-01	 1.214368612650429e+01
 2.173835732043358e+00	 9.477016753972176e-01	 1.217083762039331e+01
 2.151567733025559e+00	 9.972242719750127e-01	 1.219324176811745e+01
 2.347239319326545e+00	 5.004966671638873e-01	 1.180008749033625e+01
 2.335753644860390e+00	 5.516199875679585e-01	 1.183812530216048e+01
 2.323072545311256e+00	 6.027967938888225e-01	 1.187588128035791e+01
 2.309183891621934e+00	 6.539878073398199e-01	 1.191452564717249e+01
 2.294077171691613e+00	 7.051527735135914e-01	 1.195493837783225e+01
 2.277743566497550e+00	 7.562505400415361e-01	 1.199778174643987e+01
 2.260176022124451e+00	 8.072391405769451e-01	 1.203866745427939e+01
 2.241369317131287e+00	 8.580758848842309e-01	 1.207477898607558e+01
 2.221320124694642e+00	 9.087174547608132e-01	 1.210442396456574e+01
 2.200027068982981e+00	 9.591200054622390e-01	 1.212827969382695e+01
 2.177490775237533e+00	 1.009239272245675e+00	 1.214708261531894e+01
 2.375183225610976e+00	 5.064550847153568e-01	 1.173859993088212e+01
 2.363560814081782e+00	 5.581870287320392e-01	 1.177839901976286e+01
 2.350728745922590e+00	 6.099730954158608e-01	 1.181879007941712e+01
 2.336674747679672e+00	 6.617735383658389e-01	 1.186080813081433e+01
 2.321388182105573e+00	 7.135476239455165e-01	 1.190506709372437e+01
 2.304860125187024e+00	 7.652537098669574e-01	 1.195143720441342e+01
 2.287083439031819e+00	 8.168493301737020e-01	 1.199536118434037e+01
 2.268052840037646e+00	 8.682912864025062e-01	 1.203466984064127e+01
 2.247764961775247e+00	 9.195357446471825e-01	 1.206748207098213e+01
 2.226218412033818e+00	 9.705383381911828e-01	 1.209168728328337e+01
 2.203413823498114e+00	 1.021254275319494e+00	 1.210708190943748e+01
 1.944184338912621e+00	 9.011047071427563e-01	 1.266313079733300e+01
 1.922953516987790e+00	 9.455643334176658e-01	 1.268192022620574e+01
 1.900619146114594e+00	 9.896911984032537e-01	 1.268823052103551e+01
 1.877187364093985e+00	 1.033445244564713e+00	 1.268176818179579e+01
 1.852666210345257e+00	 1.076786456947578e+00	 1.266201457398726e+01
 1.827065636519126e+00	 1.119674974455812e+00	 1.263136122010343e+01
 1.800397509377619e+00	 1.162071202709070e+00	 1.259516406158821e+01
 1.772675605751188e+00	 1.203935927856437e+00	 1.255274040677183e+01
 1.743915599440585e+00	 1.245230430701220e+00	 1.250249089412818e+01
 1.714135039990909e+00	 1.285916600474584e+00	 1.244373231242245e+01
 1.683353323327345e+00	 1.325957047585265e+00	 1.237670925603378e+01
 1.970107114985842e+00	 9.131195840623494e-01	 1.260119812104233e+01
 1.948593211960381e+00	 9.581720126312757e-01	 1.262428238762097e+01
 1.925961045819982e+00	 1.002887243039292e+00	 1.263552447762891e+01
 1.902216836203941e+00	 1.047224683644562e+00	 1.263454888716142e+01
 1.877368729725117e+00	 1.091143785953334e+00	 1.262078770015156e+01
 1.851426810724528e+00	 1.134604157381755e+00	 1.259427389821460e+01
 1.824403104189627e+00	 1.177565675617919e+00	 1.256063809973971e+01
 1.796311570644189e+00	 1.219988603953137e+00	 1.252092679274726e+01
 1.767168092875534e+00	 1.261833706928410e+00	 1.247323947199265e+01
 1.736990454425562e+00	 1.303062365625070e+00	 1.241673550545565e+01
 1.705798309834959e+00	 1.343636691917840e+00	 1.235165255298929e+01
 1.996029945496535e+00	 9.251344862130573e-01	 1.253928906699796e+01
 1.974232960775937e+00	 9.707797183209202e-01	 1.256487528074603e+01
 1.951302998742938e+00	 1.016083315386974e+00	 1.257933370640683e+01
 1.927246360875348e+00	 1.061004151661226e+00	 1.258219551426144e+01
 1.902071300979821e+00	 1.105501145109518e+00	 1.257283125079915e+01
 1.875788036087948e+00	 1.149533371659062e+00	 1.255283601220682e+01
 1.848408749412948e+00	 1.193060181065279e+00	 1.252326440565708e+01
 1.819947585172297e+00	 1.236041313760605e+00	 1.248503183464132e+01
 1.790420635140326e+00	 1.278437018022650e+00	 1.243863014990569e+01
 1.759845916856227e+00	 1.320208166781845e+00	 1.238299912706145e+01
 1.728243343476730e+00	 1.361316373377846e+00	 1.231831714987866e+01
 2.021952824396092e+00	 9.371494107913849e-01	 1.247764844869608e+01
 1.999872757451907e+00	 9.833874475447802e-01	 1.250420031261122e+01
 1.976644998970398e+00	 1.029279412367186e+00	 1.252038584028478e+01
 1.952275932268046e+00	 1.074783645399459e+00	 1.252563228173059e+01
 1.926773918345494e+00	 1.119858531066032e+00	 1.251939933383083e+01
 1.900149306925160e+00	 1.164462613804192e+00	 1.250553119397692e+01
 1.872414439446317e+00	 1.208554715435698e+00	 1.248255264748340e+01
 1.843583643820493e+00	 1.252094053533134e+00	 1.244667047982526e+01
 1.813673220809414e+00	 1.295040360109755e+00	 1.240039004102319e+01
 1.782701421950001e+00	 1.337353999944137e+00	 1.234432474112179e+01
 1.750688419015513e+00	 1.378996087839941e+00	 1.227853949183214e+01
 2.047875745635905e+00	 9.491643549938379e-01	 1.241668866088229e+01
 2.025512596005740e+00	 9.959951973610355e-01	 1.244291572889367e+01
 2.001987040589300e+00	 1.042475530900817e+00	 1.245955529630727e+01
 1.977305544541873e+00	 1.088563161644014e+00	 1.246592092754300e+01
 1.951476576058265e+00	 1.134215940472780e+00	 1.246247837528787e+01
 1.924510617551938e+00	 1.179391880333605e+00	 1.245403373723599e+01
 1.896420168688476e+00	 1.224049275113726e+00	 1.243688871231287e+01
 1.867219741073760e+00	 1.268146819525019e+00	 1.240649369853771e+01
 1.836925844457251e+00	 1.311643729315537e+00	 1.236033408526497e+01
 1.805556964373981e+00	 1.354499861111174e+00	 1.230260897834544e+01
 1.773133531214161e+00	 1.396675831178782e+00	 1.223425690477747e+01
 2.073798703167367e+00	 9.611793160169219e-01	 1.235698005743344e+01
 2.051152470454882e+00	 1.008602964827866e+00	 1.238182708915361e+01
 2.027329117686581e+00	 1.055671667908755e+00	 1.239785378634657e+01
 2.002335191856666e+00	 1.102342697179644e+00	 1.240425119832926e+01
 1.976179268354262e+00	 1.148573369979664e+00	 1.240375975575022e+01
 1.948871962284053e+00	 1.194321167763762e+00	 1.240014922551332e+01
 1.920425931538164e+00	 1.239543856483913e+00	 1.238818675799329e+01
 1.890855871417077e+00	 1.284199607990552e+00	 1.236283735233327e+01
 1.860178500658287e+00	 1.328247121765811e+00	 1.232009040820248e+01
 1.828412538795262e+00	 1.371645746282187e+00	 1.225985786265626e+01
 1.795578674835525e+00	 1.414355599269022e+00	 1.218752210867106e+01
 2.099721690941868e+00	 9.731942910571415e-01	 1.229924167886466e+01
 2.076792374816782e+00	 1.021210747003453e+00	 1.232187805208824e+01
 2.052671224349178e+00	 1.068867820311888e+00	 1.233642110294487e+01
 2.027364868372264e+00	 1.116122248791106e+00	 1.234201037485179e+01
 2.000881989469610e+00	 1.162930816236588e+00	 1.234499274908894e+01
 1.973233335437281e+00	 1.209250472611123e+00	 1.234579041123615e+01
 1.944431722394119e+00	 1.255038455930808e+00	 1.233851841586428e+01
 1.914492029335429e+00	 1.300252415184028e+00	 1.231761570525549e+01
 1.883431183986978e+00	 1.344850533586389e+00	 1.227848022207329e+01
 1.851268139880942e+00	 1.388791651456402e+00	 1.221820129412967e+01
 1.818023844642459e+00	 1.432035387985319e+00	 1.214051788642992e+01
 2.125644702910802e+00	 9.852092773110037e-01	 1.224433229961186e+01
 2.102432303108890e+00	 1.033818540945976e+00	 1.226414144433231e+01
 2.078013354664025e+00	 1.082063985031103e+00	 1.227651615680387e+01
 2.052394568248506e+00	 1.129901813263150e+00	 1.228156829673481e+01
 2.025584733640439e+00	 1.177288275893454e+00	 1.228802156670144e+01
 1.997594731327395e+00	 1.224179791392149e+00	 1.229295430376475e+01
 1.968437535655083e+00	 1.270533069838961e+00	 1.229003230618840e+01
 1.938128209313798e+00	 1.316305237359740e+00	 1.227312920503557e+01
 1.906683889017773e+00	 1.361453960903086e+00	 1.223699292119096e+01
 1.874123762298116e+00	 1.405937572633051e+00	 1.217801818541855e+01
 1.840469035397816e+00	 1.449715193202329e+00	 1.209557189493348e+01
 2.151567733025559e+00	 9.972242719750127e-01	 1.219324176811745e+01
 2.128072249348652e+00	 1.046426343713616e+00	 1.220981058888854e+01
 2.103355502718061e+00	 1.095260158987289e+00	 1.221950824469318e+01
 2.077424285645228e+00	 1.143681387380532e+00	 1.222492164141525e+01
 2.050287495102875e+00	 1.191645745600166e+00	 1.223476304648276e+01
 2.021956144270168e+00	 1.239109120623300e+00	 1.224369942257688e+01
 1.992443365719793e+00	 1.286027694592921e+00	 1.224493091972500e+01
 1.961764405837163e+00	 1.332358070771982e+00	 1.223172817405957e+01
 1.929936610325127e+00	 1.378057399841715e+00	 1.219813065357285e+01
 1.896979400713880e+00	 1.423083505811359e+00	 1.213976217924328e+01
 1.862914241864448e+00	 1.467395010794707e+00	 1.205474923418088e+01
 2.177490775237533e+00	 1.009239272245675e+00	 1.214708261531894e+01
 2.153712207553518e+00	 1.059034152364551e+00	 1.216019087154965e+01
 2.128697662598222e+00	 1.108456339101333e+00	 1.216686852857231e+01
 2.102454014722270e+00	 1.157460967928004e+00	 1.217391024927196e+01
 2.074990268093046e+00	 1.206003222006626e+00	 1.218718450938005e+01
 2.046317568581372e+00	 1.254038456821036e+00	 1.220012320211031e+01
 2.016449206986989e+00	 1.301522326577240e+00	 1.220544763842306e+01
 1.985400613390508e+00	 1.348410911675047e+00	 1.219578952138426e+01
 1.953189342483491e+00	 1.394660846528090e+00	 1.216442166708822e+01
 1.919835049795330e+00	 1.440229446990556e+00	 1.210611789234876e+01
 1.885359458805209e+00	 1.485074836637110e+00	 1.201827860970334e+01
 2.203413823498114e+00	 1.021254275319494e+00	 1.210708190943748e+01
 2.179352171740935e+00	 1.071641963956964e+00	 1.211669152571383e+01
 2.154039828391445e+00	 1.121652522294122e+00	 1.212062846025022e+01
 2.127483749639469e+00	 1.171240551690321e+00	 1.213041784744219e+01
 2.099693046847078e+00	 1.220360701762737e+00	 1.214728176998657e+01
 2.070678998576783e+00	 1.268967796501816e+00	 1.216433953607680e+01
 2.040455053855409e+00	 1.317016962176464e+00	 1.217382388412630e+01
 2.009036826458815e+00	 1.364463756323230e+00	 1.216769357430952e+01
 1.976442080067317e+00	 1.411264297088024e+00	 1.213839690877849e+01
 1.942690704209564e+00	 1.457375392169872e+00	 1.207977733540525e+01
 1.907804680982951e+00	 1.502754666604192e+00	 1.199352306853463e+01
 1.683353323327345e+00	 1.325957047585265e+00	 1.237670925603378e+01
 1.651591649614392e+00	 1.365315218373729e+00	 1.228848281329363e+01
 1.618872963770608e+00	 1.403955514880460e+00	 1.217080045848858e+01
 1.585221916387419e+00	 1.441843389303079e+00	 1.203235550945795e+01
 1.550664807757804e+00	 1.478945442181437e+00	 1.188263281027066e+01
 1.515229519979011e+00	 1.515229519979012e+00	 1.173022184507657e+01
 1.478945442181437e+00	 1.550664807757805e+00	 1.157509478854749e+01
 1.441843389303079e+00	 1.585221916387419e+00	 1.141202069476708e+01
 1.403955514880459e+00	 1.618872963770609e+00	 1.123800649911595e+01
 1.365315218373729e+00	 1.651591649614392e+00	 1.105247250310394e+01
 1.325957047585266e+00	 1.683353323327345e+00	 1.085509456826891e+01
 1.705798309834959e+00	 1.343636691917840e+00	 1.235165255298929e+01
 1.673613141940549e+00	 1.383519644759064e+00	 1.226608714927922e+01
 1.640458201596894e+00	 1.422675151543938e+00	 1.215269954076136e+01
 1.606358468074006e+00	 1.461068203827065e+00	 1.202018196427137e+01
 1.571340592339743e+00	 1.498664956816691e+00	 1.187856142546890e+01
 1.535432828257211e+00	 1.535432828257212e+00	 1.173617431494980e+01
 1.498664956816691e+00	 1.571340592339744e+00	 1.159048125888633e+01
 1.461068203827065e+00	 1.606358468074006e+00	 1.143735227770130e+01
 1.422675151543938e+00	 1.640458201596895e+00	 1.127207434591617e+01
 1.383519644759063e+00	 1.673613141940550e+00	 1.109343047467818e+01
 1.343636691917840e+00	 1.705798309834959e+00	 1.090084870418785e+01
 1.728243343476730e+00	 1.361316373377846e+00	 1.231831714987866e+01
 1.695634680511580e+00	 1.401724109373857e+00	 1.223358879623283e+01
 1.662043484751976e+00	 1.441394827518785e+00	 1.212230807485488e+01
 1.627495064147210e+00	 1.480293058723251e+00	 1.199320564987963e+01
 1.592016420340749e+00	 1.518384512862965e+00	 1.185950482316626e+01
 1.555636178962339e+00	 1.555636178962340e+00	 1.172600697344226e+01
 1.518384512862964e+00	 1.592016420340750e+00	 1.158832043707267e+01
 1.480293058723251e+00	 1.627495064147210e+00	 1.144219145376080e+01
 1.441394827518785e+00	 1.662043484751977e+00	 1.128308337851226e+01
 1.401724109373856e+00	 1.695634680511580e+00	 1.110853435769606e+01
 1.361316373377846e+00	 1.728243343476730e+00	 1.091776110529877e+01
 1.750688419015513e+00	 1.378996087839941e+00	 1.227853949183214e+01
 1.717656260189139e+00	 1.419928607970316e+00	 1.219283389065488e+01
 1.683628808199291e+00	 1.460114538437001e+00	 1.208147076431137e+01
 1.648631699675146e+00	 1.499517949505772e+00	 1.195491703128969e+01
 1.612692286936437e+00	 1.538104105718973e+00	 1.182960341843572e+01
 1.575839567380241e+00	 1.575839567380241e+00	 1.170390285690799e+01
 1.538104105718973e+00	 1.612692286936437e+00	 1.157286666197814e+01
 1.499517949505771e+00	 1.648631699675146e+00	 1.143166565975081e+01
 1.460114538437001e+00	 1.683628808199292e+00	 1.127598897946793e+01
 1.419928607970316e+00	 1.717656260189140e+00	 1.110272736329101e+01
 1.378996087839941e+00	 1.750688419015513e+00	 1.091076934229293e+01
 1.773133531214161e+00	 1.396675831178782e+00	 1.223425690477747e+01
 1.739677875834883e+00	 1.438133136300653e+00	 1.214577294306602e+01
 1.705214166902273e+00	 1.478834279930586e+00	 1.203213708149622e+01
 1.669768369725928e+00	 1.518742871688761e+00	 1.191064816525646e+01
 1.633368187302418e+00	 1.557823730783433e+00	 1.179293414637515e+01
 1.596042988796757e+00	 1.596042988796758e+00	 1.167398821969729e+01
 1.557823730783433e+00	 1.633368187302419e+00	 1.154831147581822e+01
 1.518742871688761e+00	 1.669768369725929e+00	 1.141049498317828e+01
 1.478834279930586e+00	 1.705214166902274e+00	 1.125577354922426e+01
 1.438133136300653e+00	 1.739677875834884e+00	 1.108098515931835e+01
 1.396675831178781e+00	 1.773133531214161e+00	 1.088485150928466e+01
 1.795578674835525e+00	 1.414355599269022e+00	 1.218752210867106e+01
 1.761699522310470e+00	 1.456337690117077e+00	 1.209447544848046e+01
 1.726799555824359e+00	 1.497554047631540e+00	 1.197848153583345e+01
 1.690905069367672e+00	 1.537967820786355e+00	 1.186437681972678e+01
 1.654044116614308e+00	 1.577543383455060e+00	 1.175350016605298e+01
 1.616246438497734e+00	 1.616246438497735e+00	 1.164031981428628e+01
 1.577543383455059e+00	 1.654044116614308e+00	 1.151878236895808e+01
 1.537967820786354e+00	 1.690905069367673e+00	 1.138289010614823e+01
 1.497554047631540e+00	 1.726799555824360e+00	 1.122730402450066e+01
 1.456337690117076e+00	 1.761699522310470e+00	 1.104828544591235e+01
 1.414355599269022e+00	 1.795578674835525e+00	 1.084499695372054e+01
 1.818023844642459e+00	 1.432035387985319e+00	 1.214051788642992e+01
 1.783721194477554e+00	 1.474542265171797e+00	 1.204114465173002e+01
 1.748384969928984e+00	 1.516273837171863e+00	 1.192717884765001e+01
 1.712041793668494e+00	 1.557192792312686e+00	 1.181998445067772e+01
 1.674720070047717e+00	 1.597263059132570e+00	 1.171521764902445e+01
 1.636449911769015e+00	 1.636449911769015e+00	 1.160687229383202e+01
 1.597263059132569e+00	 1.674720070047718e+00	 1.148833088102601e+01
 1.557192792312684e+00	 1.712041793668494e+00	 1.135299183130841e+01
 1.516273837171863e+00	 1.748384969928984e+00	 1.119492586442605e+01
 1.474542265171797e+00	 1.783721194477555e+00	 1.100957758357509e+01
 1.432035387985319e+00	 1.818023844642459e+00	 1.079617703751245e+01
 1.840469035397816e+00	 1.449715193202329e+00	 1.209557189493348e+01
 1.805742887197792e+00	 1.492746857217023e+00	 1.198945827774336e+01
 1.769970404179584e+00	 1.534993644183557e+00	 1.188204942615567e+01
 1.733178537696507e+00	 1.576417781781889e+00	 1.178124849308018e+01
 1.695396042778260e+00	 1.616982753214677e+00	 1.168190269142985e+01
 1.656653403896441e+00	 1.656653403896442e+00	 1.157752572664008e+01
 1.616982753214677e+00	 1.695396042778261e+00	 1.146092080017461e+01
 1.576417781781889e+00	 1.733178537696508e+00	 1.132486115401805e+01
 1.534993644183556e+00	 1.769970404179583e+00	 1.116280334516423e+01
 1.492746857217022e+00	 1.805742887197793e+00	 1.096960681462227e+01
 1.449715193202329e+00	 1.840469035397816e+00	 1.074331592704032e+01
 1.862914241864448e+00	 1.467395010794707e+00	 1.205474923418088e+01
 1.827764595332841e+00	 1.510951462004965e+00	 1.194748053911092e+01
 1.791555853539594e+00	 1.553713464298620e+00	 1.184674189707202e+01
 1.754315296519828e+00	 1.595642784708100e+00	 1.175182888478678e+01
 1.716072029981550e+00	 1.636702461100100e+00	 1.165725833918884e+01
 1.676856910165859e+00	 1.676856910165859e+00	 1.155605321303921e+01
 1.636702461100099e+00	 1.716072029981551e+00	 1.144041645214314e+01
 1.595642784708099e+00	 1.754315296519828e+00	 1.130246829344666e+01
 1.553713464298619e+00	 1.791555853539595e+00	 1.113502023303023e+01
 1.510951462004965e+00	 1.827764595332843e+00	 1.093235713730792e+01
 1.467395010794707e+00	 1.862914241864448e+00	 1.069443235855133e+01
 1.885359458805209e+00	 1.485074836637110e+00	 1.201827860970334e+01
 1.849786313744357e+00	 1.529156075287833e+00	 1.191922519382621e+01
 1.813141312972451e+00	 1.572433293149053e+00	 1.182477099113301e+01
 1.775452065206571e+00	 1.614867796605452e+00	 1.173525470182609e+01
 1.736748026833199e+00	 1.656422178187553e+00	 1.164486171679533e+01
 1.697060425863111e+00	 1.697060425863111e+00	 1.154610859605388e+01
 1.656422178187552e+00	 1.736748026833200e+00	 1.143057107155851e+01
 1.614867796605452e+00	 1.775452065206572e+00	 1.128968179284399e+01
 1.572433293149053e+00	 1.813141312972452e+00	 1.111556900551001e+01
 1.529156075287832e+00	 1.849786313744358e+00	 1.090190541517438e+01
 1.485074836637110e+00	 1.885359458805209e+00	 1.067339959724583e+01
 1.907804680982951e+00	 1.502754666604192e+00	 1.199352306853463e+01
 1.871808037293996e+00	 1.547360692817836e+00	 1.190688752136620e+01
 1.834726777441590e+00	 1.591153126366857e+00	 1.181950389025009e+01
 1.796588838824851e+00	 1.634092812988081e+00	 1.173491089585716e+01
 1.757424028508822e+00	 1.676141899875752e+00	 1.164815125110412e+01
 1.717263946274040e+00	 1.717263946274040e+00	 1.155121425806963e+01
 1.676141899875751e+00	 1.757424028508822e+00	 1.143501524861859e+01
 1.634092812988080e+00	 1.796588838824852e+00	 1.129025768319939e+01
 1.591153126366856e+00	 1.834726777441591e+00	 1.110834078804066e+01
 1.547360692817835e+00	 1.871808037293997e+00	 1.089168555291780e+01
 1.502754666604192e+00	 1.907804680982951e+00	 1.068603171910113e+01
 1.325957047585266e+00	 1.683353323327345e+00	 1.085509456826891e+01
 1.285916600474583e+00	 1.714135039990911e+00	 1.064551768604878e+01
 1.245230430701219e+00	 1.743915599440585e+00	 1.042084825511637e+01
 1.203935927856437e+00	 1.772675605751188e+00	 1.017774270159059e+01
 1.162071202709069e+00	 1.800397509377619e+00	 9.913686662594126e+00
 1.119674974455811e+00	 1.827065636519127e+00	 9.627143900237424e+00
 1.076786456947577e+00	 1.852666210345257e+00	 9.318703920956022e+00
 1.033445244564712e+00	 1.877187364093986e+00	 9.012286927671191e+00
 9.896911984032533e-01	 1.900619146114595e+00	 8.726350031647575e+00
 9.455643334176652e-01	 1.922953516987790e+00	 8.461240870545970e+00
 9.011047071427561e-01	 1.944184338912621e+00	 8.217828175378152e+00
 1.343636691917840e+00	 1.705798309834959e+00	 1.090084870418785e+01
 1.303062365625069e+00	 1.736990454425562e+00	 1.069361319829022e+01
 1.261833706928409e+00	 1.767168092875535e+00	 1.046863648849346e+01
 1.219988603953136e+00	 1.796311570644190e+00	 1.022261159018196e+01
 1.177565675617919e+00	 1.824403104189628e+00	 9.953127444958966e+00
 1.134604157381754e+00	 1.851426810724529e+00	 9.658840671160998e+00
 1.091143785953334e+00	 1.877368729725118e+00	 9.359744425686781e+00
 1.047224683644562e+00	 1.902216836203942e+00	 9.077330857024227e+00
 1.002887243039291e+00	 1.925961045819982e+00	 8.811556565414730e+00
 9.581720126312747e-01	 1.948593211960381e+00	 8.563038547836188e+00
 9.131195840623495e-01	 1.970107114985842e+00	 8.332904028901796e+00
 1.361316373377846e+00	 1.728243343476730e+00	 1.091776110529877e+01
 1.320208166781844e+00	 1.759845916856227e+00	 1.070969963554580e+01
 1.278437018022649e+00	 1.790420635140327e+00	 1.048104983898677e+01
 1.236041313760604e+00	 1.819947585172299e+00	 1.022852594213081e+01
 1.193060181065278e+00	 1.848408749412948e+00	 9.949806370255040e+00
 1.149533371659061e+00	 1.875788036087948e+00	 9.661285109762204e+00
 1.105501145109517e+00	 1.902071300979821e+00	 9.387854580930616e+00
 1.061004151661226e+00	 1.927246360875348e+00	 9.126946809342108e+00
 1.016083315386973e+00	 1.951302998742938e+00	 8.878667162916798e+00
 9.707797183209194e-01	 1.974232960775937e+00	 8.643924848016193e+00
 9.251344862130573e-01	 1.996029945496535e+00	 8.424120842850366e+00
 1.378996087839941e+00	 1.750688419015513e+00	 1.091076934229293e+01
 1.337353999944136e+00	 1.782701421950002e+00	 1.069870767002656e+01
 1.295040360109754e+00	 1.813673220809415e+00	 1.046300343451639e+01
 1.252094053533134e+00	 1.843583643820493e+00	 1.020037131940341e+01
 1.208554715435697e+00	 1.872414439446317e+00	 9.921412829852319e+00
 1.164462613804191e+00	 1.900149306925160e+00	 9.658103884466637e+00
 1.119858531066031e+00	 1.926773918345495e+00	 9.407480611285299e+00
 1.074783645399458e+00	 1.952275932268047e+00	 9.165577415904842e+00
 1.029279412367186e+00	 1.976644998970399e+00	 8.932112897403883e+00
 9.833874475447796e-01	 1.999872757451908e+00	 8.708321279237563e+00
 9.371494107913850e-01	 2.021952824396092e+00	 8.495893780892692e+00
 1.396675831178781e+00	 1.773133531214161e+00	 1.088485150928466e+01
 1.354499861111174e+00	 1.805556964373982e+00	 1.066561900328754e+01
 1.311643729315537e+00	 1.836925844457252e+00	 1.041947608656035e+01
 1.268146819525018e+00	 1.867219741073760e+00	 1.015015648659787e+01
 1.224049275113726e+00	 1.896420168688476e+00	 9.894568609778137e+00
 1.179391880333604e+00	 1.924510617551938e+00	 9.653948733667132e+00
 1.134215940472779e+00	 1.951476576058266e+00	 9.423108229859883e+00
 1.088563161644013e+00	 1.977305544541874e+00	 9.197609896347565e+00
 1.042475530900817e+00	 2.001987040589301e+00	 8.976258539390550e+00
 9.959951973610345e-01	 2.025512596005739e+00	 8.760573366450894e+00
 9.491643549938378e-01	 2.047875745635905e+00	 8.552553655015839e+00
 1.414355599269022e+00	 1.795578674835525e+00	 1.084499695372054e+01
 1.371645746282186e+00	 1.828412538795263e+00	 1.061543837573697e+01
 1.328247121765810e+00	 1.860178500658288e+00	 1.035748652196639e+01
 1.284199607990552e+00	 1.890855871417078e+00	 1.010693723540625e+01
 1.239543856483913e+00	 1.920425931538165e+00	 9.874102195547852e+00
 1.194321167763761e+00	 1.948871962284054e+00	 9.653349601582438e+00
 1.148573369979663e+00	 1.976179268354262e+00	 9.439308438247718e+00
 1.102342697179644e+00	 2.002335191856667e+00	 9.227382019189344e+00
 1.055671667908755e+00	 2.027329117686581e+00	 9.015408188198405e+00
 1.008602964827866e+00	 2.051152470454882e+00	 8.804955983960902e+00
 9.611793160169217e-01	 2.073798703167367e+00	 8.598351993677522e+00
 1.432035387985319e+00	 1.818023844642459e+00	 1.079617703751245e+01
 1.388791651456402e+00	 1.851268139880942e+00	 1.055316558593106e+01
 1.344850533586389e+00	 1.883431183986979e+00	 1.030472642155143e+01
 1.300252415184027e+00	 1.914492029335430e+00	 1.007702096380872e+01
 1.255038455930807e+00	 1.944431722394120e+00	 9.864342349672047e+00
 1.209250472611122e+00	 1.973233335437281e+00	 9.660718651483588e+00
 1.162930816236587e+00	 2.000881989469611e+00	 9.460556252641691e+00
 1.116122248791105e+00	 2.027364868372265e+00	 9.259189122084919e+00
 1.068867820311888e+00	 2.052671224349178e+00	 9.053810775372002e+00
 1.021210747003453e+00	 2.076792374816782e+00	 8.845678541065602e+00
 9.731942910571415e-01	 2.099721690941868e+00	 8.637465944407451e+00
 1.449715193202329e+00	 1.840469035397816e+00	 1.074331592704032e+01
 1.405937572633050e+00	 1.874123762298116e+00	 1.049741080944616e+01
 1.361453960903086e+00	 1.906683889017774e+00	 1.027173502748410e+01
 1.316305237359739e+00	 1.938128209313798e+00	 1.006449021639893e+01
 1.270533069838961e+00	 1.968437535655084e+00	 9.869484446581087e+00
 1.224179791392148e+00	 1.997594731327395e+00	 9.680347762615094e+00
 1.177288275893453e+00	 2.025584733640440e+00	 9.491218620538554e+00
 1.129901813263149e+00	 2.052394568248506e+00	 9.297338932737237e+00
 1.082063985031103e+00	 2.078013354664025e+00	 9.095665450902464e+00
 1.033818540945975e+00	 2.102432303108889e+00	 8.886890033317398e+00
 9.852092773110036e-01	 2.125644702910801e+00	 8.674003024989171e+00
 1.467395010794707e+00	 1.862914241864448e+00	 1.069443235855133e+01
 1.423083505811358e+00	 1.896979400713880e+00	 1.046741505199094e+01
 1.378057399841715e+00	 1.929936610325127e+00	 1.026230551803610e+01
 1.332358070771981e+00	 1.961764405837163e+00	 1.007327624572006e+01
 1.286027694592921e+00	 1.992443365719793e+00	 9.893587106180188e+00
 1.239109120623299e+00	 2.021956144270168e+00	 9.716405968640810e+00
 1.191645745600165e+00	 2.050287495102876e+00	 9.535552632158947e+00
 1.143681387380531e+00	 2.077424285645229e+00	 9.346142853920409e+00
 1.095260158987288e+00	 2.103355502718061e+00	 9.145126862136353e+00
 1.046426343713615e+00	 2.128072249348652e+00	 8.932683970737193e+00
 9.972242719750127e-01	 2.151567733025559e+00	 8.712005735991509e+00
 1.485074836637110e+00	 1.885359458805209e+00	 1.067339959724583e+01
 1.440229446990556e+00	 1.919835049795331e+00	 1.046665343685954e+01
 1.394660846528090e+00	 1.953189342483491e+00	 1.028005988406182e+01
 1.348410911675046e+00	 1.985400613390509e+00	 1.010715479223576e+01
 1.301522326577239e+00	 2.016449206986989e+00	 9.940568789179581e+00
 1.254038456821034e+00	 2.046317568581372e+00	 9.772936842586311e+00
 1.206003222006625e+00	 2.074990268093046e+00	 9.597703663314759e+00
 1.157460967928004e+00	 2.102454014722270e+00	 9.409820098364596e+00
 1.108456339101332e+00	 2.128697662598223e+00	 9.206310334304355e+00
 1.059034152364551e+00	 2.153712207553518e+00	 8.987103193228080e+00
 1.009239272245674e+00	 2.177490775237533e+00	 8.755456046200109e+00
 1.502754666604192e+00	 1.907804680982951e+00	 1.068603171910113e+01
 1.457375392169871e+00	 1.942690704209564e+00	 1.049839771563399e+01
 1.411264297088024e+00	 1.976442080067318e+00	 1.032844386830018e+01
 1.364463756323229e+00	 2.009036826458815e+00	 1.016974184362699e+01
 1.317016962176464e+00	 2.040455053855409e+00	 1.001420435747010e+01
 1.268967796501815e+00	 2.070678998576784e+00	 9.853855832781163e+00
 1.220360701762737e+00	 2.099693046847078e+00	 9.681703455447888e+00
 1.171240551690321e+00	 2.127483749639469e+00	 9.492489487286166e+00
 1.121652522294121e+00	 2.154039828391445e+00	 9.283303303543788e+00
 1.071641963956963e+00	 2.179352171740935e+00	 9.054144582471146e+00
 1.021254275319494e+00	 2.203413823498115e+00	 8.808279761411809e+00
 9.011047071427561e-01	 1.944184338912621e+00	 8.217828175378152e+00
 8.563554504907798e-01	 1.964305989875833e+00	 7.993786546544156e+00
 8.113532622699493e-01	 1.983317609079910e+00	 7.781859785414603e+00
 7.661376644938679e-01	 2.001218638274965e+00	 7.575580795230312e+00
 7.207478041783260e-01	 2.018010305879684e+00	 7.368306807706380e+00
 6.752223582133712e-01	 2.033695582266328e+00	 7.158391479966088e+00
 6.295994428053465e-01	 2.048279129426679e+00	 6.950553815282360e+00
 5.839165278325178e-01	 2.061767245487008e+00	 6.749536271653190e+00
 5.382103564084196e-01	 2.074167804559254e+00	 6.559090908852935e+00
 4.925168698970661e-01	 2.085490192429206e+00	 6.381665430617959e+00
 4.468711385742824e-01	 2.095745238590854e+00	 6.218385054489965e+00
 9.131195840623495e-01	 1.970107114985842e+00	 8.332904028901796e+00
 8.677736633306650e-01	 1.990497057922019e+00	 8.118318178550428e+00
 8.221714385678736e-01	 2.009762168493958e+00	 7.912287083445910e+00
 7.763529587542143e-01	 2.027901881008348e+00	 7.709728812143838e+00
 7.303578928720832e-01	 2.044917440262993e+00	 7.505229514609631e+00
 6.842254335097112e-01	 2.060811856235608e+00	 7.296935397191080e+00
 6.379942050957519e-01	 2.075589853078626e+00	 7.090514816772235e+00
 5.917021771129675e-01	 2.089257812894368e+00	 6.891689802595517e+00
 5.453865825890746e-01	 2.101823714784221e+00	 6.704699253946584e+00
 4.990838421121448e-01	 2.113297069679323e+00	 6.532064355509832e+00
 4.528294935674085e-01	 2.123688851468689e+00	 6.374679184662527e+00
 9.251344862130573e-01	 1.996029945496535e+00	 8.424120842850359e+00
 8.791919001486402e-01	 2.016688180969135e+00	 8.216101331980104e+00
 8.329896375837865e-01	 2.036206783441316e+00	 8.013319714809388e+00
 7.865682744664770e-01	 2.054585179776326e+00	 7.812073211585485e+00
 7.399680017468047e-01	 2.071824631151114e+00	 7.608266194753250e+00
 6.932285277122676e-01	 2.087928187148926e+00	 7.399843807930843e+00
 6.463889850148938e-01	 2.102900634082976e+00	 7.192810432446174e+00
 5.994878427429898e-01	 2.116748438031804e+00	 6.993603413980003e+00
 5.525628238394817e-01	 2.129479683086464e+00	 6.806597404685938e+00
 5.056508281175021e-01	 2.141104005323695e+00	 6.633961711956081e+00
 4.587878610726681e-01	 2.151632523027843e+00	 6.475874614346706e+00
 9.371494107913850e-01	 2.021952824396092e+00	 8.495893780892692e+00
 8.906101582804354e-01	 2.042879352905968e+00	 8.291542798166715e+00
 8.438078567934267e-01	 2.062651447751618e+00	 8.089347854485506e+00
 7.967836092470637e-01	 2.081268528352833e+00	 7.886977923092630e+00
 7.495781285601114e-01	 2.098731872265736e+00	 7.681666178788916e+00
 7.022316387202944e-01	 2.115044568679169e+00	 7.471473706896280e+00
 6.547837806039640e-01	 2.130211466067240e+00	 7.262034270787424e+00
 6.072735229059022e-01	 2.144239114484863e+00	 7.060209142654186e+00
 5.597390784851577e-01	 2.157135703012948e+00	 6.870129942860655e+00
 5.122178263808185e-01	 2.168910992874072e+00	 6.693154034400626e+00
 4.647462396997594e-01	 2.179576246748170e+00	 6.528218535749415e+00
 9.491643549938378e-01	 2.047875745635905e+00	 8.552553655015842e+00
 9.020284350617788e-01	 2.069070567621301e+00	 8.348958310386738e+00
 8.546260936725306e-01	 2.089096155254496e+00	 8.144665892145202e+00
 8.069989607123828e-01	 2.107951920511804e+00	 7.938708335467351e+00
 7.591882710696228e-01	 2.125639157328543e+00	 7.729627527875818e+00
 7.112347644330455e-01	 2.142160994499219e+00	 7.515992357858028e+00
 6.631785899041536e-01	 2.157522342658927e+00	 7.302535053585535e+00
 6.150592157850218e-01	 2.171729835839091e+00	 7.096155999111954e+00
 5.669153448516200e-01	 2.184791768110645e+00	 6.900336429900116e+00
 5.187848353697744e-01	 2.196718025842201e+00	 6.715125746470026e+00
 4.707046280583811e-01	 2.207520016109523e+00	 6.537652268721646e+00
 9.611793160169217e-01	 2.073798703167367e+00	 8.598351993677518e+00
 9.134467278283995e-01	 2.095261819003922e+00	 8.392577368012352e+00
 8.654443456968361e-01	 2.115540899779582e+00	 8.183477017153990e+00
 8.172143264788410e-01	 2.134635350027170e+00	 7.971435648915693e+00
 7.687984270329589e-01	 2.152546480061226e+00	 7.756281517120704e+00
 7.202379027497734e-01	 2.169277458281962e+00	 7.537408377125743e+00
 6.715734109566542e-01	 2.184833257485551e+00	 7.318442813986420e+00
 6.228449195636652e-01	 2.199220595680037e+00	 7.105831787268319e+00
 5.740916212643855e-01	 2.212447871926523e+00	 6.901969351010576e+00
 5.253518535520501e-01	 2.224525097739836e+00	 6.705281383432673e+00
 4.766630247582314e-01	 2.235463824591756e+00	 6.517772063677225e+00
 9.731942910571415e-01	 2.099721690941868e+00	 8.637465944407454e+00
 9.248650339160273e-01	 2.121453100942614e+00	 8.426547877935686e+00
 8.762626103420796e-01	 2.141985675156507e+00	 8.209897606463942e+00
 8.274297041628477e-01	 2.161318810672869e+00	 7.989241018502373e+00
 7.784085942077392e-01	 2.179453834185470e+00	 7.765668135905097e+00
 7.292410515697333e-01	 2.196393953700282e+00	 7.539602594699174e+00
 6.799682418026569e-01	 2.212144204174621e+00	 7.313694869293610e+00
 6.306306324251501e-01	 2.226711387593247e+00	 7.094098241200255e+00
 5.812679060489715e-01	 2.240104008007556e+00	 6.891183119277066e+00
 5.319188793953259e-01	 2.252332202078722e+00	 6.703652692042885e+00
 4.826214284090086e-01	 2.263407665674720e+00	 6.525524904925331e+00
 9.852092773110036e-01	 2.125644702910801e+00	 8.674003024989167e+00
 9.362833506603903e-01	 2.147644407326164e+00	 8.454940628865108e+00
 8.870808850839987e-01	 2.168430475214904e+00	 8.227961432224332e+00
 8.376450913808093e-01	 2.188002296222832e+00	 7.996119506744336e+00
 7.880187703515840e-01	 2.206361213422964e+00	 7.761739746002940e+00
 7.382442087921779e-01	 2.223510474427063e+00	 7.526419355957080e+00
 6.883630804833533e-01	 2.239455176353646e+00	 7.302343348570268e+00
 6.384163525527926e-01	 2.254202205164268e+00	 7.098390703671456e+00
 5.884441975308947e-01	 2.267760169900707e+00	 6.912150770222854e+00
 5.384859113672825e-01	 2.280139332370609e+00	 6.738856857912496e+00
 4.885798376204115e-01	 2.291351532838271e+00	 6.572688770143561e+00
 9.972242719750127e-01	 2.151567733025559e+00	 8.712005735991511e+00
 9.477016753972178e-01	 2.173835732043358e+00	 8.481753612588946e+00
 8.978991673983311e-01	 2.194875293784405e+00	 8.241623704317526e+00
 8.478604857491346e-01	 2.214685800450993e+00	 7.995983861440918e+00
 7.976289532221126e-01	 2.233268611495395e+00	 7.752675059465590e+00
 7.472473723163612e-01	 2.250627014135192e+00	 7.529530914660963e+00
 6.967579250399345e-01	 2.266766167650141e+00	 7.325754737641986e+00
 6.462020781299100e-01	 2.281693041978648e+00	 7.140502645049168e+00
 5.956204940356730e-01	 2.295416351152951e+00	 6.971249741052725e+00
 5.450529479355999e-01	 2.307946482127250e+00	 6.813330239045229e+00
 4.945382510021382e-01	 2.319295419562262e+00	 6.661216489074686e+00
 1.009239272245674e+00	 2.177490775237533e+00	 8.755456046200109e+00
 9.591200054622393e-01	 2.200027068982981e+00	 8.510916204958811e+00
 9.087174547608134e-01	 2.221320124694642e+00	 8.254764961578339e+00
 8.580758848842309e-01	 2.241369317131286e+00	 8.005698553575057e+00
 8.072391405769455e-01	 2.260176022124451e+00	 7.780080539028808e+00
 7.562505400415364e-01	 2.277743566497550e+00	 7.575987278416904e+00
 7.051527735135920e-01	 2.294077171691613e+00	 7.391086234220415e+00
 6.539878073398204e-01	 2.309183891621933e+00	 7.223766980842637e+00
 6.027967938888227e-01	 2.323072545311256e+00	 7.071406281944411e+00
 5.516199875679589e-01	 2.335753644860390e+00	 6.929546346387154e+00
 5.004966671638872e-01	 2.347239319326546e+00	 6.793101251687998e+00
 1.021254275319494e+00	 2.203413823498115e+00	 8.808279761411807e+00
 9.705383381911835e-01	 2.226218412033819e+00	 8.546867753375235e+00
 9.195357446471829e-01	 2.247764961775247e+00	 8.294434831644764e+00
 8.682912864025066e-01	 2.268052840037646e+00	 8.064503574942991e+00
 8.168493301737020e-01	 2.287083439031819e+00	 7.856679027095577e+00
 7.652537098669578e-01	 2.304860125187024e+00	 7.669712398931882e+00
 7.135476239455169e-01	 2.321388182105574e+00	 7.501997627291290e+00
 6.617735383658393e-01	 2.336674747679672e+00	 7.351523160693985e+00
 6.099730954158611e-01	 2.350728745922590e+00	 7.215570913532908e+00
 5.581870287320395e-01	 2.363560814081782e+00	 7.090013575051879e+00
 5.064550847153568e-01	 2.375183225610976e+00	 6.970375468998414e+00
 4.468711385742824e-01	 2.095745238590854e+00	 6.218385054489965e+00
 4.013041199599467e-01	 2.104945752665670e+00	 6.065772545683421e+00
 3.558522001257046e-01	 2.113104484097469e+00	 5.941278258987792e+00
 3.105475286562914e-01	 2.120236161104302e+00	 5.858876853457486e+00
 2.654211621986743e-01	 2.126356657843749e+00	 5.809066376745721e+00
 2.205030246005063e-01	 2.131482915648935e+00	 5.782817632317810e+00
 1.758218729016718e-01	 2.135632863581875e+00	 5.773680055672624e+00
 1.314052690675156e-01	 2.138825338746525e+00	 5.777659681229877e+00
 8.727955731953703e-02	 2.141080006780534e+00	 5.792789970544610e+00
 4.346984688988957e-02	 2.142417282919225e+00	 5.818533861306738e+00
 0.000000000000000e+00	 2.142858253998148e+00	 5.855138718780677e+00
 4.528294935674085e-01	 2.123688851468689e+00	 6.374679184662530e+00
 4.066549072467315e-01	 2.133012040570839e+00	 6.230504809948037e+00
 3.605969543753242e-01	 2.141279556424241e+00	 6.116556089345749e+00
 3.146882132043028e-01	 2.148506323625581e+00	 6.046075136338255e+00
 2.689601544743329e-01	 2.154708427990457e+00	 6.007457228902060e+00
 2.234431010225897e-01	 2.159903036739187e+00	 5.990141096217235e+00
 1.781661933208527e-01	 2.164108317990864e+00	 5.987263593193576e+00
 1.331573608318394e-01	 2.167343360013901e+00	 5.995194205674906e+00
 8.844329903763873e-02	 2.169628090657649e+00	 6.012760388883928e+00
 4.404945196426673e-02	 2.170983197363897e+00	 6.040316083072989e+00
 0.000000000000000e+00	 2.171430048129439e+00	 6.078787058257588e+00
 4.587878610726681e-01	 2.151632523027843e+00	 6.475874614346703e+00
 4.120057057696991e-01	 2.161078387414830e+00	 6.331048176227431e+00
 3.653417185883985e-01	 2.169454687918146e+00	 6.215253989708684e+00
 3.188289064471713e-01	 2.176776545513529e+00	 6.140663562274352e+00
 2.724991541812601e-01	 2.183060257675044e+00	 6.094410857547389e+00
 2.263831836182095e-01	 2.188323217510695e+00	 6.065312769001371e+00
 1.805105186625078e-01	 2.192583832197163e+00	 6.047103358226574e+00
 1.349094562750247e-01	 2.195861441167846e+00	 6.037581402559027e+00
 8.960704319918396e-02	 2.198176234484363e+00	 6.037448162315088e+00
 4.462905825557521e-02	 2.199549171795546e+00	 6.049002726057927e+00
 0.000000000000000e+00	 2.200001902260030e+00	 6.074841421861544e+00
 4.647462396997594e-01	 2.179576246748170e+00	 6.528218535749412e+00
 4.173565142803254e-01	 2.189144786648887e+00	 6.374038631754660e+00
 3.700864916578231e-01	 2.197629872005055e+00	 6.244293167237294e+00
 3.229696074187555e-01	 2.205046820171845e+00	 6.149463715233344e+00
 2.760381604937227e-01	 2.211412140282193e+00	 6.076191577038125e+00
 2.293232717013898e-01	 2.216743451332210e+00	 6.013688257096190e+00
 1.828548483796763e-01	 2.221059399556625e+00	 5.957407368717003e+00
 1.366615549882974e-01	 2.224379575554299e+00	 5.908484063521201e+00
 9.077078953267355e-02	 2.226724431599611e+00	 5.871993878242711e+00
 4.520866562859899e-02	 2.228115199548951e+00	 5.851611137299559e+00
 0.000000000000000e+00	 2.228573809723331e+00	 5.851010417850076e+00
 4.707046280583811e-01	 2.207520016109523e+00	 6.537652268721646e+00
 4.227073315300849e-01	 2.217211231724250e+00	 6.365824758203012e+00
 3.748312724764941e-01	 2.225805102110845e+00	 6.211201547810284e+00
 3.271103151529152e-01	 2.233317141004235e+00	 6.088826673059405e+00
 2.795771725859872e-01	 2.239764069196581e+00	 5.988194069071249e+00
 2.322633645861538e-01	 2.245163731572482e+00	 5.900030350352701e+00
 1.851991819253973e-01	 2.249535013425104e+00	 5.820722050082187e+00
 1.384136565628835e-01	 2.252897756519193e+00	 5.750580108464953e+00
 9.193453776660820e-02	 2.255272675342323e+00	 5.692350218487569e+00
 4.578827394812197e-02	 2.256681273958894e+00	 5.649924742512266e+00
 0.000000000000000e+00	 2.257145763852756e+00	 5.627233184138228e+00
 4.766630247582314e-01	 2.235463824591756e+00	 6.517772063677232e+00
 4.280581562704530e-01	 2.245277716092162e+00	 6.340617697827982e+00
 3.795760599373075e-01	 2.253980371661389e+00	 6.183897320850360e+00
 3.312510286835092e-01	 2.261587501414402e+00	 6.055791682179890e+00
 2.831161896323204e-01	 2.268116037802888e+00	 5.945889547967768e+00
 2.352034615865254e-01	 2.273584051600257e+00	 5.845951126733140e+00
 1.875435187527101e-01	 2.278010667158456e+00	 5.753261514163851e+00
 1.401657605900090e-01	 2.281415977408467e+00	 5.668832447662194e+00
 9.309828762948874e-02	 2.283820959051435e+00	 5.595923961159081e+00
 4.636788307892815e-02	 2.285247388360155e+00	 5.538774764148969e+00
 0.000000000000000e+00	 2.285717757981713e+00	 5.501515541145286e+00
 4.826214284090086e-01	 2.263407665674720e+00	 6.525524904925327e+00
 4.334089872529048e-01	 2.273344233203864e+00	 6.355542690827683e+00
 3.843208529331591e-01	 2.282155674082561e+00	 6.202847571708734e+00
 3.353917470443969e-01	 2.289857894806049e+00	 6.074283735476395e+00
 2.866552108069889e-01	 2.296468039485798e+00	 5.960692250569866e+00
 2.381435620165281e-01	 2.302004404784288e+00	 5.854892370496730e+00
 1.898878583146538e-01	 2.306486354112535e+00	 5.755092933616929e+00
 1.419178666609000e-01	 2.309934231568060e+00	 5.662997637935541e+00
 9.426203884981596e-02	 2.312369276065880e+00	 5.582345073756296e+00
 4.694749288580142e-02	 2.313813536087512e+00	 5.517664622019455e+00
 0.000000000000000e+00	 2.314289785443615e+00	 5.473219412598907e+00
 4.885798376204115e-01	 2.291351532838271e+00	 6.572688770143561e+00
 4.387598232289152e-01	 2.301410776510600e+00	 6.413348486077178e+00
 3.890656503569449e-01	 2.310331002800236e+00	 6.268976721983187e+00
 3.395324692694373e-01	 2.318128314582881e+00	 6.144865805420471e+00
 2.901942352842594e-01	 2.324820067629985e+00	 6.032885155749223e+00
 2.410836651901858e-01	 2.330424784493322e+00	 5.926920329210088e+00
 1.922322000642677e-01	 2.334962067643195e+00	 5.826115748592917e+00
 1.436699743667824e-01	 2.338452512343903e+00	 5.732843396616353e+00
 9.542579115609053e-02	 2.340917619724591e+00	 5.651268852144282e+00
 4.752710323352581e-02	 2.342379710475750e+00	 5.586140298902857e+00
 0.000000000000000e+00	 2.342861839571873e+00	 5.541768474773748e+00
 4.945382510021382e-01	 2.319295419562262e+00	 6.661216489074686e+00
 4.441106629499594e-01	 2.329477339463609e+00	 6.515491740893479e+00
 3.938104511015607e-01	 2.338506351240289e+00	 6.383243917443594e+00
 3.436731943924898e-01	 2.346398754148604e+00	 6.268111043971345e+00
 2.937332622383985e-01	 2.353172115620133e+00	 6.162751267332902e+00
 2.440237704215221e-01	 2.358845184096109e+00	 6.062098637202111e+00
 1.945765434545909e-01	 2.363437801106293e+00	 5.966230587618548e+00
 1.454220832988823e-01	 2.366970813081937e+00	 5.878147745399995e+00
 9.658954427681339e-02	 2.369465983366502e+00	 5.802374176526058e+00
 4.810671398688521e-02	 2.370945904859646e+00	 5.743787653182308e+00
 0.000000000000000e+00	 2.371433913699896e+00	 5.706644448126436e+00
 5.004966671638872e-01	 2.347239319326546e+00	 6.793101251687998e+00
 4.494615051675126e-01	 2.357543915514136e+00	 6.663468223592167e+00
 3.985552540599027e-01	 2.366681712828594e+00	 6.546643377192286e+00
 3.478139214474135e-01	 2.374669206906916e+00	 6.444605283247651e+00
 2.972722908436731e-01	 2.381524176840923e+00	 6.350575246683107e+00
 2.469638770245606e-01	 2.387265596961397e+00	 6.260489125948631e+00
 1.969208879386627e-01	 2.391913547857680e+00	 6.175339277927023e+00
 1.471741930484259e-01	 2.395489127128098e+00	 6.098698218767083e+00
 9.775329794048515e-02	 2.398014360330546e+00	 6.035361892273430e+00
 4.868632501066357e-02	 2.399512112573981e+00	 5.990229923116073e+00
 0.000000000000000e+00	 2.400006001161099e+00	 5.967383653640118e+00
 5.064550847153568e-01	 2.375183225610976e+00	 6.970375468998411e+00
 4.548123486330496e-01	 2.385610498113419e+00	 6.858812509527316e+00
 4.033000581248664e-01	 2.394857080991023e+00	 6.760204619861304e+00
 3.519546494680674e-01	 2.402939666261527e+00	 6.674949436721699e+00
 3.008113202743494e-01	 2.409876244677030e+00	 6.596644975826602e+00
 2.499039843133249e-01	 2.415686016457935e+00	 6.522152601552265e+00
 1.992652329695220e-01	 2.420389301253213e+00	 6.453344865827021e+00
 1.489263032066389e-01	 2.424007447828322e+00	 6.394291131656921e+00
 9.891705187560663e-02	 2.426562743955656e+00	 6.349953305339979e+00
 4.926593616964485e-02	 2.428078326953535e+00	 6.325125406975391e+00
 0.000000000000000e+00	 2.428578095288889e+00	 6.323573812086602e+00
 2.428578095288889e+00	 0.000000000000000e+00	 1.144389959210942e+01
 2.428078326953535e+00	 4.926593616964552e-02	 1.149525236514586e+01
 2.426562743955656e+00	 9.891705187560726e-02	 1.152172140591148e+01
 2.424007447828321e+00	 1.489263032066394e-01	 1.153274075868280e+01
 2.420389301253213e+00	 1.992652329695225e-01	 1.153755863563008e+01
 2.415686016457935e+00	 2.499039843133253e-01	 1.154500272918135e+01
 2.409876244677030e+00	 3.008113202743498e-01	 1.156318473750946e+01
 2.402939666261527e+00	 3.519546494680676e-01	 1.159912824820855e+01
 2.394857080991023e+00	 4.033000581248665e-01	 1.165102618099451e+01
 2.385610498113419e+00	 4.548123486330496e-01	 1.169713297644250e+01
 2.375183225610976e+00	 5.064550847153568e-01	 1.173859993088212e+01
 2.457148191076638e+00	 0.000000000000000e+00	 1.135833090714381e+01
 2.456642543404279e+00	 4.984550679044820e-02	 1.141110230621196e+01
 2.455109130899046e+00	 1.000807244174084e-01	 1.144003805176293e+01
 2.452523773949434e+00	 1.506782908216843e-01	 1.145409806992896e+01
 2.448863063046804e+00	 2.016094140360803e-01	 1.146216672224907e+01
 2.444104448222601e+00	 2.528438859699410e-01	 1.147285183124492e+01
 2.438226329561802e+00	 3.043501021840249e-01	 1.149422339618141e+01
 2.431208148372522e+00	 3.560950878846842e-01	 1.153347478348816e+01
 2.423030478560541e+00	 4.080445303364846e-01	 1.158711457445868e+01
 2.413675117728286e+00	 4.601628178586274e-01	 1.163443850526238e+01
 2.403125177491006e+00	 5.124130855329354e-01	 1.167712458208825e+01
 2.485718290197548e+00	 0.000000000000000e+00	 1.129909600552237e+01
 2.485206763187497e+00	 5.042507747885627e-02	 1.135102171968702e+01
 2.483655521172824e+00	 1.012443970949316e-01	 1.138029212689280e+01
 2.481040103397424e+00	 1.524302786410459e-01	 1.139534583556719e+01
 2.477336828162299e+00	 2.039535953759922e-01	 1.140465523146632e+01
 2.472522883302711e+00	 2.557837879693534e-01	 1.141656220930218e+01
 2.466576417754033e+00	 3.078888845063059e-01	 1.143905434696187e+01
 2.459476633781447e+00	 3.602355267840427e-01	 1.147946287481051e+01
 2.451203879416894e+00	 4.127890031012637e-01	 1.153250781102016e+01
 2.441739740617289e+00	 4.655132877080258e-01	 1.157922502889265e+01
 2.431067132630856e+00	 5.183710870451880e-01	 1.162164887475349e+01
 2.514288395984781e+00	 0.000000000000000e+00	 1.126386405658180e+01
 2.513770989635663e+00	 5.100464830248827e-02	 1.131309785407975e+01
 2.512201918107383e+00	 1.024080700439487e-01	 1.134097977420845e+01
 2.509556439499169e+00	 1.541822668691454e-01	 1.135536945322085e+01
 2.505810599921607e+00	 2.062977772627850e-01	 1.136426825491742e+01
 2.500941325013704e+00	 2.587236906546096e-01	 1.137569488839984e+01
 2.494926512561187e+00	 3.114276676541306e-01	 1.139750251874613e+01
 2.487745125786239e+00	 3.643759666492947e-01	 1.143711721700033e+01
 2.479377286846910e+00	 4.175334769728470e-01	 1.148744100464105e+01
 2.469804370054565e+00	 4.708637588056057e-01	 1.153184451866298e+01
 2.459009094290348e+00	 5.243290899473696e-01	 1.157256134018192e+01
 2.542858511771497e+00	 0.000000000000000e+00	 1.125032775756837e+01
 2.542335226081252e+00	 5.158421932896269e-02	 1.129544955153508e+01
 2.540748325033114e+00	 1.035717434002311e-01	 1.132063872411511e+01
 2.538072785581547e+00	 1.559342557104042e-01	 1.133310753013418e+01
 2.534284381646630e+00	 2.086419599699860e-01	 1.134031601341668e+01
 2.529359776671024e+00	 2.616635943687567e-01	 1.134989088307808e+01
 2.523276617290722e+00	 3.149664520404362e-01	 1.136948725440799e+01
 2.516013627684829e+00	 3.685164079635922e-01	 1.140657151775236e+01
 2.507550704137425e+00	 4.222779525048776e-01	 1.145227162521564e+01
 2.497869009314247e+00	 4.762142317757283e-01	 1.149276701444193e+01
 2.486951065729305e+00	 5.302870949347357e-01	 1.153036231282476e+01
 2.571428640890857e+00	 0.000000000000000e+00	 1.125620202268339e+01
 2.570899475856735e+00	 5.216379062589809e-02	 1.129622608223205e+01
 2.569294745280404e+00	 1.047354172995505e-01	 1.131784728191092e+01
 2.566589144971435e+00	 1.576862453692432e-01	 1.132755102111117e+01
 2.562758176659271e+00	 2.109861437711217e-01	 1.133217413226922e+01
 2.557778241590113e+00	 2.646034994548417e-01	 1.133887058563818e+01
 2.551626735250099e+00	 3.185052380781602e-01	 1.135502177593060e+01
 2.544282142775149e+00	 3.726568512100876e-01	 1.138804065481601e+01
 2.535724134575267e+00	 4.270224302509985e-01	 1.142747382756437e+01
 2.525933661670475e+00	 4.815647072427551e-01	 1.146257369243045e+01
 2.514893050207545e+00	 5.362451027025408e-01	 1.149565560371654e+01
 2.599998786676022e+00	 0.000000000000000e+00	 1.127787953949161e+01
 2.599463742294588e+00	 5.274336226091296e-02	 1.131246478798762e+01
 2.597841182179645e+00	 1.058990918776787e-01	 1.133056542154774e+01
 2.595105520995713e+00	 1.594382360500835e-01	 1.133759359916985e+01
 2.591231988281439e+00	 2.133303289397198e-01	 1.133928298661157e+01
 2.586196723086415e+00	 2.675434062559121e-01	 1.134243322769026e+01
 2.579976869746779e+00	 3.220440261802399e-01	 1.135421272949984e+01
 2.572550674355130e+00	 3.767972968719324e-01	 1.138175320577356e+01
 2.563897581447272e+00	 4.317669107648530e-01	 1.141363288481597e+01
 2.553998330397381e+00	 4.869151858310471e-01	 1.144195005562738e+01
 2.542835050984890e+00	 5.422031139460401e-01	 1.146914031920057e+01
 2.628568952460155e+00	 0.000000000000000e+00	 1.128676069374476e+01
 2.628028028727284e+00	 5.332293430162584e-02	 1.131653987148615e+01
 2.626387639061227e+00	 1.070627672703870e-01	 1.133298629716284e+01
 2.623621916981256e+00	 1.611902279573465e-01	 1.134066310335827e+01
 2.619705819835037e+00	 2.156745157493069e-01	 1.134446260739841e+01
 2.614615224475370e+00	 2.704833151150147e-01	 1.134965071426239e+01
 2.608327024088222e+00	 3.255828167596128e-01	 1.136189790624627e+01
 2.600819225722707e+00	 3.809377454322790e-01	 1.138678215059887e+01
 2.592071048040271e+00	 4.365113946000840e-01	 1.141143971822984e+01
 2.582063018769103e+00	 4.922656681649655e-01	 1.143167923762187e+01
 2.570777071321162e+00	 5.481611293604884e-01	 1.145160281387168e+01
 2.657139141576415e+00	 0.000000000000000e+00	 1.127415494158464e+01
 2.656592338487297e+00	 5.390250681565528e-02	 1.129916211723378e+01
 2.654934119255542e+00	 1.082264436134473e-01	 1.131401870359755e+01
 2.652138336254943e+00	 1.629422212954534e-01	 1.132247169267075e+01
 2.648179674641969e+00	 2.180187044734102e-01	 1.132864201044111e+01
 2.643033749072421e+00	 2.734232263751967e-01	 1.133708022139469e+01
 2.636677201581889e+00	 3.291216102292162e-01	 1.135281101002527e+01
 2.629087800175811e+00	 3.850781973742794e-01	 1.138045849753064e+01
 2.620244537641097e+00	 4.412558823103350e-01	 1.140674947623096e+01
 2.610127730059779e+00	 4.976161548688717e-01	 1.142705692190328e+01
 2.598719114476180e+00	 5.541191496411408e-01	 1.144328864820861e+01
 2.685709357357963e+00	 0.000000000000000e+00	 1.124281143994677e+01
 2.685156674907101e+00	 5.448207987061972e-02	 1.126282688473529e+01
 2.683480626092976e+00	 1.093901210426312e-01	 1.127591747389175e+01
 2.680654782143652e+00	 1.646942162688252e-01	 1.128504690866785e+01
 2.676653556024144e+00	 2.203628953855565e-01	 1.129359098492366e+01
 2.671452300193009e+00	 2.763631403795051e-01	 1.130540446258480e+01
 2.665027405535240e+00	 3.326604070019876e-01	 1.132487918894472e+01
 2.657356401012377e+00	 3.892186531810851e-01	 1.135564265397298e+01
 2.648418053536582e+00	 4.460003744492488e-01	 1.138447397767601e+01
 2.638192467543541e+00	 5.029666465671266e-01	 1.140798485559129e+01
 2.626661183709767e+00	 5.600771754832522e-01	 1.142772890706779e+01
 2.714279603137963e+00	 0.000000000000000e+00	 1.119549619346186e+01
 2.713721041319172e+00	 5.506165353413778e-02	 1.121002528555982e+01
 2.712027162903924e+00	 1.105537996937102e-01	 1.122091543271418e+01
 2.709171257974258e+00	 1.664462130818831e-01	 1.123037993042674e+01
 2.705127467303463e+00	 2.227070887592731e-01	 1.124107493606199e+01
 2.699870881152579e+00	 2.793030574709873e-01	 1.125617735440817e+01
 2.693377639255736e+00	 3.361992074908643e-01	 1.127945676029018e+01
 2.685625031530335e+00	 3.933591133358488e-01	 1.131353428919184e+01
 2.676591599013558e+00	 4.507448715704688e-01	 1.134561351260021e+01
 2.666257234494528e+00	 5.083171438840918e-01	 1.137325684288181e+01
 2.654603282281744e+00	 5.660352075820778e-01	 1.139768255415310e+01
 2.375183225610976e+00	 5.064550847153568e-01	 1.173859993088212e+01
 2.363560814081782e+00	 5.581870287320392e-01	 1.177839901976286e+01
 2.350728745922590e+00	 6.099730954158608e-01	 1.181879007941712e+01
 2.336674747679672e+00	 6.617735383658389e-01	 1.186080813081433e+01
 2.321388182105573e+00	 7.135476239455165e-01	 1.190506709372437e+01
 2.304860125187024e+00	 7.652537098669574e-01	 1.195143720441342e+01
 2.287083439031819e+00	 8.168493301737020e-01	 1.199536118434037e+01
 2.268052840037646e+00	 8.682912864025062e-01	 1.203466984064127e+01
 2.247764961775247e+00	 9.195357446471825e-01	 1.206748207098213e+01
 2.226218412033818e+00	 9.705383381911828e-01	 1.209168728328337e+01
 2.203413823498114e+00	 1.021254275319494e+00	 1.210708190943748e+01
 2.403125177491006e+00	 5.124130855329354e-01	 1.167712458208825e+01
 2.391366038462201e+00	 5.647536105949142e-01	 1.171843521232742e+01
 2.378383012251739e+00	 6.171488950298640e-01	 1.176119326158819e+01
 2.364163681019469e+00	 6.695587248551793e-01	 1.180632778559686e+01
 2.348697282380046e+00	 7.219418872388188e-01	 1.185421151773533e+01
 2.331974787337016e+00	 7.742562500077729e-01	 1.190387885422538e+01
 2.313988974027140e+00	 8.264588476307683e-01	 1.195094423746409e+01
 2.294734496691165e+00	 8.785059734524475e-01	 1.199357748054699e+01
 2.274207949296761e+00	 9.303532778990772e-01	 1.202970217332171e+01
 2.252407923255008e+00	 9.819558723185190e-01	 1.205692517219853e+01
 2.229335058693659e+00	 1.033268438060432e+00	 1.207287716704420e+01
 2.431067132630856e+00	 5.183710870451880e-01	 1.162164887475349e+01
 2.419171266086489e+00	 5.713201932234585e-01	 1.166323566344769e+01
 2.406037281807146e+00	 6.243246954806220e-01	 1.170722362486427e+01
 2.391652617566236e+00	 6.773439122523932e-01	 1.175445350783214e+01
 2.376006385840516e+00	 7.303361515110857e-01	 1.180506851635268e+01
 2.359089452650325e+00	 7.832587911985565e-01	 1.185722727343349e+01
 2.340894512161383e+00	 8.360683662086561e-01	 1.190692076098120e+01
 2.321416156457493e+00	 8.887206616938498e-01	 1.195241742311092e+01
 2.300650939903248e+00	 9.411708124127963e-01	 1.199140923622473e+01
 2.278597437531599e+00	 9.933734077776991e-01	 1.202117849647141e+01
 2.255256296913310e+00	 1.045282602202825e+00	 1.203894021267253e+01
 2.459009094290348e+00	 5.243290899473696e-01	 1.157256134018192e+01
 2.446976500198511e+00	 5.778867773839382e-01	 1.161317407615863e+01
 2.433691557815066e+00	 6.315004976054838e-01	 1.165722010120241e+01
 2.419141560526945e+00	 6.851291014659266e-01	 1.170548242495741e+01
 2.403315495672971e+00	 7.387304177418225e-01	 1.175789930324315e+01
 2.386204124290263e+00	 7.922613344897759e-01	 1.181171970840270e+01
 2.367800056573470e+00	 8.456778870286425e-01	 1.186346760190862e+01
 2.348097822449439e+00	 8.989353523185880e-01	 1.191133346744771e+01
 2.327093936679673e+00	 9.519883494505386e-01	 1.195274627974350e+01
 2.304786957918997e+00	 1.004790945900915e+00	 1.198462617481206e+01
 2.281177541181177e+00	 1.057296769148464e+00	 1.200372782181516e+01
 2.486951065729305e+00	 5.302870949347357e-01	 1.153036231282476e+01
 2.474781744042139e+00	 5.844533638426209e-01	 1.156872749815669e+01
 2.461345843501758e+00	 6.386763022417976e-01	 1.161161405462834e+01
 2.446630513108567e+00	 6.929142934042268e-01	 1.165979134674262e+01
 2.430624615063410e+00	 7.471246869105351e-01	 1.171299858077209e+01
 2.413318805420145e+00	 8.012638809319000e-01	 1.176762650811610e+01
 2.394705610402325e+00	 8.552874112120055e-01	 1.182078849324101e+01
 2.374779497779813e+00	 9.091500465185367e-01	 1.187048956771113e+01
 2.353536942711009e+00	 9.628058902745034e-01	 1.191386941791836e+01
 2.330976487472603e+00	 1.016208488020358e+00	 1.194745300373096e+01
 2.307098794521370e+00	 1.069310940299143e+00	 1.196749394101841e+01
 2.514893050207545e+00	 5.362451027025408e-01	 1.149565560371654e+01
 2.502587000861241e+00	 5.910199533657733e-01	 1.153046652892534e+01
 2.489000142093479e+00	 6.458521102269126e-01	 1.157091801671434e+01
 2.474119478518071e+00	 7.006994889757403e-01	 1.161782404403900e+01
 2.457933747197826e+00	 7.555189599967284e-01	 1.167067224142381e+01
 2.440433499203286e+00	 8.102664315753974e-01	 1.172524298424539e+01
 2.421611176786868e+00	 8.648969398800225e-01	 1.177910528780354e+01
 2.401461185561423e+00	 9.193647454855693e-01	 1.183006050068213e+01
 2.379979961082225e+00	 9.736234361468893e-01	 1.187493802940532e+01
 2.357166029247821e+00	 1.027626035468222e+00	 1.190983940955959e+01
 2.333020059957994e+00	 1.081325117056653e+00	 1.193048060502093e+01
 2.542835050984890e+00	 5.422031139460401e-01	 1.146914031920057e+01
 2.530392273899682e+00	 5.975865467196622e-01	 1.149904569604628e+01
 2.516654456816485e+00	 6.530279223981774e-01	 1.153571461305438e+01
 2.501608459962430e+00	 7.084846890889146e-01	 1.158007873799783e+01
 2.485242895262215e+00	 7.639132379799086e-01	 1.163133048951994e+01
 2.467548208803002e+00	 8.192689874707358e-01	 1.168488151253205e+01
 2.448516758866024e+00	 8.745064741539708e-01	 1.173864944432348e+01
 2.428142888907077e+00	 9.295794504115609e-01	 1.179022279315457e+01
 2.406422994878290e+00	 9.844409883298969e-01	 1.183610519192717e+01
 2.383355586300053e+00	 1.039043589576698e+00	 1.187195146455496e+01
 2.358941340515157e+00	 1.093339300822785e+00	 1.189290761753750e+01
 2.570777071321162e+00	 5.481611293604884e-01	 1.145160281387168e+01
 2.558197566401331e+00	 6.041531446705537e-01	 1.147519398779861e+01
 2.544308790897034e+00	 6.602037395929412e-01	 1.150664566617317e+01
 2.529097460648616e+00	 7.162698946521954e-01	 1.154709578370858e+01
 2.512552062442568e+00	 7.723075218395806e-01	 1.159540359580100e+01
 2.494662937382607e+00	 8.282715496683839e-01	 1.164686385707650e+01
 2.475422359778713e+00	 8.841160151551283e-01	 1.169965374647860e+01
 2.454824610929586e+00	 9.397941624883859e-01	 1.175114588928920e+01
 2.432866047184175e+00	 9.952585480857250e-01	 1.179750836040128e+01
 2.409545161684700e+00	 1.050461151677977e+00	 1.183393114690935e+01
 2.384862639216969e+00	 1.105353492999332e+00	 1.185496247251268e+01
 2.598719114476180e+00	 5.541191496411408e-01	 1.144328864820861e+01
 2.586002881610057e+00	 6.107197479847156e-01	 1.145970553025612e+01
 2.571963147561384e+00	 6.673795626485521e-01	 1.148440146155630e+01
 2.556586483783597e+00	 7.240551065740306e-01	 1.151944553358441e+01
 2.539861251924882e+00	 7.807018125552502e-01	 1.156333188988927e+01
 2.521777688105416e+00	 8.372741192188098e-01	 1.161151370071357e+01
 2.502327982663858e+00	 8.937255640047717e-01	 1.166234423733307e+01
 2.481506354741759e+00	 9.500088829079183e-01	 1.171298353980974e+01
 2.459309121084851e+00	 1.006076116676572e+00	 1.175926027032630e+01
 2.435734758457170e+00	 1.061878723104253e+00	 1.179588682621789e+01
 2.410783959087536e+00	 1.117367694988084e+00	 1.181694460687867e+01
 2.626661183709767e+00	 5.600771754832522e-01	 1.142772890706779e+01
 2.613808222769730e+00	 6.172863574284145e-01	 1.144675121957009e+01
 2.599617530035789e+00	 6.745553924023591e-01	 1.146907043887428e+01
 2.584075532574343e+00	 7.318403257628661e-01	 1.149771636706849e+01
 2.567170466895151e+00	 7.890961111064230e-01	 1.153555910804946e+01
 2.548892464134745e+00	 8.462766971724820e-01	 1.157914936608165e+01
 2.529233630660384e+00	 9.033351218241793e-01	 1.162693235306556e+01
 2.508188123456403e+00	 9.602236128620324e-01	 1.167586539645407e+01
 2.485752219665286e+00	 1.016893695364639e+00	 1.172144004957502e+01
 2.461924379672861e+00	 1.073296305187716e+00	 1.175788395752322e+01
 2.436705303150968e+00	 1.129381908190833e+00	 1.177973973715479e+01
 2.654603282281744e+00	 5.660352075820778e-01	 1.139768255415310e+01
 2.641613593124215e+00	 6.238529737679167e-01	 1.142131926982795e+01
 2.627271941546510e+00	 6.817312296917112e-01	 1.144757564856991e+01
 2.611564610227829e+00	 7.396255531271493e-01	 1.147847708723991e+01
 2.594479710539368e+00	 7.974904184726043e-01	 1.151249279602199e+01
 2.576007268633907e+00	 8.552792845798692e-01	 1.155007671328747e+01
 2.556139306907209e+00	 9.129446897346282e-01	 1.159360724124763e+01
 2.534869920186331e+00	 9.704383535426029e-01	 1.163988879648772e+01
 2.512195346010452e+00	 1.027711285412123e+00	 1.168408452315575e+01
 2.488114028387177e+00	 1.084713899260560e+00	 1.171993596847403e+01
 2.462626674431372e+00	 1.141396134009372e+00	 1.174334879527075e+01
 2.203413823498114e+00	 1.021254275319494e+00	 1.210708190943748e+01
 2.179352171740935e+00	 1.071641963956964e+00	 1.211669152571383e+01
 2.154039828391445e+00	 1.121652522294122e+00	 1.212062846025022e+01
 2.127483749639469e+00	 1.171240551690321e+00	 1.213041784744219e+01
 2.099693046847078e+00	 1.220360701762737e+00	 1.214728176998657e+01
 2.070678998576783e+00	 1.268967796501816e+00	 1.216433953607680e+01
 2.040455053855409e+00	 1.317016962176464e+00	 1.217382388412630e+01
 2.009036826458815e+00	 1.364463756323230e+00	 1.216769357430952e+01
 1.976442080067317e+00	 1.411264297088024e+00	 1.213839690877849e+01
 1.942690704209564e+00	 1.457375392169872e+00	 1.207977733540525e+01
 1.907804680982951e+00	 1.502754666604192e+00	 1.199352306853463e+01
 2.229335058693659e+00	 1.033268438060432e+00	 1.207287716704420e+01
 2.204990342662290e+00	 1.084248893755298e+00	 1.207849667740574e+01
 2.179380221746705e+00	 1.134847782541942e+00	 1.208016033901168e+01
 2.152511733970202e+00	 1.185019171704440e+00	 1.209193175356906e+01
 2.124394097882041e+00	 1.234717177352404e+00	 1.211146264649665e+01
 2.095038724727140e+00	 1.283896092020067e+00	 1.213162619791659e+01
 2.064459221748341e+00	 1.332510514076160e+00	 1.214418168209657e+01
 2.032671386403901e+00	 1.380515478230546e+00	 1.214040626601501e+01
 1.999693191348277e+00	 1.427866586397528e+00	 1.211189154349120e+01
 1.965544760093001e+00	 1.474520138156510e+00	 1.205149602285444e+01
 1.930248333335595e+00	 1.520433260038539e+00	 1.197281125697796e+01
 2.255256296913310e+00	 1.045282602202825e+00	 1.203894021267253e+01
 2.230628516574733e+00	 1.096855825024232e+00	 1.204400121543321e+01
 2.204720618058312e+00	 1.148043044328970e+00	 1.204346401337665e+01
 2.177539721220831e+00	 1.198797793325786e+00	 1.205538637034431e+01
 2.149095151798753e+00	 1.249073654616667e+00	 1.207556736368938e+01
 2.119398453719415e+00	 1.298824389279572e+00	 1.209669581549833e+01
 2.088463392441695e+00	 1.348004067783004e+00	 1.211009682868369e+01
 2.056305949106268e+00	 1.396567202010079e+00	 1.210638186217201e+01
 2.022944305341754e+00	 1.444468877643437e+00	 1.207627828743606e+01
 1.988398818642600e+00	 1.491664886142807e+00	 1.201286872548982e+01
 1.952691988306481e+00	 1.538111855534809e+00	 1.194558722414803e+01
 2.281177541181177e+00	 1.057296769148464e+00	 1.200372782181516e+01
 2.256266696469347e+00	 1.109462759234705e+00	 1.200911276591484e+01
 2.230061020282613e+00	 1.161238309194783e+00	 1.201129795411709e+01
 2.202567714311258e+00	 1.212576418161988e+00	 1.202187459023886e+01
 2.173796211478971e+00	 1.263430135230565e+00	 1.204075328402087e+01
 2.143758188395543e+00	 1.313752690022081e+00	 1.206080633865725e+01
 2.112467568735924e+00	 1.363497625104685e+00	 1.207296700824478e+01
 2.079940517323249e+00	 1.412618929534634e+00	 1.206719810999754e+01
 2.046195424760352e+00	 1.461071172762784e+00	 1.203335454046070e+01
 2.011252882524643e+00	 1.508809638129075e+00	 1.197107540690345e+01
 1.975135648514014e+00	 1.555790455155588e+00	 1.191395105246830e+01
 2.307098794521370e+00	 1.069310940299143e+00	 1.196749394101841e+01
 2.281904885337222e+00	 1.122069697857661e+00	 1.197326598629015e+01
 2.255401431375953e+00	 1.174433578678955e+00	 1.198008502541644e+01
 2.227595716161380e+00	 1.226355047820675e+00	 1.199235370781917e+01
 2.198497279804454e+00	 1.277786620869141e+00	 1.200815527454606e+01
 2.168117931597463e+00	 1.328680995989341e+00	 1.202517823390669e+01
 2.136471753431486e+00	 1.378991187848895e+00	 1.203414052985311e+01
 2.103575093812183e+00	 1.428670662677016e+00	 1.202437485863267e+01
 2.069446552316671e+00	 1.477673473692601e+00	 1.198485484418307e+01
 2.034106954405412e+00	 1.525954396115625e+00	 1.192836818512537e+01
 1.997579316576603e+00	 1.573469060963462e+00	 1.187970858022898e+01
 2.333020059957994e+00	 1.081325117056653e+00	 1.193048060502093e+01
 2.307543086169442e+00	 1.134676642364042e+00	 1.193766073725763e+01
 2.280741854294682e+00	 1.187628854321061e+00	 1.194875592345836e+01
 2.252623729691100e+00	 1.240133683909476e+00	 1.196396622966331e+01
 2.223198359656961e+00	 1.292143113207434e+00	 1.197885830809773e+01
 2.192477686167112e+00	 1.343609308923103e+00	 1.199097066988826e+01
 2.160475949328837e+00	 1.394484757823324e+00	 1.199489217304293e+01
 2.127209681330403e+00	 1.444722403310030e+00	 1.197934969815097e+01
 2.092697690723316e+00	 1.494275782369921e+00	 1.193419662605873e+01
 2.056961036951193e+00	 1.543099162102773e+00	 1.188612877417004e+01
 2.020022995112654e+00	 1.591147675021018e+00	 1.184437344303967e+01
 2.358941340515157e+00	 1.093339300822785e+00	 1.189290761753750e+01
 2.333181301957095e+00	 1.147283594224788e+00	 1.190254446237307e+01
 2.306082291995148e+00	 1.200824137660676e+00	 1.191757983619449e+01
 2.277651757820316e+00	 1.253912328036020e+00	 1.193538106941803e+01
 2.247899453918249e+00	 1.306499613920486e+00	 1.195115102128328e+01
 2.216837454946426e+00	 1.358537630565113e+00	 1.195925791577638e+01
 2.184480159228432e+00	 1.409978336835664e+00	 1.195639923313114e+01
 2.150844282635248e+00	 1.460774153306482e+00	 1.193345378380701e+01
 2.115948842692888e+00	 1.510878100731776e+00	 1.188664550540080e+01
 2.079815132828263e+00	 1.560243938090828e+00	 1.184545343047691e+01
 2.042466686740576e+00	 1.608826299390843e+00	 1.180916924850749e+01
 2.384862639216969e+00	 1.105353492999332e+00	 1.185496247251268e+01
 2.358819535691266e+00	 1.159890554910842e+00	 1.186806073938340e+01
 2.331422747433695e+00	 1.214019430237375e+00	 1.188672685623857e+01
 2.302679803468932e+00	 1.267690981807936e+00	 1.190681762863606e+01
 2.272600565470077e+00	 1.320856124683338e+00	 1.192318818301669e+01
 2.241197240777346e+00	 1.373465962657122e+00	 1.192971804879248e+01
 2.208484385930727e+00	 1.425471926693604e+00	 1.191971775115010e+01
 2.174478900484054e+00	 1.476825914539178e+00	 1.188788783170016e+01
 2.139200010937990e+00	 1.527480430715198e+00	 1.184308582178292e+01
 2.102669244702909e+00	 1.577388726080102e+00	 1.180715510243387e+01
 2.064910394078774e+00	 1.626504936135523e+00	 1.177503187386214e+01
 2.410783959087536e+00	 1.117367694988084e+00	 1.181694460687867e+01
 2.384457790363043e+00	 1.172497525893146e+00	 1.183425789992208e+01
 2.356763223566673e+00	 1.227214733590733e+00	 1.185626433242572e+01
 2.327707869556846e+00	 1.281469646832853e+00	 1.187838481925961e+01
 2.297301697194204e+00	 1.335212647171031e+00	 1.189514308166443e+01
 2.265557046501807e+00	 1.388394306940879e+00	 1.190004499414313e+01
 2.232488632236179e+00	 1.440965529204835e+00	 1.188544683150108e+01
 2.198113537634154e+00	 1.492877688880922e+00	 1.184484043816331e+01
 2.162451198171223e+00	 1.544082774257219e+00	 1.180396352881803e+01
 2.125523375241412e+00	 1.594533528070909e+00	 1.177176570770876e+01
 2.087354119745656e+00	 1.644183587317644e+00	 1.174261187713862e+01
 2.436705303150968e+00	 1.129381908190833e+00	 1.177973973715479e+01
 2.410096068963512e+00	 1.185104508642641e+00	 1.180108563925348e+01
 2.382103723350427e+00	 1.240410049260326e+00	 1.182615341655148e+01
 2.352735959003957e+00	 1.295248324718398e+00	 1.185007755020499e+01
 2.322002851972387e+00	 1.349569183058604e+00	 1.186706704854487e+01
 2.289916874961746e+00	 1.403322665158131e+00	 1.187027223493000e+01
 2.256492900945243e+00	 1.456459146177048e+00	 1.185163834391257e+01
 2.221748196842888e+00	 1.508929478204520e+00	 1.180800521575561e+01
 2.185702407105191e+00	 1.560685133294874e+00	 1.176945039267328e+01
 2.148377527110054e+00	 1.611678346063562e+00	 1.173953852874634e+01
 2.109797866359628e+00	 1.661862254999792e+00	 1.171227701333103e+01
 2.462626674431372e+00	 1.141396134009372e+00	 1.174334879527075e+01
 2.435734374483759e+00	 1.197711504630270e+00	 1.176839181281888e+01
 2.407444249741307e+00	 1.253605378785728e+00	 1.179624579094019e+01
 2.377764074730168e+00	 1.309027017072203e+00	 1.182177338765146e+01
 2.346704032686388e+00	 1.363925734021101e+00	 1.183888605242095e+01
 2.314276728999100e+00	 1.418251039050627e+00	 1.184039726785100e+01
 2.280497194858377e+00	 1.471952779417934e+00	 1.181786030151901e+01
 2.245382880867588e+00	 1.524981284382777e+00	 1.177611839467024e+01
 2.208953640452497e+00	 1.577287509765193e+00	 1.173944636487265e+01
 2.171231702975119e+00	 1.628823182058370e+00	 1.171045071760312e+01
 2.132241636539099e+00	 1.679540941244555e+00	 1.168411484765916e+01
 1.907804680982951e+00	 1.502754666604192e+00	 1.199352306853463e+01
 1.871808037293996e+00	 1.547360692817836e+00	 1.190688752136620e+01
 1.834726777441590e+00	 1.591153126366857e+00	 1.181950389025009e+01
 1.796588838824851e+00	 1.634092812988081e+00	 1.173491089585716e+01
 1.757424028508822e+00	 1.676141899875752e+00	 1.164815125110412e+01
 1.717263946274040e+00	 1.717263946274040e+00	 1.155121425806963e+01
 1.676141899875751e+00	 1.757424028508822e+00	 1.143501524861859e+01
 1.634092812988080e+00	 1.796588838824852e+00	 1.129025768319939e+01
 1.591153126366856e+00	 1.834726777441591e+00	 1.110834078804066e+01
 1.547360692817835e+00	 1.871808037293997e+00	 1.089168555291780e+01
 1.502754666604192e+00	 1.907804680982951e+00	 1.068603171910113e+01
 1.930248333335595e+00	 1.520433260038539e+00	 1.197281125697796e+01
 1.893828220638096e+00	 1.565564037111324e+00	 1.189775950570349e+01
 1.856310732217209e+00	 1.609871650313845e+00	 1.181888423599409e+01
 1.817724134131109e+00	 1.653316484767282e+00	 1.173784885269274e+01
 1.778098584098875e+00	 1.695860242360747e+00	 1.165331469099942e+01
 1.737466053644808e+00	 1.737466053644808e+00	 1.155674501891760e+01
 1.695860242360746e+00	 1.778098584098875e+00	 1.143833245674222e+01
 1.653316484767281e+00	 1.817724134131110e+00	 1.128797806597586e+01
 1.609871650313845e+00	 1.856310732217210e+00	 1.109669501368837e+01
 1.565564037111324e+00	 1.893828220638097e+00	 1.089617039936858e+01
 1.520433260038540e+00	 1.930248333335595e+00	 1.071144871914466e+01
 1.952691988306481e+00	 1.538111855534809e+00	 1.194558722414803e+01
 1.915848406550984e+00	 1.583767383527957e+00	 1.188031323467185e+01
 1.877894689510672e+00	 1.628590176444095e+00	 1.180900616231487e+01
 1.838859431902811e+00	 1.672540158788709e+00	 1.173081206728943e+01
 1.798773142100562e+00	 1.715578587145719e+00	 1.164626003901320e+01
 1.757668163372039e+00	 1.757668163372040e+00	 1.154781339987178e+01
 1.715578587145718e+00	 1.798773142100563e+00	 1.142485137886752e+01
 1.672540158788708e+00	 1.838859431902812e+00	 1.126636858455775e+01
 1.628590176444095e+00	 1.877894689510673e+00	 1.107618993061481e+01
 1.583767383527956e+00	 1.915848406550984e+00	 1.089547626162337e+01
 1.538111855534809e+00	 1.952691988306481e+00	 1.072866019369028e+01
 1.975135648514014e+00	 1.555790455155588e+00	 1.191395105246830e+01
 1.937868597601670e+00	 1.601970734191530e+00	 1.185681258107558e+01
 1.899478651840100e+00	 1.647308706941500e+00	 1.179159012708659e+01
 1.859994734605747e+00	 1.691763837295175e+00	 1.171634782354448e+01
 1.819447704925934e+00	 1.735296936531182e+00	 1.162976363280371e+01
 1.777870277812673e+00	 1.777870277812674e+00	 1.152731761791134e+01
 1.735296936531180e+00	 1.819447704925934e+00	 1.139760515586636e+01
 1.691763837295175e+00	 1.859994734605748e+00	 1.122982380844957e+01
 1.647308706941499e+00	 1.899478651840101e+00	 1.105486296671774e+01
 1.601970734191529e+00	 1.937868597601670e+00	 1.089126932072739e+01
 1.555790455155588e+00	 1.975135648514014e+00	 1.073950676179297e+01
 1.997579316576603e+00	 1.573469060963462e+00	 1.187970858022898e+01
 1.959888796359163e+00	 1.620174091225841e+00	 1.182922307128054e+01
 1.921062621723621e+00	 1.666027243989950e+00	 1.176877704057056e+01
 1.881130044705708e+00	 1.710987522529494e+00	 1.169561729136877e+01
 1.840122274987037e+00	 1.755015292817647e+00	 1.160642049334925e+01
 1.798072399323654e+00	 1.798072399323654e+00	 1.149798344237868e+01
 1.755015292817647e+00	 1.840122274987038e+00	 1.135946595987646e+01
 1.710987522529494e+00	 1.881130044705709e+00	 1.119296897375685e+01
 1.666027243989950e+00	 1.921062621723622e+00	 1.103402862075777e+01
 1.620174091225840e+00	 1.959888796359164e+00	 1.088503630373451e+01
 1.573469060963462e+00	 1.997579316576603e+00	 1.074565979744467e+01
 2.020022995112654e+00	 1.591147675021018e+00	 1.184437344303967e+01
 1.981909005392473e+00	 1.638377456754689e+00	 1.179921406493911e+01
 1.942646601679358e+00	 1.684745789773338e+00	 1.174240881243963e+01
 1.902265364668485e+00	 1.730211216734482e+00	 1.167033815888582e+01
 1.860796854695922e+00	 1.774733658305631e+00	 1.157852196264835e+01
 1.818274530261921e+00	 1.818274530261922e+00	 1.146235195095022e+01
 1.774733658305631e+00	 1.860796854695923e+00	 1.131434873627430e+01
 1.730211216734481e+00	 1.902265364668486e+00	 1.116002399152799e+01
 1.684745789773337e+00	 1.942646601679359e+00	 1.101480519314788e+01
 1.638377456754689e+00	 1.981909005392473e+00	 1.087807613486659e+01
 1.591147675021018e+00	 2.020022995112655e+00	 1.074861316239175e+01
 2.042466686740576e+00	 1.608826299390843e+00	 1.180916924850749e+01
 2.003929227270609e+00	 1.656580832901872e+00	 1.176816105222646e+01
 1.964230594225435e+00	 1.703464346475554e+00	 1.171403071479818e+01
 1.923400696959869e+00	 1.749434922152951e+00	 1.164224362974484e+01
 1.881471446464636e+00	 1.794452035295648e+00	 1.154728122422498e+01
 1.838476672984417e+00	 1.838476672984418e+00	 1.142276736162638e+01
 1.794452035295647e+00	 1.881471446464636e+00	 1.127385784791190e+01
 1.749434922152950e+00	 1.923400696959869e+00	 1.113173255053652e+01
 1.703464346475554e+00	 1.964230594225436e+00	 1.099810644142687e+01
 1.656580832901872e+00	 2.003929227270610e+00	 1.087149164965146e+01
 1.608826299390843e+00	 2.042466686740576e+00	 1.074967500155907e+01
 2.064910394078774e+00	 1.626504936135523e+00	 1.177503187386214e+01
 2.025949464562581e+00	 1.674784221791188e+00	 1.173714805950101e+01
 1.985814601879978e+00	 1.722182916280492e+00	 1.168489384111622e+01
 1.944536044045650e+00	 1.768658641027716e+00	 1.161277106502278e+01
 1.902146052705230e+00	 1.814170426088211e+00	 1.151416438051482e+01
 1.858678829848083e+00	 1.858678829848083e+00	 1.138187406477213e+01
 1.814170426088210e+00	 1.902146052705230e+00	 1.124058560283431e+01
 1.768658641027715e+00	 1.944536044045651e+00	 1.110861905625895e+01
 1.722182916280491e+00	 1.985814601879978e+00	 1.098463329516850e+01
 1.674784221791187e+00	 2.025949464562581e+00	 1.086618136712082e+01
 1.626504936135523e+00	 2.064910394078773e+00	 1.074995959619998e+01
 2.087354119745656e+00	 1.644183587317644e+00	 1.174261187713862e+01
 2.047969719837397e+00	 1.692987625546434e+00	 1.170697015508813e+01
 2.007398627161110e+00	 1.740901501372042e+00	 1.165595765371360e+01
 1.965671408391619e+00	 1.787882375601591e+00	 1.158306452264022e+01
 1.922820675829750e+00	 1.833888832983834e+00	 1.148052047449118e+01
 1.878881003209860e+00	 1.878881003209861e+00	 1.134741764858876e+01
 1.833888832983833e+00	 1.922820675829751e+00	 1.121467122623320e+01
 1.787882375601591e+00	 1.965671408391620e+00	 1.109098036756835e+01
 1.740901501372041e+00	 2.007398627161111e+00	 1.097486562570729e+01
 1.692987625546433e+00	 2.047969719837397e+00	 1.086283131556190e+01
 1.644183587317644e+00	 2.087354119745656e+00	 1.075037927030393e+01
 2.109797866359628e+00	 1.661862254999792e+00	 1.171227701333103e+01
 2.069989995664066e+00	 1.711191046291408e+00	 1.167813604759736e+01
 2.028982672586956e+00	 1.759620103934096e+00	 1.162789261306214e+01
 1.986806792463568e+00	 1.807106128117391e+00	 1.155397736952114e+01
 1.943495318250247e+00	 1.853607258283031e+00	 1.144743283192950e+01
 1.899083195426690e+00	 1.899083195426690e+00	 1.132092363079171e+01
 1.853607258283029e+00	 1.943495318250247e+00	 1.119601207868602e+01
 1.807106128117390e+00	 1.986806792463569e+00	 1.107887758618872e+01
 1.759620103934095e+00	 2.028982672586957e+00	 1.096905406644915e+01
 1.711191046291407e+00	 2.069989995664066e+00	 1.086190690769663e+01
 1.661862254999793e+00	 2.109797866359628e+00	 1.075163634616787e+01
 2.132241636539099e+00	 1.679540941244555e+00	 1.168411484765916e+01
 2.092010294611598e+00	 1.729394486149908e+00	 1.165087076982685e+01
 2.050566740675642e+00	 1.778338726150545e+00	 1.160108288274476e+01
 2.007942198727287e+00	 1.826329900817930e+00	 1.152607496099982e+01
 1.964169982378769e+00	 1.873325704286316e+00	 1.141922055038462e+01
 1.919285408855514e+00	 1.919285408855514e+00	 1.130149865520851e+01
 1.873325704286315e+00	 1.964169982378770e+00	 1.118391107364296e+01
 1.826329900817930e+00	 2.007942198727288e+00	 1.107212789485691e+01
 1.778338726150545e+00	 2.050566740675643e+00	 1.096721187988268e+01
 1.729394486149908e+00	 2.092010294611599e+00	 1.086364486149970e+01
 1.679540941244554e+00	 2.132241636539099e+00	 1.075421514537485e+01
 1.502754666604192e+00	 1.907804680982951e+00	 1.068603171910113e+01
 1.457375392169871e+00	 1.942690704209564e+00	 1.049839771563400e+01
 1.411264297088024e+00	 1.976442080067318e+00	 1.032844386830018e+01
 1.364463756323229e+00	 2.009036826458815e+00	 1.016974184362699e+01
 1.317016962176464e+00	 2.040455053855409e+00	 1.001420435747010e+01
 1.268967796501815e+00	 2.070678998576784e+00	 9.853855832781166e+00
 1.220360701762737e+00	 2.099693046847078e+00	 9.681703455447888e+00
 1.171240551690321e+00	 2.127483749639469e+00	 9.492489487286168e+00
 1.121652522294121e+00	 2.154039828391445e+00	 9.283303303543788e+00
 1.071641963956963e+00	 2.179352171740935e+00	 9.054144582471144e+00
 1.021254275319494e+00	 2.203413823498115e+00	 8.808279761411807e+00
 1.520433260038540e+00	 1.930248333335595e+00	 1.071144871914466e+01
 1.474520138156509e+00	 1.965544760093002e+00	 1.054130574091991e+01
 1.427866586397527e+00	 1.999693191348277e+00	 1.038489998912399e+01
 1.380515478230545e+00	 2.032671386403901e+00	 1.023720241981024e+01
 1.332510514076160e+00	 2.064459221748342e+00	 1.008935118670123e+01
 1.283896092020066e+00	 2.095038724727141e+00	 9.932716940136864e+00
 1.234717177352403e+00	 2.124394097882042e+00	 9.759843560458703e+00
 1.185019171704439e+00	 2.152511733970203e+00	 9.565259756245323e+00
 1.134847782541941e+00	 2.179380221746706e+00	 9.346138439262786e+00
 1.084248893755297e+00	 2.204990342662291e+00	 9.102795983989358e+00
 1.033268438060432e+00	 2.229335058693659e+00	 8.840474289919126e+00
 1.538111855534809e+00	 1.952691988306481e+00	 1.072866019369028e+01
 1.491664886142806e+00	 1.988398818642601e+00	 1.057341294586374e+01
 1.444468877643436e+00	 2.022944305341754e+00	 1.042644276514247e+01
 1.396567202010078e+00	 2.056305949106268e+00	 1.028529787843091e+01
 1.348004067783003e+00	 2.088463392441695e+00	 1.014050060134941e+01
 1.298824389279571e+00	 2.119398453719415e+00	 9.982756713407223e+00
 1.249073654616666e+00	 2.149095151798754e+00	 9.804155401912315e+00
 1.198797793325785e+00	 2.177539721220832e+00	 9.599043343777721e+00
 1.148043044328969e+00	 2.204720618058313e+00	 9.364733836764220e+00
 1.096855825024231e+00	 2.230628516574733e+00	 9.104426776697427e+00
 1.045282602202825e+00	 2.255256296913310e+00	 8.852837637123208e+00
 1.555790455155588e+00	 1.975135648514014e+00	 1.073950676179297e+01
 1.508809638129074e+00	 2.011252882524643e+00	 1.059614280484129e+01
 1.461071172762784e+00	 2.046195424760352e+00	 1.045559558464836e+01
 1.412618929534632e+00	 2.079940517323249e+00	 1.031678246406350e+01
 1.363497625104685e+00	 2.112467568735925e+00	 1.017064563004501e+01
 1.313752690022080e+00	 2.143758188395543e+00	 1.000720425096712e+01
 1.263430135230564e+00	 2.173796211478972e+00	 9.818091754525964e+00
 1.212576418161987e+00	 2.202567714311258e+00	 9.597495796680210e+00
 1.161238309194783e+00	 2.230061020282613e+00	 9.344890922420783e+00
 1.109462759234705e+00	 2.256266696469348e+00	 9.094487637530051e+00
 1.057296769148464e+00	 2.281177541181178e+00	 8.860845344457140e+00
 1.573469060963462e+00	 1.997579316576603e+00	 1.074565979744467e+01
 1.525954396115625e+00	 2.034106954405413e+00	 1.061129630534465e+01
 1.477673473692600e+00	 2.069446552316671e+00	 1.047470165401177e+01
 1.428670662677015e+00	 2.103575093812183e+00	 1.033424959263198e+01
 1.378991187848895e+00	 2.136471753431487e+00	 1.018263649225000e+01
 1.328680995989341e+00	 2.168117931597464e+00	 1.000916228262550e+01
 1.277786620869140e+00	 2.198497279804455e+00	 9.804993680646845e+00
 1.226355047820674e+00	 2.227595716161380e+00	 9.565029868740831e+00
 1.174433578678954e+00	 2.255401431375954e+00	 9.319030224329829e+00
 1.122069697857660e+00	 2.281904885337222e+00	 9.085629346234885e+00
 1.069310940299144e+00	 2.307098794521370e+00	 8.867447861552803e+00
 1.591147675021018e+00	 2.020022995112655e+00	 1.074861316239175e+01
 1.543099162102772e+00	 2.056961036951193e+00	 1.062058769736758e+01
 1.494275782369920e+00	 2.092697690723316e+00	 1.048564735047627e+01
 1.444722403310029e+00	 2.127209681330404e+00	 1.034012665477328e+01
 1.394484757823324e+00	 2.160475949328838e+00	 1.017917621405636e+01
 1.343609308923102e+00	 2.192477686167112e+00	 9.991603617594034e+00
 1.292143113207433e+00	 2.223198359656961e+00	 9.768114535066088e+00
 1.240133683909476e+00	 2.252623729691100e+00	 9.529116289400257e+00
 1.187628854321060e+00	 2.280741854294683e+00	 9.298834959185783e+00
 1.134676642364041e+00	 2.307543086169443e+00	 9.080209775939146e+00
 1.081325117056653e+00	 2.333020059957993e+00	 8.875388567045274e+00
 1.608826299390843e+00	 2.042466686740576e+00	 1.074967500155907e+01
 1.560243938090827e+00	 2.079815132828264e+00	 1.062555702394240e+01
 1.510878100731775e+00	 2.115948842692888e+00	 1.048970268249873e+01
 1.460774153306481e+00	 2.150844282635249e+00	 1.033666986452109e+01
 1.409978336835663e+00	 2.184480159228432e+00	 1.016281627620459e+01
 1.358537630565113e+00	 2.216837454946428e+00	 9.957367608803976e+00
 1.306499613920485e+00	 2.247899453918249e+00	 9.727343801211195e+00
 1.253912328036020e+00	 2.277651757820318e+00	 9.502329018144511e+00
 1.200824137660675e+00	 2.306082291995147e+00	 9.285878732992161e+00
 1.147283594224788e+00	 2.333181301957095e+00	 9.080310405538802e+00
 1.093339300822785e+00	 2.358941340515157e+00	 8.887199631837811e+00
 1.626504936135523e+00	 2.064910394078773e+00	 1.074995959619998e+01
 1.577388726080102e+00	 2.102669244702911e+00	 1.062756211475296e+01
 1.527480430715197e+00	 2.139200010937990e+00	 1.048848126861139e+01
 1.476825914539177e+00	 2.174478900484054e+00	 1.032595914986684e+01
 1.425471926693603e+00	 2.208484385930727e+00	 1.013595229186623e+01
 1.373465962657122e+00	 2.241197240777347e+00	 9.917075955851978e+00
 1.320856124683337e+00	 2.272600565470078e+00	 9.698129237200900e+00
 1.267690981807935e+00	 2.302679803468933e+00	 9.485481906618132e+00
 1.214019430237374e+00	 2.331422747433695e+00	 9.281468113835643e+00
 1.159890554910842e+00	 2.358819535691267e+00	 9.087746388195765e+00
 1.105353492999332e+00	 2.384862639216969e+00	 8.905197799155742e+00
 1.644183587317644e+00	 2.087354119745656e+00	 1.075037927030393e+01
 1.594533528070909e+00	 2.125523375241412e+00	 1.062777063130978e+01
 1.544082774257219e+00	 2.162451198171223e+00	 1.048344158715257e+01
 1.492877688880921e+00	 2.198113537634155e+00	 1.030972037067526e+01
 1.440965529204834e+00	 2.232488632236179e+00	 1.010273841951981e+01
 1.388394306940878e+00	 2.265557046501807e+00	 9.889193066032176e+00
 1.335212647171030e+00	 2.297301697194204e+00	 9.680556535805762e+00
 1.281469646832852e+00	 2.327707869556846e+00	 9.479130093086415e+00
 1.227214733590733e+00	 2.356763223566672e+00	 9.286649869450915e+00
 1.172497525893145e+00	 2.384457790363044e+00	 9.104073329475661e+00
 1.117367694988084e+00	 2.410783959087536e+00	 8.931483058900641e+00
 1.661862254999793e+00	 2.109797866359628e+00	 1.075163634616787e+01
 1.611678346063561e+00	 2.148377527110056e+00	 1.062715215973108e+01
 1.560685133294873e+00	 2.185702407105192e+00	 1.047585664897701e+01
 1.508929478204519e+00	 2.221748196842888e+00	 1.028913154142172e+01
 1.456459146177047e+00	 2.256492900945243e+00	 1.007971134129831e+01
 1.403322665158130e+00	 2.289916874961746e+00	 9.873767838668476e+00
 1.349569183058604e+00	 2.322002851972388e+00	 9.674463256806087e+00
 1.295248324718398e+00	 2.352735959003958e+00	 9.483577776811629e+00
 1.240410049260325e+00	 2.382103723350427e+00	 9.302218170512646e+00
 1.185104508642640e+00	 2.410096068963512e+00	 9.130593964157836e+00
 1.129381908190833e+00	 2.436705303150968e+00	 8.967921793911950e+00
 1.679540941244554e+00	 2.132241636539099e+00	 1.075421514537485e+01
 1.628823182058369e+00	 2.171231702975121e+00	 1.062647034750104e+01
 1.577287509765192e+00	 2.208953640452497e+00	 1.046680635043016e+01
 1.524981284382777e+00	 2.245382880867589e+00	 1.027270867687270e+01
 1.471952779417933e+00	 2.280497194858376e+00	 1.006919277143361e+01
 1.418251039050626e+00	 2.314276728999100e+00	 9.869962710784838e+00
 1.363925734021100e+00	 2.346704032686388e+00	 9.679447213710837e+00
 1.309027017072202e+00	 2.377764074730169e+00	 9.498885976502351e+00
 1.253605378785727e+00	 2.407444249741308e+00	 9.328721762192455e+00
 1.197711504630269e+00	 2.435734374483761e+00	 9.168364784746366e+00
 1.141396134009372e+00	 2.462626674431371e+00	 9.016096939384294e+00
 1.021254275319494e+00	 2.203413823498115e+00	 8.808279761411809e+00
 9.705383381911835e-01	 2.226218412033819e+00	 8.546867753375237e+00
 9.195357446471829e-01	 2.247764961775247e+00	 8.294434831644764e+00
 8.682912864025066e-01	 2.268052840037646e+00	 8.064503574942991e+00
 8.168493301737020e-01	 2.287083439031819e+00	 7.856679027095575e+00
 7.652537098669578e-01	 2.304860125187024e+00	 7.669712398931885e+00
 7.135476239455169e-01	 2.321388182105574e+00	 7.501997627291290e+00
 6.617735383658393e-01	 2.336674747679672e+00	 7.351523160693985e+00
 6.099730954158611e-01	 2.350728745922590e+00	 7.215570913532904e+00
 5.581870287320395e-01	 2.363560814081782e+00	 7.090013575051882e+00
 5.064550847153568e-01	 2.375183225610976e+00	 6.970375468998414e+00
 1.033268438060432e+00	 2.229335058693659e+00	 8.840474289919124e+00
 9.819558723185194e-01	 2.252407923255008e+00	 8.587853558970400e+00
 9.303532778990775e-01	 2.274207949296761e+00	 8.354417707826721e+00
 8.785059734524474e-01	 2.294734496691164e+00	 8.141643907556267e+00
 8.264588476307687e-01	 2.313988974027140e+00	 7.949531873518906e+00
 7.742562500077732e-01	 2.331974787337017e+00	 7.777377542556977e+00
 7.219418872388194e-01	 2.348697282380047e+00	 7.624309109387196e+00
 6.695587248551796e-01	 2.364163681019468e+00	 7.488266610139458e+00
 6.171488950298645e-01	 2.378383012251740e+00	 7.366347840068622e+00
 5.647536105949147e-01	 2.391366038462201e+00	 7.254784491513028e+00
 5.124130855329354e-01	 2.403125177491006e+00	 7.149792167579032e+00
 1.045282602202825e+00	 2.255256296913310e+00	 8.852837637123207e+00
 9.933734077776996e-01	 2.278597437531599e+00	 8.618733101287370e+00
 9.411708124127968e-01	 2.300650939903248e+00	 8.402080732630408e+00
 8.887206616938501e-01	 2.321416156457493e+00	 8.204339573954524e+00
 8.360683662086564e-01	 2.340894512161383e+00	 8.025621993667469e+00
 7.832587911985566e-01	 2.359089452650325e+00	 7.865502820760859e+00
 7.303361515110859e-01	 2.376006385840515e+00	 7.723640477364430e+00
 6.773439122523935e-01	 2.391652617566236e+00	 7.598197615034403e+00
 6.243246954806225e-01	 2.406037281807146e+00	 7.485932845427278e+00
 5.713201932234588e-01	 2.419171266086488e+00	 7.383377252516437e+00
 5.183710870451879e-01	 2.431067132630856e+00	 7.287437262769464e+00
 1.057296769148464e+00	 2.281177541181178e+00	 8.860845344457140e+00
 1.004790945900915e+00	 2.304786957918997e+00	 8.642919600357146e+00
 9.519883494505391e-01	 2.327093936679673e+00	 8.441003116474487e+00
 8.989353523185885e-01	 2.348097822449440e+00	 8.256243260458401e+00
 8.456778870286429e-01	 2.367800056573470e+00	 8.088585855560725e+00
 7.922613344897761e-01	 2.386204124290262e+00	 7.937623193655977e+00
 7.387304177418229e-01	 2.403315495672971e+00	 7.803280506190378e+00
 6.851291014659270e-01	 2.419141560526944e+00	 7.684189869410851e+00
 6.315004976054843e-01	 2.433691557815067e+00	 7.576676108314039e+00
 5.778867773839388e-01	 2.446976500198511e+00	 7.477534907435510e+00
 5.243290899473697e-01	 2.459009094290348e+00	 7.384392304383127e+00
 1.069310940299144e+00	 2.307098794521370e+00	 8.867447861552801e+00
 1.016208488020359e+00	 2.330976487472603e+00	 8.663644253812510e+00
 9.628058902745037e-01	 2.353536942711009e+00	 8.474604302763600e+00
 9.091500465185371e-01	 2.374779497779813e+00	 8.300870846195682e+00
 8.552874112120059e-01	 2.394705610402325e+00	 8.141946287485874e+00
 8.012638809319006e-01	 2.413318805420145e+00	 7.997182914213699e+00
 7.471246869105356e-01	 2.430624615063410e+00	 7.866499508026585e+00
 6.929142934042271e-01	 2.446630513108567e+00	 7.749120843124459e+00
 6.386763022417982e-01	 2.461345843501758e+00	 7.640965034756015e+00
 5.844533638426214e-01	 2.474781744042139e+00	 7.539063222879211e+00
 5.302870949347357e-01	 2.486951065729305e+00	 7.441819668495391e+00
 1.081325117056653e+00	 2.333020059957993e+00	 8.875388567045272e+00
 1.027626035468223e+00	 2.357166029247820e+00	 8.683953176797399e+00
 9.736234361468897e-01	 2.379979961082224e+00	 8.506141679479789e+00
 9.193647454855698e-01	 2.401461185561423e+00	 8.341599685777460e+00
 8.648969398800229e-01	 2.421611176786868e+00	 8.189111146939608e+00
 8.102664315753978e-01	 2.440433499203286e+00	 8.047534415706449e+00
 7.555189599967289e-01	 2.457933747197826e+00	 7.916549757262656e+00
 7.006994889757407e-01	 2.474119478518071e+00	 7.795864658740562e+00
 6.458521102269132e-01	 2.489000142093480e+00	 7.681218352249920e+00
 5.910199533657737e-01	 2.502587000861240e+00	 7.569825686964911e+00
 5.362451027025408e-01	 2.514893050207545e+00	 7.460958198347349e+00
 1.093339300822785e+00	 2.358941340515157e+00	 8.887199631837811e+00
 1.039043589576698e+00	 2.383355586300052e+00	 8.706704234641427e+00
 9.844409883298973e-01	 2.406422994878290e+00	 8.538708177189989e+00
 9.295794504115616e-01	 2.428142888907077e+00	 8.381666781775939e+00
 8.745064741539714e-01	 2.448516758866023e+00	 8.233371891277116e+00
 8.192689874707362e-01	 2.467548208803001e+00	 8.091937120059173e+00
 7.639132379799090e-01	 2.485242895262215e+00	 7.956578723510635e+00
 7.084846890889149e-01	 2.501608459962430e+00	 7.827284944764855e+00
 6.530279223981782e-01	 2.516654456816485e+00	 7.699880213970419e+00
 5.975865467196625e-01	 2.530392273899682e+00	 7.571738559711115e+00
 5.422031139460399e-01	 2.542835050984890e+00	 7.443118928564614e+00
 1.105353492999332e+00	 2.384862639216969e+00	 8.905197799155742e+00
 1.050461151677977e+00	 2.409545161684701e+00	 8.734563776387025e+00
 9.952585480857252e-01	 2.432866047184175e+00	 8.575229762056896e+00
 9.397941624883865e-01	 2.454824610929586e+00	 8.424166855341426e+00
 8.841160151551285e-01	 2.475422359778713e+00	 8.277902057509827e+00
 8.282715496683845e-01	 2.494662937382607e+00	 8.133556173100693e+00
 7.723075218395810e-01	 2.512552062442569e+00	 7.989660464450114e+00
 7.162698946521957e-01	 2.529097460648615e+00	 7.846227666990732e+00
 6.602037395929415e-01	 2.544308790897034e+00	 7.699414312247521e+00
 6.041531446705541e-01	 2.558197566401330e+00	 7.546765966031036e+00
 5.481611293604884e-01	 2.570777071321162e+00	 7.389680886349657e+00
 1.117367694988084e+00	 2.410783959087536e+00	 8.931483058900641e+00
 1.061878723104253e+00	 2.435734758457169e+00	 8.770003276560011e+00
 1.006076116676573e+00	 2.459309121084851e+00	 8.618462831695904e+00
 9.500088829079189e-01	 2.481506354741760e+00	 8.472050322580484e+00
 8.937255640047720e-01	 2.502327982663859e+00	 8.325755658054231e+00
 8.372741192188105e-01	 2.521777688105417e+00	 8.175461112188209e+00
 7.807018125552506e-01	 2.539861251924882e+00	 8.018796159428117e+00
 7.240551065740310e-01	 2.556586483783596e+00	 7.855513939573595e+00
 6.673795626485525e-01	 2.571963147561384e+00	 7.682298000597420e+00
 6.107197479847163e-01	 2.586002881610058e+00	 7.496915028104877e+00
 5.541191496411407e-01	 2.598719114476180e+00	 7.305402703137738e+00
 1.129381908190833e+00	 2.436705303150968e+00	 8.967921793911952e+00
 1.073296305187717e+00	 2.461924379672860e+00	 8.815295891941510e+00
 1.016893695364639e+00	 2.485752219665286e+00	 8.670991521053327e+00
 9.602236128620327e-01	 2.508188123456404e+00	 8.528121183662638e+00
 9.033351218241796e-01	 2.529233630660383e+00	 8.379865498652606e+00
 8.462766971724828e-01	 2.548892464134745e+00	 8.220624471211424e+00
 7.890961111064235e-01	 2.567170466895150e+00	 8.046912873634419e+00
 7.318403257628665e-01	 2.584075532574344e+00	 7.857932817309345e+00
 6.745553924023595e-01	 2.599617530035790e+00	 7.654393427607083e+00
 6.172863574284150e-01	 2.613808222769730e+00	 7.459367081738274e+00
 5.600771754832523e-01	 2.626661183709768e+00	 7.283318031634692e+00
 1.141396134009372e+00	 2.462626674431371e+00	 9.016096939384294e+00
 1.084713899260560e+00	 2.488114028387177e+00	 8.872512939529333e+00
 1.027711285412124e+00	 2.512195346010452e+00	 8.735224924874489e+00
 9.704383535426037e-01	 2.534869920186332e+00	 8.595034831038985e+00
 9.129446897346285e-01	 2.556139306907208e+00	 8.443041424161114e+00
 8.552792845798695e-01	 2.576007268633906e+00	 8.271920327560613e+00
 7.974904184726048e-01	 2.594479710539368e+00	 8.077034359541498e+00
 7.396255531271496e-01	 2.611564610227829e+00	 7.876974752698847e+00
 6.817312296917117e-01	 2.627271941546511e+00	 7.688976512617829e+00
 6.238529737679170e-01	 2.641613593124215e+00	 7.515880640494228e+00
 5.660352075820777e-01	 2.654603282281744e+00	 7.363194963351932e+00
 5.064550847153568e-01	 2.375183225610976e+00	 6.970375468998414e+00
 4.548123486330496e-01	 2.385610498113419e+00	 6.858812509527309e+00
 4.033000581248664e-01	 2.394857080991023e+00	 6.760204619861301e+00
 3.519546494680674e-01	 2.402939666261527e+00	 6.674949436721704e+00
 3.008113202743494e-01	 2.409876244677030e+00	 6.596644975826602e+00
 2.499039843133249e-01	 2.415686016457935e+00	 6.522152601552265e+00
 1.992652329695220e-01	 2.420389301253213e+00	 6.453344865827018e+00
 1.489263032066389e-01	 2.424007447828322e+00	 6.394291131656914e+00
 9.891705187560663e-02	 2.426562743955656e+00	 6.349953305339979e+00
 4.926593616964485e-02	 2.428078326953535e+00	 6.325125406975391e+00
 0.000000000000000e+00	 2.428578095288889e+00	 6.323573812086602e+00
 5.124130855329354e-01	 2.403125177491006e+00	 7.149792167579032e+00
 4.601628178586275e-01	 2.413675117728287e+00	 7.054176493495032e+00
 4.080445303364844e-01	 2.423030478560541e+00	 6.971747895329499e+00
 3.560950878846841e-01	 2.431208148372523e+00	 6.901555278620387e+00
 3.043501021840244e-01	 2.438226329561802e+00	 6.837533759434448e+00
 2.528438859699405e-01	 2.444104448222601e+00	 6.777458734529111e+00
 2.016094140360799e-01	 2.448863063046804e+00	 6.724126553804349e+00
 1.506782908216837e-01	 2.452523773949433e+00	 6.682108201329323e+00
 1.000807244174078e-01	 2.455109130899045e+00	 6.656506766422236e+00
 4.984550679044753e-02	 2.456642543404279e+00	 6.651965498198608e+00
 0.000000000000000e+00	 2.457148191076638e+00	 6.671879045151181e+00
 5.183710870451879e-01	 2.431067132630856e+00	 7.287437262769467e+00
 4.655132877080257e-01	 2.441739740617289e+00	 7.201443721255547e+00
 4.127890031012636e-01	 2.451203879416894e+00	 7.128287647715277e+00
 3.602355267840424e-01	 2.459476633781447e+00	 7.066041385694138e+00
 3.078888845063056e-01	 2.466576417754033e+00	 7.009096251351200e+00
 2.557837879693529e-01	 2.472522883302711e+00	 6.956196524232269e+00
 2.039535953759917e-01	 2.477336828162300e+00	 6.911179128600792e+00
 1.524302786410454e-01	 2.481040103397424e+00	 6.879195928161568e+00
 1.012443970949310e-01	 2.483655521172823e+00	 6.865542097427269e+00
 5.042507747885558e-02	 2.485206763187498e+00	 6.874741714621761e+00
 0.000000000000000e+00	 2.485718290197548e+00	 6.909838672899096e+00
 5.243290899473697e-01	 2.459009094290348e+00	 7.384392304383127e+00
 4.708637588056057e-01	 2.469804370054565e+00	 7.301049379355460e+00
 4.175334769728469e-01	 2.479377286846911e+00	 7.229692068155937e+00
 3.643759666492946e-01	 2.487745125786240e+00	 7.167837357792417e+00
 3.114276676541303e-01	 2.494926512561187e+00	 7.110532558663000e+00
 2.587236906546092e-01	 2.500941325013704e+00	 7.057526408280050e+00
 2.062977772627845e-01	 2.505810599921608e+00	 7.013787078342947e+00
 1.541822668691449e-01	 2.509556439499169e+00	 6.985098569950563e+00
 1.024080700439480e-01	 2.512201918107383e+00	 6.976969881682110e+00
 5.100464830248758e-02	 2.513770989635664e+00	 6.993807898214405e+00
 0.000000000000000e+00	 2.514288395984781e+00	 7.038297305138682e+00
 5.302870949347357e-01	 2.486951065729305e+00	 7.441819668495389e+00
 4.762142317757283e-01	 2.497869009314247e+00	 7.353519320202606e+00
 4.222779525048774e-01	 2.507550704137424e+00	 7.275921211609568e+00
 3.685164079635920e-01	 2.516013627684829e+00	 7.206451645746183e+00
 3.149664520404358e-01	 2.523276617290721e+00	 7.141101104239515e+00
 2.616635943687563e-01	 2.529359776671025e+00	 7.080650859153752e+00
 2.086419599699854e-01	 2.534284381646630e+00	 7.031263946545198e+00
 1.559342557104036e-01	 2.538072785581547e+00	 6.999378762894669e+00
 1.035717434002304e-01	 2.540748325033113e+00	 6.990709686444982e+00
 5.158421932896199e-02	 2.542335226081252e+00	 7.009517745609802e+00
 0.000000000000000e+00	 2.542858511771497e+00	 7.058089549555526e+00
 5.362451027025408e-01	 2.514893050207545e+00	 7.460958198347347e+00
 4.815647072427550e-01	 2.525933661670474e+00	 7.359466194515015e+00
 4.270224302509982e-01	 2.535724134575267e+00	 7.267023586274158e+00
 3.726568512100873e-01	 2.544282142775148e+00	 7.181476413451947e+00
 3.185052380781599e-01	 2.551626735250100e+00	 7.100117162693683e+00
 2.646034994548415e-01	 2.557778241590114e+00	 7.024812788418204e+00
 2.109861437711213e-01	 2.562758176659273e+00	 6.962950845182745e+00
 1.576862453692426e-01	 2.566589144971436e+00	 6.921616344266687e+00
 1.047354172995499e-01	 2.569294745280405e+00	 6.906689355978407e+00
 5.216379062589737e-02	 2.570899475856734e+00	 6.922224692797956e+00
 0.000000000000000e+00	 2.571428640890857e+00	 6.970040570428974e+00
 5.422031139460399e-01	 2.542835050984890e+00	 7.443118928564614e+00
 4.869151858310470e-01	 2.553998330397381e+00	 7.319585698183253e+00
 4.317669107648527e-01	 2.563897581447272e+00	 7.203132876552516e+00
 3.767972968719322e-01	 2.572550674355129e+00	 7.092601871851643e+00
 3.220440261802395e-01	 2.579976869746778e+00	 6.986951535741022e+00
 2.675434062559118e-01	 2.586196723086415e+00	 6.889294078866650e+00
 2.133303289397193e-01	 2.591231988281440e+00	 6.808215075851858e+00
 1.594382360500830e-01	 2.595105520995713e+00	 6.752198829008936e+00
 1.058990918776779e-01	 2.597841182179645e+00	 6.728317753876382e+00
 5.274336226091225e-02	 2.599463742294587e+00	 6.738235146197804e+00
 0.000000000000000e+00	 2.599998786676022e+00	 6.781851228046300e+00
 5.481611293604884e-01	 2.570777071321162e+00	 7.389680886349661e+00
 4.922656681649655e-01	 2.582063018769104e+00	 7.234652924837895e+00
 4.365113946000840e-01	 2.592071048040271e+00	 7.084464789401965e+00
 3.809377454322788e-01	 2.600819225722707e+00	 6.947139087588694e+00
 3.255828167596123e-01	 2.608327024088222e+00	 6.830010516732853e+00
 2.704833151150143e-01	 2.614615224475370e+00	 6.732043534670312e+00
 2.156745157493064e-01	 2.619705819835037e+00	 6.657261722047418e+00
 1.611902279573460e-01	 2.623621916981256e+00	 6.608859303489527e+00
 1.070627672703864e-01	 2.626387639061227e+00	 6.588884805825412e+00
 5.332293430162512e-02	 2.628028028727284e+00	 6.598084932019036e+00
 0.000000000000000e+00	 2.628568952460155e+00	 6.635773779229327e+00
 5.541191496411407e-01	 2.598719114476180e+00	 7.305402703137740e+00
 4.976161548688717e-01	 2.610127730059779e+00	 7.135343858962973e+00
 4.412558823103349e-01	 2.620244537641096e+00	 6.991441063112798e+00
 3.850781973742792e-01	 2.629087800175812e+00	 6.870604435835379e+00
 3.291216102292158e-01	 2.636677201581889e+00	 6.768652414378916e+00
 2.734232263751963e-01	 2.643033749072420e+00	 6.683419676025935e+00
 2.180187044734096e-01	 2.648179674641970e+00	 6.618099099011788e+00
 1.629422212954528e-01	 2.652138336254944e+00	 6.575140005958730e+00
 1.082264436134467e-01	 2.654934119255541e+00	 6.555882024864765e+00
 5.390250681565453e-02	 2.656592338487296e+00	 6.560440606565824e+00
 0.000000000000000e+00	 2.657139141576415e+00	 6.587612842056934e+00
 5.600771754832523e-01	 2.626661183709768e+00	 7.283318031634692e+00
 5.029666465671266e-01	 2.638192467543541e+00	 7.133211237524728e+00
 4.460003744492487e-01	 2.648418053536581e+00	 7.008715011946107e+00
 3.892186531810850e-01	 2.657356401012376e+00	 6.905753974300749e+00
 3.326604070019871e-01	 2.665027405535240e+00	 6.819401595552687e+00
 2.763631403795047e-01	 2.671452300193008e+00	 6.746474285499930e+00
 2.203628953855560e-01	 2.676653556024145e+00	 6.689334907043854e+00
 1.646942162688246e-01	 2.680654782143652e+00	 6.649711827147507e+00
 1.093901210426304e-01	 2.683480626092976e+00	 6.628266808862024e+00
 5.448207987061898e-02	 2.685156674907101e+00	 6.624525766459169e+00
 0.000000000000000e+00	 2.685709357357963e+00	 6.636824291382474e+00
 5.660352075820777e-01	 2.654603282281744e+00	 7.363194963351932e+00
 5.083171438840919e-01	 2.666257234494528e+00	 7.236458510635122e+00
 4.507448715704687e-01	 2.676591599013558e+00	 7.133803147304314e+00
 3.933591133358485e-01	 2.685625031530334e+00	 7.050244472741894e+00
 3.361992074908640e-01	 2.693377639255737e+00	 6.980134789175691e+00
 2.793030574709868e-01	 2.699870881152578e+00	 6.919339058187779e+00
 2.227070887592726e-01	 2.705127467303463e+00	 6.869379359057616e+00
 1.664462130818825e-01	 2.709171257974259e+00	 6.831271119391198e+00
 1.105537996937094e-01	 2.712027162903924e+00	 6.805013734264993e+00
 5.506165353413702e-02	 2.713721041319171e+00	 6.789570444407476e+00
 0.000000000000000e+00	 2.714279603137963e+00	 6.782856939629720e+00
 2.714279603137963e+00	 0.000000000000000e+00	 1.119549619346186e+01
 2.713721041319172e+00	 5.506165353413778e-02	 1.121002528555982e+01
 2.712027162903924e+00	 1.105537996937102e-01	 1.122091543271418e+01
 2.709171257974258e+00	 1.664462130818831e-01	 1.123037993042674e+01
 2.705127467303463e+00	 2.227070887592731e-01	 1.124107493606199e+01
 2.699870881152579e+00	 2.793030574709873e-01	 1.125617735440817e+01
 2.693377639255736e+00	 3.361992074908643e-01	 1.127945676029018e+01
 2.685625031530335e+00	 3.933591133358488e-01	 1.131353428919184e+01
 2.676591599013558e+00	 4.507448715704688e-01	 1.134561351260021e+01
 2.666257234494528e+00	 5.083171438840918e-01	 1.137325684288181e+01
 2.654603282281744e+00	 5.660352075820778e-01	 1.139768255415310e+01
 2.742851877825675e+00	 0.000000000000000e+00	 1.114632167230168e+01
 2.742287436221420e+00	 5.564126835592091e-02	 1.115518525771366e+01
 2.740575726938856e+00	 1.117175609831433e-01	 1.116340442845315e+01
 2.737689758894032e+00	 1.681983343126097e-01	 1.117252758912056e+01
 2.733603400649181e+00	 2.250514486054194e-01	 1.118456678931464e+01
 2.728291480249215e+00	 2.822431833401569e-01	 1.120208603835918e+01
 2.721729886259573e+00	 3.397382592870820e-01	 1.122828675980546e+01
 2.713895669536539e+00	 3.974998675247676e-01	 1.126484673033603e+01
 2.704767145226286e+00	 4.554897056214811e-01	 1.129972237843375e+01
 2.694323994456344e+00	 5.136680211658977e-01	 1.133120671182838e+01
 2.682547365153264e+00	 5.719936627897573e-01	 1.136023087931141e+01
 2.771424162515437e+00	 0.000000000000000e+00	 1.110630756093448e+01
 2.770853841123658e+00	 5.622088338061570e-02	 1.111013175056279e+01
 2.769124300967523e+00	 1.128813226800115e-01	 1.111563625744541e+01
 2.766208269797004e+00	 1.699504561567912e-01	 1.112384119098655e+01
 2.762079343963179e+00	 2.273958092724149e-01	 1.113623852908487e+01
 2.756712089294741e+00	 2.851833102388183e-01	 1.115488984394150e+01
 2.750082143188358e+00	 3.432773123225488e-01	 1.118252460347582e+01
 2.742166317439112e+00	 4.016406231636693e-01	 1.122000758462839e+01
 2.732942701302091e+00	 4.602345413340415e-01	 1.125633375182566e+01
 2.722390764243160e+00	 5.190189003214988e-01	 1.129037354454781e+01
 2.710491457806852e+00	 5.779521200840059e-01	 1.132284747492123e+01
 2.799996433873020e+00	 0.000000000000000e+00	 1.107373538441720e+01
 2.799420232696467e+00	 5.680049813486707e-02	 1.107355015043299e+01
 2.797672861675099e+00	 1.140450838338928e-01	 1.107668372950297e+01
 2.794726767392933e+00	 1.717025771834883e-01	 1.108376226499307e+01
 2.790555273990032e+00	 2.297401688456291e-01	 1.109587858723308e+01
 2.785132685078988e+00	 2.881234357657633e-01	 1.111469833042719e+01
 2.778434386887803e+00	 3.468163637068937e-01	 1.114257041623891e+01
 2.770436952150479e+00	 4.057813768707506e-01	 1.117969572014972e+01
 2.761118244231120e+00	 4.649793748329736e-01	 1.121631431554844e+01
 2.750457520934027e+00	 5.243697769807446e-01	 1.125175155239512e+01
 2.738435537421798e+00	 5.839105745984499e-01	 1.128659017426555e+01
 2.828568668564200e+00	 0.000000000000000e+00	 1.104708371762088e+01
 2.827986587610429e+00	 5.738011214531988e-02	 1.104427228501239e+01
 2.826221385746751e+00	 1.152088434943652e-01	 1.104572081382608e+01
 2.823245228391587e+00	 1.734546959617626e-01	 1.105179370360296e+01
 2.819031167474320e+00	 2.320845254104313e-01	 1.106330255933911e+01
 2.813553244391778e+00	 2.910635575197821e-01	 1.108161967572753e+01
 2.806786594203621e+00	 3.503554105497452e-01	 1.110880005723539e+01
 2.798707550583070e+00	 4.099221252642087e-01	 1.114454290410451e+01
 2.789293751003527e+00	 4.697242022431014e-01	 1.118046603167608e+01
 2.778524241607999e+00	 5.297206467734847e-01	 1.121625707629149e+01
 2.766379581177402e+00	 5.898690214667162e-01	 1.125243023027424e+01
 2.857140843254746e+00	 0.000000000000000e+00	 1.102501832559545e+01
 2.856552882536130e+00	 5.795972493861903e-02	 1.102126816921014e+01
 2.854769849867655e+00	 1.163726007110071e-01	 1.102201596554817e+01
 2.851763629502726e+00	 1.752068110606750e-01	 1.102749463726105e+01
 2.847507001160619e+00	 2.344288770521907e-01	 1.103834958580010e+01
 2.841973744022938e+00	 2.940036730996659e-01	 1.105575851354462e+01
 2.835138741981524e+00	 3.538944499607315e-01	 1.108156435262445e+01
 2.826978089649308e+00	 4.140628649622402e-01	 1.111513356824581e+01
 2.817469198609460e+00	 4.744690196892485e-01	 1.114952692408874e+01
 2.806590903344127e+00	 5.350715053295687e-01	 1.118473027184891e+01
 2.794323566252953e+00	 5.958274558224311e-01	 1.122125478010665e+01
 2.885712934610430e+00	 0.000000000000000e+00	 1.100638288744073e+01
 2.885119094144152e+00	 5.853933604140941e-02	 1.100363824221795e+01
 2.883318230722977e+00	 1.175363545333963e-01	 1.100492585745938e+01
 2.880281947436114e+00	 1.769589210492869e-01	 1.101047563473656e+01
 2.875982751793506e+00	 2.367732218562765e-01	 1.102087898656846e+01
 2.870394160762297e+00	 2.969437801042061e-01	 1.103721395945337e+01
 2.863490807067224e+00	 3.574334790494816e-01	 1.106118846051048e+01
 2.855248546261620e+00	 4.182035925830417e-01	 1.109200465801417e+01
 2.845644564039071e+00	 4.792138232962388e-01	 1.112417190482193e+01
 2.834657483221469e+00	 5.404223482788464e-01	 1.115793680738898e+01
 2.822267469827745e+00	 6.017858727992217e-01	 1.119386930088633e+01
 2.914284919297025e+00	 0.000000000000000e+00	 1.099019026368598e+01
 2.913685199105079e+00	 5.911894498033595e-02	 1.099060606212378e+01
 2.911866504997891e+00	 1.187001040111111e-01	 1.099388948917018e+01
 2.908800158901512e+00	 1.787110244966592e-01	 1.100039420702637e+01
 2.904458396117560e+00	 2.391175579080580e-01	 1.101076713218707e+01
 2.898814471399680e+00	 2.998838761321934e-01	 1.102607781300394e+01
 2.891842766306433e+00	 3.609724949256239e-01	 1.104797135895586e+01
 2.883518897332431e+00	 4.223443047448103e-01	 1.107564555970126e+01
 2.873819824282509e+00	 4.839586091888963e-01	 1.110501364129728e+01
 2.862723958319076e+00	 5.457731712511673e-01	 1.113656957400607e+01
 2.850211269081071e+00	 6.077442675307140e-01	 1.117100005721702e+01
 2.942856773980304e+00	 0.000000000000000e+00	 1.097561427028353e+01
 2.942251174089493e+00	 5.969855128204353e-02	 1.098151142703890e+01
 2.940414649377568e+00	 1.198638481937295e-01	 1.098842264812698e+01
 2.937318240608683e+00	 1.804631199718533e-01	 1.099695059425407e+01
 2.932933910877357e+00	 2.414618832929044e-01	 1.100790453512419e+01
 2.927234652724914e+00	 3.028239587824190e-01	 1.102243292393346e+01
 2.920194596544863e+00	 3.645114946987866e-01	 1.104218544875235e+01
 2.911789119774170e+00	 4.264849980657429e-01	 1.106649810038737e+01
 2.901994956329924e+00	 4.887033734920443e-01	 1.109260346169931e+01
 2.890790305716005e+00	 5.511239698763812e-01	 1.112125040688714e+01
 2.878154941192225e+00	 6.137026351505349e-01	 1.115329654105567e+01
 2.971428475326038e+00	 0.000000000000000e+00	 1.096337678840698e+01
 2.970816995767978e+00	 6.027815447317704e-02	 1.097696729927097e+01
 2.968962640547179e+00	 1.210275861308298e-01	 1.098876467298232e+01
 2.965836169267390e+00	 1.822152060439302e-01	 1.100002505067177e+01
 2.961409272817476e+00	 2.438061960961850e-01	 1.101219314663743e+01
 2.955654681527824e+00	 3.057640256536739e-01	 1.102635171148872e+01
 2.948546274628227e+00	 3.680504754785986e-01	 1.104407626326009e+01
 2.940059190499261e+00	 4.306256691640361e-01	 1.106495661580303e+01
 2.930169937171467e+00	 4.934481123305068e-01	 1.108743229596892e+01
 2.918856502491305e+00	 5.564747397843377e-01	 1.111253181715666e+01
 2.906098463340500e+00	 6.196609707923111e-01	 1.114133390446857e+01
 3.000000000000000e+00	 0.000000000000000e+00	 1.097473573202672e+01
 2.999382640811117e+00	 6.085775408038134e-02	 1.099751053421426e+01
 2.997510455191895e+00	 1.221913168719899e-01	 1.101391291687290e+01
 2.994353921587397e+00	 1.839672812819512e-01	 1.102584429224984e+01
 2.989884458682492e+00	 2.461504944032691e-01	 1.103536519585433e+01
 2.984074534598237e+00	 3.087040743447489e-01	 1.104476643251092e+01
 2.976897777402236e+00	 3.715894343746882e-01	 1.105667067006767e+01
 2.968329086420133e+00	 4.347663146578870e-01	 1.107175451758878e+01
 2.958344743797289e+00	 4.981928218291077e-01	 1.108993165007373e+01
 2.946922525724032e+00	 5.618254766048862e-01	 1.111089873356654e+01
 2.934041812705189e+00	 6.256192695896690e-01	 1.113561538575139e+01
 2.654603282281744e+00	 5.660352075820778e-01	 1.139768255415310e+01
 2.641613593124215e+00	 6.238529737679167e-01	 1.142131926982795e+01
 2.627271941546510e+00	 6.817312296917112e-01	 1.144757564856991e+01
 2.611564610227829e+00	 7.396255531271493e-01	 1.147847708723991e+01
 2.594479710539368e+00	 7.974904184726043e-01	 1.151249279602199e+01
 2.576007268633907e+00	 8.552792845798692e-01	 1.155007671328747e+01
 2.556139306907209e+00	 9.129446897346282e-01	 1.159360724124763e+01
 2.534869920186331e+00	 9.704383535426029e-01	 1.163988879648772e+01
 2.512195346010452e+00	 1.027711285412123e+00	 1.168408452315575e+01
 2.488114028387177e+00	 1.084713899260560e+00	 1.171993596847403e+01
 2.462626674431372e+00	 1.141396134009372e+00	 1.174334879527075e+01
 2.682547365153264e+00	 5.719936627897573e-01	 1.136023087931141e+01
 2.669420938068522e+00	 6.304200564347944e-01	 1.138860805287435e+01
 2.654928316926766e+00	 6.889075765721560e-01	 1.141909860211578e+01
 2.639055640009740e+00	 7.474113333582350e-01	 1.145346745677354e+01
 2.621790893541192e+00	 8.058853219592611e-01	 1.148931372849143e+01
 2.603123998682685e+00	 8.642825113045790e-01	 1.152565623908620e+01
 2.583046893852523e+00	 9.225549400669463e-01	 1.156377530512991e+01
 2.561553611716062e+00	 9.806538196211996e-01	 1.160580237892248e+01
 2.538640350206366e+00	 1.038529643668781e+00	 1.164743789541868e+01
 2.514305536951647e+00	 1.096132304151652e+00	 1.168194355042056e+01
 2.488549886510319e+00	 1.153411213015744e+00	 1.170729930173109e+01
 2.710491457806852e+00	 5.779521200840059e-01	 1.132284747492123e+01
 2.697228292747057e+00	 6.369871414013679e-01	 1.135500363780704e+01
 2.682584701988438e+00	 6.960839259656322e-01	 1.138896434919507e+01
 2.666546679415236e+00	 7.551971163157337e-01	 1.142613409295786e+01
 2.649102086103694e+00	 8.142802283855918e-01	 1.146349543632042e+01
 2.630240738224124e+00	 8.732857411819323e-01	 1.150058401938951e+01
 2.609954490217336e+00	 9.321651937644131e-01	 1.153799102696374e+01
 2.588237312586964e+00	 9.908692892768077e-01	 1.157530751544869e+01
 2.565085363659939e+00	 1.049348005713495e+00	 1.161265913892624e+01
 2.540497054685070e+00	 1.107550713040843e+00	 1.164465707814596e+01
 2.514473107664317e+00	 1.165426296229068e+00	 1.167185552120203e+01
 2.738435537421798e+00	 5.839105745984499e-01	 1.128659017426555e+01
 2.725035634450825e+00	 6.435542233041899e-01	 1.132158647291456e+01
 2.710241074145860e+00	 7.032602720111059e-01	 1.135825892256200e+01
 2.694037705993698e+00	 7.629828956408922e-01	 1.139755943877841e+01
 2.676413265923144e+00	 8.226751308953841e-01	 1.143610552147904e+01
 2.657357465113304e+00	 8.822889668589189e-01	 1.147382859731882e+01
 2.636862074027531e+00	 9.417754429782883e-01	 1.151116883349863e+01
 2.614921001007762e+00	 1.001084754166442e+00	 1.154753950737367e+01
 2.591530364774811e+00	 1.060166362710937e+00	 1.158101632563824e+01
 2.566688560198091e+00	 1.118969116602790e+00	 1.160936821805890e+01
 2.540396316723103e+00	 1.177441373836758e+00	 1.163779228920263e+01
 2.766379581177402e+00	 5.898690214667162e-01	 1.125243023027424e+01
 2.752842940470832e+00	 6.501212967798133e-01	 1.128934501783882e+01
 2.737897410813357e+00	 7.104366088475412e-01	 1.132797304520585e+01
 2.721528697294512e+00	 7.707686649749571e-01	 1.136873481297368e+01
 2.703724410695819e+00	 8.310700226324271e-01	 1.140811520079860e+01
 2.684474157205309e+00	 8.912921809825295e-01	 1.144631656618770e+01
 2.663769623308991e+00	 9.513856798598325e-01	 1.148362898306108e+01
 2.641604655187179e+00	 1.011300205947116e+00	 1.151937166423975e+01
 2.617975331954621e+00	 1.070984705825776e+00	 1.155157316387012e+01
 2.592880032101356e+00	 1.130387505512155e+00	 1.157745628101578e+01
 2.566319492516415e+00	 1.189456436026221e+00	 1.160573008726317e+01
 2.794323566252953e+00	 5.958274558224311e-01	 1.122125478010665e+01
 2.780650188098085e+00	 6.566883564647906e-01	 1.125917890953420e+01
 2.765553689405261e+00	 7.176129306139045e-01	 1.129900596711955e+01
 2.749019630867062e+00	 7.785544179591756e-01	 1.134056191657300e+01
 2.731035498117990e+00	 8.394648967405084e-01	 1.138040221753994e+01
 2.711590792355224e+00	 9.002953761997534e-01	 1.141887837569187e+01
 2.690677116087596e+00	 9.609958965603048e-01	 1.145613083188290e+01
 2.668288253333938e+00	 1.021515636275842e+00	 1.149138433332546e+01
 2.644420243603010e+00	 1.081803026222685e+00	 1.152262283213306e+01
 2.619071449005510e+00	 1.141805870443596e+00	 1.154815733767392e+01
 2.592242613873987e+00	 1.201471472984867e+00	 1.157613512273100e+01
 2.822267469827745e+00	 6.017858727992217e-01	 1.119386930088633e+01
 2.808457354623588e+00	 6.632553969956749e-01	 1.123190210391185e+01
 2.793209887335901e+00	 7.247892314491612e-01	 1.127216926546265e+01
 2.776510484260732e+00	 7.863401482347941e-01	 1.131385536747032e+01
 2.758346505885930e+00	 8.478597463634167e-01	 1.135375370132982e+01
 2.738707348418127e+00	 9.092985451575804e-01	 1.139225146766941e+01
 2.717584530389229e+00	 9.706060852309656e-01	 1.142933936475485e+01
 2.694971773656761e+00	 1.031731036809634e+00	 1.146414693964798e+01
 2.670865078123617e+00	 1.092621315066335e+00	 1.149461254355553e+01
 2.645262789521202e+00	 1.153224202071776e+00	 1.152033351390439e+01
 2.618165659625559e+00	 1.213486474900108e+00	 1.154857047589104e+01
 2.850211269081071e+00	 6.077442675307140e-01	 1.117100005721702e+01
 2.836264417338346e+00	 6.698224130090182e-01	 1.120824599484527e+01
 2.820865982019607e+00	 7.319655054922766e-01	 1.124819061062147e+01
 2.804001235024908e+00	 7.941258494430601e-01	 1.128934519236214e+01
 2.785657411695913e+00	 8.562545646449402e-01	 1.132886898002879e+01
 2.765823803249103e+00	 9.183016805030012e-01	 1.136708336133066e+01
 2.744491844239771e+00	 9.802162380230749e-01	 1.140382850443847e+01
 2.721655194364371e+00	 1.041946399205505e+00	 1.143813757785654e+01
 2.697309813920081e+00	 1.103439563521397e+00	 1.146790217726232e+01
 2.671454032259074e+00	 1.164642491071353e+00	 1.149401979106780e+01
 2.644088608600867e+00	 1.225501431959353e+00	 1.152221892660903e+01
 2.878154941192225e+00	 6.137026351505349e-01	 1.115329654105567e+01
 2.864071353533365e+00	 6.763893991413740e-01	 1.118886251207670e+01
 2.848521950870707e+00	 7.391417468822162e-01	 1.122771750046746e+01
 2.831491860708973e+00	 8.019115152252198e-01	 1.126767927896827e+01
 2.812968193244212e+00	 8.646493447288669e-01	 1.130636234681346e+01
 2.792940134703233e+00	 9.273047748830046e-01	 1.134393469140365e+01
 2.771399035665106e+00	 9.898263470878927e-01	 1.138008437444233e+01
 2.748338493665494e+00	 1.052161715120468e+00	 1.141374645074079e+01
 2.723754429396043e+00	 1.114257762752542e+00	 1.144277498712336e+01
 2.697645155829776e+00	 1.176060728116987e+00	 1.146917526490454e+01
 2.670011439629645e+00	 1.237516334350012e+00	 1.149686959330561e+01
 2.906098463340500e+00	 6.196609707923111e-01	 1.114133390446857e+01
 2.891878140499650e+00	 6.829563500292942e-01	 1.117432719943987e+01
 2.876177771303532e+00	 7.463179497579450e-01	 1.121130133110837e+01
 2.858982338862312e+00	 8.096971392225202e-01	 1.124942579122616e+01
 2.840278828227100e+00	 8.730440797589853e-01	 1.128676578549987e+01
 2.820056320635602e+00	 9.363078209445818e-01	 1.132328220237110e+01
 2.798306082691114e+00	 9.994364045766783e-01	 1.135850851830448e+01
 2.775021649768851e+00	 1.062376976211536e+00	 1.139127926719309e+01
 2.750198902955143e+00	 1.125075903924441e+00	 1.141955434313588e+01
 2.723836138843952e+00	 1.187478903883339e+00	 1.144569142404442e+01
 2.695934131541633e+00	 1.249531172259495e+00	 1.147225443031549e+01
 2.934041812705189e+00	 6.256192695896690e-01	 1.113561538575139e+01
 2.919684755528207e+00	 6.895232603093321e-01	 1.116514227470061e+01
 2.903833420732411e+00	 7.534941082584290e-01	 1.119940436511920e+01
 2.886472647034307e+00	 8.174827150762080e-01	 1.123507554994084e+01
 2.867589294340849e+00	 8.814387628790836e-01	 1.127053165689966e+01
 2.847172338901289e+00	 9.453108113347218e-01	 1.130552170172892e+01
 2.825212963343676e+00	 1.009046402640692e+00	 1.133942107827827e+01
 2.801704640883166e+00	 1.072592174135724e+00	 1.137096060232211e+01
 2.776643213001019e+00	 1.135893978201766e+00	 1.139827651576102e+01
 2.750026959912248e+00	 1.198897009045067e+00	 1.142340040292021e+01
 2.721856663166569e+00	 1.261545935875212e+00	 1.144805678183213e+01
 2.462626674431372e+00	 1.141396134009372e+00	 1.174334879527075e+01
 2.435734374483759e+00	 1.197711504630270e+00	 1.176839181281888e+01
 2.407444249741307e+00	 1.253605378785728e+00	 1.179624579094019e+01
 2.377764074730168e+00	 1.309027017072203e+00	 1.182177338765146e+01
 2.346704032686388e+00	 1.363925734021101e+00	 1.183888605242095e+01
 2.314276728999100e+00	 1.418251039050627e+00	 1.184039726785100e+01
 2.280497194858377e+00	 1.471952779417934e+00	 1.181786030151901e+01
 2.245382880867588e+00	 1.524981284382777e+00	 1.177611839467024e+01
 2.208953640452497e+00	 1.577287509765193e+00	 1.173944636487265e+01
 2.171231702975119e+00	 1.628823182058370e+00	 1.171045071760312e+01
 2.132241636539099e+00	 1.679540941244555e+00	 1.168411484765916e+01
 2.488549886510319e+00	 1.153411213015744e+00	 1.170729930173109e+01
 2.461374500700741e+00	 1.210319395901076e+00	 1.173560500236248e+01
 2.432786575682229e+00	 1.266801645374579e+00	 1.176599221144750e+01
 2.402793967820667e+00	 1.322806687916729e+00	 1.179304508524216e+01
 2.371406967547471e+00	 1.378283304510704e+00	 1.181037344961143e+01
 2.338638312944310e+00	 1.433180473077991e+00	 1.181045162059560e+01
 2.304503193429349e+00	 1.487447512935333e+00	 1.178466596069792e+01
 2.269019243302375e+00	 1.541034230475954e+00	 1.174769042001694e+01
 2.232206524979234e+00	 1.593891065248936e+00	 1.171414216181478e+01
 2.194087501822687e+00	 1.645969235589125e+00	 1.168507743132238e+01
 2.154687000556232e+00	 1.697220882936404e+00	 1.165886059991810e+01
 2.514473107664317e+00	 1.165426296229068e+00	 1.167185552120203e+01
 2.487014635893677e+00	 1.222927291586337e+00	 1.170278706909709e+01
 2.458128910494850e+00	 1.279997916583831e+00	 1.173537415619846e+01
 2.427823869673475e+00	 1.336586363585857e+00	 1.176389528275229e+01
 2.396109911056378e+00	 1.392640880027180e+00	 1.178163420006456e+01
 2.362999905417818e+00	 1.448109912332382e+00	 1.178070354472880e+01
 2.328509200404110e+00	 1.502942251877612e+00	 1.175453293608117e+01
 2.292655614011522e+00	 1.557087182189377e+00	 1.172254840733986e+01
 2.255459417646065e+00	 1.610494626545629e+00	 1.169218174342147e+01
 2.216943308671327e+00	 1.663115295122688e+00	 1.166379702483502e+01
 2.177132372430755e+00	 1.714900830817902e+00	 1.163698780910553e+01
 2.540396316723103e+00	 1.177441373836758e+00	 1.163779228920263e+01
 2.512654759123475e+00	 1.235535181389375e+00	 1.167053362642908e+01
 2.483471233483257e+00	 1.293194181636343e+00	 1.170483043185603e+01
 2.452853759847808e+00	 1.350366032826049e+00	 1.173462992985788e+01
 2.420812843039327e+00	 1.406998448845093e+00	 1.175286710977013e+01
 2.387361486524589e+00	 1.463039344621394e+00	 1.175127236307244e+01
 2.352515196178001e+00	 1.518436983590756e+00	 1.172737018533374e+01
 2.316291973692227e+00	 1.573140126413210e+00	 1.169987494711851e+01
 2.278712299463350e+00	 1.627098180095813e+00	 1.167234465051842e+01
 2.239799104855674e+00	 1.680261346656600e+00	 1.164542764427050e+01
 2.199577733832486e+00	 1.732580770450609e+00	 1.161777325519908e+01
 2.566319492516415e+00	 1.189456436026221e+00	 1.160573008726318e+01
 2.538294849451038e+00	 1.248143055013508e+00	 1.163928390652803e+01
 2.508813523951538e+00	 1.306390429754976e+00	 1.167464104241146e+01
 2.477883617902889e+00	 1.364145684383770e+00	 1.170539339787818e+01
 2.445515743322527e+00	 1.421355999239007e+00	 1.172410633273124e+01
 2.411723036369591e+00	 1.477968757752624e+00	 1.172210944650027e+01
 2.376521161146365e+00	 1.533931695420751e+00	 1.170229689898726e+01
 2.339928303041685e+00	 1.589193050037611e+00	 1.167870037714002e+01
 2.301965151441442e+00	 1.643701712340028e+00	 1.165357725789835e+01
 2.262654871710365e+00	 1.697407376188397e+00	 1.162790081543593e+01
 2.222023066431244e+00	 1.750260687396087e+00	 1.160022405052129e+01
 2.592242613873987e+00	 1.201471472984867e+00	 1.157613512273100e+01
 2.563934885937270e+00	 1.260750902162059e+00	 1.160932047024827e+01
 2.534155761203776e+00	 1.319586650162588e+00	 1.164492652948356e+01
 2.502913423397936e+00	 1.377925307005482e+00	 1.167616745268867e+01
 2.470218591732199e+00	 1.435713519483486e+00	 1.169521998095907e+01
 2.436084535057787e+00	 1.492898139533666e+00	 1.169344369086407e+01
 2.400527075704543e+00	 1.549426374713581e+00	 1.167829058833105e+01
 2.363564582757095e+00	 1.605245939952743e+00	 1.165792153346971e+01
 2.325217954590701e+00	 1.660305209718816e+00	 1.163469751378366e+01
 2.285510590570032e+00	 1.714553369715621e+00	 1.160991835530501e+01
 2.244468351896848e+00	 1.767940567215896e+00	 1.158258064424706e+01
 2.618165659625559e+00	 1.213486474900108e+00	 1.154857047589104e+01
 2.589574847643078e+00	 1.273358712538348e+00	 1.158076891161726e+01
 2.559497924544063e+00	 1.332782832082043e+00	 1.161564731997299e+01
 2.527943155892171e+00	 1.391704889437650e+00	 1.164677024672548e+01
 2.494921368094554e+00	 1.450070997853094e+00	 1.166590876418916e+01
 2.460445962694142e+00	 1.507827477772114e+00	 1.166558128305395e+01
 2.424532920247879e+00	 1.564921008815234e+00	 1.165420557444824e+01
 2.387200793535648e+00	 1.621298783048765e+00	 1.163632055197981e+01
 2.348470689921484e+00	 1.676908658672717e+00	 1.161441396503309e+01
 2.308366242769312e+00	 1.731699313235809e+00	 1.159011314253465e+01
 2.266913571899115e+00	 1.785620395471597e+00	 1.156288455595017e+01
 2.644088608600867e+00	 1.225501431959353e+00	 1.152221892660903e+01
 2.615214713629361e+00	 1.285966475845695e+00	 1.155338611368920e+01
 2.584839993276486e+00	 1.345978964736199e+00	 1.158660308082160e+01
 2.552972794944812e+00	 1.405484420426736e+00	 1.161685532904731e+01
 2.519624052235810e+00	 1.464428422622396e+00	 1.163570465757884e+01
 2.484807299383624e+00	 1.522756760275565e+00	 1.163738210854707e+01
 2.448538675171715e+00	 1.580415585071693e+00	 1.162879151770181e+01
 2.410836916074547e+00	 1.637351566215838e+00	 1.161258371658170e+01
 2.371723338444147e+00	 1.693512045642273e+00	 1.159134483416180e+01
 2.331221809642839e+00	 1.748845192746502e+00	 1.156702985265651e+01
 2.289358708107865e+00	 1.803300157724750e+00	 1.153960243385145e+01
 2.670011439629645e+00	 1.237516334350012e+00	 1.149686959330561e+01
 2.640854462957027e+00	 1.298574181787421e+00	 1.152655422162244e+01
 2.610181946705129e+00	 1.359175037347917e+00	 1.155747336097592e+01
 2.578002320115080e+00	 1.419263888719204e+00	 1.158591067250302e+01
 2.544326623982183e+00	 1.478785782065955e+00	 1.160396959578181e+01
 2.509168525231197e+00	 1.537685974851613e+00	 1.160755875238002e+01
 2.472544320871394e+00	 1.595910090828944e+00	 1.160071198451068e+01
 2.434472931070984e+00	 1.653404276344124e+00	 1.158532035057340e+01
 2.394975881169049e+00	 1.710115357068024e+00	 1.156403714424071e+01
 2.354077272525247e+00	 1.765990994245237e+00	 1.153914422243188e+01
 2.311803742192918e+00	 1.820979839536917e+00	 1.151113072921880e+01
 2.695934131541633e+00	 1.249531172259495e+00	 1.147225443031549e+01
 2.666494074686979e+00	 1.311181820066847e+00	 1.149983055463357e+01
 2.635523764134081e+00	 1.372371039140056e+00	 1.152783866514789e+01
 2.603031710962195e+00	 1.433043283061517e+00	 1.155331297283633e+01
 2.569029063159884e+00	 1.493143064458336e+00	 1.157004158577430e+01
 2.533529620341829e+00	 1.552615109307854e+00	 1.157474359162410e+01
 2.496549837742257e+00	 1.611404513432974e+00	 1.156856304846539e+01
 2.458108819222157e+00	 1.669456900323784e+00	 1.155308174775417e+01
 2.418228299106545e+00	 1.726718579390510e+00	 1.153098588800899e+01
 2.376932612751173e+00	 1.783136703729554e+00	 1.150488236185515e+01
 2.334248655824089e+00	 1.838659426469659e+00	 1.147581502642003e+01
 2.721856663166569e+00	 1.261545935875212e+00	 1.144805678183213e+01
 2.692133527880121e+00	 1.323789380387294e+00	 1.147273742453664e+01
 2.660865424867430e+00	 1.385566959335477e+00	 1.149706672668773e+01
 2.628060947045375e+00	 1.446822592200139e+00	 1.151872753877361e+01
 2.593731349595132e+00	 1.507500258074103e+00	 1.153301513690135e+01
 2.557890564820481e+00	 1.567544151451882e+00	 1.153750700460052e+01
 2.520555206179647e+00	 1.626898840229767e+00	 1.153089192302419e+01
 2.481744561225260e+00	 1.685509425044976e+00	 1.151438014018069e+01
 2.441480573266995e+00	 1.743321699050274e+00	 1.149065323777902e+01
 2.399787811655251e+00	 1.800282307196992e+00	 1.146264011016577e+01
 2.356693430671200e+00	 1.856338904084535e+00	 1.143194912686712e+01
 2.132241636539099e+00	 1.679540941244555e+00	 1.168411484765916e+01
 2.092010294611598e+00	 1.729394486149908e+00	 1.165087076982685e+01
 2.050566740675642e+00	 1.778338726150545e+00	 1.160108288274476e+01
 2.007942198727287e+00	 1.826329900817930e+00	 1.152607496099982e+01
 1.964169982378769e+00	 1.873325704286316e+00	 1.141922055038462e+01
 1.919285408855514e+00	 1.919285408855514e+00	 1.130149865520851e+01
 1.873325704286315e+00	 1.964169982378770e+00	 1.118391107364296e+01
 1.826329900817930e+00	 2.007942198727288e+00	 1.107212789485691e+01
 1.778338726150545e+00	 2.050566740675643e+00	 1.096721187988268e+01
 1.729394486149908e+00	 2.092010294611599e+00	 1.086364486149970e+01
 1.679540941244554e+00	 2.132241636539099e+00	 1.075421514537485e+01
 2.154687000556232e+00	 1.697220882936404e+00	 1.165886059991810e+01
 2.114032157324117e+00	 1.747599218720644e+00	 1.162601582283802e+01
 2.072152341550526e+00	 1.797058677664684e+00	 1.157642336199050e+01
 2.029079105915645e+00	 1.845555038689207e+00	 1.150026483478111e+01
 1.984846114712501e+00	 1.893045550589358e+00	 1.139806641848230e+01
 1.939489056938643e+00	 1.939489056938644e+00	 1.128816424978282e+01
 1.893045550589357e+00	 1.984846114712501e+00	 1.117712588522787e+01
 1.845555038689206e+00	 2.029079105915646e+00	 1.106992340393437e+01
 1.797058677664683e+00	 2.072152341550527e+00	 1.096848934824713e+01
 1.747599218720643e+00	 2.114032157324117e+00	 1.086722627870582e+01
 1.697220882936404e+00	 2.154687000556232e+00	 1.075741922729562e+01
 2.177132372430755e+00	 1.714900830817902e+00	 1.163698780910553e+01
 2.136054027745782e+00	 1.765803957664680e+00	 1.160409623877746e+01
 2.093737949981860e+00	 1.815778635732420e+00	 1.155445048536972e+01
 2.050216020503416e+00	 1.864780183290866e+00	 1.147787640951243e+01
 2.005522254284388e+00	 1.912765403795904e+00	 1.138276202611756e+01
 1.959692712094582e+00	 1.959692712094583e+00	 1.127958866974279e+01
 1.912765403795903e+00	 2.005522254284389e+00	 1.117419036818285e+01
 1.864780183290866e+00	 2.050216020503417e+00	 1.107098735273589e+01
 1.815778635732420e+00	 2.093737949981861e+00	 1.097168147816951e+01
 1.765803957664680e+00	 2.136054027745783e+00	 1.087151111269194e+01
 1.714900830817901e+00	 2.177132372430755e+00	 1.076027371769651e+01
 2.199577733832486e+00	 1.732580770450609e+00	 1.161777325519908e+01
 2.158075887892273e+00	 1.784008688115020e+00	 1.158444149105468e+01
 2.115323548341607e+00	 1.834498585066010e+00	 1.153458781624818e+01
 2.071352925229002e+00	 1.884005318922602e+00	 1.146036703916838e+01
 2.026198384209138e+00	 1.932485247801634e+00	 1.137143730120988e+01
 1.979896357823901e+00	 1.979896357823902e+00	 1.127401864008578e+01
 1.932485247801634e+00	 2.026198384209139e+00	 1.117347584975867e+01
 1.884005318922602e+00	 2.071352925229002e+00	 1.107374504726868e+01
 1.834498585066010e+00	 2.115323548341608e+00	 1.097589281943190e+01
 1.784008688115019e+00	 2.158075887892273e+00	 1.087589117144151e+01
 1.732580770450609e+00	 2.199577733832486e+00	 1.076249696389902e+01
 2.222023066431244e+00	 1.750260687396087e+00	 1.160022405052129e+01
 2.180097719779265e+00	 1.802213395204665e+00	 1.156611108416341e+01
 2.136909119001727e+00	 1.853218510377706e+00	 1.151599273381439e+01
 2.092489802830801e+00	 1.903230429884105e+00	 1.144582396065691e+01
 2.046874487601458e+00	 1.952205066502230e+00	 1.136206499127691e+01
 2.000099977627176e+00	 2.000099977627177e+00	 1.126953536024945e+01
 1.952205066502228e+00	 2.046874487601458e+00	 1.117317667477676e+01
 1.903230429884105e+00	 2.092489802830802e+00	 1.107650006841851e+01
 1.853218510377705e+00	 2.136909119001728e+00	 1.097996341079438e+01
 1.802213395204664e+00	 2.180097719779266e+00	 1.087950175301457e+01
 1.750260687396087e+00	 2.222023066431245e+00	 1.076355993186118e+01
 2.244468351896848e+00	 1.767940567215896e+00	 1.158258064424706e+01
 2.202119505422439e+00	 1.820418064066620e+00	 1.154789746718694e+01
 2.158494644334184e+00	 1.871938396379762e+00	 1.149824901049895e+01
 2.113626636047216e+00	 1.922455500475067e+00	 1.143198368472391e+01
 2.067550547576051e+00	 1.971924843793370e+00	 1.135248513243714e+01
 2.020303555004978e+00	 2.020303555004979e+00	 1.126407849485962e+01
 1.971924843793369e+00	 2.067550547576051e+00	 1.117133360627833e+01
 1.922455500475066e+00	 2.113626636047217e+00	 1.107740246581234e+01
 1.871938396379762e+00	 2.158494644334184e+00	 1.098227695763916e+01
 1.820418064066618e+00	 2.202119505422440e+00	 1.088121353135610e+01
 1.767940567215896e+00	 2.244468351896848e+00	 1.076322784347508e+01
 2.266913571899115e+00	 1.785620395471597e+00	 1.156288455595017e+01
 2.224141226837471e+00	 1.838622679833886e+00	 1.152832647242253e+01
 2.180080106710937e+00	 1.890658227784433e+00	 1.147975688012679e+01
 2.134763407616645e+00	 1.941680514995179e+00	 1.141648014660941e+01
 2.088226547247623e+00	 1.991644563570736e+00	 1.134042958289966e+01
 2.040507073457881e+00	 2.040507073457882e+00	 1.125547022677760e+01
 1.991644563570735e+00	 2.088226547247624e+00	 1.116585728550615e+01
 1.941680514995178e+00	 2.134763407616646e+00	 1.107445662943677e+01
 1.890658227784431e+00	 2.180080106710939e+00	 1.098087518117888e+01
 1.838622679833885e+00	 2.224141226837473e+00	 1.087961982272714e+01
 1.785620395471597e+00	 2.266913571899115e+00	 1.075962326624494e+01
 2.289358708107865e+00	 1.803300157724750e+00	 1.153960243385145e+01
 2.246162866040040e+00	 1.856827227639467e+00	 1.150533930216787e+01
 2.201665488503951e+00	 1.909377989303971e+00	 1.145796499436276e+01
 2.155900100277489e+00	 1.960905457744132e+00	 1.139686966164790e+01
 2.108902469730882e+00	 2.011364209730009e+00	 1.132354661592809e+01
 2.060710516486458e+00	 2.060710516486459e+00	 1.124143936760914e+01
 2.011364209730009e+00	 2.108902469730882e+00	 1.115455174661517e+01
 1.960905457744131e+00	 2.155900100277490e+00	 1.106554410314004e+01
 1.909377989303969e+00	 2.201665488503952e+00	 1.097372815826326e+01
 1.856827227639466e+00	 2.246162866040041e+00	 1.087204111697677e+01
 1.803300157724751e+00	 2.289358708107865e+00	 1.074951766370713e+01
 2.311803742192918e+00	 1.820979839536917e+00	 1.151113072921880e+01
 2.268184405045823e+00	 1.875031692616365e+00	 1.147681325745373e+01
 2.223250772085186e+00	 1.928097665650631e+00	 1.143027108498906e+01
 2.177036696768149e+00	 1.980130313021617e+00	 1.137065593679994e+01
 2.129578298140533e+00	 2.031083766166870e+00	 1.129942556759872e+01
 2.080913867591281e+00	 2.080913867591282e+00	 1.121964552115650e+01
 2.031083766166869e+00	 2.129578298140534e+00	 1.113513798181227e+01
 1.980130313021617e+00	 2.177036696768150e+00	 1.104844644543767e+01
 1.928097665650630e+00	 2.223250772085187e+00	 1.095868292876193e+01
 1.875031692616365e+00	 2.268184405045824e+00	 1.085469327413354e+01
 1.820979839536918e+00	 2.311803742192917e+00	 1.072969561164177e+01
 2.334248655824089e+00	 1.838659426469659e+00	 1.147581502642003e+01
 2.290205825870498e+00	 1.893236059897584e+00	 1.144052679592050e+01
 2.244835939826603e+00	 1.946817241536666e+00	 1.139393871241930e+01
 2.198173179827025e+00	 1.999355065127327e+00	 1.133531513364400e+01
 2.150254015591281e+00	 2.050803216776998e+00	 1.126562153497580e+01
 2.101117110272924e+00	 2.101117110272925e+00	 1.118770329558774e+01
 2.050803216776997e+00	 2.150254015591281e+00	 1.110527755290188e+01
 1.999355065127326e+00	 2.198173179827026e+00	 1.102086813384887e+01
 1.946817241536665e+00	 2.244835939826604e+00	 1.093176079718610e+01
 1.893236059897583e+00	 2.290205825870499e+00	 1.082424751887966e+01
 1.838659426469659e+00	 2.334248655824089e+00	 1.069697833436632e+01
 2.356693430671200e+00	 1.856338904084535e+00	 1.143194912686712e+01
 2.312227110529743e+00	 1.911440314616127e+00	 1.139432529730585e+01
 2.266420974100166e+00	 1.965536701674331e+00	 1.134657492754726e+01
 2.219309532192518e+00	 2.018579698360952e+00	 1.128832097864111e+01
 2.170929605197832e+00	 2.070522545456074e+00	 1.121968012060514e+01
 2.121320228031960e+00	 2.121320228031961e+00	 1.114320656036439e+01
 2.070522545456073e+00	 2.170929605197832e+00	 1.106259624546731e+01
 2.018579698360951e+00	 2.219309532192519e+00	 1.098045950922728e+01
 1.965536701674330e+00	 2.266420974100166e+00	 1.088876065799824e+01
 1.911440314616125e+00	 2.312227110529744e+00	 1.077761808281336e+01
 1.856338904084535e+00	 2.356693430671200e+00	 1.064824444549385e+01
 1.679540941244554e+00	 2.132241636539099e+00	 1.075421514537485e+01
 1.628823182058369e+00	 2.171231702975121e+00	 1.062647034750104e+01
 1.577287509765192e+00	 2.208953640452497e+00	 1.046680635043016e+01
 1.524981284382777e+00	 2.245382880867589e+00	 1.027270867687270e+01
 1.471952779417933e+00	 2.280497194858376e+00	 1.006919277143361e+01
 1.418251039050626e+00	 2.314276728999100e+00	 9.869962710784838e+00
 1.363925734021100e+00	 2.346704032686388e+00	 9.679447213710834e+00
 1.309027017072202e+00	 2.377764074730169e+00	 9.498885976502351e+00
 1.253605378785727e+00	 2.407444249741308e+00	 9.328721762192455e+00
 1.197711504630269e+00	 2.435734374483761e+00	 9.168364784746366e+00
 1.141396134009372e+00	 2.462626674431371e+00	 9.016096939384294e+00
 1.697220882936404e+00	 2.154687000556232e+00	 1.075741922729562e+01
 1.645969235589124e+00	 2.194087501822688e+00	 1.062525523261291e+01
 1.593891065248935e+00	 2.232206524979235e+00	 1.045705176901267e+01
 1.541034230475953e+00	 2.269019243302375e+00	 1.026615730744461e+01
 1.487447512935332e+00	 2.304503193429349e+00	 1.006837966087081e+01
 1.433180473077990e+00	 2.338638312944310e+00	 9.875077545754735e+00
 1.378283304510703e+00	 2.371406967547471e+00	 9.692673486125846e+00
 1.322806687916728e+00	 2.402793967820668e+00	 9.521809207881635e+00
 1.266801645374578e+00	 2.432786575682230e+00	 9.362151712949913e+00
 1.210319395901075e+00	 2.461374500700741e+00	 9.212180896913498e+00
 1.153411213015743e+00	 2.488549886510319e+00	 9.069093531922904e+00
 1.714900830817901e+00	 2.177132372430755e+00	 1.076027371769651e+01
 1.663115295122688e+00	 2.216943308671328e+00	 1.062278908428562e+01
 1.610494626545628e+00	 2.255459417646066e+00	 1.045270353693648e+01
 1.557087182189377e+00	 2.292655614011522e+00	 1.026617226548066e+01
 1.502942251877611e+00	 2.328509200404111e+00	 1.007375256972210e+01
 1.448109912332381e+00	 2.362999905417819e+00	 9.885942120973112e+00
 1.392640880027179e+00	 2.396109911056379e+00	 9.710712405782710e+00
 1.336586363585856e+00	 2.427823869673474e+00	 9.548364318730707e+00
 1.279997916583830e+00	 2.458128910494850e+00	 9.397603511517206e+00
 1.222927291586336e+00	 2.487014635893678e+00	 9.255772210056159e+00
 1.165426296229068e+00	 2.514473107664317e+00	 9.118753379591528e+00
 1.732580770450609e+00	 2.199577733832486e+00	 1.076249696389902e+01
 1.680261346656599e+00	 2.239799104855675e+00	 1.062066167502283e+01
 1.627098180095812e+00	 2.278712299463350e+00	 1.045299386707920e+01
 1.573140126413209e+00	 2.316291973692227e+00	 1.027037927127793e+01
 1.518436983590755e+00	 2.352515196178001e+00	 1.008304749638627e+01
 1.463039344621393e+00	 2.387361486524590e+00	 9.900699471179866e+00
 1.406998448845092e+00	 2.420812843039327e+00	 9.731954035929354e+00
 1.350366032826049e+00	 2.452853759847808e+00	 9.577191538542110e+00
 1.293194181636342e+00	 2.483471233483258e+00	 9.433972446038275e+00
 1.235535181389374e+00	 2.512654759123476e+00	 9.298294453047882e+00
 1.177441373836758e+00	 2.540396316723104e+00	 9.164497179051954e+00
 1.750260687396087e+00	 2.222023066431245e+00	 1.076355993186118e+01
 1.697407376188397e+00	 2.262654871710365e+00	 1.062079159937620e+01
 1.643701712340027e+00	 2.301965151441443e+00	 1.045522795197133e+01
 1.589193050037610e+00	 2.339928303041686e+00	 1.027626885240513e+01
 1.533931695420750e+00	 2.376521161146365e+00	 1.009393424857447e+01
 1.477968757752622e+00	 2.411723036369591e+00	 9.917307954804025e+00
 1.421355999239006e+00	 2.445515743322528e+00	 9.754603548135606e+00
 1.364145684383770e+00	 2.477883617902889e+00	 9.606748151193578e+00
 1.306390429754974e+00	 2.508813523951537e+00	 9.469975097861473e+00
 1.248143055013507e+00	 2.538294849451039e+00	 9.338731259583078e+00
 1.189456436026221e+00	 2.566319492516415e+00	 9.205582541304565e+00
 1.767940567215896e+00	 2.244468351896848e+00	 1.076322784347508e+01
 1.714553369715621e+00	 2.285510590570033e+00	 1.062036493338143e+01
 1.660305209718815e+00	 2.325217954590701e+00	 1.045661464058542e+01
 1.605245939952741e+00	 2.363564582757094e+00	 1.028121583101689e+01
 1.549426374713580e+00	 2.400527075704543e+00	 1.010394849112016e+01
 1.492898139533665e+00	 2.436084535057786e+00	 9.933446660451633e+00
 1.435713519483485e+00	 2.470218591732198e+00	 9.776688533440716e+00
 1.377925307005482e+00	 2.502913423397936e+00	 9.635314713097664e+00
 1.319586650162587e+00	 2.534155761203776e+00	 9.504154456036471e+00
 1.260750902162058e+00	 2.563934885937272e+00	 9.375898180783619e+00
 1.201471472984867e+00	 2.592242613873987e+00	 9.241106915807858e+00
 1.785620395471597e+00	 2.266913571899115e+00	 1.075962326624494e+01
 1.731699313235809e+00	 2.308366242769312e+00	 1.061635356661603e+01
 1.676908658672716e+00	 2.348470689921484e+00	 1.045428736470750e+01
 1.621298783048764e+00	 2.387200793535650e+00	 1.028249884820372e+01
 1.564921008815232e+00	 2.424532920247879e+00	 1.011050978114691e+01
 1.507827477772113e+00	 2.460445962694143e+00	 9.946472884623507e+00
 1.450070997853093e+00	 2.494921368094555e+00	 9.796066380775251e+00
 1.391704889437649e+00	 2.527943155892171e+00	 9.661001353158495e+00
 1.332782832082043e+00	 2.559497924544064e+00	 9.534885130224055e+00
 1.273358712538347e+00	 2.589574847643077e+00	 9.408446814598369e+00
 1.213486474900108e+00	 2.618165659625560e+00	 9.269747547044672e+00
 1.803300157724751e+00	 2.289358708107865e+00	 1.074951766370713e+01
 1.748845192746501e+00	 2.331221809642839e+00	 1.060569724168042e+01
 1.693512045642272e+00	 2.371723338444148e+00	 1.044532509614685e+01
 1.637351566215838e+00	 2.410836916074548e+00	 1.027731992240168e+01
 1.580415585071692e+00	 2.448538675171716e+00	 1.011093964354657e+01
 1.522756760275564e+00	 2.484807299383625e+00	 9.953826706675674e+00
 1.464428422622395e+00	 2.519624052235811e+00	 9.810431718002585e+00
 1.405484420426735e+00	 2.552972794944813e+00	 9.681754148924348e+00
 1.345978964736198e+00	 2.584839993276485e+00	 9.560378655303818e+00
 1.285966475845694e+00	 2.615214713629362e+00	 9.432381179797206e+00
 1.225501431959353e+00	 2.644088608600866e+00	 9.287898639597584e+00
 1.820979839536918e+00	 2.311803742192917e+00	 1.072969561164177e+01
 1.765990994245236e+00	 2.354077272525248e+00	 1.058532583494373e+01
 1.710115357068023e+00	 2.394975881169049e+00	 1.042677333216831e+01
 1.653404276344124e+00	 2.434472931070984e+00	 1.026282403907624e+01
 1.595910090828944e+00	 2.472544320871394e+00	 1.010247968361229e+01
 1.537685974851612e+00	 2.509168525231198e+00	 9.952855974209273e+00
 1.478785782065954e+00	 2.544326623982182e+00	 9.817323911264696e+00
 1.419263888719203e+00	 2.578002320115081e+00	 9.695361573741422e+00
 1.359175037347916e+00	 2.610181946705129e+00	 9.576168557766669e+00
 1.298574181787420e+00	 2.640854462957027e+00	 9.440716691554995e+00
 1.237516334350012e+00	 2.670011439629645e+00	 9.291178417609999e+00
 1.838659426469659e+00	 2.334248655824089e+00	 1.069697833436632e+01
 1.783136703729553e+00	 2.376932612751174e+00	 1.055218166301051e+01
 1.726718579390510e+00	 2.418228299106547e+00	 1.039566510669131e+01
 1.669456900323783e+00	 2.458108819222157e+00	 1.023611876907215e+01
 1.611404513432974e+00	 2.496549837742258e+00	 1.008230973387689e+01
 1.552615109307853e+00	 2.533529620341830e+00	 9.940823615352095e+00
 1.493143064458335e+00	 2.569029063159885e+00	 9.814062883090468e+00
 1.433043283061517e+00	 2.603031710962195e+00	 9.698341670146709e+00
 1.372371039140055e+00	 2.635523764134081e+00	 9.571888395321812e+00
 1.311181820066846e+00	 2.666494074686979e+00	 9.429320008125064e+00
 1.249531172259495e+00	 2.695934131541634e+00	 9.275323258641711e+00
 1.856338904084535e+00	 2.356693430671200e+00	 1.064824444549385e+01
 1.800282307196991e+00	 2.399787811655252e+00	 1.050324181255415e+01
 1.743321699050273e+00	 2.441480573266996e+00	 1.034904202494687e+01
 1.685509425044975e+00	 2.481744561225262e+00	 1.019429391318038e+01
 1.626898840229767e+00	 2.520555206179648e+00	 1.004756603239666e+01
 1.567544151451881e+00	 2.557890564820482e+00	 9.914924293307516e+00
 1.507500258074102e+00	 2.593731349595132e+00	 9.797767575360753e+00
 1.446822592200138e+00	 2.628060947045376e+00	 9.678317855917260e+00
 1.385566959335476e+00	 2.660865424867431e+00	 9.543304554172790e+00
 1.323789380387293e+00	 2.692133527880121e+00	 9.394229970719847e+00
 1.261545935875211e+00	 2.721856663166568e+00	 9.236190650213342e+00
 1.141396134009372e+00	 2.462626674431371e+00	 9.016096939384292e+00
 1.084713899260560e+00	 2.488114028387177e+00	 8.872512939529333e+00
 1.027711285412124e+00	 2.512195346010452e+00	 8.735224924874490e+00
 9.704383535426037e-01	 2.534869920186332e+00	 8.595034831038985e+00
 9.129446897346285e-01	 2.556139306907208e+00	 8.443041424161114e+00
 8.552792845798695e-01	 2.576007268633906e+00	 8.271920327560613e+00
 7.974904184726048e-01	 2.594479710539368e+00	 8.077034359541498e+00
 7.396255531271496e-01	 2.611564610227829e+00	 7.876974752698847e+00
 6.817312296917117e-01	 2.627271941546511e+00	 7.688976512617829e+00
 6.238529737679170e-01	 2.641613593124215e+00	 7.515880640494230e+00
 5.660352075820777e-01	 2.654603282281744e+00	 7.363194963351932e+00
 1.153411213015743e+00	 2.488549886510319e+00	 9.069093531922904e+00
 1.096132304151653e+00	 2.514305536951647e+00	 8.932457131466487e+00
 1.038529643668782e+00	 2.538640350206366e+00	 8.798987059347324e+00
 9.806538196211997e-01	 2.561553611716062e+00	 8.657071633139267e+00
 9.225549400669467e-01	 2.583046893852523e+00	 8.495522859527775e+00
 8.642825113045792e-01	 2.603123998682685e+00	 8.309365244462342e+00
 8.058853219592614e-01	 2.621790893541192e+00	 8.119749083723827e+00
 7.474113333582352e-01	 2.639055640009739e+00	 7.938167610586907e+00
 6.889075765721564e-01	 2.654928316926766e+00	 7.771083179940825e+00
 6.304200564347948e-01	 2.669420938068521e+00	 7.620321634107562e+00
 5.719936627897573e-01	 2.682547365153263e+00	 7.490572856018999e+00
 1.165426296229068e+00	 2.514473107664317e+00	 9.118753379591526e+00
 1.107550713040843e+00	 2.540497054685070e+00	 8.984556913438393e+00
 1.049348005713496e+00	 2.565085363659938e+00	 8.848651971048263e+00
 9.908692892768083e-01	 2.588237312586964e+00	 8.697034523653034e+00
 9.321651937644133e-01	 2.609954490217335e+00	 8.524745054698649e+00
 8.732857411819326e-01	 2.630240738224123e+00	 8.347023614326831e+00
 8.142802283855920e-01	 2.649102086103693e+00	 8.171214386298349e+00
 7.551971163157343e-01	 2.666546679415236e+00	 8.005147908259502e+00
 6.960839259656327e-01	 2.682584701988438e+00	 7.855170959430396e+00
 6.369871414013685e-01	 2.697228292747056e+00	 7.722325181279887e+00
 5.779521200840056e-01	 2.710491457806851e+00	 7.610393628112384e+00
 1.177441373836758e+00	 2.540396316723104e+00	 9.164497179051956e+00
 1.118969116602790e+00	 2.566688560198090e+00	 9.028585751412720e+00
 1.060166362710937e+00	 2.591530364774810e+00	 8.884254839229552e+00
 1.001084754166443e+00	 2.614921001007763e+00	 8.725145879378669e+00
 9.417754429782889e-01	 2.636862074027531e+00	 8.559108483517065e+00
 8.822889668589196e-01	 2.657357465113304e+00	 8.390969316964867e+00
 8.226751308953847e-01	 2.676413265923144e+00	 8.226799200574710e+00
 7.629828956408925e-01	 2.694037705993697e+00	 8.073493452697226e+00
 7.032602720111061e-01	 2.710241074145860e+00	 7.937089148072552e+00
 6.435542233041903e-01	 2.725035634450824e+00	 7.818041609557989e+00
 5.839105745984499e-01	 2.738435537421798e+00	 7.719150141306690e+00
 1.189456436026221e+00	 2.566319492516415e+00	 9.205582541304565e+00
 1.130387505512155e+00	 2.592880032101355e+00	 9.064163668101665e+00
 1.070984705825776e+00	 2.617975331954621e+00	 8.913481059062189e+00
 1.011300205947117e+00	 2.641604655187179e+00	 8.756856562535706e+00
 9.513856798598330e-01	 2.663769623308992e+00	 8.596529786125563e+00
 8.912921809825299e-01	 2.684474157205309e+00	 8.436495179494790e+00
 8.310700226324278e-01	 2.703724410695819e+00	 8.281950420456594e+00
 7.707686649749577e-01	 2.721528697294512e+00	 8.138853425123028e+00
 7.104366088475417e-01	 2.737897410813356e+00	 8.012756028838171e+00
 6.501212967798137e-01	 2.752842940470832e+00	 7.903685297680358e+00
 5.898690214667162e-01	 2.766379581177402e+00	 7.813393627755344e+00
 1.201471472984867e+00	 2.592242613873987e+00	 9.241106915807858e+00
 1.141805870443597e+00	 2.619071449005510e+00	 9.094369087575762e+00
 1.081803026222685e+00	 2.644420243603010e+00	 8.942303509714462e+00
 1.021515636275843e+00	 2.668288253333937e+00	 8.787783325061909e+00
 9.609958965603054e-01	 2.690677116087596e+00	 8.632280506140503e+00
 9.002953761997537e-01	 2.711590792355224e+00	 8.478974499240289e+00
 8.394648967405088e-01	 2.731035498117989e+00	 8.332190320547475e+00
 7.785544179591759e-01	 2.749019630867061e+00	 8.196946702241924e+00
 7.176129306139051e-01	 2.765553689405261e+00	 8.078155369976402e+00
 6.566883564647911e-01	 2.780650188098084e+00	 7.975531399831427e+00
 5.958274558224310e-01	 2.794323566252952e+00	 7.889730725959888e+00
 1.213486474900108e+00	 2.618165659625560e+00	 9.269747547044672e+00
 1.153224202071776e+00	 2.645262789521201e+00	 9.119336194045895e+00
 1.092621315066336e+00	 2.670865078123616e+00	 8.966032661275049e+00
 1.031731036809634e+00	 2.694971773656760e+00	 8.813229216492195e+00
 9.706060852309664e-01	 2.717584530389229e+00	 8.661715088612512e+00
 9.092985451575809e-01	 2.738707348418127e+00	 8.513858777593732e+00
 8.478597463634172e-01	 2.758346505885931e+00	 8.373114163600563e+00
 7.863401482347945e-01	 2.776510484260732e+00	 8.243559417554442e+00
 7.247892314491617e-01	 2.793209887335901e+00	 8.129333098449065e+00
 6.632553969956754e-01	 2.808457354623588e+00	 8.029912731415177e+00
 6.017858727992216e-01	 2.822267469827745e+00	 7.944820661569966e+00
 1.225501431959353e+00	 2.644088608600866e+00	 9.287898639597584e+00
 1.164642491071353e+00	 2.671454032259074e+00	 9.134451193200835e+00
 1.103439563521397e+00	 2.697309813920080e+00	 8.980053542277044e+00
 1.041946399205505e+00	 2.721655194364372e+00	 8.828582741214852e+00
 9.802162380230754e-01	 2.744491844239772e+00	 8.680268992296241e+00
 9.183016805030014e-01	 2.765823803249103e+00	 8.536675628893331e+00
 8.562545646449404e-01	 2.785657411695913e+00	 8.400387982439034e+00
 7.941258494430604e-01	 2.804001235024908e+00	 8.274542692871119e+00
 7.319655054922770e-01	 2.820865982019606e+00	 8.162394135573273e+00
 6.698224130090188e-01	 2.836264417338346e+00	 8.063216805282122e+00
 6.077442675307141e-01	 2.850211269081071e+00	 7.975372563185830e+00
 1.237516334350012e+00	 2.670011439629645e+00	 9.291178417609999e+00
 1.176060728116987e+00	 2.697645155829775e+00	 9.135204875887169e+00
 1.114257762752542e+00	 2.723754429396043e+00	 8.979841770665661e+00
 1.052161715120468e+00	 2.748338493665494e+00	 8.829316403691573e+00
 9.898263470878931e-01	 2.771399035665106e+00	 8.683456962053706e+00
 9.273047748830050e-01	 2.792940134703233e+00	 8.543026852391163e+00
 8.646493447288673e-01	 2.812968193244213e+00	 8.409746524466193e+00
 8.019115152252200e-01	 2.831491860708972e+00	 8.285810528445985e+00
 7.391417468822166e-01	 2.848521950870707e+00	 8.173499383867785e+00
 6.763893991413744e-01	 2.864071353533365e+00	 8.071883008202619e+00
 6.137026351505350e-01	 2.878154941192225e+00	 7.978142904002814e+00
 1.249531172259495e+00	 2.695934131541634e+00	 9.275323258641711e+00
 1.187478903883339e+00	 2.723836138843952e+00	 9.117194682766094e+00
 1.125075903924442e+00	 2.750198902955142e+00	 8.960983648928551e+00
 1.062376976211537e+00	 2.775021649768851e+00	 8.810985397025130e+00
 9.994364045766789e-01	 2.798306082691113e+00	 8.666871450570506e+00
 9.363078209445824e-01	 2.820056320635602e+00	 8.528586656301037e+00
 8.730440797589859e-01	 2.840278828227099e+00	 8.396991347800292e+00
 8.096971392225207e-01	 2.858982338862311e+00	 8.273337841038103e+00
 7.463179497579456e-01	 2.876177771303533e+00	 8.158879952852759e+00
 6.829563500292947e-01	 2.891878140499650e+00	 8.052399908166704e+00
 6.196609707923111e-01	 2.906098463340500e+00	 7.949933060844666e+00
 1.261545935875211e+00	 2.721856663166568e+00	 9.236190650213342e+00
 1.198897009045068e+00	 2.750026959912248e+00	 9.076126882223104e+00
 1.135893978201766e+00	 2.776643213001019e+00	 8.919103473074028e+00
 1.072592174135724e+00	 2.801704640883166e+00	 8.769226425261218e+00
 1.009046402640692e+00	 2.825212963343676e+00	 8.626181179384737e+00
 9.453108113347223e-01	 2.847172338901289e+00	 8.489100023753862e+00
 8.814387628790844e-01	 2.867589294340849e+00	 8.357989058899150e+00
 8.174827150762084e-01	 2.886472647034307e+00	 8.233158640021575e+00
 7.534941082584296e-01	 2.903833420732411e+00	 8.114829069658734e+00
 6.895232603093325e-01	 2.919684755528207e+00	 8.001302683806616e+00
 6.256192695896691e-01	 2.934041812705189e+00	 7.887586982776789e+00
 5.660352075820777e-01	 2.654603282281744e+00	 7.363194963351932e+00
 5.083171438840919e-01	 2.666257234494528e+00	 7.236458510635124e+00
 4.507448715704687e-01	 2.676591599013558e+00	 7.133803147304312e+00
 3.933591133358485e-01	 2.685625031530334e+00	 7.050244472741894e+00
 3.361992074908640e-01	 2.693377639255737e+00	 6.980134789175691e+00
 2.793030574709868e-01	 2.699870881152578e+00	 6.919339058187777e+00
 2.227070887592726e-01	 2.705127467303463e+00	 6.869379359057616e+00
 1.664462130818825e-01	 2.709171257974259e+00	 6.831271119391198e+00
 1.105537996937094e-01	 2.712027162903924e+00	 6.805013734264992e+00
 5.506165353413702e-02	 2.713721041319171e+00	 6.789570444407474e+00
 0.000000000000000e+00	 2.714279603137963e+00	 6.782856939629720e+00
 5.719936627897573e-01	 2.682547365153263e+00	 7.490572856018999e+00
 5.136680211658977e-01	 2.694323994456344e+00	 7.385970937722277e+00
 4.554897056214809e-01	 2.704767145226286e+00	 7.303371356141596e+00
 3.974998675247675e-01	 2.713895669536539e+00	 7.237139250444613e+00
 3.397382592870816e-01	 2.721729886259573e+00	 7.181115557493256e+00
 2.822431833401565e-01	 2.728291480249215e+00	 7.130442678192856e+00
 2.250514486054188e-01	 2.733603400649181e+00	 7.085945299314464e+00
 1.681983343126092e-01	 2.737689758894032e+00	 7.048074248847838e+00
 1.117175609831426e-01	 2.740575726938856e+00	 7.016312581362303e+00
 5.564126835592013e-02	 2.742287436221420e+00	 6.989208203775792e+00
 0.000000000000000e+00	 2.742851877825675e+00	 6.964408737831414e+00
 5.779521200840056e-01	 2.710491457806851e+00	 7.610393628112385e+00
 5.190189003214988e-01	 2.722390764243159e+00	 7.522247533955416e+00
 4.602345413340413e-01	 2.732942701302091e+00	 7.453907025203883e+00
 4.016406231636690e-01	 2.742166317439112e+00	 7.399520051893616e+00
 3.432773123225485e-01	 2.750082143188358e+00	 7.352803095945585e+00
 2.851833102388180e-01	 2.756712089294742e+00	 7.308562826859029e+00
 2.273958092724144e-01	 2.762079343963179e+00	 7.267217106122978e+00
 1.699504561567906e-01	 2.766208269797002e+00	 7.228933965750695e+00
 1.128813226800108e-01	 2.769124300967523e+00	 7.192950091817829e+00
 5.622088338061494e-02	 2.770853841123657e+00	 7.157659576486958e+00
 0.000000000000000e+00	 2.771424162515437e+00	 7.120698046502993e+00
 5.839105745984499e-01	 2.738435537421798e+00	 7.719150141306690e+00
 5.243697769807446e-01	 2.750457520934027e+00	 7.642171843048253e+00
 4.649793748329735e-01	 2.761118244231120e+00	 7.582729398366309e+00
 4.057813768707506e-01	 2.770436952150481e+00	 7.535168380692700e+00
 3.468163637068934e-01	 2.778434386887803e+00	 7.493457072417153e+00
 2.881234357657628e-01	 2.785132685078988e+00	 7.452435339665659e+00
 2.297401688456286e-01	 2.790555273990032e+00	 7.412382551146794e+00
 1.717025771834877e-01	 2.794726767392933e+00	 7.373439077347366e+00
 1.140450838338920e-01	 2.797672861675099e+00	 7.334839362528781e+00
 5.680049813486627e-02	 2.799420232696466e+00	 7.295060518929844e+00
 0.000000000000000e+00	 2.799996433873020e+00	 7.251959027627377e+00
 5.898690214667162e-01	 2.766379581177402e+00	 7.813393627755344e+00
 5.297206467734846e-01	 2.778524241607998e+00	 7.742678750416025e+00
 4.697242022431012e-01	 2.789293751003527e+00	 7.687200453053482e+00
 4.099221252642085e-01	 2.798707550583069e+00	 7.641898660721051e+00
 3.503554105497448e-01	 2.806786594203621e+00	 7.601358030570668e+00
 2.910635575197816e-01	 2.813553244391778e+00	 7.560805054467037e+00
 2.320845254104308e-01	 2.819031167474320e+00	 7.520627312204743e+00
 1.734546959617620e-01	 2.823245228391588e+00	 7.481165926318954e+00
 1.152088434943645e-01	 2.826221385746753e+00	 7.441871327662957e+00
 5.738011214531907e-02	 2.827986587610429e+00	 7.401515753480148e+00
 0.000000000000000e+00	 2.828568668564200e+00	 7.358386133971161e+00
 5.958274558224310e-01	 2.794323566252952e+00	 7.889730725959886e+00
 5.350715053295687e-01	 2.806590903344128e+00	 7.820751934223596e+00
 4.744690196892485e-01	 2.817469198609460e+00	 7.764722867753252e+00
 4.140628649622399e-01	 2.826978089649308e+00	 7.717556788433770e+00
 3.538944499607313e-01	 2.835138741981524e+00	 7.674806719066608e+00
 2.940036730996656e-01	 2.841973744022940e+00	 7.632425689341568e+00
 2.344288770521901e-01	 2.847507001160618e+00	 7.591135401014650e+00
 1.752068110606744e-01	 2.851763629502726e+00	 7.551679332613921e+00
 1.163726007110063e-01	 2.854769849867654e+00	 7.513916142680101e+00
 5.795972493861824e-02	 2.856552882536130e+00	 7.477100487886587e+00
 0.000000000000000e+00	 2.857140843254746e+00	 7.440136023460337e+00
 6.017858727992216e-01	 2.822267469827745e+00	 7.944820661569966e+00
 5.404223482788464e-01	 2.834657483221469e+00	 7.873421439577038e+00
 4.792138232962388e-01	 2.845644564039071e+00	 7.812738085576843e+00
 4.182035925830415e-01	 2.855248546261619e+00	 7.760018750520571e+00
 3.574334790494814e-01	 2.863490807067225e+00	 7.712123453563253e+00
 2.969437801042057e-01	 2.870394160762298e+00	 7.666059720372851e+00
 2.367732218562759e-01	 2.875982751793507e+00	 7.623089559361380e+00
 1.769589210492862e-01	 2.880281947436113e+00	 7.584533475123289e+00
 1.175363545333956e-01	 2.883318230722978e+00	 7.550824484073020e+00
 5.853933604140862e-02	 2.885119094144152e+00	 7.521862032201662e+00
 0.000000000000000e+00	 2.885712934610430e+00	 7.497329360301389e+00
 6.077442675307141e-01	 2.850211269081071e+00	 7.975372563185830e+00
 5.457731712511672e-01	 2.862723958319077e+00	 7.897761367419142e+00
 4.839586091888960e-01	 2.873819824282508e+00	 7.828724467284371e+00
 4.223443047448102e-01	 2.883518897332431e+00	 7.767189302437350e+00
 3.609724949256235e-01	 2.891842766306433e+00	 7.711647509242239e+00
 2.998838761321929e-01	 2.898814471399680e+00	 7.660478259359136e+00
 2.391175579080574e-01	 2.904458396117561e+00	 7.615671625845810e+00
 1.787110244966586e-01	 2.908800158901511e+00	 7.579272717313696e+00
 1.187001040111104e-01	 2.911866504997892e+00	 7.552428770597873e+00
 5.911894498033515e-02	 2.913685199105079e+00	 7.535821320273521e+00
 0.000000000000000e+00	 2.914284919297025e+00	 7.530052510610188e+00
 6.137026351505350e-01	 2.878154941192225e+00	 7.978142904002814e+00
 5.511239698763812e-01	 2.890790305716005e+00	 7.890887670346247e+00
 4.887033734920441e-01	 2.901994956329924e+00	 7.810195527700877e+00
 4.264849980657427e-01	 2.911789119774170e+00	 7.737000703676780e+00
 3.645114946987863e-01	 2.920194596544864e+00	 7.671736541778252e+00
 3.028239587824185e-01	 2.927234652724913e+00	 7.614460931448191e+00
 2.414618832929038e-01	 2.932933910877357e+00	 7.568062875203456e+00
 1.804631199718526e-01	 2.937318240608683e+00	 7.535432380613064e+00
 1.198638481937288e-01	 2.940414649377569e+00	 7.518544311314965e+00
 5.969855128204272e-02	 2.942251174089492e+00	 7.518974342272340e+00
 0.000000000000000e+00	 2.942856773980304e+00	 7.538359139709348e+00
 6.196609707923111e-01	 2.906098463340500e+00	 7.949933060844666e+00
 5.564747397843377e-01	 2.918856502491305e+00	 7.849956048162081e+00
 4.934481123305067e-01	 2.930169937171466e+00	 7.754698249919545e+00
 4.306256691640359e-01	 2.940059190499261e+00	 7.667411505961456e+00
 3.680504754785983e-01	 2.948546274628228e+00	 7.590766034832997e+00
 3.057640256536733e-01	 2.955654681527824e+00	 7.526795752695552e+00
 2.438061960961845e-01	 2.961409272817476e+00	 7.479444332029448e+00
 1.822152060439296e-01	 2.965836169267391e+00	 7.451787578688683e+00
 1.210275861308290e-01	 2.968962640547180e+00	 7.445510285444843e+00
 6.027815447317621e-02	 2.970816995767978e+00	 7.465141798225295e+00
 0.000000000000000e+00	 2.971428475326038e+00	 7.514932188129364e+00
 6.256192695896691e-01	 2.934041812705189e+00	 7.887586982776789e+00
 5.618254766048861e-01	 2.946922525724032e+00	 7.772159936532452e+00
 4.981928218291077e-01	 2.958344743797289e+00	 7.659811472113237e+00
 4.347663146578867e-01	 2.968329086420132e+00	 7.554298720825360e+00
 3.715894343746878e-01	 2.976897777402236e+00	 7.451869550693274e+00
 3.087040743447485e-01	 2.984074534598237e+00	 7.359024717973671e+00
 2.461504944032685e-01	 2.989884458682492e+00	 7.284939941743577e+00
 1.839672812819505e-01	 2.994353921587396e+00	 7.238615810885905e+00
 1.221913168719891e-01	 2.997510455191895e+00	 7.227892914088890e+00
 6.085775408038051e-02	 2.999382640811116e+00	 7.259770837245052e+00
 0.000000000000000e+00	 3.000000000000000e+00	 7.340665012579320e+00
